 vasp.6.2.0 18Jan21 (build Jun 12 2021 23:27:24) complex

 executed on             LinuxIFC date 2022.05.28  02:08:54

 INCAR:
   ISMEAR = -5
   SIGMA = 0.1
   ISPIN = 1
   EDIFF = 1.d-5
   EDIFFG = -0.01
   NSW = 0
   NELM = 150
   ENCUT = 500
   ISIF = 2
   IBRION = 2
   LREAL = Auto
   ALGO = Fast
   ICHARG = 11
   LORBIT = 10
   LCHARG = .F.
   LWAVE = .F.

 POTCAR:    PAW_PBE Ag 02Apr2005
 POTCAR:    PAW_PBE Ir 06Sep2000
 POTCAR:    PAW_PBE C 08Apr2002
 POTCAR:    PAW_PBE O 08Apr2002
|           W    W    AA    RRRRR   N    N  II  N    N   GGGG   !!!           |
|           W    W   A  A   R    R  NN   N  II  NN   N  G    G  !!!           |
|           W    W  A    A  R    R  N N  N  II  N N  N  G       !!!           |
|           W WW W  AAAAAA  RRRRR   N  N N  II  N  N N  G  GGG   !            |
|           WW  WW  A    A  R   R   N   NN  II  N   NN  G    G                |
|           W    W  A    A  R    R  N    N  II  N    N   GGGG   !!!           |
|     For optimal performance we recommend to set                             |
|       NCORE = 2 up to number-of-cores-per-socket                            |
|     This setting can greatly improve the performance of VASP for DFT.       |
|     The default, NCORE=1 might be grossly inefficient on modern             |
|     multi-core architectures or massively parallel machines. Do your        |
|     Unfortunately you need to use the default for GW and RPA                |
|     calculations (for HF NCORE is supported but not extensively tested      |
|     yet).                                                                   |

 POTCAR:    PAW_PBE Ag 02Apr2005
   VRHFIN =Ag : s1 d10

   TITEL  = PAW_PBE Ag 02Apr2005
   POMASS =  107.868; ZVAL   =   11.000    mass and valenz
   ENMAX  =  249.844; ENMIN  =  187.383 eV

 POTCAR:    PAW_PBE Ir 06Sep2000
   VRHFIN =Ir: s1d8

   TITEL  = PAW_PBE Ir 06Sep2000
   POMASS =  192.220; ZVAL   =    9.000    mass and valenz
   ENMAX  =  210.864; ENMIN  =  158.148 eV

 POTCAR:    PAW_PBE C 08Apr2002
   VRHFIN =C: s2p2

[...]

 POTCAR:    PAW_PBE O 08Apr2002
   VRHFIN =O: s2p4

   TITEL  = PAW_PBE O 08Apr2002
   POMASS =   16.000; ZVAL   =    6.000    mass and valenz
   ENMAX  =  400.000; ENMIN  =  300.000 eV

 Optimization of the real space projectors (new method)

 maximal supplied QI-value         = 15.12
 optimisation between [QCUT,QGAM] = [ 11.34, 22.83] = [ 36.00,145.93] Ry
 Optimized for a Real-space Cutoff    1.43 Angstroem

   l    n(q)    QCUT    max X(q) W(low)/X(q) W(high)/X(q)  e(spline)
   2      9    11.338    53.897    0.16E-03    0.20E-03    0.28E-06
   2      9    11.338    52.416    0.16E-03    0.20E-03    0.29E-06
   0     10    11.338   122.045    0.31E-04    0.76E-04    0.15E-06
   0     10    11.338    73.629    0.30E-04    0.72E-04    0.15E-06
   1      9    11.338    15.255    0.20E-03    0.19E-04    0.17E-06
   1      9    11.338     9.562    0.16E-03    0.15E-04    0.14E-06
 Optimization of the real space projectors (new method)

[...]

   l    n(q)    QCUT    max X(q) W(low)/X(q) W(high)/X(q)  e(spline)
   0      7    11.310   115.676    0.43E-03    0.13E-02    0.19E-06
   0      7    11.310    87.132    0.43E-03    0.13E-02    0.18E-06
   1      6    11.310     4.429    0.42E-03    0.74E-03    0.11E-06
   1      6    11.310     2.733    0.34E-03    0.55E-03    0.92E-07
 Optimization of the real space projectors (new method)

 maximal supplied QI-value         = 24.76
 optimisation between [QCUT,QGAM] = [ 11.39, 22.77] = [ 36.31,145.25] Ry
 Optimized for a Real-space Cutoff    1.00 Angstroem

   l    n(q)    QCUT    max X(q) W(low)/X(q) W(high)/X(q)  e(spline)
   0      7    11.387    20.381    0.39E-03    0.13E-02    0.15E-06
   0      7    11.387    15.268    0.42E-03    0.14E-02    0.17E-06
   1      6    11.387     5.964    0.41E-03    0.11E-02    0.17E-06
   1      6    11.387     5.382    0.39E-03    0.87E-03    0.15E-06
  PAW_PBE Ag 02Apr2005                  :
  PAW_PBE Ir 06Sep2000                  :
  PAW_PBE C 08Apr2002                   :
  PAW_PBE O 08Apr2002                   :

 POSCAR: Ag-Ir-CO2
  positions in direct lattice
  velocities in cartesian coordinates
 exchange correlation table for  LEXCH =        8
   RHO(1)=    0.500       N(1)  =     2000
   RHO(2)=  100.500       N(2)  =     4000

 VTST: version 3.2, (02/03/18)

 CHAIN: initializing optimizer

 OPT: Using VASP Conjugate-Gradient optimizer
 CHAIN: Read ICHAIN            0

 POSCAR: Ag-Ir-CO2
  positions in direct lattice
  velocities in cartesian coordinates

 ion  position               nearest neighbor table
   1  0.000  0.000  0.217-   2 2.93   8 2.93   7 2.93   6 2.93   4 2.93  12 2.93  16 2.93  10 2.93
                             3 2.93
   2  0.333  0.000  0.217-   1 2.93   8 2.93   9 2.93   3 2.93   4 2.93   5 2.93  10 2.93  17 2.93
                            11 2.93
   3  0.667  0.000  0.217-   9 2.93   2 2.93   5 2.93  11 2.93   7 2.93  18 2.93   1 2.93   6 2.93
                            12 2.93
   4  0.000  0.333  0.217-   5 2.93   6 2.93   2 2.93   1 2.93   7 2.93  13 2.93  15 2.93   9 2.93
                            10 2.93
   5  0.333  0.333  0.217-   4 2.93   3 2.93   7 2.93   2 2.93   8 2.93  14 2.93  13 2.93  11 2.93
                             6 2.93
   6  0.667  0.333  0.217-   4 2.93   9 2.93   1 2.93  15 2.93   8 2.93  12 2.93   3 2.93   5 2.93
                            14 2.93
   7  0.000  0.667  0.217-   8 2.93   1 2.93   5 2.93   3 2.93   4 2.93  16 2.93  18 2.93  13 2.93
                             9 2.93
   8  0.333  0.667  0.217-   7 2.93   1 2.93   2 2.93   9 2.93   5 2.93  16 2.93   6 2.93  17 2.93
                            14 2.93
   9  0.667  0.667  0.217-   3 2.93   2 2.93   8 2.93   6 2.93  17 2.93   4 2.93  15 2.93   7 2.93
                            18 2.93
  10  0.111  0.111  0.315-  20 2.89  12 2.93  16 2.93  15 2.93  17 2.93  13 2.93  11 2.93   2 2.93
                             1 2.93   4 2.93  19 2.93  26 2.93
  11  0.444  0.111  0.315-  21 2.90  20 2.90  27 2.92  14 2.93  17 2.93  18 2.93   3 2.93  12 2.93
                            13 2.93  10 2.93   5 2.93   2 2.93
  12  0.778  0.111  0.315-  21 2.89  10 2.93  16 2.93  18 2.93  15 2.93  11 2.93   1 2.93  14 2.93
                             6 2.93   3 2.93  25 2.93  19 2.93
  13  0.111  0.444  0.315-  20 2.90  23 2.90  22 2.92  15 2.93  14 2.93  18 2.93  10 2.93  11 2.93
                            16 2.93   4 2.93   5 2.93   7 2.93
  14  0.444  0.444  0.315-  23 2.90  21 2.90  24 2.92  13 2.93  11 2.93  16 2.93   5 2.93  12 2.93
                            17 2.93   8 2.93  15 2.93   6 2.93
  15  0.778  0.444  0.315-  24 2.92  22 2.92  19 2.93  13 2.93  10 2.93  12 2.93  17 2.93  18 2.93
                             4 2.93   6 2.93   9 2.93  14 2.93
  16  0.111  0.778  0.315-  23 2.89  18 2.93  12 2.93  10 2.93  14 2.93  17 2.93  13 2.93   7 2.93
                             8 2.93   1 2.93  26 2.93  25 2.93
  17  0.444  0.778  0.315-  27 2.92  24 2.92  26 2.93  11 2.93  10 2.93   9 2.93  18 2.93  15 2.93
                            16 2.93   2 2.93  14 2.93   8 2.93
  18  0.778  0.778  0.315-  22 2.92  27 2.92  25 2.93  16 2.93  12 2.93  13 2.93  11 2.93  17 2.93
                            15 2.93   7 2.93   3 2.93   9 2.93
  19  0.888  0.223  0.413-  28 2.90  24 2.92  22 2.92  15 2.93  20 2.93  21 2.93  10 2.93  12 2.93
                            32 2.94  31 2.94  26 2.94  25 2.94
  20  0.222  0.222  0.412-  36 2.77  10 2.89  13 2.90  11 2.90  31 2.92  29 2.92  19 2.93  26 2.93
                            27 2.93  22 2.93  21 2.94  23 2.94
  21  0.556  0.222  0.412-  36 2.77  12 2.89  11 2.90  14 2.90  30 2.92  32 2.92  25 2.93  19 2.93
                            27 2.93  24 2.93  20 2.94  23 2.94
  22  0.888  0.556  0.413-  35 2.90  18 2.92  15 2.92  13 2.92  24 2.92  27 2.92  25 2.92  19 2.92
                            33 2.93  31 2.93  23 2.93  20 2.93
  23  0.222  0.556  0.412-  36 2.77  16 2.89  14 2.90  13 2.90  34 2.92  33 2.92  26 2.93  25 2.93
                            22 2.93  24 2.93  21 2.94  20 2.94
  24  0.556  0.556  0.413-  35 2.90  15 2.92  17 2.92  14 2.92  27 2.92  22 2.92  19 2.92  26 2.92
                            32 2.93  34 2.93  23 2.93  21 2.93
  25  0.888  0.888  0.413-  28 2.90  22 2.92  27 2.92  18 2.93  23 2.93  21 2.93  16 2.93  12 2.93
                            33 2.94  30 2.94  26 2.94  19 2.94
  26  0.223  0.888  0.413-  28 2.90  27 2.92  24 2.92  17 2.93  23 2.93  20 2.93  16 2.93  10 2.93
                            34 2.94  29 2.94  25 2.94  19 2.94
  27  0.556  0.888  0.413-  35 2.90  17 2.92  18 2.92  11 2.92  24 2.92  22 2.92  26 2.92  25 2.92
                            29 2.93  30 2.93  20 2.93  21 2.93
  28  0.000  0.000  0.510-  26 2.90  25 2.90  19 2.90  29 2.96  34 2.96  33 2.96  32 2.96  31 2.96
                            30 2.96
  29  0.333  0.007  0.511-  31 2.87  30 2.88  36 2.88  20 2.92  27 2.93  26 2.94  28 2.96  35 2.96
                            34 3.04
  30  0.660  0.007  0.511-  32 2.87  29 2.88  36 2.88  21 2.92  27 2.93  25 2.94  28 2.96  35 2.96
                            33 3.04
  31  0.007  0.333  0.511-  29 2.87  33 2.88  36 2.88  20 2.92  22 2.93  19 2.94  28 2.96  35 2.96
                            32 3.04
  32  0.660  0.333  0.511-  30 2.87  34 2.88  36 2.88  21 2.92  24 2.93  19 2.94  28 2.96  35 2.96
                            31 3.04
  33  0.007  0.660  0.511-  34 2.87  31 2.88  36 2.88  23 2.92  22 2.93  25 2.94  28 2.96  35 2.96
                            30 3.04
  34  0.333  0.660  0.511-  33 2.87  32 2.88  36 2.88  23 2.92  24 2.93  26 2.94  28 2.96  35 2.96
                            29 3.04
  35  0.667  0.667  0.510-  24 2.90  27 2.90  22 2.90  30 2.96  32 2.96  29 2.96  34 2.96  31 2.96
                            33 2.96
  36  0.333  0.333  0.501-  37 2.06  21 2.77  20 2.77  23 2.77  31 2.88  30 2.88  33 2.88  29 2.88
                            34 2.88  32 2.88
  37  0.335  0.334  0.586-  38 1.25  39 1.25  36 2.06
  38  0.203  0.333  0.605-  37 1.25
  39  0.467  0.334  0.605-  37 1.25

  LATTYP: Found a hexagonal cell.
 ALAT       =     8.7913665772
 C/A-ratio  =     2.7703738524

  Lattice vectors:

 A1 = (  -4.3956832886,  -7.6135467898,   0.0000000000)
 A2 = (   8.7913665771,   0.0000000000,   0.0000000000)
 A3 = (   0.0000000000,   0.0000000000,  24.3553720923)

Analysis of symmetry for initial positions (statically):
 Subroutine PRICEL returns:
 Original cell was already a primitive cell.

 Routine SETGRP: Setting up the symmetry group for a
 hexagonal supercell.

 Subroutine GETGRP returns: Found  1 space group operations
 (whereof  1 operations were pure point group operations)
 out of a pool of 24 trial point group operations.

The static configuration has the point symmetry C_1 .

Analysis of symmetry for dynamics (positions and initial velocities):
 Subroutine PRICEL returns:
 Original cell was already a primitive cell.

[...]

The dynamic configuration has the point symmetry C_1 .

Analysis of constrained symmetry for selective dynamics:
 Subroutine PRICEL returns:
 Original cell was already a primitive cell.

 Routine SETGRP: Setting up the symmetry group for a
[...]
     41      -5.0448      2.00000
     42      -5.0263      2.00000
     43      -4.9948      2.00000
     44      -4.9655      2.00000
     45      -4.9632      2.00000
     46      -4.9436      2.00000
     47      -4.9366      2.00000
     48      -4.9289      2.00000
     49      -4.8494      2.00000
     50      -4.8242      2.00000
     51      -4.8120      2.00000
     52      -4.7978      2.00000
     53      -4.7957      2.00000
     54      -4.7922      2.00000
     55      -4.7809      2.00000
     56      -4.7734      2.00000
     57      -4.7621      2.00000
     58      -4.7583      2.00000
     59      -4.6788      2.00000
     60      -4.6721      2.00000
[...]
    238       5.3222      0.00000
    239       5.4501      0.00000
    240       5.6534      0.00000
    241       5.7145      0.00000
    242       5.7328      0.00000
    243       5.8375      0.00000
    244       5.8499      0.00000
    245       5.8776      0.00000
    246       6.0977      0.00000
    247       6.6161      0.00000
    248       6.6384      0.00000
    249       6.6406      0.00000
    250       6.7168      0.00000
    251       6.7495      0.00000
    252       6.7805      0.00000

 soft charge-density along one line, spin component           1
         0         1         2         3         4         5         6         7         8         9
 total charge-density along one line

------------------------ aborting loop because EDIFF is reached ----------------------------------------

 total charge

# of ion       s       p       d       tot
    1        0.416   0.203   9.177   9.797
    2        0.417   0.203   9.177   9.796
    3        0.417   0.203   9.177   9.796
    4        0.417   0.203   9.178   9.797
    5        0.418   0.201   9.178   9.797
    6        0.417   0.203   9.178   9.797
    7        0.417   0.203   9.177   9.797
    8        0.417   0.203   9.177   9.797
    9        0.415   0.203   9.178   9.796
   10        0.406   0.271   9.164   9.841
   11        0.406   0.271   9.166   9.842
   12        0.406   0.271   9.164   9.841
   13        0.406   0.270   9.166   9.843
   14        0.406   0.270   9.166   9.843
   15        0.404   0.270   9.165   9.839
   16        0.404   0.270   9.165   9.840
   17        0.404   0.269   9.166   9.839
   18        0.404   0.269   9.166   9.839
   19        0.399   0.269   9.166   9.834
   20        0.415   0.295   9.157   9.867
   21        0.415   0.295   9.157   9.867
   22        0.397   0.272   9.169   9.838
   23        0.415   0.290   9.161   9.866
   24        0.397   0.272   9.169   9.837
   25        0.402   0.267   9.167   9.836
   26        0.402   0.267   9.167   9.836
   27        0.398   0.271   9.170   9.839
   28        0.415   0.193   9.184   9.792
   29        0.408   0.208   9.179   9.795
   30        0.408   0.208   9.179   9.795
   31        0.390   0.210   9.181   9.781
   32        0.389   0.211   9.181   9.781
   33        0.408   0.208   9.179   9.795
   34        0.408   0.208   9.179   9.795
   35        0.406   0.197   9.183   9.786
   36        0.617   0.362   7.210   8.189
   37        0.882   1.683   0.000   2.564
   38        1.597   3.482   0.000   5.078
   39        1.596   3.482   0.000   5.079
tot         18.959  17.405 328.220 364.584

  FORCE on cell =-STRESS in cart. coord.  units (eV):
  Direction    XX          YY          ZZ          XY          YZ          ZX
  Alpha Z   729.34575   729.34575   729.34575
  Ewald  153904.14658153202.25957************     0.18330    -0.19015    -2.31434
  Hartree163915.38157163554.37914************     0.07298    -0.03708    -1.49711
  E(xc)   -2144.21261 -2146.06951 -2150.65039     0.00014     0.01190    -0.00938
  Local  ************************328137.82345    -0.23431     0.31234     3.71136
  n-local  -390.09008  -384.68905  -391.17196     0.00309     0.02936     0.07888
  augment  3271.07005  3273.20824  3281.88576    -0.00571    -0.03616    -0.01104
  Kinetic  5182.73080  5227.72634  5243.63782    -0.00738    -0.21989     0.07460
  Fock        0.00000     0.00000     0.00000     0.00000     0.00000     0.00000
  Total      -7.57431    -6.94742    -0.14432     0.01212    -0.12969     0.03298
  in kB      -7.44415    -6.82804    -0.14184     0.01191    -0.12746     0.03241

 VOLUME and BASIS-vectors are now :
  energy-cutoff  :      500.00
  volume of cell :     1630.19
      direct lattice vectors                 reciprocal lattice vectors
     8.791366577  0.000000000  0.000000000     0.113747958 -0.065672414  0.000000000
     4.395683289  7.613546790  0.000000000     0.000000000  0.131344829  0.000000000
     0.000000000  0.000000000 24.355372092     0.000000000  0.000000000  0.041058703

  length of vectors
     8.791366577  8.791366577 24.355372092     0.131344829  0.131344829  0.041058703

 FORCES acting on ions
    electron-ion (+dipol)            ewald-force                    non-local-force                 convergence-correction
   -.345E-02 0.923E-01 0.272E+04   0.164E-02 -.412E-01 -.272E+04   0.176E-02 -.482E-01 -.200E+01   -.146E-03 -.169E-02 -.319E+00
   0.516E+00 0.606E+00 0.272E+04   -.621E+00 -.681E+00 -.272E+04   0.458E-02 0.186E-01 -.175E+01   0.992E-01 0.563E-01 -.261E+00
   -.513E+00 0.602E+00 0.272E+04   0.619E+00 -.684E+00 -.272E+04   -.488E-02 0.153E-01 -.175E+01   -.100E+00 0.662E-01 -.255E+00
   0.711E+00 0.214E+00 0.272E+04   -.864E+00 -.217E+00 -.272E+04   0.747E-01 -.554E-02 -.174E+01   0.744E-01 0.114E-01 -.251E+00
   -.130E-01 -.161E-01 0.272E+04   -.347E-02 -.811E-03 -.272E+04   -.118E-02 0.110E-01 -.165E+01   0.178E-01 0.397E-02 -.195E+00
   -.702E+00 0.207E+00 0.272E+04   0.867E+00 -.217E+00 -.272E+04   -.761E-01 -.505E-02 -.173E+01   -.854E-01 0.182E-01 -.241E+00
   0.162E+00 -.799E+00 0.272E+04   -.246E+00 0.898E+00 -.272E+04   0.313E-01 -.172E-01 -.170E+01   0.475E-01 -.810E-01 -.216E+00
   -.167E+00 -.792E+00 0.272E+04   0.244E+00 0.901E+00 -.272E+04   -.337E-01 -.187E-01 -.169E+01   -.383E-01 -.892E-01 -.214E+00
   0.113E-01 -.138E+00 0.272E+04   0.187E-02 0.420E-01 -.272E+04   0.312E-02 0.599E-01 -.185E+01   -.167E-01 0.329E-01 -.226E+00
   0.711E+01 0.453E+01 0.983E+03   -.704E+01 -.439E+01 -.982E+03   -.210E+00 -.161E+00 -.746E+00   0.118E+00 0.236E-01 0.145E+00
   0.898E-02 0.655E+01 0.992E+03   -.194E-01 -.657E+01 -.991E+03   -.712E-02 -.308E-01 -.719E+00   0.183E-01 0.403E-01 0.125E+00
   -.712E+01 0.454E+01 0.983E+03   0.705E+01 -.441E+01 -.982E+03   0.218E+00 -.164E+00 -.753E+00   -.130E+00 0.347E-01 0.148E+00
   0.522E+01 -.335E+01 0.992E+03   -.540E+01 0.333E+01 -.991E+03   0.404E-01 0.155E-01 -.635E+00   0.112E+00 0.171E-01 0.142E+00
   -.521E+01 -.336E+01 0.992E+03   0.537E+01 0.334E+01 -.991E+03   -.489E-01 0.162E-01 -.634E+00   -.829E-01 0.127E-01 0.146E+00
   -.830E-02 0.100E+01 0.984E+03   0.237E-01 -.122E+01 -.983E+03   -.860E-03 0.920E-01 -.765E+00   -.147E-01 0.961E-01 0.140E+00
   0.660E-03 -.826E+01 0.982E+03   -.463E-02 0.824E+01 -.982E+03   0.387E-03 0.193E+00 -.659E+00   0.396E-02 -.154E+00 0.119E+00
   0.106E+01 -.819E+00 0.983E+03   -.124E+01 0.854E+00 -.982E+03   0.885E-01 0.501E-02 -.645E+00   0.575E-01 -.348E-01 0.995E-01
   -.107E+01 -.812E+00 0.983E+03   0.124E+01 0.829E+00 -.982E+03   -.851E-01 0.691E-02 -.643E+00   -.607E-01 -.190E-01 0.999E-01
   -.151E+00 0.616E+01 -.794E+03   0.165E+00 -.628E+01 0.793E+03   0.546E-02 0.439E-01 0.629E+00   -.205E-01 0.636E-01 0.460E+00
   0.189E+02 0.127E+02 -.737E+03   -.183E+02 -.124E+02 0.738E+03   -.792E+00 -.432E+00 -.779E+00   0.119E+00 0.104E+00 0.435E+00
   -.188E+02 0.128E+02 -.737E+03   0.182E+02 -.125E+02 0.737E+03   0.807E+00 -.440E+00 -.804E+00   -.106E+00 0.113E+00 0.431E+00
   0.848E+01 -.704E+01 -.779E+03   -.884E+01 0.736E+01 0.778E+03   0.330E+00 -.254E+00 0.615E+00   0.397E-01 -.767E-01 0.386E+00
   0.122E+00 -.242E+02 -.740E+03   -.139E+00 0.238E+02 0.740E+03   0.298E-02 0.760E+00 -.544E+00   0.161E-01 -.174E+00 0.391E+00
   -.859E+01 -.716E+01 -.779E+03   0.898E+01 0.749E+01 0.778E+03   -.330E+00 -.253E+00 0.608E+00   -.682E-01 -.847E-01 0.386E+00
   -.422E+01 -.146E+01 -.797E+03   0.422E+01 0.149E+01 0.796E+03   0.982E-02 -.172E-01 0.630E+00   -.132E-01 -.461E-02 0.408E+00
   0.420E+01 -.160E+01 -.797E+03   -.420E+01 0.165E+01 0.796E+03   -.584E-02 -.179E-01 0.633E+00   -.912E-03 -.217E-01 0.411E+00
   0.319E-01 0.103E+02 -.782E+03   -.284E-01 -.106E+02 0.781E+03   0.346E-02 0.297E+00 0.670E+00   -.751E-02 0.463E-01 0.334E+00
   -.364E+00 0.103E+02 -.256E+04   0.368E+00 -.102E+02 0.256E+04   -.256E-02 -.129E+00 0.223E+01   -.918E-03 0.210E-01 0.293E+00
   0.385E+02 0.886E+02 -.253E+04   -.379E+02 -.884E+02 0.253E+04   -.707E+00 -.490E+00 0.226E+01   0.544E-02 0.891E-01 0.286E+00
   -.381E+02 0.897E+02 -.253E+04   0.375E+02 -.895E+02 0.253E+04   0.711E+00 -.486E+00 0.226E+01   -.454E-02 0.102E+00 0.283E+00
   0.102E+03 -.487E+00 -.250E+04   -.102E+03 0.595E+00 0.250E+04   -.227E+00 -.112E+00 0.271E+01   0.964E-01 0.163E-01 0.227E+00
   -.104E+03 -.466E+00 -.250E+04   0.104E+03 0.569E+00 0.249E+04   0.230E+00 -.112E+00 0.272E+01   -.105E+00 0.209E-01 0.219E+00
   0.398E+02 -.882E+02 -.253E+04   -.394E+02 0.879E+02 0.253E+04   -.448E+00 0.586E+00 0.224E+01   0.206E-01 -.112E+00 0.262E+00
   -.394E+02 -.893E+02 -.253E+04   0.390E+02 0.890E+02 0.253E+04   0.451E+00 0.582E+00 0.225E+01   -.936E-02 -.118E+00 0.255E+00
   -.365E+00 -.104E+02 -.256E+04   0.380E+00 0.103E+02 0.256E+04   0.347E-02 0.115E+00 0.232E+01   -.185E-01 -.539E-01 0.275E+00
   0.140E+01 0.454E+00 -.178E+04   -.138E+01 -.443E+00 0.178E+04   -.426E-01 -.102E+00 0.138E+00   0.103E-01 0.169E-01 0.124E+00
   0.212E+00 -.159E+01 -.100E+04   -.197E+00 0.164E+01 0.999E+03   -.181E-01 -.566E-01 0.474E+01   0.123E-02 0.173E-02 0.180E-01
   0.231E+03 0.590E+00 -.169E+04   -.277E+03 -.790E+00 0.171E+04   0.461E+02 0.203E+00 -.210E+02   -.129E-01 -.117E-02 -.319E-01
   -.231E+03 0.437E+00 -.169E+04   0.277E+03 -.612E+00 0.171E+04   -.461E+02 0.173E+00 -.208E+02   0.183E-01 0.233E-02 -.472E-01
   0.288E-01 0.167E+00 0.334E+02   0.114E-12 -.401E-13 0.568E-11   -.136E-01 -.160E+00 -.384E+02   -.206E-01 -.149E-01 0.479E+01

 POSITION                                       TOTAL-FORCE (eV/Angst)
      0.00000      0.00000      5.28219        -0.000059      0.001370      0.040374
      2.93046      0.00000      5.28219        -0.000588      0.000012      0.036582
      5.86091      0.00000      5.28219         0.001070      0.000357      0.035951
      1.46523      2.53785      5.28219        -0.003394      0.002917      0.029767
      4.39568      2.53785      5.28219         0.000306     -0.001820      0.000822
      7.32614      2.53785      5.28219         0.003673      0.002495      0.028915
      2.93046      5.07570      5.28219        -0.004648      0.000979      0.033188
      5.86091      5.07570      5.28219         0.005017      0.001212      0.032971
      8.79137      5.07570      5.28219        -0.000292     -0.003142      0.026808
      1.46523      0.84595      7.67490        -0.018603     -0.000804      0.017612
      4.39568      0.84595      7.67490         0.000924     -0.012829     -0.062878
      7.32614      0.84595      7.67490         0.017851     -0.000176      0.018495
      2.93046      3.38380      7.67490        -0.028135      0.009484     -0.070219
      5.86091      3.38380      7.67490         0.028855      0.009020     -0.071580
      8.79137      3.38380      7.67490        -0.000092     -0.032018     -0.005017
      4.39568      5.92165      7.67490         0.000522      0.020492      0.012359
      7.32614      5.92165      7.67490        -0.026290      0.005165     -0.000021
     10.25659      5.92165      7.67490         0.026344      0.005805      0.000053
      8.79137      1.70006     10.06849        -0.001242     -0.004883      0.049037
      2.92657      1.68966     10.02287        -0.078486     -0.033779     -0.100212
      5.86479      1.68966     10.02287         0.071905     -0.028629     -0.094070
     10.25237      4.23218     10.05185         0.011476     -0.008992      0.008404
      4.39568      4.23423     10.02287         0.001836      0.116071     -0.142358
      7.33036      4.23218     10.05185        -0.010301     -0.008928      0.009212
     11.71475      6.76352     10.06849         0.005581      0.005510      0.007367
      5.86798      6.76352     10.06849        -0.005154      0.005349      0.007093
      8.79137      6.76272     10.05185        -0.000442      0.026061      0.002948
      0.00000      0.00000     12.42216         0.000673     -0.015701      0.000423
      2.95716      0.04978     12.43839        -0.031067     -0.179135     -0.066411
      5.83420      0.04978     12.43839         0.031037     -0.181232     -0.067501
      1.52169      2.53609     12.43839        -0.131378      0.012450      0.082456
      7.26967      2.53609     12.43839         0.132998      0.012323      0.091278
      2.96021      5.02768     12.43839        -0.048094      0.163372     -0.062566
      5.83115      5.02768     12.43839         0.048153      0.166021     -0.063263
      8.79137      5.07570     12.41166         0.000605      0.020581      0.000820
      4.39568      2.53785     12.21369        -0.005582     -0.073563      0.262995
      4.40953      2.54399     14.26927        -0.001634     -0.004401     -0.063318
      3.25120      2.53906     14.73026        -0.010582      0.002860      0.013062
      5.57053      2.53977     14.72464         0.017236      0.000126      0.020423
    total drift:                               -0.005401     -0.007581     -0.207466

  FREE ENERGIE OF THE ION-ELECTRON SYSTEM (eV)
  free  energy   TOTEN  =      -118.95303746 eV

  energy  without entropy=     -118.95303746  energy(sigma->0) =     -118.95303746

 stress matrix after NEB project (eV)
     -7.57431      0.01212      0.03298
      0.01212     -6.94742     -0.12969
      0.03298     -0.12969     -0.14432
  FORCES: max atom, RMS     0.063492    0.011364
  FORCE total and by dimension    0.070966    0.063318
  Stress total and by dimension   10.280744    7.574306
|           W    W    AA    RRRRR   N    N  II  N    N   GGGG   !!!           |
|           W    W   A  A   R    R  NN   N  II  NN   N  G    G  !!!           |
|           W    W  A    A  R    R  N N  N  II  N N  N  G       !!!           |
|           W WW W  AAAAAA  RRRRR   N  N N  II  N  N N  G  GGG   !            |
|           WW  WW  A    A  R   R   N   NN  II  N   NN  G    G                |
|           W    W  A    A  R    R  N    N  II  N    N   GGGG   !!!           |
|     Tetrahedron method does not include variations of the Fermi             |
|     occupations, so forces and stress will be inaccurate. We suggest        |
|     using a different smearing scheme ISMEAR = 1 or 2 for metals in         |
|     relaxations.                                                            |

 total charge

# of ion       s       p       d       tot
    1        0.416   0.203   9.177   9.797
    2        0.417   0.203   9.177   9.796
    3        0.417   0.203   9.177   9.796
    4        0.417   0.203   9.178   9.797
    5        0.418   0.201   9.178   9.797
    6        0.417   0.203   9.178   9.797
    7        0.417   0.203   9.177   9.797
    8        0.417   0.203   9.177   9.797
    9        0.415   0.203   9.178   9.796
   10        0.406   0.271   9.164   9.841
   11        0.406   0.271   9.166   9.842
   12        0.406   0.271   9.164   9.841
   13        0.406   0.270   9.166   9.843
   14        0.406   0.270   9.166   9.843
   15        0.404   0.270   9.165   9.839
   16        0.404   0.270   9.165   9.840
   17        0.404   0.269   9.166   9.839
   18        0.404   0.269   9.166   9.839
   19        0.399   0.269   9.166   9.834
   20        0.415   0.295   9.157   9.867
   21        0.415   0.295   9.157   9.867
   22        0.397   0.272   9.169   9.838
   23        0.415   0.290   9.161   9.866
   24        0.397   0.272   9.169   9.837
   25        0.402   0.267   9.167   9.836
   26        0.402   0.267   9.167   9.836
   27        0.398   0.271   9.170   9.839
   28        0.415   0.193   9.184   9.792
   29        0.408   0.208   9.179   9.795
   30        0.408   0.208   9.179   9.795
   31        0.390   0.210   9.181   9.781
   32        0.389   0.211   9.181   9.781
   33        0.408   0.208   9.179   9.795
   34        0.408   0.208   9.179   9.795
   35        0.406   0.197   9.183   9.786
   36        0.617   0.362   7.210   8.189
   37        0.882   1.683   0.000   2.564
   38        1.597   3.482   0.000   5.078
   39        1.596   3.482   0.000   5.079
tot         18.959  17.405 328.220 364.584

 BZINTS: Fermi energy:    0.160644;  410.000000 electrons
         Band energy:-0.166055E+04;  BLOECHL correction:   -0.060212