 vasp.6.2.0 18Jan21 (build Jun 12 2021 23:27:24) complex

 executed on             LinuxIFC date 2022.05.26  19:48:41

 INCAR:
   ISMEAR = -5
   SIGMA = 0.1
   ISPIN = 1
   EDIFF = 1.d-5
   EDIFFG = -0.01
   NSW = 0
   NELM = 150
   ENCUT = 500
   ISIF = 2
   IBRION = 2
   LREAL = Auto
   ALGO = Fast
   ICHARG = 11
   LORBIT = 10
   LCHARG = .F.
   LWAVE = .F.

 POTCAR:    PAW_PBE Ag 02Apr2005
 POTCAR:    PAW_PBE Rh 04Feb2005
 POTCAR:    PAW_PBE N 08Apr2002
|           W    W    AA    RRRRR   N    N  II  N    N   GGGG   !!!           |
|           W    W   A  A   R    R  NN   N  II  NN   N  G    G  !!!           |
|           W    W  A    A  R    R  N N  N  II  N N  N  G       !!!           |
|           W WW W  AAAAAA  RRRRR   N  N N  II  N  N N  G  GGG   !            |
|           WW  WW  A    A  R   R   N   NN  II  N   NN  G    G                |
|           W    W  A    A  R    R  N    N  II  N    N   GGGG   !!!           |
|     For optimal performance we recommend to set                             |
|       NCORE = 2 up to number-of-cores-per-socket                            |
|     This setting can greatly improve the performance of VASP for DFT.       |
|     The default, NCORE=1 might be grossly inefficient on modern             |
|     multi-core architectures or massively parallel machines. Do your        |
|     Unfortunately you need to use the default for GW and RPA                |
|     calculations (for HF NCORE is supported but not extensively tested      |
|     yet).                                                                   |

 POTCAR:    PAW_PBE Ag 02Apr2005
   VRHFIN =Ag : s1 d10

   TITEL  = PAW_PBE Ag 02Apr2005
   POMASS =  107.868; ZVAL   =   11.000    mass and valenz
   ENMAX  =  249.844; ENMIN  =  187.383 eV

 POTCAR:    PAW_PBE Rh 04Feb2005
   VRHFIN =Rh: s1 d8

   TITEL  = PAW_PBE Rh 04Feb2005
   POMASS =  102.906; ZVAL   =    9.000    mass and valenz
   ENMAX  =  228.996; ENMIN  =  171.747 eV

 POTCAR:    PAW_PBE N 08Apr2002
   VRHFIN =N: s2p3

   TITEL  = PAW_PBE N 08Apr2002
   POMASS =   14.001; ZVAL   =    5.000    mass and valenz
   ENMAX  =  400.000; ENMIN  =  300.000 eV

 Optimization of the real space projectors (new method)

 maximal supplied QI-value         = 15.12
 optimisation between [QCUT,QGAM] = [ 11.34, 22.83] = [ 36.00,145.93] Ry
 Optimized for a Real-space Cutoff    1.43 Angstroem

   l    n(q)    QCUT    max X(q) W(low)/X(q) W(high)/X(q)  e(spline)
   2      9    11.338    53.897    0.16E-03    0.20E-03    0.28E-06
   2      9    11.338    52.416    0.16E-03    0.20E-03    0.29E-06
   0     10    11.338   122.045    0.31E-04    0.76E-04    0.15E-06
   0     10    11.338    73.629    0.30E-04    0.72E-04    0.15E-06
   1      9    11.338    15.255    0.20E-03    0.19E-04    0.17E-06
   1      9    11.338     9.562    0.16E-03    0.15E-04    0.14E-06
 Optimization of the real space projectors (new method)

[...]

   l    n(q)    QCUT    max X(q) W(low)/X(q) W(high)/X(q)  e(spline)
   2      9    11.327    59.645    0.31E-03    0.12E-04    0.28E-06
   2      9    11.327    58.460    0.31E-03    0.12E-04    0.29E-06
   0     10    11.327    97.683    0.32E-04    0.83E-04    0.31E-06
   0     10    11.327    53.223    0.30E-04    0.78E-04    0.29E-06
   1     10    11.327    13.596    0.49E-03    0.95E-03    0.55E-06
   1     10    11.327     7.885    0.36E-03    0.71E-03    0.41E-06
 Optimization of the real space projectors (new method)

 maximal supplied QI-value         = 25.13
 optimisation between [QCUT,QGAM] = [ 11.31, 22.87] = [ 35.82,146.48] Ry
 Optimized for a Real-space Cutoff    1.27 Angstroem

   l    n(q)    QCUT    max X(q) W(low)/X(q) W(high)/X(q)  e(spline)
   0      9    11.310    79.467    0.75E-04    0.16E-03    0.36E-06
   0      9    11.310    66.151    0.74E-04    0.16E-03    0.36E-06
   1      8    11.310    17.416    0.35E-03    0.12E-03    0.95E-06
   1      8    11.310    12.382    0.37E-03    0.13E-03    0.98E-06
  PAW_PBE Ag 02Apr2005                  :
  PAW_PBE Rh 04Feb2005                  :
  PAW_PBE N 08Apr2002                   :

 POSCAR: Ag-Rh-N
  positions in direct lattice
  velocities in cartesian coordinates
 exchange correlation table for  LEXCH =        8
   RHO(1)=    0.500       N(1)  =     2000
   RHO(2)=  100.500       N(2)  =     4000

 VTST: version 3.2, (02/03/18)

 CHAIN: initializing optimizer

 OPT: Using VASP Conjugate-Gradient optimizer
 CHAIN: Read ICHAIN            0

 POSCAR: Ag-Rh-N
  positions in direct lattice
  velocities in cartesian coordinates

 ion  position               nearest neighbor table
   1  0.000  0.000  0.238-   2 2.93   8 2.93   7 2.93   6 2.93   4 2.93  12 2.93  16 2.93  10 2.93
                             3 2.93
   2  0.333  0.000  0.238-   1 2.93   8 2.93   9 2.93   3 2.93   4 2.93   5 2.93  10 2.93  17 2.93
                            11 2.93
   3  0.667  0.000  0.238-   9 2.93   2 2.93   5 2.93  11 2.93   7 2.93  18 2.93   1 2.93   6 2.93
                            12 2.93
   4  0.000  0.333  0.238-   5 2.93   6 2.93   2 2.93   1 2.93   7 2.93  13 2.93  15 2.93   9 2.93
                            10 2.93
   5  0.333  0.333  0.238-   4 2.93   3 2.93   7 2.93   2 2.93   8 2.93  14 2.93  13 2.93  11 2.93
                             6 2.93
   6  0.667  0.333  0.238-   4 2.93   9 2.93   1 2.93  15 2.93   8 2.93  12 2.93   3 2.93   5 2.93
                            14 2.93
   7  0.000  0.667  0.238-   8 2.93   1 2.93   5 2.93   3 2.93   4 2.93  16 2.93  18 2.93  13 2.93
                             9 2.93
   8  0.333  0.667  0.238-   7 2.93   1 2.93   2 2.93   9 2.93   5 2.93  16 2.93   6 2.93  17 2.93
                            14 2.93
   9  0.667  0.667  0.238-   3 2.93   2 2.93   8 2.93   6 2.93  17 2.93   4 2.93  15 2.93   7 2.93
                            18 2.93
  10  0.111  0.111  0.346-  20 2.90  19 2.93  26 2.93  12 2.93  16 2.93  15 2.93  17 2.93  13 2.93
                            11 2.93   2 2.93   1 2.93   4 2.93
  11  0.444  0.111  0.346-  21 2.90  20 2.90  27 2.92  14 2.93  17 2.93  18 2.93   3 2.93  12 2.93
                            13 2.93  10 2.93   5 2.93   2 2.93
  12  0.778  0.111  0.346-  21 2.90  25 2.93  19 2.93  10 2.93  16 2.93  18 2.93  15 2.93  11 2.93
                             1 2.93  14 2.93   6 2.93   3 2.93
  13  0.111  0.444  0.346-  20 2.90  23 2.90  22 2.92  15 2.93  14 2.93  18 2.93  10 2.93  11 2.93
                            16 2.93   4 2.93   5 2.93   7 2.93
  14  0.444  0.444  0.346-  23 2.90  21 2.90  24 2.92  13 2.93  11 2.93  16 2.93   5 2.93  12 2.93
                            17 2.93   8 2.93  15 2.93   6 2.93
  15  0.778  0.444  0.346-  24 2.92  22 2.92  19 2.92  13 2.93  10 2.93  12 2.93  17 2.93  18 2.93
                             4 2.93   6 2.93   9 2.93  14 2.93
  16  0.111  0.778  0.346-  23 2.90  26 2.93  25 2.93  18 2.93  12 2.93  10 2.93  14 2.93  17 2.93
                            13 2.93   7 2.93   8 2.93   1 2.93
  17  0.444  0.778  0.346-  27 2.92  24 2.92  26 2.92  11 2.93  10 2.93   9 2.93  18 2.93  15 2.93
                            16 2.93   2 2.93  14 2.93   8 2.93
  18  0.778  0.778  0.346-  22 2.92  27 2.92  25 2.92  16 2.93  12 2.93  13 2.93  11 2.93  17 2.93
                            15 2.93   7 2.93   3 2.93   9 2.93
  19  0.889  0.223  0.454-  28 2.91  15 2.92  10 2.93  12 2.93  24 2.93  22 2.93  32 2.93  31 2.93
                            20 2.93  21 2.93  26 2.94  25 2.94
  20  0.222  0.222  0.452-  36 2.78  13 2.90  11 2.90  10 2.90  31 2.91  29 2.91  21 2.92  23 2.92
                            27 2.93  22 2.93  19 2.93  26 2.93
  21  0.555  0.222  0.452-  36 2.78  11 2.90  14 2.90  12 2.90  30 2.91  32 2.91  20 2.92  23 2.92
                            27 2.93  24 2.93  25 2.93  19 2.93
  22  0.889  0.556  0.453-  35 2.90  18 2.92  15 2.92  13 2.92  33 2.92  31 2.92  25 2.93  19 2.93
                            24 2.93  27 2.93  23 2.93  20 2.93
  23  0.222  0.555  0.452-  36 2.78  14 2.90  13 2.90  16 2.90  34 2.91  33 2.91  21 2.92  20 2.92
                            22 2.93  24 2.93  26 2.93  25 2.93
  24  0.556  0.556  0.453-  35 2.90  15 2.92  17 2.92  14 2.92  32 2.92  34 2.92  19 2.93  26 2.93
                            27 2.93  22 2.93  23 2.93  21 2.93
  25  0.889  0.889  0.454-  28 2.91  18 2.92  16 2.93  12 2.93  22 2.93  27 2.93  33 2.93  30 2.93
                            23 2.93  21 2.93  26 2.94  19 2.94
  26  0.223  0.889  0.454-  28 2.91  17 2.92  16 2.93  10 2.93  27 2.93  24 2.93  34 2.93  29 2.93
                            23 2.93  20 2.93  25 2.94  19 2.94
  27  0.556  0.889  0.453-  35 2.90  17 2.92  18 2.92  11 2.92  29 2.92  30 2.92  26 2.93  25 2.93
                            24 2.93  22 2.93  20 2.93  21 2.93
  28  0.000  0.000  0.560-  26 2.91  25 2.91  19 2.91  29 2.95  34 2.95  33 2.95  32 2.95  31 2.95
                            30 2.95
  29  0.333  0.005  0.560-  31 2.88  30 2.89  36 2.89  20 2.91  27 2.92  26 2.93  28 2.95  35 2.95
                            34 3.02
  30  0.662  0.005  0.560-  32 2.88  29 2.89  36 2.89  21 2.91  27 2.92  25 2.93  28 2.95  35 2.95
                            33 3.02
  31  0.005  0.333  0.560-  29 2.88  33 2.89  36 2.89  20 2.91  22 2.92  19 2.93  28 2.95  35 2.95
                            32 3.02
  32  0.662  0.333  0.560-  30 2.88  34 2.89  36 2.89  21 2.91  24 2.92  19 2.93  28 2.95  35 2.95
                            31 3.02
  33  0.005  0.662  0.560-  34 2.88  31 2.89  36 2.89  23 2.91  22 2.92  25 2.93  28 2.95  35 2.95
                            30 3.02
  34  0.333  0.662  0.560-  33 2.88  32 2.89  36 2.89  23 2.91  24 2.92  26 2.93  28 2.95  35 2.95
                            29 3.02
  35  0.667  0.667  0.560-  24 2.90  27 2.90  22 2.90  30 2.95  32 2.95  29 2.95  34 2.95  31 2.95
                            33 2.95
  36  0.333  0.333  0.552-  37 1.68  21 2.78  20 2.78  23 2.78  31 2.89  30 2.89  33 2.89  29 2.89
                            34 2.89  32 2.89
  37  0.333  0.333  0.627-  36 1.68

  LATTYP: Found a hexagonal cell.
 ALAT       =     8.7913665772
 C/A-ratio  =     2.5227160501

  Lattice vectors:

 A1 = (  -4.3956832886,  -7.6135467898,   0.0000000000)
 A2 = (   8.7913665771,   0.0000000000,   0.0000000000)
 A3 = (   0.0000000000,   0.0000000000,  22.1781215668)

Analysis of symmetry for initial positions (statically):
 Subroutine PRICEL returns:
 Original cell was already a primitive cell.

 Routine SETGRP: Setting up the symmetry group for a
 hexagonal supercell.

 Subroutine GETGRP returns: Found  6 space group operations
 (whereof  6 operations were pure point group operations)
 out of a pool of 24 trial point group operations.

The static configuration has the point symmetry C_3v.

Analysis of symmetry for dynamics (positions and initial velocities):
 Subroutine PRICEL returns:
 Original cell was already a primitive cell.

[...]

The dynamic configuration has the point symmetry C_3v.

Analysis of constrained symmetry for selective dynamics:
 Subroutine PRICEL returns:
 Original cell was already a primitive cell.

 Routine SETGRP: Setting up the symmetry group for a
 hexagonal supercell.

 Subroutine GETGRP returns: Found  6 space group operations
[...]
     24      -4.6345      2.00000
     25      -4.6334      2.00000
     26      -4.5988      2.00000
     27      -4.5940      2.00000
     28      -4.5674      2.00000
     29      -4.5599      2.00000
     30      -4.5476      2.00000
     31      -4.5323      2.00000
     32      -4.5200      2.00000
     33      -4.5020      2.00000
     34      -4.4968      2.00000
     35      -4.4676      2.00000
     36      -4.4352      2.00000
     37      -4.4183      2.00000
     38      -4.3898      2.00000
     39      -4.3772      2.00000
     40      -4.3657      2.00000
     41      -4.3322      2.00000
     42      -4.3176      2.00000
     43      -4.2925      2.00000
     44      -4.2569      2.00000
     45      -4.2058      2.00000
     46      -4.1965      2.00000
     47      -4.1757      2.00000
     48      -4.1663      2.00000
     49      -4.1542      2.00000
     50      -4.1500      2.00000
     51      -4.1436      2.00000
     52      -4.1393      2.00000
     53      -4.1269      2.00000
     54      -4.0917      2.00000
     55      -4.0780      2.00000
     56      -4.0477      2.00000
     57      -4.0295      2.00000
     58      -4.0231      2.00000
     59      -4.0089      2.00000
     60      -3.9925      2.00000
[...]
    238       6.3204      0.00000
    239       6.3915      0.00000
    240       6.4416      0.00000
    241       7.1631      0.00000
    242       7.2410      0.00000
    243       7.3068      0.00000
    244       7.3270      0.00000
    245       7.3756      0.00000
    246       7.4110      0.00000
    247       7.4590      0.00000
    248       7.5636      0.00000
    249       7.6435      0.00000
    250       7.6744      0.00000
    251       7.7000      0.00000
    252       7.8103      0.00000

 soft charge-density along one line, spin component           1
         0         1         2         3         4         5         6         7         8         9
 total charge-density along one line

------------------------ aborting loop because EDIFF is reached ----------------------------------------

 total charge

# of ion       s       p       d       tot
    1        0.417   0.201   9.178   9.797
    2        0.416   0.203   9.177   9.796
    3        0.416   0.203   9.177   9.796
    4        0.416   0.203   9.177   9.796
    5        0.418   0.204   9.176   9.797
    6        0.416   0.203   9.177   9.796
    7        0.416   0.203   9.177   9.796
    8        0.416   0.203   9.177   9.796
    9        0.414   0.203   9.177   9.794
   10        0.408   0.269   9.164   9.840
   11        0.404   0.273   9.165   9.842
   12        0.408   0.269   9.164   9.840
   13        0.404   0.273   9.165   9.842
   14        0.404   0.273   9.165   9.842
   15        0.403   0.268   9.166   9.838
   16        0.408   0.269   9.164   9.840
   17        0.403   0.268   9.166   9.838
   18        0.403   0.268   9.166   9.838
   19        0.404   0.269   9.164   9.838
   20        0.425   0.292   9.153   9.870
   21        0.425   0.292   9.153   9.870
   22        0.398   0.273   9.167   9.838
   23        0.425   0.292   9.153   9.870
   24        0.398   0.273   9.167   9.838
   25        0.404   0.269   9.164   9.838
   26        0.404   0.269   9.164   9.838
   27        0.398   0.273   9.167   9.838
   28        0.421   0.195   9.182   9.798
   29        0.400   0.211   9.183   9.794
   30        0.400   0.211   9.183   9.794
   31        0.400   0.211   9.183   9.794
   32        0.400   0.211   9.183   9.794
   33        0.400   0.211   9.183   9.794
   34        0.400   0.211   9.183   9.794
   35        0.417   0.197   9.181   9.795
   36        0.554   0.617   7.528   8.699
   37        1.356   2.142   0.000   3.499
tot         16.221  11.176 328.520 355.917

  FORCE on cell =-STRESS in cart. coord.  units (eV):
  Direction    XX          YY          ZZ          XY          YZ          ZX
  Alpha Z   749.79137   749.79137   749.79137
  Ewald  121627.14620121627.14625************     0.00003     0.00000     0.00003
  Hartree131894.16075131894.16077************     0.00001    -0.00000     0.00001
  E(xc)   -2093.01698 -2093.01696 -2098.08885    -0.00001    -0.00000    -0.00000
  Local  ************************264910.91578     0.00038    -0.00005    -0.00015
  n-local  -334.67504  -316.36996  -317.67753    11.07431    -0.29954     0.46901
  augment  3282.73157  3282.73180  3280.98108    -0.00020    -0.00002    -0.00002
  Kinetic  4978.37168  4978.55606  4978.82789     2.70877     1.37769    -0.50876
  Fock        0.00000     0.00000     0.00000     0.00000     0.00000     0.00000
  Total      -6.81713    -6.81713     0.60575    -0.00000    -0.00000    -0.00000
  in kB      -7.35773    -7.35773     0.65378    -0.00000    -0.00000    -0.00000

 VOLUME and BASIS-vectors are now :
  energy-cutoff  :      500.00
  volume of cell :     1484.46
      direct lattice vectors                 reciprocal lattice vectors
     8.791366577  0.000000000  0.000000000     0.113747958 -0.065672414  0.000000000
     4.395683289  7.613546790  0.000000000     0.000000000  0.131344829  0.000000000
     0.000000000  0.000000000 22.178121567     0.000000000  0.000000000  0.045089481

  length of vectors
     8.791366577  8.791366577 22.178121567     0.131344829  0.131344829  0.045089481

 FORCES acting on ions
    electron-ion (+dipol)            ewald-force                    non-local-force                 convergence-correction
   0.456E-04 -.284E-04 0.252E+04   -.954E-04 0.593E-04 -.251E+04   0.247E-17 -.979E-18 -.194E+01   -.171E-03 -.165E-03 0.521E-02
   0.394E+00 0.621E+00 0.252E+04   -.425E+00 -.503E+00 -.251E+04   0.409E-01 0.326E-01 -.160E+01   -.775E-02 -.137E+00 0.220E-01
   -.394E+00 0.621E+00 0.252E+04   0.425E+00 -.503E+00 -.251E+04   -.409E-01 0.326E-01 -.160E+01   0.727E-02 -.135E+00 0.228E-01
   0.735E+00 0.308E-01 0.252E+04   -.648E+00 -.116E+00 -.251E+04   0.487E-01 0.191E-01 -.160E+01   -.123E+00 0.622E-01 0.220E-01
   -.612E-05 -.190E-04 0.252E+04   0.981E-04 -.199E-05 -.252E+04   0.124E-17 0.870E-18 -.159E+01   0.625E-02 0.382E-02 0.370E-01
   -.735E+00 0.308E-01 0.252E+04   0.648E+00 -.116E+00 -.251E+04   -.487E-01 0.191E-01 -.160E+01   0.121E+00 0.630E-01 0.229E-01
   0.341E+00 -.652E+00 0.252E+04   -.223E+00 0.619E+00 -.251E+04   0.782E-02 -.517E-01 -.160E+01   -.113E+00 0.745E-01 0.228E-01
   -.341E+00 -.652E+00 0.252E+04   0.223E+00 0.619E+00 -.251E+04   -.782E-02 -.517E-01 -.160E+01   0.115E+00 0.735E-01 0.228E-01
   0.361E-04 -.132E-04 0.252E+04   0.792E-04 -.643E-04 -.251E+04   -.431E-17 0.141E-18 -.171E+01   -.661E-02 -.343E-02 -.839E-02
   0.487E+01 0.281E+01 0.860E+03   -.455E+01 -.263E+01 -.859E+03   -.237E+00 -.137E+00 -.742E+00   -.879E-01 -.505E-01 -.166E-01
   -.290E-04 0.508E+01 0.866E+03   0.414E-04 -.499E+01 -.866E+03   0.513E-12 0.781E-01 -.374E+00   0.661E-02 -.188E+00 -.322E-02
   -.487E+01 0.281E+01 0.860E+03   0.455E+01 -.263E+01 -.859E+03   0.237E+00 -.137E+00 -.742E+00   0.860E-01 -.495E-01 -.159E-01
   0.440E+01 -.254E+01 0.866E+03   -.432E+01 0.250E+01 -.866E+03   0.676E-01 -.390E-01 -.374E+00   -.160E+00 0.998E-01 -.275E-02
   -.440E+01 -.254E+01 0.866E+03   0.432E+01 0.250E+01 -.866E+03   -.676E-01 -.390E-01 -.374E+00   0.171E+00 0.984E-01 -.402E-02
   0.160E-04 0.546E+00 0.859E+03   -.108E-03 -.554E+00 -.859E+03   -.527E-14 -.802E-03 -.566E+00   -.171E-02 -.223E-02 -.184E-01
   -.784E-05 -.562E+01 0.860E+03   0.206E-04 0.525E+01 -.859E+03   0.180E-11 0.274E+00 -.742E+00   -.238E-03 0.994E-01 -.165E-01
   0.473E+00 -.273E+00 0.859E+03   -.480E+00 0.277E+00 -.859E+03   -.695E-03 0.401E-03 -.566E+00   -.260E-02 -.435E-03 -.186E-01
   -.473E+00 -.273E+00 0.859E+03   0.480E+00 0.277E+00 -.859E+03   0.695E-03 0.401E-03 -.566E+00   0.310E-02 0.172E-02 -.171E-01
   0.410E-04 0.253E+01 -.828E+03   -.129E-03 -.253E+01 0.827E+03   -.392E-13 -.598E-02 0.462E+00   -.658E-02 -.592E-02 -.373E-01
   0.166E+02 0.958E+01 -.793E+03   -.156E+02 -.899E+01 0.793E+03   -.896E+00 -.517E+00 -.342E+00   -.186E+00 -.107E+00 -.597E-01
   -.166E+02 0.958E+01 -.793E+03   0.156E+02 -.899E+01 0.793E+03   0.896E+00 -.517E+00 -.342E+00   0.188E+00 -.108E+00 -.603E-01
   0.701E+01 -.405E+01 -.819E+03   -.720E+01 0.416E+01 0.818E+03   0.249E+00 -.144E+00 0.741E+00   -.683E-01 0.411E-01 -.870E-02
   -.568E-04 -.192E+02 -.793E+03   0.442E-04 0.180E+02 0.793E+03   0.679E-11 0.103E+01 -.342E+00   -.543E-02 0.207E+00 -.603E-01
   -.701E+01 -.405E+01 -.819E+03   0.720E+01 0.416E+01 0.818E+03   -.249E+00 -.144E+00 0.741E+00   0.698E-01 0.396E-01 -.804E-02
   -.219E+01 -.126E+01 -.828E+03   0.219E+01 0.126E+01 0.827E+03   0.518E-02 0.299E-02 0.462E+00   -.247E-02 -.837E-03 -.372E-01
   0.219E+01 -.126E+01 -.828E+03   -.219E+01 0.126E+01 0.827E+03   -.518E-02 0.299E-02 0.462E+00   -.833E-02 -.175E-02 -.373E-01
   0.205E-04 0.810E+01 -.819E+03   0.110E-03 -.831E+01 0.818E+03   0.189E-11 0.288E+00 0.741E+00   0.994E-03 -.802E-01 -.864E-02
   0.540E-04 -.375E-04 -.249E+04   -.116E-03 0.783E-04 0.249E+04   -.227E-18 0.291E-17 0.192E+01   -.150E-02 -.719E-03 0.611E-02
   0.232E+02 0.408E+02 -.248E+04   -.231E+02 -.408E+02 0.248E+04   -.102E+00 -.862E-01 0.210E+01   -.575E-01 -.174E+00 -.169E-01
   -.232E+02 0.408E+02 -.248E+04   0.231E+02 -.408E+02 0.248E+04   0.102E+00 -.862E-01 0.210E+01   0.677E-01 -.173E+00 -.177E-01
   0.469E+02 -.358E+00 -.248E+04   -.469E+02 0.371E+00 0.248E+04   -.125E+00 -.450E-01 0.210E+01   -.179E+00 0.376E-01 -.171E-01
   -.469E+02 -.358E+00 -.248E+04   0.469E+02 0.370E+00 0.248E+04   0.125E+00 -.450E-01 0.210E+01   0.189E+00 0.379E-01 -.175E-01
   0.238E+02 -.405E+02 -.248E+04   -.238E+02 0.404E+02 0.248E+04   -.238E-01 0.131E+00 0.210E+01   -.116E+00 0.145E+00 -.178E-01
   -.238E+02 -.405E+02 -.248E+04   0.238E+02 0.404E+02 0.248E+04   0.238E-01 0.131E+00 0.210E+01   0.127E+00 0.145E+00 -.169E-01
   0.221E-04 -.116E-04 -.249E+04   0.106E-03 -.664E-04 0.249E+04   -.408E-17 0.189E-17 0.193E+01   -.745E-02 -.400E-02 -.206E-01
   0.147E-04 -.128E-04 -.176E+04   0.860E-04 0.106E-04 0.177E+04   -.193E-18 -.316E-18 -.627E+01   0.223E-02 0.162E-02 -.796E-01
   0.106E-03 -.589E-04 -.142E+04   0.244E-04 0.377E-06 0.144E+04   -.246E-17 0.217E-17 -.219E+02   0.150E-02 0.933E-03 -.253E-01
   0.515E-03 -.740E-03 0.296E+02   0.272E-13 0.109E-12 0.455E-12   0.384E-16 0.593E-16 -.290E+02   0.203E-01 0.990E-02 -.485E+00

 POSITION                                       TOTAL-FORCE (eV/Angst)
      0.00000      0.00000      5.28219        -0.000000     -0.000000     -0.000086
      2.93046      0.00000      5.28219         0.003206      0.014349      0.027520
      5.86091      0.00000      5.28219        -0.003206      0.014349      0.027520
      1.46523      2.53785      5.28219         0.014030     -0.004399      0.027520
      4.39568      2.53785      5.28219        -0.000000     -0.000000      0.019412
      7.32614      2.53785      5.28219        -0.014030     -0.004399      0.027520
      2.93046      5.07570      5.28219         0.010824     -0.009951      0.027520
      5.86091      5.07570      5.28219        -0.010824     -0.009951      0.027520
      8.79137      5.07570      5.28219        -0.000000     -0.000000      0.019597
      1.46523      0.84595      7.67490        -0.008760     -0.005057     -0.003428
      4.39568      0.84595      7.67490        -0.000000     -0.019772     -0.044850
      7.32614      0.84595      7.67490         0.008760     -0.005057     -0.003428
      2.93046      3.38380      7.67490        -0.017123      0.009886     -0.044850
      5.86091      3.38380      7.67490         0.017123      0.009886     -0.044850
      8.79137      3.38380      7.67490        -0.000000     -0.011837     -0.007615
      4.39568      5.92165      7.67490         0.000000      0.010115     -0.003428
      7.32614      5.92165      7.67490        -0.010251      0.005919     -0.007615
     10.25659      5.92165      7.67490         0.010251      0.005919     -0.007615
      8.79137      1.69615     10.06050        -0.000000     -0.008068     -0.022286
      2.93321      1.69349     10.03240        -0.074629     -0.043087     -0.201519
      5.85816      1.69349     10.03240         0.074629     -0.043087     -0.201519
     10.25564      4.23030     10.05204        -0.007556      0.004363     -0.028563
      4.39568      4.22657     10.03240         0.000000      0.086174     -0.201519
      7.32709      4.23030     10.05204         0.007556      0.004363     -0.028563
     11.71814      6.76547     10.06050         0.006987      0.004034     -0.022286
      5.86459      6.76547     10.06050        -0.006987      0.004034     -0.022286
      8.79137      6.76650     10.05204        -0.000000     -0.008725     -0.028563
      0.00000      0.00000     12.42190        -0.000000     -0.000000      0.014836
      2.95118      0.03878     12.42853        -0.127168     -0.224027     -0.048973
      5.84018      0.03878     12.42853         0.127168     -0.224027     -0.048973
      1.50917      2.53641     12.42853        -0.257597      0.001882     -0.048973
      7.28219      2.53641     12.42853         0.257597      0.001882     -0.048973
      2.95367      5.03836     12.42853        -0.130429      0.222144     -0.048973
      5.83769      5.03836     12.42853         0.130429      0.222144     -0.048973
      8.79137      5.07570     12.41313        -0.000000     -0.000000      0.022087
      4.39568      2.53785     12.23685        -0.000000     -0.000000      0.952583
      4.39568      2.53785     13.91583        -0.000000     -0.000000      0.025077
    total drift:                                0.020819      0.009156      0.126460

  FREE ENERGIE OF THE ION-ELECTRON SYSTEM (eV)
  free  energy   TOTEN  =      -102.09764533 eV

  energy  without entropy=     -102.09764533  energy(sigma->0) =     -102.09764533

 stress matrix after NEB project (eV)
     -6.81713     -0.00000     -0.00000
     -0.00000     -6.81713      0.00000
      0.00000     -0.00000      0.60575
  FORCES: max atom, RMS     0.025077    0.004123
  FORCE total and by dimension    0.025077    0.025077
  Stress total and by dimension    9.659883    6.817126
|           W    W    AA    RRRRR   N    N  II  N    N   GGGG   !!!           |
|           W    W   A  A   R    R  NN   N  II  NN   N  G    G  !!!           |
|           W    W  A    A  R    R  N N  N  II  N N  N  G       !!!           |
|           W WW W  AAAAAA  RRRRR   N  N N  II  N  N N  G  GGG   !            |
|           WW  WW  A    A  R   R   N   NN  II  N   NN  G    G                |
|           W    W  A    A  R    R  N    N  II  N    N   GGGG   !!!           |
|     Tetrahedron method does not include variations of the Fermi             |
|     occupations, so forces and stress will be inaccurate. We suggest        |
|     using a different smearing scheme ISMEAR = 1 or 2 for metals in         |
|     relaxations.                                                            |

 total charge

# of ion       s       p       d       tot
    1        0.417   0.201   9.178   9.797
    2        0.416   0.203   9.177   9.796
    3        0.416   0.203   9.177   9.796
    4        0.416   0.203   9.177   9.796
    5        0.418   0.204   9.176   9.797
    6        0.416   0.203   9.177   9.796
    7        0.416   0.203   9.177   9.796
    8        0.416   0.203   9.177   9.796
    9        0.414   0.203   9.177   9.794
   10        0.408   0.269   9.164   9.840
   11        0.404   0.273   9.165   9.842
   12        0.408   0.269   9.164   9.840
   13        0.404   0.273   9.165   9.842
   14        0.404   0.273   9.165   9.842
   15        0.403   0.268   9.166   9.838
   16        0.408   0.269   9.164   9.840
   17        0.403   0.268   9.166   9.838
   18        0.403   0.268   9.166   9.838
   19        0.404   0.269   9.164   9.838
   20        0.425   0.292   9.153   9.870
   21        0.425   0.292   9.153   9.870
   22        0.398   0.273   9.167   9.838
   23        0.425   0.292   9.153   9.870
   24        0.398   0.273   9.167   9.838
   25        0.404   0.269   9.164   9.838
   26        0.404   0.269   9.164   9.838
   27        0.398   0.273   9.167   9.838
   28        0.421   0.195   9.182   9.798
   29        0.400   0.211   9.183   9.794
   30        0.400   0.211   9.183   9.794
   31        0.400   0.211   9.183   9.794
   32        0.400   0.211   9.183   9.794
   33        0.400   0.211   9.183   9.794
   34        0.400   0.211   9.183   9.794
   35        0.417   0.197   9.181   9.795
   36        0.554   0.617   7.528   8.699
   37        1.356   2.142   0.000   3.499
tot         16.221  11.176 328.520 355.917

 BZINTS: Fermi energy:    0.848010;  399.000000 electrons
         Band energy:-0.131032E+04;  BLOECHL correction:   -0.067781