 vasp.6.2.0 18Jan21 (build Jun 12 2021 23:27:24) complex

 executed on             LinuxIFC date 2022.05.30  16:51:55

 INCAR:
   ISMEAR = -5
   SIGMA = 0.1
   ISPIN = 1
   EDIFF = 1.d-5
   EDIFFG = -0.01
   NSW = 0
   NELM = 150
   ENCUT = 500
   ISIF = 2
   IBRION = 2
   LREAL = Auto
   ALGO = Fast
   ICHARG = 11
   LORBIT = 10
   LCHARG = .F.
   LWAVE = .F.

 POTCAR:    PAW_PBE Ag 02Apr2005
 POTCAR:    PAW_PBE V 08Apr2002
 POTCAR:    PAW_PBE O 08Apr2002
|           W    W    AA    RRRRR   N    N  II  N    N   GGGG   !!!           |
|           W    W   A  A   R    R  NN   N  II  NN   N  G    G  !!!           |
|           W    W  A    A  R    R  N N  N  II  N N  N  G       !!!           |
|           W WW W  AAAAAA  RRRRR   N  N N  II  N  N N  G  GGG   !            |
|           WW  WW  A    A  R   R   N   NN  II  N   NN  G    G                |
|           W    W  A    A  R    R  N    N  II  N    N   GGGG   !!!           |
|     For optimal performance we recommend to set                             |
|       NCORE = 2 up to number-of-cores-per-socket                            |
|     This setting can greatly improve the performance of VASP for DFT.       |
|     The default, NCORE=1 might be grossly inefficient on modern             |
|     multi-core architectures or massively parallel machines. Do your        |
|     Unfortunately you need to use the default for GW and RPA                |
|     calculations (for HF NCORE is supported but not extensively tested      |
|     yet).                                                                   |

 POTCAR:    PAW_PBE Ag 02Apr2005
   VRHFIN =Ag : s1 d10

   TITEL  = PAW_PBE Ag 02Apr2005
   POMASS =  107.868; ZVAL   =   11.000    mass and valenz
   ENMAX  =  249.844; ENMIN  =  187.383 eV

 POTCAR:    PAW_PBE V 08Apr2002
   VRHFIN =V: p6 d4 s1

[...]

 POTCAR:    PAW_PBE O 08Apr2002
   VRHFIN =O: s2p4

   TITEL  = PAW_PBE O 08Apr2002
   POMASS =   16.000; ZVAL   =    6.000    mass and valenz
   ENMAX  =  400.000; ENMIN  =  300.000 eV

 Optimization of the real space projectors (new method)

 maximal supplied QI-value         = 15.12
 optimisation between [QCUT,QGAM] = [ 11.34, 22.83] = [ 36.00,145.93] Ry
 Optimized for a Real-space Cutoff    1.43 Angstroem

   l    n(q)    QCUT    max X(q) W(low)/X(q) W(high)/X(q)  e(spline)
   2      9    11.338    53.897    0.16E-03    0.20E-03    0.28E-06
   2      9    11.338    52.416    0.16E-03    0.20E-03    0.29E-06
   0     10    11.338   122.045    0.31E-04    0.76E-04    0.15E-06
   0     10    11.338    73.629    0.30E-04    0.72E-04    0.15E-06
   1      9    11.338    15.255    0.20E-03    0.19E-04    0.17E-06
   1      9    11.338     9.562    0.16E-03    0.15E-04    0.14E-06
 Optimization of the real space projectors (new method)

[...]

   l    n(q)    QCUT    max X(q) W(low)/X(q) W(high)/X(q)  e(spline)
   2     10    11.327    96.114    0.36E-03    0.35E-03    0.42E-06
   2     10    11.327    88.986    0.37E-03    0.35E-03    0.42E-06
   0     11    11.327    20.919    0.40E-04    0.56E-04    0.79E-06
   0     11    11.327     9.593    0.30E-04    0.41E-04    0.60E-06
   1     10    11.327    11.615    0.15E-03    0.10E-03    0.19E-06
   1     10    11.327     7.031    0.11E-03    0.73E-04    0.14E-06
 Optimization of the real space projectors (new method)

 maximal supplied QI-value         = 24.76
 optimisation between [QCUT,QGAM] = [ 11.39, 22.77] = [ 36.31,145.25] Ry
 Optimized for a Real-space Cutoff    1.00 Angstroem

   l    n(q)    QCUT    max X(q) W(low)/X(q) W(high)/X(q)  e(spline)
   0      7    11.387    20.381    0.39E-03    0.13E-02    0.15E-06
   0      7    11.387    15.268    0.42E-03    0.14E-02    0.17E-06
   1      6    11.387     5.964    0.41E-03    0.11E-02    0.17E-06
   1      6    11.387     5.382    0.39E-03    0.87E-03    0.15E-06
  PAW_PBE Ag 02Apr2005                  :
  PAW_PBE V 08Apr2002                   :
  PAW_PBE O 08Apr2002                   :

 POSCAR: Ag-V-O2
  positions in direct lattice
  velocities in cartesian coordinates
 exchange correlation table for  LEXCH =        8
   RHO(1)=    0.500       N(1)  =     2000
   RHO(2)=  100.500       N(2)  =     4000

 VTST: version 3.2, (02/03/18)

 CHAIN: initializing optimizer

 OPT: Using VASP Conjugate-Gradient optimizer
 CHAIN: Read ICHAIN            0

 POSCAR: Ag-V-O2
  positions in direct lattice
  velocities in cartesian coordinates

 ion  position               nearest neighbor table
   1  0.000  0.000  0.217-   2 2.93   8 2.93   7 2.93   6 2.93   4 2.93  12 2.93  16 2.93  10 2.93
                             3 2.93
   2  0.333  0.000  0.217-   1 2.93   8 2.93   9 2.93   3 2.93   4 2.93   5 2.93  10 2.93  17 2.93
                            11 2.93
   3  0.667  0.000  0.217-   9 2.93   2 2.93   5 2.93  11 2.93   7 2.93  18 2.93   1 2.93   6 2.93
                            12 2.93
   4  0.000  0.333  0.217-   5 2.93   6 2.93   2 2.93   1 2.93   7 2.93  13 2.93  15 2.93   9 2.93
                            10 2.93
   5  0.333  0.333  0.217-   4 2.93   3 2.93   7 2.93   2 2.93   8 2.93  14 2.93  13 2.93  11 2.93
                             6 2.93
   6  0.667  0.333  0.217-   4 2.93   9 2.93   1 2.93  15 2.93   8 2.93  12 2.93   3 2.93   5 2.93
                            14 2.93
   7  0.000  0.667  0.217-   8 2.93   1 2.93   5 2.93   3 2.93   4 2.93  16 2.93  18 2.93  13 2.93
                             9 2.93
   8  0.333  0.667  0.217-   7 2.93   1 2.93   2 2.93   9 2.93   5 2.93  16 2.93   6 2.93  17 2.93
                            14 2.93
   9  0.667  0.667  0.217-   3 2.93   2 2.93   8 2.93   6 2.93  17 2.93   4 2.93  15 2.93   7 2.93
                            18 2.93
  10  0.111  0.111  0.315-  20 2.91  19 2.92  26 2.92  12 2.93  16 2.93  15 2.93  17 2.93  13 2.93
                            11 2.93   2 2.93   1 2.93   4 2.93
  11  0.444  0.111  0.315-  21 2.90  20 2.90  27 2.92  14 2.93  17 2.93  18 2.93   3 2.93  12 2.93
                            13 2.93  10 2.93   5 2.93   2 2.93
  12  0.778  0.111  0.315-  21 2.91  25 2.92  19 2.92  10 2.93  16 2.93  18 2.93  15 2.93  11 2.93
                             1 2.93  14 2.93   6 2.93   3 2.93
  13  0.111  0.444  0.315-  20 2.90  23 2.90  22 2.92  15 2.93  14 2.93  18 2.93  10 2.93  11 2.93
                            16 2.93   4 2.93   5 2.93   7 2.93
  14  0.444  0.444  0.315-  23 2.90  21 2.90  24 2.92  13 2.93  11 2.93  16 2.93   5 2.93  12 2.93
                            17 2.93   8 2.93  15 2.93   6 2.93
  15  0.778  0.444  0.315-  24 2.92  22 2.92  19 2.92  13 2.93  10 2.93  12 2.93  17 2.93  18 2.93
                             4 2.93   6 2.93   9 2.93  14 2.93
  16  0.111  0.778  0.315-  23 2.91  26 2.92  25 2.92  18 2.93  12 2.93  10 2.93  14 2.93  17 2.93
                            13 2.93   7 2.93   8 2.93   1 2.93
  17  0.444  0.778  0.315-  27 2.92  24 2.92  26 2.92  11 2.93  10 2.93   9 2.93  18 2.93  15 2.93
                            16 2.93   2 2.93  14 2.93   8 2.93
  18  0.778  0.778  0.315-  22 2.92  27 2.92  25 2.92  16 2.93  12 2.93  13 2.93  11 2.93  17 2.93
                            15 2.93   7 2.93   3 2.93   9 2.93
  19  0.889  0.222  0.413-  28 2.91  15 2.92  10 2.92  12 2.92  24 2.93  22 2.93  26 2.93  25 2.93
                            20 2.94  21 2.94  32 2.96  31 2.96
  20  0.223  0.223  0.412-  36 2.75  13 2.90  11 2.90  10 2.91  21 2.92  23 2.92  31 2.92  29 2.92
                            27 2.93  22 2.93  19 2.94  26 2.94
  21  0.555  0.223  0.412-  36 2.75  11 2.90  14 2.90  12 2.91  20 2.92  23 2.92  30 2.92  32 2.92
                            27 2.93  24 2.93  25 2.94  19 2.94
  22  0.889  0.556  0.413-  18 2.92  15 2.92  35 2.92  13 2.92  24 2.93  27 2.93  25 2.93  19 2.93
                            23 2.93  20 2.93  33 2.94  31 2.94
  23  0.223  0.555  0.412-  36 2.75  14 2.90  13 2.90  16 2.91  21 2.92  20 2.92  34 2.92  33 2.92
                            22 2.93  24 2.93  26 2.94  25 2.94
  24  0.556  0.556  0.413-  15 2.92  17 2.92  35 2.92  14 2.92  27 2.93  22 2.93  19 2.93  26 2.93
                            23 2.93  21 2.93  32 2.94  34 2.94
  25  0.889  0.889  0.413-  28 2.91  18 2.92  16 2.92  12 2.92  22 2.93  27 2.93  26 2.93  19 2.93
                            23 2.94  21 2.94  33 2.96  30 2.96
  26  0.222  0.889  0.413-  28 2.91  17 2.92  16 2.92  10 2.92  27 2.93  24 2.93  25 2.93  19 2.93
                            23 2.94  20 2.94  34 2.96  29 2.96
  27  0.556  0.889  0.413-  17 2.92  18 2.92  35 2.92  11 2.92  24 2.93  22 2.93  26 2.93  25 2.93
                            20 2.93  21 2.93  29 2.94  30 2.94
  28  0.000  0.000  0.510-  26 2.91  25 2.91  19 2.91  29 2.96  34 2.96  33 2.96  32 2.96  31 2.96
                            30 2.96
  29  0.334  0.006  0.511-  30 2.87  31 2.88  36 2.89  20 2.92  27 2.94  35 2.96  28 2.96  26 2.96
                            34 3.04
  30  0.660  0.006  0.511-  29 2.87  32 2.88  36 2.89  21 2.92  27 2.94  35 2.96  28 2.96  25 2.96
                            33 3.04
  31  0.006  0.334  0.511-  37 2.02  33 2.87  29 2.88  36 2.89  20 2.92  22 2.94  35 2.96  28 2.96
                            19 2.96  32 3.04
  32  0.660  0.334  0.511-  38 2.02  34 2.87  30 2.88  36 2.89  21 2.92  24 2.94  35 2.96  28 2.96
                            19 2.96  31 3.04
  33  0.006  0.660  0.511-  37 2.46  31 2.87  34 2.88  36 2.89  23 2.92  22 2.94  35 2.96  28 2.96
                            25 2.96  30 3.04
  34  0.334  0.660  0.511-  38 2.46  32 2.87  33 2.88  36 2.89  23 2.92  24 2.94  35 2.96  28 2.96
                            26 2.96  29 3.04
  35  0.667  0.667  0.510-  24 2.92  27 2.92  22 2.92  30 2.96  32 2.96  29 2.96  34 2.96  31 2.96
                            33 2.96
  36  0.333  0.333  0.501-  37 1.73  38 1.73  21 2.75  20 2.75  23 2.75  31 2.89  33 2.89  30 2.89
                            29 2.89  34 2.89  32 2.89
  37  0.184  0.369  0.553-  36 1.73  31 2.02  33 2.46
  38  0.447  0.369  0.553-  36 1.73  32 2.02  34 2.46

  LATTYP: Found a hexagonal cell.
 ALAT       =     8.7913665772
 C/A-ratio  =     2.7711238095

  Lattice vectors:

 A1 = (  -4.3956832886,  -7.6135467898,   0.0000000000)
 A2 = (   8.7913665771,   0.0000000000,   0.0000000000)
 A3 = (   0.0000000000,   0.0000000000,  24.3619652401)

Analysis of symmetry for initial positions (statically):
 Subroutine PRICEL returns:
 Original cell was already a primitive cell.

 Routine SETGRP: Setting up the symmetry group for a
 hexagonal supercell.

 Subroutine GETGRP returns: Found  2 space group operations
 (whereof  2 operations were pure point group operations)
 out of a pool of 24 trial point group operations.

The static configuration has the point symmetry C_1h.

Analysis of symmetry for dynamics (positions and initial velocities):
 Subroutine PRICEL returns:
 Original cell was already a primitive cell.

[...]

The dynamic configuration has the point symmetry C_1h.

Analysis of constrained symmetry for selective dynamics:
 Subroutine PRICEL returns:
 Original cell was already a primitive cell.

 Routine SETGRP: Setting up the symmetry group for a
 hexagonal supercell.

 Subroutine GETGRP returns: Found  2 space group operations
[...]
     33      -5.0739      2.00000
     34      -5.0471      2.00000
     35      -5.0344      2.00000
     36      -5.0280      2.00000
     37      -5.0206      2.00000
     38      -5.0018      2.00000
     39      -4.9873      2.00000
     40      -4.9641      2.00000
     41      -4.9434      2.00000
     42      -4.8831      2.00000
     43      -4.8697      2.00000
     44      -4.8503      2.00000
     45      -4.8194      2.00000
     46      -4.8075      2.00000
     47      -4.7958      2.00000
     48      -4.7552      2.00000
     49      -4.7318      2.00000
     50      -4.6882      2.00000
     51      -4.6835      2.00000
     52      -4.6746      2.00000
     53      -4.6614      2.00000
     54      -4.6596      2.00000
     55      -4.6426      2.00000
     56      -4.6367      2.00000
     57      -4.6182      2.00000
     58      -4.5862      2.00000
     59      -4.5651      2.00000
     60      -4.5542      2.00000
[...]
    238       5.5226      0.00000
    239       5.6343      0.00000
    240       5.8590      0.00000
    241       5.8997      0.00000
    242       5.9303      0.00000
    243       6.0177      0.00000
    244       6.1941      0.00000
    245       6.4388      0.00000
    246       6.4767      0.00000
    247       6.6292      0.00000
    248       6.6684      0.00000
    249       6.7433      0.00000
    250       6.8104      0.00000
    251       6.8410      0.00000
    252       6.9673      0.00000

 soft charge-density along one line, spin component           1
         0         1         2         3         4         5         6         7         8         9
 total charge-density along one line

------------------------ aborting loop because EDIFF is reached ----------------------------------------

 total charge

# of ion       s       p       d       tot
    1        0.420   0.201   9.178   9.798
    2        0.414   0.205   9.176   9.795
    3        0.414   0.205   9.176   9.795
    4        0.416   0.204   9.177   9.797
    5        0.417   0.203   9.177   9.797
    6        0.416   0.204   9.177   9.797
    7        0.417   0.203   9.178   9.797
    8        0.417   0.203   9.178   9.797
    9        0.414   0.204   9.177   9.795
   10        0.409   0.269   9.164   9.841
   11        0.406   0.269   9.167   9.842
   12        0.409   0.269   9.164   9.841
   13        0.402   0.272   9.166   9.840
   14        0.402   0.272   9.166   9.840
   15        0.406   0.267   9.166   9.839
   16        0.406   0.271   9.162   9.838
   17        0.403   0.269   9.165   9.837
   18        0.403   0.269   9.165   9.837
   19        0.400   0.280   9.151   9.832
   20        0.441   0.293   9.145   9.879
   21        0.441   0.293   9.145   9.879
   22        0.402   0.272   9.165   9.839
   23        0.428   0.309   9.133   9.871
   24        0.402   0.272   9.165   9.839
   25        0.401   0.269   9.165   9.834
   26        0.401   0.269   9.165   9.834
   27        0.394   0.271   9.169   9.835
   28        0.414   0.196   9.183   9.793
   29        0.410   0.209   9.181   9.801
   30        0.410   0.209   9.181   9.801
   31        0.407   0.307   9.163   9.878
   32        0.407   0.307   9.163   9.878
   33        0.386   0.220   9.193   9.798
   34        0.386   0.220   9.193   9.798
   35        0.420   0.191   9.185   9.796
   36        0.597   0.866   3.792   5.255
   37        1.600   3.339   0.000   4.939
   38        1.600   3.339   0.000   4.939
tot         18.142  16.187 324.712 359.040

  FORCE on cell =-STRESS in cart. coord.  units (eV):
  Direction    XX          YY          ZZ          XY          YZ          ZX
  Alpha Z   693.90809   693.90809   693.90809
  Ewald  154719.28779154387.32948************     0.00009    -6.92086     0.00010
  Hartree164624.74248164466.00540************     0.00003   -21.21164     0.00002
  E(xc)   -2111.22876 -2111.78988 -2117.76806    -0.00003    -0.17744     0.00001
  Local  ************************330431.63017     0.00086    30.07164    -0.00019
  n-local  -355.34507  -359.02263  -362.49742     2.27525     0.81179     0.08822
  augment  3249.23145  3253.78476  3261.17565    -0.00015    -0.66903     0.00002
  Kinetic  5058.63613  5068.99822  5089.29495     0.90824    -1.67296    -0.04472
  Fock        0.00000     0.00000     0.00000     0.00000     0.00000     0.00000
  Total       4.70099    -3.60832     0.27493    -0.00000     0.23150     0.00000
  in kB       4.61896    -3.54536     0.27014    -0.00000     0.22746     0.00000

 VOLUME and BASIS-vectors are now :
  energy-cutoff  :      500.00
  volume of cell :     1630.63
      direct lattice vectors                 reciprocal lattice vectors
     8.791366577  0.000000000  0.000000000     0.113747958 -0.065672414  0.000000000
     4.395683289  7.613546790  0.000000000     0.000000000  0.131344829  0.000000000
     0.000000000  0.000000000 24.361965240     0.000000000  0.000000000  0.041047592

  length of vectors
     8.791366577  8.791366577 24.361965240     0.131344829  0.131344829  0.041047592

 FORCES acting on ions
    electron-ion (+dipol)            ewald-force                    non-local-force                 convergence-correction
   0.461E-04 0.284E+00 0.270E+04   -.953E-04 -.477E-01 -.270E+04   -.875E-12 -.133E+00 -.192E+01   -.141E-03 -.888E-01 -.383E-01
   -.299E-01 0.214E+00 0.270E+04   -.123E+00 -.303E+00 -.270E+04   0.129E-01 0.117E+00 -.165E+01   0.140E+00 -.256E-01 -.117E+00
   0.300E-01 0.214E+00 0.270E+04   0.124E+00 -.303E+00 -.270E+04   -.129E-01 0.117E+00 -.165E+01   -.140E+00 -.237E-01 -.117E+00
   -.122E-02 -.336E-02 0.270E+04   -.287E+00 -.102E+00 -.270E+04   0.199E+00 0.147E-01 -.164E+01   0.763E-01 0.717E-01 -.572E-01
   -.765E-05 0.235E-01 0.270E+04   0.981E-04 -.124E+00 -.270E+04   0.563E-12 0.858E-01 -.150E+01   0.622E-02 0.533E-02 -.730E-01
   0.120E-02 -.332E-02 0.270E+04   0.287E+00 -.102E+00 -.270E+04   -.199E+00 0.147E-01 -.164E+01   -.777E-01 0.725E-01 -.564E-01
   0.879E-01 -.265E+00 0.270E+04   -.158E+00 0.407E+00 -.270E+04   0.396E-01 -.890E-01 -.168E+01   0.243E-01 -.430E-01 -.182E-01
   -.879E-01 -.265E+00 0.270E+04   0.158E+00 0.406E+00 -.270E+04   -.396E-01 -.890E-01 -.168E+01   -.228E-01 -.440E-01 -.182E-01
   0.363E-04 -.196E+00 0.270E+04   0.792E-04 0.168E+00 -.270E+04   -.264E-12 -.402E-01 -.175E+01   -.661E-02 0.744E-01 -.510E-01
   0.181E+01 0.218E+01 0.937E+03   -.166E+01 -.198E+01 -.936E+03   -.210E+00 -.128E+00 -.679E+00   0.322E-01 -.670E-01 -.297E-01
   -.277E-04 0.373E+01 0.939E+03   0.410E-04 -.368E+01 -.938E+03   -.803E-13 -.122E-01 -.298E+00   0.653E-02 -.837E-01 -.276E-01
   -.181E+01 0.218E+01 0.937E+03   0.166E+01 -.198E+01 -.936E+03   0.210E+00 -.128E+00 -.679E+00   -.338E-01 -.663E-01 -.297E-01
   0.218E+01 -.119E+01 0.941E+03   -.227E+01 0.125E+01 -.941E+03   0.196E-01 -.835E-01 -.295E+00   0.466E-01 0.515E-01 0.343E-02
   -.218E+01 -.119E+01 0.941E+03   0.227E+01 0.125E+01 -.941E+03   -.196E-01 -.835E-01 -.295E+00   -.361E-01 0.503E-01 0.192E-02
   0.158E-04 -.174E+00 0.938E+03   -.108E-03 -.895E-02 -.937E+03   0.448E-12 0.682E-01 -.718E+00   -.147E-02 0.903E-01 0.652E-01
   -.832E-05 -.348E+01 0.937E+03   0.207E-04 0.300E+01 -.936E+03   0.337E-11 0.514E+00 -.809E+00   -.197E-03 -.286E-01 -.710E-02
   -.178E+00 -.104E+01 0.936E+03   0.838E-01 0.108E+01 -.936E+03   0.109E-01 -.709E-01 -.595E+00   0.681E-01 0.261E-01 -.136E-02
   0.178E+00 -.104E+01 0.936E+03   -.838E-01 0.108E+01 -.936E+03   -.109E-01 -.709E-01 -.595E+00   -.677E-01 0.281E-01 0.150E-03
   0.400E-04 0.390E+01 -.845E+03   -.128E-03 -.376E+01 0.845E+03   -.507E-12 -.772E-01 0.229E+00   -.498E-02 0.371E-01 0.270E-01
   -.579E+01 0.844E+01 -.831E+03   0.633E+01 -.814E+01 0.831E+03   -.625E+00 -.422E+00 -.644E+00   -.102E-01 0.295E-02 -.494E-01
   0.579E+01 0.844E+01 -.831E+03   -.633E+01 -.814E+01 0.831E+03   0.625E+00 -.422E+00 -.644E+00   0.828E-03 0.167E-02 -.500E-01
   0.504E+01 -.730E+01 -.835E+03   -.472E+01 0.731E+01 0.835E+03   -.241E+00 -.517E-01 0.455E+00   -.574E-01 0.418E-01 -.489E-01
   -.494E-04 -.291E+01 -.827E+03   0.401E-04 0.155E+01 0.828E+03   0.862E-11 0.131E+01 -.855E+00   -.544E-02 0.697E-01 -.325E-02
   -.504E+01 -.730E+01 -.835E+03   0.472E+01 0.731E+01 0.835E+03   0.241E+00 -.517E-01 0.455E+00   0.593E-01 0.409E-01 -.488E-01
   0.284E+01 -.956E+00 -.852E+03   -.290E+01 0.103E+01 0.852E+03   -.416E-01 -.266E-01 0.692E+00   0.179E-01 -.691E-01 0.214E-01
   -.284E+01 -.956E+00 -.852E+03   0.290E+01 0.103E+01 0.852E+03   0.416E-01 -.266E-01 0.692E+00   -.286E-01 -.688E-01 0.218E-01
   0.189E-04 -.136E+01 -.850E+03   0.110E-03 0.127E+01 0.849E+03   0.159E-11 0.241E+00 0.874E+00   0.110E-02 -.828E-01 -.811E-01
   0.540E-04 0.878E+01 -.262E+04   -.116E-03 -.886E+01 0.262E+04   0.282E-12 0.430E-01 0.169E+01   -.225E-05 -.317E-01 0.944E-01
   0.536E+01 0.509E+02 -.261E+04   -.453E+01 -.517E+02 0.261E+04   -.832E+00 0.390E+00 0.229E+01   -.770E-01 -.911E-01 0.905E-02
   -.536E+01 0.509E+02 -.261E+04   0.453E+01 -.517E+02 0.261E+04   0.832E+00 0.390E+00 0.229E+01   0.766E-01 -.904E-01 0.832E-02
   0.147E+03 0.335E+02 -.253E+04   -.148E+03 -.338E+02 0.253E+04   -.113E+01 -.869E-01 0.522E+00   -.809E-01 0.631E-02 0.977E-02
   -.147E+03 0.335E+02 -.253E+04   0.148E+03 -.338E+02 0.253E+04   0.113E+01 -.869E-01 0.522E+00   0.811E-01 0.684E-02 0.979E-02
   0.226E+02 -.106E+03 -.258E+04   -.224E+02 0.108E+03 0.258E+04   -.437E+00 -.148E+01 0.285E+01   0.537E-01 0.388E-01 -.308E-01
   -.226E+02 -.106E+03 -.258E+04   0.224E+02 0.108E+03 0.258E+04   0.437E+00 -.148E+01 0.285E+01   -.527E-01 0.386E-01 -.300E-01
   0.183E-04 -.250E+02 -.262E+04   0.108E-03 0.252E+02 0.262E+04   -.989E-13 -.151E-01 0.181E+01   -.611E-02 -.109E-01 -.597E-02
   -.368E-04 0.436E+02 -.956E+03   0.479E-04 -.433E+02 0.960E+03   0.135E-12 0.205E-01 -.302E+00   0.673E-03 0.494E-01 -.209E-01
   0.492E+01 0.115E+02 -.174E+04   -.623E+01 -.910E+01 0.177E+04   0.131E+01 -.241E+01 -.259E+02   -.127E-01 0.265E-01 -.200E-01
   -.492E+01 0.115E+02 -.174E+04   0.623E+01 -.910E+01 0.177E+04   -.131E+01 -.241E+01 -.259E+02   0.125E-01 0.265E-01 -.205E-01
   0.627E-03 0.669E+01 0.568E+02   0.995E-13 0.426E-13 -.568E-11   -.436E-10 -.664E+01 -.560E+02   -.190E-01 -.583E-01 -.779E+00

 POSITION                                       TOTAL-FORCE (eV/Angst)
      0.00000      0.00000      5.28219         0.000000      0.014581     -0.038648
      2.93046      0.00000      5.28219        -0.000671      0.003114      0.034794
      5.86091      0.00000      5.28219         0.000671      0.003114      0.034794
      1.46523      2.53785      5.28219        -0.012118     -0.018463      0.014023
      4.39568      2.53785      5.28219        -0.000000     -0.008937      0.028986
      7.32614      2.53785      5.28219         0.012118     -0.018463      0.014023
      2.93046      5.07570      5.28219        -0.006907      0.009389      0.027114
      5.86091      5.07570      5.28219         0.006907      0.009389      0.027114
      8.79137      5.07570      5.28219         0.000000      0.006412      0.010531
      1.46523      0.84595      7.67490        -0.025846      0.001713     -0.024523
      4.39568      0.84595      7.67490        -0.000000     -0.047797     -0.117537
      7.32614      0.84595      7.67490         0.025846      0.001713     -0.024523
      2.93046      3.38380      7.67490        -0.021468      0.027444     -0.067240
      5.86091      3.38380      7.67490         0.021468      0.027444     -0.067240
      8.79137      3.38380      7.67490        -0.000000     -0.024656     -0.045632
      4.39568      5.92165      7.67490         0.000000      0.007958     -0.017837
      7.32614      5.92165      7.67490        -0.015013     -0.001440     -0.007899
     10.25659      5.92165      7.67490         0.015013     -0.001440     -0.007899
      8.79137      1.69254     10.05636         0.000000      0.097690      0.250725
      2.93602      1.69511     10.03837        -0.090672     -0.123764     -0.376001
      5.85534      1.69511     10.03837         0.090672     -0.123764     -0.376001
     10.25423      4.23112     10.05516         0.023740     -0.000657     -0.022559
      4.39568      4.22332     10.03837         0.000000      0.020286     -0.035293
      7.32851      4.23112     10.05516        -0.023740     -0.000657     -0.022559
     11.72126      6.76728     10.05636        -0.086340     -0.024750      0.100440
      5.86147      6.76728     10.05636         0.086340     -0.024750      0.100440
      8.79137      6.76486     10.05516         0.000000      0.066173      0.044255
      0.00000      0.00000     12.42937        -0.000000     -0.065404     -0.051422
      2.95945      0.04653     12.45339        -0.071810     -0.501613     -0.193684
      5.83191      0.04653     12.45339         0.071810     -0.501613     -0.193684
      1.52003      2.53970     12.45339        -2.372500     -0.417306     -0.938379
      7.27134      2.53970     12.45339         2.372500     -0.417306     -0.938379
      2.95626      5.02732     12.45339        -0.158332      0.763003     -0.198761
      5.83511      5.02732     12.45339         0.158332      0.763003     -0.198761
      8.79137      5.07570     12.43676         0.000000      0.115698     -0.046962
      4.39568      2.53785     12.21669         0.000000      0.389582      3.352153
      3.24106      2.80639     13.47138        -0.013140     -0.002463     -0.013984
      5.55031      2.80639     13.47138         0.013140     -0.002463     -0.013984
    total drift:                               -0.018400     -0.004327     -0.017632

  FREE ENERGIE OF THE ION-ELECTRON SYSTEM (eV)
  free  energy   TOTEN  =      -110.76780208 eV

  energy  without entropy=     -110.76780208  energy(sigma->0) =     -110.76780208

 stress matrix after NEB project (eV)
      4.70099     -0.00000      0.00000
     -0.00000     -3.60832      0.23150
      0.00000      0.23150      0.27493
  FORCES: max atom, RMS     0.019346    0.004438
  FORCE total and by dimension    0.027360    0.013984
  Stress total and by dimension    5.941557    4.700995
|           W    W    AA    RRRRR   N    N  II  N    N   GGGG   !!!           |
|           W    W   A  A   R    R  NN   N  II  NN   N  G    G  !!!           |
|           W    W  A    A  R    R  N N  N  II  N N  N  G       !!!           |
|           W WW W  AAAAAA  RRRRR   N  N N  II  N  N N  G  GGG   !            |
|           WW  WW  A    A  R   R   N   NN  II  N   NN  G    G                |
|           W    W  A    A  R    R  N    N  II  N    N   GGGG   !!!           |
|     Tetrahedron method does not include variations of the Fermi             |
|     occupations, so forces and stress will be inaccurate. We suggest        |
|     using a different smearing scheme ISMEAR = 1 or 2 for metals in         |
|     relaxations.                                                            |

 total charge

# of ion       s       p       d       tot
    1        0.420   0.201   9.178   9.798
    2        0.414   0.205   9.176   9.795
    3        0.414   0.205   9.176   9.795
    4        0.416   0.204   9.177   9.797
    5        0.417   0.203   9.177   9.797
    6        0.416   0.204   9.177   9.797
    7        0.417   0.203   9.178   9.797
    8        0.417   0.203   9.178   9.797
    9        0.414   0.204   9.177   9.795
   10        0.409   0.269   9.164   9.841
   11        0.406   0.269   9.167   9.842
   12        0.409   0.269   9.164   9.841
   13        0.402   0.272   9.166   9.840
   14        0.402   0.272   9.166   9.840
   15        0.406   0.267   9.166   9.839
   16        0.406   0.271   9.162   9.838
   17        0.403   0.269   9.165   9.837
   18        0.403   0.269   9.165   9.837
   19        0.400   0.280   9.151   9.832
   20        0.441   0.293   9.145   9.879
   21        0.441   0.293   9.145   9.879
   22        0.402   0.272   9.165   9.839
   23        0.428   0.309   9.133   9.871
   24        0.402   0.272   9.165   9.839
   25        0.401   0.269   9.165   9.834
   26        0.401   0.269   9.165   9.834
   27        0.394   0.271   9.169   9.835
   28        0.414   0.196   9.183   9.793
   29        0.410   0.209   9.181   9.801
   30        0.410   0.209   9.181   9.801
   31        0.407   0.307   9.163   9.878
   32        0.407   0.307   9.163   9.878
   33        0.386   0.220   9.193   9.798
   34        0.386   0.220   9.193   9.798
   35        0.420   0.191   9.185   9.796
   36        0.597   0.866   3.792   5.255
   37        1.600   3.339   0.000   4.939
   38        1.600   3.339   0.000   4.939
tot         18.142  16.187 324.712 359.040

 BZINTS: Fermi energy:    0.345800;  402.000000 electrons
         Band energy:-0.158134E+04;  BLOECHL correction:   -0.033454