 vasp.6.2.0 18Jan21 (build Jun 12 2021 23:27:24) complex

 executed on             LinuxIFC date 2022.05.27  05:01:36

 INCAR:
   ISMEAR = -5
   SIGMA = 0.1
   ISPIN = 1
   EDIFF = 1.d-5
   EDIFFG = -0.01
   NSW = 0
   NELM = 150
   ENCUT = 500
   ISIF = 2
   IBRION = 2
   LREAL = Auto
   ALGO = Fast
   ICHARG = 11
   LORBIT = 10
   LCHARG = .F.
   LWAVE = .F.

 POTCAR:    PAW_PBE Au 04Oct2007
 POTCAR:    PAW_PBE Mn 06Sep2000
 POTCAR:    PAW_PBE C 08Apr2002
 POTCAR:    PAW_PBE O 08Apr2002
|           W    W    AA    RRRRR   N    N  II  N    N   GGGG   !!!           |
|           W    W   A  A   R    R  NN   N  II  NN   N  G    G  !!!           |
|           W    W  A    A  R    R  N N  N  II  N N  N  G       !!!           |
|           W WW W  AAAAAA  RRRRR   N  N N  II  N  N N  G  GGG   !            |
|           WW  WW  A    A  R   R   N   NN  II  N   NN  G    G                |
|           W    W  A    A  R    R  N    N  II  N    N   GGGG   !!!           |
|     For optimal performance we recommend to set                             |
|       NCORE = 2 up to number-of-cores-per-socket                            |
|     This setting can greatly improve the performance of VASP for DFT.       |
|     The default, NCORE=1 might be grossly inefficient on modern             |
|     multi-core architectures or massively parallel machines. Do your        |
|     Unfortunately you need to use the default for GW and RPA                |
|     calculations (for HF NCORE is supported but not extensively tested      |
|     yet).                                                                   |

 POTCAR:    PAW_PBE Au 04Oct2007
   VRHFIN =Au: s1d10

   TITEL  = PAW_PBE Au 04Oct2007
   POMASS =  196.966; ZVAL   =   11.000    mass and valenz
   ENMAX  =  229.943; ENMIN  =  172.457 eV

 POTCAR:    PAW_PBE Mn 06Sep2000
   VRHFIN =Mn: d6 s1

   TITEL  = PAW_PBE Mn 06Sep2000
   POMASS =   54.938; ZVAL   =    7.000    mass and valenz
   ENMAX  =  269.864; ENMIN  =  202.398 eV

 POTCAR:    PAW_PBE C 08Apr2002
   VRHFIN =C: s2p2

   TITEL  = PAW_PBE C 08Apr2002
   POMASS =   12.011; ZVAL   =    4.000    mass and valenz
   ENMAX  =  400.000; ENMIN  =  300.000 eV

 POTCAR:    PAW_PBE O 08Apr2002
   VRHFIN =O: s2p4

   TITEL  = PAW_PBE O 08Apr2002
   POMASS =   16.000; ZVAL   =    6.000    mass and valenz
   ENMAX  =  400.000; ENMIN  =  300.000 eV

 Optimization of the real space projectors (new method)

 maximal supplied QI-value         = 15.12
 optimisation between [QCUT,QGAM] = [ 11.34, 22.83] = [ 36.00,145.93] Ry
 Optimized for a Real-space Cutoff    1.39 Angstroem

   l    n(q)    QCUT    max X(q) W(low)/X(q) W(high)/X(q)  e(spline)
   2      9    11.338    60.898    0.39E-03    0.42E-03    0.21E-06
   2      9    11.338    58.894    0.40E-03    0.42E-03    0.22E-06
   0      9    11.338   109.617    0.13E-03    0.20E-04    0.13E-06
   0      9    11.338    75.026    0.13E-03    0.20E-04    0.13E-06
   1      9    11.338    16.344    0.33E-04    0.24E-03    0.18E-06
   1      9    11.338    10.160    0.26E-04    0.19E-03    0.15E-06
 Optimization of the real space projectors (new method)

[...]

   l    n(q)    QCUT    max X(q) W(low)/X(q) W(high)/X(q)  e(spline)
   0      7    11.310   115.676    0.43E-03    0.13E-02    0.19E-06
   0      7    11.310    87.132    0.43E-03    0.13E-02    0.18E-06
   1      6    11.310     4.429    0.42E-03    0.74E-03    0.11E-06
   1      6    11.310     2.733    0.34E-03    0.55E-03    0.92E-07
 Optimization of the real space projectors (new method)

 maximal supplied QI-value         = 24.76
 optimisation between [QCUT,QGAM] = [ 11.39, 22.77] = [ 36.31,145.25] Ry
 Optimized for a Real-space Cutoff    1.00 Angstroem

   l    n(q)    QCUT    max X(q) W(low)/X(q) W(high)/X(q)  e(spline)
   0      7    11.387    20.381    0.39E-03    0.13E-02    0.15E-06
   0      7    11.387    15.268    0.42E-03    0.14E-02    0.17E-06
   1      6    11.387     5.964    0.41E-03    0.11E-02    0.17E-06
   1      6    11.387     5.382    0.39E-03    0.87E-03    0.15E-06
  PAW_PBE Au 04Oct2007                  :
  PAW_PBE Mn 06Sep2000                  :
  PAW_PBE C 08Apr2002                   :
  PAW_PBE O 08Apr2002                   :

 POSCAR: Au-Mn-CO
  positions in direct lattice
  velocities in cartesian coordinates
 exchange correlation table for  LEXCH =        8
   RHO(1)=    0.500       N(1)  =     2000
   RHO(2)=  100.500       N(2)  =     4000

 VTST: version 3.2, (02/03/18)

 CHAIN: initializing optimizer

 OPT: Using VASP Conjugate-Gradient optimizer
 CHAIN: Read ICHAIN            0

 POSCAR: Au-Mn-CO
  positions in direct lattice
  velocities in cartesian coordinates

 ion  position               nearest neighbor table
   1  0.000  0.000  0.238-  16 2.94  12 2.94   6 2.94   8 2.94   7 2.94   3 2.94  10 2.94   4 2.94
                             2 2.94
   2  0.333  0.000  0.238-   9 2.94  11 2.94  17 2.94  10 2.94   8 2.94   4 2.94   5 2.94   1 2.94
                             3 2.94
   3  0.667  0.000  0.238-   7 2.94  18 2.94  12 2.94   1 2.94  11 2.94   5 2.94   6 2.94   9 2.94
                             2 2.94
   4  0.000  0.333  0.238-  10 2.94   6 2.94   5 2.94  13 2.94   2 2.94  15 2.94   9 2.94   1 2.94
                             7 2.94
   5  0.333  0.333  0.238-  13 2.94   7 2.94  11 2.94   4 2.94   2 2.94  14 2.94   3 2.94   8 2.94
                             6 2.94
   6  0.667  0.333  0.238-  15 2.94  14 2.94   1 2.94  12 2.94   4 2.94   9 2.94   8 2.94   3 2.94
                             5 2.94
   7  0.000  0.667  0.238-  18 2.94   3 2.94  16 2.94   5 2.94   1 2.94  13 2.94   8 2.94   4 2.94
                             9 2.94
   8  0.333  0.667  0.238-   9 2.94  17 2.94   1 2.94   2 2.94  14 2.94  16 2.94   6 2.94   7 2.94
                             5 2.94
   9  0.667  0.667  0.238-   2 2.94   8 2.94  17 2.94   6 2.94  15 2.94   4 2.94   3 2.94  18 2.94
                             7 2.94
  10  0.111  0.111  0.346-  20 2.93  26 2.94  19 2.94  11 2.94  17 2.94   2 2.94   4 2.94   1 2.94
                            12 2.94  16 2.94  13 2.94  15 2.94
  11  0.444  0.111  0.346-  20 2.91  21 2.91  27 2.93  13 2.94   2 2.94  10 2.94  17 2.94   5 2.94
                             3 2.94  18 2.94  14 2.94  12 2.94
  12  0.778  0.111  0.346-  21 2.93  25 2.94  19 2.94  16 2.94  18 2.94   1 2.94  14 2.94  15 2.94
                             3 2.94   6 2.94  10 2.94  11 2.94
  13  0.111  0.444  0.346-  23 2.91  20 2.91  22 2.93   5 2.94  18 2.94  11 2.94   7 2.94   4 2.94
                            16 2.94  10 2.94  14 2.94  15 2.94
  14  0.444  0.444  0.346-  21 2.91  23 2.91  24 2.93  15 2.94   6 2.94  12 2.94   8 2.94  17 2.94
                             5 2.94  16 2.94  13 2.94  11 2.94
  15  0.778  0.444  0.346-  24 2.92  22 2.92  19 2.94  14 2.94   6 2.94  17 2.94  12 2.94   9 2.94
                             4 2.94  10 2.94  13 2.94  18 2.94
  16  0.111  0.778  0.346-  23 2.93  25 2.94  26 2.94  18 2.94  12 2.94   7 2.94   1 2.94   8 2.94
                            13 2.94  10 2.94  14 2.94  17 2.94
  17  0.444  0.778  0.346-  27 2.92  24 2.92  26 2.94   9 2.94  15 2.94   2 2.94  10 2.94  11 2.94
                             8 2.94  14 2.94  16 2.94  18 2.94
  18  0.778  0.778  0.346-  22 2.92  27 2.92  25 2.94  16 2.94   7 2.94  13 2.94  12 2.94   3 2.94
                            11 2.94   9 2.94  15 2.94  17 2.94
  19  0.889  0.222  0.454-  10 2.94  12 2.94  15 2.94  26 2.94  25 2.94  24 2.94  22 2.94  28 2.95
                            21 2.95  20 2.95  32 2.99  31 2.99
  20  0.223  0.223  0.453-  36 2.70  23 2.91  21 2.91  11 2.91  13 2.91  29 2.92  31 2.92  10 2.93
                            26 2.95  19 2.95  27 2.95  22 2.95
  21  0.553  0.223  0.453-  36 2.70  20 2.91  23 2.91  14 2.91  11 2.91  30 2.92  32 2.92  12 2.93
                            25 2.95  19 2.95  27 2.95  24 2.95
  22  0.886  0.557  0.453-  24 2.91  27 2.91  18 2.92  15 2.92  13 2.93  25 2.94  19 2.94  23 2.95
                            20 2.95  33 2.96  31 2.96  35 2.96
  23  0.223  0.553  0.453-  36 2.70  20 2.91  21 2.91  13 2.91  14 2.91  33 2.92  34 2.92  16 2.93
                            25 2.95  26 2.95  22 2.95  24 2.95
  24  0.557  0.557  0.453-  27 2.91  22 2.91  15 2.92  17 2.92  14 2.93  26 2.94  19 2.94  21 2.95
                            23 2.95  32 2.96  34 2.96  35 2.96
  25  0.889  0.889  0.454-  16 2.94  12 2.94  18 2.94  19 2.94  26 2.94  22 2.94  27 2.94  28 2.95
                            23 2.95  21 2.95  33 2.99  30 2.99
  26  0.222  0.889  0.454-  10 2.94  16 2.94  17 2.94  19 2.94  25 2.94  27 2.94  24 2.94  28 2.95
                            20 2.95  23 2.95  29 2.99  34 2.99
  27  0.557  0.886  0.453-  24 2.91  22 2.91  17 2.92  18 2.92  11 2.93  26 2.94  25 2.94  20 2.95
                            21 2.95  29 2.96  30 2.96  35 2.96
  28  0.000  0.000  0.563-  25 2.95  19 2.95  26 2.95  34 2.99  32 2.99  33 2.99  30 2.99  31 2.99
                            29 2.99
  29  0.334  0.010  0.562-  30 2.84  31 2.85  36 2.86  20 2.92  27 2.96  35 2.98  26 2.99  28 2.99
                            34 3.12
  30  0.656  0.010  0.562-  29 2.84  32 2.85  36 2.86  21 2.92  27 2.96  35 2.98  25 2.99  28 2.99
                            33 3.12
  31  0.010  0.334  0.562-  33 2.84  29 2.85  36 2.86  20 2.92  22 2.96  35 2.98  19 2.99  28 2.99
                            32 3.12
  32  0.656  0.334  0.562-  34 2.84  30 2.85  36 2.86  21 2.92  24 2.96  35 2.98  19 2.99  28 2.99
                            31 3.12
  33  0.010  0.656  0.562-  31 2.84  34 2.85  36 2.86  23 2.92  22 2.96  35 2.98  25 2.99  28 2.99
                            30 3.12
  34  0.334  0.656  0.562-  32 2.84  33 2.85  36 2.86  23 2.92  24 2.96  35 2.98  26 2.99  28 2.99
                            29 3.12
  35  0.667  0.667  0.563-  24 2.96  27 2.96  22 2.96  29 2.98  34 2.98  32 2.98  31 2.98  30 2.98
                            33 2.98
  36  0.333  0.333  0.548-  37 1.80  20 2.70  23 2.70  21 2.70  33 2.86  31 2.86  29 2.86  30 2.86
                            34 2.86  32 2.86
  37  0.333  0.333  0.629-  38 1.17  36 1.80
  38  0.333  0.333  0.682-  37 1.17

  LATTYP: Found a hexagonal cell.
 ALAT       =     8.8135128021
 C/A-ratio  =     2.5184286595

  Lattice vectors:

 A1 = (  -4.4067569092,  -7.6327256898,   0.0000000000)
 A2 = (   8.8135128021,   0.0000000000,   0.0000000000)
 A3 = (   0.0000000000,   0.0000000000,  22.1962032318)

Analysis of symmetry for initial positions (statically):
 Subroutine PRICEL returns:
 Original cell was already a primitive cell.

 Routine SETGRP: Setting up the symmetry group for a
 hexagonal supercell.

 Subroutine GETGRP returns: Found  6 space group operations
 (whereof  6 operations were pure point group operations)
 out of a pool of 24 trial point group operations.

The static configuration has the point symmetry C_3v.

Analysis of symmetry for dynamics (positions and initial velocities):
 Subroutine PRICEL returns:
 Original cell was already a primitive cell.

[...]

The dynamic configuration has the point symmetry C_3v.

Analysis of constrained symmetry for selective dynamics:
 Subroutine PRICEL returns:
[...]
     33      -4.8469      2.00000
     34      -4.8074      2.00000
     35      -4.7893      2.00000
     36      -4.7734      2.00000
     37      -4.7697      2.00000
     38      -4.7479      2.00000
     39      -4.6436      2.00000
     40      -4.5902      2.00000
     41      -4.5670      2.00000
     42      -4.5654      2.00000
     43      -4.5234      2.00000
     44      -4.4562      2.00000
     45      -4.4261      2.00000
     46      -4.3973      2.00000
     47      -4.3293      2.00000
     48      -4.3168      2.00000
     49      -4.3071      2.00000
     50      -4.3010      2.00000
     51      -4.2016      2.00000
     52      -4.1759      2.00000
     53      -4.1475      2.00000
     54      -4.1320      2.00000
     55      -4.1272      2.00000
     56      -4.1192      2.00000
     57      -4.1028      2.00000
     58      -4.0703      2.00000
     59      -4.0307      2.00000
     60      -3.9991      2.00000
[...]
    238       6.1253      0.00000
    239       6.4066      0.00000
    240       6.4521      0.00000
    241       6.5028      0.00000
    242       6.5285      0.00000
    243       6.5485      0.00000
    244       6.5854      0.00000
    245       6.7760      0.00000
    246       6.8269      0.00000
    247       6.8330      0.00000
    248       6.8780      0.00000
    249       7.1826      0.00000
    250       7.2082      0.00000
    251       7.3047      0.00000
    252       7.5887      0.00000

 soft charge-density along one line, spin component           1
         0         1         2         3         4         5         6         7         8         9
 total charge-density along one line

------------------------ aborting loop because EDIFF is reached ----------------------------------------

 total charge

# of ion       s       p       d       tot
    1        0.546   0.238   8.769   9.553
    2        0.544   0.241   8.765   9.551
    3        0.544   0.241   8.765   9.551
    4        0.544   0.241   8.765   9.551
    5        0.545   0.242   8.759   9.545
    6        0.544   0.241   8.765   9.551
    7        0.544   0.241   8.765   9.551
    8        0.544   0.241   8.765   9.551
    9        0.543   0.239   8.771   9.553
   10        0.522   0.308   8.769   9.599
   11        0.524   0.307   8.781   9.612
   12        0.522   0.308   8.769   9.599
   13        0.524   0.307   8.781   9.612
   14        0.524   0.307   8.781   9.612
   15        0.516   0.310   8.775   9.602
   16        0.522   0.308   8.769   9.599
   17        0.516   0.310   8.775   9.602
   18        0.516   0.310   8.775   9.602
   19        0.517   0.299   8.775   9.591
   20        0.552   0.331   8.751   9.635
   21        0.552   0.331   8.751   9.635
   22        0.510   0.311   8.776   9.596
   23        0.552   0.331   8.751   9.635
   24        0.510   0.311   8.776   9.596
   25        0.517   0.299   8.775   9.591
   26        0.517   0.299   8.775   9.591
   27        0.510   0.311   8.776   9.596
   28        0.539   0.222   8.765   9.526
   29        0.556   0.240   8.753   9.550
   30        0.556   0.240   8.753   9.550
   31        0.556   0.240   8.753   9.550
   32        0.556   0.240   8.753   9.550
   33        0.556   0.240   8.753   9.550
   34        0.556   0.240   8.753   9.550
   35        0.536   0.223   8.766   9.524
   36        0.304   0.340   5.084   5.727
   37        0.966   1.551   0.000   2.516
   38        1.612   3.529   0.000   5.141
tot         21.618  15.067 311.908 348.592

  FORCE on cell =-STRESS in cart. coord.  units (eV):
  Direction    XX          YY          ZZ          XY          YZ          ZX
  Alpha Z  1030.79834  1030.79834  1030.79834
  Ewald  117620.30002117620.30046************    -0.00031    -0.00008    -0.00012
  Hartree126492.43287126492.43288************     0.00001    -0.00002    -0.00003
  E(xc)   -1804.38179 -1804.38187 -1811.11110     0.00007    -0.00001    -0.00002
  Local  ************************256119.15440     0.00207     0.00001    -0.00002
  n-local  -124.49941   -76.64344   -80.36160    23.68794    -1.50973     1.62432
  augment  2400.10865  2400.11019  2417.14515    -0.00133     0.00000     0.00003
  Kinetic  5604.85983  5617.19609  5638.76505     7.16688    -0.17502     0.67413
  Fock        0.00000     0.00000     0.00000     0.00000     0.00000     0.00000
  Total     -22.78650   -22.78650     2.24661    -0.00000     0.00000     0.00000
  in kB     -24.45011   -24.45011     2.41063    -0.00000     0.00000     0.00000

 VOLUME and BASIS-vectors are now :
  energy-cutoff  :      500.00
  volume of cell :     1493.16
      direct lattice vectors                 reciprocal lattice vectors
     8.813512802  0.000000000  0.000000000     0.113462137 -0.065507406  0.000000000
     4.406756909  7.632725690  0.000000000     0.000000000  0.131014796  0.000000000
     0.000000000  0.000000000 22.196203232     0.000000000  0.000000000  0.045052750

  length of vectors
     8.813512802  8.813512802 22.196203232     0.131014796  0.131014796  0.045052750

 FORCES acting on ions
    electron-ion (+dipol)            ewald-force                    non-local-force                 convergence-correction
   -.195E-04 -.162E-04 0.249E+04   0.519E-04 0.434E-04 -.249E+04   -.404E-18 0.364E-17 -.824E+00   -.296E-03 -.184E-03 -.119E+00
   0.599E+00 0.242E+00 0.249E+04   -.635E+00 -.332E+00 -.249E+04   0.482E-01 0.658E-01 -.282E+00   -.696E-02 0.351E-01 -.165E+00
   -.599E+00 0.242E+00 0.249E+04   0.635E+00 -.332E+00 -.249E+04   -.482E-01 0.658E-01 -.282E+00   0.734E-02 0.371E-01 -.164E+00
   0.509E+00 0.397E+00 0.249E+04   -.605E+00 -.384E+00 -.249E+04   0.811E-01 0.878E-02 -.282E+00   0.270E-01 -.237E-01 -.165E+00
   0.917E-05 -.230E-04 0.249E+04   0.951E-04 0.174E-05 -.249E+04   0.101E-17 0.203E-17 -.950E-01   0.432E-02 0.263E-02 -.144E+00
   -.509E+00 0.397E+00 0.249E+04   0.605E+00 -.384E+00 -.249E+04   -.811E-01 0.878E-02 -.282E+00   -.286E-01 -.228E-01 -.164E+00
   -.897E-01 -.640E+00 0.249E+04   0.302E-01 0.716E+00 -.249E+04   0.329E-01 -.746E-01 -.282E+00   0.358E-01 -.122E-01 -.164E+00
   0.896E-01 -.640E+00 0.249E+04   -.303E-01 0.716E+00 -.249E+04   -.330E-01 -.746E-01 -.282E+00   -.340E-01 -.133E-01 -.164E+00
   0.196E-04 -.416E-04 0.249E+04   0.166E-03 -.201E-04 -.249E+04   -.987E-18 -.183E-17 -.564E+00   -.456E-02 -.236E-02 -.220E+00
   0.465E+01 0.269E+01 0.853E+03   -.435E+01 -.251E+01 -.853E+03   -.272E+00 -.157E+00 -.654E+00   -.225E-01 -.131E-01 0.585E+00
   0.152E-04 0.503E+01 0.861E+03   0.147E-03 -.519E+01 -.862E+03   0.609E-08 0.915E-01 -.284E+00   0.436E-02 0.291E-01 0.632E+00
   -.465E+01 0.269E+01 0.853E+03   0.435E+01 -.251E+01 -.853E+03   0.272E+00 -.157E+00 -.654E+00   0.207E-01 -.119E-01 0.586E+00
   0.435E+01 -.251E+01 0.861E+03   -.450E+01 0.260E+01 -.862E+03   0.792E-01 -.458E-01 -.284E+00   0.277E-01 -.105E-01 0.632E+00
   -.435E+01 -.251E+01 0.861E+03   0.450E+01 0.260E+01 -.862E+03   -.792E-01 -.458E-01 -.284E+00   -.200E-01 -.117E-01 0.631E+00
   0.309E-04 0.387E+01 0.857E+03   0.236E-03 -.389E+01 -.857E+03   0.176E-08 0.264E-01 -.531E+00   -.249E-02 -.576E-01 0.622E+00
   -.215E-04 -.537E+01 0.853E+03   0.163E-03 0.502E+01 -.853E+03   0.209E-07 0.314E+00 -.654E+00   -.178E-03 0.239E-01 0.586E+00
   0.335E+01 -.194E+01 0.857E+03   -.337E+01 0.194E+01 -.857E+03   0.228E-01 -.132E-01 -.531E+00   -.509E-01 0.271E-01 0.622E+00
   -.335E+01 -.194E+01 0.857E+03   0.337E+01 0.194E+01 -.857E+03   -.228E-01 -.132E-01 -.531E+00   0.515E-01 0.295E-01 0.623E+00
   -.411E-04 0.215E+01 -.815E+03   0.542E-04 -.228E+01 0.813E+03   0.365E-08 0.549E-01 0.646E+00   -.464E-02 0.718E-01 0.116E+01
   0.208E+02 0.120E+02 -.775E+03   -.203E+02 -.117E+02 0.774E+03   -.111E+01 -.640E+00 -.101E+01   0.562E+00 0.325E+00 0.212E+01
   -.208E+02 0.120E+02 -.775E+03   0.203E+02 -.117E+02 0.774E+03   0.111E+01 -.640E+00 -.101E+01   -.560E+00 0.324E+00 0.212E+01
   0.250E+01 -.144E+01 -.799E+03   -.310E+01 0.179E+01 0.797E+03   0.378E+00 -.218E+00 0.565E+00   0.249E+00 -.142E+00 0.129E+01
   -.917E-05 -.240E+02 -.775E+03   0.141E-03 0.235E+02 0.774E+03   0.852E-07 0.128E+01 -.101E+01   0.440E-03 -.647E+00 0.212E+01
   -.250E+01 -.144E+01 -.799E+03   0.310E+01 0.179E+01 0.797E+03   -.378E+00 -.218E+00 0.565E+00   -.249E+00 -.144E+00 0.129E+01
   -.186E+01 -.107E+01 -.815E+03   0.197E+01 0.114E+01 0.813E+03   -.475E-01 -.274E-01 0.646E+00   -.665E-01 -.385E-01 0.116E+01
   0.186E+01 -.107E+01 -.815E+03   -.197E+01 0.114E+01 0.813E+03   0.475E-01 -.274E-01 0.646E+00   0.602E-01 -.399E-01 0.116E+01
   0.120E-04 0.288E+01 -.799E+03   0.196E-03 -.358E+01 0.797E+03   0.291E-07 0.437E+00 0.565E+00   0.106E-02 0.287E+00 0.129E+01
   -.139E-04 -.139E-04 -.243E+04   0.305E-04 0.350E-04 0.243E+04   0.490E-17 0.430E-17 0.702E+00   -.385E-03 -.240E-03 0.748E+00
   0.353E+02 0.580E+02 -.240E+04   -.353E+02 -.580E+02 0.239E+04   -.705E+00 -.108E+01 0.472E+00   0.559E+00 0.954E+00 0.621E+00
   -.353E+02 0.580E+02 -.240E+04   0.353E+02 -.580E+02 0.239E+04   0.705E+00 -.108E+01 0.472E+00   -.558E+00 0.956E+00 0.620E+00
   0.679E+02 0.160E+01 -.240E+04   -.679E+02 -.153E+01 0.239E+04   -.129E+01 -.706E-01 0.472E+00   0.111E+01 0.674E-02 0.621E+00
   -.679E+02 0.160E+01 -.240E+04   0.679E+02 -.153E+01 0.239E+04   0.129E+01 -.706E-01 0.472E+00   -.111E+01 0.712E-02 0.620E+00
   0.326E+02 -.596E+02 -.240E+04   -.326E+02 0.595E+02 0.239E+04   -.583E+00 0.115E+01 0.472E+00   0.549E+00 -.961E+00 0.620E+00
   -.326E+02 -.596E+02 -.240E+04   0.326E+02 0.595E+02 0.239E+04   0.583E+00 0.115E+01 0.472E+00   -.547E+00 -.962E+00 0.620E+00
   0.354E-04 -.275E-04 -.243E+04   0.140E-03 -.504E-04 0.243E+04   -.137E-17 0.214E-17 0.643E+00   -.429E-02 -.218E-02 0.658E+00
   -.288E-04 -.127E-04 -.131E+04   0.740E-04 0.688E-05 0.131E+04   0.671E-17 0.286E-17 -.168E+01   0.314E-02 0.191E-02 0.637E+00
   -.342E-05 -.820E-04 -.850E+03   0.159E-04 0.104E-05 0.835E+03   -.517E-18 -.173E-18 0.165E+02   0.123E-02 0.748E-03 -.865E+00
   0.240E-03 -.915E-04 -.153E+04   0.592E-05 0.592E-06 0.159E+04   0.156E-18 0.283E-18 -.587E+02   0.374E-02 0.229E-02 -.626E+00
   -.549E-03 -.949E-03 0.250E+02   0.920E-14 0.193E-12 0.773E-11   0.498E-17 -.217E-15 -.467E+02   0.550E-02 0.397E-02 0.221E+02

 POSITION                                       TOTAL-FORCE (eV/Angst)
      0.00000      0.00000      5.28038         0.000000      0.000000     -0.140199
      2.93784      0.00000      5.28038         0.005311      0.012443     -0.068267
      5.87568      0.00000      5.28038        -0.005311      0.012443     -0.068267
      1.46892      2.54424      5.28038         0.013431     -0.001622     -0.068267
      4.40676      2.54424      5.28038         0.000000      0.000000     -0.115952
      7.34459      2.54424      5.28038        -0.013431     -0.001622     -0.068267
      2.93784      5.08848      5.28038         0.008121     -0.010821     -0.068267
      5.87568      5.08848      5.28038        -0.008121     -0.010821     -0.068267
      8.81351      5.08848      5.28038         0.000000      0.000000     -0.087651
      1.46892      0.84808      7.67911         0.007211      0.004163      0.120981
      4.40676      0.84808      7.67911        -0.000000     -0.046404      0.049569
      7.34459      0.84808      7.67911        -0.007211      0.004163      0.120981
      2.93784      3.39232      7.67911        -0.040187      0.023202      0.049569
      5.87568      3.39232      7.67911         0.040187      0.023202      0.049569
      8.81351      3.39232      7.67911        -0.000000     -0.046094      0.090365
      4.40676      5.93656      7.67911        -0.000000     -0.008327      0.120981
      7.34459      5.93656      7.67911        -0.039918      0.023047      0.090365
     10.28243      5.93656      7.67911         0.039918      0.023047      0.090365
      8.81351      1.69603     10.07479         0.000000      0.001611      0.029183
      2.95306      1.70495     10.04990        -0.048161     -0.027806     -0.149929
      5.86045      1.70495     10.04990         0.048161     -0.027806     -0.149929
     10.26640      4.24966     10.05812         0.022795     -0.013161      0.002674
      4.40676      4.22282     10.04990         0.000000      0.055611     -0.149929
      7.36062      4.24966     10.05812        -0.022795     -0.013161      0.002674
     11.75147      6.78471     10.07479        -0.001395     -0.000805      0.029183
      5.87556      6.78471     10.07479         0.001395     -0.000805      0.029183
      8.81351      6.76613     10.05812         0.000000      0.026321      0.002674
      0.00000      0.00000     12.48774         0.000000      0.000000     -0.049683
      2.98478      0.07843     12.47445        -0.056133     -0.104770     -0.076152
      5.82873      0.07843     12.47445         0.056133     -0.104770     -0.076152
      1.56032      2.54568     12.47445        -0.118800      0.003772     -0.076152
      7.25320      2.54568     12.47445         0.118800      0.003772     -0.076152
      2.98229      5.00861     12.47445        -0.062667      0.100998     -0.076152
      5.83122      5.00861     12.47445         0.062667      0.100998     -0.076152
      8.81351      5.08848     12.49541         0.000000      0.000000     -0.028258
      4.40676      2.54424     12.16834         0.000000      0.000000      0.801734
      4.40676      2.54424     13.96543         0.000000      0.000000      0.102047
      4.40676      2.54424     15.13614         0.000000      0.000000     -0.044052
    total drift:                                0.004952      0.003020      0.368950

  FREE ENERGIE OF THE ION-ELECTRON SYSTEM (eV)
  free  energy   TOTEN  =      -130.22425510 eV

  energy  without entropy=     -130.22425510  energy(sigma->0) =     -130.22425510

 stress matrix after NEB project (eV)
    -22.78650     -0.00000      0.00000
     -0.00000    -22.78650      0.00000
      0.00000      0.00000      2.24661
  FORCES: max atom, RMS     0.102047    0.018031
  FORCE total and by dimension    0.111149    0.102047
  Stress total and by dimension   32.303194   22.786500
|           W    W    AA    RRRRR   N    N  II  N    N   GGGG   !!!           |
|           W    W   A  A   R    R  NN   N  II  NN   N  G    G  !!!           |
|           W    W  A    A  R    R  N N  N  II  N N  N  G       !!!           |
|           W WW W  AAAAAA  RRRRR   N  N N  II  N  N N  G  GGG   !            |
|           WW  WW  A    A  R   R   N   NN  II  N   NN  G    G                |
|           W    W  A    A  R    R  N    N  II  N    N   GGGG   !!!           |
|     Tetrahedron method does not include variations of the Fermi             |
|     occupations, so forces and stress will be inaccurate. We suggest        |
|     using a different smearing scheme ISMEAR = 1 or 2 for metals in         |
|     relaxations.                                                            |

 total charge

# of ion       s       p       d       tot
    1        0.546   0.238   8.769   9.553
    2        0.544   0.241   8.765   9.551
    3        0.544   0.241   8.765   9.551
    4        0.544   0.241   8.765   9.551
    5        0.545   0.242   8.759   9.545
    6        0.544   0.241   8.765   9.551
    7        0.544   0.241   8.765   9.551
    8        0.544   0.241   8.765   9.551
    9        0.543   0.239   8.771   9.553
   10        0.522   0.308   8.769   9.599
   11        0.524   0.307   8.781   9.612
   12        0.522   0.308   8.769   9.599
   13        0.524   0.307   8.781   9.612
   14        0.524   0.307   8.781   9.612
   15        0.516   0.310   8.775   9.602
   16        0.522   0.308   8.769   9.599
   17        0.516   0.310   8.775   9.602
   18        0.516   0.310   8.775   9.602
   19        0.517   0.299   8.775   9.591
   20        0.552   0.331   8.751   9.635
   21        0.552   0.331   8.751   9.635
   22        0.510   0.311   8.776   9.596
   23        0.552   0.331   8.751   9.635
   24        0.510   0.311   8.776   9.596
   25        0.517   0.299   8.775   9.591
   26        0.517   0.299   8.775   9.591
   27        0.510   0.311   8.776   9.596
   28        0.539   0.222   8.765   9.526
   29        0.556   0.240   8.753   9.550
   30        0.556   0.240   8.753   9.550
   31        0.556   0.240   8.753   9.550
   32        0.556   0.240   8.753   9.550
   33        0.556   0.240   8.753   9.550
   34        0.556   0.240   8.753   9.550
   35        0.536   0.223   8.766   9.524
   36        0.304   0.340   5.084   5.727
   37        0.966   1.551   0.000   2.516
   38        1.612   3.529   0.000   5.141
tot         21.618  15.067 311.908 348.592

 BZINTS: Fermi energy:    0.657107;  402.000000 electrons
         Band energy:-0.127594E+04;  BLOECHL correction:   -0.049120