 vasp.6.2.0 18Jan21 (build Jun 12 2021 23:27:24) complex

 executed on             LinuxIFC date 2022.05.26  19:31:18

 INCAR:
   ISMEAR = -5
   SIGMA = 0.1
   ISPIN = 1
   EDIFF = 1.d-5
   EDIFFG = -0.01
   NSW = 0
   NELM = 150
   ENCUT = 500
   ISIF = 2
   IBRION = 2
   LREAL = Auto
   ALGO = Fast
   ICHARG = 11
   LORBIT = 10
   LCHARG = .F.
   LWAVE = .F.

 POTCAR:    PAW_PBE Au 04Oct2007
 POTCAR:    PAW_PBE Ta 17Jan2003
 POTCAR:    PAW_PBE N 08Apr2002
|           W    W    AA    RRRRR   N    N  II  N    N   GGGG   !!!           |
|           W    W   A  A   R    R  NN   N  II  NN   N  G    G  !!!           |
|           W    W  A    A  R    R  N N  N  II  N N  N  G       !!!           |
|           W WW W  AAAAAA  RRRRR   N  N N  II  N  N N  G  GGG   !            |
|           WW  WW  A    A  R   R   N   NN  II  N   NN  G    G                |
|           W    W  A    A  R    R  N    N  II  N    N   GGGG   !!!           |
|     For optimal performance we recommend to set                             |
|       NCORE = 2 up to number-of-cores-per-socket                            |
|     This setting can greatly improve the performance of VASP for DFT.       |
|     The default, NCORE=1 might be grossly inefficient on modern             |
|     multi-core architectures or massively parallel machines. Do your        |
|     Unfortunately you need to use the default for GW and RPA                |
|     calculations (for HF NCORE is supported but not extensively tested      |
|     yet).                                                                   |

 POTCAR:    PAW_PBE Au 04Oct2007
   VRHFIN =Au: s1d10

   TITEL  = PAW_PBE Au 04Oct2007
   POMASS =  196.966; ZVAL   =   11.000    mass and valenz
   ENMAX  =  229.943; ENMIN  =  172.457 eV

 POTCAR:    PAW_PBE Ta 17Jan2003
   VRHFIN =Ta:  6s5d

   TITEL  = PAW_PBE Ta 17Jan2003
   POMASS =  180.948; ZVAL   =    5.000    mass and valenz
   ENMAX  =  223.667; ENMIN  =  167.750 eV

 POTCAR:    PAW_PBE N 08Apr2002
   VRHFIN =N: s2p3

   TITEL  = PAW_PBE N 08Apr2002
   POMASS =   14.001; ZVAL   =    5.000    mass and valenz
   ENMAX  =  400.000; ENMIN  =  300.000 eV

 Optimization of the real space projectors (new method)

 maximal supplied QI-value         = 15.12
 optimisation between [QCUT,QGAM] = [ 11.34, 22.83] = [ 36.00,145.93] Ry
 Optimized for a Real-space Cutoff    1.39 Angstroem

   l    n(q)    QCUT    max X(q) W(low)/X(q) W(high)/X(q)  e(spline)
   2      9    11.338    60.898    0.39E-03    0.42E-03    0.21E-06
   2      9    11.338    58.894    0.40E-03    0.42E-03    0.22E-06
   0      9    11.338   109.617    0.13E-03    0.20E-04    0.13E-06
   0      9    11.338    75.026    0.13E-03    0.20E-04    0.13E-06
   1      9    11.338    16.344    0.33E-04    0.24E-03    0.18E-06
   1      9    11.338    10.160    0.26E-04    0.19E-03    0.15E-06
 Optimization of the real space projectors (new method)

[...]

   l    n(q)    QCUT    max X(q) W(low)/X(q) W(high)/X(q)  e(spline)
   2     10    11.437    62.315    0.14E-03    0.26E-03    0.80E-06
   2     10    11.437    52.185    0.14E-03    0.26E-03    0.80E-06
   0     11    11.437   103.837    0.25E-04    0.17E-04    0.84E-07
   0     11    11.437    59.728    0.20E-04    0.15E-04    0.73E-07
   1     11    11.437    13.958    0.47E-03    0.12E-03    0.89E-06
   1     11    11.437     8.441    0.33E-03    0.88E-04    0.61E-06
 Optimization of the real space projectors (new method)

 maximal supplied QI-value         = 25.13
 optimisation between [QCUT,QGAM] = [ 11.31, 22.87] = [ 35.82,146.48] Ry
 Optimized for a Real-space Cutoff    1.27 Angstroem

   l    n(q)    QCUT    max X(q) W(low)/X(q) W(high)/X(q)  e(spline)
   0      9    11.310    79.467    0.75E-04    0.16E-03    0.36E-06
   0      9    11.310    66.151    0.74E-04    0.16E-03    0.36E-06
   1      8    11.310    17.416    0.35E-03    0.12E-03    0.95E-06
   1      8    11.310    12.382    0.37E-03    0.13E-03    0.98E-06
  PAW_PBE Au 04Oct2007                  :
  PAW_PBE Ta 17Jan2003                  :
  PAW_PBE N 08Apr2002                   :

 POSCAR: Au-Ta-N
  positions in direct lattice
  velocities in cartesian coordinates
 exchange correlation table for  LEXCH =        8
   RHO(1)=    0.500       N(1)  =     2000
   RHO(2)=  100.500       N(2)  =     4000

 VTST: version 3.2, (02/03/18)

 CHAIN: initializing optimizer

 OPT: Using VASP Conjugate-Gradient optimizer
 CHAIN: Read ICHAIN            0

 POSCAR: Au-Ta-N
  positions in direct lattice
  velocities in cartesian coordinates

 ion  position               nearest neighbor table
   1  0.000  0.000  0.238-  16 2.94  12 2.94   6 2.94   8 2.94   7 2.94   3 2.94  10 2.94   4 2.94
                             2 2.94
   2  0.333  0.000  0.238-   9 2.94  11 2.94  17 2.94  10 2.94   8 2.94   4 2.94   5 2.94   1 2.94
                             3 2.94
   3  0.667  0.000  0.238-   7 2.94  18 2.94  12 2.94   1 2.94  11 2.94   5 2.94   6 2.94   9 2.94
                             2 2.94
   4  0.000  0.333  0.238-  10 2.94   6 2.94   5 2.94  13 2.94   2 2.94  15 2.94   9 2.94   1 2.94
                             7 2.94
   5  0.333  0.333  0.238-  13 2.94   7 2.94  11 2.94   4 2.94   2 2.94  14 2.94   3 2.94   8 2.94
                             6 2.94
   6  0.667  0.333  0.238-  15 2.94  14 2.94   1 2.94  12 2.94   4 2.94   9 2.94   8 2.94   3 2.94
                             5 2.94
   7  0.000  0.667  0.238-  18 2.94   3 2.94  16 2.94   5 2.94   1 2.94  13 2.94   8 2.94   4 2.94
                             9 2.94
   8  0.333  0.667  0.238-   9 2.94  17 2.94   1 2.94   2 2.94  14 2.94  16 2.94   6 2.94   7 2.94
                             5 2.94
   9  0.667  0.667  0.238-   2 2.94   8 2.94  17 2.94   6 2.94  15 2.94   4 2.94   3 2.94  18 2.94
                             7 2.94
  10  0.111  0.111  0.346-  20 2.91  11 2.94  17 2.94   2 2.94   4 2.94   1 2.94  12 2.94  16 2.94
                            13 2.94  15 2.94  26 2.96  19 2.96
  11  0.444  0.111  0.346-  20 2.91  21 2.91  13 2.94   2 2.94  10 2.94  17 2.94   5 2.94   3 2.94
                            18 2.94  14 2.94  12 2.94  27 2.94
  12  0.778  0.111  0.346-  21 2.91  16 2.94  18 2.94   1 2.94  14 2.94  15 2.94   3 2.94   6 2.94
                            10 2.94  11 2.94  25 2.96  19 2.96
  13  0.111  0.444  0.346-  23 2.91  20 2.91   5 2.94  18 2.94  11 2.94   7 2.94   4 2.94  16 2.94
                            10 2.94  14 2.94  15 2.94  22 2.94
  14  0.444  0.444  0.346-  21 2.91  23 2.91  15 2.94   6 2.94  12 2.94   8 2.94  17 2.94   5 2.94
                            16 2.94  13 2.94  11 2.94  24 2.94
  15  0.778  0.444  0.346-  24 2.92  22 2.92  14 2.94   6 2.94  17 2.94  12 2.94   9 2.94   4 2.94
                            10 2.94  13 2.94  18 2.94  19 2.95
  16  0.111  0.778  0.346-  23 2.91  18 2.94  12 2.94   7 2.94   1 2.94   8 2.94  13 2.94  10 2.94
                            14 2.94  17 2.94  25 2.96  26 2.96
  17  0.444  0.778  0.346-  27 2.92  24 2.92   9 2.94  15 2.94   2 2.94  10 2.94  11 2.94   8 2.94
                            14 2.94  16 2.94  18 2.94  26 2.95
  18  0.778  0.778  0.346-  22 2.92  27 2.92  16 2.94   7 2.94  13 2.94  12 2.94   3 2.94  11 2.94
                             9 2.94  15 2.94  17 2.94  25 2.95
  19  0.888  0.223  0.455-  24 2.93  22 2.93  21 2.93  20 2.93  28 2.95  15 2.95  26 2.95  25 2.95
                            10 2.96  12 2.96  32 3.06  31 3.06
  20  0.222  0.222  0.453-  36 2.74  10 2.91  11 2.91  13 2.91  26 2.93  19 2.93  23 2.95  21 2.95
                            27 2.95  22 2.95  29 2.99  31 2.99
  21  0.556  0.222  0.453-  36 2.74  12 2.91  14 2.91  11 2.91  25 2.93  19 2.93  20 2.95  23 2.95
                            27 2.95  24 2.95  30 2.99  32 2.99
  22  0.886  0.557  0.454-  24 2.91  27 2.91  18 2.92  15 2.92  25 2.93  19 2.93  13 2.94  23 2.95
                            20 2.95  35 2.96  33 3.03  31 3.03
  23  0.222  0.556  0.453-  36 2.74  16 2.91  13 2.91  14 2.91  25 2.93  26 2.93  20 2.95  21 2.95
                            22 2.95  24 2.95  33 2.99  34 2.99
  24  0.557  0.557  0.454-  27 2.91  22 2.91  15 2.92  17 2.92  26 2.93  19 2.93  14 2.94  21 2.95
                            23 2.95  35 2.96  32 3.03  34 3.03
  25  0.888  0.888  0.455-  22 2.93  27 2.93  23 2.93  21 2.93  28 2.95  18 2.95  19 2.95  26 2.95
                            16 2.96  12 2.96  33 3.06  30 3.06
  26  0.223  0.888  0.455-  27 2.93  24 2.93  20 2.93  23 2.93  28 2.95  17 2.95  19 2.95  25 2.95
                            10 2.96  16 2.96  29 3.06  34 3.06
  27  0.557  0.886  0.454-  24 2.91  22 2.91  17 2.92  18 2.92  26 2.93  25 2.93  11 2.94  20 2.95
                            21 2.95  35 2.96  29 3.03  30 3.03
  28  0.000  0.000  0.563-  25 2.95  19 2.95  26 2.95  34 3.00  32 3.00  33 3.00  30 3.00  31 3.00
                            29 3.00
  29  0.334  0.012  0.567-  30 2.82  31 2.84  36 2.85  35 2.99  20 2.99  28 3.00  27 3.03  26 3.06
                            34 3.16
  30  0.654  0.012  0.567-  29 2.82  32 2.84  36 2.85  35 2.99  21 2.99  28 3.00  27 3.03  25 3.06
                            33 3.16
  31  0.012  0.334  0.567-  33 2.82  29 2.84  36 2.85  35 2.99  20 2.99  28 3.00  22 3.03  19 3.06
                            32 3.16
  32  0.654  0.334  0.567-  34 2.82  30 2.84  36 2.85  35 2.99  21 2.99  28 3.00  24 3.03  19 3.06
                            31 3.16
  33  0.012  0.654  0.567-  31 2.82  34 2.84  36 2.85  35 2.99  23 2.99  28 3.00  22 3.03  25 3.06
                            30 3.16
  34  0.334  0.654  0.567-  32 2.82  33 2.84  36 2.85  35 2.99  23 2.99  28 3.00  24 3.03  26 3.06
                            29 3.16
  35  0.667  0.667  0.563-  24 2.96  27 2.96  22 2.96  29 2.99  34 2.99  32 2.99  31 2.99  30 2.99
                            33 2.99
  36  0.333  0.333  0.550-  37 1.79  20 2.74  23 2.74  21 2.74  33 2.85  31 2.85  29 2.85  30 2.85
                            34 2.85  32 2.85
  37  0.333  0.333  0.630-  36 1.79

  LATTYP: Found a hexagonal cell.
 ALAT       =     8.8135128021
 C/A-ratio  =     2.5184286595

  Lattice vectors:

 A1 = (  -4.4067569092,  -7.6327256898,   0.0000000000)
 A2 = (   8.8135128021,   0.0000000000,   0.0000000000)
 A3 = (   0.0000000000,   0.0000000000,  22.1962032318)

Analysis of symmetry for initial positions (statically):
 Subroutine PRICEL returns:
 Original cell was already a primitive cell.

 Routine SETGRP: Setting up the symmetry group for a
 hexagonal supercell.

 Subroutine GETGRP returns: Found  6 space group operations
 (whereof  6 operations were pure point group operations)
 out of a pool of 24 trial point group operations.

The static configuration has the point symmetry C_3v.

Analysis of symmetry for dynamics (positions and initial velocities):
 Subroutine PRICEL returns:
 Original cell was already a primitive cell.

[...]

The dynamic configuration has the point symmetry C_3v.

Analysis of constrained symmetry for selective dynamics:
 Subroutine PRICEL returns:
 Original cell was already a primitive cell.

 Routine SETGRP: Setting up the symmetry group for a
 hexagonal supercell.

 Subroutine GETGRP returns: Found  6 space group operations
[...]
     24      -5.1568      2.00000
     25      -5.1229      2.00000
     26      -5.1072      2.00000
     27      -5.0761      2.00000
     28      -5.0236      2.00000
     29      -5.0054      2.00000
     30      -4.9412      2.00000
     31      -4.9249      2.00000
     32      -4.8968      2.00000
     33      -4.8204      2.00000
     34      -4.8142      2.00000
     35      -4.7959      2.00000
     36      -4.7564      2.00000
     37      -4.7506      2.00000
     38      -4.6475      2.00000
     39      -4.5948      2.00000
     40      -4.5435      2.00000
     41      -4.5066      2.00000
     42      -4.4748      2.00000
     43      -4.4458      2.00000
     44      -4.4232      2.00000
     45      -4.3942      2.00000
     46      -4.3595      2.00000
     47      -4.2808      2.00000
     48      -4.2694      2.00000
     49      -4.2425      2.00000
     50      -4.2073      2.00000
     51      -4.2029      2.00000
     52      -4.1866      2.00000
     53      -4.1670      2.00000
     54      -4.1602      2.00000
     55      -4.1281      2.00000
     56      -4.0933      2.00000
     57      -4.0761      2.00000
     58      -4.0565      2.00000
     59      -4.0471      2.00000
     60      -4.0267      2.00000
[...]
    238       6.4770      0.00000
    239       6.5777      0.00000
    240       6.6014      0.00000
    241       6.6813      0.00000
    242       6.7565      0.00000
    243       6.8697      0.00000
    244       6.9448      0.00000
    245       7.0765      0.00000
    246       7.1755      0.00000
    247       7.2658      0.00000
    248       7.3501      0.00000
    249       7.6585      0.00000
    250       7.6651      0.00000
    251       7.8762      0.00000
    252       7.8989      0.00000

 soft charge-density along one line, spin component           1
         0         1         2         3         4         5         6         7         8         9
 total charge-density along one line

------------------------ aborting loop because EDIFF is reached ----------------------------------------

 total charge

# of ion       s       p       d       tot
    1        0.544   0.239   8.766   9.549
    2        0.543   0.241   8.764   9.549
    3        0.543   0.241   8.764   9.549
    4        0.543   0.241   8.764   9.549
    5        0.543   0.241   8.763   9.547
    6        0.543   0.241   8.764   9.549
    7        0.543   0.241   8.764   9.549
    8        0.543   0.241   8.764   9.549
    9        0.541   0.241   8.768   9.550
   10        0.519   0.307   8.771   9.597
   11        0.521   0.308   8.775   9.605
   12        0.519   0.307   8.771   9.597
   13        0.521   0.308   8.775   9.605
   14        0.521   0.308   8.775   9.605
   15        0.515   0.309   8.773   9.597
   16        0.519   0.307   8.771   9.597
   17        0.515   0.309   8.773   9.597
   18        0.515   0.309   8.773   9.597
   19        0.516   0.292   8.773   9.581
   20        0.560   0.337   8.750   9.647
   21        0.560   0.337   8.750   9.647
   22        0.509   0.305   8.775   9.589
   23        0.560   0.337   8.750   9.647
   24        0.509   0.305   8.775   9.589
   25        0.516   0.292   8.773   9.581
   26        0.516   0.292   8.773   9.581
   27        0.509   0.305   8.775   9.589
   28        0.540   0.224   8.760   9.523
   29        0.572   0.241   8.750   9.564
   30        0.572   0.241   8.750   9.564
   31        0.572   0.241   8.750   9.564
   32        0.572   0.241   8.750   9.564
   33        0.572   0.241   8.750   9.564
   34        0.572   0.241   8.750   9.564
   35        0.541   0.227   8.755   9.523
   36        0.709   0.802   3.606   5.117
   37        1.336   2.207   0.000   3.544
tot         20.866  12.646 310.362 343.875

  FORCE on cell =-STRESS in cart. coord.  units (eV):
  Direction    XX          YY          ZZ          XY          YZ          ZX
  Alpha Z  1015.46748  1015.46748  1015.46748
  Ewald  116456.87585116456.87625************    -0.00032    -0.00009    -0.00014
  Hartree125001.58494125001.58494************     0.00001    -0.00002    -0.00004
  E(xc)   -1769.98629 -1769.98628 -1780.87396    -0.00000     0.00000     0.00000
  Local  ************************253768.30034     0.00189     0.00003     0.00004
  n-local   -83.50225   -40.14219   -41.21901    22.26078    -1.73482     1.65139
  augment  2366.72127  2366.72274  2386.85107    -0.00126     0.00002     0.00005
  Kinetic  5486.54073  5494.74752  5555.85245     5.51315     0.39470     0.22236
  Fock        0.00000     0.00000     0.00000     0.00000     0.00000     0.00000
  Total     -18.61880   -18.61880     2.49997    -0.00000     0.00000    -0.00000
  in kB     -19.97813   -19.97813     2.68249    -0.00000     0.00000    -0.00000

 VOLUME and BASIS-vectors are now :
  energy-cutoff  :      500.00
  volume of cell :     1493.16
      direct lattice vectors                 reciprocal lattice vectors
     8.813512802  0.000000000  0.000000000     0.113462137 -0.065507406  0.000000000
     4.406756909  7.632725690  0.000000000     0.000000000  0.131014796  0.000000000
     0.000000000  0.000000000 22.196203232     0.000000000  0.000000000  0.045052750

  length of vectors
     8.813512802  8.813512802 22.196203232     0.131014796  0.131014796  0.045052750

 FORCES acting on ions
    electron-ion (+dipol)            ewald-force                    non-local-force                 convergence-correction
   -.194E-04 -.160E-04 0.246E+04   0.519E-04 0.433E-04 -.246E+04   -.707E-17 -.481E-17 -.669E+00   -.188E-03 -.121E-03 -.703E-01
   0.591E+00 -.123E+00 0.246E+04   -.547E+00 -.580E-02 -.246E+04   -.942E-02 0.481E-01 -.307E+00   -.285E-01 0.782E-01 -.413E-01
   -.591E+00 -.123E+00 0.246E+04   0.547E+00 -.580E-02 -.246E+04   0.942E-02 0.481E-01 -.307E+00   0.288E-01 0.800E-01 -.407E-01
   0.189E+00 0.573E+00 0.246E+04   -.279E+00 -.471E+00 -.246E+04   0.369E-01 -.322E-01 -.307E+00   0.535E-01 -.638E-01 -.413E-01
   0.855E-05 -.233E-04 0.246E+04   0.951E-04 0.174E-05 -.246E+04   -.802E-18 -.829E-19 -.290E+00   0.419E-02 0.258E-02 -.121E-01
   -.189E+00 0.573E+00 0.246E+04   0.279E+00 -.471E+00 -.246E+04   -.369E-01 -.322E-01 -.307E+00   -.549E-01 -.629E-01 -.405E-01
   -.402E+00 -.450E+00 0.246E+04   0.268E+00 0.477E+00 -.246E+04   0.463E-01 -.159E-01 -.307E+00   0.837E-01 -.151E-01 -.406E-01
   0.402E+00 -.450E+00 0.246E+04   -.269E+00 0.477E+00 -.246E+04   -.463E-01 -.159E-01 -.307E+00   -.820E-01 -.161E-01 -.406E-01
   0.195E-04 -.417E-04 0.246E+04   0.166E-03 -.200E-04 -.246E+04   -.217E-17 0.114E-18 -.506E+00   -.454E-02 -.238E-02 -.645E-01
   0.509E+01 0.294E+01 0.803E+03   -.492E+01 -.284E+01 -.803E+03   -.251E+00 -.145E+00 -.406E+00   0.280E-01 0.163E-01 0.783E-01
   0.139E-04 0.104E+01 0.807E+03   0.148E-03 -.120E+01 -.807E+03   0.202E-08 0.304E-01 -.370E+00   0.374E-02 0.761E-01 0.123E+00
   -.509E+01 0.294E+01 0.803E+03   0.492E+01 -.284E+01 -.803E+03   0.251E+00 -.145E+00 -.406E+00   -.291E-01 0.168E-01 0.767E-01
   0.899E+00 -.519E+00 0.807E+03   -.104E+01 0.598E+00 -.807E+03   0.263E-01 -.152E-01 -.370E+00   0.679E-01 -.345E-01 0.124E+00
   -.899E+00 -.519E+00 0.807E+03   0.104E+01 0.598E+00 -.807E+03   -.263E-01 -.152E-01 -.370E+00   -.609E-01 -.353E-01 0.122E+00
   0.315E-04 0.529E+01 0.808E+03   0.235E-03 -.523E+01 -.808E+03   0.324E-09 0.486E-02 -.377E+00   -.166E-02 -.111E+00 0.974E-01
   -.211E-04 -.587E+01 0.803E+03   0.162E-03 0.568E+01 -.803E+03   0.193E-07 0.290E+00 -.406E+00   -.239E-03 -.336E-01 0.772E-01
   0.458E+01 -.265E+01 0.808E+03   -.453E+01 0.262E+01 -.808E+03   0.421E-02 -.243E-02 -.377E+00   -.963E-01 0.539E-01 0.968E-01
   -.458E+01 -.265E+01 0.808E+03   0.453E+01 0.262E+01 -.808E+03   -.421E-02 -.243E-02 -.377E+00   0.967E-01 0.554E-01 0.976E-01
   -.432E-04 -.134E+01 -.876E+03   0.555E-04 0.120E+01 0.875E+03   0.557E-08 0.837E-01 0.790E+00   0.508E-02 0.260E-01 0.543E-01
   -.859E+01 -.496E+01 -.852E+03   0.894E+01 0.516E+01 0.853E+03   -.848E+00 -.489E+00 -.817E+00   0.716E-01 0.420E-01 0.352E-01
   0.859E+01 -.496E+01 -.852E+03   -.894E+01 0.516E+01 0.853E+03   0.848E+00 -.489E+00 -.817E+00   -.790E-01 0.417E-01 0.349E-01
   -.134E+02 0.776E+01 -.856E+03   0.129E+02 -.743E+01 0.856E+03   0.516E+00 -.298E+00 0.782E+00   0.120E+00 -.703E-01 0.604E-01
   -.982E-05 0.992E+01 -.852E+03   0.138E-03 -.103E+02 0.853E+03   0.652E-07 0.979E+00 -.817E+00   -.379E-02 -.888E-01 0.350E-01
   0.134E+02 0.776E+01 -.856E+03   -.129E+02 -.743E+01 0.856E+03   -.516E+00 -.298E+00 0.782E+00   -.119E+00 -.692E-01 0.599E-01
   0.116E+01 0.672E+00 -.876E+03   -.104E+01 -.599E+00 0.875E+03   -.725E-01 -.418E-01 0.790E+00   -.175E-01 -.109E-01 0.536E-01
   -.116E+01 0.672E+00 -.876E+03   0.104E+01 -.599E+00 0.875E+03   0.725E-01 -.418E-01 0.790E+00   0.181E-01 -.893E-02 0.543E-01
   0.105E-04 -.155E+02 -.856E+03   0.197E-03 0.149E+02 0.856E+03   0.397E-07 0.596E+00 0.782E+00   -.278E-03 0.139E+00 0.604E-01
   -.125E-04 -.118E-04 -.242E+04   0.289E-04 0.322E-04 0.242E+04   -.432E-17 -.244E-18 0.445E+00   0.153E-02 0.660E-03 0.958E-01
   0.198E+02 0.242E+02 -.243E+04   -.189E+02 -.231E+02 0.243E+04   -.106E+01 -.152E+01 0.710E+00   0.102E-01 0.410E-01 0.516E-01
   -.198E+02 0.242E+02 -.243E+04   0.189E+02 -.231E+02 0.243E+04   0.106E+01 -.152E+01 0.710E+00   -.166E-01 0.420E-01 0.520E-01
   0.309E+02 0.504E+01 -.243E+04   -.295E+02 -.487E+01 0.243E+04   -.185E+01 -.156E+00 0.710E+00   0.404E-01 -.115E-01 0.510E-01
   -.309E+02 0.504E+01 -.243E+04   0.295E+02 -.487E+01 0.243E+04   0.185E+01 -.156E+00 0.710E+00   -.471E-01 -.105E-01 0.525E-01
   0.111E+02 -.292E+02 -.243E+04   -.105E+02 0.279E+02 0.243E+04   -.789E+00 0.168E+01 0.710E+00   0.282E-01 -.354E-01 0.518E-01
   -.111E+02 -.292E+02 -.243E+04   0.105E+02 0.279E+02 0.243E+04   0.789E+00 0.168E+01 0.710E+00   -.329E-01 -.356E-01 0.525E-01
   0.341E-04 -.308E-04 -.242E+04   0.141E-03 -.481E-04 0.242E+04   0.458E-17 -.640E-17 0.338E+00   -.301E-02 -.172E-02 0.100E+00
   -.646E-05 0.244E-05 -.940E+03   0.528E-04 0.493E-05 0.944E+03   0.584E-17 0.213E-17 -.141E+01   0.595E-03 0.425E-03 0.582E-02
   0.104E-03 -.582E-04 -.129E+04   0.215E-04 0.138E-05 0.131E+04   0.438E-19 -.153E-18 -.175E+02   0.173E-02 0.107E-02 -.330E-01
   -.702E-03 -.831E-03 0.171E+02   -.502E-13 0.203E-12 0.250E-11   0.121E-15 -.226E-15 -.184E+02   -.133E-01 -.429E-02 0.143E+01

 POSITION                                       TOTAL-FORCE (eV/Angst)
      0.00000      0.00000      5.28038         0.000000      0.000000     -0.092441
      2.93784      0.00000      5.28038         0.006095     -0.001400     -0.055425
      5.87568      0.00000      5.28038        -0.006095     -0.001400     -0.055425
      1.46892      2.54424      5.28038         0.001835      0.005979     -0.055425
      4.40676      2.54424      5.28038         0.000000      0.000000     -0.097468
      7.34459      2.54424      5.28038        -0.001835      0.005979     -0.055425
      2.93784      5.08848      5.28038        -0.004260     -0.004579     -0.055425
      5.87568      5.08848      5.28038         0.004260     -0.004579     -0.055425
      8.81351      5.08848      5.28038         0.000000      0.000000     -0.055973
      1.46892      0.84808      7.67911        -0.054528     -0.031482      0.109720
      4.40676      0.84808      7.67911        -0.000000     -0.052891      0.034312
      7.34459      0.84808      7.67911         0.054528     -0.031482      0.109720
      2.93784      3.39232      7.67911        -0.045805      0.026446      0.034312
      5.87568      3.39232      7.67911         0.045805      0.026446      0.034312
      8.81351      3.39232      7.67911        -0.000000     -0.045883      0.144811
      4.40676      5.93656      7.67911         0.000000      0.062964      0.109720
      7.34459      5.93656      7.67911        -0.039736      0.022942      0.144811
     10.28243      5.93656      7.67911         0.039736      0.022942      0.144811
      8.81351      1.70341     10.09804        -0.000000     -0.040401      0.053013
      2.93277      1.69323     10.04724        -0.424977     -0.245360     -0.413739
      5.88075      1.69323     10.04724         0.424977     -0.245360     -0.413739
     10.26617      4.24979     10.06844         0.066763     -0.038546      0.062732
      4.40676      4.24626     10.04724         0.000000      0.490721     -0.413739
      7.36086      4.24979     10.06844        -0.066763     -0.038546      0.062732
     11.74508      6.78102     10.09804         0.034988      0.020200      0.053013
      5.88195      6.78102     10.09804        -0.034988      0.020200      0.053013
      8.81351      6.76586     10.06844         0.000000      0.077091      0.062732
      0.00000      0.00000     12.50054         0.000000      0.000000     -0.065161
      2.99863      0.09131     12.57640        -0.196463     -0.353803     -0.239880
      5.81488      0.09131     12.57640         0.196463     -0.353803     -0.239880
      1.57839      2.55123     12.57640        -0.404634      0.006760     -0.239880
      7.23512      2.55123     12.57640         0.404634      0.006760     -0.239880
      2.98652      4.99018     12.57640        -0.208171      0.347044     -0.239880
      5.82700      4.99018     12.57640         0.208171      0.347044     -0.239880
      8.81351      5.08848     12.50707         0.000000      0.000000     -0.008324
      4.40676      2.54424     12.20058         0.000000      0.000000      2.134787
      4.40676      2.54424     13.98635         0.000000      0.000000     -0.016139
    total drift:                               -0.014014     -0.005122      0.200550

  FREE ENERGIE OF THE ION-ELECTRON SYSTEM (eV)
  free  energy   TOTEN  =      -125.44163984 eV

  energy  without entropy=     -125.44163984  energy(sigma->0) =     -125.44163984

 stress matrix after NEB project (eV)
    -18.61880     -0.00000     -0.00000
     -0.00000    -18.61880      0.00000
      0.00000      0.00000      2.49997
  FORCES: max atom, RMS     0.016139    0.002653
  FORCE total and by dimension    0.016139    0.016139
  Stress total and by dimension   26.449368   18.618798
|           W    W    AA    RRRRR   N    N  II  N    N   GGGG   !!!           |
|           W    W   A  A   R    R  NN   N  II  NN   N  G    G  !!!           |
|           W    W  A    A  R    R  N N  N  II  N N  N  G       !!!           |
|           W WW W  AAAAAA  RRRRR   N  N N  II  N  N N  G  GGG   !            |
|           WW  WW  A    A  R   R   N   NN  II  N   NN  G    G                |
|           W    W  A    A  R    R  N    N  II  N    N   GGGG   !!!           |
|     Tetrahedron method does not include variations of the Fermi             |
|     occupations, so forces and stress will be inaccurate. We suggest        |
|     using a different smearing scheme ISMEAR = 1 or 2 for metals in         |
|     relaxations.                                                            |

 total charge

# of ion       s       p       d       tot
    1        0.544   0.239   8.766   9.549
    2        0.543   0.241   8.764   9.549
    3        0.543   0.241   8.764   9.549
    4        0.543   0.241   8.764   9.549
    5        0.543   0.241   8.763   9.547
    6        0.543   0.241   8.764   9.549
    7        0.543   0.241   8.764   9.549
    8        0.543   0.241   8.764   9.549
    9        0.541   0.241   8.768   9.550
   10        0.519   0.307   8.771   9.597
   11        0.521   0.308   8.775   9.605
   12        0.519   0.307   8.771   9.597
   13        0.521   0.308   8.775   9.605
   14        0.521   0.308   8.775   9.605
   15        0.515   0.309   8.773   9.597
   16        0.519   0.307   8.771   9.597
   17        0.515   0.309   8.773   9.597
   18        0.515   0.309   8.773   9.597
   19        0.516   0.292   8.773   9.581
   20        0.560   0.337   8.750   9.647
   21        0.560   0.337   8.750   9.647
   22        0.509   0.305   8.775   9.589
   23        0.560   0.337   8.750   9.647
   24        0.509   0.305   8.775   9.589
   25        0.516   0.292   8.773   9.581
   26        0.516   0.292   8.773   9.581
   27        0.509   0.305   8.775   9.589
   28        0.540   0.224   8.760   9.523
   29        0.572   0.241   8.750   9.564
   30        0.572   0.241   8.750   9.564
   31        0.572   0.241   8.750   9.564
   32        0.572   0.241   8.750   9.564
   33        0.572   0.241   8.750   9.564
   34        0.572   0.241   8.750   9.564
   35        0.541   0.227   8.755   9.523
   36        0.709   0.802   3.606   5.117
   37        1.336   2.207   0.000   3.544
tot         20.866  12.646 310.362 343.875

 BZINTS: Fermi energy:    0.626270;  395.000000 electrons
         Band energy:-0.125070E+04;  BLOECHL correction:   -0.077060