 vasp.6.2.0 18Jan21 (build Jun 12 2021 23:27:24) complex

 executed on             LinuxIFC date 2022.05.27  06:08:10

 INCAR:
   ISMEAR = -5
   SIGMA = 0.1
   ISPIN = 1
   EDIFF = 1.d-5
   EDIFFG = -0.01
   NSW = 0
   NELM = 150
   ENCUT = 500
   ISIF = 2
   IBRION = 2
   LREAL = Auto
   ALGO = Fast
   ICHARG = 11
   LORBIT = 10
   LCHARG = .F.
   LWAVE = .F.

 POTCAR:    PAW_PBE Cu 22Jun2005
 POTCAR:    PAW_PBE Zr_sv 04Jan2005
 POTCAR:    PAW_PBE N 08Apr2002
|           W    W    AA    RRRRR   N    N  II  N    N   GGGG   !!!           |
|           W    W   A  A   R    R  NN   N  II  NN   N  G    G  !!!           |
|           W    W  A    A  R    R  N N  N  II  N N  N  G       !!!           |
|           W WW W  AAAAAA  RRRRR   N  N N  II  N  N N  G  GGG   !            |
|           WW  WW  A    A  R   R   N   NN  II  N   NN  G    G                |
|           W    W  A    A  R    R  N    N  II  N    N   GGGG   !!!           |
|     For optimal performance we recommend to set                             |
|       NCORE = 2 up to number-of-cores-per-socket                            |
|     This setting can greatly improve the performance of VASP for DFT.       |
|     The default, NCORE=1 might be grossly inefficient on modern             |
|     multi-core architectures or massively parallel machines. Do your        |
|     Unfortunately you need to use the default for GW and RPA                |
|     calculations (for HF NCORE is supported but not extensively tested      |
|     yet).                                                                   |

 POTCAR:    PAW_PBE Cu 22Jun2005
   VRHFIN =Cu: d10 p1

   TITEL  = PAW_PBE Cu 22Jun2005
   POMASS =   63.546; ZVAL   =   11.000    mass and valenz
   ENMAX  =  295.446; ENMIN  =  221.585 eV

 POTCAR:    PAW_PBE Zr_sv 04Jan2005
   VRHFIN =Zr: 4s4p5s4d

   TITEL  = PAW_PBE Zr_sv 04Jan2005
   POMASS =   91.224; ZVAL   =   12.000    mass and valenz
   ENMAX  =  229.898; ENMIN  =  172.424 eV

 POTCAR:    PAW_PBE N 08Apr2002
   VRHFIN =N: s2p3

   TITEL  = PAW_PBE N 08Apr2002
   POMASS =   14.001; ZVAL   =    5.000    mass and valenz
   ENMAX  =  400.000; ENMIN  =  300.000 eV

 Optimization of the real space projectors (new method)

 maximal supplied QI-value         = 16.25
 optimisation between [QCUT,QGAM] = [ 11.38, 22.75] = [ 36.24,144.96] Ry
 Optimized for a Real-space Cutoff    1.52 Angstroem

   l    n(q)    QCUT    max X(q) W(low)/X(q) W(high)/X(q)  e(spline)
   2      9    11.376     4.610    0.21E-03    0.10E-03    0.26E-06
   2      9    11.376     8.522    0.33E-03    0.16E-03    0.37E-06
   0     10    11.376    51.609    0.62E-04    0.20E-04    0.13E-06
   0     10    11.376    27.747    0.54E-04    0.20E-04    0.13E-06
   1     10    11.376    20.408    0.13E-04    0.99E-04    0.19E-06
   1     10    11.376    13.425    0.12E-04    0.87E-04    0.17E-06
 Optimization of the real space projectors (new method)

[...]

   l    n(q)    QCUT    max X(q) W(low)/X(q) W(high)/X(q)  e(spline)
   0     10    11.338    12.107    0.38E-04    0.13E-04    0.27E-07
   0     10    11.338     9.948    0.69E-04    0.30E-04    0.38E-07
   1     10    11.338     3.563    0.26E-04    0.18E-04    0.40E-07
   1     10    11.338     4.524    0.25E-03    0.39E-04    0.44E-06
   2      9    11.338    87.261    0.26E-03    0.91E-05    0.26E-06
   2      9    11.338    70.950    0.25E-03    0.91E-05    0.25E-06
 Optimization of the real space projectors (new method)

 maximal supplied QI-value         = 25.13
 optimisation between [QCUT,QGAM] = [ 11.31, 22.87] = [ 35.82,146.48] Ry
 Optimized for a Real-space Cutoff    1.27 Angstroem

   l    n(q)    QCUT    max X(q) W(low)/X(q) W(high)/X(q)  e(spline)
   0      9    11.310    79.467    0.75E-04    0.16E-03    0.36E-06
   0      9    11.310    66.151    0.74E-04    0.16E-03    0.36E-06
   1      8    11.310    17.416    0.35E-03    0.12E-03    0.95E-06
   1      8    11.310    12.382    0.37E-03    0.13E-03    0.98E-06
  PAW_PBE Cu 22Jun2005                  :
  PAW_PBE Zr_sv 04Jan2005               :
  PAW_PBE N 08Apr2002                   :

 POSCAR: Cu-Zr-N2
  positions in direct lattice
  velocities in cartesian coordinates
 exchange correlation table for  LEXCH =        8
   RHO(1)=    0.500       N(1)  =     2000
   RHO(2)=  100.500       N(2)  =     4000

 VTST: version 3.2, (02/03/18)

 CHAIN: initializing optimizer

 OPT: Using VASP Conjugate-Gradient optimizer
 CHAIN: Read ICHAIN            0

 POSCAR: Cu-Zr-N2
  positions in direct lattice
  velocities in cartesian coordinates

 ion  position               nearest neighbor table
   1  0.000  0.000  0.252-   7 2.57   3 2.57   4 2.57   2 2.57   6 2.57   8 2.57  12 2.57  10 2.57
                            16 2.57
   2  0.333  0.000  0.252-   8 2.57   9 2.57   5 2.57   1 2.57   3 2.57  11 2.57   4 2.57  10 2.57
                            17 2.57
   3  0.667  0.000  0.252-   1 2.57   7 2.57   6 2.57   9 2.57   2 2.57  12 2.57   5 2.57  18 2.57
                            11 2.57
   4  0.000  0.333  0.252-   5 2.57   6 2.57   1 2.57   7 2.57   2 2.57  13 2.57   9 2.57  10 2.57
                            15 2.57
   5  0.333  0.333  0.252-   4 2.57   2 2.57   7 2.57  13 2.57   8 2.57   6 2.57   3 2.57  11 2.57
                            14 2.57
   6  0.667  0.333  0.252-   4 2.57   9 2.57  15 2.57   3 2.57   1 2.57   8 2.57  14 2.57   5 2.57
                            12 2.57
   7  0.000  0.667  0.252-   1 2.57   3 2.57  16 2.57  18 2.57   4 2.57   5 2.57   8 2.57   9 2.57
                            13 2.57
   8  0.333  0.667  0.252-   9 2.57   2 2.57  17 2.57   6 2.57   1 2.57   7 2.57   5 2.57  14 2.57
                            16 2.57
   9  0.667  0.667  0.252-   8 2.57   6 2.57   2 2.57  17 2.57   3 2.57   7 2.57   4 2.57  15 2.57
                            18 2.57
  10  0.111  0.111  0.351-  26 2.54  19 2.54  11 2.57  12 2.57  13 2.57   1 2.57   2 2.57   4 2.57
                            15 2.57  16 2.57  17 2.57  20 2.59
  11  0.444  0.111  0.351-  27 2.56  10 2.57  13 2.57   2 2.57  17 2.57  14 2.57  12 2.57   5 2.57
                             3 2.57  18 2.57  20 2.58  21 2.58
  12  0.778  0.111  0.351-  19 2.54  25 2.54  15 2.57  10 2.57  14 2.57  18 2.57   3 2.57   1 2.57
                            16 2.57  11 2.57   6 2.57  21 2.59
  13  0.111  0.444  0.351-  22 2.56  16 2.57  18 2.57  10 2.57  11 2.57  14 2.57   5 2.57   4 2.57
                             7 2.57  15 2.57  23 2.58  20 2.58
  14  0.444  0.444  0.351-  24 2.56  15 2.57  17 2.57  12 2.57  16 2.57  13 2.57  11 2.57   6 2.57
                             8 2.57   5 2.57  21 2.58  23 2.58
  15  0.778  0.444  0.351-  19 2.54  24 2.56  22 2.56  14 2.57  17 2.57  12 2.57   6 2.57  18 2.57
                            10 2.57   9 2.57  13 2.57   4 2.57
  16  0.111  0.778  0.351-  25 2.54  26 2.54  18 2.57  13 2.57   7 2.57  14 2.57  17 2.57  12 2.57
                            10 2.57   8 2.57   1 2.57  23 2.59
  17  0.444  0.778  0.351-  26 2.54  27 2.56  24 2.56  14 2.57  15 2.57   8 2.57   9 2.57  11 2.57
                            16 2.57  18 2.57  10 2.57   2 2.57
  18  0.778  0.778  0.351-  25 2.54  22 2.56  27 2.56  16 2.57  13 2.57   7 2.57  15 2.57  12 2.57
                            17 2.57   9 2.57   3 2.57  11 2.57
  19  0.889  0.221  0.448-  12 2.54  10 2.54  15 2.54  25 2.55  26 2.55  32 2.56  31 2.56  22 2.57
                            24 2.57  28 2.57  21 2.58  20 2.58
  20  0.223  0.223  0.450-  23 2.55  21 2.55  29 2.57  31 2.57  27 2.57  22 2.57  26 2.58  19 2.58
                            11 2.58  13 2.58  10 2.59  36 2.86
  21  0.554  0.223  0.450-  20 2.55  23 2.55  32 2.57  30 2.57  24 2.57  27 2.57  19 2.58  25 2.58
                            14 2.58  11 2.58  12 2.59  36 2.86
  22  0.889  0.556  0.449-  18 2.56  15 2.56  13 2.56  31 2.56  33 2.56  24 2.57  27 2.57  23 2.57
                            20 2.57  19 2.57  25 2.57  35 2.58
  23  0.223  0.554  0.450-  20 2.55  21 2.55  33 2.57  34 2.57  22 2.57  24 2.57  25 2.58  26 2.58
                            13 2.58  14 2.58  16 2.59  36 2.86
  24  0.556  0.556  0.449-  15 2.56  17 2.56  14 2.56  32 2.56  34 2.56  22 2.57  27 2.57  21 2.57
                            23 2.57  19 2.57  26 2.57  35 2.58
  25  0.889  0.889  0.448-  12 2.54  16 2.54  18 2.54  19 2.55  26 2.55  33 2.56  30 2.56  22 2.57
                            27 2.57  28 2.57  21 2.58  23 2.58
  26  0.221  0.889  0.448-  10 2.54  16 2.54  17 2.54  25 2.55  19 2.55  29 2.56  34 2.56  27 2.57
                            24 2.57  28 2.57  20 2.58  23 2.58
  27  0.556  0.889  0.449-  17 2.56  18 2.56  11 2.56  29 2.56  30 2.56  24 2.57  22 2.57  20 2.57
                            21 2.57  26 2.57  25 2.57  35 2.58
  28  0.000  0.000  0.547-  33 2.55  30 2.55  31 2.55  29 2.55  32 2.55  34 2.55  25 2.57  19 2.57
                            26 2.57
  29  0.334  0.994  0.547-  34 2.47  35 2.54  28 2.55  27 2.56  26 2.56  20 2.57  30 2.60  31 2.62
                            36 2.64
  30  0.672  0.994  0.547-  33 2.47  35 2.54  28 2.55  27 2.56  25 2.56  21 2.57  29 2.60  32 2.62
                            36 2.64
  31  0.994  0.334  0.547-  32 2.47  35 2.54  28 2.55  22 2.56  19 2.56  20 2.57  33 2.60  29 2.62
                            36 2.64
  32  0.672  0.334  0.547-  31 2.47  35 2.54  28 2.55  24 2.56  19 2.56  21 2.57  34 2.60  30 2.62
                            36 2.64
  33  0.994  0.672  0.547-  30 2.47  35 2.54  28 2.55  22 2.56  25 2.56  23 2.57  31 2.60  34 2.62
                            36 2.64
  34  0.334  0.672  0.547-  29 2.47  35 2.54  28 2.55  24 2.56  26 2.56  23 2.57  32 2.60  33 2.62
                            36 2.64
  35  0.667  0.667  0.548-  34 2.54  32 2.54  29 2.54  30 2.54  33 2.54  31 2.54  24 2.58  27 2.58
                            22 2.58
  36  0.333  0.333  0.565-  31 2.64  29 2.64  33 2.64  32 2.64  34 2.64  30 2.64  23 2.86  20 2.86
                            21 2.86
  37  0.906  0.333  0.736-  38 1.11
  38  0.761  0.333  0.736-  37 1.11

  LATTYP: Found a hexagonal cell.
 ALAT       =     7.6967864036
 C/A-ratio  =     2.7653617908

  Lattice vectors:

 A1 = (  -3.8483927580,  -6.6656128093,   0.0000000000)
 A2 = (   7.6967864037,   0.0000000000,   0.0000000000)
 A3 = (   0.0000000000,   0.0000000000,  21.2843990326)

Analysis of symmetry for initial positions (statically):
 Subroutine PRICEL returns:
 Original cell was already a primitive cell.

 Routine SETGRP: Setting up the symmetry group for a
 hexagonal supercell.

 Subroutine GETGRP returns: Found  2 space group operations
 (whereof  2 operations were pure point group operations)
 out of a pool of 24 trial point group operations.

The static configuration has the point symmetry C_1h.

Analysis of symmetry for dynamics (positions and initial velocities):
 Subroutine PRICEL returns:
 Original cell was already a primitive cell.

[...]

The dynamic configuration has the point symmetry C_1h.

Analysis of constrained symmetry for selective dynamics:
 Subroutine PRICEL returns:
 Original cell was already a primitive cell.

 Routine SETGRP: Setting up the symmetry group for a
 hexagonal supercell.

[...]
     33      -3.7533      2.00000
     34      -3.6851      2.00000
     35      -3.6692      2.00000
     36      -3.6622      2.00000
     37      -3.6263      2.00000
     38      -3.6047      2.00000
     39      -3.6013      2.00000
     40      -3.5931      2.00000
     41      -3.5901      2.00000
     42      -3.5505      2.00000
     43      -3.5073      2.00000
     44      -3.4661      2.00000
     45      -3.4427      2.00000
     46      -3.2981      2.00000
     47      -3.2792      2.00000
     48      -3.2463      2.00000
     49      -3.2252      2.00000
     50      -3.2021      2.00000
     51      -3.1954      2.00000
     52      -3.1882      2.00000
     53      -3.1779      2.00000
     54      -3.1604      2.00000
     55      -3.0340      2.00000
     56      -3.0137      2.00000
     57      -2.9928      2.00000
     58      -2.9716      2.00000
     59      -2.9179      2.00000
     60      -2.9035      2.00000
[...]
    238       5.7570      0.00000
    239       5.8243      0.00000
    240       6.0568      0.00000
    241       6.1471      0.00000
    242       6.2644      0.00000
    243       6.4305      0.00000
    244       6.4994      0.00000
    245       6.5711      0.00000
    246       6.8827      0.00000
    247       6.9586      0.00000
    248       7.0608      0.00000
    249       7.1533      0.00000
    250       7.1808      0.00000
    251       7.2688      0.00000
    252       7.4768      0.00000

 soft charge-density along one line, spin component           1
         0         1         2         3         4         5         6         7         8         9
 total charge-density along one line

------------------------ aborting loop because EDIFF is reached ----------------------------------------

 total charge

# of ion       s       p       d       tot
    1        0.450   0.283   9.188   9.921
    2        0.448   0.286   9.186   9.920
    3        0.448   0.286   9.186   9.920
    4        0.448   0.286   9.186   9.920
    5        0.448   0.286   9.182   9.916
    6        0.448   0.286   9.186   9.920
    7        0.448   0.286   9.186   9.920
    8        0.448   0.286   9.186   9.920
    9        0.450   0.284   9.186   9.921
   10        0.443   0.372   9.176   9.990
   11        0.441   0.364   9.181   9.986
   12        0.443   0.372   9.176   9.990
   13        0.440   0.364   9.181   9.986
   14        0.440   0.364   9.181   9.986
   15        0.440   0.372   9.177   9.989
   16        0.443   0.371   9.176   9.990
   17        0.440   0.372   9.177   9.989
   18        0.440   0.372   9.177   9.989
   19        0.446   0.374   9.179   9.999
   20        0.454   0.380   9.160   9.995
   21        0.454   0.380   9.160   9.995
   22        0.435   0.376   9.178   9.989
   23        0.454   0.381   9.160   9.994
   24        0.435   0.376   9.178   9.989
   25        0.446   0.374   9.179   9.999
   26        0.446   0.374   9.179   9.999
   27        0.435   0.376   9.178   9.989
   28        0.442   0.300   9.179   9.921
   29        0.489   0.326   9.157   9.971
   30        0.489   0.326   9.157   9.971
   31        0.489   0.326   9.157   9.972
   32        0.489   0.326   9.157   9.972
   33        0.488   0.326   9.157   9.971
   34        0.488   0.326   9.157   9.971
   35        0.441   0.306   9.179   9.926
   36        2.226   5.954   1.608   9.787
   37        1.372   2.470   0.000   3.842
   38        1.372   2.470   0.000   3.842
tot         20.796  22.735 322.732 366.263

  FORCE on cell =-STRESS in cart. coord.  units (eV):
  Direction    XX          YY          ZZ          XY          YZ          ZX
  Alpha Z   924.63553   924.63553   924.63553
  Ewald  167763.63751167416.11795************     0.00037    -2.38768     0.00020
  Hartree181015.69328180887.06828************     0.00003    -2.14615     0.00007
  E(xc)   -2338.28690 -2339.53359 -2344.51588    -0.00033    -0.00024    -0.00004
  Local  ************************361773.69287     0.01994     4.53725    -0.00076
  n-local  -795.62152  -783.13896  -787.08074     1.43807     0.00037     0.01448
  augment  3312.16137  3311.86866  3331.34719    -0.01790     0.00159     0.00029
  Kinetic  3537.48823  3555.89530  3571.78843     0.62336     0.00016    -0.23118
  Fock        0.00000     0.00000     0.00000     0.00000     0.00000     0.00000
  Total      -6.76963    -6.73283    -2.22661     0.00000     0.00530    -0.00000
  in kB      -9.93264    -9.87865    -3.26695     0.00000     0.00778    -0.00000

 VOLUME and BASIS-vectors are now :
  energy-cutoff  :      500.00
  volume of cell :     1091.97
      direct lattice vectors                 reciprocal lattice vectors
     7.696786404  0.000000000  0.000000000     0.129924354 -0.075011849  0.000000000
     3.848392758  6.665612809  0.000000000     0.000000000  0.150023716  0.000000000
     0.000000000  0.000000000 21.284399033     0.000000000  0.000000000  0.046982769

  length of vectors
     7.696786404  7.696786404 21.284399033     0.150023716  0.150023716  0.046982769

 FORCES acting on ions
    electron-ion (+dipol)            ewald-force                    non-local-force                 convergence-correction
   -.401E-04 0.613E-01 0.349E+04   0.580E-04 -.591E-01 -.349E+04   -.488E-10 0.733E-03 -.219E+01   -.334E-03 -.314E-02 -.378E-01
   -.989E+00 -.107E+01 0.349E+04   0.953E+00 0.997E+00 -.349E+04   0.299E-01 0.547E-01 -.192E+01   0.152E-01 0.218E-01 0.465E-01
   0.989E+00 -.107E+01 0.349E+04   -.953E+00 0.997E+00 -.349E+04   -.299E-01 0.547E-01 -.192E+01   -.143E-01 0.245E-01 0.474E-01
   -.148E+01 -.297E+00 0.349E+04   0.139E+01 0.297E+00 -.349E+04   0.661E-01 -.389E-03 -.193E+01   0.304E-01 0.467E-02 0.576E-01
   -.606E-04 -.956E-02 0.349E+04   0.116E-03 -.218E-04 -.348E+04   0.302E-09 -.454E-02 -.182E+01   0.122E-01 0.142E-01 0.914E-01
   0.148E+01 -.297E+00 0.349E+04   -.139E+01 0.297E+00 -.349E+04   -.661E-01 -.389E-03 -.193E+01   -.320E-01 0.590E-02 0.590E-01
   -.484E+00 0.137E+01 0.349E+04   0.438E+00 -.129E+01 -.349E+04   0.305E-01 -.559E-01 -.192E+01   0.170E-01 -.280E-01 0.542E-01
   0.484E+00 0.137E+01 0.349E+04   -.438E+00 -.129E+01 -.349E+04   -.305E-01 -.559E-01 -.192E+01   -.134E-01 -.295E-01 0.545E-01
   -.142E-03 -.535E-01 0.349E+04   0.263E-03 0.591E-01 -.349E+04   -.263E-09 0.394E-02 -.194E+01   -.133E-01 -.987E-02 0.291E-01
   -.111E+02 -.610E+01 0.122E+04   0.113E+02 0.618E+01 -.122E+04   -.183E+00 -.103E+00 -.944E+00   0.670E-01 0.446E-01 -.114E+00
   -.905E-04 -.920E+01 0.121E+04   0.189E-03 0.883E+01 -.121E+04   -.173E-07 0.260E+00 -.445E+00   0.118E-01 0.940E-01 -.140E+00
   0.111E+02 -.610E+01 0.122E+04   -.113E+02 0.618E+01 -.122E+04   0.183E+00 -.103E+00 -.944E+00   -.690E-01 0.466E-01 -.114E+00
   -.823E+01 0.455E+01 0.121E+04   0.793E+01 -.437E+01 -.121E+04   0.223E+00 -.139E+00 -.437E+00   0.803E-01 -.293E-01 -.136E+00
   0.823E+01 0.455E+01 0.121E+04   -.793E+01 -.437E+01 -.121E+04   -.223E+00 -.139E+00 -.437E+00   -.558E-01 -.303E-01 -.136E+00
   -.138E-03 -.206E+01 0.122E+04   0.295E-03 0.198E+01 -.122E+04   -.435E-08 0.653E-01 -.947E+00   -.405E-02 0.217E-01 -.120E+00
   -.924E-04 0.127E+02 0.122E+04   0.186E-03 -.129E+02 -.122E+04   -.143E-07 0.215E+00 -.950E+00   -.169E-03 -.876E-01 -.114E+00
   -.160E+01 0.824E+00 0.122E+04   0.153E+01 -.775E+00 -.122E+04   0.563E-01 -.333E-01 -.946E+00   0.138E-01 -.210E-01 -.124E+00
   0.160E+01 0.824E+00 0.122E+04   -.153E+01 -.775E+00 -.122E+04   -.563E-01 -.333E-01 -.946E+00   -.131E-01 -.180E-01 -.123E+00
   -.580E-04 -.426E+01 -.104E+04   0.684E-04 0.443E+01 0.104E+04   0.717E-08 -.108E+00 0.905E+00   -.247E-02 -.627E-01 -.104E+00
   -.319E+02 -.169E+02 -.112E+04   0.328E+02 0.175E+02 0.112E+04   -.102E+01 -.601E+00 -.658E+00   0.785E-01 0.535E-01 -.866E-01
   0.319E+02 -.169E+02 -.112E+04   -.328E+02 0.175E+02 0.112E+04   0.102E+01 -.601E+00 -.658E+00   -.545E-01 0.549E-01 -.872E-01
   -.154E+02 0.661E+01 -.106E+04   0.151E+02 -.646E+01 0.106E+04   0.213E+00 -.124E+00 0.676E+00   0.404E-01 -.269E-01 -.949E-01
   -.439E-04 0.345E+02 -.112E+04   0.150E-03 -.356E+02 0.113E+04   -.783E-07 0.118E+01 -.658E+00   0.120E-01 -.687E-01 -.868E-01
   0.154E+02 0.661E+01 -.106E+04   -.151E+02 -.646E+01 0.106E+04   -.213E+00 -.124E+00 0.676E+00   -.431E-01 -.283E-01 -.949E-01
   0.496E+01 0.364E+01 -.104E+04   -.513E+01 -.372E+01 0.104E+04   0.965E-01 0.548E-01 0.884E+00   0.652E-01 0.290E-01 -.977E-01
   -.496E+01 0.364E+01 -.104E+04   0.513E+01 -.372E+01 0.104E+04   -.965E-01 0.548E-01 0.884E+00   -.646E-01 0.262E-01 -.973E-01
   -.149E-03 -.170E+02 -.106E+04   0.242E-03 0.167E+02 0.106E+04   -.168E-07 0.253E+00 0.661E+00   -.953E-03 0.431E-01 -.893E-01
   -.215E-04 0.142E+02 -.332E+04   0.447E-04 -.141E+02 0.332E+04   0.647E-09 -.971E-02 0.165E+01   -.306E-03 -.592E-02 -.394E-01
   -.150E+02 -.273E+02 -.331E+04   0.153E+02 0.276E+02 0.331E+04   -.343E+00 -.233E+00 0.235E+00   -.112E-01 -.233E-01 -.149E+00
   0.150E+02 -.273E+02 -.331E+04   -.153E+02 0.276E+02 0.331E+04   0.343E+00 -.233E+00 0.235E+00   0.122E-01 -.208E-01 -.150E+00
   -.443E+02 0.700E+01 -.329E+04   0.447E+02 -.682E+01 0.329E+04   -.364E+00 -.186E+00 0.235E+00   -.245E-01 0.391E-03 -.161E+00
   0.443E+02 0.700E+01 -.329E+04   -.447E+02 -.682E+01 0.329E+04   0.364E+00 -.186E+00 0.235E+00   0.228E-01 0.136E-02 -.162E+00
   -.272E+02 0.202E+02 -.331E+04   0.273E+02 -.206E+02 0.331E+04   -.269E-01 0.417E+00 0.235E+00   -.196E-02 0.222E-01 -.154E+00
   0.272E+02 0.202E+02 -.331E+04   -.273E+02 -.206E+02 0.331E+04   0.269E-01 0.417E+00 0.235E+00   0.533E-02 0.207E-01 -.155E+00
   -.126E-03 -.145E+02 -.334E+04   0.253E-03 0.145E+02 0.334E+04   -.114E-08 0.171E-01 0.193E+01   -.133E-01 -.618E-02 -.762E-01
   0.131E-03 -.161E-02 -.385E+04   0.122E-03 -.356E-02 0.384E+04   0.888E-11 -.133E-03 0.493E+01   0.502E-02 0.803E-02 -.175E+00
   -.239E+03 0.346E+00 -.115E+04   0.284E+03 -.345E+00 0.115E+04   -.455E+02 0.500E-03 0.700E-01   -.164E-02 -.152E-02 0.268E-01
   0.239E+03 0.346E+00 -.115E+04   -.284E+03 -.345E+00 0.115E+04   0.455E+02 0.500E-03 0.700E-01   0.149E-02 -.150E-02 0.268E-01
   0.947E-04 -.477E-02 0.144E+02   0.171E-12 0.996E-13 -.250E-11   0.182E-08 -.273E-01 -.117E+02   0.567E-01 0.345E-01 -.273E+01

 POSITION                                       TOTAL-FORCE (eV/Angst)
      0.00000      0.00000      5.37156         0.000000     -0.000239      0.012863
      2.56560      0.00000      5.37156         0.008654      0.004855      0.045996
      5.13119      0.00000      5.37156        -0.008654      0.004855      0.045996
      1.28280      2.22187      5.37156         0.008318      0.004725      0.046180
      3.84839      2.22187      5.37156         0.000000     -0.000023      0.054304
      6.41399      2.22187      5.37156        -0.008318      0.004725      0.046180
      2.56560      4.44374      5.37156         0.000322     -0.009592      0.046114
      5.13119      4.44374      5.37156        -0.000322     -0.009592      0.046114
      7.69679      4.44374      5.37156         0.000000     -0.000412      0.021710
      1.28280      0.74062      7.46636         0.044942      0.025803     -0.099581
      3.84839      0.74062      7.46636         0.000000     -0.017733     -0.020889
      6.41399      0.74062      7.46636        -0.044942      0.025803     -0.099581
      2.56560      2.96249      7.46636        -0.015016      0.009295     -0.019869
      5.13119      2.96249      7.46636         0.015016      0.009295     -0.019869
      7.69679      2.96249      7.46636        -0.000000      0.008765     -0.035339
      3.84839      5.18437      7.46636         0.000000     -0.052195     -0.100177
      6.41399      5.18437      7.46636         0.007133     -0.003827     -0.035271
      8.97958      5.18437      7.46636        -0.007133     -0.003827     -0.035271
      7.69679      1.47435      9.52922        -0.000000      0.000169     -0.009210
      2.57570      1.48708      9.58099         0.007843      0.003113      0.000471
      5.12109      1.48708      9.58099        -0.007843      0.003113      0.000471
      8.97941      3.70322      9.55185        -0.002693      0.001779      0.002072
      3.84839      3.69145      9.58099         0.000000     -0.008530      0.002824
      6.41416      3.70322      9.55185         0.002693      0.001779      0.002072
     10.26835      5.92844      9.52922        -0.000603     -0.000731     -0.010512
      5.12522      5.92844      9.52922         0.000603     -0.000731     -0.010512
      7.69679      5.92479      9.55185         0.000000     -0.002648      0.000453
      0.00000      0.00000     11.63765         0.000000     -0.001671      0.030875
      6.39598      6.62341     11.64088        -0.008292     -0.004019      0.007317
      8.99759      6.62341     11.64088         0.008292     -0.004019      0.007317
      8.93403      2.22738     11.64088        -0.004345     -0.004887     -0.005725
      6.45955      2.22738     11.64088         0.004345     -0.004887     -0.005725
     10.23483      4.48044     11.64088         0.000162      0.008671      0.007713
      5.15874      4.48044     11.64088        -0.000162      0.008671      0.007713
      7.69679      4.44374     11.66679        -0.000000      0.001398      0.018778
      3.84839      2.22187     12.03290        -0.000000      0.002656      0.035791
      8.25355      2.22250     15.67109         0.004136      0.000047      0.009103
      7.14003      2.22250     15.67109        -0.004136      0.000047      0.009103
    total drift:                                0.056787      0.002451     -0.001369

  FREE ENERGIE OF THE ION-ELECTRON SYSTEM (eV)
  free  energy   TOTEN  =      -147.12077741 eV

  energy  without entropy=     -147.12077741  energy(sigma->0) =     -147.12077741

 stress matrix after NEB project (eV)
     -6.76963      0.00000     -0.00000
      0.00000     -6.73283      0.00530
     -0.00000      0.00530     -2.22661
  FORCES: max atom, RMS     0.009999    0.002294
  FORCE total and by dimension    0.014140    0.009103
  Stress total and by dimension    9.803918    6.769634
|           W    W    AA    RRRRR   N    N  II  N    N   GGGG   !!!           |
|           W    W   A  A   R    R  NN   N  II  NN   N  G    G  !!!           |
|           W    W  A    A  R    R  N N  N  II  N N  N  G       !!!           |
|           W WW W  AAAAAA  RRRRR   N  N N  II  N  N N  G  GGG   !            |
|           WW  WW  A    A  R   R   N   NN  II  N   NN  G    G                |
|           W    W  A    A  R    R  N    N  II  N    N   GGGG   !!!           |
|     Tetrahedron method does not include variations of the Fermi             |
|     occupations, so forces and stress will be inaccurate. We suggest        |
|     using a different smearing scheme ISMEAR = 1 or 2 for metals in         |
|     relaxations.                                                            |

 total charge

# of ion       s       p       d       tot
    1        0.450   0.283   9.188   9.921
    2        0.448   0.286   9.186   9.920
    3        0.448   0.286   9.186   9.920
    4        0.448   0.286   9.186   9.920
    5        0.448   0.286   9.182   9.916
    6        0.448   0.286   9.186   9.920
    7        0.448   0.286   9.186   9.920
    8        0.448   0.286   9.186   9.920
    9        0.450   0.284   9.186   9.921
   10        0.443   0.372   9.176   9.990
   11        0.441   0.364   9.181   9.986
   12        0.443   0.372   9.176   9.990
   13        0.440   0.364   9.181   9.986
   14        0.440   0.364   9.181   9.986
   15        0.440   0.372   9.177   9.989
   16        0.443   0.371   9.176   9.990
   17        0.440   0.372   9.177   9.989
   18        0.440   0.372   9.177   9.989
   19        0.446   0.374   9.179   9.999
   20        0.454   0.380   9.160   9.995
   21        0.454   0.380   9.160   9.995
   22        0.435   0.376   9.178   9.989
   23        0.454   0.381   9.160   9.994
   24        0.435   0.376   9.178   9.989
   25        0.446   0.374   9.179   9.999
   26        0.446   0.374   9.179   9.999
   27        0.435   0.376   9.178   9.989
   28        0.442   0.300   9.179   9.921
   29        0.489   0.326   9.157   9.971
   30        0.489   0.326   9.157   9.971
   31        0.489   0.326   9.157   9.972
   32        0.489   0.326   9.157   9.972
   33        0.488   0.326   9.157   9.971
   34        0.488   0.326   9.157   9.971
   35        0.441   0.306   9.179   9.926
   36        2.226   5.954   1.608   9.787
   37        1.372   2.470   0.000   3.842
   38        1.372   2.470   0.000   3.842
tot         20.796  22.735 322.732 366.263

 BZINTS: Fermi energy:    0.572356;  407.000000 electrons
         Band energy:-0.127260E+04;  BLOECHL correction:   -0.033008