 vasp.6.2.0 18Jan21 (build Jun 12 2021 23:27:24) complex

 executed on             LinuxIFC date 2022.05.30  16:02:27

 INCAR:
   ISMEAR = -5
   SIGMA = 0.1
   ISPIN = 1
   EDIFF = 1.d-5
   EDIFFG = -0.01
   NSW = 0
   NELM = 150
   ENCUT = 500
   ISIF = 2
   IBRION = 2
   LREAL = Auto
   ALGO = Fast
   ICHARG = 11
   LORBIT = 10
   LCHARG = .F.
   LWAVE = .F.

 POTCAR:    PAW_PBE Au 04Oct2007
 POTCAR:    PAW_PBE Ni 02Aug2007
 POTCAR:    PAW_PBE C 08Apr2002
|           W    W    AA    RRRRR   N    N  II  N    N   GGGG   !!!           |
|           W    W   A  A   R    R  NN   N  II  NN   N  G    G  !!!           |
|           W    W  A    A  R    R  N N  N  II  N N  N  G       !!!           |
|           W WW W  AAAAAA  RRRRR   N  N N  II  N  N N  G  GGG   !            |
|           WW  WW  A    A  R   R   N   NN  II  N   NN  G    G                |
|           W    W  A    A  R    R  N    N  II  N    N   GGGG   !!!           |
|     For optimal performance we recommend to set                             |
|       NCORE = 2 up to number-of-cores-per-socket                            |
|     This setting can greatly improve the performance of VASP for DFT.       |
|     The default, NCORE=1 might be grossly inefficient on modern             |
|     multi-core architectures or massively parallel machines. Do your        |
|     Unfortunately you need to use the default for GW and RPA                |
|     calculations (for HF NCORE is supported but not extensively tested      |
|     yet).                                                                   |

 POTCAR:    PAW_PBE Au 04Oct2007
   VRHFIN =Au: s1d10

   TITEL  = PAW_PBE Au 04Oct2007
   POMASS =  196.966; ZVAL   =   11.000    mass and valenz
   ENMAX  =  229.943; ENMIN  =  172.457 eV

 POTCAR:    PAW_PBE Ni 02Aug2007
   VRHFIN =Ni:

   TITEL  = PAW_PBE Ni 02Aug2007
   POMASS =   58.690; ZVAL   =   10.000    mass and valenz
   ENMAX  =  269.532; ENMIN  =  202.149 eV

 POTCAR:    PAW_PBE C 08Apr2002
   VRHFIN =C: s2p2

   TITEL  = PAW_PBE C 08Apr2002
   POMASS =   12.011; ZVAL   =    4.000    mass and valenz
   ENMAX  =  400.000; ENMIN  =  300.000 eV

 Optimization of the real space projectors (new method)

 maximal supplied QI-value         = 15.12
 optimisation between [QCUT,QGAM] = [ 11.34, 22.83] = [ 36.00,145.93] Ry
 Optimized for a Real-space Cutoff    1.39 Angstroem

   l    n(q)    QCUT    max X(q) W(low)/X(q) W(high)/X(q)  e(spline)
   2      9    11.338    60.898    0.39E-03    0.42E-03    0.21E-06
   2      9    11.338    58.894    0.40E-03    0.42E-03    0.22E-06
   0      9    11.338   109.617    0.13E-03    0.20E-04    0.13E-06
   0      9    11.338    75.026    0.13E-03    0.20E-04    0.13E-06
   1      9    11.338    16.344    0.33E-04    0.24E-03    0.18E-06
   1      9    11.338    10.160    0.26E-04    0.19E-03    0.15E-06
 Optimization of the real space projectors (new method)

[...]

   l    n(q)    QCUT    max X(q) W(low)/X(q) W(high)/X(q)  e(spline)
   2      8    11.376    60.317    0.19E-03    0.33E-04    0.13E-06
   2      8    11.376    55.921    0.20E-03    0.34E-04    0.14E-06
   0      9    11.376    51.690    0.82E-04    0.12E-03    0.20E-06
   0      9    11.376    30.015    0.74E-04    0.11E-03    0.18E-06
   1      9    11.376    18.849    0.39E-03    0.12E-03    0.13E-06
   1      9    11.376    14.624    0.33E-03    0.10E-03    0.11E-06
 Optimization of the real space projectors (new method)

 maximal supplied QI-value         = 25.13
 optimisation between [QCUT,QGAM] = [ 11.31, 22.87] = [ 35.82,146.48] Ry
 Optimized for a Real-space Cutoff    1.00 Angstroem

   l    n(q)    QCUT    max X(q) W(low)/X(q) W(high)/X(q)  e(spline)
   0      7    11.310   115.676    0.43E-03    0.13E-02    0.19E-06
   0      7    11.310    87.132    0.43E-03    0.13E-02    0.18E-06
   1      6    11.310     4.429    0.42E-03    0.74E-03    0.11E-06
   1      6    11.310     2.733    0.34E-03    0.55E-03    0.92E-07
  PAW_PBE Au 04Oct2007                  :
  PAW_PBE Ni 02Aug2007                  :
  PAW_PBE C 08Apr2002                   :

 POSCAR: Au-Ni-C
  positions in direct lattice
  velocities in cartesian coordinates
 exchange correlation table for  LEXCH =        8
   RHO(1)=    0.500       N(1)  =     2000
   RHO(2)=  100.500       N(2)  =     4000

 VTST: version 3.2, (02/03/18)

 CHAIN: initializing optimizer

 OPT: Using VASP Conjugate-Gradient optimizer
 CHAIN: Read ICHAIN            0

 POSCAR: Au-Ni-C
  positions in direct lattice
  velocities in cartesian coordinates

 ion  position               nearest neighbor table
   1  0.000  0.000  0.217-  16 2.94  12 2.94   6 2.94   8 2.94   7 2.94   3 2.94  10 2.94   4 2.94
                             2 2.94
   2  0.333  0.000  0.217-   9 2.94  11 2.94  17 2.94  10 2.94   8 2.94   4 2.94   5 2.94   1 2.94
                             3 2.94
   3  0.667  0.000  0.217-   7 2.94  18 2.94  12 2.94   1 2.94  11 2.94   5 2.94   6 2.94   9 2.94
                             2 2.94
   4  0.000  0.333  0.217-  10 2.94   6 2.94   5 2.94  13 2.94   2 2.94  15 2.94   9 2.94   1 2.94
                             7 2.94
   5  0.333  0.333  0.217-  13 2.94   7 2.94  11 2.94   4 2.94   2 2.94  14 2.94   3 2.94   8 2.94
                             6 2.94
   6  0.667  0.333  0.217-  15 2.94  14 2.94   1 2.94  12 2.94   4 2.94   9 2.94   8 2.94   3 2.94
                             5 2.94
   7  0.000  0.667  0.217-  18 2.94   3 2.94  16 2.94   5 2.94   1 2.94  13 2.94   8 2.94   4 2.94
                             9 2.94
   8  0.333  0.667  0.217-   9 2.94  17 2.94   1 2.94   2 2.94  14 2.94  16 2.94   6 2.94   7 2.94
                             5 2.94
   9  0.667  0.667  0.217-   2 2.94   8 2.94  17 2.94   6 2.94  15 2.94   4 2.94   3 2.94  18 2.94
                             7 2.94
  10  0.111  0.111  0.316-  20 2.93  26 2.93  19 2.93  11 2.94  17 2.94   2 2.94   4 2.94   1 2.94
                            12 2.94  16 2.94  13 2.94  15 2.94
  11  0.444  0.111  0.316-  20 2.92  21 2.92  27 2.93  13 2.94   2 2.94  10 2.94  17 2.94   5 2.94
                             3 2.94  18 2.94  14 2.94  12 2.94
  12  0.778  0.111  0.316-  21 2.93  25 2.93  19 2.93  16 2.94  18 2.94   1 2.94  14 2.94  15 2.94
                             3 2.94   6 2.94  10 2.94  11 2.94
  13  0.111  0.444  0.316-  23 2.92  20 2.92  22 2.93   5 2.94  18 2.94  11 2.94   7 2.94   4 2.94
                            16 2.94  10 2.94  14 2.94  15 2.94
  14  0.444  0.444  0.316-  21 2.92  23 2.92  24 2.93  15 2.94   6 2.94  12 2.94   8 2.94  17 2.94
                             5 2.94  16 2.94  13 2.94  11 2.94
  15  0.778  0.444  0.316-  24 2.92  22 2.92  19 2.93  14 2.94   6 2.94  17 2.94  12 2.94   9 2.94
                             4 2.94  10 2.94  13 2.94  18 2.94
  16  0.111  0.778  0.316-  23 2.93  25 2.93  26 2.93  18 2.94  12 2.94   7 2.94   1 2.94   8 2.94
                            13 2.94  10 2.94  14 2.94  17 2.94
  17  0.444  0.778  0.316-  27 2.92  24 2.92  26 2.93   9 2.94  15 2.94   2 2.94  10 2.94  11 2.94
                             8 2.94  14 2.94  16 2.94  18 2.94
  18  0.778  0.778  0.316-  22 2.92  27 2.92  25 2.93  16 2.94   7 2.94  13 2.94  12 2.94   3 2.94
                            11 2.94   9 2.94  15 2.94  17 2.94
  19  0.889  0.222  0.414-  10 2.93  12 2.93  15 2.93  26 2.93  25 2.93  24 2.94  22 2.94  21 2.95
                            20 2.95  28 2.95  32 2.96  31 2.96
  20  0.223  0.223  0.414-  36 2.70  29 2.91  31 2.91  11 2.92  13 2.92  23 2.92  21 2.92  10 2.93
                            27 2.95  22 2.95  26 2.95  19 2.95
  21  0.554  0.223  0.414-  36 2.70  30 2.91  32 2.91  14 2.92  11 2.92  20 2.92  23 2.92  12 2.93
                            27 2.95  24 2.95  25 2.95  19 2.95
  22  0.888  0.556  0.414-  18 2.92  15 2.92  24 2.92  27 2.92  13 2.93  25 2.94  19 2.94  33 2.94
                            31 2.94  23 2.95  20 2.95  35 2.96
  23  0.223  0.554  0.414-  36 2.70  33 2.91  34 2.91  13 2.92  14 2.92  20 2.92  21 2.92  16 2.93
                            22 2.95  24 2.95  25 2.95  26 2.95
  24  0.556  0.556  0.414-  15 2.92  17 2.92  27 2.92  22 2.92  14 2.93  26 2.94  19 2.94  32 2.94
                            34 2.94  21 2.95  23 2.95  35 2.96
  25  0.889  0.889  0.414-  16 2.93  12 2.93  18 2.93  19 2.93  26 2.93  22 2.94  27 2.94  23 2.95
                            21 2.95  28 2.95  33 2.96  30 2.96
  26  0.222  0.889  0.414-  10 2.93  16 2.93  17 2.93  19 2.93  25 2.93  27 2.94  24 2.94  20 2.95
                            23 2.95  28 2.95  29 2.96  34 2.96
  27  0.556  0.888  0.414-  17 2.92  18 2.92  24 2.92  22 2.92  11 2.93  26 2.94  25 2.94  29 2.94
                            30 2.94  20 2.95  21 2.95  35 2.96
  28  0.000  0.000  0.514-  25 2.95  19 2.95  26 2.95  34 2.97  32 2.97  33 2.97  30 2.97  31 2.97
                            29 2.97
  29  0.334  0.007  0.512-  30 2.87  31 2.88  36 2.89  20 2.91  27 2.94  26 2.96  35 2.97  28 2.97
                            34 3.06
  30  0.660  0.007  0.512-  29 2.87  32 2.88  36 2.89  21 2.91  27 2.94  25 2.96  35 2.97  28 2.97
                            33 3.06
  31  0.007  0.334  0.512-  33 2.87  29 2.88  36 2.89  20 2.91  22 2.94  19 2.96  35 2.97  28 2.97
                            32 3.06
  32  0.660  0.334  0.512-  34 2.87  30 2.88  36 2.89  21 2.91  24 2.94  19 2.96  35 2.97  28 2.97
                            31 3.06
  33  0.007  0.660  0.512-  31 2.87  34 2.88  36 2.89  23 2.91  22 2.94  25 2.96  35 2.97  28 2.97
                            30 3.06
  34  0.334  0.660  0.512-  32 2.87  33 2.88  36 2.89  23 2.91  24 2.94  26 2.96  35 2.97  28 2.97
                            29 3.06
  35  0.667  0.667  0.514-  24 2.96  27 2.96  22 2.96  29 2.97  34 2.97  32 2.97  31 2.97  30 2.97
                            33 2.97
  36  0.333  0.333  0.500-  37 1.64  20 2.70  23 2.70  21 2.70  33 2.89  31 2.89  29 2.89  30 2.89
                            34 2.89  32 2.89
  37  0.333  0.333  0.568-  36 1.64

  LATTYP: Found a hexagonal cell.
 ALAT       =     8.8135128021
 C/A-ratio  =     2.7586513333

  Lattice vectors:

 A1 = (  -4.4067569092,  -7.6327256898,   0.0000000000)
 A2 = (   8.8135128021,   0.0000000000,   0.0000000000)
 A3 = (   0.0000000000,   0.0000000000,  24.3134088421)

Analysis of symmetry for initial positions (statically):
 Subroutine PRICEL returns:
 Original cell was already a primitive cell.

 Routine SETGRP: Setting up the symmetry group for a
 hexagonal supercell.

 Subroutine GETGRP returns: Found  6 space group operations
 (whereof  6 operations were pure point group operations)
 out of a pool of 24 trial point group operations.

The static configuration has the point symmetry C_3v.

Analysis of symmetry for dynamics (positions and initial velocities):
 Subroutine PRICEL returns:
 Original cell was already a primitive cell.

[...]

The dynamic configuration has the point symmetry C_3v.

Analysis of constrained symmetry for selective dynamics:
 Subroutine PRICEL returns:
 Original cell was already a primitive cell.

 Routine SETGRP: Setting up the symmetry group for a
 hexagonal supercell.

 Subroutine GETGRP returns: Found  6 space group operations
[...]
     24      -5.5862      2.00000
     25      -5.5584      2.00000
     26      -5.5427      2.00000
     27      -5.4996      2.00000
     28      -5.4289      2.00000
     29      -5.3865      2.00000
     30      -5.2787      2.00000
     31      -5.2715      2.00000
     32      -5.2571      2.00000
     33      -5.2529      2.00000
     34      -5.2404      2.00000
     35      -5.1833      2.00000
     36      -5.0932      2.00000
     37      -5.0764      2.00000
     38      -5.0551      2.00000
     39      -5.0413      2.00000
     40      -4.9825      2.00000
     41      -4.9042      2.00000
     42      -4.8870      2.00000
     43      -4.8457      2.00000
     44      -4.8126      2.00000
     45      -4.7975      2.00000
     46      -4.7793      2.00000
     47      -4.6787      2.00000
     48      -4.6661      2.00000
     49      -4.6261      2.00000
     50      -4.6229      2.00000
     51      -4.6177      2.00000
     52      -4.6033      2.00000
     53      -4.5888      2.00000
     54      -4.5505      2.00000
     55      -4.5148      2.00000
     56      -4.4852      2.00000
     57      -4.4649      2.00000
     58      -4.4504      2.00000
     59      -4.4371      2.00000
     60      -4.4307      2.00000
[...]
    238       5.9537      0.00000
    239       5.9656      0.00000
    240       6.0451      0.00000
    241       6.0809      0.00000
    242       6.2867      0.00000
    243       6.3074      0.00000
    244       6.3375      0.00000
    245       6.3647      0.00000
    246       6.6558      0.00000
    247       6.6986      0.00000
    248       6.7994      0.00000
    249       6.8178      0.00000
    250       6.8868      0.00000
    251       6.9236      0.00000
    252       7.0040      0.00000

 soft charge-density along one line, spin component           1
         0         1         2         3         4         5         6         7         8         9
 total charge-density along one line

------------------------ aborting loop because EDIFF is reached ----------------------------------------

 total charge

# of ion       s       p       d       tot
    1        0.543   0.240   8.764   9.548
    2        0.542   0.241   8.765   9.548
    3        0.542   0.241   8.765   9.548
    4        0.542   0.241   8.765   9.548
    5        0.543   0.240   8.765   9.548
    6        0.542   0.241   8.765   9.548
    7        0.542   0.241   8.765   9.548
    8        0.542   0.241   8.765   9.548
    9        0.541   0.241   8.763   9.546
   10        0.521   0.307   8.772   9.600
   11        0.515   0.311   8.774   9.600
   12        0.521   0.307   8.772   9.600
   13        0.515   0.311   8.774   9.600
   14        0.515   0.311   8.774   9.600
   15        0.518   0.309   8.773   9.600
   16        0.521   0.307   8.772   9.600
   17        0.518   0.309   8.773   9.600
   18        0.518   0.309   8.773   9.600
   19        0.518   0.304   8.771   9.592
   20        0.535   0.326   8.760   9.622
   21        0.535   0.326   8.760   9.622
   22        0.515   0.309   8.774   9.598
   23        0.535   0.326   8.760   9.622
   24        0.515   0.309   8.774   9.598
   25        0.518   0.304   8.771   9.592
   26        0.518   0.304   8.771   9.592
   27        0.515   0.309   8.774   9.598
   28        0.540   0.225   8.769   9.534
   29        0.536   0.238   8.767   9.540
   30        0.536   0.238   8.767   9.540
   31        0.536   0.238   8.767   9.540
   32        0.536   0.238   8.767   9.540
   33        0.536   0.238   8.767   9.540
   34        0.536   0.238   8.767   9.540
   35        0.539   0.224   8.770   9.534
   36        0.492   0.526   8.427   9.445
   37        1.043   1.100   0.000   2.143
tot         20.075  11.269 315.323 346.666

  FORCE on cell =-STRESS in cart. coord.  units (eV):
  Direction    XX          YY          ZZ          XY          YZ          ZX
  Alpha Z   921.56597   921.56597   921.56597
  Ewald  152684.69625152684.69669************    -0.00032    -0.00008    -0.00013
  Hartree161221.78392161221.78393************     0.00001    -0.00003    -0.00003
  E(xc)   -1796.28470 -1796.28467 -1802.77254    -0.00002    -0.00000    -0.00000
  Local  ************************326446.84828     0.00201     0.00003     0.00003
  n-local   -82.19086   -39.45808   -38.90658    22.02398    -1.42755     1.41114
  augment  2548.88927  2548.89099  2546.42729    -0.00150     0.00001     0.00009
  Kinetic  5479.46811  5483.23840  5518.52237     3.43292     0.58338     0.08237
  Fock        0.00000     0.00000     0.00000     0.00000     0.00000     0.00000
  Total     -20.30585   -20.30585     0.50266    -0.00000     0.00000    -0.00000
  in kB     -19.89103   -19.89103     0.49239    -0.00000     0.00000    -0.00000

 VOLUME and BASIS-vectors are now :
  energy-cutoff  :      500.00
  volume of cell :     1635.59
      direct lattice vectors                 reciprocal lattice vectors
     8.813512802  0.000000000  0.000000000     0.113462137 -0.065507406  0.000000000
     4.406756909  7.632725690  0.000000000     0.000000000  0.131014796  0.000000000
     0.000000000  0.000000000 24.313408842     0.000000000  0.000000000  0.041129568

  length of vectors
     8.813512802  8.813512802 24.313408842     0.131014796  0.131014796  0.041129568

 FORCES acting on ions
    electron-ion (+dipol)            ewald-force                    non-local-force                 convergence-correction
   -.199E-04 -.164E-04 0.267E+04   0.519E-04 0.434E-04 -.267E+04   0.329E-17 -.617E-18 -.394E+00   -.260E-03 -.164E-03 -.181E+00
   0.525E+00 0.614E+00 0.267E+04   -.560E+00 -.532E+00 -.267E+04   0.162E-01 -.160E-01 -.342E+00   0.160E-01 -.648E-01 -.181E+00
   -.525E+00 0.614E+00 0.267E+04   0.560E+00 -.532E+00 -.267E+04   -.162E-01 -.160E-01 -.342E+00   -.157E-01 -.628E-01 -.180E+00
   0.794E+00 0.148E+00 0.267E+04   -.741E+00 -.219E+00 -.267E+04   -.577E-02 0.221E-01 -.342E+00   -.480E-01 0.462E-01 -.181E+00
   0.817E-05 -.234E-04 0.267E+04   0.951E-04 0.172E-05 -.267E+04   0.466E-17 0.782E-17 -.523E+00   0.434E-02 0.264E-02 -.148E+00
   -.794E+00 0.148E+00 0.267E+04   0.741E+00 -.219E+00 -.267E+04   0.577E-02 0.221E-01 -.342E+00   0.464E-01 0.471E-01 -.180E+00
   0.269E+00 -.761E+00 0.267E+04   -.181E+00 0.751E+00 -.267E+04   -.220E-01 -.605E-02 -.342E+00   -.622E-01 0.178E-01 -.180E+00
   -.269E+00 -.761E+00 0.267E+04   0.181E+00 0.751E+00 -.267E+04   0.220E-01 -.605E-02 -.342E+00   0.640E-01 0.167E-01 -.180E+00
   0.196E-04 -.415E-04 0.267E+04   0.166E-03 -.201E-04 -.267E+04   0.644E-17 -.341E-17 -.321E+00   -.462E-02 -.239E-02 -.288E+00
   0.440E+01 0.254E+01 0.911E+03   -.437E+01 -.252E+01 -.910E+03   -.602E-01 -.347E-01 -.522E+00   0.988E-02 0.559E-02 -.240E+00
   0.150E-04 0.619E+01 0.920E+03   0.147E-03 -.630E+01 -.919E+03   0.543E-08 0.816E-01 -.429E+00   0.417E-02 -.110E-01 -.339E+00
   -.440E+01 0.254E+01 0.911E+03   0.437E+01 -.252E+01 -.910E+03   0.602E-01 -.347E-01 -.522E+00   -.115E-01 0.716E-02 -.240E+00
   0.536E+01 -.310E+01 0.920E+03   -.546E+01 0.315E+01 -.919E+03   0.706E-01 -.408E-01 -.429E+00   -.715E-02 0.938E-02 -.339E+00
   -.536E+01 -.310E+01 0.920E+03   0.546E+01 0.315E+01 -.919E+03   -.706E-01 -.408E-01 -.429E+00   0.152E-01 0.861E-02 -.339E+00
   0.311E-04 0.182E+01 0.912E+03   0.237E-03 -.181E+01 -.911E+03   -.244E-08 -.366E-01 -.383E+00   -.262E-02 0.242E-02 -.251E+00
   -.216E-04 -.508E+01 0.911E+03   0.163E-03 0.505E+01 -.910E+03   0.462E-08 0.695E-01 -.522E+00   0.189E-03 -.136E-01 -.240E+00
   0.158E+01 -.911E+00 0.912E+03   -.157E+01 0.905E+00 -.911E+03   -.317E-01 0.183E-01 -.383E+00   0.104E-02 -.305E-02 -.251E+00
   -.158E+01 -.911E+00 0.912E+03   0.157E+01 0.905E+00 -.911E+03   0.317E-01 0.183E-01 -.383E+00   -.795E-03 -.711E-03 -.250E+00
   -.391E-04 0.304E+01 -.883E+03   0.529E-04 -.294E+01 0.882E+03   0.790E-09 0.119E-01 0.449E+00   -.459E-02 -.748E-01 -.116E+00
   0.410E+02 0.237E+02 -.825E+03   -.402E+02 -.232E+02 0.826E+03   -.684E+00 -.395E+00 -.206E+00   -.151E+00 -.871E-01 -.239E+00
   -.410E+02 0.237E+02 -.825E+03   0.402E+02 -.232E+02 0.826E+03   0.684E+00 -.395E+00 -.206E+00   0.153E+00 -.859E-01 -.239E+00
   0.142E+02 -.822E+01 -.868E+03   -.143E+02 0.828E+01 0.868E+03   0.204E+00 -.118E+00 0.618E+00   -.909E-01 0.497E-01 -.118E+00
   -.139E-04 -.473E+02 -.825E+03   0.145E-03 0.464E+02 0.826E+03   0.526E-07 0.790E+00 -.206E+00   0.192E-02 0.175E+00 -.239E+00
   -.142E+02 -.822E+01 -.868E+03   0.143E+02 0.828E+01 0.868E+03   -.204E+00 -.118E+00 0.618E+00   0.840E-01 0.486E-01 -.118E+00
   -.263E+01 -.152E+01 -.883E+03   0.255E+01 0.147E+01 0.882E+03   -.103E-01 -.593E-02 0.449E+00   0.619E-01 0.357E-01 -.117E+00
   0.263E+01 -.152E+01 -.883E+03   -.255E+01 0.147E+01 0.882E+03   0.103E-01 -.593E-02 0.449E+00   -.668E-01 0.335E-01 -.116E+00
   0.101E-04 0.164E+02 -.868E+03   0.197E-03 -.166E+02 0.868E+03   0.157E-07 0.236E+00 0.618E+00   -.297E-02 -.104E+00 -.118E+00
   -.116E-04 -.137E-04 -.265E+04   0.292E-04 0.345E-04 0.265E+04   0.241E-17 0.102E-17 0.481E+00   -.199E-03 -.133E-03 -.517E-01
   0.350E+02 0.581E+02 -.264E+04   -.349E+02 -.578E+02 0.264E+04   -.177E+00 -.275E+00 0.649E+00   -.745E-01 -.202E+00 -.126E-01
   -.350E+02 0.581E+02 -.264E+04   0.349E+02 -.578E+02 0.264E+04   0.177E+00 -.275E+00 0.649E+00   0.751E-01 -.200E+00 -.128E-01
   0.678E+02 0.130E+01 -.264E+04   -.675E+02 -.134E+01 0.264E+04   -.327E+00 -.159E-01 0.649E+00   -.212E+00 0.366E-01 -.126E-01
   -.678E+02 0.130E+01 -.264E+04   0.675E+02 -.134E+01 0.264E+04   0.327E+00 -.159E-01 0.649E+00   0.211E+00 0.373E-01 -.136E-01
   0.328E+02 -.594E+02 -.264E+04   -.326E+02 0.591E+02 0.264E+04   -.149E+00 0.291E+00 0.649E+00   -.136E+00 0.165E+00 -.129E-01
   -.328E+02 -.594E+02 -.264E+04   0.326E+02 0.591E+02 0.264E+04   0.149E+00 0.291E+00 0.649E+00   0.138E+00 0.164E+00 -.136E-01
   0.335E-04 -.282E-04 -.266E+04   0.144E-03 -.498E-04 0.265E+04   0.546E-17 -.412E-17 0.393E+00   -.461E-02 -.237E-02 0.388E-01
   -.274E-04 -.112E-04 -.211E+04   0.105E-03 0.985E-05 0.210E+04   -.111E-16 0.665E-18 0.459E+01   0.103E-01 0.631E-02 -.529E-01
   0.444E-04 -.265E-04 -.126E+04   0.183E-04 0.118E-05 0.127E+04   -.480E-18 0.441E-18 -.103E+02   0.952E-03 0.578E-03 0.124E+00
   -.703E-03 -.794E-03 0.115E+02   0.427E-13 0.124E-12 0.568E-11   0.216E-16 -.301E-17 -.569E+01   0.802E-03 0.135E-02 -.563E+01

 POSITION                                       TOTAL-FORCE (eV/Angst)
      0.00000      0.00000      5.28038        -0.000000      0.000000     -0.039906
      2.93784      0.00000      5.28038        -0.003037      0.001670     -0.016489
      5.87568      0.00000      5.28038         0.003037      0.001670     -0.016489
      1.46892      2.54424      5.28038        -0.000072     -0.003465     -0.016489
      4.40676      2.54424      5.28038        -0.000000      0.000000     -0.039100
      7.34459      2.54424      5.28038         0.000072     -0.003465     -0.016489
      2.93784      5.08848      5.28038         0.002965      0.001795     -0.016489
      5.87568      5.08848      5.28038        -0.002965      0.001795     -0.016489
      8.81351      5.08848      5.28038        -0.000000      0.000000     -0.007929
      1.46892      0.84808      7.67911        -0.025717     -0.014847      0.087956
      4.40676      0.84808      7.67911        -0.000000     -0.038850      0.041318
      7.34459      0.84808      7.67911         0.025717     -0.014847      0.087956
      2.93784      3.39232      7.67911        -0.033645      0.019425      0.041318
      5.87568      3.39232      7.67911         0.033645      0.019425      0.041318
      8.81351      3.39232      7.67911        -0.000000     -0.022115      0.057278
      4.40676      5.93656      7.67911         0.000000      0.029695      0.087956
      7.34459      5.93656      7.67911        -0.019152      0.011057      0.057278
     10.28243      5.93656      7.67911         0.019152      0.011057      0.057278
      8.81351      1.69394     10.07055         0.000000      0.029396     -0.016880
      2.94670      1.70128     10.05847        -0.017815     -0.010286     -0.103780
      5.86681      1.70128     10.05847         0.017815     -0.010286     -0.103780
     10.27376      4.24541     10.05945         0.018381     -0.010612      0.018613
      4.40676      4.23017     10.05847         0.000000      0.020571     -0.103780
      7.35327      4.24541     10.05945        -0.018381     -0.010612      0.018613
     11.75328      6.78576     10.07055        -0.025458     -0.014698     -0.016880
      5.87375      6.78576     10.07055         0.025458     -0.014698     -0.016880
      8.81351      6.77463     10.05945         0.000000      0.021225      0.018613
      0.00000      0.00000     12.48855        -0.000000      0.000000     -0.089526
      2.97006      0.05170     12.45862        -0.100207     -0.137015     -0.015715
      5.84345      0.05170     12.45862         0.100207     -0.137015     -0.015715
      1.52981      2.54630     12.45862        -0.168762     -0.018275     -0.015715
      7.28371      2.54630     12.45862         0.168762     -0.018275     -0.015715
      2.96650      5.03473     12.45862        -0.068555      0.155289     -0.015715
      5.84701      5.03473     12.45862         0.068555      0.155289     -0.015715
      8.81351      5.08848     12.49203        -0.000000      0.000000     -0.094720
      4.40676      2.54424     12.16149        -0.000000      0.000000      0.231434
      4.40676      2.54424     13.80127        -0.000000      0.000000     -0.020544
    total drift:                                0.000099      0.000553      0.135759

  FREE ENERGIE OF THE ION-ELECTRON SYSTEM (eV)
  free  energy   TOTEN  =      -116.95333731 eV

  energy  without entropy=     -116.95333731  energy(sigma->0) =     -116.95333731

 stress matrix after NEB project (eV)
    -20.30585     -0.00000     -0.00000
     -0.00000    -20.30585      0.00000
      0.00000      0.00000      0.50266
  FORCES: max atom, RMS     0.020544    0.003377
  FORCE total and by dimension    0.020544    0.020544
  Stress total and by dimension   28.721209   20.305852
|           W    W    AA    RRRRR   N    N  II  N    N   GGGG   !!!           |
|           W    W   A  A   R    R  NN   N  II  NN   N  G    G  !!!           |
|           W    W  A    A  R    R  N N  N  II  N N  N  G       !!!           |
|           W WW W  AAAAAA  RRRRR   N  N N  II  N  N N  G  GGG   !            |
|           WW  WW  A    A  R   R   N   NN  II  N   NN  G    G                |
|           W    W  A    A  R    R  N    N  II  N    N   GGGG   !!!           |
|     Tetrahedron method does not include variations of the Fermi             |
|     occupations, so forces and stress will be inaccurate. We suggest        |
|     using a different smearing scheme ISMEAR = 1 or 2 for metals in         |
|     relaxations.                                                            |

 total charge

# of ion       s       p       d       tot
    1        0.543   0.240   8.764   9.548
    2        0.542   0.241   8.765   9.548
    3        0.542   0.241   8.765   9.548
    4        0.542   0.241   8.765   9.548
    5        0.543   0.240   8.765   9.548
    6        0.542   0.241   8.765   9.548
    7        0.542   0.241   8.765   9.548
    8        0.542   0.241   8.765   9.548
    9        0.541   0.241   8.763   9.546
   10        0.521   0.307   8.772   9.600
   11        0.515   0.311   8.774   9.600
   12        0.521   0.307   8.772   9.600
   13        0.515   0.311   8.774   9.600
   14        0.515   0.311   8.774   9.600
   15        0.518   0.309   8.773   9.600
   16        0.521   0.307   8.772   9.600
   17        0.518   0.309   8.773   9.600
   18        0.518   0.309   8.773   9.600
   19        0.518   0.304   8.771   9.592
   20        0.535   0.326   8.760   9.622
   21        0.535   0.326   8.760   9.622
   22        0.515   0.309   8.774   9.598
   23        0.535   0.326   8.760   9.622
   24        0.515   0.309   8.774   9.598
   25        0.518   0.304   8.771   9.592
   26        0.518   0.304   8.771   9.592
   27        0.515   0.309   8.774   9.598
   28        0.540   0.225   8.769   9.534
   29        0.536   0.238   8.767   9.540
   30        0.536   0.238   8.767   9.540
   31        0.536   0.238   8.767   9.540
   32        0.536   0.238   8.767   9.540
   33        0.536   0.238   8.767   9.540
   34        0.536   0.238   8.767   9.540
   35        0.539   0.224   8.770   9.534
   36        0.492   0.526   8.427   9.445
   37        1.043   1.100   0.000   2.143
tot         20.075  11.269 315.323 346.666

 BZINTS: Fermi energy:    0.167627;  399.000000 electrons
         Band energy:-0.141264E+04;  BLOECHL correction:   -0.086947