 vasp.6.2.0 18Jan21 (build Jun 12 2021 23:27:24) complex

 executed on             LinuxIFC date 2022.05.28  01:42:54

 INCAR:
   ISMEAR = -5
   SIGMA = 0.1
   ISPIN = 1
   EDIFF = 1.d-5
   EDIFFG = -0.01
   NSW = 0
   NELM = 150
   ENCUT = 500
   ISIF = 2
   IBRION = 2
   LREAL = Auto
   ALGO = Fast
   ICHARG = 11
   LORBIT = 10
   LCHARG = .F.
   LWAVE = .F.

 POTCAR:    PAW_PBE Ag 02Apr2005
 POTCAR:    PAW_PBE Zr_sv 04Jan2005
 POTCAR:    PAW_PBE H 15Jun2001
 POTCAR:    PAW_PBE O 08Apr2002
|           W    W    AA    RRRRR   N    N  II  N    N   GGGG   !!!           |
|           W    W   A  A   R    R  NN   N  II  NN   N  G    G  !!!           |
|           W    W  A    A  R    R  N N  N  II  N N  N  G       !!!           |
|           W WW W  AAAAAA  RRRRR   N  N N  II  N  N N  G  GGG   !            |
|           WW  WW  A    A  R   R   N   NN  II  N   NN  G    G                |
|           W    W  A    A  R    R  N    N  II  N    N   GGGG   !!!           |
|     For optimal performance we recommend to set                             |
|       NCORE = 2 up to number-of-cores-per-socket                            |
|     This setting can greatly improve the performance of VASP for DFT.       |
|     The default, NCORE=1 might be grossly inefficient on modern             |
|     multi-core architectures or massively parallel machines. Do your        |
|     Unfortunately you need to use the default for GW and RPA                |
|     calculations (for HF NCORE is supported but not extensively tested      |
|     yet).                                                                   |

 POTCAR:    PAW_PBE Ag 02Apr2005
   VRHFIN =Ag : s1 d10

   TITEL  = PAW_PBE Ag 02Apr2005
   POMASS =  107.868; ZVAL   =   11.000    mass and valenz
   ENMAX  =  249.844; ENMIN  =  187.383 eV

 POTCAR:    PAW_PBE Zr_sv 04Jan2005
   VRHFIN =Zr: 4s4p5s4d

   TITEL  = PAW_PBE Zr_sv 04Jan2005
   POMASS =   91.224; ZVAL   =   12.000    mass and valenz
   ENMAX  =  229.898; ENMIN  =  172.424 eV

 POTCAR:    PAW_PBE H 15Jun2001
   VRHFIN =H: ultrasoft test

   TITEL  = PAW_PBE H 15Jun2001
   POMASS =    1.000; ZVAL   =    1.000    mass and valenz
   ENMAX  =  250.000; ENMIN  =  200.000 eV

 POTCAR:    PAW_PBE O 08Apr2002
   VRHFIN =O: s2p4

   TITEL  = PAW_PBE O 08Apr2002
   POMASS =   16.000; ZVAL   =    6.000    mass and valenz
   ENMAX  =  400.000; ENMIN  =  300.000 eV

 Optimization of the real space projectors (new method)

 maximal supplied QI-value         = 15.12
 optimisation between [QCUT,QGAM] = [ 11.34, 22.83] = [ 36.00,145.93] Ry
 Optimized for a Real-space Cutoff    1.43 Angstroem

   l    n(q)    QCUT    max X(q) W(low)/X(q) W(high)/X(q)  e(spline)
   2      9    11.338    53.897    0.16E-03    0.20E-03    0.28E-06
   2      9    11.338    52.416    0.16E-03    0.20E-03    0.29E-06
   0     10    11.338   122.045    0.31E-04    0.76E-04    0.15E-06
   0     10    11.338    73.629    0.30E-04    0.72E-04    0.15E-06
   1      9    11.338    15.255    0.20E-03    0.19E-04    0.17E-06
   1      9    11.338     9.562    0.16E-03    0.15E-04    0.14E-06
 Optimization of the real space projectors (new method)

[...]

   l    n(q)    QCUT    max X(q) W(low)/X(q) W(high)/X(q)  e(spline)
   0      8    11.287    19.460    0.40E-03    0.73E-03    0.16E-06
   0      8    11.287    12.209    0.38E-03    0.70E-03    0.15E-06
   1      7    11.287     4.655    0.22E-03    0.25E-04    0.22E-06
 Optimization of the real space projectors (new method)

 maximal supplied QI-value         = 24.76
 optimisation between [QCUT,QGAM] = [ 11.39, 22.77] = [ 36.31,145.25] Ry
 Optimized for a Real-space Cutoff    1.00 Angstroem

   l    n(q)    QCUT    max X(q) W(low)/X(q) W(high)/X(q)  e(spline)
   0      7    11.387    20.381    0.39E-03    0.13E-02    0.15E-06
   0      7    11.387    15.268    0.42E-03    0.14E-02    0.17E-06
   1      6    11.387     5.964    0.41E-03    0.11E-02    0.17E-06
   1      6    11.387     5.382    0.39E-03    0.87E-03    0.15E-06
  PAW_PBE Ag 02Apr2005                  :
  PAW_PBE Zr_sv 04Jan2005               :
  PAW_PBE H 15Jun2001                   :
  PAW_PBE O 08Apr2002                   :

 POSCAR: Ag-Zr-H2O
  positions in direct lattice
  velocities in cartesian coordinates
 exchange correlation table for  LEXCH =        8
   RHO(1)=    0.500       N(1)  =     2000
   RHO(2)=  100.500       N(2)  =     4000

 VTST: version 3.2, (02/03/18)

 CHAIN: initializing optimizer

 OPT: Using VASP Conjugate-Gradient optimizer
 CHAIN: Read ICHAIN            0

 POSCAR: Ag-Zr-H2O
  positions in direct lattice
  velocities in cartesian coordinates

 ion  position               nearest neighbor table
   1  0.000  0.000  0.212-   2 2.93   8 2.93   7 2.93   6 2.93   4 2.93  12 2.93  16 2.93  10 2.93
                             3 2.93
   2  0.333  0.000  0.212-   1 2.93   8 2.93   9 2.93   3 2.93   4 2.93   5 2.93  10 2.93  17 2.93
                            11 2.93
   3  0.667  0.000  0.212-   9 2.93   2 2.93   5 2.93  11 2.93   7 2.93  18 2.93   1 2.93   6 2.93
                            12 2.93
   4  0.000  0.333  0.212-   5 2.93   6 2.93   2 2.93   1 2.93   7 2.93  13 2.93  15 2.93   9 2.93
                            10 2.93
   5  0.333  0.333  0.212-   4 2.93   3 2.93   7 2.93   2 2.93   8 2.93  14 2.93  13 2.93  11 2.93
                             6 2.93
   6  0.667  0.333  0.212-   4 2.93   9 2.93   1 2.93  15 2.93   8 2.93  12 2.93   3 2.93   5 2.93
                            14 2.93
   7  0.000  0.667  0.212-   8 2.93   1 2.93   5 2.93   3 2.93   4 2.93  16 2.93  18 2.93  13 2.93
                             9 2.93
   8  0.333  0.667  0.212-   7 2.93   1 2.93   2 2.93   9 2.93   5 2.93  16 2.93   6 2.93  17 2.93
                            14 2.93
   9  0.667  0.667  0.212-   3 2.93   2 2.93   8 2.93   6 2.93  17 2.93   4 2.93  15 2.93   7 2.93
                            18 2.93
  10  0.111  0.111  0.308-  20 2.91  19 2.92  26 2.92  12 2.93  16 2.93  15 2.93  17 2.93  13 2.93
                            11 2.93   2 2.93   1 2.93   4 2.93
  11  0.444  0.111  0.308-  21 2.91  20 2.91  14 2.93  17 2.93  18 2.93   3 2.93  12 2.93  13 2.93
                            10 2.93   5 2.93   2 2.93  27 2.93
  12  0.778  0.111  0.308-  21 2.91  25 2.92  19 2.92  10 2.93  16 2.93  18 2.93  15 2.93  11 2.93
                             1 2.93  14 2.93   6 2.93   3 2.93
  13  0.111  0.444  0.308-  20 2.91  23 2.91  15 2.93  14 2.93  18 2.93  10 2.93  11 2.93  16 2.93
                             4 2.93   5 2.93   7 2.93  22 2.93
  14  0.444  0.444  0.308-  23 2.91  21 2.91  13 2.93  11 2.93  16 2.93   5 2.93  12 2.93  17 2.93
                             8 2.93  15 2.93   6 2.93  24 2.93
  15  0.778  0.444  0.308-  19 2.92  13 2.93  10 2.93  12 2.93  17 2.93  18 2.93   4 2.93   6 2.93
                             9 2.93  14 2.93  24 2.93  22 2.93
  16  0.111  0.778  0.308-  23 2.91  26 2.92  25 2.92  18 2.93  12 2.93  10 2.93  14 2.93  17 2.93
                            13 2.93   7 2.93   8 2.93   1 2.93
  17  0.444  0.778  0.308-  26 2.92  11 2.93  10 2.93   9 2.93  18 2.93  15 2.93  16 2.93   2 2.93
                            14 2.93   8 2.93  27 2.93  24 2.93
  18  0.778  0.778  0.308-  25 2.92  16 2.93  12 2.93  13 2.93  11 2.93  17 2.93  15 2.93   7 2.93
                             3 2.93   9 2.93  22 2.93  27 2.93
  19  0.889  0.222  0.403-  10 2.92  12 2.92  15 2.92  26 2.93  25 2.93  20 2.93  21 2.93  24 2.93
                            22 2.93  28 2.93  32 2.97  31 2.97
  20  0.222  0.222  0.402-  13 2.91  11 2.91  10 2.91  36 2.92  21 2.93  23 2.93  27 2.93  22 2.93
                            19 2.93  26 2.93  31 2.97  29 2.97
  21  0.555  0.222  0.402-  11 2.91  14 2.91  12 2.91  36 2.92  20 2.93  23 2.93  27 2.93  24 2.93
                            25 2.93  19 2.93  30 2.97  32 2.97
  22  0.889  0.556  0.404-  24 2.93  27 2.93  23 2.93  20 2.93  18 2.93  15 2.93  13 2.93  25 2.93
                            19 2.93  35 2.94  33 2.95  31 2.95
  23  0.222  0.555  0.402-  14 2.91  13 2.91  16 2.91  36 2.92  21 2.93  20 2.93  22 2.93  24 2.93
                            26 2.93  25 2.93  34 2.97  33 2.97
  24  0.556  0.556  0.404-  27 2.93  22 2.93  23 2.93  21 2.93  15 2.93  17 2.93  14 2.93  19 2.93
                            26 2.93  35 2.94  32 2.95  34 2.95
  25  0.889  0.889  0.403-  16 2.92  12 2.92  18 2.92  26 2.93  19 2.93  23 2.93  21 2.93  22 2.93
                            27 2.93  28 2.93  33 2.97  30 2.97
  26  0.222  0.889  0.403-  16 2.92  10 2.92  17 2.92  25 2.93  19 2.93  23 2.93  20 2.93  27 2.93
                            24 2.93  28 2.93  34 2.97  29 2.97
  27  0.556  0.889  0.404-  24 2.93  22 2.93  20 2.93  21 2.93  17 2.93  18 2.93  11 2.93  26 2.93
                            25 2.93  35 2.94  29 2.95  30 2.95
  28  0.000  0.000  0.499-  29 2.93  34 2.93  33 2.93  32 2.93  31 2.93  30 2.93  26 2.93  25 2.93
                            19 2.93
  29  0.334  0.000  0.500-  30 2.93  36 2.93  35 2.93  31 2.93  28 2.93  34 2.94  27 2.95  26 2.97
                            20 2.97
  30  0.666  0.000  0.500-  29 2.93  36 2.93  35 2.93  32 2.93  28 2.93  33 2.94  27 2.95  25 2.97
                            21 2.97
  31  0.000  0.334  0.500-  33 2.93  36 2.93  35 2.93  29 2.93  28 2.93  32 2.94  22 2.95  19 2.97
                            20 2.97
  32  0.666  0.334  0.500-  34 2.93  36 2.93  35 2.93  30 2.93  28 2.93  31 2.94  24 2.95  19 2.97
                            21 2.97
  33  0.000  0.666  0.500-  31 2.93  36 2.93  35 2.93  34 2.93  28 2.93  30 2.94  22 2.95  25 2.97
                            23 2.97
  34  0.334  0.666  0.500-  32 2.93  36 2.93  35 2.93  33 2.93  28 2.93  29 2.94  24 2.95  26 2.97
                            23 2.97
  35  0.667  0.667  0.500-  30 2.93  29 2.93  32 2.93  34 2.93  31 2.93  33 2.93  24 2.94  27 2.94
                            22 2.94
  36  0.333  0.333  0.498-  39 2.30  21 2.92  20 2.92  23 2.92  31 2.93  33 2.93  30 2.93  29 2.93
                            34 2.93  32 2.93
  37  0.281  0.255  0.601-  39 0.98
  38  0.459  0.259  0.602-  39 0.98
  39  0.336  0.323  0.590-  38 0.98  37 0.98  36 2.30

  LATTYP: Found a hexagonal cell.
 ALAT       =     8.7913665772
 C/A-ratio  =     2.8382349142

  Lattice vectors:

 A1 = (  -4.3956832886,  -7.6135467898,   0.0000000000)
 A2 = (   8.7913665771,   0.0000000000,   0.0000000000)
 A3 = (   0.0000000000,   0.0000000000,  24.9519635625)

Analysis of symmetry for initial positions (statically):
 Subroutine PRICEL returns:
 Original cell was already a primitive cell.

 Routine SETGRP: Setting up the symmetry group for a
 hexagonal supercell.

 Subroutine GETGRP returns: Found  1 space group operations
 (whereof  1 operations were pure point group operations)
 out of a pool of 24 trial point group operations.

The static configuration has the point symmetry C_1 .

Analysis of symmetry for dynamics (positions and initial velocities):
 Subroutine PRICEL returns:
 Original cell was already a primitive cell.

[...]

The dynamic configuration has the point symmetry C_1 .

Analysis of constrained symmetry for selective dynamics:
 Subroutine PRICEL returns:
[...]
     41      -4.6662      2.00000
     42      -4.6415      2.00000
     43      -4.6351      2.00000
     44      -4.5843      2.00000
     45      -4.5499      2.00000
     46      -4.5263      2.00000
     47      -4.5198      2.00000
     48      -4.5040      2.00000
     49      -4.5004      2.00000
     50      -4.4824      2.00000
     51      -4.3889      2.00000
     52      -4.3817      2.00000
     53      -4.3623      2.00000
     54      -4.3487      2.00000
     55      -4.3420      2.00000
     56      -4.3365      2.00000
     57      -4.3323      2.00000
     58      -4.3169      2.00000
     59      -4.3148      2.00000
     60      -4.3048      2.00000
[...]
    238       5.5742      0.00000
    239       5.5862      0.00000
    240       5.6405      0.00000
    241       5.7914      0.00000
    242       5.8032      0.00000
    243       5.9616      0.00000
    244       5.9923      0.00000
    245       6.1437      0.00000
    246       6.2221      0.00000
    247       6.3167      0.00000
    248       6.3916      0.00000
    249       6.4462      0.00000
    250       6.5877      0.00000
    251       6.6612      0.00000
    252       6.8299      0.00000

 soft charge-density along one line, spin component           1
         0         1         2         3         4         5         6         7         8         9
 total charge-density along one line

------------------------ aborting loop because EDIFF is reached ----------------------------------------

 total charge

# of ion       s       p       d       tot
    1        0.423   0.201   9.178   9.801
    2        0.417   0.204   9.177   9.798
    3        0.417   0.204   9.177   9.798
    4        0.416   0.204   9.178   9.797
    5        0.417   0.203   9.177   9.797
    6        0.416   0.204   9.178   9.797
    7        0.416   0.204   9.178   9.797
    8        0.416   0.204   9.178   9.797
    9        0.417   0.203   9.177   9.797
   10        0.412   0.268   9.163   9.843
   11        0.407   0.266   9.168   9.841
   12        0.412   0.268   9.163   9.843
   13        0.405   0.267   9.168   9.841
   14        0.405   0.267   9.168   9.841
   15        0.403   0.268   9.165   9.836
   16        0.411   0.269   9.163   9.843
   17        0.403   0.268   9.165   9.836
   18        0.403   0.268   9.165   9.836
   19        0.406   0.265   9.165   9.836
   20        0.443   0.294   9.133   9.870
   21        0.443   0.294   9.133   9.870
   22        0.395   0.272   9.164   9.830
   23        0.442   0.294   9.134   9.869
   24        0.395   0.272   9.164   9.831
   25        0.406   0.265   9.166   9.836
   26        0.406   0.265   9.166   9.836
   27        0.396   0.272   9.163   9.830
   28        0.410   0.210   9.169   9.789
   29        0.457   0.230   9.141   9.827
   30        0.457   0.230   9.141   9.827
   31        0.457   0.229   9.141   9.827
   32        0.457   0.229   9.141   9.827
   33        0.455   0.224   9.145   9.824
   34        0.455   0.224   9.145   9.824
   35        0.406   0.212   9.171   9.789
   36        2.198   5.968   1.481   9.647
   37        0.596   0.117   0.000   0.713
   38        0.596   0.117   0.000   0.713
   39        1.563   3.633   0.000   5.197
tot         19.652  18.356 322.144 360.152

  FORCE on cell =-STRESS in cart. coord.  units (eV):
  Direction    XX          YY          ZZ          XY          YZ          ZX
  Alpha Z   689.93830   689.93830   689.93830
  Ewald  162659.70969162583.31006************     1.95956   -34.38971     0.93370
  Hartree172879.28191172863.93590************     0.41222    -6.36882    -0.02083
  E(xc)   -2115.71846 -2116.03999 -2121.84016     0.00811    -0.10622     0.00724
  Local  ************************346860.98055    -1.86932    32.30271    -0.40776
  n-local  -351.28068  -352.01698  -349.22598     0.01110    -0.06476    -0.02283
  augment  3227.36305  3228.62299  3240.30323    -0.03157     0.49132    -0.02824
  Kinetic  5126.32258  5146.40138  5171.90467    -0.48700     7.96930    -0.44458
  Fock        0.00000     0.00000     0.00000     0.00000     0.00000     0.00000
  Total      -6.90962    -6.81785     0.04988     0.00311    -0.16617     0.01670
  in kB      -6.62852    -6.54049     0.04785     0.00298    -0.15941     0.01602

 VOLUME and BASIS-vectors are now :
  energy-cutoff  :      500.00
  volume of cell :     1670.12
      direct lattice vectors                 reciprocal lattice vectors
     8.791366577  0.000000000  0.000000000     0.113747958 -0.065672414  0.000000000
     4.395683289  7.613546790  0.000000000     0.000000000  0.131344829  0.000000000
     0.000000000  0.000000000 24.951963562     0.000000000  0.000000000  0.040077006

  length of vectors
     8.791366577  8.791366577 24.951963562     0.131344829  0.131344829  0.040077006

 FORCES acting on ions
    electron-ion (+dipol)            ewald-force                    non-local-force                 convergence-correction
   0.353E-02 0.125E-01 0.275E+04   -.134E-02 -.110E-01 -.275E+04   -.555E-03 -.826E-02 -.185E+01   -.154E-02 0.105E-01 0.832E-01
   -.110E+00 0.432E+00 0.275E+04   0.164E-01 -.580E+00 -.275E+04   0.183E-01 0.144E+00 -.159E+01   0.795E-01 0.241E-02 0.206E+00
   0.108E+00 0.424E+00 0.275E+04   -.150E-01 -.579E+00 -.275E+04   -.180E-01 0.143E+00 -.159E+01   -.794E-01 0.103E-01 0.209E+00
   0.292E+00 -.347E+00 0.275E+04   -.485E+00 0.318E+00 -.275E+04   0.151E+00 -.467E-01 -.161E+01   0.393E-01 0.744E-01 0.159E+00
   -.117E-01 -.195E-01 0.275E+04   0.217E-02 0.204E-01 -.275E+04   -.416E-02 -.689E-02 -.140E+01   0.141E-01 0.230E-02 0.209E+00
   -.285E+00 -.350E+00 0.275E+04   0.483E+00 0.318E+00 -.275E+04   -.149E+00 -.464E-01 -.161E+01   -.459E-01 0.773E-01 0.161E+00
   0.444E+00 -.967E-01 0.275E+04   -.500E+00 0.262E+00 -.275E+04   0.101E+00 -.895E-01 -.167E+01   -.491E-01 -.750E-01 0.180E+00
   -.451E+00 -.909E-01 0.275E+04   0.500E+00 0.260E+00 -.275E+04   -.102E+00 -.887E-01 -.167E+01   0.552E-01 -.796E-01 0.179E+00
   0.109E-01 0.445E-01 0.275E+04   -.708E-03 -.911E-02 -.274E+04   0.307E-02 -.103E-01 -.167E+01   -.136E-01 -.235E-01 0.223E+00
   0.179E+01 0.104E+01 0.969E+03   -.154E+01 -.869E+00 -.968E+03   -.307E+00 -.188E+00 -.705E+00   0.483E-01 0.191E-01 0.131E+00
   -.252E-01 0.536E+01 0.971E+03   0.128E-01 -.541E+01 -.971E+03   -.236E-02 0.849E-01 -.240E+00   0.151E-01 -.916E-01 0.143E-01
   -.177E+01 0.103E+01 0.969E+03   0.152E+01 -.861E+00 -.968E+03   0.308E+00 -.190E+00 -.703E+00   -.551E-01 0.204E-01 0.129E+00
   0.459E+01 -.277E+01 0.971E+03   -.469E+01 0.283E+01 -.971E+03   0.914E-01 -.550E-01 -.240E+00   -.368E-01 0.266E-01 0.145E-01
   -.462E+01 -.276E+01 0.971E+03   0.470E+01 0.282E+01 -.970E+03   -.953E-01 -.541E-01 -.240E+00   0.551E-01 0.206E-01 0.511E-02
   0.180E-01 -.320E+01 0.964E+03   -.130E-01 0.305E+01 -.964E+03   0.629E-03 0.584E-01 -.722E+00   -.545E-02 0.908E-01 0.486E-01
   0.286E-02 -.195E+01 0.969E+03   0.834E-03 0.163E+01 -.968E+03   -.125E-02 0.366E+00 -.726E+00   -.252E-02 -.397E-01 0.134E+00
   -.267E+01 0.164E+01 0.964E+03   0.254E+01 -.161E+01 -.964E+03   0.325E-01 -.157E-01 -.725E+00   0.943E-01 -.206E-01 0.541E-01
   0.267E+01 0.162E+01 0.964E+03   -.254E+01 -.159E+01 -.964E+03   -.323E-01 -.162E-01 -.726E+00   -.929E-01 -.136E-01 0.596E-01
   0.952E-01 -.208E+01 -.835E+03   -.955E-01 0.216E+01 0.835E+03   -.115E-02 0.188E-01 0.674E+00   0.130E-02 -.103E+00 0.464E-01
   0.205E+02 0.112E+02 -.805E+03   -.192E+02 -.103E+02 0.806E+03   -.110E+01 -.667E+00 -.910E+00   -.243E+00 -.197E+00 -.320E+00
   -.206E+02 0.112E+02 -.805E+03   0.193E+02 -.103E+02 0.806E+03   0.110E+01 -.665E+00 -.905E+00   0.224E+00 -.202E+00 -.319E+00
   0.933E+01 -.574E+01 -.840E+03   -.925E+01 0.561E+01 0.840E+03   0.107E+00 -.304E-01 0.428E+00   -.164E+00 0.141E+00 -.119E+00
   -.594E-01 -.239E+02 -.807E+03   0.753E-01 0.223E+02 0.808E+03   -.521E-03 0.128E+01 -.755E+00   -.156E-01 0.313E+00 -.306E+00
   -.927E+01 -.565E+01 -.840E+03   0.917E+01 0.553E+01 0.840E+03   -.109E+00 -.308E-01 0.423E+00   0.187E+00 0.140E+00 -.118E+00
   0.124E+01 0.163E+01 -.836E+03   -.130E+01 -.162E+01 0.835E+03   0.946E-02 -.418E-01 0.772E+00   0.606E-01 0.375E-01 0.517E-01
   -.121E+01 0.172E+01 -.836E+03   0.127E+01 -.171E+01 0.835E+03   -.144E-01 -.427E-01 0.767E+00   -.479E-01 0.423E-01 0.546E-01
   -.417E-01 0.118E+02 -.839E+03   0.331E-01 -.117E+02 0.839E+03   -.401E-03 0.116E+00 0.398E+00   0.897E-02 -.177E+00 -.119E+00
   0.265E+00 0.242E+01 -.263E+04   -.266E+00 -.246E+01 0.263E+04   0.199E-02 0.527E-01 0.140E+01   -.260E-03 -.109E-01 -.246E+00
   0.363E+02 0.546E+02 -.262E+04   -.352E+02 -.532E+02 0.262E+04   -.886E+00 -.124E+01 0.451E+00   -.194E+00 -.233E+00 -.140E+00
   -.365E+02 0.538E+02 -.262E+04   0.354E+02 -.523E+02 0.262E+04   0.886E+00 -.124E+01 0.470E+00   0.193E+00 -.229E+00 -.140E+00
   0.612E+02 0.171E+00 -.262E+04   -.594E+02 0.945E-01 0.262E+04   -.158E+01 -.178E+00 0.398E+00   -.300E+00 -.876E-01 -.142E+00
   -.601E+02 0.336E+00 -.263E+04   0.583E+02 -.674E-01 0.263E+04   0.159E+01 -.181E+00 0.395E+00   0.298E+00 -.872E-01 -.141E+00
   0.233E+02 -.512E+02 -.263E+04   -.227E+02 0.496E+02 0.263E+04   -.549E+00 0.134E+01 0.835E+00   -.904E-01 0.321E+00 -.140E+00
   -.234E+02 -.506E+02 -.263E+04   0.228E+02 0.489E+02 0.263E+04   0.553E+00 0.135E+01 0.816E+00   0.934E-01 0.322E+00 -.138E+00
   0.158E+00 0.190E+01 -.265E+04   -.148E+00 -.192E+01 0.265E+04   0.111E-04 -.163E-01 0.165E+01   -.107E-01 0.306E-01 -.227E+00
   -.167E+01 -.145E+02 -.267E+04   0.165E+01 0.144E+02 0.267E+04   0.207E-02 0.125E+00 0.129E+01   0.102E-01 -.224E-01 0.175E-01
   0.709E+02 0.437E+02 -.297E+03   -.776E+02 -.479E+02 0.299E+03   0.670E+01 0.417E+01 -.227E+01   -.595E-02 -.607E-02 0.120E-01
   -.718E+02 0.410E+02 -.298E+03   0.786E+02 -.449E+02 0.301E+03   -.679E+01 0.391E+01 -.247E+01   0.578E-02 -.582E-02 0.121E-01
   0.869E+00 -.505E+02 -.169E+04   -.148E+01 0.897E+02 0.168E+04   0.611E+00 -.392E+02 0.119E+02   -.109E-02 -.171E-01 0.133E+00
   -.558E+00 0.312E+02 0.392E+01   0.708E-13 0.256E-12 0.387E-11   0.515E+00 -.312E+02 -.397E+01   0.283E-01 -.186E-01 -.882E-01

 POSITION                                       TOTAL-FORCE (eV/Angst)
      0.00000      0.00000      5.28219         0.000472      0.003042     -0.023449
      2.93046      0.00000      5.28219         0.004335     -0.002030      0.027010
      5.86091      0.00000      5.28219        -0.003723     -0.001879      0.027005
      1.46523      2.53785      5.28219        -0.002928     -0.001682      0.032682
      4.39568      2.53785      5.28219         0.000746     -0.004423      0.037801
      7.32614      2.53785      5.28219         0.003580     -0.001520      0.032751
      2.93046      5.07570      5.28219        -0.002722      0.000340      0.034530
      5.86091      5.07570      5.28219         0.003575      0.000308      0.034584
      8.79137      5.07570      5.28219         0.000075      0.000855      0.000470
      1.46523      0.84595      7.67490        -0.004627     -0.002710     -0.070455
      4.39568      0.84595      7.67490         0.000760     -0.054267     -0.059589
      7.32614      0.84595      7.67490         0.005374     -0.002712     -0.070896
      2.93046      3.38380      7.67490        -0.041776      0.027368     -0.058528
      5.86091      3.38380      7.67490         0.042895      0.027147     -0.058607
      8.79137      3.38380      7.67490         0.000556      0.001421      0.019006
      4.39568      5.92165      7.67490         0.000305      0.003504     -0.073335
      7.32614      5.92165      7.67490        -0.001257     -0.001652      0.025020
     10.25659      5.92165      7.67490         0.002112     -0.001912      0.025405
      8.79137      1.69022     10.04930         0.000167     -0.005284     -0.006745
      2.93117      1.69231     10.04246        -0.031676     -0.014729     -0.059901
      5.86019      1.69231     10.04246         0.033107     -0.014964     -0.060242
     10.25641      4.22985     10.06824         0.022161     -0.018294      0.004378
      4.39568      4.22892     10.04246         0.000118      0.044406     -0.049829
      7.32632      4.22985     10.06824        -0.021142     -0.018070      0.003841
     11.72328      6.76844     10.04930         0.008210      0.007838     -0.005025
      5.85946      6.76844     10.04930        -0.006784      0.007391     -0.005304
      8.79137      6.76739     10.06824         0.000342      0.025840     -0.002214
      0.00000      0.00000     12.44689         0.000531      0.001532      0.043138
      2.93311      0.00118     12.48352        -0.033024     -0.050284     -0.052242
      5.85826      0.00118     12.48352         0.032871     -0.048808     -0.051534
      1.46758      2.53956     12.48352        -0.033981     -0.001133     -0.037285
      7.32379      2.53956     12.48352         0.029476      0.000163     -0.032525
      2.93015      5.07281     12.48352        -0.051687      0.046157     -0.073000
      5.86121      5.07281     12.48352         0.051778      0.042263     -0.069874
      8.79137      5.07570     12.47551         0.000134     -0.002421      0.035053
      4.39568      2.53785     12.42634        -0.002702      0.022971      0.534983
      3.59300      1.93842     15.00343         0.002872     -0.006499      0.002856
      5.17288      1.96885     15.02602        -0.007691     -0.005704     -0.000600
      4.37745      2.45841     14.72580        -0.000832     -0.001571      0.000666
    total drift:                               -0.014803      0.027361     -0.134827

  FREE ENERGIE OF THE ION-ELECTRON SYSTEM (eV)
  free  energy   TOTEN  =      -111.70020142 eV

  energy  without entropy=     -111.70020142  energy(sigma->0) =     -111.70020142

 stress matrix after NEB project (eV)
     -6.90962      0.00311      0.01670
      0.00311     -6.81785     -0.16617
      0.01670     -0.16617      0.04988
  FORCES: max atom, RMS     0.009594    0.001989
  FORCE total and by dimension    0.012421    0.007691
  Stress total and by dimension    9.710006    6.909617
|           W    W    AA    RRRRR   N    N  II  N    N   GGGG   !!!           |
|           W    W   A  A   R    R  NN   N  II  NN   N  G    G  !!!           |
|           W    W  A    A  R    R  N N  N  II  N N  N  G       !!!           |
|           W WW W  AAAAAA  RRRRR   N  N N  II  N  N N  G  GGG   !            |
|           WW  WW  A    A  R   R   N   NN  II  N   NN  G    G                |
|           W    W  A    A  R    R  N    N  II  N    N   GGGG   !!!           |
|     Tetrahedron method does not include variations of the Fermi             |
|     occupations, so forces and stress will be inaccurate. We suggest        |
|     using a different smearing scheme ISMEAR = 1 or 2 for metals in         |
|     relaxations.                                                            |

 total charge

# of ion       s       p       d       tot
    1        0.423   0.201   9.178   9.801
    2        0.417   0.204   9.177   9.798
    3        0.417   0.204   9.177   9.798
    4        0.416   0.204   9.178   9.797
    5        0.417   0.203   9.177   9.797
    6        0.416   0.204   9.178   9.797
    7        0.416   0.204   9.178   9.797
    8        0.416   0.204   9.178   9.797
    9        0.417   0.203   9.177   9.797
   10        0.412   0.268   9.163   9.843
   11        0.407   0.266   9.168   9.841
   12        0.412   0.268   9.163   9.843
   13        0.405   0.267   9.168   9.841
   14        0.405   0.267   9.168   9.841
   15        0.403   0.268   9.165   9.836
   16        0.411   0.269   9.163   9.843
   17        0.403   0.268   9.165   9.836
   18        0.403   0.268   9.165   9.836
   19        0.406   0.265   9.165   9.836
   20        0.443   0.294   9.133   9.870
   21        0.443   0.294   9.133   9.870
   22        0.395   0.272   9.164   9.830
   23        0.442   0.294   9.134   9.869
   24        0.395   0.272   9.164   9.831
   25        0.406   0.265   9.166   9.836
   26        0.406   0.265   9.166   9.836
   27        0.396   0.272   9.163   9.830
   28        0.410   0.210   9.169   9.789
   29        0.457   0.230   9.141   9.827
   30        0.457   0.230   9.141   9.827
   31        0.457   0.229   9.141   9.827
   32        0.457   0.229   9.141   9.827
   33        0.455   0.224   9.145   9.824
   34        0.455   0.224   9.145   9.824
   35        0.406   0.212   9.171   9.789
   36        2.198   5.968   1.481   9.647
   37        0.596   0.117   0.000   0.713
   38        0.596   0.117   0.000   0.713
   39        1.563   3.633   0.000   5.197
tot         19.652  18.356 322.144 360.152

 BZINTS: Fermi energy:    0.710681;  405.000000 electrons
         Band energy:-0.169332E+04;  BLOECHL correction:   -0.020516