 vasp.6.2.0 18Jan21 (build Jun 12 2021 23:27:24) complex

 executed on             LinuxIFC date 2022.05.30  16:29:03

 INCAR:
   ISMEAR = -5
   SIGMA = 0.1
   ISPIN = 1
   EDIFF = 1.d-5
   EDIFFG = -0.01
   NSW = 0
   NELM = 150
   ENCUT = 500
   ISIF = 2
   IBRION = 2
   LREAL = Auto
   ALGO = Fast
   ICHARG = 11
   LORBIT = 10
   LCHARG = .F.
   LWAVE = .F.

 POTCAR:    PAW_PBE Au 04Oct2007
 POTCAR:    PAW_PBE Ta 17Jan2003
 POTCAR:    PAW_PBE C 08Apr2002
|           W    W    AA    RRRRR   N    N  II  N    N   GGGG   !!!           |
|           W    W   A  A   R    R  NN   N  II  NN   N  G    G  !!!           |
|           W    W  A    A  R    R  N N  N  II  N N  N  G       !!!           |
|           W WW W  AAAAAA  RRRRR   N  N N  II  N  N N  G  GGG   !            |
|           WW  WW  A    A  R   R   N   NN  II  N   NN  G    G                |
|           W    W  A    A  R    R  N    N  II  N    N   GGGG   !!!           |
|     For optimal performance we recommend to set                             |
|       NCORE = 2 up to number-of-cores-per-socket                            |
|     This setting can greatly improve the performance of VASP for DFT.       |
|     The default, NCORE=1 might be grossly inefficient on modern             |
|     multi-core architectures or massively parallel machines. Do your        |
|     Unfortunately you need to use the default for GW and RPA                |
|     calculations (for HF NCORE is supported but not extensively tested      |
|     yet).                                                                   |

 POTCAR:    PAW_PBE Au 04Oct2007
   VRHFIN =Au: s1d10

   TITEL  = PAW_PBE Au 04Oct2007
   POMASS =  196.966; ZVAL   =   11.000    mass and valenz
   ENMAX  =  229.943; ENMIN  =  172.457 eV

 POTCAR:    PAW_PBE Ta 17Jan2003
   VRHFIN =Ta:  6s5d

   TITEL  = PAW_PBE Ta 17Jan2003
   POMASS =  180.948; ZVAL   =    5.000    mass and valenz
   ENMAX  =  223.667; ENMIN  =  167.750 eV

 POTCAR:    PAW_PBE C 08Apr2002
   VRHFIN =C: s2p2

   TITEL  = PAW_PBE C 08Apr2002
   POMASS =   12.011; ZVAL   =    4.000    mass and valenz
   ENMAX  =  400.000; ENMIN  =  300.000 eV

 Optimization of the real space projectors (new method)

 maximal supplied QI-value         = 15.12
 optimisation between [QCUT,QGAM] = [ 11.34, 22.83] = [ 36.00,145.93] Ry
 Optimized for a Real-space Cutoff    1.39 Angstroem

   l    n(q)    QCUT    max X(q) W(low)/X(q) W(high)/X(q)  e(spline)
   2      9    11.338    60.898    0.39E-03    0.42E-03    0.21E-06
   2      9    11.338    58.894    0.40E-03    0.42E-03    0.22E-06
   0      9    11.338   109.617    0.13E-03    0.20E-04    0.13E-06
   0      9    11.338    75.026    0.13E-03    0.20E-04    0.13E-06
   1      9    11.338    16.344    0.33E-04    0.24E-03    0.18E-06
   1      9    11.338    10.160    0.26E-04    0.19E-03    0.15E-06
 Optimization of the real space projectors (new method)

[...]

   l    n(q)    QCUT    max X(q) W(low)/X(q) W(high)/X(q)  e(spline)
   2     10    11.437    62.315    0.14E-03    0.26E-03    0.80E-06
   2     10    11.437    52.185    0.14E-03    0.26E-03    0.80E-06
   0     11    11.437   103.837    0.25E-04    0.17E-04    0.84E-07
   0     11    11.437    59.728    0.20E-04    0.15E-04    0.73E-07
   1     11    11.437    13.958    0.47E-03    0.12E-03    0.89E-06
   1     11    11.437     8.441    0.33E-03    0.88E-04    0.61E-06
 Optimization of the real space projectors (new method)

 maximal supplied QI-value         = 25.13
 optimisation between [QCUT,QGAM] = [ 11.31, 22.87] = [ 35.82,146.48] Ry
 Optimized for a Real-space Cutoff    1.00 Angstroem

   l    n(q)    QCUT    max X(q) W(low)/X(q) W(high)/X(q)  e(spline)
   0      7    11.310   115.676    0.43E-03    0.13E-02    0.19E-06
   0      7    11.310    87.132    0.43E-03    0.13E-02    0.18E-06
   1      6    11.310     4.429    0.42E-03    0.74E-03    0.11E-06
   1      6    11.310     2.733    0.34E-03    0.55E-03    0.92E-07
  PAW_PBE Au 04Oct2007                  :
  PAW_PBE Ta 17Jan2003                  :
  PAW_PBE C 08Apr2002                   :

 POSCAR: Au-Ta-C
  positions in direct lattice
  velocities in cartesian coordinates
 exchange correlation table for  LEXCH =        8
   RHO(1)=    0.500       N(1)  =     2000
   RHO(2)=  100.500       N(2)  =     4000

 VTST: version 3.2, (02/03/18)

 CHAIN: initializing optimizer

 OPT: Using VASP Conjugate-Gradient optimizer
 CHAIN: Read ICHAIN            0

 POSCAR: Au-Ta-C
  positions in direct lattice
  velocities in cartesian coordinates

 ion  position               nearest neighbor table
   1  0.000  0.000  0.217-  16 2.94  12 2.94   6 2.94   8 2.94   7 2.94   3 2.94  10 2.94   4 2.94
                             2 2.94
   2  0.333  0.000  0.217-   9 2.94  11 2.94  17 2.94  10 2.94   8 2.94   4 2.94   5 2.94   1 2.94
                             3 2.94
   3  0.667  0.000  0.217-   7 2.94  18 2.94  12 2.94   1 2.94  11 2.94   5 2.94   6 2.94   9 2.94
                             2 2.94
   4  0.000  0.333  0.217-  10 2.94   6 2.94   5 2.94  13 2.94   2 2.94  15 2.94   9 2.94   1 2.94
                             7 2.94
   5  0.333  0.333  0.217-  13 2.94   7 2.94  11 2.94   4 2.94   2 2.94  14 2.94   3 2.94   8 2.94
                             6 2.94
   6  0.667  0.333  0.217-  15 2.94  14 2.94   1 2.94  12 2.94   4 2.94   9 2.94   8 2.94   3 2.94
                             5 2.94
   7  0.000  0.667  0.217-  18 2.94   3 2.94  16 2.94   5 2.94   1 2.94  13 2.94   8 2.94   4 2.94
                             9 2.94
   8  0.333  0.667  0.217-   9 2.94  17 2.94   1 2.94   2 2.94  14 2.94  16 2.94   6 2.94   7 2.94
                             5 2.94
   9  0.667  0.667  0.217-   2 2.94   8 2.94  17 2.94   6 2.94  15 2.94   4 2.94   3 2.94  18 2.94
                             7 2.94
  10  0.111  0.111  0.316-  20 2.91  11 2.94  17 2.94   2 2.94   4 2.94   1 2.94  12 2.94  16 2.94
                            13 2.94  15 2.94  26 2.96  19 2.96
  11  0.444  0.111  0.316-  20 2.91  21 2.91  13 2.94   2 2.94  10 2.94  17 2.94   5 2.94   3 2.94
                            18 2.94  14 2.94  12 2.94  27 2.94
  12  0.778  0.111  0.316-  21 2.91  16 2.94  18 2.94   1 2.94  14 2.94  15 2.94   3 2.94   6 2.94
                            10 2.94  11 2.94  25 2.96  19 2.96
  13  0.111  0.444  0.316-  23 2.91  20 2.91   5 2.94  18 2.94  11 2.94   7 2.94   4 2.94  16 2.94
                            10 2.94  14 2.94  15 2.94  22 2.94
  14  0.444  0.444  0.316-  21 2.91  23 2.91  15 2.94   6 2.94  12 2.94   8 2.94  17 2.94   5 2.94
                            16 2.94  13 2.94  11 2.94  24 2.94
  15  0.778  0.444  0.316-  24 2.92  22 2.92  14 2.94   6 2.94  17 2.94  12 2.94   9 2.94   4 2.94
                            10 2.94  13 2.94  18 2.94  19 2.95
  16  0.111  0.778  0.316-  23 2.91  18 2.94  12 2.94   7 2.94   1 2.94   8 2.94  13 2.94  10 2.94
                            14 2.94  17 2.94  25 2.96  26 2.96
  17  0.444  0.778  0.316-  27 2.92  24 2.92   9 2.94  15 2.94   2 2.94  10 2.94  11 2.94   8 2.94
                            14 2.94  16 2.94  18 2.94  26 2.95
  18  0.778  0.778  0.316-  22 2.92  27 2.92  16 2.94   7 2.94  13 2.94  12 2.94   3 2.94  11 2.94
                             9 2.94  15 2.94  17 2.94  25 2.95
  19  0.888  0.223  0.415-  24 2.93  22 2.93  21 2.93  20 2.93  28 2.95  15 2.95  26 2.95  25 2.95
                            10 2.96  12 2.96  32 3.06  31 3.06
  20  0.222  0.222  0.413-  36 2.74  10 2.91  11 2.91  13 2.91  26 2.93  19 2.93  23 2.95  21 2.95
                            27 2.95  22 2.95  29 2.99  31 2.99
  21  0.556  0.222  0.413-  36 2.74  12 2.91  14 2.91  11 2.91  25 2.93  19 2.93  20 2.95  23 2.95
                            27 2.95  24 2.95  30 2.99  32 2.99
  22  0.886  0.557  0.414-  24 2.91  27 2.91  18 2.92  15 2.92  25 2.93  19 2.93  13 2.94  23 2.95
                            20 2.95  35 2.96  33 3.03  31 3.03
  23  0.222  0.556  0.413-  36 2.74  16 2.91  13 2.91  14 2.91  25 2.93  26 2.93  20 2.95  21 2.95
                            22 2.95  24 2.95  33 2.99  34 2.99
  24  0.557  0.557  0.414-  27 2.91  22 2.91  15 2.92  17 2.92  26 2.93  19 2.93  14 2.94  21 2.95
                            23 2.95  35 2.96  32 3.03  34 3.03
  25  0.888  0.888  0.415-  22 2.93  27 2.93  23 2.93  21 2.93  28 2.95  18 2.95  19 2.95  26 2.95
                            16 2.96  12 2.96  33 3.06  30 3.06
  26  0.223  0.888  0.415-  27 2.93  24 2.93  20 2.93  23 2.93  28 2.95  17 2.95  19 2.95  25 2.95
                            10 2.96  16 2.96  29 3.06  34 3.06
  27  0.557  0.886  0.414-  24 2.91  22 2.91  17 2.92  18 2.92  26 2.93  25 2.93  11 2.94  20 2.95
                            21 2.95  35 2.96  29 3.03  30 3.03
  28  0.000  0.000  0.514-  25 2.95  19 2.95  26 2.95  34 3.00  32 3.00  33 3.00  30 3.00  31 3.00
                            29 3.00
  29  0.334  0.012  0.517-  30 2.82  31 2.84  36 2.85  35 2.99  20 2.99  28 3.00  27 3.03  26 3.06
                            34 3.16
  30  0.654  0.012  0.517-  29 2.82  32 2.84  36 2.85  35 2.99  21 2.99  28 3.00  27 3.03  25 3.06
                            33 3.16
  31  0.012  0.334  0.517-  33 2.82  29 2.84  36 2.85  35 2.99  20 2.99  28 3.00  22 3.03  19 3.06
                            32 3.16
  32  0.654  0.334  0.517-  34 2.82  30 2.84  36 2.85  35 2.99  21 2.99  28 3.00  24 3.03  19 3.06
                            31 3.16
  33  0.012  0.654  0.517-  31 2.82  34 2.84  36 2.85  35 2.99  23 2.99  28 3.00  22 3.03  25 3.06
                            30 3.16
  34  0.334  0.654  0.517-  32 2.82  33 2.84  36 2.85  35 2.99  23 2.99  28 3.00  24 3.03  26 3.06
                            29 3.16
  35  0.667  0.667  0.514-  24 2.96  27 2.96  22 2.96  29 2.99  34 2.99  32 2.99  31 2.99  30 2.99
                            33 2.99
  36  0.333  0.333  0.502-  37 1.90  20 2.74  23 2.74  21 2.74  33 2.85  31 2.85  29 2.85  30 2.85
                            34 2.85  32 2.85
  37  0.333  0.333  0.580-  36 1.90

  LATTYP: Found a hexagonal cell.
 ALAT       =     8.8135128021
 C/A-ratio  =     2.7586513333

  Lattice vectors:

 A1 = (  -4.4067569092,  -7.6327256898,   0.0000000000)
 A2 = (   8.8135128021,   0.0000000000,   0.0000000000)
 A3 = (   0.0000000000,   0.0000000000,  24.3134088421)

Analysis of symmetry for initial positions (statically):
 Subroutine PRICEL returns:
 Original cell was already a primitive cell.

 Routine SETGRP: Setting up the symmetry group for a
 hexagonal supercell.

 Subroutine GETGRP returns: Found  6 space group operations
 (whereof  6 operations were pure point group operations)
 out of a pool of 24 trial point group operations.

The static configuration has the point symmetry C_3v.

Analysis of symmetry for dynamics (positions and initial velocities):
 Subroutine PRICEL returns:
 Original cell was already a primitive cell.

[...]

The dynamic configuration has the point symmetry C_3v.

Analysis of constrained symmetry for selective dynamics:
 Subroutine PRICEL returns:
 Original cell was already a primitive cell.

 Routine SETGRP: Setting up the symmetry group for a
 hexagonal supercell.

 Subroutine GETGRP returns: Found  6 space group operations
[...]
     24      -5.6659      2.00000
     25      -5.6323      2.00000
     26      -5.6140      2.00000
     27      -5.5869      2.00000
     28      -5.5355      2.00000
     29      -5.5132      2.00000
     30      -5.4436      2.00000
     31      -5.4273      2.00000
     32      -5.4045      2.00000
     33      -5.3316      2.00000
     34      -5.3274      2.00000
     35      -5.3085      2.00000
     36      -5.2622      2.00000
     37      -5.2576      2.00000
     38      -5.1404      2.00000
     39      -5.1066      2.00000
     40      -5.0533      2.00000
     41      -5.0106      2.00000
     42      -4.9786      2.00000
     43      -4.9499      2.00000
     44      -4.9259      2.00000
     45      -4.9002      2.00000
     46      -4.8724      2.00000
     47      -4.7877      2.00000
     48      -4.7707      2.00000
     49      -4.7487      2.00000
     50      -4.7149      2.00000
     51      -4.7095      2.00000
     52      -4.6954      2.00000
     53      -4.6796      2.00000
     54      -4.6687      2.00000
     55      -4.6342      2.00000
     56      -4.6028      2.00000
     57      -4.5845      2.00000
     58      -4.5633      2.00000
     59      -4.5568      2.00000
     60      -4.5339      2.00000
[...]
    238       5.9675      0.00000
    239       6.0599      0.00000
    240       6.0888      0.00000
    241       6.1724      0.00000
    242       6.2382      0.00000
    243       6.3556      0.00000
    244       6.4293      0.00000
    245       6.5490      0.00000
    246       6.6727      0.00000
    247       6.7481      0.00000
    248       6.8118      0.00000
    249       6.8928      0.00000
    250       6.9215      0.00000
    251       7.0545      0.00000
    252       7.1082      0.00000

 soft charge-density along one line, spin component           1
         0         1         2         3         4         5         6         7         8         9
 total charge-density along one line

------------------------ aborting loop because EDIFF is reached ----------------------------------------

 total charge

# of ion       s       p       d       tot
    1        0.545   0.239   8.765   9.549
    2        0.542   0.241   8.764   9.547
    3        0.542   0.241   8.764   9.547
    4        0.542   0.241   8.764   9.547
    5        0.547   0.239   8.762   9.547
    6        0.542   0.241   8.764   9.547
    7        0.542   0.241   8.764   9.547
    8        0.542   0.241   8.764   9.547
    9        0.541   0.240   8.767   9.549
   10        0.521   0.307   8.770   9.597
   11        0.522   0.307   8.775   9.605
   12        0.521   0.307   8.770   9.597
   13        0.522   0.307   8.775   9.605
   14        0.522   0.307   8.775   9.605
   15        0.516   0.308   8.773   9.597
   16        0.521   0.307   8.770   9.597
   17        0.516   0.308   8.773   9.597
   18        0.516   0.308   8.773   9.597
   19        0.515   0.294   8.771   9.580
   20        0.562   0.338   8.747   9.647
   21        0.562   0.338   8.747   9.647
   22        0.506   0.305   8.778   9.589
   23        0.562   0.338   8.747   9.647
   24        0.506   0.305   8.778   9.589
   25        0.515   0.294   8.771   9.580
   26        0.515   0.294   8.771   9.580
   27        0.506   0.305   8.778   9.589
   28        0.543   0.222   8.762   9.526
   29        0.570   0.246   8.745   9.562
   30        0.570   0.246   8.745   9.562
   31        0.570   0.246   8.745   9.562
   32        0.570   0.246   8.745   9.562
   33        0.570   0.246   8.745   9.562
   34        0.570   0.246   8.745   9.562
   35        0.546   0.224   8.757   9.526
   36        0.691   0.724   3.495   4.910
   37        1.001   1.181   0.000   2.183
tot         20.512  11.568 310.204 342.283

  FORCE on cell =-STRESS in cart. coord.  units (eV):
  Direction    XX          YY          ZZ          XY          YZ          ZX
  Alpha Z   924.44998   924.44998   924.44998
  Ewald  147060.95804147060.95843************    -0.00032    -0.00009    -0.00015
  Hartree155272.83341155272.83341************     0.00000    -0.00002    -0.00004
  E(xc)   -1762.61072 -1762.61071 -1773.11574    -0.00001     0.00000    -0.00000
  Local  ************************314745.72028     0.00175     0.00004     0.00007
  n-local   -72.05191   -28.76458   -32.77537    21.59054    -1.54777     1.67853
  augment  2365.95812  2365.95957  2386.06688    -0.00125     0.00003     0.00007
  Kinetic  5445.23639  5453.77506  5520.09322     5.42992     0.20283     0.32960
  Fock        0.00000     0.00000     0.00000     0.00000     0.00000     0.00000
  Total     -20.67419   -20.67419     1.99044    -0.00000     0.00000     0.00000
  in kB     -20.25184   -20.25184     1.94978    -0.00000     0.00000     0.00000

 VOLUME and BASIS-vectors are now :
  energy-cutoff  :      500.00
  volume of cell :     1635.59
      direct lattice vectors                 reciprocal lattice vectors
     8.813512802  0.000000000  0.000000000     0.113462137 -0.065507406  0.000000000
     4.406756909  7.632725690  0.000000000     0.000000000  0.131014796  0.000000000
     0.000000000  0.000000000 24.313408842     0.000000000  0.000000000  0.041129568

  length of vectors
     8.813512802  8.813512802 24.313408842     0.131014796  0.131014796  0.041129568

 FORCES acting on ions
    electron-ion (+dipol)            ewald-force                    non-local-force                 convergence-correction
   -.197E-04 -.162E-04 0.262E+04   0.519E-04 0.433E-04 -.262E+04   0.931E-18 -.599E-18 -.703E+00   -.188E-03 -.121E-03 -.306E+00
   0.443E+00 -.303E+00 0.262E+04   -.523E+00 0.360E-01 -.262E+04   0.209E-01 0.111E+00 -.337E+00   0.554E-01 0.133E+00 -.311E+00
   -.443E+00 -.303E+00 0.262E+04   0.523E+00 0.360E-01 -.262E+04   -.209E-01 0.111E+00 -.337E+00   -.552E-01 0.135E+00 -.310E+00
   -.406E-01 0.535E+00 0.262E+04   -.230E+00 -.471E+00 -.262E+04   0.107E+00 -.374E-01 -.337E+00   0.143E+00 -.184E-01 -.311E+00
   0.797E-05 -.237E-04 0.262E+04   0.951E-04 0.174E-05 -.262E+04   -.513E-18 0.455E-18 -.131E+00   0.419E-02 0.258E-02 -.262E+00
   0.405E-01 0.535E+00 0.262E+04   0.230E+00 -.471E+00 -.262E+04   -.107E+00 -.374E-01 -.337E+00   -.144E+00 -.174E-01 -.310E+00
   -.483E+00 -.232E+00 0.262E+04   0.293E+00 0.435E+00 -.262E+04   0.857E-01 -.736E-01 -.337E+00   0.890E-01 -.115E+00 -.310E+00
   0.483E+00 -.232E+00 0.262E+04   -.293E+00 0.435E+00 -.262E+04   -.857E-01 -.736E-01 -.337E+00   -.872E-01 -.116E+00 -.310E+00
   0.196E-04 -.416E-04 0.262E+04   0.166E-03 -.200E-04 -.262E+04   0.128E-16 0.301E-17 -.502E+00   -.454E-02 -.238E-02 -.286E+00
   0.480E+01 0.277E+01 0.853E+03   -.467E+01 -.270E+01 -.852E+03   -.280E+00 -.162E+00 -.515E+00   0.104E+00 0.600E-01 -.380E+00
   0.142E-04 0.741E+00 0.856E+03   0.148E-03 -.824E+00 -.855E+03   -.756E-09 -.114E-01 -.405E+00   0.374E-02 0.610E-01 -.410E+00
   -.480E+01 0.277E+01 0.853E+03   0.467E+01 -.270E+01 -.852E+03   0.280E+00 -.162E+00 -.515E+00   -.105E+00 0.605E-01 -.381E+00
   0.642E+00 -.371E+00 0.856E+03   -.714E+00 0.412E+00 -.855E+03   -.984E-02 0.568E-02 -.405E+00   0.547E-01 -.269E-01 -.410E+00
   -.642E+00 -.371E+00 0.856E+03   0.714E+00 0.412E+00 -.855E+03   0.984E-02 0.568E-02 -.405E+00   -.478E-01 -.277E-01 -.412E+00
   0.319E-04 0.530E+01 0.858E+03   0.235E-03 -.529E+01 -.856E+03   0.658E-10 0.989E-03 -.527E+00   -.166E-02 -.592E-01 -.437E+00
   -.210E-04 -.554E+01 0.853E+03   0.162E-03 0.540E+01 -.852E+03   0.215E-07 0.323E+00 -.515E+00   -.239E-03 -.121E+00 -.381E+00
   0.459E+01 -.265E+01 0.858E+03   -.458E+01 0.265E+01 -.856E+03   0.856E-03 -.494E-03 -.527E+00   -.518E-01 0.283E-01 -.438E+00
   -.459E+01 -.265E+01 0.858E+03   0.458E+01 0.265E+01 -.856E+03   -.856E-03 -.494E-03 -.527E+00   0.523E-01 0.297E-01 -.437E+00
   -.431E-04 -.155E+01 -.939E+03   0.557E-04 0.154E+01 0.939E+03   0.372E-08 0.558E-01 0.767E+00   0.509E-02 -.224E-01 -.283E+00
   -.111E+02 -.638E+01 -.917E+03   0.114E+02 0.660E+01 0.918E+03   -.785E+00 -.453E+00 -.114E+01   0.318E-01 0.190E-01 -.337E+00
   0.111E+02 -.638E+01 -.917E+03   -.114E+02 0.660E+01 0.918E+03   0.785E+00 -.453E+00 -.114E+01   -.392E-01 0.188E-01 -.337E+00
   -.150E+02 0.863E+01 -.919E+03   0.144E+02 -.833E+01 0.919E+03   0.452E+00 -.261E+00 0.749E+00   0.111E+00 -.652E-01 -.312E+00
   -.992E-05 0.128E+02 -.917E+03   0.138E-03 -.132E+02 0.918E+03   0.604E-07 0.907E+00 -.114E+01   -.379E-02 -.428E-01 -.337E+00
   0.150E+02 0.863E+01 -.919E+03   -.144E+02 -.833E+01 0.919E+03   -.452E+00 -.261E+00 0.749E+00   -.110E+00 -.640E-01 -.313E+00
   0.134E+01 0.776E+00 -.939E+03   -.133E+01 -.768E+00 0.939E+03   -.484E-01 -.279E-01 0.767E+00   0.245E-01 0.133E-01 -.284E+00
   -.134E+01 0.776E+00 -.939E+03   0.133E+01 -.768E+00 0.939E+03   0.484E-01 -.279E-01 0.767E+00   -.239E-01 0.153E-01 -.283E+00
   0.997E-05 -.173E+02 -.919E+03   0.198E-03 0.167E+02 0.919E+03   0.347E-07 0.522E+00 0.749E+00   -.279E-03 0.129E+00 -.312E+00
   -.122E-04 -.116E-04 -.259E+04   0.285E-04 0.316E-04 0.259E+04   -.246E-17 0.721E-18 0.459E+00   0.154E-02 0.666E-03 -.425E-01
   0.134E+02 0.132E+02 -.260E+04   -.125E+02 -.118E+02 0.260E+04   -.111E+01 -.165E+01 0.562E+00   0.331E-01 0.784E-01 -.213E-01
   -.134E+02 0.132E+02 -.260E+04   0.125E+02 -.118E+02 0.260E+04   0.111E+01 -.165E+01 0.562E+00   -.395E-01 0.794E-01 -.209E-01
   0.181E+02 0.502E+01 -.260E+04   -.165E+02 -.490E+01 0.260E+04   -.198E+01 -.132E+00 0.562E+00   0.843E-01 -.104E-01 -.219E-01
   -.181E+02 0.502E+01 -.260E+04   0.165E+02 -.490E+01 0.260E+04   0.198E+01 -.132E+00 0.562E+00   -.909E-01 -.937E-02 -.205E-01
   0.472E+01 -.182E+02 -.260E+04   -.400E+01 0.167E+02 0.260E+04   -.877E+00 0.178E+01 0.562E+00   0.491E-01 -.740E-01 -.212E-01
   -.472E+01 -.182E+02 -.260E+04   0.400E+01 0.167E+02 0.260E+04   0.877E+00 0.178E+01 0.562E+00   -.539E-01 -.741E-01 -.205E-01
   0.343E-04 -.316E-04 -.259E+04   0.141E-03 -.475E-04 0.259E+04   0.184E-16 -.122E-16 0.417E+00   -.300E-02 -.172E-02 0.599E-01
   -.151E-04 0.259E-06 -.104E+04   0.528E-04 0.493E-05 0.105E+04   -.124E-17 0.213E-17 -.135E+01   0.543E-03 0.393E-03 -.433E-01
   0.443E-04 -.272E-04 -.111E+04   0.154E-04 0.101E-05 0.112E+04   0.141E-17 -.148E-17 -.531E+01   0.737E-03 0.461E-03 -.103E+00
   -.766E-03 -.800E-03 0.185E+02   0.143E-13 0.287E-12 -.205E-11   0.185E-16 0.210E-15 -.897E+01   -.142E-01 -.487E-02 -.946E+01

 POSITION                                       TOTAL-FORCE (eV/Angst)
      0.00000      0.00000      5.28038         0.000000      0.000000     -0.070977
      2.93784      0.00000      5.28038        -0.003293     -0.021845     -0.033210
      5.87568      0.00000      5.28038         0.003293     -0.021845     -0.033210
      1.46892      2.54424      5.28038        -0.020565      0.008070     -0.033210
      4.40676      2.54424      5.28038         0.000000      0.000000     -0.075290
      7.34459      2.54424      5.28038         0.020565      0.008070     -0.033210
      2.93784      5.08848      5.28038        -0.017271      0.013774     -0.033210
      5.87568      5.08848      5.28038         0.017271      0.013774     -0.033210
      8.81351      5.08848      5.28038         0.000000      0.000000     -0.033774
      1.46892      0.84808      7.67911        -0.053269     -0.030755      0.090093
      4.40676      0.84808      7.67911        -0.000000     -0.035398     -0.034655
      7.34459      0.84808      7.67911         0.053269     -0.030755      0.090093
      2.93784      3.39232      7.67911        -0.030655      0.017699     -0.034655
      5.87568      3.39232      7.67911         0.030655      0.017699     -0.034655
      8.81351      3.39232      7.67911        -0.000000     -0.046133      0.090425
      4.40676      5.93656      7.67911         0.000000      0.061509      0.090093
      7.34459      5.93656      7.67911        -0.039953      0.023067      0.090425
     10.28243      5.93656      7.67911         0.039953      0.023067      0.090425
      8.81351      1.70341     10.09804         0.000000      0.013774      0.115084
      2.93277      1.69323     10.04724        -0.365168     -0.210830     -0.337033
      5.88075      1.69323     10.04724         0.365168     -0.210830     -0.337033
     10.26617      4.24979     10.06844         0.044908     -0.025927      0.107777
      4.40676      4.24626     10.04724         0.000000      0.421660     -0.337033
      7.36086      4.24979     10.06844        -0.044908     -0.025927      0.107777
     11.74508      6.78102     10.09804        -0.011929     -0.006887      0.115084
      5.88195      6.78102     10.09804         0.011929     -0.006887      0.115084
      8.81351      6.76586     10.06844         0.000000      0.051855      0.107777
      0.00000      0.00000     12.50054         0.000000      0.000000     -0.072829
      2.99863      0.09131     12.57640        -0.137883     -0.202359     -0.116875
      5.81488      0.09131     12.57640         0.137883     -0.202359     -0.116875
      1.57839      2.55123     12.57640        -0.244189     -0.018231     -0.116875
      7.23512      2.55123     12.57640         0.244189     -0.018231     -0.116875
      2.98652      4.99018     12.57640        -0.106306      0.220589     -0.116875
      5.82700      4.99018     12.57640         0.106306      0.220589     -0.116875
      8.81351      5.08848     12.50707         0.000000      0.000000     -0.067005
      4.40676      2.54424     12.20058         0.000000      0.000000      1.145043
      4.40676      2.54424     14.09643         0.000000      0.000000     -0.019738
    total drift:                               -0.015014     -0.005668      0.112339

  FREE ENERGIE OF THE ION-ELECTRON SYSTEM (eV)
  free  energy   TOTEN  =      -123.51312733 eV

  energy  without entropy=     -123.51312733  energy(sigma->0) =     -123.51312733

 stress matrix after NEB project (eV)
    -20.67419     -0.00000      0.00000
     -0.00000    -20.67419      0.00000
      0.00000      0.00000      1.99044
  FORCES: max atom, RMS     0.019738    0.003245
  FORCE total and by dimension    0.019738    0.019738
  Stress total and by dimension   29.305393   20.674190
|           W    W    AA    RRRRR   N    N  II  N    N   GGGG   !!!           |
|           W    W   A  A   R    R  NN   N  II  NN   N  G    G  !!!           |
|           W    W  A    A  R    R  N N  N  II  N N  N  G       !!!           |
|           W WW W  AAAAAA  RRRRR   N  N N  II  N  N N  G  GGG   !            |
|           WW  WW  A    A  R   R   N   NN  II  N   NN  G    G                |
|           W    W  A    A  R    R  N    N  II  N    N   GGGG   !!!           |
|     Tetrahedron method does not include variations of the Fermi             |
|     occupations, so forces and stress will be inaccurate. We suggest        |
|     using a different smearing scheme ISMEAR = 1 or 2 for metals in         |
|     relaxations.                                                            |

 total charge

# of ion       s       p       d       tot
    1        0.545   0.239   8.765   9.549
    2        0.542   0.241   8.764   9.547
    3        0.542   0.241   8.764   9.547
    4        0.542   0.241   8.764   9.547
    5        0.547   0.239   8.762   9.547
    6        0.542   0.241   8.764   9.547
    7        0.542   0.241   8.764   9.547
    8        0.542   0.241   8.764   9.547
    9        0.541   0.240   8.767   9.549
   10        0.521   0.307   8.770   9.597
   11        0.522   0.307   8.775   9.605
   12        0.521   0.307   8.770   9.597
   13        0.522   0.307   8.775   9.605
   14        0.522   0.307   8.775   9.605
   15        0.516   0.308   8.773   9.597
   16        0.521   0.307   8.770   9.597
   17        0.516   0.308   8.773   9.597
   18        0.516   0.308   8.773   9.597
   19        0.515   0.294   8.771   9.580
   20        0.562   0.338   8.747   9.647
   21        0.562   0.338   8.747   9.647
   22        0.506   0.305   8.778   9.589
   23        0.562   0.338   8.747   9.647
   24        0.506   0.305   8.778   9.589
   25        0.515   0.294   8.771   9.580
   26        0.515   0.294   8.771   9.580
   27        0.506   0.305   8.778   9.589
   28        0.543   0.222   8.762   9.526
   29        0.570   0.246   8.745   9.562
   30        0.570   0.246   8.745   9.562
   31        0.570   0.246   8.745   9.562
   32        0.570   0.246   8.745   9.562
   33        0.570   0.246   8.745   9.562
   34        0.570   0.246   8.745   9.562
   35        0.546   0.224   8.757   9.526
   36        0.691   0.724   3.495   4.910
   37        1.001   1.181   0.000   2.183
tot         20.512  11.568 310.204 342.283

 BZINTS: Fermi energy:    0.112782;  394.000000 electrons
         Band energy:-0.144006E+04;  BLOECHL correction:   -0.062616