 vasp.6.2.0 18Jan21 (build Jun 12 2021 23:27:24) complex

 executed on             LinuxIFC date 2022.05.27  05:58:24

 INCAR:
   ISMEAR = -5
   SIGMA = 0.1
   ISPIN = 1
   EDIFF = 1.d-5
   EDIFFG = -0.01
   NSW = 0
   NELM = 150
   ENCUT = 500
   ISIF = 2
   IBRION = 2
   LREAL = Auto
   ALGO = Fast
   ICHARG = 11
   LORBIT = 10
   LCHARG = .F.
   LWAVE = .F.

 POTCAR:    PAW_PBE Cu 22Jun2005
 POTCAR:    PAW_PBE V 08Apr2002
 POTCAR:    PAW_PBE O 08Apr2002
 POTCAR:    PAW_PBE H 15Jun2001
|           W    W    AA    RRRRR   N    N  II  N    N   GGGG   !!!           |
|           W    W   A  A   R    R  NN   N  II  NN   N  G    G  !!!           |
|           W    W  A    A  R    R  N N  N  II  N N  N  G       !!!           |
|           W WW W  AAAAAA  RRRRR   N  N N  II  N  N N  G  GGG   !            |
|           WW  WW  A    A  R   R   N   NN  II  N   NN  G    G                |
|           W    W  A    A  R    R  N    N  II  N    N   GGGG   !!!           |
|     For optimal performance we recommend to set                             |
|       NCORE = 2 up to number-of-cores-per-socket                            |
|     This setting can greatly improve the performance of VASP for DFT.       |
|     The default, NCORE=1 might be grossly inefficient on modern             |
|     multi-core architectures or massively parallel machines. Do your        |
|     Unfortunately you need to use the default for GW and RPA                |
|     calculations (for HF NCORE is supported but not extensively tested      |
|     yet).                                                                   |

 POTCAR:    PAW_PBE Cu 22Jun2005
   VRHFIN =Cu: d10 p1

   TITEL  = PAW_PBE Cu 22Jun2005
   POMASS =   63.546; ZVAL   =   11.000    mass and valenz
   ENMAX  =  295.446; ENMIN  =  221.585 eV

 POTCAR:    PAW_PBE V 08Apr2002
   VRHFIN =V: p6 d4 s1

   TITEL  = PAW_PBE V 08Apr2002
   POMASS =   50.941; ZVAL   =    5.000    mass and valenz
   ENMAX  =  192.543; ENMIN  =  144.408 eV

 POTCAR:    PAW_PBE O 08Apr2002
   VRHFIN =O: s2p4

   TITEL  = PAW_PBE O 08Apr2002
   POMASS =   16.000; ZVAL   =    6.000    mass and valenz
   ENMAX  =  400.000; ENMIN  =  300.000 eV

 POTCAR:    PAW_PBE H 15Jun2001
   VRHFIN =H: ultrasoft test

   TITEL  = PAW_PBE H 15Jun2001
   POMASS =    1.000; ZVAL   =    1.000    mass and valenz
   ENMAX  =  250.000; ENMIN  =  200.000 eV

 Optimization of the real space projectors (new method)

 maximal supplied QI-value         = 16.25
 optimisation between [QCUT,QGAM] = [ 11.38, 22.75] = [ 36.24,144.96] Ry
 Optimized for a Real-space Cutoff    1.52 Angstroem

   l    n(q)    QCUT    max X(q) W(low)/X(q) W(high)/X(q)  e(spline)
   2      9    11.376     4.610    0.21E-03    0.10E-03    0.26E-06
   2      9    11.376     8.522    0.33E-03    0.16E-03    0.37E-06
   0     10    11.376    51.609    0.62E-04    0.20E-04    0.13E-06
   0     10    11.376    27.747    0.54E-04    0.20E-04    0.13E-06
   1     10    11.376    20.408    0.13E-04    0.99E-04    0.19E-06
   1     10    11.376    13.425    0.12E-04    0.87E-04    0.17E-06
 Optimization of the real space projectors (new method)

[...]

   l    n(q)    QCUT    max X(q) W(low)/X(q) W(high)/X(q)  e(spline)
   0      7    11.387    20.381    0.39E-03    0.13E-02    0.15E-06
   0      7    11.387    15.268    0.42E-03    0.14E-02    0.17E-06
   1      6    11.387     5.964    0.41E-03    0.11E-02    0.17E-06
   1      6    11.387     5.382    0.39E-03    0.87E-03    0.15E-06
 Optimization of the real space projectors (new method)

 maximal supplied QI-value         = 34.20
 optimisation between [QCUT,QGAM] = [ 11.29, 22.57] = [ 35.68,142.71] Ry
 Optimized for a Real-space Cutoff    1.16 Angstroem

   l    n(q)    QCUT    max X(q) W(low)/X(q) W(high)/X(q)  e(spline)
   0      8    11.287    19.460    0.40E-03    0.73E-03    0.16E-06
   0      8    11.287    12.209    0.38E-03    0.70E-03    0.15E-06
   1      7    11.287     4.655    0.22E-03    0.25E-04    0.22E-06
  PAW_PBE Cu 22Jun2005                  :
  PAW_PBE V 08Apr2002                   :
  PAW_PBE O 08Apr2002                   :
  PAW_PBE H 15Jun2001                   :

 POSCAR: Cu-V-OH
  positions in direct lattice
  velocities in cartesian coordinates
 exchange correlation table for  LEXCH =        8
   RHO(1)=    0.500       N(1)  =     2000
   RHO(2)=  100.500       N(2)  =     4000

 VTST: version 3.2, (02/03/18)

 CHAIN: initializing optimizer

 OPT: Using VASP Conjugate-Gradient optimizer
 CHAIN: Read ICHAIN            0

 POSCAR: Cu-V-OH
  positions in direct lattice
  velocities in cartesian coordinates

 ion  position               nearest neighbor table
   1  0.000  0.000  0.252-   7 2.57   3 2.57   4 2.57   2 2.57   6 2.57   8 2.57  12 2.57  10 2.57
                            16 2.57
   2  0.333  0.000  0.252-   8 2.57   9 2.57   5 2.57   1 2.57   3 2.57  11 2.57   4 2.57  10 2.57
                            17 2.57
   3  0.667  0.000  0.252-   1 2.57   7 2.57   6 2.57   9 2.57   2 2.57  12 2.57   5 2.57  18 2.57
                            11 2.57
   4  0.000  0.333  0.252-   5 2.57   6 2.57   1 2.57   7 2.57   2 2.57  13 2.57   9 2.57  10 2.57
                            15 2.57
   5  0.333  0.333  0.252-   4 2.57   2 2.57   7 2.57  13 2.57   8 2.57   6 2.57   3 2.57  11 2.57
                            14 2.57
   6  0.667  0.333  0.252-   4 2.57   9 2.57  15 2.57   3 2.57   1 2.57   8 2.57  14 2.57   5 2.57
                            12 2.57
   7  0.000  0.667  0.252-   1 2.57   3 2.57  16 2.57  18 2.57   4 2.57   5 2.57   8 2.57   9 2.57
                            13 2.57
   8  0.333  0.667  0.252-   9 2.57   2 2.57  17 2.57   6 2.57   1 2.57   7 2.57   5 2.57  14 2.57
                            16 2.57
   9  0.667  0.667  0.252-   8 2.57   6 2.57   2 2.57  17 2.57   3 2.57   7 2.57   4 2.57  15 2.57
                            18 2.57
  10  0.111  0.111  0.351-  26 2.56  19 2.56  20 2.56  11 2.57  12 2.57  13 2.57   1 2.57   2 2.57
                             4 2.57  15 2.57  16 2.57  17 2.57
  11  0.444  0.111  0.351-  20 2.56  21 2.56  10 2.57  13 2.57   2 2.57  17 2.57  14 2.57  12 2.57
                             5 2.57   3 2.57  18 2.57  27 2.57
  12  0.778  0.111  0.351-  19 2.56  25 2.56  21 2.56  15 2.57  10 2.57  14 2.57  18 2.57   3 2.57
                             1 2.57  16 2.57  11 2.57   6 2.57
  13  0.111  0.444  0.351-  23 2.56  20 2.56  16 2.57  18 2.57  10 2.57  11 2.57  14 2.57   5 2.57
                             4 2.57   7 2.57  15 2.57  22 2.57
  14  0.444  0.444  0.351-  21 2.56  23 2.56  15 2.57  17 2.57  12 2.57  16 2.57  13 2.57  11 2.57
                             6 2.57   8 2.57   5 2.57  24 2.57
  15  0.778  0.444  0.351-  19 2.56  24 2.57  22 2.57  14 2.57  17 2.57  12 2.57   6 2.57  18 2.57
                            10 2.57   9 2.57  13 2.57   4 2.57
  16  0.111  0.778  0.351-  25 2.56  26 2.56  23 2.56  18 2.57  13 2.57   7 2.57  14 2.57  17 2.57
                            12 2.57  10 2.57   8 2.57   1 2.57
  17  0.444  0.778  0.351-  26 2.56  27 2.57  24 2.57  14 2.57  15 2.57   8 2.57   9 2.57  11 2.57
                            16 2.57  18 2.57  10 2.57   2 2.57
  18  0.778  0.778  0.351-  25 2.56  22 2.57  27 2.57  16 2.57  13 2.57   7 2.57  15 2.57  12 2.57
                            17 2.57   9 2.57   3 2.57  11 2.57
  19  0.889  0.222  0.449-  12 2.56  10 2.56  15 2.56  28 2.56  25 2.56  26 2.56  21 2.57  20 2.57
                            22 2.57  24 2.57  32 2.58  31 2.58
  20  0.222  0.222  0.449-  36 2.54  11 2.56  13 2.56  10 2.56  23 2.56  21 2.56  26 2.57  19 2.57
                            27 2.57  22 2.57  29 2.57  31 2.57
  21  0.555  0.222  0.449-  36 2.54  14 2.56  11 2.56  12 2.56  20 2.56  23 2.56  19 2.57  25 2.57
                            24 2.57  27 2.57  32 2.57  30 2.57
  22  0.888  0.556  0.449-  24 2.56  27 2.56  35 2.56  18 2.57  15 2.57  19 2.57  25 2.57  31 2.57
                            33 2.57  13 2.57  23 2.57  20 2.57
  23  0.222  0.555  0.449-  36 2.54  13 2.56  14 2.56  16 2.56  20 2.56  21 2.56  25 2.57  26 2.57
                            22 2.57  24 2.57  33 2.57  34 2.57
  24  0.556  0.556  0.449-  22 2.56  27 2.56  35 2.56  15 2.57  17 2.57  19 2.57  26 2.57  32 2.57
                            34 2.57  14 2.57  21 2.57  23 2.57
  25  0.889  0.889  0.449-  12 2.56  16 2.56  18 2.56  28 2.56  19 2.56  26 2.56  21 2.57  23 2.57
                            22 2.57  27 2.57  33 2.58  30 2.58
  26  0.222  0.889  0.449-  10 2.56  16 2.56  17 2.56  28 2.56  25 2.56  19 2.56  20 2.57  23 2.57
                            27 2.57  24 2.57  29 2.58  34 2.58
  27  0.556  0.888  0.449-  24 2.56  22 2.56  35 2.56  17 2.57  18 2.57  26 2.57  25 2.57  29 2.57
                            30 2.57  11 2.57  20 2.57  21 2.57
  28  0.000  0.000  0.547-  25 2.56  19 2.56  26 2.56  33 2.57  30 2.57  31 2.57  29 2.57  32 2.57
                            34 2.57
  29  0.333  0.000  0.548-  30 2.56  36 2.56  31 2.56  27 2.57  35 2.57  28 2.57  20 2.57  34 2.57
                            26 2.58
  30  0.666  0.000  0.548-  29 2.56  36 2.56  32 2.56  27 2.57  35 2.57  28 2.57  21 2.57  33 2.57
                            25 2.58
  31  0.000  0.333  0.548-  33 2.56  36 2.56  29 2.56  22 2.57  35 2.57  28 2.57  20 2.57  32 2.57
                            19 2.58
  32  0.666  0.333  0.548-  34 2.56  36 2.56  30 2.56  24 2.57  35 2.57  28 2.57  21 2.57  31 2.57
                            19 2.58
  33  0.000  0.666  0.548-  31 2.56  36 2.56  34 2.56  22 2.57  35 2.57  28 2.57  23 2.57  30 2.57
                            25 2.58
  34  0.333  0.666  0.548-  32 2.56  36 2.56  33 2.56  24 2.57  35 2.57  28 2.57  23 2.57  29 2.57
                            26 2.58
  35  0.667  0.667  0.548-  24 2.56  27 2.56  22 2.56  34 2.57  32 2.57  29 2.57  30 2.57  33 2.57
                            31 2.57
  36  0.333  0.333  0.546-  37 1.76  23 2.54  20 2.54  21 2.54  31 2.56  29 2.56  33 2.56  32 2.56
                            34 2.56  30 2.56
  37  0.333  0.333  0.629-  38 0.97  36 1.76
  38  0.333  0.333  0.674-  37 0.97

  LATTYP: Found a hexagonal cell.
 ALAT       =     7.6967864036
 C/A-ratio  =     2.7653617908

  Lattice vectors:

 A1 = (  -3.8483927580,  -6.6656128093,   0.0000000000)
 A2 = (   7.6967864037,   0.0000000000,   0.0000000000)
 A3 = (   0.0000000000,   0.0000000000,  21.2843990326)

Analysis of symmetry for initial positions (statically):
 Subroutine PRICEL returns:
 Original cell was already a primitive cell.

 Routine SETGRP: Setting up the symmetry group for a
 hexagonal supercell.

 Subroutine GETGRP returns: Found  6 space group operations
 (whereof  6 operations were pure point group operations)
 out of a pool of 24 trial point group operations.

The static configuration has the point symmetry C_3v.

Analysis of symmetry for dynamics (positions and initial velocities):
 Subroutine PRICEL returns:
 Original cell was already a primitive cell.

[...]

The dynamic configuration has the point symmetry C_3v.

Analysis of constrained symmetry for selective dynamics:
 Subroutine PRICEL returns:
 Original cell was already a primitive cell.

[...]
     33      -3.7104      2.00000
     34      -3.7054      2.00000
     35      -3.6934      2.00000
     36      -3.6488      2.00000
     37      -3.6377      2.00000
     38      -3.6076      2.00000
     39      -3.5282      2.00000
     40      -3.5189      2.00000
     41      -3.4028      2.00000
     42      -3.3976      2.00000
     43      -3.3191      2.00000
     44      -3.3112      2.00000
     45      -3.3063      2.00000
     46      -3.2801      2.00000
     47      -3.2670      2.00000
     48      -3.2554      2.00000
     49      -3.2480      2.00000
     50      -3.0803      2.00000
     51      -3.0655      2.00000
     52      -3.0510      2.00000
     53      -3.0429      2.00000
     54      -3.0027      2.00000
     55      -2.9968      2.00000
     56      -2.9746      2.00000
     57      -2.9621      2.00000
     58      -2.9583      2.00000
     59      -2.9376      2.00000
     60      -2.9187      2.00000
[...]
    238       6.3823      0.00000
    239       6.5848      0.00000
    240       6.6386      0.00000
    241       6.7186      0.00000
    242       6.7862      0.00000
    243       6.9939      0.00000
    244       7.0203      0.00000
    245       7.1634      0.00000
    246       7.3685      0.00000
    247       7.5149      0.00000
    248       7.5992      0.00000
    249       7.6718      0.00000
    250       7.7291      0.00000
    251       7.9455      0.00000
    252       8.1997      0.00000

 soft charge-density along one line, spin component           1
         0         1         2         3         4         5         6         7         8         9
 total charge-density along one line

------------------------ aborting loop because EDIFF is reached ----------------------------------------

 total charge

# of ion       s       p       d       tot
    1        0.450   0.283   9.188   9.921
    2        0.449   0.286   9.185   9.919
    3        0.449   0.286   9.185   9.919
    4        0.449   0.286   9.185   9.919
    5        0.448   0.285   9.182   9.916
    6        0.449   0.286   9.185   9.919
    7        0.449   0.286   9.185   9.919
    8        0.449   0.286   9.185   9.919
    9        0.448   0.285   9.187   9.920
   10        0.443   0.370   9.177   9.991
   11        0.441   0.367   9.182   9.990
   12        0.443   0.370   9.177   9.991
   13        0.441   0.367   9.182   9.990
   14        0.441   0.367   9.182   9.990
   15        0.438   0.370   9.178   9.986
   16        0.443   0.370   9.177   9.991
   17        0.438   0.370   9.178   9.986
   18        0.438   0.370   9.178   9.986
   19        0.442   0.367   9.182   9.991
   20        0.463   0.394   9.157  10.014
   21        0.463   0.394   9.157  10.014
   22        0.433   0.374   9.178   9.985
   23        0.463   0.394   9.157  10.014
   24        0.433   0.374   9.178   9.985
   25        0.442   0.367   9.182   9.991
   26        0.442   0.367   9.182   9.991
   27        0.433   0.374   9.178   9.985
   28        0.452   0.289   9.181   9.921
   29        0.462   0.302   9.176   9.941
   30        0.462   0.302   9.176   9.941
   31        0.462   0.302   9.176   9.941
   32        0.462   0.302   9.176   9.941
   33        0.462   0.302   9.176   9.941
   34        0.462   0.302   9.176   9.941
   35        0.445   0.294   9.179   9.918
   36        0.552   0.747   3.545   4.844
   37        1.562   3.531   0.000   5.092
   38        0.606   0.124   0.000   0.731
tot         18.407  16.092 324.794 359.294

  FORCE on cell =-STRESS in cart. coord.  units (eV):
  Direction    XX          YY          ZZ          XY          YZ          ZX
  Alpha Z   877.83798   877.83798   877.83798
  Ewald  170423.31938170423.31901************     0.00038     0.00013     0.00018
  Hartree183574.43615183574.43615************     0.00003     0.00007     0.00007
  E(xc)   -2301.94026 -2301.93981 -2305.43239    -0.00039    -0.00004    -0.00006
  Local  ************************366929.36660     0.01880    -0.00063    -0.00098
  n-local  -787.76535  -774.11495  -791.04163     7.19131    -0.23058     0.30799
  augment  3335.81725  3335.83761  3350.31755    -0.01763     0.00021     0.00032
  Kinetic  3313.62286  3315.52270  3304.91115     2.34375     1.83989    -1.30812
  Fock        0.00000     0.00000     0.00000     0.00000     0.00000     0.00000
  Total      -6.56931    -6.56931    -0.75960     0.00000     0.00000    -0.00000
  in kB      -9.63872    -9.63872    -1.11451     0.00000     0.00000    -0.00000

 VOLUME and BASIS-vectors are now :
  energy-cutoff  :      500.00
  volume of cell :     1091.97
      direct lattice vectors                 reciprocal lattice vectors
     7.696786404  0.000000000  0.000000000     0.129924354 -0.075011849  0.000000000
     3.848392758  6.665612809  0.000000000     0.000000000  0.150023716  0.000000000
     0.000000000  0.000000000 21.284399033     0.000000000  0.000000000  0.046982769

  length of vectors
     7.696786404  7.696786404 21.284399033     0.150023716  0.150023716  0.046982769

 FORCES acting on ions
    electron-ion (+dipol)            ewald-force                    non-local-force                 convergence-correction
   -.417E-04 0.801E-07 0.347E+04   0.580E-04 -.431E-05 -.347E+04   0.111E-16 -.121E-17 -.242E+01   -.279E-03 -.128E-03 -.365E+00
   -.630E+00 -.682E+00 0.347E+04   0.549E+00 0.481E+00 -.346E+04   0.116E-01 0.126E+00 -.188E+01   0.706E-01 0.829E-01 -.258E+00
   0.630E+00 -.682E+00 0.347E+04   -.549E+00 0.481E+00 -.346E+04   -.116E-01 0.126E+00 -.188E+01   -.698E-01 0.854E-01 -.257E+00
   -.906E+00 -.205E+00 0.347E+04   0.691E+00 0.235E+00 -.346E+04   0.115E+00 -.530E-01 -.188E+01   0.107E+00 0.196E-01 -.258E+00
   -.659E-04 -.579E-05 0.346E+04   0.116E-03 -.101E-04 -.346E+04   -.662E-18 -.152E-17 -.180E+01   0.121E-01 0.740E-02 -.236E+00
   0.906E+00 -.204E+00 0.347E+04   -.691E+00 0.235E+00 -.346E+04   -.115E+00 -.530E-01 -.188E+01   -.109E+00 0.209E-01 -.257E+00
   -.276E+00 0.887E+00 0.347E+04   0.142E+00 -.716E+00 -.346E+04   0.103E+00 -.730E-01 -.188E+01   0.390E-01 -.103E+00 -.257E+00
   0.276E+00 0.887E+00 0.347E+04   -.142E+00 -.716E+00 -.346E+04   -.103E+00 -.730E-01 -.188E+01   -.356E-01 -.105E+00 -.257E+00
   -.144E-03 -.329E-04 0.347E+04   0.263E-03 0.205E-04 -.346E+04   0.107E-17 -.192E-17 -.216E+01   -.132E-01 -.680E-02 -.236E+00
   -.423E+01 -.244E+01 0.116E+04   0.455E+01 0.263E+01 -.116E+04   -.435E+00 -.251E+00 -.901E+00   0.104E+00 0.601E-01 -.377E+00
   -.908E-04 -.473E+01 0.115E+04   0.189E-03 0.440E+01 -.115E+04   -.178E-07 0.267E+00 -.457E+00   0.115E-01 0.225E-01 -.459E+00
   0.423E+01 -.244E+01 0.116E+04   -.455E+01 0.263E+01 -.116E+04   0.435E+00 -.251E+00 -.901E+00   -.105E+00 0.611E-01 -.378E+00
   -.410E+01 0.237E+01 0.115E+04   0.381E+01 -.220E+01 -.115E+04   0.231E+00 -.134E+00 -.457E+00   0.257E-01 -.478E-03 -.459E+00
   0.410E+01 0.237E+01 0.115E+04   -.381E+01 -.220E+01 -.115E+04   -.231E+00 -.134E+00 -.457E+00   -.219E-02 -.164E-02 -.461E+00
   -.141E-03 -.121E+01 0.116E+04   0.297E-03 0.103E+01 -.116E+04   -.556E-08 0.835E-01 -.904E+00   -.312E-02 0.862E-01 -.384E+00
   -.922E-04 0.488E+01 0.116E+04   0.186E-03 -.526E+01 -.116E+04   -.334E-07 0.502E+00 -.901E+00   -.702E-03 -.123E+00 -.378E+00
   -.105E+01 0.605E+00 0.116E+04   0.895E+00 -.517E+00 -.116E+04   0.723E-01 -.417E-01 -.904E+00   0.737E-01 -.458E-01 -.385E+00
   0.105E+01 0.605E+00 0.116E+04   -.895E+00 -.517E+00 -.116E+04   -.723E-01 -.417E-01 -.904E+00   -.726E-01 -.436E-01 -.383E+00
   -.652E-04 -.619E+01 -.115E+04   0.713E-04 0.608E+01 0.115E+04   -.221E-08 0.332E-01 0.106E+01   0.100E-02 0.531E-01 -.374E+00
   -.453E+02 -.262E+02 -.121E+04   0.463E+02 0.267E+02 0.121E+04   -.105E+01 -.604E+00 -.603E+00   -.472E-01 -.274E-01 -.591E+00
   0.453E+02 -.262E+02 -.121E+04   -.463E+02 0.267E+02 0.121E+04   0.105E+01 -.604E+00 -.603E+00   0.265E-01 -.283E-01 -.592E+00
   -.207E+02 0.120E+02 -.116E+04   0.206E+02 -.119E+02 0.116E+04   0.338E+00 -.195E+00 0.828E+00   -.120E+00 0.679E-01 -.517E+00
   -.801E-04 0.523E+02 -.121E+04   0.150E-03 -.535E+02 0.121E+04   -.805E-07 0.121E+01 -.603E+00   -.124E-01 0.359E-01 -.592E+00
   0.207E+02 0.120E+02 -.116E+04   -.206E+02 -.119E+02 0.116E+04   -.338E+00 -.195E+00 0.828E+00   0.121E+00 0.690E-01 -.517E+00
   0.536E+01 0.309E+01 -.115E+04   -.527E+01 -.304E+01 0.115E+04   -.287E-01 -.166E-01 0.106E+01   -.457E-01 -.264E-01 -.374E+00
   -.536E+01 0.309E+01 -.115E+04   0.527E+01 -.304E+01 0.115E+04   0.287E-01 -.166E-01 0.106E+01   0.469E-01 -.255E-01 -.374E+00
   -.125E-03 -.239E+02 -.116E+04   0.240E-03 0.238E+02 0.116E+04   -.260E-07 0.390E+00 0.828E+00   -.979E-03 -.138E+00 -.517E+00
   -.367E-04 0.164E-04 -.341E+04   0.398E-04 -.329E-04 0.341E+04   0.570E-17 0.141E-17 0.157E+01   -.140E-02 -.754E-03 0.161E-01
   -.214E+02 -.433E+02 -.339E+04   0.217E+02 0.434E+02 0.339E+04   -.284E+00 0.889E-02 0.233E+01   -.161E+00 -.340E+00 -.884E-01
   0.214E+02 -.433E+02 -.339E+04   -.217E+02 0.434E+02 0.339E+04   0.284E+00 0.889E-02 0.233E+01   0.183E+00 -.338E+00 -.880E-01
   -.482E+02 0.312E+01 -.339E+04   0.485E+02 -.290E+01 0.339E+04   -.134E+00 -.251E+00 0.233E+01   -.375E+00 0.302E-01 -.884E-01
   0.482E+02 0.312E+01 -.339E+04   -.485E+02 -.290E+01 0.339E+04   0.134E+00 -.251E+00 0.233E+01   0.397E+00 0.313E-01 -.871E-01
   -.268E+02 0.402E+02 -.339E+04   0.268E+02 -.405E+02 0.339E+04   0.150E+00 0.242E+00 0.233E+01   -.201E+00 0.328E+00 -.880E-01
   0.268E+02 0.402E+02 -.339E+04   -.268E+02 -.405E+02 0.339E+04   -.150E+00 0.242E+00 0.233E+01   0.226E+00 0.328E+00 -.870E-01
   -.128E-03 -.158E-04 -.342E+04   0.252E-03 0.336E-05 0.342E+04   0.355E-18 -.415E-17 0.195E+01   -.143E-01 -.744E-02 0.948E-01
   -.487E-04 -.156E-04 -.141E+04   0.627E-04 0.126E-04 0.141E+04   0.551E-17 -.197E-17 0.668E+00   0.121E-03 0.866E-04 -.706E-01
   0.187E-03 -.784E-04 -.206E+04   0.170E-04 0.804E-05 0.204E+04   0.760E-18 -.113E-17 0.209E+02   0.281E-02 0.172E-02 0.366E+00
   0.514E-05 -.130E-04 -.386E+03   0.654E-06 0.545E-06 0.395E+03   -.281E-19 -.328E-19 -.849E+01   0.156E-03 0.948E-04 0.331E-01
   -.137E-03 -.128E-03 0.633E+00   0.128E-12 0.537E-12 0.216E-11   0.173E-15 0.298E-15 0.997E+01   0.584E-01 0.307E-01 -.106E+02

 POSITION                                       TOTAL-FORCE (eV/Angst)
      0.00000      0.00000      5.37156         0.000000     -0.000000     -0.001560
      2.56560      0.00000      5.37156         0.001505      0.008500      0.059061
      5.13119      0.00000      5.37156        -0.001505      0.008500      0.059061
      1.28280      2.22187      5.37156         0.008114     -0.002946      0.059061
      3.84839      2.22187      5.37156         0.000000     -0.000000      0.059426
      6.41399      2.22187      5.37156        -0.008114     -0.002946      0.059061
      2.56560      4.44374      5.37156         0.006608     -0.005554      0.059061
      5.13119      4.44374      5.37156        -0.006608     -0.005554      0.059061
      7.69679      4.44374      5.37156         0.000000     -0.000000      0.014913
      1.28280      0.74062      7.46636        -0.003330     -0.001923     -0.079172
      3.84839      0.74062      7.46636         0.000000     -0.047083     -0.058297
      6.41399      0.74062      7.46636         0.003330     -0.001923     -0.079172
      2.56560      2.96249      7.46636        -0.040775      0.023542     -0.058297
      5.13119      2.96249      7.46636         0.040775      0.023542     -0.058297
      7.69679      2.96249      7.46636         0.000000     -0.006995      0.002648
      3.84839      5.18437      7.46636        -0.000000      0.003845     -0.079172
      6.41399      5.18437      7.46636        -0.006058      0.003498      0.002648
      8.97958      5.18437      7.46636         0.006058      0.003498      0.002648
      7.69679      1.48017      9.54910         0.000000     -0.018283      0.025323
      2.56637      1.48170      9.55121        -0.063106     -0.036434     -0.142668
      5.13041      1.48170      9.55121         0.063106     -0.036434     -0.142668
      8.97729      3.70444      9.56154         0.058948     -0.034034      0.012101
      3.84839      3.70222      9.55121        -0.000000      0.072869     -0.142668
      6.41628      3.70444      9.56154        -0.058948     -0.034034      0.012101
     10.26332      5.92553      9.54910         0.015834      0.009142      0.025323
      5.13026      5.92553      9.54910        -0.015834      0.009142      0.025323
      7.69679      5.92234      9.56154        -0.000000      0.068067      0.012101
      0.00000      0.00000     11.64072         0.000000     -0.000000     -0.031163
      2.56831      0.00307     11.65724        -0.114982     -0.189450     -0.220586
      5.12847      0.00307     11.65724         0.114982     -0.189450     -0.220586
      1.28681      2.22269     11.65724        -0.221559     -0.004853     -0.220586
      6.40997      2.22269     11.65724         0.221559     -0.004853     -0.220586
      2.56689      4.43985     11.65724        -0.106577      0.194302     -0.220586
      5.12989      4.43985     11.65724         0.106577      0.194302     -0.220586
      7.69679      4.44374     11.65596         0.000000     -0.000000     -0.003749
      3.84839      2.22187     11.62023         0.000000     -0.000000      1.686297
      3.84839      2.22187     13.38308         0.000000     -0.000000     -0.028845
      3.84839      2.22187     14.35044         0.000000     -0.000000     -0.005975
    total drift:                                0.058224      0.030584      0.026038

  FREE ENERGIE OF THE ION-ELECTRON SYSTEM (eV)
  free  energy   TOTEN  =      -141.39760497 eV

  energy  without entropy=     -141.39760497  energy(sigma->0) =     -141.39760497

 stress matrix after NEB project (eV)
     -6.56931      0.00000     -0.00000
      0.00000     -6.56931      0.00000
     -0.00000      0.00000     -0.75960
  FORCES: max atom, RMS     0.028845    0.004779
  FORCE total and by dimension    0.029458    0.028845
  Stress total and by dimension    9.321407    6.569309
|           W    W    AA    RRRRR   N    N  II  N    N   GGGG   !!!           |
|           W    W   A  A   R    R  NN   N  II  NN   N  G    G  !!!           |
|           W    W  A    A  R    R  N N  N  II  N N  N  G       !!!           |
|           W WW W  AAAAAA  RRRRR   N  N N  II  N  N N  G  GGG   !            |
|           WW  WW  A    A  R   R   N   NN  II  N   NN  G    G                |
|           W    W  A    A  R    R  N    N  II  N    N   GGGG   !!!           |
|     Tetrahedron method does not include variations of the Fermi             |
|     occupations, so forces and stress will be inaccurate. We suggest        |
|     using a different smearing scheme ISMEAR = 1 or 2 for metals in         |
|     relaxations.                                                            |

 total charge

# of ion       s       p       d       tot
    1        0.450   0.283   9.188   9.921
    2        0.449   0.286   9.185   9.919
    3        0.449   0.286   9.185   9.919
    4        0.449   0.286   9.185   9.919
    5        0.448   0.285   9.182   9.916
    6        0.449   0.286   9.185   9.919
    7        0.449   0.286   9.185   9.919
    8        0.449   0.286   9.185   9.919
    9        0.448   0.285   9.187   9.920
   10        0.443   0.370   9.177   9.991
   11        0.441   0.367   9.182   9.990
   12        0.443   0.370   9.177   9.991
   13        0.441   0.367   9.182   9.990
   14        0.441   0.367   9.182   9.990
   15        0.438   0.370   9.178   9.986
   16        0.443   0.370   9.177   9.991
   17        0.438   0.370   9.178   9.986
   18        0.438   0.370   9.178   9.986
   19        0.442   0.367   9.182   9.991
   20        0.463   0.394   9.157  10.014
   21        0.463   0.394   9.157  10.014
   22        0.433   0.374   9.178   9.985
   23        0.463   0.394   9.157  10.014
   24        0.433   0.374   9.178   9.985
   25        0.442   0.367   9.182   9.991
   26        0.442   0.367   9.182   9.991
   27        0.433   0.374   9.178   9.985
   28        0.452   0.289   9.181   9.921
   29        0.462   0.302   9.176   9.941
   30        0.462   0.302   9.176   9.941
   31        0.462   0.302   9.176   9.941
   32        0.462   0.302   9.176   9.941
   33        0.462   0.302   9.176   9.941
   34        0.462   0.302   9.176   9.941
   35        0.445   0.294   9.179   9.918
   36        0.552   0.747   3.545   4.844
   37        1.562   3.531   0.000   5.092
   38        0.606   0.124   0.000   0.731
tot         18.407  16.092 324.794 359.294

 BZINTS: Fermi energy:    0.416542;  397.000000 electrons
         Band energy:-0.101954E+04;  BLOECHL correction:   -0.025212