 vasp.6.2.0 18Jan21 (build Jun 12 2021 23:27:24) complex

 executed on             LinuxIFC date 2022.05.26  19:44:09

 INCAR:
   ISMEAR = -5
   SIGMA = 0.1
   ISPIN = 1
   EDIFF = 1.d-5
   EDIFFG = -0.01
   NSW = 0
   NELM = 150
   ENCUT = 500
   ISIF = 2
   IBRION = 2
   LREAL = Auto
   ALGO = Fast
   ICHARG = 11
   LORBIT = 10
   LCHARG = .F.
   LWAVE = .F.

 POTCAR:    PAW_PBE Ag 02Apr2005
 POTCAR:    PAW_PBE Mo 08Apr2002
 POTCAR:    PAW_PBE N 08Apr2002
|           W    W    AA    RRRRR   N    N  II  N    N   GGGG   !!!           |
|           W    W   A  A   R    R  NN   N  II  NN   N  G    G  !!!           |
|           W    W  A    A  R    R  N N  N  II  N N  N  G       !!!           |
|           W WW W  AAAAAA  RRRRR   N  N N  II  N  N N  G  GGG   !            |
|           WW  WW  A    A  R   R   N   NN  II  N   NN  G    G                |
|           W    W  A    A  R    R  N    N  II  N    N   GGGG   !!!           |
|     For optimal performance we recommend to set                             |
|       NCORE = 2 up to number-of-cores-per-socket                            |
|     This setting can greatly improve the performance of VASP for DFT.       |
|     The default, NCORE=1 might be grossly inefficient on modern             |
|     multi-core architectures or massively parallel machines. Do your        |
|     Unfortunately you need to use the default for GW and RPA                |
|     calculations (for HF NCORE is supported but not extensively tested      |
|     yet).                                                                   |

 POTCAR:    PAW_PBE Ag 02Apr2005
   VRHFIN =Ag : s1 d10

   TITEL  = PAW_PBE Ag 02Apr2005
   POMASS =  107.868; ZVAL   =   11.000    mass and valenz
   ENMAX  =  249.844; ENMIN  =  187.383 eV

 POTCAR:    PAW_PBE Mo 08Apr2002
   VRHFIN =Mo: 4p5s4d

[...]

 POTCAR:    PAW_PBE N 08Apr2002
   VRHFIN =N: s2p3

   TITEL  = PAW_PBE N 08Apr2002
   POMASS =   14.001; ZVAL   =    5.000    mass and valenz
   ENMAX  =  400.000; ENMIN  =  300.000 eV

 Optimization of the real space projectors (new method)

 maximal supplied QI-value         = 15.12
 optimisation between [QCUT,QGAM] = [ 11.34, 22.83] = [ 36.00,145.93] Ry
 Optimized for a Real-space Cutoff    1.43 Angstroem

   l    n(q)    QCUT    max X(q) W(low)/X(q) W(high)/X(q)  e(spline)
   2      9    11.338    53.897    0.16E-03    0.20E-03    0.28E-06
   2      9    11.338    52.416    0.16E-03    0.20E-03    0.29E-06
   0     10    11.338   122.045    0.31E-04    0.76E-04    0.15E-06
   0     10    11.338    73.629    0.30E-04    0.72E-04    0.15E-06
   1      9    11.338    15.255    0.20E-03    0.19E-04    0.17E-06
   1      9    11.338     9.562    0.16E-03    0.15E-04    0.14E-06
 Optimization of the real space projectors (new method)

[...]

   l    n(q)    QCUT    max X(q) W(low)/X(q) W(high)/X(q)  e(spline)
   2     10    11.429    80.908    0.27E-03    0.78E-03    0.13E-05
   2     10    11.429    79.000    0.27E-03    0.78E-03    0.13E-05
   0     11    11.429    52.066    0.33E-04    0.97E-04    0.72E-06
   0     11    11.429    24.514    0.27E-04    0.80E-04    0.60E-06
   1     10    11.429    16.033    0.31E-04    0.17E-03    0.36E-06
   1     10    11.429    11.179    0.22E-04    0.13E-03    0.29E-06
 Optimization of the real space projectors (new method)

 maximal supplied QI-value         = 25.13
 optimisation between [QCUT,QGAM] = [ 11.31, 22.87] = [ 35.82,146.48] Ry
 Optimized for a Real-space Cutoff    1.27 Angstroem

   l    n(q)    QCUT    max X(q) W(low)/X(q) W(high)/X(q)  e(spline)
   0      9    11.310    79.467    0.75E-04    0.16E-03    0.36E-06
   0      9    11.310    66.151    0.74E-04    0.16E-03    0.36E-06
   1      8    11.310    17.416    0.35E-03    0.12E-03    0.95E-06
   1      8    11.310    12.382    0.37E-03    0.13E-03    0.98E-06
  PAW_PBE Ag 02Apr2005                  :
  PAW_PBE Mo 08Apr2002                  :
  PAW_PBE N 08Apr2002                   :

 POSCAR: Ag-Mo-N
  positions in direct lattice
  velocities in cartesian coordinates
 exchange correlation table for  LEXCH =        8
   RHO(1)=    0.500       N(1)  =     2000
   RHO(2)=  100.500       N(2)  =     4000

 VTST: version 3.2, (02/03/18)

 CHAIN: initializing optimizer

 OPT: Using VASP Conjugate-Gradient optimizer
 CHAIN: Read ICHAIN            0

 POSCAR: Ag-Mo-N
  positions in direct lattice
  velocities in cartesian coordinates

 ion  position               nearest neighbor table
   1  0.000  0.000  0.238-   2 2.93   8 2.93   7 2.93   6 2.93   4 2.93  12 2.93  16 2.93  10 2.93
                             3 2.93
   2  0.333  0.000  0.238-   1 2.93   8 2.93   9 2.93   3 2.93   4 2.93   5 2.93  10 2.93  17 2.93
                            11 2.93
   3  0.667  0.000  0.238-   9 2.93   2 2.93   5 2.93  11 2.93   7 2.93  18 2.93   1 2.93   6 2.93
                            12 2.93
   4  0.000  0.333  0.238-   5 2.93   6 2.93   2 2.93   1 2.93   7 2.93  13 2.93  15 2.93   9 2.93
                            10 2.93
   5  0.333  0.333  0.238-   4 2.93   3 2.93   7 2.93   2 2.93   8 2.93  14 2.93  13 2.93  11 2.93
                             6 2.93
   6  0.667  0.333  0.238-   4 2.93   9 2.93   1 2.93  15 2.93   8 2.93  12 2.93   3 2.93   5 2.93
                            14 2.93
   7  0.000  0.667  0.238-   8 2.93   1 2.93   5 2.93   3 2.93   4 2.93  16 2.93  18 2.93  13 2.93
                             9 2.93
   8  0.333  0.667  0.238-   7 2.93   1 2.93   2 2.93   9 2.93   5 2.93  16 2.93   6 2.93  17 2.93
                            14 2.93
   9  0.667  0.667  0.238-   3 2.93   2 2.93   8 2.93   6 2.93  17 2.93   4 2.93  15 2.93   7 2.93
                            18 2.93
  10  0.111  0.111  0.346-  20 2.90  19 2.93  26 2.93  12 2.93  16 2.93  15 2.93  17 2.93  13 2.93
                            11 2.93   2 2.93   1 2.93   4 2.93
  11  0.444  0.111  0.346-  21 2.90  20 2.90  27 2.93  14 2.93  17 2.93  18 2.93   3 2.93  12 2.93
                            13 2.93  10 2.93   5 2.93   2 2.93
  12  0.778  0.111  0.346-  21 2.90  25 2.93  19 2.93  10 2.93  16 2.93  18 2.93  15 2.93  11 2.93
                             1 2.93  14 2.93   6 2.93   3 2.93
  13  0.111  0.444  0.346-  20 2.90  23 2.90  22 2.93  15 2.93  14 2.93  18 2.93  10 2.93  11 2.93
                            16 2.93   4 2.93   5 2.93   7 2.93
  14  0.444  0.444  0.346-  23 2.90  21 2.90  24 2.93  13 2.93  11 2.93  16 2.93   5 2.93  12 2.93
                            17 2.93   8 2.93  15 2.93   6 2.93
  15  0.778  0.444  0.346-  24 2.92  22 2.92  19 2.92  13 2.93  10 2.93  12 2.93  17 2.93  18 2.93
                             4 2.93   6 2.93   9 2.93  14 2.93
  16  0.111  0.778  0.346-  23 2.90  26 2.93  25 2.93  18 2.93  12 2.93  10 2.93  14 2.93  17 2.93
                            13 2.93   7 2.93   8 2.93   1 2.93
  17  0.444  0.778  0.346-  27 2.92  24 2.92  26 2.92  11 2.93  10 2.93   9 2.93  18 2.93  15 2.93
                            16 2.93   2 2.93  14 2.93   8 2.93
  18  0.778  0.778  0.346-  22 2.92  27 2.92  25 2.92  16 2.93  12 2.93  13 2.93  11 2.93  17 2.93
                            15 2.93   7 2.93   3 2.93   9 2.93
  19  0.889  0.222  0.454-  28 2.92  15 2.92  10 2.93  12 2.93  24 2.93  22 2.93  26 2.93  25 2.93
                            20 2.93  21 2.93  32 2.96  31 2.96
  20  0.222  0.222  0.452-  36 2.79  13 2.90  11 2.90  10 2.90  21 2.93  23 2.93  19 2.93  26 2.93
                            27 2.93  22 2.93  31 2.94  29 2.94
  21  0.555  0.222  0.452-  36 2.79  11 2.90  14 2.90  12 2.90  20 2.93  23 2.93  25 2.93  19 2.93
                            27 2.93  24 2.93  30 2.94  32 2.94
  22  0.888  0.556  0.454-  35 2.91  24 2.92  27 2.92  18 2.92  15 2.92  13 2.93  25 2.93  19 2.93
                            23 2.93  20 2.93  33 2.94  31 2.94
  23  0.222  0.555  0.452-  36 2.79  14 2.90  13 2.90  16 2.90  21 2.93  20 2.93  26 2.93  25 2.93
                            22 2.93  24 2.93  34 2.94  33 2.94
  24  0.556  0.556  0.454-  35 2.91  27 2.92  22 2.92  15 2.92  17 2.92  14 2.93  19 2.93  26 2.93
                            23 2.93  21 2.93  32 2.94  34 2.94
  25  0.889  0.889  0.454-  28 2.92  18 2.92  16 2.93  12 2.93  22 2.93  27 2.93  26 2.93  19 2.93
                            23 2.93  21 2.93  33 2.96  30 2.96
  26  0.222  0.889  0.454-  28 2.92  17 2.92  16 2.93  10 2.93  27 2.93  24 2.93  25 2.93  19 2.93
                            23 2.93  20 2.93  34 2.96  29 2.96
  27  0.556  0.888  0.454-  35 2.91  24 2.92  22 2.92  17 2.92  18 2.92  11 2.93  26 2.93  25 2.93
                            20 2.93  21 2.93  29 2.94  30 2.94
  28  0.000  0.000  0.561-  26 2.92  25 2.92  19 2.92  29 2.95  34 2.95  33 2.95  32 2.95  31 2.95
                            30 2.95
  29  0.333  0.005  0.562-  31 2.88  30 2.89  36 2.89  27 2.94  20 2.94  28 2.95  35 2.96  26 2.96
                            34 3.02
  30  0.662  0.005  0.562-  32 2.88  29 2.89  36 2.89  27 2.94  21 2.94  28 2.95  35 2.96  25 2.96
                            33 3.02
  31  0.005  0.333  0.562-  29 2.88  33 2.89  36 2.89  22 2.94  20 2.94  28 2.95  35 2.96  19 2.96
                            32 3.02
  32  0.662  0.333  0.562-  30 2.88  34 2.89  36 2.89  24 2.94  21 2.94  28 2.95  35 2.96  19 2.96
                            31 3.02
  33  0.005  0.662  0.562-  34 2.88  31 2.89  36 2.89  22 2.94  23 2.94  28 2.95  35 2.96  25 2.96
                            30 3.02
  34  0.333  0.662  0.562-  33 2.88  32 2.89  36 2.89  24 2.94  23 2.94  28 2.95  35 2.96  26 2.96
                            29 3.02
  35  0.667  0.667  0.561-  24 2.91  27 2.91  22 2.91  30 2.96  32 2.96  29 2.96  34 2.96  31 2.96
                            33 2.96
  36  0.333  0.333  0.552-  37 1.70  21 2.79  20 2.79  23 2.79  31 2.89  30 2.89  33 2.89  29 2.89
                            34 2.89  32 2.89
  37  0.333  0.333  0.629-  36 1.70

  LATTYP: Found a hexagonal cell.
 ALAT       =     8.7913665772
 C/A-ratio  =     2.5227160501

  Lattice vectors:

 A1 = (  -4.3956832886,  -7.6135467898,   0.0000000000)
 A2 = (   8.7913665771,   0.0000000000,   0.0000000000)
 A3 = (   0.0000000000,   0.0000000000,  22.1781215668)

Analysis of symmetry for initial positions (statically):
 Subroutine PRICEL returns:
 Original cell was already a primitive cell.

 Routine SETGRP: Setting up the symmetry group for a
 hexagonal supercell.

 Subroutine GETGRP returns: Found  6 space group operations
 (whereof  6 operations were pure point group operations)
 out of a pool of 24 trial point group operations.

The static configuration has the point symmetry C_3v.

Analysis of symmetry for dynamics (positions and initial velocities):
 Subroutine PRICEL returns:
 Original cell was already a primitive cell.

[...]

The dynamic configuration has the point symmetry C_3v.

Analysis of constrained symmetry for selective dynamics:
 Subroutine PRICEL returns:
 Original cell was already a primitive cell.

 Routine SETGRP: Setting up the symmetry group for a
 hexagonal supercell.

 Subroutine GETGRP returns: Found  6 space group operations
 (whereof  6 operations were pure point group operations)
 out of a pool of 24 trial point group operations.

[...]
     24      -4.6944      2.00000
     25      -4.6853      2.00000
     26      -4.6681      2.00000
     27      -4.6587      2.00000
     28      -4.6286      2.00000
     29      -4.6273      2.00000
     30      -4.6075      2.00000
     31      -4.5973      2.00000
     32      -4.5864      2.00000
     33      -4.5531      2.00000
     34      -4.5436      2.00000
     35      -4.4990      2.00000
     36      -4.4727      2.00000
     37      -4.4713      2.00000
     38      -4.4490      2.00000
     39      -4.4177      2.00000
     40      -4.4068      2.00000
     41      -4.3975      2.00000
     42      -4.3847      2.00000
     43      -4.3650      2.00000
     44      -4.2871      2.00000
     45      -4.2574      2.00000
     46      -4.2410      2.00000
     47      -4.2342      2.00000
     48      -4.2279      2.00000
     49      -4.2234      2.00000
     50      -4.2155      2.00000
     51      -4.2131      2.00000
     52      -4.2001      2.00000
     53      -4.1963      2.00000
     54      -4.1324      2.00000
     55      -4.1177      2.00000
     56      -4.1099      2.00000
     57      -4.0999      2.00000
     58      -4.0864      2.00000
     59      -4.0695      2.00000
     60      -4.0544      2.00000
[...]
    238       6.2962      0.00000
    239       6.3492      0.00000
    240       6.4996      0.00000
    241       7.1804      0.00000
    242       7.2144      0.00000
    243       7.2701      0.00000
    244       7.3268      0.00000
    245       7.3429      0.00000
    246       7.3576      0.00000
    247       7.4302      0.00000
    248       7.5457      0.00000
    249       7.6157      0.00000
    250       7.6369      0.00000
    251       7.6486      0.00000
    252       7.7937      0.00000

 soft charge-density along one line, spin component           1
         0         1         2         3         4         5         6         7         8         9
 total charge-density along one line

------------------------ aborting loop because EDIFF is reached ----------------------------------------

 total charge

# of ion       s       p       d       tot
    1        0.418   0.203   9.178   9.799
    2        0.417   0.204   9.176   9.797
    3        0.417   0.204   9.176   9.797
    4        0.417   0.204   9.176   9.797
    5        0.415   0.202   9.178   9.796
    6        0.417   0.204   9.176   9.797
    7        0.417   0.204   9.176   9.797
    8        0.417   0.204   9.176   9.797
    9        0.413   0.204   9.177   9.795
   10        0.406   0.270   9.165   9.840
   11        0.404   0.272   9.165   9.841
   12        0.406   0.270   9.165   9.840
   13        0.404   0.272   9.165   9.841
   14        0.404   0.272   9.165   9.841
   15        0.402   0.270   9.165   9.837
   16        0.406   0.270   9.165   9.840
   17        0.402   0.270   9.165   9.837
   18        0.402   0.270   9.165   9.837
   19        0.403   0.262   9.169   9.835
   20        0.431   0.297   9.148   9.876
   21        0.431   0.297   9.148   9.876
   22        0.394   0.276   9.163   9.833
   23        0.431   0.297   9.148   9.876
   24        0.394   0.276   9.163   9.833
   25        0.403   0.262   9.169   9.835
   26        0.403   0.262   9.169   9.835
   27        0.394   0.276   9.163   9.833
   28        0.420   0.197   9.176   9.792
   29        0.422   0.213   9.170   9.806
   30        0.422   0.213   9.170   9.806
   31        0.422   0.213   9.170   9.806
   32        0.422   0.213   9.170   9.806
   33        0.422   0.213   9.170   9.806
   34        0.422   0.213   9.170   9.806
   35        0.414   0.202   9.175   9.791
   36        0.488   0.476   4.598   5.562
   37        1.342   2.220   0.000   3.562
tot         16.271  11.146 325.486 352.904

  FORCE on cell =-STRESS in cart. coord.  units (eV):
  Direction    XX          YY          ZZ          XY          YZ          ZX
  Alpha Z   758.23283   758.23283   758.23283
  Ewald  119463.89928119463.89924************     0.00001    -0.00001     0.00002
  Hartree129598.04237129598.04236************     0.00000    -0.00000     0.00001
  E(xc)   -2077.47441 -2077.47440 -2084.89205    -0.00001     0.00000    -0.00000
  Local  ************************260337.73077     0.00041    -0.00005    -0.00013
  n-local  -354.66694  -337.81268  -348.15636     9.90558    -0.46724     0.56218
  augment  3229.44235  3229.44252  3239.28745    -0.00015    -0.00001     0.00001
  Kinetic  4938.87532  4942.31662  4952.92644     4.04171     0.82437    -0.29547
  Fock        0.00000     0.00000     0.00000     0.00000     0.00000     0.00000
  Total      -5.85904    -5.85904     0.56105    -0.00000     0.00000    -0.00000
  in kB      -6.32367    -6.32367     0.60554    -0.00000     0.00000    -0.00000

 VOLUME and BASIS-vectors are now :
  energy-cutoff  :      500.00
  volume of cell :     1484.46
      direct lattice vectors                 reciprocal lattice vectors
     8.791366577  0.000000000  0.000000000     0.113747958 -0.065672414  0.000000000
     4.395683289  7.613546790  0.000000000     0.000000000  0.131344829  0.000000000
     0.000000000  0.000000000 22.178121567     0.000000000  0.000000000  0.045089481

  length of vectors
     8.791366577  8.791366577 22.178121567     0.131344829  0.131344829  0.045089481

 FORCES acting on ions
    electron-ion (+dipol)            ewald-force                    non-local-force                 convergence-correction
   0.460E-04 -.282E-04 0.249E+04   -.953E-04 0.593E-04 -.249E+04   0.814E-17 -.464E-17 -.181E+01   -.835E-04 -.155E-03 -.143E+00
   0.146E-01 0.300E+00 0.249E+04   -.894E-01 -.256E+00 -.249E+04   -.130E-01 -.986E-02 -.167E+01   0.858E-01 -.300E-01 -.109E+00
   -.145E-01 0.300E+00 0.249E+04   0.895E-01 -.256E+00 -.249E+04   0.130E-01 -.986E-02 -.167E+01   -.864E-01 -.281E-01 -.108E+00
   0.267E+00 -.137E+00 0.249E+04   -.266E+00 0.505E-01 -.249E+04   -.150E-01 -.629E-02 -.167E+01   0.172E-01 0.895E-01 -.109E+00
   -.613E-05 -.189E-04 0.250E+04   0.980E-04 -.198E-05 -.249E+04   -.113E-17 -.872E-18 -.172E+01   0.618E-02 0.378E-02 0.374E-01
   -.267E+00 -.137E+00 0.249E+04   0.266E+00 0.504E-01 -.249E+04   0.150E-01 -.629E-02 -.167E+01   -.185E-01 0.904E-01 -.108E+00
   0.252E+00 -.163E+00 0.249E+04   -.177E+00 0.205E+00 -.249E+04   -.206E-02 0.162E-01 -.167E+01   -.671E-01 -.602E-01 -.108E+00
   -.252E+00 -.162E+00 0.249E+04   0.177E+00 0.205E+00 -.249E+04   0.206E-02 0.162E-01 -.167E+01   0.687E-01 -.612E-01 -.108E+00
   0.361E-04 -.131E-04 0.249E+04   0.792E-04 -.643E-04 -.249E+04   -.136E-17 0.198E-18 -.178E+01   -.663E-02 -.341E-02 -.210E+00
   0.201E+01 0.116E+01 0.831E+03   -.198E+01 -.114E+01 -.830E+03   -.190E+00 -.110E+00 -.542E+00   0.142E+00 0.821E-01 0.206E+00
   -.285E-04 0.236E+01 0.832E+03   0.406E-04 -.264E+01 -.831E+03   0.650E-12 0.989E-01 -.684E+00   0.618E-02 0.135E+00 0.653E-01
   -.201E+01 0.116E+01 0.831E+03   0.198E+01 -.114E+01 -.830E+03   0.190E+00 -.110E+00 -.542E+00   -.143E+00 0.828E-01 0.205E+00
   0.204E+01 -.118E+01 0.832E+03   -.229E+01 0.132E+01 -.831E+03   0.857E-01 -.495E-01 -.684E+00   0.120E+00 -.623E-01 0.653E-01
   -.204E+01 -.118E+01 0.832E+03   0.229E+01 0.132E+01 -.831E+03   -.857E-01 -.495E-01 -.684E+00   -.110E+00 -.632E-01 0.636E-01
   0.155E-04 -.857E-01 0.830E+03   -.108E-03 0.325E-01 -.829E+03   0.337E-12 0.513E-01 -.554E+00   -.127E-02 -.676E-02 0.156E+00
   -.807E-05 -.232E+01 0.831E+03   0.206E-04 0.228E+01 -.830E+03   0.144E-11 0.219E+00 -.542E+00   -.931E-04 -.166E+00 0.205E+00
   -.742E-01 0.428E-01 0.830E+03   0.281E-01 -.163E-01 -.829E+03   0.444E-01 -.257E-01 -.554E+00   -.651E-02 0.227E-02 0.156E+00
   0.742E-01 0.428E-01 0.830E+03   -.282E-01 -.163E-01 -.829E+03   -.444E-01 -.257E-01 -.554E+00   0.668E-02 0.383E-02 0.157E+00
   0.390E-04 -.339E+01 -.852E+03   -.127E-03 0.330E+01 0.851E+03   0.399E-12 0.608E-01 0.871E+00   0.105E-02 0.232E-01 0.223E+00
   -.111E+02 -.642E+01 -.850E+03   0.114E+02 0.658E+01 0.850E+03   -.600E+00 -.346E+00 -.298E+00   0.618E-02 0.361E-02 0.144E+00
   0.111E+02 -.642E+01 -.850E+03   -.114E+02 0.658E+01 0.850E+03   0.600E+00 -.346E+00 -.298E+00   -.171E-01 0.313E-02 0.144E+00
   -.660E+01 0.381E+01 -.850E+03   0.623E+01 -.360E+01 0.849E+03   0.351E+00 -.203E+00 0.707E+00   0.593E-01 -.338E-01 0.176E+00
   -.522E-04 0.128E+02 -.850E+03   0.394E-04 -.132E+02 0.850E+03   0.455E-11 0.693E+00 -.298E+00   -.548E-02 -.157E-01 0.144E+00
   0.660E+01 0.381E+01 -.850E+03   -.623E+01 -.360E+01 0.849E+03   -.351E+00 -.203E+00 0.707E+00   -.577E-01 -.332E-01 0.176E+00
   0.294E+01 0.170E+01 -.852E+03   -.286E+01 -.165E+01 0.851E+03   -.526E-01 -.304E-01 0.871E+00   -.202E-01 -.118E-01 0.222E+00
   -.294E+01 0.170E+01 -.852E+03   0.286E+01 -.165E+01 0.851E+03   0.526E-01 -.304E-01 0.871E+00   0.203E-01 -.108E-01 0.223E+00
   0.201E-04 -.763E+01 -.850E+03   0.110E-03 0.719E+01 0.849E+03   0.266E-11 0.405E+00 0.707E+00   -.313E-03 0.682E-01 0.176E+00
   0.537E-04 -.363E-04 -.247E+04   -.115E-03 0.773E-04 0.247E+04   -.764E-17 0.109E-17 0.179E+01   0.248E-03 0.795E-05 0.169E+00
   0.259E+01 0.355E+01 -.247E+04   -.182E+01 -.259E+01 0.246E+04   -.765E+00 -.106E+01 0.227E+01   -.998E-01 -.816E-01 0.149E+00
   -.259E+01 0.355E+01 -.247E+04   0.182E+01 -.259E+01 0.246E+04   0.765E+00 -.106E+01 0.227E+01   0.989E-01 -.805E-01 0.149E+00
   0.437E+01 0.469E+00 -.247E+04   -.315E+01 -.282E+00 0.246E+04   -.130E+01 -.130E+00 0.227E+01   -.120E+00 -.455E-01 0.149E+00
   -.437E+01 0.469E+00 -.247E+04   0.315E+01 -.282E+00 0.246E+04   0.130E+01 -.130E+00 0.227E+01   0.120E+00 -.445E-01 0.150E+00
   0.178E+01 -.402E+01 -.247E+04   -.133E+01 0.287E+01 0.246E+04   -.539E+00 0.119E+01 0.227E+01   -.198E-01 0.126E+00 0.149E+00
   -.178E+01 -.402E+01 -.247E+04   0.133E+01 0.287E+01 0.246E+04   0.539E+00 0.119E+01 0.227E+01   0.211E-01 0.126E+00 0.150E+00
   0.243E-04 -.123E-04 -.247E+04   0.105E-03 -.656E-04 0.247E+04   -.170E-17 0.861E-18 0.201E+01   -.634E-02 -.323E-02 0.285E+00
   -.965E-05 -.666E-05 -.117E+04   0.573E-04 0.696E-05 0.117E+04   -.154E-17 -.305E-18 0.461E+00   0.672E-03 0.413E-03 0.444E-01
   0.106E-03 -.578E-04 -.134E+04   0.246E-04 0.372E-06 0.136E+04   -.101E-17 -.109E-17 -.192E+02   0.153E-02 0.941E-03 0.292E-01
   0.464E-03 -.740E-03 0.149E+02   -.389E-13 -.726E-13 -.978E-11   0.329E-15 0.444E-15 -.182E+02   -.438E-02 0.715E-03 0.337E+01

 POSITION                                       TOTAL-FORCE (eV/Angst)
      0.00000      0.00000      5.28219         0.000000     -0.000000      0.023813
      2.93046      0.00000      5.28219        -0.001382      0.005073      0.035216
      5.86091      0.00000      5.28219         0.001382      0.005073      0.035216
      1.46523      2.53785      5.28219         0.003703     -0.003733      0.035216
      4.39568      2.53785      5.28219         0.000000     -0.000000     -0.002090
      7.32614      2.53785      5.28219        -0.003703     -0.003733      0.035216
      2.93046      5.07570      5.28219         0.005084     -0.001340      0.035216
      5.86091      5.07570      5.28219        -0.005084     -0.001340      0.035216
      8.79137      5.07570      5.28219         0.000000     -0.000000      0.046001
      1.46523      0.84595      7.67490        -0.017450     -0.010075     -0.034626
      4.39568      0.84595      7.67490        -0.000000     -0.057147     -0.054050
      7.32614      0.84595      7.67490         0.017450     -0.010075     -0.034626
      2.93046      3.38380      7.67490        -0.049490      0.028573     -0.054050
      5.86091      3.38380      7.67490         0.049490      0.028573     -0.054050
      8.79137      3.38380      7.67490        -0.000000     -0.008865      0.033526
      4.39568      5.92165      7.67490         0.000000      0.020150     -0.034626
      7.32614      5.92165      7.67490        -0.007677      0.004432      0.033526
     10.25659      5.92165      7.67490         0.007677      0.004432      0.033526
      8.79137      1.69286     10.06155        -0.000000     -0.007051      0.007345
      2.93202      1.69280     10.03008        -0.309690     -0.178800     -0.259122
      5.85935      1.69280     10.03008         0.309690     -0.178800     -0.259122
     10.25345      4.23157     10.06207         0.035376     -0.020424      0.021581
      4.39568      4.22795     10.03008         0.000000      0.357599     -0.259122
      7.32929      4.23157     10.06207        -0.035376     -0.020424      0.021581
     11.72099      6.76712     10.06155         0.006106      0.003525      0.007345
      5.86174      6.76712     10.06155        -0.006106      0.003525      0.007345
      8.79137      6.76396     10.06207         0.000000      0.040848      0.021581
      0.00000      0.00000     12.43674         0.000000     -0.000000     -0.019068
      2.95191      0.04038     12.46589        -0.091523     -0.180193     -0.123515
      5.83946      0.04038     12.46589         0.091523     -0.180193     -0.123515
      1.51092      2.53624     12.46589        -0.201813      0.010835     -0.123515
      7.28044      2.53624     12.46589         0.201813      0.010835     -0.123515
      2.95470      5.03693     12.46589        -0.110290      0.169358     -0.123515
      5.83667      5.03693     12.46589         0.110290      0.169358     -0.123515
      8.79137      5.07570     12.43630         0.000000     -0.000000     -0.009475
      4.39568      2.53785     12.24527         0.000000     -0.000000      1.365463
      4.39568      2.53785     13.94364         0.000000     -0.000000     -0.018815
    total drift:                               -0.003915     -0.000024      0.051060

  FREE ENERGIE OF THE ION-ELECTRON SYSTEM (eV)
  free  energy   TOTEN  =      -105.72190130 eV

  energy  without entropy=     -105.72190130  energy(sigma->0) =     -105.72190130

 stress matrix after NEB project (eV)
     -5.85904     -0.00000     -0.00000
     -0.00000     -5.85904      0.00000
      0.00000      0.00000      0.56105
  FORCES: max atom, RMS     0.018815    0.003093
  FORCE total and by dimension    0.018815    0.018815
  Stress total and by dimension    8.304912    5.859044
|           W    W    AA    RRRRR   N    N  II  N    N   GGGG   !!!           |
|           W    W   A  A   R    R  NN   N  II  NN   N  G    G  !!!           |
|           W    W  A    A  R    R  N N  N  II  N N  N  G       !!!           |
|           W WW W  AAAAAA  RRRRR   N  N N  II  N  N N  G  GGG   !            |
|           WW  WW  A    A  R   R   N   NN  II  N   NN  G    G                |
|           W    W  A    A  R    R  N    N  II  N    N   GGGG   !!!           |
|     Tetrahedron method does not include variations of the Fermi             |
|     occupations, so forces and stress will be inaccurate. We suggest        |
|     using a different smearing scheme ISMEAR = 1 or 2 for metals in         |
|     relaxations.                                                            |

 total charge

# of ion       s       p       d       tot
    1        0.418   0.203   9.178   9.799
    2        0.417   0.204   9.176   9.797
    3        0.417   0.204   9.176   9.797
    4        0.417   0.204   9.176   9.797
    5        0.415   0.202   9.178   9.796
    6        0.417   0.204   9.176   9.797
    7        0.417   0.204   9.176   9.797
    8        0.417   0.204   9.176   9.797
    9        0.413   0.204   9.177   9.795
   10        0.406   0.270   9.165   9.840
   11        0.404   0.272   9.165   9.841
   12        0.406   0.270   9.165   9.840
   13        0.404   0.272   9.165   9.841
   14        0.404   0.272   9.165   9.841
   15        0.402   0.270   9.165   9.837
   16        0.406   0.270   9.165   9.840
   17        0.402   0.270   9.165   9.837
   18        0.402   0.270   9.165   9.837
   19        0.403   0.262   9.169   9.835
   20        0.431   0.297   9.148   9.876
   21        0.431   0.297   9.148   9.876
   22        0.394   0.276   9.163   9.833
   23        0.431   0.297   9.148   9.876
   24        0.394   0.276   9.163   9.833
   25        0.403   0.262   9.169   9.835
   26        0.403   0.262   9.169   9.835
   27        0.394   0.276   9.163   9.833
   28        0.420   0.197   9.176   9.792
   29        0.422   0.213   9.170   9.806
   30        0.422   0.213   9.170   9.806
   31        0.422   0.213   9.170   9.806
   32        0.422   0.213   9.170   9.806
   33        0.422   0.213   9.170   9.806
   34        0.422   0.213   9.170   9.806
   35        0.414   0.202   9.175   9.791
   36        0.488   0.476   4.598   5.562
   37        1.342   2.220   0.000   3.562
tot         16.271  11.146 325.486 352.904

 BZINTS: Fermi energy:    0.766575;  396.000000 electrons
         Band energy:-0.132740E+04;  BLOECHL correction:   -0.030005