 vasp.6.2.0 18Jan21 (build Jun 12 2021 23:27:24) complex

 executed on             LinuxIFC date 2022.05.27  05:43:01

 INCAR:
   ISMEAR = -5
   SIGMA = 0.1
   ISPIN = 1
   EDIFF = 1.d-5
   EDIFFG = -0.01
   NSW = 0
   NELM = 150
   ENCUT = 500
   ISIF = 2
   IBRION = 2
   LREAL = Auto
   ALGO = Fast
   ICHARG = 11
   LORBIT = 10
   LCHARG = .F.
   LWAVE = .F.

 POTCAR:    PAW_PBE Ag 02Apr2005
 POTCAR:    PAW_PBE Rh 04Feb2005
 POTCAR:    PAW_PBE C 08Apr2002
 POTCAR:    PAW_PBE O 08Apr2002
|           W    W    AA    RRRRR   N    N  II  N    N   GGGG   !!!           |
|           W    W   A  A   R    R  NN   N  II  NN   N  G    G  !!!           |
|           W    W  A    A  R    R  N N  N  II  N N  N  G       !!!           |
|           W WW W  AAAAAA  RRRRR   N  N N  II  N  N N  G  GGG   !            |
|           WW  WW  A    A  R   R   N   NN  II  N   NN  G    G                |
|           W    W  A    A  R    R  N    N  II  N    N   GGGG   !!!           |
|     For optimal performance we recommend to set                             |
|       NCORE = 2 up to number-of-cores-per-socket                            |
|     This setting can greatly improve the performance of VASP for DFT.       |
|     The default, NCORE=1 might be grossly inefficient on modern             |
|     multi-core architectures or massively parallel machines. Do your        |
|     Unfortunately you need to use the default for GW and RPA                |
|     calculations (for HF NCORE is supported but not extensively tested      |
|     yet).                                                                   |

 POTCAR:    PAW_PBE Ag 02Apr2005
   VRHFIN =Ag : s1 d10

   TITEL  = PAW_PBE Ag 02Apr2005
   POMASS =  107.868; ZVAL   =   11.000    mass and valenz
   ENMAX  =  249.844; ENMIN  =  187.383 eV

 POTCAR:    PAW_PBE Rh 04Feb2005
   VRHFIN =Rh: s1 d8

   TITEL  = PAW_PBE Rh 04Feb2005
   POMASS =  102.906; ZVAL   =    9.000    mass and valenz
   ENMAX  =  228.996; ENMIN  =  171.747 eV

 POTCAR:    PAW_PBE C 08Apr2002
   VRHFIN =C: s2p2

[...]

 POTCAR:    PAW_PBE O 08Apr2002
   VRHFIN =O: s2p4

   TITEL  = PAW_PBE O 08Apr2002
   POMASS =   16.000; ZVAL   =    6.000    mass and valenz
   ENMAX  =  400.000; ENMIN  =  300.000 eV

 Optimization of the real space projectors (new method)

 maximal supplied QI-value         = 15.12
 optimisation between [QCUT,QGAM] = [ 11.34, 22.83] = [ 36.00,145.93] Ry
 Optimized for a Real-space Cutoff    1.43 Angstroem

   l    n(q)    QCUT    max X(q) W(low)/X(q) W(high)/X(q)  e(spline)
   2      9    11.338    53.897    0.16E-03    0.20E-03    0.28E-06
   2      9    11.338    52.416    0.16E-03    0.20E-03    0.29E-06
   0     10    11.338   122.045    0.31E-04    0.76E-04    0.15E-06
   0     10    11.338    73.629    0.30E-04    0.72E-04    0.15E-06
   1      9    11.338    15.255    0.20E-03    0.19E-04    0.17E-06
   1      9    11.338     9.562    0.16E-03    0.15E-04    0.14E-06
 Optimization of the real space projectors (new method)

[...]

   l    n(q)    QCUT    max X(q) W(low)/X(q) W(high)/X(q)  e(spline)
   0      7    11.310   115.676    0.43E-03    0.13E-02    0.19E-06
   0      7    11.310    87.132    0.43E-03    0.13E-02    0.18E-06
   1      6    11.310     4.429    0.42E-03    0.74E-03    0.11E-06
   1      6    11.310     2.733    0.34E-03    0.55E-03    0.92E-07
 Optimization of the real space projectors (new method)

 maximal supplied QI-value         = 24.76
 optimisation between [QCUT,QGAM] = [ 11.39, 22.77] = [ 36.31,145.25] Ry
 Optimized for a Real-space Cutoff    1.00 Angstroem

   l    n(q)    QCUT    max X(q) W(low)/X(q) W(high)/X(q)  e(spline)
   0      7    11.387    20.381    0.39E-03    0.13E-02    0.15E-06
   0      7    11.387    15.268    0.42E-03    0.14E-02    0.17E-06
   1      6    11.387     5.964    0.41E-03    0.11E-02    0.17E-06
   1      6    11.387     5.382    0.39E-03    0.87E-03    0.15E-06
  PAW_PBE Ag 02Apr2005                  :
  PAW_PBE Rh 04Feb2005                  :
  PAW_PBE C 08Apr2002                   :
  PAW_PBE O 08Apr2002                   :

 POSCAR: Ag-Rh-CO
  positions in direct lattice
  velocities in cartesian coordinates
 exchange correlation table for  LEXCH =        8
   RHO(1)=    0.500       N(1)  =     2000
   RHO(2)=  100.500       N(2)  =     4000

 VTST: version 3.2, (02/03/18)

 CHAIN: initializing optimizer

 OPT: Using VASP Conjugate-Gradient optimizer
 CHAIN: Read ICHAIN            0

 POSCAR: Ag-Rh-CO
  positions in direct lattice
  velocities in cartesian coordinates

 ion  position               nearest neighbor table
   1  0.000  0.000  0.238-   2 2.93   8 2.93   7 2.93   6 2.93   4 2.93  12 2.93  16 2.93  10 2.93
                             3 2.93
   2  0.333  0.000  0.238-   1 2.93   8 2.93   9 2.93   3 2.93   4 2.93   5 2.93  10 2.93  17 2.93
                            11 2.93
   3  0.667  0.000  0.238-   9 2.93   2 2.93   5 2.93  11 2.93   7 2.93  18 2.93   1 2.93   6 2.93
                            12 2.93
   4  0.000  0.333  0.238-   5 2.93   6 2.93   2 2.93   1 2.93   7 2.93  13 2.93  15 2.93   9 2.93
                            10 2.93
   5  0.333  0.333  0.238-   4 2.93   3 2.93   7 2.93   2 2.93   8 2.93  14 2.93  13 2.93  11 2.93
                             6 2.93
   6  0.667  0.333  0.238-   4 2.93   9 2.93   1 2.93  15 2.93   8 2.93  12 2.93   3 2.93   5 2.93
                            14 2.93
   7  0.000  0.667  0.238-   8 2.93   1 2.93   5 2.93   3 2.93   4 2.93  16 2.93  18 2.93  13 2.93
                             9 2.93
   8  0.333  0.667  0.238-   7 2.93   1 2.93   2 2.93   9 2.93   5 2.93  16 2.93   6 2.93  17 2.93
                            14 2.93
   9  0.667  0.667  0.238-   3 2.93   2 2.93   8 2.93   6 2.93  17 2.93   4 2.93  15 2.93   7 2.93
                            18 2.93
  10  0.111  0.111  0.346-  20 2.90  19 2.93  26 2.93  12 2.93  16 2.93  15 2.93  17 2.93  13 2.93
                            11 2.93   2 2.93   1 2.93   4 2.93
  11  0.444  0.111  0.346-  21 2.90  20 2.90  27 2.92  14 2.93  17 2.93  18 2.93   3 2.93  12 2.93
                            13 2.93  10 2.93   5 2.93   2 2.93
  12  0.778  0.111  0.346-  21 2.90  25 2.93  19 2.93  10 2.93  16 2.93  18 2.93  15 2.93  11 2.93
                             1 2.93  14 2.93   6 2.93   3 2.93
  13  0.111  0.444  0.346-  20 2.90  23 2.90  22 2.92  15 2.93  14 2.93  18 2.93  10 2.93  11 2.93
                            16 2.93   4 2.93   5 2.93   7 2.93
  14  0.444  0.444  0.346-  23 2.90  21 2.90  24 2.92  13 2.93  11 2.93  16 2.93   5 2.93  12 2.93
                            17 2.93   8 2.93  15 2.93   6 2.93
  15  0.778  0.444  0.346-  24 2.92  22 2.92  19 2.92  13 2.93  10 2.93  12 2.93  17 2.93  18 2.93
                             4 2.93   6 2.93   9 2.93  14 2.93
  16  0.111  0.778  0.346-  23 2.90  26 2.93  25 2.93  18 2.93  12 2.93  10 2.93  14 2.93  17 2.93
                            13 2.93   7 2.93   8 2.93   1 2.93
  17  0.444  0.778  0.346-  27 2.92  24 2.92  26 2.92  11 2.93  10 2.93   9 2.93  18 2.93  15 2.93
                            16 2.93   2 2.93  14 2.93   8 2.93
  18  0.778  0.778  0.346-  22 2.92  27 2.92  25 2.92  16 2.93  12 2.93  13 2.93  11 2.93  17 2.93
                            15 2.93   7 2.93   3 2.93   9 2.93
  19  0.889  0.223  0.454-  28 2.91  15 2.92  10 2.93  12 2.93  24 2.93  22 2.93  32 2.93  31 2.93
                            20 2.93  21 2.93  26 2.94  25 2.94
  20  0.222  0.222  0.452-  36 2.78  13 2.90  11 2.90  10 2.90  31 2.91  29 2.91  21 2.92  23 2.92
                            27 2.93  22 2.93  19 2.93  26 2.93
  21  0.555  0.222  0.452-  36 2.78  11 2.90  14 2.90  12 2.90  30 2.91  32 2.91  20 2.92  23 2.92
                            27 2.93  24 2.93  25 2.93  19 2.93
  22  0.889  0.556  0.453-  35 2.90  18 2.92  15 2.92  13 2.92  33 2.92  31 2.92  25 2.93  19 2.93
                            24 2.93  27 2.93  23 2.93  20 2.93
  23  0.222  0.555  0.452-  36 2.78  14 2.90  13 2.90  16 2.90  34 2.91  33 2.91  21 2.92  20 2.92
                            22 2.93  24 2.93  26 2.93  25 2.93
  24  0.556  0.556  0.453-  35 2.90  15 2.92  17 2.92  14 2.92  32 2.92  34 2.92  19 2.93  26 2.93
                            27 2.93  22 2.93  23 2.93  21 2.93
  25  0.889  0.889  0.454-  28 2.91  18 2.92  16 2.93  12 2.93  22 2.93  27 2.93  33 2.93  30 2.93
                            23 2.93  21 2.93  26 2.94  19 2.94
  26  0.223  0.889  0.454-  28 2.91  17 2.92  16 2.93  10 2.93  27 2.93  24 2.93  34 2.93  29 2.93
                            23 2.93  20 2.93  25 2.94  19 2.94
  27  0.556  0.889  0.453-  35 2.90  17 2.92  18 2.92  11 2.92  29 2.92  30 2.92  26 2.93  25 2.93
                            24 2.93  22 2.93  20 2.93  21 2.93
  28  0.000  0.000  0.560-  26 2.91  25 2.91  19 2.91  29 2.95  34 2.95  33 2.95  32 2.95  31 2.95
                            30 2.95
  29  0.333  0.005  0.560-  31 2.88  30 2.89  36 2.89  20 2.91  27 2.92  26 2.93  28 2.95  35 2.95
                            34 3.02
  30  0.662  0.005  0.560-  32 2.88  29 2.89  36 2.89  21 2.91  27 2.92  25 2.93  28 2.95  35 2.95
                            33 3.02
  31  0.005  0.333  0.560-  29 2.88  33 2.89  36 2.89  20 2.91  22 2.92  19 2.93  28 2.95  35 2.95
                            32 3.02
  32  0.662  0.333  0.560-  30 2.88  34 2.89  36 2.89  21 2.91  24 2.92  19 2.93  28 2.95  35 2.95
                            31 3.02
  33  0.005  0.662  0.560-  34 2.88  31 2.89  36 2.89  23 2.91  22 2.92  25 2.93  28 2.95  35 2.95
                            30 3.02
  34  0.333  0.662  0.560-  33 2.88  32 2.89  36 2.89  23 2.91  24 2.92  26 2.93  28 2.95  35 2.95
                            29 3.02
  35  0.667  0.667  0.560-  24 2.90  27 2.90  22 2.90  30 2.95  32 2.95  29 2.95  34 2.95  31 2.95
                            33 2.95
  36  0.333  0.333  0.552-  37 1.83  21 2.78  20 2.78  23 2.78  31 2.89  30 2.89  33 2.89  29 2.89
                            34 2.89  32 2.89
  37  0.333  0.333  0.634-  38 1.17  36 1.83
  38  0.333  0.333  0.687-  37 1.17

  LATTYP: Found a hexagonal cell.
 ALAT       =     8.7913665772
 C/A-ratio  =     2.5227160501

  Lattice vectors:

 A1 = (  -4.3956832886,  -7.6135467898,   0.0000000000)
 A2 = (   8.7913665771,   0.0000000000,   0.0000000000)
 A3 = (   0.0000000000,   0.0000000000,  22.1781215668)

Analysis of symmetry for initial positions (statically):
 Subroutine PRICEL returns:
 Original cell was already a primitive cell.

 Routine SETGRP: Setting up the symmetry group for a
 hexagonal supercell.

 Subroutine GETGRP returns: Found  6 space group operations
 (whereof  6 operations were pure point group operations)
 out of a pool of 24 trial point group operations.

The static configuration has the point symmetry C_3v.

Analysis of symmetry for dynamics (positions and initial velocities):
 Subroutine PRICEL returns:
 Original cell was already a primitive cell.

[...]

The dynamic configuration has the point symmetry C_3v.

Analysis of constrained symmetry for selective dynamics:
 Subroutine PRICEL returns:
 Original cell was already a primitive cell.

 Routine SETGRP: Setting up the symmetry group for a
 hexagonal supercell.

[...]
     33      -4.4899      2.00000
     34      -4.4621      2.00000
     35      -4.4590      2.00000
     36      -4.4442      2.00000
     37      -4.4172      2.00000
     38      -4.3667      2.00000
     39      -4.3548      2.00000
     40      -4.3202      2.00000
     41      -4.3169      2.00000
     42      -4.2969      2.00000
     43      -4.2649      2.00000
     44      -4.2560      2.00000
     45      -4.2429      2.00000
     46      -4.2319      2.00000
     47      -4.2170      2.00000
     48      -4.1426      2.00000
     49      -4.1130      2.00000
     50      -4.1068      2.00000
     51      -4.0944      2.00000
     52      -4.0908      2.00000
     53      -4.0895      2.00000
     54      -4.0706      2.00000
     55      -4.0679      2.00000
     56      -4.0519      2.00000
     57      -4.0422      2.00000
     58      -3.9759      2.00000
     59      -3.9668      2.00000
     60      -3.9625      2.00000
[...]
    238       6.0299      0.00000
    239       6.2183      0.00000
    240       6.2809      0.00000
    241       6.3533      0.00000
    242       6.4084      0.00000
    243       6.4497      0.00000
    244       7.2707      0.00000
    245       7.3033      0.00000
    246       7.3814      0.00000
    247       7.3919      0.00000
    248       7.4017      0.00000
    249       7.4343      0.00000
    250       7.4614      0.00000
    251       7.6342      0.00000
    252       7.7184      0.00000

 soft charge-density along one line, spin component           1
         0         1         2         3         4         5         6         7         8         9
 total charge-density along one line

------------------------ aborting loop because EDIFF is reached ----------------------------------------

 total charge

# of ion       s       p       d       tot
    1        0.416   0.202   9.179   9.797
    2        0.418   0.203   9.177   9.798
    3        0.418   0.203   9.177   9.798
    4        0.418   0.203   9.177   9.798
    5        0.419   0.204   9.175   9.798
    6        0.418   0.203   9.177   9.798
    7        0.418   0.203   9.177   9.798
    8        0.418   0.203   9.177   9.798
    9        0.414   0.203   9.179   9.796
   10        0.406   0.269   9.165   9.839
   11        0.409   0.268   9.167   9.844
   12        0.406   0.269   9.165   9.839
   13        0.409   0.268   9.167   9.844
   14        0.409   0.268   9.167   9.844
   15        0.400   0.271   9.165   9.836
   16        0.406   0.269   9.165   9.839
   17        0.400   0.271   9.165   9.836
   18        0.400   0.271   9.165   9.836
   19        0.403   0.268   9.166   9.838
   20        0.426   0.287   9.155   9.868
   21        0.426   0.287   9.155   9.868
   22        0.397   0.276   9.165   9.838
   23        0.426   0.287   9.155   9.868
   24        0.397   0.276   9.165   9.838
   25        0.403   0.268   9.166   9.838
   26        0.403   0.268   9.166   9.838
   27        0.397   0.276   9.165   9.838
   28        0.418   0.195   9.183   9.796
   29        0.408   0.209   9.181   9.798
   30        0.408   0.209   9.181   9.798
   31        0.408   0.209   9.181   9.798
   32        0.408   0.209   9.181   9.798
   33        0.408   0.209   9.181   9.798
   34        0.408   0.209   9.181   9.798
   35        0.414   0.197   9.183   9.794
   36        0.467   0.509   7.572   8.548
   37        0.955   1.550   0.000   2.506
   38        1.612   3.530   0.000   5.142
tot         17.400  13.975 328.569 359.945

  FORCE on cell =-STRESS in cart. coord.  units (eV):
  Direction    XX          YY          ZZ          XY          YZ          ZX
  Alpha Z   765.21450   765.21450   765.21450
  Ewald  119746.39679119746.39686************     0.00004     0.00000     0.00005
  Hartree130234.38612130234.38615************     0.00002     0.00000     0.00002
  E(xc)   -2117.37213 -2117.37221 -2121.22579     0.00007    -0.00001    -0.00001
  Local  ************************260918.98776     0.00052    -0.00006    -0.00019
  n-local  -350.88675  -331.94611  -347.02237    11.36544    -0.44664     0.53793
  augment  3287.51920  3287.51943  3288.11313    -0.00021    -0.00003    -0.00004
  Kinetic  5080.71750  5085.76412  5063.36783     5.48628     1.00862    -0.32513
  Fock        0.00000     0.00000     0.00000     0.00000     0.00000     0.00000
  Total      -7.30252    -7.30252    -0.10443    -0.00000     0.00000    -0.00000
  in kB      -7.88161    -7.88161    -0.11272    -0.00000     0.00000    -0.00000

 VOLUME and BASIS-vectors are now :
  energy-cutoff  :      500.00
  volume of cell :     1484.46
      direct lattice vectors                 reciprocal lattice vectors
     8.791366577  0.000000000  0.000000000     0.113747958 -0.065672414  0.000000000
     4.395683289  7.613546790  0.000000000     0.000000000  0.131344829  0.000000000
     0.000000000  0.000000000 22.178121567     0.000000000  0.000000000  0.045089481

  length of vectors
     8.791366577  8.791366577 22.178121567     0.131344829  0.131344829  0.045089481

 FORCES acting on ions
    electron-ion (+dipol)            ewald-force                    non-local-force                 convergence-correction
   0.459E-04 -.283E-04 0.252E+04   -.954E-04 0.593E-04 -.252E+04   0.121E-17 -.193E-17 -.240E+01   -.171E-03 -.165E-03 -.211E+00
   0.382E+00 0.464E+00 0.252E+04   -.440E+00 -.529E+00 -.252E+04   0.528E-01 0.835E-01 -.167E+01   0.145E-01 0.878E-03 -.201E+00
   -.382E+00 0.464E+00 0.252E+04   0.440E+00 -.529E+00 -.252E+04   -.528E-01 0.835E-01 -.167E+01   -.150E-01 0.278E-02 -.200E+00
   0.593E+00 0.987E-01 0.252E+04   -.678E+00 -.116E+00 -.252E+04   0.987E-01 0.394E-02 -.167E+01   0.821E-02 0.124E-01 -.201E+00
   -.620E-05 -.191E-04 0.252E+04   0.981E-04 -.199E-05 -.252E+04   -.103E-17 0.135E-17 -.139E+01   0.625E-02 0.382E-02 -.154E+00
   -.593E+00 0.987E-01 0.252E+04   0.678E+00 -.116E+00 -.252E+04   -.987E-01 0.394E-02 -.167E+01   -.962E-02 0.132E-01 -.200E+00
   0.211E+00 -.563E+00 0.252E+04   -.238E+00 0.645E+00 -.252E+04   0.459E-01 -.874E-01 -.167E+01   -.469E-02 -.139E-01 -.200E+00
   -.211E+00 -.563E+00 0.252E+04   0.238E+00 0.645E+00 -.252E+04   -.459E-01 -.874E-01 -.167E+01   0.628E-02 -.149E-01 -.200E+00
   0.368E-04 -.126E-04 0.252E+04   0.792E-04 -.643E-04 -.252E+04   -.613E-18 -.270E-17 -.213E+01   -.661E-02 -.343E-02 -.212E+00
   0.501E+01 0.290E+01 0.881E+03   -.466E+01 -.269E+01 -.880E+03   -.378E+00 -.218E+00 -.806E+00   0.270E-01 0.158E-01 -.130E-01
   -.289E-04 0.502E+01 0.887E+03   0.414E-04 -.514E+01 -.887E+03   0.687E-12 0.105E+00 -.366E+00   0.661E-02 -.157E-01 0.964E-02
   -.501E+01 0.290E+01 0.881E+03   0.466E+01 -.269E+01 -.880E+03   0.378E+00 -.218E+00 -.806E+00   -.289E-01 0.168E-01 -.122E-01
   0.434E+01 -.251E+01 0.887E+03   -.445E+01 0.257E+01 -.887E+03   0.906E-01 -.523E-01 -.366E+00   -.104E-01 0.136E-01 0.101E-01
   -.434E+01 -.251E+01 0.887E+03   0.445E+01 0.257E+01 -.887E+03   -.906E-01 -.523E-01 -.366E+00   0.212E-01 0.122E-01 0.885E-02
   0.162E-04 0.439E+00 0.881E+03   -.109E-03 -.523E+00 -.880E+03   0.124E-12 0.189E-01 -.793E+00   -.171E-02 0.467E-01 -.295E-01
   -.784E-05 -.579E+01 0.881E+03   0.206E-04 0.538E+01 -.880E+03   0.286E-11 0.436E+00 -.806E+00   -.237E-03 -.333E-01 -.129E-01
   0.380E+00 -.220E+00 0.881E+03   -.453E+00 0.261E+00 -.880E+03   0.164E-01 -.946E-02 -.793E+00   0.398E-01 -.249E-01 -.297E-01
   -.380E+00 -.220E+00 0.881E+03   0.453E+00 0.261E+00 -.880E+03   -.164E-01 -.946E-02 -.793E+00   -.393E-01 -.227E-01 -.282E-01
   0.405E-04 0.281E+01 -.792E+03   -.129E-03 -.279E+01 0.791E+03   -.164E-12 -.250E-01 0.689E+00   -.658E-02 0.992E-02 0.198E-01
   0.173E+02 0.100E+02 -.755E+03   -.163E+02 -.940E+01 0.755E+03   -.114E+01 -.657E+00 -.103E+01   0.327E-01 0.197E-01 0.574E-01
   -.173E+02 0.100E+02 -.755E+03   0.163E+02 -.940E+01 0.755E+03   0.114E+01 -.657E+00 -.103E+01   -.312E-01 0.183E-01 0.568E-01
   0.794E+01 -.458E+01 -.782E+03   -.810E+01 0.468E+01 0.781E+03   0.174E+00 -.100E+00 0.540E+00   0.130E-01 -.581E-02 0.239E-01
   -.570E-04 -.200E+02 -.755E+03   0.444E-04 0.188E+02 0.755E+03   0.863E-11 0.131E+01 -.103E+01   -.542E-02 -.452E-01 0.568E-01
   -.794E+01 -.458E+01 -.782E+03   0.810E+01 0.467E+01 0.781E+03   -.174E+00 -.100E+00 0.540E+00   -.115E-01 -.733E-02 0.245E-01
   -.244E+01 -.141E+01 -.792E+03   0.241E+01 0.139E+01 0.791E+03   0.217E-01 0.125E-01 0.689E+00   -.162E-01 -.875E-02 0.199E-01
   0.244E+01 -.141E+01 -.792E+03   -.241E+01 0.139E+01 0.791E+03   -.217E-01 0.125E-01 0.689E+00   0.538E-02 -.967E-02 0.199E-01
   0.201E-04 0.917E+01 -.782E+03   0.110E-03 -.935E+01 0.781E+03   0.132E-11 0.201E+00 0.540E+00   0.995E-03 0.136E-01 0.239E-01
   0.547E-04 -.372E-04 -.245E+04   -.117E-03 0.786E-04 0.245E+04   -.286E-17 -.463E-17 0.205E+01   -.152E-02 -.730E-03 0.276E+00
   0.291E+02 0.510E+02 -.243E+04   -.289E+02 -.507E+02 0.242E+04   -.359E+00 -.464E+00 0.222E+01   0.391E-01 0.777E-01 0.207E+00
   -.291E+02 0.510E+02 -.243E+04   0.289E+02 -.507E+02 0.242E+04   0.359E+00 -.464E+00 0.222E+01   -.289E-01 0.790E-01 0.206E+00
   0.587E+02 -.266E+00 -.243E+04   -.584E+02 0.364E+00 0.242E+04   -.582E+00 -.790E-01 0.222E+01   0.870E-01 -.468E-02 0.207E+00
   -.587E+02 -.266E+00 -.243E+04   0.584E+02 0.364E+00 0.242E+04   0.582E+00 -.790E-01 0.222E+01   -.776E-01 -.440E-02 0.207E+00
   0.296E+02 -.507E+02 -.243E+04   -.295E+02 0.504E+02 0.242E+04   -.222E+00 0.543E+00 0.222E+01   0.542E-01 -.643E-01 0.206E+00
   -.296E+02 -.507E+02 -.243E+04   0.295E+02 0.504E+02 0.242E+04   0.222E+00 0.543E+00 0.222E+01   -.427E-01 -.651E-01 0.207E+00
   0.208E-04 -.111E-04 -.245E+04   0.107E-03 -.667E-04 0.244E+04   0.305E-18 0.374E-18 0.214E+01   -.746E-02 -.402E-02 0.202E+00
   0.129E-04 -.957E-05 -.174E+04   0.860E-04 0.106E-04 0.175E+04   -.452E-18 -.619E-19 -.577E+01   0.217E-02 0.158E-02 0.205E+00
   0.262E-05 -.799E-04 -.878E+03   0.173E-04 0.228E-06 0.863E+03   -.105E-18 0.103E-19 0.150E+02   0.106E-02 0.657E-03 0.265E-01
   0.236E-03 -.933E-04 -.153E+04   0.918E-05 0.136E-07 0.159E+04   0.164E-18 0.147E-19 -.582E+02   0.366E-02 0.225E-02 -.307E-01
   0.653E-03 -.848E-03 0.525E+02   0.201E-13 0.120E-12 0.296E-11   0.166E-15 -.444E-15 -.528E+02   0.234E-01 0.118E-01 0.348E+00

 POSITION                                       TOTAL-FORCE (eV/Angst)
      0.00000      0.00000      5.28219         0.000000      0.000000      0.026294
      2.93046      0.00000      5.28219         0.010101      0.020376      0.053611
      5.86091      0.00000      5.28219        -0.010101      0.020376      0.053611
      1.46523      2.53785      5.28219         0.022697     -0.001440      0.053611
      4.39568      2.53785      5.28219         0.000000      0.000000      0.034341
      7.32614      2.53785      5.28219        -0.022697     -0.001440      0.053611
      2.93046      5.07570      5.28219         0.012596     -0.018936      0.053611
      5.86091      5.07570      5.28219        -0.012596     -0.018936      0.053611
      8.79137      5.07570      5.28219         0.000000      0.000000      0.044589
      1.46523      0.84595      7.67490         0.002695      0.001556     -0.020486
      4.39568      0.84595      7.67490        -0.000000     -0.035393     -0.083821
      7.32614      0.84595      7.67490        -0.002695      0.001556     -0.020486
      2.93046      3.38380      7.67490        -0.030651      0.017697     -0.083821
      5.86091      3.38380      7.67490         0.030651      0.017697     -0.083821
      8.79137      3.38380      7.67490        -0.000000     -0.018288     -0.011785
      4.39568      5.92165      7.67490        -0.000000     -0.003111     -0.020486
      7.32614      5.92165      7.67490        -0.015838      0.009144     -0.011785
     10.25659      5.92165      7.67490         0.015838      0.009144     -0.011785
      8.79137      1.69615     10.06050         0.000000      0.015129      0.012676
      2.93321      1.69349     10.03240        -0.060217     -0.034766     -0.227172
      5.85816      1.69349     10.03240         0.060217     -0.034766     -0.227172
     10.25564      4.23030     10.05204         0.028645     -0.016538     -0.011380
      4.39568      4.22657     10.03240         0.000000      0.069532     -0.227172
      7.32709      4.23030     10.05204        -0.028645     -0.016538     -0.011380
     11.71814      6.76547     10.06050        -0.013102     -0.007565      0.012676
      5.86459      6.76547     10.06050         0.013102     -0.007565      0.012676
      8.79137      6.76650     10.05204         0.000000      0.033076     -0.011380
      0.00000      0.00000     12.42190         0.000000      0.000000     -0.012902
      2.95118      0.03878     12.42853        -0.048909     -0.107414     -0.041705
      5.84018      0.03878     12.42853         0.048909     -0.107414     -0.041705
      1.50917      2.53641     12.42853        -0.117478      0.011350     -0.041705
      7.28219      2.53641     12.42853         0.117478      0.011350     -0.041705
      2.95367      5.03836     12.42853        -0.068569      0.096064     -0.041705
      5.83769      5.03836     12.42853         0.068569      0.096064     -0.041705
      8.79137      5.07570     12.41313         0.000000      0.000000     -0.007091
      4.39568      2.53785     12.23685         0.000000      0.000000      0.910047
      4.39568      2.53785     14.06910         0.000000      0.000000     -0.027866
      4.39568      2.53785     15.24068         0.000000      0.000000     -0.012946
    total drift:                                0.024100      0.010971      0.109159

  FREE ENERGIE OF THE ION-ELECTRON SYSTEM (eV)
  free  energy   TOTEN  =      -112.23031016 eV

  energy  without entropy=     -112.23031016  energy(sigma->0) =     -112.23031016

 stress matrix after NEB project (eV)
     -7.30252     -0.00000     -0.00000
     -0.00000     -7.30252      0.00000
      0.00000      0.00000     -0.10443
  FORCES: max atom, RMS     0.027866    0.004984
  FORCE total and by dimension    0.030726    0.027866
  Stress total and by dimension   10.327845    7.302516
|           W    W    AA    RRRRR   N    N  II  N    N   GGGG   !!!           |
|           W    W   A  A   R    R  NN   N  II  NN   N  G    G  !!!           |
|           W    W  A    A  R    R  N N  N  II  N N  N  G       !!!           |
|           W WW W  AAAAAA  RRRRR   N  N N  II  N  N N  G  GGG   !            |
|           WW  WW  A    A  R   R   N   NN  II  N   NN  G    G                |
|           W    W  A    A  R    R  N    N  II  N    N   GGGG   !!!           |
|     Tetrahedron method does not include variations of the Fermi             |
|     occupations, so forces and stress will be inaccurate. We suggest        |
|     using a different smearing scheme ISMEAR = 1 or 2 for metals in         |
|     relaxations.                                                            |

 total charge

# of ion       s       p       d       tot
    1        0.416   0.202   9.179   9.797
    2        0.418   0.203   9.177   9.798
    3        0.418   0.203   9.177   9.798
    4        0.418   0.203   9.177   9.798
    5        0.419   0.204   9.175   9.798
    6        0.418   0.203   9.177   9.798
    7        0.418   0.203   9.177   9.798
    8        0.418   0.203   9.177   9.798
    9        0.414   0.203   9.179   9.796
   10        0.406   0.269   9.165   9.839
   11        0.409   0.268   9.167   9.844
   12        0.406   0.269   9.165   9.839
   13        0.409   0.268   9.167   9.844
   14        0.409   0.268   9.167   9.844
   15        0.400   0.271   9.165   9.836
   16        0.406   0.269   9.165   9.839
   17        0.400   0.271   9.165   9.836
   18        0.400   0.271   9.165   9.836
   19        0.403   0.268   9.166   9.838
   20        0.426   0.287   9.155   9.868
   21        0.426   0.287   9.155   9.868
   22        0.397   0.276   9.165   9.838
   23        0.426   0.287   9.155   9.868
   24        0.397   0.276   9.165   9.838
   25        0.403   0.268   9.166   9.838
   26        0.403   0.268   9.166   9.838
   27        0.397   0.276   9.165   9.838
   28        0.418   0.195   9.183   9.796
   29        0.408   0.209   9.181   9.798
   30        0.408   0.209   9.181   9.798
   31        0.408   0.209   9.181   9.798
   32        0.408   0.209   9.181   9.798
   33        0.408   0.209   9.181   9.798
   34        0.408   0.209   9.181   9.798
   35        0.414   0.197   9.183   9.794
   36        0.467   0.509   7.572   8.548
   37        0.955   1.550   0.000   2.506
   38        1.612   3.530   0.000   5.142
tot         17.400  13.975 328.569 359.945

 BZINTS: Fermi energy:    0.870325;  404.000000 electrons
         Band energy:-0.133593E+04;  BLOECHL correction:   -0.062612