 vasp.6.2.0 18Jan21 (build Jun 12 2021 23:27:24) complex

 executed on             LinuxIFC date 2022.05.27  05:17:46

 INCAR:
   ISMEAR = -5
   SIGMA = 0.1
   ISPIN = 1
   EDIFF = 1.d-5
   EDIFFG = -0.01
   NSW = 0
   NELM = 150
   ENCUT = 500
   ISIF = 2
   IBRION = 2
   LREAL = Auto
   ALGO = Fast
   ICHARG = 11
   LORBIT = 10
   LCHARG = .F.
   LWAVE = .F.

 POTCAR:    PAW_PBE Au 04Oct2007
 POTCAR:    PAW_PBE Ta 17Jan2003
 POTCAR:    PAW_PBE O 08Apr2002
 POTCAR:    PAW_PBE H 15Jun2001
|           W    W    AA    RRRRR   N    N  II  N    N   GGGG   !!!           |
|           W    W   A  A   R    R  NN   N  II  NN   N  G    G  !!!           |
|           W    W  A    A  R    R  N N  N  II  N N  N  G       !!!           |
|           W WW W  AAAAAA  RRRRR   N  N N  II  N  N N  G  GGG   !            |
|           WW  WW  A    A  R   R   N   NN  II  N   NN  G    G                |
|           W    W  A    A  R    R  N    N  II  N    N   GGGG   !!!           |
|     For optimal performance we recommend to set                             |
|       NCORE = 2 up to number-of-cores-per-socket                            |
|     This setting can greatly improve the performance of VASP for DFT.       |
|     The default, NCORE=1 might be grossly inefficient on modern             |
|     multi-core architectures or massively parallel machines. Do your        |
|     Unfortunately you need to use the default for GW and RPA                |
|     calculations (for HF NCORE is supported but not extensively tested      |
|     yet).                                                                   |

 POTCAR:    PAW_PBE Au 04Oct2007
   VRHFIN =Au: s1d10

   TITEL  = PAW_PBE Au 04Oct2007
   POMASS =  196.966; ZVAL   =   11.000    mass and valenz
   ENMAX  =  229.943; ENMIN  =  172.457 eV

 POTCAR:    PAW_PBE Ta 17Jan2003
   VRHFIN =Ta:  6s5d

   TITEL  = PAW_PBE Ta 17Jan2003
   POMASS =  180.948; ZVAL   =    5.000    mass and valenz
   ENMAX  =  223.667; ENMIN  =  167.750 eV

 POTCAR:    PAW_PBE O 08Apr2002
   VRHFIN =O: s2p4

   TITEL  = PAW_PBE O 08Apr2002
   POMASS =   16.000; ZVAL   =    6.000    mass and valenz
   ENMAX  =  400.000; ENMIN  =  300.000 eV

 POTCAR:    PAW_PBE H 15Jun2001
   VRHFIN =H: ultrasoft test

   TITEL  = PAW_PBE H 15Jun2001
   POMASS =    1.000; ZVAL   =    1.000    mass and valenz
   ENMAX  =  250.000; ENMIN  =  200.000 eV

 Optimization of the real space projectors (new method)

 maximal supplied QI-value         = 15.12
 optimisation between [QCUT,QGAM] = [ 11.34, 22.83] = [ 36.00,145.93] Ry
 Optimized for a Real-space Cutoff    1.39 Angstroem

   l    n(q)    QCUT    max X(q) W(low)/X(q) W(high)/X(q)  e(spline)
   2      9    11.338    60.898    0.39E-03    0.42E-03    0.21E-06
   2      9    11.338    58.894    0.40E-03    0.42E-03    0.22E-06
   0      9    11.338   109.617    0.13E-03    0.20E-04    0.13E-06
   0      9    11.338    75.026    0.13E-03    0.20E-04    0.13E-06
   1      9    11.338    16.344    0.33E-04    0.24E-03    0.18E-06
   1      9    11.338    10.160    0.26E-04    0.19E-03    0.15E-06
 Optimization of the real space projectors (new method)

[...]

   l    n(q)    QCUT    max X(q) W(low)/X(q) W(high)/X(q)  e(spline)
   0      7    11.387    20.381    0.39E-03    0.13E-02    0.15E-06
   0      7    11.387    15.268    0.42E-03    0.14E-02    0.17E-06
   1      6    11.387     5.964    0.41E-03    0.11E-02    0.17E-06
   1      6    11.387     5.382    0.39E-03    0.87E-03    0.15E-06
 Optimization of the real space projectors (new method)

 maximal supplied QI-value         = 34.20
 optimisation between [QCUT,QGAM] = [ 11.29, 22.57] = [ 35.68,142.71] Ry
 Optimized for a Real-space Cutoff    1.16 Angstroem

   l    n(q)    QCUT    max X(q) W(low)/X(q) W(high)/X(q)  e(spline)
   0      8    11.287    19.460    0.40E-03    0.73E-03    0.16E-06
   0      8    11.287    12.209    0.38E-03    0.70E-03    0.15E-06
   1      7    11.287     4.655    0.22E-03    0.25E-04    0.22E-06
  PAW_PBE Au 04Oct2007                  :
  PAW_PBE Ta 17Jan2003                  :
  PAW_PBE O 08Apr2002                   :
  PAW_PBE H 15Jun2001                   :

 POSCAR: Au-Ta-OH
  positions in direct lattice
  velocities in cartesian coordinates
 exchange correlation table for  LEXCH =        8
   RHO(1)=    0.500       N(1)  =     2000
   RHO(2)=  100.500       N(2)  =     4000

 VTST: version 3.2, (02/03/18)

 CHAIN: initializing optimizer

 OPT: Using VASP Conjugate-Gradient optimizer
 CHAIN: Read ICHAIN            0

 POSCAR: Au-Ta-OH
  positions in direct lattice
  velocities in cartesian coordinates

 ion  position               nearest neighbor table
   1  0.000  0.000  0.238-  16 2.94  12 2.94   6 2.94   8 2.94   7 2.94   3 2.94  10 2.94   4 2.94
                             2 2.94
   2  0.333  0.000  0.238-   9 2.94  11 2.94  17 2.94  10 2.94   8 2.94   4 2.94   5 2.94   1 2.94
                             3 2.94
   3  0.667  0.000  0.238-   7 2.94  18 2.94  12 2.94   1 2.94  11 2.94   5 2.94   6 2.94   9 2.94
                             2 2.94
   4  0.000  0.333  0.238-  10 2.94   6 2.94   5 2.94  13 2.94   2 2.94  15 2.94   9 2.94   1 2.94
                             7 2.94
   5  0.333  0.333  0.238-  13 2.94   7 2.94  11 2.94   4 2.94   2 2.94  14 2.94   3 2.94   8 2.94
                             6 2.94
   6  0.667  0.333  0.238-  15 2.94  14 2.94   1 2.94  12 2.94   4 2.94   9 2.94   8 2.94   3 2.94
                             5 2.94
   7  0.000  0.667  0.238-  18 2.94   3 2.94  16 2.94   5 2.94   1 2.94  13 2.94   8 2.94   4 2.94
                             9 2.94
   8  0.333  0.667  0.238-   9 2.94  17 2.94   1 2.94   2 2.94  14 2.94  16 2.94   6 2.94   7 2.94
                             5 2.94
   9  0.667  0.667  0.238-   2 2.94   8 2.94  17 2.94   6 2.94  15 2.94   4 2.94   3 2.94  18 2.94
                             7 2.94
  10  0.111  0.111  0.346-  20 2.91  11 2.94  17 2.94   2 2.94   4 2.94   1 2.94  12 2.94  16 2.94
                            13 2.94  15 2.94  26 2.96  19 2.96
  11  0.444  0.111  0.346-  20 2.91  21 2.91  13 2.94   2 2.94  10 2.94  17 2.94   5 2.94   3 2.94
                            18 2.94  14 2.94  12 2.94  27 2.94
  12  0.778  0.111  0.346-  21 2.91  16 2.94  18 2.94   1 2.94  14 2.94  15 2.94   3 2.94   6 2.94
                            10 2.94  11 2.94  25 2.96  19 2.96
  13  0.111  0.444  0.346-  23 2.91  20 2.91   5 2.94  18 2.94  11 2.94   7 2.94   4 2.94  16 2.94
                            10 2.94  14 2.94  15 2.94  22 2.94
  14  0.444  0.444  0.346-  21 2.91  23 2.91  15 2.94   6 2.94  12 2.94   8 2.94  17 2.94   5 2.94
                            16 2.94  13 2.94  11 2.94  24 2.94
  15  0.778  0.444  0.346-  24 2.92  22 2.92  14 2.94   6 2.94  17 2.94  12 2.94   9 2.94   4 2.94
                            10 2.94  13 2.94  18 2.94  19 2.95
  16  0.111  0.778  0.346-  23 2.91  18 2.94  12 2.94   7 2.94   1 2.94   8 2.94  13 2.94  10 2.94
                            14 2.94  17 2.94  25 2.96  26 2.96
  17  0.444  0.778  0.346-  27 2.92  24 2.92   9 2.94  15 2.94   2 2.94  10 2.94  11 2.94   8 2.94
                            14 2.94  16 2.94  18 2.94  26 2.95
  18  0.778  0.778  0.346-  22 2.92  27 2.92  16 2.94   7 2.94  13 2.94  12 2.94   3 2.94  11 2.94
                             9 2.94  15 2.94  17 2.94  25 2.95
  19  0.888  0.223  0.455-  24 2.93  22 2.93  21 2.93  20 2.93  28 2.95  15 2.95  26 2.95  25 2.95
                            10 2.96  12 2.96  32 3.06  31 3.06
  20  0.222  0.222  0.453-  36 2.74  10 2.91  11 2.91  13 2.91  26 2.93  19 2.93  23 2.95  21 2.95
                            27 2.95  22 2.95  29 2.99  31 2.99
  21  0.556  0.222  0.453-  36 2.74  12 2.91  14 2.91  11 2.91  25 2.93  19 2.93  20 2.95  23 2.95
                            27 2.95  24 2.95  30 2.99  32 2.99
  22  0.886  0.557  0.454-  24 2.91  27 2.91  18 2.92  15 2.92  25 2.93  19 2.93  13 2.94  23 2.95
                            20 2.95  35 2.96  33 3.03  31 3.03
  23  0.222  0.556  0.453-  36 2.74  16 2.91  13 2.91  14 2.91  25 2.93  26 2.93  20 2.95  21 2.95
                            22 2.95  24 2.95  33 2.99  34 2.99
  24  0.557  0.557  0.454-  27 2.91  22 2.91  15 2.92  17 2.92  26 2.93  19 2.93  14 2.94  21 2.95
                            23 2.95  35 2.96  32 3.03  34 3.03
  25  0.888  0.888  0.455-  22 2.93  27 2.93  23 2.93  21 2.93  28 2.95  18 2.95  19 2.95  26 2.95
                            16 2.96  12 2.96  33 3.06  30 3.06
  26  0.223  0.888  0.455-  27 2.93  24 2.93  20 2.93  23 2.93  28 2.95  17 2.95  19 2.95  25 2.95
                            10 2.96  16 2.96  29 3.06  34 3.06
  27  0.557  0.886  0.454-  24 2.91  22 2.91  17 2.92  18 2.92  26 2.93  25 2.93  11 2.94  20 2.95
                            21 2.95  35 2.96  29 3.03  30 3.03
  28  0.000  0.000  0.563-  25 2.95  19 2.95  26 2.95  34 3.00  32 3.00  33 3.00  30 3.00  31 3.00
                            29 3.00
  29  0.334  0.012  0.567-  30 2.82  31 2.84  36 2.85  35 2.99  20 2.99  28 3.00  27 3.03  26 3.06
                            34 3.16
  30  0.654  0.012  0.567-  29 2.82  32 2.84  36 2.85  35 2.99  21 2.99  28 3.00  27 3.03  25 3.06
                            33 3.16
  31  0.012  0.334  0.567-  33 2.82  29 2.84  36 2.85  35 2.99  20 2.99  28 3.00  22 3.03  19 3.06
                            32 3.16
  32  0.654  0.334  0.567-  34 2.82  30 2.84  36 2.85  35 2.99  21 2.99  28 3.00  24 3.03  19 3.06
                            31 3.16
  33  0.012  0.654  0.567-  31 2.82  34 2.84  36 2.85  35 2.99  23 2.99  28 3.00  22 3.03  25 3.06
                            30 3.16
  34  0.334  0.654  0.567-  32 2.82  33 2.84  36 2.85  35 2.99  23 2.99  28 3.00  24 3.03  26 3.06
                            29 3.16
  35  0.667  0.667  0.563-  24 2.96  27 2.96  22 2.96  29 2.99  34 2.99  32 2.99  31 2.99  30 2.99
                            33 2.99
  36  0.333  0.333  0.550-  37 1.88  20 2.74  23 2.74  21 2.74  33 2.85  31 2.85  29 2.85  30 2.85
                            34 2.85  32 2.85
  37  0.333  0.333  0.634-  38 0.97  36 1.88
  38  0.333  0.333  0.678-  37 0.97

  LATTYP: Found a hexagonal cell.
 ALAT       =     8.8135128021
 C/A-ratio  =     2.5184286595

  Lattice vectors:

 A1 = (  -4.4067569092,  -7.6327256898,   0.0000000000)
 A2 = (   8.8135128021,   0.0000000000,   0.0000000000)
 A3 = (   0.0000000000,   0.0000000000,  22.1962032318)

Analysis of symmetry for initial positions (statically):
 Subroutine PRICEL returns:
 Original cell was already a primitive cell.

 Routine SETGRP: Setting up the symmetry group for a
 hexagonal supercell.

 Subroutine GETGRP returns: Found  6 space group operations
 (whereof  6 operations were pure point group operations)
 out of a pool of 24 trial point group operations.

The static configuration has the point symmetry C_3v.

Analysis of symmetry for dynamics (positions and initial velocities):
 Subroutine PRICEL returns:
 Original cell was already a primitive cell.

[...]

The dynamic configuration has the point symmetry C_3v.

Analysis of constrained symmetry for selective dynamics:
 Subroutine PRICEL returns:
 Original cell was already a primitive cell.

[...]
     33      -4.5708      2.00000
     34      -4.4897      2.00000
     35      -4.4746      2.00000
     36      -4.4504      2.00000
     37      -4.4370      2.00000
     38      -4.4236      2.00000
     39      -4.3216      2.00000
     40      -4.2960      2.00000
     41      -4.2674      2.00000
     42      -4.2368      2.00000
     43      -4.1776      2.00000
     44      -4.1391      2.00000
     45      -4.0993      2.00000
     46      -4.0482      2.00000
     47      -4.0173      2.00000
     48      -3.9623      2.00000
     49      -3.9468      2.00000
     50      -3.9350      2.00000
     51      -3.9026      2.00000
     52      -3.8809      2.00000
     53      -3.8700      2.00000
     54      -3.8490      2.00000
     55      -3.8195      2.00000
     56      -3.7999      2.00000
     57      -3.7680      2.00000
     58      -3.7569      2.00000
     59      -3.7368      2.00000
     60      -3.7137      2.00000
[...]
    238       6.5795      0.00000
    239       6.6495      0.00000
    240       6.6767      0.00000
    241       6.7910      0.00000
    242       6.9252      0.00000
    243       6.9947      0.00000
    244       7.0237      0.00000
    245       7.0790      0.00000
    246       7.1899      0.00000
    247       7.4565      0.00000
    248       7.4646      0.00000
    249       7.5214      0.00000
    250       7.5686      0.00000
    251       7.6717      0.00000
    252       7.7035      0.00000

 soft charge-density along one line, spin component           1
         0         1         2         3         4         5         6         7         8         9
 total charge-density along one line

------------------------ aborting loop because EDIFF is reached ----------------------------------------

 total charge

# of ion       s       p       d       tot
    1        0.549   0.237   8.766   9.553
    2        0.543   0.242   8.764   9.549
    3        0.543   0.242   8.764   9.549
    4        0.543   0.242   8.764   9.549
    5        0.543   0.242   8.762   9.546
    6        0.543   0.242   8.764   9.549
    7        0.543   0.242   8.764   9.549
    8        0.543   0.242   8.764   9.549
    9        0.543   0.241   8.767   9.550
   10        0.524   0.306   8.769   9.599
   11        0.519   0.308   8.779   9.606
   12        0.524   0.306   8.769   9.599
   13        0.519   0.308   8.779   9.606
   14        0.519   0.308   8.779   9.606
   15        0.514   0.308   8.773   9.595
   16        0.524   0.306   8.769   9.599
   17        0.514   0.308   8.773   9.595
   18        0.514   0.308   8.773   9.595
   19        0.520   0.293   8.773   9.585
   20        0.579   0.347   8.723   9.649
   21        0.579   0.347   8.723   9.649
   22        0.509   0.306   8.774   9.589
   23        0.579   0.347   8.723   9.649
   24        0.509   0.306   8.774   9.589
   25        0.520   0.293   8.773   9.585
   26        0.520   0.293   8.773   9.585
   27        0.509   0.306   8.774   9.589
   28        0.546   0.228   8.750   9.524
   29        0.588   0.249   8.738   9.575
   30        0.588   0.249   8.738   9.575
   31        0.588   0.249   8.738   9.575
   32        0.588   0.249   8.738   9.575
   33        0.588   0.249   8.738   9.575
   34        0.588   0.249   8.738   9.575
   35        0.537   0.231   8.753   9.521
   36        0.670   0.808   3.075   4.553
   37        1.557   3.565   0.000   5.122
   38        0.600   0.126   0.000   0.726
tot         21.823  14.228 309.660 345.711

  FORCE on cell =-STRESS in cart. coord.  units (eV):
  Direction    XX          YY          ZZ          XY          YZ          ZX
  Alpha Z  1021.68484  1021.68484  1021.68484
  Ewald  116133.46773116133.46814************    -0.00032    -0.00009    -0.00013
  Hartree124900.04247124900.04247************     0.00001    -0.00002    -0.00004
  E(xc)   -1782.73110 -1782.73112 -1790.39127     0.00001     0.00000     0.00001
  Local  ************************253219.54435     0.00201     0.00002     0.00001
  n-local   -96.86223   -50.18755   -38.86206    22.46265    -1.89705     1.39413
  augment  2371.98389  2371.98535  2389.53002    -0.00126     0.00003     0.00004
  Kinetic  5543.45918  5550.57218  5567.37089     4.30659     0.51465    -0.29647
  Fock        0.00000     0.00000     0.00000     0.00000     0.00000     0.00000
  Total     -19.92716   -19.92716     2.26020    -0.00000     0.00000     0.00000
  in kB     -21.38202   -21.38202     2.42521    -0.00000     0.00000     0.00000

 VOLUME and BASIS-vectors are now :
  energy-cutoff  :      500.00
  volume of cell :     1493.16
      direct lattice vectors                 reciprocal lattice vectors
     8.813512802  0.000000000  0.000000000     0.113462137 -0.065507406  0.000000000
     4.406756909  7.632725690  0.000000000     0.000000000  0.131014796  0.000000000
     0.000000000  0.000000000 22.196203232     0.000000000  0.000000000  0.045052750

  length of vectors
     8.813512802  8.813512802 22.196203232     0.131014796  0.131014796  0.045052750

 FORCES acting on ions
    electron-ion (+dipol)            ewald-force                    non-local-force                 convergence-correction
   -.193E-04 -.160E-04 0.246E+04   0.519E-04 0.433E-04 -.246E+04   0.531E-18 -.450E-17 -.642E+00   -.188E-03 -.121E-03 -.122E+00
   0.592E+00 -.851E-01 0.247E+04   -.565E+00 -.370E-01 -.247E+04   -.186E-01 0.819E-01 -.282E+00   -.882E-02 0.350E-01 -.968E-01
   -.592E+00 -.851E-01 0.247E+04   0.565E+00 -.370E-01 -.247E+04   0.186E-01 0.819E-01 -.282E+00   0.909E-02 0.368E-01 -.963E-01
   0.222E+00 0.555E+00 0.247E+04   -.315E+00 -.471E+00 -.247E+04   0.617E-01 -.571E-01 -.282E+00   0.259E-01 -.252E-01 -.968E-01
   0.914E-05 -.229E-04 0.247E+04   0.951E-04 0.174E-05 -.247E+04   0.581E-17 -.130E-18 -.136E+00   0.419E-02 0.258E-02 -.862E-01
   -.222E+00 0.555E+00 0.247E+04   0.315E+00 -.471E+00 -.247E+04   -.617E-01 -.571E-01 -.282E+00   -.274E-01 -.242E-01 -.961E-01
   -.370E+00 -.470E+00 0.247E+04   0.250E+00 0.508E+00 -.247E+04   0.803E-01 -.249E-01 -.282E+00   0.365E-01 -.106E-01 -.962E-01
   0.370E+00 -.470E+00 0.247E+04   -.251E+00 0.508E+00 -.247E+04   -.803E-01 -.249E-01 -.282E+00   -.347E-01 -.116E-01 -.961E-01
   0.195E-04 -.417E-04 0.247E+04   0.166E-03 -.200E-04 -.247E+04   0.186E-17 0.308E-17 -.414E+00   -.454E-02 -.238E-02 -.514E-01
   0.541E+01 0.313E+01 0.814E+03   -.510E+01 -.295E+01 -.814E+03   -.368E+00 -.212E+00 -.496E+00   0.166E-01 0.974E-02 -.135E+00
   0.140E-04 0.139E+01 0.818E+03   0.148E-03 -.146E+01 -.818E+03   0.578E-09 0.868E-02 -.210E+00   0.374E-02 -.220E-01 -.136E+00
   -.541E+01 0.313E+01 0.814E+03   0.510E+01 -.295E+01 -.814E+03   0.368E+00 -.212E+00 -.496E+00   -.177E-01 0.103E-01 -.136E+00
   0.120E+01 -.695E+00 0.818E+03   -.127E+01 0.730E+00 -.818E+03   0.752E-02 -.434E-02 -.210E+00   -.171E-01 0.146E-01 -.136E+00
   -.120E+01 -.695E+00 0.818E+03   0.127E+01 0.730E+00 -.818E+03   -.752E-02 -.434E-02 -.210E+00   0.241E-01 0.138E-01 -.138E+00
   0.314E-04 0.509E+01 0.819E+03   0.235E-03 -.519E+01 -.818E+03   0.643E-09 0.966E-02 -.406E+00   -.166E-02 0.206E-01 -.126E+00
   -.210E-04 -.625E+01 0.814E+03   0.162E-03 0.589E+01 -.814E+03   0.283E-07 0.424E+00 -.496E+00   -.239E-03 -.205E-01 -.136E+00
   0.441E+01 -.255E+01 0.819E+03   -.449E+01 0.259E+01 -.818E+03   0.836E-02 -.483E-02 -.406E+00   0.173E-01 -.117E-01 -.126E+00
   -.441E+01 -.255E+01 0.819E+03   0.449E+01 0.259E+01 -.818E+03   -.836E-02 -.483E-02 -.406E+00   -.169E-01 -.102E-01 -.125E+00
   -.432E-04 -.101E+01 -.860E+03   0.553E-04 0.902E+00 0.859E+03   -.560E-09 -.841E-02 0.619E+00   0.508E-02 0.557E-01 -.666E-01
   -.618E+01 -.357E+01 -.833E+03   0.726E+01 0.419E+01 0.834E+03   -.119E+01 -.689E+00 -.124E+01   0.310E-01 0.186E-01 -.804E-01
   0.618E+01 -.357E+01 -.833E+03   -.726E+01 0.419E+01 0.834E+03   0.119E+01 -.689E+00 -.124E+01   -.384E-01 0.183E-01 -.806E-01
   -.120E+02 0.694E+01 -.840E+03   0.116E+02 -.672E+01 0.839E+03   0.475E+00 -.274E+00 0.729E+00   -.321E-01 0.175E-01 -.724E-01
   -.956E-05 0.714E+01 -.833E+03   0.138E-03 -.838E+01 0.834E+03   0.917E-07 0.138E+01 -.124E+01   -.378E-02 -.419E-01 -.806E-01
   0.120E+02 0.694E+01 -.840E+03   -.116E+02 -.672E+01 0.839E+03   -.475E+00 -.274E+00 0.729E+00   0.335E-01 0.186E-01 -.729E-01
   0.871E+00 0.503E+00 -.860E+03   -.781E+00 -.451E+00 0.859E+03   0.728E-02 0.420E-02 0.619E+00   -.432E-01 -.257E-01 -.673E-01
   -.871E+00 0.503E+00 -.860E+03   0.781E+00 -.451E+00 0.859E+03   -.728E-02 0.420E-02 0.619E+00   0.438E-01 -.238E-01 -.665E-01
   0.108E-04 -.139E+02 -.840E+03   0.197E-03 0.134E+02 0.839E+03   0.365E-07 0.548E+00 0.729E+00   -.276E-03 -.368E-01 -.724E-01
   -.130E-04 -.122E-04 -.240E+04   0.294E-04 0.329E-04 0.240E+04   -.914E-17 -.375E-17 0.232E+00   0.151E-02 0.653E-03 0.699E-01
   0.264E+02 0.355E+02 -.240E+04   -.253E+02 -.342E+02 0.240E+04   -.129E+01 -.172E+01 -.107E+00   0.525E-01 0.464E-01 0.101E+00
   -.264E+02 0.355E+02 -.240E+04   0.253E+02 -.342E+02 0.240E+04   0.129E+01 -.172E+01 -.107E+00   -.589E-01 0.475E-01 0.101E+00
   0.439E+02 0.509E+01 -.240E+04   -.423E+02 -.483E+01 0.240E+04   -.213E+01 -.259E+00 -.107E+00   0.663E-01 0.224E-01 0.100E+00
   -.439E+02 0.509E+01 -.240E+04   0.423E+02 -.483E+01 0.240E+04   0.213E+01 -.259E+00 -.107E+00   -.731E-01 0.234E-01 0.102E+00
   0.176E+02 -.406E+02 -.240E+04   -.170E+02 0.390E+02 0.240E+04   -.842E+00 0.198E+01 -.107E+00   0.117E-01 -.749E-01 0.101E+00
   -.176E+02 -.406E+02 -.240E+04   0.170E+02 0.390E+02 0.240E+04   0.842E+00 0.198E+01 -.107E+00   -.165E-01 -.751E-01 0.102E+00
   0.341E-04 -.299E-04 -.241E+04   0.140E-03 -.489E-04 0.241E+04   -.418E-17 -.633E-17 0.451E+00   -.302E-02 -.173E-02 0.878E-01
   -.916E-05 0.266E-05 -.921E+03   0.528E-04 0.493E-05 0.923E+03   -.125E-17 0.327E-17 0.211E+00   0.628E-03 0.445E-03 0.644E-01
   0.198E-03 -.935E-04 -.148E+04   0.235E-04 0.154E-05 0.146E+04   -.255E-17 -.113E-17 0.177E+02   0.377E-02 0.233E-02 -.493E-01
   0.798E-05 -.131E-04 -.308E+03   0.125E-05 0.115E-06 0.317E+03   0.355E-19 0.534E-19 -.856E+01   0.205E-03 0.127E-03 -.308E-02
   -.606E-03 -.881E-03 -.136E+01   -.349E-13 0.213E-12 -.244E-11   -.341E-15 -.670E-15 0.350E+01   -.111E-01 -.294E-02 -.192E+01

 POSITION                                       TOTAL-FORCE (eV/Angst)
      0.00000      0.00000      5.28038        -0.000000     -0.000000     -0.146957
      2.93784      0.00000      5.28038         0.000099     -0.004260     -0.057939
      5.87568      0.00000      5.28038        -0.000099     -0.004260     -0.057939
      1.46892      2.54424      5.28038        -0.003639      0.002216     -0.057939
      4.40676      2.54424      5.28038        -0.000000     -0.000000     -0.048060
      7.34459      2.54424      5.28038         0.003639      0.002216     -0.057939
      2.93784      5.08848      5.28038        -0.003739      0.002044     -0.057939
      5.87568      5.08848      5.28038         0.003739      0.002044     -0.057939
      8.81351      5.08848      5.28038        -0.000000     -0.000000     -0.085190
      1.46892      0.84808      7.67911        -0.037953     -0.021912      0.101870
      4.40676      0.84808      7.67911        -0.000000     -0.085707     -0.001165
      7.34459      0.84808      7.67911         0.037953     -0.021912      0.101870
      2.93784      3.39232      7.67911        -0.074225      0.042854     -0.001165
      5.87568      3.39232      7.67911         0.074225      0.042854     -0.001165
      8.81351      3.39232      7.67911        -0.000000     -0.064304      0.144533
      4.40676      5.93656      7.67911         0.000000      0.043824      0.101870
      7.34459      5.93656      7.67911        -0.055689      0.032152      0.144533
     10.28243      5.93656      7.67911         0.055689      0.032152      0.144533
      8.81351      1.70341     10.09804        -0.000000     -0.060008     -0.068694
      2.93277      1.69323     10.04724        -0.083173     -0.048020     -0.140633
      5.88075      1.69323     10.04724         0.083173     -0.048020     -0.140633
     10.26617      4.24979     10.06844         0.056711     -0.032742      0.004826
      4.40676      4.24626     10.04724         0.000000      0.096039     -0.140633
      7.36086      4.24979     10.06844        -0.056711     -0.032742      0.004826
     11.74508      6.78102     10.09804         0.051969      0.030004     -0.068694
      5.88195      6.78102     10.09804        -0.051969      0.030004     -0.068694
      8.81351      6.76586     10.06844         0.000000      0.065484      0.004826
      0.00000      0.00000     12.50054        -0.000000     -0.000000      0.002809
      2.99863      0.09131     12.57640        -0.189809     -0.363302     -0.302172
      5.81488      0.09131     12.57640         0.189809     -0.363302     -0.302172
      1.57839      2.55123     12.57640        -0.409534      0.017271     -0.302172
      7.23512      2.55123     12.57640         0.409534      0.017271     -0.302172
      2.98652      4.99018     12.57640        -0.219724      0.346031     -0.302172
      5.82700      4.99018     12.57640         0.219724      0.346031     -0.302172
      8.81351      5.08848     12.50707        -0.000000     -0.000000      0.076164
      4.40676      2.54424     12.20058        -0.000000     -0.000000      2.245486
      4.40676      2.54424     14.07917        -0.000000     -0.000000      0.003494
      4.40676      2.54424     15.04479        -0.000000     -0.000000     -0.009288
    total drift:                               -0.011713     -0.003817      0.224170

  FREE ENERGIE OF THE ION-ELECTRON SYSTEM (eV)
  free  energy   TOTEN  =      -129.49237422 eV

  energy  without entropy=     -129.49237422  energy(sigma->0) =     -129.49237422

 stress matrix after NEB project (eV)
    -19.92716     -0.00000      0.00000
     -0.00000    -19.92716      0.00000
      0.00000      0.00000      2.26020
  FORCES: max atom, RMS     0.009288    0.001610
  FORCE total and by dimension    0.009923    0.009288
  Stress total and by dimension   28.271756   19.927165
|           W    W    AA    RRRRR   N    N  II  N    N   GGGG   !!!           |
|           W    W   A  A   R    R  NN   N  II  NN   N  G    G  !!!           |
|           W    W  A    A  R    R  N N  N  II  N N  N  G       !!!           |
|           W WW W  AAAAAA  RRRRR   N  N N  II  N  N N  G  GGG   !            |
|           WW  WW  A    A  R   R   N   NN  II  N   NN  G    G                |
|           W    W  A    A  R    R  N    N  II  N    N   GGGG   !!!           |
|     Tetrahedron method does not include variations of the Fermi             |
|     occupations, so forces and stress will be inaccurate. We suggest        |
|     using a different smearing scheme ISMEAR = 1 or 2 for metals in         |
|     relaxations.                                                            |

 total charge

# of ion       s       p       d       tot
    1        0.549   0.237   8.766   9.553
    2        0.543   0.242   8.764   9.549
    3        0.543   0.242   8.764   9.549
    4        0.543   0.242   8.764   9.549
    5        0.543   0.242   8.762   9.546
    6        0.543   0.242   8.764   9.549
    7        0.543   0.242   8.764   9.549
    8        0.543   0.242   8.764   9.549
    9        0.543   0.241   8.767   9.550
   10        0.524   0.306   8.769   9.599
   11        0.519   0.308   8.779   9.606
   12        0.524   0.306   8.769   9.599
   13        0.519   0.308   8.779   9.606
   14        0.519   0.308   8.779   9.606
   15        0.514   0.308   8.773   9.595
   16        0.524   0.306   8.769   9.599
   17        0.514   0.308   8.773   9.595
   18        0.514   0.308   8.773   9.595
   19        0.520   0.293   8.773   9.585
   20        0.579   0.347   8.723   9.649
   21        0.579   0.347   8.723   9.649
   22        0.509   0.306   8.774   9.589
   23        0.579   0.347   8.723   9.649
   24        0.509   0.306   8.774   9.589
   25        0.520   0.293   8.773   9.585
   26        0.520   0.293   8.773   9.585
   27        0.509   0.306   8.774   9.589
   28        0.546   0.228   8.750   9.524
   29        0.588   0.249   8.738   9.575
   30        0.588   0.249   8.738   9.575
   31        0.588   0.249   8.738   9.575
   32        0.588   0.249   8.738   9.575
   33        0.588   0.249   8.738   9.575
   34        0.588   0.249   8.738   9.575
   35        0.537   0.231   8.753   9.521
   36        0.670   0.808   3.075   4.553
   37        1.557   3.565   0.000   5.122
   38        0.600   0.126   0.000   0.726
tot         21.823  14.228 309.660 345.711

 BZINTS: Fermi energy:    0.999959;  397.000000 electrons
         Band energy:-0.115616E+04;  BLOECHL correction:   -0.041104