 vasp.6.2.0 18Jan21 (build Jun 12 2021 23:27:24) complex

 executed on             LinuxIFC date 2022.05.27  06:04:16

 INCAR:
   ISMEAR = -5
   SIGMA = 0.1
   ISPIN = 1
   EDIFF = 1.d-5
   EDIFFG = -0.01
   NSW = 0
   NELM = 150
   ENCUT = 500
   ISIF = 2
   IBRION = 2
   LREAL = Auto
   ALGO = Fast
   ICHARG = 11
   LORBIT = 10
   LCHARG = .F.
   LWAVE = .F.

 POTCAR:    PAW_PBE Cu 22Jun2005
 POTCAR:    PAW_PBE Co 02Aug2007
 POTCAR:    PAW_PBE N 08Apr2002
|           W    W    AA    RRRRR   N    N  II  N    N   GGGG   !!!           |
|           W    W   A  A   R    R  NN   N  II  NN   N  G    G  !!!           |
|           W    W  A    A  R    R  N N  N  II  N N  N  G       !!!           |
|           W WW W  AAAAAA  RRRRR   N  N N  II  N  N N  G  GGG   !            |
|           WW  WW  A    A  R   R   N   NN  II  N   NN  G    G                |
|           W    W  A    A  R    R  N    N  II  N    N   GGGG   !!!           |
|     For optimal performance we recommend to set                             |
|       NCORE = 2 up to number-of-cores-per-socket                            |
|     This setting can greatly improve the performance of VASP for DFT.       |
|     The default, NCORE=1 might be grossly inefficient on modern             |
|     multi-core architectures or massively parallel machines. Do your        |
|     Unfortunately you need to use the default for GW and RPA                |
|     calculations (for HF NCORE is supported but not extensively tested      |
|     yet).                                                                   |

 POTCAR:    PAW_PBE Cu 22Jun2005
   VRHFIN =Cu: d10 p1

   TITEL  = PAW_PBE Cu 22Jun2005
   POMASS =   63.546; ZVAL   =   11.000    mass and valenz
   ENMAX  =  295.446; ENMIN  =  221.585 eV

 POTCAR:    PAW_PBE Co 02Aug2007
   VRHFIN =Co: d8 s1

   TITEL  = PAW_PBE Co 02Aug2007
   POMASS =   58.933; ZVAL   =    9.000    mass and valenz
   ENMAX  =  267.968; ENMIN  =  200.976 eV

 POTCAR:    PAW_PBE N 08Apr2002
   VRHFIN =N: s2p3

   TITEL  = PAW_PBE N 08Apr2002
   POMASS =   14.001; ZVAL   =    5.000    mass and valenz
   ENMAX  =  400.000; ENMIN  =  300.000 eV

 Optimization of the real space projectors (new method)

 maximal supplied QI-value         = 16.25
 optimisation between [QCUT,QGAM] = [ 11.38, 22.75] = [ 36.24,144.96] Ry
 Optimized for a Real-space Cutoff    1.52 Angstroem

   l    n(q)    QCUT    max X(q) W(low)/X(q) W(high)/X(q)  e(spline)
   2      9    11.376     4.610    0.21E-03    0.10E-03    0.26E-06
   2      9    11.376     8.522    0.33E-03    0.16E-03    0.37E-06
   0     10    11.376    51.609    0.62E-04    0.20E-04    0.13E-06
   0     10    11.376    27.747    0.54E-04    0.20E-04    0.13E-06
   1     10    11.376    20.408    0.13E-04    0.99E-04    0.19E-06
   1     10    11.376    13.425    0.12E-04    0.87E-04    0.17E-06
 Optimization of the real space projectors (new method)

[...]

   l    n(q)    QCUT    max X(q) W(low)/X(q) W(high)/X(q)  e(spline)
   2      8    11.376    65.824    0.20E-03    0.32E-04    0.13E-06
   2      8    11.376    61.429    0.20E-03    0.33E-04    0.14E-06
   0      9    11.376    56.174    0.76E-04    0.11E-03    0.19E-06
   0      9    11.376    31.263    0.69E-04    0.99E-04    0.17E-06
   1      9    11.376    19.828    0.35E-03    0.11E-03    0.12E-06
   1      9    11.376    15.139    0.29E-03    0.94E-04    0.10E-06
 Optimization of the real space projectors (new method)

 maximal supplied QI-value         = 25.13
 optimisation between [QCUT,QGAM] = [ 11.31, 22.87] = [ 35.82,146.48] Ry
 Optimized for a Real-space Cutoff    1.27 Angstroem

   l    n(q)    QCUT    max X(q) W(low)/X(q) W(high)/X(q)  e(spline)
   0      9    11.310    79.467    0.75E-04    0.16E-03    0.36E-06
   0      9    11.310    66.151    0.74E-04    0.16E-03    0.36E-06
   1      8    11.310    17.416    0.35E-03    0.12E-03    0.95E-06
   1      8    11.310    12.382    0.37E-03    0.13E-03    0.98E-06
  PAW_PBE Cu 22Jun2005                  :
  PAW_PBE Co 02Aug2007                  :
  PAW_PBE N 08Apr2002                   :

 POSCAR: Cu-Co-N2
  positions in direct lattice
  velocities in cartesian coordinates
 exchange correlation table for  LEXCH =        8
   RHO(1)=    0.500       N(1)  =     2000
   RHO(2)=  100.500       N(2)  =     4000

 VTST: version 3.2, (02/03/18)

 CHAIN: initializing optimizer

 OPT: Using VASP Conjugate-Gradient optimizer
 CHAIN: Read ICHAIN            0

 POSCAR: Cu-Co-N2
  positions in direct lattice
  velocities in cartesian coordinates

 ion  position               nearest neighbor table
   1  0.000  0.000  0.252-   7 2.57   3 2.57   4 2.57   2 2.57   6 2.57   8 2.57  12 2.57  10 2.57
                            16 2.57
   2  0.333  0.000  0.252-   8 2.57   9 2.57   5 2.57   1 2.57   3 2.57  11 2.57   4 2.57  10 2.57
                            17 2.57
   3  0.667  0.000  0.252-   1 2.57   7 2.57   6 2.57   9 2.57   2 2.57  12 2.57   5 2.57  18 2.57
                            11 2.57
   4  0.000  0.333  0.252-   5 2.57   6 2.57   1 2.57   7 2.57   2 2.57  13 2.57   9 2.57  10 2.57
                            15 2.57
   5  0.333  0.333  0.252-   4 2.57   2 2.57   7 2.57  13 2.57   8 2.57   6 2.57   3 2.57  11 2.57
                            14 2.57
   6  0.667  0.333  0.252-   4 2.57   9 2.57  15 2.57   3 2.57   1 2.57   8 2.57  14 2.57   5 2.57
                            12 2.57
   7  0.000  0.667  0.252-   1 2.57   3 2.57  16 2.57  18 2.57   4 2.57   5 2.57   8 2.57   9 2.57
                            13 2.57
   8  0.333  0.667  0.252-   9 2.57   2 2.57  17 2.57   6 2.57   1 2.57   7 2.57   5 2.57  14 2.57
                            16 2.57
   9  0.667  0.667  0.252-   8 2.57   6 2.57   2 2.57  17 2.57   3 2.57   7 2.57   4 2.57  15 2.57
                            18 2.57
  10  0.111  0.111  0.351-  20 2.55  26 2.56  19 2.56  11 2.57  12 2.57  13 2.57   1 2.57   2 2.57
                             4 2.57  15 2.57  16 2.57  17 2.57
  11  0.444  0.111  0.351-  20 2.55  21 2.55  27 2.56  10 2.57  13 2.57   2 2.57  17 2.57  14 2.57
                            12 2.57   5 2.57   3 2.57  18 2.57
  12  0.778  0.111  0.351-  21 2.55  19 2.56  25 2.56  15 2.57  10 2.57  14 2.57  18 2.57   3 2.57
                             1 2.57  16 2.57  11 2.57   6 2.57
  13  0.111  0.444  0.351-  23 2.55  20 2.55  22 2.56  16 2.57  18 2.57  10 2.57  11 2.57  14 2.57
                             5 2.57   4 2.57   7 2.57  15 2.57
  14  0.444  0.444  0.351-  21 2.55  23 2.55  24 2.56  15 2.57  17 2.57  12 2.57  16 2.57  13 2.57
                            11 2.57   6 2.57   8 2.57   5 2.57
  15  0.778  0.444  0.351-  24 2.56  22 2.56  19 2.56  14 2.57  17 2.57  12 2.57   6 2.57  18 2.57
                            10 2.57   9 2.57  13 2.57   4 2.57
  16  0.111  0.778  0.351-  23 2.55  25 2.56  26 2.56  18 2.57  13 2.57   7 2.57  14 2.57  17 2.57
                            12 2.57  10 2.57   8 2.57   1 2.57
  17  0.444  0.778  0.351-  27 2.56  24 2.56  26 2.56  14 2.57  15 2.57   8 2.57   9 2.57  11 2.57
                            16 2.57  18 2.57  10 2.57   2 2.57
  18  0.778  0.778  0.351-  22 2.56  27 2.56  25 2.56  16 2.57  13 2.57   7 2.57  15 2.57  12 2.57
                            17 2.57   9 2.57   3 2.57  11 2.57
  19  0.889  0.223  0.449-  28 2.54  32 2.56  31 2.56  15 2.56  12 2.56  10 2.56  22 2.56  24 2.56
                            21 2.57  20 2.57  25 2.57  26 2.57
  20  0.222  0.222  0.448-  36 2.46  29 2.55  31 2.55  11 2.55  13 2.55  10 2.55  23 2.56  21 2.56
                            26 2.57  19 2.57  27 2.57  22 2.57
  21  0.555  0.222  0.448-  36 2.46  32 2.55  30 2.55  14 2.55  11 2.55  12 2.55  20 2.56  23 2.56
                            19 2.57  25 2.57  24 2.57  27 2.57
  22  0.889  0.556  0.449-  35 2.54  31 2.55  33 2.55  18 2.56  15 2.56  13 2.56  24 2.56  27 2.56
                            19 2.56  25 2.56  23 2.57  20 2.57
  23  0.222  0.555  0.448-  36 2.46  33 2.55  34 2.55  13 2.55  14 2.55  16 2.55  20 2.56  21 2.56
                            25 2.57  26 2.57  22 2.57  24 2.57
  24  0.556  0.556  0.449-  35 2.54  32 2.55  34 2.55  15 2.56  17 2.56  14 2.56  22 2.56  27 2.56
                            19 2.56  26 2.56  21 2.57  23 2.57
  25  0.889  0.889  0.449-  28 2.54  33 2.56  30 2.56  18 2.56  16 2.56  12 2.56  22 2.56  27 2.56
                            21 2.57  23 2.57  19 2.57  26 2.57
  26  0.223  0.889  0.449-  28 2.54  29 2.56  34 2.56  17 2.56  10 2.56  16 2.56  27 2.56  24 2.56
                            20 2.57  23 2.57  25 2.57  19 2.57
  27  0.556  0.889  0.449-  35 2.54  29 2.55  30 2.55  17 2.56  18 2.56  11 2.56  24 2.56  22 2.56
                            26 2.56  25 2.56  20 2.57  21 2.57
  28  0.000  0.000  0.546-  25 2.54  19 2.54  26 2.54  33 2.58  30 2.58  31 2.58  29 2.58  32 2.58
                            34 2.58
  29  0.333  0.003  0.546-  31 2.54  36 2.54  30 2.55  20 2.55  27 2.55  26 2.56  28 2.58  35 2.58
                            34 2.61
  30  0.664  0.003  0.546-  32 2.54  36 2.54  29 2.55  21 2.55  27 2.55  25 2.56  28 2.58  35 2.58
                            33 2.61
  31  0.003  0.333  0.546-  29 2.54  36 2.54  33 2.55  20 2.55  22 2.55  19 2.56  28 2.58  35 2.58
                            32 2.61
  32  0.664  0.333  0.546-  30 2.54  36 2.54  34 2.55  21 2.55  24 2.55  19 2.56  28 2.58  35 2.58
                            31 2.61
  33  0.003  0.664  0.546-  34 2.54  36 2.54  31 2.55  23 2.55  22 2.55  25 2.56  28 2.58  35 2.58
                            30 2.61
  34  0.333  0.664  0.546-  33 2.54  36 2.54  32 2.55  23 2.55  24 2.55  26 2.56  28 2.58  35 2.58
                            29 2.61
  35  0.667  0.667  0.546-  24 2.54  27 2.54  22 2.54  34 2.58  32 2.58  29 2.58  30 2.58  33 2.58
                            31 2.58
  36  0.333  0.333  0.541-  37 2.14  38 2.14  23 2.46  20 2.46  21 2.46  31 2.54  29 2.54  33 2.54
                            34 2.54  32 2.54  30 2.54
  37  0.260  0.330  0.638-  38 1.15  36 2.14
  38  0.410  0.330  0.638-  37 1.15  36 2.14

  LATTYP: Found a hexagonal cell.
 ALAT       =     7.6967864036
 C/A-ratio  =     2.7653617908

  Lattice vectors:

 A1 = (  -3.8483927580,  -6.6656128093,   0.0000000000)
 A2 = (   7.6967864037,   0.0000000000,   0.0000000000)
 A3 = (   0.0000000000,   0.0000000000,  21.2843990326)

Analysis of symmetry for initial positions (statically):
 Subroutine PRICEL returns:
 Original cell was already a primitive cell.

 Routine SETGRP: Setting up the symmetry group for a
 hexagonal supercell.

 Subroutine GETGRP returns: Found  2 space group operations
 (whereof  2 operations were pure point group operations)
 out of a pool of 24 trial point group operations.

The static configuration has the point symmetry C_1h.

Analysis of symmetry for dynamics (positions and initial velocities):
 Subroutine PRICEL returns:
 Original cell was already a primitive cell.

[...]

The dynamic configuration has the point symmetry C_1h.

Analysis of constrained symmetry for selective dynamics:
 Subroutine PRICEL returns:
 Original cell was already a primitive cell.

 Routine SETGRP: Setting up the symmetry group for a
 hexagonal supercell.

[...]
     33      -3.8329      2.00000
     34      -3.8214      2.00000
     35      -3.8137      2.00000
     36      -3.7932      2.00000
     37      -3.7361      2.00000
     38      -3.7331      2.00000
     39      -3.6913      2.00000
     40      -3.6137      2.00000
     41      -3.6116      2.00000
     42      -3.5161      2.00000
     43      -3.5101      2.00000
     44      -3.4311      2.00000
     45      -3.4263      2.00000
     46      -3.4098      2.00000
     47      -3.3860      2.00000
     48      -3.3837      2.00000
     49      -3.3625      2.00000
     50      -3.3492      2.00000
     51      -3.1820      2.00000
     52      -3.1633      2.00000
     53      -3.1586      2.00000
     54      -3.1536      2.00000
     55      -3.0983      2.00000
     56      -3.0944      2.00000
     57      -3.0842      2.00000
     58      -3.0569      2.00000
     59      -3.0522      2.00000
     60      -3.0251      2.00000
[...]
    238       5.9298      0.00000
    239       6.0995      0.00000
    240       6.3355      0.00000
    241       6.3855      0.00000
    242       6.5400      0.00000
    243       6.7384      0.00000
    244       6.8662      0.00000
    245       6.9503      0.00000
    246       7.0797      0.00000
    247       7.1499      0.00000
    248       7.3485      0.00000
    249       7.4469      0.00000
    250       7.4818      0.00000
    251       7.5408      0.00000
    252       7.7800      0.00000

 soft charge-density along one line, spin component           1
         0         1         2         3         4         5         6         7         8         9
 total charge-density along one line

------------------------ aborting loop because EDIFF is reached ----------------------------------------

 total charge

# of ion       s       p       d       tot
    1        0.447   0.285   9.188   9.920
    2        0.449   0.285   9.187   9.922
    3        0.449   0.285   9.187   9.922
    4        0.449   0.285   9.186   9.921
    5        0.447   0.287   9.183   9.917
    6        0.449   0.285   9.186   9.921
    7        0.450   0.285   9.186   9.921
    8        0.450   0.285   9.186   9.921
    9        0.446   0.284   9.190   9.921
   10        0.440   0.373   9.174   9.988
   11        0.444   0.367   9.183   9.994
   12        0.440   0.373   9.174   9.988
   13        0.444   0.366   9.185   9.995
   14        0.444   0.366   9.185   9.995
   15        0.438   0.371   9.179   9.988
   16        0.440   0.372   9.176   9.988
   17        0.437   0.372   9.178   9.987
   18        0.437   0.372   9.178   9.987
   19        0.440   0.370   9.184   9.994
   20        0.452   0.389   9.170  10.011
   21        0.452   0.389   9.170  10.011
   22        0.436   0.377   9.179   9.992
   23        0.450   0.391   9.168  10.009
   24        0.436   0.377   9.179   9.992
   25        0.442   0.369   9.182   9.994
   26        0.442   0.369   9.182   9.994
   27        0.436   0.376   9.180   9.993
   28        0.449   0.284   9.193   9.926
   29        0.453   0.290   9.193   9.935
   30        0.453   0.290   9.193   9.935
   31        0.445   0.292   9.190   9.927
   32        0.445   0.292   9.190   9.927
   33        0.452   0.290   9.192   9.935
   34        0.452   0.290   9.192   9.935
   35        0.444   0.286   9.194   9.925
   36        0.401   0.403   7.389   8.193
   37        1.351   2.451   0.000   3.802
   38        1.351   2.451   0.000   3.802
tot         18.683  16.928 328.814 364.426

  FORCE on cell =-STRESS in cart. coord.  units (eV):
  Direction    XX          YY          ZZ          XY          YZ          ZX
  Alpha Z   894.26829   894.26829   894.26829
  Ewald  174312.48375173991.52252************     0.00043     0.26124     0.00019
  Hartree187488.05924187369.59600************     0.00006     0.61897     0.00008
  E(xc)   -2334.54479 -2335.77143 -2339.47455    -0.00024    -0.00824    -0.00004
  Local  ************************374624.39556     0.02004    -1.19863    -0.00079
  n-local  -791.90750  -780.61085  -799.84527     1.80758     0.06726     0.06314
  augment  3466.31471  3466.51466  3479.13303    -0.01815     0.14496     0.00030
  Kinetic  3387.97658  3404.04973  3423.50345     1.11098     0.23115    -0.21086
  Fock        0.00000     0.00000     0.00000     0.00000     0.00000     0.00000
  Total      -5.46966    -5.38148     1.09266     0.00000     0.11672    -0.00000
  in kB      -8.02527    -7.89589     1.60319     0.00000     0.17125    -0.00000

 VOLUME and BASIS-vectors are now :
  energy-cutoff  :      500.00
  volume of cell :     1091.97
      direct lattice vectors                 reciprocal lattice vectors
     7.696786404  0.000000000  0.000000000     0.129924354 -0.075011849  0.000000000
     3.848392758  6.665612809  0.000000000     0.000000000  0.150023716  0.000000000
     0.000000000  0.000000000 21.284399033     0.000000000  0.000000000  0.046982769

  length of vectors
     7.696786404  7.696786404 21.284399033     0.150023716  0.150023716  0.046982769

 FORCES acting on ions
    electron-ion (+dipol)            ewald-force                    non-local-force                 convergence-correction
   -.406E-04 0.116E-01 0.352E+04   0.578E-04 -.186E-01 -.352E+04   0.177E-10 -.266E-03 -.299E+01   -.280E-03 0.417E-02 -.619E+00
   0.247E+00 0.469E+00 0.352E+04   -.280E+00 -.368E+00 -.352E+04   0.106E-01 -.128E-01 -.193E+01   0.278E-01 -.717E-01 -.530E+00
   -.247E+00 0.469E+00 0.352E+04   0.280E+00 -.368E+00 -.352E+04   -.106E-01 -.128E-01 -.193E+01   -.271E-01 -.693E-01 -.529E+00
   0.408E+00 -.552E-01 0.352E+04   -.442E+00 -.629E-01 -.352E+04   0.624E-01 0.243E-01 -.197E+01   -.121E-01 0.887E-01 -.552E+00
   -.621E-04 -.513E-01 0.352E+04   0.116E-03 0.512E-02 -.352E+04   -.447E-10 0.672E-03 -.178E+01   0.121E-01 0.437E-01 -.310E+00
   -.408E+00 -.551E-01 0.352E+04   0.442E+00 -.631E-01 -.352E+04   -.624E-01 0.243E-01 -.197E+01   0.106E-01 0.899E-01 -.551E+00
   0.273E+00 -.393E+00 0.352E+04   -.162E+00 0.430E+00 -.352E+04   -.157E-01 -.198E-01 -.191E+01   -.757E-01 -.271E-01 -.528E+00
   -.273E+00 -.393E+00 0.352E+04   0.162E+00 0.430E+00 -.352E+04   0.157E-01 -.198E-01 -.191E+01   0.792E-01 -.284E-01 -.528E+00
   -.143E-03 -.359E-01 0.352E+04   0.264E-03 0.136E-01 -.352E+04   -.163E-08 0.244E-01 -.250E+01   -.132E-01 -.362E-02 -.597E+00
   0.369E+01 0.220E+01 0.123E+04   -.322E+01 -.198E+01 -.123E+04   -.448E+00 -.216E+00 -.953E+00   0.102E-02 0.101E-01 -.203E+00
   -.918E-04 0.341E+01 0.124E+04   0.189E-03 -.372E+01 -.124E+04   -.879E-08 0.132E+00 -.619E+00   0.115E-01 0.135E+00 -.107E+00
   -.369E+01 0.220E+01 0.123E+04   0.322E+01 -.198E+01 -.123E+04   0.448E+00 -.216E+00 -.953E+00   -.239E-02 0.111E-01 -.204E+00
   0.283E+01 -.175E+01 0.124E+04   -.311E+01 0.191E+01 -.124E+04   0.116E+00 -.101E+00 -.591E+00   0.138E+00 -.419E-01 -.912E-01
   -.283E+01 -.175E+01 0.124E+04   0.311E+01 0.191E+01 -.124E+04   -.116E+00 -.101E+00 -.591E+00   -.115E+00 -.430E-01 -.934E-01
   -.144E-03 -.498E-01 0.123E+04   0.300E-03 -.165E+00 -.123E+04   -.884E-08 0.133E+00 -.904E+00   -.319E-02 0.692E-01 -.268E+00
   -.913E-04 -.417E+01 0.123E+04   0.185E-03 0.372E+01 -.123E+04   -.318E-07 0.478E+00 -.944E+00   -.760E-03 -.615E-01 -.194E+00
   0.119E+00 -.629E-01 0.123E+04   -.237E+00 0.151E+00 -.123E+04   0.507E-01 -.500E-01 -.770E+00   0.461E-01 -.293E-01 -.291E+00
   -.119E+00 -.629E-01 0.123E+04   0.237E+00 0.151E+00 -.123E+04   -.507E-01 -.500E-01 -.770E+00   -.451E-01 -.271E-01 -.290E+00
   -.590E-04 0.265E+01 -.109E+04   0.658E-04 -.280E+01 0.108E+04   -.730E-08 0.110E+00 0.104E+01   0.113E-01 0.342E-01 0.690E-01
   0.959E+01 0.618E+01 -.106E+04   -.891E+01 -.570E+01 0.106E+04   -.100E+01 -.685E+00 -.110E+01   0.324E+00 0.201E+00 0.354E+00
   -.959E+01 0.618E+01 -.106E+04   0.891E+01 -.570E+01 0.106E+04   0.100E+01 -.685E+00 -.110E+01   -.324E+00 0.200E+00 0.353E+00
   0.432E+01 -.329E+01 -.108E+04   -.479E+01 0.369E+01 0.108E+04   0.333E+00 -.304E+00 0.783E+00   0.198E+00 -.134E+00 -.199E-01
   -.740E-04 -.122E+02 -.106E+04   0.141E-03 0.114E+02 0.106E+04   -.768E-07 0.115E+01 -.993E+00   -.197E-02 -.371E+00 0.390E+00
   -.432E+01 -.329E+01 -.108E+04   0.479E+01 0.369E+01 0.108E+04   -.333E+00 -.304E+00 0.783E+00   -.177E+00 -.133E+00 -.199E-01
   -.216E+01 -.610E+00 -.109E+04   0.213E+01 0.652E+00 0.109E+04   -.161E-02 -.143E-01 0.958E+00   0.468E-01 -.260E-01 0.385E-01
   0.216E+01 -.610E+00 -.109E+04   -.213E+01 0.652E+00 0.109E+04   0.161E-02 -.143E-01 0.958E+00   -.255E-01 -.249E-01 0.390E-01
   -.128E-03 0.517E+01 -.108E+04   0.244E-03 -.591E+01 0.108E+04   -.358E-07 0.538E+00 0.806E+00   0.936E-02 0.239E+00 -.230E-01
   -.269E-04 0.434E+01 -.340E+04   0.297E-04 -.428E+01 0.340E+04   0.575E-08 -.863E-01 0.221E+01   0.102E-03 -.123E-02 0.603E+00
   0.261E+02 0.548E+02 -.337E+04   -.260E+02 -.555E+02 0.337E+04   -.301E+00 0.111E+00 0.296E+01   0.121E+00 0.341E+00 0.401E+00
   -.261E+02 0.548E+02 -.337E+04   0.260E+02 -.555E+02 0.337E+04   0.301E+00 0.111E+00 0.296E+01   -.121E+00 0.343E+00 0.401E+00
   0.628E+02 -.163E+01 -.336E+04   -.637E+02 0.185E+01 0.335E+04   0.364E+00 -.153E+00 0.385E+01   0.369E+00 -.489E-01 0.378E+00
   -.628E+02 -.163E+01 -.336E+04   0.637E+02 0.185E+01 0.335E+04   -.364E+00 -.153E+00 0.385E+01   -.369E+00 -.477E-01 0.379E+00
   0.260E+02 -.523E+02 -.337E+04   -.262E+02 0.527E+02 0.337E+04   -.135E+00 0.896E-01 0.289E+01   0.221E+00 -.282E+00 0.352E+00
   -.260E+02 -.523E+02 -.337E+04   0.262E+02 0.527E+02 0.337E+04   0.135E+00 0.896E-01 0.289E+01   -.218E+00 -.282E+00 0.352E+00
   -.135E-03 -.334E+01 -.340E+04   0.260E-03 0.329E+01 0.340E+04   -.790E-08 0.119E+00 0.243E+01   -.128E-01 -.430E-01 0.610E+00
   -.576E-04 -.253E+01 -.251E+04   0.118E-03 0.259E+01 0.251E+04   -.213E-09 0.320E-02 0.491E+01   0.472E-02 0.694E-02 0.309E-01
   0.222E+03 -.156E+00 -.178E+04   -.264E+03 0.132E+00 0.179E+04   0.414E+02 0.248E-01 -.718E+01   0.990E-01 -.240E-02 -.114E+00
   -.222E+03 -.156E+00 -.178E+04   0.264E+03 0.132E+00 0.179E+04   -.414E+02 0.248E-01 -.718E+01   -.987E-01 -.234E-02 -.115E+00
   -.105E-03 -.645E-02 0.113E+02   0.114E-12 0.462E-12 0.387E-11   0.420E-09 -.631E-02 -.927E+01   0.878E-01 0.141E-01 -.203E+01

 POSITION                                       TOTAL-FORCE (eV/Angst)
      0.00000      0.00000      5.37156         0.000000     -0.003132      0.050954
      2.56560      0.00000      5.37156         0.005353      0.018410      0.090726
      5.13119      0.00000      5.37156        -0.005353      0.018410      0.090726
      1.28280      2.22187      5.37156         0.016836     -0.004586      0.088449
      3.84839      2.22187      5.37156         0.000000     -0.001797      0.057680
      6.41399      2.22187      5.37156        -0.016836     -0.004586      0.088449
      2.56560      4.44374      5.37156         0.017887     -0.009869      0.086887
      5.13119      4.44374      5.37156        -0.017887     -0.009869      0.086887
      7.69679      4.44374      5.37156         0.000000     -0.001579      0.052619
      1.28280      0.74062      7.46636         0.019409      0.017362     -0.059611
      3.84839      0.74062      7.46636         0.000000     -0.041943     -0.121376
      6.41399      0.74062      7.46636        -0.019409      0.017362     -0.059611
      2.56560      2.96249      7.46636        -0.038624      0.017741     -0.117176
      5.13119      2.96249      7.46636         0.038624      0.017741     -0.117176
      7.69679      2.96249      7.46636         0.000000     -0.013052     -0.044473
      3.84839      5.18437      7.46636         0.000000     -0.034261     -0.052396
      6.41399      5.18437      7.46636        -0.021084      0.009421     -0.020667
      8.97958      5.18437      7.46636         0.021084      0.009421     -0.020667
      7.69679      1.48420      9.55496         0.000000     -0.004630      0.050144
      2.56664      1.48185      9.54157         0.003905     -0.005390     -0.100935
      5.13014      1.48185      9.54157        -0.003905     -0.005390     -0.100935
      8.97778      3.70416      9.55304         0.046794     -0.028082      0.016962
      3.84839      3.70191      9.54157         0.000000     -0.038878     -0.082493
      6.41579      3.70416      9.55304        -0.046794     -0.028082      0.016962
     10.25982      5.92351      9.55496         0.001616      0.002511      0.003069
      5.13375      5.92351      9.55496        -0.001616      0.002511      0.003069
      7.69679      5.92291      9.55304        -0.000000      0.040180      0.002847
      0.00000      0.00000     11.62172         0.000000     -0.031512     -0.022135
      2.57582      0.02145     11.62841        -0.106817     -0.241294     -0.188660
      5.12097      0.02145     11.62841         0.106817     -0.241294     -0.188660
      1.30649      2.22000     11.62841        -0.190034      0.021389     -0.105561
      6.39030      2.22000     11.62841         0.190034      0.021389     -0.105561
      2.57906      4.42416     11.62841        -0.127331      0.222826     -0.177115
      5.11773      4.42416     11.62841         0.127331      0.222826     -0.177115
      7.69679      4.44374     11.62071        -0.000000      0.028062     -0.007234
      3.84839      2.22187     11.51210        -0.000000      0.065974      1.114167
      3.27244      2.20011     13.57443        -0.025428     -0.002156     -0.015521
      4.42435      2.20011     13.57443         0.025428     -0.002156     -0.015521
    total drift:                                0.087733      0.001312     -0.027594

  FREE ENERGIE OF THE ION-ELECTRON SYSTEM (eV)
  free  energy   TOTEN  =      -144.70949902 eV

  energy  without entropy=     -144.70949902  energy(sigma->0) =     -144.70949902

 stress matrix after NEB project (eV)
     -5.46966      0.00000     -0.00000
      0.00000     -5.38148      0.11672
     -0.00000      0.11672      1.09266
  FORCES: max atom, RMS     0.029868    0.006852
  FORCE total and by dimension    0.042240    0.025428
  Stress total and by dimension    7.752327    5.469656
|           W    W    AA    RRRRR   N    N  II  N    N   GGGG   !!!           |
|           W    W   A  A   R    R  NN   N  II  NN   N  G    G  !!!           |
|           W    W  A    A  R    R  N N  N  II  N N  N  G       !!!           |
|           W WW W  AAAAAA  RRRRR   N  N N  II  N  N N  G  GGG   !            |
|           WW  WW  A    A  R   R   N   NN  II  N   NN  G    G                |
|           W    W  A    A  R    R  N    N  II  N    N   GGGG   !!!           |
|     Tetrahedron method does not include variations of the Fermi             |
|     occupations, so forces and stress will be inaccurate. We suggest        |
|     using a different smearing scheme ISMEAR = 1 or 2 for metals in         |
|     relaxations.                                                            |

 total charge

# of ion       s       p       d       tot
    1        0.447   0.285   9.188   9.920
    2        0.449   0.285   9.187   9.922
    3        0.449   0.285   9.187   9.922
    4        0.449   0.285   9.186   9.921
    5        0.447   0.287   9.183   9.917
    6        0.449   0.285   9.186   9.921
    7        0.450   0.285   9.186   9.921
    8        0.450   0.285   9.186   9.921
    9        0.446   0.284   9.190   9.921
   10        0.440   0.373   9.174   9.988
   11        0.444   0.367   9.183   9.994
   12        0.440   0.373   9.174   9.988
   13        0.444   0.366   9.185   9.995
   14        0.444   0.366   9.185   9.995
   15        0.438   0.371   9.179   9.988
   16        0.440   0.372   9.176   9.988
   17        0.437   0.372   9.178   9.987
   18        0.437   0.372   9.178   9.987
   19        0.440   0.370   9.184   9.994
   20        0.452   0.389   9.170  10.011
   21        0.452   0.389   9.170  10.011
   22        0.436   0.377   9.179   9.992
   23        0.450   0.391   9.168  10.009
   24        0.436   0.377   9.179   9.992
   25        0.442   0.369   9.182   9.994
   26        0.442   0.369   9.182   9.994
   27        0.436   0.376   9.180   9.993
   28        0.449   0.284   9.193   9.926
   29        0.453   0.290   9.193   9.935
   30        0.453   0.290   9.193   9.935
   31        0.445   0.292   9.190   9.927
   32        0.445   0.292   9.190   9.927
   33        0.452   0.290   9.192   9.935
   34        0.452   0.290   9.192   9.935
   35        0.444   0.286   9.194   9.925
   36        0.401   0.403   7.389   8.193
   37        1.351   2.451   0.000   3.802
   38        1.351   2.451   0.000   3.802
tot         18.683  16.928 328.814 364.426

 BZINTS: Fermi energy:    0.246821;  404.000000 electrons
         Band energy:-0.109022E+04;  BLOECHL correction:   -0.050088