 vasp.6.2.0 18Jan21 (build Jun 12 2021 23:27:24) complex

 executed on             LinuxIFC date 2022.05.30  18:02:39

 INCAR:
   ISMEAR = -5
   SIGMA = 0.1
   ISPIN = 1
   EDIFF = 1.d-5
   EDIFFG = -0.01
   NSW = 0
   NELM = 150
   ENCUT = 500
   ISIF = 2
   IBRION = 2
   LREAL = Auto
   ALGO = Fast
   ICHARG = 11
   LORBIT = 10
   LCHARG = .F.
   LWAVE = .F.

 POTCAR:    PAW_PBE Cu 22Jun2005
 POTCAR:    PAW_PBE Fe 06Sep2000
 POTCAR:    PAW_PBE O 08Apr2002
|           W    W    AA    RRRRR   N    N  II  N    N   GGGG   !!!           |
|           W    W   A  A   R    R  NN   N  II  NN   N  G    G  !!!           |
|           W    W  A    A  R    R  N N  N  II  N N  N  G       !!!           |
|           W WW W  AAAAAA  RRRRR   N  N N  II  N  N N  G  GGG   !            |
|           WW  WW  A    A  R   R   N   NN  II  N   NN  G    G                |
|           W    W  A    A  R    R  N    N  II  N    N   GGGG   !!!           |
|     For optimal performance we recommend to set                             |
|       NCORE = 2 up to number-of-cores-per-socket                            |
|     This setting can greatly improve the performance of VASP for DFT.       |
|     The default, NCORE=1 might be grossly inefficient on modern             |
|     multi-core architectures or massively parallel machines. Do your        |
|     Unfortunately you need to use the default for GW and RPA                |
|     calculations (for HF NCORE is supported but not extensively tested      |
|     yet).                                                                   |

 POTCAR:    PAW_PBE Cu 22Jun2005
   VRHFIN =Cu: d10 p1

   TITEL  = PAW_PBE Cu 22Jun2005
   POMASS =   63.546; ZVAL   =   11.000    mass and valenz
   ENMAX  =  295.446; ENMIN  =  221.585 eV

 POTCAR:    PAW_PBE Fe 06Sep2000
   VRHFIN =Fe:  d7 s1

   TITEL  = PAW_PBE Fe 06Sep2000
   POMASS =   55.847; ZVAL   =    8.000    mass and valenz
   ENMAX  =  267.882; ENMIN  =  200.911 eV

 POTCAR:    PAW_PBE O 08Apr2002
   VRHFIN =O: s2p4

   TITEL  = PAW_PBE O 08Apr2002
   POMASS =   16.000; ZVAL   =    6.000    mass and valenz
   ENMAX  =  400.000; ENMIN  =  300.000 eV

 Optimization of the real space projectors (new method)

 maximal supplied QI-value         = 16.25
 optimisation between [QCUT,QGAM] = [ 11.38, 22.75] = [ 36.24,144.96] Ry
 Optimized for a Real-space Cutoff    1.52 Angstroem

   l    n(q)    QCUT    max X(q) W(low)/X(q) W(high)/X(q)  e(spline)
   2      9    11.376     4.610    0.21E-03    0.10E-03    0.26E-06
   2      9    11.376     8.522    0.33E-03    0.16E-03    0.37E-06
   0     10    11.376    51.609    0.62E-04    0.20E-04    0.13E-06
   0     10    11.376    27.747    0.54E-04    0.20E-04    0.13E-06
   1     10    11.376    20.408    0.13E-04    0.99E-04    0.19E-06
   1     10    11.376    13.425    0.12E-04    0.87E-04    0.17E-06
 Optimization of the real space projectors (new method)

[...]

   l    n(q)    QCUT    max X(q) W(low)/X(q) W(high)/X(q)  e(spline)
   2      8    11.376    80.901    0.45E-03    0.44E-04    0.21E-06
   2      8    11.376    75.754    0.45E-03    0.45E-04    0.22E-06
   0      9    11.376    58.752    0.65E-04    0.95E-04    0.17E-06
   0      9    11.376    30.679    0.59E-04    0.87E-04    0.16E-06
   1      9    11.376    17.977    0.38E-03    0.10E-03    0.14E-06
   1      9    11.376    13.559    0.31E-03    0.90E-04    0.12E-06
 Optimization of the real space projectors (new method)

 maximal supplied QI-value         = 24.76
 optimisation between [QCUT,QGAM] = [ 11.39, 22.77] = [ 36.31,145.25] Ry
 Optimized for a Real-space Cutoff    1.00 Angstroem

   l    n(q)    QCUT    max X(q) W(low)/X(q) W(high)/X(q)  e(spline)
   0      7    11.387    20.381    0.39E-03    0.13E-02    0.15E-06
   0      7    11.387    15.268    0.42E-03    0.14E-02    0.17E-06
   1      6    11.387     5.964    0.41E-03    0.11E-02    0.17E-06
   1      6    11.387     5.382    0.39E-03    0.87E-03    0.15E-06
  PAW_PBE Cu 22Jun2005                  :
  PAW_PBE Fe 06Sep2000                  :
  PAW_PBE O 08Apr2002                   :

 POSCAR: Cu-Fe-O2
  positions in direct lattice
  velocities in cartesian coordinates
 exchange correlation table for  LEXCH =        8
   RHO(1)=    0.500       N(1)  =     2000
   RHO(2)=  100.500       N(2)  =     4000

 VTST: version 3.2, (02/03/18)

 CHAIN: initializing optimizer

 OPT: Using VASP Conjugate-Gradient optimizer
 CHAIN: Read ICHAIN            0

 POSCAR: Cu-Fe-O2
  positions in direct lattice
  velocities in cartesian coordinates

 ion  position               nearest neighbor table
   1  0.000  0.000  0.226-   7 2.57   3 2.57   4 2.57   2 2.57   6 2.57   8 2.57  12 2.57  10 2.57
                            16 2.57
   2  0.333  0.000  0.226-   8 2.57   9 2.57   5 2.57   1 2.57   3 2.57  11 2.57   4 2.57  10 2.57
                            17 2.57
   3  0.667  0.000  0.226-   1 2.57   7 2.57   6 2.57   9 2.57   2 2.57  12 2.57   5 2.57  18 2.57
                            11 2.57
   4  0.000  0.333  0.226-   5 2.57   6 2.57   1 2.57   7 2.57   2 2.57  13 2.57   9 2.57  10 2.57
                            15 2.57
   5  0.333  0.333  0.226-   4 2.57   2 2.57   7 2.57  13 2.57   8 2.57   6 2.57   3 2.57  11 2.57
                            14 2.57
   6  0.667  0.333  0.226-   4 2.57   9 2.57  15 2.57   3 2.57   1 2.57   8 2.57  14 2.57   5 2.57
                            12 2.57
   7  0.000  0.667  0.226-   1 2.57   3 2.57  16 2.57  18 2.57   4 2.57   5 2.57   8 2.57   9 2.57
                            13 2.57
   8  0.333  0.667  0.226-   9 2.57   2 2.57  17 2.57   6 2.57   1 2.57   7 2.57   5 2.57  14 2.57
                            16 2.57
   9  0.667  0.667  0.226-   8 2.57   6 2.57   2 2.57  17 2.57   3 2.57   7 2.57   4 2.57  15 2.57
                            18 2.57
  10  0.111  0.111  0.314-  20 2.55  26 2.56  19 2.56  11 2.57  12 2.57  13 2.57   1 2.57   2 2.57
                             4 2.57  15 2.57  16 2.57  17 2.57
  11  0.444  0.111  0.314-  20 2.55  21 2.55  27 2.56  10 2.57  13 2.57   2 2.57  17 2.57  14 2.57
                            12 2.57   5 2.57   3 2.57  18 2.57
  12  0.778  0.111  0.314-  21 2.55  19 2.56  25 2.56  15 2.57  10 2.57  14 2.57  18 2.57   3 2.57
                             1 2.57  16 2.57  11 2.57   6 2.57
  13  0.111  0.444  0.314-  23 2.55  20 2.55  22 2.56  16 2.57  18 2.57  10 2.57  11 2.57  14 2.57
                             5 2.57   4 2.57   7 2.57  15 2.57
  14  0.444  0.444  0.314-  21 2.55  23 2.55  24 2.56  15 2.57  17 2.57  12 2.57  16 2.57  13 2.57
                            11 2.57   6 2.57   8 2.57   5 2.57
  15  0.778  0.444  0.314-  19 2.56  24 2.56  22 2.56  14 2.57  17 2.57  12 2.57   6 2.57  18 2.57
                            10 2.57   9 2.57  13 2.57   4 2.57
  16  0.111  0.778  0.314-  23 2.55  25 2.56  26 2.56  18 2.57  13 2.57   7 2.57  14 2.57  17 2.57
                            12 2.57  10 2.57   8 2.57   1 2.57
  17  0.444  0.778  0.314-  26 2.56  27 2.56  24 2.56  14 2.57  15 2.57   8 2.57   9 2.57  11 2.57
                            16 2.57  18 2.57  10 2.57   2 2.57
  18  0.778  0.778  0.314-  25 2.56  22 2.56  27 2.56  16 2.57  13 2.57   7 2.57  15 2.57  12 2.57
                            17 2.57   9 2.57   3 2.57  11 2.57
  19  0.889  0.223  0.402-  28 2.55  15 2.56  12 2.56  10 2.56  22 2.56  24 2.56  32 2.57  31 2.57
                            21 2.57  20 2.57  25 2.57  26 2.57
  20  0.222  0.222  0.401-  36 2.47  11 2.55  13 2.55  10 2.55  29 2.55  31 2.55  23 2.56  21 2.56
                            26 2.57  19 2.57  27 2.57  22 2.57
  21  0.555  0.222  0.401-  36 2.47  14 2.55  11 2.55  12 2.55  32 2.55  30 2.55  20 2.56  23 2.56
                            19 2.57  25 2.57  24 2.57  27 2.57
  22  0.888  0.556  0.402-  35 2.54  31 2.56  33 2.56  18 2.56  15 2.56  24 2.56  27 2.56  13 2.56
                            19 2.56  25 2.56  23 2.57  20 2.57
  23  0.222  0.555  0.401-  36 2.47  13 2.55  14 2.55  16 2.55  33 2.55  34 2.55  20 2.56  21 2.56
                            25 2.57  26 2.57  22 2.57  24 2.57
  24  0.556  0.556  0.402-  35 2.54  32 2.56  34 2.56  15 2.56  17 2.56  22 2.56  27 2.56  14 2.56
                            19 2.56  26 2.56  21 2.57  23 2.57
  25  0.889  0.889  0.402-  28 2.55  18 2.56  16 2.56  12 2.56  22 2.56  27 2.56  33 2.57  30 2.57
                            21 2.57  23 2.57  19 2.57  26 2.57
  26  0.223  0.889  0.402-  28 2.55  17 2.56  10 2.56  16 2.56  27 2.56  24 2.56  29 2.57  34 2.57
                            20 2.57  23 2.57  25 2.57  19 2.57
  27  0.556  0.888  0.402-  35 2.54  29 2.56  30 2.56  17 2.56  18 2.56  24 2.56  22 2.56  11 2.56
                            26 2.56  25 2.56  20 2.57  21 2.57
  28  0.000  0.000  0.489-  25 2.55  19 2.55  26 2.55  33 2.58  30 2.58  31 2.58  29 2.58  32 2.58
                            34 2.58
  29  0.333  0.003  0.489-  31 2.54  30 2.54  36 2.54  20 2.55  27 2.56  26 2.57  28 2.58  35 2.58
                            34 2.61
  30  0.664  0.003  0.489-  32 2.54  29 2.54  36 2.54  21 2.55  27 2.56  25 2.57  28 2.58  35 2.58
                            33 2.61
  31  0.003  0.333  0.489-  29 2.54  33 2.54  36 2.54  20 2.55  22 2.56  19 2.57  28 2.58  35 2.58
                            32 2.61
  32  0.664  0.333  0.489-  30 2.54  34 2.54  36 2.54  21 2.55  24 2.56  19 2.57  28 2.58  35 2.58
                            31 2.61
  33  0.003  0.664  0.489-  34 2.54  31 2.54  36 2.54  23 2.55  22 2.56  25 2.57  28 2.58  35 2.58
                            30 2.61
  34  0.333  0.664  0.489-  33 2.54  32 2.54  36 2.54  23 2.55  24 2.56  26 2.57  28 2.58  35 2.58
                            29 2.61
  35  0.667  0.667  0.489-  24 2.54  27 2.54  22 2.54  34 2.58  32 2.58  29 2.58  30 2.58  33 2.58
                            31 2.58
  36  0.333  0.333  0.484-  37 1.88  38 1.88  23 2.47  20 2.47  21 2.47  31 2.54  29 2.54  33 2.54
                            34 2.54  32 2.54  30 2.54
  37  0.241  0.329  0.557-  38 1.44  36 1.88
  38  0.429  0.329  0.557-  37 1.44  36 1.88

  LATTYP: Found a hexagonal cell.
 ALAT       =     7.6967864036
 C/A-ratio  =     3.0908716217

  Lattice vectors:

 A1 = (  -3.8483927580,  -6.6656128093,   0.0000000000)
 A2 = (   7.6967864037,   0.0000000000,   0.0000000000)
 A3 = (   0.0000000000,   0.0000000000,  23.7897786731)

Analysis of symmetry for initial positions (statically):
 Subroutine PRICEL returns:
 Original cell was already a primitive cell.

 Routine SETGRP: Setting up the symmetry group for a
 hexagonal supercell.

 Subroutine GETGRP returns: Found  2 space group operations
 (whereof  2 operations were pure point group operations)
 out of a pool of 24 trial point group operations.

The static configuration has the point symmetry C_1h.

Analysis of symmetry for dynamics (positions and initial velocities):
 Subroutine PRICEL returns:
 Original cell was already a primitive cell.

[...]

The dynamic configuration has the point symmetry C_1h.

Analysis of constrained symmetry for selective dynamics:
 Subroutine PRICEL returns:
 Original cell was already a primitive cell.

 Routine SETGRP: Setting up the symmetry group for a
 hexagonal supercell.

[...]
     33      -4.6140      2.00000
     34      -4.6025      2.00000
     35      -4.5871      2.00000
     36      -4.5657      2.00000
     37      -4.5306      2.00000
     38      -4.5125      2.00000
     39      -4.4410      2.00000
     40      -4.4137      2.00000
     41      -4.3835      2.00000
     42      -4.2944      2.00000
     43      -4.2842      2.00000
     44      -4.2106      2.00000
     45      -4.2060      2.00000
     46      -4.1886      2.00000
     47      -4.1735      2.00000
     48      -4.1643      2.00000
     49      -4.1605      2.00000
     50      -4.1343      2.00000
     51      -3.9824      2.00000
     52      -3.9578      2.00000
     53      -3.9375      2.00000
     54      -3.9337      2.00000
     55      -3.9283      2.00000
     56      -3.8748      2.00000
     57      -3.8700      2.00000
     58      -3.8613      2.00000
     59      -3.8351      2.00000
     60      -3.8266      2.00000
[...]
    238       5.2726      0.00000
    239       5.3763      0.00000
    240       5.6320      0.00000
    241       5.6918      0.00000
    242       5.8486      0.00000
    243       5.9631      0.00000
    244       6.0077      0.00000
    245       6.0511      0.00000
    246       6.1085      0.00000
    247       6.3244      0.00000
    248       6.3380      0.00000
    249       6.5342      0.00000
    250       6.7046      0.00000
    251       6.7212      0.00000
    252       6.7887      0.00000

 soft charge-density along one line, spin component           1
         0         1         2         3         4         5         6         7         8         9
 total charge-density along one line

------------------------ aborting loop because EDIFF is reached ----------------------------------------

 total charge

# of ion       s       p       d       tot
    1        0.449   0.284   9.189   9.922
    2        0.449   0.285   9.188   9.922
    3        0.449   0.285   9.188   9.922
    4        0.449   0.285   9.186   9.921
    5        0.448   0.287   9.183   9.918
    6        0.449   0.285   9.186   9.921
    7        0.449   0.285   9.186   9.920
    8        0.449   0.285   9.186   9.920
    9        0.447   0.284   9.189   9.920
   10        0.442   0.371   9.177   9.991
   11        0.442   0.368   9.184   9.994
   12        0.442   0.371   9.177   9.991
   13        0.443   0.367   9.184   9.994
   14        0.443   0.367   9.184   9.994
   15        0.439   0.370   9.179   9.988
   16        0.441   0.372   9.179   9.991
   17        0.438   0.370   9.180   9.988
   18        0.438   0.370   9.180   9.988
   19        0.439   0.368   9.185   9.991
   20        0.459   0.391   9.168  10.017
   21        0.459   0.391   9.168  10.017
   22        0.435   0.375   9.181   9.991
   23        0.454   0.397   9.163  10.014
   24        0.435   0.375   9.181   9.991
   25        0.439   0.370   9.181   9.990
   26        0.439   0.370   9.181   9.990
   27        0.436   0.372   9.183   9.991
   28        0.450   0.281   9.193   9.924
   29        0.442   0.288   9.191   9.921
   30        0.442   0.288   9.191   9.921
   31        0.437   0.293   9.194   9.924
   32        0.437   0.293   9.194   9.924
   33        0.441   0.288   9.193   9.922
   34        0.441   0.288   9.193   9.922
   35        0.446   0.283   9.191   9.920
   36        0.442   0.543   6.375   7.360
   37        1.607   3.241   0.000   4.849
   38        1.607   3.241   0.000   4.849
tot         19.193  18.625 327.815 365.633

  FORCE on cell =-STRESS in cart. coord.  units (eV):
  Direction    XX          YY          ZZ          XY          YZ          ZX
  Alpha Z   816.18903   816.18903   816.18903
  Ewald  226832.40476226439.77670************     0.00043     0.71487     0.00020
  Hartree239672.17369239473.96694************     0.00006     1.63814     0.00008
  E(xc)   -2344.74448 -2345.64102 -2349.46000    -0.00030    -0.02688    -0.00004
  Local  ************************479361.19664     0.02033    -2.68820    -0.00080
  n-local  -826.08054  -834.60619  -843.67252     1.90072    -0.02576     0.04641
  augment  3354.71431  3361.19562  3371.89790    -0.01822     0.19710     0.00044
  Kinetic  3439.44279  3489.43730  3485.39086     1.00220     0.30565    -0.06036
  Fock        0.00000     0.00000     0.00000     0.00000     0.00000     0.00000
  Total      -4.32455    -6.16391    -0.15064     0.00000     0.11492    -0.00000
  in kB      -5.67690    -8.09146    -0.19774     0.00000     0.15085    -0.00000

 VOLUME and BASIS-vectors are now :
  energy-cutoff  :      500.00
  volume of cell :     1220.51
      direct lattice vectors                 reciprocal lattice vectors
     7.696786404  0.000000000  0.000000000     0.129924354 -0.075011849  0.000000000
     3.848392758  6.665612809  0.000000000     0.000000000  0.150023716  0.000000000
     0.000000000  0.000000000 23.789778673     0.000000000  0.000000000  0.042034859

  length of vectors
     7.696786404  7.696786404 23.789778673     0.150023716  0.150023716  0.042034859

 FORCES acting on ions
    electron-ion (+dipol)            ewald-force                    non-local-force                 convergence-correction
   -.413E-04 0.228E-01 0.378E+04   0.578E-04 -.454E-01 -.377E+04   -.175E-08 0.263E-01 -.284E+01   -.325E-03 -.687E-02 -.292E+00
   0.214E+00 0.327E+00 0.378E+04   -.230E+00 -.350E+00 -.378E+04   0.171E-02 0.662E-01 -.187E+01   0.185E-01 -.249E-01 -.227E+00
   -.214E+00 0.327E+00 0.378E+04   0.230E+00 -.350E+00 -.378E+04   -.171E-02 0.662E-01 -.187E+01   -.176E-01 -.225E-01 -.226E+00
   0.210E+00 -.918E-01 0.378E+04   -.380E+00 -.369E-01 -.378E+04   0.131E+00 0.121E-02 -.193E+01   0.449E-01 0.118E+00 -.254E+00
   -.638E-04 -.229E-01 0.378E+04   0.116E-03 0.998E-02 -.378E+04   0.643E-09 -.966E-02 -.171E+01   0.121E-01 0.302E-01 -.180E+00
   -.210E+00 -.917E-01 0.378E+04   0.379E+00 -.370E-01 -.378E+04   -.131E+00 0.121E-02 -.193E+01   -.464E-01 0.119E+00 -.253E+00
   0.345E+00 -.233E+00 0.378E+04   -.149E+00 0.387E+00 -.378E+04   -.449E-01 -.830E-01 -.192E+01   -.123E+00 -.811E-01 -.255E+00
   -.345E+00 -.233E+00 0.378E+04   0.148E+00 0.387E+00 -.378E+04   0.449E-01 -.830E-01 -.192E+01   0.127E+00 -.825E-01 -.255E+00
   -.144E-03 -.348E-01 0.378E+04   0.264E-03 0.356E-01 -.377E+04   -.213E-08 0.319E-01 -.235E+01   -.131E-01 -.324E-01 -.228E+00
   0.319E+01 0.205E+01 0.133E+04   -.275E+01 -.190E+01 -.133E+04   -.492E+00 -.199E+00 -.983E+00   0.520E-01 0.506E-01 0.389E+00
   -.831E-04 0.347E+01 0.133E+04   0.189E-03 -.369E+01 -.133E+04   -.120E-07 0.180E+00 -.411E+00   0.118E-01 -.110E-02 0.434E+00
   -.319E+01 0.205E+01 0.133E+04   0.275E+01 -.190E+01 -.133E+04   0.492E+00 -.199E+00 -.983E+00   -.535E-01 0.512E-01 0.388E+00
   0.279E+01 -.193E+01 0.133E+04   -.290E+01 0.196E+01 -.134E+04   0.164E+00 -.742E-01 -.416E+00   -.723E-01 0.550E-01 0.429E+00
   -.279E+01 -.193E+01 0.133E+04   0.290E+01 0.196E+01 -.134E+04   -.164E+00 -.742E-01 -.416E+00   0.954E-01 0.533E-01 0.426E+00
   -.142E-03 -.199E+00 0.133E+04   0.300E-03 0.335E-01 -.133E+04   -.453E-08 0.680E-01 -.995E+00   -.296E-02 0.870E-01 0.266E+00
   -.889E-04 -.366E+01 0.133E+04   0.185E-03 0.320E+01 -.133E+04   -.353E-07 0.530E+00 -.111E+01   -.116E-02 -.779E-01 0.401E+00
   0.658E-01 0.404E-01 0.133E+04   -.194E+00 0.167E+00 -.133E+04   0.595E-01 -.101E+00 -.779E+00   0.671E-01 -.915E-01 0.326E+00
   -.657E-01 0.404E-01 0.133E+04   0.194E+00 0.167E+00 -.133E+04   -.595E-01 -.101E+00 -.779E+00   -.654E-01 -.892E-01 0.328E+00
   -.589E-04 0.297E+01 -.114E+04   0.658E-04 -.320E+01 0.114E+04   -.125E-07 0.188E+00 0.110E+01   0.135E-02 0.308E-01 0.573E+00
   0.561E+01 0.508E+01 -.112E+04   -.477E+01 -.441E+01 0.112E+04   -.114E+01 -.783E+00 -.121E+01   0.237E+00 0.788E-01 0.903E+00
   -.561E+01 0.508E+01 -.112E+04   0.477E+01 -.441E+01 0.112E+04   0.114E+01 -.783E+00 -.121E+01   -.258E+00 0.766E-01 0.903E+00
   0.291E+01 -.395E+01 -.114E+04   -.327E+01 0.420E+01 0.114E+04   0.291E+00 -.269E+00 0.802E+00   0.151E+00 -.333E-01 0.541E+00
   -.612E-04 -.954E+01 -.112E+04   0.141E-03 0.840E+01 0.112E+04   -.911E-07 0.137E+01 -.910E+00   -.137E-01 -.258E+00 0.974E+00
   -.291E+01 -.395E+01 -.114E+04   0.327E+01 0.420E+01 0.114E+04   -.291E+00 -.269E+00 0.802E+00   -.127E+00 -.340E-01 0.540E+00
   -.182E+01 0.324E+00 -.114E+04   0.195E+01 -.200E+00 0.114E+04   -.674E-01 -.704E-01 0.102E+01   -.712E-01 -.449E-01 0.602E+00
   0.182E+01 0.324E+00 -.114E+04   -.195E+01 -.200E+00 0.114E+04   0.674E-01 -.704E-01 0.102E+01   0.703E-01 -.424E-01 0.603E+00
   -.125E-03 0.379E+01 -.114E+04   0.243E-03 -.448E+01 0.114E+04   -.376E-07 0.564E+00 0.956E+00   0.115E-01 0.176E+00 0.597E+00
   -.290E-04 0.944E+01 -.362E+04   0.278E-04 -.952E+01 0.362E+04   -.261E-08 0.392E-01 0.225E+01   0.149E-02 -.566E-02 0.456E+00
   0.303E+02 0.742E+02 -.358E+04   -.307E+02 -.760E+02 0.357E+04   0.103E-02 0.131E+01 0.358E+01   0.124E+00 0.214E+00 0.441E+00
   -.303E+02 0.742E+02 -.358E+04   0.307E+02 -.760E+02 0.357E+04   -.103E-02 0.131E+01 0.358E+01   -.146E+00 0.215E+00 0.441E+00
   0.909E+02 -.192E+01 -.355E+04   -.934E+02 0.217E+01 0.355E+04   0.151E+01 -.216E+00 0.425E+01   0.436E+00 -.267E-01 0.448E+00
   -.909E+02 -.192E+01 -.355E+04   0.934E+02 0.217E+01 0.355E+04   -.151E+01 -.216E+00 0.425E+01   -.458E+00 -.259E-01 0.449E+00
   0.281E+02 -.701E+02 -.358E+04   -.285E+02 0.718E+02 0.358E+04   0.188E+00 -.105E+01 0.348E+01   0.109E+00 -.280E+00 0.367E+00
   -.281E+02 -.701E+02 -.358E+04   0.285E+02 0.718E+02 0.358E+04   -.188E+00 -.105E+01 0.348E+01   -.128E+00 -.280E+00 0.369E+00
   -.141E-03 -.795E+01 -.362E+04   0.262E-03 0.778E+01 0.362E+04   -.820E-08 0.123E+00 0.241E+01   -.108E-01 0.775E-01 0.468E+00
   -.571E-04 -.526E+01 -.227E+04   0.105E-03 0.519E+01 0.227E+04   -.116E-07 0.174E+00 0.341E+01   0.440E-02 0.400E-01 0.909E-01
   0.199E+03 -.443E+00 -.242E+04   -.231E+03 0.345E+00 0.244E+04   0.314E+02 0.775E-01 -.182E+02   -.263E-01 0.191E-01 -.166E+00
   -.199E+03 -.443E+00 -.242E+04   0.231E+03 0.345E+00 0.244E+04   -.314E+02 0.775E-01 -.182E+02   0.270E-01 0.191E-01 -.167E+00
   0.110E-03 -.412E+00 0.179E+02   -.284E-13 0.102E-12 -.177E-10   -.326E-07 0.490E+00 -.285E+02   -.333E-01 -.279E-01 0.107E+02

 POSITION                                       TOTAL-FORCE (eV/Angst)
      0.00000      0.00000      5.37156         0.000000     -0.004405      0.009083
      2.56560      0.00000      5.37156         0.004251      0.017584      0.072746
      5.13119      0.00000      5.37156        -0.004251      0.017584      0.072746
      1.28280      2.22187      5.37156         0.006712     -0.010056      0.072074
      3.84839      2.22187      5.37156        -0.000000      0.006321      0.054029
      6.41399      2.22187      5.37156        -0.006712     -0.010056      0.072074
      2.56560      4.44374      5.37156         0.026504     -0.011939      0.071663
      5.13119      4.44374      5.37156        -0.026504     -0.011939      0.071663
      7.69679      4.44374      5.37156         0.000000     -0.000928      0.025914
      1.28280      0.74062      7.46636         0.004898      0.003220     -0.063865
      3.84839      0.74062      7.46636         0.000000     -0.047816     -0.106654
      6.41399      0.74062      7.46636        -0.004898      0.003220     -0.063865
      2.56560      2.96249      7.46636        -0.028684      0.011217     -0.097616
      5.13119      2.96249      7.46636         0.028684      0.011217     -0.097616
      7.69679      2.96249      7.46636         0.000000     -0.011727     -0.039338
      3.84839      5.18437      7.46636         0.000000     -0.005979     -0.051997
      6.41399      5.18437      7.46636        -0.002653      0.014606     -0.022459
      8.97958      5.18437      7.46636         0.002653      0.014606     -0.022459
      7.69679      1.48386      9.55425         0.000000     -0.011094      0.069193
      2.56752      1.48236      9.54187        -0.051303     -0.033430     -0.141097
      5.12927      1.48236      9.54187         0.051303     -0.033430     -0.141097
      8.97669      3.70479      9.55452         0.068996     -0.054376      0.028797
      3.84839      3.70090      9.54187         0.000000     -0.030183     -0.064519
      6.41688      3.70479      9.55452        -0.068996     -0.054376      0.028797
     10.26012      5.92368      9.55425        -0.004146      0.009391      0.050318
      5.13345      5.92368      9.55425         0.004146      0.009391      0.050318
      7.69679      5.92165      9.55452        -0.000000      0.055914      0.030711
      0.00000      0.00000     11.62539         0.000000     -0.047257     -0.010786
      2.57645      0.02208     11.63568        -0.188501     -0.287887     -0.136732
      5.12034      0.02208     11.63568         0.188501     -0.287887     -0.136732
      1.30734      2.22023     11.63568        -0.500005      0.010340     -0.253009
      6.38944      2.22023     11.63568         0.500005      0.010340     -0.253009
      2.57929      4.42331     11.63568        -0.174031      0.295153     -0.127083
      5.11749      4.42331     11.63568         0.174030      0.295153     -0.127083
      7.69679      4.44374     11.62587        -0.000000      0.033024      0.021972
      3.84839      2.22187     11.51524        -0.000000      0.141500      1.169367
      3.12601      2.19509     13.24887         0.022182     -0.002509     -0.007225
      4.57077      2.19509     13.24887        -0.022182     -0.002509     -0.007225
    total drift:                               -0.033196      0.049312     -0.015119

  FREE ENERGIE OF THE ION-ELECTRON SYSTEM (eV)
  free  energy   TOTEN  =      -140.08921023 eV

  energy  without entropy=     -140.08921023  energy(sigma->0) =     -140.08921023

 stress matrix after NEB project (eV)
     -4.32455      0.00000     -0.00000
      0.00000     -6.16391      0.11492
     -0.00000      0.11492     -0.15064
  FORCES: max atom, RMS     0.023463    0.005383
  FORCE total and by dimension    0.033182    0.022182
  Stress total and by dimension    7.532898    6.163906
|           W    W    AA    RRRRR   N    N  II  N    N   GGGG   !!!           |
|           W    W   A  A   R    R  NN   N  II  NN   N  G    G  !!!           |
|           W    W  A    A  R    R  N N  N  II  N N  N  G       !!!           |
|           W WW W  AAAAAA  RRRRR   N  N N  II  N  N N  G  GGG   !            |
|           WW  WW  A    A  R   R   N   NN  II  N   NN  G    G                |
|           W    W  A    A  R    R  N    N  II  N    N   GGGG   !!!           |
|     Tetrahedron method does not include variations of the Fermi             |
|     occupations, so forces and stress will be inaccurate. We suggest        |
|     using a different smearing scheme ISMEAR = 1 or 2 for metals in         |
|     relaxations.                                                            |

 total charge

# of ion       s       p       d       tot
    1        0.449   0.284   9.189   9.922
    2        0.449   0.285   9.188   9.922
    3        0.449   0.285   9.188   9.922
    4        0.449   0.285   9.186   9.921
    5        0.448   0.287   9.183   9.918
    6        0.449   0.285   9.186   9.921
    7        0.449   0.285   9.186   9.920
    8        0.449   0.285   9.186   9.920
    9        0.447   0.284   9.189   9.920
   10        0.442   0.371   9.177   9.991
   11        0.442   0.368   9.184   9.994
   12        0.442   0.371   9.177   9.991
   13        0.443   0.367   9.184   9.994
   14        0.443   0.367   9.184   9.994
   15        0.439   0.370   9.179   9.988
   16        0.441   0.372   9.179   9.991
   17        0.438   0.370   9.180   9.988
   18        0.438   0.370   9.180   9.988
   19        0.439   0.368   9.185   9.991
   20        0.459   0.391   9.168  10.017
   21        0.459   0.391   9.168  10.017
   22        0.435   0.375   9.181   9.991
   23        0.454   0.397   9.163  10.014
   24        0.435   0.375   9.181   9.991
   25        0.439   0.370   9.181   9.990
   26        0.439   0.370   9.181   9.990
   27        0.436   0.372   9.183   9.991
   28        0.450   0.281   9.193   9.924
   29        0.442   0.288   9.191   9.921
   30        0.442   0.288   9.191   9.921
   31        0.437   0.293   9.194   9.924
   32        0.437   0.293   9.194   9.924
   33        0.441   0.288   9.193   9.922
   34        0.441   0.288   9.193   9.922
   35        0.446   0.283   9.191   9.920
   36        0.442   0.543   6.375   7.360
   37        1.607   3.241   0.000   4.849
   38        1.607   3.241   0.000   4.849
tot         19.193  18.625 327.815 365.633

 BZINTS: Fermi energy:   -0.501806;  405.000000 electrons
         Band energy:-0.141748E+04;  BLOECHL correction:   -0.035438