 vasp.6.2.0 18Jan21 (build Jun 12 2021 23:27:24) complex

 executed on             LinuxIFC date 2022.05.28  01:21:48

 INCAR:
   ISMEAR = -5
   SIGMA = 0.1
   ISPIN = 1
   EDIFF = 1.d-5
   EDIFFG = -0.01
   NSW = 0
   NELM = 150
   ENCUT = 500
   ISIF = 2
   IBRION = 2
   LREAL = Auto
   ALGO = Fast
   ICHARG = 11
   LORBIT = 10
   LCHARG = .F.
   LWAVE = .F.

 POTCAR:    PAW_PBE Ag 02Apr2005
 POTCAR:    PAW_PBE Ti 08Apr2002
 POTCAR:    PAW_PBE C 08Apr2002
 POTCAR:    PAW_PBE O 08Apr2002
|           W    W    AA    RRRRR   N    N  II  N    N   GGGG   !!!           |
|           W    W   A  A   R    R  NN   N  II  NN   N  G    G  !!!           |
|           W    W  A    A  R    R  N N  N  II  N N  N  G       !!!           |
|           W WW W  AAAAAA  RRRRR   N  N N  II  N  N N  G  GGG   !            |
|           WW  WW  A    A  R   R   N   NN  II  N   NN  G    G                |
|           W    W  A    A  R    R  N    N  II  N    N   GGGG   !!!           |
|     For optimal performance we recommend to set                             |
|       NCORE = 2 up to number-of-cores-per-socket                            |
|     This setting can greatly improve the performance of VASP for DFT.       |
|     The default, NCORE=1 might be grossly inefficient on modern             |
|     multi-core architectures or massively parallel machines. Do your        |
|     Unfortunately you need to use the default for GW and RPA                |
|     calculations (for HF NCORE is supported but not extensively tested      |
|     yet).                                                                   |

 POTCAR:    PAW_PBE Ag 02Apr2005
   VRHFIN =Ag : s1 d10

   TITEL  = PAW_PBE Ag 02Apr2005
   POMASS =  107.868; ZVAL   =   11.000    mass and valenz
   ENMAX  =  249.844; ENMIN  =  187.383 eV

 POTCAR:    PAW_PBE Ti 08Apr2002
   VRHFIN =Ti: d3 s1

[...]

 POTCAR:    PAW_PBE C 08Apr2002
   VRHFIN =C: s2p2

[...]

 POTCAR:    PAW_PBE O 08Apr2002
   VRHFIN =O: s2p4

   TITEL  = PAW_PBE O 08Apr2002
   POMASS =   16.000; ZVAL   =    6.000    mass and valenz
   ENMAX  =  400.000; ENMIN  =  300.000 eV

 Optimization of the real space projectors (new method)

 maximal supplied QI-value         = 15.12
 optimisation between [QCUT,QGAM] = [ 11.34, 22.83] = [ 36.00,145.93] Ry
 Optimized for a Real-space Cutoff    1.43 Angstroem

   l    n(q)    QCUT    max X(q) W(low)/X(q) W(high)/X(q)  e(spline)
   2      9    11.338    53.897    0.16E-03    0.20E-03    0.28E-06
   2      9    11.338    52.416    0.16E-03    0.20E-03    0.29E-06
   0     10    11.338   122.045    0.31E-04    0.76E-04    0.15E-06
   0     10    11.338    73.629    0.30E-04    0.72E-04    0.15E-06
   1      9    11.338    15.255    0.20E-03    0.19E-04    0.17E-06
   1      9    11.338     9.562    0.16E-03    0.15E-04    0.14E-06
 Optimization of the real space projectors (new method)

[...]

   l    n(q)    QCUT    max X(q) W(low)/X(q) W(high)/X(q)  e(spline)
   0      7    11.310   115.676    0.43E-03    0.13E-02    0.19E-06
   0      7    11.310    87.132    0.43E-03    0.13E-02    0.18E-06
   1      6    11.310     4.429    0.42E-03    0.74E-03    0.11E-06
   1      6    11.310     2.733    0.34E-03    0.55E-03    0.92E-07
 Optimization of the real space projectors (new method)

 maximal supplied QI-value         = 24.76
 optimisation between [QCUT,QGAM] = [ 11.39, 22.77] = [ 36.31,145.25] Ry
 Optimized for a Real-space Cutoff    1.00 Angstroem

   l    n(q)    QCUT    max X(q) W(low)/X(q) W(high)/X(q)  e(spline)
   0      7    11.387    20.381    0.39E-03    0.13E-02    0.15E-06
   0      7    11.387    15.268    0.42E-03    0.14E-02    0.17E-06
   1      6    11.387     5.964    0.41E-03    0.11E-02    0.17E-06
   1      6    11.387     5.382    0.39E-03    0.87E-03    0.15E-06
  PAW_PBE Ag 02Apr2005                  :
  PAW_PBE Ti 08Apr2002                  :
  PAW_PBE C 08Apr2002                   :
  PAW_PBE O 08Apr2002                   :

 POSCAR: Ag-Ti-CO2
  positions in direct lattice
  velocities in cartesian coordinates
 exchange correlation table for  LEXCH =        8
   RHO(1)=    0.500       N(1)  =     2000
   RHO(2)=  100.500       N(2)  =     4000

 VTST: version 3.2, (02/03/18)

 CHAIN: initializing optimizer

 OPT: Using VASP Conjugate-Gradient optimizer
 CHAIN: Read ICHAIN            0

 POSCAR: Ag-Ti-CO2
  positions in direct lattice
  velocities in cartesian coordinates

 ion  position               nearest neighbor table
   1  0.000  0.000  0.217-   2 2.93   8 2.93   7 2.93   6 2.93   4 2.93  12 2.93  16 2.93  10 2.93
                             3 2.93
   2  0.333  0.000  0.217-   1 2.93   8 2.93   9 2.93   3 2.93   4 2.93   5 2.93  10 2.93  17 2.93
                            11 2.93
   3  0.667  0.000  0.217-   9 2.93   2 2.93   5 2.93  11 2.93   7 2.93  18 2.93   1 2.93   6 2.93
                            12 2.93
   4  0.000  0.333  0.217-   5 2.93   6 2.93   2 2.93   1 2.93   7 2.93  13 2.93  15 2.93   9 2.93
                            10 2.93
   5  0.333  0.333  0.217-   4 2.93   3 2.93   7 2.93   2 2.93   8 2.93  14 2.93  13 2.93  11 2.93
                             6 2.93
   6  0.667  0.333  0.217-   4 2.93   9 2.93   1 2.93  15 2.93   8 2.93  12 2.93   3 2.93   5 2.93
                            14 2.93
   7  0.000  0.667  0.217-   8 2.93   1 2.93   5 2.93   3 2.93   4 2.93  16 2.93  18 2.93  13 2.93
                             9 2.93
   8  0.333  0.667  0.217-   7 2.93   1 2.93   2 2.93   9 2.93   5 2.93  16 2.93   6 2.93  17 2.93
                            14 2.93
   9  0.667  0.667  0.217-   3 2.93   2 2.93   8 2.93   6 2.93  17 2.93   4 2.93  15 2.93   7 2.93
                            18 2.93
  10  0.111  0.111  0.315-  20 2.91  19 2.92  26 2.92  12 2.93  16 2.93  15 2.93  17 2.93  13 2.93
                            11 2.93   2 2.93   1 2.93   4 2.93
  11  0.444  0.111  0.315-  21 2.91  20 2.91  27 2.92  14 2.93  17 2.93  18 2.93   3 2.93  12 2.93
                            13 2.93  10 2.93   5 2.93   2 2.93
  12  0.778  0.111  0.315-  21 2.91  25 2.92  19 2.92  10 2.93  16 2.93  18 2.93  15 2.93  11 2.93
                             1 2.93  14 2.93   6 2.93   3 2.93
  13  0.111  0.444  0.315-  20 2.91  23 2.91  22 2.92  15 2.93  14 2.93  18 2.93  10 2.93  11 2.93
                            16 2.93   4 2.93   5 2.93   7 2.93
  14  0.444  0.444  0.315-  23 2.91  21 2.91  24 2.92  13 2.93  11 2.93  16 2.93   5 2.93  12 2.93
                            17 2.93   8 2.93  15 2.93   6 2.93
  15  0.778  0.444  0.315-  19 2.92  24 2.92  22 2.92  13 2.93  10 2.93  12 2.93  17 2.93  18 2.93
                             4 2.93   6 2.93   9 2.93  14 2.93
  16  0.111  0.778  0.315-  23 2.91  26 2.92  25 2.92  18 2.93  12 2.93  10 2.93  14 2.93  17 2.93
                            13 2.93   7 2.93   8 2.93   1 2.93
  17  0.444  0.778  0.315-  26 2.92  27 2.92  24 2.92  11 2.93  10 2.93   9 2.93  18 2.93  15 2.93
                            16 2.93   2 2.93  14 2.93   8 2.93
  18  0.778  0.778  0.315-  25 2.92  22 2.92  27 2.92  16 2.93  12 2.93  13 2.93  11 2.93  17 2.93
                            15 2.93   7 2.93   3 2.93   9 2.93
  19  0.889  0.222  0.413-  10 2.92  12 2.92  15 2.92  28 2.92  26 2.93  25 2.93  24 2.93  22 2.93
                            20 2.94  21 2.94  32 2.96  31 2.96
  20  0.223  0.223  0.412-  36 2.82  13 2.91  11 2.91  10 2.91  21 2.92  23 2.92  27 2.93  22 2.93
                            19 2.94  26 2.94  31 2.94  29 2.94
  21  0.555  0.223  0.412-  36 2.82  11 2.91  14 2.91  12 2.91  20 2.92  23 2.92  27 2.93  24 2.93
                            25 2.94  19 2.94  30 2.94  32 2.94
  22  0.889  0.556  0.413-  18 2.92  15 2.92  13 2.92  24 2.93  27 2.93  25 2.93  19 2.93  35 2.93
                            23 2.93  20 2.93  33 2.94  31 2.94
  23  0.223  0.555  0.412-  36 2.82  14 2.91  13 2.91  16 2.91  21 2.92  20 2.92  22 2.93  24 2.93
                            26 2.94  25 2.94  34 2.94  33 2.94
  24  0.556  0.556  0.413-  15 2.92  17 2.92  14 2.92  27 2.93  22 2.93  19 2.93  26 2.93  35 2.93
                            23 2.93  21 2.93  32 2.94  34 2.94
  25  0.889  0.889  0.413-  16 2.92  12 2.92  18 2.92  28 2.92  26 2.93  19 2.93  22 2.93  27 2.93
                            23 2.94  21 2.94  33 2.96  30 2.96
  26  0.222  0.889  0.413-  16 2.92  10 2.92  17 2.92  28 2.92  25 2.93  19 2.93  27 2.93  24 2.93
                            23 2.94  20 2.94  34 2.96  29 2.96
  27  0.556  0.889  0.413-  17 2.92  18 2.92  11 2.92  24 2.93  22 2.93  26 2.93  25 2.93  35 2.93
                            20 2.93  21 2.93  29 2.94  30 2.94
  28  0.000  0.000  0.511-  26 2.92  25 2.92  19 2.92  29 2.95  34 2.95  33 2.95  32 2.95  31 2.95
                            30 2.95
  29  0.334  0.004  0.512-  30 2.89  31 2.90  36 2.90  20 2.94  27 2.94  35 2.95  28 2.95  26 2.96
                            34 3.00
  30  0.662  0.004  0.512-  29 2.89  32 2.90  36 2.90  21 2.94  27 2.94  35 2.95  28 2.95  25 2.96
                            33 3.00
  31  0.004  0.334  0.512-  37 2.54  33 2.89  29 2.90  36 2.90  20 2.94  22 2.94  35 2.95  28 2.95
                            19 2.96  32 3.00
  32  0.662  0.334  0.512-  34 2.89  30 2.90  36 2.90  21 2.94  24 2.94  35 2.95  28 2.95  19 2.96
                            31 3.00
  33  0.004  0.662  0.512-  31 2.89  34 2.90  36 2.90  23 2.94  22 2.94  35 2.95  28 2.95  25 2.96
                            30 3.00
  34  0.334  0.662  0.512-  32 2.89  33 2.90  36 2.90  23 2.94  24 2.94  35 2.95  28 2.95  26 2.96
                            29 3.00
  35  0.667  0.667  0.511-  24 2.93  27 2.93  22 2.93  30 2.95  32 2.95  29 2.95  34 2.95  31 2.95
                            33 2.95
  36  0.333  0.333  0.505-  39 1.93  37 2.21  21 2.82  20 2.82  23 2.82  31 2.90  33 2.90  30 2.90
                            29 2.90  34 2.90  32 2.90
  37  0.223  0.308  0.584-  38 1.22  39 1.34  36 2.21  31 2.54
  38  0.148  0.288  0.623-  37 1.22
  39  0.354  0.344  0.584-  37 1.34  36 1.93

  LATTYP: Found a hexagonal cell.
 ALAT       =     8.7913665772
 C/A-ratio  =     2.7703738524

  Lattice vectors:

 A1 = (  -4.3956832886,  -7.6135467898,   0.0000000000)
 A2 = (   8.7913665771,   0.0000000000,   0.0000000000)
 A3 = (   0.0000000000,   0.0000000000,  24.3553720923)

Analysis of symmetry for initial positions (statically):
 Subroutine PRICEL returns:
 Original cell was already a primitive cell.

 Routine SETGRP: Setting up the symmetry group for a
 hexagonal supercell.

 Subroutine GETGRP returns: Found  1 space group operations
 (whereof  1 operations were pure point group operations)
 out of a pool of 24 trial point group operations.

The static configuration has the point symmetry C_1 .

Analysis of symmetry for dynamics (positions and initial velocities):
 Subroutine PRICEL returns:
 Original cell was already a primitive cell.

[...]

The dynamic configuration has the point symmetry C_1 .

Analysis of constrained symmetry for selective dynamics:
 Subroutine PRICEL returns:
 Original cell was already a primitive cell.

 Routine SETGRP: Setting up the symmetry group for a
 hexagonal supercell.

 Subroutine GETGRP returns: Found  1 space group operations
[...]
     41      -5.0403      2.00000
     42      -5.0295      2.00000
     43      -4.9911      2.00000
     44      -4.9612      2.00000
     45      -4.9566      2.00000
     46      -4.9446      2.00000
     47      -4.9412      2.00000
     48      -4.9291      2.00000
     49      -4.8395      2.00000
     50      -4.8147      2.00000
     51      -4.8047      2.00000
     52      -4.7956      2.00000
     53      -4.7894      2.00000
     54      -4.7840      2.00000
     55      -4.7806      2.00000
     56      -4.7692      2.00000
     57      -4.7635      2.00000
     58      -4.7504      2.00000
     59      -4.6921      2.00000
     60      -4.6777      2.00000
[...]
    238       5.2657      0.00000
    239       5.4342      0.00000
    240       5.6420      0.00000
    241       5.6596      0.00000
    242       5.7401      0.00000
    243       5.7545      0.00000
    244       5.8709      0.00000
    245       5.9166      0.00000
    246       6.0645      0.00000
    247       6.4983      0.00000
    248       6.5977      0.00000
    249       6.6391      0.00000
    250       6.6558      0.00000
    251       6.6896      0.00000
    252       6.7399      0.00000

 soft charge-density along one line, spin component           1
         0         1         2         3         4         5         6         7         8         9
 total charge-density along one line

------------------------ aborting loop because EDIFF is reached ----------------------------------------

 total charge

# of ion       s       p       d       tot
    1        0.419   0.201   9.178   9.798
    2        0.418   0.203   9.177   9.798
    3        0.416   0.204   9.176   9.796
    4        0.415   0.203   9.178   9.796
    5        0.418   0.202   9.177   9.798
    6        0.415   0.204   9.177   9.796
    7        0.417   0.203   9.177   9.797
    8        0.415   0.204   9.177   9.796
    9        0.414   0.203   9.178   9.794
   10        0.409   0.268   9.164   9.842
   11        0.408   0.269   9.166   9.843
   12        0.409   0.270   9.163   9.842
   13        0.406   0.268   9.167   9.842
   14        0.405   0.270   9.168   9.842
   15        0.402   0.271   9.164   9.836
   16        0.407   0.270   9.164   9.840
   17        0.401   0.271   9.164   9.836
   18        0.401   0.272   9.164   9.837
   19        0.398   0.270   9.165   9.833
   20        0.431   0.294   9.139   9.864
   21        0.435   0.294   9.139   9.867
   22        0.394   0.277   9.161   9.832
   23        0.433   0.293   9.140   9.866
   24        0.397   0.274   9.164   9.835
   25        0.405   0.264   9.169   9.838
   26        0.403   0.266   9.167   9.836
   27        0.396   0.275   9.163   9.834
   28        0.413   0.199   9.178   9.789
   29        0.428   0.214   9.167   9.809
   30        0.438   0.210   9.162   9.810
   31        0.401   0.243   9.164   9.808
   32        0.435   0.205   9.167   9.807
   33        0.435   0.208   9.168   9.811
   34        0.436   0.207   9.165   9.808
   35        0.410   0.203   9.175   9.788
   36        0.458   0.597   2.420   3.475
   37        0.874   1.631   0.000   2.506
   38        1.600   3.513   0.000   5.113
   39        1.595   3.463   0.000   5.058
tot         19.011  17.657 323.250 359.917

  FORCE on cell =-STRESS in cart. coord.  units (eV):
  Direction    XX          YY          ZZ          XY          YZ          ZX
  Alpha Z   710.86510   710.86510   710.86510
  Ewald  150080.39044149627.33753************    89.60593   -29.85359  -100.64153
  Hartree160047.20558159826.12166************    42.95437   -11.21159   -19.38258
  E(xc)   -2118.51099 -2119.54313 -2124.75514     0.19486    -0.03560    -0.01090
  Local  ************************320402.71758  -127.39173    37.68307   103.33879
  n-local  -368.70682  -362.89554  -371.97519    -1.24873     0.00450     0.94134
  augment  3237.23985  3237.14139  3249.13466     0.03896     0.07389     0.19241
  Kinetic  5101.05313  5122.40039  5139.47049    -4.25104     3.21156    15.38180
  Fock        0.00000     0.00000     0.00000     0.00000     0.00000     0.00000
  Total      -7.14189    -6.43167    -0.41709    -0.09739    -0.12777    -0.18065
  in kB      -7.01916    -6.32115    -0.40992    -0.09572    -0.12557    -0.17755

 VOLUME and BASIS-vectors are now :
  energy-cutoff  :      500.00
  volume of cell :     1630.19
      direct lattice vectors                 reciprocal lattice vectors
     8.791366577  0.000000000  0.000000000     0.113747958 -0.065672414  0.000000000
     4.395683289  7.613546790  0.000000000     0.000000000  0.131344829  0.000000000
     0.000000000  0.000000000 24.355372092     0.000000000  0.000000000  0.041058703

  length of vectors
     8.791366577  8.791366577 24.355372092     0.131344829  0.131344829  0.041058703

 FORCES acting on ions
    electron-ion (+dipol)            ewald-force                    non-local-force                 convergence-correction
   0.111E+00 0.211E+00 0.269E+04   -.900E-01 -.615E-01 -.269E+04   -.250E-01 -.844E-01 -.192E+01   0.609E-02 -.597E-01 0.299E-01
   -.255E+00 0.128E+00 0.269E+04   0.210E+00 0.159E-02 -.269E+04   0.408E-01 0.370E-01 -.160E+01   0.845E-02 -.154E+00 -.317E-01
   0.969E-01 -.512E-02 0.269E+04   -.120E+00 0.117E+00 -.269E+04   0.155E-01 0.360E-01 -.162E+01   0.228E-02 -.135E+00 -.637E-01
   -.198E+00 -.233E+00 0.269E+04   0.114E+00 0.115E+00 -.269E+04   0.128E+00 0.429E-02 -.167E+01   -.473E-01 0.104E+00 -.106E-01
   -.197E+00 -.908E-01 0.269E+04   0.145E+00 0.222E-01 -.269E+04   0.267E-01 0.439E-02 -.148E+01   0.266E-01 0.599E-01 0.496E-01
   0.421E+00 -.198E+00 0.269E+04   -.259E+00 0.935E-01 -.269E+04   -.187E+00 -.142E-01 -.164E+01   0.246E-01 0.108E+00 -.200E-01
   0.538E-01 0.619E-01 0.269E+04   0.498E-01 -.956E-01 -.269E+04   0.179E-01 -.535E-02 -.164E+01   -.110E+00 0.369E-01 -.280E-01
   -.112E+00 0.257E+00 0.269E+04   0.418E-02 -.231E+00 -.269E+04   -.250E-01 -.556E-01 -.174E+01   0.120E+00 0.267E-01 -.880E-01
   0.125E+00 -.111E+00 0.269E+04   -.539E-01 0.394E-01 -.269E+04   -.309E-01 0.564E-01 -.187E+01   -.420E-01 0.134E-01 -.830E-01
   -.482E+00 0.122E+00 0.939E+03   0.786E+00 0.497E-01 -.939E+03   -.288E+00 -.196E+00 -.790E+00   -.203E-01 0.207E-01 0.234E+00
   -.675E+00 -.818E+00 0.935E+03   0.890E+00 0.533E+00 -.935E+03   -.898E-01 0.164E+00 -.520E+00   -.109E+00 0.698E-01 0.180E+00
   0.120E+01 -.388E+00 0.937E+03   -.168E+01 0.621E+00 -.937E+03   0.345E+00 -.213E+00 -.653E+00   0.132E+00 -.121E-01 0.151E+00
   -.145E+01 -.376E-01 0.936E+03   0.126E+01 0.192E+00 -.936E+03   0.163E+00 -.102E+00 -.523E+00   -.150E-01 -.757E-02 0.228E+00
   0.560E+00 0.334E+00 0.934E+03   -.349E+00 -.326E+00 -.934E+03   -.142E+00 -.461E-01 -.336E+00   -.263E-01 0.603E-01 0.163E+00
   0.893E+00 -.547E+00 0.938E+03   -.908E+00 0.514E+00 -.937E+03   -.331E-01 0.447E-01 -.787E+00   0.448E-01 -.185E-01 0.174E+00
   -.510E-01 0.101E+01 0.938E+03   0.372E-01 -.144E+01 -.937E+03   0.819E-02 0.402E+00 -.623E+00   0.838E-02 0.296E-01 0.171E+00
   -.179E+00 0.610E+00 0.937E+03   0.999E-01 -.576E+00 -.937E+03   0.831E-01 -.157E-01 -.635E+00   -.107E-01 -.186E-01 0.168E+00
   0.147E+00 -.331E+00 0.937E+03   -.137E+00 0.436E+00 -.937E+03   -.269E-01 -.558E-02 -.640E+00   0.258E-01 -.996E-01 0.157E+00
   0.720E+01 -.352E+01 -.821E+03   -.707E+01 0.336E+01 0.820E+03   -.129E+00 0.118E+00 0.861E+00   0.650E-01 0.481E-01 0.214E+00
   -.297E+02 -.128E+02 -.836E+03   0.305E+02 0.132E+02 0.836E+03   -.844E+00 -.523E+00 -.790E+00   -.365E-01 0.785E-01 0.296E+00
   0.226E+02 -.147E+02 -.852E+03   -.234E+02 0.152E+02 0.852E+03   0.904E+00 -.583E+00 -.602E+00   0.335E-02 0.266E-01 0.216E+00
   -.739E+01 -.157E+00 -.821E+03   0.716E+01 0.341E+00 0.820E+03   0.227E+00 -.129E+00 0.522E+00   0.264E-01 -.897E-01 0.193E+00
   -.467E+01 0.267E+02 -.848E+03   0.486E+01 -.277E+02 0.848E+03   -.748E-01 0.114E+01 -.480E+00   -.100E+00 -.296E-01 0.257E+00
   0.120E+02 0.557E+01 -.830E+03   -.121E+02 -.547E+01 0.829E+03   -.515E-01 -.119E+00 0.684E+00   0.779E-01 -.386E-04 0.198E+00
   0.471E+01 0.105E+01 -.828E+03   -.478E+01 -.961E+00 0.826E+03   -.191E-01 -.706E-01 0.989E+00   0.816E-01 -.191E-01 0.240E+00
   -.267E+01 0.752E+01 -.824E+03   0.258E+01 -.744E+01 0.823E+03   0.787E-01 -.874E-01 0.925E+00   0.203E-01 0.448E-01 0.238E+00
   -.208E+01 -.963E+01 -.827E+03   0.220E+01 0.948E+01 0.827E+03   -.542E-01 0.255E+00 0.674E+00   -.720E-01 -.494E-01 0.207E+00
   0.219E+02 0.164E+02 -.254E+04   -.219E+02 -.163E+02 0.254E+04   -.878E-01 -.864E-01 0.178E+01   0.308E-01 -.588E-01 0.116E+00
   -.113E+02 0.486E+02 -.249E+04   0.122E+02 -.485E+02 0.248E+04   -.953E+00 -.388E+00 0.209E+01   -.128E-01 0.105E+00 0.140E+00
   -.118E+02 -.319E+01 -.253E+04   0.112E+02 0.393E+01 0.253E+04   0.648E+00 -.928E+00 0.189E+01   -.295E-02 0.203E-01 0.150E+00
   0.580E+02 -.131E+02 -.242E+04   -.577E+02 0.136E+02 0.242E+04   -.591E+00 -.455E+00 0.261E+01   0.197E+00 -.329E-01 0.865E-01
   0.177E+02 0.223E+01 -.253E+04   -.178E+02 -.217E+01 0.253E+04   0.511E+00 -.117E+00 0.200E+01   -.154E+00 0.329E-01 0.165E+00
   -.130E+02 -.364E+02 -.251E+04   0.133E+02 0.361E+02 0.251E+04   -.431E+00 0.687E+00 0.205E+01   0.623E-01 -.832E-01 0.122E+00
   -.429E+00 0.414E+01 -.253E+04   0.181E+00 -.483E+01 0.253E+04   0.361E+00 0.917E+00 0.201E+01   -.195E-01 -.321E-01 0.156E+00
   0.121E+02 -.103E+02 -.256E+04   -.121E+02 0.102E+02 0.256E+04   -.310E-01 0.692E-01 0.179E+01   -.378E-01 0.625E-03 0.107E+00
   -.229E+02 -.263E+01 -.778E+03   0.227E+02 0.256E+01 0.778E+03   -.455E-01 -.332E-01 0.677E+00   -.340E-01 0.500E-02 0.785E-01
   0.647E+01 0.442E+01 -.931E+03   -.107E+02 -.542E+01 0.924E+03   0.425E+01 0.103E+01 0.717E+01   0.345E-01 -.483E-02 -.488E-01
   0.161E+03 0.344E+02 -.168E+04   -.195E+03 -.414E+02 0.172E+04   0.341E+02 0.699E+01 -.426E+02   0.489E-01 0.930E-02 -.806E-01
   -.216E+03 -.438E+02 -.159E+04   0.256E+03 0.522E+02 0.161E+04   -.392E+02 -.836E+01 -.161E+02   -.498E-01 -.572E-02 -.136E+00
   0.134E+01 0.697E+00 0.481E+02   0.114E-12 0.206E-12 0.114E-11   -.146E+01 -.662E+00 -.526E+02   0.146E+00 -.944E-02 0.430E+01

 POSITION                                       TOTAL-FORCE (eV/Angst)
      0.00000      0.00000      5.28219         0.001841      0.004802     -0.027788
      2.93046      0.00000      5.28219         0.003698      0.011692      0.021885
      5.86091      0.00000      5.28219        -0.005609      0.012495      0.041103
      1.46523      2.53785      5.28219        -0.004280     -0.010479      0.011610
      4.39568      2.53785      5.28219         0.001558     -0.004956     -0.001779
      7.32614      2.53785      5.28219        -0.001627     -0.011492      0.025310
      2.93046      5.07570      5.28219         0.010902     -0.002849      0.028090
      5.86091      5.07570      5.28219        -0.013888     -0.003621      0.044559
      8.79137      5.07570      5.28219        -0.002481     -0.002407      0.018981
      1.46523      0.84595      7.67490        -0.005346     -0.004911     -0.064808
      4.39568      0.84595      7.67490         0.014950     -0.052099     -0.072156
      7.32614      0.84595      7.67490        -0.004698      0.007563     -0.032338
      2.93046      3.38380      7.67490        -0.043314      0.044634     -0.079752
      5.86091      3.38380      7.67490         0.042330      0.021102     -0.048112
      8.79137      3.38380      7.67490        -0.004145     -0.007402      0.005740
      4.39568      5.92165      7.67490         0.002174     -0.001931     -0.040431
      7.32614      5.92165      7.67490        -0.007179     -0.001362      0.021965
     10.25659      5.92165      7.67490         0.008397     -0.000790      0.035306
      8.79137      1.69074     10.05145         0.069989      0.001786      0.105874
      2.93556      1.69484     10.04095        -0.086222     -0.059464     -0.133508
      5.85581      1.69484     10.04095         0.071571     -0.040489     -0.078365
     10.25435      4.23104     10.05745         0.026684     -0.034147      0.055776
      4.39568      4.22386     10.04095         0.013047      0.090399     -0.046902
      7.32838      4.23104     10.05745        -0.052688     -0.022411      0.048865
     11.72283      6.76818     10.05145        -0.010292     -0.000338     -0.006350
      5.85990      6.76818     10.05145         0.008220      0.039060      0.042229
      8.79137      6.76501     10.05745         0.001347      0.056553      0.035664
      0.00000      0.00000     12.43413        -0.062639     -0.021113     -0.028020
      2.95009      0.02948     12.45917        -0.040256     -0.194477     -0.110540
      5.84128      0.02948     12.45917         0.084182     -0.171769     -0.157181
      1.50057      2.54011     12.45917        -0.084227      0.019297     -0.045964
      7.29079      2.54011     12.45917         0.300221     -0.017213     -0.204988
      2.94617      5.04396     12.45917        -0.086957      0.245341     -0.172784
      5.84520      5.04396     12.45917         0.093212      0.194602     -0.163556
      8.79137      5.07570     12.45428        -0.029390      0.010712     -0.014681
      4.39568      2.53785     12.30230        -0.205014     -0.100832      0.994386
      3.31558      2.34210     14.22196         0.009417      0.021423      0.001496
      2.56708      2.19210     15.16785        -0.010290     -0.006731     -0.003419
      4.62386      2.61589     14.21750        -0.003203     -0.008177     -0.005419
    total drift:                                0.026052      0.025369     -0.129782

  FREE ENERGIE OF THE ION-ELECTRON SYSTEM (eV)
  free  energy   TOTEN  =      -119.01371473 eV

  energy  without entropy=     -119.01371473  energy(sigma->0) =     -119.01371473

 stress matrix after NEB project (eV)
     -7.14189     -0.09739     -0.18065
     -0.09739     -6.43167     -0.12777
     -0.18066     -0.12777     -0.41709
  FORCES: max atom, RMS     0.023450    0.004583
  FORCE total and by dimension    0.028622    0.021423
  Stress total and by dimension    9.626199    7.141886
|           W    W    AA    RRRRR   N    N  II  N    N   GGGG   !!!           |
|           W    W   A  A   R    R  NN   N  II  NN   N  G    G  !!!           |
|           W    W  A    A  R    R  N N  N  II  N N  N  G       !!!           |
|           W WW W  AAAAAA  RRRRR   N  N N  II  N  N N  G  GGG   !            |
|           WW  WW  A    A  R   R   N   NN  II  N   NN  G    G                |
|           W    W  A    A  R    R  N    N  II  N    N   GGGG   !!!           |
|     Tetrahedron method does not include variations of the Fermi             |
|     occupations, so forces and stress will be inaccurate. We suggest        |
|     using a different smearing scheme ISMEAR = 1 or 2 for metals in         |
|     relaxations.                                                            |

 total charge

# of ion       s       p       d       tot
    1        0.419   0.201   9.178   9.798
    2        0.418   0.203   9.177   9.798
    3        0.416   0.204   9.176   9.796
    4        0.415   0.203   9.178   9.796
    5        0.418   0.202   9.177   9.798
    6        0.415   0.204   9.177   9.796
    7        0.417   0.203   9.177   9.797
    8        0.415   0.204   9.177   9.796
    9        0.414   0.203   9.178   9.794
   10        0.409   0.268   9.164   9.842
   11        0.408   0.269   9.166   9.843
   12        0.409   0.270   9.163   9.842
   13        0.406   0.268   9.167   9.842
   14        0.405   0.270   9.168   9.842
   15        0.402   0.271   9.164   9.836
   16        0.407   0.270   9.164   9.840
   17        0.401   0.271   9.164   9.836
   18        0.401   0.272   9.164   9.837
   19        0.398   0.270   9.165   9.833
   20        0.431   0.294   9.139   9.864
   21        0.435   0.294   9.139   9.867
   22        0.394   0.277   9.161   9.832
   23        0.433   0.293   9.140   9.866
   24        0.397   0.274   9.164   9.835
   25        0.405   0.264   9.169   9.838
   26        0.403   0.266   9.167   9.836
   27        0.396   0.275   9.163   9.834
   28        0.413   0.199   9.178   9.789
   29        0.428   0.214   9.167   9.809
   30        0.438   0.210   9.162   9.810
   31        0.401   0.243   9.164   9.808
   32        0.435   0.205   9.167   9.807
   33        0.435   0.208   9.168   9.811
   34        0.436   0.207   9.165   9.808
   35        0.410   0.203   9.175   9.788
   36        0.458   0.597   2.420   3.475
   37        0.874   1.631   0.000   2.506
   38        1.600   3.513   0.000   5.113
   39        1.595   3.463   0.000   5.058
tot         19.011  17.657 323.250 359.917

 BZINTS: Fermi energy:    0.233628;  405.000000 electrons
         Band energy:-0.166507E+04;  BLOECHL correction:   -0.026832