 vasp.6.2.0 18Jan21 (build Jun 12 2021 23:27:24) complex

 executed on             LinuxIFC date 2022.05.26  19:20:09

 INCAR:
   ISMEAR = -5
   SIGMA = 0.1
   ISPIN = 1
   EDIFF = 1.d-5
   EDIFFG = -0.01
   NSW = 0
   NELM = 150
   ENCUT = 500
   ISIF = 2
   IBRION = 2
   LREAL = Auto
   ALGO = Fast
   ICHARG = 11
   LORBIT = 10
   LCHARG = .F.
   LWAVE = .F.

 POTCAR:    PAW_PBE Au 04Oct2007
 POTCAR:    PAW_PBE Mn 06Sep2000
 POTCAR:    PAW_PBE N 08Apr2002
|           W    W    AA    RRRRR   N    N  II  N    N   GGGG   !!!           |
|           W    W   A  A   R    R  NN   N  II  NN   N  G    G  !!!           |
|           W    W  A    A  R    R  N N  N  II  N N  N  G       !!!           |
|           W WW W  AAAAAA  RRRRR   N  N N  II  N  N N  G  GGG   !            |
|           WW  WW  A    A  R   R   N   NN  II  N   NN  G    G                |
|           W    W  A    A  R    R  N    N  II  N    N   GGGG   !!!           |
|     For optimal performance we recommend to set                             |
|       NCORE = 2 up to number-of-cores-per-socket                            |
|     This setting can greatly improve the performance of VASP for DFT.       |
|     The default, NCORE=1 might be grossly inefficient on modern             |
|     multi-core architectures or massively parallel machines. Do your        |
|     Unfortunately you need to use the default for GW and RPA                |
|     calculations (for HF NCORE is supported but not extensively tested      |
|     yet).                                                                   |

 POTCAR:    PAW_PBE Au 04Oct2007
   VRHFIN =Au: s1d10

   TITEL  = PAW_PBE Au 04Oct2007
   POMASS =  196.966; ZVAL   =   11.000    mass and valenz
   ENMAX  =  229.943; ENMIN  =  172.457 eV

 POTCAR:    PAW_PBE Mn 06Sep2000
   VRHFIN =Mn: d6 s1

   TITEL  = PAW_PBE Mn 06Sep2000
   POMASS =   54.938; ZVAL   =    7.000    mass and valenz
   ENMAX  =  269.864; ENMIN  =  202.398 eV

 POTCAR:    PAW_PBE N 08Apr2002
   VRHFIN =N: s2p3

   TITEL  = PAW_PBE N 08Apr2002
   POMASS =   14.001; ZVAL   =    5.000    mass and valenz
   ENMAX  =  400.000; ENMIN  =  300.000 eV

 Optimization of the real space projectors (new method)

 maximal supplied QI-value         = 15.12
 optimisation between [QCUT,QGAM] = [ 11.34, 22.83] = [ 36.00,145.93] Ry
 Optimized for a Real-space Cutoff    1.39 Angstroem

   l    n(q)    QCUT    max X(q) W(low)/X(q) W(high)/X(q)  e(spline)
   2      9    11.338    60.898    0.39E-03    0.42E-03    0.21E-06
   2      9    11.338    58.894    0.40E-03    0.42E-03    0.22E-06
   0      9    11.338   109.617    0.13E-03    0.20E-04    0.13E-06
   0      9    11.338    75.026    0.13E-03    0.20E-04    0.13E-06
   1      9    11.338    16.344    0.33E-04    0.24E-03    0.18E-06
   1      9    11.338    10.160    0.26E-04    0.19E-03    0.15E-06
 Optimization of the real space projectors (new method)

[...]

   l    n(q)    QCUT    max X(q) W(low)/X(q) W(high)/X(q)  e(spline)
   2      8    11.376   110.144    0.49E-03    0.27E-04    0.26E-06
   2      8    11.376   103.200    0.49E-03    0.28E-04    0.27E-06
   0      9    11.376    68.437    0.57E-04    0.92E-04    0.15E-06
   0      9    11.376    33.971    0.51E-04    0.83E-04    0.14E-06
   1      9    11.376    17.065    0.34E-03    0.68E-04    0.14E-06
   1      9    11.376    12.540    0.27E-03    0.59E-04    0.11E-06
 Optimization of the real space projectors (new method)

 maximal supplied QI-value         = 25.13
 optimisation between [QCUT,QGAM] = [ 11.31, 22.87] = [ 35.82,146.48] Ry
 Optimized for a Real-space Cutoff    1.27 Angstroem

   l    n(q)    QCUT    max X(q) W(low)/X(q) W(high)/X(q)  e(spline)
   0      9    11.310    79.467    0.75E-04    0.16E-03    0.36E-06
   0      9    11.310    66.151    0.74E-04    0.16E-03    0.36E-06
   1      8    11.310    17.416    0.35E-03    0.12E-03    0.95E-06
   1      8    11.310    12.382    0.37E-03    0.13E-03    0.98E-06
  PAW_PBE Au 04Oct2007                  :
  PAW_PBE Mn 06Sep2000                  :
  PAW_PBE N 08Apr2002                   :

 POSCAR: Au-Mn-N
  positions in direct lattice
  velocities in cartesian coordinates
 exchange correlation table for  LEXCH =        8
   RHO(1)=    0.500       N(1)  =     2000
   RHO(2)=  100.500       N(2)  =     4000

 VTST: version 3.2, (02/03/18)

 CHAIN: initializing optimizer

 OPT: Using VASP Conjugate-Gradient optimizer
 CHAIN: Read ICHAIN            0

 POSCAR: Au-Mn-N
  positions in direct lattice
  velocities in cartesian coordinates

 ion  position               nearest neighbor table
   1  0.000  0.000  0.238-  16 2.94  12 2.94   6 2.94   8 2.94   7 2.94   3 2.94  10 2.94   4 2.94
                             2 2.94
   2  0.333  0.000  0.238-   9 2.94  11 2.94  17 2.94  10 2.94   8 2.94   4 2.94   5 2.94   1 2.94
                             3 2.94
   3  0.667  0.000  0.238-   7 2.94  18 2.94  12 2.94   1 2.94  11 2.94   5 2.94   6 2.94   9 2.94
                             2 2.94
   4  0.000  0.333  0.238-  10 2.94   6 2.94   5 2.94  13 2.94   2 2.94  15 2.94   9 2.94   1 2.94
                             7 2.94
   5  0.333  0.333  0.238-  13 2.94   7 2.94  11 2.94   4 2.94   2 2.94  14 2.94   3 2.94   8 2.94
                             6 2.94
   6  0.667  0.333  0.238-  15 2.94  14 2.94   1 2.94  12 2.94   4 2.94   9 2.94   8 2.94   3 2.94
                             5 2.94
   7  0.000  0.667  0.238-  18 2.94   3 2.94  16 2.94   5 2.94   1 2.94  13 2.94   8 2.94   4 2.94
                             9 2.94
   8  0.333  0.667  0.238-   9 2.94  17 2.94   1 2.94   2 2.94  14 2.94  16 2.94   6 2.94   7 2.94
                             5 2.94
   9  0.667  0.667  0.238-   2 2.94   8 2.94  17 2.94   6 2.94  15 2.94   4 2.94   3 2.94  18 2.94
                             7 2.94
  10  0.111  0.111  0.346-  20 2.93  26 2.94  19 2.94  11 2.94  17 2.94   2 2.94   4 2.94   1 2.94
                            12 2.94  16 2.94  13 2.94  15 2.94
  11  0.444  0.111  0.346-  20 2.91  21 2.91  27 2.93  13 2.94   2 2.94  10 2.94  17 2.94   5 2.94
                             3 2.94  18 2.94  14 2.94  12 2.94
  12  0.778  0.111  0.346-  21 2.93  25 2.94  19 2.94  16 2.94  18 2.94   1 2.94  14 2.94  15 2.94
                             3 2.94   6 2.94  10 2.94  11 2.94
  13  0.111  0.444  0.346-  23 2.91  20 2.91  22 2.93   5 2.94  18 2.94  11 2.94   7 2.94   4 2.94
                            16 2.94  10 2.94  14 2.94  15 2.94
  14  0.444  0.444  0.346-  21 2.91  23 2.91  24 2.93  15 2.94   6 2.94  12 2.94   8 2.94  17 2.94
                             5 2.94  16 2.94  13 2.94  11 2.94
  15  0.778  0.444  0.346-  24 2.92  22 2.92  19 2.94  14 2.94   6 2.94  17 2.94  12 2.94   9 2.94
                             4 2.94  10 2.94  13 2.94  18 2.94
  16  0.111  0.778  0.346-  23 2.93  25 2.94  26 2.94  18 2.94  12 2.94   7 2.94   1 2.94   8 2.94
                            13 2.94  10 2.94  14 2.94  17 2.94
  17  0.444  0.778  0.346-  27 2.92  24 2.92  26 2.94   9 2.94  15 2.94   2 2.94  10 2.94  11 2.94
                             8 2.94  14 2.94  16 2.94  18 2.94
  18  0.778  0.778  0.346-  22 2.92  27 2.92  25 2.94  16 2.94   7 2.94  13 2.94  12 2.94   3 2.94
                            11 2.94   9 2.94  15 2.94  17 2.94
  19  0.889  0.222  0.454-  10 2.94  12 2.94  15 2.94  26 2.94  25 2.94  24 2.94  22 2.94  28 2.95
                            21 2.95  20 2.95  32 2.99  31 2.99
  20  0.223  0.223  0.453-  36 2.70  23 2.91  21 2.91  11 2.91  13 2.91  29 2.92  31 2.92  10 2.93
                            26 2.95  19 2.95  27 2.95  22 2.95
  21  0.553  0.223  0.453-  36 2.70  20 2.91  23 2.91  14 2.91  11 2.91  30 2.92  32 2.92  12 2.93
                            25 2.95  19 2.95  27 2.95  24 2.95
  22  0.886  0.557  0.453-  24 2.91  27 2.91  18 2.92  15 2.92  13 2.93  25 2.94  19 2.94  23 2.95
                            20 2.95  33 2.96  31 2.96  35 2.96
  23  0.223  0.553  0.453-  36 2.70  20 2.91  21 2.91  13 2.91  14 2.91  33 2.92  34 2.92  16 2.93
                            25 2.95  26 2.95  22 2.95  24 2.95
  24  0.557  0.557  0.453-  27 2.91  22 2.91  15 2.92  17 2.92  14 2.93  26 2.94  19 2.94  21 2.95
                            23 2.95  32 2.96  34 2.96  35 2.96
  25  0.889  0.889  0.454-  16 2.94  12 2.94  18 2.94  19 2.94  26 2.94  22 2.94  27 2.94  28 2.95
                            23 2.95  21 2.95  33 2.99  30 2.99
  26  0.222  0.889  0.454-  10 2.94  16 2.94  17 2.94  19 2.94  25 2.94  27 2.94  24 2.94  28 2.95
                            20 2.95  23 2.95  29 2.99  34 2.99
  27  0.557  0.886  0.453-  24 2.91  22 2.91  17 2.92  18 2.92  11 2.93  26 2.94  25 2.94  20 2.95
                            21 2.95  29 2.96  30 2.96  35 2.96
  28  0.000  0.000  0.563-  25 2.95  19 2.95  26 2.95  34 2.99  32 2.99  33 2.99  30 2.99  31 2.99
                            29 2.99
  29  0.334  0.010  0.562-  30 2.84  31 2.85  36 2.86  20 2.92  27 2.96  35 2.98  26 2.99  28 2.99
                            34 3.12
  30  0.656  0.010  0.562-  29 2.84  32 2.85  36 2.86  21 2.92  27 2.96  35 2.98  25 2.99  28 2.99
                            33 3.12
  31  0.010  0.334  0.562-  33 2.84  29 2.85  36 2.86  20 2.92  22 2.96  35 2.98  19 2.99  28 2.99
                            32 3.12
  32  0.656  0.334  0.562-  34 2.84  30 2.85  36 2.86  21 2.92  24 2.96  35 2.98  19 2.99  28 2.99
                            31 3.12
  33  0.010  0.656  0.562-  31 2.84  34 2.85  36 2.86  23 2.92  22 2.96  35 2.98  25 2.99  28 2.99
                            30 3.12
  34  0.334  0.656  0.562-  32 2.84  33 2.85  36 2.86  23 2.92  24 2.96  35 2.98  26 2.99  28 2.99
                            29 3.12
  35  0.667  0.667  0.563-  24 2.96  27 2.96  22 2.96  29 2.98  34 2.98  32 2.98  31 2.98  30 2.98
                            33 2.98
  36  0.333  0.333  0.548-  37 1.56  20 2.70  23 2.70  21 2.70  33 2.86  31 2.86  29 2.86  30 2.86
                            34 2.86  32 2.86
  37  0.333  0.333  0.618-  36 1.56

  LATTYP: Found a hexagonal cell.
 ALAT       =     8.8135128021
 C/A-ratio  =     2.5184286595

  Lattice vectors:

 A1 = (  -4.4067569092,  -7.6327256898,   0.0000000000)
 A2 = (   8.8135128021,   0.0000000000,   0.0000000000)
 A3 = (   0.0000000000,   0.0000000000,  22.1962032318)

Analysis of symmetry for initial positions (statically):
 Subroutine PRICEL returns:
 Original cell was already a primitive cell.

 Routine SETGRP: Setting up the symmetry group for a
 hexagonal supercell.

 Subroutine GETGRP returns: Found  6 space group operations
 (whereof  6 operations were pure point group operations)
 out of a pool of 24 trial point group operations.

The static configuration has the point symmetry C_3v.

Analysis of symmetry for dynamics (positions and initial velocities):
 Subroutine PRICEL returns:
 Original cell was already a primitive cell.

[...]

The dynamic configuration has the point symmetry C_3v.

Analysis of constrained symmetry for selective dynamics:
 Subroutine PRICEL returns:
 Original cell was already a primitive cell.

 Routine SETGRP: Setting up the symmetry group for a
 hexagonal supercell.

 Subroutine GETGRP returns: Found  6 space group operations
[...]
     24      -5.1129      2.00000
     25      -5.0797      2.00000
     26      -5.0687      2.00000
     27      -5.0275      2.00000
     28      -4.9503      2.00000
     29      -4.9147      2.00000
     30      -4.8097      2.00000
     31      -4.8013      2.00000
     32      -4.7834      2.00000
     33      -4.7727      2.00000
     34      -4.7620      2.00000
     35      -4.6958      2.00000
     36      -4.6106      2.00000
     37      -4.5947      2.00000
     38      -4.5864      2.00000
     39      -4.5638      2.00000
     40      -4.5092      2.00000
     41      -4.4384      2.00000
     42      -4.4060      2.00000
     43      -4.3746      2.00000
     44      -4.3324      2.00000
     45      -4.3317      2.00000
     46      -4.2997      2.00000
     47      -4.2094      2.00000
     48      -4.1992      2.00000
     49      -4.1642      2.00000
     50      -4.1419      2.00000
     51      -4.1380      2.00000
     52      -4.1254      2.00000
     53      -4.1082      2.00000
     54      -4.0888      2.00000
     55      -4.0550      2.00000
     56      -4.0158      2.00000
     57      -4.0010      2.00000
     58      -3.9848      2.00000
     59      -3.9681      2.00000
     60      -3.9631      2.00000
[...]
    238       6.4551      0.00000
    239       6.4750      0.00000
    240       6.5081      0.00000
    241       6.5904      0.00000
    242       6.7688      0.00000
    243       6.8043      0.00000
    244       6.8140      0.00000
    245       6.8402      0.00000
    246       7.1546      0.00000
    247       7.1930      0.00000
    248       7.3063      0.00000
    249       7.5037      0.00000
    250       7.6203      0.00000
    251       7.7690      0.00000
    252       7.7784      0.00000

 soft charge-density along one line, spin component           1
         0         1         2         3         4         5         6         7         8         9
 total charge-density along one line

------------------------ aborting loop because EDIFF is reached ----------------------------------------

 total charge

# of ion       s       p       d       tot
    1        0.547   0.239   8.766   9.552
    2        0.543   0.241   8.764   9.549
    3        0.543   0.241   8.764   9.549
    4        0.543   0.241   8.764   9.549
    5        0.543   0.240   8.764   9.547
    6        0.543   0.241   8.764   9.549
    7        0.543   0.241   8.764   9.549
    8        0.543   0.241   8.764   9.549
    9        0.544   0.241   8.766   9.550
   10        0.519   0.308   8.771   9.597
   11        0.518   0.310   8.775   9.603
   12        0.519   0.308   8.771   9.597
   13        0.518   0.310   8.775   9.603
   14        0.518   0.310   8.775   9.603
   15        0.516   0.310   8.772   9.598
   16        0.519   0.308   8.771   9.597
   17        0.516   0.310   8.772   9.598
   18        0.516   0.310   8.772   9.598
   19        0.517   0.297   8.777   9.591
   20        0.547   0.333   8.750   9.630
   21        0.547   0.333   8.750   9.630
   22        0.512   0.312   8.772   9.595
   23        0.547   0.333   8.750   9.630
   24        0.512   0.312   8.772   9.595
   25        0.517   0.297   8.777   9.591
   26        0.517   0.297   8.777   9.591
   27        0.512   0.312   8.772   9.595
   28        0.544   0.221   8.763   9.528
   29        0.546   0.238   8.765   9.550
   30        0.546   0.238   8.765   9.550
   31        0.546   0.238   8.765   9.550
   32        0.546   0.238   8.765   9.550
   33        0.546   0.238   8.765   9.550
   34        0.546   0.238   8.765   9.550
   35        0.539   0.222   8.768   9.529
   36        0.363   0.428   5.325   6.117
   37        1.364   2.175   0.000   3.539
tot         20.366  12.253 312.180 344.800

  FORCE on cell =-STRESS in cart. coord.  units (eV):
  Direction    XX          YY          ZZ          XY          YZ          ZX
  Alpha Z  1012.08917  1012.08917  1012.08917
  Ewald  119474.55524119474.55566************    -0.00032    -0.00009    -0.00013
  Hartree128147.01118128147.01119************     0.00001    -0.00002    -0.00003
  E(xc)   -1780.95838 -1780.95836 -1788.24823    -0.00002     0.00000     0.00000
  Local  ************************260083.31064     0.00193     0.00003     0.00001
  n-local  -112.30080   -64.58270   -64.10666    23.19912    -1.56123     1.64981
  augment  2397.95662  2397.95814  2407.04344    -0.00132    -0.00000     0.00006
  Kinetic  5510.30534  5520.42460  5548.29442     5.60479     0.11288     0.30689
  Fock        0.00000     0.00000     0.00000     0.00000     0.00000     0.00000
  Total     -19.88583   -19.88583     1.74260    -0.00000     0.00000     0.00000
  in kB     -21.33767   -21.33767     1.86983    -0.00000     0.00000     0.00000

 VOLUME and BASIS-vectors are now :
  energy-cutoff  :      500.00
  volume of cell :     1493.16
      direct lattice vectors                 reciprocal lattice vectors
     8.813512802  0.000000000  0.000000000     0.113462137 -0.065507406  0.000000000
     4.406756909  7.632725690  0.000000000     0.000000000  0.131014796  0.000000000
     0.000000000  0.000000000 22.196203232     0.000000000  0.000000000  0.045052750

  length of vectors
     8.813512802  8.813512802 22.196203232     0.131014796  0.131014796  0.045052750

 FORCES acting on ions
    electron-ion (+dipol)            ewald-force                    non-local-force                 convergence-correction
   -.195E-04 -.162E-04 0.248E+04   0.519E-04 0.434E-04 -.248E+04   0.487E-17 0.942E-18 -.533E+00   -.296E-03 -.184E-03 -.767E-01
   0.599E+00 0.276E+00 0.249E+04   -.627E+00 -.317E+00 -.248E+04   -.366E-02 0.116E-01 -.352E+00   0.323E-01 0.287E-01 -.101E+00
   -.599E+00 0.276E+00 0.249E+04   0.626E+00 -.317E+00 -.248E+04   0.366E-02 0.116E-01 -.352E+00   -.319E-01 0.306E-01 -.101E+00
   0.539E+00 0.381E+00 0.249E+04   -.588E+00 -.384E+00 -.248E+04   0.819E-02 -.896E-02 -.352E+00   0.410E-01 0.136E-01 -.101E+00
   0.915E-05 -.229E-04 0.249E+04   0.951E-04 0.174E-05 -.249E+04   -.539E-18 -.182E-17 -.382E+00   0.432E-02 0.263E-02 -.890E-01
   -.539E+00 0.381E+00 0.249E+04   0.588E+00 -.384E+00 -.248E+04   -.819E-02 -.896E-02 -.352E+00   -.426E-01 0.144E-01 -.100E+00
   -.605E-01 -.657E+00 0.249E+04   0.387E-01 0.701E+00 -.248E+04   0.119E-01 -.261E-02 -.352E+00   0.106E-01 -.429E-01 -.100E+00
   0.605E-01 -.657E+00 0.249E+04   -.389E-01 0.701E+00 -.248E+04   -.119E-01 -.261E-02 -.352E+00   -.880E-02 -.441E-01 -.100E+00
   0.196E-04 -.416E-04 0.249E+04   0.166E-03 -.201E-04 -.248E+04   -.300E-17 0.418E-18 -.411E+00   -.456E-02 -.236E-02 -.872E-01
   0.441E+01 0.255E+01 0.832E+03   -.430E+01 -.248E+01 -.832E+03   -.171E+00 -.985E-01 -.468E+00   0.430E-01 0.247E-01 -.309E-01
   0.149E-04 0.502E+01 0.841E+03   0.147E-03 -.515E+01 -.840E+03   0.378E-08 0.568E-01 -.441E+00   0.436E-02 0.319E-01 -.983E-01
   -.441E+01 0.255E+01 0.832E+03   0.430E+01 -.248E+01 -.832E+03   0.171E+00 -.985E-01 -.468E+00   -.448E-01 0.260E-01 -.302E-01
   0.435E+01 -.251E+01 0.841E+03   -.446E+01 0.258E+01 -.840E+03   0.492E-01 -.284E-01 -.441E+00   0.301E-01 -.119E-01 -.983E-01
   -.435E+01 -.251E+01 0.841E+03   0.446E+01 0.258E+01 -.840E+03   -.492E-01 -.284E-01 -.441E+00   -.224E-01 -.131E-01 -.989E-01
   0.311E-04 0.386E+01 0.836E+03   0.236E-03 -.390E+01 -.836E+03   0.814E-09 0.122E-01 -.411E+00   -.249E-02 -.106E-01 -.522E-01
   -.214E-04 -.510E+01 0.832E+03   0.163E-03 0.497E+01 -.832E+03   0.131E-07 0.197E+00 -.468E+00   -.178E-03 -.518E-01 -.302E-01
   0.334E+01 -.193E+01 0.836E+03   -.338E+01 0.195E+01 -.836E+03   0.106E-01 -.612E-02 -.411E+00   -.102E-01 0.357E-02 -.522E-01
   -.334E+01 -.193E+01 0.836E+03   0.338E+01 0.195E+01 -.836E+03   -.106E-01 -.612E-02 -.411E+00   0.108E-01 0.597E-02 -.509E-01
   -.411E-04 0.203E+01 -.850E+03   0.543E-04 -.207E+01 0.850E+03   0.208E-08 0.312E-01 0.685E+00   -.463E-02 -.286E-01 -.192E+00
   0.212E+02 0.123E+02 -.811E+03   -.204E+02 -.118E+02 0.811E+03   -.923E+00 -.533E+00 -.605E+00   -.842E-02 -.499E-02 -.213E+00
   -.212E+02 0.123E+02 -.811E+03   0.204E+02 -.118E+02 0.811E+03   0.923E+00 -.533E+00 -.605E+00   0.107E-01 -.537E-02 -.213E+00
   0.213E+01 -.123E+01 -.835E+03   -.254E+01 0.147E+01 0.834E+03   0.387E+00 -.223E+00 0.650E+00   0.528E-01 -.286E-01 -.241E+00
   -.926E-05 -.245E+02 -.811E+03   0.141E-03 0.236E+02 0.811E+03   0.710E-07 0.107E+01 -.605E+00   0.440E-03 0.120E-01 -.213E+00
   -.213E+01 -.123E+01 -.835E+03   0.254E+01 0.147E+01 0.834E+03   -.387E+00 -.223E+00 0.650E+00   -.528E-01 -.305E-01 -.241E+00
   -.176E+01 -.102E+01 -.850E+03   0.179E+01 0.103E+01 0.850E+03   -.271E-01 -.156E-01 0.685E+00   0.204E-01 0.117E-01 -.192E+00
   0.176E+01 -.102E+01 -.850E+03   -.179E+01 0.103E+01 0.850E+03   0.271E-01 -.156E-01 0.685E+00   -.268E-01 0.103E-01 -.192E+00
   0.117E-04 0.246E+01 -.835E+03   0.196E-03 -.293E+01 0.834E+03   0.297E-07 0.446E+00 0.650E+00   0.106E-02 0.600E-01 -.241E+00
   -.126E-04 -.131E-04 -.247E+04   0.296E-04 0.338E-04 0.247E+04   0.479E-18 -.282E-17 0.597E+00   -.366E-03 -.228E-03 0.528E-01
   0.300E+02 0.486E+02 -.245E+04   -.296E+02 -.482E+02 0.245E+04   -.548E+00 -.785E+00 0.725E+00   -.290E-01 0.128E-01 0.534E-01
   -.300E+02 0.486E+02 -.245E+04   0.296E+02 -.482E+02 0.245E+04   0.548E+00 -.785E+00 0.725E+00   0.297E-01 0.143E-01 0.526E-01
   0.571E+02 0.166E+01 -.245E+04   -.565E+02 -.154E+01 0.245E+04   -.954E+00 -.819E-01 0.725E+00   -.331E-02 -.316E-01 0.535E-01
   -.571E+02 0.166E+01 -.245E+04   0.565E+02 -.154E+01 0.245E+04   0.954E+00 -.819E-01 0.725E+00   0.223E-02 -.312E-01 0.528E-01
   0.271E+02 -.503E+02 -.245E+04   -.269E+02 0.497E+02 0.245E+04   -.406E+00 0.867E+00 0.725E+00   0.273E-01 0.186E-01 0.526E-01
   -.271E+02 -.503E+02 -.245E+04   0.269E+02 0.497E+02 0.245E+04   0.406E+00 0.867E+00 0.725E+00   -.259E-01 0.176E-01 0.528E-01
   0.349E-04 -.291E-04 -.248E+04   0.141E-03 -.491E-04 0.248E+04   -.195E-16 0.556E-17 0.602E+00   -.427E-02 -.217E-02 0.111E+00
   -.222E-04 -.149E-04 -.131E+04   0.740E-04 0.688E-05 0.131E+04   0.238E-17 0.211E-17 0.379E+01   0.324E-02 0.198E-02 -.479E-02
   0.108E-03 -.561E-04 -.140E+04   0.249E-04 0.158E-05 0.142E+04   0.339E-18 -.384E-18 -.202E+02   0.179E-02 0.109E-02 -.993E-01
   -.669E-03 -.834E-03 0.193E+02   -.114E-14 0.192E-12 0.659E-11   -.627E-15 -.437E-15 -.160E+02   0.242E-02 0.208E-02 -.296E+01

 POSITION                                       TOTAL-FORCE (eV/Angst)
      0.00000      0.00000      5.28038         0.000000      0.000000     -0.106301
      2.93784      0.00000      5.28038         0.001817      0.000537     -0.049180
      5.87568      0.00000      5.28038        -0.001817      0.000537     -0.049180
      1.46892      2.54424      5.28038         0.001373      0.001305     -0.049180
      4.40676      2.54424      5.28038         0.000000      0.000000     -0.088205
      7.34459      2.54424      5.28038        -0.001373      0.001305     -0.049180
      2.93784      5.08848      5.28038        -0.000444     -0.001842     -0.049180
      5.87568      5.08848      5.28038         0.000444     -0.001842     -0.049180
      8.81351      5.08848      5.28038         0.000000     -0.000000     -0.062785
      1.46892      0.84808      7.67911        -0.016144     -0.009320      0.107847
      4.40676      0.84808      7.67911        -0.000000     -0.043027      0.046976
      7.34459      0.84808      7.67911         0.016144     -0.009320      0.107847
      2.93784      3.39232      7.67911        -0.037262      0.021513      0.046976
      5.87568      3.39232      7.67911         0.037262      0.021513      0.046976
      8.81351      3.39232      7.67911        -0.000000     -0.046255      0.102915
      4.40676      5.93656      7.67911         0.000000      0.018641      0.107847
      7.34459      5.93656      7.67911        -0.040058      0.023127      0.102915
     10.28243      5.93656      7.67911         0.040058      0.023127      0.102915
      8.81351      1.69603     10.07479        -0.000000     -0.027310     -0.004118
      2.95306      1.70495     10.04990        -0.116750     -0.067406     -0.090396
      5.86045      1.70495     10.04990         0.116750     -0.067406     -0.090396
     10.26640      4.24966     10.05812         0.026025     -0.015026      0.021081
      4.40676      4.22282     10.04990         0.000000      0.134812     -0.090396
      7.36062      4.24966     10.05812        -0.026025     -0.015026      0.021081
     11.75147      6.78471     10.07479         0.023651      0.013655     -0.004118
      5.87556      6.78471     10.07479        -0.023651      0.013655     -0.004118
      8.81351      6.76613     10.05812         0.000000      0.030052      0.021081
      0.00000      0.00000     12.48774         0.000000      0.000000     -0.022546
      2.98478      0.07843     12.47445        -0.162528     -0.296510     -0.195201
      5.82873      0.07843     12.47445         0.162528     -0.296510     -0.195201
      1.56032      2.54568     12.47445        -0.338049      0.007501     -0.195201
      7.25320      2.54568     12.47445         0.338049      0.007501     -0.195201
      2.98229      5.00861     12.47445        -0.175521      0.289008     -0.195201
      5.83122      5.00861     12.47445         0.175521      0.289008     -0.195201
      8.81351      5.08848     12.49541         0.000000      0.000000      0.003002
      4.40676      2.54424     12.16834         0.000000     -0.000000      1.234207
      4.40676      2.54424     13.72524         0.000000      0.000000     -0.044005
    total drift:                                0.001751      0.001250      0.326804

  FREE ENERGIE OF THE ION-ELECTRON SYSTEM (eV)
  free  energy   TOTEN  =      -121.68679487 eV

  energy  without entropy=     -121.68679487  energy(sigma->0) =     -121.68679487

 stress matrix after NEB project (eV)
    -19.88583     -0.00000      0.00000
     -0.00000    -19.88583      0.00000
      0.00000      0.00000      1.74260
  FORCES: max atom, RMS     0.044005    0.007234
  FORCE total and by dimension    0.044005    0.044005
  Stress total and by dimension   28.176754   19.885835
|           W    W    AA    RRRRR   N    N  II  N    N   GGGG   !!!           |
|           W    W   A  A   R    R  NN   N  II  NN   N  G    G  !!!           |
|           W    W  A    A  R    R  N N  N  II  N N  N  G       !!!           |
|           W WW W  AAAAAA  RRRRR   N  N N  II  N  N N  G  GGG   !            |
|           WW  WW  A    A  R   R   N   NN  II  N   NN  G    G                |
|           W    W  A    A  R    R  N    N  II  N    N   GGGG   !!!           |
|     Tetrahedron method does not include variations of the Fermi             |
|     occupations, so forces and stress will be inaccurate. We suggest        |
|     using a different smearing scheme ISMEAR = 1 or 2 for metals in         |
|     relaxations.                                                            |

 total charge

# of ion       s       p       d       tot
    1        0.547   0.239   8.766   9.552
    2        0.543   0.241   8.764   9.549
    3        0.543   0.241   8.764   9.549
    4        0.543   0.241   8.764   9.549
    5        0.543   0.240   8.764   9.547
    6        0.543   0.241   8.764   9.549
    7        0.543   0.241   8.764   9.549
    8        0.543   0.241   8.764   9.549
    9        0.544   0.241   8.766   9.550
   10        0.519   0.308   8.771   9.597
   11        0.518   0.310   8.775   9.603
   12        0.519   0.308   8.771   9.597
   13        0.518   0.310   8.775   9.603
   14        0.518   0.310   8.775   9.603
   15        0.516   0.310   8.772   9.598
   16        0.519   0.308   8.771   9.597
   17        0.516   0.310   8.772   9.598
   18        0.516   0.310   8.772   9.598
   19        0.517   0.297   8.777   9.591
   20        0.547   0.333   8.750   9.630
   21        0.547   0.333   8.750   9.630
   22        0.512   0.312   8.772   9.595
   23        0.547   0.333   8.750   9.630
   24        0.512   0.312   8.772   9.595
   25        0.517   0.297   8.777   9.591
   26        0.517   0.297   8.777   9.591
   27        0.512   0.312   8.772   9.595
   28        0.544   0.221   8.763   9.528
   29        0.546   0.238   8.765   9.550
   30        0.546   0.238   8.765   9.550
   31        0.546   0.238   8.765   9.550
   32        0.546   0.238   8.765   9.550
   33        0.546   0.238   8.765   9.550
   34        0.546   0.238   8.765   9.550
   35        0.539   0.222   8.768   9.529
   36        0.363   0.428   5.325   6.117
   37        1.364   2.175   0.000   3.539
tot         20.366  12.253 312.180 344.800

 BZINTS: Fermi energy:    0.655355;  397.000000 electrons
         Band energy:-0.122690E+04;  BLOECHL correction:   -0.059227