 vasp.6.2.0 18Jan21 (build Jun 12 2021 23:27:24) complex

 executed on             LinuxIFC date 2022.05.30  17:01:35

 INCAR:
   ISMEAR = -5
   SIGMA = 0.1
   ISPIN = 1
   EDIFF = 1.d-5
   EDIFFG = -0.01
   NSW = 0
   NELM = 150
   ENCUT = 500
   ISIF = 2
   IBRION = 2
   LREAL = Auto
   ALGO = Fast
   ICHARG = 11
   LORBIT = 10
   LCHARG = .F.
   LWAVE = .F.

 POTCAR:    PAW_PBE Ag 02Apr2005
 POTCAR:    PAW_PBE Fe 06Sep2000
 POTCAR:    PAW_PBE O 08Apr2002
|           W    W    AA    RRRRR   N    N  II  N    N   GGGG   !!!           |
|           W    W   A  A   R    R  NN   N  II  NN   N  G    G  !!!           |
|           W    W  A    A  R    R  N N  N  II  N N  N  G       !!!           |
|           W WW W  AAAAAA  RRRRR   N  N N  II  N  N N  G  GGG   !            |
|           WW  WW  A    A  R   R   N   NN  II  N   NN  G    G                |
|           W    W  A    A  R    R  N    N  II  N    N   GGGG   !!!           |
|     For optimal performance we recommend to set                             |
|       NCORE = 2 up to number-of-cores-per-socket                            |
|     This setting can greatly improve the performance of VASP for DFT.       |
|     The default, NCORE=1 might be grossly inefficient on modern             |
|     multi-core architectures or massively parallel machines. Do your        |
|     Unfortunately you need to use the default for GW and RPA                |
|     calculations (for HF NCORE is supported but not extensively tested      |
|     yet).                                                                   |

 POTCAR:    PAW_PBE Ag 02Apr2005
   VRHFIN =Ag : s1 d10

   TITEL  = PAW_PBE Ag 02Apr2005
   POMASS =  107.868; ZVAL   =   11.000    mass and valenz
   ENMAX  =  249.844; ENMIN  =  187.383 eV

 POTCAR:    PAW_PBE Fe 06Sep2000
   VRHFIN =Fe:  d7 s1

   TITEL  = PAW_PBE Fe 06Sep2000
   POMASS =   55.847; ZVAL   =    8.000    mass and valenz
   ENMAX  =  267.882; ENMIN  =  200.911 eV

 POTCAR:    PAW_PBE O 08Apr2002
   VRHFIN =O: s2p4

   TITEL  = PAW_PBE O 08Apr2002
   POMASS =   16.000; ZVAL   =    6.000    mass and valenz
   ENMAX  =  400.000; ENMIN  =  300.000 eV

 Optimization of the real space projectors (new method)

 maximal supplied QI-value         = 15.12
 optimisation between [QCUT,QGAM] = [ 11.34, 22.83] = [ 36.00,145.93] Ry
 Optimized for a Real-space Cutoff    1.43 Angstroem

   l    n(q)    QCUT    max X(q) W(low)/X(q) W(high)/X(q)  e(spline)
   2      9    11.338    53.897    0.16E-03    0.20E-03    0.28E-06
   2      9    11.338    52.416    0.16E-03    0.20E-03    0.29E-06
   0     10    11.338   122.045    0.31E-04    0.76E-04    0.15E-06
   0     10    11.338    73.629    0.30E-04    0.72E-04    0.15E-06
   1      9    11.338    15.255    0.20E-03    0.19E-04    0.17E-06
   1      9    11.338     9.562    0.16E-03    0.15E-04    0.14E-06
 Optimization of the real space projectors (new method)

[...]

   l    n(q)    QCUT    max X(q) W(low)/X(q) W(high)/X(q)  e(spline)
   2      8    11.376    80.901    0.45E-03    0.44E-04    0.21E-06
   2      8    11.376    75.754    0.45E-03    0.45E-04    0.22E-06
   0      9    11.376    58.752    0.65E-04    0.95E-04    0.17E-06
   0      9    11.376    30.679    0.59E-04    0.87E-04    0.16E-06
   1      9    11.376    17.977    0.38E-03    0.10E-03    0.14E-06
   1      9    11.376    13.559    0.31E-03    0.90E-04    0.12E-06
 Optimization of the real space projectors (new method)

 maximal supplied QI-value         = 24.76
 optimisation between [QCUT,QGAM] = [ 11.39, 22.77] = [ 36.31,145.25] Ry
 Optimized for a Real-space Cutoff    1.00 Angstroem

   l    n(q)    QCUT    max X(q) W(low)/X(q) W(high)/X(q)  e(spline)
   0      7    11.387    20.381    0.39E-03    0.13E-02    0.15E-06
   0      7    11.387    15.268    0.42E-03    0.14E-02    0.17E-06
   1      6    11.387     5.964    0.41E-03    0.11E-02    0.17E-06
   1      6    11.387     5.382    0.39E-03    0.87E-03    0.15E-06
  PAW_PBE Ag 02Apr2005                  :
  PAW_PBE Fe 06Sep2000                  :
  PAW_PBE O 08Apr2002                   :

 POSCAR: Ag-Fe-O2
  positions in direct lattice
  velocities in cartesian coordinates
 exchange correlation table for  LEXCH =        8
   RHO(1)=    0.500       N(1)  =     2000
   RHO(2)=  100.500       N(2)  =     4000

 VTST: version 3.2, (02/03/18)

 CHAIN: initializing optimizer

 OPT: Using VASP Conjugate-Gradient optimizer
 CHAIN: Read ICHAIN            0

 POSCAR: Ag-Fe-O2
  positions in direct lattice
  velocities in cartesian coordinates

 ion  position               nearest neighbor table
   1  0.000  0.000  0.217-   2 2.93   8 2.93   7 2.93   6 2.93   4 2.93  12 2.93  16 2.93  10 2.93
                             3 2.93
   2  0.333  0.000  0.217-   1 2.93   8 2.93   9 2.93   3 2.93   4 2.93   5 2.93  10 2.93  17 2.93
                            11 2.93
   3  0.667  0.000  0.217-   9 2.93   2 2.93   5 2.93  11 2.93   7 2.93  18 2.93   1 2.93   6 2.93
                            12 2.93
   4  0.000  0.333  0.217-   5 2.93   6 2.93   2 2.93   1 2.93   7 2.93  13 2.93  15 2.93   9 2.93
                            10 2.93
   5  0.333  0.333  0.217-   4 2.93   3 2.93   7 2.93   2 2.93   8 2.93  14 2.93  13 2.93  11 2.93
                             6 2.93
   6  0.667  0.333  0.217-   4 2.93   9 2.93   1 2.93  15 2.93   8 2.93  12 2.93   3 2.93   5 2.93
                            14 2.93
   7  0.000  0.667  0.217-   8 2.93   1 2.93   5 2.93   3 2.93   4 2.93  16 2.93  18 2.93  13 2.93
                             9 2.93
   8  0.333  0.667  0.217-   7 2.93   1 2.93   2 2.93   9 2.93   5 2.93  16 2.93   6 2.93  17 2.93
                            14 2.93
   9  0.667  0.667  0.217-   3 2.93   2 2.93   8 2.93   6 2.93  17 2.93   4 2.93  15 2.93   7 2.93
                            18 2.93
  10  0.111  0.111  0.315-  20 2.92  19 2.93  26 2.93  12 2.93  16 2.93  15 2.93  17 2.93  13 2.93
                            11 2.93   2 2.93   1 2.93   4 2.93
  11  0.444  0.111  0.315-  21 2.90  20 2.90  27 2.92  14 2.93  17 2.93  18 2.93   3 2.93  12 2.93
                            13 2.93  10 2.93   5 2.93   2 2.93
  12  0.778  0.111  0.315-  21 2.92  25 2.93  19 2.93  10 2.93  16 2.93  18 2.93  15 2.93  11 2.93
                             1 2.93  14 2.93   6 2.93   3 2.93
  13  0.111  0.444  0.315-  20 2.90  23 2.90  22 2.92  15 2.93  14 2.93  18 2.93  10 2.93  11 2.93
                            16 2.93   4 2.93   5 2.93   7 2.93
  14  0.444  0.444  0.315-  23 2.90  21 2.90  24 2.92  13 2.93  11 2.93  16 2.93   5 2.93  12 2.93
                            17 2.93   8 2.93  15 2.93   6 2.93
  15  0.778  0.444  0.315-  24 2.92  22 2.92  19 2.93  13 2.93  10 2.93  12 2.93  17 2.93  18 2.93
                             4 2.93   6 2.93   9 2.93  14 2.93
  16  0.111  0.778  0.315-  23 2.92  26 2.93  25 2.93  18 2.93  12 2.93  10 2.93  14 2.93  17 2.93
                            13 2.93   7 2.93   8 2.93   1 2.93
  17  0.444  0.778  0.315-  27 2.92  24 2.92  26 2.93  11 2.93  10 2.93   9 2.93  18 2.93  15 2.93
                            16 2.93   2 2.93  14 2.93   8 2.93
  18  0.778  0.778  0.315-  22 2.92  27 2.92  25 2.93  16 2.93  12 2.93  13 2.93  11 2.93  17 2.93
                            15 2.93   7 2.93   3 2.93   9 2.93
  19  0.889  0.222  0.413-  28 2.91  15 2.93  10 2.93  12 2.93  24 2.93  22 2.93  26 2.93  25 2.93
                            20 2.94  21 2.94  32 2.94  31 2.94
  20  0.223  0.223  0.412-  36 2.70  31 2.89  29 2.89  13 2.90  11 2.90  21 2.91  23 2.91  10 2.92
                            27 2.94  22 2.94  19 2.94  26 2.94
  21  0.554  0.223  0.412-  36 2.70  30 2.89  32 2.89  11 2.90  14 2.90  20 2.91  23 2.91  12 2.92
                            27 2.94  24 2.94  25 2.94  19 2.94
  22  0.888  0.556  0.413-  35 2.91  18 2.92  15 2.92  33 2.92  31 2.92  13 2.92  24 2.92  27 2.92
                            25 2.93  19 2.93  23 2.94  20 2.94
  23  0.223  0.554  0.412-  36 2.70  34 2.89  33 2.89  14 2.90  13 2.90  21 2.91  20 2.91  16 2.92
                            22 2.94  24 2.94  26 2.94  25 2.94
  24  0.556  0.556  0.413-  35 2.91  15 2.92  17 2.92  32 2.92  34 2.92  14 2.92  27 2.92  22 2.92
                            19 2.93  26 2.93  23 2.94  21 2.94
  25  0.889  0.889  0.413-  28 2.91  18 2.93  16 2.93  12 2.93  22 2.93  27 2.93  26 2.93  19 2.93
                            23 2.94  21 2.94  33 2.94  30 2.94
  26  0.222  0.889  0.413-  28 2.91  17 2.93  16 2.93  10 2.93  27 2.93  24 2.93  25 2.93  19 2.93
                            23 2.94  20 2.94  34 2.94  29 2.94
  27  0.556  0.888  0.413-  35 2.91  17 2.92  18 2.92  29 2.92  30 2.92  11 2.92  24 2.92  22 2.92
                            26 2.93  25 2.93  20 2.94  21 2.94
  28  0.000  0.000  0.510-  26 2.91  25 2.91  19 2.91  29 2.97  34 2.97  33 2.97  32 2.97  31 2.97
                            30 2.97
  29  0.333  0.008  0.510-  31 2.86  30 2.86  36 2.87  20 2.89  27 2.92  26 2.94  28 2.97  35 2.97
                            34 3.07
  30  0.659  0.008  0.510-  32 2.86  29 2.86  36 2.87  21 2.89  27 2.92  25 2.94  28 2.97  35 2.97
                            33 3.07
  31  0.008  0.333  0.510-  37 2.59  29 2.86  33 2.86  36 2.87  20 2.89  22 2.92  19 2.94  28 2.97
                            35 2.97  32 3.07
  32  0.659  0.333  0.510-  38 2.59  30 2.86  34 2.86  36 2.87  21 2.89  24 2.92  19 2.94  28 2.97
                            35 2.97  31 3.07
  33  0.008  0.659  0.510-  34 2.86  31 2.86  36 2.87  23 2.89  22 2.92  25 2.94  28 2.97  35 2.97
                            30 3.07
  34  0.333  0.659  0.510-  33 2.86  32 2.86  36 2.87  23 2.89  24 2.92  26 2.94  28 2.97  35 2.97
                            29 3.07
  35  0.667  0.667  0.510-  24 2.91  27 2.91  22 2.91  32 2.97  30 2.97  29 2.97  34 2.97  31 2.97
                            33 2.97
  36  0.333  0.333  0.499-  38 1.87  37 1.87  21 2.70  20 2.70  23 2.70  31 2.87  30 2.87  33 2.87
                            29 2.87  34 2.87  32 2.87
  37  0.252  0.333  0.570-  38 1.43  36 1.87  31 2.59
  38  0.415  0.333  0.570-  37 1.43  36 1.87  32 2.59

  LATTYP: Found a hexagonal cell.
 ALAT       =     8.7913665772
 C/A-ratio  =     2.7711238095

  Lattice vectors:

 A1 = (  -4.3956832886,  -7.6135467898,   0.0000000000)
 A2 = (   8.7913665771,   0.0000000000,   0.0000000000)
 A3 = (   0.0000000000,   0.0000000000,  24.3619652401)

Analysis of symmetry for initial positions (statically):
 Subroutine PRICEL returns:
 Original cell was already a primitive cell.

 Routine SETGRP: Setting up the symmetry group for a
 hexagonal supercell.

 Subroutine GETGRP returns: Found  2 space group operations
 (whereof  2 operations were pure point group operations)
 out of a pool of 24 trial point group operations.

The static configuration has the point symmetry C_1h.

Analysis of symmetry for dynamics (positions and initial velocities):
 Subroutine PRICEL returns:
 Original cell was already a primitive cell.

[...]

The dynamic configuration has the point symmetry C_1h.

Analysis of constrained symmetry for selective dynamics:
 Subroutine PRICEL returns:
 Original cell was already a primitive cell.

[...]
     33      -5.0691      2.00000
     34      -5.0466      2.00000
     35      -5.0412      2.00000
     36      -5.0325      2.00000
     37      -4.9843      2.00000
     38      -4.9432      2.00000
     39      -4.9114      2.00000
     40      -4.8959      2.00000
     41      -4.8769      2.00000
     42      -4.8527      2.00000
     43      -4.8404      2.00000
     44      -4.8323      2.00000
     45      -4.8162      2.00000
     46      -4.8137      2.00000
     47      -4.7737      2.00000
     48      -4.7253      2.00000
     49      -4.6971      2.00000
     50      -4.6873      2.00000
     51      -4.6797      2.00000
     52      -4.6752      2.00000
     53      -4.6725      2.00000
     54      -4.6551      2.00000
     55      -4.6510      2.00000
     56      -4.6380      2.00000
     57      -4.6262      2.00000
     58      -4.5634      2.00000
     59      -4.5551      2.00000
     60      -4.5420      2.00000
[...]
    238       5.4936      0.00000
    239       5.5866      0.00000
    240       5.7097      0.00000
    241       5.8020      0.00000
    242       5.8623      0.00000
    243       5.8906      0.00000
    244       6.1424      0.00000
    245       6.4168      0.00000
    246       6.4211      0.00000
    247       6.5669      0.00000
    248       6.6280      0.00000
    249       6.7112      0.00000
    250       6.7197      0.00000
    251       6.7950      0.00000
    252       6.8162      0.00000

 soft charge-density along one line, spin component           1
         0         1         2         3         4         5         6         7         8         9
 total charge-density along one line

------------------------ aborting loop because EDIFF is reached ----------------------------------------

 total charge

# of ion       s       p       d       tot
    1        0.417   0.203   9.178   9.798
    2        0.417   0.203   9.177   9.798
    3        0.417   0.203   9.177   9.798
    4        0.418   0.203   9.178   9.799
    5        0.417   0.204   9.176   9.797
    6        0.418   0.203   9.178   9.799
    7        0.417   0.204   9.177   9.798
    8        0.417   0.204   9.177   9.798
    9        0.414   0.204   9.179   9.797
   10        0.407   0.268   9.164   9.839
   11        0.408   0.268   9.168   9.844
   12        0.407   0.268   9.164   9.839
   13        0.408   0.269   9.167   9.844
   14        0.408   0.269   9.167   9.844
   15        0.401   0.272   9.164   9.837
   16        0.405   0.270   9.164   9.839
   17        0.401   0.270   9.166   9.838
   18        0.401   0.270   9.166   9.838
   19        0.399   0.266   9.169   9.835
   20        0.428   0.294   9.147   9.868
   21        0.428   0.294   9.147   9.868
   22        0.398   0.275   9.166   9.839
   23        0.422   0.301   9.145   9.868
   24        0.398   0.275   9.166   9.839
   25        0.401   0.267   9.166   9.835
   26        0.401   0.267   9.166   9.835
   27        0.398   0.273   9.168   9.839
   28        0.416   0.194   9.181   9.790
   29        0.404   0.202   9.186   9.792
   30        0.404   0.202   9.186   9.792
   31        0.399   0.205   9.190   9.793
   32        0.399   0.205   9.190   9.793
   33        0.403   0.202   9.187   9.792
   34        0.403   0.202   9.187   9.792
   35        0.412   0.195   9.180   9.788
   36        0.382   0.433   6.319   7.134
   37        1.606   3.251   0.000   4.857
   38        1.606   3.251   0.000   4.857
tot         17.907  15.313 327.333 360.553

  FORCE on cell =-STRESS in cart. coord.  units (eV):
  Direction    XX          YY          ZZ          XY          YZ          ZX
  Alpha Z   705.14631   705.14631   705.14631
  Ewald  155812.78773155397.00766************     0.00007     0.51271     0.00009
  Hartree165897.37934165685.72639************     0.00003     0.38453     0.00004
  E(xc)   -2126.86947 -2127.86887 -2132.61083    -0.00002    -0.03852     0.00001
  Local  ************************332518.15743     0.00105    -0.99881    -0.00022
  n-local  -390.58562  -397.39459  -399.48987     2.32667     0.01644     0.08392
  augment  3266.81057  3273.44575  3277.40494    -0.00016     0.13720     0.00002
  Kinetic  5075.83946  5125.21432  5124.34598     1.13069     0.15397     0.04750
  Fock        0.00000     0.00000     0.00000     0.00000     0.00000     0.00000
  Total      -6.57729    -8.12507    -1.45049    -0.00000     0.16751     0.00000
  in kB      -6.46252    -7.98329    -1.42518    -0.00000     0.16459     0.00000

 VOLUME and BASIS-vectors are now :
  energy-cutoff  :      500.00
  volume of cell :     1630.63
      direct lattice vectors                 reciprocal lattice vectors
     8.791366577  0.000000000  0.000000000     0.113747958 -0.065672414  0.000000000
     4.395683289  7.613546790  0.000000000     0.000000000  0.131344829  0.000000000
     0.000000000  0.000000000 24.361965240     0.000000000  0.000000000  0.041047592

  length of vectors
     8.791366577  8.791366577 24.361965240     0.131344829  0.131344829  0.041047592

 FORCES acting on ions
    electron-ion (+dipol)            ewald-force                    non-local-force                 convergence-correction
   0.461E-04 -.230E-01 0.271E+04   -.954E-04 -.337E-01 -.271E+04   0.246E-12 0.374E-01 -.221E+01   -.163E-03 0.181E-01 -.748E-01
   0.626E+00 0.661E+00 0.271E+04   -.637E+00 -.719E+00 -.271E+04   0.127E-02 0.601E-01 -.161E+01   0.147E-01 0.103E-01 -.251E-01
   -.626E+00 0.661E+00 0.271E+04   0.637E+00 -.719E+00 -.271E+04   -.127E-02 0.601E-01 -.161E+01   -.152E-01 0.123E-01 -.243E-01
   0.732E+00 0.189E+00 0.271E+04   -.913E+00 -.207E+00 -.271E+04   0.122E+00 0.448E-02 -.164E+01   0.618E-01 0.101E-01 -.117E+00
   -.782E-05 0.789E-01 0.272E+04   0.981E-04 0.185E-02 -.271E+04   -.203E-12 -.310E-01 -.149E+01   0.628E-02 -.478E-01 -.364E-01
   -.732E+00 0.189E+00 0.271E+04   0.913E+00 -.207E+00 -.271E+04   -.122E+00 0.448E-02 -.164E+01   -.633E-01 0.110E-01 -.116E+00
   0.379E+00 -.840E+00 0.271E+04   -.275E+00 0.926E+00 -.271E+04   -.266E-01 -.739E-01 -.166E+01   -.578E-01 -.202E-01 -.932E-01
   -.379E+00 -.840E+00 0.271E+04   0.275E+00 0.926E+00 -.271E+04   0.266E-01 -.739E-01 -.166E+01   0.594E-01 -.212E-01 -.931E-01
   0.362E-04 -.894E-01 0.271E+04   0.792E-04 0.319E-01 -.271E+04   0.130E-12 0.199E-01 -.198E+01   -.664E-02 0.356E-01 -.996E-01
   0.582E+01 0.370E+01 0.959E+03   -.555E+01 -.346E+01 -.958E+03   -.377E+00 -.210E+00 -.717E+00   0.115E+00 -.256E-01 0.509E+00
   -.267E-04 0.764E+01 0.969E+03   0.418E-04 -.778E+01 -.970E+03   0.707E-12 0.108E+00 -.371E+00   0.665E-02 -.807E-02 0.553E+00
   -.582E+01 0.370E+01 0.959E+03   0.555E+01 -.346E+01 -.958E+03   0.377E+00 -.210E+00 -.717E+00   -.117E+00 -.244E-01 0.510E+00
   0.634E+01 -.387E+01 0.969E+03   -.649E+01 0.395E+01 -.970E+03   0.103E+00 -.447E-01 -.378E+00   0.212E-01 -.174E-01 0.580E+00
   -.634E+01 -.387E+01 0.969E+03   0.649E+01 0.395E+01 -.970E+03   -.103E+00 -.447E-01 -.378E+00   -.103E-01 -.186E-01 0.579E+00
   0.164E-04 0.103E+01 0.960E+03   -.109E-03 -.108E+01 -.959E+03   0.108E-12 0.164E-01 -.790E+00   -.185E-02 0.244E-01 0.431E+00
   -.843E-05 -.685E+01 0.958E+03   0.208E-04 0.646E+01 -.958E+03   0.271E-11 0.412E+00 -.818E+00   0.154E-04 -.504E-01 0.496E+00
   0.105E+01 -.757E+00 0.959E+03   -.109E+01 0.715E+00 -.959E+03   0.258E-01 -.174E-01 -.616E+00   0.555E-02 0.697E-01 0.453E+00
   -.105E+01 -.757E+00 0.959E+03   0.109E+01 0.715E+00 -.959E+03   -.258E-01 -.174E-01 -.616E+00   -.526E-02 0.720E-01 0.455E+00
   0.416E-04 0.386E+01 -.832E+03   -.130E-03 -.407E+01 0.831E+03   0.135E-11 0.206E+00 0.808E+00   -.645E-02 0.100E-01 0.744E+00
   0.337E+02 0.213E+02 -.772E+03   -.331E+02 -.209E+02 0.772E+03   -.112E+01 -.712E+00 -.115E+01   0.444E+00 0.236E+00 0.128E+01
   -.337E+02 0.213E+02 -.772E+03   0.331E+02 -.209E+02 0.772E+03   0.112E+01 -.712E+00 -.115E+01   -.443E+00 0.235E+00 0.128E+01
   0.155E+02 -.107E+02 -.817E+03   -.158E+02 0.109E+02 0.815E+03   0.172E+00 -.154E+00 0.551E+00   0.264E+00 -.115E+00 0.847E+00
   -.560E-04 -.415E+02 -.775E+03   0.464E-04 0.406E+02 0.774E+03   0.907E-11 0.138E+01 -.951E+00   0.734E-03 -.498E+00 0.135E+01
   -.155E+02 -.107E+02 -.817E+03   0.158E+02 0.109E+02 0.815E+03   -.172E+00 -.154E+00 0.551E+00   -.263E+00 -.116E+00 0.847E+00
   -.263E+01 -.678E+00 -.835E+03   0.272E+01 0.761E+00 0.833E+03   -.603E-01 -.508E-01 0.764E+00   -.483E-01 -.313E-01 0.727E+00
   0.263E+01 -.678E+00 -.835E+03   -.272E+01 0.761E+00 0.833E+03   0.603E-01 -.508E-01 0.764E+00   0.375E-01 -.326E-01 0.727E+00
   0.206E-04 0.178E+02 -.819E+03   0.109E-03 -.184E+02 0.817E+03   0.230E-11 0.350E+00 0.663E+00   0.102E-02 0.293E+00 0.786E+00
   0.545E-04 0.592E+01 -.262E+04   -.116E-03 -.607E+01 0.262E+04   0.342E-12 0.521E-01 0.186E+01   -.201E-03 0.726E-01 0.548E+00
   0.506E+02 0.106E+03 -.259E+04   -.507E+02 -.107E+03 0.258E+04   -.268E+00 0.201E+00 0.265E+01   0.238E+00 0.579E+00 0.476E+00
   -.506E+02 0.106E+03 -.259E+04   0.507E+02 -.107E+03 0.258E+04   0.268E+00 0.201E+00 0.265E+01   -.238E+00 0.580E+00 0.475E+00
   0.133E+03 -.308E+00 -.257E+04   -.134E+03 0.468E+00 0.256E+04   0.288E+00 -.108E+00 0.296E+01   0.797E+00 -.376E-01 0.492E+00
   -.133E+03 -.307E+00 -.257E+04   0.134E+03 0.468E+00 0.256E+04   -.288E+00 -.108E+00 0.296E+01   -.797E+00 -.372E-01 0.491E+00
   0.503E+02 -.105E+03 -.259E+04   -.505E+02 0.106E+03 0.258E+04   -.161E+00 -.122E+00 0.265E+01   0.244E+00 -.600E+00 0.395E+00
   -.503E+02 -.105E+03 -.259E+04   0.505E+02 0.106E+03 0.258E+04   0.161E+00 -.122E+00 0.265E+01   -.243E+00 -.600E+00 0.395E+00
   0.189E-04 -.585E+01 -.262E+04   0.108E-03 0.580E+01 0.262E+04   0.383E-12 0.584E-01 0.192E+01   -.634E-02 0.585E-02 0.550E+00
   -.305E-04 -.121E+01 -.150E+04   0.771E-04 0.105E+01 0.150E+04   0.124E-11 0.189E+00 0.203E+01   0.447E-02 0.431E-01 0.259E+00
   0.212E+03 -.155E+00 -.178E+04   -.244E+03 0.147E+00 0.180E+04   0.326E+02 0.745E-02 -.171E+02   0.145E+00 -.659E-02 -.431E+00
   -.212E+03 -.155E+00 -.178E+04   0.244E+03 0.147E+00 0.180E+04   -.326E+02 0.745E-02 -.171E+02   -.145E+00 -.654E-02 -.432E+00
   0.648E-03 -.366E+00 0.161E+02   0.284E-13 -.370E-13 -.500E-11   0.237E-11 0.360E+00 -.320E+02   -.198E-02 0.294E-02 0.157E+02

 POSITION                                       TOTAL-FORCE (eV/Angst)
      0.00000      0.00000      5.28219        -0.000000     -0.001143      0.001151
      2.93046      0.00000      5.28219         0.005215      0.013543      0.034210
      5.86091      0.00000      5.28219        -0.005215      0.013543      0.034210
      1.46523      2.53785      5.28219         0.004184     -0.003468      0.034930
      4.39568      2.53785      5.28219         0.000000      0.002050      0.016056
      7.32614      2.53785      5.28219        -0.004184     -0.003468      0.034930
      2.93046      5.07570      5.28219         0.019498     -0.008078      0.039801
      5.86091      5.07570      5.28219        -0.019498     -0.008078      0.039801
      8.79137      5.07570      5.28219        -0.000000     -0.001984      0.018040
      1.46523      0.84595      7.67490         0.011978      0.005377     -0.001292
      4.39568      0.84595      7.67490        -0.000000     -0.039458     -0.081476
      7.32614      0.84595      7.67490        -0.011978      0.005377     -0.001292
      2.93046      3.38380      7.67490        -0.031877      0.015639     -0.074916
      5.86091      3.38380      7.67490         0.031877      0.015639     -0.074916
      8.79137      3.38380      7.67490        -0.000000     -0.015068     -0.001875
      4.39568      5.92165      7.67490        -0.000000     -0.021340      0.012031
      7.32614      5.92165      7.67490        -0.012732      0.011394      0.009894
     10.25659      5.92165      7.67490         0.012732      0.011394      0.009894
      8.79137      1.69341     10.06265         0.000000      0.009809      0.042031
      2.94295      1.69911     10.03964        -0.050613     -0.019094     -0.088352
      5.84841      1.69911     10.03964         0.050613     -0.019094     -0.088352
     10.25212      4.23233     10.05217         0.053589     -0.032798      0.011859
      4.39568      4.21532     10.03964        -0.000000     -0.005802     -0.053541
      7.33061      4.23233     10.05217        -0.053589     -0.032798      0.011859
     11.72051      6.76684     10.06265        -0.017324      0.000735      0.035240
      5.86222      6.76684     10.06265         0.017324      0.000735      0.035240
      8.79137      6.76243     10.05217         0.000000      0.037090      0.014266
      0.00000      0.00000     12.42704        -0.000000     -0.023371      0.014973
      2.96539      0.06299     12.42777        -0.144131     -0.277368     -0.132807
      5.82597      0.06299     12.42777         0.144131     -0.277368     -0.132807
      1.53725      2.53661     12.42777        -0.576332      0.014670     -0.294724
      7.25412      2.53661     12.42777         0.576332      0.014670     -0.294724
      2.96754      5.01395     12.42777        -0.156407      0.273582     -0.116158
      5.82383      5.01395     12.42777         0.156407      0.273582     -0.116158
      8.79137      5.07570     12.42264         0.000000      0.012608      0.020556
      4.39568      2.53785     12.15183         0.000000      0.073880      1.116969
      3.68030      2.53265     13.87610         0.098194     -0.007770     -0.017275
      5.11107      2.53265     13.87610        -0.098194     -0.007770     -0.017275
    total drift:                               -0.001332     -0.003167     -0.140154

  FREE ENERGIE OF THE ION-ELECTRON SYSTEM (eV)
  free  energy   TOTEN  =      -106.12304036 eV

  energy  without entropy=     -106.12304036  energy(sigma->0) =     -106.12304036

 stress matrix after NEB project (eV)
     -6.57729     -0.00000      0.00000
     -0.00000     -8.12507      0.16751
      0.00000      0.16751     -1.45049
  FORCES: max atom, RMS     0.100004    0.022942
  FORCE total and by dimension    0.141427    0.098194
  Stress total and by dimension   10.556395    8.125067
|           W    W    AA    RRRRR   N    N  II  N    N   GGGG   !!!           |
|           W    W   A  A   R    R  NN   N  II  NN   N  G    G  !!!           |
|           W    W  A    A  R    R  N N  N  II  N N  N  G       !!!           |
|           W WW W  AAAAAA  RRRRR   N  N N  II  N  N N  G  GGG   !            |
|           WW  WW  A    A  R   R   N   NN  II  N   NN  G    G                |
|           W    W  A    A  R    R  N    N  II  N    N   GGGG   !!!           |
|     Tetrahedron method does not include variations of the Fermi             |
|     occupations, so forces and stress will be inaccurate. We suggest        |
|     using a different smearing scheme ISMEAR = 1 or 2 for metals in         |
|     relaxations.                                                            |

 total charge

# of ion       s       p       d       tot
    1        0.417   0.203   9.178   9.798
    2        0.417   0.203   9.177   9.798
    3        0.417   0.203   9.177   9.798
    4        0.418   0.203   9.178   9.799
    5        0.417   0.204   9.176   9.797
    6        0.418   0.203   9.178   9.799
    7        0.417   0.204   9.177   9.798
    8        0.417   0.204   9.177   9.798
    9        0.414   0.204   9.179   9.797
   10        0.407   0.268   9.164   9.839
   11        0.408   0.268   9.168   9.844
   12        0.407   0.268   9.164   9.839
   13        0.408   0.269   9.167   9.844
   14        0.408   0.269   9.167   9.844
   15        0.401   0.272   9.164   9.837
   16        0.405   0.270   9.164   9.839
   17        0.401   0.270   9.166   9.838
   18        0.401   0.270   9.166   9.838
   19        0.399   0.266   9.169   9.835
   20        0.428   0.294   9.147   9.868
   21        0.428   0.294   9.147   9.868
   22        0.398   0.275   9.166   9.839
   23        0.422   0.301   9.145   9.868
   24        0.398   0.275   9.166   9.839
   25        0.401   0.267   9.166   9.835
   26        0.401   0.267   9.166   9.835
   27        0.398   0.273   9.168   9.839
   28        0.416   0.194   9.181   9.790
   29        0.404   0.202   9.186   9.792
   30        0.404   0.202   9.186   9.792
   31        0.399   0.205   9.190   9.793
   32        0.399   0.205   9.190   9.793
   33        0.403   0.202   9.187   9.792
   34        0.403   0.202   9.187   9.792
   35        0.412   0.195   9.180   9.788
   36        0.382   0.433   6.319   7.134
   37        1.606   3.251   0.000   4.857
   38        1.606   3.251   0.000   4.857
tot         17.907  15.313 327.333 360.553

 BZINTS: Fermi energy:    0.317220;  405.000000 electrons
         Band energy:-0.158103E+04;  BLOECHL correction:   -0.027320