 vasp.6.2.0 18Jan21 (build Jun 12 2021 23:27:24) complex

 executed on             LinuxIFC date 2022.05.28  02:06:01

 INCAR:
   ISMEAR = -5
   SIGMA = 0.1
   ISPIN = 1
   EDIFF = 1.d-5
   EDIFFG = -0.01
   NSW = 0
   NELM = 150
   ENCUT = 500
   ISIF = 2
   IBRION = 2
   LREAL = Auto
   ALGO = Fast
   ICHARG = 11
   LORBIT = 10
   LCHARG = .F.
   LWAVE = .F.

 POTCAR:    PAW_PBE Ag 02Apr2005
 POTCAR:    PAW_PBE Os 17Jan2003
 POTCAR:    PAW_PBE H 15Jun2001
 POTCAR:    PAW_PBE O 08Apr2002
|           W    W    AA    RRRRR   N    N  II  N    N   GGGG   !!!           |
|           W    W   A  A   R    R  NN   N  II  NN   N  G    G  !!!           |
|           W    W  A    A  R    R  N N  N  II  N N  N  G       !!!           |
|           W WW W  AAAAAA  RRRRR   N  N N  II  N  N N  G  GGG   !            |
|           WW  WW  A    A  R   R   N   NN  II  N   NN  G    G                |
|           W    W  A    A  R    R  N    N  II  N    N   GGGG   !!!           |
|     For optimal performance we recommend to set                             |
|       NCORE = 2 up to number-of-cores-per-socket                            |
|     This setting can greatly improve the performance of VASP for DFT.       |
|     The default, NCORE=1 might be grossly inefficient on modern             |
|     multi-core architectures or massively parallel machines. Do your        |
|     Unfortunately you need to use the default for GW and RPA                |
|     calculations (for HF NCORE is supported but not extensively tested      |
|     yet).                                                                   |

 POTCAR:    PAW_PBE Ag 02Apr2005
   VRHFIN =Ag : s1 d10

   TITEL  = PAW_PBE Ag 02Apr2005
   POMASS =  107.868; ZVAL   =   11.000    mass and valenz
   ENMAX  =  249.844; ENMIN  =  187.383 eV

 POTCAR:    PAW_PBE Os 17Jan2003
   VRHFIN =Os: 6s5d

   TITEL  = PAW_PBE Os 17Jan2003
   POMASS =  190.200; ZVAL   =    8.000    mass and valenz
   ENMAX  =  228.022; ENMIN  =  171.017 eV

 POTCAR:    PAW_PBE H 15Jun2001
   VRHFIN =H: ultrasoft test

   TITEL  = PAW_PBE H 15Jun2001
   POMASS =    1.000; ZVAL   =    1.000    mass and valenz
   ENMAX  =  250.000; ENMIN  =  200.000 eV

 POTCAR:    PAW_PBE O 08Apr2002
   VRHFIN =O: s2p4

   TITEL  = PAW_PBE O 08Apr2002
   POMASS =   16.000; ZVAL   =    6.000    mass and valenz
   ENMAX  =  400.000; ENMIN  =  300.000 eV

 Optimization of the real space projectors (new method)

 maximal supplied QI-value         = 15.12
 optimisation between [QCUT,QGAM] = [ 11.34, 22.83] = [ 36.00,145.93] Ry
 Optimized for a Real-space Cutoff    1.43 Angstroem

   l    n(q)    QCUT    max X(q) W(low)/X(q) W(high)/X(q)  e(spline)
   2      9    11.338    53.897    0.16E-03    0.20E-03    0.28E-06
   2      9    11.338    52.416    0.16E-03    0.20E-03    0.29E-06
   0     10    11.338   122.045    0.31E-04    0.76E-04    0.15E-06
   0     10    11.338    73.629    0.30E-04    0.72E-04    0.15E-06
   1      9    11.338    15.255    0.20E-03    0.19E-04    0.17E-06
   1      9    11.338     9.562    0.16E-03    0.15E-04    0.14E-06
 Optimization of the real space projectors (new method)

[...]

   l    n(q)    QCUT    max X(q) W(low)/X(q) W(high)/X(q)  e(spline)
   0      8    11.287    19.460    0.40E-03    0.73E-03    0.16E-06
   0      8    11.287    12.209    0.38E-03    0.70E-03    0.15E-06
   1      7    11.287     4.655    0.22E-03    0.25E-04    0.22E-06
 Optimization of the real space projectors (new method)

 maximal supplied QI-value         = 24.76
 optimisation between [QCUT,QGAM] = [ 11.39, 22.77] = [ 36.31,145.25] Ry
 Optimized for a Real-space Cutoff    1.00 Angstroem

   l    n(q)    QCUT    max X(q) W(low)/X(q) W(high)/X(q)  e(spline)
   0      7    11.387    20.381    0.39E-03    0.13E-02    0.15E-06
   0      7    11.387    15.268    0.42E-03    0.14E-02    0.17E-06
   1      6    11.387     5.964    0.41E-03    0.11E-02    0.17E-06
   1      6    11.387     5.382    0.39E-03    0.87E-03    0.15E-06
  PAW_PBE Ag 02Apr2005                  :
  PAW_PBE Os 17Jan2003                  :
  PAW_PBE H 15Jun2001                   :
  PAW_PBE O 08Apr2002                   :

 POSCAR: Ag-Os-H2O
  positions in direct lattice
  velocities in cartesian coordinates
 exchange correlation table for  LEXCH =        8
   RHO(1)=    0.500       N(1)  =     2000
   RHO(2)=  100.500       N(2)  =     4000

 VTST: version 3.2, (02/03/18)

 CHAIN: initializing optimizer

 OPT: Using VASP Conjugate-Gradient optimizer
 CHAIN: Read ICHAIN            0

 POSCAR: Ag-Os-H2O
  positions in direct lattice
  velocities in cartesian coordinates

 ion  position               nearest neighbor table
   1  0.000  0.000  0.212-   2 2.93   8 2.93   7 2.93   6 2.93   4 2.93  12 2.93  16 2.93  10 2.93
                             3 2.93
   2  0.333  0.000  0.212-   1 2.93   8 2.93   9 2.93   3 2.93   4 2.93   5 2.93  10 2.93  17 2.93
                            11 2.93
   3  0.667  0.000  0.212-   9 2.93   2 2.93   5 2.93  11 2.93   7 2.93  18 2.93   1 2.93   6 2.93
                            12 2.93
   4  0.000  0.333  0.212-   5 2.93   6 2.93   2 2.93   1 2.93   7 2.93  13 2.93  15 2.93   9 2.93
                            10 2.93
   5  0.333  0.333  0.212-   4 2.93   3 2.93   7 2.93   2 2.93   8 2.93  14 2.93  13 2.93  11 2.93
                             6 2.93
   6  0.667  0.333  0.212-   4 2.93   9 2.93   1 2.93  15 2.93   8 2.93  12 2.93   3 2.93   5 2.93
                            14 2.93
   7  0.000  0.667  0.212-   8 2.93   1 2.93   5 2.93   3 2.93   4 2.93  16 2.93  18 2.93  13 2.93
                             9 2.93
   8  0.333  0.667  0.212-   7 2.93   1 2.93   2 2.93   9 2.93   5 2.93  16 2.93   6 2.93  17 2.93
                            14 2.93
   9  0.667  0.667  0.212-   3 2.93   2 2.93   8 2.93   6 2.93  17 2.93   4 2.93  15 2.93   7 2.93
                            18 2.93
  10  0.111  0.111  0.308-  20 2.89  12 2.93  16 2.93  15 2.93  17 2.93  13 2.93  11 2.93   2 2.93
                             1 2.93   4 2.93  19 2.93  26 2.93
  11  0.444  0.111  0.308-  21 2.89  20 2.89  27 2.92  14 2.93  17 2.93  18 2.93   3 2.93  12 2.93
                            13 2.93  10 2.93   5 2.93   2 2.93
  12  0.778  0.111  0.308-  21 2.89  10 2.93  16 2.93  18 2.93  15 2.93  11 2.93   1 2.93  14 2.93
                             6 2.93   3 2.93  25 2.93  19 2.93
  13  0.111  0.444  0.308-  20 2.89  23 2.89  22 2.92  15 2.93  14 2.93  18 2.93  10 2.93  11 2.93
                            16 2.93   4 2.93   5 2.93   7 2.93
  14  0.444  0.444  0.308-  23 2.89  21 2.89  24 2.92  13 2.93  11 2.93  16 2.93   5 2.93  12 2.93
                            17 2.93   8 2.93  15 2.93   6 2.93
  15  0.778  0.444  0.308-  24 2.92  22 2.92  19 2.93  13 2.93  10 2.93  12 2.93  17 2.93  18 2.93
                             4 2.93   6 2.93   9 2.93  14 2.93
  16  0.111  0.778  0.308-  23 2.89  18 2.93  12 2.93  10 2.93  14 2.93  17 2.93  13 2.93   7 2.93
                             8 2.93   1 2.93  26 2.93  25 2.93
  17  0.444  0.778  0.308-  27 2.92  24 2.92  26 2.93  11 2.93  10 2.93   9 2.93  18 2.93  15 2.93
                            16 2.93   2 2.93  14 2.93   8 2.93
  18  0.778  0.778  0.308-  22 2.92  27 2.92  25 2.93  16 2.93  12 2.93  13 2.93  11 2.93  17 2.93
                            15 2.93   7 2.93   3 2.93   9 2.93
  19  0.888  0.223  0.404-  28 2.90  24 2.93  22 2.93  15 2.93  20 2.93  21 2.93  10 2.93  12 2.93
                            26 2.94  25 2.94  32 2.95  31 2.95
  20  0.222  0.222  0.402-  36 2.76  13 2.89  11 2.89  10 2.89  31 2.93  29 2.93  21 2.93  23 2.93
                            19 2.93  26 2.93  27 2.94  22 2.94
  21  0.556  0.222  0.402-  36 2.76  11 2.89  14 2.89  12 2.89  30 2.93  32 2.93  20 2.93  23 2.93
                            25 2.93  19 2.93  27 2.94  24 2.94
  22  0.888  0.556  0.403-  35 2.90  18 2.92  15 2.92  24 2.92  27 2.92  13 2.92  25 2.93  19 2.93
                            33 2.94  31 2.94  23 2.94  20 2.94
  23  0.222  0.556  0.402-  36 2.76  14 2.89  13 2.89  16 2.89  34 2.93  33 2.93  21 2.93  20 2.93
                            26 2.93  25 2.93  22 2.94  24 2.94
  24  0.556  0.556  0.403-  35 2.90  15 2.92  17 2.92  27 2.92  22 2.92  14 2.92  19 2.93  26 2.93
                            32 2.94  34 2.94  23 2.94  21 2.94
  25  0.888  0.888  0.404-  28 2.90  22 2.93  27 2.93  18 2.93  23 2.93  21 2.93  16 2.93  12 2.93
                            26 2.94  19 2.94  33 2.95  30 2.95
  26  0.223  0.888  0.404-  28 2.90  27 2.93  24 2.93  17 2.93  23 2.93  20 2.93  16 2.93  10 2.93
                            25 2.94  19 2.94  34 2.95  29 2.95
  27  0.556  0.888  0.403-  35 2.90  17 2.92  18 2.92  24 2.92  22 2.92  11 2.92  26 2.93  25 2.93
                            29 2.94  30 2.94  20 2.94  21 2.94
  28  0.000  0.000  0.498-  26 2.90  25 2.90  19 2.90  29 2.96  34 2.96  33 2.96  32 2.96  31 2.96
                            30 2.96
  29  0.333  0.008  0.499-  31 2.86  30 2.87  36 2.88  20 2.93  27 2.94  26 2.95  28 2.96  35 2.97
                            34 3.06
  30  0.659  0.008  0.499-  32 2.86  29 2.87  36 2.88  21 2.93  27 2.94  25 2.95  28 2.96  35 2.97
                            33 3.06
  31  0.008  0.333  0.499-  29 2.86  33 2.87  36 2.88  20 2.93  22 2.94  19 2.95  28 2.96  35 2.97
                            32 3.06
  32  0.659  0.333  0.499-  30 2.86  34 2.87  36 2.88  21 2.93  24 2.94  19 2.95  28 2.96  35 2.97
                            31 3.06
  33  0.008  0.659  0.499-  34 2.86  31 2.87  36 2.88  23 2.93  22 2.94  25 2.95  28 2.96  35 2.97
                            30 3.06
  34  0.333  0.659  0.499-  33 2.86  32 2.87  36 2.88  23 2.93  24 2.94  26 2.95  28 2.96  35 2.97
                            29 3.06
  35  0.667  0.667  0.498-  24 2.90  27 2.90  22 2.90  30 2.97  32 2.97  29 2.97  34 2.97  31 2.97
                            33 2.97
  36  0.333  0.333  0.489-  39 2.30  21 2.76  20 2.76  23 2.76  31 2.88  30 2.88  33 2.88  29 2.88
                            34 2.88  32 2.88
  37  0.278  0.267  0.588-  39 0.98
  38  0.458  0.263  0.588-  39 0.98
  39  0.332  0.339  0.581-  37 0.98  38 0.98  36 2.30

  LATTYP: Found a hexagonal cell.
 ALAT       =     8.7913665772
 C/A-ratio  =     2.8382349142

  Lattice vectors:

 A1 = (  -4.3956832886,  -7.6135467898,   0.0000000000)
 A2 = (   8.7913665771,   0.0000000000,   0.0000000000)
 A3 = (   0.0000000000,   0.0000000000,  24.9519635625)

Analysis of symmetry for initial positions (statically):
 Subroutine PRICEL returns:
 Original cell was already a primitive cell.

 Routine SETGRP: Setting up the symmetry group for a
 hexagonal supercell.

 Subroutine GETGRP returns: Found  1 space group operations
 (whereof  1 operations were pure point group operations)
 out of a pool of 24 trial point group operations.

The static configuration has the point symmetry C_1 .

Analysis of symmetry for dynamics (positions and initial velocities):
 Subroutine PRICEL returns:
 Original cell was already a primitive cell.

[...]

The dynamic configuration has the point symmetry C_1 .

Analysis of constrained symmetry for selective dynamics:
 Subroutine PRICEL returns:
[...]
     41      -4.6877      2.00000
     42      -4.6580      2.00000
     43      -4.6522      2.00000
     44      -4.6381      2.00000
     45      -4.6273      2.00000
     46      -4.6213      2.00000
     47      -4.5366      2.00000
     48      -4.5119      2.00000
     49      -4.5008      2.00000
     50      -4.4881      2.00000
     51      -4.4852      2.00000
     52      -4.4795      2.00000
     53      -4.4701      2.00000
     54      -4.4645      2.00000
     55      -4.4579      2.00000
     56      -4.4424      2.00000
     57      -4.3692      2.00000
     58      -4.3638      2.00000
     59      -4.3581      2.00000
     60      -4.3556      2.00000
[...]
    238       5.7270      0.00000
    239       5.8432      0.00000
    240       5.8805      0.00000
    241       6.0215      0.00000
    242       6.1546      0.00000
    243       6.2340      0.00000
    244       6.3229      0.00000
    245       6.4024      0.00000
    246       6.4411      0.00000
    247       6.6244      0.00000
    248       6.7107      0.00000
    249       6.8765      0.00000
    250       6.9385      0.00000
    251       6.9966      0.00000
    252       7.1430      0.00000

 soft charge-density along one line, spin component           1
         0         1         2         3         4         5         6         7         8         9
 total charge-density along one line

------------------------ aborting loop because EDIFF is reached ----------------------------------------

 total charge

# of ion       s       p       d       tot
    1        0.417   0.202   9.177   9.796
    2        0.419   0.203   9.177   9.799
    3        0.419   0.203   9.177   9.799
    4        0.419   0.203   9.177   9.799
    5        0.417   0.204   9.177   9.798
    6        0.419   0.203   9.177   9.799
    7        0.419   0.202   9.178   9.799
    8        0.419   0.202   9.178   9.799
    9        0.414   0.202   9.180   9.796
   10        0.409   0.268   9.163   9.840
   11        0.411   0.267   9.169   9.847
   12        0.409   0.268   9.163   9.840
   13        0.410   0.268   9.169   9.846
   14        0.410   0.268   9.169   9.846
   15        0.402   0.268   9.166   9.837
   16        0.409   0.268   9.162   9.839
   17        0.402   0.269   9.166   9.837
   18        0.402   0.269   9.166   9.837
   19        0.404   0.265   9.165   9.834
   20        0.428   0.305   9.141   9.873
   21        0.428   0.305   9.141   9.873
   22        0.395   0.271   9.169   9.836
   23        0.427   0.305   9.141   9.873
   24        0.395   0.271   9.169   9.836
   25        0.403   0.265   9.165   9.833
   26        0.403   0.265   9.165   9.833
   27        0.396   0.271   9.169   9.836
   28        0.410   0.199   9.180   9.788
   29        0.425   0.225   9.162   9.812
   30        0.425   0.225   9.162   9.812
   31        0.425   0.223   9.162   9.811
   32        0.425   0.223   9.162   9.811
   33        0.421   0.218   9.167   9.805
   34        0.420   0.217   9.167   9.805
   35        0.401   0.201   9.181   9.783
   36        0.524   0.329   5.959   6.813
   37        0.606   0.119   0.000   0.724
   38        0.605   0.119   0.000   0.724
   39        1.568   3.595   0.000   5.164
tot         17.762  12.651 326.819 357.232

  FORCE on cell =-STRESS in cart. coord.  units (eV):
  Direction    XX          YY          ZZ          XY          YZ          ZX
  Alpha Z   689.02625   689.02625   689.02625
  Ewald  161862.83828161801.91725************    -1.29071   -13.67556    -1.39837
  Hartree171866.53806171855.31311************    -0.24366     0.54024    -0.62683
  E(xc)   -2101.38695 -2101.64238 -2106.71463    -0.00483    -0.01620    -0.00030
  Local  ************************344977.55338     1.17083     7.51452     1.73878
  n-local  -376.46782  -377.49838  -379.72045    -0.01486     0.02118    -0.00771
  augment  3242.60868  3243.85029  3253.77472     0.02257     0.26023     0.01457
  Kinetic  5020.25308  5037.74803  5069.24231     0.36354     5.35764     0.25583
  Fock        0.00000     0.00000     0.00000     0.00000     0.00000     0.00000
  Total      -9.03056    -9.18730     0.27137     0.00288     0.00205    -0.02404
  in kB      -8.66318    -8.81354     0.26033     0.00276     0.00197    -0.02306

 VOLUME and BASIS-vectors are now :
  energy-cutoff  :      500.00
  volume of cell :     1670.12
      direct lattice vectors                 reciprocal lattice vectors
     8.791366577  0.000000000  0.000000000     0.113747958 -0.065672414  0.000000000
     4.395683289  7.613546790  0.000000000     0.000000000  0.131344829  0.000000000
     0.000000000  0.000000000 24.951963562     0.000000000  0.000000000  0.040077006

  length of vectors
     8.791366577  8.791366577 24.951963562     0.131344829  0.131344829  0.040077006

 FORCES acting on ions
    electron-ion (+dipol)            ewald-force                    non-local-force                 convergence-correction
   -.362E-03 0.182E-01 0.273E+04   0.932E-03 -.692E-02 -.273E+04   -.692E-03 0.124E-01 -.233E+01   0.153E-03 -.203E-01 0.965E-01
   0.538E+00 0.576E+00 0.273E+04   -.560E+00 -.549E+00 -.273E+04   0.638E-01 0.508E-01 -.148E+01   -.367E-01 -.576E-01 0.731E-01
   -.538E+00 0.570E+00 0.273E+04   0.559E+00 -.550E+00 -.273E+04   -.623E-01 0.503E-01 -.148E+01   0.356E-01 -.494E-01 0.775E-01
   0.762E+00 0.197E+00 0.273E+04   -.749E+00 -.203E+00 -.273E+04   0.717E-01 0.211E-01 -.149E+01   -.646E-01 -.211E-01 0.662E-01
   -.112E-01 -.961E-02 0.273E+04   -.170E-02 0.106E-01 -.273E+04   -.273E-02 -.439E-02 -.141E+01   0.157E-01 -.134E-03 0.518E-01
   -.754E+00 0.188E+00 0.273E+04   0.750E+00 -.203E+00 -.273E+04   -.723E-01 0.213E-01 -.150E+01   0.560E-01 -.136E-01 0.728E-01
   0.163E+00 -.768E+00 0.273E+04   -.191E+00 0.751E+00 -.273E+04   0.313E-01 -.770E-01 -.152E+01   0.784E-02 0.795E-01 0.728E-01
   -.171E+00 -.761E+00 0.273E+04   0.190E+00 0.753E+00 -.273E+04   -.312E-01 -.786E-01 -.153E+01   0.106E-02 0.723E-01 0.750E-01
   0.131E-01 -.181E-02 0.273E+04   0.818E-03 -.357E-02 -.273E+04   0.253E-02 -.444E-02 -.198E+01   -.165E-01 0.101E-01 0.737E-01
   0.679E+01 0.394E+01 0.937E+03   -.617E+01 -.356E+01 -.936E+03   -.525E+00 -.298E+00 -.930E+00   -.668E-01 -.632E-01 0.254E+00
   -.757E-03 0.559E+01 0.944E+03   -.108E-01 -.569E+01 -.944E+03   -.245E-02 0.130E+00 -.333E+00   0.142E-01 -.908E-01 0.266E+00
   -.679E+01 0.394E+01 0.937E+03   0.618E+01 -.357E+01 -.936E+03   0.524E+00 -.298E+00 -.929E+00   0.594E-01 -.551E-01 0.255E+00
   0.481E+01 -.286E+01 0.944E+03   -.493E+01 0.291E+01 -.944E+03   0.123E+00 -.864E-01 -.367E+00   -.487E-01 0.647E-01 0.270E+00
   -.482E+01 -.286E+01 0.944E+03   0.492E+01 0.291E+01 -.944E+03   -.126E+00 -.852E-01 -.368E+00   0.744E-01 0.638E-01 0.272E+00
   0.200E-02 0.164E+01 0.938E+03   0.113E-01 -.175E+01 -.937E+03   -.104E-02 0.733E-01 -.742E+00   -.121E-01 0.107E-01 0.220E+00
   -.263E-02 -.775E+01 0.937E+03   -.115E-02 0.706E+01 -.936E+03   0.349E-03 0.597E+00 -.960E+00   0.358E-02 0.610E-01 0.271E+00
   0.152E+01 -.816E+00 0.938E+03   -.158E+01 0.851E+00 -.937E+03   0.431E-01 -.240E-01 -.755E+00   -.180E-01 0.465E-02 0.225E+00
   -.152E+01 -.818E+00 0.938E+03   0.158E+01 0.839E+00 -.937E+03   -.434E-01 -.225E-01 -.754E+00   0.150E-01 0.169E-01 0.226E+00
   -.671E-01 0.194E+01 -.888E+03   0.816E-01 -.199E+01 0.887E+03   0.737E-03 0.741E-01 0.518E+00   -.159E-01 -.281E-01 0.260E+00
   0.112E+02 0.609E+01 -.846E+03   -.967E+01 -.520E+01 0.847E+03   -.153E+01 -.873E+00 -.153E+01   0.524E-01 0.478E-02 0.397E+00
   -.111E+02 0.610E+01 -.845E+03   0.959E+01 -.523E+01 0.846E+03   0.153E+01 -.866E+00 -.152E+01   -.439E-01 0.157E-01 0.399E+00
   0.145E+01 -.107E+01 -.875E+03   -.191E+01 0.128E+01 0.874E+03   0.451E+00 -.230E+00 0.520E+00   0.220E-01 0.719E-02 0.240E+00
   0.503E-01 -.131E+02 -.847E+03   -.677E-01 0.113E+02 0.848E+03   0.207E-02 0.179E+01 -.153E+01   0.143E-01 -.122E-01 0.374E+00
   -.150E+01 -.113E+01 -.875E+03   0.198E+01 0.135E+01 0.874E+03   -.445E+00 -.230E+00 0.522E+00   -.480E-01 0.698E-03 0.239E+00
   -.199E+01 -.514E+00 -.888E+03   0.202E+01 0.598E+00 0.888E+03   -.284E-01 -.726E-01 0.574E+00   0.506E-02 -.949E-02 0.250E+00
   0.197E+01 -.583E+00 -.889E+03   -.200E+01 0.679E+00 0.888E+03   0.335E-01 -.738E-01 0.576E+00   -.180E-01 -.207E-01 0.253E+00
   0.315E-01 0.223E+01 -.874E+03   -.252E-01 -.279E+01 0.874E+03   0.170E-02 0.547E+00 0.490E+00   -.828E-02 0.286E-01 0.238E+00
   -.200E+00 0.153E+01 -.266E+04   0.197E+00 -.156E+01 0.266E+04   -.566E-03 0.303E-01 0.188E+01   0.357E-02 0.129E-02 -.372E-01
   0.253E+02 0.453E+02 -.265E+04   -.245E+02 -.442E+02 0.264E+04   -.870E+00 -.132E+01 0.106E+01   0.892E-04 0.401E-01 -.800E-01
   -.251E+02 0.460E+02 -.264E+04   0.243E+02 -.449E+02 0.264E+04   0.876E+00 -.132E+01 0.105E+01   -.169E-01 0.503E-01 -.814E-01
   0.497E+02 -.285E+01 -.265E+04   -.483E+02 0.298E+01 0.265E+04   -.163E+01 -.104E+00 0.115E+01   0.421E-01 -.242E-01 -.544E-01
   -.506E+02 -.297E+01 -.265E+04   0.492E+02 0.308E+01 0.264E+04   0.163E+01 -.101E+00 0.117E+01   -.703E-01 -.173E-01 -.605E-01
   0.235E+02 -.408E+02 -.265E+04   -.230E+02 0.396E+02 0.265E+04   -.604E+00 0.133E+01 0.155E+01   0.455E-01 -.425E-01 -.674E-01
   -.234E+02 -.413E+02 -.265E+04   0.229E+02 0.402E+02 0.265E+04   0.604E+00 0.132E+01 0.157E+01   -.531E-01 -.518E-01 -.724E-01
   -.117E+00 0.680E+00 -.266E+04   0.126E+00 -.691E+00 0.266E+04   0.344E-02 0.112E-01 0.211E+01   -.131E-01 0.180E-02 0.268E-01
   0.788E+00 -.348E+01 -.173E+04   -.812E+00 0.342E+01 0.173E+04   0.191E-01 0.647E-01 0.225E+01   0.115E-01 0.925E-02 -.961E-01
   0.692E+02 0.446E+02 -.292E+03   -.761E+02 -.491E+02 0.294E+03   0.684E+01 0.446E+01 -.142E+01   0.133E-02 0.211E-02 -.106E-01
   -.675E+02 0.472E+02 -.292E+03   0.742E+02 -.519E+02 0.293E+03   -.668E+01 0.472E+01 -.132E+01   -.784E-03 0.267E-02 -.109E-01
   -.784E+00 -.580E+02 -.167E+04   0.165E+01 0.103E+03 0.167E+04   -.877E+00 -.450E+02 0.372E+01   0.818E-02 0.197E-01 -.942E-01
   0.751E+00 0.359E+02 0.247E+01   -.855E-13 0.313E-12 -.136E-11   -.688E+00 -.359E+02 -.748E+01   -.624E-01 -.983E-02 0.493E+01

 POSITION                                       TOTAL-FORCE (eV/Angst)
      0.00000      0.00000      5.28219         0.000021      0.003263     -0.008809
      2.93046      0.00000      5.28219         0.005781      0.020402      0.021988
      5.86091      0.00000      5.28219        -0.005839      0.020442      0.021965
      1.46523      2.53785      5.28219         0.020574     -0.006200      0.023364
      4.39568      2.53785      5.28219         0.000039     -0.003561     -0.004787
      7.32614      2.53785      5.28219        -0.020496     -0.006432      0.023358
      2.93046      5.07570      5.28219         0.011444     -0.014717      0.023160
      5.86091      5.07570      5.28219        -0.011600     -0.014480      0.023022
      8.79137      5.07570      5.28219        -0.000072      0.000218      0.007484
      1.46523      0.84595      7.67490         0.023961      0.012991      0.009878
      4.39568      0.84595      7.67490         0.000200     -0.052369     -0.091028
      7.32614      0.84595      7.67490        -0.024219      0.013240      0.010226
      2.93046      3.38380      7.67490        -0.043706      0.026459     -0.089677
      5.86091      3.38380      7.67490         0.044185      0.026552     -0.089757
      8.79137      3.38380      7.67490         0.000146     -0.028319      0.012256
      4.39568      5.92165      7.67490         0.000141     -0.030488      0.002999
      7.32614      5.92165      7.67490        -0.028033      0.015364      0.013824
     10.25659      5.92165      7.67490         0.027953      0.015195      0.013810
      8.79137      1.69824     10.07044        -0.000664     -0.006508     -0.022437
      2.93075      1.69207     10.02201         0.044592      0.024502     -0.074510
      5.86061      1.69207     10.02201        -0.044964      0.023844     -0.077853
     10.25044      4.23330     10.05478         0.012502     -0.007314     -0.012351
      4.39568      4.22940     10.02201        -0.001003     -0.046007     -0.063738
      7.33230      4.23330     10.05478        -0.012386     -0.007163     -0.011729
     11.71633      6.76443     10.07044         0.008459      0.001481     -0.013608
      5.86640      6.76443     10.07044        -0.009064      0.001225     -0.013304
      8.79137      6.76048     10.05478        -0.000289      0.014692     -0.024520
      0.00000      0.00000     12.42728         0.000097     -0.000605      0.042042
      2.96092      0.05748     12.44843        -0.059073     -0.100203     -0.033641
      5.83045      0.05748     12.44843         0.059677     -0.103484     -0.036288
      1.53024      2.53549     12.44843        -0.114633     -0.000777     -0.039789
      7.26113      2.53549     12.44843         0.120037     -0.001413     -0.045385
      2.96500      5.02058     12.44843        -0.076702      0.099214     -0.043194
      5.82636      5.02058     12.44843         0.076338      0.102154     -0.045029
      8.79137      5.07570     12.42122        -0.000053      0.001568      0.019923
      4.39568      2.53785     12.20312         0.006612      0.010098      0.618525
      3.62045      2.03078     14.68007        -0.012971     -0.006804      0.002116
      5.18061      2.00060     14.66835         0.007341     -0.003718      0.000012
      4.41006      2.58202     14.50385        -0.004333      0.007659     -0.048517
    total drift:                                0.000360      0.002017     -0.078178

  FREE ENERGIE OF THE ION-ELECTRON SYSTEM (eV)
  free  energy   TOTEN  =      -111.37320088 eV

  energy  without entropy=     -111.37320088  energy(sigma->0) =     -111.37320088

 stress matrix after NEB project (eV)
     -9.03056      0.00288     -0.02404
      0.00288     -9.18730      0.00205
     -0.02404      0.00205      0.27137
  FORCES: max atom, RMS     0.049308    0.008348
  FORCE total and by dimension    0.052135    0.048517
  Stress total and by dimension   12.885354    9.187300
|           W    W    AA    RRRRR   N    N  II  N    N   GGGG   !!!           |
|           W    W   A  A   R    R  NN   N  II  NN   N  G    G  !!!           |
|           W    W  A    A  R    R  N N  N  II  N N  N  G       !!!           |
|           W WW W  AAAAAA  RRRRR   N  N N  II  N  N N  G  GGG   !            |
|           WW  WW  A    A  R   R   N   NN  II  N   NN  G    G                |
|           W    W  A    A  R    R  N    N  II  N    N   GGGG   !!!           |
|     Tetrahedron method does not include variations of the Fermi             |
|     occupations, so forces and stress will be inaccurate. We suggest        |
|     using a different smearing scheme ISMEAR = 1 or 2 for metals in         |
|     relaxations.                                                            |

 total charge

# of ion       s       p       d       tot
    1        0.417   0.202   9.177   9.796
    2        0.419   0.203   9.177   9.799
    3        0.419   0.203   9.177   9.799
    4        0.419   0.203   9.177   9.799
    5        0.417   0.204   9.177   9.798
    6        0.419   0.203   9.177   9.799
    7        0.419   0.202   9.178   9.799
    8        0.419   0.202   9.178   9.799
    9        0.414   0.202   9.180   9.796
   10        0.409   0.268   9.163   9.840
   11        0.411   0.267   9.169   9.847
   12        0.409   0.268   9.163   9.840
   13        0.410   0.268   9.169   9.846
   14        0.410   0.268   9.169   9.846
   15        0.402   0.268   9.166   9.837
   16        0.409   0.268   9.162   9.839
   17        0.402   0.269   9.166   9.837
   18        0.402   0.269   9.166   9.837
   19        0.404   0.265   9.165   9.834
   20        0.428   0.305   9.141   9.873
   21        0.428   0.305   9.141   9.873
   22        0.395   0.271   9.169   9.836
   23        0.427   0.305   9.141   9.873
   24        0.395   0.271   9.169   9.836
   25        0.403   0.265   9.165   9.833
   26        0.403   0.265   9.165   9.833
   27        0.396   0.271   9.169   9.836
   28        0.410   0.199   9.180   9.788
   29        0.425   0.225   9.162   9.812
   30        0.425   0.225   9.162   9.812
   31        0.425   0.223   9.162   9.811
   32        0.425   0.223   9.162   9.811
   33        0.421   0.218   9.167   9.805
   34        0.420   0.217   9.167   9.805
   35        0.401   0.201   9.181   9.783
   36        0.524   0.329   5.959   6.813
   37        0.606   0.119   0.000   0.724
   38        0.605   0.119   0.000   0.724
   39        1.568   3.595   0.000   5.164
tot         17.762  12.651 326.819 357.232

 BZINTS: Fermi energy:    0.473944;  401.000000 electrons
         Band energy:-0.148060E+04;  BLOECHL correction:   -0.043335