 vasp.6.2.0 18Jan21 (build Jun 12 2021 23:27:24) complex

 executed on             LinuxIFC date 2022.05.27  05:03:14

 INCAR:
   ISMEAR = -5
   SIGMA = 0.1
   ISPIN = 1
   EDIFF = 1.d-5
   EDIFFG = -0.01
   NSW = 0
   NELM = 150
   ENCUT = 500
   ISIF = 2
   IBRION = 2
   LREAL = Auto
   ALGO = Fast
   ICHARG = 11
   LORBIT = 10
   LCHARG = .F.
   LWAVE = .F.

 POTCAR:    PAW_PBE Au 04Oct2007
 POTCAR:    PAW_PBE Fe 06Sep2000
 POTCAR:    PAW_PBE O 08Apr2002
 POTCAR:    PAW_PBE H 15Jun2001
|           W    W    AA    RRRRR   N    N  II  N    N   GGGG   !!!           |
|           W    W   A  A   R    R  NN   N  II  NN   N  G    G  !!!           |
|           W    W  A    A  R    R  N N  N  II  N N  N  G       !!!           |
|           W WW W  AAAAAA  RRRRR   N  N N  II  N  N N  G  GGG   !            |
|           WW  WW  A    A  R   R   N   NN  II  N   NN  G    G                |
|           W    W  A    A  R    R  N    N  II  N    N   GGGG   !!!           |
|     For optimal performance we recommend to set                             |
|       NCORE = 2 up to number-of-cores-per-socket                            |
|     This setting can greatly improve the performance of VASP for DFT.       |
|     The default, NCORE=1 might be grossly inefficient on modern             |
|     multi-core architectures or massively parallel machines. Do your        |
|     Unfortunately you need to use the default for GW and RPA                |
|     calculations (for HF NCORE is supported but not extensively tested      |
|     yet).                                                                   |

 POTCAR:    PAW_PBE Au 04Oct2007
   VRHFIN =Au: s1d10

   TITEL  = PAW_PBE Au 04Oct2007
   POMASS =  196.966; ZVAL   =   11.000    mass and valenz
   ENMAX  =  229.943; ENMIN  =  172.457 eV

 POTCAR:    PAW_PBE Fe 06Sep2000
   VRHFIN =Fe:  d7 s1

   TITEL  = PAW_PBE Fe 06Sep2000
   POMASS =   55.847; ZVAL   =    8.000    mass and valenz
   ENMAX  =  267.882; ENMIN  =  200.911 eV

 POTCAR:    PAW_PBE O 08Apr2002
   VRHFIN =O: s2p4

   TITEL  = PAW_PBE O 08Apr2002
   POMASS =   16.000; ZVAL   =    6.000    mass and valenz
   ENMAX  =  400.000; ENMIN  =  300.000 eV

 POTCAR:    PAW_PBE H 15Jun2001
   VRHFIN =H: ultrasoft test

   TITEL  = PAW_PBE H 15Jun2001
   POMASS =    1.000; ZVAL   =    1.000    mass and valenz
   ENMAX  =  250.000; ENMIN  =  200.000 eV

 Optimization of the real space projectors (new method)

 maximal supplied QI-value         = 15.12
 optimisation between [QCUT,QGAM] = [ 11.34, 22.83] = [ 36.00,145.93] Ry
 Optimized for a Real-space Cutoff    1.39 Angstroem

   l    n(q)    QCUT    max X(q) W(low)/X(q) W(high)/X(q)  e(spline)
   2      9    11.338    60.898    0.39E-03    0.42E-03    0.21E-06
   2      9    11.338    58.894    0.40E-03    0.42E-03    0.22E-06
   0      9    11.338   109.617    0.13E-03    0.20E-04    0.13E-06
   0      9    11.338    75.026    0.13E-03    0.20E-04    0.13E-06
   1      9    11.338    16.344    0.33E-04    0.24E-03    0.18E-06
   1      9    11.338    10.160    0.26E-04    0.19E-03    0.15E-06
 Optimization of the real space projectors (new method)

[...]

   l    n(q)    QCUT    max X(q) W(low)/X(q) W(high)/X(q)  e(spline)
   0      7    11.387    20.381    0.39E-03    0.13E-02    0.15E-06
   0      7    11.387    15.268    0.42E-03    0.14E-02    0.17E-06
   1      6    11.387     5.964    0.41E-03    0.11E-02    0.17E-06
   1      6    11.387     5.382    0.39E-03    0.87E-03    0.15E-06
 Optimization of the real space projectors (new method)

 maximal supplied QI-value         = 34.20
 optimisation between [QCUT,QGAM] = [ 11.29, 22.57] = [ 35.68,142.71] Ry
 Optimized for a Real-space Cutoff    1.16 Angstroem

   l    n(q)    QCUT    max X(q) W(low)/X(q) W(high)/X(q)  e(spline)
   0      8    11.287    19.460    0.40E-03    0.73E-03    0.16E-06
   0      8    11.287    12.209    0.38E-03    0.70E-03    0.15E-06
   1      7    11.287     4.655    0.22E-03    0.25E-04    0.22E-06
  PAW_PBE Au 04Oct2007                  :
  PAW_PBE Fe 06Sep2000                  :
  PAW_PBE O 08Apr2002                   :
  PAW_PBE H 15Jun2001                   :

 POSCAR: Au-Fe-OH
  positions in direct lattice
  velocities in cartesian coordinates
 exchange correlation table for  LEXCH =        8
   RHO(1)=    0.500       N(1)  =     2000
   RHO(2)=  100.500       N(2)  =     4000

 VTST: version 3.2, (02/03/18)

 CHAIN: initializing optimizer

 OPT: Using VASP Conjugate-Gradient optimizer
 CHAIN: Read ICHAIN            0

 POSCAR: Au-Fe-OH
  positions in direct lattice
  velocities in cartesian coordinates

 ion  position               nearest neighbor table
   1  0.000  0.000  0.238-  16 2.94  12 2.94   6 2.94   8 2.94   7 2.94   3 2.94  10 2.94   4 2.94
                             2 2.94
   2  0.333  0.000  0.238-   9 2.94  11 2.94  17 2.94  10 2.94   8 2.94   4 2.94   5 2.94   1 2.94
                             3 2.94
   3  0.667  0.000  0.238-   7 2.94  18 2.94  12 2.94   1 2.94  11 2.94   5 2.94   6 2.94   9 2.94
                             2 2.94
   4  0.000  0.333  0.238-  10 2.94   6 2.94   5 2.94  13 2.94   2 2.94  15 2.94   9 2.94   1 2.94
                             7 2.94
   5  0.333  0.333  0.238-  13 2.94   7 2.94  11 2.94   4 2.94   2 2.94  14 2.94   3 2.94   8 2.94
                             6 2.94
   6  0.667  0.333  0.238-  15 2.94  14 2.94   1 2.94  12 2.94   4 2.94   9 2.94   8 2.94   3 2.94
                             5 2.94
   7  0.000  0.667  0.238-  18 2.94   3 2.94  16 2.94   5 2.94   1 2.94  13 2.94   8 2.94   4 2.94
                             9 2.94
   8  0.333  0.667  0.238-   9 2.94  17 2.94   1 2.94   2 2.94  14 2.94  16 2.94   6 2.94   7 2.94
                             5 2.94
   9  0.667  0.667  0.238-   2 2.94   8 2.94  17 2.94   6 2.94  15 2.94   4 2.94   3 2.94  18 2.94
                             7 2.94
  10  0.111  0.111  0.346-  20 2.93  26 2.94  19 2.94  11 2.94  17 2.94   2 2.94   4 2.94   1 2.94
                            12 2.94  16 2.94  13 2.94  15 2.94
  11  0.444  0.111  0.346-  20 2.91  21 2.91  27 2.93  13 2.94   2 2.94  10 2.94  17 2.94   5 2.94
                             3 2.94  18 2.94  14 2.94  12 2.94
  12  0.778  0.111  0.346-  21 2.93  25 2.94  19 2.94  16 2.94  18 2.94   1 2.94  14 2.94  15 2.94
                             3 2.94   6 2.94  10 2.94  11 2.94
  13  0.111  0.444  0.346-  23 2.91  20 2.91  22 2.93   5 2.94  18 2.94  11 2.94   7 2.94   4 2.94
                            16 2.94  10 2.94  14 2.94  15 2.94
  14  0.444  0.444  0.346-  21 2.91  23 2.91  24 2.93  15 2.94   6 2.94  12 2.94   8 2.94  17 2.94
                             5 2.94  16 2.94  13 2.94  11 2.94
  15  0.778  0.444  0.346-  24 2.92  22 2.92  19 2.94  14 2.94   6 2.94  17 2.94  12 2.94   9 2.94
                             4 2.94  10 2.94  13 2.94  18 2.94
  16  0.111  0.778  0.346-  23 2.93  25 2.94  26 2.94  18 2.94  12 2.94   7 2.94   1 2.94   8 2.94
                            13 2.94  10 2.94  14 2.94  17 2.94
  17  0.444  0.778  0.346-  27 2.92  24 2.92  26 2.94   9 2.94  15 2.94   2 2.94  10 2.94  11 2.94
                             8 2.94  14 2.94  16 2.94  18 2.94
  18  0.778  0.778  0.346-  22 2.92  27 2.92  25 2.94  16 2.94   7 2.94  13 2.94  12 2.94   3 2.94
                            11 2.94   9 2.94  15 2.94  17 2.94
  19  0.889  0.222  0.454-  10 2.94  12 2.94  15 2.94  26 2.94  25 2.94  24 2.94  22 2.94  28 2.95
                            21 2.95  20 2.95  32 2.98  31 2.98
  20  0.223  0.223  0.453-  36 2.70  23 2.91  21 2.91  11 2.91  13 2.91  29 2.92  31 2.92  10 2.93
                            27 2.95  22 2.95  26 2.95  19 2.95
  21  0.553  0.223  0.453-  36 2.70  20 2.91  23 2.91  14 2.91  11 2.91  30 2.92  32 2.92  12 2.93
                            27 2.95  24 2.95  25 2.95  19 2.95
  22  0.887  0.557  0.453-  24 2.91  27 2.91  18 2.92  15 2.92  13 2.93  25 2.94  19 2.94  33 2.95
                            31 2.95  23 2.95  20 2.95  35 2.95
  23  0.223  0.553  0.453-  36 2.70  20 2.91  21 2.91  13 2.91  14 2.91  33 2.92  34 2.92  16 2.93
                            22 2.95  24 2.95  25 2.95  26 2.95
  24  0.557  0.557  0.453-  27 2.91  22 2.91  15 2.92  17 2.92  14 2.93  26 2.94  19 2.94  32 2.95
                            34 2.95  21 2.95  23 2.95  35 2.95
  25  0.889  0.889  0.454-  16 2.94  12 2.94  18 2.94  19 2.94  26 2.94  22 2.94  27 2.94  28 2.95
                            23 2.95  21 2.95  33 2.98  30 2.98
  26  0.222  0.889  0.454-  10 2.94  16 2.94  17 2.94  19 2.94  25 2.94  27 2.94  24 2.94  28 2.95
                            20 2.95  23 2.95  29 2.98  34 2.98
  27  0.557  0.887  0.453-  24 2.91  22 2.91  17 2.92  18 2.92  11 2.93  26 2.94  25 2.94  29 2.95
                            30 2.95  20 2.95  21 2.95  35 2.95
  28  0.000  0.000  0.563-  25 2.95  19 2.95  26 2.95  34 2.98  32 2.98  33 2.98  30 2.98  31 2.98
                            29 2.98
  29  0.333  0.010  0.562-  30 2.85  31 2.85  36 2.87  20 2.92  27 2.95  26 2.98  35 2.98  28 2.98
                            34 3.11
  30  0.657  0.010  0.562-  29 2.85  32 2.85  36 2.87  21 2.92  27 2.95  25 2.98  35 2.98  28 2.98
                            33 3.11
  31  0.010  0.333  0.562-  33 2.85  29 2.85  36 2.87  20 2.92  22 2.95  19 2.98  35 2.98  28 2.98
                            32 3.11
  32  0.657  0.333  0.562-  34 2.85  30 2.85  36 2.87  21 2.92  24 2.95  19 2.98  35 2.98  28 2.98
                            31 3.11
  33  0.010  0.657  0.562-  31 2.85  34 2.85  36 2.87  23 2.92  22 2.95  25 2.98  35 2.98  28 2.98
                            30 3.11
  34  0.333  0.657  0.562-  32 2.85  33 2.85  36 2.87  23 2.92  24 2.95  26 2.98  35 2.98  28 2.98
                            29 3.11
  35  0.667  0.667  0.563-  24 2.95  27 2.95  22 2.95  29 2.98  34 2.98  32 2.98  31 2.98  30 2.98
                            33 2.98
  36  0.333  0.333  0.548-  37 1.76  20 2.70  23 2.70  21 2.70  33 2.87  31 2.87  29 2.87  30 2.87
                            34 2.87  32 2.87
  37  0.333  0.333  0.627-  38 0.97  36 1.76
  38  0.333  0.333  0.671-  37 0.97

  LATTYP: Found a hexagonal cell.
 ALAT       =     8.8135128021
 C/A-ratio  =     2.5184286595

  Lattice vectors:

 A1 = (  -4.4067569092,  -7.6327256898,   0.0000000000)
 A2 = (   8.8135128021,   0.0000000000,   0.0000000000)
 A3 = (   0.0000000000,   0.0000000000,  22.1962032318)

Analysis of symmetry for initial positions (statically):
 Subroutine PRICEL returns:
 Original cell was already a primitive cell.

 Routine SETGRP: Setting up the symmetry group for a
 hexagonal supercell.

 Subroutine GETGRP returns: Found  6 space group operations
 (whereof  6 operations were pure point group operations)
 out of a pool of 24 trial point group operations.

The static configuration has the point symmetry C_3v.

Analysis of symmetry for dynamics (positions and initial velocities):
 Subroutine PRICEL returns:
 Original cell was already a primitive cell.

[...]

The dynamic configuration has the point symmetry C_3v.

Analysis of constrained symmetry for selective dynamics:
 Subroutine PRICEL returns:
 Original cell was already a primitive cell.

[...]
     33      -4.5864      2.00000
     34      -4.5800      2.00000
     35      -4.5638      2.00000
     36      -4.4864      2.00000
     37      -4.4042      2.00000
     38      -4.3895      2.00000
     39      -4.3787      2.00000
     40      -4.3706      2.00000
     41      -4.3141      2.00000
     42      -4.2374      2.00000
     43      -4.2096      2.00000
     44      -4.1638      2.00000
     45      -4.1315      2.00000
     46      -4.1255      2.00000
     47      -4.1146      2.00000
     48      -4.0122      2.00000
     49      -4.0000      2.00000
     50      -3.9642      2.00000
     51      -3.9460      2.00000
     52      -3.9431      2.00000
     53      -3.9345      2.00000
     54      -3.9154      2.00000
     55      -3.8873      2.00000
     56      -3.8491      2.00000
     57      -3.8204      2.00000
     58      -3.8018      2.00000
     59      -3.7893      2.00000
     60      -3.7700      2.00000
[...]
    238       6.4122      0.00000
    239       6.5645      0.00000
    240       6.5905      0.00000
    241       6.6290      0.00000
    242       6.6792      0.00000
    243       6.9333      0.00000
    244       6.9692      0.00000
    245       6.9921      0.00000
    246       7.0398      0.00000
    247       7.3123      0.00000
    248       7.3166      0.00000
    249       7.3856      0.00000
    250       7.4906      0.00000
    251       7.5600      0.00000
    252       7.5721      0.00000

 soft charge-density along one line, spin component           1
         0         1         2         3         4         5         6         7         8         9
 total charge-density along one line

------------------------ aborting loop because EDIFF is reached ----------------------------------------

 total charge

# of ion       s       p       d       tot
    1        0.546   0.238   8.768   9.552
    2        0.545   0.241   8.763   9.549
    3        0.545   0.241   8.763   9.549
    4        0.545   0.241   8.763   9.549
    5        0.543   0.242   8.761   9.546
    6        0.545   0.241   8.763   9.549
    7        0.545   0.241   8.763   9.549
    8        0.545   0.241   8.763   9.549
    9        0.541   0.240   8.765   9.546
   10        0.522   0.308   8.769   9.599
   11        0.520   0.309   8.776   9.605
   12        0.522   0.308   8.769   9.599
   13        0.520   0.309   8.776   9.605
   14        0.520   0.309   8.776   9.605
   15        0.515   0.309   8.777   9.600
   16        0.522   0.308   8.769   9.599
   17        0.515   0.309   8.777   9.600
   18        0.515   0.309   8.777   9.600
   19        0.514   0.300   8.775   9.589
   20        0.546   0.333   8.750   9.628
   21        0.546   0.333   8.750   9.628
   22        0.510   0.309   8.775   9.594
   23        0.546   0.333   8.750   9.628
   24        0.510   0.309   8.775   9.594
   25        0.514   0.300   8.775   9.589
   26        0.514   0.300   8.775   9.589
   27        0.510   0.309   8.775   9.594
   28        0.541   0.224   8.766   9.530
   29        0.544   0.234   8.767   9.545
   30        0.544   0.234   8.767   9.545
   31        0.544   0.234   8.767   9.545
   32        0.544   0.234   8.767   9.545
   33        0.544   0.234   8.767   9.545
   34        0.544   0.234   8.767   9.545
   35        0.534   0.226   8.764   9.525
   36        0.361   0.432   6.282   7.074
   37        1.553   3.525   0.000   5.077
   38        0.604   0.127   0.000   0.731
tot         21.133  13.707 313.147 347.987

  FORCE on cell =-STRESS in cart. coord.  units (eV):
  Direction    XX          YY          ZZ          XY          YZ          ZX
  Alpha Z  1022.83682  1022.83682  1022.83682
  Ewald  119670.34328119670.34373************    -0.00031    -0.00008    -0.00012
  Hartree128578.16897128578.16898************     0.00001    -0.00002    -0.00003
  E(xc)   -1799.66477 -1799.66478 -1805.55961     0.00001     0.00000     0.00000
  Local  ************************260579.98003     0.00208     0.00001    -0.00003
  n-local  -135.69913   -86.50601   -85.68578    23.21329    -1.29706     1.48521
  augment  2413.24499  2413.24657  2422.41571    -0.00137     0.00003     0.00007
  Kinetic  5564.57826  5578.37393  5584.32276     6.92854     0.04623     0.52705
  Fock        0.00000     0.00000     0.00000     0.00000     0.00000     0.00000
  Total     -20.05132   -20.05132     2.13908    -0.00000     0.00000    -0.00000
  in kB     -21.51524   -21.51523     2.29526    -0.00000     0.00000    -0.00000

 VOLUME and BASIS-vectors are now :
  energy-cutoff  :      500.00
  volume of cell :     1493.16
      direct lattice vectors                 reciprocal lattice vectors
     8.813512802  0.000000000  0.000000000     0.113462137 -0.065507406  0.000000000
     4.406756909  7.632725690  0.000000000     0.000000000  0.131014796  0.000000000
     0.000000000  0.000000000 22.196203232     0.000000000  0.000000000  0.045052750

  length of vectors
     8.813512802  8.813512802 22.196203232     0.131014796  0.131014796  0.045052750

 FORCES acting on ions
    electron-ion (+dipol)            ewald-force                    non-local-force                 convergence-correction
   -.195E-04 -.162E-04 0.249E+04   0.519E-04 0.434E-04 -.249E+04   0.451E-17 0.150E-17 -.912E+00   -.238E-03 -.151E-03 -.386E+00
   0.521E+00 0.434E+00 0.250E+04   -.675E+00 -.504E+00 -.249E+04   0.371E-01 0.755E-01 -.282E+00   0.109E+00 0.589E-02 -.465E+00
   -.521E+00 0.434E+00 0.250E+04   0.674E+00 -.504E+00 -.249E+04   -.371E-01 0.755E-01 -.282E+00   -.108E+00 0.782E-02 -.465E+00
   0.636E+00 0.234E+00 0.250E+04   -.773E+00 -.332E+00 -.249E+04   0.840E-01 -.561E-02 -.282E+00   0.595E-01 0.911E-01 -.465E+00
   0.956E-05 -.227E-04 0.250E+04   0.951E-04 0.173E-05 -.250E+04   0.414E-18 -.613E-18 -.217E+00   0.428E-02 0.260E-02 -.413E+00
   -.637E+00 0.234E+00 0.250E+04   0.773E+00 -.332E+00 -.249E+04   -.840E-01 -.561E-02 -.282E+00   -.610E-01 0.920E-01 -.464E+00
   0.116E+00 -.668E+00 0.250E+04   -.990E-01 0.836E+00 -.249E+04   0.468E-01 -.699E-01 -.282E+00   -.473E-01 -.977E-01 -.465E+00
   -.116E+00 -.668E+00 0.250E+04   0.988E-01 0.836E+00 -.249E+04   -.468E-01 -.699E-01 -.282E+00   0.492E-01 -.988E-01 -.464E+00
   0.194E-04 -.416E-04 0.250E+04   0.166E-03 -.201E-04 -.249E+04   -.214E-18 -.448E-18 -.529E+00   -.459E-02 -.237E-02 -.399E+00
   0.550E+01 0.318E+01 0.852E+03   -.508E+01 -.293E+01 -.851E+03   -.347E+00 -.200E+00 -.658E+00   -.196E-01 -.114E-01 -.277E+00
   0.151E-04 0.672E+01 0.862E+03   0.147E-03 -.676E+01 -.862E+03   0.346E-08 0.520E-01 -.291E+00   0.405E-02 -.603E-01 -.332E+00
   -.550E+01 0.318E+01 0.852E+03   0.508E+01 -.293E+01 -.851E+03   0.347E+00 -.200E+00 -.658E+00   0.182E-01 -.102E-01 -.277E+00
   0.582E+01 -.336E+01 0.862E+03   -.586E+01 0.338E+01 -.862E+03   0.450E-01 -.260E-01 -.291E+00   -.499E-01 0.339E-01 -.332E+00
   -.582E+01 -.336E+01 0.862E+03   0.586E+01 0.338E+01 -.862E+03   -.450E-01 -.260E-01 -.291E+00   0.575E-01 0.331E-01 -.332E+00
   0.308E-04 0.298E+01 0.855E+03   0.236E-03 -.313E+01 -.854E+03   0.102E-08 0.154E-01 -.504E+00   -.224E-02 0.105E+00 -.276E+00
   -.217E-04 -.635E+01 0.852E+03   0.163E-03 0.587E+01 -.851E+03   0.267E-07 0.401E+00 -.658E+00   -.172E-04 0.209E-01 -.277E+00
   0.258E+01 -.149E+01 0.855E+03   -.271E+01 0.157E+01 -.854E+03   0.133E-01 -.768E-02 -.504E+00   0.899E-01 -.540E-01 -.276E+00
   -.258E+01 -.149E+01 0.855E+03   0.271E+01 0.157E+01 -.854E+03   -.133E-01 -.768E-02 -.504E+00   -.895E-01 -.520E-01 -.275E+00
   -.404E-04 0.283E+01 -.826E+03   0.536E-04 -.314E+01 0.825E+03   0.944E-08 0.142E+00 0.662E+00   -.318E-02 0.133E+00 0.233E+00
   0.321E+02 0.186E+02 -.772E+03   -.309E+02 -.178E+02 0.773E+03   -.999E+00 -.577E+00 -.879E+00   -.261E+00 -.151E+00 -.428E-01
   -.321E+02 0.186E+02 -.772E+03   0.309E+02 -.178E+02 0.773E+03   0.999E+00 -.577E+00 -.879E+00   0.257E+00 -.151E+00 -.430E-01
   0.791E+01 -.457E+01 -.810E+03   -.809E+01 0.467E+01 0.809E+03   0.372E+00 -.215E+00 0.600E+00   -.145E+00 0.808E-01 0.197E+00
   -.103E-04 -.371E+02 -.772E+03   0.143E-03 0.356E+02 0.773E+03   0.768E-07 0.115E+01 -.879E+00   -.218E-02 0.298E+00 -.430E-01
   -.791E+01 -.457E+01 -.810E+03   0.809E+01 0.467E+01 0.809E+03   -.372E+00 -.215E+00 0.600E+00   0.139E+00 0.805E-01 0.197E+00
   -.245E+01 -.141E+01 -.826E+03   0.272E+01 0.157E+01 0.825E+03   -.123E+00 -.709E-01 0.662E+00   -.119E+00 -.685E-01 0.233E+00
   0.245E+01 -.141E+01 -.826E+03   -.272E+01 0.157E+01 0.825E+03   0.123E+00 -.709E-01 0.662E+00   0.114E+00 -.692E-01 0.233E+00
   0.121E-04 0.914E+01 -.810E+03   0.196E-03 -.934E+01 0.809E+03   0.286E-07 0.429E+00 0.600E+00   -.290E-02 -.166E+00 0.197E+00
   -.134E-04 -.141E-04 -.246E+04   0.304E-04 0.351E-04 0.246E+04   0.211E-17 -.203E-17 0.428E+00   -.383E-04 -.403E-04 0.373E+00
   0.405E+02 0.676E+02 -.244E+04   -.401E+02 -.672E+02 0.243E+04   -.383E+00 -.431E+00 0.695E+00   -.167E+00 -.314E+00 0.303E+00
   -.405E+02 0.676E+02 -.244E+04   0.401E+02 -.672E+02 0.243E+04   0.383E+00 -.431E+00 0.695E+00   0.167E+00 -.312E+00 0.303E+00
   0.788E+02 0.123E+01 -.244E+04   -.783E+02 -.110E+01 0.243E+04   -.565E+00 -.116E+00 0.695E+00   -.355E+00 0.125E-01 0.303E+00
   -.788E+02 0.123E+01 -.244E+04   0.783E+02 -.110E+01 0.243E+04   0.565E+00 -.116E+00 0.695E+00   0.354E+00 0.133E-01 0.303E+00
   0.383E+02 -.689E+02 -.244E+04   -.382E+02 0.683E+02 0.243E+04   -.182E+00 0.547E+00 0.695E+00   -.187E+00 0.301E+00 0.303E+00
   -.383E+02 -.689E+02 -.244E+04   0.382E+02 0.683E+02 0.243E+04   0.182E+00 0.547E+00 0.695E+00   0.189E+00 0.300E+00 0.303E+00
   0.350E-04 -.275E-04 -.246E+04   0.141E-03 -.505E-04 0.246E+04   -.209E-18 -.248E-17 0.512E+00   -.442E-02 -.226E-02 0.237E+00
   -.338E-04 -.187E-04 -.149E+04   0.846E-04 0.789E-05 0.149E+04   -.682E-18 -.166E-17 -.606E-01   0.484E-02 0.296E-02 0.267E+00
   0.197E-03 -.931E-04 -.160E+04   0.248E-04 0.161E-05 0.158E+04   -.315E-17 0.794E-18 0.207E+02   0.380E-02 0.232E-02 0.533E+00
   0.762E-05 -.132E-04 -.321E+03   0.137E-05 0.120E-06 0.329E+03   0.377E-18 0.226E-18 -.847E+01   0.208E-03 0.127E-03 0.592E-01
   -.564E-03 -.881E-03 -.803E+01   0.125E-12 0.327E-12 0.341E-11   -.592E-16 -.311E-17 0.107E+02   -.861E-02 -.416E-02 -.219E+01

 POSITION                                       TOTAL-FORCE (eV/Angst)
      0.00000      0.00000      5.28038         0.000000     -0.000000     -0.111190
      2.93784      0.00000      5.28038        -0.007496      0.013103     -0.056726
      5.87568      0.00000      5.28038         0.007496      0.013103     -0.056726
      1.46892      2.54424      5.28038         0.007599     -0.013043     -0.056726
      4.40676      2.54424      5.28038         0.000000     -0.000000     -0.086279
      7.34459      2.54424      5.28038        -0.007599     -0.013043     -0.056726
      2.93784      5.08848      5.28038         0.015095     -0.000060     -0.056726
      5.87568      5.08848      5.28038        -0.015095     -0.000060     -0.056726
      8.81351      5.08848      5.28038         0.000000     -0.000000     -0.088843
      1.46892      0.84808      7.67911         0.054439      0.031430      0.152811
      4.40676      0.84808      7.67911        -0.000000     -0.055436      0.045858
      7.34459      0.84808      7.67911        -0.054439      0.031430      0.152811
      2.93784      3.39232      7.67911        -0.048009      0.027718      0.045858
      5.87568      3.39232      7.67911         0.048009      0.027718      0.045858
      8.81351      3.39232      7.67911        -0.000000     -0.035461      0.109353
      4.40676      5.93656      7.67911        -0.000000     -0.062861      0.152811
      7.34459      5.93656      7.67911        -0.030710      0.017730      0.109353
     10.28243      5.93656      7.67911         0.030710      0.017730      0.109353
      8.81351      1.69603     10.07519        -0.000000     -0.033936     -0.020235
      2.95264      1.70471     10.05068         0.009967      0.005755     -0.040096
      5.86088      1.70471     10.05068        -0.009967      0.005755     -0.040096
     10.26798      4.24875     10.06116         0.055958     -0.032307     -0.006287
      4.40676      4.22331     10.05068        -0.000000     -0.011509     -0.040096
      7.35905      4.24875     10.06116        -0.055958     -0.032307     -0.006287
     11.75147      6.78471     10.07519         0.029390      0.016968     -0.020235
      5.87556      6.78471     10.07519        -0.029390      0.016968     -0.020235
      8.81351      6.76796     10.06116         0.000000      0.064615     -0.006287
      0.00000      0.00000     12.48698         0.000000     -0.000000     -0.010205
      2.98147      0.07441     12.46921        -0.154719     -0.328963     -0.160024
      5.83205      0.07441     12.46921         0.154719     -0.328963     -0.160024
      1.55518      2.54482     12.46921        -0.362249      0.030491     -0.160024
      7.25833      2.54482     12.46921         0.362249      0.030491     -0.160024
      2.98047      5.01349     12.46921        -0.207531      0.298472     -0.160024
      5.83305      5.01349     12.46921         0.207531      0.298472     -0.160024
      8.81351      5.08848     12.49182         0.000000     -0.000000      0.041022
      4.40676      2.54424     12.16047         0.000000     -0.000000      0.781242
      4.40676      2.54424     13.91728         0.000000     -0.000000      0.088562
      4.40676      2.54424     14.88292         0.000000     -0.000000     -0.038022
    total drift:                               -0.009177     -0.005037      0.458489

  FREE ENERGIE OF THE ION-ELECTRON SYSTEM (eV)
  free  energy   TOTEN  =      -123.10701079 eV

  energy  without entropy=     -123.10701079  energy(sigma->0) =     -123.10701079

 stress matrix after NEB project (eV)
    -20.05132     -0.00000     -0.00000
     -0.00000    -20.05132     -0.00000
      0.00000      0.00000      2.13908
  FORCES: max atom, RMS     0.088562    0.015635
  FORCE total and by dimension    0.096379    0.088562
  Stress total and by dimension   28.437410   20.051318
|           W    W    AA    RRRRR   N    N  II  N    N   GGGG   !!!           |
|           W    W   A  A   R    R  NN   N  II  NN   N  G    G  !!!           |
|           W    W  A    A  R    R  N N  N  II  N N  N  G       !!!           |
|           W WW W  AAAAAA  RRRRR   N  N N  II  N  N N  G  GGG   !            |
|           WW  WW  A    A  R   R   N   NN  II  N   NN  G    G                |
|           W    W  A    A  R    R  N    N  II  N    N   GGGG   !!!           |
|     Tetrahedron method does not include variations of the Fermi             |
|     occupations, so forces and stress will be inaccurate. We suggest        |
|     using a different smearing scheme ISMEAR = 1 or 2 for metals in         |
|     relaxations.                                                            |

 total charge

# of ion       s       p       d       tot
    1        0.546   0.238   8.768   9.552
    2        0.545   0.241   8.763   9.549
    3        0.545   0.241   8.763   9.549
    4        0.545   0.241   8.763   9.549
    5        0.543   0.242   8.761   9.546
    6        0.545   0.241   8.763   9.549
    7        0.545   0.241   8.763   9.549
    8        0.545   0.241   8.763   9.549
    9        0.541   0.240   8.765   9.546
   10        0.522   0.308   8.769   9.599
   11        0.520   0.309   8.776   9.605
   12        0.522   0.308   8.769   9.599
   13        0.520   0.309   8.776   9.605
   14        0.520   0.309   8.776   9.605
   15        0.515   0.309   8.777   9.600
   16        0.522   0.308   8.769   9.599
   17        0.515   0.309   8.777   9.600
   18        0.515   0.309   8.777   9.600
   19        0.514   0.300   8.775   9.589
   20        0.546   0.333   8.750   9.628
   21        0.546   0.333   8.750   9.628
   22        0.510   0.309   8.775   9.594
   23        0.546   0.333   8.750   9.628
   24        0.510   0.309   8.775   9.594
   25        0.514   0.300   8.775   9.589
   26        0.514   0.300   8.775   9.589
   27        0.510   0.309   8.775   9.594
   28        0.541   0.224   8.766   9.530
   29        0.544   0.234   8.767   9.545
   30        0.544   0.234   8.767   9.545
   31        0.544   0.234   8.767   9.545
   32        0.544   0.234   8.767   9.545
   33        0.544   0.234   8.767   9.545
   34        0.544   0.234   8.767   9.545
   35        0.534   0.226   8.764   9.525
   36        0.361   0.432   6.282   7.074
   37        1.553   3.525   0.000   5.077
   38        0.604   0.127   0.000   0.731
tot         21.133  13.707 313.147 347.987

 BZINTS: Fermi energy:    0.852635;  400.000000 electrons
         Band energy:-0.117253E+04;  BLOECHL correction:   -0.048642