 vasp.6.2.0 18Jan21 (build Jun 12 2021 23:27:24) complex

 executed on             LinuxIFC date 2022.05.27  05:14:10

 INCAR:
   ISMEAR = -5
   SIGMA = 0.1
   ISPIN = 1
   EDIFF = 1.d-5
   EDIFFG = -0.01
   NSW = 0
   NELM = 150
   ENCUT = 500
   ISIF = 2
   IBRION = 2
   LREAL = Auto
   ALGO = Fast
   ICHARG = 11
   LORBIT = 10
   LCHARG = .F.
   LWAVE = .F.

 POTCAR:    PAW_PBE Au 04Oct2007
 POTCAR:    PAW_PBE Pd 04Jan2005
 POTCAR:    PAW_PBE N 08Apr2002
|           W    W    AA    RRRRR   N    N  II  N    N   GGGG   !!!           |
|           W    W   A  A   R    R  NN   N  II  NN   N  G    G  !!!           |
|           W    W  A    A  R    R  N N  N  II  N N  N  G       !!!           |
|           W WW W  AAAAAA  RRRRR   N  N N  II  N  N N  G  GGG   !            |
|           WW  WW  A    A  R   R   N   NN  II  N   NN  G    G                |
|           W    W  A    A  R    R  N    N  II  N    N   GGGG   !!!           |
|     For optimal performance we recommend to set                             |
|       NCORE = 2 up to number-of-cores-per-socket                            |
|     This setting can greatly improve the performance of VASP for DFT.       |
|     The default, NCORE=1 might be grossly inefficient on modern             |
|     multi-core architectures or massively parallel machines. Do your        |
|     Unfortunately you need to use the default for GW and RPA                |
|     calculations (for HF NCORE is supported but not extensively tested      |
|     yet).                                                                   |

 POTCAR:    PAW_PBE Au 04Oct2007
   VRHFIN =Au: s1d10

   TITEL  = PAW_PBE Au 04Oct2007
   POMASS =  196.966; ZVAL   =   11.000    mass and valenz
   ENMAX  =  229.943; ENMIN  =  172.457 eV

 POTCAR:    PAW_PBE Pd 04Jan2005
   VRHFIN =Pd : s1 d9

   TITEL  = PAW_PBE Pd 04Jan2005
   POMASS =  106.420; ZVAL   =   10.000    mass and valenz
   ENMAX  =  250.925; ENMIN  =  188.194 eV

 POTCAR:    PAW_PBE N 08Apr2002
   VRHFIN =N: s2p3

   TITEL  = PAW_PBE N 08Apr2002
   POMASS =   14.001; ZVAL   =    5.000    mass and valenz
   ENMAX  =  400.000; ENMIN  =  300.000 eV

 Optimization of the real space projectors (new method)

 maximal supplied QI-value         = 15.12
 optimisation between [QCUT,QGAM] = [ 11.34, 22.83] = [ 36.00,145.93] Ry
 Optimized for a Real-space Cutoff    1.39 Angstroem

   l    n(q)    QCUT    max X(q) W(low)/X(q) W(high)/X(q)  e(spline)
   2      9    11.338    60.898    0.39E-03    0.42E-03    0.21E-06
   2      9    11.338    58.894    0.40E-03    0.42E-03    0.22E-06
   0      9    11.338   109.617    0.13E-03    0.20E-04    0.13E-06
   0      9    11.338    75.026    0.13E-03    0.20E-04    0.13E-06
   1      9    11.338    16.344    0.33E-04    0.24E-03    0.18E-06
   1      9    11.338    10.160    0.26E-04    0.19E-03    0.15E-06
 Optimization of the real space projectors (new method)

[...]

   l    n(q)    QCUT    max X(q) W(low)/X(q) W(high)/X(q)  e(spline)
   2      9    11.346    59.108    0.74E-04    0.81E-04    0.26E-06
   2      9    11.346    58.101    0.74E-04    0.83E-04    0.27E-06
   0     10    11.346   102.235    0.26E-04    0.31E-04    0.16E-06
   0     10    11.346    58.388    0.23E-04    0.29E-04    0.15E-06
   1     10    11.346    22.191    0.23E-03    0.26E-03    0.14E-06
   1     10    11.346    15.590    0.19E-03    0.22E-03    0.12E-06
 Optimization of the real space projectors (new method)

 maximal supplied QI-value         = 25.13
 optimisation between [QCUT,QGAM] = [ 11.31, 22.87] = [ 35.82,146.48] Ry
 Optimized for a Real-space Cutoff    1.27 Angstroem

   l    n(q)    QCUT    max X(q) W(low)/X(q) W(high)/X(q)  e(spline)
   0      9    11.310    79.467    0.75E-04    0.16E-03    0.36E-06
   0      9    11.310    66.151    0.74E-04    0.16E-03    0.36E-06
   1      8    11.310    17.416    0.35E-03    0.12E-03    0.95E-06
   1      8    11.310    12.382    0.37E-03    0.13E-03    0.98E-06
  PAW_PBE Au 04Oct2007                  :
  PAW_PBE Pd 04Jan2005                  :
  PAW_PBE N 08Apr2002                   :

 POSCAR: Au-Pd-N2
  positions in direct lattice
  velocities in cartesian coordinates
 exchange correlation table for  LEXCH =        8
   RHO(1)=    0.500       N(1)  =     2000
   RHO(2)=  100.500       N(2)  =     4000

 VTST: version 3.2, (02/03/18)

 CHAIN: initializing optimizer

 OPT: Using VASP Conjugate-Gradient optimizer
 CHAIN: Read ICHAIN            0

 POSCAR: Au-Pd-N2
  positions in direct lattice
  velocities in cartesian coordinates

 ion  position               nearest neighbor table
   1  0.000  0.000  0.207-  16 2.94  12 2.94   6 2.94   8 2.94   7 2.94   3 2.94  10 2.94   4 2.94
                             2 2.94
   2  0.333  0.000  0.207-   9 2.94  11 2.94  17 2.94  10 2.94   8 2.94   4 2.94   5 2.94   1 2.94
                             3 2.94
   3  0.667  0.000  0.207-   7 2.94  18 2.94  12 2.94   1 2.94  11 2.94   5 2.94   6 2.94   9 2.94
                             2 2.94
   4  0.000  0.333  0.207-  10 2.94   6 2.94   5 2.94  13 2.94   2 2.94  15 2.94   9 2.94   1 2.94
                             7 2.94
   5  0.333  0.333  0.207-  13 2.94   7 2.94  11 2.94   4 2.94   2 2.94  14 2.94   3 2.94   8 2.94
                             6 2.94
   6  0.667  0.333  0.207-  15 2.94  14 2.94   1 2.94  12 2.94   4 2.94   9 2.94   8 2.94   3 2.94
                             5 2.94
   7  0.000  0.667  0.207-  18 2.94   3 2.94  16 2.94   5 2.94   1 2.94  13 2.94   8 2.94   4 2.94
                             9 2.94
   8  0.333  0.667  0.207-   9 2.94  17 2.94   1 2.94   2 2.94  14 2.94  16 2.94   6 2.94   7 2.94
                             5 2.94
   9  0.667  0.667  0.207-   2 2.94   8 2.94  17 2.94   6 2.94  15 2.94   4 2.94   3 2.94  18 2.94
                             7 2.94
  10  0.111  0.111  0.300-  26 2.92  19 2.92  20 2.93  11 2.94  17 2.94   2 2.94   4 2.94   1 2.94
                            12 2.94  16 2.94  13 2.94  15 2.94
  11  0.444  0.111  0.300-  27 2.93  20 2.93  21 2.93  13 2.94   2 2.94  10 2.94  17 2.94   5 2.94
                             3 2.94  18 2.94  14 2.94  12 2.94
  12  0.778  0.111  0.300-  25 2.92  19 2.92  21 2.93  16 2.94  18 2.94   1 2.94  14 2.94  15 2.94
                             3 2.94   6 2.94  10 2.94  11 2.94
  13  0.111  0.444  0.300-  22 2.93  23 2.93  20 2.93   5 2.94  18 2.94  11 2.94   7 2.94   4 2.94
                            16 2.94  10 2.94  14 2.94  15 2.94
  14  0.444  0.444  0.300-  24 2.93  21 2.93  23 2.93  15 2.94   6 2.94  12 2.94   8 2.94  17 2.94
                             5 2.94  16 2.94  13 2.94  11 2.94
  15  0.778  0.444  0.300-  19 2.93  24 2.93  22 2.93  14 2.94   6 2.94  17 2.94  12 2.94   9 2.94
                             4 2.94  10 2.94  13 2.94  18 2.94
  16  0.111  0.778  0.300-  25 2.92  26 2.92  23 2.93  18 2.94  12 2.94   7 2.94   1 2.94   8 2.94
                            13 2.94  10 2.94  14 2.94  17 2.94
  17  0.444  0.778  0.300-  26 2.93  27 2.93  24 2.93   9 2.94  15 2.94   2 2.94  10 2.94  11 2.94
                             8 2.94  14 2.94  16 2.94  18 2.94
  18  0.778  0.778  0.300-  25 2.93  22 2.93  27 2.93  16 2.94   7 2.94  13 2.94  12 2.94   3 2.94
                            11 2.94   9 2.94  15 2.94  17 2.94
  19  0.889  0.222  0.394-  10 2.92  12 2.92  15 2.93  26 2.93  25 2.93  21 2.94  20 2.94  24 2.94
                            22 2.94  28 2.96  32 2.97  31 2.97
  20  0.222  0.222  0.394-  36 2.83  10 2.93  11 2.93  13 2.93  26 2.94  19 2.94  27 2.94  22 2.94
                            23 2.94  21 2.94  29 2.95  31 2.95
  21  0.556  0.222  0.394-  36 2.83  12 2.93  14 2.93  11 2.93  25 2.94  19 2.94  24 2.94  27 2.94
                            20 2.94  23 2.94  30 2.95  32 2.95
  22  0.889  0.556  0.394-  18 2.93  15 2.93  13 2.93  24 2.94  27 2.94  23 2.94  20 2.94  25 2.94
                            19 2.94  33 2.96  31 2.96  35 2.96
  23  0.222  0.556  0.394-  36 2.83  16 2.93  13 2.93  14 2.93  25 2.94  26 2.94  22 2.94  24 2.94
                            20 2.94  21 2.94  33 2.95  34 2.95
  24  0.556  0.556  0.394-  15 2.93  17 2.93  14 2.93  27 2.94  22 2.94  21 2.94  23 2.94  26 2.94
                            19 2.94  32 2.96  34 2.96  35 2.96
  25  0.889  0.889  0.394-  16 2.92  12 2.92  18 2.93  19 2.93  26 2.93  23 2.94  21 2.94  22 2.94
                            27 2.94  28 2.96  33 2.97  30 2.97
  26  0.222  0.889  0.394-  10 2.92  16 2.92  17 2.93  19 2.93  25 2.93  20 2.94  23 2.94  27 2.94
                            24 2.94  28 2.96  29 2.97  34 2.97
  27  0.556  0.889  0.394-  17 2.93  18 2.93  11 2.93  24 2.94  22 2.94  20 2.94  21 2.94  26 2.94
                            25 2.94  29 2.96  30 2.96  35 2.96
  28  0.000  0.000  0.489-  34 2.94  32 2.94  33 2.94  30 2.94  31 2.94  29 2.94  25 2.96  19 2.96
                            26 2.96
  29  0.333  0.001  0.489-  30 2.93  31 2.93  36 2.93  35 2.94  28 2.94  20 2.95  34 2.95  27 2.96
                            26 2.97
  30  0.666  0.001  0.489-  29 2.93  32 2.93  36 2.93  35 2.94  28 2.94  21 2.95  33 2.95  27 2.96
                            25 2.97
  31  0.001  0.333  0.489-  33 2.93  29 2.93  36 2.93  35 2.94  28 2.94  20 2.95  32 2.95  22 2.96
                            19 2.97
  32  0.666  0.333  0.489-  34 2.93  30 2.93  36 2.93  35 2.94  28 2.94  21 2.95  31 2.95  24 2.96
                            19 2.97
  33  0.001  0.666  0.489-  31 2.93  34 2.93  36 2.93  35 2.94  28 2.94  23 2.95  30 2.95  22 2.96
                            25 2.97
  34  0.333  0.666  0.489-  32 2.93  33 2.93  36 2.93  35 2.94  28 2.94  23 2.95  29 2.95  24 2.96
                            26 2.97
  35  0.667  0.667  0.489-  29 2.94  34 2.94  32 2.94  31 2.94  30 2.94  33 2.94  24 2.96  27 2.96
                            22 2.96
  36  0.333  0.333  0.483-  20 2.83  23 2.83  21 2.83  33 2.93  31 2.93  29 2.93  30 2.93  34 2.93
                            32 2.93
  37  0.272  0.330  0.674-  38 1.11
  38  0.398  0.330  0.674-  37 1.11

  LATTYP: Found a hexagonal cell.
 ALAT       =     8.8135128021
 C/A-ratio  =     2.9009605522

  Lattice vectors:

 A1 = (  -4.4067569092,  -7.6327256898,   0.0000000000)
 A2 = (   8.8135128021,   0.0000000000,   0.0000000000)
 A3 = (   0.0000000000,   0.0000000000,  25.5676529648)

Analysis of symmetry for initial positions (statically):
 Subroutine PRICEL returns:
 Original cell was already a primitive cell.

 Routine SETGRP: Setting up the symmetry group for a
 hexagonal supercell.

 Subroutine GETGRP returns: Found  2 space group operations
 (whereof  2 operations were pure point group operations)
 out of a pool of 24 trial point group operations.

The static configuration has the point symmetry C_1h.

Analysis of symmetry for dynamics (positions and initial velocities):
 Subroutine PRICEL returns:
 Original cell was already a primitive cell.

[...]

The dynamic configuration has the point symmetry C_1h.

Analysis of constrained symmetry for selective dynamics:
 Subroutine PRICEL returns:
 Original cell was already a primitive cell.

 Routine SETGRP: Setting up the symmetry group for a
 hexagonal supercell.

[...]
     33      -5.4332      2.00000
     34      -5.4304      2.00000
     35      -5.4042      2.00000
     36      -5.4009      2.00000
     37      -5.3895      2.00000
     38      -5.3319      2.00000
     39      -5.2413      2.00000
     40      -5.2253      2.00000
     41      -5.2030      2.00000
     42      -5.1706      2.00000
     43      -5.1212      2.00000
     44      -5.0531      2.00000
     45      -5.0229      2.00000
     46      -4.9769      2.00000
     47      -4.9537      2.00000
     48      -4.9492      2.00000
     49      -4.9461      2.00000
     50      -4.9288      2.00000
     51      -4.8399      2.00000
     52      -4.7998      2.00000
     53      -4.7798      2.00000
     54      -4.7760      2.00000
     55      -4.7613      2.00000
     56      -4.7480      2.00000
     57      -4.7388      2.00000
     58      -4.7012      2.00000
     59      -4.6598      2.00000
     60      -4.6487      2.00000
[...]
    242       5.7739      0.00000
    243       5.8024      0.00000
    244       5.8134      0.00000
    245       5.9076      0.00000
    246       6.1035      0.00000
    247       6.1535      0.00000
    248       6.1872      0.00000
    249       6.2788      0.00000
    250       6.3357      0.00000
    251       6.4128      0.00000
    252       6.4893      0.00000
    253       6.5266      0.00000
    254       6.5604      0.00000
    255       6.5903      0.00000
    256       6.7236      0.00000

 soft charge-density along one line, spin component           1
         0         1         2         3         4         5         6         7         8         9
 total charge-density along one line

------------------------ aborting loop because EDIFF is reached ----------------------------------------

 total charge

# of ion       s       p       d       tot
    1        0.543   0.241   8.766   9.549
    2        0.545   0.240   8.765   9.550
    3        0.545   0.240   8.765   9.550
    4        0.545   0.240   8.765   9.550
    5        0.540   0.241   8.765   9.546
    6        0.545   0.240   8.765   9.550
    7        0.545   0.240   8.765   9.550
    8        0.545   0.240   8.765   9.550
    9        0.544   0.240   8.765   9.550
   10        0.518   0.308   8.770   9.596
   11        0.520   0.305   8.776   9.600
   12        0.518   0.308   8.770   9.596
   13        0.520   0.305   8.776   9.600
   14        0.520   0.305   8.776   9.600
   15        0.517   0.306   8.775   9.598
   16        0.518   0.308   8.770   9.596
   17        0.517   0.306   8.775   9.598
   18        0.517   0.306   8.775   9.598
   19        0.517   0.302   8.775   9.595
   20        0.524   0.310   8.767   9.600
   21        0.524   0.310   8.767   9.600
   22        0.513   0.304   8.771   9.588
   23        0.524   0.310   8.767   9.600
   24        0.513   0.304   8.771   9.588
   25        0.517   0.302   8.775   9.595
   26        0.517   0.302   8.775   9.595
   27        0.513   0.304   8.771   9.588
   28        0.542   0.233   8.766   9.540
   29        0.548   0.232   8.764   9.544
   30        0.548   0.232   8.764   9.544
   31        0.547   0.232   8.764   9.543
   32        0.547   0.232   8.764   9.543
   33        0.548   0.232   8.764   9.544
   34        0.548   0.232   8.764   9.544
   35        0.541   0.234   8.766   9.541
   36        0.360   0.271   8.566   9.197
   37        1.373   2.469   0.000   3.842
   38        1.373   2.469   0.000   3.842
tot         21.698  14.734 315.471 351.904

  FORCE on cell =-STRESS in cart. coord.  units (eV):
  Direction    XX          YY          ZZ          XY          YZ          ZX
  Alpha Z   898.18662   898.18662   898.18662
  Ewald  164391.30349164069.34811************    -0.00034     0.14240    -0.00015
  Hartree172743.40052172628.29792************     0.00000     0.11996    -0.00004
  E(xc)   -1821.03074 -1822.26977 -1829.68830    -0.00002    -0.00002    -0.00000
  Local  ************************349273.04781     0.00248    -0.26241     0.00005
  n-local   -96.39744   -83.84512   -59.83179     4.40222     0.00047     0.32065
  augment  2442.73340  2442.42872  2458.40397    -0.00146    -0.00007     0.00002
  Kinetic  5659.67892  5677.76143  5732.20803     0.98162    -0.00039     0.18388
  Fock        0.00000     0.00000     0.00000     0.00000     0.00000     0.00000
  Total     -21.24992   -21.24158     0.85849    -0.00000    -0.00008    -0.00000
  in kB     -19.79468   -19.78690     0.79970    -0.00000    -0.00008    -0.00000

 VOLUME and BASIS-vectors are now :
  energy-cutoff  :      500.00
  volume of cell :     1719.96
      direct lattice vectors                 reciprocal lattice vectors
     8.813512802  0.000000000  0.000000000     0.113462137 -0.065507406  0.000000000
     4.406756909  7.632725690  0.000000000     0.000000000  0.131014796  0.000000000
     0.000000000  0.000000000 25.567652965     0.000000000  0.000000000  0.039111920

  length of vectors
     8.813512802  8.813512802 25.567652965     0.131014796  0.131014796  0.039111920

 FORCES acting on ions
    electron-ion (+dipol)            ewald-force                    non-local-force                 convergence-correction
   -.198E-04 0.302E-02 0.274E+04   0.518E-04 -.158E-02 -.274E+04   -.115E-10 -.172E-03 -.625E+00   -.254E-03 -.135E-02 -.214E-01
   -.140E+00 0.129E+00 0.274E+04   0.111E+00 -.593E-01 -.274E+04   0.788E-02 -.251E-01 -.377E+00   0.169E-01 -.450E-01 -.575E-01
   0.140E+00 0.129E+00 0.274E+04   -.111E+00 -.593E-01 -.274E+04   -.788E-02 -.251E-01 -.377E+00   -.165E-01 -.432E-01 -.568E-01
   0.395E-01 -.191E+00 0.274E+04   0.555E-02 0.126E+00 -.274E+04   -.176E-01 0.193E-01 -.378E+00   -.294E-01 0.411E-01 -.578E-01
   0.732E-05 -.893E-02 0.274E+04   0.952E-04 0.593E-03 -.274E+04   0.155E-11 0.232E-04 -.449E+00   0.420E-02 0.840E-02 -.103E+00
   -.395E-01 -.191E+00 0.274E+04   -.564E-02 0.126E+00 -.274E+04   0.176E-01 0.193E-01 -.378E+00   0.280E-01 0.419E-01 -.570E-01
   0.180E+00 0.612E-01 0.274E+04   -.106E+00 -.664E-01 -.274E+04   -.256E-01 0.577E-02 -.378E+00   -.447E-01 0.325E-02 -.554E-01
   -.180E+00 0.612E-01 0.274E+04   0.106E+00 -.664E-01 -.274E+04   0.256E-01 0.577E-02 -.378E+00   0.464E-01 0.219E-02 -.554E-01
   0.195E-04 0.527E-02 0.274E+04   0.166E-03 0.101E-02 -.274E+04   0.221E-10 0.332E-03 -.436E+00   -.449E-02 -.663E-02 -.339E-01
   -.582E+00 -.326E+00 0.945E+03   0.809E+00 0.459E+00 -.945E+03   -.771E-01 -.445E-01 -.529E+00   -.960E-01 -.573E-01 0.335E-01
   0.138E-04 0.498E+00 0.944E+03   0.149E-03 -.495E+00 -.944E+03   0.271E-09 0.407E-02 -.418E+00   0.410E-02 -.191E-01 0.450E-01
   0.582E+00 -.326E+00 0.945E+03   -.810E+00 0.459E+00 -.945E+03   0.771E-01 -.445E-01 -.529E+00   0.947E-01 -.568E-01 0.329E-01
   0.425E+00 -.262E+00 0.944E+03   -.421E+00 0.252E+00 -.944E+03   0.349E-02 -.184E-02 -.418E+00   -.137E-01 0.187E-01 0.406E-01
   -.425E+00 -.262E+00 0.944E+03   0.421E+00 0.252E+00 -.944E+03   -.349E-02 -.184E-02 -.418E+00   0.206E-01 0.174E-01 0.382E-01
   0.316E-04 -.103E+01 0.944E+03   0.236E-03 0.987E+00 -.943E+03   0.156E-08 0.235E-01 -.392E+00   -.182E-02 0.298E-01 0.891E-01
   -.210E-04 0.675E+00 0.945E+03   0.162E-03 -.935E+00 -.945E+03   0.593E-08 0.891E-01 -.529E+00   -.636E-03 0.107E+00 0.320E-01
   -.884E+00 0.515E+00 0.944E+03   0.848E+00 -.490E+00 -.943E+03   0.205E-01 -.120E-01 -.390E+00   0.213E-01 -.169E-01 0.928E-01
   0.884E+00 0.515E+00 0.944E+03   -.848E+00 -.490E+00 -.943E+03   -.205E-01 -.120E-01 -.390E+00   -.205E-01 -.151E-01 0.945E-01
   -.399E-04 -.216E+01 -.866E+03   0.535E-04 0.202E+01 0.865E+03   0.267E-08 0.401E-01 0.540E+00   0.718E-03 0.842E-01 -.504E-01
   0.579E+01 0.337E+01 -.862E+03   -.548E+01 -.319E+01 0.862E+03   -.314E+00 -.181E+00 -.210E+00   -.578E-02 -.877E-02 0.307E-01
   -.579E+01 0.337E+01 -.862E+03   0.548E+01 -.319E+01 0.862E+03   0.314E+00 -.181E+00 -.210E+00   -.399E-03 -.106E-01 0.305E-01
   0.196E+01 -.121E+01 -.868E+03   -.206E+01 0.126E+01 0.867E+03   0.137E+00 -.797E-01 0.547E+00   -.427E-01 0.355E-01 -.109E-01
   -.141E-04 -.675E+01 -.862E+03   0.144E-03 0.639E+01 0.862E+03   0.241E-07 0.362E+00 -.210E+00   -.508E-02 0.538E-02 0.298E-01
   -.196E+01 -.121E+01 -.868E+03   0.206E+01 0.126E+01 0.867E+03   -.137E+00 -.797E-01 0.547E+00   0.507E-01 0.352E-01 -.109E-01
   0.189E+01 0.114E+01 -.866E+03   -.177E+01 -.107E+01 0.865E+03   -.338E-01 -.195E-01 0.539E+00   -.780E-01 -.455E-01 -.514E-01
   -.189E+01 0.114E+01 -.866E+03   0.177E+01 -.107E+01 0.865E+03   0.338E-01 -.195E-01 0.539E+00   0.771E-01 -.439E-01 -.510E-01
   0.488E-05 0.231E+01 -.868E+03   0.201E-03 -.242E+01 0.867E+03   0.105E-07 0.158E+00 0.547E+00   0.379E-02 -.513E-01 -.109E-01
   -.889E-05 0.451E+00 -.265E+04   0.263E-04 -.450E+00 0.265E+04   0.184E-10 0.276E-03 0.464E+00   -.779E-04 -.130E-02 0.152E+00
   0.874E+00 0.160E+00 -.265E+04   -.607E+00 0.279E+00 0.265E+04   -.225E+00 -.335E+00 0.339E+00   -.164E-01 -.821E-01 0.547E-01
   -.874E+00 0.160E+00 -.265E+04   0.607E+00 0.279E+00 0.265E+04   0.225E+00 -.335E+00 0.339E+00   0.164E-01 -.812E-01 0.541E-01
   0.266E+00 0.789E+00 -.265E+04   0.246E+00 -.780E+00 0.265E+04   -.402E+00 -.264E-01 0.353E+00   -.783E-01 0.280E-01 0.577E-01
   -.266E+00 0.789E+00 -.265E+04   -.246E+00 -.780E+00 0.265E+04   0.402E+00 -.264E-01 0.353E+00   0.780E-01 0.286E-01 0.585E-01
   -.801E+00 -.927E+00 -.265E+04   0.105E+01 0.479E+00 0.265E+04   -.179E+00 0.362E+00 0.340E+00   -.613E-01 0.538E-01 0.555E-01
   0.801E+00 -.927E+00 -.265E+04   -.105E+01 0.479E+00 0.265E+04   0.179E+00 0.362E+00 0.340E+00   0.623E-01 0.535E-01 0.569E-01
   0.277E-04 -.295E+00 -.265E+04   0.150E-03 0.299E+00 0.265E+04   -.151E-10 -.226E-03 0.467E+00   -.392E-02 -.386E-02 0.395E-01
   -.758E-05 -.166E+00 -.234E+04   0.992E-04 0.161E+00 0.234E+04   -.261E-10 -.391E-03 0.213E+01   0.381E-02 0.516E-02 0.733E-01
   0.241E+03 -.164E-01 -.916E+03   -.287E+03 0.175E-01 0.916E+03   0.456E+02 -.174E-02 -.466E-02   -.241E-02 -.909E-03 0.421E-02
   -.241E+03 -.164E-01 -.916E+03   0.287E+03 0.175E-01 0.916E+03   -.456E+02 -.174E-02 -.466E-02   0.237E-02 -.904E-03 0.419E-02
   -.596E-03 -.614E-02 -.774E+00   0.171E-12 -.242E-12 0.101E-10   -.274E-09 -.412E-02 -.504E-01   0.909E-02 0.752E-02 0.517E+00

 POSITION                                       TOTAL-FORCE (eV/Angst)
      0.00000      0.00000      5.28038        -0.000000     -0.000009     -0.074819
      2.93784      0.00000      5.28038        -0.004175      0.000977     -0.099966
      5.87568      0.00000      5.28038         0.004175      0.000977     -0.099966
      1.46892      2.54424      5.28038        -0.001248     -0.004000     -0.100001
      4.40676      2.54424      5.28038         0.000000      0.000159     -0.106663
      7.34459      2.54424      5.28038         0.001248     -0.004000     -0.100001
      2.93784      5.08848      5.28038         0.002864      0.003295     -0.099986
      5.87568      5.08848      5.28038        -0.002864      0.003295     -0.099986
      8.81351      5.08848      5.28038         0.000000      0.000057     -0.095587
      1.46892      0.84808      7.67911         0.055506      0.032177      0.080807
      4.40676      0.84808      7.67911        -0.000000     -0.011539      0.085231
      7.34459      0.84808      7.67911        -0.055506      0.032177      0.080807
      2.93784      3.39232      7.67911        -0.010239      0.006150      0.085065
      5.87568      3.39232      7.67911         0.010239      0.006150      0.085065
      8.81351      3.39232      7.67911         0.000000      0.005710      0.102244
      4.40676      5.93656      7.67911        -0.000000     -0.064084      0.080787
      7.34459      5.93656      7.67911         0.004876     -0.002847      0.102376
     10.28243      5.93656      7.67911        -0.004876     -0.002847      0.102376
      8.81351      1.69299     10.06281        -0.000000     -0.014183      0.023350
      2.93673      1.69552     10.07074        -0.007325     -0.004295      0.026482
      5.87678      1.69552     10.07074         0.007325     -0.004295      0.026482
     10.28200      4.24065     10.07064        -0.007734      0.004579      0.024654
      4.40676      4.24168     10.07074         0.000000      0.008313      0.026318
      7.34503      4.24065     10.07064         0.007734      0.004579      0.024654
     11.75410      6.78623     10.06281         0.012401      0.007300      0.022597
      5.87293      6.78623     10.06281        -0.012401      0.007300      0.022597
      8.81351      6.78414     10.07064        -0.000000     -0.008653      0.024186
      0.00000      0.00000     12.49359        -0.000000     -0.000079      0.021815
      2.94266      0.00661     12.49157         0.025377      0.022677     -0.031768
      5.87086      0.00661     12.49157        -0.025377      0.022677     -0.031768
      1.47706      2.54511     12.49157         0.032451      0.010723     -0.031573
      7.33646      2.54511     12.49157        -0.032451      0.010723     -0.031573
      2.94116      5.08100     12.49157         0.007047     -0.033189     -0.031748
      5.87236      5.08100     12.49157        -0.007047     -0.033189     -0.031748
      8.81351      5.08848     12.49778         0.000000      0.000100      0.007352
      4.40676      2.54424     12.34091         0.000000      0.000188      0.003363
      3.84995      2.51937     17.23631         0.000490     -0.001536      0.004274
      4.96357      2.51937     17.23631        -0.000490     -0.001536      0.004274
    total drift:                                0.008492     -0.002748     -0.307074

  FREE ENERGIE OF THE ION-ELECTRON SYSTEM (eV)
  free  energy   TOTEN  =      -128.59696843 eV

  energy  without entropy=     -128.59696843  energy(sigma->0) =     -128.59696843

 stress matrix after NEB project (eV)
    -21.24992     -0.00000     -0.00000
     -0.00000    -21.24158     -0.00008
     -0.00000     -0.00008      0.85849
  FORCES: max atom, RMS     0.004568    0.001048
  FORCE total and by dimension    0.006460    0.004274
  Stress total and by dimension   30.058294   21.249924
|           W    W    AA    RRRRR   N    N  II  N    N   GGGG   !!!           |
|           W    W   A  A   R    R  NN   N  II  NN   N  G    G  !!!           |
|           W    W  A    A  R    R  N N  N  II  N N  N  G       !!!           |
|           W WW W  AAAAAA  RRRRR   N  N N  II  N  N N  G  GGG   !            |
|           WW  WW  A    A  R   R   N   NN  II  N   NN  G    G                |
|           W    W  A    A  R    R  N    N  II  N    N   GGGG   !!!           |
|     Tetrahedron method does not include variations of the Fermi             |
|     occupations, so forces and stress will be inaccurate. We suggest        |
|     using a different smearing scheme ISMEAR = 1 or 2 for metals in         |
|     relaxations.                                                            |

 total charge

# of ion       s       p       d       tot
    1        0.543   0.241   8.766   9.549
    2        0.545   0.240   8.765   9.550
    3        0.545   0.240   8.765   9.550
    4        0.545   0.240   8.765   9.550
    5        0.540   0.241   8.765   9.546
    6        0.545   0.240   8.765   9.550
    7        0.545   0.240   8.765   9.550
    8        0.545   0.240   8.765   9.550
    9        0.544   0.240   8.765   9.550
   10        0.518   0.308   8.770   9.596
   11        0.520   0.305   8.776   9.600
   12        0.518   0.308   8.770   9.596
   13        0.520   0.305   8.776   9.600
   14        0.520   0.305   8.776   9.600
   15        0.517   0.306   8.775   9.598
   16        0.518   0.308   8.770   9.596
   17        0.517   0.306   8.775   9.598
   18        0.517   0.306   8.775   9.598
   19        0.517   0.302   8.775   9.595
   20        0.524   0.310   8.767   9.600
   21        0.524   0.310   8.767   9.600
   22        0.513   0.304   8.771   9.588
   23        0.524   0.310   8.767   9.600
   24        0.513   0.304   8.771   9.588
   25        0.517   0.302   8.775   9.595
   26        0.517   0.302   8.775   9.595
   27        0.513   0.304   8.771   9.588
   28        0.542   0.233   8.766   9.540
   29        0.548   0.232   8.764   9.544
   30        0.548   0.232   8.764   9.544
   31        0.547   0.232   8.764   9.543
   32        0.547   0.232   8.764   9.543
   33        0.548   0.232   8.764   9.544
   34        0.548   0.232   8.764   9.544
   35        0.541   0.234   8.766   9.541
   36        0.360   0.271   8.566   9.197
   37        1.373   2.469   0.000   3.842
   38        1.373   2.469   0.000   3.842
tot         21.698  14.734 315.471 351.904

 BZINTS: Fermi energy:   -0.024814;  405.000000 electrons
         Band energy:-0.153934E+04;  BLOECHL correction:   -0.115729