 vasp.6.2.0 18Jan21 (build Jun 12 2021 23:27:24) complex

 executed on             LinuxIFC date 2022.05.28  00:52:01

 INCAR:
   ISMEAR = -5
   SIGMA = 0.1
   ISPIN = 1
   EDIFF = 1.d-5
   EDIFFG = -0.01
   NSW = 0
   NELM = 150
   ENCUT = 500
   ISIF = 2
   IBRION = 2
   LREAL = Auto
   ALGO = Fast
   ICHARG = 11
   LORBIT = 10
   LCHARG = .F.
   LWAVE = .F.

 POTCAR:    PAW_PBE Au 04Oct2007
 POTCAR:    PAW_PBE Mo 08Apr2002
 POTCAR:    PAW_PBE C 08Apr2002
 POTCAR:    PAW_PBE O 08Apr2002
|           W    W    AA    RRRRR   N    N  II  N    N   GGGG   !!!           |
|           W    W   A  A   R    R  NN   N  II  NN   N  G    G  !!!           |
|           W    W  A    A  R    R  N N  N  II  N N  N  G       !!!           |
|           W WW W  AAAAAA  RRRRR   N  N N  II  N  N N  G  GGG   !            |
|           WW  WW  A    A  R   R   N   NN  II  N   NN  G    G                |
|           W    W  A    A  R    R  N    N  II  N    N   GGGG   !!!           |
|     For optimal performance we recommend to set                             |
|       NCORE = 2 up to number-of-cores-per-socket                            |
|     This setting can greatly improve the performance of VASP for DFT.       |
|     The default, NCORE=1 might be grossly inefficient on modern             |
|     multi-core architectures or massively parallel machines. Do your        |
|     Unfortunately you need to use the default for GW and RPA                |
|     calculations (for HF NCORE is supported but not extensively tested      |
|     yet).                                                                   |

 POTCAR:    PAW_PBE Au 04Oct2007
   VRHFIN =Au: s1d10

   TITEL  = PAW_PBE Au 04Oct2007
   POMASS =  196.966; ZVAL   =   11.000    mass and valenz
   ENMAX  =  229.943; ENMIN  =  172.457 eV

 POTCAR:    PAW_PBE Mo 08Apr2002
   VRHFIN =Mo: 4p5s4d

   TITEL  = PAW_PBE Mo 08Apr2002
   POMASS =   95.940; ZVAL   =    6.000    mass and valenz
   ENMAX  =  224.584; ENMIN  =  168.438 eV

 POTCAR:    PAW_PBE C 08Apr2002
   VRHFIN =C: s2p2

[...]

 POTCAR:    PAW_PBE O 08Apr2002
   VRHFIN =O: s2p4

   TITEL  = PAW_PBE O 08Apr2002
   POMASS =   16.000; ZVAL   =    6.000    mass and valenz
   ENMAX  =  400.000; ENMIN  =  300.000 eV

 Optimization of the real space projectors (new method)

 maximal supplied QI-value         = 15.12
 optimisation between [QCUT,QGAM] = [ 11.34, 22.83] = [ 36.00,145.93] Ry
 Optimized for a Real-space Cutoff    1.39 Angstroem

   l    n(q)    QCUT    max X(q) W(low)/X(q) W(high)/X(q)  e(spline)
   2      9    11.338    60.898    0.39E-03    0.42E-03    0.21E-06
   2      9    11.338    58.894    0.40E-03    0.42E-03    0.22E-06
   0      9    11.338   109.617    0.13E-03    0.20E-04    0.13E-06
   0      9    11.338    75.026    0.13E-03    0.20E-04    0.13E-06
   1      9    11.338    16.344    0.33E-04    0.24E-03    0.18E-06
   1      9    11.338    10.160    0.26E-04    0.19E-03    0.15E-06
 Optimization of the real space projectors (new method)

[...]

   l    n(q)    QCUT    max X(q) W(low)/X(q) W(high)/X(q)  e(spline)
   0      7    11.310   115.676    0.43E-03    0.13E-02    0.19E-06
   0      7    11.310    87.132    0.43E-03    0.13E-02    0.18E-06
   1      6    11.310     4.429    0.42E-03    0.74E-03    0.11E-06
   1      6    11.310     2.733    0.34E-03    0.55E-03    0.92E-07
 Optimization of the real space projectors (new method)

 maximal supplied QI-value         = 24.76
 optimisation between [QCUT,QGAM] = [ 11.39, 22.77] = [ 36.31,145.25] Ry
 Optimized for a Real-space Cutoff    1.00 Angstroem

   l    n(q)    QCUT    max X(q) W(low)/X(q) W(high)/X(q)  e(spline)
   0      7    11.387    20.381    0.39E-03    0.13E-02    0.15E-06
   0      7    11.387    15.268    0.42E-03    0.14E-02    0.17E-06
   1      6    11.387     5.964    0.41E-03    0.11E-02    0.17E-06
   1      6    11.387     5.382    0.39E-03    0.87E-03    0.15E-06
  PAW_PBE Au 04Oct2007                  :
  PAW_PBE Mo 08Apr2002                  :
  PAW_PBE C 08Apr2002                   :
  PAW_PBE O 08Apr2002                   :

 POSCAR: Au-Mo-CO2
  positions in direct lattice
  velocities in cartesian coordinates
 exchange correlation table for  LEXCH =        8
   RHO(1)=    0.500       N(1)  =     2000
   RHO(2)=  100.500       N(2)  =     4000

 VTST: version 3.2, (02/03/18)

 CHAIN: initializing optimizer

 OPT: Using VASP Conjugate-Gradient optimizer
 CHAIN: Read ICHAIN            0

 POSCAR: Au-Mo-CO2
  positions in direct lattice
  velocities in cartesian coordinates

 ion  position               nearest neighbor table
   1  0.000  0.000  0.203-  16 2.94  12 2.94   6 2.94   8 2.94   7 2.94   3 2.94  10 2.94   4 2.94
                             2 2.94
   2  0.333  0.000  0.203-   9 2.94  11 2.94  17 2.94  10 2.94   8 2.94   4 2.94   5 2.94   1 2.94
                             3 2.94
   3  0.667  0.000  0.203-   7 2.94  18 2.94  12 2.94   1 2.94  11 2.94   5 2.94   6 2.94   9 2.94
                             2 2.94
   4  0.000  0.333  0.203-  10 2.94   6 2.94   5 2.94  13 2.94   2 2.94  15 2.94   9 2.94   1 2.94
                             7 2.94
   5  0.333  0.333  0.203-  13 2.94   7 2.94  11 2.94   4 2.94   2 2.94  14 2.94   3 2.94   8 2.94
                             6 2.94
   6  0.667  0.333  0.203-  15 2.94  14 2.94   1 2.94  12 2.94   4 2.94   9 2.94   8 2.94   3 2.94
                             5 2.94
   7  0.000  0.667  0.203-  18 2.94   3 2.94  16 2.94   5 2.94   1 2.94  13 2.94   8 2.94   4 2.94
                             9 2.94
   8  0.333  0.667  0.203-   9 2.94  17 2.94   1 2.94   2 2.94  14 2.94  16 2.94   6 2.94   7 2.94
                             5 2.94
   9  0.667  0.667  0.203-   2 2.94   8 2.94  17 2.94   6 2.94  15 2.94   4 2.94   3 2.94  18 2.94
                             7 2.94
  10  0.111  0.111  0.295-  20 2.91  11 2.94  17 2.94   2 2.94   4 2.94   1 2.94  12 2.94  16 2.94
                            13 2.94  15 2.94  26 2.95  19 2.95
  11  0.444  0.111  0.295-  20 2.91  21 2.91  13 2.94   2 2.94  10 2.94  17 2.94   5 2.94   3 2.94
                            18 2.94  14 2.94  12 2.94  27 2.94
  12  0.778  0.111  0.295-  21 2.91  16 2.94  18 2.94   1 2.94  14 2.94  15 2.94   3 2.94   6 2.94
                            10 2.94  11 2.94  25 2.95  19 2.95
  13  0.111  0.444  0.295-  23 2.91  20 2.91   5 2.94  18 2.94  11 2.94   7 2.94   4 2.94  16 2.94
                            10 2.94  14 2.94  15 2.94  22 2.94
  14  0.444  0.444  0.295-  21 2.91  23 2.91  15 2.94   6 2.94  12 2.94   8 2.94  17 2.94   5 2.94
                            16 2.94  13 2.94  11 2.94  24 2.94
  15  0.778  0.444  0.295-  24 2.93  22 2.93  14 2.94   6 2.94  17 2.94  12 2.94   9 2.94   4 2.94
                            10 2.94  13 2.94  18 2.94  19 2.95
  16  0.111  0.778  0.295-  23 2.91  18 2.94  12 2.94   7 2.94   1 2.94   8 2.94  13 2.94  10 2.94
                            14 2.94  17 2.94  25 2.95  26 2.95
  17  0.444  0.778  0.295-  27 2.93  24 2.93   9 2.94  15 2.94   2 2.94  10 2.94  11 2.94   8 2.94
                            14 2.94  16 2.94  18 2.94  26 2.95
  18  0.778  0.778  0.295-  22 2.93  27 2.93  16 2.94   7 2.94  13 2.94  12 2.94   3 2.94  11 2.94
                             9 2.94  15 2.94  17 2.94  25 2.95
  19  0.889  0.223  0.388-  24 2.93  22 2.93  21 2.94  20 2.94  28 2.95  26 2.95  25 2.95  15 2.95
                            10 2.95  12 2.95  32 3.02  31 3.02
  20  0.222  0.222  0.386-  36 2.77  11 2.91  13 2.91  10 2.91  23 2.94  21 2.94  26 2.94  19 2.94
                            27 2.95  22 2.95  29 2.98  31 2.98
  21  0.555  0.222  0.386-  36 2.77  14 2.91  11 2.91  12 2.91  20 2.94  23 2.94  25 2.94  19 2.94
                            27 2.95  24 2.95  30 2.98  32 2.98
  22  0.887  0.557  0.387-  24 2.91  27 2.91  18 2.93  15 2.93  25 2.93  19 2.93  13 2.94  35 2.95
                            23 2.95  20 2.95  33 3.00  31 3.00
  23  0.222  0.555  0.386-  36 2.77  13 2.91  14 2.91  16 2.91  20 2.94  21 2.94  25 2.94  26 2.94
                            22 2.95  24 2.95  33 2.98  34 2.98
  24  0.557  0.557  0.387-  27 2.91  22 2.91  15 2.93  17 2.93  26 2.93  19 2.93  14 2.94  35 2.95
                            21 2.95  23 2.95  32 3.00  34 3.00
  25  0.889  0.889  0.388-  22 2.93  27 2.93  23 2.94  21 2.94  28 2.95  19 2.95  26 2.95  18 2.95
                            16 2.95  12 2.95  33 3.02  30 3.02
  26  0.223  0.889  0.388-  27 2.93  24 2.93  20 2.94  23 2.94  28 2.95  19 2.95  25 2.95  17 2.95
                            10 2.95  16 2.95  29 3.02  34 3.02
  27  0.557  0.887  0.387-  24 2.91  22 2.91  17 2.93  18 2.93  26 2.93  25 2.93  11 2.94  35 2.95
                            20 2.95  21 2.95  29 3.00  30 3.00
  28  0.000  0.000  0.480-  25 2.95  19 2.95  26 2.95  34 2.98  32 2.98  33 2.98  30 2.98  31 2.98
                            29 2.98
  29  0.333  0.010  0.482-  30 2.85  31 2.85  36 2.87  20 2.98  35 2.98  28 2.98  27 3.00  26 3.02
                            34 3.11
  30  0.657  0.010  0.482-  29 2.85  32 2.85  36 2.87  21 2.98  35 2.98  28 2.98  27 3.00  25 3.02
                            33 3.11
  31  0.010  0.333  0.482-  33 2.85  29 2.85  36 2.87  20 2.98  35 2.98  28 2.98  22 3.00  19 3.02
                            32 3.11
  32  0.657  0.333  0.482-  34 2.85  30 2.85  36 2.87  21 2.98  35 2.98  28 2.98  24 3.00  19 3.02
                            31 3.11
  33  0.010  0.657  0.482-  31 2.85  34 2.85  36 2.87  23 2.98  35 2.98  28 2.98  22 3.00  25 3.02
                            30 3.11
  34  0.333  0.657  0.482-  32 2.85  33 2.85  36 2.87  23 2.98  35 2.98  28 2.98  24 3.00  26 3.02
                            29 3.11
  35  0.667  0.667  0.480-  24 2.95  27 2.95  22 2.95  29 2.98  34 2.98  32 2.98  31 2.98  30 2.98
                            33 2.98
  36  0.333  0.333  0.470-  20 2.77  23 2.77  21 2.77  33 2.87  31 2.87  29 2.87  30 2.87  34 2.87
                            32 2.87
  37  0.333  0.323  0.627-  38 1.18  39 1.18
  38  0.206  0.313  0.627-  37 1.18
  39  0.461  0.334  0.626-  37 1.18

  LATTYP: Found a hexagonal cell.
 ALAT       =     8.8135128021
 C/A-ratio  =     2.9523258785

  Lattice vectors:

 A1 = (  -4.4067569092,  -7.6327256898,   0.0000000000)
 A2 = (   8.8135128021,   0.0000000000,   0.0000000000)
 A3 = (   0.0000000000,   0.0000000000,  26.0203619261)

Analysis of symmetry for initial positions (statically):
 Subroutine PRICEL returns:
 Original cell was already a primitive cell.

 Routine SETGRP: Setting up the symmetry group for a
 hexagonal supercell.

 Subroutine GETGRP returns: Found  1 space group operations
 (whereof  1 operations were pure point group operations)
 out of a pool of 24 trial point group operations.

The static configuration has the point symmetry C_1 .

Analysis of symmetry for dynamics (positions and initial velocities):
 Subroutine PRICEL returns:
 Original cell was already a primitive cell.

[...]

The dynamic configuration has the point symmetry C_1 .

Analysis of constrained symmetry for selective dynamics:
 Subroutine PRICEL returns:
 Original cell was already a primitive cell.

 Routine SETGRP: Setting up the symmetry group for a
 hexagonal supercell.

[...]
     41      -5.3879      2.00000
     42      -5.3805      2.00000
     43      -5.2538      2.00000
     44      -5.2367      2.00000
     45      -5.1833      2.00000
     46      -5.1225      2.00000
     47      -5.1002      2.00000
     48      -5.0660      2.00000
     49      -5.0444      2.00000
     50      -5.0160      2.00000
     51      -5.0009      2.00000
     52      -4.9026      2.00000
     53      -4.8884      2.00000
     54      -4.8583      2.00000
     55      -4.8333      2.00000
     56      -4.8282      2.00000
     57      -4.8261      2.00000
     58      -4.8061      2.00000
     59      -4.7798      2.00000
     60      -4.7324      2.00000
[...]
    238       4.7130      0.00000
    239       4.9596      0.00000
    240       5.0019      0.00000
    241       5.1794      0.00000
    242       5.3925      0.00000
    243       5.4859      0.00000
    244       5.5870      0.00000
    245       5.6873      0.00000
    246       5.7566      0.00000
    247       5.8014      0.00000
    248       5.8627      0.00000
    249       6.0359      0.00000
    250       6.0863      0.00000
    251       6.1351      0.00000
    252       6.2449      0.00000

 soft charge-density along one line, spin component           1
         0         1         2         3         4         5         6         7         8         9
 total charge-density along one line

------------------------ aborting loop because EDIFF is reached ----------------------------------------

 total charge

# of ion       s       p       d       tot
    1        0.548   0.238   8.766   9.552
    2        0.543   0.241   8.765   9.549
    3        0.543   0.241   8.765   9.549
    4        0.543   0.241   8.766   9.549
    5        0.544   0.240   8.762   9.546
    6        0.543   0.241   8.766   9.549
    7        0.543   0.241   8.765   9.549
    8        0.543   0.241   8.765   9.549
    9        0.543   0.239   8.769   9.550
   10        0.528   0.306   8.765   9.600
   11        0.521   0.306   8.781   9.609
   12        0.528   0.306   8.765   9.600
   13        0.521   0.306   8.781   9.609
   14        0.521   0.306   8.781   9.609
   15        0.516   0.307   8.776   9.598
   16        0.528   0.306   8.765   9.600
   17        0.516   0.307   8.776   9.599
   18        0.516   0.307   8.776   9.599
   19        0.516   0.296   8.773   9.585
   20        0.564   0.339   8.729   9.633
   21        0.564   0.339   8.729   9.632
   22        0.506   0.304   8.780   9.590
   23        0.564   0.339   8.729   9.632
   24        0.506   0.304   8.780   9.590
   25        0.516   0.296   8.773   9.585
   26        0.516   0.296   8.773   9.585
   27        0.506   0.304   8.780   9.590
   28        0.541   0.229   8.754   9.523
   29        0.579   0.249   8.729   9.557
   30        0.579   0.249   8.729   9.557
   31        0.578   0.248   8.730   9.556
   32        0.578   0.248   8.730   9.556
   33        0.579   0.249   8.729   9.557
   34        0.579   0.249   8.729   9.557
   35        0.536   0.228   8.758   9.522
   36        0.377   0.304   4.038   4.719
   37        0.934   1.802   0.000   2.736
   38        1.607   3.529   0.000   5.137
   39        1.607   3.529   0.000   5.136
tot         23.422  18.851 310.629 352.903

  FORCE on cell =-STRESS in cart. coord.  units (eV):
  Direction    XX          YY          ZZ          XY          YZ          ZX
  Alpha Z   903.88805   903.88805   903.88805
  Ewald  168207.46050167425.52982************    53.77323     3.08957     0.20119
  Hartree176405.87761176040.18856************    24.63528     2.94225     0.62727
  E(xc)   -1826.89941 -1828.98688 -1836.93664     0.14632    -0.00107    -0.00176
  Local  ************************355789.30391   -73.40100    -6.07228    -0.92221
  n-local  -121.28979  -115.21187   -89.66426    -0.41622     0.00951    -0.00269
  augment  2382.20065  2384.88966  2406.41721    -0.19018     0.00460     0.00192
  Kinetic  5690.91799  5755.62031  5825.01305    -4.53383     0.03643     0.07593
  Fock        0.00000     0.00000     0.00000     0.00000     0.00000     0.00000
  Total     -22.96830   -23.01065     3.73445     0.01360     0.00901    -0.02035
  in kB     -21.02313   -21.06189     3.41818     0.01245     0.00825    -0.01863

 VOLUME and BASIS-vectors are now :
  energy-cutoff  :      500.00
  volume of cell :     1750.42
      direct lattice vectors                 reciprocal lattice vectors
     8.813512802  0.000000000  0.000000000     0.113462137 -0.065507406  0.000000000
     4.406756909  7.632725690  0.000000000     0.000000000  0.131014796  0.000000000
     0.000000000  0.000000000 26.020361926     0.000000000  0.000000000  0.038431441

  length of vectors
     8.813512802  8.813512802 26.020361926     0.131014796  0.131014796  0.038431441

 FORCES acting on ions
    electron-ion (+dipol)            ewald-force                    non-local-force                 convergence-correction
   0.559E-02 0.187E-01 0.276E+04   -.269E-02 -.143E-01 -.276E+04   -.258E-03 -.171E-02 -.897E+00   -.270E-02 -.298E-02 -.192E+00
   0.320E+00 -.951E-01 0.276E+04   -.526E+00 -.832E-01 -.276E+04   0.821E-01 0.117E+00 -.269E+00   0.107E+00 0.536E-01 -.252E+00
   -.326E+00 -.109E+00 0.276E+04   0.528E+00 -.823E-01 -.276E+04   -.819E-01 0.117E+00 -.268E+00   -.105E+00 0.662E-01 -.247E+00
   0.656E-01 0.330E+00 0.276E+04   -.324E+00 -.416E+00 -.276E+04   0.144E+00 0.124E-01 -.274E+00   0.999E-01 0.638E-01 -.252E+00
   -.182E-01 -.114E-01 0.276E+04   0.230E-02 0.488E-02 -.276E+04   -.579E-04 -.939E-03 -.350E-01   0.162E-01 0.782E-02 -.207E+00
   -.518E-01 0.328E+00 0.276E+04   0.322E+00 -.418E+00 -.276E+04   -.145E+00 0.123E-01 -.275E+00   -.111E+00 0.680E-01 -.244E+00
   -.271E+00 -.234E+00 0.276E+04   0.204E+00 0.502E+00 -.276E+04   0.616E-01 -.129E+00 -.267E+00   0.725E-02 -.121E+00 -.245E+00
   0.261E+00 -.223E+00 0.276E+04   -.205E+00 0.499E+00 -.276E+04   -.617E-01 -.129E+00 -.268E+00   0.286E-02 -.129E+00 -.242E+00
   0.140E-01 -.601E-02 0.276E+04   0.714E-03 0.951E-02 -.276E+04   0.944E-04 0.217E-02 -.501E+00   -.149E-01 -.559E-02 -.229E+00
   0.504E+01 0.299E+01 0.953E+03   -.458E+01 -.272E+01 -.952E+03   -.418E+00 -.240E+00 -.790E+00   -.209E-01 -.144E-01 0.253E+00
   -.371E-01 0.206E+01 0.956E+03   0.205E-01 -.214E+01 -.956E+03   -.727E-04 0.294E-01 -.113E+00   0.168E-01 -.159E-01 0.327E+00
   -.501E+01 0.298E+01 0.952E+03   0.456E+01 -.272E+01 -.952E+03   0.418E+00 -.240E+00 -.790E+00   0.758E-02 -.840E-03 0.259E+00
   0.169E+01 -.110E+01 0.956E+03   -.177E+01 0.112E+01 -.956E+03   0.227E-01 -.134E-01 -.114E+00   -.256E-02 0.246E-01 0.328E+00
   -.173E+01 -.108E+01 0.956E+03   0.178E+01 0.110E+01 -.956E+03   -.224E-01 -.134E-01 -.115E+00   0.304E-01 0.198E-01 0.334E+00
   0.283E-01 0.445E+01 0.957E+03   -.949E-02 -.463E+01 -.956E+03   -.402E-03 0.250E-01 -.534E+00   -.186E-01 0.911E-01 0.300E+00
   0.582E-02 -.579E+01 0.952E+03   -.101E-01 0.527E+01 -.952E+03   0.199E-03 0.480E+00 -.787E+00   0.414E-02 0.478E-02 0.260E+00
   0.393E+01 -.225E+01 0.956E+03   -.408E+01 0.235E+01 -.956E+03   0.222E-01 -.137E-01 -.528E+00   0.692E-01 -.595E-01 0.299E+00
   -.394E+01 -.228E+01 0.956E+03   0.409E+01 0.237E+01 -.956E+03   -.223E-01 -.134E-01 -.527E+00   -.725E-01 -.418E-01 0.299E+00
   0.164E+00 -.929E-02 -.878E+03   -.140E+00 -.980E-01 0.877E+03   -.168E-03 -.351E-02 0.428E+00   -.242E-01 0.101E+00 0.737E+00
   -.721E+01 -.387E+01 -.859E+03   0.795E+01 0.430E+01 0.859E+03   -.103E+01 -.593E+00 -.111E+01   0.271E+00 0.156E+00 0.111E+01
   0.705E+01 -.383E+01 -.859E+03   -.782E+01 0.425E+01 0.859E+03   0.103E+01 -.592E+00 -.111E+01   -.241E+00 0.167E+00 0.111E+01
   -.132E+02 0.684E+01 -.863E+03   0.127E+02 -.655E+01 0.862E+03   0.447E+00 -.263E+00 0.626E+00   0.661E-01 -.431E-01 0.720E+00
   -.425E-01 0.750E+01 -.860E+03   0.181E-01 -.837E+01 0.860E+03   0.607E-03 0.118E+01 -.112E+01   0.239E-01 -.291E+00 0.111E+01
   0.132E+02 0.699E+01 -.863E+03   -.127E+02 -.669E+01 0.862E+03   -.448E+00 -.263E+00 0.628E+00   -.942E-01 -.536E-01 0.719E+00
   0.260E+00 0.545E+00 -.880E+03   -.178E+00 -.498E+00 0.879E+03   0.863E-02 0.709E-02 0.409E+00   -.837E-01 -.498E-01 0.734E+00
   -.143E+00 0.663E+00 -.880E+03   0.675E-01 -.593E+00 0.878E+03   -.766E-02 0.590E-02 0.412E+00   0.756E-01 -.723E-01 0.737E+00
   -.102E+00 -.148E+02 -.863E+03   0.108E+00 0.142E+02 0.862E+03   -.345E-03 0.514E+00 0.619E+00   -.616E-02 0.780E-01 0.720E+00
   0.899E+00 0.459E+01 -.260E+04   -.897E+00 -.459E+01 0.260E+04   0.787E-05 -.160E-02 0.419E+00   -.244E-02 -.182E-02 0.480E+00
   0.278E+01 0.975E+01 -.260E+04   -.190E+01 -.835E+01 0.260E+04   -.116E+01 -.180E+01 -.307E+00   0.275E+00 0.390E+00 0.453E+00
   -.379E+01 0.898E+01 -.260E+04   0.291E+01 -.760E+01 0.260E+04   0.116E+01 -.180E+01 -.318E+00   -.271E+00 0.403E+00 0.450E+00
   0.743E+01 -.732E+00 -.259E+04   -.580E+01 0.800E+00 0.259E+04   -.213E+01 -.109E+00 -.217E+00   0.474E+00 0.411E-01 0.453E+00
   -.659E+01 0.339E+00 -.259E+04   0.496E+01 -.276E+00 0.259E+04   0.213E+01 -.108E+00 -.215E+00   -.484E+00 0.452E-01 0.442E+00
   0.491E+00 -.931E+01 -.260E+04   0.264E+00 0.785E+01 0.260E+04   -.976E+00 0.191E+01 -.323E+00   0.215E+00 -.435E+00 0.449E+00
   -.324E+00 -.863E+01 -.260E+04   -.442E+00 0.718E+01 0.260E+04   0.975E+00 0.190E+01 -.304E+00   -.204E+00 -.442E+00 0.442E+00
   -.179E+00 -.316E+01 -.260E+04   0.195E+00 0.316E+01 0.260E+04   0.319E-03 0.158E-02 0.637E+00   -.162E-01 -.790E-02 0.480E+00
   -.381E+00 -.931E+00 -.132E+04   0.373E+00 0.930E+00 0.132E+04   0.448E-02 0.304E-02 0.268E+01   0.625E-02 0.392E-02 0.356E+00
   -.229E+00 -.386E+00 -.892E+03   0.234E+00 0.379E+00 0.892E+03   -.105E-01 -.173E-02 -.108E+00   0.585E-03 0.356E-02 -.123E+00
   0.260E+03 0.179E+02 -.134E+04   -.324E+03 -.224E+02 0.134E+04   0.638E+02 0.447E+01 0.252E+00   0.382E-01 0.909E-02 -.163E+00
   -.260E+03 -.185E+02 -.134E+04   0.324E+03 0.229E+02 0.134E+04   -.638E+02 -.443E+01 0.403E+00   -.346E-01 0.527E-02 -.176E+00
   -.143E-01 -.555E-01 -.683E+01   -.568E-13 -.103E-12 -.273E-11   0.544E-02 0.360E-01 -.498E+01   -.549E-03 0.155E-01 0.118E+02

 POSITION                                       TOTAL-FORCE (eV/Angst)
      0.00000      0.00000      5.28038         0.000175     -0.000228     -0.170970
      2.93784      0.00000      5.28038        -0.015939     -0.007093     -0.076641
      5.87568      0.00000      5.28038         0.016471     -0.007111     -0.076639
      1.46892      2.54424      5.28038        -0.013780     -0.010217     -0.077207
      4.40676      2.54424      5.28038         0.000477      0.000495     -0.100557
      7.34459      2.54424      5.28038         0.014231     -0.010289     -0.077153
      2.93784      5.08848      5.28038         0.002447      0.017627     -0.077511
      5.87568      5.08848      5.28038        -0.002036      0.017562     -0.077477
      8.81351      5.08848      5.28038         0.000108      0.000179     -0.095101
      1.46892      0.84808      7.67911         0.027002      0.015519      0.145667
      4.40676      0.84808      7.67911         0.000382     -0.063075     -0.008415
      7.34459      0.84808      7.67911        -0.026568      0.015589      0.145745
      2.93784      3.39232      7.67911        -0.054985      0.031739     -0.008630
      5.87568      3.39232      7.67911         0.056033      0.031911     -0.008695
      8.81351      3.39232      7.67911         0.000087     -0.063560      0.098378
      4.40676      5.93656      7.67911         0.000299     -0.031256      0.146264
      7.34459      5.93656      7.67911        -0.055203      0.031760      0.098282
     10.28243      5.93656      7.67911         0.055671      0.031932      0.098209
      8.81351      1.70181     10.09390        -0.000100     -0.009281     -0.006829
      2.93906      1.69686     10.04479        -0.014182     -0.008880      0.053210
      5.87446      1.69686     10.04479         0.015034     -0.008929      0.051959
     10.26694      4.24935     10.06849         0.027776     -0.015111      0.055475
      4.40676      4.23900     10.04479         0.000362      0.014815      0.049708
      7.36009      4.24935     10.06849        -0.027858     -0.015369      0.056181
     11.74646      6.78182     10.09390         0.007063      0.004256     -0.009268
      5.88057      6.78182     10.09390        -0.007131      0.004138     -0.008921
      8.81351      6.76675     10.06849         0.000195      0.030202      0.052001
      0.00000      0.00000     12.49934         0.000236      0.000348     -0.043018
      2.98260      0.07565     12.53968        -0.007131     -0.013801     -0.014647
      5.83091      0.07565     12.53968         0.007600     -0.013231     -0.014210
      1.55682      2.54518     12.53968        -0.019749      0.000507     -0.018248
      7.25669      2.54518     12.53968         0.020228      0.000208     -0.018674
      2.98097      5.01189     12.53968        -0.004892      0.013385     -0.012678
      5.83254      5.01189     12.53968         0.005904      0.014069     -0.013615
      8.81351      5.08848     12.49853        -0.000113     -0.000523     -0.022265
      4.40676      2.54424     12.23451         0.003563      0.006686     -0.025037
      4.36224      2.46743     16.30726        -0.004688     -0.005072      0.001824
      3.18897      2.38537     16.30199        -0.008158     -0.003424      0.001789
      5.53572      2.54901     16.29886         0.001170      0.003519      0.007715
    total drift:                               -0.009439     -0.003954     -0.011491

  FREE ENERGIE OF THE ION-ELECTRON SYSTEM (eV)
  free  energy   TOTEN  =      -138.29324308 eV

  energy  without entropy=     -138.29324308  energy(sigma->0) =     -138.29324308

 stress matrix after NEB project (eV)
    -22.96830      0.01360     -0.02035
      0.01360    -23.01065      0.00901
     -0.02035      0.00901      3.73445
  FORCES: max atom, RMS     0.009026    0.002297
  FORCE total and by dimension    0.014345    0.008158
  Stress total and by dimension   32.725835   23.010647
|           W    W    AA    RRRRR   N    N  II  N    N   GGGG   !!!           |
|           W    W   A  A   R    R  NN   N  II  NN   N  G    G  !!!           |
|           W    W  A    A  R    R  N N  N  II  N N  N  G       !!!           |
|           W WW W  AAAAAA  RRRRR   N  N N  II  N  N N  G  GGG   !            |
|           WW  WW  A    A  R   R   N   NN  II  N   NN  G    G                |
|           W    W  A    A  R    R  N    N  II  N    N   GGGG   !!!           |
|     Tetrahedron method does not include variations of the Fermi             |
|     occupations, so forces and stress will be inaccurate. We suggest        |
|     using a different smearing scheme ISMEAR = 1 or 2 for metals in         |
|     relaxations.                                                            |

 total charge

# of ion       s       p       d       tot
    1        0.548   0.238   8.766   9.552
    2        0.543   0.241   8.765   9.549
    3        0.543   0.241   8.765   9.549
    4        0.543   0.241   8.766   9.549
    5        0.544   0.240   8.762   9.546
    6        0.543   0.241   8.766   9.549
    7        0.543   0.241   8.765   9.549
    8        0.543   0.241   8.765   9.549
    9        0.543   0.239   8.769   9.550
   10        0.528   0.306   8.765   9.600
   11        0.521   0.306   8.781   9.609
   12        0.528   0.306   8.765   9.600
   13        0.521   0.306   8.781   9.609
   14        0.521   0.306   8.781   9.609
   15        0.516   0.307   8.776   9.598
   16        0.528   0.306   8.765   9.600
   17        0.516   0.307   8.776   9.599
   18        0.516   0.307   8.776   9.599
   19        0.516   0.296   8.773   9.585
   20        0.564   0.339   8.729   9.633
   21        0.564   0.339   8.729   9.632
   22        0.506   0.304   8.780   9.590
   23        0.564   0.339   8.729   9.632
   24        0.506   0.304   8.780   9.590
   25        0.516   0.296   8.773   9.585
   26        0.516   0.296   8.773   9.585
   27        0.506   0.304   8.780   9.590
   28        0.541   0.229   8.754   9.523
   29        0.579   0.249   8.729   9.557
   30        0.579   0.249   8.729   9.557
   31        0.578   0.248   8.730   9.556
   32        0.578   0.248   8.730   9.556
   33        0.579   0.249   8.729   9.557
   34        0.579   0.249   8.729   9.557
   35        0.536   0.228   8.758   9.522
   36        0.377   0.304   4.038   4.719
   37        0.934   1.802   0.000   2.736
   38        1.607   3.529   0.000   5.137
   39        1.607   3.529   0.000   5.136
tot         23.422  18.851 310.629 352.903

 BZINTS: Fermi energy:   -0.038855;  407.000000 electrons
         Band energy:-0.163988E+04;  BLOECHL correction:   -0.032894