 vasp.6.2.0 18Jan21 (build Jun 12 2021 23:27:24) complex

 executed on             LinuxIFC date 2022.05.30  16:46:02

 INCAR:
   ISMEAR = -5
   SIGMA = 0.1
   ISPIN = 1
   EDIFF = 1.d-5
   EDIFFG = -0.01
   NSW = 0
   NELM = 150
   ENCUT = 500
   ISIF = 2
   IBRION = 2
   LREAL = Auto
   ALGO = Fast
   ICHARG = 11
   LORBIT = 10
   LCHARG = .F.
   LWAVE = .F.

 POTCAR:    PAW_PBE Ag 02Apr2005
 POTCAR:    PAW_PBE Ti 08Apr2002
 POTCAR:    PAW_PBE C 08Apr2002
 POTCAR:    PAW_PBE O 08Apr2002
 POTCAR:    PAW_PBE H 15Jun2001
|           W    W    AA    RRRRR   N    N  II  N    N   GGGG   !!!           |
|           W    W   A  A   R    R  NN   N  II  NN   N  G    G  !!!           |
|           W    W  A    A  R    R  N N  N  II  N N  N  G       !!!           |
|           W WW W  AAAAAA  RRRRR   N  N N  II  N  N N  G  GGG   !            |
|           WW  WW  A    A  R   R   N   NN  II  N   NN  G    G                |
|           W    W  A    A  R    R  N    N  II  N    N   GGGG   !!!           |
|     For optimal performance we recommend to set                             |
|       NCORE = 2 up to number-of-cores-per-socket                            |
|     This setting can greatly improve the performance of VASP for DFT.       |
|     The default, NCORE=1 might be grossly inefficient on modern             |
|     multi-core architectures or massively parallel machines. Do your        |
|     Unfortunately you need to use the default for GW and RPA                |
|     calculations (for HF NCORE is supported but not extensively tested      |
|     yet).                                                                   |

 POTCAR:    PAW_PBE Ag 02Apr2005
   VRHFIN =Ag : s1 d10

   TITEL  = PAW_PBE Ag 02Apr2005
   POMASS =  107.868; ZVAL   =   11.000    mass and valenz
   ENMAX  =  249.844; ENMIN  =  187.383 eV

 POTCAR:    PAW_PBE Ti 08Apr2002
   VRHFIN =Ti: d3 s1

[...]

 POTCAR:    PAW_PBE C 08Apr2002
   VRHFIN =C: s2p2

[...]

 POTCAR:    PAW_PBE O 08Apr2002
   VRHFIN =O: s2p4

   TITEL  = PAW_PBE O 08Apr2002
   POMASS =   16.000; ZVAL   =    6.000    mass and valenz
   ENMAX  =  400.000; ENMIN  =  300.000 eV

 POTCAR:    PAW_PBE H 15Jun2001
   VRHFIN =H: ultrasoft test

   TITEL  = PAW_PBE H 15Jun2001
   POMASS =    1.000; ZVAL   =    1.000    mass and valenz
   ENMAX  =  250.000; ENMIN  =  200.000 eV

 Optimization of the real space projectors (new method)

 maximal supplied QI-value         = 15.12
 optimisation between [QCUT,QGAM] = [ 11.34, 22.83] = [ 36.00,145.93] Ry
 Optimized for a Real-space Cutoff    1.43 Angstroem

   l    n(q)    QCUT    max X(q) W(low)/X(q) W(high)/X(q)  e(spline)
   2      9    11.338    53.897    0.16E-03    0.20E-03    0.28E-06
   2      9    11.338    52.416    0.16E-03    0.20E-03    0.29E-06
   0     10    11.338   122.045    0.31E-04    0.76E-04    0.15E-06
   0     10    11.338    73.629    0.30E-04    0.72E-04    0.15E-06
   1      9    11.338    15.255    0.20E-03    0.19E-04    0.17E-06
   1      9    11.338     9.562    0.16E-03    0.15E-04    0.14E-06
 Optimization of the real space projectors (new method)

[...]

   l    n(q)    QCUT    max X(q) W(low)/X(q) W(high)/X(q)  e(spline)
   0      7    11.387    20.381    0.39E-03    0.13E-02    0.15E-06
   0      7    11.387    15.268    0.42E-03    0.14E-02    0.17E-06
   1      6    11.387     5.964    0.41E-03    0.11E-02    0.17E-06
   1      6    11.387     5.382    0.39E-03    0.87E-03    0.15E-06
 Optimization of the real space projectors (new method)

 maximal supplied QI-value         = 34.20
 optimisation between [QCUT,QGAM] = [ 11.29, 22.57] = [ 35.68,142.71] Ry
 Optimized for a Real-space Cutoff    1.16 Angstroem

   l    n(q)    QCUT    max X(q) W(low)/X(q) W(high)/X(q)  e(spline)
   0      8    11.287    19.460    0.40E-03    0.73E-03    0.16E-06
   0      8    11.287    12.209    0.38E-03    0.70E-03    0.15E-06
   1      7    11.287     4.655    0.22E-03    0.25E-04    0.22E-06
  PAW_PBE Ag 02Apr2005                  :
  PAW_PBE Ti 08Apr2002                  :
  PAW_PBE C 08Apr2002                   :
  PAW_PBE O 08Apr2002                   :
  PAW_PBE H 15Jun2001                   :

 POSCAR: Ag-Ti-COH
  positions in direct lattice
  velocities in cartesian coordinates
 exchange correlation table for  LEXCH =        8
   RHO(1)=    0.500       N(1)  =     2000
   RHO(2)=  100.500       N(2)  =     4000

 VTST: version 3.2, (02/03/18)

 CHAIN: initializing optimizer

 OPT: Using VASP Conjugate-Gradient optimizer
 CHAIN: Read ICHAIN            0

 POSCAR: Ag-Ti-COH
  positions in direct lattice
  velocities in cartesian coordinates

 ion  position               nearest neighbor table
   1  0.000  0.000  0.199-   2 2.93   8 2.93   7 2.93   6 2.93   4 2.93  12 2.93  16 2.93  10 2.93
                             3 2.93
   2  0.333  0.000  0.199-   1 2.93   8 2.93   9 2.93   3 2.93   4 2.93   5 2.93  10 2.93  17 2.93
                            11 2.93
   3  0.667  0.000  0.199-   9 2.93   2 2.93   5 2.93  11 2.93   7 2.93  18 2.93   1 2.93   6 2.93
                            12 2.93
   4  0.000  0.333  0.199-   5 2.93   6 2.93   2 2.93   1 2.93   7 2.93  13 2.93  15 2.93   9 2.93
                            10 2.93
   5  0.333  0.333  0.199-   4 2.93   3 2.93   7 2.93   2 2.93   8 2.93  14 2.93  13 2.93  11 2.93
                             6 2.93
   6  0.667  0.333  0.199-   4 2.93   9 2.93   1 2.93  15 2.93   8 2.93  12 2.93   3 2.93   5 2.93
                            14 2.93
   7  0.000  0.667  0.199-   8 2.93   1 2.93   5 2.93   3 2.93   4 2.93  16 2.93  18 2.93  13 2.93
                             9 2.93
   8  0.333  0.667  0.199-   7 2.93   1 2.93   2 2.93   9 2.93   5 2.93  16 2.93   6 2.93  17 2.93
                            14 2.93
   9  0.667  0.667  0.199-   3 2.93   2 2.93   8 2.93   6 2.93  17 2.93   4 2.93  15 2.93   7 2.93
                            18 2.93
  10  0.111  0.111  0.289-  20 2.91  19 2.92  26 2.92  12 2.93  16 2.93  15 2.93  17 2.93  13 2.93
                            11 2.93   2 2.93   1 2.93   4 2.93
  11  0.444  0.111  0.289-  21 2.91  20 2.91  27 2.92  14 2.93  17 2.93  18 2.93   3 2.93  12 2.93
                            13 2.93  10 2.93   5 2.93   2 2.93
  12  0.778  0.111  0.289-  21 2.91  25 2.92  19 2.92  10 2.93  16 2.93  18 2.93  15 2.93  11 2.93
                             1 2.93  14 2.93   6 2.93   3 2.93
  13  0.111  0.444  0.289-  20 2.91  23 2.91  22 2.92  15 2.93  14 2.93  18 2.93  10 2.93  11 2.93
                            16 2.93   4 2.93   5 2.93   7 2.93
  14  0.444  0.444  0.289-  23 2.91  21 2.91  24 2.92  13 2.93  11 2.93  16 2.93   5 2.93  12 2.93
                            17 2.93   8 2.93  15 2.93   6 2.93
  15  0.778  0.444  0.289-  19 2.92  24 2.92  22 2.92  13 2.93  10 2.93  12 2.93  17 2.93  18 2.93
                             4 2.93   6 2.93   9 2.93  14 2.93
  16  0.111  0.778  0.289-  23 2.91  26 2.92  25 2.92  18 2.93  12 2.93  10 2.93  14 2.93  17 2.93
                            13 2.93   7 2.93   8 2.93   1 2.93
  17  0.444  0.778  0.289-  26 2.92  27 2.92  24 2.92  11 2.93  10 2.93   9 2.93  18 2.93  15 2.93
                            16 2.93   2 2.93  14 2.93   8 2.93
  18  0.778  0.778  0.289-  25 2.92  22 2.92  27 2.92  16 2.93  12 2.93  13 2.93  11 2.93  17 2.93
                            15 2.93   7 2.93   3 2.93   9 2.93
  19  0.889  0.222  0.378-  10 2.92  12 2.92  15 2.92  28 2.92  26 2.93  25 2.93  24 2.93  22 2.93
                            20 2.94  21 2.94  32 2.96  31 2.96
  20  0.223  0.223  0.378-  36 2.82  13 2.91  11 2.91  10 2.91  21 2.92  23 2.92  27 2.93  22 2.93
                            19 2.94  26 2.94  31 2.94  29 2.94
  21  0.555  0.223  0.378-  36 2.82  11 2.91  14 2.91  12 2.91  20 2.92  23 2.92  27 2.93  24 2.93
                            25 2.94  19 2.94  30 2.94  32 2.94
  22  0.889  0.556  0.378-  18 2.92  15 2.92  13 2.92  24 2.93  27 2.93  25 2.93  19 2.93  35 2.93
                            23 2.93  20 2.93  33 2.94  31 2.94
  23  0.223  0.555  0.378-  36 2.82  14 2.91  13 2.91  16 2.91  21 2.92  20 2.92  22 2.93  24 2.93
                            26 2.94  25 2.94  34 2.94  33 2.94
  24  0.556  0.556  0.378-  15 2.92  17 2.92  14 2.92  27 2.93  22 2.93  19 2.93  26 2.93  35 2.93
                            23 2.93  21 2.93  32 2.94  34 2.94
  25  0.889  0.889  0.378-  16 2.92  12 2.92  18 2.92  28 2.92  26 2.93  19 2.93  22 2.93  27 2.93
                            23 2.94  21 2.94  33 2.96  30 2.96
  26  0.222  0.889  0.378-  16 2.92  10 2.92  17 2.92  28 2.92  25 2.93  19 2.93  27 2.93  24 2.93
                            23 2.94  20 2.94  34 2.96  29 2.96
  27  0.556  0.889  0.378-  17 2.92  18 2.92  11 2.92  24 2.93  22 2.93  26 2.93  25 2.93  35 2.93
                            20 2.93  21 2.93  29 2.94  30 2.94
  28  0.000  0.000  0.468-  26 2.92  25 2.92  19 2.92  29 2.95  34 2.95  33 2.95  32 2.95  31 2.95
                            30 2.95
  29  0.334  0.004  0.469-  30 2.89  31 2.90  36 2.90  20 2.94  27 2.94  35 2.95  28 2.95  26 2.96
                            34 3.00
  30  0.662  0.004  0.469-  29 2.89  32 2.90  36 2.90  21 2.94  27 2.94  35 2.95  28 2.95  25 2.96
                            33 3.00
  31  0.004  0.334  0.469-  33 2.89  29 2.90  36 2.90  20 2.94  22 2.94  35 2.95  28 2.95  19 2.96
                            32 3.00
  32  0.662  0.334  0.469-  34 2.89  30 2.90  36 2.90  21 2.94  24 2.94  35 2.95  28 2.95  19 2.96
                            31 3.00
  33  0.004  0.662  0.469-  31 2.89  34 2.90  36 2.90  23 2.94  22 2.94  35 2.95  28 2.95  25 2.96
                            30 3.00
  34  0.334  0.662  0.469-  32 2.89  33 2.90  36 2.90  23 2.94  24 2.94  35 2.95  28 2.95  26 2.96
                            29 3.00
  35  0.667  0.667  0.469-  24 2.93  27 2.93  22 2.93  30 2.95  32 2.95  29 2.95  34 2.95  31 2.95
                            33 2.95
  36  0.333  0.333  0.463-  37 1.88  21 2.82  20 2.82  23 2.82  31 2.90  33 2.90  30 2.90  29 2.90
                            34 2.90  32 2.90
  37  0.333  0.333  0.533-  38 1.27  36 1.88
  38  0.333  0.333  0.581-  39 0.96  37 1.27
  39  0.333  0.333  0.617-  38 0.96

  LATTYP: Found a hexagonal cell.
 ALAT       =     8.7913665772
 C/A-ratio  =     3.0233954145

  Lattice vectors:

 A1 = (  -4.3956832886,  -7.6135467898,   0.0000000000)
 A2 = (   8.7913665771,   0.0000000000,   0.0000000000)
 A3 = (   0.0000000000,   0.0000000000,  26.5797773968)

Analysis of symmetry for initial positions (statically):
 Subroutine PRICEL returns:
 Original cell was already a primitive cell.

 Routine SETGRP: Setting up the symmetry group for a
 hexagonal supercell.

 Subroutine GETGRP returns: Found  6 space group operations
 (whereof  6 operations were pure point group operations)
 out of a pool of 24 trial point group operations.

The static configuration has the point symmetry C_3v.

Analysis of symmetry for dynamics (positions and initial velocities):
 Subroutine PRICEL returns:
 Original cell was already a primitive cell.

[...]

The dynamic configuration has the point symmetry C_3v.

Analysis of constrained symmetry for selective dynamics:
 Subroutine PRICEL returns:
[...]
     57      -4.6091      2.00000
     58      -4.5501      2.00000
     59      -4.5401      2.00000
     60      -4.5337      2.00000
[...]
    238       5.2472      0.00000
    239       5.3541      0.00000
    240       5.4102      0.00000
    241       5.5959      0.00000
    242       5.6397      0.00000
    243       5.6929      0.00000
    244       5.7357      0.00000
    245       5.8108      0.00000
    246       5.8305      0.00000
    247       5.8778      0.00000
    248       5.8995      0.00000
    249       6.1194      0.00000
    250       6.1927      0.00000
    251       6.6552      0.00000
    252       6.7528      0.00000

 soft charge-density along one line, spin component           1
         0         1         2         3         4         5         6         7         8         9
 total charge-density along one line

------------------------ aborting loop because EDIFF is reached ----------------------------------------

 total charge

# of ion       s       p       d       tot
    1        0.418   0.202   9.178   9.798
    2        0.415   0.204   9.177   9.796
    3        0.415   0.204   9.177   9.796
    4        0.415   0.204   9.177   9.796
    5        0.423   0.202   9.174   9.799
    6        0.415   0.204   9.177   9.796
    7        0.415   0.204   9.177   9.796
    8        0.415   0.204   9.177   9.796
    9        0.415   0.203   9.178   9.796
   10        0.408   0.270   9.163   9.841
   11        0.409   0.267   9.167   9.843
   12        0.408   0.270   9.163   9.841
   13        0.409   0.267   9.167   9.843
   14        0.409   0.267   9.167   9.843
   15        0.404   0.270   9.163   9.837
   16        0.408   0.270   9.163   9.841
   17        0.404   0.270   9.163   9.837
   18        0.404   0.270   9.163   9.837
   19        0.403   0.268   9.164   9.835
   20        0.434   0.290   9.142   9.866
   21        0.434   0.290   9.142   9.866
   22        0.397   0.274   9.165   9.835
   23        0.434   0.290   9.142   9.866
   24        0.397   0.274   9.165   9.835
   25        0.403   0.268   9.164   9.835
   26        0.403   0.268   9.164   9.835
   27        0.397   0.274   9.165   9.835
   28        0.410   0.201   9.178   9.789
   29        0.432   0.211   9.162   9.805
   30        0.432   0.211   9.162   9.805
   31        0.432   0.211   9.162   9.805
   32        0.432   0.211   9.162   9.805
   33        0.432   0.211   9.162   9.805
   34        0.432   0.211   9.162   9.805
   35        0.412   0.200   9.178   9.790
   36        0.467   0.624   2.537   3.628
   37        0.936   1.392   0.000   2.329
   38        1.521   3.756   0.000   5.278
   39        0.570   0.139   0.000   0.709
tot         18.020  14.326 323.347 355.693

  FORCE on cell =-STRESS in cart. coord.  units (eV):
  Direction    XX          YY          ZZ          XY          YZ          ZX
  Alpha Z   638.67340   638.67340   638.67340
  Ewald  182388.76019182388.76012************     0.00001    -0.00001     0.00004
  Hartree192401.87123192401.87120************     0.00000    -0.00000     0.00001
  E(xc)   -2091.45651 -2091.45662 -2097.82658     0.00010    -0.00000    -0.00000
  Local  ************************385540.80883     0.00067    -0.00006    -0.00018
  n-local  -352.65387  -337.01721  -350.19889     9.50626    -0.43436     0.48721
  augment  3231.95299  3231.95322  3243.40462    -0.00020    -0.00002    -0.00004
  Kinetic  5002.54717  5002.90119  4981.33738     3.64054     0.89042    -0.26309
  Fock        0.00000     0.00000     0.00000     0.00000     0.00000     0.00000
  Total      -8.43145    -8.43145     0.70296    -0.00000     0.00000    -0.00000
  in kB      -7.59308    -7.59308     0.63306    -0.00000     0.00000    -0.00000

 VOLUME and BASIS-vectors are now :
  energy-cutoff  :      500.00
  volume of cell :     1779.08
      direct lattice vectors                 reciprocal lattice vectors
     8.791366577  0.000000000  0.000000000     0.113747958 -0.065672414  0.000000000
     4.395683289  7.613546790  0.000000000     0.000000000  0.131344829  0.000000000
     0.000000000  0.000000000 26.579777397     0.000000000  0.000000000  0.037622587

  length of vectors
     8.791366577  8.791366577 26.579777397     0.131344829  0.131344829  0.037622587

 FORCES acting on ions
    electron-ion (+dipol)            ewald-force                    non-local-force                 convergence-correction
   0.456E-04 -.284E-04 0.282E+04   -.953E-04 0.593E-04 -.281E+04   0.151E-17 0.224E-17 -.191E+01   -.835E-04 -.155E-03 -.792E-01
   -.320E+00 -.317E+00 0.281E+04   0.210E+00 0.193E+00 -.281E+04   0.101E+00 0.170E+00 -.154E+01   0.100E-01 -.437E-01 -.811E-02
   0.320E+00 -.317E+00 0.281E+04   -.210E+00 0.193E+00 -.281E+04   -.101E+00 0.170E+00 -.154E+01   -.106E-01 -.418E-01 -.745E-02
   -.434E+00 -.119E+00 0.281E+04   0.272E+00 0.859E-01 -.281E+04   0.198E+00 0.272E-02 -.154E+01   -.326E-01 0.307E-01 -.810E-02
   -.411E-05 -.179E-04 0.281E+04   0.981E-04 -.200E-05 -.281E+04   -.376E-17 -.656E-18 -.100E+01   0.618E-02 0.378E-02 0.187E+00
   0.434E+00 -.119E+00 0.281E+04   -.272E+00 0.858E-01 -.281E+04   -.198E+00 0.272E-02 -.154E+01   0.313E-01 0.316E-01 -.738E-02
   -.114E+00 0.436E+00 0.281E+04   0.616E-01 -.279E+00 -.281E+04   0.965E-01 -.173E+00 -.154E+01   -.411E-01 0.123E-01 -.744E-02
   0.114E+00 0.436E+00 0.281E+04   -.617E-01 -.279E+00 -.281E+04   -.965E-01 -.173E+00 -.154E+01   0.427E-01 0.113E-01 -.737E-02
   0.374E-04 -.125E-04 0.281E+04   0.791E-04 -.642E-04 -.281E+04   -.131E-18 0.303E-17 -.180E+01   -.663E-02 -.341E-02 -.399E-01
   -.154E+01 -.891E+00 0.952E+03   0.171E+01 0.990E+00 -.952E+03   -.219E+00 -.126E+00 -.657E+00   0.221E-01 0.128E-01 0.214E+00
   -.284E-04 -.164E+01 0.948E+03   0.406E-04 0.158E+01 -.948E+03   0.607E-12 0.925E-01 -.249E+00   0.612E-02 -.464E-01 0.188E+00
   0.154E+01 -.891E+00 0.952E+03   -.171E+01 0.990E+00 -.952E+03   0.219E+00 -.126E+00 -.657E+00   -.235E-01 0.134E-01 0.214E+00
   -.142E+01 0.818E+00 0.948E+03   0.137E+01 -.789E+00 -.948E+03   0.801E-01 -.462E-01 -.249E+00   -.372E-01 0.285E-01 0.188E+00
   0.142E+01 0.818E+00 0.948E+03   -.137E+01 -.789E+00 -.948E+03   -.801E-01 -.462E-01 -.249E+00   0.474E-01 0.276E-01 0.187E+00
   0.145E-04 -.174E+00 0.952E+03   -.107E-03 0.499E-01 -.952E+03   0.481E-12 0.732E-01 -.769E+00   -.132E-02 0.327E-01 0.163E+00
   -.700E-05 0.178E+01 0.952E+03   0.207E-04 -.198E+01 -.952E+03   0.166E-11 0.253E+00 -.657E+00   -.141E-03 -.271E-01 0.214E+00
   -.151E+00 0.869E-01 0.952E+03   0.432E-01 -.250E-01 -.952E+03   0.634E-01 -.366E-01 -.769E+00   0.276E-01 -.175E-01 0.163E+00
   0.151E+00 0.869E-01 0.952E+03   -.433E-01 -.249E-01 -.952E+03   -.634E-01 -.366E-01 -.769E+00   -.276E-01 -.159E-01 0.164E+00
   0.385E-04 -.520E+01 -.918E+03   -.125E-03 0.525E+01 0.917E+03   0.438E-12 0.667E-01 0.833E+00   0.564E-02 -.694E-01 0.133E+00
   -.301E+02 -.174E+02 -.949E+03   0.311E+02 0.180E+02 0.949E+03   -.939E+00 -.542E+00 -.721E+00   -.142E+00 -.820E-01 0.468E-01
   0.301E+02 -.174E+02 -.949E+03   -.311E+02 0.180E+02 0.949E+03   0.939E+00 -.542E+00 -.721E+00   0.140E+00 -.825E-01 0.461E-01
   -.128E+02 0.742E+01 -.921E+03   0.127E+02 -.733E+01 0.920E+03   0.152E+00 -.877E-01 0.343E+00   0.114E-01 -.902E-03 0.780E-01
   -.514E-04 0.348E+02 -.949E+03   0.358E-04 -.359E+02 0.949E+03   0.712E-11 0.108E+01 -.721E+00   -.979E-03 0.163E+00 0.461E-01
   0.128E+02 0.742E+01 -.921E+03   -.127E+02 -.733E+01 0.920E+03   -.152E+00 -.877E-01 0.343E+00   -.631E-03 -.267E-03 0.781E-01
   0.451E+01 0.260E+01 -.918E+03   -.454E+01 -.262E+01 0.917E+03   -.578E-01 -.334E-01 0.833E+00   0.669E-01 0.385E-01 0.133E+00
   -.451E+01 0.260E+01 -.918E+03   0.454E+01 -.262E+01 0.917E+03   0.578E-01 -.334E-01 0.833E+00   -.576E-01 0.395E-01 0.133E+00
   0.186E-04 -.148E+02 -.921E+03   0.110E-03 0.147E+02 0.920E+03   0.115E-11 0.175E+00 0.343E+00   0.424E-02 0.103E-01 0.781E-01
   0.537E-04 -.364E-04 -.272E+04   -.115E-03 0.772E-04 0.272E+04   -.431E-17 0.176E-17 0.184E+01   0.207E-03 -.157E-04 0.159E+00
   -.791E+01 -.197E+02 -.271E+04   0.850E+01 0.208E+02 0.270E+04   -.614E+00 -.102E+01 0.150E+01   0.750E-03 -.196E-01 0.120E+00
   0.791E+01 -.197E+02 -.271E+04   -.850E+01 0.208E+02 0.270E+04   0.614E+00 -.102E+01 0.150E+01   -.170E-02 -.187E-01 0.121E+00
   -.210E+02 0.301E+01 -.271E+04   0.222E+02 -.302E+01 0.270E+04   -.119E+01 -.206E-01 0.150E+01   -.164E-01 0.106E-01 0.120E+00
   0.210E+02 0.301E+01 -.271E+04   -.222E+02 -.302E+01 0.270E+04   0.119E+01 -.206E-01 0.150E+01   0.163E-01 0.116E-01 0.121E+00
   -.131E+02 0.167E+02 -.271E+04   0.137E+02 -.177E+02 0.270E+04   -.579E+00 0.104E+01 0.150E+01   -.166E-01 0.843E-02 0.121E+00
   0.131E+02 0.167E+02 -.271E+04   -.137E+02 -.177E+02 0.270E+04   0.579E+00 0.104E+01 0.150E+01   0.178E-01 0.842E-02 0.121E+00
   0.249E-04 -.123E-04 -.273E+04   0.104E-03 -.657E-04 0.273E+04   0.340E-18 0.151E-17 0.182E+01   -.638E-02 -.325E-02 0.150E+00
   -.289E-05 0.751E-05 -.885E+03   0.380E-04 0.429E-05 0.886E+03   -.100E-19 0.818E-19 -.147E+01   0.310E-03 0.192E-03 0.105E+00
   -.224E-06 -.720E-04 -.976E+03   0.162E-04 0.196E-06 0.954E+03   0.118E-18 0.238E-18 0.219E+02   0.987E-03 0.606E-03 0.321E-01
   0.239E-03 -.906E-04 -.166E+04   0.773E-05 0.998E-08 0.166E+04   0.588E-19 0.157E-18 -.263E+01   0.377E-02 0.231E-02 -.107E+00
   0.677E-05 -.142E-04 -.322E+03   0.531E-06 -.183E-08 0.330E+03   -.159E-19 -.462E-20 -.873E+01   0.199E-03 0.122E-03 -.185E-01
   0.612E-03 -.847E-03 -.760E+01   -.102E-13 0.725E-13 0.233E-11   0.223E-15 0.199E-17 0.409E+01   0.391E-01 0.260E-01 0.354E+01

 POSITION                                       TOTAL-FORCE (eV/Angst)
      0.00000      0.00000      5.28219        -0.000000     -0.000000     -0.020659
      2.93046      0.00000      5.28219         0.001933      0.003368      0.025177
      5.86091      0.00000      5.28219        -0.001933      0.003368      0.025177
      1.46523      2.53785      5.28219         0.003884     -0.000010      0.025177
      4.39568      2.53785      5.28219         0.000000     -0.000000     -0.017048
      7.32614      2.53785      5.28219        -0.003884     -0.000010      0.025177
      2.93046      5.07570      5.28219         0.001951     -0.003358      0.025177
      5.86091      5.07570      5.28219        -0.001951     -0.003358      0.025177
      8.79137      5.07570      5.28219        -0.000000     -0.000000      0.013483
      1.46523      0.84595      7.67490        -0.025285     -0.014599     -0.048319
      4.39568      0.84595      7.67490        -0.000000     -0.015001     -0.056311
      7.32614      0.84595      7.67490         0.025285     -0.014599     -0.048319
      2.93046      3.38380      7.67490        -0.012991      0.007500     -0.056311
      5.86091      3.38380      7.67490         0.012991      0.007500     -0.056311
      8.79137      3.38380      7.67490        -0.000000     -0.018346     -0.009689
      4.39568      5.92165      7.67490         0.000000      0.029197     -0.048319
      7.32614      5.92165      7.67490        -0.015888      0.009173     -0.009689
     10.25659      5.92165      7.67490         0.015888      0.009173     -0.009689
      8.79137      1.69074     10.05145         0.000000      0.035908      0.076587
      2.93556      1.69484     10.04095        -0.088700     -0.051211     -0.082915
      5.85581      1.69484     10.04095         0.088700     -0.051211     -0.082915
     10.25435      4.23104     10.05745         0.011526     -0.006654      0.047688
      4.39568      4.22386     10.04095         0.000000      0.102422     -0.082915
      7.32838      4.23104     10.05745        -0.011526     -0.006654      0.047688
     11.72283      6.76818     10.05145        -0.031098     -0.017954      0.076587
      5.85990      6.76818     10.05145         0.031098     -0.017954      0.076587
      8.79137      6.76501     10.05745         0.000000      0.013309      0.047688
      0.00000      0.00000     12.43413        -0.000000     -0.000000     -0.032618
      2.95009      0.02948     12.45917        -0.023748     -0.011757      0.047439
      5.84128      0.02948     12.45917         0.023748     -0.011757      0.047439
      1.50057      2.54011     12.45917        -0.022056     -0.014687      0.047439
      7.29079      2.54011     12.45917         0.022056     -0.014687      0.047439
      2.94617      5.04396     12.45917         0.001692      0.026444      0.047439
      5.84520      5.04396     12.45917        -0.001692      0.026444      0.047439
      8.79137      5.07570     12.45428        -0.000000     -0.000000     -0.058490
      4.39568      2.53785     12.30230         0.000000     -0.000000     -0.094721
      4.39568      2.53785     14.17928        -0.000000     -0.000000     -0.002615
      4.39568      2.53785     15.45427        -0.000000     -0.000000     -0.008964
      4.39568      2.53785     16.40960        -0.000000     -0.000000      0.004813
    total drift:                                0.039752      0.025114      0.028763

  FREE ENERGIE OF THE ION-ELECTRON SYSTEM (eV)
  free  energy   TOTEN  =      -113.30678944 eV

  energy  without entropy=     -113.30678944  energy(sigma->0) =     -113.30678944

 stress matrix after NEB project (eV)
     -8.43145     -0.00000     -0.00000
     -0.00000     -8.43145      0.00000
     -0.00000      0.00000      0.70296
  FORCES: max atom, RMS     0.008964    0.001682
  FORCE total and by dimension    0.010505    0.008964
  Stress total and by dimension   11.944575    8.431451
|           W    W    AA    RRRRR   N    N  II  N    N   GGGG   !!!           |
|           W    W   A  A   R    R  NN   N  II  NN   N  G    G  !!!           |
|           W    W  A    A  R    R  N N  N  II  N N  N  G       !!!           |
|           W WW W  AAAAAA  RRRRR   N  N N  II  N  N N  G  GGG   !            |
|           WW  WW  A    A  R   R   N   NN  II  N   NN  G    G                |
|           W    W  A    A  R    R  N    N  II  N    N   GGGG   !!!           |
|     Tetrahedron method does not include variations of the Fermi             |
|     occupations, so forces and stress will be inaccurate. We suggest        |
|     using a different smearing scheme ISMEAR = 1 or 2 for metals in         |
|     relaxations.                                                            |

 total charge

# of ion       s       p       d       tot
    1        0.418   0.202   9.178   9.798
    2        0.415   0.204   9.177   9.796
    3        0.415   0.204   9.177   9.796
    4        0.415   0.204   9.177   9.796
    5        0.423   0.202   9.174   9.799
    6        0.415   0.204   9.177   9.796
    7        0.415   0.204   9.177   9.796
    8        0.415   0.204   9.177   9.796
    9        0.415   0.203   9.178   9.796
   10        0.408   0.270   9.163   9.841
   11        0.409   0.267   9.167   9.843
   12        0.408   0.270   9.163   9.841
   13        0.409   0.267   9.167   9.843
   14        0.409   0.267   9.167   9.843
   15        0.404   0.270   9.163   9.837
   16        0.408   0.270   9.163   9.841
   17        0.404   0.270   9.163   9.837
   18        0.404   0.270   9.163   9.837
   19        0.403   0.268   9.164   9.835
   20        0.434   0.290   9.142   9.866
   21        0.434   0.290   9.142   9.866
   22        0.397   0.274   9.165   9.835
   23        0.434   0.290   9.142   9.866
   24        0.397   0.274   9.165   9.835
   25        0.403   0.268   9.164   9.835
   26        0.403   0.268   9.164   9.835
   27        0.397   0.274   9.165   9.835
   28        0.410   0.201   9.178   9.789
   29        0.432   0.211   9.162   9.805
   30        0.432   0.211   9.162   9.805
   31        0.432   0.211   9.162   9.805
   32        0.432   0.211   9.162   9.805
   33        0.432   0.211   9.162   9.805
   34        0.432   0.211   9.162   9.805
   35        0.412   0.200   9.178   9.790
   36        0.467   0.624   2.537   3.628
   37        0.936   1.392   0.000   2.329
   38        1.521   3.756   0.000   5.278
   39        0.570   0.139   0.000   0.709
tot         18.020  14.326 323.347 355.693

 BZINTS: Fermi energy:    0.371666;  399.982845 electrons
         Band energy:-0.156696E+04;  BLOECHL correction:   -0.039952
 WARNING: Fermi level nearly degenerate with energies of tetrahedron. This may
     result in numerical instabilities because the density changes by tiny
     changes of the Fermi energy. If the calculation converges, the total
     energy will still be reliable. If you notice convergence issues, you can
     try to
     *) Use a Gamma centered k-point grid
     *) Use tetrahedron method without corrections ISMEAR = -4
     *) Don't use tetrahedron method
        ISMEAR = 0 for semiconductors, 1 or 2 for metals