 vasp.6.2.0 18Jan21 (build Jun 12 2021 23:27:24) complex

 executed on             LinuxIFC date 2022.05.27  05:14:52

 INCAR:
   ISMEAR = -5
   SIGMA = 0.1
   ISPIN = 1
   EDIFF = 1.d-5
   EDIFFG = -0.01
   NSW = 0
   NELM = 150
   ENCUT = 500
   ISIF = 2
   IBRION = 2
   LREAL = Auto
   ALGO = Fast
   ICHARG = 11
   LORBIT = 10
   LCHARG = .F.
   LWAVE = .F.

 POTCAR:    PAW_PBE Au 04Oct2007
 POTCAR:    PAW_PBE Hf 20Jan2003
 POTCAR:    PAW_PBE C 08Apr2002
 POTCAR:    PAW_PBE O 08Apr2002
|           W    W    AA    RRRRR   N    N  II  N    N   GGGG   !!!           |
|           W    W   A  A   R    R  NN   N  II  NN   N  G    G  !!!           |
|           W    W  A    A  R    R  N N  N  II  N N  N  G       !!!           |
|           W WW W  AAAAAA  RRRRR   N  N N  II  N  N N  G  GGG   !            |
|           WW  WW  A    A  R   R   N   NN  II  N   NN  G    G                |
|           W    W  A    A  R    R  N    N  II  N    N   GGGG   !!!           |
|     For optimal performance we recommend to set                             |
|       NCORE = 2 up to number-of-cores-per-socket                            |
|     This setting can greatly improve the performance of VASP for DFT.       |
|     The default, NCORE=1 might be grossly inefficient on modern             |
|     multi-core architectures or massively parallel machines. Do your        |
|     Unfortunately you need to use the default for GW and RPA                |
|     calculations (for HF NCORE is supported but not extensively tested      |
|     yet).                                                                   |

 POTCAR:    PAW_PBE Au 04Oct2007
   VRHFIN =Au: s1d10

   TITEL  = PAW_PBE Au 04Oct2007
   POMASS =  196.966; ZVAL   =   11.000    mass and valenz
   ENMAX  =  229.943; ENMIN  =  172.457 eV

 POTCAR:    PAW_PBE Hf 20Jan2003
   VRHFIN =Hf: 6s5d

   TITEL  = PAW_PBE Hf 20Jan2003
   POMASS =  178.490; ZVAL   =    4.000    mass and valenz
   ENMAX  =  220.334; ENMIN  =  165.250 eV

 POTCAR:    PAW_PBE C 08Apr2002
   VRHFIN =C: s2p2

   TITEL  = PAW_PBE C 08Apr2002
   POMASS =   12.011; ZVAL   =    4.000    mass and valenz
   ENMAX  =  400.000; ENMIN  =  300.000 eV

 POTCAR:    PAW_PBE O 08Apr2002
   VRHFIN =O: s2p4

   TITEL  = PAW_PBE O 08Apr2002
   POMASS =   16.000; ZVAL   =    6.000    mass and valenz
   ENMAX  =  400.000; ENMIN  =  300.000 eV

 Optimization of the real space projectors (new method)

 maximal supplied QI-value         = 15.12
 optimisation between [QCUT,QGAM] = [ 11.34, 22.83] = [ 36.00,145.93] Ry
 Optimized for a Real-space Cutoff    1.39 Angstroem

   l    n(q)    QCUT    max X(q) W(low)/X(q) W(high)/X(q)  e(spline)
   2      9    11.338    60.898    0.39E-03    0.42E-03    0.21E-06
   2      9    11.338    58.894    0.40E-03    0.42E-03    0.22E-06
   0      9    11.338   109.617    0.13E-03    0.20E-04    0.13E-06
   0      9    11.338    75.026    0.13E-03    0.20E-04    0.13E-06
   1      9    11.338    16.344    0.33E-04    0.24E-03    0.18E-06
   1      9    11.338    10.160    0.26E-04    0.19E-03    0.15E-06
 Optimization of the real space projectors (new method)

[...]

   l    n(q)    QCUT    max X(q) W(low)/X(q) W(high)/X(q)  e(spline)
   0      7    11.310   115.676    0.43E-03    0.13E-02    0.19E-06
   0      7    11.310    87.132    0.43E-03    0.13E-02    0.18E-06
   1      6    11.310     4.429    0.42E-03    0.74E-03    0.11E-06
   1      6    11.310     2.733    0.34E-03    0.55E-03    0.92E-07
 Optimization of the real space projectors (new method)

 maximal supplied QI-value         = 24.76
 optimisation between [QCUT,QGAM] = [ 11.39, 22.77] = [ 36.31,145.25] Ry
 Optimized for a Real-space Cutoff    1.00 Angstroem

   l    n(q)    QCUT    max X(q) W(low)/X(q) W(high)/X(q)  e(spline)
   0      7    11.387    20.381    0.39E-03    0.13E-02    0.15E-06
   0      7    11.387    15.268    0.42E-03    0.14E-02    0.17E-06
   1      6    11.387     5.964    0.41E-03    0.11E-02    0.17E-06
   1      6    11.387     5.382    0.39E-03    0.87E-03    0.15E-06
  PAW_PBE Au 04Oct2007                  :
  PAW_PBE Hf 20Jan2003                  :
  PAW_PBE C 08Apr2002                   :
  PAW_PBE O 08Apr2002                   :

 POSCAR: Au-Hf-CO
  positions in direct lattice
  velocities in cartesian coordinates
 exchange correlation table for  LEXCH =        8
   RHO(1)=    0.500       N(1)  =     2000
   RHO(2)=  100.500       N(2)  =     4000

 VTST: version 3.2, (02/03/18)

 CHAIN: initializing optimizer

 OPT: Using VASP Conjugate-Gradient optimizer
 CHAIN: Read ICHAIN            0

 POSCAR: Au-Hf-CO
  positions in direct lattice
  velocities in cartesian coordinates

 ion  position               nearest neighbor table
   1  0.000  0.000  0.238-  16 2.94  12 2.94   6 2.94   8 2.94   7 2.94   3 2.94  10 2.94   4 2.94
                             2 2.94
   2  0.333  0.000  0.238-   9 2.94  11 2.94  17 2.94  10 2.94   8 2.94   4 2.94   5 2.94   1 2.94
                             3 2.94
   3  0.667  0.000  0.238-   7 2.94  18 2.94  12 2.94   1 2.94  11 2.94   5 2.94   6 2.94   9 2.94
                             2 2.94
   4  0.000  0.333  0.238-  10 2.94   6 2.94   5 2.94  13 2.94   2 2.94  15 2.94   9 2.94   1 2.94
                             7 2.94
   5  0.333  0.333  0.238-  13 2.94   7 2.94  11 2.94   4 2.94   2 2.94  14 2.94   3 2.94   8 2.94
                             6 2.94
   6  0.667  0.333  0.238-  15 2.94  14 2.94   1 2.94  12 2.94   4 2.94   9 2.94   8 2.94   3 2.94
                             5 2.94
   7  0.000  0.667  0.238-  18 2.94   3 2.94  16 2.94   5 2.94   1 2.94  13 2.94   8 2.94   4 2.94
                             9 2.94
   8  0.333  0.667  0.238-   9 2.94  17 2.94   1 2.94   2 2.94  14 2.94  16 2.94   6 2.94   7 2.94
                             5 2.94
   9  0.667  0.667  0.238-   2 2.94   8 2.94  17 2.94   6 2.94  15 2.94   4 2.94   3 2.94  18 2.94
                             7 2.94
  10  0.111  0.111  0.346-  20 2.93  26 2.94  19 2.94  11 2.94  17 2.94   2 2.94   4 2.94   1 2.94
                            12 2.94  16 2.94  13 2.94  15 2.94
  11  0.444  0.111  0.346-  20 2.92  21 2.92  13 2.94   2 2.94  10 2.94  17 2.94   5 2.94   3 2.94
                            18 2.94  14 2.94  12 2.94  27 2.94
  12  0.778  0.111  0.346-  21 2.93  25 2.94  19 2.94  16 2.94  18 2.94   1 2.94  14 2.94  15 2.94
                             3 2.94   6 2.94  10 2.94  11 2.94
  13  0.111  0.444  0.346-  23 2.92  20 2.92   5 2.94  18 2.94  11 2.94   7 2.94   4 2.94  16 2.94
                            10 2.94  14 2.94  15 2.94  22 2.94
  14  0.444  0.444  0.346-  21 2.92  23 2.92  15 2.94   6 2.94  12 2.94   8 2.94  17 2.94   5 2.94
                            16 2.94  13 2.94  11 2.94  24 2.94
  15  0.778  0.444  0.346-  24 2.93  22 2.93  19 2.94  14 2.94   6 2.94  17 2.94  12 2.94   9 2.94
                             4 2.94  10 2.94  13 2.94  18 2.94
  16  0.111  0.778  0.346-  23 2.93  25 2.94  26 2.94  18 2.94  12 2.94   7 2.94   1 2.94   8 2.94
                            13 2.94  10 2.94  14 2.94  17 2.94
  17  0.444  0.778  0.346-  27 2.93  24 2.93  26 2.94   9 2.94  15 2.94   2 2.94  10 2.94  11 2.94
                             8 2.94  14 2.94  16 2.94  18 2.94
  18  0.778  0.778  0.346-  22 2.93  27 2.93  25 2.94  16 2.94   7 2.94  13 2.94  12 2.94   3 2.94
                            11 2.94   9 2.94  15 2.94  17 2.94
  19  0.889  0.222  0.454-  15 2.94  10 2.94  12 2.94  24 2.94  22 2.94  26 2.94  25 2.94  21 2.94
                            20 2.94  28 2.96  32 3.04  31 3.04
  20  0.223  0.223  0.453-  36 2.81  11 2.92  13 2.92  23 2.93  21 2.93  10 2.93  26 2.94  19 2.94
                            27 2.95  22 2.95  29 2.99  31 2.99
  21  0.555  0.223  0.453-  36 2.81  14 2.92  11 2.92  20 2.93  23 2.93  12 2.93  25 2.94  19 2.94
                            27 2.95  24 2.95  30 2.99  32 2.99
  22  0.887  0.556  0.454-  24 2.92  27 2.92  18 2.93  15 2.93  25 2.94  19 2.94  13 2.94  23 2.95
                            20 2.95  35 2.96  33 3.01  31 3.01
  23  0.223  0.555  0.453-  36 2.81  13 2.92  14 2.92  20 2.93  21 2.93  16 2.93  25 2.94  26 2.94
                            22 2.95  24 2.95  33 2.99  34 2.99
  24  0.556  0.556  0.454-  27 2.92  22 2.92  15 2.93  17 2.93  26 2.94  19 2.94  14 2.94  21 2.95
                            23 2.95  35 2.96  32 3.01  34 3.01
  25  0.889  0.889  0.454-  18 2.94  16 2.94  12 2.94  22 2.94  27 2.94  19 2.94  26 2.94  23 2.94
                            21 2.94  28 2.96  33 3.04  30 3.04
  26  0.222  0.889  0.454-  17 2.94  10 2.94  16 2.94  27 2.94  24 2.94  19 2.94  25 2.94  20 2.94
                            23 2.94  28 2.96  29 3.04  34 3.04
  27  0.556  0.887  0.454-  24 2.92  22 2.92  17 2.93  18 2.93  26 2.94  25 2.94  11 2.94  20 2.95
                            21 2.95  35 2.96  29 3.01  30 3.01
  28  0.000  0.000  0.563-  25 2.96  19 2.96  26 2.96  34 2.98  32 2.98  33 2.98  30 2.98  31 2.98
                            29 2.98
  29  0.334  0.008  0.566-  30 2.86  31 2.87  36 2.88  35 2.97  28 2.98  20 2.99  27 3.01  26 3.04
                            34 3.08
  30  0.658  0.008  0.566-  29 2.86  32 2.87  36 2.88  35 2.97  28 2.98  21 2.99  27 3.01  25 3.04
                            33 3.08
  31  0.008  0.334  0.566-  33 2.86  29 2.87  36 2.88  35 2.97  28 2.98  20 2.99  22 3.01  19 3.04
                            32 3.08
  32  0.658  0.334  0.566-  34 2.86  30 2.87  36 2.88  35 2.97  28 2.98  21 2.99  24 3.01  19 3.04
                            31 3.08
  33  0.008  0.658  0.566-  31 2.86  34 2.87  36 2.88  35 2.97  28 2.98  23 2.99  22 3.01  25 3.04
                            30 3.08
  34  0.334  0.658  0.566-  32 2.86  33 2.87  36 2.88  35 2.97  28 2.98  23 2.99  24 3.01  26 3.04
                            29 3.08
  35  0.667  0.667  0.564-  24 2.96  27 2.96  22 2.96  29 2.97  34 2.97  32 2.97  31 2.97  30 2.97
                            33 2.97
  36  0.333  0.333  0.555-  37 2.26  20 2.81  23 2.81  21 2.81  33 2.88  31 2.88  29 2.88  30 2.88
                            34 2.88  32 2.88
  37  0.333  0.333  0.656-  38 1.15  36 2.26
  38  0.333  0.333  0.708-  37 1.15

  LATTYP: Found a hexagonal cell.
 ALAT       =     8.8135128021
 C/A-ratio  =     2.5184286595

  Lattice vectors:

 A1 = (  -4.4067569092,  -7.6327256898,   0.0000000000)
 A2 = (   8.8135128021,   0.0000000000,   0.0000000000)
 A3 = (   0.0000000000,   0.0000000000,  22.1962032318)

Analysis of symmetry for initial positions (statically):
 Subroutine PRICEL returns:
 Original cell was already a primitive cell.

 Routine SETGRP: Setting up the symmetry group for a
 hexagonal supercell.

 Subroutine GETGRP returns: Found  6 space group operations
 (whereof  6 operations were pure point group operations)
 out of a pool of 24 trial point group operations.

The static configuration has the point symmetry C_3v.

Analysis of symmetry for dynamics (positions and initial velocities):
 Subroutine PRICEL returns:
 Original cell was already a primitive cell.

[...]

The dynamic configuration has the point symmetry C_3v.

Analysis of constrained symmetry for selective dynamics:
 Subroutine PRICEL returns:
[...]
     33      -4.7715      2.00000
     34      -4.7046      2.00000
     35      -4.6765      2.00000
     36      -4.6611      2.00000
     37      -4.6094      2.00000
     38      -4.5944      2.00000
     39      -4.5767      2.00000
     40      -4.5541      2.00000
     41      -4.5438      2.00000
     42      -4.3900      2.00000
     43      -4.3799      2.00000
     44      -4.3146      2.00000
     45      -4.2720      2.00000
     46      -4.2467      2.00000
     47      -4.2135      2.00000
     48      -4.1912      2.00000
     49      -4.1677      2.00000
     50      -4.1408      2.00000
     51      -4.0532      2.00000
     52      -4.0377      2.00000
     53      -4.0090      2.00000
     54      -3.9810      2.00000
     55      -3.9755      2.00000
     56      -3.9684      2.00000
     57      -3.9533      2.00000
     58      -3.9299      2.00000
     59      -3.8908      2.00000
     60      -3.8593      2.00000
[...]
    238       6.2163      0.00000
    239       6.4390      0.00000
    240       6.5011      0.00000
    241       6.5298      0.00000
    242       6.5572      0.00000
    243       6.7064      0.00000
    244       6.8016      0.00000
    245       6.8863      0.00000
    246       6.9046      0.00000
    247       7.0556      0.00000
    248       7.1141      0.00000
    249       7.3856      0.00000
    250       7.4476      0.00000
    251       7.5161      0.00000
    252       7.6747      0.00000

 soft charge-density along one line, spin component           1
         0         1         2         3         4         5         6         7         8         9
 total charge-density along one line

------------------------ aborting loop because EDIFF is reached ----------------------------------------

 total charge

# of ion       s       p       d       tot
    1        0.551   0.236   8.767   9.554
    2        0.541   0.241   8.766   9.548
    3        0.541   0.241   8.766   9.548
    4        0.541   0.241   8.766   9.548
    5        0.549   0.242   8.760   9.550
    6        0.541   0.241   8.766   9.548
    7        0.541   0.241   8.766   9.548
    8        0.541   0.241   8.766   9.548
    9        0.545   0.239   8.767   9.552
   10        0.523   0.306   8.770   9.600
   11        0.521   0.306   8.779   9.606
   12        0.523   0.306   8.770   9.600
   13        0.521   0.306   8.779   9.606
   14        0.521   0.306   8.779   9.606
   15        0.517   0.308   8.773   9.598
   16        0.523   0.306   8.770   9.600
   17        0.517   0.308   8.773   9.598
   18        0.517   0.308   8.773   9.598
   19        0.522   0.297   8.767   9.586
   20        0.572   0.333   8.736   9.642
   21        0.572   0.333   8.736   9.642
   22        0.511   0.304   8.776   9.591
   23        0.572   0.333   8.736   9.642
   24        0.511   0.304   8.776   9.591
   25        0.522   0.297   8.767   9.586
   26        0.522   0.297   8.767   9.586
   27        0.511   0.304   8.776   9.591
   28        0.541   0.231   8.755   9.527
   29        0.597   0.249   8.729   9.575
   30        0.597   0.249   8.729   9.575
   31        0.597   0.249   8.729   9.575
   32        0.597   0.249   8.729   9.575
   33        0.597   0.249   8.729   9.575
   34        0.597   0.249   8.729   9.575
   35        0.539   0.231   8.758   9.529
   36        0.525   0.578   1.917   3.020
   37        0.990   1.521   0.000   2.511
   38        1.622   3.520   0.000   5.142
tot         22.184  15.307 308.503 345.993

  FORCE on cell =-STRESS in cart. coord.  units (eV):
  Direction    XX          YY          ZZ          XY          YZ          ZX
  Alpha Z  1024.08591  1024.08591  1024.08591
  Ewald  113320.83434113320.83472************    -0.00033    -0.00009    -0.00015
  Hartree122121.85121122121.85120************     0.00001    -0.00002    -0.00005
  E(xc)   -1788.03976 -1788.03980 -1794.75750     0.00003    -0.00000    -0.00000
  Local  ************************247187.14321     0.00208     0.00002     0.00002
  n-local   -80.75901   -35.62685   -36.46221    21.78610    -1.59388     1.25112
  augment  2368.96958  2368.97118  2388.23929    -0.00139    -0.00002    -0.00000
  Kinetic  5566.45794  5570.96417  5608.29265     2.73316     0.45024    -0.20517
  Fock        0.00000     0.00000     0.00000     0.00000     0.00000     0.00000
  Total     -20.57780   -20.57779     4.11260    -0.00000     0.00000     0.00000
  in kB     -22.08015   -22.08015     4.41286    -0.00000     0.00000     0.00000

 VOLUME and BASIS-vectors are now :
  energy-cutoff  :      500.00
  volume of cell :     1493.16
      direct lattice vectors                 reciprocal lattice vectors
     8.813512802  0.000000000  0.000000000     0.113462137 -0.065507406  0.000000000
     4.406756909  7.632725690  0.000000000     0.000000000  0.131014796  0.000000000
     0.000000000  0.000000000 22.196203232     0.000000000  0.000000000  0.045052750

  length of vectors
     8.813512802  8.813512802 22.196203232     0.131014796  0.131014796  0.045052750

 FORCES acting on ions
    electron-ion (+dipol)            ewald-force                    non-local-force                 convergence-correction
   -.193E-04 -.160E-04 0.246E+04   0.518E-04 0.432E-04 -.246E+04   -.214E-17 0.292E-17 -.496E+00   -.282E-03 -.176E-03 -.476E-01
   0.375E-01 -.306E+00 0.246E+04   -.159E-01 0.288E+00 -.246E+04   0.193E-01 0.811E-01 -.393E+00   -.401E-01 -.687E-01 -.757E-01
   -.375E-01 -.306E+00 0.246E+04   0.159E-01 0.288E+00 -.246E+04   -.193E-01 0.811E-01 -.393E+00   0.404E-01 -.667E-01 -.750E-01
   -.246E+00 0.185E+00 0.246E+04   0.242E+00 -.158E+00 -.246E+04   0.799E-01 -.238E-01 -.393E+00   -.795E-01 -.414E-03 -.758E-01
   0.838E-05 -.235E-04 0.245E+04   0.951E-04 0.172E-05 -.246E+04   -.399E-17 -.295E-17 0.148E+00   0.439E-02 0.267E-02 -.369E-01
   0.246E+00 0.185E+00 0.246E+04   -.242E+00 -.158E+00 -.246E+04   -.799E-01 -.238E-01 -.393E+00   0.778E-01 0.516E-03 -.746E-01
   -.283E+00 0.120E+00 0.246E+04   0.258E+00 -.130E+00 -.246E+04   0.606E-01 -.573E-01 -.393E+00   -.375E-01 0.684E-01 -.749E-01
   0.283E+00 0.120E+00 0.246E+04   -.258E+00 -.130E+00 -.246E+04   -.606E-01 -.573E-01 -.393E+00   0.394E-01 0.672E-01 -.746E-01
   0.195E-04 -.419E-04 0.246E+04   0.166E-03 -.200E-04 -.246E+04   0.222E-18 -.864E-18 -.309E+00   -.466E-02 -.241E-02 -.101E+00
   -.511E+00 -.295E+00 0.814E+03   0.726E+00 0.419E+00 -.813E+03   -.215E+00 -.124E+00 -.548E+00   -.503E-01 -.292E-01 0.430E-01
   0.139E-04 -.166E+01 0.811E+03   0.148E-03 0.178E+01 -.811E+03   -.335E-08 -.503E-01 -.140E+00   0.426E-02 -.113E+00 0.447E-01
   0.511E+00 -.295E+00 0.814E+03   -.726E+00 0.419E+00 -.813E+03   0.215E+00 -.124E+00 -.548E+00   0.484E-01 -.272E-01 0.443E-01
   -.144E+01 0.831E+00 0.811E+03   0.154E+01 -.891E+00 -.811E+03   -.435E-01 0.251E-01 -.140E+00   -.956E-01 0.605E-01 0.447E-01
   0.144E+01 0.831E+00 0.811E+03   -.154E+01 -.891E+00 -.811E+03   0.435E-01 0.251E-01 -.140E+00   0.104E+00 0.599E-01 0.456E-01
   0.320E-04 0.257E+01 0.817E+03   0.235E-03 -.253E+01 -.816E+03   -.835E-09 -.125E-01 -.460E+00   -.297E-02 -.637E-01 0.242E-01
   -.206E-04 0.591E+00 0.814E+03   0.162E-03 -.838E+00 -.813E+03   0.165E-07 0.248E+00 -.548E+00   0.385E-03 0.555E-01 0.443E-01
   0.223E+01 -.128E+01 0.817E+03   -.219E+01 0.126E+01 -.816E+03   -.109E-01 0.627E-02 -.460E+00   -.564E-01 0.297E-01 0.242E-01
   -.223E+01 -.128E+01 0.817E+03   0.219E+01 0.126E+01 -.816E+03   0.109E-01 0.627E-02 -.460E+00   0.565E-01 0.324E-01 0.245E-01
   -.428E-04 -.541E+01 -.837E+03   0.559E-04 0.556E+01 0.836E+03   -.463E-08 -.695E-01 0.562E+00   -.609E-02 -.650E-01 0.932E-01
   -.230E+02 -.133E+02 -.857E+03   0.242E+02 0.140E+02 0.858E+03   -.115E+01 -.665E+00 -.124E+01   -.515E-01 -.298E-01 0.184E+00
   0.230E+02 -.133E+02 -.857E+03   -.242E+02 0.140E+02 0.858E+03   0.115E+01 -.665E+00 -.124E+01   0.608E-01 -.283E-01 0.183E+00
   -.171E+02 0.986E+01 -.832E+03   0.168E+02 -.972E+01 0.832E+03   0.276E+00 -.160E+00 0.608E+00   -.190E-01 0.788E-02 0.152E+00
   -.804E-05 0.266E+02 -.857E+03   0.137E-03 -.279E+02 0.858E+03   0.885E-07 0.133E+01 -.124E+01   0.563E-02 0.668E-01 0.183E+00
   0.171E+02 0.986E+01 -.832E+03   -.168E+02 -.972E+01 0.832E+03   -.276E+00 -.160E+00 0.608E+00   0.109E-01 0.633E-02 0.153E+00
   0.468E+01 0.270E+01 -.837E+03   -.481E+01 -.278E+01 0.836E+03   0.602E-01 0.348E-01 0.562E+00   0.541E-01 0.312E-01 0.933E-01
   -.468E+01 0.270E+01 -.837E+03   0.481E+01 -.278E+01 0.836E+03   -.602E-01 0.348E-01 0.562E+00   -.590E-01 0.273E-01 0.933E-01
   0.792E-05 -.197E+02 -.832E+03   0.199E-03 0.194E+02 0.832E+03   0.212E-07 0.319E+00 0.608E+00   -.321E-02 -.204E-01 0.152E+00
   -.116E-04 -.114E-04 -.237E+04   0.278E-04 0.317E-04 0.237E+04   0.455E-17 -.172E-17 0.563E+00   -.147E-02 -.866E-03 0.973E-01
   -.422E-01 -.766E+01 -.237E+04   0.120E+01 0.955E+01 0.237E+04   -.126E+01 -.201E+01 -.521E+00   0.567E-01 0.211E-01 0.145E+00
   0.421E-01 -.766E+01 -.237E+04   -.120E+01 0.955E+01 0.237E+04   0.126E+01 -.201E+01 -.521E+00   -.497E-01 0.228E-01 0.145E+00
   -.665E+01 0.379E+01 -.237E+04   0.887E+01 -.374E+01 0.237E+04   -.237E+01 -.841E-01 -.521E+00   0.467E-01 0.385E-01 0.145E+00
   0.665E+01 0.379E+01 -.237E+04   -.887E+01 -.374E+01 0.237E+04   0.237E+01 -.841E-01 -.521E+00   -.414E-01 0.392E-01 0.144E+00
   -.661E+01 0.386E+01 -.237E+04   0.767E+01 -.581E+01 0.237E+04   -.111E+01 0.209E+01 -.521E+00   -.506E-02 -.545E-01 0.145E+00
   0.661E+01 0.386E+01 -.237E+04   -.767E+01 -.581E+01 0.237E+04   0.111E+01 0.209E+01 -.521E+00   0.133E-01 -.554E-01 0.144E+00
   0.315E-04 -.314E-04 -.238E+04   0.144E-03 -.470E-04 0.238E+04   0.580E-17 0.820E-17 0.589E+00   -.592E-02 -.312E-02 0.153E+00
   -.913E-05 0.724E-05 -.783E+03   0.408E-04 0.362E-05 0.783E+03   0.276E-19 0.340E-18 -.393E+00   0.221E-03 0.132E-03 0.763E-01
   -.360E-05 -.845E-04 -.714E+03   0.907E-05 0.665E-06 0.693E+03   -.262E-18 -.215E-18 0.208E+02   0.966E-03 0.592E-03 -.125E-01
   0.243E-03 -.926E-04 -.136E+04   0.311E-05 0.383E-06 0.142E+04   0.345E-18 -.531E-19 -.609E+02   0.366E-02 0.224E-02 -.690E-01
   -.562E-03 -.939E-03 0.473E+02   -.934E-13 0.472E-13 -.409E-11   0.228E-15 -.436E-15 -.491E+02   0.188E-01 0.115E-01 0.210E+01

 POSITION                                       TOTAL-FORCE (eV/Angst)
      0.00000      0.00000      5.28038         0.000000     -0.000000     -0.146246
      2.93784      0.00000      5.28038         0.001266     -0.003884     -0.057959
      5.87568      0.00000      5.28038        -0.001266     -0.003884     -0.057959
      1.46892      2.54424      5.28038        -0.002730      0.003039     -0.057959
      4.40676      2.54424      5.28038         0.000000      0.000000     -0.062976
      7.34459      2.54424      5.28038         0.002730      0.003039     -0.057959
      2.93784      5.08848      5.28038        -0.003997      0.000845     -0.057959
      5.87568      5.08848      5.28038         0.003997      0.000845     -0.057959
      8.81351      5.08848      5.28038         0.000000     -0.000000     -0.060989
      1.46892      0.84808      7.67911        -0.048858     -0.028208      0.044929
      4.40676      0.84808      7.67911        -0.000000     -0.043849      0.009578
      7.34459      0.84808      7.67911         0.048858     -0.028208      0.044929
      2.93784      3.39232      7.67911        -0.037975      0.021925      0.009578
      5.87568      3.39232      7.67911         0.037975      0.021925      0.009578
      8.81351      3.39232      7.67911        -0.000000     -0.032265      0.121004
      4.40676      5.93656      7.67911         0.000000      0.056416      0.044929
      7.34459      5.93656      7.67911        -0.027942      0.016132      0.121004
     10.28243      5.93656      7.67911         0.027942      0.016132      0.121004
      8.81351      1.69636     10.07469         0.000000      0.018069      0.032105
      2.94338      1.69936     10.06127        -0.071257     -0.041140     -0.144908
      5.87013      1.69936     10.06127         0.071257     -0.041140     -0.144908
     10.27220      4.24631     10.06987         0.014869     -0.008585      0.033109
      4.40676      4.23400     10.06127         0.000000      0.082281     -0.144908
      7.35483      4.24631     10.06987        -0.014869     -0.008585      0.033109
     11.75117      6.78454     10.07469        -0.015649     -0.009035      0.032105
      5.87585      6.78454     10.07469         0.015649     -0.009035      0.032105
      8.81351      6.77283     10.06987         0.000000      0.017169      0.033109
      0.00000      0.00000     12.49672         0.000000     -0.000000      0.003252
      2.97727      0.06002     12.55884        -0.048988     -0.094776     -0.015331
      5.83624      0.06002     12.55884         0.048988     -0.094776     -0.015331
      1.54061      2.54838     12.55884        -0.106573      0.004963     -0.015331
      7.27290      2.54838     12.55884         0.106573      0.004963     -0.015331
      2.97010      5.02433     12.55884        -0.057585      0.089813     -0.015331
      5.84341      5.02433     12.55884         0.057585      0.089813     -0.015331
      8.81351      5.08848     12.50791         0.000000      0.000000      0.012073
      4.40676      2.54424     12.31155         0.000000      0.000000      0.414639
      4.40676      2.54424     14.56919         0.000000     -0.000000     -0.026227
      4.40676      2.54424     15.72243         0.000000     -0.000000      0.018764
    total drift:                                0.018202      0.010611      0.266089

  FREE ENERGIE OF THE ION-ELECTRON SYSTEM (eV)
  free  energy   TOTEN  =      -133.81286019 eV

  energy  without entropy=     -133.81286019  energy(sigma->0) =     -133.81286019

 stress matrix after NEB project (eV)
    -20.57780     -0.00000      0.00000
     -0.00000    -20.57779      0.00000
      0.00000      0.00000      4.11260
  FORCES: max atom, RMS     0.026227    0.005231
  FORCE total and by dimension    0.032248    0.026227
  Stress total and by dimension   29.390556   20.577795
|           W    W    AA    RRRRR   N    N  II  N    N   GGGG   !!!           |
|           W    W   A  A   R    R  NN   N  II  NN   N  G    G  !!!           |
|           W    W  A    A  R    R  N N  N  II  N N  N  G       !!!           |
|           W WW W  AAAAAA  RRRRR   N  N N  II  N  N N  G  GGG   !            |
|           WW  WW  A    A  R   R   N   NN  II  N   NN  G    G                |
|           W    W  A    A  R    R  N    N  II  N    N   GGGG   !!!           |
|     Tetrahedron method does not include variations of the Fermi             |
|     occupations, so forces and stress will be inaccurate. We suggest        |
|     using a different smearing scheme ISMEAR = 1 or 2 for metals in         |
|     relaxations.                                                            |

 total charge

# of ion       s       p       d       tot
    1        0.551   0.236   8.767   9.554
    2        0.541   0.241   8.766   9.548
    3        0.541   0.241   8.766   9.548
    4        0.541   0.241   8.766   9.548
    5        0.549   0.242   8.760   9.550
    6        0.541   0.241   8.766   9.548
    7        0.541   0.241   8.766   9.548
    8        0.541   0.241   8.766   9.548
    9        0.545   0.239   8.767   9.552
   10        0.523   0.306   8.770   9.600
   11        0.521   0.306   8.779   9.606
   12        0.523   0.306   8.770   9.600
   13        0.521   0.306   8.779   9.606
   14        0.521   0.306   8.779   9.606
   15        0.517   0.308   8.773   9.598
   16        0.523   0.306   8.770   9.600
   17        0.517   0.308   8.773   9.598
   18        0.517   0.308   8.773   9.598
   19        0.522   0.297   8.767   9.586
   20        0.572   0.333   8.736   9.642
   21        0.572   0.333   8.736   9.642
   22        0.511   0.304   8.776   9.591
   23        0.572   0.333   8.736   9.642
   24        0.511   0.304   8.776   9.591
   25        0.522   0.297   8.767   9.586
   26        0.522   0.297   8.767   9.586
   27        0.511   0.304   8.776   9.591
   28        0.541   0.231   8.755   9.527
   29        0.597   0.249   8.729   9.575
   30        0.597   0.249   8.729   9.575
   31        0.597   0.249   8.729   9.575
   32        0.597   0.249   8.729   9.575
   33        0.597   0.249   8.729   9.575
   34        0.597   0.249   8.729   9.575
   35        0.539   0.231   8.758   9.529
   36        0.525   0.578   1.917   3.020
   37        0.990   1.521   0.000   2.511
   38        1.622   3.520   0.000   5.142
tot         22.184  15.307 308.503 345.993

 BZINTS: Fermi energy:    0.847962;  399.000000 electrons
         Band energy:-0.123423E+04;  BLOECHL correction:   -0.038146