 vasp.6.2.0 18Jan21 (build Jun 12 2021 23:27:24) complex

 executed on             LinuxIFC date 2022.05.28  02:44:05

 INCAR:
   ISMEAR = -5
   SIGMA = 0.1
   ISPIN = 1
   EDIFF = 1.d-5
   EDIFFG = -0.01
   NSW = 0
   NELM = 150
   ENCUT = 500
   ISIF = 2
   IBRION = 2
   LREAL = Auto
   ALGO = Fast
   ICHARG = 11
   LORBIT = 10
   LCHARG = .F.
   LWAVE = .F.

 POTCAR:    PAW_PBE Cu 22Jun2005
 POTCAR:    PAW_PBE Ta 17Jan2003
 POTCAR:    PAW_PBE C 08Apr2002
 POTCAR:    PAW_PBE O 08Apr2002
|           W    W    AA    RRRRR   N    N  II  N    N   GGGG   !!!           |
|           W    W   A  A   R    R  NN   N  II  NN   N  G    G  !!!           |
|           W    W  A    A  R    R  N N  N  II  N N  N  G       !!!           |
|           W WW W  AAAAAA  RRRRR   N  N N  II  N  N N  G  GGG   !            |
|           WW  WW  A    A  R   R   N   NN  II  N   NN  G    G                |
|           W    W  A    A  R    R  N    N  II  N    N   GGGG   !!!           |
|     For optimal performance we recommend to set                             |
|       NCORE = 2 up to number-of-cores-per-socket                            |
|     This setting can greatly improve the performance of VASP for DFT.       |
|     The default, NCORE=1 might be grossly inefficient on modern             |
|     multi-core architectures or massively parallel machines. Do your        |
|     Unfortunately you need to use the default for GW and RPA                |
|     calculations (for HF NCORE is supported but not extensively tested      |
|     yet).                                                                   |

 POTCAR:    PAW_PBE Cu 22Jun2005
   VRHFIN =Cu: d10 p1

   TITEL  = PAW_PBE Cu 22Jun2005
   POMASS =   63.546; ZVAL   =   11.000    mass and valenz
   ENMAX  =  295.446; ENMIN  =  221.585 eV

 POTCAR:    PAW_PBE Ta 17Jan2003
   VRHFIN =Ta:  6s5d

   TITEL  = PAW_PBE Ta 17Jan2003
   POMASS =  180.948; ZVAL   =    5.000    mass and valenz
   ENMAX  =  223.667; ENMIN  =  167.750 eV

 POTCAR:    PAW_PBE C 08Apr2002
   VRHFIN =C: s2p2

   TITEL  = PAW_PBE C 08Apr2002
   POMASS =   12.011; ZVAL   =    4.000    mass and valenz
   ENMAX  =  400.000; ENMIN  =  300.000 eV

 POTCAR:    PAW_PBE O 08Apr2002
   VRHFIN =O: s2p4

   TITEL  = PAW_PBE O 08Apr2002
   POMASS =   16.000; ZVAL   =    6.000    mass and valenz
   ENMAX  =  400.000; ENMIN  =  300.000 eV

 Optimization of the real space projectors (new method)

 maximal supplied QI-value         = 16.25
 optimisation between [QCUT,QGAM] = [ 11.38, 22.75] = [ 36.24,144.96] Ry
 Optimized for a Real-space Cutoff    1.52 Angstroem

   l    n(q)    QCUT    max X(q) W(low)/X(q) W(high)/X(q)  e(spline)
   2      9    11.376     4.610    0.21E-03    0.10E-03    0.26E-06
   2      9    11.376     8.522    0.33E-03    0.16E-03    0.37E-06
   0     10    11.376    51.609    0.62E-04    0.20E-04    0.13E-06
   0     10    11.376    27.747    0.54E-04    0.20E-04    0.13E-06
   1     10    11.376    20.408    0.13E-04    0.99E-04    0.19E-06
   1     10    11.376    13.425    0.12E-04    0.87E-04    0.17E-06
 Optimization of the real space projectors (new method)

[...]

   l    n(q)    QCUT    max X(q) W(low)/X(q) W(high)/X(q)  e(spline)
   0      7    11.310   115.676    0.43E-03    0.13E-02    0.19E-06
   0      7    11.310    87.132    0.43E-03    0.13E-02    0.18E-06
   1      6    11.310     4.429    0.42E-03    0.74E-03    0.11E-06
   1      6    11.310     2.733    0.34E-03    0.55E-03    0.92E-07
 Optimization of the real space projectors (new method)

 maximal supplied QI-value         = 24.76
 optimisation between [QCUT,QGAM] = [ 11.39, 22.77] = [ 36.31,145.25] Ry
 Optimized for a Real-space Cutoff    1.00 Angstroem

   l    n(q)    QCUT    max X(q) W(low)/X(q) W(high)/X(q)  e(spline)
   0      7    11.387    20.381    0.39E-03    0.13E-02    0.15E-06
   0      7    11.387    15.268    0.42E-03    0.14E-02    0.17E-06
   1      6    11.387     5.964    0.41E-03    0.11E-02    0.17E-06
   1      6    11.387     5.382    0.39E-03    0.87E-03    0.15E-06
  PAW_PBE Cu 22Jun2005                  :
  PAW_PBE Ta 17Jan2003                  :
  PAW_PBE C 08Apr2002                   :
  PAW_PBE O 08Apr2002                   :

 POSCAR: Cu-Ta-CO2
  positions in direct lattice
  velocities in cartesian coordinates
 exchange correlation table for  LEXCH =        8
   RHO(1)=    0.500       N(1)  =     2000
   RHO(2)=  100.500       N(2)  =     4000

 VTST: version 3.2, (02/03/18)

 CHAIN: initializing optimizer

 OPT: Using VASP Conjugate-Gradient optimizer
 CHAIN: Read ICHAIN            0

 POSCAR: Cu-Ta-CO2
  positions in direct lattice
  velocities in cartesian coordinates

 ion  position               nearest neighbor table
   1  0.000  0.000  0.229-   7 2.57   3 2.57   4 2.57   2 2.57   6 2.57   8 2.57  12 2.57  10 2.57
                            16 2.57
   2  0.333  0.000  0.229-   8 2.57   9 2.57   5 2.57   1 2.57   3 2.57  11 2.57   4 2.57  10 2.57
                            17 2.57
   3  0.667  0.000  0.229-   1 2.57   7 2.57   6 2.57   9 2.57   2 2.57  12 2.57   5 2.57  18 2.57
                            11 2.57
   4  0.000  0.333  0.229-   5 2.57   6 2.57   1 2.57   7 2.57   2 2.57  13 2.57   9 2.57  10 2.57
                            15 2.57
   5  0.333  0.333  0.229-   4 2.57   2 2.57   7 2.57  13 2.57   8 2.57   6 2.57   3 2.57  11 2.57
                            14 2.57
   6  0.667  0.333  0.229-   4 2.57   9 2.57  15 2.57   3 2.57   1 2.57   8 2.57  14 2.57   5 2.57
                            12 2.57
   7  0.000  0.667  0.229-   1 2.57   3 2.57  16 2.57  18 2.57   4 2.57   5 2.57   8 2.57   9 2.57
                            13 2.57
   8  0.333  0.667  0.229-   9 2.57   2 2.57  17 2.57   6 2.57   1 2.57   7 2.57   5 2.57  14 2.57
                            16 2.57
   9  0.667  0.667  0.229-   8 2.57   6 2.57   2 2.57  17 2.57   3 2.57   7 2.57   4 2.57  15 2.57
                            18 2.57
  10  0.111  0.111  0.318-  20 2.55  26 2.56  19 2.56  11 2.57  12 2.57  13 2.57   1 2.57   2 2.57
                             4 2.57  15 2.57  16 2.57  17 2.57
  11  0.444  0.111  0.318-  20 2.56  21 2.56  10 2.57  13 2.57   2 2.57  17 2.57  14 2.57  12 2.57
                             5 2.57   3 2.57  18 2.57  27 2.57
  12  0.778  0.111  0.318-  21 2.55  19 2.56  25 2.56  15 2.57  10 2.57  14 2.57  18 2.57   3 2.57
                             1 2.57  16 2.57  11 2.57   6 2.57
  13  0.111  0.444  0.318-  23 2.56  20 2.56  16 2.57  18 2.57  10 2.57  11 2.57  14 2.57   5 2.57
                             4 2.57   7 2.57  15 2.57  22 2.57
  14  0.444  0.444  0.318-  21 2.56  23 2.56  15 2.57  17 2.57  12 2.57  16 2.57  13 2.57  11 2.57
                             6 2.57   8 2.57   5 2.57  24 2.57
  15  0.778  0.444  0.318-  19 2.56  14 2.57  17 2.57  12 2.57   6 2.57  18 2.57  10 2.57   9 2.57
                            13 2.57   4 2.57  24 2.57  22 2.57
  16  0.111  0.778  0.318-  23 2.55  25 2.56  26 2.56  18 2.57  13 2.57   7 2.57  14 2.57  17 2.57
                            12 2.57  10 2.57   8 2.57   1 2.57
  17  0.444  0.778  0.318-  26 2.56  14 2.57  15 2.57   8 2.57   9 2.57  11 2.57  16 2.57  18 2.57
                            10 2.57   2 2.57  27 2.57  24 2.57
  18  0.778  0.778  0.318-  25 2.56  16 2.57  13 2.57   7 2.57  15 2.57  12 2.57  17 2.57   9 2.57
                             3 2.57  11 2.57  22 2.57  27 2.57
  19  0.889  0.222  0.407-  12 2.56  10 2.56  15 2.56  21 2.56  20 2.56  25 2.56  26 2.56  22 2.57
                            24 2.57  28 2.57  32 2.59  31 2.59
  20  0.222  0.222  0.407-  10 2.55  11 2.56  13 2.56  26 2.56  19 2.56  27 2.57  22 2.57  23 2.58
                            21 2.58  36 2.61  29 2.61  31 2.61
  21  0.557  0.222  0.407-  12 2.55  14 2.56  11 2.56  19 2.56  25 2.56  24 2.57  27 2.57  20 2.58
                            23 2.58  36 2.61  32 2.61  30 2.61
  22  0.888  0.556  0.408-  24 2.56  27 2.56  19 2.57  25 2.57  23 2.57  20 2.57  18 2.57  15 2.57
                            35 2.57  13 2.57  31 2.59  33 2.59
  23  0.222  0.557  0.407-  16 2.55  13 2.56  14 2.56  25 2.56  26 2.56  22 2.57  24 2.57  20 2.58
                            21 2.58  36 2.61  33 2.61  34 2.61
  24  0.556  0.556  0.408-  22 2.56  27 2.56  19 2.57  26 2.57  21 2.57  23 2.57  15 2.57  17 2.57
                            35 2.57  14 2.57  32 2.59  34 2.59
  25  0.889  0.889  0.407-  12 2.56  16 2.56  18 2.56  21 2.56  23 2.56  19 2.56  26 2.56  22 2.57
                            27 2.57  28 2.57  33 2.59  30 2.59
  26  0.222  0.889  0.407-  10 2.56  16 2.56  17 2.56  20 2.56  23 2.56  25 2.56  19 2.56  27 2.57
                            24 2.57  28 2.57  29 2.59  34 2.59
  27  0.556  0.888  0.408-  24 2.56  22 2.56  26 2.57  25 2.57  20 2.57  21 2.57  17 2.57  18 2.57
                            35 2.57  11 2.57  29 2.59  30 2.59
  28  0.000  0.000  0.497-  33 2.55  30 2.55  31 2.55  29 2.55  32 2.55  34 2.55  25 2.57  19 2.57
                            26 2.57
  29  0.333  0.997  0.498-  34 2.52  35 2.55  28 2.55  31 2.59  27 2.59  36 2.59  30 2.59  26 2.59
                            20 2.61
  30  0.670  0.997  0.498-  33 2.52  35 2.55  28 2.55  32 2.59  27 2.59  36 2.59  29 2.59  25 2.59
                            21 2.61
  31  0.997  0.333  0.498-  32 2.52  35 2.55  28 2.55  29 2.59  22 2.59  36 2.59  33 2.59  19 2.59
                            20 2.61
  32  0.670  0.333  0.498-  31 2.52  35 2.55  28 2.55  30 2.59  24 2.59  36 2.59  34 2.59  19 2.59
                            21 2.61
  33  0.997  0.670  0.498-  30 2.52  35 2.55  28 2.55  34 2.59  22 2.59  36 2.59  31 2.59  25 2.59
                            23 2.61
  34  0.333  0.670  0.498-  29 2.52  35 2.55  28 2.55  33 2.59  24 2.59  36 2.59  32 2.59  26 2.59
                            23 2.61
  35  0.667  0.667  0.498-  34 2.55  32 2.55  29 2.55  30 2.55  33 2.55  31 2.55  24 2.57  27 2.57
                            22 2.57
  36  0.333  0.333  0.498-  37 2.28  31 2.59  29 2.59  33 2.59  34 2.59  32 2.59  30 2.59  23 2.61
                            20 2.61  21 2.61
  37  0.336  0.328  0.595-  39 1.23  38 1.23  36 2.28
  38  0.183  0.328  0.610-  37 1.23
  39  0.489  0.328  0.610-  37 1.23

  LATTYP: Found a hexagonal cell.
 ALAT       =     7.6967864036
 C/A-ratio  =     3.0484540560

  Lattice vectors:

 A1 = (  -3.8483927580,  -6.6656128093,   0.0000000000)
 A2 = (   7.6967864037,   0.0000000000,   0.0000000000)
 A3 = (   0.0000000000,   0.0000000000,  23.4632997305)

Analysis of symmetry for initial positions (statically):
 Subroutine PRICEL returns:
 Original cell was already a primitive cell.

 Routine SETGRP: Setting up the symmetry group for a
 hexagonal supercell.

 Subroutine GETGRP returns: Found  2 space group operations
 (whereof  2 operations were pure point group operations)
 out of a pool of 24 trial point group operations.

The static configuration has the point symmetry C_1h.

Analysis of symmetry for dynamics (positions and initial velocities):
 Subroutine PRICEL returns:
 Original cell was already a primitive cell.

[...]

The dynamic configuration has the point symmetry C_1h.

Analysis of constrained symmetry for selective dynamics:
[...]
     41      -4.4388      2.00000
     42      -4.4007      2.00000
     43      -4.2454      2.00000
     44      -4.2408      2.00000
     45      -4.1980      2.00000
     46      -4.1894      2.00000
     47      -4.1666      2.00000
     48      -4.1414      2.00000
     49      -4.1380      2.00000
     50      -4.1234      2.00000
     51      -4.1212      2.00000
     52      -3.9986      2.00000
     53      -3.9655      2.00000
     54      -3.9388      2.00000
     55      -3.9355      2.00000
     56      -3.9096      2.00000
     57      -3.8641      2.00000
     58      -3.8487      2.00000
     59      -3.8399      2.00000
     60      -3.8279      2.00000
[...]
    238       5.4213      0.00000
    239       5.4328      0.00000
    240       5.4746      0.00000
    241       5.5720      0.00000
    242       5.7308      0.00000
    243       5.8058      0.00000
    244       5.8930      0.00000
    245       6.1416      0.00000
    246       6.1594      0.00000
    247       6.3786      0.00000
    248       6.4354      0.00000
    249       6.4582      0.00000
    250       6.5613      0.00000
    251       6.7934      0.00000
    252       6.8174      0.00000

 soft charge-density along one line, spin component           1
         0         1         2         3         4         5         6         7         8         9
 total charge-density along one line

------------------------ aborting loop because EDIFF is reached ----------------------------------------

 total charge

# of ion       s       p       d       tot
    1        0.451   0.282   9.188   9.922
    2        0.448   0.285   9.186   9.919
    3        0.448   0.285   9.186   9.919
    4        0.448   0.285   9.187   9.919
    5        0.447   0.284   9.185   9.917
    6        0.448   0.285   9.187   9.919
    7        0.447   0.285   9.186   9.918
    8        0.447   0.285   9.186   9.918
    9        0.451   0.284   9.186   9.920
   10        0.443   0.371   9.176   9.991
   11        0.441   0.366   9.183   9.989
   12        0.443   0.371   9.176   9.991
   13        0.441   0.366   9.182   9.989
   14        0.441   0.366   9.182   9.989
   15        0.438   0.370   9.176   9.984
   16        0.443   0.371   9.177   9.991
   17        0.439   0.367   9.179   9.986
   18        0.439   0.367   9.179   9.986
   19        0.440   0.366   9.184   9.990
   20        0.463   0.396   9.162  10.021
   21        0.463   0.396   9.162  10.021
   22        0.430   0.372   9.177   9.979
   23        0.462   0.397   9.162  10.021
   24        0.430   0.372   9.177   9.979
   25        0.441   0.367   9.181   9.989
   26        0.441   0.367   9.181   9.989
   27        0.432   0.369   9.181   9.981
   28        0.450   0.292   9.180   9.922
   29        0.483   0.316   9.159   9.958
   30        0.483   0.316   9.159   9.958
   31        0.473   0.317   9.163   9.953
   32        0.473   0.317   9.163   9.953
   33        0.483   0.317   9.158   9.958
   34        0.483   0.317   9.158   9.958
   35        0.444   0.297   9.179   9.919
   36        0.746   0.619   3.245   4.609
   37        0.895   1.728   0.000   2.623
   38        1.604   3.474   0.000   5.078
   39        1.604   3.474   0.000   5.078
tot         20.625  21.061 324.421 366.107

  FORCE on cell =-STRESS in cart. coord.  units (eV):
  Direction    XX          YY          ZZ          XY          YZ          ZX
  Alpha Z   844.78572   844.78572   844.78572
  Ewald  210840.49140210150.82931************     0.00037     4.06937     0.00015
  Hartree223495.56808223168.23902************     0.00003     4.66855     0.00005
  E(xc)   -2342.06565 -2343.88659 -2348.10746    -0.00028     0.03698    -0.00004
  Local  ************************446354.65181     0.02033    -8.78865    -0.00069
  n-local  -809.94439  -803.56469  -821.22850     1.74613     0.15004     0.03863
  augment  3321.51022  3322.49287  3345.75190    -0.01838     0.01129     0.00027
  Kinetic  3476.61463  3522.20848  3549.98908     0.69151    -0.03016    -0.23722
  Fock        0.00000     0.00000     0.00000     0.00000     0.00000     0.00000
  Total      -4.53115    -5.01350    -1.82019     0.00000     0.11742    -0.00000
  in kB      -6.03088    -6.67287    -2.42264     0.00000     0.15629    -0.00000

 VOLUME and BASIS-vectors are now :
  energy-cutoff  :      500.00
  volume of cell :     1203.76
      direct lattice vectors                 reciprocal lattice vectors
     7.696786404  0.000000000  0.000000000     0.129924354 -0.075011849  0.000000000
     3.848392758  6.665612809  0.000000000     0.000000000  0.150023716  0.000000000
     0.000000000  0.000000000 23.463299730     0.000000000  0.000000000  0.042619751

  length of vectors
     7.696786404  7.696786404 23.463299730     0.150023716  0.150023716  0.042619751

 FORCES acting on ions
    electron-ion (+dipol)            ewald-force                    non-local-force                 convergence-correction
   -.419E-04 0.178E+00 0.371E+04   0.581E-04 -.406E-01 -.371E+04   0.640E-08 -.960E-01 -.213E+01   -.364E-03 -.426E-01 -.217E+00
   -.790E+00 -.596E+00 0.371E+04   0.805E+00 0.576E+00 -.371E+04   -.338E-01 0.144E-01 -.191E+01   0.245E-01 -.410E-02 -.164E+00
   0.790E+00 -.596E+00 0.371E+04   -.805E+00 0.576E+00 -.371E+04   0.338E-01 0.144E-01 -.191E+01   -.236E-01 -.170E-02 -.163E+00
   -.108E+01 -.476E+00 0.371E+04   0.936E+00 0.395E+00 -.371E+04   0.997E-01 -.464E-02 -.215E+01   0.397E-01 0.846E-01 -.244E+00
   -.629E-04 -.715E-01 0.371E+04   0.116E-03 0.646E-02 -.370E+04   -.194E-08 0.292E-01 -.187E+01   0.121E-01 0.320E-01 -.203E+00
   0.108E+01 -.476E+00 0.371E+04   -.936E+00 0.395E+00 -.371E+04   -.997E-01 -.464E-02 -.215E+01   -.412E-01 0.857E-01 -.243E+00
   -.176E+00 0.102E+01 0.371E+04   0.132E+00 -.971E+00 -.371E+04   0.775E-01 0.151E-01 -.195E+01   -.367E-01 -.512E-01 -.190E+00
   0.176E+00 0.102E+01 0.371E+04   -.132E+00 -.971E+00 -.371E+04   -.775E-01 0.151E-01 -.195E+01   0.400E-01 -.526E-01 -.191E+00
   -.143E-03 0.542E-02 0.371E+04   0.263E-03 0.342E-01 -.371E+04   -.151E-08 0.227E-01 -.187E+01   -.131E-01 -.552E-01 -.146E+00
   -.550E+01 -.293E+01 0.129E+04   0.572E+01 0.301E+01 -.129E+04   -.348E+00 -.108E+00 -.101E+01   0.109E+00 0.191E-01 -.138E+00
   -.922E-04 -.591E+01 0.128E+04   0.190E-03 0.575E+01 -.128E+04   -.444E-08 0.666E-01 -.508E+00   0.120E-01 0.464E-01 -.139E+00
   0.550E+01 -.293E+01 0.129E+04   -.572E+01 0.301E+01 -.129E+04   0.348E+00 -.108E+00 -.101E+01   -.111E+00 0.194E-01 -.139E+00
   -.544E+01 0.283E+01 0.128E+04   0.524E+01 -.279E+01 -.128E+04   0.117E+00 -.310E-01 -.512E+00   0.490E-01 0.122E-01 -.178E+00
   0.544E+01 0.283E+01 0.128E+04   -.524E+01 -.279E+01 -.128E+04   -.117E+00 -.310E-01 -.512E+00   -.259E-01 0.103E-01 -.181E+00
   -.138E-03 -.230E+01 0.129E+04   0.296E-03 0.218E+01 -.129E+04   -.282E-08 0.424E-01 -.101E+01   -.291E-02 0.102E+00 -.187E+00
   -.890E-04 0.641E+01 0.129E+04   0.187E-03 -.655E+01 -.129E+04   -.163E-07 0.245E+00 -.732E+00   -.126E-02 -.928E-01 -.105E+00
   -.181E+01 0.992E+00 0.129E+04   0.169E+01 -.909E+00 -.129E+04   0.973E-01 -.421E-01 -.794E+00   0.330E-01 -.523E-01 -.110E+00
   0.181E+01 0.992E+00 0.129E+04   -.169E+01 -.909E+00 -.129E+04   -.973E-01 -.421E-01 -.794E+00   -.311E-01 -.497E-01 -.107E+00
   -.677E-04 -.677E+01 -.111E+04   0.720E-04 0.669E+01 0.111E+04   -.506E-09 0.759E-02 0.122E+01   0.913E-03 0.428E-01 -.118E+00
   -.605E+02 -.335E+02 -.119E+04   0.609E+02 0.338E+02 0.119E+04   -.553E+00 -.358E+00 -.363E+00   0.479E-01 -.180E-01 -.186E+00
   0.605E+02 -.335E+02 -.119E+04   -.609E+02 0.338E+02 0.119E+04   0.553E+00 -.358E+00 -.363E+00   -.685E-01 -.219E-01 -.187E+00
   -.306E+02 0.155E+02 -.114E+04   0.302E+02 -.152E+02 0.114E+04   0.346E+00 -.325E+00 0.946E+00   0.569E-01 0.588E-01 -.203E+00
   -.908E-04 0.676E+02 -.119E+04   0.152E-03 -.679E+02 0.119E+04   -.303E-07 0.455E+00 -.472E-01   -.143E-01 -.243E-01 -.169E+00
   0.306E+02 0.155E+02 -.114E+04   -.302E+02 -.152E+02 0.114E+04   -.346E+00 -.325E+00 0.946E+00   -.328E-01 0.578E-01 -.202E+00
   0.676E+01 0.495E+01 -.112E+04   -.673E+01 -.498E+01 0.112E+04   0.428E-01 0.101E+00 0.899E+00   -.807E-01 -.629E-01 -.136E+00
   -.676E+01 0.495E+01 -.112E+04   0.673E+01 -.498E+01 0.112E+04   -.428E-01 0.101E+00 0.899E+00   0.576E-01 -.610E-01 -.136E+00
   -.120E-03 -.345E+02 -.114E+04   0.239E-03 0.340E+02 0.114E+04   -.305E-07 0.458E+00 0.760E+00   0.127E-01 0.902E-02 -.232E+00
   -.428E-04 0.123E+02 -.347E+04   0.416E-04 -.121E+02 0.347E+04   0.142E-07 -.213E+00 0.161E+01   -.172E-02 -.203E-01 -.510E-01
   -.394E+02 -.563E+02 -.345E+04   0.403E+02 0.567E+02 0.345E+04   -.857E+00 -.541E+00 0.105E+01   -.282E-01 -.189E-01 -.148E+00
   0.394E+02 -.563E+02 -.345E+04   -.403E+02 0.567E+02 0.345E+04   0.857E+00 -.541E+00 0.105E+01   0.508E-01 -.184E-01 -.149E+00
   -.715E+02 0.130E+01 -.343E+04   0.717E+02 -.978E+00 0.343E+04   -.277E+00 -.334E+00 0.229E+01   -.539E-01 0.301E-01 -.775E-01
   0.715E+02 0.130E+01 -.343E+04   -.717E+02 -.978E+00 0.343E+04   0.277E+00 -.334E+00 0.229E+01   0.762E-01 0.306E-01 -.763E-01
   -.459E+02 0.559E+02 -.346E+04   0.462E+02 -.565E+02 0.346E+04   -.315E+00 0.796E+00 0.954E+00   0.989E-03 0.100E-01 -.100E+00
   0.459E+02 0.559E+02 -.346E+04   -.462E+02 -.565E+02 0.346E+04   0.315E+00 0.796E+00 0.954E+00   0.230E-01 0.988E-02 -.980E-01
   -.147E-03 -.108E+02 -.349E+04   0.252E-03 0.106E+02 0.349E+04   -.172E-07 0.258E+00 0.213E+01   -.136E-01 -.805E-02 -.849E-01
   -.375E-04 -.179E+01 -.148E+04   0.603E-04 0.171E+01 0.148E+04   -.124E-07 0.186E+00 0.267E+01   -.402E-03 0.125E-01 -.156E+00
   -.191E-04 -.641E-01 -.129E+04   0.537E-05 0.499E-01 0.129E+04   -.215E-09 0.323E-02 0.487E+01   0.441E-03 0.114E-01 0.188E-01
   0.220E+03 -.620E+00 -.209E+04   -.271E+03 0.705E+00 0.211E+04   0.515E+02 -.967E-01 -.171E+02   -.166E+00 0.124E-01 0.114E-01
   -.220E+03 -.620E+00 -.209E+04   0.271E+03 0.705E+00 0.211E+04   -.515E+02 -.967E-01 -.171E+02   0.165E+00 0.125E-01 0.111E-01
   -.634E-07 0.339E+00 0.397E+02   0.227E-12 -.229E-12 0.182E-11   0.241E-07 -.363E+00 -.342E+02   0.652E-01 0.536E-01 -.552E+01

 POSITION                                       TOTAL-FORCE (eV/Angst)
      0.00000      0.00000      5.37156         0.000000     -0.002011      0.033542
      2.56560      0.00000      5.37156         0.004419     -0.009940      0.064395
      5.13119      0.00000      5.37156        -0.004419     -0.009940      0.064395
      1.28280      2.22187      5.37156        -0.006375     -0.001367      0.048634
      3.84839      2.22187      5.37156         0.000000     -0.004676      0.072598
      6.41399      2.22187      5.37156         0.006375     -0.001367      0.048634
      2.56560      4.44374      5.37156        -0.005235      0.007749      0.069009
      5.13119      4.44374      5.37156         0.005235      0.007749      0.069009
      7.69679      4.44374      5.37156        -0.000000      0.006440      0.031248
      1.28280      0.74062      7.46636        -0.016872     -0.005353     -0.091655
      3.84839      0.74062      7.46636         0.000000     -0.049314     -0.082233
      6.41399      0.74062      7.46636         0.016872     -0.005353     -0.091655
      2.56560      2.96249      7.46636        -0.046963      0.024390     -0.077104
      5.13119      2.96249      7.46636         0.046963      0.024390     -0.077104
      7.69679      2.96249      7.46636        -0.000000      0.017586      0.032216
      3.84839      5.18437      7.46636        -0.000000      0.007889     -0.074477
      6.41399      5.18437      7.46636         0.008134     -0.011713      0.029004
      8.97958      5.18437      7.46636        -0.008134     -0.011713      0.029004
      7.69679      1.48082      9.55187         0.000000     -0.033361      0.058267
      2.55960      1.47778      9.55047        -0.106374     -0.089069     -0.182625
      5.13719      1.47778      9.55047         0.106374     -0.089069     -0.182625
      8.97653      3.70488      9.56926         0.043549     -0.020415      0.045964
      3.84839      3.71005      9.55047        -0.000000      0.095639     -0.159917
      6.41705      3.70488      9.56926        -0.043549     -0.020415      0.045964
     10.26275      5.92520      9.55187         0.005933      0.017160      0.004730
      5.13082      5.92520      9.55187        -0.005933      0.017160      0.004730
      7.69679      5.92146      9.56926        -0.000000      0.029632     -0.004963
      0.00000      0.00000     11.65662         0.000000     -0.042215     -0.045926
      6.40243      6.64574     11.69071        -0.005630     -0.170118     -0.173284
      8.99114      6.64574     11.69071         0.005630     -0.170118     -0.173284
      8.95659      2.22180     11.69071        -0.166052      0.014009     -0.170452
      6.43698      2.22180     11.69071         0.166052      0.014009     -0.170452
     10.25095      4.46369     11.69071        -0.013029      0.150763     -0.170840
      5.14262      4.46369     11.69071         0.013029      0.150763     -0.170840
      7.69679      4.44374     11.67656        -0.000000      0.046229     -0.025201
      3.84839      2.22187     11.69355        -0.000000      0.116956      1.478049
      3.84839      2.18681     13.96991         0.000000     -0.000419     -0.196357
      2.67148      2.18830     14.32364        -0.022580     -0.000285      0.045801
      5.02531      2.18830     14.32364         0.022580     -0.000285      0.045801
    total drift:                                0.065241      0.029928     -0.074221

  FREE ENERGIE OF THE ION-ELECTRON SYSTEM (eV)
  free  energy   TOTEN  =      -154.73401463 eV

  energy  without entropy=     -154.73401463  energy(sigma->0) =     -154.73401463

 stress matrix after NEB project (eV)
     -4.53115      0.00000     -0.00000
      0.00000     -5.01350      0.11742
     -0.00000      0.11742     -1.82019
  FORCES: max atom, RMS     0.196357    0.033501
  FORCE total and by dimension    0.209216    0.196357
  Stress total and by dimension    7.000512    5.013498
|           W    W    AA    RRRRR   N    N  II  N    N   GGGG   !!!           |
|           W    W   A  A   R    R  NN   N  II  NN   N  G    G  !!!           |
|           W    W  A    A  R    R  N N  N  II  N N  N  G       !!!           |
|           W WW W  AAAAAA  RRRRR   N  N N  II  N  N N  G  GGG   !            |
|           WW  WW  A    A  R   R   N   NN  II  N   NN  G    G                |
|           W    W  A    A  R    R  N    N  II  N    N   GGGG   !!!           |
|     Tetrahedron method does not include variations of the Fermi             |
|     occupations, so forces and stress will be inaccurate. We suggest        |
|     using a different smearing scheme ISMEAR = 1 or 2 for metals in         |
|     relaxations.                                                            |

 total charge

# of ion       s       p       d       tot
    1        0.451   0.282   9.188   9.922
    2        0.448   0.285   9.186   9.919
    3        0.448   0.285   9.186   9.919
    4        0.448   0.285   9.187   9.919
    5        0.447   0.284   9.185   9.917
    6        0.448   0.285   9.187   9.919
    7        0.447   0.285   9.186   9.918
    8        0.447   0.285   9.186   9.918
    9        0.451   0.284   9.186   9.920
   10        0.443   0.371   9.176   9.991
   11        0.441   0.366   9.183   9.989
   12        0.443   0.371   9.176   9.991
   13        0.441   0.366   9.182   9.989
   14        0.441   0.366   9.182   9.989
   15        0.438   0.370   9.176   9.984
   16        0.443   0.371   9.177   9.991
   17        0.439   0.367   9.179   9.986
   18        0.439   0.367   9.179   9.986
   19        0.440   0.366   9.184   9.990
   20        0.463   0.396   9.162  10.021
   21        0.463   0.396   9.162  10.021
   22        0.430   0.372   9.177   9.979
   23        0.462   0.397   9.162  10.021
   24        0.430   0.372   9.177   9.979
   25        0.441   0.367   9.181   9.989
   26        0.441   0.367   9.181   9.989
   27        0.432   0.369   9.181   9.981
   28        0.450   0.292   9.180   9.922
   29        0.483   0.316   9.159   9.958
   30        0.483   0.316   9.159   9.958
   31        0.473   0.317   9.163   9.953
   32        0.473   0.317   9.163   9.953
   33        0.483   0.317   9.158   9.958
   34        0.483   0.317   9.158   9.958
   35        0.444   0.297   9.179   9.919
   36        0.746   0.619   3.245   4.609
   37        0.895   1.728   0.000   2.623
   38        1.604   3.474   0.000   5.078
   39        1.604   3.474   0.000   5.078
tot         20.625  21.061 324.421 366.107

 BZINTS: Fermi energy:   -0.387946;  406.000000 electrons
         Band energy:-0.144827E+04;  BLOECHL correction:   -0.032137