 vasp.6.2.0 18Jan21 (build Jun 12 2021 23:27:24) complex

 executed on             LinuxIFC date 2022.05.30  17:59:57

 INCAR:
   ISMEAR = -5
   SIGMA = 0.1
   ISPIN = 1
   EDIFF = 1.d-5
   EDIFFG = -0.01
   NSW = 0
   NELM = 150
   ENCUT = 500
   ISIF = 2
   IBRION = 2
   LREAL = Auto
   ALGO = Fast
   ICHARG = 11
   LORBIT = 10
   LCHARG = .F.
   LWAVE = .F.

 POTCAR:    PAW_PBE Cu 22Jun2005
 POTCAR:    PAW_PBE Mn 06Sep2000
 POTCAR:    PAW_PBE O 08Apr2002
|           W    W    AA    RRRRR   N    N  II  N    N   GGGG   !!!           |
|           W    W   A  A   R    R  NN   N  II  NN   N  G    G  !!!           |
|           W    W  A    A  R    R  N N  N  II  N N  N  G       !!!           |
|           W WW W  AAAAAA  RRRRR   N  N N  II  N  N N  G  GGG   !            |
|           WW  WW  A    A  R   R   N   NN  II  N   NN  G    G                |
|           W    W  A    A  R    R  N    N  II  N    N   GGGG   !!!           |
|     For optimal performance we recommend to set                             |
|       NCORE = 2 up to number-of-cores-per-socket                            |
|     This setting can greatly improve the performance of VASP for DFT.       |
|     The default, NCORE=1 might be grossly inefficient on modern             |
|     multi-core architectures or massively parallel machines. Do your        |
|     Unfortunately you need to use the default for GW and RPA                |
|     calculations (for HF NCORE is supported but not extensively tested      |
|     yet).                                                                   |

 POTCAR:    PAW_PBE Cu 22Jun2005
   VRHFIN =Cu: d10 p1

   TITEL  = PAW_PBE Cu 22Jun2005
   POMASS =   63.546; ZVAL   =   11.000    mass and valenz
   ENMAX  =  295.446; ENMIN  =  221.585 eV

 POTCAR:    PAW_PBE Mn 06Sep2000
   VRHFIN =Mn: d6 s1

   TITEL  = PAW_PBE Mn 06Sep2000
   POMASS =   54.938; ZVAL   =    7.000    mass and valenz
   ENMAX  =  269.864; ENMIN  =  202.398 eV

 POTCAR:    PAW_PBE O 08Apr2002
   VRHFIN =O: s2p4

   TITEL  = PAW_PBE O 08Apr2002
   POMASS =   16.000; ZVAL   =    6.000    mass and valenz
   ENMAX  =  400.000; ENMIN  =  300.000 eV

 Optimization of the real space projectors (new method)

 maximal supplied QI-value         = 16.25
 optimisation between [QCUT,QGAM] = [ 11.38, 22.75] = [ 36.24,144.96] Ry
 Optimized for a Real-space Cutoff    1.52 Angstroem

   l    n(q)    QCUT    max X(q) W(low)/X(q) W(high)/X(q)  e(spline)
   2      9    11.376     4.610    0.21E-03    0.10E-03    0.26E-06
   2      9    11.376     8.522    0.33E-03    0.16E-03    0.37E-06
   0     10    11.376    51.609    0.62E-04    0.20E-04    0.13E-06
   0     10    11.376    27.747    0.54E-04    0.20E-04    0.13E-06
   1     10    11.376    20.408    0.13E-04    0.99E-04    0.19E-06
   1     10    11.376    13.425    0.12E-04    0.87E-04    0.17E-06
 Optimization of the real space projectors (new method)

[...]

   l    n(q)    QCUT    max X(q) W(low)/X(q) W(high)/X(q)  e(spline)
   2      8    11.376   110.144    0.49E-03    0.27E-04    0.26E-06
   2      8    11.376   103.200    0.49E-03    0.28E-04    0.27E-06
   0      9    11.376    68.437    0.57E-04    0.92E-04    0.15E-06
   0      9    11.376    33.971    0.51E-04    0.83E-04    0.14E-06
   1      9    11.376    17.065    0.34E-03    0.68E-04    0.14E-06
   1      9    11.376    12.540    0.27E-03    0.59E-04    0.11E-06
 Optimization of the real space projectors (new method)

 maximal supplied QI-value         = 24.76
 optimisation between [QCUT,QGAM] = [ 11.39, 22.77] = [ 36.31,145.25] Ry
 Optimized for a Real-space Cutoff    1.00 Angstroem

   l    n(q)    QCUT    max X(q) W(low)/X(q) W(high)/X(q)  e(spline)
   0      7    11.387    20.381    0.39E-03    0.13E-02    0.15E-06
   0      7    11.387    15.268    0.42E-03    0.14E-02    0.17E-06
   1      6    11.387     5.964    0.41E-03    0.11E-02    0.17E-06
   1      6    11.387     5.382    0.39E-03    0.87E-03    0.15E-06
  PAW_PBE Cu 22Jun2005                  :
  PAW_PBE Mn 06Sep2000                  :
  PAW_PBE O 08Apr2002                   :

 POSCAR: Cu-Mn-O2
  positions in direct lattice
  velocities in cartesian coordinates
 exchange correlation table for  LEXCH =        8
   RHO(1)=    0.500       N(1)  =     2000
   RHO(2)=  100.500       N(2)  =     4000

 VTST: version 3.2, (02/03/18)

 CHAIN: initializing optimizer

 OPT: Using VASP Conjugate-Gradient optimizer
 CHAIN: Read ICHAIN            0

 POSCAR: Cu-Mn-O2
  positions in direct lattice
  velocities in cartesian coordinates

 ion  position               nearest neighbor table
   1  0.000  0.000  0.226-   7 2.57   3 2.57   4 2.57   2 2.57   6 2.57   8 2.57  12 2.57  10 2.57
                            16 2.57
   2  0.333  0.000  0.226-   8 2.57   9 2.57   5 2.57   1 2.57   3 2.57  11 2.57   4 2.57  10 2.57
                            17 2.57
   3  0.667  0.000  0.226-   1 2.57   7 2.57   6 2.57   9 2.57   2 2.57  12 2.57   5 2.57  18 2.57
                            11 2.57
   4  0.000  0.333  0.226-   5 2.57   6 2.57   1 2.57   7 2.57   2 2.57  13 2.57   9 2.57  10 2.57
                            15 2.57
   5  0.333  0.333  0.226-   4 2.57   2 2.57   7 2.57  13 2.57   8 2.57   6 2.57   3 2.57  11 2.57
                            14 2.57
   6  0.667  0.333  0.226-   4 2.57   9 2.57  15 2.57   3 2.57   1 2.57   8 2.57  14 2.57   5 2.57
                            12 2.57
   7  0.000  0.667  0.226-   1 2.57   3 2.57  16 2.57  18 2.57   4 2.57   5 2.57   8 2.57   9 2.57
                            13 2.57
   8  0.333  0.667  0.226-   9 2.57   2 2.57  17 2.57   6 2.57   1 2.57   7 2.57   5 2.57  14 2.57
                            16 2.57
   9  0.667  0.667  0.226-   8 2.57   6 2.57   2 2.57  17 2.57   3 2.57   7 2.57   4 2.57  15 2.57
                            18 2.57
  10  0.111  0.111  0.314-  20 2.55  26 2.56  19 2.56  11 2.57  12 2.57  13 2.57   1 2.57   2 2.57
                             4 2.57  15 2.57  16 2.57  17 2.57
  11  0.444  0.111  0.314-  20 2.55  21 2.55  27 2.56  10 2.57  13 2.57   2 2.57  17 2.57  14 2.57
                            12 2.57   5 2.57   3 2.57  18 2.57
  12  0.778  0.111  0.314-  21 2.55  19 2.56  25 2.56  15 2.57  10 2.57  14 2.57  18 2.57   3 2.57
                             1 2.57  16 2.57  11 2.57   6 2.57
  13  0.111  0.444  0.314-  23 2.55  20 2.55  22 2.56  16 2.57  18 2.57  10 2.57  11 2.57  14 2.57
                             5 2.57   4 2.57   7 2.57  15 2.57
  14  0.444  0.444  0.314-  21 2.55  23 2.55  24 2.56  15 2.57  17 2.57  12 2.57  16 2.57  13 2.57
                            11 2.57   6 2.57   8 2.57   5 2.57
  15  0.778  0.444  0.314-  19 2.56  24 2.56  22 2.56  14 2.57  17 2.57  12 2.57   6 2.57  18 2.57
                            10 2.57   9 2.57  13 2.57   4 2.57
  16  0.111  0.778  0.314-  23 2.55  25 2.56  26 2.56  18 2.57  13 2.57   7 2.57  14 2.57  17 2.57
                            12 2.57  10 2.57   8 2.57   1 2.57
  17  0.444  0.778  0.314-  26 2.56  27 2.56  24 2.56  14 2.57  15 2.57   8 2.57   9 2.57  11 2.57
                            16 2.57  18 2.57  10 2.57   2 2.57
  18  0.778  0.778  0.314-  25 2.56  22 2.56  27 2.56  16 2.57  13 2.57   7 2.57  15 2.57  12 2.57
                            17 2.57   9 2.57   3 2.57  11 2.57
  19  0.889  0.222  0.402-  28 2.55  15 2.56  12 2.56  10 2.56  22 2.56  24 2.56  21 2.57  20 2.57
                            25 2.57  26 2.57  32 2.57  31 2.57
  20  0.222  0.222  0.401-  36 2.48  11 2.55  13 2.55  10 2.55  29 2.56  31 2.56  23 2.56  21 2.56
                            26 2.57  19 2.57  27 2.57  22 2.57
  21  0.555  0.222  0.401-  36 2.48  14 2.55  11 2.55  12 2.55  32 2.56  30 2.56  20 2.56  23 2.56
                            19 2.57  25 2.57  24 2.57  27 2.57
  22  0.888  0.556  0.402-  35 2.55  24 2.56  27 2.56  31 2.56  33 2.56  18 2.56  15 2.56  13 2.56
                            19 2.56  25 2.56  23 2.57  20 2.57
  23  0.222  0.555  0.401-  36 2.48  13 2.55  14 2.55  16 2.55  33 2.56  34 2.56  20 2.56  21 2.56
                            25 2.57  26 2.57  22 2.57  24 2.57
  24  0.556  0.556  0.402-  35 2.55  22 2.56  27 2.56  32 2.56  34 2.56  15 2.56  17 2.56  14 2.56
                            19 2.56  26 2.56  21 2.57  23 2.57
  25  0.889  0.889  0.402-  28 2.55  18 2.56  16 2.56  12 2.56  22 2.56  27 2.56  21 2.57  23 2.57
                            19 2.57  26 2.57  33 2.57  30 2.57
  26  0.222  0.889  0.402-  28 2.55  17 2.56  10 2.56  16 2.56  27 2.56  24 2.56  20 2.57  23 2.57
                            25 2.57  19 2.57  29 2.57  34 2.57
  27  0.556  0.888  0.402-  35 2.55  24 2.56  22 2.56  29 2.56  30 2.56  17 2.56  18 2.56  11 2.56
                            26 2.56  25 2.56  20 2.57  21 2.57
  28  0.000  0.000  0.489-  25 2.55  19 2.55  26 2.55  33 2.58  30 2.58  31 2.58  29 2.58  32 2.58
                            34 2.58
  29  0.333  0.003  0.489-  31 2.54  36 2.55  30 2.55  20 2.56  27 2.56  26 2.57  28 2.58  35 2.58
                            34 2.61
  30  0.664  0.003  0.489-  32 2.54  36 2.55  29 2.55  21 2.56  27 2.56  25 2.57  28 2.58  35 2.58
                            33 2.61
  31  0.003  0.333  0.489-  29 2.54  36 2.55  33 2.55  20 2.56  22 2.56  19 2.57  28 2.58  35 2.58
                            32 2.61
  32  0.664  0.333  0.489-  30 2.54  36 2.55  34 2.55  21 2.56  24 2.56  19 2.57  28 2.58  35 2.58
                            31 2.61
  33  0.003  0.664  0.489-  34 2.54  36 2.55  31 2.55  23 2.56  22 2.56  25 2.57  28 2.58  35 2.58
                            30 2.61
  34  0.333  0.664  0.489-  33 2.54  36 2.55  32 2.55  23 2.56  24 2.56  26 2.57  28 2.58  35 2.58
                            29 2.61
  35  0.667  0.667  0.489-  24 2.55  27 2.55  22 2.55  34 2.58  32 2.58  29 2.58  30 2.58  33 2.58
                            31 2.58
  36  0.333  0.333  0.485-  37 1.87  38 1.87  23 2.48  20 2.48  21 2.48  31 2.55  29 2.55  33 2.55
                            34 2.55  32 2.55  30 2.55
  37  0.240  0.332  0.557-  38 1.46  36 1.87
  38  0.429  0.332  0.557-  37 1.46  36 1.87

  LATTYP: Found a hexagonal cell.
 ALAT       =     7.6967864036
 C/A-ratio  =     3.0908716217

  Lattice vectors:

 A1 = (  -3.8483927580,  -6.6656128093,   0.0000000000)
 A2 = (   7.6967864037,   0.0000000000,   0.0000000000)
 A3 = (   0.0000000000,   0.0000000000,  23.7897786731)

Analysis of symmetry for initial positions (statically):
 Subroutine PRICEL returns:
 Original cell was already a primitive cell.

 Routine SETGRP: Setting up the symmetry group for a
 hexagonal supercell.

 Subroutine GETGRP returns: Found  2 space group operations
 (whereof  2 operations were pure point group operations)
 out of a pool of 24 trial point group operations.

The static configuration has the point symmetry C_1h.

Analysis of symmetry for dynamics (positions and initial velocities):
 Subroutine PRICEL returns:
 Original cell was already a primitive cell.

[...]

The dynamic configuration has the point symmetry C_1h.

Analysis of constrained symmetry for selective dynamics:
 Subroutine PRICEL returns:
 Original cell was already a primitive cell.

 Routine SETGRP: Setting up the symmetry group for a
 hexagonal supercell.

[...]
     33      -4.5992      2.00000
     34      -4.5861      2.00000
     35      -4.5734      2.00000
     36      -4.5508      2.00000
     37      -4.5236      2.00000
     38      -4.5013      2.00000
     39      -4.4358      2.00000
     40      -4.4157      2.00000
     41      -4.3756      2.00000
     42      -4.2788      2.00000
     43      -4.2689      2.00000
     44      -4.2051      2.00000
     45      -4.1952      2.00000
     46      -4.1852      2.00000
     47      -4.1707      2.00000
     48      -4.1503      2.00000
     49      -4.1440      2.00000
     50      -4.1240      2.00000
     51      -4.0039      2.00000
     52      -3.9454      2.00000
     53      -3.9246      2.00000
     54      -3.9183      2.00000
     55      -3.9154      2.00000
     56      -3.8624      2.00000
     57      -3.8572      2.00000
     58      -3.8476      2.00000
     59      -3.8246      2.00000
     60      -3.8182      2.00000
[...]
    238       5.2852      0.00000
    239       5.3810      0.00000
    240       5.6415      0.00000
    241       5.6893      0.00000
    242       5.8590      0.00000
    243       5.9625      0.00000
    244       6.0122      0.00000
    245       6.0475      0.00000
    246       6.1056      0.00000
    247       6.3238      0.00000
    248       6.3498      0.00000
    249       6.5318      0.00000
    250       6.7171      0.00000
    251       6.7529      0.00000
    252       6.8252      0.00000

 soft charge-density along one line, spin component           1
         0         1         2         3         4         5         6         7         8         9
 total charge-density along one line

------------------------ aborting loop because EDIFF is reached ----------------------------------------

 total charge

# of ion       s       p       d       tot
    1        0.450   0.283   9.189   9.921
    2        0.448   0.285   9.187   9.921
    3        0.448   0.285   9.187   9.921
    4        0.449   0.285   9.186   9.919
    5        0.449   0.286   9.183   9.918
    6        0.449   0.285   9.186   9.919
    7        0.449   0.285   9.186   9.921
    8        0.449   0.285   9.186   9.921
    9        0.447   0.284   9.188   9.919
   10        0.443   0.370   9.177   9.990
   11        0.442   0.367   9.183   9.992
   12        0.443   0.370   9.177   9.990
   13        0.442   0.367   9.183   9.993
   14        0.442   0.367   9.183   9.993
   15        0.439   0.369   9.180   9.987
   16        0.442   0.372   9.177   9.991
   17        0.438   0.370   9.179   9.987
   18        0.438   0.370   9.179   9.987
   19        0.439   0.367   9.184   9.989
   20        0.461   0.393   9.167  10.021
   21        0.461   0.393   9.167  10.021
   22        0.434   0.374   9.180   9.988
   23        0.459   0.401   9.158  10.018
   24        0.434   0.374   9.180   9.988
   25        0.439   0.368   9.182   9.989
   26        0.439   0.368   9.182   9.989
   27        0.435   0.371   9.184   9.989
   28        0.452   0.281   9.191   9.923
   29        0.446   0.290   9.190   9.926
   30        0.446   0.290   9.190   9.926
   31        0.441   0.297   9.190   9.929
   32        0.441   0.297   9.190   9.929
   33        0.444   0.290   9.190   9.925
   34        0.444   0.290   9.190   9.925
   35        0.446   0.284   9.189   9.919
   36        0.357   0.420   5.171   5.948
   37        1.610   3.234   0.000   4.843
   38        1.610   3.234   0.000   4.843
tot         19.142  18.504 326.571 364.217

  FORCE on cell =-STRESS in cart. coord.  units (eV):
  Direction    XX          YY          ZZ          XY          YZ          ZX
  Alpha Z   811.68304   811.68304   811.68304
  Ewald  225596.52876225218.34798************     0.00042     1.10395     0.00020
  Hartree238393.70388238203.23178************     0.00006     1.36604     0.00007
  E(xc)   -2338.15710 -2338.95352 -2343.00622    -0.00030    -0.02975    -0.00004
  Local  ************************476827.20629     0.02028    -2.61421    -0.00079
  n-local  -821.51869  -829.36883  -839.40336     1.85988     0.00577     0.05933
  augment  3346.60384  3351.33999  3365.10455    -0.01834     0.13617     0.00027
  Kinetic  3435.73463  3481.88979  3482.92758     0.70842     0.17657    -0.19668
  Fock        0.00000     0.00000     0.00000     0.00000     0.00000     0.00000
  Total      -4.01274    -5.43791    -0.27137     0.00000     0.14453    -0.00000
  in kB      -5.26759    -7.13843    -0.35623     0.00000     0.18973    -0.00000

 VOLUME and BASIS-vectors are now :
  energy-cutoff  :      500.00
  volume of cell :     1220.51
      direct lattice vectors                 reciprocal lattice vectors
     7.696786404  0.000000000  0.000000000     0.129924354 -0.075011849  0.000000000
     3.848392758  6.665612809  0.000000000     0.000000000  0.150023716  0.000000000
     0.000000000  0.000000000 23.789778673     0.000000000  0.000000000  0.042034859

  length of vectors
     7.696786404  7.696786404 23.789778673     0.150023716  0.150023716  0.042034859

 FORCES acting on ions
    electron-ion (+dipol)            ewald-force                    non-local-force                 convergence-correction
   -.413E-04 -.710E-01 0.377E+04   0.579E-04 -.432E-01 -.376E+04   -.234E-08 0.351E-01 -.271E+01   -.251E-03 0.715E-01 -.218E+00
   0.805E-01 0.158E+00 0.377E+04   -.441E-01 -.194E+00 -.376E+04   0.930E-02 0.801E-01 -.187E+01   -.393E-01 -.273E-01 -.212E+00
   -.805E-01 0.158E+00 0.377E+04   0.440E-01 -.194E+00 -.376E+04   -.930E-02 0.801E-01 -.187E+01   0.400E-01 -.248E-01 -.211E+00
   -.402E-02 -.128E+00 0.377E+04   -.153E+00 0.411E-01 -.376E+04   0.147E+00 -.121E-01 -.190E+01   0.161E-01 0.895E-01 -.193E+00
   -.638E-04 -.633E-01 0.377E+04   0.116E-03 0.432E-02 -.376E+04   -.933E-09 0.140E-01 -.172E+01   0.120E-01 0.508E-01 -.142E+00
   0.406E-02 -.128E+00 0.377E+04   0.153E+00 0.410E-01 -.376E+04   -.147E+00 -.121E-01 -.190E+01   -.175E-01 0.907E-01 -.192E+00
   0.342E+00 0.209E-01 0.377E+04   -.108E+00 0.153E+00 -.376E+04   -.341E-01 -.972E-01 -.187E+01   -.169E+00 -.827E-01 -.207E+00
   -.342E+00 0.208E-01 0.377E+04   0.108E+00 0.153E+00 -.376E+04   0.341E-01 -.972E-01 -.187E+01   0.173E+00 -.840E-01 -.207E+00
   -.144E-03 0.282E-01 0.377E+04   0.263E-03 0.390E-01 -.376E+04   -.494E-09 0.741E-02 -.229E+01   -.131E-01 -.770E-01 -.175E+00
   0.170E+01 0.113E+01 0.132E+04   -.117E+01 -.100E+01 -.132E+04   -.500E+00 -.181E+00 -.941E+00   -.300E-01 0.626E-01 0.105E+00
   -.825E-04 0.193E+01 0.132E+04   0.189E-03 -.218E+01 -.132E+04   -.154E-07 0.231E+00 -.355E+00   0.113E-01 -.347E-01 0.462E-01
   -.170E+01 0.113E+01 0.132E+04   0.117E+01 -.100E+01 -.132E+04   0.500E+00 -.181E+00 -.941E+00   0.290E-01 0.631E-01 0.103E+00
   0.141E+01 -.109E+01 0.132E+04   -.159E+01 0.117E+01 -.132E+04   0.248E+00 -.125E+00 -.396E+00   -.951E-01 0.544E-01 0.229E-01
   -.141E+01 -.109E+01 0.132E+04   0.159E+01 0.117E+01 -.132E+04   -.248E+00 -.125E+00 -.396E+00   0.118E+00 0.531E-01 0.196E-01
   -.141E-03 -.542E+00 0.132E+04   0.299E-03 0.390E+00 -.132E+04   -.330E-08 0.495E-01 -.975E+00   -.272E-02 0.876E-01 0.463E-01
   -.891E-04 -.201E+01 0.132E+04   0.185E-03 0.142E+01 -.132E+04   -.397E-07 0.597E+00 -.115E+01   -.103E-02 -.128E-04 0.433E-01
   -.292E+00 0.263E+00 0.132E+04   0.137E+00 0.146E-01 -.132E+04   0.668E-01 -.139E+00 -.787E+00   0.839E-01 -.130E+00 0.918E-01
   0.292E+00 0.263E+00 0.132E+04   -.137E+00 0.146E-01 -.132E+04   -.668E-01 -.139E+00 -.787E+00   -.827E-01 -.128E+00 0.931E-01
   -.606E-04 0.104E+01 -.115E+04   0.671E-04 -.124E+01 0.115E+04   -.939E-08 0.141E+00 0.113E+01   0.128E-01 0.485E-01 0.253E+00
   -.675E+01 -.212E+01 -.114E+04   0.822E+01 0.282E+01 0.114E+04   -.119E+01 -.647E+00 -.103E+01   -.341E+00 -.990E-01 0.392E-01
   0.675E+01 -.212E+01 -.114E+04   -.822E+01 0.282E+01 0.114E+04   0.119E+01 -.647E+00 -.103E+01   0.318E+00 -.101E+00 0.381E-01
   -.243E+01 -.782E+00 -.115E+04   0.234E+01 0.943E+00 0.115E+04   0.270E+00 -.273E+00 0.795E+00   -.103E+00 0.667E-01 0.186E+00
   -.635E-04 0.478E+01 -.114E+04   0.143E-03 -.655E+01 0.115E+04   -.102E-06 0.153E+01 -.924E+00   -.143E-01 0.244E+00 0.162E+00
   0.243E+01 -.782E+00 -.115E+04   -.234E+01 0.943E+00 0.115E+04   -.270E+00 -.273E+00 0.795E+00   0.126E+00 0.687E-01 0.187E+00
   0.110E+00 0.115E+01 -.115E+04   0.763E-01 -.105E+01 0.115E+04   -.122E+00 -.659E-01 0.103E+01   -.591E-01 -.196E-01 0.328E+00
   -.110E+00 0.115E+01 -.115E+04   -.765E-01 -.105E+01 0.115E+04   0.122E+00 -.659E-01 0.103E+01   0.807E-01 -.169E-01 0.328E+00
   -.123E-03 -.275E+01 -.115E+04   0.242E-03 0.229E+01 0.115E+04   -.470E-07 0.706E+00 0.993E+00   0.925E-02 -.156E+00 0.166E+00
   -.304E-04 0.910E+01 -.361E+04   0.295E-04 -.920E+01 0.361E+04   -.724E-08 0.109E+00 0.210E+01   -.134E-02 -.288E-01 0.368E+00
   0.193E+02 0.551E+02 -.357E+04   -.192E+02 -.563E+02 0.357E+04   -.609E-01 0.110E+01 0.345E+01   -.188E+00 -.224E+00 0.544E+00
   -.193E+02 0.551E+02 -.357E+04   0.192E+02 -.563E+02 0.357E+04   0.609E-01 0.110E+01 0.345E+01   0.210E+00 -.223E+00 0.544E+00
   0.704E+02 -.633E+00 -.355E+04   -.723E+02 0.833E+00 0.354E+04   0.135E+01 -.233E+00 0.419E+01   0.549E-01 0.314E-01 0.490E+00
   -.704E+02 -.633E+00 -.355E+04   0.723E+02 0.833E+00 0.354E+04   -.135E+01 -.233E+00 0.419E+01   -.332E-01 0.326E-01 0.493E+00
   0.179E+02 -.533E+02 -.358E+04   -.182E+02 0.545E+02 0.357E+04   0.250E+00 -.975E+00 0.346E+01   -.120E+00 0.113E+00 0.464E+00
   -.179E+02 -.533E+02 -.358E+04   0.182E+02 0.545E+02 0.357E+04   -.250E+00 -.975E+00 0.346E+01   0.145E+00 0.113E+00 0.466E+00
   -.139E-03 -.857E+01 -.362E+04   0.260E-03 0.846E+01 0.362E+04   -.564E-08 0.846E-01 0.234E+01   -.142E-01 0.401E-01 0.431E+00
   -.538E-04 -.223E+01 -.198E+04   0.913E-04 0.200E+01 0.198E+04   -.141E-07 0.212E+00 0.252E+01   0.121E-02 0.958E-01 0.496E+00
   0.187E+03 -.392E+00 -.239E+04   -.218E+03 0.346E+00 0.241E+04   0.308E+02 0.368E-01 -.185E+02   -.120E+00 0.638E-03 0.519E+00
   -.187E+03 -.392E+00 -.239E+04   0.218E+03 0.346E+00 0.241E+04   -.308E+02 0.368E-01 -.185E+02   0.123E+00 0.715E-03 0.519E+00
   0.821E-04 -.681E+00 0.238E+02   -.568E-13 0.844E-14 0.318E-11   -.434E-07 0.651E+00 -.297E+02   0.120E+00 0.219E-01 0.584E+01

 POSITION                                       TOTAL-FORCE (eV/Angst)
      0.00000      0.00000      5.37156         0.000000     -0.007341     -0.009709
      2.56560      0.00000      5.37156         0.006060      0.018596      0.074634
      5.13119      0.00000      5.37156        -0.006060      0.018596      0.074634
      1.28280      2.22187      5.37156         0.006145     -0.008609      0.066712
      3.84839      2.22187      5.37156        -0.000000      0.006054      0.039413
      6.41399      2.22187      5.37156        -0.006145     -0.008609      0.066712
      2.56560      4.44374      5.37156         0.029125     -0.006598      0.062269
      5.13119      4.44374      5.37156        -0.029125     -0.006598      0.062269
      7.69679      4.44374      5.37156         0.000000     -0.002180      0.017799
      1.28280      0.74062      7.46636        -0.001553      0.006082     -0.069728
      3.84839      0.74062      7.46636         0.000000     -0.056140     -0.101836
      6.41399      0.74062      7.46636         0.001553      0.006082     -0.069728
      2.56560      2.96249      7.46636        -0.034698      0.016582     -0.078633
      5.13119      2.96249      7.46636         0.034698      0.016582     -0.078633
      7.69679      2.96249      7.46636         0.000000     -0.014538     -0.023344
      3.84839      5.18437      7.46636        -0.000000      0.005577     -0.050441
      6.41399      5.18437      7.46636        -0.004373      0.009709     -0.013673
      8.97958      5.18437      7.46636         0.004373      0.009709     -0.013673
      7.69679      1.48275      9.55327         0.000000     -0.017991      0.081091
      2.56715      1.48214      9.54261        -0.048244     -0.044043     -0.139769
      5.12964      1.48214      9.54261         0.048244     -0.044043     -0.139769
      8.97640      3.70496      9.55687         0.070275     -0.044298      0.041986
      3.84839      3.70133      9.54261        -0.000000      0.007429     -0.032835
      6.41717      3.70496      9.55687        -0.070275     -0.044298      0.041986
     10.26108      5.92424      9.55327        -0.005825      0.010640      0.065638
      5.13249      5.92424      9.55327         0.005825      0.010640      0.065638
      7.69679      5.92131      9.55687        -0.000000      0.089871      0.040613
      0.00000      0.00000     11.63217         0.000000     -0.026340     -0.024236
      2.57513      0.01976     11.64308        -0.173847     -0.314586     -0.193292
      5.12165      0.01976     11.64308         0.173847     -0.314586     -0.193292
      1.30468      2.22025     11.64308        -0.535543     -0.000675     -0.311719
      6.39211      2.22025     11.64308         0.535543     -0.000675     -0.311719
      2.57794      4.42560     11.64308        -0.156289      0.327753     -0.181926
      5.11885      4.42560     11.64308         0.156289      0.327753     -0.181926
      7.69679      4.44374     11.63403        -0.000000      0.014848      0.013431
      3.84839      2.22187     11.52902        -0.000000      0.075970      1.455001
      3.11999      2.21025     13.25039         0.101803     -0.008163     -0.024974
      4.57680      2.21025     13.25039        -0.101803     -0.008163     -0.024974
    total drift:                                0.119816     -0.008245     -0.048493

  FREE ENERGIE OF THE ION-ELECTRON SYSTEM (eV)
  free  energy   TOTEN  =      -140.90191586 eV

  energy  without entropy=     -140.90191586  energy(sigma->0) =     -140.90191586

 stress matrix after NEB project (eV)
     -4.01274      0.00000     -0.00000
      0.00000     -5.43791      0.14453
     -0.00000      0.14453     -0.27137
  FORCES: max atom, RMS     0.105139    0.024120
  FORCE total and by dimension    0.148688    0.101803
  Stress total and by dimension    6.766714    5.437913
|           W    W    AA    RRRRR   N    N  II  N    N   GGGG   !!!           |
|           W    W   A  A   R    R  NN   N  II  NN   N  G    G  !!!           |
|           W    W  A    A  R    R  N N  N  II  N N  N  G       !!!           |
|           W WW W  AAAAAA  RRRRR   N  N N  II  N  N N  G  GGG   !            |
|           WW  WW  A    A  R   R   N   NN  II  N   NN  G    G                |
|           W    W  A    A  R    R  N    N  II  N    N   GGGG   !!!           |
|     Tetrahedron method does not include variations of the Fermi             |
|     occupations, so forces and stress will be inaccurate. We suggest        |
|     using a different smearing scheme ISMEAR = 1 or 2 for metals in         |
|     relaxations.                                                            |

 total charge

# of ion       s       p       d       tot
    1        0.450   0.283   9.189   9.921
    2        0.448   0.285   9.187   9.921
    3        0.448   0.285   9.187   9.921
    4        0.449   0.285   9.186   9.919
    5        0.449   0.286   9.183   9.918
    6        0.449   0.285   9.186   9.919
    7        0.449   0.285   9.186   9.921
    8        0.449   0.285   9.186   9.921
    9        0.447   0.284   9.188   9.919
   10        0.443   0.370   9.177   9.990
   11        0.442   0.367   9.183   9.992
   12        0.443   0.370   9.177   9.990
   13        0.442   0.367   9.183   9.993
   14        0.442   0.367   9.183   9.993
   15        0.439   0.369   9.180   9.987
   16        0.442   0.372   9.177   9.991
   17        0.438   0.370   9.179   9.987
   18        0.438   0.370   9.179   9.987
   19        0.439   0.367   9.184   9.989
   20        0.461   0.393   9.167  10.021
   21        0.461   0.393   9.167  10.021
   22        0.434   0.374   9.180   9.988
   23        0.459   0.401   9.158  10.018
   24        0.434   0.374   9.180   9.988
   25        0.439   0.368   9.182   9.989
   26        0.439   0.368   9.182   9.989
   27        0.435   0.371   9.184   9.989
   28        0.452   0.281   9.191   9.923
   29        0.446   0.290   9.190   9.926
   30        0.446   0.290   9.190   9.926
   31        0.441   0.297   9.190   9.929
   32        0.441   0.297   9.190   9.929
   33        0.444   0.290   9.190   9.925
   34        0.444   0.290   9.190   9.925
   35        0.446   0.284   9.189   9.919
   36        0.357   0.420   5.171   5.948
   37        1.610   3.234   0.000   4.843
   38        1.610   3.234   0.000   4.843
tot         19.142  18.504 326.571 364.217

 BZINTS: Fermi energy:   -0.484934;  404.000000 electrons
         Band energy:-0.141304E+04;  BLOECHL correction:   -0.030574