 vasp.6.2.0 18Jan21 (build Jun 12 2021 23:27:24) complex

 executed on             LinuxIFC date 2022.05.27  05:11:17

 INCAR:
   ISMEAR = -5
   SIGMA = 0.1
   ISPIN = 1
   EDIFF = 1.d-5
   EDIFFG = -0.01
   NSW = 0
   NELM = 150
   ENCUT = 500
   ISIF = 2
   IBRION = 2
   LREAL = Auto
   ALGO = Fast
   ICHARG = 11
   LORBIT = 10
   LCHARG = .F.
   LWAVE = .F.

 POTCAR:    PAW_PBE Au 04Oct2007
 POTCAR:    PAW_PBE Rh 04Feb2005
 POTCAR:    PAW_PBE H 15Jun2001
|           W    W    AA    RRRRR   N    N  II  N    N   GGGG   !!!           |
|           W    W   A  A   R    R  NN   N  II  NN   N  G    G  !!!           |
|           W    W  A    A  R    R  N N  N  II  N N  N  G       !!!           |
|           W WW W  AAAAAA  RRRRR   N  N N  II  N  N N  G  GGG   !            |
|           WW  WW  A    A  R   R   N   NN  II  N   NN  G    G                |
|           W    W  A    A  R    R  N    N  II  N    N   GGGG   !!!           |
|     For optimal performance we recommend to set                             |
|       NCORE = 2 up to number-of-cores-per-socket                            |
|     This setting can greatly improve the performance of VASP for DFT.       |
|     The default, NCORE=1 might be grossly inefficient on modern             |
|     multi-core architectures or massively parallel machines. Do your        |
|     Unfortunately you need to use the default for GW and RPA                |
|     calculations (for HF NCORE is supported but not extensively tested      |
|     yet).                                                                   |

 POTCAR:    PAW_PBE Au 04Oct2007
   VRHFIN =Au: s1d10

   TITEL  = PAW_PBE Au 04Oct2007
   POMASS =  196.966; ZVAL   =   11.000    mass and valenz
   ENMAX  =  229.943; ENMIN  =  172.457 eV

 POTCAR:    PAW_PBE Rh 04Feb2005
   VRHFIN =Rh: s1 d8

   TITEL  = PAW_PBE Rh 04Feb2005
   POMASS =  102.906; ZVAL   =    9.000    mass and valenz
   ENMAX  =  228.996; ENMIN  =  171.747 eV

 POTCAR:    PAW_PBE H 15Jun2001
   VRHFIN =H: ultrasoft test

   TITEL  = PAW_PBE H 15Jun2001
   POMASS =    1.000; ZVAL   =    1.000    mass and valenz
   ENMAX  =  250.000; ENMIN  =  200.000 eV

 Optimization of the real space projectors (new method)

 maximal supplied QI-value         = 15.12
 optimisation between [QCUT,QGAM] = [ 11.34, 22.83] = [ 36.00,145.93] Ry
 Optimized for a Real-space Cutoff    1.39 Angstroem

   l    n(q)    QCUT    max X(q) W(low)/X(q) W(high)/X(q)  e(spline)
   2      9    11.338    60.898    0.39E-03    0.42E-03    0.21E-06
   2      9    11.338    58.894    0.40E-03    0.42E-03    0.22E-06
   0      9    11.338   109.617    0.13E-03    0.20E-04    0.13E-06
   0      9    11.338    75.026    0.13E-03    0.20E-04    0.13E-06
   1      9    11.338    16.344    0.33E-04    0.24E-03    0.18E-06
   1      9    11.338    10.160    0.26E-04    0.19E-03    0.15E-06
 Optimization of the real space projectors (new method)

[...]

   l    n(q)    QCUT    max X(q) W(low)/X(q) W(high)/X(q)  e(spline)
   2      9    11.327    59.645    0.31E-03    0.12E-04    0.28E-06
   2      9    11.327    58.460    0.31E-03    0.12E-04    0.29E-06
   0     10    11.327    97.683    0.32E-04    0.83E-04    0.31E-06
   0     10    11.327    53.223    0.30E-04    0.78E-04    0.29E-06
   1     10    11.327    13.596    0.49E-03    0.95E-03    0.55E-06
   1     10    11.327     7.885    0.36E-03    0.71E-03    0.41E-06
 Optimization of the real space projectors (new method)

 maximal supplied QI-value         = 34.20
 optimisation between [QCUT,QGAM] = [ 11.29, 22.57] = [ 35.68,142.71] Ry
 Optimized for a Real-space Cutoff    1.16 Angstroem

   l    n(q)    QCUT    max X(q) W(low)/X(q) W(high)/X(q)  e(spline)
   0      8    11.287    19.460    0.40E-03    0.73E-03    0.16E-06
   0      8    11.287    12.209    0.38E-03    0.70E-03    0.15E-06
   1      7    11.287     4.655    0.22E-03    0.25E-04    0.22E-06
  PAW_PBE Au 04Oct2007                  :
  PAW_PBE Rh 04Feb2005                  :
  PAW_PBE H 15Jun2001                   :

 POSCAR: Au-Rh-H2
  positions in direct lattice
  velocities in cartesian coordinates
 exchange correlation table for  LEXCH =        8
   RHO(1)=    0.500       N(1)  =     2000
   RHO(2)=  100.500       N(2)  =     4000

 VTST: version 3.2, (02/03/18)

 CHAIN: initializing optimizer

 OPT: Using VASP Conjugate-Gradient optimizer
 CHAIN: Read ICHAIN            0

 POSCAR: Au-Rh-H2
  positions in direct lattice
  velocities in cartesian coordinates

 ion  position               nearest neighbor table
   1  0.000  0.000  0.224-  16 2.94  12 2.94   6 2.94   8 2.94   7 2.94   3 2.94  10 2.94   4 2.94
                             2 2.94
   2  0.333  0.000  0.224-   9 2.94  11 2.94  17 2.94  10 2.94   8 2.94   4 2.94   5 2.94   1 2.94
                             3 2.94
   3  0.667  0.000  0.224-   7 2.94  18 2.94  12 2.94   1 2.94  11 2.94   5 2.94   6 2.94   9 2.94
                             2 2.94
   4  0.000  0.333  0.224-  10 2.94   6 2.94   5 2.94  13 2.94   2 2.94  15 2.94   9 2.94   1 2.94
                             7 2.94
   5  0.333  0.333  0.224-  13 2.94   7 2.94  11 2.94   4 2.94   2 2.94  14 2.94   3 2.94   8 2.94
                             6 2.94
   6  0.667  0.333  0.224-  15 2.94  14 2.94   1 2.94  12 2.94   4 2.94   9 2.94   8 2.94   3 2.94
                             5 2.94
   7  0.000  0.667  0.224-  18 2.94   3 2.94  16 2.94   5 2.94   1 2.94  13 2.94   8 2.94   4 2.94
                             9 2.94
   8  0.333  0.667  0.224-   9 2.94  17 2.94   1 2.94   2 2.94  14 2.94  16 2.94   6 2.94   7 2.94
                             5 2.94
   9  0.667  0.667  0.224-   2 2.94   8 2.94  17 2.94   6 2.94  15 2.94   4 2.94   3 2.94  18 2.94
                             7 2.94
  10  0.111  0.111  0.326-  20 2.91  26 2.93  19 2.93  11 2.94  17 2.94   2 2.94   4 2.94   1 2.94
                            12 2.94  16 2.94  13 2.94  15 2.94
  11  0.444  0.111  0.326-  20 2.91  21 2.91  27 2.93  13 2.94   2 2.94  10 2.94  17 2.94   5 2.94
                             3 2.94  18 2.94  14 2.94  12 2.94
  12  0.778  0.111  0.326-  21 2.91  25 2.93  19 2.93  16 2.94  18 2.94   1 2.94  14 2.94  15 2.94
                             3 2.94   6 2.94  10 2.94  11 2.94
  13  0.111  0.444  0.326-  23 2.91  20 2.91  22 2.93   5 2.94  18 2.94  11 2.94   7 2.94   4 2.94
                            16 2.94  10 2.94  14 2.94  15 2.94
  14  0.444  0.444  0.326-  21 2.91  23 2.91  24 2.93  15 2.94   6 2.94  12 2.94   8 2.94  17 2.94
                             5 2.94  16 2.94  13 2.94  11 2.94
  15  0.778  0.444  0.326-  24 2.93  22 2.93  19 2.93  14 2.94   6 2.94  17 2.94  12 2.94   9 2.94
                             4 2.94  10 2.94  13 2.94  18 2.94
  16  0.111  0.778  0.326-  23 2.91  25 2.93  26 2.93  18 2.94  12 2.94   7 2.94   1 2.94   8 2.94
                            13 2.94  10 2.94  14 2.94  17 2.94
  17  0.444  0.778  0.326-  27 2.93  24 2.93  26 2.93   9 2.94  15 2.94   2 2.94  10 2.94  11 2.94
                             8 2.94  14 2.94  16 2.94  18 2.94
  18  0.778  0.778  0.326-  22 2.93  27 2.93  25 2.93  16 2.94   7 2.94  13 2.94  12 2.94   3 2.94
                            11 2.94   9 2.94  15 2.94  17 2.94
  19  0.889  0.222  0.427-  15 2.93  10 2.93  12 2.93  21 2.94  20 2.94  24 2.94  22 2.94  26 2.94
                            25 2.94  28 2.96  32 2.96  31 2.96
  20  0.222  0.222  0.426-  36 2.79  10 2.91  11 2.91  13 2.91  26 2.94  19 2.94  23 2.94  21 2.94
                            27 2.94  22 2.94  29 2.95  31 2.95
  21  0.556  0.222  0.426-  36 2.79  12 2.91  14 2.91  11 2.91  25 2.94  19 2.94  20 2.94  23 2.94
                            27 2.94  24 2.94  30 2.95  32 2.95
  22  0.888  0.556  0.427-  24 2.92  27 2.92  18 2.93  15 2.93  13 2.93  25 2.94  19 2.94  23 2.94
                            20 2.94  33 2.95  31 2.95  35 2.96
  23  0.222  0.556  0.426-  36 2.79  16 2.91  13 2.91  14 2.91  25 2.94  26 2.94  20 2.94  21 2.94
                            22 2.94  24 2.94  33 2.95  34 2.95
  24  0.556  0.556  0.427-  27 2.92  22 2.92  15 2.93  17 2.93  14 2.93  26 2.94  19 2.94  21 2.94
                            23 2.94  32 2.95  34 2.95  35 2.96
  25  0.889  0.889  0.427-  18 2.93  16 2.93  12 2.93  23 2.94  21 2.94  22 2.94  27 2.94  19 2.94
                            26 2.94  28 2.96  33 2.96  30 2.96
  26  0.222  0.889  0.427-  17 2.93  10 2.93  16 2.93  20 2.94  23 2.94  27 2.94  24 2.94  19 2.94
                            25 2.94  28 2.96  29 2.96  34 2.96
  27  0.556  0.888  0.427-  24 2.92  22 2.92  17 2.93  18 2.93  11 2.93  26 2.94  25 2.94  20 2.94
                            21 2.94  29 2.95  30 2.95  35 2.96
  28  0.000  0.000  0.530-  34 2.95  32 2.95  33 2.95  30 2.95  31 2.95  29 2.95  25 2.96  19 2.96
                            26 2.96
  29  0.333  0.004  0.529-  31 2.90  30 2.90  36 2.91  20 2.95  27 2.95  28 2.95  35 2.96  26 2.96
                            34 3.01
  30  0.663  0.004  0.529-  32 2.90  29 2.90  36 2.91  21 2.95  27 2.95  28 2.95  35 2.96  25 2.96
                            33 3.01
  31  0.004  0.333  0.529-  29 2.90  33 2.90  36 2.91  20 2.95  22 2.95  28 2.95  35 2.96  19 2.96
                            32 3.01
  32  0.663  0.333  0.529-  30 2.90  34 2.90  36 2.91  21 2.95  24 2.95  28 2.95  35 2.96  19 2.96
                            31 3.01
  33  0.004  0.663  0.529-  34 2.90  31 2.90  36 2.91  23 2.95  22 2.95  28 2.95  35 2.96  25 2.96
                            30 3.01
  34  0.333  0.663  0.529-  33 2.90  32 2.90  36 2.91  23 2.95  24 2.95  28 2.95  35 2.96  26 2.96
                            29 3.01
  35  0.667  0.667  0.530-  29 2.96  34 2.96  32 2.96  31 2.96  30 2.96  33 2.96  24 2.96  27 2.96
                            22 2.96
  36  0.333  0.333  0.520-  38 1.67  37 1.67  20 2.79  23 2.79  21 2.79  33 2.91  31 2.91  29 2.91
                            30 2.91  34 2.91  32 2.91
  37  0.281  0.331  0.588-  36 1.67
  38  0.388  0.331  0.588-  36 1.67

  LATTYP: Found a hexagonal cell.
 ALAT       =     8.8135128021
 C/A-ratio  =     2.6749864286

  Lattice vectors:

 A1 = (  -4.4067569092,  -7.6327256898,   0.0000000000)
 A2 = (   8.8135128021,   0.0000000000,   0.0000000000)
 A3 = (   0.0000000000,   0.0000000000,  23.5760271339)

Analysis of symmetry for initial positions (statically):
 Subroutine PRICEL returns:
 Original cell was already a primitive cell.

 Routine SETGRP: Setting up the symmetry group for a
 hexagonal supercell.

 Subroutine GETGRP returns: Found  2 space group operations
 (whereof  2 operations were pure point group operations)
 out of a pool of 24 trial point group operations.

The static configuration has the point symmetry C_1h.

Analysis of symmetry for dynamics (positions and initial velocities):
 Subroutine PRICEL returns:
 Original cell was already a primitive cell.

[...]

The dynamic configuration has the point symmetry C_1h.

Analysis of constrained symmetry for selective dynamics:
 Subroutine PRICEL returns:
 Original cell was already a primitive cell.

 Routine SETGRP: Setting up the symmetry group for a
 hexagonal supercell.

 Subroutine GETGRP returns: Found  2 space group operations
[...]
     33      -4.9482      2.00000
     34      -4.9401      2.00000
     35      -4.8848      2.00000
     36      -4.7881      2.00000
     37      -4.7809      2.00000
     38      -4.7457      2.00000
     39      -4.7170      2.00000
     40      -4.6589      2.00000
     41      -4.6019      2.00000
     42      -4.5807      2.00000
     43      -4.5346      2.00000
     44      -4.5110      2.00000
     45      -4.4905      2.00000
     46      -4.4809      2.00000
     47      -4.3793      2.00000
     48      -4.3519      2.00000
     49      -4.3219      2.00000
     50      -4.3202      2.00000
     51      -4.3087      2.00000
     52      -4.3031      2.00000
     53      -4.2925      2.00000
     54      -4.2494      2.00000
     55      -4.2119      2.00000
     56      -4.1724      2.00000
     57      -4.1536      2.00000
     58      -4.1431      2.00000
     59      -4.1393      2.00000
     60      -4.1339      2.00000
[...]
    238       6.3665      0.00000
    239       6.4000      0.00000
    240       6.4833      0.00000
    241       6.5754      0.00000
    242       6.6034      0.00000
    243       6.7474      0.00000
    244       6.9072      0.00000
    245       7.0054      0.00000
    246       7.0419      0.00000
    247       7.1050      0.00000
    248       7.1182      0.00000
    249       7.1247      0.00000
    250       7.3323      0.00000
    251       7.3785      0.00000
    252       7.5067      0.00000

 soft charge-density along one line, spin component           1
         0         1         2         3         4         5         6         7         8         9
 total charge-density along one line

------------------------ aborting loop because EDIFF is reached ----------------------------------------

 total charge

# of ion       s       p       d       tot
    1        0.544   0.239   8.769   9.552
    2        0.546   0.240   8.765   9.551
    3        0.546   0.240   8.765   9.551
    4        0.546   0.240   8.764   9.551
    5        0.543   0.243   8.759   9.545
    6        0.546   0.240   8.764   9.551
    7        0.546   0.240   8.765   9.551
    8        0.546   0.240   8.765   9.551
    9        0.541   0.239   8.771   9.551
   10        0.519   0.309   8.769   9.596
   11        0.524   0.305   8.781   9.610
   12        0.519   0.309   8.769   9.596
   13        0.523   0.305   8.780   9.609
   14        0.523   0.305   8.780   9.609
   15        0.513   0.308   8.775   9.597
   16        0.518   0.309   8.768   9.596
   17        0.513   0.309   8.775   9.597
   18        0.513   0.309   8.775   9.597
   19        0.518   0.303   8.775   9.596
   20        0.540   0.321   8.760   9.621
   21        0.540   0.321   8.760   9.621
   22        0.509   0.309   8.772   9.590
   23        0.539   0.323   8.759   9.621
   24        0.509   0.309   8.772   9.590
   25        0.519   0.302   8.775   9.596
   26        0.519   0.302   8.775   9.596
   27        0.509   0.309   8.773   9.591
   28        0.543   0.229   8.770   9.542
   29        0.544   0.239   8.766   9.549
   30        0.544   0.239   8.766   9.549
   31        0.541   0.242   8.765   9.548
   32        0.541   0.242   8.765   9.548
   33        0.544   0.239   8.767   9.550
   34        0.544   0.239   8.767   9.550
   35        0.539   0.229   8.772   9.541
   36        0.397   0.471   7.500   8.368
   37        0.522   0.032   0.000   0.554
   38        0.522   0.032   0.000   0.554
tot         20.050  10.166 314.419 344.634

  FORCE on cell =-STRESS in cart. coord.  units (eV):
  Direction    XX          YY          ZZ          XY          YZ          ZX
  Alpha Z   941.98593   941.98593   941.98593
  Ewald  140061.75565140038.26413************    -0.00033    -0.65553    -0.00015
  Hartree148543.15315148537.82175************     0.00000    -0.06973    -0.00004
  E(xc)   -1776.58825 -1776.84886 -1783.37773    -0.00000    -0.01631    -0.00000
  Local  ************************301289.92566     0.00187     0.35873     0.00010
  n-local   -61.39394   -61.84238   -36.94662     4.10971     0.05454     0.14122
  augment  2427.98799  2428.64848  2436.89851    -0.00138     0.10686     0.00003
  Kinetic  5480.14081  5485.55289  5518.42771     1.03202     0.33511     0.08936
  Fock        0.00000     0.00000     0.00000     0.00000     0.00000     0.00000
  Total     -19.79748   -19.92557     1.83283    -0.00000     0.11367     0.00000
  in kB     -19.99959   -20.12899     1.85154    -0.00000     0.11483     0.00000

 VOLUME and BASIS-vectors are now :
  energy-cutoff  :      500.00
  volume of cell :     1585.99
      direct lattice vectors                 reciprocal lattice vectors
     8.813512802  0.000000000  0.000000000     0.113462137 -0.065507406  0.000000000
     4.406756909  7.632725690  0.000000000     0.000000000  0.131014796  0.000000000
     0.000000000  0.000000000 23.576027134     0.000000000  0.000000000  0.042415967

  length of vectors
     8.813512802  8.813512802 23.576027134     0.131014796  0.131014796  0.042415967

 FORCES acting on ions
    electron-ion (+dipol)            ewald-force                    non-local-force                 convergence-correction
   -.199E-04 -.307E-01 0.260E+04   0.519E-04 -.304E-02 -.259E+04   0.485E-09 0.729E-02 -.106E+01   -.203E-03 0.245E-01 -.184E+00
   0.193E+00 0.243E+00 0.259E+04   -.246E+00 -.320E+00 -.259E+04   0.427E-01 0.610E-01 -.305E+00   0.134E-01 0.360E-01 -.274E+00
   -.193E+00 0.243E+00 0.259E+04   0.246E+00 -.320E+00 -.259E+04   -.427E-01 0.610E-01 -.305E+00   -.131E-01 0.380E-01 -.273E+00
   0.325E+00 0.264E-01 0.259E+04   -.398E+00 -.532E-01 -.259E+04   0.719E-01 0.785E-02 -.305E+00   0.154E-01 0.922E-02 -.252E+00
   0.702E-05 -.182E-01 0.260E+04   0.951E-04 0.130E-02 -.260E+04   0.263E-09 0.395E-02 -.152E+00   0.430E-02 0.138E-01 -.268E+00
   -.325E+00 0.264E-01 0.259E+04   0.398E+00 -.533E-01 -.259E+04   -.719E-01 0.785E-02 -.305E+00   -.170E-01 0.102E-01 -.251E+00
   0.146E+00 -.261E+00 0.259E+04   -.152E+00 0.374E+00 -.259E+04   0.207E-01 -.736E-01 -.306E+00   0.462E-02 -.494E-01 -.261E+00
   -.146E+00 -.261E+00 0.259E+04   0.152E+00 0.374E+00 -.259E+04   -.207E-01 -.736E-01 -.306E+00   -.272E-02 -.505E-01 -.261E+00
   0.194E-04 0.397E-01 0.260E+04   0.166E-03 0.180E-02 -.259E+04   -.694E-09 -.104E-01 -.645E+00   -.464E-02 -.319E-01 -.264E+00
   0.337E+01 0.192E+01 0.868E+03   -.299E+01 -.174E+01 -.867E+03   -.301E+00 -.162E+00 -.725E+00   -.551E-01 -.348E-03 -.149E+00
   0.143E-04 0.354E+01 0.871E+03   0.149E-03 -.351E+01 -.871E+03   0.246E-08 0.370E-01 -.340E+00   0.380E-02 -.106E+00 -.167E+00
   -.337E+01 0.192E+01 0.868E+03   0.299E+01 -.174E+01 -.867E+03   0.301E+00 -.162E+00 -.725E+00   0.538E-01 0.114E-02 -.149E+00
   0.307E+01 -.179E+01 0.871E+03   -.302E+01 0.177E+01 -.871E+03   0.399E-01 -.307E-01 -.326E+00   -.119E+00 0.700E-01 -.179E+00
   -.307E+01 -.179E+01 0.871E+03   0.302E+01 0.177E+01 -.871E+03   -.399E-01 -.307E-01 -.326E+00   0.127E+00 0.695E-01 -.179E+00
   0.308E-04 0.769E+00 0.868E+03   0.236E-03 -.786E+00 -.867E+03   0.156E-09 0.235E-02 -.531E+00   -.240E-02 0.174E-02 -.122E+00
   -.216E-04 -.389E+01 0.868E+03   0.162E-03 0.344E+01 -.867E+03   0.244E-07 0.367E+00 -.731E+00   0.294E-03 0.451E-01 -.154E+00
   0.685E+00 -.350E+00 0.868E+03   -.697E+00 0.401E+00 -.867E+03   -.266E-02 -.655E-02 -.518E+00   0.223E-02 -.381E-01 -.119E+00
   -.686E+00 -.350E+00 0.868E+03   0.697E+00 0.401E+00 -.867E+03   0.266E-02 -.655E-02 -.518E+00   -.227E-02 -.361E-01 -.119E+00
   -.407E-04 0.821E+00 -.886E+03   0.537E-04 -.959E+00 0.885E+03   0.255E-08 0.383E-01 0.652E+00   -.506E-03 0.975E-01 0.117E+00
   0.865E+01 0.513E+01 -.861E+03   -.787E+01 -.463E+01 0.861E+03   -.806E+00 -.513E+00 -.876E+00   0.343E-01 0.181E-01 0.369E+00
   -.865E+01 0.513E+01 -.861E+03   0.787E+01 -.463E+01 0.861E+03   0.806E+00 -.513E+00 -.876E+00   -.334E-01 0.200E-01 0.368E+00
   0.961E+00 -.671E+00 -.880E+03   -.119E+01 0.829E+00 0.880E+03   0.236E+00 -.130E+00 0.532E+00   -.368E-02 -.311E-01 0.144E+00
   -.130E-04 -.102E+02 -.861E+03   0.143E-03 0.926E+01 0.862E+03   0.625E-07 0.938E+00 -.846E+00   0.175E-02 -.705E-01 0.364E+00
   -.961E+00 -.671E+00 -.880E+03   0.119E+01 0.829E+00 0.880E+03   -.236E+00 -.130E+00 0.532E+00   -.325E-02 -.306E-01 0.144E+00
   -.718E+00 -.315E+00 -.886E+03   0.803E+00 0.356E+00 0.885E+03   -.181E-01 -.185E-01 0.649E+00   -.646E-01 -.214E-01 0.106E+00
   0.718E+00 -.315E+00 -.886E+03   -.803E+00 0.356E+00 0.885E+03   0.181E-01 -.185E-01 0.649E+00   0.665E-01 -.228E-01 0.106E+00
   0.681E-05 0.111E+01 -.880E+03   0.201E-03 -.144E+01 0.880E+03   0.202E-07 0.303E+00 0.530E+00   -.439E-02 0.255E-01 0.157E+00
   -.915E-05 0.501E+00 -.260E+04   0.268E-04 -.527E+00 0.260E+04   -.170E-08 -.255E-01 0.463E+00   0.159E-03 0.427E-01 0.446E+00
   0.546E+01 0.103E+02 -.259E+04   -.531E+01 -.102E+02 0.259E+04   -.314E+00 -.353E+00 0.534E+00   0.115E+00 0.155E+00 0.409E+00
   -.546E+01 0.103E+02 -.259E+04   0.531E+01 -.102E+02 0.259E+04   0.314E+00 -.353E+00 0.534E+00   -.115E+00 0.157E+00 0.410E+00
   0.126E+02 0.209E-01 -.259E+04   -.125E+02 0.258E-01 0.259E+04   -.416E+00 -.518E-01 0.563E+00   0.145E+00 0.248E-01 0.414E+00
   -.126E+02 0.210E-01 -.259E+04   0.125E+02 0.257E-01 0.259E+04   0.416E+00 -.518E-01 0.563E+00   -.146E+00 0.259E-01 0.413E+00
   0.478E+01 -.100E+02 -.259E+04   -.465E+01 0.989E+01 0.259E+04   -.244E+00 0.421E+00 0.533E+00   0.406E-01 -.176E+00 0.422E+00
   -.478E+01 -.100E+02 -.259E+04   0.465E+01 0.989E+01 0.259E+04   0.244E+00 0.421E+00 0.533E+00   -.386E-01 -.176E+00 0.421E+00
   0.292E-04 -.346E+00 -.260E+04   0.148E-03 0.348E+00 0.260E+04   0.218E-08 0.327E-01 0.558E+00   -.472E-02 -.296E-01 0.418E+00
   -.155E-04 -.111E+01 -.197E+04   0.918E-04 0.112E+01 0.197E+04   0.312E-08 0.469E-01 -.210E+01   0.298E-02 -.170E-01 0.366E+00
   0.173E+02 0.145E+00 -.299E+03   -.200E+02 -.165E+00 0.301E+03   0.270E+01 0.188E-01 -.155E+01   0.186E-01 -.167E-03 -.278E-01
   -.173E+02 0.145E+00 -.299E+03   0.200E+02 -.165E+00 0.301E+03   -.270E+01 0.188E-01 -.155E+01   -.184E-01 -.152E-03 -.279E-01
   -.769E-03 -.761E-01 0.681E+01   0.746E-13 -.137E-12 -.665E-11   0.521E-08 0.783E-01 -.839E+01   0.633E-03 -.280E-02 0.191E+01

 POSITION                                       TOTAL-FORCE (eV/Angst)
      0.00000      0.00000      5.28038        -0.000000     -0.001930     -0.043168
      2.93784      0.00000      5.28038         0.002849      0.020732     -0.012382
      5.87568      0.00000      5.28038        -0.002849      0.020732     -0.012382
      1.46892      2.54424      5.28038         0.015481     -0.009302     -0.016751
      4.40676      2.54424      5.28038         0.000000      0.000860     -0.032074
      7.34459      2.54424      5.28038        -0.015481     -0.009302     -0.016751
      2.93784      5.08848      5.28038         0.018496     -0.010628     -0.014718
      5.87568      5.08848      5.28038        -0.018496     -0.010628     -0.014718
      8.81351      5.08848      5.28038        -0.000000     -0.000880     -0.020562
      1.46892      0.84808      7.67911         0.031752      0.017538      0.090531
      4.40676      0.84808      7.67911        -0.000000     -0.042995      0.015038
      7.34459      0.84808      7.67911        -0.031752      0.017538      0.090531
      2.93784      3.39232      7.67911        -0.032949      0.018259      0.022198
      5.87568      3.39232      7.67911         0.032949      0.018259      0.022198
      8.81351      3.39232      7.67911        -0.000000     -0.012582      0.092354
      4.40676      5.93656      7.67911        -0.000000     -0.038185      0.095762
      7.34459      5.93656      7.67911        -0.011590      0.007797      0.093396
     10.28243      5.93656      7.67911         0.011590      0.007797      0.093396
      8.81351      1.69621     10.07295        -0.000000     -0.001976     -0.001949
      2.93663      1.69546     10.04742         0.008704      0.004325     -0.185502
      5.87688      1.69546     10.04742        -0.008704      0.004325     -0.185502
     10.27557      4.24437     10.06760         0.005133     -0.002530     -0.040422
      4.40676      4.24180     10.04742        -0.000000     -0.037803     -0.169290
      7.35146      4.24437     10.06760        -0.005133     -0.002530     -0.040422
     11.75131      6.78462     10.07295         0.001479     -0.000256     -0.009107
      5.87571      6.78462     10.07295        -0.001479     -0.000256     -0.009107
      8.81351      6.77672     10.06760        -0.000000     -0.000608     -0.039202
      0.00000      0.00000     12.49471        -0.000000     -0.008203     -0.064152
      2.95476      0.03042     12.47845        -0.056483     -0.145946     -0.074995
      5.85875      0.03042     12.47845         0.056483     -0.145946     -0.074995
      1.50372      2.54369     12.47845        -0.147154      0.020329     -0.052525
      7.30979      2.54369     12.47845         0.147154      0.020329     -0.052525
      2.95572      5.05862     12.47845        -0.083592      0.126195     -0.064367
      5.85780      5.05862     12.47845         0.083592      0.126195     -0.064367
      8.81351      5.08848     12.49462         0.000000      0.005006     -0.049396
      4.40676      2.54424     12.26123         0.000000      0.047384      0.739797
      3.93573      2.52348     13.85927         0.015530     -0.000556      0.003064
      4.87779      2.52348     13.85927        -0.015530     -0.000556      0.003064
    total drift:                               -0.000136     -0.000606      0.331436

  FREE ENERGIE OF THE ION-ELECTRON SYSTEM (eV)
  free  energy   TOTEN  =      -120.51094682 eV

  energy  without entropy=     -120.51094682  energy(sigma->0) =     -120.51094682

 stress matrix after NEB project (eV)
    -19.79748     -0.00000      0.00000
     -0.00000    -19.92557      0.11367
      0.00000      0.11367      1.83283
  FORCES: max atom, RMS     0.015840    0.003634
  FORCE total and by dimension    0.022401    0.015530
  Stress total and by dimension   28.148774   19.925566
|           W    W    AA    RRRRR   N    N  II  N    N   GGGG   !!!           |
|           W    W   A  A   R    R  NN   N  II  NN   N  G    G  !!!           |
|           W    W  A    A  R    R  N N  N  II  N N  N  G       !!!           |
|           W WW W  AAAAAA  RRRRR   N  N N  II  N  N N  G  GGG   !            |
|           WW  WW  A    A  R   R   N   NN  II  N   NN  G    G                |
|           W    W  A    A  R    R  N    N  II  N    N   GGGG   !!!           |
|     Tetrahedron method does not include variations of the Fermi             |
|     occupations, so forces and stress will be inaccurate. We suggest        |
|     using a different smearing scheme ISMEAR = 1 or 2 for metals in         |
|     relaxations.                                                            |

 total charge

# of ion       s       p       d       tot
    1        0.544   0.239   8.769   9.552
    2        0.546   0.240   8.765   9.551
    3        0.546   0.240   8.765   9.551
    4        0.546   0.240   8.764   9.551
    5        0.543   0.243   8.759   9.545
    6        0.546   0.240   8.764   9.551
    7        0.546   0.240   8.765   9.551
    8        0.546   0.240   8.765   9.551
    9        0.541   0.239   8.771   9.551
   10        0.519   0.309   8.769   9.596
   11        0.524   0.305   8.781   9.610
   12        0.519   0.309   8.769   9.596
   13        0.523   0.305   8.780   9.609
   14        0.523   0.305   8.780   9.609
   15        0.513   0.308   8.775   9.597
   16        0.518   0.309   8.768   9.596
   17        0.513   0.309   8.775   9.597
   18        0.513   0.309   8.775   9.597
   19        0.518   0.303   8.775   9.596
   20        0.540   0.321   8.760   9.621
   21        0.540   0.321   8.760   9.621
   22        0.509   0.309   8.772   9.590
   23        0.539   0.323   8.759   9.621
   24        0.509   0.309   8.772   9.590
   25        0.519   0.302   8.775   9.596
   26        0.519   0.302   8.775   9.596
   27        0.509   0.309   8.773   9.591
   28        0.543   0.229   8.770   9.542
   29        0.544   0.239   8.766   9.549
   30        0.544   0.239   8.766   9.549
   31        0.541   0.242   8.765   9.548
   32        0.541   0.242   8.765   9.548
   33        0.544   0.239   8.767   9.550
   34        0.544   0.239   8.767   9.550
   35        0.539   0.229   8.772   9.541
   36        0.397   0.471   7.500   8.368
   37        0.522   0.032   0.000   0.554
   38        0.522   0.032   0.000   0.554
tot         20.050  10.166 314.419 344.634

 BZINTS: Fermi energy:    0.447699;  396.000000 electrons
         Band energy:-0.127745E+04;  BLOECHL correction:   -0.085931