 vasp.6.2.0 18Jan21 (build Jun 12 2021 23:27:24) complex

 executed on             LinuxIFC date 2022.05.27  05:06:26

 INCAR:
   ISMEAR = -5
   SIGMA = 0.1
   ISPIN = 1
   EDIFF = 1.d-5
   EDIFFG = -0.01
   NSW = 0
   NELM = 150
   ENCUT = 500
   ISIF = 2
   IBRION = 2
   LREAL = Auto
   ALGO = Fast
   ICHARG = 11
   LORBIT = 10
   LCHARG = .F.
   LWAVE = .F.

 POTCAR:    PAW_PBE Au 04Oct2007
 POTCAR:    PAW_PBE Ni 02Aug2007
 POTCAR:    PAW_PBE H 15Jun2001
|           W    W    AA    RRRRR   N    N  II  N    N   GGGG   !!!           |
|           W    W   A  A   R    R  NN   N  II  NN   N  G    G  !!!           |
|           W    W  A    A  R    R  N N  N  II  N N  N  G       !!!           |
|           W WW W  AAAAAA  RRRRR   N  N N  II  N  N N  G  GGG   !            |
|           WW  WW  A    A  R   R   N   NN  II  N   NN  G    G                |
|           W    W  A    A  R    R  N    N  II  N    N   GGGG   !!!           |
|     For optimal performance we recommend to set                             |
|       NCORE = 2 up to number-of-cores-per-socket                            |
|     This setting can greatly improve the performance of VASP for DFT.       |
|     The default, NCORE=1 might be grossly inefficient on modern             |
|     multi-core architectures or massively parallel machines. Do your        |
|     Unfortunately you need to use the default for GW and RPA                |
|     calculations (for HF NCORE is supported but not extensively tested      |
|     yet).                                                                   |

 POTCAR:    PAW_PBE Au 04Oct2007
   VRHFIN =Au: s1d10

   TITEL  = PAW_PBE Au 04Oct2007
   POMASS =  196.966; ZVAL   =   11.000    mass and valenz
   ENMAX  =  229.943; ENMIN  =  172.457 eV

 POTCAR:    PAW_PBE Ni 02Aug2007
   VRHFIN =Ni:

   TITEL  = PAW_PBE Ni 02Aug2007
   POMASS =   58.690; ZVAL   =   10.000    mass and valenz
   ENMAX  =  269.532; ENMIN  =  202.149 eV

 POTCAR:    PAW_PBE H 15Jun2001
   VRHFIN =H: ultrasoft test

   TITEL  = PAW_PBE H 15Jun2001
   POMASS =    1.000; ZVAL   =    1.000    mass and valenz
   ENMAX  =  250.000; ENMIN  =  200.000 eV

 Optimization of the real space projectors (new method)

 maximal supplied QI-value         = 15.12
 optimisation between [QCUT,QGAM] = [ 11.34, 22.83] = [ 36.00,145.93] Ry
 Optimized for a Real-space Cutoff    1.39 Angstroem

   l    n(q)    QCUT    max X(q) W(low)/X(q) W(high)/X(q)  e(spline)
   2      9    11.338    60.898    0.39E-03    0.42E-03    0.21E-06
   2      9    11.338    58.894    0.40E-03    0.42E-03    0.22E-06
   0      9    11.338   109.617    0.13E-03    0.20E-04    0.13E-06
   0      9    11.338    75.026    0.13E-03    0.20E-04    0.13E-06
   1      9    11.338    16.344    0.33E-04    0.24E-03    0.18E-06
   1      9    11.338    10.160    0.26E-04    0.19E-03    0.15E-06
 Optimization of the real space projectors (new method)

[...]

   l    n(q)    QCUT    max X(q) W(low)/X(q) W(high)/X(q)  e(spline)
   2      8    11.376    60.317    0.19E-03    0.33E-04    0.13E-06
   2      8    11.376    55.921    0.20E-03    0.34E-04    0.14E-06
   0      9    11.376    51.690    0.82E-04    0.12E-03    0.20E-06
   0      9    11.376    30.015    0.74E-04    0.11E-03    0.18E-06
   1      9    11.376    18.849    0.39E-03    0.12E-03    0.13E-06
   1      9    11.376    14.624    0.33E-03    0.10E-03    0.11E-06
 Optimization of the real space projectors (new method)

 maximal supplied QI-value         = 34.20
 optimisation between [QCUT,QGAM] = [ 11.29, 22.57] = [ 35.68,142.71] Ry
 Optimized for a Real-space Cutoff    1.16 Angstroem

   l    n(q)    QCUT    max X(q) W(low)/X(q) W(high)/X(q)  e(spline)
   0      8    11.287    19.460    0.40E-03    0.73E-03    0.16E-06
   0      8    11.287    12.209    0.38E-03    0.70E-03    0.15E-06
   1      7    11.287     4.655    0.22E-03    0.25E-04    0.22E-06
  PAW_PBE Au 04Oct2007                  :
  PAW_PBE Ni 02Aug2007                  :
  PAW_PBE H 15Jun2001                   :

 POSCAR: Au-Ni-H2
  positions in direct lattice
  velocities in cartesian coordinates
 exchange correlation table for  LEXCH =        8
   RHO(1)=    0.500       N(1)  =     2000
   RHO(2)=  100.500       N(2)  =     4000

 VTST: version 3.2, (02/03/18)

 CHAIN: initializing optimizer

 OPT: Using VASP Conjugate-Gradient optimizer
 CHAIN: Read ICHAIN            0

 POSCAR: Au-Ni-H2
  positions in direct lattice
  velocities in cartesian coordinates

 ion  position               nearest neighbor table
   1  0.000  0.000  0.238-  16 2.94  12 2.94   6 2.94   8 2.94   7 2.94   3 2.94  10 2.94   4 2.94
                             2 2.94
   2  0.333  0.000  0.238-   9 2.94  11 2.94  17 2.94  10 2.94   8 2.94   4 2.94   5 2.94   1 2.94
                             3 2.94
   3  0.667  0.000  0.238-   7 2.94  18 2.94  12 2.94   1 2.94  11 2.94   5 2.94   6 2.94   9 2.94
                             2 2.94
   4  0.000  0.333  0.238-  10 2.94   6 2.94   5 2.94  13 2.94   2 2.94  15 2.94   9 2.94   1 2.94
                             7 2.94
   5  0.333  0.333  0.238-  13 2.94   7 2.94  11 2.94   4 2.94   2 2.94  14 2.94   3 2.94   8 2.94
                             6 2.94
   6  0.667  0.333  0.238-  15 2.94  14 2.94   1 2.94  12 2.94   4 2.94   9 2.94   8 2.94   3 2.94
                             5 2.94
   7  0.000  0.667  0.238-  18 2.94   3 2.94  16 2.94   5 2.94   1 2.94  13 2.94   8 2.94   4 2.94
                             9 2.94
   8  0.333  0.667  0.238-   9 2.94  17 2.94   1 2.94   2 2.94  14 2.94  16 2.94   6 2.94   7 2.94
                             5 2.94
   9  0.667  0.667  0.238-   2 2.94   8 2.94  17 2.94   6 2.94  15 2.94   4 2.94   3 2.94  18 2.94
                             7 2.94
  10  0.111  0.111  0.346-  20 2.93  26 2.93  19 2.93  11 2.94  17 2.94   2 2.94   4 2.94   1 2.94
                            12 2.94  16 2.94  13 2.94  15 2.94
  11  0.444  0.111  0.346-  20 2.92  21 2.92  27 2.93  13 2.94   2 2.94  10 2.94  17 2.94   5 2.94
                             3 2.94  18 2.94  14 2.94  12 2.94
  12  0.778  0.111  0.346-  21 2.93  25 2.93  19 2.93  16 2.94  18 2.94   1 2.94  14 2.94  15 2.94
                             3 2.94   6 2.94  10 2.94  11 2.94
  13  0.111  0.444  0.346-  23 2.92  20 2.92  22 2.93   5 2.94  18 2.94  11 2.94   7 2.94   4 2.94
                            16 2.94  10 2.94  14 2.94  15 2.94
  14  0.444  0.444  0.346-  21 2.92  23 2.92  24 2.93  15 2.94   6 2.94  12 2.94   8 2.94  17 2.94
                             5 2.94  16 2.94  13 2.94  11 2.94
  15  0.778  0.444  0.346-  24 2.92  22 2.92  19 2.93  14 2.94   6 2.94  17 2.94  12 2.94   9 2.94
                             4 2.94  10 2.94  13 2.94  18 2.94
  16  0.111  0.778  0.346-  23 2.93  25 2.93  26 2.93  18 2.94  12 2.94   7 2.94   1 2.94   8 2.94
                            13 2.94  10 2.94  14 2.94  17 2.94
  17  0.444  0.778  0.346-  27 2.92  24 2.92  26 2.93   9 2.94  15 2.94   2 2.94  10 2.94  11 2.94
                             8 2.94  14 2.94  16 2.94  18 2.94
  18  0.778  0.778  0.346-  22 2.92  27 2.92  25 2.93  16 2.94   7 2.94  13 2.94  12 2.94   3 2.94
                            11 2.94   9 2.94  15 2.94  17 2.94
  19  0.889  0.222  0.454-  10 2.93  12 2.93  15 2.93  26 2.93  25 2.93  24 2.94  22 2.94  21 2.95
                            20 2.95  28 2.95  32 2.96  31 2.96
  20  0.223  0.223  0.453-  36 2.70  29 2.91  31 2.91  11 2.92  13 2.92  23 2.92  21 2.92  10 2.93
                            27 2.95  22 2.95  26 2.95  19 2.95
  21  0.554  0.223  0.453-  36 2.70  30 2.91  32 2.91  14 2.92  11 2.92  20 2.92  23 2.92  12 2.93
                            27 2.95  24 2.95  25 2.95  19 2.95
  22  0.888  0.556  0.453-  18 2.92  15 2.92  24 2.92  27 2.92  13 2.93  25 2.94  19 2.94  33 2.94
                            31 2.94  23 2.95  20 2.95  35 2.96
  23  0.223  0.554  0.453-  36 2.70  33 2.91  34 2.91  13 2.92  14 2.92  20 2.92  21 2.92  16 2.93
                            22 2.95  24 2.95  25 2.95  26 2.95
  24  0.556  0.556  0.453-  15 2.92  17 2.92  27 2.92  22 2.92  14 2.93  26 2.94  19 2.94  32 2.94
                            34 2.94  21 2.95  23 2.95  35 2.96
  25  0.889  0.889  0.454-  16 2.93  12 2.93  18 2.93  19 2.93  26 2.93  22 2.94  27 2.94  23 2.95
                            21 2.95  28 2.95  33 2.96  30 2.96
  26  0.222  0.889  0.454-  10 2.93  16 2.93  17 2.93  19 2.93  25 2.93  27 2.94  24 2.94  20 2.95
                            23 2.95  28 2.95  29 2.96  34 2.96
  27  0.556  0.888  0.453-  17 2.92  18 2.92  24 2.92  22 2.92  11 2.93  26 2.94  25 2.94  29 2.94
                            30 2.94  20 2.95  21 2.95  35 2.96
  28  0.000  0.000  0.563-  25 2.95  19 2.95  26 2.95  34 2.97  32 2.97  33 2.97  30 2.97  31 2.97
                            29 2.97
  29  0.334  0.007  0.561-  30 2.87  31 2.88  36 2.89  20 2.91  27 2.94  26 2.96  35 2.97  28 2.97
                            34 3.06
  30  0.660  0.007  0.561-  29 2.87  32 2.88  36 2.89  21 2.91  27 2.94  25 2.96  35 2.97  28 2.97
                            33 3.06
  31  0.007  0.334  0.561-  33 2.87  29 2.88  36 2.89  20 2.91  22 2.94  19 2.96  35 2.97  28 2.97
                            32 3.06
  32  0.660  0.334  0.561-  34 2.87  30 2.88  36 2.89  21 2.91  24 2.94  19 2.96  35 2.97  28 2.97
                            31 3.06
  33  0.007  0.660  0.561-  31 2.87  34 2.88  36 2.89  23 2.91  22 2.94  25 2.96  35 2.97  28 2.97
                            30 3.06
  34  0.334  0.660  0.561-  32 2.87  33 2.88  36 2.89  23 2.91  24 2.94  26 2.96  35 2.97  28 2.97
                            29 3.06
  35  0.667  0.667  0.563-  24 2.96  27 2.96  22 2.96  29 2.97  34 2.97  32 2.97  31 2.97  30 2.97
                            33 2.97
  36  0.333  0.333  0.548-  38 1.63  37 1.63  20 2.70  23 2.70  21 2.70  33 2.89  31 2.89  29 2.89
                            30 2.89  34 2.89  32 2.89
  37  0.285  0.333  0.619-  38 0.85  36 1.63
  38  0.382  0.333  0.619-  37 0.85  36 1.63

  LATTYP: Found a hexagonal cell.
 ALAT       =     8.8135128021
 C/A-ratio  =     2.5184286595

  Lattice vectors:

 A1 = (  -4.4067569092,  -7.6327256898,   0.0000000000)
 A2 = (   8.8135128021,   0.0000000000,   0.0000000000)
 A3 = (   0.0000000000,   0.0000000000,  22.1962032318)

Analysis of symmetry for initial positions (statically):
 Subroutine PRICEL returns:
 Original cell was already a primitive cell.

 Routine SETGRP: Setting up the symmetry group for a
 hexagonal supercell.

 Subroutine GETGRP returns: Found  2 space group operations
 (whereof  2 operations were pure point group operations)
 out of a pool of 24 trial point group operations.

The static configuration has the point symmetry C_1h.

Analysis of symmetry for dynamics (positions and initial velocities):
 Subroutine PRICEL returns:
 Original cell was already a primitive cell.

[...]

The dynamic configuration has the point symmetry C_1h.

Analysis of constrained symmetry for selective dynamics:
 Subroutine PRICEL returns:
 Original cell was already a primitive cell.

 Routine SETGRP: Setting up the symmetry group for a
 hexagonal supercell.

 Subroutine GETGRP returns: Found  2 space group operations
[...]
     33      -4.6503      2.00000
     34      -4.6341      2.00000
     35      -4.5339      2.00000
     36      -4.4580      2.00000
     37      -4.4533      2.00000
     38      -4.4501      2.00000
     39      -4.4291      2.00000
     40      -4.3810      2.00000
     41      -4.3016      2.00000
     42      -4.2761      2.00000
     43      -4.2178      2.00000
     44      -4.1945      2.00000
     45      -4.1868      2.00000
     46      -4.1830      2.00000
     47      -4.0721      2.00000
     48      -4.0611      2.00000
     49      -4.0229      2.00000
     50      -4.0166      2.00000
     51      -4.0050      2.00000
     52      -3.9993      2.00000
     53      -3.9792      2.00000
     54      -3.9446      2.00000
     55      -3.9053      2.00000
     56      -3.8754      2.00000
     57      -3.8572      2.00000
     58      -3.8481      2.00000
     59      -3.8322      2.00000
     60      -3.8260      2.00000
[...]
    238       6.5822      0.00000
    239       6.6382      0.00000
    240       6.7277      0.00000
    241       6.8676      0.00000
    242       6.8875      0.00000
    243       7.0901      0.00000
    244       7.1777      0.00000
    245       7.2652      0.00000
    246       7.4574      0.00000
    247       7.4879      0.00000
    248       7.5730      0.00000
    249       7.6320      0.00000
    250       7.7491      0.00000
    251       7.7843      0.00000
    252       7.8872      0.00000

 soft charge-density along one line, spin component           1
         0         1         2         3         4         5         6         7         8         9
 total charge-density along one line

------------------------ aborting loop because EDIFF is reached ----------------------------------------

 total charge

# of ion       s       p       d       tot
    1        0.541   0.240   8.766   9.547
    2        0.545   0.240   8.765   9.550
    3        0.545   0.240   8.765   9.550
    4        0.545   0.240   8.766   9.551
    5        0.542   0.241   8.766   9.549
    6        0.545   0.240   8.766   9.551
    7        0.545   0.240   8.766   9.550
    8        0.545   0.240   8.766   9.550
    9        0.541   0.240   8.768   9.549
   10        0.520   0.307   8.773   9.601
   11        0.523   0.306   8.779   9.609
   12        0.520   0.307   8.773   9.601
   13        0.523   0.307   8.779   9.609
   14        0.523   0.307   8.779   9.609
   15        0.515   0.310   8.776   9.601
   16        0.520   0.308   8.773   9.601
   17        0.515   0.310   8.776   9.601
   18        0.515   0.310   8.776   9.601
   19        0.518   0.301   8.778   9.598
   20        0.536   0.325   8.759   9.620
   21        0.536   0.325   8.759   9.620
   22        0.514   0.310   8.774   9.598
   23        0.535   0.326   8.760   9.620
   24        0.514   0.310   8.774   9.598
   25        0.518   0.301   8.778   9.598
   26        0.518   0.301   8.778   9.598
   27        0.514   0.310   8.774   9.598
   28        0.539   0.226   8.766   9.532
   29        0.547   0.233   8.771   9.551
   30        0.547   0.233   8.771   9.551
   31        0.546   0.236   8.768   9.550
   32        0.546   0.236   8.768   9.550
   33        0.547   0.233   8.771   9.551
   34        0.547   0.233   8.771   9.551
   35        0.540   0.225   8.769   9.535
   36        0.364   0.390   8.399   9.152
   37        0.551   0.032   0.000   0.583
   38        0.551   0.032   0.000   0.583
tot         20.097  10.050 315.368 345.514

  FORCE on cell =-STRESS in cart. coord.  units (eV):
  Direction    XX          YY          ZZ          XY          YZ          ZX
  Alpha Z  1000.24558  1000.24558  1000.24558
  Ewald  120904.47769120879.00889************    -0.00032     0.03815    -0.00014
  Hartree129734.69797129728.84535************     0.00001     0.00472    -0.00004
  E(xc)   -1788.92399 -1789.19413 -1795.55429    -0.00000     0.00024    -0.00000
  Local  ************************263147.22320     0.00207    -0.03526     0.00009
  n-local   -72.99632   -72.03645   -53.97105     3.94132    -0.01516     0.17760
  augment  2546.56940  2547.60068  2552.45942    -0.00154     0.01341     0.00003
  Kinetic  5444.66307  5450.73654  5487.69978     0.79747     0.00092     0.12984
  Fock        0.00000     0.00000     0.00000     0.00000     0.00000     0.00000
  Total     -19.82112   -19.59147     2.37408    -0.00000     0.00702     0.00000
  in kB     -21.26823   -21.02181     2.54741    -0.00000     0.00753     0.00000

 VOLUME and BASIS-vectors are now :
  energy-cutoff  :      500.00
  volume of cell :     1493.16
      direct lattice vectors                 reciprocal lattice vectors
     8.813512802  0.000000000  0.000000000     0.113462137 -0.065507406  0.000000000
     4.406756909  7.632725690  0.000000000     0.000000000  0.131014796  0.000000000
     0.000000000  0.000000000 22.196203232     0.000000000  0.000000000  0.045052750

  length of vectors
     8.813512802  8.813512802 22.196203232     0.131014796  0.131014796  0.045052750

 FORCES acting on ions
    electron-ion (+dipol)            ewald-force                    non-local-force                 convergence-correction
   -.199E-04 0.101E-01 0.249E+04   0.519E-04 -.223E-02 -.249E+04   -.824E-10 -.124E-02 -.955E+00   -.260E-03 -.557E-02 -.796E+00
   0.488E+00 0.480E+00 0.249E+04   -.521E+00 -.466E+00 -.249E+04   0.279E-01 0.221E-01 -.353E+00   0.344E-02 -.261E-01 -.826E+00
   -.488E+00 0.480E+00 0.249E+04   0.521E+00 -.466E+00 -.249E+04   -.279E-01 0.221E-01 -.353E+00   -.310E-02 -.241E-01 -.825E+00
   0.655E+00 0.186E+00 0.249E+04   -.663E+00 -.219E+00 -.249E+04   0.340E-01 0.107E-01 -.354E+00   -.189E-01 0.144E-01 -.837E+00
   0.751E-05 0.425E-02 0.249E+04   0.951E-04 0.319E-04 -.249E+04   -.254E-09 -.381E-02 -.339E+00   0.434E-02 0.703E-03 -.786E+00
   -.655E+00 0.186E+00 0.249E+04   0.663E+00 -.219E+00 -.249E+04   -.340E-01 0.107E-01 -.354E+00   0.173E-01 0.153E-01 -.836E+00
   0.167E+00 -.668E+00 0.249E+04   -.141E+00 0.686E+00 -.249E+04   0.550E-02 -.360E-01 -.356E+00   -.201E-01 0.147E-01 -.837E+00
   -.168E+00 -.668E+00 0.249E+04   0.141E+00 0.686E+00 -.249E+04   -.550E-02 -.360E-01 -.356E+00   0.220E-01 0.136E-01 -.837E+00
   0.196E-04 0.446E-02 0.249E+04   0.166E-03 0.223E-02 -.249E+04   -.399E-09 -.599E-02 -.580E+00   -.462E-02 -.105E-02 -.854E+00
   0.432E+01 0.251E+01 0.841E+03   -.395E+01 -.230E+01 -.840E+03   -.238E+00 -.135E+00 -.607E+00   -.800E-01 -.526E-01 -.319E+00
   0.152E-04 0.569E+01 0.850E+03   0.147E-03 -.568E+01 -.849E+03   0.937E-09 0.141E-01 -.419E+00   0.416E-02 -.534E-01 -.271E+00
   -.432E+01 0.251E+01 0.841E+03   0.395E+01 -.230E+01 -.840E+03   0.238E+00 -.135E+00 -.607E+00   0.784E-01 -.510E-01 -.319E+00
   0.489E+01 -.283E+01 0.850E+03   -.491E+01 0.285E+01 -.849E+03   0.244E-01 -.201E-01 -.417E+00   -.329E-01 0.234E-01 -.271E+00
   -.489E+01 -.283E+01 0.850E+03   0.490E+01 0.285E+01 -.849E+03   -.244E-01 -.201E-01 -.417E+00   0.409E-01 0.226E-01 -.271E+00
   0.308E-04 0.188E+01 0.842E+03   0.237E-03 -.190E+01 -.841E+03   -.133E-08 -.200E-01 -.448E+00   -.261E-02 0.198E-01 -.329E+00
   -.218E-04 -.500E+01 0.841E+03   0.163E-03 0.457E+01 -.840E+03   0.185E-07 0.279E+00 -.598E+00   0.188E-03 0.100E+00 -.317E+00
   0.164E+01 -.969E+00 0.842E+03   -.166E+01 0.963E+00 -.841E+03   -.174E-01 0.142E-01 -.446E+00   0.205E-01 -.104E-02 -.326E+00
   -.164E+01 -.969E+00 0.842E+03   0.166E+01 0.963E+00 -.841E+03   0.174E-01 0.142E-01 -.446E+00   -.202E-01 0.129E-02 -.325E+00
   -.387E-04 0.235E+01 -.846E+03   0.532E-04 -.243E+01 0.845E+03   0.557E-08 0.837E-01 0.669E+00   -.457E-02 -.409E-02 0.551E+00
   0.365E+02 0.212E+02 -.796E+03   -.358E+02 -.208E+02 0.796E+03   -.742E+00 -.443E+00 -.830E+00   0.146E+00 0.703E-01 0.822E+00
   -.365E+02 0.212E+02 -.796E+03   0.358E+02 -.208E+02 0.796E+03   0.742E+00 -.443E+00 -.830E+00   -.144E+00 0.716E-01 0.822E+00
   0.114E+02 -.674E+01 -.833E+03   -.117E+02 0.686E+01 0.832E+03   0.258E+00 -.140E+00 0.582E+00   0.119E-01 0.261E-03 0.596E+00
   -.132E-04 -.422E+02 -.796E+03   0.145E-03 0.416E+02 0.796E+03   0.558E-07 0.839E+00 -.805E+00   0.190E-02 -.165E+00 0.845E+00
   -.114E+02 -.674E+01 -.833E+03   0.117E+02 0.686E+01 0.832E+03   -.258E+00 -.140E+00 0.582E+00   -.187E-01 -.809E-03 0.596E+00
   -.197E+01 -.108E+01 -.846E+03   0.205E+01 0.113E+01 0.845E+03   -.690E-01 -.442E-01 0.694E+00   -.925E-02 -.503E-02 0.564E+00
   0.197E+01 -.108E+01 -.846E+03   -.205E+01 0.113E+01 0.845E+03   0.690E-01 -.442E-01 0.694E+00   0.438E-02 -.722E-02 0.564E+00
   0.101E-04 0.132E+02 -.833E+03   0.198E-03 -.135E+02 0.832E+03   0.202E-07 0.303E+00 0.584E+00   -.298E-02 0.143E-01 0.598E+00
   -.104E-04 0.413E+00 -.250E+04   0.285E-04 -.378E+00 0.250E+04   -.124E-08 -.187E-01 0.465E+00   -.161E-03 -.221E-01 0.804E+00
   0.242E+02 0.404E+02 -.249E+04   -.241E+02 -.403E+02 0.249E+04   -.355E+00 -.520E+00 0.636E+00   0.146E+00 0.198E+00 0.787E+00
   -.242E+02 0.404E+02 -.249E+04   0.241E+02 -.403E+02 0.249E+04   0.355E+00 -.520E+00 0.636E+00   -.145E+00 0.199E+00 0.787E+00
   0.483E+02 0.137E+01 -.249E+04   -.481E+02 -.135E+01 0.249E+04   -.618E+00 -.109E-01 0.592E+00   0.261E+00 0.136E-01 0.793E+00
   -.483E+02 0.137E+01 -.249E+04   0.481E+02 -.135E+01 0.249E+04   0.618E+00 -.109E-01 0.592E+00   -.262E+00 0.143E-01 0.792E+00
   0.218E+02 -.417E+02 -.249E+04   -.217E+02 0.416E+02 0.249E+04   -.331E+00 0.529E+00 0.644E+00   0.126E+00 -.213E+00 0.794E+00
   -.218E+02 -.417E+02 -.249E+04   0.217E+02 0.416E+02 0.249E+04   0.331E+00 0.529E+00 0.644E+00   -.124E+00 -.214E+00 0.793E+00
   0.330E-04 -.416E+00 -.250E+04   0.144E-03 0.374E+00 0.250E+04   0.176E-08 0.265E-01 0.429E+00   -.457E-02 0.177E-01 0.775E+00
   -.370E-04 -.419E-01 -.208E+04   0.105E-03 0.278E-01 0.208E+04   -.268E-10 -.403E-03 0.253E+01   0.991E-02 0.757E-02 0.784E+00
   0.211E+02 -.170E-03 -.296E+03   -.247E+02 -.838E-03 0.297E+03   0.358E+01 0.401E-03 -.118E+01   0.355E-01 0.347E-03 -.367E-01
   -.211E+02 -.164E-03 -.296E+03   0.247E+02 -.838E-03 0.297E+03   -.358E+01 0.401E-03 -.118E+01   -.353E-01 0.356E-03 -.368E-01
   -.763E-03 0.625E-01 0.274E-01   0.110E-12 -.920E-13 0.813E-11   -.339E-08 -.510E-01 -.226E+01   -.439E-04 -.125E-01 0.281E+01

 POSITION                                       TOTAL-FORCE (eV/Angst)
      0.00000      0.00000      5.28038         0.000000      0.001106     -0.037271
      2.93784      0.00000      5.28038        -0.001534      0.010811     -0.040961
      5.87568      0.00000      5.28038         0.001534      0.010811     -0.040961
      1.46892      2.54424      5.28038         0.008174     -0.007621     -0.040160
      4.40676      2.54424      5.28038         0.000000      0.001202     -0.063092
      7.34459      2.54424      5.28038        -0.008174     -0.007621     -0.040160
      2.93784      5.08848      5.28038         0.010509     -0.004472     -0.038453
      5.87568      5.08848      5.28038        -0.010509     -0.004472     -0.038453
      8.81351      5.08848      5.28038        -0.000000     -0.000319     -0.042475
      1.46892      0.84808      7.67911         0.050659      0.029180      0.105041
      4.40676      0.84808      7.67911        -0.000000     -0.031007      0.021667
      7.34459      0.84808      7.67911        -0.050659      0.029180      0.105041
      2.93784      3.39232      7.67911        -0.026190      0.016319      0.024053
      5.87568      3.39232      7.67911         0.026190      0.016319      0.024053
      8.81351      3.39232      7.67911        -0.000000     -0.018922      0.091187
      4.40676      5.93656      7.67911        -0.000000     -0.058387      0.104965
      7.34459      5.93656      7.67911        -0.018694      0.008677      0.091599
     10.28243      5.93656      7.67911         0.018694      0.008677      0.091599
      8.81351      1.69394     10.07055        -0.000000     -0.000281     -0.002127
      2.94670      1.70128     10.05847         0.014470      0.009742     -0.072696
      5.86681      1.70128     10.05847        -0.014470      0.009742     -0.072696
     10.27376      4.24541     10.05945         0.039346     -0.023774     -0.005122
      4.40676      4.23017     10.05847        -0.000000     -0.014130     -0.076826
      7.35327      4.24541     10.05945        -0.039346     -0.023774     -0.005122
     11.75328      6.78576     10.07055         0.004029     -0.000849     -0.006685
      5.87375      6.78576     10.07055        -0.004029     -0.000849     -0.006685
      8.81351      6.77463     10.05945         0.000000      0.048710      0.001787
      0.00000      0.00000     12.48855        -0.000000     -0.005224     -0.019320
      2.97006      0.05170     12.45862        -0.087931     -0.196828     -0.092302
      5.84345      0.05170     12.45862         0.087931     -0.196828     -0.092302
      1.52981      2.54630     12.45862        -0.179162      0.021356     -0.058285
      7.28371      2.54630     12.45862         0.179162      0.021356     -0.058285
      2.96650      5.03473     12.45862        -0.125976      0.178722     -0.091300
      5.84701      5.03473     12.45862         0.125977      0.178722     -0.091300
      8.81351      5.08848     12.49203         0.000000      0.002110     -0.005647
      4.40676      2.54424     12.16149        -0.000000     -0.006932      0.494626
      3.97974      2.54381     13.73231        -0.002328     -0.000227     -0.008466
      4.83377      2.54381     13.73231         0.002328     -0.000227     -0.008466
    total drift:                               -0.000807     -0.001020      0.577943

  FREE ENERGIE OF THE ION-ELECTRON SYSTEM (eV)
  free  energy   TOTEN  =      -118.53595850 eV

  energy  without entropy=     -118.53595850  energy(sigma->0) =     -118.53595850

 stress matrix after NEB project (eV)
    -19.82112     -0.00000      0.00000
     -0.00000    -19.59147      0.00702
      0.00000      0.00702      2.37408
  FORCES: max atom, RMS     0.008784    0.002015
  FORCE total and by dimension    0.012422    0.008466
  Stress total and by dimension   27.970317   19.821116
|           W    W    AA    RRRRR   N    N  II  N    N   GGGG   !!!           |
|           W    W   A  A   R    R  NN   N  II  NN   N  G    G  !!!           |
|           W    W  A    A  R    R  N N  N  II  N N  N  G       !!!           |
|           W WW W  AAAAAA  RRRRR   N  N N  II  N  N N  G  GGG   !            |
|           WW  WW  A    A  R   R   N   NN  II  N   NN  G    G                |
|           W    W  A    A  R    R  N    N  II  N    N   GGGG   !!!           |
|     Tetrahedron method does not include variations of the Fermi             |
|     occupations, so forces and stress will be inaccurate. We suggest        |
|     using a different smearing scheme ISMEAR = 1 or 2 for metals in         |
|     relaxations.                                                            |

 total charge

# of ion       s       p       d       tot
    1        0.541   0.240   8.766   9.547
    2        0.545   0.240   8.765   9.550
    3        0.545   0.240   8.765   9.550
    4        0.545   0.240   8.766   9.551
    5        0.542   0.241   8.766   9.549
    6        0.545   0.240   8.766   9.551
    7        0.545   0.240   8.766   9.550
    8        0.545   0.240   8.766   9.550
    9        0.541   0.240   8.768   9.549
   10        0.520   0.307   8.773   9.601
   11        0.523   0.306   8.779   9.609
   12        0.520   0.307   8.773   9.601
   13        0.523   0.307   8.779   9.609
   14        0.523   0.307   8.779   9.609
   15        0.515   0.310   8.776   9.601
   16        0.520   0.308   8.773   9.601
   17        0.515   0.310   8.776   9.601
   18        0.515   0.310   8.776   9.601
   19        0.518   0.301   8.778   9.598
   20        0.536   0.325   8.759   9.620
   21        0.536   0.325   8.759   9.620
   22        0.514   0.310   8.774   9.598
   23        0.535   0.326   8.760   9.620
   24        0.514   0.310   8.774   9.598
   25        0.518   0.301   8.778   9.598
   26        0.518   0.301   8.778   9.598
   27        0.514   0.310   8.774   9.598
   28        0.539   0.226   8.766   9.532
   29        0.547   0.233   8.771   9.551
   30        0.547   0.233   8.771   9.551
   31        0.546   0.236   8.768   9.550
   32        0.546   0.236   8.768   9.550
   33        0.547   0.233   8.771   9.551
   34        0.547   0.233   8.771   9.551
   35        0.540   0.225   8.769   9.535
   36        0.364   0.390   8.399   9.152
   37        0.551   0.032   0.000   0.583
   38        0.551   0.032   0.000   0.583
tot         20.097  10.050 315.368 345.514

 BZINTS: Fermi energy:    0.751735;  397.000000 electrons
         Band energy:-0.115433E+04;  BLOECHL correction:   -0.075002