 vasp.6.2.0 18Jan21 (build Jun 12 2021 23:27:24) complex

 executed on             LinuxIFC date 2022.05.27  05:19:42

 INCAR:
   ISMEAR = -5
   SIGMA = 0.1
   ISPIN = 1
   EDIFF = 1.d-5
   EDIFFG = -0.01
   NSW = 0
   NELM = 150
   ENCUT = 500
   ISIF = 2
   IBRION = 2
   LREAL = Auto
   ALGO = Fast
   ICHARG = 11
   LORBIT = 10
   LCHARG = .F.
   LWAVE = .F.

 POTCAR:    PAW_PBE Au 04Oct2007
 POTCAR:    PAW_PBE Re 17Jan2003
 POTCAR:    PAW_PBE C 08Apr2002
 POTCAR:    PAW_PBE O 08Apr2002
|           W    W    AA    RRRRR   N    N  II  N    N   GGGG   !!!           |
|           W    W   A  A   R    R  NN   N  II  NN   N  G    G  !!!           |
|           W    W  A    A  R    R  N N  N  II  N N  N  G       !!!           |
|           W WW W  AAAAAA  RRRRR   N  N N  II  N  N N  G  GGG   !            |
|           WW  WW  A    A  R   R   N   NN  II  N   NN  G    G                |
|           W    W  A    A  R    R  N    N  II  N    N   GGGG   !!!           |
|     For optimal performance we recommend to set                             |
|       NCORE = 2 up to number-of-cores-per-socket                            |
|     This setting can greatly improve the performance of VASP for DFT.       |
|     The default, NCORE=1 might be grossly inefficient on modern             |
|     multi-core architectures or massively parallel machines. Do your        |
|     Unfortunately you need to use the default for GW and RPA                |
|     calculations (for HF NCORE is supported but not extensively tested      |
|     yet).                                                                   |

 POTCAR:    PAW_PBE Au 04Oct2007
   VRHFIN =Au: s1d10

   TITEL  = PAW_PBE Au 04Oct2007
   POMASS =  196.966; ZVAL   =   11.000    mass and valenz
   ENMAX  =  229.943; ENMIN  =  172.457 eV

 POTCAR:    PAW_PBE Re 17Jan2003
   VRHFIN =Re: 5p6s5d

   TITEL  = PAW_PBE Re 17Jan2003
   POMASS =  186.207; ZVAL   =    7.000    mass and valenz
   ENMAX  =  226.216; ENMIN  =  169.662 eV

 POTCAR:    PAW_PBE C 08Apr2002
   VRHFIN =C: s2p2

   TITEL  = PAW_PBE C 08Apr2002
   POMASS =   12.011; ZVAL   =    4.000    mass and valenz
   ENMAX  =  400.000; ENMIN  =  300.000 eV

 POTCAR:    PAW_PBE O 08Apr2002
   VRHFIN =O: s2p4

   TITEL  = PAW_PBE O 08Apr2002
   POMASS =   16.000; ZVAL   =    6.000    mass and valenz
   ENMAX  =  400.000; ENMIN  =  300.000 eV

 Optimization of the real space projectors (new method)

 maximal supplied QI-value         = 15.12
 optimisation between [QCUT,QGAM] = [ 11.34, 22.83] = [ 36.00,145.93] Ry
 Optimized for a Real-space Cutoff    1.39 Angstroem

   l    n(q)    QCUT    max X(q) W(low)/X(q) W(high)/X(q)  e(spline)
   2      9    11.338    60.898    0.39E-03    0.42E-03    0.21E-06
   2      9    11.338    58.894    0.40E-03    0.42E-03    0.22E-06
   0      9    11.338   109.617    0.13E-03    0.20E-04    0.13E-06
   0      9    11.338    75.026    0.13E-03    0.20E-04    0.13E-06
   1      9    11.338    16.344    0.33E-04    0.24E-03    0.18E-06
   1      9    11.338    10.160    0.26E-04    0.19E-03    0.15E-06
 Optimization of the real space projectors (new method)

[...]

   l    n(q)    QCUT    max X(q) W(low)/X(q) W(high)/X(q)  e(spline)
   0      7    11.310   115.676    0.43E-03    0.13E-02    0.19E-06
   0      7    11.310    87.132    0.43E-03    0.13E-02    0.18E-06
   1      6    11.310     4.429    0.42E-03    0.74E-03    0.11E-06
   1      6    11.310     2.733    0.34E-03    0.55E-03    0.92E-07
 Optimization of the real space projectors (new method)

 maximal supplied QI-value         = 24.76
 optimisation between [QCUT,QGAM] = [ 11.39, 22.77] = [ 36.31,145.25] Ry
 Optimized for a Real-space Cutoff    1.00 Angstroem

   l    n(q)    QCUT    max X(q) W(low)/X(q) W(high)/X(q)  e(spline)
   0      7    11.387    20.381    0.39E-03    0.13E-02    0.15E-06
   0      7    11.387    15.268    0.42E-03    0.14E-02    0.17E-06
   1      6    11.387     5.964    0.41E-03    0.11E-02    0.17E-06
   1      6    11.387     5.382    0.39E-03    0.87E-03    0.15E-06
  PAW_PBE Au 04Oct2007                  :
  PAW_PBE Re 17Jan2003                  :
  PAW_PBE C 08Apr2002                   :
  PAW_PBE O 08Apr2002                   :

 POSCAR: Au-Re-CO
  positions in direct lattice
  velocities in cartesian coordinates
 exchange correlation table for  LEXCH =        8
   RHO(1)=    0.500       N(1)  =     2000
   RHO(2)=  100.500       N(2)  =     4000

 VTST: version 3.2, (02/03/18)

 CHAIN: initializing optimizer

 OPT: Using VASP Conjugate-Gradient optimizer
 CHAIN: Read ICHAIN            0

 POSCAR: Au-Re-CO
  positions in direct lattice
  velocities in cartesian coordinates

 ion  position               nearest neighbor table
   1  0.000  0.000  0.211-  16 2.94  12 2.94   6 2.94   8 2.94   7 2.94   3 2.94  10 2.94   4 2.94
                             2 2.94
   2  0.333  0.000  0.211-   9 2.94  11 2.94  17 2.94  10 2.94   8 2.94   4 2.94   5 2.94   1 2.94
                             3 2.94
   3  0.667  0.000  0.211-   7 2.94  18 2.94  12 2.94   1 2.94  11 2.94   5 2.94   6 2.94   9 2.94
                             2 2.94
   4  0.000  0.333  0.211-  10 2.94   6 2.94   5 2.94  13 2.94   2 2.94  15 2.94   9 2.94   1 2.94
                             7 2.94
   5  0.333  0.333  0.211-  13 2.94   7 2.94  11 2.94   4 2.94   2 2.94  14 2.94   3 2.94   8 2.94
                             6 2.94
   6  0.667  0.333  0.211-  15 2.94  14 2.94   1 2.94  12 2.94   4 2.94   9 2.94   8 2.94   3 2.94
                             5 2.94
   7  0.000  0.667  0.211-  18 2.94   3 2.94  16 2.94   5 2.94   1 2.94  13 2.94   8 2.94   4 2.94
                             9 2.94
   8  0.333  0.667  0.211-   9 2.94  17 2.94   1 2.94   2 2.94  14 2.94  16 2.94   6 2.94   7 2.94
                             5 2.94
   9  0.667  0.667  0.211-   2 2.94   8 2.94  17 2.94   6 2.94  15 2.94   4 2.94   3 2.94  18 2.94
                             7 2.94
  10  0.111  0.111  0.307-  20 2.90  11 2.94  17 2.94   2 2.94   4 2.94   1 2.94  12 2.94  16 2.94
                            13 2.94  15 2.94  26 2.96  19 2.96
  11  0.444  0.111  0.307-  20 2.91  21 2.91  13 2.94   2 2.94  10 2.94  17 2.94   5 2.94   3 2.94
                            18 2.94  14 2.94  12 2.94  27 2.94
  12  0.778  0.111  0.307-  21 2.90  16 2.94  18 2.94   1 2.94  14 2.94  15 2.94   3 2.94   6 2.94
                            10 2.94  11 2.94  25 2.96  19 2.96
  13  0.111  0.444  0.307-  23 2.91  20 2.91   5 2.94  18 2.94  11 2.94   7 2.94   4 2.94  16 2.94
                            10 2.94  14 2.94  15 2.94  22 2.94
  14  0.444  0.444  0.307-  21 2.91  23 2.91  15 2.94   6 2.94  12 2.94   8 2.94  17 2.94   5 2.94
                            16 2.94  13 2.94  11 2.94  24 2.94
  15  0.778  0.444  0.307-  24 2.92  22 2.92  14 2.94   6 2.94  17 2.94  12 2.94   9 2.94   4 2.94
                            10 2.94  13 2.94  18 2.94  19 2.95
  16  0.111  0.778  0.307-  23 2.90  18 2.94  12 2.94   7 2.94   1 2.94   8 2.94  13 2.94  10 2.94
                            14 2.94  17 2.94  25 2.96  26 2.96
  17  0.444  0.778  0.307-  27 2.92  24 2.92   9 2.94  15 2.94   2 2.94  10 2.94  11 2.94   8 2.94
                            14 2.94  16 2.94  18 2.94  26 2.95
  18  0.778  0.778  0.307-  22 2.92  27 2.92  16 2.94   7 2.94  13 2.94  12 2.94   3 2.94  11 2.94
                             9 2.94  15 2.94  17 2.94  25 2.95
  19  0.888  0.224  0.404-  24 2.93  22 2.93  21 2.93  20 2.93  28 2.94  15 2.95  26 2.96  25 2.96
                            10 2.96  12 2.96  32 3.02  31 3.02
  20  0.222  0.222  0.401-  36 2.75  10 2.90  11 2.91  13 2.91  26 2.93  19 2.93  23 2.95  21 2.95
                            27 2.96  22 2.96  29 2.97  31 2.97
  21  0.556  0.222  0.401-  36 2.75  12 2.90  14 2.91  11 2.91  25 2.93  19 2.93  20 2.95  23 2.95
                            27 2.96  24 2.96  30 2.97  32 2.97
  22  0.886  0.557  0.403-  24 2.90  27 2.90  18 2.92  15 2.92  25 2.93  19 2.93  13 2.94  35 2.95
                            23 2.96  20 2.96  33 3.00  31 3.00
  23  0.222  0.556  0.401-  36 2.75  16 2.90  13 2.91  14 2.91  25 2.93  26 2.93  20 2.95  21 2.95
                            22 2.96  24 2.96  33 2.97  34 2.97
  24  0.557  0.557  0.403-  27 2.90  22 2.90  15 2.92  17 2.92  26 2.93  19 2.93  14 2.94  35 2.95
                            21 2.96  23 2.96  32 3.00  34 3.00
  25  0.888  0.888  0.404-  22 2.93  27 2.93  23 2.93  21 2.93  28 2.94  18 2.95  19 2.96  26 2.96
                            16 2.96  12 2.96  33 3.02  30 3.02
  26  0.224  0.888  0.404-  27 2.93  24 2.93  20 2.93  23 2.93  28 2.94  17 2.95  19 2.96  25 2.96
                            10 2.96  16 2.96  29 3.02  34 3.02
  27  0.557  0.886  0.403-  24 2.90  22 2.90  17 2.92  18 2.92  26 2.93  25 2.93  11 2.94  35 2.95
                            20 2.96  21 2.96  29 3.00  30 3.00
  28  0.000  0.000  0.500-  25 2.94  19 2.94  26 2.94  34 2.99  32 2.99  33 2.99  30 2.99  31 2.99
                            29 2.99
  29  0.333  0.011  0.501-  30 2.84  31 2.84  36 2.86  20 2.97  35 2.99  28 2.99  27 3.00  26 3.02
                            34 3.14
  30  0.655  0.011  0.501-  29 2.84  32 2.84  36 2.86  21 2.97  35 2.99  28 2.99  27 3.00  25 3.02
                            33 3.14
  31  0.011  0.333  0.501-  33 2.84  29 2.84  36 2.86  20 2.97  35 2.99  28 2.99  22 3.00  19 3.02
                            32 3.14
  32  0.655  0.333  0.501-  34 2.84  30 2.84  36 2.86  21 2.97  35 2.99  28 2.99  24 3.00  19 3.02
                            31 3.14
  33  0.011  0.655  0.501-  31 2.84  34 2.84  36 2.86  23 2.97  35 2.99  28 2.99  22 3.00  25 3.02
                            30 3.14
  34  0.333  0.655  0.501-  32 2.84  33 2.84  36 2.86  23 2.97  35 2.99  28 2.99  24 3.00  26 3.02
                            29 3.14
  35  0.667  0.667  0.500-  24 2.95  27 2.95  22 2.95  29 2.99  34 2.99  32 2.99  31 2.99  30 2.99
                            33 2.99
  36  0.333  0.333  0.488-  37 1.92  20 2.75  23 2.75  21 2.75  33 2.86  31 2.86  29 2.86  30 2.86
                            34 2.86  32 2.86
  37  0.333  0.333  0.565-  38 1.17  36 1.92
  38  0.333  0.333  0.612-  37 1.17

  LATTYP: Found a hexagonal cell.
 ALAT       =     8.8135128021
 C/A-ratio  =     2.8377666113

  Lattice vectors:

 A1 = (  -4.4067569092,  -7.6327256898,   0.0000000000)
 A2 = (   8.8135128021,   0.0000000000,   0.0000000000)
 A3 = (   0.0000000000,   0.0000000000,  25.0106923578)

Analysis of symmetry for initial positions (statically):
 Subroutine PRICEL returns:
 Original cell was already a primitive cell.

 Routine SETGRP: Setting up the symmetry group for a
 hexagonal supercell.

 Subroutine GETGRP returns: Found  6 space group operations
 (whereof  6 operations were pure point group operations)
 out of a pool of 24 trial point group operations.

The static configuration has the point symmetry C_3v.

Analysis of symmetry for dynamics (positions and initial velocities):
 Subroutine PRICEL returns:
 Original cell was already a primitive cell.

[...]

The dynamic configuration has the point symmetry C_3v.

Analysis of constrained symmetry for selective dynamics:
 Subroutine PRICEL returns:
[...]
     33      -5.5325      2.00000
     34      -5.4961      2.00000
     35      -5.4832      2.00000
     36      -5.4801      2.00000
     37      -5.4204      2.00000
     38      -5.4076      2.00000
     39      -5.4039      2.00000
     40      -5.3410      2.00000
     41      -5.3252      2.00000
     42      -5.2013      2.00000
     43      -5.2008      2.00000
     44      -5.1349      2.00000
     45      -5.0834      2.00000
     46      -5.0484      2.00000
     47      -4.9983      2.00000
     48      -4.9881      2.00000
     49      -4.9750      2.00000
     50      -4.9629      2.00000
     51      -4.8673      2.00000
     52      -4.8359      2.00000
     53      -4.8213      2.00000
     54      -4.8024      2.00000
     55      -4.7776      2.00000
     56      -4.7720      2.00000
     57      -4.7699      2.00000
     58      -4.7366      2.00000
     59      -4.6989      2.00000
     60      -4.6661      2.00000
[...]
    238       5.4430      0.00000
    239       5.7302      0.00000
    240       5.7825      0.00000
    241       5.8573      0.00000
    242       5.9158      0.00000
    243       5.9308      0.00000
    244       6.0851      0.00000
    245       6.1136      0.00000
    246       6.1531      0.00000
    247       6.2124      0.00000
    248       6.2507      0.00000
    249       6.5721      0.00000
    250       6.6228      0.00000
    251       6.7436      0.00000
    252       6.8128      0.00000

 soft charge-density along one line, spin component           1
         0         1         2         3         4         5         6         7         8         9
 total charge-density along one line

------------------------ aborting loop because EDIFF is reached ----------------------------------------

 total charge

# of ion       s       p       d       tot
    1        0.545   0.237   8.768   9.551
    2        0.545   0.240   8.764   9.549
    3        0.545   0.240   8.764   9.549
    4        0.545   0.240   8.764   9.549
    5        0.544   0.242   8.758   9.544
    6        0.545   0.240   8.764   9.549
    7        0.545   0.240   8.764   9.549
    8        0.545   0.240   8.764   9.549
    9        0.542   0.238   8.770   9.550
   10        0.523   0.307   8.766   9.596
   11        0.525   0.306   8.781   9.612
   12        0.523   0.307   8.766   9.596
   13        0.525   0.306   8.781   9.612
   14        0.525   0.306   8.781   9.612
   15        0.514   0.308   8.775   9.598
   16        0.523   0.307   8.766   9.596
   17        0.514   0.308   8.775   9.598
   18        0.514   0.308   8.775   9.598
   19        0.516   0.295   8.773   9.583
   20        0.560   0.339   8.743   9.642
   21        0.560   0.339   8.743   9.642
   22        0.506   0.307   8.777   9.590
   23        0.560   0.339   8.743   9.642
   24        0.506   0.307   8.777   9.590
   25        0.516   0.295   8.773   9.583
   26        0.516   0.295   8.773   9.583
   27        0.506   0.307   8.777   9.590
   28        0.538   0.225   8.762   9.524
   29        0.562   0.251   8.743   9.556
   30        0.562   0.251   8.743   9.556
   31        0.562   0.251   8.743   9.556
   32        0.562   0.251   8.743   9.556
   33        0.562   0.251   8.743   9.556
   34        0.562   0.251   8.743   9.556
   35        0.534   0.226   8.761   9.520
   36        0.527   0.505   4.785   5.817
   37        0.955   1.570   0.000   2.525
   38        1.611   3.531   0.000   5.142
tot         21.868  15.308 311.491 348.666

  FORCE on cell =-STRESS in cart. coord.  units (eV):
  Direction    XX          YY          ZZ          XY          YZ          ZX
  Alpha Z   928.27672   928.27672   928.27672
  Ewald  158513.35157158513.35201************    -0.00031    -0.00008    -0.00013
  Hartree166948.17333166948.17333************     0.00001    -0.00002    -0.00004
  E(xc)   -1803.76938 -1803.76946 -1811.20387     0.00007    -0.00001    -0.00001
  Local  ************************337564.59236     0.00205     0.00001    -0.00000
  n-local  -121.57190   -70.77050   -73.08696    24.88744    -1.57610     1.52457
  augment  2378.96364  2378.96513  2398.66112    -0.00129     0.00003     0.00006
  Kinetic  5630.20971  5644.04741  5667.96833     7.90022    -0.14201     0.63410
  Fock        0.00000     0.00000     0.00000     0.00000     0.00000     0.00000
  Total     -22.70022   -22.70022     2.70046    -0.00000     0.00000     0.00000
  in kB     -21.61654   -21.61654     2.57155    -0.00000     0.00000     0.00000

 VOLUME and BASIS-vectors are now :
  energy-cutoff  :      500.00
  volume of cell :     1682.50
      direct lattice vectors                 reciprocal lattice vectors
     8.813512802  0.000000000  0.000000000     0.113462137 -0.065507406  0.000000000
     4.406756909  7.632725690  0.000000000     0.000000000  0.131014796  0.000000000
     0.000000000  0.000000000 25.010692358     0.000000000  0.000000000  0.039982900

  length of vectors
     8.813512802  8.813512802 25.010692358     0.131014796  0.131014796  0.039982900

 FORCES acting on ions
    electron-ion (+dipol)            ewald-force                    non-local-force                 convergence-correction
   -.202E-04 -.165E-04 0.270E+04   0.520E-04 0.434E-04 -.270E+04   0.357E-17 0.623E-18 -.943E+00   -.161E-03 -.106E-03 -.769E-01
   0.743E+00 0.252E+00 0.271E+04   -.813E+00 -.349E+00 -.270E+04   0.567E-01 0.797E-01 -.192E+00   0.192E-01 0.324E-01 -.144E+00
   -.743E+00 0.252E+00 0.271E+04   0.813E+00 -.349E+00 -.270E+04   -.567E-01 0.797E-01 -.192E+00   -.190E-01 0.342E-01 -.143E+00
   0.590E+00 0.517E+00 0.271E+04   -.709E+00 -.529E+00 -.270E+04   0.974E-01 0.926E-02 -.192E+00   0.377E-01 0.385E-03 -.144E+00
   0.966E-05 -.228E-04 0.271E+04   0.951E-04 0.175E-05 -.271E+04   -.552E-17 -.744E-18 -.352E-01   0.418E-02 0.255E-02 -.166E+00
   -.590E+00 0.517E+00 0.271E+04   0.709E+00 -.529E+00 -.270E+04   -.974E-01 0.926E-02 -.192E+00   -.391E-01 0.134E-02 -.143E+00
   -.153E+00 -.769E+00 0.271E+04   0.104E+00 0.879E+00 -.270E+04   0.407E-01 -.890E-01 -.192E+00   0.202E-01 -.335E-01 -.143E+00
   0.153E+00 -.769E+00 0.271E+04   -.104E+00 0.879E+00 -.270E+04   -.407E-01 -.890E-01 -.192E+00   -.184E-01 -.345E-01 -.143E+00
   0.200E-04 -.413E-04 0.271E+04   0.166E-03 -.201E-04 -.271E+04   0.305E-19 -.177E-17 -.616E+00   -.457E-02 -.236E-02 -.162E+00
   0.824E+01 0.476E+01 0.924E+03   -.778E+01 -.449E+01 -.923E+03   -.406E+00 -.234E+00 -.747E+00   -.605E-01 -.350E-01 0.190E+00
   0.153E-04 0.460E+01 0.932E+03   0.148E-03 -.472E+01 -.932E+03   0.698E-08 0.105E+00 -.262E+00   0.354E-02 -.575E-01 0.185E+00
   -.824E+01 0.476E+01 0.924E+03   0.778E+01 -.449E+01 -.923E+03   0.406E+00 -.234E+00 -.747E+00   0.596E-01 -.344E-01 0.189E+00
   0.399E+01 -.230E+01 0.932E+03   -.409E+01 0.236E+01 -.932E+03   0.909E-01 -.525E-01 -.262E+00   -.477E-01 0.321E-01 0.185E+00
   -.399E+01 -.230E+01 0.932E+03   0.409E+01 0.236E+01 -.932E+03   -.909E-01 -.525E-01 -.262E+00   0.547E-01 0.315E-01 0.183E+00
   0.310E-04 0.516E+01 0.928E+03   0.236E-03 -.526E+01 -.928E+03   0.267E-08 0.401E-01 -.520E+00   -.170E-02 -.663E-02 0.247E+00
   -.213E-04 -.951E+01 0.924E+03   0.163E-03 0.898E+01 -.923E+03   0.312E-07 0.468E+00 -.747E+00   -.176E-03 0.688E-01 0.189E+00
   0.447E+01 -.258E+01 0.928E+03   -.455E+01 0.263E+01 -.928E+03   0.347E-01 -.200E-01 -.520E+00   -.634E-02 0.227E-02 0.247E+00
   -.447E+01 -.258E+01 0.928E+03   0.455E+01 0.263E+01 -.928E+03   -.347E-01 -.200E-01 -.520E+00   0.655E-02 0.353E-02 0.247E+00
   -.434E-04 0.415E+01 -.890E+03   0.543E-04 -.425E+01 0.889E+03   0.124E-08 0.186E-01 0.608E+00   0.509E-02 0.814E-01 0.517E+00
   0.950E+01 0.549E+01 -.837E+03   -.855E+01 -.494E+01 0.837E+03   -.117E+01 -.678E+00 -.122E+01   0.106E+00 0.613E-01 0.847E+00
   -.950E+01 0.549E+01 -.837E+03   0.855E+01 -.494E+01 0.837E+03   0.117E+01 -.678E+00 -.122E+01   -.114E+00 0.618E-01 0.846E+00
   -.515E+01 0.298E+01 -.867E+03   0.463E+01 -.267E+01 0.866E+03   0.521E+00 -.301E+00 0.677E+00   0.270E-01 -.168E-01 0.581E+00
   -.105E-04 -.110E+02 -.837E+03   0.140E-03 0.987E+01 0.837E+03   0.903E-07 0.136E+01 -.122E+01   -.369E-02 -.130E+00 0.846E+00
   0.515E+01 0.298E+01 -.867E+03   -.463E+01 -.267E+01 0.866E+03   -.521E+00 -.301E+00 0.677E+00   -.259E-01 -.149E-01 0.580E+00
   -.360E+01 -.208E+01 -.890E+03   0.368E+01 0.213E+01 0.889E+03   -.161E-01 -.928E-02 0.608E+00   -.661E-01 -.382E-01 0.516E+00
   0.360E+01 -.208E+01 -.890E+03   -.368E+01 0.213E+01 0.889E+03   0.161E-01 -.928E-02 0.608E+00   0.734E-01 -.363E-01 0.517E+00
   0.100E-04 -.595E+01 -.867E+03   0.197E-03 0.535E+01 0.866E+03   0.400E-07 0.602E+00 0.677E+00   -.154E-02 0.317E-01 0.581E+00
   -.154E-04 -.138E-04 -.261E+04   0.306E-04 0.346E-04 0.261E+04   0.514E-17 0.418E-18 0.652E+00   0.155E-02 0.879E-03 0.505E+00
   0.332E+02 0.568E+02 -.260E+04   -.325E+02 -.558E+02 0.260E+04   -.949E+00 -.141E+01 0.242E+00   0.197E+00 0.271E+00 0.406E+00
   -.332E+02 0.568E+02 -.260E+04   0.325E+02 -.558E+02 0.260E+04   0.949E+00 -.141E+01 0.242E+00   -.204E+00 0.272E+00 0.407E+00
   0.658E+02 0.355E+00 -.260E+04   -.646E+02 -.259E+00 0.260E+04   -.169E+01 -.118E+00 0.242E+00   0.333E+00 0.356E-01 0.406E+00
   -.658E+02 0.355E+00 -.260E+04   0.646E+02 -.259E+00 0.260E+04   0.169E+01 -.118E+00 0.242E+00   -.340E+00 0.368E-01 0.408E+00
   0.326E+02 -.571E+02 -.260E+04   -.321E+02 0.561E+02 0.260E+04   -.745E+00 0.153E+01 0.242E+00   0.134E+00 -.313E+00 0.407E+00
   -.326E+02 -.571E+02 -.260E+04   0.321E+02 0.561E+02 0.260E+04   0.745E+00 0.153E+01 0.242E+00   -.138E+00 -.313E+00 0.408E+00
   0.346E-04 -.276E-04 -.261E+04   0.140E-03 -.503E-04 0.261E+04   -.152E-18 0.644E-17 0.685E+00   -.325E-02 -.158E-02 0.427E+00
   -.466E-05 -.366E-05 -.143E+04   0.737E-04 0.671E-05 0.143E+04   0.132E-17 -.313E-18 -.111E+01   0.138E-02 0.828E-03 0.369E+00
   -.451E-05 -.848E-04 -.934E+03   0.143E-04 0.917E-06 0.919E+03   0.531E-18 -.505E-19 0.147E+02   0.128E-02 0.775E-03 -.225E+00
   0.242E-03 -.916E-04 -.170E+04   0.508E-05 0.512E-06 0.176E+04   0.119E-18 0.974E-19 -.593E+02   0.375E-02 0.229E-02 -.185E+00
   -.546E-03 -.944E-03 0.411E+02   0.441E-13 0.205E-12 -.273E-11   0.113E-15 0.618E-17 -.500E+02   -.462E-02 -.194E-02 0.976E+01

 POSITION                                       TOTAL-FORCE (eV/Angst)
      0.00000      0.00000      5.28038         0.000000      0.000000     -0.114061
      2.93784      0.00000      5.28038         0.005888      0.016111     -0.046523
      5.87568      0.00000      5.28038        -0.005888      0.016111     -0.046523
      1.46892      2.54424      5.28038         0.016896     -0.002956     -0.046523
      4.40676      2.54424      5.28038         0.000000      0.000000     -0.096527
      7.34459      2.54424      5.28038        -0.016896     -0.002956     -0.046523
      2.93784      5.08848      5.28038         0.011008     -0.013154     -0.046523
      5.87568      5.08848      5.28038        -0.011008     -0.013154     -0.046523
      8.81351      5.08848      5.28038         0.000000      0.000000     -0.059279
      1.46892      0.84808      7.67911        -0.005530     -0.003193      0.135745
      4.40676      0.84808      7.67911        -0.000000     -0.071571      0.018097
      7.34459      0.84808      7.67911         0.005530     -0.003193      0.135745
      2.93784      3.39232      7.67911        -0.061982      0.035785      0.018097
      5.87568      3.39232      7.67911         0.061982      0.035785      0.018097
      8.81351      3.39232      7.67911        -0.000000     -0.064900      0.093649
      4.40676      5.93656      7.67911         0.000000      0.006386      0.135745
      7.34459      5.93656      7.67911        -0.056205      0.032450      0.093649
     10.28243      5.93656      7.67911         0.056205      0.032450      0.093649
      8.81351      1.70659     10.09931         0.000000      0.001142      0.032020
      2.93410      1.69400     10.03753        -0.111563     -0.064411     -0.285921
      5.87941      1.69400     10.03753         0.111563     -0.064411     -0.285921
     10.26439      4.25082     10.06692         0.025202     -0.014550      0.004555
      4.40676      4.24472     10.03753         0.000000      0.128822     -0.285921
      7.36264      4.25082     10.06692        -0.025202     -0.014550      0.004555
     11.74232      6.77943     10.09931        -0.000989     -0.000571      0.032020
      5.88471      6.77943     10.09931         0.000989     -0.000571      0.032020
      8.81351      6.76381     10.06692         0.000000      0.029100      0.004555
      0.00000      0.00000     12.49835         0.000000      0.000000     -0.075021
      2.98825      0.08685     12.53577        -0.083124     -0.174718     -0.123198
      5.82526      0.08685     12.53577         0.083124     -0.174718     -0.123198
      1.56934      2.54447     12.53577        -0.192872      0.015372     -0.123198
      7.24417      2.54447     12.53577         0.192872      0.015372     -0.123198
      2.98785      5.00140     12.53577        -0.109748      0.159346     -0.123198
      5.82567      5.00140     12.53577         0.109748      0.159346     -0.123198
      8.81351      5.08848     12.49628         0.000000      0.000000     -0.008844
      4.40676      2.54424     12.20474         0.000000      0.000000      1.358340
      4.40676      2.54424     14.12704         0.000000      0.000000      0.025746
      4.40676      2.54424     15.29796         0.000000      0.000000     -0.006469
    total drift:                               -0.005169     -0.002886      0.823051

  FREE ENERGIE OF THE ION-ELECTRON SYSTEM (eV)
  free  energy   TOTEN  =      -133.30783725 eV

  energy  without entropy=     -133.30783725  energy(sigma->0) =     -133.30783725

 stress matrix after NEB project (eV)
    -22.70022     -0.00000      0.00000
     -0.00000    -22.70022     -0.00000
     -0.00000      0.00000      2.70046
  FORCES: max atom, RMS     0.025746    0.004306
  FORCE total and by dimension    0.026547    0.025746
  Stress total and by dimension   32.216339   22.700222
|           W    W    AA    RRRRR   N    N  II  N    N   GGGG   !!!           |
|           W    W   A  A   R    R  NN   N  II  NN   N  G    G  !!!           |
|           W    W  A    A  R    R  N N  N  II  N N  N  G       !!!           |
|           W WW W  AAAAAA  RRRRR   N  N N  II  N  N N  G  GGG   !            |
|           WW  WW  A    A  R   R   N   NN  II  N   NN  G    G                |
|           W    W  A    A  R    R  N    N  II  N    N   GGGG   !!!           |
|     Tetrahedron method does not include variations of the Fermi             |
|     occupations, so forces and stress will be inaccurate. We suggest        |
|     using a different smearing scheme ISMEAR = 1 or 2 for metals in         |
|     relaxations.                                                            |

 total charge

# of ion       s       p       d       tot
    1        0.545   0.237   8.768   9.551
    2        0.545   0.240   8.764   9.549
    3        0.545   0.240   8.764   9.549
    4        0.545   0.240   8.764   9.549
    5        0.544   0.242   8.758   9.544
    6        0.545   0.240   8.764   9.549
    7        0.545   0.240   8.764   9.549
    8        0.545   0.240   8.764   9.549
    9        0.542   0.238   8.770   9.550
   10        0.523   0.307   8.766   9.596
   11        0.525   0.306   8.781   9.612
   12        0.523   0.307   8.766   9.596
   13        0.525   0.306   8.781   9.612
   14        0.525   0.306   8.781   9.612
   15        0.514   0.308   8.775   9.598
   16        0.523   0.307   8.766   9.596
   17        0.514   0.308   8.775   9.598
   18        0.514   0.308   8.775   9.598
   19        0.516   0.295   8.773   9.583
   20        0.560   0.339   8.743   9.642
   21        0.560   0.339   8.743   9.642
   22        0.506   0.307   8.777   9.590
   23        0.560   0.339   8.743   9.642
   24        0.506   0.307   8.777   9.590
   25        0.516   0.295   8.773   9.583
   26        0.516   0.295   8.773   9.583
   27        0.506   0.307   8.777   9.590
   28        0.538   0.225   8.762   9.524
   29        0.562   0.251   8.743   9.556
   30        0.562   0.251   8.743   9.556
   31        0.562   0.251   8.743   9.556
   32        0.562   0.251   8.743   9.556
   33        0.562   0.251   8.743   9.556
   34        0.562   0.251   8.743   9.556
   35        0.534   0.226   8.761   9.520
   36        0.527   0.505   4.785   5.817
   37        0.955   1.570   0.000   2.525
   38        1.611   3.531   0.000   5.142
tot         21.868  15.308 311.491 348.666

 BZINTS: Fermi energy:    0.000971;  402.000000 electrons
         Band energy:-0.155090E+04;  BLOECHL correction:   -0.058010