 vasp.6.2.0 18Jan21 (build Jun 12 2021 23:27:24) complex

 executed on             LinuxIFC date 2022.05.27  06:21:37

 INCAR:
   ISMEAR = -5
   SIGMA = 0.1
   ISPIN = 1
   EDIFF = 1.d-5
   EDIFFG = -0.01
   NSW = 0
   NELM = 150
   ENCUT = 500
   ISIF = 2
   IBRION = 2
   LREAL = Auto
   ALGO = Fast
   ICHARG = 11
   LORBIT = 10
   LCHARG = .F.
   LWAVE = .F.

 POTCAR:    PAW_PBE Cu 22Jun2005
 POTCAR:    PAW_PBE Ir 06Sep2000
 POTCAR:    PAW_PBE N 08Apr2002
|           W    W    AA    RRRRR   N    N  II  N    N   GGGG   !!!           |
|           W    W   A  A   R    R  NN   N  II  NN   N  G    G  !!!           |
|           W    W  A    A  R    R  N N  N  II  N N  N  G       !!!           |
|           W WW W  AAAAAA  RRRRR   N  N N  II  N  N N  G  GGG   !            |
|           WW  WW  A    A  R   R   N   NN  II  N   NN  G    G                |
|           W    W  A    A  R    R  N    N  II  N    N   GGGG   !!!           |
|     For optimal performance we recommend to set                             |
|       NCORE = 2 up to number-of-cores-per-socket                            |
|     This setting can greatly improve the performance of VASP for DFT.       |
|     The default, NCORE=1 might be grossly inefficient on modern             |
|     multi-core architectures or massively parallel machines. Do your        |
|     Unfortunately you need to use the default for GW and RPA                |
|     calculations (for HF NCORE is supported but not extensively tested      |
|     yet).                                                                   |

 POTCAR:    PAW_PBE Cu 22Jun2005
   VRHFIN =Cu: d10 p1

   TITEL  = PAW_PBE Cu 22Jun2005
   POMASS =   63.546; ZVAL   =   11.000    mass and valenz
   ENMAX  =  295.446; ENMIN  =  221.585 eV

 POTCAR:    PAW_PBE Ir 06Sep2000
   VRHFIN =Ir: s1d8

   TITEL  = PAW_PBE Ir 06Sep2000
   POMASS =  192.220; ZVAL   =    9.000    mass and valenz
   ENMAX  =  210.864; ENMIN  =  158.148 eV

 POTCAR:    PAW_PBE N 08Apr2002
   VRHFIN =N: s2p3

   TITEL  = PAW_PBE N 08Apr2002
   POMASS =   14.001; ZVAL   =    5.000    mass and valenz
   ENMAX  =  400.000; ENMIN  =  300.000 eV

 Optimization of the real space projectors (new method)

 maximal supplied QI-value         = 16.25
 optimisation between [QCUT,QGAM] = [ 11.38, 22.75] = [ 36.24,144.96] Ry
 Optimized for a Real-space Cutoff    1.52 Angstroem

   l    n(q)    QCUT    max X(q) W(low)/X(q) W(high)/X(q)  e(spline)
   2      9    11.376     4.610    0.21E-03    0.10E-03    0.26E-06
   2      9    11.376     8.522    0.33E-03    0.16E-03    0.37E-06
   0     10    11.376    51.609    0.62E-04    0.20E-04    0.13E-06
   0     10    11.376    27.747    0.54E-04    0.20E-04    0.13E-06
   1     10    11.376    20.408    0.13E-04    0.99E-04    0.19E-06
   1     10    11.376    13.425    0.12E-04    0.87E-04    0.17E-06
 Optimization of the real space projectors (new method)

[...]

   l    n(q)    QCUT    max X(q) W(low)/X(q) W(high)/X(q)  e(spline)
   2      9    11.346   134.116    0.47E-03    0.13E-03    0.92E-06
   2      9    11.346   130.192    0.47E-03    0.13E-03    0.92E-06
   0     10    11.346    60.310    0.74E-04    0.13E-03    0.69E-06
   0     10    11.346    39.218    0.68E-04    0.12E-03    0.65E-06
   1     10    11.346    18.439    0.15E-03    0.34E-04    0.20E-06
   1     10    11.346    12.760    0.12E-03    0.31E-04    0.16E-06
 Optimization of the real space projectors (new method)

 maximal supplied QI-value         = 25.13
 optimisation between [QCUT,QGAM] = [ 11.31, 22.87] = [ 35.82,146.48] Ry
 Optimized for a Real-space Cutoff    1.27 Angstroem

   l    n(q)    QCUT    max X(q) W(low)/X(q) W(high)/X(q)  e(spline)
   0      9    11.310    79.467    0.75E-04    0.16E-03    0.36E-06
   0      9    11.310    66.151    0.74E-04    0.16E-03    0.36E-06
   1      8    11.310    17.416    0.35E-03    0.12E-03    0.95E-06
   1      8    11.310    12.382    0.37E-03    0.13E-03    0.98E-06
  PAW_PBE Cu 22Jun2005                  :
  PAW_PBE Ir 06Sep2000                  :
  PAW_PBE N 08Apr2002                   :

 POSCAR: Cu-Ir-N2
  positions in direct lattice
  velocities in cartesian coordinates
 exchange correlation table for  LEXCH =        8
   RHO(1)=    0.500       N(1)  =     2000
   RHO(2)=  100.500       N(2)  =     4000

 VTST: version 3.2, (02/03/18)

 CHAIN: initializing optimizer

 OPT: Using VASP Conjugate-Gradient optimizer
 CHAIN: Read ICHAIN            0

 POSCAR: Cu-Ir-N2
  positions in direct lattice
  velocities in cartesian coordinates

 ion  position               nearest neighbor table
   1  0.000  0.000  0.252-   7 2.57   3 2.57   4 2.57   2 2.57   6 2.57   8 2.57  12 2.57  10 2.57
                            16 2.57
   2  0.333  0.000  0.252-   8 2.57   9 2.57   5 2.57   1 2.57   3 2.57  11 2.57   4 2.57  10 2.57
                            17 2.57
   3  0.667  0.000  0.252-   1 2.57   7 2.57   6 2.57   9 2.57   2 2.57  12 2.57   5 2.57  18 2.57
                            11 2.57
   4  0.000  0.333  0.252-   5 2.57   6 2.57   1 2.57   7 2.57   2 2.57  13 2.57   9 2.57  10 2.57
                            15 2.57
   5  0.333  0.333  0.252-   4 2.57   2 2.57   7 2.57  13 2.57   8 2.57   6 2.57   3 2.57  11 2.57
                            14 2.57
   6  0.667  0.333  0.252-   4 2.57   9 2.57  15 2.57   3 2.57   1 2.57   8 2.57  14 2.57   5 2.57
                            12 2.57
   7  0.000  0.667  0.252-   1 2.57   3 2.57  16 2.57  18 2.57   4 2.57   5 2.57   8 2.57   9 2.57
                            13 2.57
   8  0.333  0.667  0.252-   9 2.57   2 2.57  17 2.57   6 2.57   1 2.57   7 2.57   5 2.57  14 2.57
                            16 2.57
   9  0.667  0.667  0.252-   8 2.57   6 2.57   2 2.57  17 2.57   3 2.57   7 2.57   4 2.57  15 2.57
                            18 2.57
  10  0.111  0.111  0.351-  20 2.53  11 2.57  12 2.57  13 2.57   1 2.57   2 2.57   4 2.57  15 2.57
                            16 2.57  17 2.57  26 2.57  19 2.57
  11  0.444  0.111  0.351-  20 2.55  21 2.55  10 2.57  13 2.57   2 2.57  17 2.57  14 2.57  12 2.57
                             5 2.57   3 2.57  18 2.57  27 2.57
  12  0.778  0.111  0.351-  21 2.53  15 2.57  10 2.57  14 2.57  18 2.57   3 2.57   1 2.57  16 2.57
                            11 2.57   6 2.57  19 2.57  25 2.57
  13  0.111  0.444  0.351-  23 2.55  20 2.55  16 2.57  18 2.57  10 2.57  11 2.57  14 2.57   5 2.57
                             4 2.57   7 2.57  15 2.57  22 2.57
  14  0.444  0.444  0.351-  21 2.55  23 2.55  15 2.57  17 2.57  12 2.57  16 2.57  13 2.57  11 2.57
                             6 2.57   8 2.57   5 2.57  24 2.57
  15  0.778  0.444  0.351-  19 2.56  24 2.56  22 2.56  14 2.57  17 2.57  12 2.57   6 2.57  18 2.57
                            10 2.57   9 2.57  13 2.57   4 2.57
  16  0.111  0.778  0.351-  23 2.53  18 2.57  13 2.57   7 2.57  14 2.57  17 2.57  12 2.57  10 2.57
                             8 2.57   1 2.57  25 2.57  26 2.57
  17  0.444  0.778  0.351-  26 2.56  27 2.56  24 2.56  14 2.57  15 2.57   8 2.57   9 2.57  11 2.57
                            16 2.57  18 2.57  10 2.57   2 2.57
  18  0.778  0.778  0.351-  25 2.56  22 2.56  27 2.56  16 2.57  13 2.57   7 2.57  15 2.57  12 2.57
                            17 2.57   9 2.57   3 2.57  11 2.57
  19  0.888  0.223  0.449-  28 2.55  21 2.55  20 2.55  22 2.56  24 2.56  15 2.56  32 2.56  31 2.56
                            12 2.57  10 2.57  25 2.58  26 2.58
  20  0.221  0.221  0.448-  10 2.53  11 2.55  13 2.55  26 2.55  19 2.55  36 2.55  27 2.57  22 2.57
                            29 2.59  31 2.59  23 2.59  21 2.59
  21  0.558  0.221  0.448-  12 2.53  14 2.55  11 2.55  19 2.55  25 2.55  36 2.55  24 2.57  27 2.57
                            32 2.59  30 2.59  20 2.59  23 2.59
  22  0.888  0.556  0.449-  35 2.54  24 2.56  27 2.56  19 2.56  25 2.56  18 2.56  15 2.56  13 2.57
                            23 2.57  20 2.57  31 2.57  33 2.57
  23  0.221  0.558  0.448-  16 2.53  13 2.55  14 2.55  25 2.55  26 2.55  36 2.55  22 2.57  24 2.57
                            33 2.59  34 2.59  20 2.59  21 2.59
  24  0.556  0.556  0.449-  35 2.54  22 2.56  27 2.56  19 2.56  26 2.56  15 2.56  17 2.56  14 2.57
                            21 2.57  23 2.57  32 2.57  34 2.57
  25  0.888  0.888  0.449-  28 2.55  21 2.55  23 2.55  22 2.56  27 2.56  18 2.56  33 2.56  30 2.56
                            16 2.57  12 2.57  19 2.58  26 2.58
  26  0.223  0.888  0.449-  28 2.55  20 2.55  23 2.55  27 2.56  24 2.56  17 2.56  29 2.56  34 2.56
                            10 2.57  16 2.57  25 2.58  19 2.58
  27  0.556  0.888  0.449-  35 2.54  24 2.56  22 2.56  26 2.56  25 2.56  17 2.56  18 2.56  11 2.57
                            20 2.57  21 2.57  29 2.57  30 2.57
  28  0.000  0.000  0.546-  25 2.55  19 2.55  26 2.55  33 2.56  30 2.56  31 2.56  29 2.56  32 2.56
                            34 2.56
  29  0.333  0.999  0.548-  34 2.55  28 2.56  26 2.56  35 2.57  31 2.57  27 2.57  36 2.57  30 2.58
                            20 2.59
  30  0.668  0.999  0.548-  33 2.55  28 2.56  25 2.56  35 2.57  32 2.57  27 2.57  36 2.57  29 2.58
                            21 2.59
  31  0.999  0.333  0.548-  32 2.55  28 2.56  19 2.56  35 2.57  29 2.57  22 2.57  36 2.57  33 2.58
                            20 2.59
  32  0.668  0.333  0.548-  31 2.55  28 2.56  19 2.56  35 2.57  30 2.57  24 2.57  36 2.57  34 2.58
                            21 2.59
  33  0.999  0.668  0.548-  30 2.55  28 2.56  25 2.56  35 2.57  34 2.57  22 2.57  36 2.57  31 2.58
                            23 2.59
  34  0.333  0.668  0.548-  29 2.55  28 2.56  26 2.56  35 2.57  33 2.57  24 2.57  36 2.57  32 2.58
                            23 2.59
  35  0.667  0.667  0.546-  24 2.54  27 2.54  22 2.54  34 2.57  32 2.57  29 2.57  30 2.57  33 2.57
                            31 2.57
  36  0.333  0.333  0.545-  23 2.55  20 2.55  21 2.55  31 2.57  29 2.57  33 2.57  34 2.57  32 2.57
                            30 2.57
  37  0.264  0.327  0.740-  38 1.11
  38  0.409  0.327  0.740-  37 1.11

  LATTYP: Found a hexagonal cell.
 ALAT       =     7.6967864036
 C/A-ratio  =     2.7653617908

  Lattice vectors:

 A1 = (  -3.8483927580,  -6.6656128093,   0.0000000000)
 A2 = (   7.6967864037,   0.0000000000,   0.0000000000)
 A3 = (   0.0000000000,   0.0000000000,  21.2843990326)

Analysis of symmetry for initial positions (statically):
 Subroutine PRICEL returns:
 Original cell was already a primitive cell.

 Routine SETGRP: Setting up the symmetry group for a
 hexagonal supercell.

 Subroutine GETGRP returns: Found  2 space group operations
 (whereof  2 operations were pure point group operations)
 out of a pool of 24 trial point group operations.

The static configuration has the point symmetry C_1h.

Analysis of symmetry for dynamics (positions and initial velocities):
 Subroutine PRICEL returns:
 Original cell was already a primitive cell.

[...]

The dynamic configuration has the point symmetry C_1h.

Analysis of constrained symmetry for selective dynamics:
 Subroutine PRICEL returns:
 Original cell was already a primitive cell.

 Routine SETGRP: Setting up the symmetry group for a
 hexagonal supercell.

[...]
     33      -3.8849      2.00000
     34      -3.8751      2.00000
     35      -3.8709      2.00000
     36      -3.8621      2.00000
     37      -3.8514      2.00000
     38      -3.8383      2.00000
     39      -3.7989      2.00000
     40      -3.7450      2.00000
     41      -3.7051      2.00000
     42      -3.5627      2.00000
     43      -3.5496      2.00000
     44      -3.5069      2.00000
     45      -3.4809      2.00000
     46      -3.4690      2.00000
     47      -3.4569      2.00000
     48      -3.4391      2.00000
     49      -3.4314      2.00000
     50      -3.4281      2.00000
     51      -3.2374      2.00000
     52      -3.2278      2.00000
     53      -3.2162      2.00000
     54      -3.2033      2.00000
     55      -3.1518      2.00000
     56      -3.1411      2.00000
     57      -3.1365      2.00000
     58      -3.1295      2.00000
     59      -3.1226      2.00000
     60      -3.1073      2.00000
[...]
    238       5.9547      0.00000
    239       5.9745      0.00000
    240       6.2785      0.00000
    241       6.3005      0.00000
    242       6.5920      0.00000
    243       6.6678      0.00000
    244       6.6741      0.00000
    245       6.8562      0.00000
    246       6.9441      0.00000
    247       7.0445      0.00000
    248       7.2050      0.00000
    249       7.3403      0.00000
    250       7.4939      0.00000
    251       7.5236      0.00000
    252       7.6127      0.00000

 soft charge-density along one line, spin component           1
         0         1         2         3         4         5         6         7         8         9
 total charge-density along one line

------------------------ aborting loop because EDIFF is reached ----------------------------------------

 total charge

# of ion       s       p       d       tot
    1        0.446   0.286   9.188   9.920
    2        0.450   0.284   9.187   9.921
    3        0.450   0.284   9.187   9.921
    4        0.450   0.284   9.187   9.921
    5        0.444   0.289   9.183   9.915
    6        0.450   0.284   9.187   9.921
    7        0.450   0.284   9.187   9.921
    8        0.450   0.284   9.187   9.921
    9        0.448   0.283   9.189   9.920
   10        0.441   0.374   9.173   9.988
   11        0.444   0.366   9.185   9.995
   12        0.441   0.374   9.173   9.988
   13        0.444   0.366   9.185   9.995
   14        0.444   0.366   9.185   9.995
   15        0.439   0.368   9.180   9.987
   16        0.441   0.374   9.173   9.988
   17        0.439   0.368   9.180   9.987
   18        0.439   0.368   9.180   9.987
   19        0.441   0.371   9.181   9.993
   20        0.445   0.389   9.174  10.008
   21        0.445   0.389   9.174  10.008
   22        0.434   0.370   9.184   9.988
   23        0.445   0.389   9.174  10.008
   24        0.434   0.370   9.184   9.988
   25        0.441   0.371   9.182   9.994
   26        0.441   0.371   9.182   9.994
   27        0.434   0.370   9.184   9.988
   28        0.449   0.289   9.193   9.931
   29        0.453   0.307   9.177   9.936
   30        0.453   0.307   9.177   9.936
   31        0.452   0.306   9.177   9.936
   32        0.452   0.306   9.177   9.936
   33        0.453   0.307   9.177   9.936
   34        0.453   0.307   9.177   9.936
   35        0.443   0.293   9.192   9.928
   36        0.674   0.400   7.105   8.179
   37        1.373   2.469   0.000   3.841
   38        1.373   2.469   0.000   3.841
tot         18.998  17.036 328.468 364.503

  FORCE on cell =-STRESS in cart. coord.  units (eV):
  Direction    XX          YY          ZZ          XY          YZ          ZX
  Alpha Z   923.72855   923.72855   923.72855
  Ewald  167004.20742166683.19832************     0.00038     0.54282     0.00015
  Hartree180063.51233179949.57782************     0.00003     0.56422     0.00006
  E(xc)   -2328.80773 -2330.04917 -2334.96232    -0.00033    -0.00035    -0.00003
  Local  ************************359875.39346     0.02016    -1.11272    -0.00073
  n-local  -795.26633  -782.73695  -798.64938     2.12592     0.00016     0.15918
  augment  3347.82742  3347.54341  3368.12735    -0.01846     0.00152     0.00028
  Kinetic  3421.14624  3439.23032  3470.64504     1.11277     0.00768    -0.12230
  Fock        0.00000     0.00000     0.00000     0.00000     0.00000     0.00000
  Total      -5.45078    -5.46368     1.49550     0.00000     0.00334    -0.00000
  in kB      -7.99758    -8.01651     2.19425     0.00000     0.00489    -0.00000

 VOLUME and BASIS-vectors are now :
  energy-cutoff  :      500.00
  volume of cell :     1091.97
      direct lattice vectors                 reciprocal lattice vectors
     7.696786404  0.000000000  0.000000000     0.129924354 -0.075011849  0.000000000
     3.848392758  6.665612809  0.000000000     0.000000000  0.150023716  0.000000000
     0.000000000  0.000000000 21.284399033     0.000000000  0.000000000  0.046982769

  length of vectors
     7.696786404  7.696786404 21.284399033     0.150023716  0.150023716  0.046982769

 FORCES acting on ions
    electron-ion (+dipol)            ewald-force                    non-local-force                 convergence-correction
   -.407E-04 -.506E-02 0.347E+04   0.580E-04 -.409E-02 -.347E+04   0.687E-10 -.103E-02 -.274E+01   -.335E-03 0.963E-02 -.365E+00
   -.984E-01 0.208E+00 0.347E+04   0.509E-01 -.612E-02 -.347E+04   0.172E-01 -.976E-01 -.186E+01   0.334E-01 -.961E-01 -.184E+00
   0.984E-01 0.208E+00 0.347E+04   -.510E-01 -.616E-02 -.347E+04   -.172E-01 -.976E-01 -.186E+01   -.326E-01 -.935E-01 -.183E+00
   0.127E+00 -.202E+00 0.347E+04   0.236E-01 0.472E-01 -.347E+04   -.734E-01 0.635E-01 -.187E+01   -.684E-01 0.879E-01 -.187E+00
   -.613E-04 -.693E-02 0.347E+04   0.116E-03 0.201E-02 -.347E+04   0.377E-09 -.566E-02 -.182E+01   0.122E-01 0.107E-01 -.150E+00
   -.127E+00 -.202E+00 0.347E+04   -.237E-01 0.471E-01 -.347E+04   0.734E-01 0.635E-01 -.187E+01   0.667E-01 0.891E-01 -.186E+00
   0.243E+00 -.627E-02 0.347E+04   -.273E-01 -.410E-01 -.347E+04   -.936E-01 0.336E-01 -.186E+01   -.113E+00 0.785E-02 -.178E+00
   -.243E+00 -.627E-02 0.347E+04   0.270E-01 -.410E-01 -.347E+04   0.936E-01 0.336E-01 -.186E+01   0.116E+00 0.636E-02 -.178E+00
   -.143E-03 0.150E-01 0.347E+04   0.263E-03 0.209E-02 -.347E+04   -.300E-09 0.451E-02 -.225E+01   -.133E-01 -.214E-01 -.265E+00
   0.249E+01 0.144E+01 0.119E+04   -.225E+01 -.131E+01 -.119E+04   -.269E+00 -.155E+00 -.108E+01   0.474E-01 0.392E-01 0.149E+00
   -.926E-04 -.573E+00 0.118E+04   0.190E-03 0.504E+00 -.118E+04   0.611E-09 -.917E-02 -.612E+00   0.118E-01 0.417E-01 0.251E+00
   -.249E+01 0.144E+01 0.119E+04   0.225E+01 -.131E+01 -.119E+04   0.269E+00 -.155E+00 -.108E+01   -.494E-01 0.413E-01 0.150E+00
   -.496E+00 0.274E+00 0.118E+04   0.449E+00 -.242E+00 -.118E+04   -.257E-02 -.434E-02 -.611E+00   0.294E-01 -.843E-02 0.258E+00
   0.496E+00 0.274E+00 0.118E+04   -.449E+00 -.242E+00 -.118E+04   0.257E-02 -.434E-02 -.611E+00   -.495E-02 -.938E-02 0.258E+00
   -.142E-03 0.167E+00 0.119E+04   0.298E-03 -.318E+00 -.119E+04   -.901E-08 0.135E+00 -.788E+00   -.407E-02 0.704E-02 0.819E-01
   -.919E-04 -.287E+01 0.119E+04   0.186E-03 0.259E+01 -.119E+04   -.208E-07 0.312E+00 -.108E+01   -.148E-03 -.630E-01 0.149E+00
   0.157E+00 -.802E-01 0.119E+04   -.290E+00 0.165E+00 -.119E+04   0.118E+00 -.659E-01 -.783E+00   0.816E-02 -.162E-01 0.783E-01
   -.157E+00 -.801E-01 0.119E+04   0.290E+00 0.165E+00 -.119E+04   -.118E+00 -.659E-01 -.783E+00   -.742E-02 -.131E-01 0.789E-01
   -.602E-04 0.176E+00 -.111E+04   0.695E-04 -.498E-01 0.111E+04   0.997E-08 -.150E+00 0.566E+00   -.250E-02 0.215E-01 0.118E+00
   -.280E+02 -.162E+02 -.112E+04   0.280E+02 0.161E+02 0.112E+04   -.247E+00 -.147E+00 -.373E+00   0.322E+00 0.204E+00 0.458E+00
   0.280E+02 -.162E+02 -.112E+04   -.280E+02 0.161E+02 0.112E+04   0.247E+00 -.147E+00 -.373E+00   -.298E+00 0.206E+00 0.458E+00
   -.192E+02 0.110E+02 -.112E+04   0.183E+02 -.104E+02 0.112E+04   0.619E+00 -.359E+00 0.796E+00   0.282E+00 -.175E+00 0.166E+00
   -.885E-04 0.323E+02 -.112E+04   0.146E-03 -.322E+02 0.112E+04   -.184E-07 0.277E+00 -.371E+00   0.120E-01 -.366E+00 0.464E+00
   0.192E+02 0.110E+02 -.112E+04   -.183E+02 -.104E+02 0.112E+04   -.619E+00 -.359E+00 0.796E+00   -.285E+00 -.176E+00 0.166E+00
   -.149E+00 0.200E-01 -.111E+04   0.245E-01 -.870E-01 0.111E+04   0.131E+00 0.762E-01 0.562E+00   -.441E-02 -.655E-02 0.119E+00
   0.149E+00 0.200E-01 -.111E+04   -.247E-01 -.870E-01 0.111E+04   -.131E+00 0.762E-01 0.562E+00   0.505E-02 -.942E-02 0.119E+00
   -.116E-03 -.221E+02 -.112E+04   0.243E-03 0.210E+02 0.112E+04   -.477E-07 0.716E+00 0.795E+00   -.997E-03 0.321E+00 0.166E+00
   -.437E-04 0.842E+00 -.336E+04   0.405E-04 -.850E+00 0.336E+04   -.738E-10 0.111E-02 0.224E+01   -.254E-03 0.616E-02 0.492E+00
   -.230E+02 -.339E+02 -.337E+04   0.232E+02 0.339E+02 0.337E+04   -.446E+00 -.397E+00 0.153E+01   0.171E+00 0.409E+00 0.426E+00
   0.230E+02 -.339E+02 -.337E+04   -.232E+02 0.339E+02 0.337E+04   0.446E+00 -.397E+00 0.153E+01   -.170E+00 0.411E+00 0.426E+00
   -.415E+02 -.284E+01 -.337E+04   0.416E+02 0.307E+01 0.337E+04   -.567E+00 -.186E+00 0.156E+01   0.440E+00 -.406E-01 0.425E+00
   0.415E+02 -.284E+01 -.337E+04   -.416E+02 0.307E+01 0.337E+04   0.567E+00 -.186E+00 0.156E+01   -.441E+00 -.396E-01 0.424E+00
   -.189E+02 0.368E+02 -.337E+04   0.187E+02 -.370E+02 0.337E+04   -.125E+00 0.582E+00 0.153E+01   0.261E+00 -.370E+00 0.423E+00
   0.189E+02 0.368E+02 -.337E+04   -.187E+02 -.370E+02 0.337E+04   0.125E+00 0.582E+00 0.153E+01   -.258E+00 -.371E+00 0.423E+00
   -.157E-03 -.437E+00 -.337E+04   0.253E-03 0.457E+00 0.336E+04   -.310E-09 0.466E-02 0.258E+01   -.133E-01 -.239E-01 0.364E+00
   -.548E-04 -.426E+00 -.270E+04   0.113E-03 0.415E+00 0.270E+04   -.129E-09 0.193E-02 0.175E+01   0.209E-02 0.975E-02 0.372E+00
   0.239E+03 -.667E-01 -.110E+04   -.284E+03 0.675E-01 0.110E+04   0.456E+02 -.162E-02 0.163E-01   0.139E-01 -.316E-03 -.990E-01
   -.239E+03 -.667E-01 -.110E+04   0.284E+03 0.675E-01 0.110E+04   -.456E+02 -.162E-02 0.163E-01   -.139E-01 -.306E-03 -.991E-01
   -.510E-04 -.270E-02 0.123E+01   0.000E+00 0.383E-12 -.614E-11   0.185E-08 -.278E-01 -.661E+01   0.543E-01 0.298E-01 0.539E+01

 POSITION                                       TOTAL-FORCE (eV/Angst)
      0.00000      0.00000      5.37156         0.000000     -0.000535      0.080114
      2.56560      0.00000      5.37156         0.002831      0.009428      0.055308
      5.13119      0.00000      5.37156        -0.002831      0.009428      0.055308
      1.28280      2.22187      5.37156         0.009558     -0.002922      0.055412
      3.84839      2.22187      5.37156        -0.000000      0.000122      0.039467
      6.41399      2.22187      5.37156        -0.009558     -0.002922      0.055412
      2.56560      4.44374      5.37156         0.007586     -0.006550      0.055157
      5.13119      4.44374      5.37156        -0.007586     -0.006550      0.055157
      7.69679      4.44374      5.37156        -0.000000      0.000223      0.040277
      1.28280      0.74062      7.46636         0.025651      0.015156     -0.050600
      3.84839      0.74062      7.46636         0.000000     -0.037016     -0.110583
      6.41399      0.74062      7.46636        -0.025651      0.015156     -0.050600
      2.56560      2.96249      7.46636        -0.032073      0.019362     -0.110237
      5.13119      2.96249      7.46636         0.032073      0.019362     -0.110237
      7.69679      2.96249      7.46636         0.000000     -0.008158     -0.006243
      3.84839      5.18437      7.46636         0.000000     -0.030217     -0.050102
      6.41399      5.18437      7.46636        -0.007481      0.004022     -0.005218
      8.97958      5.18437      7.46636         0.007481      0.004022     -0.005218
      7.69679      1.48769      9.56171         0.000000     -0.002574     -0.009884
      2.55203      1.47342      9.53141         0.001520      0.000158     -0.007801
      5.14476      1.47342      9.53141        -0.001520      0.000158     -0.007801
      8.97489      3.70583      9.56026        -0.011347      0.006464     -0.009638
      3.84839      3.71878      9.53141         0.000000     -0.001703     -0.007079
      6.41868      3.70583      9.56026         0.011347      0.006464     -0.009638
     10.25680      5.92177      9.56171         0.002100      0.001216     -0.011782
      5.13677      5.92177      9.56171        -0.002100      0.001216     -0.011782
      7.69679      5.91957      9.56026         0.000000     -0.012259     -0.010758
      0.00000      0.00000     11.63002         0.000000     -0.001301      0.022448
      6.40663      6.66047     11.66109        -0.002136     -0.012757      0.008515
      8.98694      6.66047     11.66109         0.002136     -0.012757      0.008515
      8.97145      2.21807     11.66109        -0.011218      0.003742      0.010970
      6.42212      2.21807     11.66109         0.011218      0.003742      0.010970
     10.26160      4.45269     11.66109        -0.008698      0.009136      0.008749
      5.13197      4.45269     11.66109         0.008698      0.009136      0.008749
      7.69679      4.44374     11.62915        -0.000000      0.001282      0.012885
      3.84839      2.22187     11.60012        -0.000000      0.001453     -0.004016
      3.29153      2.17993     15.74474        -0.001638     -0.001115      0.002905
      4.40526      2.17993     15.74474         0.001638     -0.001115      0.002905
    total drift:                                0.054234     -0.000714      0.008772

  FREE ENERGIE OF THE ION-ELECTRON SYSTEM (eV)
  free  energy   TOTEN  =      -147.12403107 eV

  energy  without entropy=     -147.12403107  energy(sigma->0) =     -147.12403107

 stress matrix after NEB project (eV)
     -5.45078      0.00000     -0.00000
      0.00000     -5.46368      0.00334
     -0.00000      0.00334      1.49550
  FORCES: max atom, RMS     0.003516    0.000807
  FORCE total and by dimension    0.004973    0.002905
  Stress total and by dimension    7.861258    5.463683
|           W    W    AA    RRRRR   N    N  II  N    N   GGGG   !!!           |
|           W    W   A  A   R    R  NN   N  II  NN   N  G    G  !!!           |
|           W    W  A    A  R    R  N N  N  II  N N  N  G       !!!           |
|           W WW W  AAAAAA  RRRRR   N  N N  II  N  N N  G  GGG   !            |
|           WW  WW  A    A  R   R   N   NN  II  N   NN  G    G                |
|           W    W  A    A  R    R  N    N  II  N    N   GGGG   !!!           |
|     Tetrahedron method does not include variations of the Fermi             |
|     occupations, so forces and stress will be inaccurate. We suggest        |
|     using a different smearing scheme ISMEAR = 1 or 2 for metals in         |
|     relaxations.                                                            |

 total charge

# of ion       s       p       d       tot
    1        0.446   0.286   9.188   9.920
    2        0.450   0.284   9.187   9.921
    3        0.450   0.284   9.187   9.921
    4        0.450   0.284   9.187   9.921
    5        0.444   0.289   9.183   9.915
    6        0.450   0.284   9.187   9.921
    7        0.450   0.284   9.187   9.921
    8        0.450   0.284   9.187   9.921
    9        0.448   0.283   9.189   9.920
   10        0.441   0.374   9.173   9.988
   11        0.444   0.366   9.185   9.995
   12        0.441   0.374   9.173   9.988
   13        0.444   0.366   9.185   9.995
   14        0.444   0.366   9.185   9.995
   15        0.439   0.368   9.180   9.987
   16        0.441   0.374   9.173   9.988
   17        0.439   0.368   9.180   9.987
   18        0.439   0.368   9.180   9.987
   19        0.441   0.371   9.181   9.993
   20        0.445   0.389   9.174  10.008
   21        0.445   0.389   9.174  10.008
   22        0.434   0.370   9.184   9.988
   23        0.445   0.389   9.174  10.008
   24        0.434   0.370   9.184   9.988
   25        0.441   0.371   9.182   9.994
   26        0.441   0.371   9.182   9.994
   27        0.434   0.370   9.184   9.988
   28        0.449   0.289   9.193   9.931
   29        0.453   0.307   9.177   9.936
   30        0.453   0.307   9.177   9.936
   31        0.452   0.306   9.177   9.936
   32        0.452   0.306   9.177   9.936
   33        0.453   0.307   9.177   9.936
   34        0.453   0.307   9.177   9.936
   35        0.443   0.293   9.192   9.928
   36        0.674   0.400   7.105   8.179
   37        1.373   2.469   0.000   3.841
   38        1.373   2.469   0.000   3.841
tot         18.998  17.036 328.468 364.503

 BZINTS: Fermi energy:    0.216446;  404.000000 electrons
         Band energy:-0.111061E+04;  BLOECHL correction:   -0.064834