 vasp.6.2.0 18Jan21 (build Jun 12 2021 23:27:24) complex

 executed on             LinuxIFC date 2022.05.27  05:32:40

 INCAR:
   ISMEAR = -5
   SIGMA = 0.1
   ISPIN = 1
   EDIFF = 1.d-5
   EDIFFG = -0.01
   NSW = 0
   NELM = 150
   ENCUT = 500
   ISIF = 2
   IBRION = 2
   LREAL = Auto
   ALGO = Fast
   ICHARG = 11
   LORBIT = 10
   LCHARG = .F.
   LWAVE = .F.

 POTCAR:    PAW_PBE Ag 02Apr2005
 POTCAR:    PAW_PBE Ni 02Aug2007
 POTCAR:    PAW_PBE O 08Apr2002
 POTCAR:    PAW_PBE H 15Jun2001
|           W    W    AA    RRRRR   N    N  II  N    N   GGGG   !!!           |
|           W    W   A  A   R    R  NN   N  II  NN   N  G    G  !!!           |
|           W    W  A    A  R    R  N N  N  II  N N  N  G       !!!           |
|           W WW W  AAAAAA  RRRRR   N  N N  II  N  N N  G  GGG   !            |
|           WW  WW  A    A  R   R   N   NN  II  N   NN  G    G                |
|           W    W  A    A  R    R  N    N  II  N    N   GGGG   !!!           |
|     For optimal performance we recommend to set                             |
|       NCORE = 2 up to number-of-cores-per-socket                            |
|     This setting can greatly improve the performance of VASP for DFT.       |
|     The default, NCORE=1 might be grossly inefficient on modern             |
|     multi-core architectures or massively parallel machines. Do your        |
|     Unfortunately you need to use the default for GW and RPA                |
|     calculations (for HF NCORE is supported but not extensively tested      |
|     yet).                                                                   |

 POTCAR:    PAW_PBE Ag 02Apr2005
   VRHFIN =Ag : s1 d10

   TITEL  = PAW_PBE Ag 02Apr2005
   POMASS =  107.868; ZVAL   =   11.000    mass and valenz
   ENMAX  =  249.844; ENMIN  =  187.383 eV

 POTCAR:    PAW_PBE Ni 02Aug2007
   VRHFIN =Ni:

   TITEL  = PAW_PBE Ni 02Aug2007
   POMASS =   58.690; ZVAL   =   10.000    mass and valenz
   ENMAX  =  269.532; ENMIN  =  202.149 eV

 POTCAR:    PAW_PBE O 08Apr2002
   VRHFIN =O: s2p4

   TITEL  = PAW_PBE O 08Apr2002
   POMASS =   16.000; ZVAL   =    6.000    mass and valenz
   ENMAX  =  400.000; ENMIN  =  300.000 eV

 POTCAR:    PAW_PBE H 15Jun2001
   VRHFIN =H: ultrasoft test

   TITEL  = PAW_PBE H 15Jun2001
   POMASS =    1.000; ZVAL   =    1.000    mass and valenz
   ENMAX  =  250.000; ENMIN  =  200.000 eV

 Optimization of the real space projectors (new method)

 maximal supplied QI-value         = 15.12
 optimisation between [QCUT,QGAM] = [ 11.34, 22.83] = [ 36.00,145.93] Ry
 Optimized for a Real-space Cutoff    1.43 Angstroem

   l    n(q)    QCUT    max X(q) W(low)/X(q) W(high)/X(q)  e(spline)
   2      9    11.338    53.897    0.16E-03    0.20E-03    0.28E-06
   2      9    11.338    52.416    0.16E-03    0.20E-03    0.29E-06
   0     10    11.338   122.045    0.31E-04    0.76E-04    0.15E-06
   0     10    11.338    73.629    0.30E-04    0.72E-04    0.15E-06
   1      9    11.338    15.255    0.20E-03    0.19E-04    0.17E-06
   1      9    11.338     9.562    0.16E-03    0.15E-04    0.14E-06
 Optimization of the real space projectors (new method)

[...]

   l    n(q)    QCUT    max X(q) W(low)/X(q) W(high)/X(q)  e(spline)
   0      7    11.387    20.381    0.39E-03    0.13E-02    0.15E-06
   0      7    11.387    15.268    0.42E-03    0.14E-02    0.17E-06
   1      6    11.387     5.964    0.41E-03    0.11E-02    0.17E-06
   1      6    11.387     5.382    0.39E-03    0.87E-03    0.15E-06
 Optimization of the real space projectors (new method)

 maximal supplied QI-value         = 34.20
 optimisation between [QCUT,QGAM] = [ 11.29, 22.57] = [ 35.68,142.71] Ry
 Optimized for a Real-space Cutoff    1.16 Angstroem

   l    n(q)    QCUT    max X(q) W(low)/X(q) W(high)/X(q)  e(spline)
   0      8    11.287    19.460    0.40E-03    0.73E-03    0.16E-06
   0      8    11.287    12.209    0.38E-03    0.70E-03    0.15E-06
   1      7    11.287     4.655    0.22E-03    0.25E-04    0.22E-06
  PAW_PBE Ag 02Apr2005                  :
  PAW_PBE Ni 02Aug2007                  :
  PAW_PBE O 08Apr2002                   :
  PAW_PBE H 15Jun2001                   :

 POSCAR: Ag-Ni-OH
  positions in direct lattice
  velocities in cartesian coordinates
 exchange correlation table for  LEXCH =        8
   RHO(1)=    0.500       N(1)  =     2000
   RHO(2)=  100.500       N(2)  =     4000

 VTST: version 3.2, (02/03/18)

 CHAIN: initializing optimizer

 OPT: Using VASP Conjugate-Gradient optimizer
 CHAIN: Read ICHAIN            0

 POSCAR: Ag-Ni-OH
  positions in direct lattice
  velocities in cartesian coordinates

 ion  position               nearest neighbor table
   1  0.000  0.000  0.238-   2 2.93   8 2.93   7 2.93   6 2.93   4 2.93  12 2.93  16 2.93  10 2.93
                             3 2.93
   2  0.333  0.000  0.238-   1 2.93   8 2.93   9 2.93   3 2.93   4 2.93   5 2.93  10 2.93  17 2.93
                            11 2.93
   3  0.667  0.000  0.238-   9 2.93   2 2.93   5 2.93  11 2.93   7 2.93  18 2.93   1 2.93   6 2.93
                            12 2.93
   4  0.000  0.333  0.238-   5 2.93   6 2.93   2 2.93   1 2.93   7 2.93  13 2.93  15 2.93   9 2.93
                            10 2.93
   5  0.333  0.333  0.238-   4 2.93   3 2.93   7 2.93   2 2.93   8 2.93  14 2.93  13 2.93  11 2.93
                             6 2.93
   6  0.667  0.333  0.238-   4 2.93   9 2.93   1 2.93  15 2.93   8 2.93  12 2.93   3 2.93   5 2.93
                            14 2.93
   7  0.000  0.667  0.238-   8 2.93   1 2.93   5 2.93   3 2.93   4 2.93  16 2.93  18 2.93  13 2.93
                             9 2.93
   8  0.333  0.667  0.238-   7 2.93   1 2.93   2 2.93   9 2.93   5 2.93  16 2.93   6 2.93  17 2.93
                            14 2.93
   9  0.667  0.667  0.238-   3 2.93   2 2.93   8 2.93   6 2.93  17 2.93   4 2.93  15 2.93   7 2.93
                            18 2.93
  10  0.111  0.111  0.346-  20 2.91  19 2.92  26 2.92  12 2.93  16 2.93  15 2.93  17 2.93  13 2.93
                            11 2.93   2 2.93   1 2.93   4 2.93
  11  0.444  0.111  0.346-  21 2.91  20 2.91  27 2.91  14 2.93  17 2.93  18 2.93   3 2.93  12 2.93
                            13 2.93  10 2.93   5 2.93   2 2.93
  12  0.778  0.111  0.346-  21 2.91  25 2.92  19 2.92  10 2.93  16 2.93  18 2.93  15 2.93  11 2.93
                             1 2.93  14 2.93   6 2.93   3 2.93
  13  0.111  0.444  0.346-  20 2.91  23 2.91  22 2.91  15 2.93  14 2.93  18 2.93  10 2.93  11 2.93
                            16 2.93   4 2.93   5 2.93   7 2.93
  14  0.444  0.444  0.346-  23 2.91  21 2.91  24 2.91  13 2.93  11 2.93  16 2.93   5 2.93  12 2.93
                            17 2.93   8 2.93  15 2.93   6 2.93
  15  0.778  0.444  0.346-  24 2.91  22 2.91  19 2.92  13 2.93  10 2.93  12 2.93  17 2.93  18 2.93
                             4 2.93   6 2.93   9 2.93  14 2.93
  16  0.111  0.778  0.346-  23 2.91  26 2.92  25 2.92  18 2.93  12 2.93  10 2.93  14 2.93  17 2.93
                            13 2.93   7 2.93   8 2.93   1 2.93
  17  0.444  0.778  0.346-  27 2.91  24 2.91  26 2.92  11 2.93  10 2.93   9 2.93  18 2.93  15 2.93
                            16 2.93   2 2.93  14 2.93   8 2.93
  18  0.778  0.778  0.346-  22 2.91  27 2.91  25 2.92  16 2.93  12 2.93  13 2.93  11 2.93  17 2.93
                            15 2.93   7 2.93   3 2.93   9 2.93
  19  0.889  0.223  0.454-  28 2.91  15 2.92  10 2.92  12 2.92  24 2.93  22 2.93  32 2.94  31 2.94
                            26 2.94  25 2.94  20 2.94  21 2.94
  20  0.223  0.223  0.453-  36 2.69  31 2.89  29 2.89  13 2.91  11 2.91  10 2.91  21 2.92  23 2.92
                            27 2.93  22 2.93  19 2.94  26 2.94
  21  0.554  0.223  0.453-  36 2.69  30 2.89  32 2.89  11 2.91  14 2.91  12 2.91  20 2.92  23 2.92
                            27 2.93  24 2.93  25 2.94  19 2.94
  22  0.889  0.556  0.453-  18 2.91  15 2.91  35 2.91  13 2.91  33 2.91  31 2.91  24 2.93  27 2.93
                            25 2.93  19 2.93  23 2.93  20 2.93
  23  0.223  0.554  0.453-  36 2.69  34 2.89  33 2.89  14 2.91  13 2.91  16 2.91  21 2.92  20 2.92
                            22 2.93  24 2.93  26 2.94  25 2.94
  24  0.556  0.556  0.453-  15 2.91  17 2.91  35 2.91  14 2.91  32 2.91  34 2.91  27 2.93  22 2.93
                            19 2.93  26 2.93  23 2.93  21 2.93
  25  0.889  0.889  0.454-  28 2.91  18 2.92  16 2.92  12 2.92  22 2.93  27 2.93  33 2.94  30 2.94
                            26 2.94  19 2.94  23 2.94  21 2.94
  26  0.223  0.889  0.454-  28 2.91  17 2.92  16 2.92  10 2.92  27 2.93  24 2.93  34 2.94  29 2.94
                            25 2.94  19 2.94  23 2.94  20 2.94
  27  0.556  0.889  0.453-  17 2.91  18 2.91  35 2.91  11 2.91  29 2.91  30 2.91  24 2.93  22 2.93
                            26 2.93  25 2.93  20 2.93  21 2.93
  28  0.000  0.000  0.560-  26 2.91  25 2.91  19 2.91  29 2.96  34 2.96  33 2.96  32 2.96  31 2.96
                            30 2.96
  29  0.333  0.007  0.560-  30 2.87  31 2.87  36 2.88  20 2.89  27 2.91  26 2.94  35 2.96  28 2.96
                            34 3.06
  30  0.659  0.007  0.560-  29 2.87  32 2.87  36 2.88  21 2.89  27 2.91  25 2.94  35 2.96  28 2.96
                            33 3.06
  31  0.007  0.333  0.560-  33 2.87  29 2.87  36 2.88  20 2.89  22 2.91  19 2.94  35 2.96  28 2.96
                            32 3.06
  32  0.659  0.333  0.560-  34 2.87  30 2.87  36 2.88  21 2.89  24 2.91  19 2.94  35 2.96  28 2.96
                            31 3.06
  33  0.007  0.659  0.560-  31 2.87  34 2.87  36 2.88  23 2.89  22 2.91  25 2.94  35 2.96  28 2.96
                            30 3.06
  34  0.333  0.659  0.560-  32 2.87  33 2.87  36 2.88  23 2.89  24 2.91  26 2.94  35 2.96  28 2.96
                            29 3.06
  35  0.667  0.667  0.560-  24 2.91  27 2.91  22 2.91  30 2.96  32 2.96  29 2.96  34 2.96  31 2.96
                            33 2.96
  36  0.333  0.333  0.547-  37 1.81  21 2.69  20 2.69  23 2.69  31 2.88  33 2.88  30 2.88  29 2.88
                            34 2.88  32 2.88
  37  0.333  0.333  0.629-  38 0.97  36 1.81
  38  0.333  0.333  0.672-  37 0.97

  LATTYP: Found a hexagonal cell.
 ALAT       =     8.7913665772
 C/A-ratio  =     2.5227160501

  Lattice vectors:

 A1 = (  -4.3956832886,  -7.6135467898,   0.0000000000)
 A2 = (   8.7913665771,   0.0000000000,   0.0000000000)
 A3 = (   0.0000000000,   0.0000000000,  22.1781215668)

Analysis of symmetry for initial positions (statically):
 Subroutine PRICEL returns:
 Original cell was already a primitive cell.

 Routine SETGRP: Setting up the symmetry group for a
 hexagonal supercell.

 Subroutine GETGRP returns: Found  6 space group operations
 (whereof  6 operations were pure point group operations)
 out of a pool of 24 trial point group operations.

The static configuration has the point symmetry C_3v.

Analysis of symmetry for dynamics (positions and initial velocities):
 Subroutine PRICEL returns:
 Original cell was already a primitive cell.

[...]

The dynamic configuration has the point symmetry C_3v.

Analysis of constrained symmetry for selective dynamics:
 Subroutine PRICEL returns:
 Original cell was already a primitive cell.

[...]
     33      -4.3936      2.00000
     34      -4.3688      2.00000
     35      -4.3066      2.00000
     36      -4.2918      2.00000
     37      -4.2619      2.00000
     38      -4.2545      2.00000
     39      -4.2334      2.00000
     40      -4.2017      2.00000
     41      -4.1910      2.00000
     42      -4.1861      2.00000
     43      -4.1645      2.00000
     44      -4.1582      2.00000
     45      -4.0864      2.00000
     46      -4.0553      2.00000
     47      -4.0487      2.00000
     48      -4.0370      2.00000
     49      -4.0334      2.00000
     50      -4.0297      2.00000
     51      -4.0144      2.00000
     52      -4.0086      2.00000
     53      -3.9873      2.00000
     54      -3.9781      2.00000
     55      -3.9188      2.00000
     56      -3.9084      2.00000
     57      -3.8977      2.00000
     58      -3.8948      2.00000
     59      -3.8782      2.00000
     60      -3.8667      2.00000
[...]
    238       6.3418      0.00000
    239       6.4166      0.00000
    240       6.4381      0.00000
    241       6.7220      0.00000
    242       7.1739      0.00000
    243       7.2005      0.00000
    244       7.2935      0.00000
    245       7.3256      0.00000
    246       7.3359      0.00000
    247       7.3935      0.00000
    248       7.4732      0.00000
    249       7.5468      0.00000
    250       7.5792      0.00000
    251       7.6721      0.00000
    252       7.7791      0.00000

 soft charge-density along one line, spin component           1
         0         1         2         3         4         5         6         7         8         9
 total charge-density along one line

------------------------ aborting loop because EDIFF is reached ----------------------------------------

 total charge

# of ion       s       p       d       tot
    1        0.415   0.204   9.178   9.797
    2        0.418   0.203   9.177   9.798
    3        0.418   0.203   9.177   9.798
    4        0.418   0.203   9.177   9.798
    5        0.416   0.204   9.176   9.797
    6        0.418   0.203   9.177   9.798
    7        0.418   0.203   9.177   9.798
    8        0.418   0.203   9.177   9.798
    9        0.414   0.204   9.179   9.796
   10        0.405   0.269   9.164   9.838
   11        0.408   0.267   9.167   9.842
   12        0.405   0.269   9.164   9.838
   13        0.408   0.267   9.167   9.842
   14        0.408   0.267   9.167   9.842
   15        0.402   0.271   9.165   9.837
   16        0.405   0.269   9.164   9.838
   17        0.402   0.271   9.165   9.837
   18        0.402   0.271   9.165   9.837
   19        0.401   0.269   9.165   9.836
   20        0.417   0.290   9.152   9.860
   21        0.417   0.290   9.152   9.860
   22        0.403   0.272   9.167   9.842
   23        0.417   0.290   9.152   9.860
   24        0.403   0.272   9.167   9.842
   25        0.401   0.269   9.165   9.836
   26        0.401   0.269   9.165   9.836
   27        0.403   0.272   9.167   9.842
   28        0.417   0.196   9.179   9.792
   29        0.402   0.198   9.189   9.788
   30        0.402   0.198   9.189   9.788
   31        0.402   0.198   9.189   9.788
   32        0.402   0.198   9.189   9.788
   33        0.402   0.198   9.189   9.788
   34        0.402   0.198   9.189   9.788
   35        0.414   0.198   9.177   9.789
   36        0.385   0.369   8.371   9.125
   37        1.547   3.522   0.000   5.069
   38        0.612   0.127   0.000   0.739
tot         16.850  12.343 329.395 358.588

  FORCE on cell =-STRESS in cart. coord.  units (eV):
  Direction    XX          YY          ZZ          XY          YZ          ZX
  Alpha Z   753.64683   753.64683   753.64683
  Ewald  122250.32728122250.32740************     0.00005     0.00000     0.00004
  Hartree132811.74110132811.74116************     0.00002    -0.00000     0.00003
  E(xc)   -2117.73720 -2117.73722 -2121.94620     0.00002     0.00000     0.00000
  Local  ************************266131.31415     0.00069    -0.00007    -0.00019
  n-local  -368.84461  -351.69602  -366.78879    10.16649    -0.34737     0.35430
  augment  3406.77096  3406.77132  3406.67810    -0.00034     0.00001     0.00001
  Kinetic  4994.31156  4998.12308  4987.05437     4.91723     1.06612    -0.35353
  Fock        0.00000     0.00000     0.00000     0.00000     0.00000     0.00000
  Total      -8.15716    -8.15716    -0.87245    -0.00000     0.00000     0.00000
  in kB      -8.80403    -8.80403    -0.94164    -0.00000     0.00000     0.00000

 VOLUME and BASIS-vectors are now :
  energy-cutoff  :      500.00
  volume of cell :     1484.46
      direct lattice vectors                 reciprocal lattice vectors
     8.791366577  0.000000000  0.000000000     0.113747958 -0.065672414  0.000000000
     4.395683289  7.613546790  0.000000000     0.000000000  0.131344829  0.000000000
     0.000000000  0.000000000 22.178121567     0.000000000  0.000000000  0.045089481

  length of vectors
     8.791366577  8.791366577 22.178121567     0.131344829  0.131344829  0.045089481

 FORCES acting on ions
    electron-ion (+dipol)            ewald-force                    non-local-force                 convergence-correction
   0.458E-04 -.284E-04 0.253E+04   -.954E-04 0.593E-04 -.253E+04   0.239E-17 -.124E-17 -.225E+01   -.132E-03 -.177E-03 -.249E+00
   0.595E+00 0.609E+00 0.253E+04   -.647E+00 -.666E+00 -.253E+04   0.214E-01 0.371E-01 -.165E+01   0.338E-01 0.304E-01 -.197E+00
   -.595E+00 0.609E+00 0.253E+04   0.647E+00 -.666E+00 -.253E+04   -.214E-01 0.371E-01 -.165E+01   -.343E-01 0.324E-01 -.196E+00
   0.825E+00 0.211E+00 0.253E+04   -.901E+00 -.227E+00 -.253E+04   0.428E-01 0.447E-05 -.165E+01   0.434E-01 0.143E-01 -.197E+00
   -.515E-05 -.184E-04 0.253E+04   0.981E-04 -.200E-05 -.253E+04   -.798E-18 0.353E-19 -.147E+01   0.631E-02 0.384E-02 -.779E-01
   -.825E+00 0.211E+00 0.253E+04   0.900E+00 -.228E+00 -.253E+04   -.428E-01 0.447E-05 -.165E+01   -.449E-01 0.152E-01 -.196E+00
   0.230E+00 -.820E+00 0.253E+04   -.253E+00 0.894E+00 -.253E+04   0.214E-01 -.371E-01 -.165E+01   0.113E-01 -.454E-01 -.196E+00
   -.230E+00 -.820E+00 0.253E+04   0.253E+00 0.893E+00 -.253E+04   -.214E-01 -.371E-01 -.165E+01   -.961E-02 -.464E-01 -.196E+00
   0.363E-04 -.130E-04 0.253E+04   0.792E-04 -.643E-04 -.253E+04   -.146E-17 -.141E-17 -.202E+01   -.671E-02 -.345E-02 -.196E+00
   0.586E+01 0.338E+01 0.880E+03   -.563E+01 -.325E+01 -.879E+03   -.276E+00 -.160E+00 -.713E+00   0.541E-01 0.313E-01 -.119E+00
   -.297E-04 0.688E+01 0.891E+03   0.420E-04 -.699E+01 -.891E+03   0.210E-12 0.320E-01 -.424E+00   0.643E-02 0.537E-01 -.656E-01
   -.586E+01 0.338E+01 0.880E+03   0.563E+01 -.325E+01 -.879E+03   0.276E+00 -.160E+00 -.713E+00   -.560E-01 0.328E-01 -.118E+00
   0.596E+01 -.344E+01 0.891E+03   -.605E+01 0.349E+01 -.891E+03   0.277E-01 -.160E-01 -.424E+00   0.496E-01 -.213E-01 -.658E-01
   -.596E+01 -.344E+01 0.891E+03   0.605E+01 0.349E+01 -.891E+03   -.277E-01 -.160E-01 -.424E+00   -.385E-01 -.221E-01 -.656E-01
   0.164E-04 0.103E+01 0.881E+03   -.109E-03 -.111E+01 -.880E+03   0.172E-12 0.262E-01 -.678E+00   -.206E-02 0.404E-01 -.170E+00
   -.801E-05 -.677E+01 0.880E+03   0.208E-04 0.650E+01 -.879E+03   0.210E-11 0.319E+00 -.713E+00   0.334E-03 -.649E-01 -.118E+00
   0.891E+00 -.514E+00 0.881E+03   -.965E+00 0.557E+00 -.880E+03   0.227E-01 -.131E-01 -.678E+00   0.340E-01 -.220E-01 -.170E+00
   -.891E+00 -.514E+00 0.881E+03   0.965E+00 0.557E+00 -.880E+03   -.227E-01 -.131E-01 -.678E+00   -.342E-01 -.197E-01 -.169E+00
   0.428E-04 0.443E+01 -.808E+03   -.130E-03 -.453E+01 0.807E+03   0.790E-12 0.120E+00 0.736E+00   -.213E-02 -.137E-01 -.139E+00
   0.428E+02 0.247E+02 -.745E+03   -.420E+02 -.242E+02 0.746E+03   -.890E+00 -.514E+00 -.943E+00   0.142E+00 0.818E-01 -.145E+00
   -.428E+02 0.247E+02 -.745E+03   0.420E+02 -.242E+02 0.746E+03   0.890E+00 -.514E+00 -.943E+00   -.131E+00 0.830E-01 -.145E+00
   0.182E+02 -.105E+02 -.792E+03   -.184E+02 0.106E+02 0.792E+03   0.103E+00 -.593E-01 0.507E+00   0.319E-01 -.182E-01 -.195E+00
   -.631E-04 -.494E+02 -.745E+03   0.486E-04 0.485E+02 0.746E+03   0.675E-11 0.103E+01 -.943E+00   0.686E-02 -.155E+00 -.146E+00
   -.182E+02 -.105E+02 -.792E+03   0.184E+02 0.106E+02 0.792E+03   -.103E+00 -.593E-01 0.507E+00   -.337E-01 -.192E-01 -.194E+00
   -.384E+01 -.221E+01 -.808E+03   0.392E+01 0.227E+01 0.807E+03   -.104E+00 -.601E-01 0.736E+00   0.127E-01 0.765E-02 -.140E+00
   0.384E+01 -.221E+01 -.808E+03   -.392E+01 0.227E+01 0.807E+03   0.104E+00 -.601E-01 0.736E+00   -.129E-01 0.502E-02 -.140E+00
   0.212E-04 0.211E+02 -.792E+03   0.109E-03 -.212E+02 0.792E+03   0.779E-12 0.119E+00 0.507E+00   -.589E-03 0.372E-01 -.194E+00
   0.550E-04 -.377E-04 -.249E+04   -.116E-03 0.784E-04 0.248E+04   -.376E-17 -.395E-18 0.178E+01   -.134E-02 0.486E-03 0.130E+00
   0.454E+02 0.779E+02 -.247E+04   -.454E+02 -.783E+02 0.247E+04   0.707E-01 0.286E+00 0.260E+01   -.783E-01 -.630E-01 -.257E-01
   -.454E+02 0.779E+02 -.247E+04   0.454E+02 -.783E+02 0.247E+04   -.707E-01 0.286E+00 0.260E+01   0.885E-01 -.602E-01 -.259E-01
   0.901E+02 0.333E+00 -.247E+04   -.905E+02 -.198E+00 0.247E+04   0.283E+00 -.819E-01 0.260E+01   -.992E-01 -.462E-01 -.257E-01
   -.901E+02 0.334E+00 -.247E+04   0.905E+02 -.198E+00 0.247E+04   -.283E+00 -.819E-01 0.260E+01   0.970E-01 -.454E-01 -.266E-01
   0.448E+02 -.782E+02 -.247E+04   -.451E+02 0.785E+02 0.247E+04   0.213E+00 -.204E+00 0.260E+01   -.824E-02 0.109E+00 -.259E-01
   -.448E+02 -.782E+02 -.247E+04   0.451E+02 0.785E+02 0.247E+04   -.213E+00 -.204E+00 0.260E+01   0.203E-01 0.107E+00 -.266E-01
   0.211E-04 -.120E-04 -.249E+04   0.107E-03 -.667E-04 0.248E+04   0.342E-17 -.178E-17 0.178E+01   -.800E-02 -.279E-02 0.683E-01
   -.547E-04 -.298E-04 -.192E+04   0.957E-04 0.140E-04 0.192E+04   0.209E-17 0.304E-17 -.252E+00   0.105E-01 0.488E-02 -.718E+00
   0.194E-03 -.929E-04 -.165E+04   0.286E-04 0.424E-06 0.163E+04   0.180E-17 0.267E-17 0.230E+02   0.401E-02 0.190E-02 -.139E+00
   0.760E-05 -.131E-04 -.324E+03   0.205E-05 0.812E-08 0.332E+03   -.186E-19 0.726E-21 -.834E+01   0.228E-03 0.937E-04 0.809E-01
   0.552E-03 -.811E-03 -.833E+01   -.777E-14 -.133E-12 -.512E-12   -.104E-15 0.872E-16 0.134E+02   0.515E-01 0.225E-01 -.493E+01

 POSITION                                       TOTAL-FORCE (eV/Angst)
      0.00000      0.00000      5.28219         0.000000      0.000000      0.049603
      2.93046      0.00000      5.28219         0.003938      0.011383      0.045912
      5.86091      0.00000      5.28219        -0.003938      0.011383      0.045912
      1.46523      2.53785      5.28219         0.011827     -0.002281      0.045912
      4.39568      2.53785      5.28219         0.000000      0.000000      0.029606
      7.32614      2.53785      5.28219        -0.011827     -0.002281      0.045912
      2.93046      5.07570      5.28219         0.007889     -0.009102      0.045912
      5.86091      5.07570      5.28219        -0.007889     -0.009102      0.045912
      8.79137      5.07570      5.28219         0.000000     -0.000000      0.038509
      1.46523      0.84595      7.67490         0.015577      0.008993     -0.003172
      4.39568      0.84595      7.67490        -0.000000     -0.023260     -0.084325
      7.32614      0.84595      7.67490        -0.015577      0.008993     -0.003172
      2.93046      3.38380      7.67490        -0.020144      0.011630     -0.084325
      5.86091      3.38380      7.67490         0.020144      0.011630     -0.084325
      8.79137      3.38380      7.67490        -0.000000     -0.019336     -0.024905
      4.39568      5.92165      7.67490        -0.000000     -0.017986     -0.003172
      7.32614      5.92165      7.67490        -0.016745      0.009668     -0.024905
     10.25659      5.92165      7.67490         0.016745      0.009668     -0.024905
      8.79137      1.69533     10.05818         0.000000      0.004464      0.027239
      2.93805      1.69629     10.04232         0.037697      0.021765     -0.051555
      5.85331      1.69629     10.04232        -0.037697      0.021765     -0.051555
     10.25424      4.23111     10.04634         0.030484     -0.017600      0.006102
      4.39568      4.22098     10.04232        -0.000000     -0.043529     -0.051555
      7.32849      4.23111     10.04634        -0.030484     -0.017600      0.006102
     11.71886      6.76588     10.05818        -0.003866     -0.002232      0.027239
      5.86388      6.76588     10.05818         0.003866     -0.002232      0.027239
      8.79137      6.76488     10.04634         0.000000      0.035200      0.006102
      0.00000      0.00000     12.42348         0.000000     -0.000000     -0.022943
      2.96241      0.05505     12.41819        -0.085054     -0.168776     -0.060769
      5.82895      0.05505     12.41819         0.085054     -0.168776     -0.060769
      1.52888      2.53800     12.41819        -0.188692      0.010729     -0.060769
      7.26249      2.53800     12.41819         0.188692      0.010729     -0.060769
      2.96215      5.02050     12.41819        -0.103638      0.158047     -0.060769
      5.82922      5.02050     12.41819         0.103638      0.158047     -0.060769
      8.79137      5.07570     12.42030         0.000000     -0.000000      0.003402
      4.39568      2.53785     12.13895         0.000000     -0.000000      0.386719
      4.39568      2.53785     13.94868         0.000000      0.000000      0.082409
      4.39568      2.53785     14.91440         0.000000      0.000000     -0.086313
    total drift:                                0.052055      0.021694      0.093310

  FREE ENERGIE OF THE ION-ELECTRON SYSTEM (eV)
  free  energy   TOTEN  =      -103.69461607 eV

  energy  without entropy=     -103.69461607  energy(sigma->0) =     -103.69461607

 stress matrix after NEB project (eV)
     -8.15716     -0.00000      0.00000
     -0.00000     -8.15716      0.00000
     -0.00000      0.00000     -0.87245
  FORCES: max atom, RMS     0.086313    0.019359
  FORCE total and by dimension    0.119336    0.086313
  Stress total and by dimension   11.568908    8.157158
|           W    W    AA    RRRRR   N    N  II  N    N   GGGG   !!!           |
|           W    W   A  A   R    R  NN   N  II  NN   N  G    G  !!!           |
|           W    W  A    A  R    R  N N  N  II  N N  N  G       !!!           |
|           W WW W  AAAAAA  RRRRR   N  N N  II  N  N N  G  GGG   !            |
|           WW  WW  A    A  R   R   N   NN  II  N   NN  G    G                |
|           W    W  A    A  R    R  N    N  II  N    N   GGGG   !!!           |
|     Tetrahedron method does not include variations of the Fermi             |
|     occupations, so forces and stress will be inaccurate. We suggest        |
|     using a different smearing scheme ISMEAR = 1 or 2 for metals in         |
|     relaxations.                                                            |

 total charge

# of ion       s       p       d       tot
    1        0.415   0.204   9.178   9.797
    2        0.418   0.203   9.177   9.798
    3        0.418   0.203   9.177   9.798
    4        0.418   0.203   9.177   9.798
    5        0.416   0.204   9.176   9.797
    6        0.418   0.203   9.177   9.798
    7        0.418   0.203   9.177   9.798
    8        0.418   0.203   9.177   9.798
    9        0.414   0.204   9.179   9.796
   10        0.405   0.269   9.164   9.838
   11        0.408   0.267   9.167   9.842
   12        0.405   0.269   9.164   9.838
   13        0.408   0.267   9.167   9.842
   14        0.408   0.267   9.167   9.842
   15        0.402   0.271   9.165   9.837
   16        0.405   0.269   9.164   9.838
   17        0.402   0.271   9.165   9.837
   18        0.402   0.271   9.165   9.837
   19        0.401   0.269   9.165   9.836
   20        0.417   0.290   9.152   9.860
   21        0.417   0.290   9.152   9.860
   22        0.403   0.272   9.167   9.842
   23        0.417   0.290   9.152   9.860
   24        0.403   0.272   9.167   9.842
   25        0.401   0.269   9.165   9.836
   26        0.401   0.269   9.165   9.836
   27        0.403   0.272   9.167   9.842
   28        0.417   0.196   9.179   9.792
   29        0.402   0.198   9.189   9.788
   30        0.402   0.198   9.189   9.788
   31        0.402   0.198   9.189   9.788
   32        0.402   0.198   9.189   9.788
   33        0.402   0.198   9.189   9.788
   34        0.402   0.198   9.189   9.788
   35        0.414   0.198   9.177   9.789
   36        0.385   0.369   8.371   9.125
   37        1.547   3.522   0.000   5.069
   38        0.612   0.127   0.000   0.739
tot         16.850  12.343 329.395 358.588

 BZINTS: Fermi energy:    0.949003;  402.000000 electrons
         Band energy:-0.126718E+04;  BLOECHL correction:   -0.039907