 vasp.6.2.0 18Jan21 (build Jun 12 2021 23:27:24) complex

 executed on             LinuxIFC date 2022.05.28  01:33:47

 INCAR:
   ISMEAR = -5
   SIGMA = 0.1
   ISPIN = 1
   EDIFF = 1.d-5
   EDIFFG = -0.01
   NSW = 0
   NELM = 150
   ENCUT = 500
   ISIF = 2
   IBRION = 2
   LREAL = Auto
   ALGO = Fast
   ICHARG = 11
   LORBIT = 10
   LCHARG = .F.
   LWAVE = .F.

 POTCAR:    PAW_PBE Ag 02Apr2005
 POTCAR:    PAW_PBE Fe 06Sep2000
 POTCAR:    PAW_PBE O 08Apr2002
 POTCAR:    PAW_PBE H 15Jun2001
|           W    W    AA    RRRRR   N    N  II  N    N   GGGG   !!!           |
|           W    W   A  A   R    R  NN   N  II  NN   N  G    G  !!!           |
|           W    W  A    A  R    R  N N  N  II  N N  N  G       !!!           |
|           W WW W  AAAAAA  RRRRR   N  N N  II  N  N N  G  GGG   !            |
|           WW  WW  A    A  R   R   N   NN  II  N   NN  G    G                |
|           W    W  A    A  R    R  N    N  II  N    N   GGGG   !!!           |
|     For optimal performance we recommend to set                             |
|       NCORE = 2 up to number-of-cores-per-socket                            |
|     This setting can greatly improve the performance of VASP for DFT.       |
|     The default, NCORE=1 might be grossly inefficient on modern             |
|     multi-core architectures or massively parallel machines. Do your        |
|     Unfortunately you need to use the default for GW and RPA                |
|     calculations (for HF NCORE is supported but not extensively tested      |
|     yet).                                                                   |

 POTCAR:    PAW_PBE Ag 02Apr2005
   VRHFIN =Ag : s1 d10

   TITEL  = PAW_PBE Ag 02Apr2005
   POMASS =  107.868; ZVAL   =   11.000    mass and valenz
   ENMAX  =  249.844; ENMIN  =  187.383 eV

 POTCAR:    PAW_PBE Fe 06Sep2000
   VRHFIN =Fe:  d7 s1

   TITEL  = PAW_PBE Fe 06Sep2000
   POMASS =   55.847; ZVAL   =    8.000    mass and valenz
   ENMAX  =  267.882; ENMIN  =  200.911 eV

 POTCAR:    PAW_PBE O 08Apr2002
   VRHFIN =O: s2p4

   TITEL  = PAW_PBE O 08Apr2002
   POMASS =   16.000; ZVAL   =    6.000    mass and valenz
   ENMAX  =  400.000; ENMIN  =  300.000 eV

 POTCAR:    PAW_PBE H 15Jun2001
   VRHFIN =H: ultrasoft test

   TITEL  = PAW_PBE H 15Jun2001
   POMASS =    1.000; ZVAL   =    1.000    mass and valenz
   ENMAX  =  250.000; ENMIN  =  200.000 eV

 Optimization of the real space projectors (new method)

 maximal supplied QI-value         = 15.12
 optimisation between [QCUT,QGAM] = [ 11.34, 22.83] = [ 36.00,145.93] Ry
 Optimized for a Real-space Cutoff    1.43 Angstroem

   l    n(q)    QCUT    max X(q) W(low)/X(q) W(high)/X(q)  e(spline)
   2      9    11.338    53.897    0.16E-03    0.20E-03    0.28E-06
   2      9    11.338    52.416    0.16E-03    0.20E-03    0.29E-06
   0     10    11.338   122.045    0.31E-04    0.76E-04    0.15E-06
   0     10    11.338    73.629    0.30E-04    0.72E-04    0.15E-06
   1      9    11.338    15.255    0.20E-03    0.19E-04    0.17E-06
   1      9    11.338     9.562    0.16E-03    0.15E-04    0.14E-06
 Optimization of the real space projectors (new method)

[...]

   l    n(q)    QCUT    max X(q) W(low)/X(q) W(high)/X(q)  e(spline)
   0      7    11.387    20.381    0.39E-03    0.13E-02    0.15E-06
   0      7    11.387    15.268    0.42E-03    0.14E-02    0.17E-06
   1      6    11.387     5.964    0.41E-03    0.11E-02    0.17E-06
   1      6    11.387     5.382    0.39E-03    0.87E-03    0.15E-06
 Optimization of the real space projectors (new method)

 maximal supplied QI-value         = 34.20
 optimisation between [QCUT,QGAM] = [ 11.29, 22.57] = [ 35.68,142.71] Ry
 Optimized for a Real-space Cutoff    1.16 Angstroem

   l    n(q)    QCUT    max X(q) W(low)/X(q) W(high)/X(q)  e(spline)
   0      8    11.287    19.460    0.40E-03    0.73E-03    0.16E-06
   0      8    11.287    12.209    0.38E-03    0.70E-03    0.15E-06
   1      7    11.287     4.655    0.22E-03    0.25E-04    0.22E-06
  PAW_PBE Ag 02Apr2005                  :
  PAW_PBE Fe 06Sep2000                  :
  PAW_PBE O 08Apr2002                   :
  PAW_PBE H 15Jun2001                   :

 POSCAR: Ag-Fe-OOH
  positions in direct lattice
  velocities in cartesian coordinates
 exchange correlation table for  LEXCH =        8
   RHO(1)=    0.500       N(1)  =     2000
   RHO(2)=  100.500       N(2)  =     4000

 VTST: version 3.2, (02/03/18)

 CHAIN: initializing optimizer

 OPT: Using VASP Conjugate-Gradient optimizer
 CHAIN: Read ICHAIN            0

 POSCAR: Ag-Fe-OOH
  positions in direct lattice
  velocities in cartesian coordinates

 ion  position               nearest neighbor table
   1  0.000  0.000  0.204-   2 2.93   8 2.93   7 2.93   6 2.93   4 2.93  12 2.93  16 2.93  10 2.93
                             3 2.93
   2  0.333  0.000  0.204-   1 2.93   8 2.93   9 2.93   3 2.93   4 2.93   5 2.93  10 2.93  17 2.93
                            11 2.93
   3  0.667  0.000  0.204-   9 2.93   2 2.93   5 2.93  11 2.93   7 2.93  18 2.93   1 2.93   6 2.93
                            12 2.93
   4  0.000  0.333  0.204-   5 2.93   6 2.93   2 2.93   1 2.93   7 2.93  13 2.93  15 2.93   9 2.93
                            10 2.93
   5  0.333  0.333  0.204-   4 2.93   3 2.93   7 2.93   2 2.93   8 2.93  14 2.93  13 2.93  11 2.93
                             6 2.93
   6  0.667  0.333  0.204-   4 2.93   9 2.93   1 2.93  15 2.93   8 2.93  12 2.93   3 2.93   5 2.93
                            14 2.93
   7  0.000  0.667  0.204-   8 2.93   1 2.93   5 2.93   3 2.93   4 2.93  16 2.93  18 2.93  13 2.93
                             9 2.93
   8  0.333  0.667  0.204-   7 2.93   1 2.93   2 2.93   9 2.93   5 2.93  16 2.93   6 2.93  17 2.93
                            14 2.93
   9  0.667  0.667  0.204-   3 2.93   2 2.93   8 2.93   6 2.93  17 2.93   4 2.93  15 2.93   7 2.93
                            18 2.93
  10  0.111  0.111  0.296-  20 2.92  19 2.93  26 2.93  12 2.93  16 2.93  15 2.93  17 2.93  13 2.93
                            11 2.93   2 2.93   1 2.93   4 2.93
  11  0.444  0.111  0.296-  21 2.90  20 2.90  27 2.92  14 2.93  17 2.93  18 2.93   3 2.93  12 2.93
                            13 2.93  10 2.93   5 2.93   2 2.93
  12  0.778  0.111  0.296-  21 2.92  25 2.93  19 2.93  10 2.93  16 2.93  18 2.93  15 2.93  11 2.93
                             1 2.93  14 2.93   6 2.93   3 2.93
  13  0.111  0.444  0.296-  20 2.90  23 2.90  22 2.92  15 2.93  14 2.93  18 2.93  10 2.93  11 2.93
                            16 2.93   4 2.93   5 2.93   7 2.93
  14  0.444  0.444  0.296-  23 2.90  21 2.90  24 2.92  13 2.93  11 2.93  16 2.93   5 2.93  12 2.93
                            17 2.93   8 2.93  15 2.93   6 2.93
  15  0.778  0.444  0.296-  24 2.92  22 2.92  19 2.93  13 2.93  10 2.93  12 2.93  17 2.93  18 2.93
                             4 2.93   6 2.93   9 2.93  14 2.93
  16  0.111  0.778  0.296-  23 2.92  26 2.93  25 2.93  18 2.93  12 2.93  10 2.93  14 2.93  17 2.93
                            13 2.93   7 2.93   8 2.93   1 2.93
  17  0.444  0.778  0.296-  27 2.92  24 2.92  26 2.93  11 2.93  10 2.93   9 2.93  18 2.93  15 2.93
                            16 2.93   2 2.93  14 2.93   8 2.93
  18  0.778  0.778  0.296-  22 2.92  27 2.92  25 2.93  16 2.93  12 2.93  13 2.93  11 2.93  17 2.93
                            15 2.93   7 2.93   3 2.93   9 2.93
  19  0.889  0.222  0.388-  28 2.91  15 2.93  10 2.93  12 2.93  24 2.93  22 2.93  26 2.93  25 2.93
                            20 2.94  21 2.94  32 2.94  31 2.94
  20  0.223  0.223  0.388-  36 2.70  31 2.89  29 2.89  13 2.90  11 2.90  21 2.91  23 2.91  10 2.92
                            27 2.94  22 2.94  19 2.94  26 2.94
  21  0.554  0.223  0.388-  36 2.70  30 2.89  32 2.89  11 2.90  14 2.90  20 2.91  23 2.91  12 2.92
                            27 2.94  24 2.94  25 2.94  19 2.94
  22  0.888  0.556  0.388-  35 2.91  18 2.92  15 2.92  33 2.92  31 2.92  13 2.92  24 2.92  27 2.92
                            25 2.93  19 2.93  23 2.94  20 2.94
  23  0.223  0.554  0.388-  36 2.70  34 2.89  33 2.89  14 2.90  13 2.90  21 2.91  20 2.91  16 2.92
                            22 2.94  24 2.94  26 2.94  25 2.94
  24  0.556  0.556  0.388-  35 2.91  15 2.92  17 2.92  32 2.92  34 2.92  14 2.92  27 2.92  22 2.92
                            19 2.93  26 2.93  23 2.94  21 2.94
  25  0.889  0.889  0.388-  28 2.91  18 2.93  16 2.93  12 2.93  22 2.93  27 2.93  26 2.93  19 2.93
                            23 2.94  21 2.94  33 2.94  30 2.94
  26  0.222  0.889  0.388-  28 2.91  17 2.93  16 2.93  10 2.93  27 2.93  24 2.93  25 2.93  19 2.93
                            23 2.94  20 2.94  34 2.94  29 2.94
  27  0.556  0.888  0.388-  35 2.91  17 2.92  18 2.92  29 2.92  30 2.92  11 2.92  24 2.92  22 2.92
                            26 2.93  25 2.93  20 2.94  21 2.94
  28  0.000  0.000  0.480-  38 2.30  26 2.91  25 2.91  19 2.91  29 2.97  34 2.97  33 2.97  32 2.97
                            31 2.97  30 2.97
  29  0.333  0.008  0.480-  38 2.29  37 2.52  31 2.86  30 2.86  36 2.87  20 2.89  27 2.92  26 2.94
                            28 2.97  35 2.97  34 3.07
  30  0.659  0.008  0.480-  37 2.41  32 2.86  29 2.86  36 2.87  21 2.89  27 2.92  25 2.94  28 2.97
                            35 2.97  33 3.07
  31  0.008  0.333  0.480-  29 2.86  33 2.86  36 2.87  20 2.89  22 2.92  19 2.94  28 2.97  35 2.97
                            32 3.07
  32  0.659  0.333  0.480-  30 2.86  34 2.86  36 2.87  21 2.89  24 2.92  19 2.94  28 2.97  35 2.97
                            31 3.07
  33  0.008  0.659  0.480-  34 2.86  31 2.86  36 2.87  23 2.89  22 2.92  25 2.94  28 2.97  35 2.97
                            30 3.07
  34  0.333  0.659  0.480-  38 2.29  33 2.86  32 2.86  36 2.87  23 2.89  24 2.92  26 2.94  28 2.97
                            35 2.97  29 3.07
  35  0.667  0.667  0.479-  24 2.91  27 2.91  22 2.91  32 2.97  30 2.97  29 2.97  34 2.97  31 2.97
                            33 2.97
  36  0.333  0.333  0.469-  37 1.64  21 2.70  20 2.70  23 2.70  31 2.87  30 2.87  33 2.87  29 2.87
                            34 2.87  32 2.87
  37  0.398  0.224  0.524-  36 1.64  30 2.41  29 2.52
  38  0.229  0.886  0.538-  39 0.97  29 2.29  34 2.29  28 2.30
  39  0.236  0.885  0.575-  38 0.97

  LATTYP: Found a hexagonal cell.
 ALAT       =     8.7913665772
 C/A-ratio  =     2.9469639759

  Lattice vectors:

 A1 = (  -4.3956832886,  -7.6135467898,   0.0000000000)
 A2 = (   8.7913665771,   0.0000000000,   0.0000000000)
 A3 = (   0.0000000000,   0.0000000000,  25.9078406020)

Analysis of symmetry for initial positions (statically):
 Subroutine PRICEL returns:
 Original cell was already a primitive cell.

 Routine SETGRP: Setting up the symmetry group for a
 hexagonal supercell.

 Subroutine GETGRP returns: Found  1 space group operations
 (whereof  1 operations were pure point group operations)
 out of a pool of 24 trial point group operations.

The static configuration has the point symmetry C_1 .

Analysis of symmetry for dynamics (positions and initial velocities):
 Subroutine PRICEL returns:
 Original cell was already a primitive cell.

[...]

The dynamic configuration has the point symmetry C_1 .

[...]
     41      -5.0625      2.00000
     42      -5.0522      2.00000
     43      -5.0337      2.00000
     44      -5.0225      2.00000
     45      -5.0070      2.00000
     46      -4.9622      2.00000
     47      -4.9434      2.00000
     48      -4.9165      2.00000
     49      -4.9060      2.00000
     50      -4.8977      2.00000
     51      -4.8813      2.00000
     52      -4.8701      2.00000
     53      -4.8548      2.00000
     54      -4.8434      2.00000
     55      -4.8346      2.00000
     56      -4.8206      2.00000
     57      -4.7777      2.00000
     58      -4.7639      2.00000
     59      -4.7524      2.00000
     60      -4.7419      2.00000
[...]
    238       5.2065      0.00000
    239       5.2645      0.00000
    240       5.4329      0.00000
    241       5.6055      0.00000
    242       5.6956      0.00000
    243       5.7944      0.00000
    244       5.9163      0.00000
    245       5.9455      0.00000
    246       5.9910      0.00000
    247       6.1819      0.00000
    248       6.2226      0.00000
    249       6.2613      0.00000
    250       6.3741      0.00000
    251       6.4976      0.00000
    252       6.5489      0.00000

 soft charge-density along one line, spin component           1
         0         1         2         3         4         5         6         7         8         9
 total charge-density along one line

------------------------ aborting loop because EDIFF is reached ----------------------------------------

 total charge

# of ion       s       p       d       tot
    1        0.418   0.202   9.178   9.798
    2        0.419   0.202   9.178   9.798
    3        0.418   0.202   9.179   9.798
    4        0.415   0.204   9.178   9.796
    5        0.418   0.203   9.176   9.797
    6        0.417   0.203   9.178   9.797
    7        0.416   0.205   9.176   9.797
    8        0.417   0.204   9.176   9.797
    9        0.414   0.203   9.178   9.795
   10        0.408   0.268   9.164   9.840
   11        0.406   0.270   9.166   9.842
   12        0.405   0.270   9.163   9.838
   13        0.403   0.272   9.165   9.841
   14        0.405   0.271   9.167   9.842
   15        0.403   0.271   9.164   9.837
   16        0.415   0.264   9.165   9.844
   17        0.407   0.266   9.167   9.840
   18        0.403   0.270   9.164   9.837
   19        0.398   0.270   9.163   9.831
   20        0.418   0.303   9.144   9.865
   21        0.421   0.296   9.152   9.869
   22        0.396   0.271   9.171   9.838
   23        0.431   0.290   9.147   9.869
   24        0.397   0.275   9.165   9.837
   25        0.398   0.271   9.162   9.831
   26        0.409   0.264   9.165   9.838
   27        0.398   0.276   9.163   9.837
   28        0.374   0.222   9.193   9.789
   29        0.351   0.244   9.198   9.793
   30        0.383   0.222   9.184   9.788
   31        0.400   0.201   9.192   9.793
   32        0.400   0.203   9.189   9.792
   33        0.407   0.207   9.180   9.795
   34        0.378   0.239   9.181   9.799
   35        0.409   0.188   9.191   9.788
   36        0.453   0.487   6.360   7.300
   37        1.603   3.269   0.000   4.872
   38        1.556   3.491   0.000   5.048
   39        0.617   0.120   0.000   0.737
tot         18.403  15.860 327.382 361.644

  FORCE on cell =-STRESS in cart. coord.  units (eV):
  Direction    XX          YY          ZZ          XY          YZ          ZX
  Alpha Z   665.27906   665.27906   665.27906
  Ewald  180500.53790180559.26553************    46.82837   -59.23757     8.06462
  Hartree190616.25283190635.60950************    47.32375   -14.90095    -1.10627
  E(xc)   -2131.43972 -2131.26006 -2135.43625    -0.00879    -0.12591     0.06300
  Local  ************************382428.22275   -94.73206    64.97696    -4.33443
  n-local  -400.42235  -398.83274  -403.28940    -0.08496    -2.57618     0.31564
  augment  3274.06423  3271.83516  3276.01270     0.16947     3.71158    -0.65396
  Kinetic  5123.21368  5119.05618  5112.93827     0.75199     7.75502    -2.37424
  Fock        0.00000     0.00000     0.00000     0.00000     0.00000     0.00000
  Total      -7.45462    -6.71344    -1.22643     0.24777    -0.39705    -0.02564
  in kB      -6.88750    -6.20270    -1.13313     0.22892    -0.36685    -0.02369

 VOLUME and BASIS-vectors are now :
  energy-cutoff  :      500.00
  volume of cell :     1734.10
      direct lattice vectors                 reciprocal lattice vectors
     8.791366577  0.000000000  0.000000000     0.113747958 -0.065672414  0.000000000
     4.395683289  7.613546790  0.000000000     0.000000000  0.131344829  0.000000000
     0.000000000  0.000000000 25.907840602     0.000000000  0.000000000  0.038598354

  length of vectors
     8.791366577  8.791366577 25.907840602     0.131344829  0.131344829  0.038598354

 FORCES acting on ions
    electron-ion (+dipol)            ewald-force                    non-local-force                 convergence-correction
   0.182E+00 -.295E+00 0.283E+04   -.204E+00 0.631E-01 -.283E+04   0.569E-03 0.127E+00 -.190E+01   0.278E-01 0.769E-01 -.117E+00
   0.326E+00 0.483E+00 0.283E+04   -.458E+00 -.464E+00 -.283E+04   0.617E-01 0.199E-02 -.159E+01   0.588E-01 -.120E-01 -.113E+00
   -.515E+00 0.472E+00 0.283E+04   0.662E+00 -.562E+00 -.283E+04   -.542E-01 0.712E-01 -.183E+01   -.878E-01 0.206E-01 -.131E+00
   0.686E+00 -.875E-01 0.283E+04   -.784E+00 0.752E-01 -.283E+04   0.844E-01 0.225E-01 -.169E+01   0.149E-01 -.433E-02 -.141E+00
   -.567E-01 -.964E-01 0.283E+04   0.166E-01 0.167E+00 -.283E+04   0.860E-02 -.251E-01 -.169E+01   0.323E-01 -.379E-01 -.143E+00
   -.659E+00 0.152E+00 0.283E+04   0.767E+00 -.147E+00 -.283E+04   -.732E-01 -.241E-01 -.169E+01   -.337E-01 0.311E-01 -.137E+00
   0.447E+00 -.371E+00 0.283E+04   -.308E+00 0.610E+00 -.283E+04   -.455E-01 -.175E+00 -.161E+01   -.646E-01 -.609E-01 -.110E+00
   -.344E+00 -.304E+00 0.283E+04   0.124E+00 0.480E+00 -.283E+04   0.886E-01 -.120E+00 -.136E+01   0.100E+00 -.532E-01 -.977E-01
   -.819E-01 0.454E-01 0.283E+04   0.184E+00 -.222E+00 -.283E+04   -.528E-01 0.121E+00 -.177E+01   -.477E-01 0.418E-01 -.118E+00
   0.554E+01 0.102E+01 0.101E+04   -.533E+01 -.748E+00 -.101E+04   -.231E+00 -.261E+00 -.780E+00   0.279E-01 -.189E-02 0.220E+00
   -.116E+01 0.489E+01 0.102E+04   0.109E+01 -.513E+01 -.102E+04   0.571E-01 0.208E+00 -.665E+00   0.106E-01 -.273E-02 0.198E+00
   -.439E+01 0.218E+01 0.101E+04   0.424E+01 -.197E+01 -.101E+04   0.173E+00 -.209E+00 -.850E+00   -.241E-01 0.219E-02 0.216E+00
   0.566E+01 -.413E+01 0.101E+04   -.575E+01 0.413E+01 -.101E+04   0.394E-01 0.235E-01 -.259E+00   0.229E-01 -.196E-01 0.228E+00
   -.519E+01 -.246E+01 0.101E+04   0.535E+01 0.263E+01 -.101E+04   -.108E+00 -.156E+00 -.417E+00   -.102E-01 -.381E-02 0.190E+00
   -.467E+00 0.118E+01 0.101E+04   0.402E+00 -.125E+01 -.100E+04   0.556E-01 0.168E-01 -.694E+00   -.416E-02 0.242E-01 0.188E+00
   0.159E+01 -.413E+01 0.101E+04   -.161E+01 0.394E+01 -.101E+04   -.571E-02 0.186E+00 -.875E+00   0.224E-01 -.725E-02 0.266E+00
   0.200E+00 0.940E+00 0.101E+04   -.331E+00 -.104E+01 -.101E+04   0.892E-01 0.101E+00 -.563E+00   0.332E-01 0.236E-02 0.201E+00
   -.182E+01 0.540E+00 0.101E+04   0.194E+01 -.581E+00 -.101E+04   -.516E-01 0.521E-01 -.744E+00   -.500E-01 0.175E-01 0.217E+00
   0.473E+01 -.963E+01 -.850E+03   -.469E+01 0.948E+01 0.850E+03   -.471E-01 0.936E-01 0.318E+00   0.468E-02 -.555E-02 0.277E+00
   0.262E+02 -.159E+01 -.799E+03   -.254E+02 0.211E+01 0.799E+03   -.858E+00 -.664E+00 -.814E+00   0.116E+00 0.681E-01 0.497E+00
   -.311E+02 0.843E+01 -.805E+03   0.302E+02 -.774E+01 0.805E+03   0.989E+00 -.728E+00 -.599E+00   -.134E+00 0.472E-01 0.495E+00
   0.720E+01 -.439E+01 -.849E+03   -.734E+01 0.435E+01 0.848E+03   0.970E-01 0.240E-01 0.827E+00   0.667E-01 0.565E-02 0.355E+00
   0.629E+01 -.231E+02 -.814E+03   -.631E+01 0.223E+02 0.814E+03   0.792E-01 0.108E+01 -.919E+00   -.133E-01 -.124E+00 0.538E+00
   -.136E+02 0.494E+01 -.838E+03   0.138E+02 -.473E+01 0.837E+03   -.241E+00 -.199E+00 0.371E+00   -.552E-01 0.312E-02 0.343E+00
   0.505E+01 0.431E+01 -.849E+03   -.502E+01 -.400E+01 0.849E+03   0.167E-01 -.236E+00 0.307E+00   -.252E-01 -.366E-01 0.284E+00
   0.627E+01 0.316E+01 -.821E+03   -.610E+01 -.291E+01 0.821E+03   -.144E+00 -.222E+00 -.447E-01   0.585E-03 -.257E-01 0.303E+00
   -.112E+02 0.185E+02 -.826E+03   0.110E+02 -.189E+02 0.826E+03   0.161E+00 0.332E+00 0.243E+00   0.114E-01 0.499E-01 0.356E+00
   0.110E+03 -.573E+02 -.262E+04   -.112E+03 0.582E+02 0.262E+04   0.106E+01 -.716E+00 0.213E+01   0.122E-01 -.161E-01 0.218E+00
   -.308E+02 0.168E+02 -.257E+04   0.307E+02 -.167E+02 0.257E+04   -.220E-01 -.219E+00 0.224E+01   0.139E+00 0.167E+00 0.200E+00
   -.842E+02 0.947E+02 -.267E+04   0.854E+02 -.960E+02 0.267E+04   -.710E+00 0.692E+00 0.256E+01   -.152E+00 0.171E+00 0.223E+00
   0.600E+02 -.578E+02 -.271E+04   -.600E+02 0.587E+02 0.270E+04   -.357E+00 -.650E+00 0.254E+01   0.200E+00 -.191E-01 0.155E+00
   -.647E+02 -.145E+02 -.271E+04   0.652E+02 0.150E+02 0.271E+04   -.152E-02 -.413E+00 0.237E+01   -.200E+00 -.186E-01 0.169E+00
   0.493E+02 -.114E+02 -.271E+04   -.493E+02 0.104E+02 0.271E+04   -.206E+00 0.110E+01 0.231E+01   0.106E+00 -.142E+00 0.161E+00
   -.713E+01 0.950E+02 -.262E+04   0.654E+01 -.972E+02 0.262E+04   0.620E+00 0.193E+01 0.188E+01   -.105E+00 -.112E+00 0.130E+00
   -.383E+02 0.380E+02 -.271E+04   0.389E+02 -.384E+02 0.271E+04   -.525E+00 0.204E+00 0.238E+01   -.744E-03 0.491E-01 0.202E+00
   0.104E+02 -.122E+03 -.169E+04   -.106E+02 0.123E+03 0.169E+04   0.176E+00 -.731E+00 -.355E+00   0.489E-02 -.651E-01 0.246E+00
   -.143E+02 -.116E+01 -.189E+04   0.146E+02 -.513E+01 0.192E+04   -.334E+00 0.619E+01 -.251E+02   -.250E-01 0.145E+00 -.171E+00
   0.114E+02 0.103E+02 -.182E+04   -.139E+02 -.103E+02 0.180E+04   0.254E+01 -.679E-02 0.265E+02   0.329E-02 -.447E-03 0.146E-03
   -.350E+01 0.160E+01 -.369E+03   0.398E+01 -.163E+01 0.377E+03   -.490E+00 0.294E-01 -.812E+01   0.136E-02 0.102E-02 -.297E-02
   -.182E+01 -.702E+01 0.421E+01   -.275E-13 -.488E-13 0.119E-10   0.184E+01 0.686E+01 -.997E+01   -.160E-01 0.155E+00 0.580E+01

 POSITION                                       TOTAL-FORCE (eV/Angst)
      0.00000      0.00000      5.28219         0.006472     -0.027984     -0.018671
      2.93046      0.00000      5.28219        -0.011155      0.009515      0.004997
      5.86091      0.00000      5.28219         0.005300      0.002151      0.008560
      1.46523      2.53785      5.28219         0.001075      0.005979      0.040452
      4.39568      2.53785      5.28219         0.000701      0.007358      0.010285
      7.32614      2.53785      5.28219         0.001108      0.011991      0.024464
      2.93046      5.07570      5.28219         0.028779      0.002919      0.027619
      5.86091      5.07570      5.28219        -0.031269      0.003033      0.014526
      8.79137      5.07570      5.28219         0.001460     -0.013558      0.021012
      1.46523      0.84595      7.67490         0.013631      0.006460     -0.006730
      4.39568      0.84595      7.67490        -0.002109     -0.028465     -0.087352
      7.32614      0.84595      7.67490        -0.011402     -0.000199      0.012750
      2.93046      3.38380      7.67490        -0.029030      0.007437     -0.018038
      5.86091      3.38380      7.67490         0.041695      0.018043     -0.047435
      8.79137      3.38380      7.67490        -0.013668     -0.024293      0.017105
      4.39568      5.92165      7.67490         0.000217     -0.003156     -0.040955
      7.32614      5.92165      7.67490        -0.008563      0.003049     -0.016671
     10.25659      5.92165      7.67490         0.013970      0.029100      0.007014
      8.79137      1.69341     10.06265        -0.004889     -0.058246      0.103484
      2.94295      1.69911     10.03964        -0.007203     -0.068330      0.041088
      5.84841      1.69911     10.03964        -0.007339      0.002080     -0.076034
     10.25212      4.23233     10.05217         0.023529     -0.016207     -0.015719
      4.39568      4.21532     10.03964         0.051182      0.177643     -0.122846
      7.33061      4.23233     10.05217        -0.067002      0.016337      0.027786
     11.72051      6.76684     10.06265         0.024288      0.032820      0.125155
      5.86222      6.76684     10.06265         0.032974     -0.001777     -0.056842
      8.79137      6.76243     10.05217        -0.053272      0.033988      0.026827
      0.00000      0.00000     12.42704        -0.408906      0.239417      0.026650
      2.96539      0.06299     12.42777         0.099321      0.001600     -0.028220
      5.82597      0.06299     12.42777         0.317022     -0.379060     -0.081983
      1.53725      2.53661     12.42777        -0.218857      0.193696     -0.155618
      7.25412      2.53661     12.42777         0.278480      0.100929     -0.143170
      2.96754      5.01395     12.42777        -0.135922      0.016176     -0.132679
      5.82383      5.01395     12.42777        -0.079833     -0.456427      0.033185
      8.79137      5.07570     12.42264         0.147441     -0.129421     -0.081027
      4.39568      2.53785     12.15183         0.009786      0.236252      0.611767
      4.48846      1.70909     13.56685        -0.011919      0.048788     -0.053589
      5.90938      6.74275     13.92706         0.006618      0.000396     -0.003711
      5.96856      6.73910     14.89823        -0.002710     -0.000036      0.002565
    total drift:                                0.003007     -0.004165      0.042455

  FREE ENERGIE OF THE ION-ELECTRON SYSTEM (eV)
  free  energy   TOTEN  =      -112.09946008 eV

  energy  without entropy=     -112.09946008  energy(sigma->0) =     -112.09946008

 stress matrix after NEB project (eV)
     -7.45462      0.24777     -0.02564
      0.24777     -6.71344     -0.39706
     -0.02564     -0.39705     -1.22643
  FORCES: max atom, RMS     0.073445    0.011838
  FORCE total and by dimension    0.073931    0.053589
  Stress total and by dimension   10.128434    7.454623
|           W    W    AA    RRRRR   N    N  II  N    N   GGGG   !!!           |
|           W    W   A  A   R    R  NN   N  II  NN   N  G    G  !!!           |
|           W    W  A    A  R    R  N N  N  II  N N  N  G       !!!           |
|           W WW W  AAAAAA  RRRRR   N  N N  II  N  N N  G  GGG   !            |
|           WW  WW  A    A  R   R   N   NN  II  N   NN  G    G                |
|           W    W  A    A  R    R  N    N  II  N    N   GGGG   !!!           |
|     Tetrahedron method does not include variations of the Fermi             |
|     occupations, so forces and stress will be inaccurate. We suggest        |
|     using a different smearing scheme ISMEAR = 1 or 2 for metals in         |
|     relaxations.                                                            |

 total charge

# of ion       s       p       d       tot
    1        0.418   0.202   9.178   9.798
    2        0.419   0.202   9.178   9.798
    3        0.418   0.202   9.179   9.798
    4        0.415   0.204   9.178   9.796
    5        0.418   0.203   9.176   9.797
    6        0.417   0.203   9.178   9.797
    7        0.416   0.205   9.176   9.797
    8        0.417   0.204   9.176   9.797
    9        0.414   0.203   9.178   9.795
   10        0.408   0.268   9.164   9.840
   11        0.406   0.270   9.166   9.842
   12        0.405   0.270   9.163   9.838
   13        0.403   0.272   9.165   9.841
   14        0.405   0.271   9.167   9.842
   15        0.403   0.271   9.164   9.837
   16        0.415   0.264   9.165   9.844
   17        0.407   0.266   9.167   9.840
   18        0.403   0.270   9.164   9.837
   19        0.398   0.270   9.163   9.831
   20        0.418   0.303   9.144   9.865
   21        0.421   0.296   9.152   9.869
   22        0.396   0.271   9.171   9.838
   23        0.431   0.290   9.147   9.869
   24        0.397   0.275   9.165   9.837
   25        0.398   0.271   9.162   9.831
   26        0.409   0.264   9.165   9.838
   27        0.398   0.276   9.163   9.837
   28        0.374   0.222   9.193   9.789
   29        0.351   0.244   9.198   9.793
   30        0.383   0.222   9.184   9.788
   31        0.400   0.201   9.192   9.793
   32        0.400   0.203   9.189   9.792
   33        0.407   0.207   9.180   9.795
   34        0.378   0.239   9.181   9.799
   35        0.409   0.188   9.191   9.788
   36        0.453   0.487   6.360   7.300
   37        1.603   3.269   0.000   4.872
   38        1.556   3.491   0.000   5.048
   39        0.617   0.120   0.000   0.737
tot         18.403  15.860 327.382 361.644

 BZINTS: Fermi energy:    0.104602;  406.000000 electrons
         Band energy:-0.165973E+04;  BLOECHL correction:   -0.031838