 vasp.6.2.0 18Jan21 (build Jun 12 2021 23:27:24) complex

 executed on             LinuxIFC date 2022.05.27  06:20:55

 INCAR:
   ISMEAR = -5
   SIGMA = 0.1
   ISPIN = 1
   EDIFF = 1.d-5
   EDIFFG = -0.01
   NSW = 0
   NELM = 150
   ENCUT = 500
   ISIF = 2
   IBRION = 2
   LREAL = Auto
   ALGO = Fast
   ICHARG = 11
   LORBIT = 10
   LCHARG = .F.
   LWAVE = .F.

 POTCAR:    PAW_PBE Cu 22Jun2005
 POTCAR:    PAW_PBE Ir 06Sep2000
 POTCAR:    PAW_PBE O 08Apr2002
 POTCAR:    PAW_PBE H 15Jun2001
|           W    W    AA    RRRRR   N    N  II  N    N   GGGG   !!!           |
|           W    W   A  A   R    R  NN   N  II  NN   N  G    G  !!!           |
|           W    W  A    A  R    R  N N  N  II  N N  N  G       !!!           |
|           W WW W  AAAAAA  RRRRR   N  N N  II  N  N N  G  GGG   !            |
|           WW  WW  A    A  R   R   N   NN  II  N   NN  G    G                |
|           W    W  A    A  R    R  N    N  II  N    N   GGGG   !!!           |
|     For optimal performance we recommend to set                             |
|       NCORE = 2 up to number-of-cores-per-socket                            |
|     This setting can greatly improve the performance of VASP for DFT.       |
|     The default, NCORE=1 might be grossly inefficient on modern             |
|     multi-core architectures or massively parallel machines. Do your        |
|     Unfortunately you need to use the default for GW and RPA                |
|     calculations (for HF NCORE is supported but not extensively tested      |
|     yet).                                                                   |

 POTCAR:    PAW_PBE Cu 22Jun2005
   VRHFIN =Cu: d10 p1

   TITEL  = PAW_PBE Cu 22Jun2005
   POMASS =   63.546; ZVAL   =   11.000    mass and valenz
   ENMAX  =  295.446; ENMIN  =  221.585 eV

 POTCAR:    PAW_PBE Ir 06Sep2000
   VRHFIN =Ir: s1d8

   TITEL  = PAW_PBE Ir 06Sep2000
   POMASS =  192.220; ZVAL   =    9.000    mass and valenz
   ENMAX  =  210.864; ENMIN  =  158.148 eV

 POTCAR:    PAW_PBE O 08Apr2002
   VRHFIN =O: s2p4

   TITEL  = PAW_PBE O 08Apr2002
   POMASS =   16.000; ZVAL   =    6.000    mass and valenz
   ENMAX  =  400.000; ENMIN  =  300.000 eV

 POTCAR:    PAW_PBE H 15Jun2001
   VRHFIN =H: ultrasoft test

   TITEL  = PAW_PBE H 15Jun2001
   POMASS =    1.000; ZVAL   =    1.000    mass and valenz
   ENMAX  =  250.000; ENMIN  =  200.000 eV

 Optimization of the real space projectors (new method)

 maximal supplied QI-value         = 16.25
 optimisation between [QCUT,QGAM] = [ 11.38, 22.75] = [ 36.24,144.96] Ry
 Optimized for a Real-space Cutoff    1.52 Angstroem

   l    n(q)    QCUT    max X(q) W(low)/X(q) W(high)/X(q)  e(spline)
   2      9    11.376     4.610    0.21E-03    0.10E-03    0.26E-06
   2      9    11.376     8.522    0.33E-03    0.16E-03    0.37E-06
   0     10    11.376    51.609    0.62E-04    0.20E-04    0.13E-06
   0     10    11.376    27.747    0.54E-04    0.20E-04    0.13E-06
   1     10    11.376    20.408    0.13E-04    0.99E-04    0.19E-06
   1     10    11.376    13.425    0.12E-04    0.87E-04    0.17E-06
 Optimization of the real space projectors (new method)

[...]

   l    n(q)    QCUT    max X(q) W(low)/X(q) W(high)/X(q)  e(spline)
   0      7    11.387    20.381    0.39E-03    0.13E-02    0.15E-06
   0      7    11.387    15.268    0.42E-03    0.14E-02    0.17E-06
   1      6    11.387     5.964    0.41E-03    0.11E-02    0.17E-06
   1      6    11.387     5.382    0.39E-03    0.87E-03    0.15E-06
 Optimization of the real space projectors (new method)

 maximal supplied QI-value         = 34.20
 optimisation between [QCUT,QGAM] = [ 11.29, 22.57] = [ 35.68,142.71] Ry
 Optimized for a Real-space Cutoff    1.16 Angstroem

   l    n(q)    QCUT    max X(q) W(low)/X(q) W(high)/X(q)  e(spline)
   0      8    11.287    19.460    0.40E-03    0.73E-03    0.16E-06
   0      8    11.287    12.209    0.38E-03    0.70E-03    0.15E-06
   1      7    11.287     4.655    0.22E-03    0.25E-04    0.22E-06
  PAW_PBE Cu 22Jun2005                  :
  PAW_PBE Ir 06Sep2000                  :
  PAW_PBE O 08Apr2002                   :
  PAW_PBE H 15Jun2001                   :

 POSCAR: Cu-Ir-OH
  positions in direct lattice
  velocities in cartesian coordinates
 exchange correlation table for  LEXCH =        8
   RHO(1)=    0.500       N(1)  =     2000
   RHO(2)=  100.500       N(2)  =     4000

 VTST: version 3.2, (02/03/18)

 CHAIN: initializing optimizer

 OPT: Using VASP Conjugate-Gradient optimizer
 CHAIN: Read ICHAIN            0

 POSCAR: Cu-Ir-OH
  positions in direct lattice
  velocities in cartesian coordinates

 ion  position               nearest neighbor table
   1  0.000  0.000  0.222-   7 2.57   3 2.57   4 2.57   2 2.57   6 2.57   8 2.57  12 2.57  10 2.57
                            16 2.57
   2  0.333  0.000  0.222-   8 2.57   9 2.57   5 2.57   1 2.57   3 2.57  11 2.57   4 2.57  10 2.57
                            17 2.57
   3  0.667  0.000  0.222-   1 2.57   7 2.57   6 2.57   9 2.57   2 2.57  12 2.57   5 2.57  18 2.57
                            11 2.57
   4  0.000  0.333  0.222-   5 2.57   6 2.57   1 2.57   7 2.57   2 2.57  13 2.57   9 2.57  10 2.57
                            15 2.57
   5  0.333  0.333  0.222-   4 2.57   2 2.57   7 2.57  13 2.57   8 2.57   6 2.57   3 2.57  11 2.57
                            14 2.57
   6  0.667  0.333  0.222-   4 2.57   9 2.57  15 2.57   3 2.57   1 2.57   8 2.57  14 2.57   5 2.57
                            12 2.57
   7  0.000  0.667  0.222-   1 2.57   3 2.57  16 2.57  18 2.57   4 2.57   5 2.57   8 2.57   9 2.57
                            13 2.57
   8  0.333  0.667  0.222-   9 2.57   2 2.57  17 2.57   6 2.57   1 2.57   7 2.57   5 2.57  14 2.57
                            16 2.57
   9  0.667  0.667  0.222-   8 2.57   6 2.57   2 2.57  17 2.57   3 2.57   7 2.57   4 2.57  15 2.57
                            18 2.57
  10  0.111  0.111  0.309-  20 2.53  11 2.57  12 2.57  13 2.57   1 2.57   2 2.57   4 2.57  15 2.57
                            16 2.57  17 2.57  26 2.57  19 2.57
  11  0.444  0.111  0.309-  20 2.55  21 2.55  10 2.57  13 2.57   2 2.57  17 2.57  14 2.57  12 2.57
                             5 2.57   3 2.57  18 2.57  27 2.57
  12  0.778  0.111  0.309-  21 2.53  15 2.57  10 2.57  14 2.57  18 2.57   3 2.57   1 2.57  16 2.57
                            11 2.57   6 2.57  19 2.57  25 2.57
  13  0.111  0.444  0.309-  23 2.55  20 2.55  16 2.57  18 2.57  10 2.57  11 2.57  14 2.57   5 2.57
                             4 2.57   7 2.57  15 2.57  22 2.57
  14  0.444  0.444  0.309-  21 2.55  23 2.55  15 2.57  17 2.57  12 2.57  16 2.57  13 2.57  11 2.57
                             6 2.57   8 2.57   5 2.57  24 2.57
  15  0.778  0.444  0.309-  19 2.56  24 2.56  22 2.56  14 2.57  17 2.57  12 2.57   6 2.57  18 2.57
                            10 2.57   9 2.57  13 2.57   4 2.57
  16  0.111  0.778  0.309-  23 2.53  18 2.57  13 2.57   7 2.57  14 2.57  17 2.57  12 2.57  10 2.57
                             8 2.57   1 2.57  25 2.57  26 2.57
  17  0.444  0.778  0.309-  26 2.56  27 2.56  24 2.56  14 2.57  15 2.57   8 2.57   9 2.57  11 2.57
                            16 2.57  18 2.57  10 2.57   2 2.57
  18  0.778  0.778  0.309-  25 2.56  22 2.56  27 2.56  16 2.57  13 2.57   7 2.57  15 2.57  12 2.57
                            17 2.57   9 2.57   3 2.57  11 2.57
  19  0.888  0.223  0.395-  28 2.55  21 2.55  20 2.55  22 2.56  24 2.56  15 2.56  32 2.56  31 2.56
                            12 2.57  10 2.57  25 2.58  26 2.58
  20  0.221  0.221  0.394-  10 2.53  11 2.55  13 2.55  26 2.55  19 2.55  36 2.55  27 2.57  22 2.57
                            29 2.59  31 2.59  23 2.59  21 2.59
  21  0.558  0.221  0.394-  12 2.53  14 2.55  11 2.55  19 2.55  25 2.55  36 2.55  24 2.57  27 2.57
                            32 2.59  30 2.59  20 2.59  23 2.59
  22  0.888  0.556  0.395-  35 2.54  24 2.56  27 2.56  19 2.56  25 2.56  18 2.56  15 2.56  13 2.57
                            23 2.57  20 2.57  31 2.57  33 2.57
  23  0.221  0.558  0.394-  16 2.53  13 2.55  14 2.55  25 2.55  26 2.55  36 2.55  22 2.57  24 2.57
                            33 2.59  34 2.59  20 2.59  21 2.59
  24  0.556  0.556  0.395-  35 2.54  22 2.56  27 2.56  19 2.56  26 2.56  15 2.56  17 2.56  14 2.57
                            21 2.57  23 2.57  32 2.57  34 2.57
  25  0.888  0.888  0.395-  28 2.55  21 2.55  23 2.55  22 2.56  27 2.56  18 2.56  33 2.56  30 2.56
                            16 2.57  12 2.57  19 2.58  26 2.58
  26  0.223  0.888  0.395-  28 2.55  20 2.55  23 2.55  27 2.56  24 2.56  17 2.56  29 2.56  34 2.56
                            10 2.57  16 2.57  25 2.58  19 2.58
  27  0.556  0.888  0.395-  35 2.54  24 2.56  22 2.56  26 2.56  25 2.56  17 2.56  18 2.56  11 2.57
                            20 2.57  21 2.57  29 2.57  30 2.57
  28  0.000  0.000  0.481-  25 2.55  19 2.55  26 2.55  33 2.56  30 2.56  31 2.56  29 2.56  32 2.56
                            34 2.56
  29  0.333  0.999  0.482-  34 2.55  28 2.56  26 2.56  35 2.57  31 2.57  27 2.57  36 2.57  30 2.58
                            20 2.59
  30  0.668  0.999  0.482-  33 2.55  28 2.56  25 2.56  35 2.57  32 2.57  27 2.57  36 2.57  29 2.58
                            21 2.59
  31  0.999  0.333  0.482-  32 2.55  28 2.56  19 2.56  35 2.57  29 2.57  22 2.57  36 2.57  33 2.58
                            20 2.59
  32  0.668  0.333  0.482-  31 2.55  28 2.56  19 2.56  35 2.57  30 2.57  24 2.57  36 2.57  34 2.58
                            21 2.59
  33  0.999  0.668  0.482-  30 2.55  28 2.56  25 2.56  35 2.57  34 2.57  22 2.57  36 2.57  31 2.58
                            23 2.59
  34  0.333  0.668  0.482-  29 2.55  28 2.56  26 2.56  35 2.57  33 2.57  24 2.57  36 2.57  32 2.58
                            23 2.59
  35  0.667  0.667  0.481-  24 2.54  27 2.54  22 2.54  34 2.57  32 2.57  29 2.57  30 2.57  33 2.57
                            31 2.57
  36  0.333  0.333  0.480-  37 1.98  23 2.55  20 2.55  21 2.55  31 2.57  29 2.57  33 2.57  34 2.57
                            32 2.57  30 2.57
  37  0.333  0.333  0.562-  38 0.96  36 1.98
  38  0.333  0.333  0.602-  37 0.96

  LATTYP: Found a hexagonal cell.
 ALAT       =     7.6967864036
 C/A-ratio  =     3.1415502215

  Lattice vectors:

 A1 = (  -3.8483927580,  -6.6656128093,   0.0000000000)
 A2 = (   7.6967864037,   0.0000000000,   0.0000000000)
 A3 = (   0.0000000000,   0.0000000000,  24.1798410313)

Analysis of symmetry for initial positions (statically):
 Subroutine PRICEL returns:
 Original cell was already a primitive cell.

 Routine SETGRP: Setting up the symmetry group for a
 hexagonal supercell.

 Subroutine GETGRP returns: Found  6 space group operations
 (whereof  6 operations were pure point group operations)
 out of a pool of 24 trial point group operations.

The static configuration has the point symmetry C_3v.

Analysis of symmetry for dynamics (positions and initial velocities):
 Subroutine PRICEL returns:
 Original cell was already a primitive cell.

[...]

The dynamic configuration has the point symmetry C_3v.

Analysis of constrained symmetry for selective dynamics:
 Subroutine PRICEL returns:
 Original cell was already a primitive cell.

[...]
     48      -3.8536      2.00000
     49      -3.8354      2.00000
     50      -3.7715      2.00000
     51      -3.7517      2.00000
     52      -3.7424      2.00000
     53      -3.7210      2.00000
     54      -3.6809      2.00000
     55      -3.6706      2.00000
     56      -3.6543      2.00000
     57      -3.6526      2.00000
     58      -3.6453      2.00000
     59      -3.6305      2.00000
     60      -3.6036      2.00000
[...]
    238       5.7558      0.00000
    239       5.8153      0.00000
    240       5.8377      0.00000
    241       6.0439      0.00000
    242       6.1198      0.00000
    243       6.1259      0.00000
    244       6.1463      0.00000
    245       6.2529      0.00000
    246       6.5090      0.00000
    247       6.7155      0.00000
    248       6.9335      0.00000
    249       7.0158      0.00000
    250       7.1353      0.00000
    251       7.2887      0.00000
    252       7.5038      0.00000

 soft charge-density along one line, spin component           1
         0         1         2         3         4         5         6         7         8         9
 total charge-density along one line

------------------------ aborting loop because EDIFF is reached ----------------------------------------

 total charge

# of ion       s       p       d       tot
    1        0.448   0.285   9.189   9.922
    2        0.450   0.285   9.187   9.922
    3        0.450   0.285   9.187   9.922
    4        0.450   0.285   9.187   9.922
    5        0.446   0.289   9.182   9.917
    6        0.450   0.285   9.187   9.922
    7        0.450   0.285   9.187   9.922
    8        0.450   0.285   9.187   9.922
    9        0.446   0.284   9.188   9.918
   10        0.442   0.373   9.174   9.990
   11        0.443   0.367   9.183   9.992
   12        0.442   0.373   9.174   9.990
   13        0.443   0.367   9.183   9.992
   14        0.443   0.367   9.183   9.992
   15        0.438   0.368   9.181   9.986
   16        0.442   0.373   9.174   9.990
   17        0.438   0.368   9.181   9.986
   18        0.438   0.368   9.181   9.986
   19        0.440   0.371   9.180   9.991
   20        0.451   0.397   9.166  10.014
   21        0.451   0.397   9.166  10.014
   22        0.434   0.368   9.185   9.987
   23        0.451   0.397   9.166  10.014
   24        0.434   0.368   9.185   9.987
   25        0.440   0.371   9.180   9.991
   26        0.440   0.371   9.180   9.991
   27        0.434   0.368   9.185   9.987
   28        0.453   0.289   9.191   9.934
   29        0.445   0.300   9.189   9.934
   30        0.445   0.300   9.189   9.934
   31        0.445   0.300   9.189   9.934
   32        0.445   0.300   9.189   9.934
   33        0.445   0.300   9.189   9.934
   34        0.445   0.300   9.189   9.934
   35        0.444   0.294   9.190   9.927
   36        0.660   0.576   7.025   8.261
   37        1.537   3.535   0.000   5.072
   38        0.604   0.129   0.000   0.732
tot         18.354  15.923 328.423 362.700

  FORCE on cell =-STRESS in cart. coord.  units (eV):
  Direction    XX          YY          ZZ          XY          YZ          ZX
  Alpha Z   801.41973   801.41973   801.41973
  Ewald  231885.65621231885.65577************     0.00040     0.00012     0.00018
  Hartree244741.68244244741.68240************     0.00004     0.00006     0.00007
  E(xc)   -2321.57804 -2321.57760 -2324.88547    -0.00038    -0.00004    -0.00007
  Local  ************************489940.92175     0.01875    -0.00060    -0.00099
  n-local  -801.64364  -785.72846  -808.48685     8.32218     0.00171     0.18706
  augment  3354.11216  3354.13263  3370.03148    -0.01773     0.00037     0.00063
  Kinetic  3393.94543  3401.43780  3389.84334     4.68990     1.61590    -1.09993
  Fock        0.00000     0.00000     0.00000     0.00000     0.00000     0.00000
  Total      -6.00675    -6.00675    -0.68447     0.00000    -0.00000     0.00000
  in kB      -7.75795    -7.75795    -0.88402     0.00000    -0.00000     0.00000

 VOLUME and BASIS-vectors are now :
  energy-cutoff  :      500.00
  volume of cell :     1240.52
      direct lattice vectors                 reciprocal lattice vectors
     7.696786404  0.000000000  0.000000000     0.129924354 -0.075011849  0.000000000
     3.848392758  6.665612809  0.000000000     0.000000000  0.150023716  0.000000000
     0.000000000  0.000000000 24.179841031     0.000000000  0.000000000  0.041356765

  length of vectors
     7.696786404  7.696786404 24.179841031     0.150023716  0.150023716  0.041356765

 FORCES acting on ions
    electron-ion (+dipol)            ewald-force                    non-local-force                 convergence-correction
   -.429E-04 -.567E-06 0.378E+04   0.580E-04 -.437E-05 -.378E+04   -.809E-17 0.635E-17 -.313E+01   -.335E-03 -.161E-03 -.601E-02
   -.656E-01 0.228E+00 0.378E+04   -.556E-02 -.102E+00 -.378E+04   0.119E-01 -.173E-01 -.182E+01   0.629E-01 -.877E-01 0.975E-01
   0.656E-01 0.228E+00 0.378E+04   0.548E-02 -.102E+00 -.378E+04   -.119E-01 -.173E-01 -.182E+01   -.621E-01 -.851E-01 0.984E-01
   0.164E+00 -.171E+00 0.378E+04   -.910E-01 0.461E-01 -.378E+04   -.903E-02 0.189E-01 -.182E+01   -.445E-01 0.983E-01 0.975E-01
   -.678E-04 -.690E-05 0.378E+04   0.116E-03 -.101E-04 -.378E+04   0.594E-18 -.197E-18 -.181E+01   0.122E-01 0.749E-02 0.139E+00
   -.164E+00 -.171E+00 0.378E+04   0.909E-01 0.460E-01 -.378E+04   0.903E-02 0.189E-01 -.182E+01   0.428E-01 0.995E-01 0.989E-01
   0.230E+00 -.570E-01 0.378E+04   -.854E-01 0.557E-01 -.378E+04   -.209E-01 -.166E-02 -.182E+01   -.105E+00 -.113E-01 0.986E-01
   -.230E+00 -.571E-01 0.378E+04   0.852E-01 0.557E-01 -.378E+04   0.209E-01 -.166E-02 -.182E+01   0.108E+00 -.127E-01 0.989E-01
   -.145E-03 -.336E-04 0.378E+04   0.263E-03 0.206E-04 -.378E+04   0.944E-18 -.680E-18 -.249E+01   -.133E-01 -.685E-02 0.139E+00
   0.349E+01 0.202E+01 0.130E+04   -.296E+01 -.171E+01 -.130E+04   -.578E+00 -.334E+00 -.129E+01   0.642E-01 0.371E-01 0.305E+00
   -.931E-04 0.446E+00 0.130E+04   0.191E-03 -.534E+00 -.130E+04   -.852E-08 0.128E+00 -.493E+00   0.118E-01 -.860E-01 0.322E+00
   -.349E+01 0.202E+01 0.130E+04   0.296E+01 -.171E+01 -.130E+04   0.578E+00 -.334E+00 -.129E+01   -.662E-01 0.391E-01 0.306E+00
   0.387E+00 -.223E+00 0.130E+04   -.462E+00 0.267E+00 -.130E+04   0.111E+00 -.640E-01 -.493E+00   -.682E-01 0.540E-01 0.322E+00
   -.386E+00 -.223E+00 0.130E+04   0.462E+00 0.267E+00 -.130E+04   -.111E+00 -.640E-01 -.493E+00   0.926E-01 0.531E-01 0.322E+00
   -.145E-03 -.194E+00 0.130E+04   0.299E-03 -.152E+00 -.130E+04   -.114E-07 0.171E+00 -.826E+00   -.407E-02 0.149E+00 0.218E+00
   -.943E-04 -.403E+01 0.130E+04   0.186E-03 0.342E+01 -.130E+04   -.445E-07 0.668E+00 -.129E+01   -.147E-03 -.781E-01 0.306E+00
   -.168E+00 0.968E-01 0.130E+04   -.131E+00 0.762E-01 -.130E+04   0.148E+00 -.856E-01 -.826E+00   0.128E+00 -.780E-01 0.218E+00
   0.168E+00 0.968E-01 0.130E+04   0.131E+00 0.761E-01 -.130E+04   -.148E+00 -.856E-01 -.826E+00   -.127E+00 -.750E-01 0.219E+00
   -.529E-04 0.945E+00 -.120E+04   0.682E-04 -.106E+01 0.120E+04   -.567E-08 0.851E-01 0.766E+00   -.253E-02 0.660E-02 0.198E+00
   -.198E+02 -.114E+02 -.119E+04   0.212E+02 0.122E+02 0.120E+04   -.125E+01 -.721E+00 -.113E+01   -.149E-01 -.873E-02 0.198E+00
   0.198E+02 -.114E+02 -.119E+04   -.212E+02 0.122E+02 0.120E+04   0.125E+01 -.721E+00 -.113E+01   0.390E-01 -.725E-02 0.198E+00
   -.143E+02 0.823E+01 -.121E+04   0.135E+02 -.779E+01 0.120E+04   0.732E+00 -.422E+00 0.100E+01   0.672E-01 -.399E-01 0.106E+00
   -.842E-04 0.228E+02 -.119E+04   0.145E-03 -.244E+02 0.120E+04   -.960E-07 0.144E+01 -.113E+01   0.120E-01 0.362E-01 0.198E+00
   0.143E+02 0.823E+01 -.121E+04   -.135E+02 -.779E+01 0.120E+04   -.732E+00 -.422E+00 0.100E+01   -.698E-01 -.412E-01 0.106E+00
   -.819E+00 -.473E+00 -.120E+04   0.921E+00 0.532E+00 0.120E+04   -.737E-01 -.426E-01 0.766E+00   -.417E-02 -.239E-02 0.198E+00
   0.819E+00 -.473E+00 -.120E+04   -.922E+00 0.532E+00 0.120E+04   0.737E-01 -.426E-01 0.766E+00   0.480E-02 -.529E-02 0.198E+00
   -.120E-03 -.165E+02 -.121E+04   0.244E-03 0.156E+02 0.120E+04   -.562E-07 0.845E+00 0.100E+01   -.991E-03 0.780E-01 0.106E+00
   -.415E-04 0.138E-04 -.367E+04   0.366E-04 -.337E-04 0.367E+04   0.213E-17 0.101E-16 0.184E+01   -.310E-03 -.128E-03 0.138E+00
   -.375E+01 -.156E+01 -.367E+04   0.345E+01 0.428E+00 0.366E+04   0.234E+00 0.928E+00 0.232E+01   -.494E-01 -.326E-01 0.103E+00
   0.375E+01 -.156E+01 -.367E+04   -.345E+01 0.427E+00 0.366E+04   -.234E+00 0.928E+00 0.232E+01   0.505E-01 -.301E-01 0.103E+00
   -.323E+01 -.247E+01 -.367E+04   0.210E+01 0.277E+01 0.366E+04   0.921E+00 -.261E+00 0.232E+01   -.529E-01 -.266E-01 0.103E+00
   0.323E+01 -.247E+01 -.367E+04   -.210E+01 0.277E+01 0.366E+04   -.921E+00 -.261E+00 0.232E+01   0.513E-01 -.256E-01 0.102E+00
   0.522E+00 0.403E+01 -.367E+04   -.135E+01 -.320E+01 0.366E+04   0.687E+00 -.667E+00 0.232E+01   -.845E-03 0.587E-01 0.103E+00
   -.522E+00 0.403E+01 -.367E+04   0.135E+01 -.320E+01 0.366E+04   -.687E+00 -.667E+00 0.232E+01   0.424E-02 0.572E-01 0.102E+00
   -.161E-03 -.318E-04 -.367E+04   0.256E-03 0.438E-05 0.367E+04   -.240E-17 0.699E-18 0.221E+01   -.133E-01 -.686E-02 0.230E+00
   -.530E-04 -.304E-04 -.280E+04   0.113E-03 0.218E-04 0.280E+04   -.201E-17 0.209E-18 0.308E+01   0.240E-02 0.143E-02 -.365E-01
   0.187E-03 -.807E-04 -.232E+04   0.134E-04 0.673E-05 0.230E+04   -.399E-17 -.169E-17 0.197E+02   0.327E-02 0.199E-02 -.262E-03
   0.460E-05 -.134E-04 -.431E+03   0.512E-06 0.453E-06 0.439E+03   -.183E-19 -.539E-19 -.835E+01   0.180E-03 0.109E-03 0.177E-01
   -.119E-03 -.132E-03 -.139E+02   -.176E-13 -.552E-13 0.193E-11   0.214E-15 0.110E-15 0.806E+01   0.577E-01 0.304E-01 0.587E+01

 POSITION                                       TOTAL-FORCE (eV/Angst)
      0.00000      0.00000      5.37156        -0.000000     -0.000000      0.039580
      2.56560      0.00000      5.37156         0.004087      0.021973      0.069272
      5.13119      0.00000      5.37156        -0.004087      0.021973      0.069272
      1.28280      2.22187      5.37156         0.021072     -0.007447      0.069272
      3.84839      2.22187      5.37156        -0.000000     -0.000000      0.035795
      6.41399      2.22187      5.37156        -0.021072     -0.007447      0.069272
      2.56560      4.44374      5.37156         0.016985     -0.014526      0.069272
      5.13119      4.44374      5.37156        -0.016985     -0.014526      0.069272
      7.69679      4.44374      5.37156        -0.000000     -0.000000      0.019024
      1.28280      0.74062      7.46636         0.021284      0.012288     -0.046565
      3.84839      0.74062      7.46636         0.000000     -0.052235     -0.108048
      6.41399      0.74062      7.46636        -0.021284      0.012288     -0.046565
      2.56560      2.96249      7.46636        -0.045236      0.026117     -0.108048
      5.13119      2.96249      7.46636         0.045236      0.026117     -0.108048
      7.69679      2.96249      7.46636         0.000000     -0.025904      0.000274
      3.84839      5.18437      7.46636         0.000000     -0.024577     -0.046565
      6.41399      5.18437      7.46636        -0.022434      0.012952      0.000274
      8.97958      5.18437      7.46636         0.022434      0.012952      0.000274
      7.69679      1.48769      9.56171         0.000000     -0.027395     -0.035191
      2.55203      1.47342      9.53141         0.113890      0.065754     -0.045441
      5.14476      1.47342      9.53141        -0.113890      0.065754     -0.045441
      8.97489      3.70583      9.56026         0.029007     -0.016747     -0.019419
      3.84839      3.71878      9.53141         0.000000     -0.131509     -0.045441
      6.41868      3.70583      9.56026        -0.029007     -0.016747     -0.019419
     10.25680      5.92177      9.56171         0.023725      0.013698     -0.035191
      5.13677      5.92177      9.56171        -0.023725      0.013698     -0.035191
      7.69679      5.91957      9.56026        -0.000000      0.033494     -0.019419
      0.00000      0.00000     11.63002        -0.000000     -0.000000      0.006447
      6.40663      6.66047     11.66109        -0.117400     -0.239780     -0.121738
      8.98694      6.66047     11.66109         0.117400     -0.239780     -0.121738
      8.97145      2.21807     11.66109        -0.266355      0.018219     -0.121738
      6.42212      2.21807     11.66109         0.266355      0.018219     -0.121738
     10.26160      4.45269     11.66109        -0.148956      0.221561     -0.121738
      5.13197      4.45269     11.66109         0.148956      0.221561     -0.121738
      7.69679      4.44374     11.62915         0.000000     -0.000000      0.029050
      3.84839      2.22187     11.60012        -0.000000     -0.000000      0.954148
      3.84839      2.22187     13.58399         0.000000     -0.000000      0.026165
      3.84839      2.22187     14.54836        -0.000000     -0.000000     -0.032242
    total drift:                                0.057596      0.030220      0.062120

  FREE ENERGIE OF THE ION-ELECTRON SYSTEM (eV)
  free  energy   TOTEN  =      -140.24319528 eV

  energy  without entropy=     -140.24319528  energy(sigma->0) =     -140.24319528

 stress matrix after NEB project (eV)
     -6.00675      0.00000      0.00000
      0.00000     -6.00675      0.00000
     -0.00000     -0.00000     -0.68447
  FORCES: max atom, RMS     0.032242    0.006736
  FORCE total and by dimension    0.041523    0.032242
  Stress total and by dimension    8.522353    6.006746
|           W    W    AA    RRRRR   N    N  II  N    N   GGGG   !!!           |
|           W    W   A  A   R    R  NN   N  II  NN   N  G    G  !!!           |
|           W    W  A    A  R    R  N N  N  II  N N  N  G       !!!           |
|           W WW W  AAAAAA  RRRRR   N  N N  II  N  N N  G  GGG   !            |
|           WW  WW  A    A  R   R   N   NN  II  N   NN  G    G                |
|           W    W  A    A  R    R  N    N  II  N    N   GGGG   !!!           |
|     Tetrahedron method does not include variations of the Fermi             |
|     occupations, so forces and stress will be inaccurate. We suggest        |
|     using a different smearing scheme ISMEAR = 1 or 2 for metals in         |
|     relaxations.                                                            |

 total charge

# of ion       s       p       d       tot
    1        0.448   0.285   9.189   9.922
    2        0.450   0.285   9.187   9.922
    3        0.450   0.285   9.187   9.922
    4        0.450   0.285   9.187   9.922
    5        0.446   0.289   9.182   9.917
    6        0.450   0.285   9.187   9.922
    7        0.450   0.285   9.187   9.922
    8        0.450   0.285   9.187   9.922
    9        0.446   0.284   9.188   9.918
   10        0.442   0.373   9.174   9.990
   11        0.443   0.367   9.183   9.992
   12        0.442   0.373   9.174   9.990
   13        0.443   0.367   9.183   9.992
   14        0.443   0.367   9.183   9.992
   15        0.438   0.368   9.181   9.986
   16        0.442   0.373   9.174   9.990
   17        0.438   0.368   9.181   9.986
   18        0.438   0.368   9.181   9.986
   19        0.440   0.371   9.180   9.991
   20        0.451   0.397   9.166  10.014
   21        0.451   0.397   9.166  10.014
   22        0.434   0.368   9.185   9.987
   23        0.451   0.397   9.166  10.014
   24        0.434   0.368   9.185   9.987
   25        0.440   0.371   9.180   9.991
   26        0.440   0.371   9.180   9.991
   27        0.434   0.368   9.185   9.987
   28        0.453   0.289   9.191   9.934
   29        0.445   0.300   9.189   9.934
   30        0.445   0.300   9.189   9.934
   31        0.445   0.300   9.189   9.934
   32        0.445   0.300   9.189   9.934
   33        0.445   0.300   9.189   9.934
   34        0.445   0.300   9.189   9.934
   35        0.444   0.294   9.190   9.927
   36        0.660   0.576   7.025   8.261
   37        1.537   3.535   0.000   5.072
   38        0.604   0.129   0.000   0.732
tot         18.354  15.923 328.423 362.700

 BZINTS: Fermi energy:   -0.303158;  401.020146 electrons
         Band energy:-0.128817E+04;  BLOECHL correction:   -0.053880
 WARNING: Fermi level nearly degenerate with energies of tetrahedron. This may
     result in numerical instabilities because the density changes by tiny
     changes of the Fermi energy. If the calculation converges, the total
     energy will still be reliable. If you notice convergence issues, you can
     try to
     *) Use a Gamma centered k-point grid
     *) Use tetrahedron method without corrections ISMEAR = -4
     *) Don't use tetrahedron method
        ISMEAR = 0 for semiconductors, 1 or 2 for metals