 vasp.6.2.0 18Jan21 (build Jun 12 2021 23:27:24) complex

 executed on             LinuxIFC date 2022.05.26  19:31:47

 INCAR:
   ISMEAR = -5
   SIGMA = 0.1
   ISPIN = 1
   EDIFF = 1.d-5
   EDIFFG = -0.01
   NSW = 0
   NELM = 150
   ENCUT = 500
   ISIF = 2
   IBRION = 2
   LREAL = Auto
   ALGO = Fast
   ICHARG = 11
   LORBIT = 10
   LCHARG = .F.
   LWAVE = .F.

 POTCAR:    PAW_PBE Au 04Oct2007
 POTCAR:    PAW_PBE W 08Apr2002
 POTCAR:    PAW_PBE H 15Jun2001
|           W    W    AA    RRRRR   N    N  II  N    N   GGGG   !!!           |
|           W    W   A  A   R    R  NN   N  II  NN   N  G    G  !!!           |
|           W    W  A    A  R    R  N N  N  II  N N  N  G       !!!           |
|           W WW W  AAAAAA  RRRRR   N  N N  II  N  N N  G  GGG   !            |
|           WW  WW  A    A  R   R   N   NN  II  N   NN  G    G                |
|           W    W  A    A  R    R  N    N  II  N    N   GGGG   !!!           |
|     For optimal performance we recommend to set                             |
|       NCORE = 2 up to number-of-cores-per-socket                            |
|     This setting can greatly improve the performance of VASP for DFT.       |
|     The default, NCORE=1 might be grossly inefficient on modern             |
|     multi-core architectures or massively parallel machines. Do your        |
|     Unfortunately you need to use the default for GW and RPA                |
|     calculations (for HF NCORE is supported but not extensively tested      |
|     yet).                                                                   |

 POTCAR:    PAW_PBE Au 04Oct2007
   VRHFIN =Au: s1d10

   TITEL  = PAW_PBE Au 04Oct2007
   POMASS =  196.966; ZVAL   =   11.000    mass and valenz
   ENMAX  =  229.943; ENMIN  =  172.457 eV

 POTCAR:    PAW_PBE W 08Apr2002
   VRHFIN =W : 6s5d

   TITEL  = PAW_PBE W 08Apr2002
   POMASS =  183.850; ZVAL   =    6.000    mass and valenz
   ENMAX  =  223.057; ENMIN  =  167.293 eV

 POTCAR:    PAW_PBE H 15Jun2001
   VRHFIN =H: ultrasoft test

   TITEL  = PAW_PBE H 15Jun2001
   POMASS =    1.000; ZVAL   =    1.000    mass and valenz
   ENMAX  =  250.000; ENMIN  =  200.000 eV

 Optimization of the real space projectors (new method)

 maximal supplied QI-value         = 15.12
 optimisation between [QCUT,QGAM] = [ 11.34, 22.83] = [ 36.00,145.93] Ry
 Optimized for a Real-space Cutoff    1.39 Angstroem

   l    n(q)    QCUT    max X(q) W(low)/X(q) W(high)/X(q)  e(spline)
   2      9    11.338    60.898    0.39E-03    0.42E-03    0.21E-06
   2      9    11.338    58.894    0.40E-03    0.42E-03    0.22E-06
   0      9    11.338   109.617    0.13E-03    0.20E-04    0.13E-06
   0      9    11.338    75.026    0.13E-03    0.20E-04    0.13E-06
   1      9    11.338    16.344    0.33E-04    0.24E-03    0.18E-06
   1      9    11.338    10.160    0.26E-04    0.19E-03    0.15E-06
 Optimization of the real space projectors (new method)

[...]

   l    n(q)    QCUT    max X(q) W(low)/X(q) W(high)/X(q)  e(spline)
   2     10    11.429   130.855    0.22E-03    0.64E-03    0.11E-05
   2     10    11.429   114.007    0.22E-03    0.64E-03    0.11E-05
   0     11    11.429    84.709    0.39E-04    0.67E-04    0.23E-06
   0     11    11.429    49.163    0.35E-04    0.62E-04    0.21E-06
   1     10    11.429    15.765    0.84E-04    0.15E-03    0.24E-06
   1     10    11.429    10.638    0.58E-04    0.12E-03    0.19E-06
 Optimization of the real space projectors (new method)

 maximal supplied QI-value         = 34.20
 optimisation between [QCUT,QGAM] = [ 11.29, 22.57] = [ 35.68,142.71] Ry
 Optimized for a Real-space Cutoff    1.16 Angstroem

   l    n(q)    QCUT    max X(q) W(low)/X(q) W(high)/X(q)  e(spline)
   0      8    11.287    19.460    0.40E-03    0.73E-03    0.16E-06
   0      8    11.287    12.209    0.38E-03    0.70E-03    0.15E-06
   1      7    11.287     4.655    0.22E-03    0.25E-04    0.22E-06
  PAW_PBE Au 04Oct2007                  :
  PAW_PBE W 08Apr2002                   :
  PAW_PBE H 15Jun2001                   :

 POSCAR: Au-W-H
  positions in direct lattice
  velocities in cartesian coordinates
 exchange correlation table for  LEXCH =        8
   RHO(1)=    0.500       N(1)  =     2000
   RHO(2)=  100.500       N(2)  =     4000

 VTST: version 3.2, (02/03/18)

 CHAIN: initializing optimizer

 OPT: Using VASP Conjugate-Gradient optimizer
 CHAIN: Read ICHAIN            0

 POSCAR: Au-W-H
  positions in direct lattice
  velocities in cartesian coordinates

 ion  position               nearest neighbor table
   1  0.000  0.000  0.238-  16 2.94  12 2.94   6 2.94   8 2.94   7 2.94   3 2.94  10 2.94   4 2.94
                             2 2.94
   2  0.333  0.000  0.238-   9 2.94  11 2.94  17 2.94  10 2.94   8 2.94   4 2.94   5 2.94   1 2.94
                             3 2.94
   3  0.667  0.000  0.238-   7 2.94  18 2.94  12 2.94   1 2.94  11 2.94   5 2.94   6 2.94   9 2.94
                             2 2.94
   4  0.000  0.333  0.238-  10 2.94   6 2.94   5 2.94  13 2.94   2 2.94  15 2.94   9 2.94   1 2.94
                             7 2.94
   5  0.333  0.333  0.238-  13 2.94   7 2.94  11 2.94   4 2.94   2 2.94  14 2.94   3 2.94   8 2.94
                             6 2.94
   6  0.667  0.333  0.238-  15 2.94  14 2.94   1 2.94  12 2.94   4 2.94   9 2.94   8 2.94   3 2.94
                             5 2.94
   7  0.000  0.667  0.238-  18 2.94   3 2.94  16 2.94   5 2.94   1 2.94  13 2.94   8 2.94   4 2.94
                             9 2.94
   8  0.333  0.667  0.238-   9 2.94  17 2.94   1 2.94   2 2.94  14 2.94  16 2.94   6 2.94   7 2.94
                             5 2.94
   9  0.667  0.667  0.238-   2 2.94   8 2.94  17 2.94   6 2.94  15 2.94   4 2.94   3 2.94  18 2.94
                             7 2.94
  10  0.111  0.111  0.346-  20 2.90  11 2.94  17 2.94   2 2.94   4 2.94   1 2.94  12 2.94  16 2.94
                            13 2.94  15 2.94  26 2.96  19 2.96
  11  0.444  0.111  0.346-  20 2.91  21 2.91  13 2.94   2 2.94  10 2.94  17 2.94   5 2.94   3 2.94
                            18 2.94  14 2.94  12 2.94  27 2.94
  12  0.778  0.111  0.346-  21 2.90  16 2.94  18 2.94   1 2.94  14 2.94  15 2.94   3 2.94   6 2.94
                            10 2.94  11 2.94  25 2.96  19 2.96
  13  0.111  0.444  0.346-  23 2.91  20 2.91   5 2.94  18 2.94  11 2.94   7 2.94   4 2.94  16 2.94
                            10 2.94  14 2.94  15 2.94  22 2.94
  14  0.444  0.444  0.346-  21 2.91  23 2.91  15 2.94   6 2.94  12 2.94   8 2.94  17 2.94   5 2.94
                            16 2.94  13 2.94  11 2.94  24 2.94
  15  0.778  0.444  0.346-  24 2.92  22 2.92  14 2.94   6 2.94  17 2.94  12 2.94   9 2.94   4 2.94
                            10 2.94  13 2.94  18 2.94  19 2.95
  16  0.111  0.778  0.346-  23 2.90  18 2.94  12 2.94   7 2.94   1 2.94   8 2.94  13 2.94  10 2.94
                            14 2.94  17 2.94  25 2.96  26 2.96
  17  0.444  0.778  0.346-  27 2.92  24 2.92   9 2.94  15 2.94   2 2.94  10 2.94  11 2.94   8 2.94
                            14 2.94  16 2.94  18 2.94  26 2.95
  18  0.778  0.778  0.346-  22 2.92  27 2.92  16 2.94   7 2.94  13 2.94  12 2.94   3 2.94  11 2.94
                             9 2.94  15 2.94  17 2.94  25 2.95
  19  0.888  0.224  0.455-  24 2.93  22 2.93  21 2.93  20 2.93  28 2.94  15 2.95  26 2.96  25 2.96
                            10 2.96  12 2.96  32 3.04  31 3.04
  20  0.222  0.222  0.452-  36 2.74  10 2.90  11 2.91  13 2.91  26 2.93  19 2.93  23 2.95  21 2.95
                            27 2.96  22 2.96  29 2.98  31 2.98
  21  0.557  0.222  0.452-  36 2.74  12 2.90  14 2.91  11 2.91  25 2.93  19 2.93  20 2.95  23 2.95
                            27 2.96  24 2.96  30 2.98  32 2.98
  22  0.886  0.557  0.454-  24 2.90  27 2.90  18 2.92  15 2.92  25 2.93  19 2.93  13 2.94  35 2.95
                            23 2.96  20 2.96  33 3.02  31 3.02
  23  0.222  0.557  0.452-  36 2.74  16 2.90  13 2.91  14 2.91  25 2.93  26 2.93  20 2.95  21 2.95
                            22 2.96  24 2.96  33 2.98  34 2.98
  24  0.557  0.557  0.454-  27 2.90  22 2.90  15 2.92  17 2.92  26 2.93  19 2.93  14 2.94  35 2.95
                            21 2.96  23 2.96  32 3.02  34 3.02
  25  0.888  0.888  0.455-  22 2.93  27 2.93  23 2.93  21 2.93  28 2.94  18 2.95  19 2.96  26 2.96
                            16 2.96  12 2.96  33 3.04  30 3.04
  26  0.224  0.888  0.455-  27 2.93  24 2.93  20 2.93  23 2.93  28 2.94  17 2.95  19 2.96  25 2.96
                            10 2.96  16 2.96  29 3.04  34 3.04
  27  0.557  0.886  0.454-  24 2.90  22 2.90  17 2.92  18 2.92  26 2.93  25 2.93  11 2.94  35 2.95
                            20 2.96  21 2.96  29 3.02  30 3.02
  28  0.000  0.000  0.563-  25 2.94  19 2.94  26 2.94  34 3.00  32 3.00  33 3.00  30 3.00  31 3.00
                            29 3.00
  29  0.334  0.013  0.566-  30 2.82  31 2.82  36 2.84  20 2.98  35 3.00  28 3.00  27 3.02  26 3.04
                            34 3.17
  30  0.653  0.013  0.566-  29 2.82  32 2.82  36 2.84  21 2.98  35 3.00  28 3.00  27 3.02  25 3.04
                            33 3.17
  31  0.013  0.334  0.566-  33 2.82  29 2.82  36 2.84  20 2.98  35 3.00  28 3.00  22 3.02  19 3.04
                            32 3.17
  32  0.653  0.334  0.566-  34 2.82  30 2.82  36 2.84  21 2.98  35 3.00  28 3.00  24 3.02  19 3.04
                            31 3.17
  33  0.013  0.653  0.566-  31 2.82  34 2.82  36 2.84  23 2.98  35 3.00  28 3.00  22 3.02  25 3.04
                            30 3.17
  34  0.334  0.653  0.566-  32 2.82  33 2.82  36 2.84  23 2.98  35 3.00  28 3.00  24 3.02  26 3.04
                            29 3.17
  35  0.667  0.667  0.563-  24 2.95  27 2.95  22 2.95  29 3.00  34 3.00  32 3.00  31 3.00  30 3.00
                            33 3.00
  36  0.333  0.333  0.549-  37 1.71  20 2.74  23 2.74  21 2.74  33 2.84  31 2.84  29 2.84  30 2.84
                            34 2.84  32 2.84
  37  0.333  0.333  0.626-  36 1.71

  LATTYP: Found a hexagonal cell.
 ALAT       =     8.8135128021
 C/A-ratio  =     2.5184286595

  Lattice vectors:

 A1 = (  -4.4067569092,  -7.6327256898,   0.0000000000)
 A2 = (   8.8135128021,   0.0000000000,   0.0000000000)
 A3 = (   0.0000000000,   0.0000000000,  22.1962032318)

Analysis of symmetry for initial positions (statically):
 Subroutine PRICEL returns:
 Original cell was already a primitive cell.

 Routine SETGRP: Setting up the symmetry group for a
 hexagonal supercell.

 Subroutine GETGRP returns: Found  6 space group operations
 (whereof  6 operations were pure point group operations)
 out of a pool of 24 trial point group operations.

The static configuration has the point symmetry C_3v.

Analysis of symmetry for dynamics (positions and initial velocities):
 Subroutine PRICEL returns:
 Original cell was already a primitive cell.

[...]

The dynamic configuration has the point symmetry C_3v.

Analysis of constrained symmetry for selective dynamics:
 Subroutine PRICEL returns:
 Original cell was already a primitive cell.

 Routine SETGRP: Setting up the symmetry group for a
 hexagonal supercell.

 Subroutine GETGRP returns: Found  6 space group operations
 (whereof  6 operations were pure point group operations)
[...]
     24      -5.0895      2.00000
     25      -5.0817      2.00000
     26      -5.0374      2.00000
     27      -4.9947      2.00000
     28      -4.9676      2.00000
     29      -4.9292      2.00000
     30      -4.8943      2.00000
     31      -4.8685      2.00000
     32      -4.7965      2.00000
     33      -4.7842      2.00000
     34      -4.7635      2.00000
     35      -4.7363      2.00000
     36      -4.7285      2.00000
     37      -4.6340      2.00000
     38      -4.5572      2.00000
     39      -4.5149      2.00000
     40      -4.4627      2.00000
     41      -4.4301      2.00000
     42      -4.4058      2.00000
     43      -4.3795      2.00000
     44      -4.3607      2.00000
     45      -4.3315      2.00000
     46      -4.2599      2.00000
     47      -4.2371      2.00000
     48      -4.1962      2.00000
     49      -4.1822      2.00000
     50      -4.1712      2.00000
     51      -4.1480      2.00000
     52      -4.1331      2.00000
     53      -4.1219      2.00000
     54      -4.0843      2.00000
     55      -4.0515      2.00000
     56      -4.0434      2.00000
     57      -4.0287      2.00000
     58      -4.0116      2.00000
     59      -4.0037      2.00000
     60      -3.9819      2.00000
[...]
    238       6.6968      0.00000
    239       6.7518      0.00000
    240       6.7865      0.00000
    241       6.8540      0.00000
    242       6.8961      0.00000
    243       7.1051      0.00000
    244       7.1777      0.00000
    245       7.2538      0.00000
    246       7.6096      0.00000
    247       7.6387      0.00000
    248       7.7762      0.00000
    249       7.8207      0.00000
    250       7.9185      0.00000
    251       7.9326      0.00000
    252       7.9889      0.00000

 soft charge-density along one line, spin component           1
         0         1         2         3         4         5         6         7         8         9
 total charge-density along one line

------------------------ aborting loop because EDIFF is reached ----------------------------------------

 total charge

# of ion       s       p       d       tot
    1        0.549   0.235   8.770   9.554
    2        0.541   0.241   8.765   9.547
    3        0.541   0.241   8.765   9.547
    4        0.541   0.241   8.765   9.547
    5        0.549   0.239   8.761   9.549
    6        0.541   0.241   8.765   9.547
    7        0.541   0.241   8.765   9.547
    8        0.541   0.241   8.765   9.547
    9        0.543   0.239   8.766   9.549
   10        0.528   0.306   8.766   9.600
   11        0.521   0.308   8.780   9.609
   12        0.528   0.306   8.766   9.600
   13        0.521   0.308   8.780   9.609
   14        0.521   0.308   8.780   9.609
   15        0.516   0.307   8.776   9.599
   16        0.528   0.306   8.766   9.600
   17        0.516   0.307   8.776   9.599
   18        0.516   0.307   8.776   9.599
   19        0.515   0.294   8.773   9.582
   20        0.581   0.343   8.726   9.649
   21        0.581   0.343   8.726   9.649
   22        0.506   0.306   8.778   9.590
   23        0.581   0.343   8.726   9.649
   24        0.506   0.306   8.778   9.590
   25        0.515   0.294   8.773   9.582
   26        0.515   0.294   8.773   9.582
   27        0.506   0.306   8.778   9.590
   28        0.538   0.225   8.753   9.516
   29        0.583   0.251   8.727   9.561
   30        0.583   0.251   8.727   9.561
   31        0.583   0.251   8.727   9.561
   32        0.583   0.251   8.727   9.561
   33        0.583   0.251   8.727   9.561
   34        0.583   0.251   8.727   9.561
   35        0.535   0.223   8.758   9.516
   36        0.601   0.522   3.847   4.970
   37        0.532   0.014   0.000   0.546
tot         20.089  10.237 310.408 340.735

  FORCE on cell =-STRESS in cart. coord.  units (eV):
  Direction    XX          YY          ZZ          XY          YZ          ZX
  Alpha Z  1005.50966  1005.50966  1005.50966
  Ewald  117185.42289117185.42328************    -0.00032    -0.00009    -0.00017
  Hartree125663.70652125663.70651************     0.00000    -0.00002    -0.00005
  E(xc)   -1755.61495 -1755.61494 -1764.60737    -0.00001     0.00000     0.00000
  Local  ************************255221.24806     0.00168     0.00005     0.00010
  n-local   -84.47911   -35.53644   -29.65642    24.10225    -1.57779     1.56577
  augment  2366.77857  2366.78001  2389.10820    -0.00125     0.00003     0.00007
  Kinetic  5415.39745  5424.28635  5491.67954     5.25519    -0.14580     0.41341
  Fock        0.00000     0.00000     0.00000     0.00000     0.00000     0.00000
  Total     -23.10372   -23.10371     3.59821    -0.00000     0.00000     0.00000
  in kB     -24.79049   -24.79048     3.86092    -0.00000     0.00000     0.00000

 VOLUME and BASIS-vectors are now :
  energy-cutoff  :      500.00
  volume of cell :     1493.16
      direct lattice vectors                 reciprocal lattice vectors
     8.813512802  0.000000000  0.000000000     0.113462137 -0.065507406  0.000000000
     4.406756909  7.632725690  0.000000000     0.000000000  0.131014796  0.000000000
     0.000000000  0.000000000 22.196203232     0.000000000  0.000000000  0.045052750

  length of vectors
     8.813512802  8.813512802 22.196203232     0.131014796  0.131014796  0.045052750

 FORCES acting on ions
    electron-ion (+dipol)            ewald-force                    non-local-force                 convergence-correction
   -.197E-04 -.162E-04 0.246E+04   0.519E-04 0.433E-04 -.245E+04   -.545E-17 0.591E-17 -.795E+00   -.201E-03 -.129E-03 -.242E+00
   0.657E+00 -.150E+00 0.246E+04   -.697E+00 -.697E-01 -.246E+04   0.485E-01 0.180E+00 -.323E+00   -.102E-01 0.185E-01 -.265E+00
   -.657E+00 -.150E+00 0.246E+04   0.697E+00 -.697E-01 -.246E+04   -.485E-01 0.180E+00 -.323E+00   0.105E-01 0.205E-01 -.264E+00
   0.199E+00 0.644E+00 0.246E+04   -.409E+00 -.569E+00 -.246E+04   0.180E+00 -.480E-01 -.323E+00   0.110E-01 -.182E-01 -.265E+00
   0.726E-05 -.243E-04 0.246E+04   0.951E-04 0.175E-05 -.246E+04   0.340E-17 -.218E-17 0.228E+00   0.430E-02 0.262E-02 -.195E+00
   -.199E+00 0.644E+00 0.246E+04   0.409E+00 -.569E+00 -.246E+04   -.180E+00 -.480E-01 -.323E+00   -.125E-01 -.172E-01 -.264E+00
   -.458E+00 -.494E+00 0.246E+04   0.288E+00 0.639E+00 -.246E+04   0.132E+00 -.132E+00 -.323E+00   0.231E-01 -.114E-02 -.264E+00
   0.458E+00 -.494E+00 0.246E+04   -.288E+00 0.639E+00 -.246E+04   -.132E+00 -.132E+00 -.323E+00   -.212E-01 -.223E-02 -.264E+00
   0.199E-04 -.415E-04 0.246E+04   0.166E-03 -.200E-04 -.246E+04   -.112E-17 0.324E-18 -.447E+00   -.464E-02 -.240E-02 -.176E+00
   0.698E+01 0.403E+01 0.789E+03   -.650E+01 -.375E+01 -.788E+03   -.455E+00 -.263E+00 -.630E+00   -.743E-01 -.430E-01 0.173E-01
   0.142E-04 0.206E+01 0.794E+03   0.148E-03 -.201E+01 -.794E+03   -.453E-09 -.681E-02 -.625E-01   0.379E-02 -.949E-01 0.726E-01
   -.698E+01 0.403E+01 0.789E+03   0.650E+01 -.375E+01 -.788E+03   0.455E+00 -.263E+00 -.630E+00   0.730E-01 -.415E-01 0.170E-01
   0.178E+01 -.103E+01 0.794E+03   -.174E+01 0.100E+01 -.794E+03   -.590E-02 0.340E-02 -.625E-01   -.800E-01 0.510E-01 0.726E-01
   -.178E+01 -.103E+01 0.794E+03   0.174E+01 0.100E+01 -.794E+03   0.590E-02 0.340E-02 -.625E-01   0.879E-01 0.506E-01 0.725E-01
   0.318E-04 0.571E+01 0.794E+03   0.235E-03 -.592E+01 -.794E+03   0.214E-08 0.321E-01 -.559E+00   -.239E-02 0.955E-01 0.875E-01
   -.212E-04 -.806E+01 0.789E+03   0.163E-03 0.750E+01 -.788E+03   0.350E-07 0.525E+00 -.630E+00   0.296E-03 0.840E-01 0.170E-01
   0.494E+01 -.285E+01 0.794E+03   -.512E+01 0.296E+01 -.794E+03   0.278E-01 -.160E-01 -.559E+00   0.818E-01 -.494E-01 0.875E-01
   -.494E+01 -.285E+01 0.794E+03   0.512E+01 0.296E+01 -.794E+03   -.278E-01 -.160E-01 -.559E+00   -.818E-01 -.475E-01 0.872E-01
   -.431E-04 0.199E+01 -.904E+03   0.558E-04 -.211E+01 0.903E+03   -.911E-09 -.137E-01 0.593E+00   -.232E-03 0.993E-01 0.468E+00
   -.520E+01 -.300E+01 -.873E+03   0.627E+01 0.362E+01 0.874E+03   -.123E+01 -.713E+00 -.148E+01   0.792E-01 0.456E-01 0.664E+00
   0.520E+01 -.300E+01 -.873E+03   -.627E+01 0.362E+01 0.874E+03   0.123E+01 -.713E+00 -.148E+01   -.784E-01 0.476E-01 0.664E+00
   -.136E+02 0.784E+01 -.883E+03   0.132E+02 -.764E+01 0.882E+03   0.485E+00 -.280E+00 0.593E+00   -.100E+00 0.537E-01 0.443E+00
   -.982E-05 0.601E+01 -.873E+03   0.138E-03 -.725E+01 0.874E+03   0.949E-07 0.143E+01 -.148E+01   0.178E-02 -.917E-01 0.664E+00
   0.136E+02 0.784E+01 -.883E+03   -.132E+02 -.764E+01 0.882E+03   -.485E+00 -.280E+00 0.593E+00   0.936E-01 0.541E-01 0.443E+00
   -.172E+01 -.996E+00 -.904E+03   0.183E+01 0.106E+01 0.903E+03   0.119E-01 0.684E-02 0.593E+00   -.843E-01 -.487E-01 0.467E+00
   0.172E+01 -.996E+00 -.904E+03   -.183E+01 0.106E+01 0.903E+03   -.119E-01 0.684E-02 0.593E+00   0.862E-01 -.498E-01 0.468E+00
   0.984E-05 -.157E+02 -.883E+03   0.198E-03 0.153E+02 0.882E+03   0.373E-07 0.560E+00 0.593E+00   -.429E-02 -.114E+00 0.443E+00
   -.113E-04 -.112E-04 -.245E+04   0.286E-04 0.310E-04 0.245E+04   -.479E-17 -.288E-17 0.695E+00   0.135E-02 0.761E-03 0.318E+00
   0.630E+01 0.702E+01 -.247E+04   -.522E+01 -.534E+01 0.247E+04   -.124E+01 -.193E+01 -.210E+00   0.157E+00 0.177E+00 0.245E+00
   -.630E+01 0.702E+01 -.247E+04   0.522E+01 -.534E+01 0.247E+04   0.124E+01 -.193E+01 -.210E+00   -.163E+00 0.178E+00 0.245E+00
   0.923E+01 0.194E+01 -.247E+04   -.723E+01 -.185E+01 0.247E+04   -.229E+01 -.114E+00 -.210E+00   0.231E+00 0.474E-01 0.245E+00
   -.923E+01 0.194E+01 -.247E+04   0.723E+01 -.185E+01 0.247E+04   0.229E+01 -.114E+00 -.210E+00   -.239E+00 0.485E-01 0.245E+00
   0.293E+01 -.896E+01 -.247E+04   -.201E+01 0.719E+01 0.247E+04   -.105E+01 0.204E+01 -.210E+00   0.730E-01 -.230E+00 0.245E+00
   -.293E+01 -.896E+01 -.247E+04   0.201E+01 0.719E+01 0.247E+04   0.105E+01 0.204E+01 -.210E+00   -.772E-01 -.231E+00 0.245E+00
   0.345E-04 -.325E-04 -.246E+04   0.141E-03 -.468E-04 0.245E+04   -.527E-17 -.244E-17 0.796E+00   -.353E-02 -.174E-02 0.212E+00
   -.229E-04 -.189E-05 -.124E+04   0.638E-04 0.589E-05 0.125E+04   -.239E-18 -.180E-17 -.243E+01   0.119E-02 0.699E-03 0.261E+00
   0.580E-05 -.401E-05 -.268E+03   0.461E-05 0.285E-06 0.271E+03   -.449E-19 0.704E-19 -.245E+01   0.137E-03 0.810E-04 -.533E-01
   -.808E-03 -.779E-03 0.735E+01   -.267E-13 -.399E-13 -.313E-11   -.228E-15 -.417E-17 -.122E+02   -.170E-01 -.927E-02 0.526E+01

 POSITION                                       TOTAL-FORCE (eV/Angst)
      0.00000      0.00000      5.28038         0.000000      0.000000     -0.190052
      2.93784      0.00000      5.28038        -0.001022     -0.020009     -0.058740
      5.87568      0.00000      5.28038         0.001022     -0.020009     -0.058740
      1.46892      2.54424      5.28038        -0.017839      0.009120     -0.058740
      4.40676      2.54424      5.28038         0.000000      0.000000     -0.102172
      7.34459      2.54424      5.28038         0.017839      0.009120     -0.058740
      2.93784      5.08848      5.28038        -0.016817      0.010889     -0.058740
      5.87568      5.08848      5.28038         0.016817      0.010889     -0.058740
      8.81351      5.08848      5.28038         0.000000      0.000000     -0.092156
      1.46892      0.84808      7.67911        -0.043427     -0.025073      0.123656
      4.40676      0.84808      7.67911        -0.000000     -0.053203     -0.002019
      7.34459      0.84808      7.67911         0.043427     -0.025073      0.123656
      2.93784      3.39232      7.67911        -0.046075      0.026601     -0.002019
      5.87568      3.39232      7.67911         0.046075      0.026601     -0.002019
      8.81351      3.39232      7.67911        -0.000000     -0.084264      0.097122
      4.40676      5.93656      7.67911         0.000000      0.050146      0.123656
      7.34459      5.93656      7.67911        -0.072975      0.042132      0.097122
     10.28243      5.93656      7.67911         0.072975      0.042132      0.097122
      8.81351      1.70807     10.10081        -0.000000     -0.035794     -0.009846
      2.93151      1.69251     10.04012        -0.083650     -0.048295     -0.111292
      5.88200      1.69251     10.04012         0.083650     -0.048295     -0.111292
     10.26425      4.25090     10.06644         0.048453     -0.027974      0.008752
      4.40676      4.24770     10.04012         0.000000      0.096591     -0.111292
      7.36277      4.25090     10.06644        -0.048453     -0.027974      0.008752
     11.74104      6.77869     10.10081         0.030998      0.017897     -0.009846
      5.88599      6.77869     10.10081        -0.030998      0.017897     -0.009846
      8.81351      6.76365     10.06644         0.000000      0.055949      0.008752
      0.00000      0.00000     12.49922         0.000000      0.000000     -0.001576
      2.99894      0.10048     12.55446        -0.009283     -0.062223     -0.036142
      5.81457      0.10048     12.55446         0.009283     -0.062223     -0.036142
      1.58649      2.54692     12.55446        -0.058528      0.023072     -0.036142
      7.22703      2.54692     12.55446         0.058528      0.023072     -0.036142
      2.99430      4.98533     12.55446        -0.049245      0.039151     -0.036142
      5.81921      4.98533     12.55446         0.049245      0.039151     -0.036142
      8.81351      5.08848     12.49869         0.000000      0.000000      0.093189
      4.40676      2.54424     12.18560         0.000000      0.000000      0.531184
      4.40676      2.54424     13.89155         0.000000      0.000000      0.011760
    total drift:                               -0.017829     -0.010046      0.380649

  FREE ENERGIE OF THE ION-ELECTRON SYSTEM (eV)
  free  energy   TOTEN  =      -120.67286284 eV

  energy  without entropy=     -120.67286284  energy(sigma->0) =     -120.67286284

 stress matrix after NEB project (eV)
    -23.10372     -0.00000      0.00000
     -0.00000    -23.10371      0.00000
      0.00000      0.00000      3.59821
  FORCES: max atom, RMS     0.011760    0.001933
  FORCE total and by dimension    0.011760    0.011760
  Stress total and by dimension   32.871119   23.103716
|           W    W    AA    RRRRR   N    N  II  N    N   GGGG   !!!           |
|           W    W   A  A   R    R  NN   N  II  NN   N  G    G  !!!           |
|           W    W  A    A  R    R  N N  N  II  N N  N  G       !!!           |
|           W WW W  AAAAAA  RRRRR   N  N N  II  N  N N  G  GGG   !            |
|           WW  WW  A    A  R   R   N   NN  II  N   NN  G    G                |
|           W    W  A    A  R    R  N    N  II  N    N   GGGG   !!!           |
|     Tetrahedron method does not include variations of the Fermi             |
|     occupations, so forces and stress will be inaccurate. We suggest        |
|     using a different smearing scheme ISMEAR = 1 or 2 for metals in         |
|     relaxations.                                                            |

 total charge

# of ion       s       p       d       tot
    1        0.549   0.235   8.770   9.554
    2        0.541   0.241   8.765   9.547
    3        0.541   0.241   8.765   9.547
    4        0.541   0.241   8.765   9.547
    5        0.549   0.239   8.761   9.549
    6        0.541   0.241   8.765   9.547
    7        0.541   0.241   8.765   9.547
    8        0.541   0.241   8.765   9.547
    9        0.543   0.239   8.766   9.549
   10        0.528   0.306   8.766   9.600
   11        0.521   0.308   8.780   9.609
   12        0.528   0.306   8.766   9.600
   13        0.521   0.308   8.780   9.609
   14        0.521   0.308   8.780   9.609
   15        0.516   0.307   8.776   9.599
   16        0.528   0.306   8.766   9.600
   17        0.516   0.307   8.776   9.599
   18        0.516   0.307   8.776   9.599
   19        0.515   0.294   8.773   9.582
   20        0.581   0.343   8.726   9.649
   21        0.581   0.343   8.726   9.649
   22        0.506   0.306   8.778   9.590
   23        0.581   0.343   8.726   9.649
   24        0.506   0.306   8.778   9.590
   25        0.515   0.294   8.773   9.582
   26        0.515   0.294   8.773   9.582
   27        0.506   0.306   8.778   9.590
   28        0.538   0.225   8.753   9.516
   29        0.583   0.251   8.727   9.561
   30        0.583   0.251   8.727   9.561
   31        0.583   0.251   8.727   9.561
   32        0.583   0.251   8.727   9.561
   33        0.583   0.251   8.727   9.561
   34        0.583   0.251   8.727   9.561
   35        0.535   0.223   8.758   9.516
   36        0.601   0.522   3.847   4.970
   37        0.532   0.014   0.000   0.546
tot         20.089  10.237 310.408 340.735

 BZINTS: Fermi energy:    0.647035;  392.000000 electrons
         Band energy:-0.121114E+04;  BLOECHL correction:   -0.030259