 vasp.6.2.0 18Jan21 (build Jun 12 2021 23:27:24) complex

 executed on             LinuxIFC date 2022.05.27  04:58:56

 INCAR:
   ISMEAR = -5
   SIGMA = 0.1
   ISPIN = 1
   EDIFF = 1.d-5
   EDIFFG = -0.01
   NSW = 0
   NELM = 150
   ENCUT = 500
   ISIF = 2
   IBRION = 2
   LREAL = Auto
   ALGO = Fast
   ICHARG = 11
   LORBIT = 10
   LCHARG = .F.
   LWAVE = .F.

 POTCAR:    PAW_PBE Au 04Oct2007
 POTCAR:    PAW_PBE V 08Apr2002
 POTCAR:    PAW_PBE O 08Apr2002
 POTCAR:    PAW_PBE H 15Jun2001
|           W    W    AA    RRRRR   N    N  II  N    N   GGGG   !!!           |
|           W    W   A  A   R    R  NN   N  II  NN   N  G    G  !!!           |
|           W    W  A    A  R    R  N N  N  II  N N  N  G       !!!           |
|           W WW W  AAAAAA  RRRRR   N  N N  II  N  N N  G  GGG   !            |
|           WW  WW  A    A  R   R   N   NN  II  N   NN  G    G                |
|           W    W  A    A  R    R  N    N  II  N    N   GGGG   !!!           |
|     For optimal performance we recommend to set                             |
|       NCORE = 2 up to number-of-cores-per-socket                            |
|     This setting can greatly improve the performance of VASP for DFT.       |
|     The default, NCORE=1 might be grossly inefficient on modern             |
|     multi-core architectures or massively parallel machines. Do your        |
|     Unfortunately you need to use the default for GW and RPA                |
|     calculations (for HF NCORE is supported but not extensively tested      |
|     yet).                                                                   |

 POTCAR:    PAW_PBE Au 04Oct2007
   VRHFIN =Au: s1d10

   TITEL  = PAW_PBE Au 04Oct2007
   POMASS =  196.966; ZVAL   =   11.000    mass and valenz
   ENMAX  =  229.943; ENMIN  =  172.457 eV

 POTCAR:    PAW_PBE V 08Apr2002
   VRHFIN =V: p6 d4 s1

   TITEL  = PAW_PBE V 08Apr2002
   POMASS =   50.941; ZVAL   =    5.000    mass and valenz
   ENMAX  =  192.543; ENMIN  =  144.408 eV

 POTCAR:    PAW_PBE O 08Apr2002
   VRHFIN =O: s2p4

   TITEL  = PAW_PBE O 08Apr2002
   POMASS =   16.000; ZVAL   =    6.000    mass and valenz
   ENMAX  =  400.000; ENMIN  =  300.000 eV

 POTCAR:    PAW_PBE H 15Jun2001
   VRHFIN =H: ultrasoft test

   TITEL  = PAW_PBE H 15Jun2001
   POMASS =    1.000; ZVAL   =    1.000    mass and valenz
   ENMAX  =  250.000; ENMIN  =  200.000 eV

 Optimization of the real space projectors (new method)

 maximal supplied QI-value         = 15.12
 optimisation between [QCUT,QGAM] = [ 11.34, 22.83] = [ 36.00,145.93] Ry
 Optimized for a Real-space Cutoff    1.39 Angstroem

   l    n(q)    QCUT    max X(q) W(low)/X(q) W(high)/X(q)  e(spline)
   2      9    11.338    60.898    0.39E-03    0.42E-03    0.21E-06
   2      9    11.338    58.894    0.40E-03    0.42E-03    0.22E-06
   0      9    11.338   109.617    0.13E-03    0.20E-04    0.13E-06
   0      9    11.338    75.026    0.13E-03    0.20E-04    0.13E-06
   1      9    11.338    16.344    0.33E-04    0.24E-03    0.18E-06
   1      9    11.338    10.160    0.26E-04    0.19E-03    0.15E-06
 Optimization of the real space projectors (new method)

[...]

   l    n(q)    QCUT    max X(q) W(low)/X(q) W(high)/X(q)  e(spline)
   0      7    11.387    20.381    0.39E-03    0.13E-02    0.15E-06
   0      7    11.387    15.268    0.42E-03    0.14E-02    0.17E-06
   1      6    11.387     5.964    0.41E-03    0.11E-02    0.17E-06
   1      6    11.387     5.382    0.39E-03    0.87E-03    0.15E-06
 Optimization of the real space projectors (new method)

 maximal supplied QI-value         = 34.20
 optimisation between [QCUT,QGAM] = [ 11.29, 22.57] = [ 35.68,142.71] Ry
 Optimized for a Real-space Cutoff    1.16 Angstroem

   l    n(q)    QCUT    max X(q) W(low)/X(q) W(high)/X(q)  e(spline)
   0      8    11.287    19.460    0.40E-03    0.73E-03    0.16E-06
   0      8    11.287    12.209    0.38E-03    0.70E-03    0.15E-06
   1      7    11.287     4.655    0.22E-03    0.25E-04    0.22E-06
  PAW_PBE Au 04Oct2007                  :
  PAW_PBE V 08Apr2002                   :
  PAW_PBE O 08Apr2002                   :
  PAW_PBE H 15Jun2001                   :

 POSCAR: Au-V-OH
  positions in direct lattice
  velocities in cartesian coordinates
 exchange correlation table for  LEXCH =        8
   RHO(1)=    0.500       N(1)  =     2000
   RHO(2)=  100.500       N(2)  =     4000

 VTST: version 3.2, (02/03/18)

 CHAIN: initializing optimizer

 OPT: Using VASP Conjugate-Gradient optimizer
 CHAIN: Read ICHAIN            0

 POSCAR: Au-V-OH
  positions in direct lattice
  velocities in cartesian coordinates

 ion  position               nearest neighbor table
   1  0.000  0.000  0.238-  16 2.94  12 2.94   6 2.94   8 2.94   7 2.94   3 2.94  10 2.94   4 2.94
                             2 2.94
   2  0.333  0.000  0.238-   9 2.94  11 2.94  17 2.94  10 2.94   8 2.94   4 2.94   5 2.94   1 2.94
                             3 2.94
   3  0.667  0.000  0.238-   7 2.94  18 2.94  12 2.94   1 2.94  11 2.94   5 2.94   6 2.94   9 2.94
                             2 2.94
   4  0.000  0.333  0.238-  10 2.94   6 2.94   5 2.94  13 2.94   2 2.94  15 2.94   9 2.94   1 2.94
                             7 2.94
   5  0.333  0.333  0.238-  13 2.94   7 2.94  11 2.94   4 2.94   2 2.94  14 2.94   3 2.94   8 2.94
                             6 2.94
   6  0.667  0.333  0.238-  15 2.94  14 2.94   1 2.94  12 2.94   4 2.94   9 2.94   8 2.94   3 2.94
                             5 2.94
   7  0.000  0.667  0.238-  18 2.94   3 2.94  16 2.94   5 2.94   1 2.94  13 2.94   8 2.94   4 2.94
                             9 2.94
   8  0.333  0.667  0.238-   9 2.94  17 2.94   1 2.94   2 2.94  14 2.94  16 2.94   6 2.94   7 2.94
                             5 2.94
   9  0.667  0.667  0.238-   2 2.94   8 2.94  17 2.94   6 2.94  15 2.94   4 2.94   3 2.94  18 2.94
                             7 2.94
  10  0.111  0.111  0.346-  20 2.93  26 2.94  19 2.94  11 2.94  17 2.94   2 2.94   4 2.94   1 2.94
                            12 2.94  16 2.94  13 2.94  15 2.94
  11  0.444  0.111  0.346-  20 2.92  21 2.92  27 2.94  13 2.94   2 2.94  10 2.94  17 2.94   5 2.94
                             3 2.94  18 2.94  14 2.94  12 2.94
  12  0.778  0.111  0.346-  21 2.93  25 2.94  19 2.94  16 2.94  18 2.94   1 2.94  14 2.94  15 2.94
                             3 2.94   6 2.94  10 2.94  11 2.94
  13  0.111  0.444  0.346-  23 2.92  20 2.92  22 2.94   5 2.94  18 2.94  11 2.94   7 2.94   4 2.94
                            16 2.94  10 2.94  14 2.94  15 2.94
  14  0.444  0.444  0.346-  21 2.92  23 2.92  24 2.94  15 2.94   6 2.94  12 2.94   8 2.94  17 2.94
                             5 2.94  16 2.94  13 2.94  11 2.94
  15  0.778  0.444  0.346-  24 2.92  22 2.92  19 2.93  14 2.94   6 2.94  17 2.94  12 2.94   9 2.94
                             4 2.94  10 2.94  13 2.94  18 2.94
  16  0.111  0.778  0.346-  23 2.93  25 2.94  26 2.94  18 2.94  12 2.94   7 2.94   1 2.94   8 2.94
                            13 2.94  10 2.94  14 2.94  17 2.94
  17  0.444  0.778  0.346-  27 2.92  24 2.92  26 2.93   9 2.94  15 2.94   2 2.94  10 2.94  11 2.94
                             8 2.94  14 2.94  16 2.94  18 2.94
  18  0.778  0.778  0.346-  22 2.92  27 2.92  25 2.93  16 2.94   7 2.94  13 2.94  12 2.94   3 2.94
                            11 2.94   9 2.94  15 2.94  17 2.94
  19  0.889  0.222  0.454-  15 2.93  10 2.94  12 2.94  24 2.94  22 2.94  28 2.94  26 2.94  25 2.94
                            21 2.95  20 2.95  32 3.03  31 3.03
  20  0.223  0.223  0.453-  36 2.72  23 2.92  21 2.92  11 2.92  13 2.92  10 2.93  29 2.95  31 2.95
                            26 2.95  19 2.95  27 2.95  22 2.95
  21  0.554  0.223  0.453-  36 2.72  20 2.92  23 2.92  14 2.92  11 2.92  12 2.93  30 2.95  32 2.95
                            25 2.95  19 2.95  27 2.95  24 2.95
  22  0.887  0.557  0.453-  24 2.91  27 2.91  18 2.92  15 2.92  25 2.94  19 2.94  13 2.94  23 2.95
                            20 2.95  35 2.96  33 2.99  31 2.99
  23  0.223  0.554  0.453-  36 2.72  20 2.92  21 2.92  13 2.92  14 2.92  16 2.93  33 2.95  34 2.95
                            25 2.95  26 2.95  22 2.95  24 2.95
  24  0.557  0.557  0.453-  27 2.91  22 2.91  15 2.92  17 2.92  26 2.94  19 2.94  14 2.94  21 2.95
                            23 2.95  35 2.96  32 2.99  34 2.99
  25  0.889  0.889  0.454-  18 2.93  16 2.94  12 2.94  22 2.94  27 2.94  28 2.94  19 2.94  26 2.94
                            23 2.95  21 2.95  33 3.03  30 3.03
  26  0.222  0.889  0.454-  17 2.93  10 2.94  16 2.94  27 2.94  24 2.94  28 2.94  19 2.94  25 2.94
                            20 2.95  23 2.95  29 3.03  34 3.03
  27  0.557  0.887  0.453-  24 2.91  22 2.91  17 2.92  18 2.92  26 2.94  25 2.94  11 2.94  20 2.95
                            21 2.95  35 2.96  29 2.99  30 2.99
  28  0.000  0.000  0.562-  25 2.94  19 2.94  26 2.94  34 2.99  32 2.99  33 2.99  30 2.99  31 2.99
                            29 2.99
  29  0.334  0.011  0.564-  30 2.83  31 2.85  36 2.86  20 2.95  35 2.98  27 2.99  28 2.99  26 3.03
                            34 3.13
  30  0.655  0.011  0.564-  29 2.83  32 2.85  36 2.86  21 2.95  35 2.98  27 2.99  28 2.99  25 3.03
                            33 3.13
  31  0.011  0.334  0.564-  33 2.83  29 2.85  36 2.86  20 2.95  35 2.98  22 2.99  28 2.99  19 3.03
                            32 3.13
  32  0.655  0.334  0.564-  34 2.83  30 2.85  36 2.86  21 2.95  35 2.98  24 2.99  28 2.99  19 3.03
                            31 3.13
  33  0.011  0.655  0.564-  31 2.83  34 2.85  36 2.86  23 2.95  35 2.98  22 2.99  28 2.99  25 3.03
                            30 3.13
  34  0.334  0.655  0.564-  32 2.83  33 2.85  36 2.86  23 2.95  35 2.98  24 2.99  28 2.99  26 3.03
                            29 3.13
  35  0.667  0.667  0.563-  24 2.96  27 2.96  22 2.96  29 2.98  34 2.98  32 2.98  31 2.98  30 2.98
                            33 2.98
  36  0.333  0.333  0.550-  37 1.75  20 2.72  23 2.72  21 2.72  33 2.86  31 2.86  29 2.86  30 2.86
                            34 2.86  32 2.86
  37  0.333  0.333  0.629-  38 0.97  36 1.75
  38  0.333  0.333  0.672-  37 0.97

  LATTYP: Found a hexagonal cell.
 ALAT       =     8.8135128021
 C/A-ratio  =     2.5184286595

  Lattice vectors:

 A1 = (  -4.4067569092,  -7.6327256898,   0.0000000000)
 A2 = (   8.8135128021,   0.0000000000,   0.0000000000)
 A3 = (   0.0000000000,   0.0000000000,  22.1962032318)

Analysis of symmetry for initial positions (statically):
 Subroutine PRICEL returns:
 Original cell was already a primitive cell.

 Routine SETGRP: Setting up the symmetry group for a
 hexagonal supercell.

 Subroutine GETGRP returns: Found  6 space group operations
 (whereof  6 operations were pure point group operations)
 out of a pool of 24 trial point group operations.

The static configuration has the point symmetry C_3v.

Analysis of symmetry for dynamics (positions and initial velocities):
 Subroutine PRICEL returns:
 Original cell was already a primitive cell.

[...]

The dynamic configuration has the point symmetry C_3v.

Analysis of constrained symmetry for selective dynamics:
 Subroutine PRICEL returns:
 Original cell was already a primitive cell.

[...]
     33      -4.5105      2.00000
     34      -4.4959      2.00000
     35      -4.4789      2.00000
     36      -4.4613      2.00000
     37      -4.3787      2.00000
     38      -4.3747      2.00000
     39      -4.3002      2.00000
     40      -4.2819      2.00000
     41      -4.2283      2.00000
     42      -4.2083      2.00000
     43      -4.1549      2.00000
     44      -4.1280      2.00000
     45      -4.1144      2.00000
     46      -4.0565      2.00000
     47      -4.0281      2.00000
     48      -3.9758      2.00000
     49      -3.9359      2.00000
     50      -3.9277      2.00000
     51      -3.8942      2.00000
     52      -3.8676      2.00000
     53      -3.8608      2.00000
     54      -3.8573      2.00000
     55      -3.8349      2.00000
     56      -3.8193      2.00000
     57      -3.7708      2.00000
     58      -3.7515      2.00000
     59      -3.7266      2.00000
     60      -3.7200      2.00000
[...]
    238       6.4696      0.00000
    239       6.6198      0.00000
    240       6.6488      0.00000
    241       6.7047      0.00000
    242       6.7127      0.00000
    243       6.9863      0.00000
    244       6.9965      0.00000
    245       7.0191      0.00000
    246       7.0432      0.00000
    247       7.3830      0.00000
    248       7.4018      0.00000
    249       7.4731      0.00000
    250       7.5400      0.00000
    251       7.5786      0.00000
    252       7.6419      0.00000

 soft charge-density along one line, spin component           1
         0         1         2         3         4         5         6         7         8         9
 total charge-density along one line

------------------------ aborting loop because EDIFF is reached ----------------------------------------

 total charge

# of ion       s       p       d       tot
    1        0.549   0.238   8.765   9.551
    2        0.544   0.242   8.764   9.549
    3        0.544   0.242   8.764   9.549
    4        0.544   0.242   8.764   9.549
    5        0.544   0.242   8.761   9.546
    6        0.544   0.242   8.764   9.549
    7        0.544   0.242   8.764   9.549
    8        0.544   0.242   8.764   9.549
    9        0.543   0.241   8.767   9.551
   10        0.522   0.306   8.769   9.598
   11        0.519   0.308   8.778   9.605
   12        0.522   0.306   8.769   9.598
   13        0.519   0.308   8.778   9.605
   14        0.519   0.308   8.778   9.605
   15        0.514   0.309   8.772   9.595
   16        0.522   0.306   8.769   9.598
   17        0.514   0.309   8.772   9.595
   18        0.514   0.309   8.772   9.595
   19        0.518   0.296   8.774   9.589
   20        0.559   0.335   8.735   9.629
   21        0.559   0.335   8.735   9.629
   22        0.509   0.308   8.773   9.589
   23        0.559   0.335   8.735   9.629
   24        0.509   0.308   8.773   9.589
   25        0.518   0.296   8.774   9.589
   26        0.518   0.296   8.774   9.589
   27        0.509   0.308   8.773   9.589
   28        0.545   0.228   8.756   9.528
   29        0.565   0.239   8.755   9.559
   30        0.565   0.239   8.755   9.559
   31        0.565   0.239   8.755   9.559
   32        0.565   0.239   8.755   9.559
   33        0.565   0.239   8.755   9.559
   34        0.565   0.239   8.755   9.559
   35        0.539   0.229   8.758   9.526
   36        0.463   0.676   3.410   4.550
   37        1.562   3.533   0.000   5.095
   38        0.602   0.124   0.000   0.726
tot         21.425  13.982 310.131 345.538

  FORCE on cell =-STRESS in cart. coord.  units (eV):
  Direction    XX          YY          ZZ          XY          YZ          ZX
  Alpha Z  1008.67857  1008.67857  1008.67857
  Ewald  117279.37971117279.38012************    -0.00032    -0.00009    -0.00013
  Hartree126058.09014126058.09014************     0.00001    -0.00002    -0.00003
  E(xc)   -1782.52808 -1782.52809 -1789.00575     0.00001     0.00000     0.00001
  Local  ************************255575.20934     0.00203     0.00002    -0.00000
  n-local  -102.09778   -53.47009   -47.68311    23.35207    -1.86890     1.63456
  augment  2392.84364  2392.84514  2404.16566    -0.00130     0.00001     0.00004
  Kinetic  5525.57099  5535.12331  5547.13937     5.42431     0.30913     0.07502
  Fock        0.00000     0.00000     0.00000     0.00000     0.00000     0.00000
  Total     -20.75059   -20.75059     0.98791    -0.00000     0.00000     0.00000
  in kB     -22.26556   -22.26556     1.06004    -0.00000     0.00000     0.00000

 VOLUME and BASIS-vectors are now :
  energy-cutoff  :      500.00
  volume of cell :     1493.16
      direct lattice vectors                 reciprocal lattice vectors
     8.813512802  0.000000000  0.000000000     0.113462137 -0.065507406  0.000000000
     4.406756909  7.632725690  0.000000000     0.000000000  0.131014796  0.000000000
     0.000000000  0.000000000 22.196203232     0.000000000  0.000000000  0.045052750

  length of vectors
     8.813512802  8.813512802 22.196203232     0.131014796  0.131014796  0.045052750

 FORCES acting on ions
    electron-ion (+dipol)            ewald-force                    non-local-force                 convergence-correction
   -.193E-04 -.160E-04 0.247E+04   0.519E-04 0.433E-04 -.247E+04   -.778E-17 0.753E-18 -.708E+00   -.238E-03 -.151E-03 0.217E-01
   0.348E+00 -.161E+00 0.247E+04   -.313E+00 0.590E-01 -.247E+04   -.129E-02 0.875E-01 -.278E+00   -.362E-01 0.173E-01 -.316E-01
   -.348E+00 -.161E+00 0.247E+04   0.313E+00 0.590E-01 -.247E+04   0.129E-02 0.875E-01 -.278E+00   0.365E-01 0.192E-01 -.309E-01
   0.348E-01 0.382E+00 0.247E+04   -.106E+00 -.301E+00 -.247E+04   0.751E-01 -.449E-01 -.278E+00   -.309E-02 -.400E-01 -.317E-01
   0.931E-05 -.228E-04 0.247E+04   0.951E-04 0.173E-05 -.247E+04   -.492E-17 0.179E-17 -.178E+00   0.428E-02 0.260E-02 -.915E-01
   -.348E-01 0.382E+00 0.247E+04   0.106E+00 -.301E+00 -.247E+04   -.751E-01 -.449E-01 -.278E+00   0.155E-02 -.391E-01 -.307E-01
   -.313E+00 -.221E+00 0.247E+04   0.208E+00 0.242E+00 -.247E+04   0.764E-01 -.426E-01 -.278E+00   0.349E-01 0.220E-01 -.309E-01
   0.313E+00 -.221E+00 0.247E+04   -.208E+00 0.242E+00 -.247E+04   -.764E-01 -.426E-01 -.278E+00   -.331E-01 0.209E-01 -.308E-01
   0.194E-04 -.417E-04 0.247E+04   0.166E-03 -.200E-04 -.247E+04   -.380E-17 -.346E-18 -.483E+00   -.458E-02 -.237E-02 0.176E-01
   0.200E+01 0.116E+01 0.822E+03   -.154E+01 -.887E+00 -.821E+03   -.350E+00 -.202E+00 -.540E+00   -.911E-01 -.527E-01 -.108E+00
   0.145E-04 0.112E+01 0.825E+03   0.148E-03 -.112E+01 -.824E+03   0.383E-08 0.575E-01 -.243E+00   0.400E-02 -.114E+00 -.100E+00
   -.200E+01 0.116E+01 0.822E+03   0.154E+01 -.887E+00 -.821E+03   0.350E+00 -.202E+00 -.540E+00   0.897E-01 -.516E-01 -.108E+00
   0.967E+00 -.558E+00 0.825E+03   -.968E+00 0.559E+00 -.824E+03   0.498E-01 -.288E-01 -.243E+00   -.967E-01 0.609E-01 -.100E+00
   -.967E+00 -.558E+00 0.825E+03   0.968E+00 0.559E+00 -.824E+03   -.498E-01 -.288E-01 -.243E+00   0.104E+00 0.601E-01 -.101E+00
   0.315E-04 0.336E+01 0.826E+03   0.235E-03 -.342E+01 -.825E+03   0.482E-09 0.723E-02 -.460E+00   -.228E-02 0.148E-01 -.275E-01
   -.211E-04 -.231E+01 0.822E+03   0.162E-03 0.177E+01 -.821E+03   0.269E-07 0.404E+00 -.540E+00   -.714E-04 0.103E+00 -.108E+00
   0.291E+01 -.168E+01 0.826E+03   -.296E+01 0.171E+01 -.825E+03   0.626E-02 -.362E-02 -.460E+00   0.119E-01 -.894E-02 -.275E-01
   -.291E+01 -.168E+01 0.826E+03   0.296E+01 0.171E+01 -.825E+03   -.626E-02 -.362E-02 -.460E+00   -.116E-01 -.695E-02 -.269E-01
   -.423E-04 -.270E+01 -.848E+03   0.555E-04 0.246E+01 0.847E+03   0.467E-08 0.702E-01 0.709E+00   -.564E-03 0.125E+00 -.234E+00
   -.136E+00 -.783E-01 -.836E+03   0.128E+01 0.740E+00 0.837E+03   -.113E+01 -.650E+00 -.989E+00   -.350E-01 -.203E-01 -.158E+00
   0.136E+00 -.783E-01 -.836E+03   -.128E+01 0.740E+00 0.837E+03   0.113E+01 -.650E+00 -.989E+00   0.358E-01 -.200E-01 -.159E+00
   -.670E+01 0.387E+01 -.837E+03   0.648E+01 -.374E+01 0.836E+03   0.365E+00 -.211E+00 0.665E+00   -.966E-01 0.560E-01 -.187E+00
   -.866E-05 0.157E+00 -.836E+03   0.139E-03 -.148E+01 0.837E+03   0.866E-07 0.130E+01 -.989E+00   0.290E-03 0.410E-01 -.159E+00
   0.670E+01 0.387E+01 -.837E+03   -.648E+01 -.374E+01 0.836E+03   -.365E+00 -.211E+00 0.665E+00   0.964E-01 0.557E-01 -.187E+00
   0.234E+01 0.135E+01 -.848E+03   -.213E+01 -.123E+01 0.847E+03   -.608E-01 -.351E-01 0.709E+00   -.108E+00 -.622E-01 -.234E+00
   -.234E+01 0.135E+01 -.848E+03   0.213E+01 -.123E+01 0.847E+03   0.608E-01 -.351E-01 0.709E+00   0.108E+00 -.629E-01 -.234E+00
   0.104E-04 -.773E+01 -.837E+03   0.197E-03 0.749E+01 0.836E+03   0.281E-07 0.422E+00 0.665E+00   -.354E-03 -.112E+00 -.187E+00
   -.127E-04 -.127E-04 -.242E+04   0.295E-04 0.332E-04 0.242E+04   -.232E-17 -.156E-17 0.302E+00   -.469E-04 -.440E-04 -.960E-02
   0.250E+02 0.344E+02 -.242E+04   -.244E+02 -.336E+02 0.242E+04   -.863E+00 -.111E+01 0.284E+00   0.954E-02 -.156E-01 -.577E-01
   -.250E+02 0.344E+02 -.242E+04   0.244E+02 -.336E+02 0.242E+04   0.863E+00 -.111E+01 0.284E+00   -.931E-02 -.142E-01 -.576E-01
   0.423E+02 0.448E+01 -.242E+04   -.413E+02 -.429E+01 0.242E+04   -.140E+01 -.190E+00 0.284E+00   -.866E-02 0.160E-01 -.577E-01
   -.423E+02 0.448E+01 -.242E+04   0.413E+02 -.429E+01 0.242E+04   0.140E+01 -.190E+00 0.284E+00   0.786E-02 0.168E-01 -.576E-01
   0.173E+02 -.389E+02 -.242E+04   -.169E+02 0.379E+02 0.242E+04   -.534E+00 0.130E+01 0.284E+00   -.169E-01 -.971E-03 -.577E-01
   -.173E+02 -.389E+02 -.242E+04   0.169E+02 0.379E+02 0.242E+04   0.534E+00 0.130E+01 0.284E+00   0.185E-01 -.155E-02 -.576E-01
   0.341E-04 -.297E-04 -.244E+04   0.141E-03 -.488E-04 0.244E+04   0.563E-18 0.116E-17 0.492E+00   -.442E-02 -.226E-02 -.869E-01
   -.208E-04 -.266E-05 -.922E+03   0.527E-04 0.489E-05 0.924E+03   0.151E-17 -.297E-17 -.272E+00   0.982E-03 0.597E-03 -.121E-01
   0.196E-03 -.928E-04 -.151E+04   0.252E-04 0.167E-05 0.149E+04   0.775E-18 0.347E-18 0.198E+02   0.359E-02 0.220E-02 -.329E-01
   0.799E-05 -.129E-04 -.313E+03   0.138E-05 0.127E-06 0.321E+03   -.476E-19 -.151E-18 -.851E+01   0.197E-03 0.120E-03 0.375E-02
   -.594E-03 -.878E-03 -.430E+01   -.123E-13 0.250E-12 -.261E-11   0.114E-15 0.442E-15 0.787E+01   0.988E-02 0.640E-02 -.317E+01

 POSITION                                       TOTAL-FORCE (eV/Angst)
      0.00000      0.00000      5.28038         0.000000     -0.000000     -0.151688
      2.93784      0.00000      5.28038        -0.002607      0.004067     -0.058915
      5.87568      0.00000      5.28038         0.002607      0.004067     -0.058915
      1.46892      2.54424      5.28038         0.002218     -0.004291     -0.058915
      4.40676      2.54424      5.28038         0.000000     -0.000000     -0.068241
      7.34459      2.54424      5.28038        -0.002218     -0.004291     -0.058915
      2.93784      5.08848      5.28038         0.004825      0.000225     -0.058915
      5.87568      5.08848      5.28038        -0.004825      0.000225     -0.058915
      8.81351      5.08848      5.28038         0.000000     -0.000000     -0.088232
      1.46892      0.84808      7.67911         0.025505      0.014725      0.118409
      4.40676      0.84808      7.67911        -0.000000     -0.059485      0.050177
      7.34459      0.84808      7.67911        -0.025505      0.014725      0.118409
      2.93784      3.39232      7.67911        -0.051516      0.029743      0.050177
      5.87568      3.39232      7.67911         0.051516      0.029743      0.050177
      8.81351      3.39232      7.67911        -0.000000     -0.037807      0.121589
      4.40676      5.93656      7.67911        -0.000000     -0.029451      0.118409
      7.34459      5.93656      7.67911        -0.032742      0.018904      0.121589
     10.28243      5.93656      7.67911         0.032742      0.018904      0.121589
      8.81351      1.69782     10.07545        -0.000000     -0.044576     -0.023316
      2.94790      1.70197     10.06171        -0.015483     -0.008939     -0.046138
      5.86562      1.70197     10.06171         0.015483     -0.008939     -0.046138
     10.26824      4.24860     10.06503         0.056299     -0.032504      0.007639
      4.40676      4.22879     10.06171         0.000000      0.017878     -0.046138
      7.35878      4.24860     10.06503        -0.056299     -0.032504      0.007639
     11.74991      6.78381     10.07545         0.038604      0.022288     -0.023316
      5.87712      6.78381     10.07545        -0.038604      0.022288     -0.023316
      8.81351      6.76826     10.06503         0.000000      0.065009      0.007639
      0.00000      0.00000     12.47281         0.000000     -0.000000     -0.004101
      2.99055      0.08121     12.52138        -0.181340     -0.343455     -0.256946
      5.82296      0.08121     12.52138         0.181340     -0.343455     -0.256946
      1.56560      2.54929     12.52138        -0.388110      0.014683     -0.256946
      7.24791      2.54929     12.52138         0.388110      0.014683     -0.256946
      2.98181      5.00223     12.52138        -0.206771      0.328772     -0.256946
      5.83171      5.00223     12.52138         0.206771      0.328772     -0.256946
      8.81351      5.08848     12.50032         0.000000     -0.000000      0.058661
      4.40676      2.54424     12.20130         0.000000     -0.000000      1.475659
      4.40676      2.54424     13.95342         0.000000     -0.000000     -0.015357
      4.40676      2.54424     14.92086         0.000000     -0.000000      0.003389
    total drift:                                0.009283      0.005519      0.410123

  FREE ENERGIE OF THE ION-ELECTRON SYSTEM (eV)
  free  energy   TOTEN  =      -125.84229695 eV

  energy  without entropy=     -125.84229695  energy(sigma->0) =     -125.84229695

 stress matrix after NEB project (eV)
    -20.75059     -0.00000      0.00000
     -0.00000    -20.75059      0.00000
      0.00000      0.00000      0.98791
  FORCES: max atom, RMS     0.015357    0.002551
  FORCE total and by dimension    0.015726    0.015357
  Stress total and by dimension   29.362387   20.750588
|           W    W    AA    RRRRR   N    N  II  N    N   GGGG   !!!           |
|           W    W   A  A   R    R  NN   N  II  NN   N  G    G  !!!           |
|           W    W  A    A  R    R  N N  N  II  N N  N  G       !!!           |
|           W WW W  AAAAAA  RRRRR   N  N N  II  N  N N  G  GGG   !            |
|           WW  WW  A    A  R   R   N   NN  II  N   NN  G    G                |
|           W    W  A    A  R    R  N    N  II  N    N   GGGG   !!!           |
|     Tetrahedron method does not include variations of the Fermi             |
|     occupations, so forces and stress will be inaccurate. We suggest        |
|     using a different smearing scheme ISMEAR = 1 or 2 for metals in         |
|     relaxations.                                                            |

 total charge

# of ion       s       p       d       tot
    1        0.549   0.238   8.765   9.551
    2        0.544   0.242   8.764   9.549
    3        0.544   0.242   8.764   9.549
    4        0.544   0.242   8.764   9.549
    5        0.544   0.242   8.761   9.546
    6        0.544   0.242   8.764   9.549
    7        0.544   0.242   8.764   9.549
    8        0.544   0.242   8.764   9.549
    9        0.543   0.241   8.767   9.551
   10        0.522   0.306   8.769   9.598
   11        0.519   0.308   8.778   9.605
   12        0.522   0.306   8.769   9.598
   13        0.519   0.308   8.778   9.605
   14        0.519   0.308   8.778   9.605
   15        0.514   0.309   8.772   9.595
   16        0.522   0.306   8.769   9.598
   17        0.514   0.309   8.772   9.595
   18        0.514   0.309   8.772   9.595
   19        0.518   0.296   8.774   9.589
   20        0.559   0.335   8.735   9.629
   21        0.559   0.335   8.735   9.629
   22        0.509   0.308   8.773   9.589
   23        0.559   0.335   8.735   9.629
   24        0.509   0.308   8.773   9.589
   25        0.518   0.296   8.774   9.589
   26        0.518   0.296   8.774   9.589
   27        0.509   0.308   8.773   9.589
   28        0.545   0.228   8.756   9.528
   29        0.565   0.239   8.755   9.559
   30        0.565   0.239   8.755   9.559
   31        0.565   0.239   8.755   9.559
   32        0.565   0.239   8.755   9.559
   33        0.565   0.239   8.755   9.559
   34        0.565   0.239   8.755   9.559
   35        0.539   0.229   8.758   9.526
   36        0.463   0.676   3.410   4.550
   37        1.562   3.533   0.000   5.095
   38        0.602   0.124   0.000   0.726
tot         21.425  13.982 310.131 345.538

 BZINTS: Fermi energy:    0.938013;  397.000000 electrons
         Band energy:-0.115449E+04;  BLOECHL correction:   -0.028762