 vasp.6.2.0 18Jan21 (build Jun 12 2021 23:27:24) complex

 executed on             LinuxIFC date 2022.05.27  06:15:46

 INCAR:
   ISMEAR = -5
   SIGMA = 0.1
   ISPIN = 1
   EDIFF = 1.d-5
   EDIFFG = -0.01
   NSW = 0
   NELM = 150
   ENCUT = 500
   ISIF = 2
   IBRION = 2
   LREAL = Auto
   ALGO = Fast
   ICHARG = 11
   LORBIT = 10
   LCHARG = .F.
   LWAVE = .F.

 POTCAR:    PAW_PBE Cu 22Jun2005
 POTCAR:    PAW_PBE Ta 17Jan2003
 POTCAR:    PAW_PBE O 08Apr2002
 POTCAR:    PAW_PBE H 15Jun2001
|           W    W    AA    RRRRR   N    N  II  N    N   GGGG   !!!           |
|           W    W   A  A   R    R  NN   N  II  NN   N  G    G  !!!           |
|           W    W  A    A  R    R  N N  N  II  N N  N  G       !!!           |
|           W WW W  AAAAAA  RRRRR   N  N N  II  N  N N  G  GGG   !            |
|           WW  WW  A    A  R   R   N   NN  II  N   NN  G    G                |
|           W    W  A    A  R    R  N    N  II  N    N   GGGG   !!!           |
|     For optimal performance we recommend to set                             |
|       NCORE = 2 up to number-of-cores-per-socket                            |
|     This setting can greatly improve the performance of VASP for DFT.       |
|     The default, NCORE=1 might be grossly inefficient on modern             |
|     multi-core architectures or massively parallel machines. Do your        |
|     Unfortunately you need to use the default for GW and RPA                |
|     calculations (for HF NCORE is supported but not extensively tested      |
|     yet).                                                                   |

 POTCAR:    PAW_PBE Cu 22Jun2005
   VRHFIN =Cu: d10 p1

   TITEL  = PAW_PBE Cu 22Jun2005
   POMASS =   63.546; ZVAL   =   11.000    mass and valenz
   ENMAX  =  295.446; ENMIN  =  221.585 eV

 POTCAR:    PAW_PBE Ta 17Jan2003
   VRHFIN =Ta:  6s5d

   TITEL  = PAW_PBE Ta 17Jan2003
   POMASS =  180.948; ZVAL   =    5.000    mass and valenz
   ENMAX  =  223.667; ENMIN  =  167.750 eV

 POTCAR:    PAW_PBE O 08Apr2002
   VRHFIN =O: s2p4

   TITEL  = PAW_PBE O 08Apr2002
   POMASS =   16.000; ZVAL   =    6.000    mass and valenz
   ENMAX  =  400.000; ENMIN  =  300.000 eV

 POTCAR:    PAW_PBE H 15Jun2001
   VRHFIN =H: ultrasoft test

   TITEL  = PAW_PBE H 15Jun2001
   POMASS =    1.000; ZVAL   =    1.000    mass and valenz
   ENMAX  =  250.000; ENMIN  =  200.000 eV

 Optimization of the real space projectors (new method)

 maximal supplied QI-value         = 16.25
 optimisation between [QCUT,QGAM] = [ 11.38, 22.75] = [ 36.24,144.96] Ry
 Optimized for a Real-space Cutoff    1.52 Angstroem

   l    n(q)    QCUT    max X(q) W(low)/X(q) W(high)/X(q)  e(spline)
   2      9    11.376     4.610    0.21E-03    0.10E-03    0.26E-06
   2      9    11.376     8.522    0.33E-03    0.16E-03    0.37E-06
   0     10    11.376    51.609    0.62E-04    0.20E-04    0.13E-06
   0     10    11.376    27.747    0.54E-04    0.20E-04    0.13E-06
   1     10    11.376    20.408    0.13E-04    0.99E-04    0.19E-06
   1     10    11.376    13.425    0.12E-04    0.87E-04    0.17E-06
 Optimization of the real space projectors (new method)

[...]

   l    n(q)    QCUT    max X(q) W(low)/X(q) W(high)/X(q)  e(spline)
   0      7    11.387    20.381    0.39E-03    0.13E-02    0.15E-06
   0      7    11.387    15.268    0.42E-03    0.14E-02    0.17E-06
   1      6    11.387     5.964    0.41E-03    0.11E-02    0.17E-06
   1      6    11.387     5.382    0.39E-03    0.87E-03    0.15E-06
 Optimization of the real space projectors (new method)

 maximal supplied QI-value         = 34.20
 optimisation between [QCUT,QGAM] = [ 11.29, 22.57] = [ 35.68,142.71] Ry
 Optimized for a Real-space Cutoff    1.16 Angstroem

   l    n(q)    QCUT    max X(q) W(low)/X(q) W(high)/X(q)  e(spline)
   0      8    11.287    19.460    0.40E-03    0.73E-03    0.16E-06
   0      8    11.287    12.209    0.38E-03    0.70E-03    0.15E-06
   1      7    11.287     4.655    0.22E-03    0.25E-04    0.22E-06
  PAW_PBE Cu 22Jun2005                  :
  PAW_PBE Ta 17Jan2003                  :
  PAW_PBE O 08Apr2002                   :
  PAW_PBE H 15Jun2001                   :

 POSCAR: Cu-Ta-OH
  positions in direct lattice
  velocities in cartesian coordinates
 exchange correlation table for  LEXCH =        8
   RHO(1)=    0.500       N(1)  =     2000
   RHO(2)=  100.500       N(2)  =     4000

 VTST: version 3.2, (02/03/18)

 CHAIN: initializing optimizer

 OPT: Using VASP Conjugate-Gradient optimizer
 CHAIN: Read ICHAIN            0

 POSCAR: Cu-Ta-OH
  positions in direct lattice
  velocities in cartesian coordinates

 ion  position               nearest neighbor table
   1  0.000  0.000  0.252-   7 2.57   3 2.57   4 2.57   2 2.57   6 2.57   8 2.57  12 2.57  10 2.57
                            16 2.57
   2  0.333  0.000  0.252-   8 2.57   9 2.57   5 2.57   1 2.57   3 2.57  11 2.57   4 2.57  10 2.57
                            17 2.57
   3  0.667  0.000  0.252-   1 2.57   7 2.57   6 2.57   9 2.57   2 2.57  12 2.57   5 2.57  18 2.57
                            11 2.57
   4  0.000  0.333  0.252-   5 2.57   6 2.57   1 2.57   7 2.57   2 2.57  13 2.57   9 2.57  10 2.57
                            15 2.57
   5  0.333  0.333  0.252-   4 2.57   2 2.57   7 2.57  13 2.57   8 2.57   6 2.57   3 2.57  11 2.57
                            14 2.57
   6  0.667  0.333  0.252-   4 2.57   9 2.57  15 2.57   3 2.57   1 2.57   8 2.57  14 2.57   5 2.57
                            12 2.57
   7  0.000  0.667  0.252-   1 2.57   3 2.57  16 2.57  18 2.57   4 2.57   5 2.57   8 2.57   9 2.57
                            13 2.57
   8  0.333  0.667  0.252-   9 2.57   2 2.57  17 2.57   6 2.57   1 2.57   7 2.57   5 2.57  14 2.57
                            16 2.57
   9  0.667  0.667  0.252-   8 2.57   6 2.57   2 2.57  17 2.57   3 2.57   7 2.57   4 2.57  15 2.57
                            18 2.57
  10  0.111  0.111  0.351-  20 2.55  26 2.56  19 2.56  11 2.57  12 2.57  13 2.57   1 2.57   2 2.57
                             4 2.57  15 2.57  16 2.57  17 2.57
  11  0.444  0.111  0.351-  20 2.56  21 2.56  10 2.57  13 2.57   2 2.57  17 2.57  14 2.57  12 2.57
                             5 2.57   3 2.57  18 2.57  27 2.57
  12  0.778  0.111  0.351-  21 2.55  19 2.56  25 2.56  15 2.57  10 2.57  14 2.57  18 2.57   3 2.57
                             1 2.57  16 2.57  11 2.57   6 2.57
  13  0.111  0.444  0.351-  23 2.56  20 2.56  16 2.57  18 2.57  10 2.57  11 2.57  14 2.57   5 2.57
                             4 2.57   7 2.57  15 2.57  22 2.57
  14  0.444  0.444  0.351-  21 2.56  23 2.56  15 2.57  17 2.57  12 2.57  16 2.57  13 2.57  11 2.57
                             6 2.57   8 2.57   5 2.57  24 2.57
  15  0.778  0.444  0.351-  19 2.56  14 2.57  17 2.57  12 2.57   6 2.57  18 2.57  10 2.57   9 2.57
                            13 2.57   4 2.57  24 2.57  22 2.57
  16  0.111  0.778  0.351-  23 2.55  25 2.56  26 2.56  18 2.57  13 2.57   7 2.57  14 2.57  17 2.57
                            12 2.57  10 2.57   8 2.57   1 2.57
  17  0.444  0.778  0.351-  26 2.56  14 2.57  15 2.57   8 2.57   9 2.57  11 2.57  16 2.57  18 2.57
                            10 2.57   2 2.57  27 2.57  24 2.57
  18  0.778  0.778  0.351-  25 2.56  16 2.57  13 2.57   7 2.57  15 2.57  12 2.57  17 2.57   9 2.57
                             3 2.57  11 2.57  22 2.57  27 2.57
  19  0.889  0.222  0.449-  12 2.56  10 2.56  15 2.56  21 2.56  20 2.56  25 2.56  26 2.56  22 2.57
                            24 2.57  28 2.57  32 2.59  31 2.59
  20  0.222  0.222  0.449-  10 2.55  11 2.56  13 2.56  26 2.56  19 2.56  27 2.57  22 2.57  23 2.58
                            21 2.58  36 2.61  29 2.61  31 2.61
  21  0.557  0.222  0.449-  12 2.55  14 2.56  11 2.56  19 2.56  25 2.56  24 2.57  27 2.57  20 2.58
                            23 2.58  36 2.61  32 2.61  30 2.61
  22  0.888  0.556  0.450-  24 2.56  27 2.56  19 2.57  25 2.57  23 2.57  20 2.57  18 2.57  15 2.57
                            35 2.57  13 2.57  31 2.59  33 2.59
  23  0.222  0.557  0.449-  16 2.55  13 2.56  14 2.56  25 2.56  26 2.56  22 2.57  24 2.57  20 2.58
                            21 2.58  36 2.61  33 2.61  34 2.61
  24  0.556  0.556  0.450-  22 2.56  27 2.56  19 2.57  26 2.57  21 2.57  23 2.57  15 2.57  17 2.57
                            35 2.57  14 2.57  32 2.59  34 2.59
  25  0.889  0.889  0.449-  12 2.56  16 2.56  18 2.56  21 2.56  23 2.56  19 2.56  26 2.56  22 2.57
                            27 2.57  28 2.57  33 2.59  30 2.59
  26  0.222  0.889  0.449-  10 2.56  16 2.56  17 2.56  20 2.56  23 2.56  25 2.56  19 2.56  27 2.57
                            24 2.57  28 2.57  29 2.59  34 2.59
  27  0.556  0.888  0.450-  24 2.56  22 2.56  26 2.57  25 2.57  20 2.57  21 2.57  17 2.57  18 2.57
                            35 2.57  11 2.57  29 2.59  30 2.59
  28  0.000  0.000  0.548-  33 2.55  30 2.55  31 2.55  29 2.55  32 2.55  34 2.55  25 2.57  19 2.57
                            26 2.57
  29  0.333  0.997  0.549-  34 2.52  35 2.55  28 2.55  31 2.59  27 2.59  36 2.59  30 2.59  26 2.59
                            20 2.61
  30  0.670  0.997  0.549-  33 2.52  35 2.55  28 2.55  32 2.59  27 2.59  36 2.59  29 2.59  25 2.59
                            21 2.61
  31  0.997  0.333  0.549-  32 2.52  35 2.55  28 2.55  29 2.59  22 2.59  36 2.59  33 2.59  19 2.59
                            20 2.61
  32  0.670  0.333  0.549-  31 2.52  35 2.55  28 2.55  30 2.59  24 2.59  36 2.59  34 2.59  19 2.59
                            21 2.61
  33  0.997  0.670  0.549-  30 2.52  35 2.55  28 2.55  34 2.59  22 2.59  36 2.59  31 2.59  25 2.59
                            23 2.61
  34  0.333  0.670  0.549-  29 2.52  35 2.55  28 2.55  33 2.59  24 2.59  36 2.59  32 2.59  26 2.59
                            23 2.61
  35  0.667  0.667  0.549-  34 2.55  32 2.55  29 2.55  30 2.55  33 2.55  31 2.55  24 2.57  27 2.57
                            22 2.57
  36  0.333  0.333  0.549-  37 1.89  31 2.59  29 2.59  33 2.59  34 2.59  32 2.59  30 2.59  23 2.61
                            20 2.61  21 2.61
  37  0.333  0.333  0.638-  38 0.97  36 1.89
  38  0.333  0.333  0.683-  37 0.97

  LATTYP: Found a hexagonal cell.
 ALAT       =     7.6967864036
 C/A-ratio  =     2.7653617908

  Lattice vectors:

 A1 = (  -3.8483927580,  -6.6656128093,   0.0000000000)
 A2 = (   7.6967864037,   0.0000000000,   0.0000000000)
 A3 = (   0.0000000000,   0.0000000000,  21.2843990326)

Analysis of symmetry for initial positions (statically):
 Subroutine PRICEL returns:
 Original cell was already a primitive cell.

 Routine SETGRP: Setting up the symmetry group for a
 hexagonal supercell.

 Subroutine GETGRP returns: Found  6 space group operations
 (whereof  6 operations were pure point group operations)
 out of a pool of 24 trial point group operations.

The static configuration has the point symmetry C_3v.

Analysis of symmetry for dynamics (positions and initial velocities):
 Subroutine PRICEL returns:
 Original cell was already a primitive cell.

[...]

The dynamic configuration has the point symmetry C_3v.

Analysis of constrained symmetry for selective dynamics:
 Subroutine PRICEL returns:
 Original cell was already a primitive cell.

[...]
     33      -3.7072      2.00000
     34      -3.7027      2.00000
     35      -3.6889      2.00000
     36      -3.6778      2.00000
     37      -3.6731      2.00000
     38      -3.6151      2.00000
     39      -3.5378      2.00000
     40      -3.5276      2.00000
     41      -3.4014      2.00000
     42      -3.3942      2.00000
     43      -3.3188      2.00000
     44      -3.3113      2.00000
     45      -3.2953      2.00000
     46      -3.2882      2.00000
     47      -3.2675      2.00000
     48      -3.2577      2.00000
     49      -3.2498      2.00000
     50      -3.1152      2.00000
     51      -3.0892      2.00000
     52      -3.0820      2.00000
     53      -3.0567      2.00000
     54      -3.0203      2.00000
     55      -2.9962      2.00000
     56      -2.9906      2.00000
     57      -2.9723      2.00000
     58      -2.9584      2.00000
     59      -2.9549      2.00000
     60      -2.9414      2.00000
[...]
    238       6.4768      0.00000
    239       6.6046      0.00000
    240       6.8287      0.00000
    241       6.8513      0.00000
    242       6.9050      0.00000
    243       7.0211      0.00000
    244       7.0399      0.00000
    245       7.2371      0.00000
    246       7.3752      0.00000
    247       7.6178      0.00000
    248       7.6786      0.00000
    249       7.7554      0.00000
    250       7.8853      0.00000
    251       8.0536      0.00000
    252       8.2143      0.00000

 soft charge-density along one line, spin component           1
         0         1         2         3         4         5         6         7         8         9
 total charge-density along one line

------------------------ aborting loop because EDIFF is reached ----------------------------------------

 total charge

# of ion       s       p       d       tot
    1        0.451   0.283   9.187   9.921
    2        0.448   0.286   9.185   9.918
    3        0.448   0.286   9.185   9.918
    4        0.448   0.286   9.185   9.918
    5        0.448   0.285   9.181   9.914
    6        0.448   0.286   9.185   9.918
    7        0.448   0.286   9.185   9.918
    8        0.448   0.286   9.185   9.918
    9        0.448   0.285   9.187   9.920
   10        0.443   0.370   9.176   9.990
   11        0.440   0.366   9.181   9.987
   12        0.443   0.370   9.176   9.990
   13        0.440   0.366   9.181   9.987
   14        0.440   0.366   9.181   9.987
   15        0.437   0.369   9.176   9.983
   16        0.443   0.370   9.176   9.990
   17        0.437   0.369   9.176   9.983
   18        0.437   0.369   9.176   9.983
   19        0.443   0.366   9.181   9.990
   20        0.469   0.400   9.155  10.025
   21        0.469   0.400   9.155  10.025
   22        0.431   0.372   9.178   9.980
   23        0.469   0.400   9.155  10.025
   24        0.431   0.372   9.178   9.980
   25        0.443   0.366   9.181   9.990
   26        0.443   0.366   9.181   9.990
   27        0.431   0.372   9.178   9.980
   28        0.452   0.296   9.177   9.925
   29        0.477   0.320   9.167   9.964
   30        0.477   0.320   9.167   9.964
   31        0.477   0.320   9.167   9.964
   32        0.477   0.320   9.167   9.964
   33        0.477   0.320   9.167   9.964
   34        0.477   0.320   9.167   9.964
   35        0.445   0.302   9.175   9.922
   36        0.766   0.830   3.309   4.905
   37        1.557   3.560   0.000   5.117
   38        0.605   0.126   0.000   0.731
tot         18.714  16.332 324.469 359.515

  FORCE on cell =-STRESS in cart. coord.  units (eV):
  Direction    XX          YY          ZZ          XY          YZ          ZX
  Alpha Z   895.62279   895.62279   895.62279
  Ewald  168997.41184168997.41148************     0.00036     0.00013     0.00017
  Hartree182107.11339182107.11341************     0.00002     0.00007     0.00006
  E(xc)   -2302.34908 -2302.34865 -2306.31917    -0.00038    -0.00003    -0.00006
  Local  ************************363943.11452     0.01875    -0.00063    -0.00096
  n-local  -789.10304  -775.58087  -789.94680     7.09813    -0.31972     0.36824
  augment  3317.36852  3317.38867  3338.36350    -0.01744     0.00028     0.00043
  Kinetic  3334.72357  3336.08473  3324.55449     1.75038     1.94874    -1.41313
  Fock        0.00000     0.00000     0.00000     0.00000     0.00000     0.00000
  Total      -5.91699    -5.91699    -1.35033     0.00000     0.00000    -0.00000
  in kB      -8.68162    -8.68162    -1.98125     0.00000     0.00000    -0.00000

 VOLUME and BASIS-vectors are now :
  energy-cutoff  :      500.00
  volume of cell :     1091.97
      direct lattice vectors                 reciprocal lattice vectors
     7.696786404  0.000000000  0.000000000     0.129924354 -0.075011849  0.000000000
     3.848392758  6.665612809  0.000000000     0.000000000  0.150023716  0.000000000
     0.000000000  0.000000000 21.284399033     0.000000000  0.000000000  0.046982769

  length of vectors
     7.696786404  7.696786404 21.284399033     0.150023716  0.150023716  0.046982769

 FORCES acting on ions
    electron-ion (+dipol)            ewald-force                    non-local-force                 convergence-correction
   -.417E-04 0.104E-06 0.346E+04   0.581E-04 -.426E-05 -.346E+04   -.146E-17 -.515E-17 -.227E+01   -.364E-03 -.176E-03 -.193E+00
   -.842E+00 -.837E+00 0.346E+04   0.803E+00 0.609E+00 -.346E+04   0.226E-02 0.118E+00 -.187E+01   0.395E-01 0.115E+00 -.668E-01
   0.842E+00 -.837E+00 0.346E+04   -.803E+00 0.609E+00 -.346E+04   -.226E-02 0.118E+00 -.187E+01   -.386E-01 0.118E+00 -.658E-01
   -.115E+01 -.311E+00 0.346E+04   0.929E+00 0.391E+00 -.346E+04   0.103E+00 -.569E-01 -.187E+01   0.120E+00 -.234E-01 -.667E-01
   -.651E-04 -.531E-05 0.346E+04   0.116E-03 -.101E-04 -.345E+04   -.353E-17 -.135E-17 -.181E+01   0.121E-01 0.742E-02 0.693E-01
   0.115E+01 -.311E+00 0.346E+04   -.929E+00 0.391E+00 -.346E+04   -.103E+00 -.569E-01 -.187E+01   -.121E+00 -.223E-01 -.657E-01
   -.304E+00 0.115E+01 0.346E+04   0.126E+00 -.100E+01 -.346E+04   0.101E+00 -.608E-01 -.187E+01   0.826E-01 -.923E-01 -.656E-01
   0.304E+00 0.115E+01 0.346E+04   -.126E+00 -.100E+01 -.346E+04   -.101E+00 -.608E-01 -.187E+01   -.792E-01 -.937E-01 -.657E-01
   -.143E-03 -.327E-04 0.346E+04   0.263E-03 0.204E-04 -.346E+04   -.179E-17 -.404E-18 -.207E+01   -.131E-01 -.679E-02 -.817E-01
   -.542E+01 -.313E+01 0.115E+04   0.571E+01 0.330E+01 -.115E+04   -.416E+00 -.240E+00 -.865E+00   0.104E+00 0.606E-01 -.683E+00
   -.913E-04 -.651E+01 0.114E+04   0.190E-03 0.598E+01 -.114E+04   -.209E-07 0.314E+00 -.365E+00   0.120E-01 0.156E+00 -.797E+00
   0.542E+01 -.313E+01 0.115E+04   -.571E+01 0.330E+01 -.115E+04   0.416E+00 -.240E+00 -.865E+00   -.106E+00 0.609E-01 -.684E+00
   -.564E+01 0.326E+01 0.114E+04   0.518E+01 -.299E+01 -.114E+04   0.272E+00 -.157E+00 -.365E+00   0.141E+00 -.666E-01 -.797E+00
   0.564E+01 0.326E+01 0.114E+04   -.518E+01 -.299E+01 -.114E+04   -.272E+00 -.157E+00 -.365E+00   -.118E+00 -.685E-01 -.800E+00
   -.140E-03 -.205E+01 0.115E+04   0.296E-03 0.197E+01 -.115E+04   -.545E-08 0.819E-01 -.864E+00   -.292E-02 0.893E-03 -.720E+00
   -.924E-04 0.626E+01 0.115E+04   0.187E-03 -.660E+01 -.115E+04   -.320E-07 0.480E+00 -.865E+00   -.125E-02 -.124E+00 -.683E+00
   -.178E+01 0.103E+01 0.115E+04   0.171E+01 -.985E+00 -.115E+04   0.709E-01 -.409E-01 -.864E+00   0.713E-04 -.345E-02 -.721E+00
   0.178E+01 0.103E+01 0.115E+04   -.171E+01 -.985E+00 -.115E+04   -.709E-01 -.409E-01 -.864E+00   0.189E-02 -.839E-03 -.718E+00
   -.658E-04 -.796E+01 -.115E+04   0.720E-04 0.803E+01 0.115E+04   0.224E-08 -.336E-01 0.109E+01   0.898E-03 -.638E-01 -.980E+00
   -.594E+02 -.343E+02 -.122E+04   0.603E+02 0.348E+02 0.122E+04   -.954E+00 -.551E+00 -.293E+00   -.643E-01 -.362E-01 -.135E+01
   0.594E+02 -.343E+02 -.122E+04   -.603E+02 0.348E+02 0.122E+04   0.954E+00 -.551E+00 -.293E+00   0.436E-01 -.401E-01 -.135E+01
   -.306E+02 0.177E+02 -.117E+04   0.302E+02 -.174E+02 0.117E+04   0.472E+00 -.273E+00 0.953E+00   -.271E-01 0.287E-01 -.114E+01
   -.847E-04 0.686E+02 -.122E+04   0.152E-03 -.696E+02 0.122E+04   -.734E-07 0.110E+01 -.293E+00   -.143E-01 0.573E-01 -.135E+01
   0.306E+02 0.177E+02 -.117E+04   -.302E+02 -.174E+02 0.117E+04   -.472E+00 -.273E+00 0.953E+00   0.513E-01 0.278E-01 -.114E+01
   0.689E+01 0.398E+01 -.115E+04   -.695E+01 -.401E+01 0.115E+04   0.291E-01 0.168E-01 0.109E+01   0.545E-01 0.305E-01 -.980E+00
   -.689E+01 0.398E+01 -.115E+04   0.695E+01 -.402E+01 0.115E+04   -.291E-01 0.168E-01 0.109E+01   -.776E-01 0.324E-01 -.980E+00
   -.120E-03 -.353E+02 -.117E+04   0.239E-03 0.349E+02 0.117E+04   -.363E-07 0.545E+00 0.953E+00   0.127E-01 -.382E-01 -.114E+01
   -.438E-04 0.134E-04 -.338E+04   0.437E-04 -.315E-04 0.338E+04   -.782E-17 -.334E-17 0.121E+01   -.175E-02 -.122E-02 -.281E+00
   -.393E+02 -.736E+02 -.337E+04   0.398E+02 0.739E+02 0.337E+04   -.410E+00 -.133E+00 0.144E+01   -.226E+00 -.301E+00 -.278E+00
   0.393E+02 -.736E+02 -.337E+04   -.398E+02 0.739E+02 0.337E+04   0.410E+00 -.133E+00 0.144E+01   0.249E+00 -.301E+00 -.279E+00
   -.834E+02 0.278E+01 -.337E+04   0.839E+02 -.243E+01 0.337E+04   -.321E+00 -.289E+00 0.144E+01   -.374E+00 -.447E-01 -.278E+00
   0.834E+02 0.278E+01 -.337E+04   -.839E+02 -.243E+01 0.337E+04   0.321E+00 -.289E+00 0.144E+01   0.396E+00 -.442E-01 -.277E+00
   -.441E+02 0.709E+02 -.337E+04   0.441E+02 -.714E+02 0.337E+04   0.898E-01 0.422E+00 0.144E+01   -.136E+00 0.366E+00 -.279E+00
   0.441E+02 0.709E+02 -.337E+04   -.441E+02 -.714E+02 0.337E+04   -.898E-01 0.422E+00 0.144E+01   0.160E+00 0.365E+00 -.277E+00
   -.145E-03 -.238E-04 -.340E+04   0.250E-03 0.330E-06 0.339E+04   -.119E-17 0.221E-17 0.176E+01   -.137E-01 -.742E-02 -.145E+00
   -.305E-04 -.779E-05 -.143E+04   0.604E-04 0.127E-04 0.143E+04   -.173E-17 -.955E-18 0.111E+01   -.302E-03 -.984E-04 -.143E+00
   0.189E-03 -.790E-04 -.199E+04   0.141E-04 0.688E-05 0.198E+04   -.153E-17 0.119E-18 0.190E+02   0.280E-02 0.174E-02 0.397E+00
   0.526E-05 -.130E-04 -.375E+03   0.553E-06 0.465E-06 0.384E+03   0.212E-19 -.776E-20 -.855E+01   0.155E-03 0.961E-04 0.462E-01
   -.114E-03 -.109E-03 0.147E+02   0.540E-13 0.370E-12 -.784E-11   -.129E-15 0.168E-15 0.472E+01   0.682E-01 0.478E-01 -.194E+02

 POSITION                                       TOTAL-FORCE (eV/Angst)
      0.00000      0.00000      5.37156        -0.000000     -0.000000     -0.003935
      2.56560      0.00000      5.37156         0.003284      0.005894      0.054113
      5.13119      0.00000      5.37156        -0.003284      0.005894      0.054113
      1.28280      2.22187      5.37156         0.006747     -0.000103      0.054113
      3.84839      2.22187      5.37156        -0.000000     -0.000000      0.053675
      6.41399      2.22187      5.37156        -0.006747     -0.000103      0.054113
      2.56560      4.44374      5.37156         0.003463     -0.005791      0.054113
      5.13119      4.44374      5.37156        -0.003463     -0.005791      0.054113
      7.69679      4.44374      5.37156        -0.000000     -0.000000      0.011930
      1.28280      0.74062      7.46636        -0.021146     -0.012209     -0.094128
      3.84839      0.74062      7.46636         0.000000     -0.065136     -0.051959
      6.41399      0.74062      7.46636         0.021146     -0.012209     -0.094128
      2.56560      2.96249      7.46636        -0.056410      0.032568     -0.051959
      5.13119      2.96249      7.46636         0.056410      0.032568     -0.051959
      7.69679      2.96249      7.46636        -0.000000      0.000145      0.031958
      3.84839      5.18437      7.46636        -0.000000      0.024417     -0.094128
      6.41399      5.18437      7.46636         0.000126     -0.000073      0.031958
      8.97958      5.18437      7.46636        -0.000126     -0.000073      0.031958
      7.69679      1.48082      9.55187         0.000000     -0.029464      0.004574
      2.55960      1.47778      9.55047        -0.150106     -0.086663     -0.264694
      5.13719      1.47778      9.55047         0.150106     -0.086663     -0.264694
      8.97653      3.70488      9.56926         0.057362     -0.033118      0.018061
      3.84839      3.71005      9.55047        -0.000000      0.173327     -0.264694
      6.41705      3.70488      9.56926        -0.057362     -0.033118      0.018061
     10.26275      5.92520      9.55187         0.025517      0.014732      0.004574
      5.13082      5.92520      9.55187        -0.025517      0.014732      0.004574
      7.69679      5.92146      9.56926        -0.000000      0.066236      0.018061
      0.00000      0.00000     11.65662        -0.000000     -0.000000     -0.033448
      6.40243      6.64574     11.69071        -0.112167     -0.208626     -0.266195
      8.99114      6.64574     11.69071         0.112167     -0.208626     -0.266195
      8.95659      2.22180     11.69071        -0.236759      0.007173     -0.266195
      6.43698      2.22180     11.69071         0.236759      0.007173     -0.266195
     10.25095      4.46369     11.69071        -0.124592      0.201453     -0.266195
      5.14262      4.46369     11.69071         0.124592      0.201453     -0.266195
      7.69679      4.44374     11.67656         0.000000     -0.000000     -0.007183
      3.84839      2.22187     11.69355        -0.000000     -0.000000      2.336621
      3.84839      2.22187     13.57866        -0.000000     -0.000000     -0.017200
      3.84839      2.22187     14.54413        -0.000000     -0.000000      0.000591
    total drift:                                0.068098      0.047692     -0.016606

  FREE ENERGIE OF THE ION-ELECTRON SYSTEM (eV)
  free  energy   TOTEN  =      -144.63909874 eV

  energy  without entropy=     -144.63909874  energy(sigma->0) =     -144.63909874

 stress matrix after NEB project (eV)
     -5.91699      0.00000     -0.00000
      0.00000     -5.91699      0.00000
     -0.00000      0.00000     -1.35033
  FORCES: max atom, RMS     0.017200    0.002792
  FORCE total and by dimension    0.017210    0.017200
  Stress total and by dimension    8.476145    5.916995
|           W    W    AA    RRRRR   N    N  II  N    N   GGGG   !!!           |
|           W    W   A  A   R    R  NN   N  II  NN   N  G    G  !!!           |
|           W    W  A    A  R    R  N N  N  II  N N  N  G       !!!           |
|           W WW W  AAAAAA  RRRRR   N  N N  II  N  N N  G  GGG   !            |
|           WW  WW  A    A  R   R   N   NN  II  N   NN  G    G                |
|           W    W  A    A  R    R  N    N  II  N    N   GGGG   !!!           |
|     Tetrahedron method does not include variations of the Fermi             |
|     occupations, so forces and stress will be inaccurate. We suggest        |
|     using a different smearing scheme ISMEAR = 1 or 2 for metals in         |
|     relaxations.                                                            |

 total charge

# of ion       s       p       d       tot
    1        0.451   0.283   9.187   9.921
    2        0.448   0.286   9.185   9.918
    3        0.448   0.286   9.185   9.918
    4        0.448   0.286   9.185   9.918
    5        0.448   0.285   9.181   9.914
    6        0.448   0.286   9.185   9.918
    7        0.448   0.286   9.185   9.918
    8        0.448   0.286   9.185   9.918
    9        0.448   0.285   9.187   9.920
   10        0.443   0.370   9.176   9.990
   11        0.440   0.366   9.181   9.987
   12        0.443   0.370   9.176   9.990
   13        0.440   0.366   9.181   9.987
   14        0.440   0.366   9.181   9.987
   15        0.437   0.369   9.176   9.983
   16        0.443   0.370   9.176   9.990
   17        0.437   0.369   9.176   9.983
   18        0.437   0.369   9.176   9.983
   19        0.443   0.366   9.181   9.990
   20        0.469   0.400   9.155  10.025
   21        0.469   0.400   9.155  10.025
   22        0.431   0.372   9.178   9.980
   23        0.469   0.400   9.155  10.025
   24        0.431   0.372   9.178   9.980
   25        0.443   0.366   9.181   9.990
   26        0.443   0.366   9.181   9.990
   27        0.431   0.372   9.178   9.980
   28        0.452   0.296   9.177   9.925
   29        0.477   0.320   9.167   9.964
   30        0.477   0.320   9.167   9.964
   31        0.477   0.320   9.167   9.964
   32        0.477   0.320   9.167   9.964
   33        0.477   0.320   9.167   9.964
   34        0.477   0.320   9.167   9.964
   35        0.445   0.302   9.175   9.922
   36        0.766   0.830   3.309   4.905
   37        1.557   3.560   0.000   5.117
   38        0.605   0.126   0.000   0.731
tot         18.714  16.332 324.469 359.515

 BZINTS: Fermi energy:    0.469251;  397.000000 electrons
         Band energy:-0.102508E+04;  BLOECHL correction:   -0.029264