 vasp.6.2.0 18Jan21 (build Jun 12 2021 23:27:24) complex

 executed on             LinuxIFC date 2022.05.28  02:34:00

 INCAR:
   ISMEAR = -5
   SIGMA = 0.1
   ISPIN = 1
   EDIFF = 1.d-5
   EDIFFG = -0.01
   NSW = 0
   NELM = 150
   ENCUT = 500
   ISIF = 2
   IBRION = 2
   LREAL = Auto
   ALGO = Fast
   ICHARG = 11
   LORBIT = 10
   LCHARG = .F.
   LWAVE = .F.

 POTCAR:    PAW_PBE Cu 22Jun2005
 POTCAR:    PAW_PBE Ru 04Feb2005
 POTCAR:    PAW_PBE C 08Apr2002
 POTCAR:    PAW_PBE O 08Apr2002
|           W    W    AA    RRRRR   N    N  II  N    N   GGGG   !!!           |
|           W    W   A  A   R    R  NN   N  II  NN   N  G    G  !!!           |
|           W    W  A    A  R    R  N N  N  II  N N  N  G       !!!           |
|           W WW W  AAAAAA  RRRRR   N  N N  II  N  N N  G  GGG   !            |
|           WW  WW  A    A  R   R   N   NN  II  N   NN  G    G                |
|           W    W  A    A  R    R  N    N  II  N    N   GGGG   !!!           |
|     For optimal performance we recommend to set                             |
|       NCORE = 2 up to number-of-cores-per-socket                            |
|     This setting can greatly improve the performance of VASP for DFT.       |
|     The default, NCORE=1 might be grossly inefficient on modern             |
|     multi-core architectures or massively parallel machines. Do your        |
|     Unfortunately you need to use the default for GW and RPA                |
|     calculations (for HF NCORE is supported but not extensively tested      |
|     yet).                                                                   |

 POTCAR:    PAW_PBE Cu 22Jun2005
   VRHFIN =Cu: d10 p1

   TITEL  = PAW_PBE Cu 22Jun2005
   POMASS =   63.546; ZVAL   =   11.000    mass and valenz
   ENMAX  =  295.446; ENMIN  =  221.585 eV

 POTCAR:    PAW_PBE Ru 04Feb2005
   VRHFIN =Ru: s1 d7

   TITEL  = PAW_PBE Ru 04Feb2005
   POMASS =  101.070; ZVAL   =    8.000    mass and valenz
   ENMAX  =  213.271; ENMIN  =  159.953 eV

 POTCAR:    PAW_PBE C 08Apr2002
   VRHFIN =C: s2p2

   TITEL  = PAW_PBE C 08Apr2002
   POMASS =   12.011; ZVAL   =    4.000    mass and valenz
   ENMAX  =  400.000; ENMIN  =  300.000 eV

 POTCAR:    PAW_PBE O 08Apr2002
   VRHFIN =O: s2p4

   TITEL  = PAW_PBE O 08Apr2002
   POMASS =   16.000; ZVAL   =    6.000    mass and valenz
   ENMAX  =  400.000; ENMIN  =  300.000 eV

 Optimization of the real space projectors (new method)

 maximal supplied QI-value         = 16.25
 optimisation between [QCUT,QGAM] = [ 11.38, 22.75] = [ 36.24,144.96] Ry
 Optimized for a Real-space Cutoff    1.52 Angstroem

   l    n(q)    QCUT    max X(q) W(low)/X(q) W(high)/X(q)  e(spline)
   2      9    11.376     4.610    0.21E-03    0.10E-03    0.26E-06
   2      9    11.376     8.522    0.33E-03    0.16E-03    0.37E-06
   0     10    11.376    51.609    0.62E-04    0.20E-04    0.13E-06
   0     10    11.376    27.747    0.54E-04    0.20E-04    0.13E-06
   1     10    11.376    20.408    0.13E-04    0.99E-04    0.19E-06
   1     10    11.376    13.425    0.12E-04    0.87E-04    0.17E-06
 Optimization of the real space projectors (new method)

[...]

   l    n(q)    QCUT    max X(q) W(low)/X(q) W(high)/X(q)  e(spline)
   0      7    11.310   115.676    0.43E-03    0.13E-02    0.19E-06
   0      7    11.310    87.132    0.43E-03    0.13E-02    0.18E-06
   1      6    11.310     4.429    0.42E-03    0.74E-03    0.11E-06
   1      6    11.310     2.733    0.34E-03    0.55E-03    0.92E-07
 Optimization of the real space projectors (new method)

 maximal supplied QI-value         = 24.76
 optimisation between [QCUT,QGAM] = [ 11.39, 22.77] = [ 36.31,145.25] Ry
 Optimized for a Real-space Cutoff    1.00 Angstroem

   l    n(q)    QCUT    max X(q) W(low)/X(q) W(high)/X(q)  e(spline)
   0      7    11.387    20.381    0.39E-03    0.13E-02    0.15E-06
   0      7    11.387    15.268    0.42E-03    0.14E-02    0.17E-06
   1      6    11.387     5.964    0.41E-03    0.11E-02    0.17E-06
   1      6    11.387     5.382    0.39E-03    0.87E-03    0.15E-06
  PAW_PBE Cu 22Jun2005                  :
  PAW_PBE Ru 04Feb2005                  :
  PAW_PBE C 08Apr2002                   :
  PAW_PBE O 08Apr2002                   :

 POSCAR: Cu-Ru-CO2
  positions in direct lattice
  velocities in cartesian coordinates
 exchange correlation table for  LEXCH =        8
   RHO(1)=    0.500       N(1)  =     2000
   RHO(2)=  100.500       N(2)  =     4000

 VTST: version 3.2, (02/03/18)

 CHAIN: initializing optimizer

 OPT: Using VASP Conjugate-Gradient optimizer
 CHAIN: Read ICHAIN            0

 POSCAR: Cu-Ru-CO2
  positions in direct lattice
  velocities in cartesian coordinates

 ion  position               nearest neighbor table
   1  0.000  0.000  0.229-   7 2.57   3 2.57   4 2.57   2 2.57   6 2.57   8 2.57  12 2.57  10 2.57
                            16 2.57
   2  0.333  0.000  0.229-   8 2.57   9 2.57   5 2.57   1 2.57   3 2.57  11 2.57   4 2.57  10 2.57
                            17 2.57
   3  0.667  0.000  0.229-   1 2.57   7 2.57   6 2.57   9 2.57   2 2.57  12 2.57   5 2.57  18 2.57
                            11 2.57
   4  0.000  0.333  0.229-   5 2.57   6 2.57   1 2.57   7 2.57   2 2.57  13 2.57   9 2.57  10 2.57
                            15 2.57
   5  0.333  0.333  0.229-   4 2.57   2 2.57   7 2.57  13 2.57   8 2.57   6 2.57   3 2.57  11 2.57
                            14 2.57
   6  0.667  0.333  0.229-   4 2.57   9 2.57  15 2.57   3 2.57   1 2.57   8 2.57  14 2.57   5 2.57
                            12 2.57
   7  0.000  0.667  0.229-   1 2.57   3 2.57  16 2.57  18 2.57   4 2.57   5 2.57   8 2.57   9 2.57
                            13 2.57
   8  0.333  0.667  0.229-   9 2.57   2 2.57  17 2.57   6 2.57   1 2.57   7 2.57   5 2.57  14 2.57
                            16 2.57
   9  0.667  0.667  0.229-   8 2.57   6 2.57   2 2.57  17 2.57   3 2.57   7 2.57   4 2.57  15 2.57
                            18 2.57
  10  0.111  0.111  0.318-  20 2.55  26 2.56  19 2.56  11 2.57  12 2.57  13 2.57   1 2.57   2 2.57
                             4 2.57  15 2.57  16 2.57  17 2.57
  11  0.444  0.111  0.318-  20 2.55  21 2.55  10 2.57  13 2.57   2 2.57  17 2.57  14 2.57  12 2.57
                             5 2.57   3 2.57  18 2.57  27 2.57
  12  0.778  0.111  0.318-  21 2.55  19 2.56  25 2.56  15 2.57  10 2.57  14 2.57  18 2.57   3 2.57
                             1 2.57  16 2.57  11 2.57   6 2.57
  13  0.111  0.444  0.318-  23 2.55  20 2.55  16 2.57  18 2.57  10 2.57  11 2.57  14 2.57   5 2.57
                             4 2.57   7 2.57  15 2.57  22 2.57
  14  0.444  0.444  0.318-  21 2.55  23 2.55  15 2.57  17 2.57  12 2.57  16 2.57  13 2.57  11 2.57
                             6 2.57   8 2.57   5 2.57  24 2.57
  15  0.778  0.444  0.318-  19 2.56  14 2.57  17 2.57  12 2.57   6 2.57  18 2.57  10 2.57   9 2.57
                            13 2.57   4 2.57  24 2.57  22 2.57
  16  0.111  0.778  0.318-  23 2.55  25 2.56  26 2.56  18 2.57  13 2.57   7 2.57  14 2.57  17 2.57
                            12 2.57  10 2.57   8 2.57   1 2.57
  17  0.444  0.778  0.318-  26 2.56  14 2.57  15 2.57   8 2.57   9 2.57  11 2.57  16 2.57  18 2.57
                            10 2.57   2 2.57  27 2.57  24 2.57
  18  0.778  0.778  0.318-  25 2.56  16 2.57  13 2.57   7 2.57  15 2.57  12 2.57  17 2.57   9 2.57
                             3 2.57  11 2.57  22 2.57  27 2.57
  19  0.889  0.223  0.407-  28 2.55  15 2.56  21 2.56  20 2.56  12 2.56  10 2.56  22 2.56  24 2.56
                            32 2.56  31 2.56  25 2.57  26 2.57
  20  0.222  0.222  0.407-  10 2.55  11 2.55  13 2.55  36 2.55  26 2.56  19 2.56  27 2.57  22 2.57
                            23 2.57  21 2.57  29 2.58  31 2.58
  21  0.556  0.222  0.407-  12 2.55  14 2.55  11 2.55  36 2.55  19 2.56  25 2.56  24 2.57  27 2.57
                            20 2.57  23 2.57  32 2.58  30 2.58
  22  0.888  0.556  0.408-  35 2.55  24 2.56  27 2.56  19 2.56  25 2.56  18 2.57  15 2.57  31 2.57
                            33 2.57  23 2.57  20 2.57  13 2.57
  23  0.222  0.556  0.407-  16 2.55  13 2.55  14 2.55  36 2.55  25 2.56  26 2.56  22 2.57  24 2.57
                            20 2.57  21 2.57  33 2.58  34 2.58
  24  0.556  0.556  0.408-  35 2.55  22 2.56  27 2.56  19 2.56  26 2.56  15 2.57  17 2.57  32 2.57
                            34 2.57  21 2.57  23 2.57  14 2.57
  25  0.889  0.889  0.407-  28 2.55  18 2.56  21 2.56  23 2.56  16 2.56  12 2.56  22 2.56  27 2.56
                            33 2.56  30 2.56  19 2.57  26 2.57
  26  0.223  0.889  0.407-  28 2.55  17 2.56  20 2.56  23 2.56  10 2.56  16 2.56  27 2.56  24 2.56
                            29 2.56  34 2.56  25 2.57  19 2.57
  27  0.556  0.888  0.408-  35 2.55  24 2.56  22 2.56  26 2.56  25 2.56  17 2.57  18 2.57  29 2.57
                            30 2.57  20 2.57  21 2.57  11 2.57
  28  0.000  0.000  0.496-  25 2.55  19 2.55  26 2.55  33 2.56  30 2.56  31 2.56  29 2.56  32 2.56
                            34 2.56
  29  0.333  0.999  0.497-  34 2.55  28 2.56  26 2.56  35 2.56  27 2.57  31 2.57  36 2.57  30 2.58
                            20 2.58
  30  0.668  0.999  0.497-  33 2.55  28 2.56  25 2.56  35 2.56  27 2.57  32 2.57  36 2.57  29 2.58
                            21 2.58
  31  0.999  0.333  0.497-  32 2.55  28 2.56  19 2.56  35 2.56  22 2.57  29 2.57  36 2.57  33 2.58
                            20 2.58
  32  0.668  0.333  0.497-  31 2.55  28 2.56  19 2.56  35 2.56  24 2.57  30 2.57  36 2.57  34 2.58
                            21 2.58
  33  0.999  0.668  0.497-  30 2.55  28 2.56  25 2.56  35 2.56  22 2.57  34 2.57  36 2.57  31 2.58
                            23 2.58
  34  0.333  0.668  0.497-  29 2.55  28 2.56  26 2.56  35 2.56  24 2.57  33 2.57  36 2.57  32 2.58
                            23 2.58
  35  0.667  0.667  0.496-  24 2.55  27 2.55  22 2.55  34 2.56  32 2.56  29 2.56  30 2.56  33 2.56
                            31 2.56
  36  0.333  0.333  0.495-  37 2.17  23 2.55  20 2.55  21 2.55  31 2.57  29 2.57  33 2.57  34 2.57
                            32 2.57  30 2.57
  37  0.333  0.334  0.587-  38 1.23  39 1.23  36 2.17
  38  0.181  0.333  0.603-  37 1.23
  39  0.486  0.333  0.603-  37 1.23

  LATTYP: Found a hexagonal cell.
 ALAT       =     7.6967864036
 C/A-ratio  =     3.0484540560

  Lattice vectors:

 A1 = (  -3.8483927580,  -6.6656128093,   0.0000000000)
 A2 = (   7.6967864037,   0.0000000000,   0.0000000000)
 A3 = (   0.0000000000,   0.0000000000,  23.4632997305)

Analysis of symmetry for initial positions (statically):
 Subroutine PRICEL returns:
 Original cell was already a primitive cell.

 Routine SETGRP: Setting up the symmetry group for a
 hexagonal supercell.

 Subroutine GETGRP returns: Found  2 space group operations
 (whereof  2 operations were pure point group operations)
 out of a pool of 24 trial point group operations.

The static configuration has the point symmetry C_1h.

Analysis of symmetry for dynamics (positions and initial velocities):
 Subroutine PRICEL returns:
 Original cell was already a primitive cell.

[...]

The dynamic configuration has the point symmetry C_1h.

Analysis of constrained symmetry for selective dynamics:
[...]
     41      -4.3897      2.00000
     42      -4.3109      2.00000
     43      -4.2081      2.00000
     44      -4.2044      2.00000
     45      -4.1463      2.00000
     46      -4.1403      2.00000
     47      -4.1273      2.00000
     48      -4.1129      2.00000
     49      -4.0907      2.00000
     50      -4.0830      2.00000
     51      -4.0806      2.00000
     52      -3.9266      2.00000
     53      -3.8775      2.00000
     54      -3.8701      2.00000
     55      -3.8644      2.00000
     56      -3.8445      2.00000
     57      -3.7981      2.00000
     58      -3.7900      2.00000
     59      -3.7844      2.00000
     60      -3.7838      2.00000
[...]
    238       5.3328      0.00000
    239       5.4368      0.00000
    240       5.4709      0.00000
    241       5.6024      0.00000
    242       5.7278      0.00000
    243       5.8082      0.00000
    244       5.9480      0.00000
    245       6.0351      0.00000
    246       6.0788      0.00000
    247       6.3589      0.00000
    248       6.4486      0.00000
    249       6.5302      0.00000
    250       6.6071      0.00000
    251       6.7891      0.00000
    252       6.8766      0.00000

 soft charge-density along one line, spin component           1
         0         1         2         3         4         5         6         7         8         9
 total charge-density along one line

------------------------ aborting loop because EDIFF is reached ----------------------------------------

 total charge

# of ion       s       p       d       tot
    1        0.447   0.285   9.188   9.919
    2        0.449   0.285   9.186   9.919
    3        0.449   0.285   9.186   9.919
    4        0.449   0.284   9.187   9.920
    5        0.447   0.286   9.184   9.917
    6        0.449   0.284   9.187   9.920
    7        0.449   0.285   9.186   9.920
    8        0.449   0.285   9.186   9.920
    9        0.447   0.283   9.189   9.919
   10        0.442   0.374   9.174   9.990
   11        0.443   0.367   9.183   9.993
   12        0.442   0.374   9.174   9.990
   13        0.443   0.367   9.183   9.993
   14        0.443   0.367   9.183   9.993
   15        0.438   0.370   9.179   9.987
   16        0.442   0.373   9.175   9.989
   17        0.439   0.368   9.181   9.987
   18        0.439   0.368   9.181   9.987
   19        0.439   0.369   9.184   9.992
   20        0.451   0.389   9.172  10.012
   21        0.451   0.389   9.172  10.012
   22        0.432   0.371   9.182   9.985
   23        0.450   0.385   9.175  10.010
   24        0.432   0.371   9.182   9.985
   25        0.441   0.369   9.183   9.993
   26        0.441   0.369   9.183   9.993
   27        0.432   0.371   9.183   9.986
   28        0.450   0.287   9.190   9.928
   29        0.457   0.299   9.180   9.936
   30        0.457   0.299   9.180   9.936
   31        0.446   0.296   9.185   9.927
   32        0.446   0.296   9.185   9.927
   33        0.457   0.299   9.180   9.936
   34        0.457   0.299   9.180   9.936
   35        0.442   0.291   9.191   9.924
   36        0.566   0.499   6.804   7.869
   37        0.893   1.709   0.000   2.602
   38        1.602   3.484   0.000   5.086
   39        1.602   3.484   0.000   5.086
tot         20.247  20.815 328.182 369.244

  FORCE on cell =-STRESS in cart. coord.  units (eV):
  Direction    XX          YY          ZZ          XY          YZ          ZX
  Alpha Z   832.83000   832.83000   832.83000
  Ewald  215724.00858215008.59870************     0.00040    -0.67267     0.00017
  Hartree228500.72132228151.21674************     0.00005    -0.34907     0.00006
  E(xc)   -2358.18337 -2360.08806 -2364.18837    -0.00027    -0.01045    -0.00004
  Local  ************************456504.66913     0.02032     0.92502    -0.00072
  n-local  -802.60587  -796.46843  -812.31521     2.29969     0.20208     0.13043
  augment  3363.52121  3365.59973  3386.05323    -0.01870    -0.02913     0.00035
  Kinetic  3514.87123  3564.75328  3586.17313     1.34105    -0.09778    -0.11744
  Fock        0.00000     0.00000     0.00000     0.00000     0.00000     0.00000
  Total      -5.06412    -5.02762     0.43807     0.00000    -0.03199     0.00000
  in kB      -6.74024    -6.69167     0.58306     0.00000    -0.04258     0.00000

 VOLUME and BASIS-vectors are now :
  energy-cutoff  :      500.00
  volume of cell :     1203.76
      direct lattice vectors                 reciprocal lattice vectors
     7.696786404  0.000000000  0.000000000     0.129924354 -0.075011849  0.000000000
     3.848392758  6.665612809  0.000000000     0.000000000  0.150023716  0.000000000
     0.000000000  0.000000000 23.463299730     0.000000000  0.000000000  0.042619751

  length of vectors
     7.696786404  7.696786404 23.463299730     0.150023716  0.150023716  0.042619751

 FORCES acting on ions
    electron-ion (+dipol)            ewald-force                    non-local-force                 convergence-correction
   -.419E-04 0.357E-01 0.375E+04   0.580E-04 -.436E-01 -.375E+04   0.285E-08 -.428E-01 -.254E+01   -.354E-03 0.426E-01 -.486E+00
   -.178E+00 0.158E+00 0.375E+04   0.187E+00 -.578E-01 -.375E+04   -.323E-01 -.670E-01 -.190E+01   0.256E-01 -.293E-01 -.412E+00
   0.178E+00 0.158E+00 0.375E+04   -.187E+00 -.579E-01 -.375E+04   0.323E-01 -.670E-01 -.190E+01   -.247E-01 -.268E-01 -.411E+00
   -.570E-01 -.190E+00 0.375E+04   0.806E-01 0.168E+00 -.375E+04   -.741E-03 0.183E-01 -.197E+01   -.182E-01 0.685E-02 -.408E+00
   -.633E-04 -.553E-02 0.375E+04   0.116E-03 -.354E-03 -.375E+04   -.386E-09 0.579E-02 -.185E+01   0.121E-01 -.538E-02 -.303E+00
   0.570E-01 -.190E+00 0.375E+04   -.807E-01 0.168E+00 -.375E+04   0.741E-03 0.183E-01 -.197E+01   0.166E-01 0.800E-02 -.407E+00
   0.192E+00 0.855E-01 0.375E+04   -.105E+00 -.110E+00 -.375E+04   -.278E-01 0.364E-01 -.185E+01   -.539E-01 -.119E-01 -.335E+00
   -.192E+00 0.855E-01 0.375E+04   0.105E+00 -.110E+00 -.375E+04   0.278E-01 0.364E-01 -.185E+01   0.573E-01 -.134E-01 -.335E+00
   -.144E-03 -.174E+00 0.375E+04   0.263E-03 0.440E-01 -.375E+04   -.632E-08 0.949E-01 -.222E+01   -.131E-01 0.358E-01 -.375E+00
   0.488E+00 0.705E+00 0.134E+04   -.147E+00 -.440E+00 -.134E+04   -.349E+00 -.249E+00 -.111E+01   0.309E-01 -.212E-02 0.515E-01
   -.910E-04 0.429E+00 0.133E+04   0.190E-03 -.525E+00 -.133E+04   -.273E-08 0.409E-01 -.813E+00   0.119E-01 0.398E-01 0.111E+00
   -.488E+00 0.705E+00 0.134E+04   0.147E+00 -.440E+00 -.134E+04   0.349E+00 -.249E+00 -.111E+01   -.327E-01 -.103E-02 0.516E-01
   -.181E-01 -.353E+00 0.133E+04   -.137E+00 0.316E+00 -.133E+04   0.707E-01 0.188E-01 -.666E+00   0.618E-01 0.322E-01 0.152E+00
   0.183E-01 -.353E+00 0.133E+04   0.137E+00 0.316E+00 -.133E+04   -.707E-01 0.188E-01 -.666E+00   -.382E-01 0.306E-01 0.150E+00
   -.140E-03 -.149E+01 0.134E+04   0.298E-03 0.121E+01 -.134E+04   -.109E-07 0.164E+00 -.922E+00   -.345E-02 0.968E-01 0.527E-01
   -.875E-04 -.555E+00 0.134E+04   0.186E-03 0.287E+00 -.134E+04   -.212E-07 0.319E+00 -.967E+00   -.901E-03 -.751E-01 0.744E-01
   -.113E+01 0.449E+00 0.134E+04   0.855E+00 -.364E+00 -.134E+04   0.178E+00 -.362E-01 -.719E+00   0.897E-01 -.517E-01 0.416E-01
   0.113E+01 0.449E+00 0.134E+04   -.855E+00 -.364E+00 -.134E+04   -.178E+00 -.362E-01 -.719E+00   -.883E-01 -.490E-01 0.436E-01
   -.639E-04 0.224E+00 -.108E+04   0.682E-04 -.370E+00 0.108E+04   -.580E-08 0.872E-01 0.991E+00   -.944E-03 0.487E-01 0.345E+00
   -.228E+02 -.112E+02 -.110E+04   0.233E+02 0.116E+02 0.110E+04   -.783E+00 -.510E+00 -.895E+00   0.131E+00 0.994E-01 0.400E+00
   0.228E+02 -.112E+02 -.110E+04   -.233E+02 0.116E+02 0.110E+04   0.783E+00 -.510E+00 -.895E+00   -.129E+00 0.976E-01 0.399E+00
   -.134E+02 0.536E+01 -.109E+04   0.128E+02 -.488E+01 0.109E+04   0.574E+00 -.438E+00 0.864E+00   0.148E+00 -.729E-01 0.318E+00
   -.875E-04 0.237E+02 -.110E+04   0.146E-03 -.242E+02 0.110E+04   -.475E-07 0.713E+00 -.519E+00   -.215E-02 -.148E+00 0.388E+00
   0.134E+02 0.536E+01 -.109E+04   -.128E+02 -.488E+01 0.109E+04   -.574E+00 -.438E+00 0.864E+00   -.126E+00 -.739E-01 0.319E+00
   0.992E+00 0.154E+01 -.109E+04   -.101E+01 -.150E+01 0.109E+04   0.300E-01 -.117E-02 0.797E+00   -.647E-02 -.371E-01 0.341E+00
   -.991E+00 0.154E+01 -.109E+04   0.101E+01 -.150E+01 0.109E+04   -.300E-01 -.117E-02 0.797E+00   0.549E-02 -.373E-01 0.341E+00
   -.121E-03 -.148E+02 -.110E+04   0.243E-03 0.142E+02 0.110E+04   -.393E-07 0.591E+00 0.848E+00   0.109E-01 0.117E+00 0.314E+00
   -.336E-04 0.127E+02 -.350E+04   0.347E-04 -.125E+02 0.350E+04   0.125E-07 -.188E+00 0.225E+01   -.180E-02 0.142E-02 0.420E+00
   -.643E+01 0.117E+02 -.348E+04   0.691E+01 -.119E+02 0.347E+04   -.565E+00 -.102E+00 0.217E+01   0.861E-01 0.206E+00 0.402E+00
   0.643E+01 0.117E+02 -.348E+04   -.691E+01 -.119E+02 0.347E+04   0.565E+00 -.102E+00 0.217E+01   -.636E-01 0.207E+00 0.401E+00
   0.638E+01 -.939E+00 -.344E+04   -.716E+01 0.116E+01 0.344E+04   0.423E+00 -.225E+00 0.315E+01   0.234E+00 0.122E-01 0.398E+00
   -.638E+01 -.939E+00 -.344E+04   0.716E+01 0.116E+01 0.344E+04   -.423E+00 -.225E+00 0.315E+01   -.212E+00 0.129E-01 0.398E+00
   -.453E+01 -.106E+02 -.348E+04   0.459E+01 0.107E+02 0.347E+04   -.179E+00 0.286E+00 0.207E+01   0.130E+00 -.212E+00 0.360E+00
   0.453E+01 -.106E+02 -.348E+04   -.459E+01 0.107E+02 0.347E+04   0.179E+00 0.286E+00 0.207E+01   -.106E+00 -.213E+00 0.361E+00
   -.155E-03 -.128E+02 -.351E+04   0.258E-03 0.126E+02 0.350E+04   -.119E-07 0.178E+00 0.267E+01   -.141E-01 -.292E-01 0.524E+00
   -.520E-04 0.243E+00 -.235E+04   0.100E-03 -.209E+00 0.235E+04   0.531E-08 -.797E-01 0.202E+01   0.331E-03 0.257E-01 0.338E+00
   -.564E-05 -.296E+01 -.137E+04   0.698E-05 0.306E+01 0.136E+04   0.747E-08 -.112E+00 0.401E+01   0.497E-03 0.521E-03 -.135E-01
   0.229E+03 0.109E+01 -.219E+04   -.280E+03 -.144E+01 0.220E+04   0.514E+02 0.353E+00 -.179E+02   0.523E-01 -.668E-03 -.437E-01
   -.229E+03 0.109E+01 -.219E+04   0.280E+03 -.144E+01 0.220E+04   -.514E+02 0.353E+00 -.179E+02   -.574E-01 -.606E-03 -.437E-01
   0.147E-04 0.954E-02 0.290E+02   0.114E-12 -.200E-12 -.136E-10   0.394E-08 -.592E-01 -.330E+02   0.111E+00 0.306E-01 0.392E+01

 POSITION                                       TOTAL-FORCE (eV/Angst)
      0.00000      0.00000      5.37156         0.000000     -0.007586      0.066332
      2.56560      0.00000      5.37156         0.001278      0.005168      0.065823
      5.13119      0.00000      5.37156        -0.001278      0.005168      0.065823
      1.28280      2.22187      5.37156         0.005452      0.004464      0.058965
      3.84839      2.22187      5.37156         0.000000     -0.004984      0.022014
      6.41399      2.22187      5.37156        -0.005452      0.004464      0.058965
      2.56560      4.44374      5.37156         0.003662     -0.000607      0.064985
      5.13119      4.44374      5.37156        -0.003662     -0.000607      0.064985
      7.69679      4.44374      5.37156        -0.000000      0.001282      0.037675
      1.28280      0.74062      7.46636         0.023757      0.015284     -0.042604
      3.84839      0.74062      7.46636         0.000000     -0.014285     -0.081345
      6.41399      0.74062      7.46636        -0.023757      0.015284     -0.042604
      2.56560      2.96249      7.46636        -0.034563      0.014324     -0.086250
      5.13119      2.96249      7.46636         0.034563      0.014324     -0.086250
      7.69679      2.96249      7.46636         0.000000     -0.012885     -0.004388
      3.84839      5.18437      7.46636         0.000000     -0.022888     -0.045981
      6.41399      5.18437      7.46636        -0.009651     -0.001716      0.003028
      8.97958      5.18437      7.46636         0.009651     -0.001716      0.003028
      7.69679      1.48414      9.55535         0.000000     -0.008791      0.033079
      2.56128      1.47875      9.53998        -0.109976     -0.044403     -0.078594
      5.13551      1.47875      9.53998         0.109976     -0.044403     -0.078594
      8.97644      3.70493      9.56275         0.047895     -0.024275      0.010135
      3.84839      3.70811      9.53998        -0.000000      0.117224     -0.133759
      6.41713      3.70493      9.56275        -0.047895     -0.024275      0.010135
     10.25987      5.92354      9.55535         0.001405      0.002929      0.000264
      5.13370      5.92354      9.55535        -0.001405      0.002929      0.000264
      7.69679      5.92136      9.56275        -0.000000      0.044006     -0.013345
      0.00000      0.00000     11.63109         0.000000     -0.030465     -0.008808
      6.40750      6.66078     11.65531        -0.008366     -0.146893     -0.110617
      8.98608      6.66078     11.65531         0.008366     -0.146893     -0.110617
      8.97216      2.21866     11.65531        -0.134206      0.008011     -0.017207
      6.42142      2.21866     11.65531         0.134206      0.008011     -0.017207
     10.26144      4.45178     11.65531        -0.004776      0.136119     -0.093645
      5.13213      4.45178     11.65531         0.004775      0.136119     -0.093645
      7.69679      4.44374     11.63516        -0.000000      0.033550      0.000671
      3.84839      2.22187     11.61289         0.000000     -0.020060      0.570887
      3.84839      2.22885     13.78108         0.000000     -0.007416      0.035351
      2.67753      2.22041     14.14601        -0.000169     -0.001757     -0.013476
      5.01926      2.22041     14.14601         0.000169     -0.001757     -0.013476
    total drift:                                0.110642     -0.019068     -0.101504

  FREE ENERGIE OF THE ION-ELECTRON SYSTEM (eV)
  free  energy   TOTEN  =      -152.58617412 eV

  energy  without entropy=     -152.58617412  energy(sigma->0) =     -152.58617412

 stress matrix after NEB project (eV)
     -5.06412      0.00000      0.00000
      0.00000     -5.02762     -0.03199
      0.00000     -0.03199      0.43807
  FORCES: max atom, RMS     0.036120    0.006552
  FORCE total and by dimension    0.040916    0.035351
  Stress total and by dimension    7.149557    5.064116
|           W    W    AA    RRRRR   N    N  II  N    N   GGGG   !!!           |
|           W    W   A  A   R    R  NN   N  II  NN   N  G    G  !!!           |
|           W    W  A    A  R    R  N N  N  II  N N  N  G       !!!           |
|           W WW W  AAAAAA  RRRRR   N  N N  II  N  N N  G  GGG   !            |
|           WW  WW  A    A  R   R   N   NN  II  N   NN  G    G                |
|           W    W  A    A  R    R  N    N  II  N    N   GGGG   !!!           |
|     Tetrahedron method does not include variations of the Fermi             |
|     occupations, so forces and stress will be inaccurate. We suggest        |
|     using a different smearing scheme ISMEAR = 1 or 2 for metals in         |
|     relaxations.                                                            |

 total charge

# of ion       s       p       d       tot
    1        0.447   0.285   9.188   9.919
    2        0.449   0.285   9.186   9.919
    3        0.449   0.285   9.186   9.919
    4        0.449   0.284   9.187   9.920
    5        0.447   0.286   9.184   9.917
    6        0.449   0.284   9.187   9.920
    7        0.449   0.285   9.186   9.920
    8        0.449   0.285   9.186   9.920
    9        0.447   0.283   9.189   9.919
   10        0.442   0.374   9.174   9.990
   11        0.443   0.367   9.183   9.993
   12        0.442   0.374   9.174   9.990
   13        0.443   0.367   9.183   9.993
   14        0.443   0.367   9.183   9.993
   15        0.438   0.370   9.179   9.987
   16        0.442   0.373   9.175   9.989
   17        0.439   0.368   9.181   9.987
   18        0.439   0.368   9.181   9.987
   19        0.439   0.369   9.184   9.992
   20        0.451   0.389   9.172  10.012
   21        0.451   0.389   9.172  10.012
   22        0.432   0.371   9.182   9.985
   23        0.450   0.385   9.175  10.010
   24        0.432   0.371   9.182   9.985
   25        0.441   0.369   9.183   9.993
   26        0.441   0.369   9.183   9.993
   27        0.432   0.371   9.183   9.986
   28        0.450   0.287   9.190   9.928
   29        0.457   0.299   9.180   9.936
   30        0.457   0.299   9.180   9.936
   31        0.446   0.296   9.185   9.927
   32        0.446   0.296   9.185   9.927
   33        0.457   0.299   9.180   9.936
   34        0.457   0.299   9.180   9.936
   35        0.442   0.291   9.191   9.924
   36        0.566   0.499   6.804   7.869
   37        0.893   1.709   0.000   2.602
   38        1.602   3.484   0.000   5.086
   39        1.602   3.484   0.000   5.086
tot         20.247  20.815 328.182 369.244

 BZINTS: Fermi energy:   -0.433824;  409.000000 electrons
         Band energy:-0.142666E+04;  BLOECHL correction:   -0.056465