 vasp.6.2.0 18Jan21 (build Jun 12 2021 23:27:24) complex

 executed on             LinuxIFC date 2022.05.30  16:00:05

 INCAR:
   ISMEAR = -5
   SIGMA = 0.1
   ISPIN = 1
   EDIFF = 1.d-5
   EDIFFG = -0.01
   NSW = 0
   NELM = 150
   ENCUT = 500
   ISIF = 2
   IBRION = 2
   LREAL = Auto
   ALGO = Fast
   ICHARG = 11
   LORBIT = 10
   LCHARG = .F.
   LWAVE = .F.

 POTCAR:    PAW_PBE Au 04Oct2007
 POTCAR:    PAW_PBE Co 02Aug2007
 POTCAR:    PAW_PBE O 08Apr2002
|           W    W    AA    RRRRR   N    N  II  N    N   GGGG   !!!           |
|           W    W   A  A   R    R  NN   N  II  NN   N  G    G  !!!           |
|           W    W  A    A  R    R  N N  N  II  N N  N  G       !!!           |
|           W WW W  AAAAAA  RRRRR   N  N N  II  N  N N  G  GGG   !            |
|           WW  WW  A    A  R   R   N   NN  II  N   NN  G    G                |
|           W    W  A    A  R    R  N    N  II  N    N   GGGG   !!!           |
|     For optimal performance we recommend to set                             |
|       NCORE = 2 up to number-of-cores-per-socket                            |
|     This setting can greatly improve the performance of VASP for DFT.       |
|     The default, NCORE=1 might be grossly inefficient on modern             |
|     multi-core architectures or massively parallel machines. Do your        |
|     Unfortunately you need to use the default for GW and RPA                |
|     calculations (for HF NCORE is supported but not extensively tested      |
|     yet).                                                                   |

 POTCAR:    PAW_PBE Au 04Oct2007
   VRHFIN =Au: s1d10

   TITEL  = PAW_PBE Au 04Oct2007
   POMASS =  196.966; ZVAL   =   11.000    mass and valenz
   ENMAX  =  229.943; ENMIN  =  172.457 eV

 POTCAR:    PAW_PBE Co 02Aug2007
   VRHFIN =Co: d8 s1

   TITEL  = PAW_PBE Co 02Aug2007
   POMASS =   58.933; ZVAL   =    9.000    mass and valenz
   ENMAX  =  267.968; ENMIN  =  200.976 eV

 POTCAR:    PAW_PBE O 08Apr2002
   VRHFIN =O: s2p4

   TITEL  = PAW_PBE O 08Apr2002
   POMASS =   16.000; ZVAL   =    6.000    mass and valenz
   ENMAX  =  400.000; ENMIN  =  300.000 eV

 Optimization of the real space projectors (new method)

 maximal supplied QI-value         = 15.12
 optimisation between [QCUT,QGAM] = [ 11.34, 22.83] = [ 36.00,145.93] Ry
 Optimized for a Real-space Cutoff    1.39 Angstroem

   l    n(q)    QCUT    max X(q) W(low)/X(q) W(high)/X(q)  e(spline)
   2      9    11.338    60.898    0.39E-03    0.42E-03    0.21E-06
   2      9    11.338    58.894    0.40E-03    0.42E-03    0.22E-06
   0      9    11.338   109.617    0.13E-03    0.20E-04    0.13E-06
   0      9    11.338    75.026    0.13E-03    0.20E-04    0.13E-06
   1      9    11.338    16.344    0.33E-04    0.24E-03    0.18E-06
   1      9    11.338    10.160    0.26E-04    0.19E-03    0.15E-06
 Optimization of the real space projectors (new method)

[...]

   l    n(q)    QCUT    max X(q) W(low)/X(q) W(high)/X(q)  e(spline)
   2      8    11.376    65.824    0.20E-03    0.32E-04    0.13E-06
   2      8    11.376    61.429    0.20E-03    0.33E-04    0.14E-06
   0      9    11.376    56.174    0.76E-04    0.11E-03    0.19E-06
   0      9    11.376    31.263    0.69E-04    0.99E-04    0.17E-06
   1      9    11.376    19.828    0.35E-03    0.11E-03    0.12E-06
   1      9    11.376    15.139    0.29E-03    0.94E-04    0.10E-06
 Optimization of the real space projectors (new method)

 maximal supplied QI-value         = 24.76
 optimisation between [QCUT,QGAM] = [ 11.39, 22.77] = [ 36.31,145.25] Ry
 Optimized for a Real-space Cutoff    1.00 Angstroem

   l    n(q)    QCUT    max X(q) W(low)/X(q) W(high)/X(q)  e(spline)
   0      7    11.387    20.381    0.39E-03    0.13E-02    0.15E-06
   0      7    11.387    15.268    0.42E-03    0.14E-02    0.17E-06
   1      6    11.387     5.964    0.41E-03    0.11E-02    0.17E-06
   1      6    11.387     5.382    0.39E-03    0.87E-03    0.15E-06
  PAW_PBE Au 04Oct2007                  :
  PAW_PBE Co 02Aug2007                  :
  PAW_PBE O 08Apr2002                   :

 POSCAR: Au-Co-O2
  positions in direct lattice
  velocities in cartesian coordinates
 exchange correlation table for  LEXCH =        8
   RHO(1)=    0.500       N(1)  =     2000
   RHO(2)=  100.500       N(2)  =     4000

 VTST: version 3.2, (02/03/18)

 CHAIN: initializing optimizer

 OPT: Using VASP Conjugate-Gradient optimizer
 CHAIN: Read ICHAIN            0

 POSCAR: Au-Co-O2
  positions in direct lattice
  velocities in cartesian coordinates

 ion  position               nearest neighbor table
   1  0.000  0.000  0.217-  16 2.94  12 2.94   6 2.94   8 2.94   7 2.94   3 2.94  10 2.94   4 2.94
                             2 2.94
   2  0.333  0.000  0.217-   9 2.94  11 2.94  17 2.94  10 2.94   8 2.94   4 2.94   5 2.94   1 2.94
                             3 2.94
   3  0.667  0.000  0.217-   7 2.94  18 2.94  12 2.94   1 2.94  11 2.94   5 2.94   6 2.94   9 2.94
                             2 2.94
   4  0.000  0.333  0.217-  10 2.94   6 2.94   5 2.94  13 2.94   2 2.94  15 2.94   9 2.94   1 2.94
                             7 2.94
   5  0.333  0.333  0.217-  13 2.94   7 2.94  11 2.94   4 2.94   2 2.94  14 2.94   3 2.94   8 2.94
                             6 2.94
   6  0.667  0.333  0.217-  15 2.94  14 2.94   1 2.94  12 2.94   4 2.94   9 2.94   8 2.94   3 2.94
                             5 2.94
   7  0.000  0.667  0.217-  18 2.94   3 2.94  16 2.94   5 2.94   1 2.94  13 2.94   8 2.94   4 2.94
                             9 2.94
   8  0.333  0.667  0.217-   9 2.94  17 2.94   1 2.94   2 2.94  14 2.94  16 2.94   6 2.94   7 2.94
                             5 2.94
   9  0.667  0.667  0.217-   2 2.94   8 2.94  17 2.94   6 2.94  15 2.94   4 2.94   3 2.94  18 2.94
                             7 2.94
  10  0.111  0.111  0.316-  20 2.92  26 2.93  19 2.93  11 2.94  17 2.94   2 2.94   4 2.94   1 2.94
                            12 2.94  16 2.94  13 2.94  15 2.94
  11  0.444  0.111  0.316-  20 2.91  21 2.91  27 2.93  13 2.94   2 2.94  10 2.94  17 2.94   5 2.94
                             3 2.94  18 2.94  14 2.94  12 2.94
  12  0.778  0.111  0.316-  21 2.92  25 2.93  19 2.93  16 2.94  18 2.94   1 2.94  14 2.94  15 2.94
                             3 2.94   6 2.94  10 2.94  11 2.94
  13  0.111  0.444  0.316-  23 2.91  20 2.91  22 2.93   5 2.94  18 2.94  11 2.94   7 2.94   4 2.94
                            16 2.94  10 2.94  14 2.94  15 2.94
  14  0.444  0.444  0.316-  21 2.91  23 2.91  24 2.93  15 2.94   6 2.94  12 2.94   8 2.94  17 2.94
                             5 2.94  16 2.94  13 2.94  11 2.94
  15  0.778  0.444  0.316-  24 2.92  22 2.92  19 2.93  14 2.94   6 2.94  17 2.94  12 2.94   9 2.94
                             4 2.94  10 2.94  13 2.94  18 2.94
  16  0.111  0.778  0.316-  23 2.92  25 2.93  26 2.93  18 2.94  12 2.94   7 2.94   1 2.94   8 2.94
                            13 2.94  10 2.94  14 2.94  17 2.94
  17  0.444  0.778  0.316-  27 2.92  24 2.92  26 2.93   9 2.94  15 2.94   2 2.94  10 2.94  11 2.94
                             8 2.94  14 2.94  16 2.94  18 2.94
  18  0.778  0.778  0.316-  22 2.92  27 2.92  25 2.93  16 2.94   7 2.94  13 2.94  12 2.94   3 2.94
                            11 2.94   9 2.94  15 2.94  17 2.94
  19  0.889  0.222  0.414-  10 2.93  12 2.93  15 2.93  26 2.94  25 2.94  24 2.94  22 2.94  28 2.94
                            21 2.95  20 2.95  32 2.96  31 2.96
  20  0.223  0.223  0.413-  36 2.69  29 2.91  31 2.91  11 2.91  13 2.91  23 2.91  21 2.91  10 2.92
                            27 2.95  22 2.95  26 2.95  19 2.95
  21  0.554  0.223  0.413-  36 2.69  30 2.91  32 2.91  14 2.91  11 2.91  20 2.91  23 2.91  12 2.92
                            27 2.95  24 2.95  25 2.95  19 2.95
  22  0.887  0.557  0.414-  24 2.91  27 2.91  18 2.92  15 2.92  13 2.93  25 2.94  19 2.94  33 2.94
                            31 2.94  23 2.95  20 2.95  35 2.96
  23  0.223  0.554  0.413-  36 2.69  33 2.91  34 2.91  13 2.91  14 2.91  20 2.91  21 2.91  16 2.92
                            22 2.95  24 2.95  25 2.95  26 2.95
  24  0.557  0.557  0.414-  27 2.91  22 2.91  15 2.92  17 2.92  14 2.93  26 2.94  19 2.94  32 2.94
                            34 2.94  21 2.95  23 2.95  35 2.96
  25  0.889  0.889  0.414-  16 2.93  12 2.93  18 2.93  19 2.94  26 2.94  22 2.94  27 2.94  28 2.94
                            23 2.95  21 2.95  33 2.96  30 2.96
  26  0.222  0.889  0.414-  10 2.93  16 2.93  17 2.93  19 2.94  25 2.94  27 2.94  24 2.94  28 2.94
                            20 2.95  23 2.95  29 2.96  34 2.96
  27  0.557  0.887  0.414-  24 2.91  22 2.91  17 2.92  18 2.92  11 2.93  26 2.94  25 2.94  29 2.94
                            30 2.94  20 2.95  21 2.95  35 2.96
  28  0.000  0.000  0.513-  25 2.94  19 2.94  26 2.94  34 2.98  32 2.98  33 2.98  30 2.98  31 2.98
                            29 2.98
  29  0.334  0.008  0.512-  30 2.86  31 2.87  36 2.88  20 2.91  27 2.94  26 2.96  35 2.98  28 2.98
                            34 3.09
  30  0.658  0.008  0.512-  29 2.86  32 2.87  36 2.88  21 2.91  27 2.94  25 2.96  35 2.98  28 2.98
                            33 3.09
  31  0.008  0.334  0.512-  37 2.64  33 2.86  29 2.87  36 2.88  20 2.91  22 2.94  19 2.96  35 2.98
                            28 2.98  32 3.09
  32  0.658  0.334  0.512-  38 2.64  34 2.86  30 2.87  36 2.88  21 2.91  24 2.94  19 2.96  35 2.98
                            28 2.98  31 3.09
  33  0.008  0.658  0.512-  31 2.86  34 2.87  36 2.88  23 2.91  22 2.94  25 2.96  35 2.98  28 2.98
                            30 3.09
  34  0.334  0.658  0.512-  32 2.86  33 2.87  36 2.88  23 2.91  24 2.94  26 2.96  35 2.98  28 2.98
                            29 3.09
  35  0.667  0.667  0.514-  24 2.96  27 2.96  22 2.96  29 2.98  34 2.98  32 2.98  31 2.98  30 2.98
                            33 2.98
  36  0.333  0.333  0.500-  37 1.92  38 1.92  20 2.69  23 2.69  21 2.69  33 2.88  31 2.88  29 2.88
                            30 2.88  34 2.88  32 2.88
  37  0.255  0.333  0.573-  38 1.37  36 1.92  31 2.64
  38  0.411  0.333  0.573-  37 1.37  36 1.92  32 2.64

  LATTYP: Found a hexagonal cell.
 ALAT       =     8.8135128021
 C/A-ratio  =     2.7586513333

  Lattice vectors:

 A1 = (  -4.4067569092,  -7.6327256898,   0.0000000000)
 A2 = (   8.8135128021,   0.0000000000,   0.0000000000)
 A3 = (   0.0000000000,   0.0000000000,  24.3134088421)

Analysis of symmetry for initial positions (statically):
 Subroutine PRICEL returns:
 Original cell was already a primitive cell.

 Routine SETGRP: Setting up the symmetry group for a
 hexagonal supercell.

 Subroutine GETGRP returns: Found  2 space group operations
 (whereof  2 operations were pure point group operations)
 out of a pool of 24 trial point group operations.

The static configuration has the point symmetry C_1h.

Analysis of symmetry for dynamics (positions and initial velocities):
 Subroutine PRICEL returns:
 Original cell was already a primitive cell.

[...]

The dynamic configuration has the point symmetry C_1h.

Analysis of constrained symmetry for selective dynamics:
 Subroutine PRICEL returns:
 Original cell was already a primitive cell.

 Routine SETGRP: Setting up the symmetry group for a
[...]
     33      -5.3656      2.00000
     34      -5.2795      2.00000
     35      -5.2685      2.00000
     36      -5.2561      2.00000
     37      -5.2519      2.00000
     38      -5.2323      2.00000
     39      -5.0797      2.00000
     40      -5.0631      2.00000
     41      -5.0505      2.00000
     42      -5.0248      2.00000
     43      -5.0148      2.00000
     44      -4.9754      2.00000
     45      -4.9086      2.00000
     46      -4.8706      2.00000
     47      -4.8045      2.00000
     48      -4.7942      2.00000
     49      -4.7863      2.00000
     50      -4.7727      2.00000
     51      -4.6786      2.00000
     52      -4.6646      2.00000
     53      -4.6286      2.00000
     54      -4.6176      2.00000
     55      -4.6075      2.00000
     56      -4.6032      2.00000
     57      -4.5813      2.00000
     58      -4.5498      2.00000
     59      -4.5072      2.00000
     60      -4.4713      2.00000
[...]
    238       5.5987      0.00000
    239       5.7209      0.00000
    240       5.9453      0.00000
    241       5.9871      0.00000
    242       6.0053      0.00000
    243       6.0257      0.00000
    244       6.0651      0.00000
    245       6.2779      0.00000
    246       6.3323      0.00000
    247       6.3696      0.00000
    248       6.3923      0.00000
    249       6.4887      0.00000
    250       6.6825      0.00000
    251       6.7502      0.00000
    252       6.8433      0.00000

 soft charge-density along one line, spin component           1
         0         1         2         3         4         5         6         7         8         9
 total charge-density along one line

------------------------ aborting loop because EDIFF is reached ----------------------------------------

 total charge

# of ion       s       p       d       tot
    1        0.544   0.239   8.768   9.552
    2        0.544   0.241   8.764   9.549
    3        0.544   0.241   8.764   9.549
    4        0.545   0.241   8.765   9.551
    5        0.543   0.242   8.762   9.547
    6        0.545   0.241   8.765   9.551
    7        0.544   0.241   8.765   9.549
    8        0.544   0.241   8.765   9.549
    9        0.542   0.240   8.767   9.549
   10        0.521   0.308   8.770   9.599
   11        0.522   0.307   8.778   9.608
   12        0.521   0.308   8.770   9.599
   13        0.520   0.308   8.777   9.606
   14        0.520   0.308   8.777   9.606
   15        0.515   0.310   8.774   9.599
   16        0.519   0.309   8.770   9.598
   17        0.515   0.310   8.776   9.601
   18        0.515   0.310   8.776   9.601
   19        0.513   0.302   8.778   9.593
   20        0.542   0.329   8.752   9.624
   21        0.542   0.329   8.752   9.624
   22        0.512   0.312   8.773   9.597
   23        0.537   0.332   8.758   9.627
   24        0.512   0.312   8.773   9.597
   25        0.516   0.303   8.775   9.593
   26        0.516   0.303   8.775   9.593
   27        0.511   0.311   8.774   9.596
   28        0.539   0.224   8.770   9.534
   29        0.541   0.231   8.773   9.545
   30        0.541   0.231   8.773   9.545
   31        0.531   0.233   8.785   9.549
   32        0.531   0.233   8.785   9.549
   33        0.539   0.230   8.777   9.547
   34        0.539   0.230   8.777   9.547
   35        0.538   0.222   8.772   9.532
   36        0.346   0.400   7.290   8.035
   37        1.610   3.265   0.000   4.875
   38        1.610   3.265   0.000   4.875
tot         22.129  16.540 314.266 352.935

  FORCE on cell =-STRESS in cart. coord.  units (eV):
  Direction    XX          YY          ZZ          XY          YZ          ZX
  Alpha Z   943.15663   943.15663   943.15663
  Ewald  153863.96906153433.83947************    -0.00030     0.48370    -0.00009
  Hartree162420.24386162207.10906************     0.00002     0.22271    -0.00002
  E(xc)   -1832.33287 -1833.43367 -1839.32640    -0.00003    -0.00147     0.00000
  Local  ************************328098.21990     0.00279    -0.89601    -0.00004
  n-local  -110.60720  -114.29398   -91.78222     4.26557    -0.12990     0.25821
  augment  2533.13961  2543.01157  2544.12200    -0.00145     0.11406     0.00005
  Kinetic  5662.32645  5714.47790  5728.13203     1.02748     0.21164     0.14734
  Fock        0.00000     0.00000     0.00000     0.00000     0.00000     0.00000
  Total     -18.72927   -20.50754    -1.10035    -0.00000     0.00474     0.00000
  in kB     -18.34666   -20.08860    -1.07787    -0.00000     0.00464     0.00000

 VOLUME and BASIS-vectors are now :
  energy-cutoff  :      500.00
  volume of cell :     1635.59
      direct lattice vectors                 reciprocal lattice vectors
     8.813512802  0.000000000  0.000000000     0.113462137 -0.065507406  0.000000000
     4.406756909  7.632725690  0.000000000     0.000000000  0.131014796  0.000000000
     0.000000000  0.000000000 24.313408842     0.000000000  0.000000000  0.041129568

  length of vectors
     8.813512802  8.813512802 24.313408842     0.131014796  0.131014796  0.041129568

 FORCES acting on ions
    electron-ion (+dipol)            ewald-force                    non-local-force                 convergence-correction
   -.199E-04 0.907E-01 0.269E+04   0.520E-04 -.288E-01 -.269E+04   -.741E-09 -.111E-01 -.888E+00   -.174E-03 -.457E-01 -.304E+00
   0.663E+00 0.693E+00 0.270E+04   -.760E+00 -.720E+00 -.269E+04   0.183E-01 0.268E-01 -.304E+00   0.804E-01 0.152E-01 -.353E+00
   -.663E+00 0.693E+00 0.270E+04   0.760E+00 -.720E+00 -.269E+04   -.183E-01 0.268E-01 -.304E+00   -.802E-01 0.172E-01 -.353E+00
   0.804E+00 0.256E+00 0.270E+04   -.980E+00 -.313E+00 -.269E+04   0.847E-01 -.591E-02 -.323E+00   0.908E-01 0.481E-01 -.322E+00
   0.833E-05 -.835E-02 0.270E+04   0.951E-04 -.700E-04 -.270E+04   0.191E-09 0.287E-02 -.254E+00   0.427E-02 0.119E-01 -.271E+00
   -.804E+00 0.256E+00 0.270E+04   0.979E+00 -.313E+00 -.269E+04   -.847E-01 -.591E-02 -.323E+00   -.923E-01 0.491E-01 -.321E+00
   0.248E+00 -.936E+00 0.270E+04   -.218E+00 0.103E+01 -.269E+04   -.932E-02 -.421E-01 -.372E+00   0.589E-03 -.574E-01 -.407E+00
   -.248E+00 -.936E+00 0.270E+04   0.218E+00 0.103E+01 -.269E+04   0.932E-02 -.421E-01 -.372E+00   0.130E-02 -.584E-01 -.407E+00
   0.197E-04 -.324E-01 0.270E+04   0.166E-03 0.289E-01 -.269E+04   -.162E-08 -.244E-01 -.531E+00   -.464E-02 0.196E-01 -.387E+00
   0.631E+01 0.378E+01 0.957E+03   -.606E+01 -.373E+01 -.957E+03   -.290E+00 -.104E+00 -.660E+00   0.713E-01 0.682E-01 -.463E-01
   0.185E-04 0.852E+01 0.970E+03   0.147E-03 -.855E+01 -.969E+03   -.356E-08 -.535E-01 -.442E+00   0.364E-02 0.270E-01 0.779E-02
   -.631E+01 0.378E+01 0.957E+03   0.606E+01 -.373E+01 -.957E+03   0.290E+00 -.104E+00 -.660E+00   -.726E-01 0.694E-01 -.473E-01
   0.709E+01 -.420E+01 0.970E+03   -.718E+01 0.431E+01 -.969E+03   0.467E-01 -.372E-01 -.405E+00   0.225E-01 -.634E-01 -.368E-01
   -.709E+01 -.420E+01 0.970E+03   0.718E+01 0.431E+01 -.969E+03   -.467E-01 -.372E-01 -.405E+00   -.149E-01 -.637E-01 -.371E-01
   0.307E-04 0.245E+01 0.960E+03   0.237E-03 -.244E+01 -.959E+03   0.425E-09 0.639E-02 -.601E+00   -.215E-02 -.234E-01 -.147E+00
   -.222E-04 -.737E+01 0.957E+03   0.163E-03 0.706E+01 -.956E+03   0.206E-07 0.309E+00 -.676E+00   0.338E-03 -.331E-01 -.839E-01
   0.227E+01 -.138E+01 0.959E+03   -.224E+01 0.138E+01 -.958E+03   -.384E-01 -.697E-02 -.472E+00   -.823E-02 0.145E-01 -.126E+00
   -.227E+01 -.138E+01 0.959E+03   0.224E+01 0.138E+01 -.958E+03   0.384E-01 -.697E-02 -.472E+00   0.814E-02 0.163E-01 -.126E+00
   -.396E-04 0.515E+01 -.822E+03   0.524E-04 -.535E+01 0.821E+03   0.122E-07 0.183E+00 0.739E+00   0.354E-02 0.349E-02 0.906E-01
   0.458E+02 0.283E+02 -.747E+03   -.456E+02 -.279E+02 0.747E+03   -.876E+00 -.568E+00 -.913E+00   0.562E+00 0.201E+00 0.750E+00
   -.458E+02 0.283E+02 -.747E+03   0.456E+02 -.279E+02 0.747E+03   0.876E+00 -.568E+00 -.913E+00   -.562E+00 0.202E+00 0.750E+00
   0.175E+02 -.117E+02 -.804E+03   -.179E+02 0.119E+02 0.803E+03   0.294E+00 -.173E+00 0.610E+00   0.196E+00 -.765E-01 0.212E+00
   -.782E-05 -.550E+02 -.750E+03   0.145E-03 0.548E+02 0.749E+03   0.578E-07 0.869E+00 -.596E+00   0.159E-02 -.621E+00 0.873E+00
   -.175E+02 -.117E+02 -.804E+03   0.179E+02 0.119E+02 0.803E+03   -.294E+00 -.173E+00 0.610E+00   -.203E+00 -.752E-01 0.211E+00
   -.382E+01 -.153E+01 -.824E+03   0.387E+01 0.159E+01 0.823E+03   -.169E-01 -.660E-01 0.642E+00   -.396E-01 0.695E-02 0.210E+00
   0.382E+01 -.153E+01 -.824E+03   -.387E+01 0.159E+01 0.823E+03   0.169E-01 -.660E-01 0.642E+00   0.415E-01 0.636E-02 0.210E+00
   0.132E-04 0.201E+02 -.806E+03   0.195E-03 -.207E+02 0.805E+03   0.272E-07 0.409E+00 0.695E+00   -.453E-02 0.309E+00 0.326E+00
   -.163E-04 0.560E+01 -.260E+04   0.317E-04 -.538E+01 0.260E+04   -.605E-08 -.908E-01 0.522E+00   0.515E-03 -.134E+00 0.216E+00
   0.595E+02 0.117E+03 -.256E+04   -.596E+02 -.118E+03 0.256E+04   -.431E+00 -.139E+00 0.994E+00   0.318E+00 0.351E+00 -.540E-01
   -.595E+02 0.117E+03 -.256E+04   0.596E+02 -.118E+03 0.256E+04   0.431E+00 -.139E+00 0.994E+00   -.319E+00 0.352E+00 -.534E-01
   0.145E+03 0.123E+01 -.254E+04   -.146E+03 -.115E+01 0.254E+04   0.122E+00 -.308E-01 0.136E+01   0.553E+00 -.268E-01 -.430E-01
   -.145E+03 0.123E+01 -.254E+04   0.146E+03 -.115E+01 0.254E+04   -.122E+00 -.308E-01 0.136E+01   -.553E+00 -.254E-01 -.435E-01
   0.574E+02 -.118E+03 -.256E+04   -.576E+02 0.119E+03 0.256E+04   -.350E+00 0.160E+00 0.103E+01   0.299E+00 -.337E+00 0.183E-01
   -.574E+02 -.118E+03 -.256E+04   0.576E+02 0.119E+03 0.256E+04   0.350E+00 0.160E+00 0.103E+01   -.298E+00 -.337E+00 0.172E-01
   0.345E-04 -.575E+01 -.261E+04   0.140E-03 0.542E+01 0.261E+04   0.101E-07 0.151E+00 0.472E+00   -.456E-02 0.171E+00 0.151E+00
   -.360E-04 0.258E-01 -.167E+04   0.951E-04 -.439E-01 0.167E+04   -.122E-08 -.184E-01 0.202E+01   0.531E-02 -.386E-01 -.892E+00
   0.234E+03 0.188E+00 -.178E+04   -.271E+03 0.166E-01 0.180E+04   0.369E+02 -.186E+00 -.156E+02   -.230E-01 -.129E-01 -.877E+00
   -.234E+03 0.188E+00 -.178E+04   0.271E+03 0.166E-01 0.180E+04   -.369E+02 -.186E+00 -.156E+02   0.188E-01 -.128E-01 -.878E+00
   -.464E-03 0.684E+00 0.311E+02   0.000E+00 -.916E-13 -.909E-12   -.408E-07 -.613E+00 -.283E+02   0.197E-02 -.823E-01 -.257E+01

 POSITION                                       TOTAL-FORCE (eV/Angst)
      0.00000      0.00000      5.28038         0.000000      0.005331     -0.049413
      2.93784      0.00000      5.28038         0.001077      0.015858     -0.018487
      5.87568      0.00000      5.28038        -0.001077      0.015858     -0.018487
      1.46892      2.54424      5.28038         0.000405     -0.014380     -0.027317
      4.40676      2.54424      5.28038         0.000000      0.006622     -0.051208
      7.34459      2.54424      5.28038        -0.000405     -0.014380     -0.027317
      2.93784      5.08848      5.28038         0.020459     -0.002569     -0.008394
      5.87568      5.08848      5.28038        -0.020459     -0.002569     -0.008394
      8.81351      5.08848      5.28038        -0.000000     -0.008013     -0.030628
      1.46892      0.84808      7.67911         0.035960      0.014934      0.075163
      4.40676      0.84808      7.67911        -0.000000     -0.053052     -0.036559
      7.34459      0.84808      7.67911        -0.035960      0.014934      0.075163
      2.93784      3.39232      7.67911        -0.025650      0.015014     -0.024305
      5.87568      3.39232      7.67911         0.025650      0.015014     -0.024305
      8.81351      3.39232      7.67911        -0.000000     -0.008528      0.052764
      4.40676      5.93656      7.67911        -0.000000     -0.030598      0.074349
      7.34459      5.93656      7.67911        -0.019310      0.014054      0.043057
     10.28243      5.93656      7.67911         0.019310      0.014054      0.043057
      8.81351      1.69524     10.07173        -0.000000     -0.009550     -0.016918
      2.95099      1.70376     10.05075        -0.046661      0.027341      0.008610
      5.86252      1.70376     10.05075         0.046661      0.027341      0.008610
     10.26977      4.24772     10.05674         0.075069     -0.039929      0.045029
      4.40676      4.22522     10.05075         0.000000      0.013374     -0.051965
      7.35726      4.24772     10.05674        -0.075069     -0.039929      0.045029
     11.75215      6.78511     10.07173        -0.003498      0.000646     -0.008699
      5.87488      6.78511     10.07173         0.003498      0.000646     -0.008699
      8.81351      6.77002     10.05674         0.000000      0.063252      0.058455
      0.00000      0.00000     12.47665        -0.000000     -0.008811     -0.017350
      2.97645      0.06424     12.45579        -0.174178     -0.367133     -0.188978
      5.83706      0.06424     12.45579         0.174178     -0.367133     -0.188978
      1.54386      2.54556     12.45579        -0.820916      0.016702     -0.395665
      7.26966      2.54556     12.45579         0.820916      0.016702     -0.395665
      2.97417      5.02293     12.45579        -0.213831      0.364639     -0.170811
      5.83935      5.02293     12.45579         0.213831      0.364639     -0.170811
      8.81351      5.08848     12.49078         0.000000      0.001546     -0.020334
      4.40676      2.54424     12.15093        -0.000000     -0.074697      1.534695
      3.72019      2.54445     13.94207        -0.096047      0.006385     -0.052147
      5.09332      2.54445     13.94207         0.096047      0.006385     -0.052147
    total drift:                                0.001506     -0.011518      0.251366

  FREE ENERGIE OF THE ION-ELECTRON SYSTEM (eV)
  free  energy   TOTEN  =      -122.47709664 eV

  energy  without entropy=     -122.47709664  energy(sigma->0) =     -122.47709664

 stress matrix after NEB project (eV)
    -18.72927     -0.00000      0.00000
     -0.00000    -20.50754      0.00474
      0.00000      0.00474     -1.10035
  FORCES: max atom, RMS     0.109476    0.025116
  FORCE total and by dimension    0.154823    0.096047
  Stress total and by dimension   27.794888   20.507544
|           W    W    AA    RRRRR   N    N  II  N    N   GGGG   !!!           |
|           W    W   A  A   R    R  NN   N  II  NN   N  G    G  !!!           |
|           W    W  A    A  R    R  N N  N  II  N N  N  G       !!!           |
|           W WW W  AAAAAA  RRRRR   N  N N  II  N  N N  G  GGG   !            |
|           WW  WW  A    A  R   R   N   NN  II  N   NN  G    G                |
|           W    W  A    A  R    R  N    N  II  N    N   GGGG   !!!           |
|     Tetrahedron method does not include variations of the Fermi             |
|     occupations, so forces and stress will be inaccurate. We suggest        |
|     using a different smearing scheme ISMEAR = 1 or 2 for metals in         |
|     relaxations.                                                            |

 total charge

# of ion       s       p       d       tot
    1        0.544   0.239   8.768   9.552
    2        0.544   0.241   8.764   9.549
    3        0.544   0.241   8.764   9.549
    4        0.545   0.241   8.765   9.551
    5        0.543   0.242   8.762   9.547
    6        0.545   0.241   8.765   9.551
    7        0.544   0.241   8.765   9.549
    8        0.544   0.241   8.765   9.549
    9        0.542   0.240   8.767   9.549
   10        0.521   0.308   8.770   9.599
   11        0.522   0.307   8.778   9.608
   12        0.521   0.308   8.770   9.599
   13        0.520   0.308   8.777   9.606
   14        0.520   0.308   8.777   9.606
   15        0.515   0.310   8.774   9.599
   16        0.519   0.309   8.770   9.598
   17        0.515   0.310   8.776   9.601
   18        0.515   0.310   8.776   9.601
   19        0.513   0.302   8.778   9.593
   20        0.542   0.329   8.752   9.624
   21        0.542   0.329   8.752   9.624
   22        0.512   0.312   8.773   9.597
   23        0.537   0.332   8.758   9.627
   24        0.512   0.312   8.773   9.597
   25        0.516   0.303   8.775   9.593
   26        0.516   0.303   8.775   9.593
   27        0.511   0.311   8.774   9.596
   28        0.539   0.224   8.770   9.534
   29        0.541   0.231   8.773   9.545
   30        0.541   0.231   8.773   9.545
   31        0.531   0.233   8.785   9.549
   32        0.531   0.233   8.785   9.549
   33        0.539   0.230   8.777   9.547
   34        0.539   0.230   8.777   9.547
   35        0.538   0.222   8.772   9.532
   36        0.346   0.400   7.290   8.035
   37        1.610   3.265   0.000   4.875
   38        1.610   3.265   0.000   4.875
tot         22.129  16.540 314.266 352.935

 BZINTS: Fermi energy:    0.160482;  406.000000 electrons
         Band energy:-0.149203E+04;  BLOECHL correction:   -0.043142