 vasp.6.2.0 18Jan21 (build Jun 12 2021 23:27:24) complex

 executed on             LinuxIFC date 2022.05.28  02:14:41

 INCAR:
   ISMEAR = -5
   SIGMA = 0.1
   ISPIN = 1
   EDIFF = 1.d-5
   EDIFFG = -0.01
   NSW = 0
   NELM = 150
   ENCUT = 500
   ISIF = 2
   IBRION = 2
   LREAL = Auto
   ALGO = Fast
   ICHARG = 11
   LORBIT = 10
   LCHARG = .F.
   LWAVE = .F.

 POTCAR:    PAW_PBE Cu 22Jun2005
 POTCAR:    PAW_PBE Ti 08Apr2002
 POTCAR:    PAW_PBE O 08Apr2002
 POTCAR:    PAW_PBE H 15Jun2001
|           W    W    AA    RRRRR   N    N  II  N    N   GGGG   !!!           |
|           W    W   A  A   R    R  NN   N  II  NN   N  G    G  !!!           |
|           W    W  A    A  R    R  N N  N  II  N N  N  G       !!!           |
|           W WW W  AAAAAA  RRRRR   N  N N  II  N  N N  G  GGG   !            |
|           WW  WW  A    A  R   R   N   NN  II  N   NN  G    G                |
|           W    W  A    A  R    R  N    N  II  N    N   GGGG   !!!           |
|     For optimal performance we recommend to set                             |
|       NCORE = 2 up to number-of-cores-per-socket                            |
|     This setting can greatly improve the performance of VASP for DFT.       |
|     The default, NCORE=1 might be grossly inefficient on modern             |
|     multi-core architectures or massively parallel machines. Do your        |
|     Unfortunately you need to use the default for GW and RPA                |
|     calculations (for HF NCORE is supported but not extensively tested      |
|     yet).                                                                   |

 POTCAR:    PAW_PBE Cu 22Jun2005
   VRHFIN =Cu: d10 p1

   TITEL  = PAW_PBE Cu 22Jun2005
   POMASS =   63.546; ZVAL   =   11.000    mass and valenz
   ENMAX  =  295.446; ENMIN  =  221.585 eV

 POTCAR:    PAW_PBE Ti 08Apr2002
   VRHFIN =Ti: d3 s1

   TITEL  = PAW_PBE Ti 08Apr2002
   POMASS =   47.880; ZVAL   =    4.000    mass and valenz
   ENMAX  =  178.330; ENMIN  =  133.747 eV

 POTCAR:    PAW_PBE O 08Apr2002
   VRHFIN =O: s2p4

   TITEL  = PAW_PBE O 08Apr2002
   POMASS =   16.000; ZVAL   =    6.000    mass and valenz
   ENMAX  =  400.000; ENMIN  =  300.000 eV

 POTCAR:    PAW_PBE H 15Jun2001
   VRHFIN =H: ultrasoft test

   TITEL  = PAW_PBE H 15Jun2001
   POMASS =    1.000; ZVAL   =    1.000    mass and valenz
   ENMAX  =  250.000; ENMIN  =  200.000 eV

 Optimization of the real space projectors (new method)

 maximal supplied QI-value         = 16.25
 optimisation between [QCUT,QGAM] = [ 11.38, 22.75] = [ 36.24,144.96] Ry
 Optimized for a Real-space Cutoff    1.52 Angstroem

   l    n(q)    QCUT    max X(q) W(low)/X(q) W(high)/X(q)  e(spline)
   2      9    11.376     4.610    0.21E-03    0.10E-03    0.26E-06
   2      9    11.376     8.522    0.33E-03    0.16E-03    0.37E-06
   0     10    11.376    51.609    0.62E-04    0.20E-04    0.13E-06
   0     10    11.376    27.747    0.54E-04    0.20E-04    0.13E-06
   1     10    11.376    20.408    0.13E-04    0.99E-04    0.19E-06
   1     10    11.376    13.425    0.12E-04    0.87E-04    0.17E-06
 Optimization of the real space projectors (new method)

[...]

   l    n(q)    QCUT    max X(q) W(low)/X(q) W(high)/X(q)  e(spline)
   0      7    11.387    20.381    0.39E-03    0.13E-02    0.15E-06
   0      7    11.387    15.268    0.42E-03    0.14E-02    0.17E-06
   1      6    11.387     5.964    0.41E-03    0.11E-02    0.17E-06
   1      6    11.387     5.382    0.39E-03    0.87E-03    0.15E-06
 Optimization of the real space projectors (new method)

 maximal supplied QI-value         = 34.20
 optimisation between [QCUT,QGAM] = [ 11.29, 22.57] = [ 35.68,142.71] Ry
 Optimized for a Real-space Cutoff    1.16 Angstroem

   l    n(q)    QCUT    max X(q) W(low)/X(q) W(high)/X(q)  e(spline)
   0      8    11.287    19.460    0.40E-03    0.73E-03    0.16E-06
   0      8    11.287    12.209    0.38E-03    0.70E-03    0.15E-06
   1      7    11.287     4.655    0.22E-03    0.25E-04    0.22E-06
  PAW_PBE Cu 22Jun2005                  :
  PAW_PBE Ti 08Apr2002                  :
  PAW_PBE O 08Apr2002                   :
  PAW_PBE H 15Jun2001                   :

 POSCAR: Cu-Ti-OOH
  positions in direct lattice
  velocities in cartesian coordinates
 exchange correlation table for  LEXCH =        8
   RHO(1)=    0.500       N(1)  =     2000
   RHO(2)=  100.500       N(2)  =     4000

 VTST: version 3.2, (02/03/18)

 CHAIN: initializing optimizer

 OPT: Using VASP Conjugate-Gradient optimizer
 CHAIN: Read ICHAIN            0

 POSCAR: Cu-Ti-OOH
  positions in direct lattice
  velocities in cartesian coordinates

 ion  position               nearest neighbor table
   1  0.000  0.000  0.212-   7 2.57   3 2.57   4 2.57   2 2.57   6 2.57   8 2.57  12 2.57  10 2.57
                            16 2.57
   2  0.333  0.000  0.212-   8 2.57   9 2.57   5 2.57   1 2.57   3 2.57  11 2.57   4 2.57  10 2.57
                            17 2.57
   3  0.667  0.000  0.212-   1 2.57   7 2.57   6 2.57   9 2.57   2 2.57  12 2.57   5 2.57  18 2.57
                            11 2.57
   4  0.000  0.333  0.212-   5 2.57   6 2.57   1 2.57   7 2.57   2 2.57  13 2.57   9 2.57  10 2.57
                            15 2.57
   5  0.333  0.333  0.212-   4 2.57   2 2.57   7 2.57  13 2.57   8 2.57   6 2.57   3 2.57  11 2.57
                            14 2.57
   6  0.667  0.333  0.212-   4 2.57   9 2.57  15 2.57   3 2.57   1 2.57   8 2.57  14 2.57   5 2.57
                            12 2.57
   7  0.000  0.667  0.212-   1 2.57   3 2.57  16 2.57  18 2.57   4 2.57   5 2.57   8 2.57   9 2.57
                            13 2.57
   8  0.333  0.667  0.212-   9 2.57   2 2.57  17 2.57   6 2.57   1 2.57   7 2.57   5 2.57  14 2.57
                            16 2.57
   9  0.667  0.667  0.212-   8 2.57   6 2.57   2 2.57  17 2.57   3 2.57   7 2.57   4 2.57  15 2.57
                            18 2.57
  10  0.111  0.111  0.294-  26 2.55  19 2.55  11 2.57  12 2.57  13 2.57   1 2.57   2 2.57   4 2.57
                            15 2.57  16 2.57  17 2.57  20 2.57
  11  0.444  0.111  0.294-  27 2.56  20 2.56  21 2.56  10 2.57  13 2.57   2 2.57  17 2.57  14 2.57
                            12 2.57   5 2.57   3 2.57  18 2.57
  12  0.778  0.111  0.294-  19 2.55  25 2.55  15 2.57  10 2.57  14 2.57  18 2.57   3 2.57   1 2.57
                            16 2.57  11 2.57   6 2.57  21 2.57
  13  0.111  0.444  0.294-  22 2.56  23 2.56  20 2.56  16 2.57  18 2.57  10 2.57  11 2.57  14 2.57
                             5 2.57   4 2.57   7 2.57  15 2.57
  14  0.444  0.444  0.294-  24 2.56  21 2.56  23 2.56  15 2.57  17 2.57  12 2.57  16 2.57  13 2.57
                            11 2.57   6 2.57   8 2.57   5 2.57
  15  0.778  0.444  0.294-  19 2.55  24 2.56  22 2.56  14 2.57  17 2.57  12 2.57   6 2.57  18 2.57
                            10 2.57   9 2.57  13 2.57   4 2.57
  16  0.111  0.778  0.294-  25 2.55  26 2.55  18 2.57  13 2.57   7 2.57  14 2.57  17 2.57  12 2.57
                            10 2.57   8 2.57   1 2.57  23 2.57
  17  0.444  0.778  0.294-  26 2.55  27 2.56  24 2.56  14 2.57  15 2.57   8 2.57   9 2.57  11 2.57
                            16 2.57  18 2.57  10 2.57   2 2.57
  18  0.778  0.778  0.294-  25 2.55  22 2.56  27 2.56  16 2.57  13 2.57   7 2.57  15 2.57  12 2.57
                            17 2.57   9 2.57   3 2.57  11 2.57
  19  0.889  0.222  0.376-  12 2.55  10 2.55  15 2.55  25 2.56  26 2.56  28 2.56  22 2.57  24 2.57
                            21 2.57  20 2.57  32 2.57  31 2.57
  20  0.223  0.223  0.377-  23 2.55  21 2.55  11 2.56  13 2.56  27 2.57  22 2.57  29 2.57  31 2.57
                            10 2.57  26 2.57  19 2.57  36 2.66
  21  0.555  0.223  0.377-  20 2.55  23 2.55  14 2.56  11 2.56  24 2.57  27 2.57  32 2.57  30 2.57
                            12 2.57  19 2.57  25 2.57  36 2.66
  22  0.889  0.556  0.377-  18 2.56  15 2.56  13 2.56  31 2.56  33 2.56  24 2.56  27 2.56  23 2.57
                            20 2.57  19 2.57  25 2.57  35 2.57
  23  0.223  0.555  0.377-  20 2.55  21 2.55  13 2.56  14 2.56  22 2.57  24 2.57  33 2.57  34 2.57
                            16 2.57  25 2.57  26 2.57  36 2.66
  24  0.556  0.556  0.377-  15 2.56  17 2.56  14 2.56  32 2.56  34 2.56  22 2.56  27 2.56  21 2.57
                            23 2.57  19 2.57  26 2.57  35 2.57
  25  0.889  0.889  0.376-  12 2.55  16 2.55  18 2.55  19 2.56  26 2.56  28 2.56  22 2.57  27 2.57
                            21 2.57  23 2.57  33 2.57  30 2.57
  26  0.222  0.889  0.376-  10 2.55  16 2.55  17 2.55  25 2.56  19 2.56  28 2.56  27 2.57  24 2.57
                            20 2.57  23 2.57  29 2.57  34 2.57
  27  0.556  0.889  0.377-  17 2.56  18 2.56  11 2.56  29 2.56  30 2.56  24 2.56  22 2.56  20 2.57
                            21 2.57  26 2.57  25 2.57  35 2.57
  28  0.000  0.000  0.458-  33 2.56  30 2.56  31 2.56  29 2.56  32 2.56  34 2.56  25 2.56  19 2.56
                            26 2.56
  29  0.334  0.998  0.459-  34 2.53  35 2.55  28 2.56  27 2.56  20 2.57  26 2.57  30 2.58  36 2.59
                            31 2.59
  30  0.669  0.998  0.459-  33 2.53  35 2.55  28 2.56  27 2.56  21 2.57  25 2.57  29 2.58  36 2.59
                            32 2.59
  31  0.998  0.334  0.459-  32 2.53  35 2.55  28 2.56  22 2.56  20 2.57  19 2.57  33 2.58  36 2.59
                            29 2.59
  32  0.669  0.334  0.459-  31 2.53  35 2.55  28 2.56  24 2.56  21 2.57  19 2.57  34 2.58  36 2.59
                            30 2.59
  33  0.998  0.669  0.459-  30 2.53  35 2.55  28 2.56  22 2.56  23 2.57  25 2.57  31 2.58  36 2.59
                            34 2.59
  34  0.334  0.669  0.459-  29 2.53  35 2.55  28 2.56  24 2.56  23 2.57  26 2.57  32 2.58  36 2.59
                            33 2.59
  35  0.667  0.667  0.459-  34 2.55  32 2.55  29 2.55  30 2.55  33 2.55  31 2.55  24 2.57  27 2.57
                            22 2.57
  36  0.333  0.333  0.464-  37 1.81  31 2.59  29 2.59  33 2.59  32 2.59  34 2.59  30 2.59  23 2.66
                            20 2.66  21 2.66
  37  0.333  0.333  0.535-  38 1.41  36 1.81
  38  0.303  0.333  0.590-  39 0.98  37 1.41
  39  0.423  0.333  0.604-  38 0.98

  LATTYP: Found a hexagonal cell.
 ALAT       =     7.6967864036
 C/A-ratio  =     3.2973366172

  Lattice vectors:

 A1 = (  -3.8483927580,  -6.6656128093,   0.0000000000)
 A2 = (   7.6967864037,   0.0000000000,   0.0000000000)
 A3 = (   0.0000000000,   0.0000000000,  25.3788956434)

Analysis of symmetry for initial positions (statically):
 Subroutine PRICEL returns:
 Original cell was already a primitive cell.

 Routine SETGRP: Setting up the symmetry group for a
 hexagonal supercell.

 Subroutine GETGRP returns: Found  1 space group operations
 (whereof  1 operations were pure point group operations)
 out of a pool of 24 trial point group operations.

The static configuration has the point symmetry C_1 .

Analysis of symmetry for dynamics (positions and initial velocities):
 Subroutine PRICEL returns:
 Original cell was already a primitive cell.

[...]

The dynamic configuration has the point symmetry C_1 .

Analysis of constrained symmetry for selective dynamics:
 Subroutine PRICEL returns:
[...]
     41      -4.3898      2.00000
     42      -4.2596      2.00000
     43      -4.2582      2.00000
     44      -4.2411      2.00000
     45      -4.1816      2.00000
     46      -4.1786      2.00000
     47      -4.1633      2.00000
     48      -4.1371      2.00000
     49      -4.1303      2.00000
     50      -4.1267      2.00000
     51      -4.0664      2.00000
     52      -3.9497      2.00000
     53      -3.9378      2.00000
     54      -3.9252      2.00000
     55      -3.9015      2.00000
     56      -3.8629      2.00000
     57      -3.8533      2.00000
     58      -3.8368      2.00000
     59      -3.8310      2.00000
     60      -3.8174      2.00000
[...]
    238       5.1688      0.00000
    239       5.2060      0.00000
    240       5.3213      0.00000
    241       5.3889      0.00000
    242       5.4750      0.00000
    243       5.5357      0.00000
    244       5.6222      0.00000
    245       5.7235      0.00000
    246       5.7681      0.00000
    247       5.8458      0.00000
    248       5.8912      0.00000
    249       5.9212      0.00000
    250       6.1277      0.00000
    251       6.6679      0.00000
    252       6.7968      0.00000

 soft charge-density along one line, spin component           1
         0         1         2         3         4         5         6         7         8         9
 total charge-density along one line

------------------------ aborting loop because EDIFF is reached ----------------------------------------

 total charge

# of ion       s       p       d       tot
    1        0.449   0.283   9.186   9.919
    2        0.448   0.285   9.185   9.919
    3        0.448   0.285   9.185   9.919
    4        0.448   0.285   9.185   9.919
    5        0.448   0.286   9.183   9.917
    6        0.448   0.285   9.185   9.919
    7        0.448   0.285   9.185   9.919
    8        0.448   0.285   9.185   9.919
    9        0.448   0.284   9.188   9.920
   10        0.443   0.371   9.178   9.991
   11        0.441   0.366   9.182   9.990
   12        0.442   0.371   9.178   9.991
   13        0.441   0.366   9.182   9.990
   14        0.441   0.366   9.182   9.990
   15        0.439   0.372   9.177   9.988
   16        0.442   0.371   9.178   9.991
   17        0.439   0.372   9.177   9.988
   18        0.439   0.372   9.177   9.988
   19        0.444   0.370   9.182   9.995
   20        0.456   0.385   9.163  10.004
   21        0.456   0.385   9.164  10.005
   22        0.435   0.375   9.179   9.988
   23        0.456   0.385   9.163  10.004
   24        0.435   0.375   9.178   9.988
   25        0.444   0.370   9.182   9.995
   26        0.444   0.370   9.181   9.995
   27        0.435   0.375   9.178   9.988
   28        0.448   0.294   9.180   9.923
   29        0.473   0.304   9.172   9.948
   30        0.473   0.304   9.172   9.949
   31        0.473   0.304   9.171   9.948
   32        0.474   0.306   9.171   9.951
   33        0.473   0.304   9.172   9.948
   34        0.473   0.304   9.171   9.949
   35        0.449   0.298   9.177   9.924
   36        0.542   0.722   2.587   3.851
   37        1.576   3.358   0.000   4.934
   38        1.588   3.399   0.000   4.987
   39        0.614   0.113   0.000   0.727
tot         20.065  19.288 323.823 363.176

  FORCE on cell =-STRESS in cart. coord.  units (eV):
  Direction    XX          YY          ZZ          XY          YZ          ZX
  Alpha Z   760.69686   760.69686   760.69686
  Ewald  249915.48412249823.93298************    -0.01707    -0.07304    -8.83684
  Hartree262738.30888262718.10152************    -0.10372    -0.10603   -12.78450
  E(xc)   -2324.59128 -2325.05017 -2328.99838     0.00391    -0.00346     0.05084
  Local  ************************525016.85909     0.19255     0.18158    23.80846
  n-local  -805.90311  -806.11461  -811.51537     0.00080    -0.00608    -1.04548
  augment  3326.45056  3328.29293  3343.86547    -0.03704     0.00453     0.14837
  Kinetic  3428.13447  3451.99094  3415.64022    -0.05973     0.01015    -1.40779
  Fock        0.00000     0.00000     0.00000     0.00000     0.00000     0.00000
  Total      -5.49431    -5.50130    -0.16224    -0.02031     0.00765    -0.06694
  in kB      -6.76086    -6.76945    -0.19964    -0.02500     0.00941    -0.08237

 VOLUME and BASIS-vectors are now :
  energy-cutoff  :      500.00
  volume of cell :     1302.03
      direct lattice vectors                 reciprocal lattice vectors
     7.696786404  0.000000000  0.000000000     0.129924354 -0.075011849  0.000000000
     3.848392758  6.665612809  0.000000000     0.000000000  0.150023716  0.000000000
     0.000000000  0.000000000 25.378895643     0.000000000  0.000000000  0.039402818

  length of vectors
     7.696786404  7.696786404 25.378895643     0.150023716  0.150023716  0.039402818

 FORCES acting on ions
    electron-ion (+dipol)            ewald-force                    non-local-force                 convergence-correction
   0.977E-02 -.458E-02 0.386E+04   -.302E-02 -.848E-03 -.385E+04   -.119E-01 0.262E-02 -.225E+01   0.636E-02 0.329E-02 -.497E+00
   -.930E+00 -.104E+01 0.385E+04   0.903E+00 0.102E+01 -.385E+04   0.263E-01 0.555E-01 -.189E+01   -.310E-03 -.237E-01 -.437E+00
   0.922E+00 -.107E+01 0.385E+04   -.900E+00 0.102E+01 -.385E+04   -.164E-01 0.663E-01 -.190E+01   -.548E-02 -.871E-02 -.434E+00
   -.137E+01 -.280E+00 0.385E+04   0.133E+01 0.271E+00 -.385E+04   0.698E-01 -.299E-02 -.186E+01   -.219E-01 0.646E-02 -.431E+00
   -.238E-01 -.449E-02 0.385E+04   0.633E-02 -.540E-04 -.385E+04   -.917E-02 -.549E-02 -.184E+01   0.267E-01 0.103E-01 -.420E+00
   0.139E+01 -.285E+00 0.385E+04   -.134E+01 0.271E+00 -.385E+04   -.687E-01 -.886E-02 -.189E+01   0.912E-02 0.186E-01 -.434E+00
   -.447E+00 0.133E+01 0.385E+04   0.433E+00 -.129E+01 -.385E+04   0.342E-01 -.550E-01 -.188E+01   -.115E-01 0.553E-02 -.424E+00
   0.419E+00 0.134E+01 0.385E+04   -.430E+00 -.129E+01 -.385E+04   -.241E-01 -.552E-01 -.189E+01   0.267E-01 0.694E-03 -.432E+00
   0.261E-01 0.446E-02 0.385E+04   -.281E-02 0.907E-03 -.385E+04   0.404E-02 0.340E-02 -.209E+01   -.269E-01 -.981E-02 -.407E+00
   -.904E+01 -.519E+01 0.132E+04   0.935E+01 0.539E+01 -.132E+04   -.300E+00 -.185E+00 -.845E+00   0.165E-01 0.555E-02 -.713E+00
   -.376E-01 -.960E+01 0.130E+04   0.346E-01 0.934E+01 -.130E+04   -.106E-01 0.235E+00 -.502E+00   0.145E-01 -.121E-01 -.690E+00
   0.908E+01 -.524E+01 0.132E+04   -.938E+01 0.541E+01 -.132E+04   0.299E+00 -.175E+00 -.793E+00   -.172E-01 0.135E-01 -.715E+00
   -.835E+01 0.478E+01 0.130E+04   0.812E+01 -.466E+01 -.130E+04   0.206E+00 -.128E+00 -.482E+00   -.450E-02 0.243E-01 -.686E+00
   0.828E+01 0.479E+01 0.130E+04   -.808E+01 -.468E+01 -.130E+04   -.207E+00 -.119E+00 -.493E+00   0.354E-01 0.256E-01 -.692E+00
   0.550E-01 -.104E+01 0.132E+04   -.412E-01 0.100E+01 -.132E+04   -.668E-02 0.497E-01 -.807E+00   -.620E-02 -.368E-02 -.692E+00
   -.203E-01 0.105E+02 0.132E+04   0.808E-02 -.108E+02 -.132E+04   0.558E-02 0.353E+00 -.835E+00   0.633E-02 -.243E-01 -.714E+00
   -.882E+00 0.542E+00 0.132E+04   0.861E+00 -.518E+00 -.132E+04   0.373E-01 -.211E-01 -.811E+00   -.946E-02 -.620E-02 -.697E+00
   0.906E+00 0.494E+00 0.132E+04   -.869E+00 -.475E+00 -.132E+04   -.477E-01 -.203E-01 -.825E+00   0.440E-02 -.345E-02 -.688E+00
   0.263E+00 -.877E+01 -.120E+04   -.284E+00 0.865E+01 0.120E+04   0.206E-01 0.586E-01 0.109E+01   0.196E-02 0.541E-01 -.443E+00
   -.634E+02 -.364E+02 -.131E+04   0.642E+02 0.369E+02 0.131E+04   -.911E+00 -.543E+00 -.313E+00   -.327E-01 -.145E-01 -.436E+00
   0.632E+02 -.366E+02 -.131E+04   -.639E+02 0.370E+02 0.131E+04   0.853E+00 -.508E+00 -.221E+00   0.430E-02 -.127E-01 -.435E+00
   -.280E+02 0.161E+02 -.123E+04   0.278E+02 -.160E+02 0.123E+04   0.254E+00 -.134E+00 0.814E+00   -.351E-01 0.206E-01 -.428E+00
   -.266E+00 0.730E+02 -.131E+04   0.256E+00 -.739E+02 0.131E+04   -.101E-01 0.103E+01 -.243E+00   0.179E-01 0.164E-01 -.435E+00
   0.282E+02 0.163E+02 -.123E+04   -.281E+02 -.162E+02 0.123E+04   -.246E+00 -.131E+00 0.836E+00   0.312E-01 0.207E-01 -.422E+00
   0.766E+01 0.429E+01 -.120E+04   -.755E+01 -.421E+01 0.120E+04   -.553E-01 -.483E-01 0.111E+01   -.434E-01 -.293E-01 -.437E+00
   -.759E+01 0.457E+01 -.120E+04   0.749E+01 -.450E+01 0.120E+04   0.520E-01 -.248E-01 0.111E+01   0.413E-01 -.307E-01 -.435E+00
   -.639E-01 -.324E+02 -.123E+04   0.591E-01 0.323E+02 0.123E+04   0.250E-02 0.281E+00 0.840E+00   0.137E-02 -.465E-01 -.421E+00
   0.797E+00 0.293E+00 -.369E+04   -.819E+00 -.276E+00 0.369E+04   0.184E-01 -.638E-02 0.165E+01   0.286E-02 -.796E-02 0.214E+00
   -.359E+02 -.705E+02 -.366E+04   0.362E+02 0.707E+02 0.366E+04   -.317E+00 -.234E+00 0.193E+01   -.702E-01 -.954E-01 0.833E-01
   0.352E+02 -.726E+02 -.366E+04   -.355E+02 0.728E+02 0.366E+04   0.316E+00 -.220E+00 0.190E+01   0.683E-01 -.876E-01 0.817E-01
   -.784E+02 0.520E+01 -.366E+04   0.787E+02 -.501E+01 0.365E+04   -.353E+00 -.164E+00 0.188E+01   -.123E+00 -.212E-01 0.709E-01
   0.813E+02 0.520E+01 -.366E+04   -.816E+02 -.502E+01 0.366E+04   0.329E+00 -.167E+00 0.178E+01   0.109E+00 -.929E-02 0.761E-01
   -.449E+02 0.653E+02 -.366E+04   0.449E+02 -.656E+02 0.366E+04   -.397E-01 0.401E+00 0.192E+01   -.344E-01 0.117E+00 0.745E-01
   0.442E+02 0.674E+02 -.366E+04   -.442E+02 -.678E+02 0.366E+04   0.319E-01 0.382E+00 0.189E+01   0.438E-01 0.104E+00 0.803E-01
   0.837E+00 -.293E+00 -.371E+04   -.831E+00 0.290E+00 0.370E+04   0.169E-01 0.490E-02 0.177E+01   -.238E-01 -.643E-02 0.124E+00
   -.160E+01 0.197E-01 -.126E+04   0.136E+01 -.158E-01 0.126E+04   0.227E+00 0.562E-02 0.199E+01   0.310E-02 0.553E-03 -.213E-02
   -.279E+02 -.220E-01 -.211E+04   0.329E+02 0.321E-01 0.208E+04   -.498E+01 -.196E-01 0.224E+02   0.562E-02 0.369E-02 0.209E+00
   0.774E+02 0.898E-01 -.219E+04   -.122E+03 -.144E+00 0.221E+04   0.442E+02 0.490E-01 -.223E+02   -.262E-02 0.382E-02 0.152E+00
   -.828E+02 -.838E-01 -.366E+03   0.905E+02 0.926E-01 0.369E+03   -.764E+01 -.806E-02 -.303E+01   0.313E-02 0.198E-03 0.224E-01
   -.318E+02 -.185E-02 0.179E+02   0.853E-13 0.342E-12 -.126E-10   0.318E+02 -.456E-02 -.504E+01   0.122E-01 0.160E-02 -.129E+02

 POSITION                                       TOTAL-FORCE (eV/Angst)
      0.00000      0.00000      5.37156         0.000399      0.000601      0.007177
      2.56560      0.00000      5.37156        -0.001174      0.010272      0.058456
      5.13119      0.00000      5.37156        -0.001388      0.009197      0.061216
      1.28280      2.22187      5.37156         0.006246     -0.005147      0.060392
      3.84839      2.22187      5.37156        -0.000706      0.000430      0.062108
      6.41399      2.22187      5.37156        -0.007359     -0.003946      0.062501
      2.56560      4.44374      5.37156         0.007739     -0.004631      0.059988
      5.13119      4.44374      5.37156        -0.009376     -0.004641      0.060201
      7.69679      4.44374      5.37156        -0.000359     -0.000917      0.029652
      1.28280      0.74062      7.46636         0.020385      0.011763     -0.096181
      3.84839      0.74062      7.46636         0.000096     -0.029318     -0.057315
      6.41399      0.74062      7.46636        -0.021430      0.011307     -0.093018
      2.56560      2.96249      7.46636        -0.026581      0.015979     -0.057089
      5.13119      2.96249      7.46636         0.026021      0.015340     -0.056651
      7.69679      2.96249      7.46636         0.000166      0.008126     -0.016394
      3.84839      5.18437      7.46636        -0.001120     -0.023747     -0.095517
      6.41399      5.18437      7.46636         0.006149     -0.003215     -0.016599
      8.97958      5.18437      7.46636        -0.007202     -0.004124     -0.017387
      7.69679      1.47704      9.53921         0.001185     -0.013774      0.024783
      2.57092      1.48432      9.56248        -0.075879     -0.041798     -0.116809
      5.12587      1.48432      9.56248         0.083893     -0.052541     -0.140808
      8.97870      3.70363      9.55579         0.033601     -0.020502      0.026734
      3.84839      3.69697      9.56248        -0.003200      0.089203     -0.126587
      6.41487      3.70363      9.55579        -0.037084     -0.020638      0.025567
     10.26602      5.92709      9.53921         0.011388      0.006080      0.030597
      5.12755      5.92709      9.53921        -0.012634      0.007964      0.030183
      7.69679      5.92397      9.55579        -0.001669      0.039699      0.029891
      0.00000      0.00000     11.63511        -0.001233      0.003285     -0.043493
      6.40848      6.64966     11.64831        -0.077995     -0.138097     -0.143559
      8.98509      6.64966     11.64831         0.081501     -0.142282     -0.152030
      8.96302      2.22507     11.64831        -0.159723      0.002738     -0.146469
      6.43055      2.22507     11.64831         0.171225      0.002052     -0.170515
     10.25132      4.45649     11.64831        -0.081877      0.136566     -0.139838
      5.14225      4.45649     11.64831         0.083580      0.139206     -0.151444
      7.69679      4.44374     11.65790        -0.001959     -0.004686     -0.030899
      3.84839      2.22187     11.77538        -0.009199      0.010183      1.237732
      3.84643      2.22215     13.58449        -0.002791     -0.005780      0.009608
      3.61509      2.22187     14.97692         0.004241     -0.001305     -0.005661
      4.53570      2.22287     15.32134         0.004122      0.001099     -0.002524
    total drift:                                0.030181     -0.004802     -0.095810

  FREE ENERGIE OF THE ION-ELECTRON SYSTEM (eV)
  free  energy   TOTEN  =      -145.54284109 eV

  energy  without entropy=     -145.54284109  energy(sigma->0) =     -145.54284109

 stress matrix after NEB project (eV)
     -5.49431     -0.02031     -0.06694
     -0.02031     -5.50130      0.00765
     -0.06694      0.00765     -0.16224
  FORCES: max atom, RMS     0.011555    0.002319
  FORCE total and by dimension    0.014485    0.009608
  Stress total and by dimension    7.777402    5.501296
|           W    W    AA    RRRRR   N    N  II  N    N   GGGG   !!!           |
|           W    W   A  A   R    R  NN   N  II  NN   N  G    G  !!!           |
|           W    W  A    A  R    R  N N  N  II  N N  N  G       !!!           |
|           W WW W  AAAAAA  RRRRR   N  N N  II  N  N N  G  GGG   !            |
|           WW  WW  A    A  R   R   N   NN  II  N   NN  G    G                |
|           W    W  A    A  R    R  N    N  II  N    N   GGGG   !!!           |
|     Tetrahedron method does not include variations of the Fermi             |
|     occupations, so forces and stress will be inaccurate. We suggest        |
|     using a different smearing scheme ISMEAR = 1 or 2 for metals in         |
|     relaxations.                                                            |

 total charge

# of ion       s       p       d       tot
    1        0.449   0.283   9.186   9.919
    2        0.448   0.285   9.185   9.919
    3        0.448   0.285   9.185   9.919
    4        0.448   0.285   9.185   9.919
    5        0.448   0.286   9.183   9.917
    6        0.448   0.285   9.185   9.919
    7        0.448   0.285   9.185   9.919
    8        0.448   0.285   9.185   9.919
    9        0.448   0.284   9.188   9.920
   10        0.443   0.371   9.178   9.991
   11        0.441   0.366   9.182   9.990
   12        0.442   0.371   9.178   9.991
   13        0.441   0.366   9.182   9.990
   14        0.441   0.366   9.182   9.990
   15        0.439   0.372   9.177   9.988
   16        0.442   0.371   9.178   9.991
   17        0.439   0.372   9.177   9.988
   18        0.439   0.372   9.177   9.988
   19        0.444   0.370   9.182   9.995
   20        0.456   0.385   9.163  10.004
   21        0.456   0.385   9.164  10.005
   22        0.435   0.375   9.179   9.988
   23        0.456   0.385   9.163  10.004
   24        0.435   0.375   9.178   9.988
   25        0.444   0.370   9.182   9.995
   26        0.444   0.370   9.181   9.995
   27        0.435   0.375   9.178   9.988
   28        0.448   0.294   9.180   9.923
   29        0.473   0.304   9.172   9.948
   30        0.473   0.304   9.172   9.949
   31        0.473   0.304   9.171   9.948
   32        0.474   0.306   9.171   9.951
   33        0.473   0.304   9.172   9.948
   34        0.473   0.304   9.171   9.949
   35        0.449   0.298   9.177   9.924
   36        0.542   0.722   2.587   3.851
   37        1.576   3.358   0.000   4.934
   38        1.588   3.399   0.000   4.987
   39        0.614   0.113   0.000   0.727
tot         20.065  19.288 323.823 363.176

 BZINTS: Fermi energy:   -0.426463;  402.000000 electrons
         Band energy:-0.142745E+04;  BLOECHL correction:   -0.056925