 vasp.6.2.0 18Jan21 (build Jun 12 2021 23:27:24) complex

 executed on             LinuxIFC date 2022.05.28  00:37:34

 INCAR:
   ISMEAR = -5
   SIGMA = 0.1
   ISPIN = 1
   EDIFF = 1.d-5
   EDIFFG = -0.01
   NSW = 0
   NELM = 150
   ENCUT = 500
   ISIF = 2
   IBRION = 2
   LREAL = Auto
   ALGO = Fast
   ICHARG = 11
   LORBIT = 10
   LCHARG = .F.
   LWAVE = .F.

 POTCAR:    PAW_PBE Au 04Oct2007
 POTCAR:    PAW_PBE Cr 06Sep2000
 POTCAR:    PAW_PBE C 08Apr2002
 POTCAR:    PAW_PBE O 08Apr2002
|           W    W    AA    RRRRR   N    N  II  N    N   GGGG   !!!           |
|           W    W   A  A   R    R  NN   N  II  NN   N  G    G  !!!           |
|           W    W  A    A  R    R  N N  N  II  N N  N  G       !!!           |
|           W WW W  AAAAAA  RRRRR   N  N N  II  N  N N  G  GGG   !            |
|           WW  WW  A    A  R   R   N   NN  II  N   NN  G    G                |
|           W    W  A    A  R    R  N    N  II  N    N   GGGG   !!!           |
|     For optimal performance we recommend to set                             |
|       NCORE = 2 up to number-of-cores-per-socket                            |
|     This setting can greatly improve the performance of VASP for DFT.       |
|     The default, NCORE=1 might be grossly inefficient on modern             |
|     multi-core architectures or massively parallel machines. Do your        |
|     Unfortunately you need to use the default for GW and RPA                |
|     calculations (for HF NCORE is supported but not extensively tested      |
|     yet).                                                                   |

 POTCAR:    PAW_PBE Au 04Oct2007
   VRHFIN =Au: s1d10

   TITEL  = PAW_PBE Au 04Oct2007
   POMASS =  196.966; ZVAL   =   11.000    mass and valenz
   ENMAX  =  229.943; ENMIN  =  172.457 eV

 POTCAR:    PAW_PBE Cr 06Sep2000
   VRHFIN =Cr : d5 s1

   TITEL  = PAW_PBE Cr 06Sep2000
   POMASS =   51.996; ZVAL   =    6.000    mass and valenz
   ENMAX  =  227.080; ENMIN  =  170.310 eV

 POTCAR:    PAW_PBE C 08Apr2002
   VRHFIN =C: s2p2

   TITEL  = PAW_PBE C 08Apr2002
   POMASS =   12.011; ZVAL   =    4.000    mass and valenz
   ENMAX  =  400.000; ENMIN  =  300.000 eV

 POTCAR:    PAW_PBE O 08Apr2002
   VRHFIN =O: s2p4

   TITEL  = PAW_PBE O 08Apr2002
   POMASS =   16.000; ZVAL   =    6.000    mass and valenz
   ENMAX  =  400.000; ENMIN  =  300.000 eV

 Optimization of the real space projectors (new method)

 maximal supplied QI-value         = 15.12
 optimisation between [QCUT,QGAM] = [ 11.34, 22.83] = [ 36.00,145.93] Ry
 Optimized for a Real-space Cutoff    1.39 Angstroem

   l    n(q)    QCUT    max X(q) W(low)/X(q) W(high)/X(q)  e(spline)
   2      9    11.338    60.898    0.39E-03    0.42E-03    0.21E-06
   2      9    11.338    58.894    0.40E-03    0.42E-03    0.22E-06
   0      9    11.338   109.617    0.13E-03    0.20E-04    0.13E-06
   0      9    11.338    75.026    0.13E-03    0.20E-04    0.13E-06
   1      9    11.338    16.344    0.33E-04    0.24E-03    0.18E-06
   1      9    11.338    10.160    0.26E-04    0.19E-03    0.15E-06
 Optimization of the real space projectors (new method)

[...]

   l    n(q)    QCUT    max X(q) W(low)/X(q) W(high)/X(q)  e(spline)
   0      7    11.310   115.676    0.43E-03    0.13E-02    0.19E-06
   0      7    11.310    87.132    0.43E-03    0.13E-02    0.18E-06
   1      6    11.310     4.429    0.42E-03    0.74E-03    0.11E-06
   1      6    11.310     2.733    0.34E-03    0.55E-03    0.92E-07
 Optimization of the real space projectors (new method)

 maximal supplied QI-value         = 24.76
 optimisation between [QCUT,QGAM] = [ 11.39, 22.77] = [ 36.31,145.25] Ry
 Optimized for a Real-space Cutoff    1.00 Angstroem

   l    n(q)    QCUT    max X(q) W(low)/X(q) W(high)/X(q)  e(spline)
   0      7    11.387    20.381    0.39E-03    0.13E-02    0.15E-06
   0      7    11.387    15.268    0.42E-03    0.14E-02    0.17E-06
   1      6    11.387     5.964    0.41E-03    0.11E-02    0.17E-06
   1      6    11.387     5.382    0.39E-03    0.87E-03    0.15E-06
  PAW_PBE Au 04Oct2007                  :
  PAW_PBE Cr 06Sep2000                  :
  PAW_PBE C 08Apr2002                   :
  PAW_PBE O 08Apr2002                   :

 POSCAR: Au-Cr-CO2
  positions in direct lattice
  velocities in cartesian coordinates
 exchange correlation table for  LEXCH =        8
   RHO(1)=    0.500       N(1)  =     2000
   RHO(2)=  100.500       N(2)  =     4000

 VTST: version 3.2, (02/03/18)

 CHAIN: initializing optimizer

 OPT: Using VASP Conjugate-Gradient optimizer
 CHAIN: Read ICHAIN            0

 POSCAR: Au-Cr-CO2
  positions in direct lattice
  velocities in cartesian coordinates

 ion  position               nearest neighbor table
   1  0.000  0.000  0.217-  16 2.94  12 2.94   6 2.94   8 2.94   7 2.94   3 2.94  10 2.94   4 2.94
                             2 2.94
   2  0.333  0.000  0.217-   9 2.94  11 2.94  17 2.94  10 2.94   8 2.94   4 2.94   5 2.94   1 2.94
                             3 2.94
   3  0.667  0.000  0.217-   7 2.94  18 2.94  12 2.94   1 2.94  11 2.94   5 2.94   6 2.94   9 2.94
                             2 2.94
   4  0.000  0.333  0.217-  10 2.94   6 2.94   5 2.94  13 2.94   2 2.94  15 2.94   9 2.94   1 2.94
                             7 2.94
   5  0.333  0.333  0.217-  13 2.94   7 2.94  11 2.94   4 2.94   2 2.94  14 2.94   3 2.94   8 2.94
                             6 2.94
   6  0.667  0.333  0.217-  15 2.94  14 2.94   1 2.94  12 2.94   4 2.94   9 2.94   8 2.94   3 2.94
                             5 2.94
   7  0.000  0.667  0.217-  18 2.94   3 2.94  16 2.94   5 2.94   1 2.94  13 2.94   8 2.94   4 2.94
                             9 2.94
   8  0.333  0.667  0.217-   9 2.94  17 2.94   1 2.94   2 2.94  14 2.94  16 2.94   6 2.94   7 2.94
                             5 2.94
   9  0.667  0.667  0.217-   2 2.94   8 2.94  17 2.94   6 2.94  15 2.94   4 2.94   3 2.94  18 2.94
                             7 2.94
  10  0.111  0.111  0.315-  20 2.92  26 2.94  19 2.94  11 2.94  17 2.94   2 2.94   4 2.94   1 2.94
                            12 2.94  16 2.94  13 2.94  15 2.94
  11  0.444  0.111  0.315-  20 2.91  21 2.91  27 2.93  13 2.94   2 2.94  10 2.94  17 2.94   5 2.94
                             3 2.94  18 2.94  14 2.94  12 2.94
  12  0.778  0.111  0.315-  21 2.92  25 2.94  19 2.94  16 2.94  18 2.94   1 2.94  14 2.94  15 2.94
                             3 2.94   6 2.94  10 2.94  11 2.94
  13  0.111  0.444  0.315-  23 2.91  20 2.91  22 2.93   5 2.94  18 2.94  11 2.94   7 2.94   4 2.94
                            16 2.94  10 2.94  14 2.94  15 2.94
  14  0.444  0.444  0.315-  21 2.91  23 2.91  24 2.93  15 2.94   6 2.94  12 2.94   8 2.94  17 2.94
                             5 2.94  16 2.94  13 2.94  11 2.94
  15  0.778  0.444  0.315-  24 2.92  22 2.92  19 2.94  14 2.94   6 2.94  17 2.94  12 2.94   9 2.94
                             4 2.94  10 2.94  13 2.94  18 2.94
  16  0.111  0.778  0.315-  23 2.92  25 2.94  26 2.94  18 2.94  12 2.94   7 2.94   1 2.94   8 2.94
                            13 2.94  10 2.94  14 2.94  17 2.94
  17  0.444  0.778  0.315-  27 2.92  24 2.92  26 2.94   9 2.94  15 2.94   2 2.94  10 2.94  11 2.94
                             8 2.94  14 2.94  16 2.94  18 2.94
  18  0.778  0.778  0.315-  22 2.92  27 2.92  25 2.94  16 2.94   7 2.94  13 2.94  12 2.94   3 2.94
                            11 2.94   9 2.94  15 2.94  17 2.94
  19  0.889  0.222  0.413-  10 2.94  12 2.94  15 2.94  26 2.94  25 2.94  24 2.94  22 2.94  28 2.95
                            21 2.95  20 2.95  32 3.00  31 3.00
  20  0.223  0.223  0.412-  36 2.71  11 2.91  13 2.91  23 2.91  21 2.91  29 2.92  31 2.92  10 2.92
                            26 2.95  19 2.95  27 2.96  22 2.96
  21  0.553  0.223  0.412-  36 2.71  14 2.91  11 2.91  20 2.91  23 2.91  30 2.92  32 2.92  12 2.92
                            25 2.95  19 2.95  27 2.96  24 2.96
  22  0.886  0.557  0.413-  24 2.90  27 2.90  18 2.92  15 2.92  13 2.93  25 2.94  19 2.94  23 2.96
                            20 2.96  35 2.96  33 2.96  31 2.96
  23  0.223  0.553  0.412-  36 2.71  13 2.91  14 2.91  20 2.91  21 2.91  33 2.92  34 2.92  16 2.92
                            25 2.95  26 2.95  22 2.96  24 2.96
  24  0.557  0.557  0.413-  27 2.90  22 2.90  15 2.92  17 2.92  14 2.93  26 2.94  19 2.94  21 2.96
                            23 2.96  35 2.96  32 2.96  34 2.96
  25  0.889  0.889  0.413-  16 2.94  12 2.94  18 2.94  19 2.94  26 2.94  22 2.94  27 2.94  28 2.95
                            23 2.95  21 2.95  33 3.00  30 3.00
  26  0.222  0.889  0.413-  10 2.94  16 2.94  17 2.94  19 2.94  25 2.94  27 2.94  24 2.94  28 2.95
                            20 2.95  23 2.95  29 3.00  34 3.00
  27  0.557  0.886  0.413-  24 2.90  22 2.90  17 2.92  18 2.92  11 2.93  26 2.94  25 2.94  20 2.96
                            21 2.96  35 2.96  29 2.96  30 2.96
  28  0.000  0.000  0.512-  25 2.95  19 2.95  26 2.95  34 2.99  32 2.99  33 2.99  30 2.99  31 2.99
                            29 2.99
  29  0.334  0.011  0.512-  30 2.84  31 2.84  36 2.86  20 2.92  27 2.96  35 2.99  28 2.99  26 3.00
                            34 3.13
  30  0.655  0.011  0.512-  29 2.84  32 2.84  36 2.86  21 2.92  27 2.96  35 2.99  28 2.99  25 3.00
                            33 3.13
  31  0.011  0.334  0.512-  33 2.84  29 2.84  36 2.86  20 2.92  22 2.96  35 2.99  28 2.99  19 3.00
                            32 3.13
  32  0.655  0.334  0.512-  34 2.84  30 2.84  36 2.86  21 2.92  24 2.96  35 2.99  28 2.99  19 3.00
                            31 3.13
  33  0.011  0.655  0.512-  31 2.84  34 2.84  36 2.86  23 2.92  22 2.96  35 2.99  28 2.99  25 3.00
                            30 3.13
  34  0.334  0.655  0.512-  32 2.84  33 2.84  36 2.86  23 2.92  24 2.96  35 2.99  28 2.99  26 3.00
                            29 3.13
  35  0.667  0.667  0.513-  24 2.96  27 2.96  22 2.96  29 2.99  34 2.99  32 2.99  31 2.99  30 2.99
                            33 2.99
  36  0.333  0.333  0.500-  20 2.71  23 2.71  21 2.71  33 2.86  31 2.86  29 2.86  30 2.86  34 2.86
                            32 2.86
  37  0.336  0.332  0.669-  39 1.18  38 1.18
  38  0.200  0.338  0.668-  37 1.18
  39  0.473  0.326  0.670-  37 1.18

  LATTYP: Found a hexagonal cell.
 ALAT       =     8.8135128021
 C/A-ratio  =     2.7649717827

  Lattice vectors:

 A1 = (  -4.4067569092,  -7.6327256898,   0.0000000000)
 A2 = (   8.8135128021,   0.0000000000,   0.0000000000)
 A3 = (   0.0000000000,   0.0000000000,  24.3691142040)

Analysis of symmetry for initial positions (statically):
 Subroutine PRICEL returns:
 Original cell was already a primitive cell.

 Routine SETGRP: Setting up the symmetry group for a
 hexagonal supercell.

 Subroutine GETGRP returns: Found  1 space group operations
 (whereof  1 operations were pure point group operations)
 out of a pool of 24 trial point group operations.

The static configuration has the point symmetry C_1 .

Analysis of symmetry for dynamics (positions and initial velocities):
 Subroutine PRICEL returns:
 Original cell was already a primitive cell.

[...]

The dynamic configuration has the point symmetry C_1 .

Analysis of constrained symmetry for selective dynamics:
 Subroutine PRICEL returns:
[...]
     41      -5.0140      2.00000
     42      -4.9839      2.00000
     43      -4.9418      2.00000
     44      -4.9270      2.00000
     45      -4.8705      2.00000
     46      -4.8003      2.00000
     47      -4.7718      2.00000
     48      -4.7196      2.00000
     49      -4.7001      2.00000
     50      -4.6942      2.00000
     51      -4.6741      2.00000
     52      -4.5725      2.00000
     53      -4.5702      2.00000
     54      -4.5361      2.00000
     55      -4.5049      2.00000
     56      -4.5019      2.00000
     57      -4.4982      2.00000
     58      -4.4725      2.00000
     59      -4.4488      2.00000
     60      -4.4013      2.00000
[...]
    238       5.0454      0.00000
    239       5.2784      0.00000
    240       5.3322      0.00000
    241       5.5412      0.00000
    242       5.7237      0.00000
    243       5.7816      0.00000
    244       5.9075      0.00000
    245       6.0368      0.00000
    246       6.0632      0.00000
    247       6.0864      0.00000
    248       6.1855      0.00000
    249       6.3793      0.00000
    250       6.4133      0.00000
    251       6.4441      0.00000
    252       6.5396      0.00000

 soft charge-density along one line, spin component           1
         0         1         2         3         4         5         6         7         8         9
 total charge-density along one line

------------------------ aborting loop because EDIFF is reached ----------------------------------------

 total charge

# of ion       s       p       d       tot
    1        0.548   0.239   8.765   9.551
    2        0.543   0.241   8.765   9.549
    3        0.543   0.241   8.765   9.549
    4        0.543   0.241   8.765   9.549
    5        0.545   0.241   8.762   9.547
    6        0.543   0.241   8.765   9.549
    7        0.543   0.241   8.765   9.549
    8        0.543   0.241   8.765   9.549
    9        0.543   0.239   8.768   9.550
   10        0.526   0.308   8.767   9.601
   11        0.521   0.308   8.781   9.610
   12        0.526   0.308   8.767   9.601
   13        0.521   0.308   8.781   9.610
   14        0.521   0.308   8.781   9.610
   15        0.517   0.309   8.775   9.601
   16        0.526   0.308   8.767   9.601
   17        0.517   0.309   8.775   9.601
   18        0.517   0.309   8.775   9.601
   19        0.517   0.300   8.774   9.591
   20        0.557   0.338   8.741   9.635
   21        0.557   0.338   8.741   9.635
   22        0.509   0.309   8.778   9.596
   23        0.557   0.338   8.741   9.635
   24        0.509   0.309   8.778   9.596
   25        0.517   0.299   8.774   9.591
   26        0.517   0.299   8.774   9.591
   27        0.510   0.309   8.778   9.597
   28        0.539   0.224   8.758   9.521
   29        0.571   0.245   8.740   9.556
   30        0.571   0.245   8.740   9.556
   31        0.570   0.244   8.740   9.554
   32        0.570   0.244   8.740   9.554
   33        0.571   0.245   8.740   9.556
   34        0.571   0.245   8.739   9.556
   35        0.535   0.223   8.762   9.520
   36        0.349   0.318   4.142   4.809
   37        0.933   1.801   0.000   2.734
   38        1.607   3.529   0.000   5.136
   39        1.607   3.529   0.000   5.136
tot         23.333  18.866 310.836 353.035

  FORCE on cell =-STRESS in cart. coord.  units (eV):
  Direction    XX          YY          ZZ          XY          YZ          ZX
  Alpha Z   953.83423   953.83423   953.83423
  Ewald  143810.70852143022.87790************   -28.56182    -0.52946    17.22418
  Hartree152231.21763151861.49075************   -13.14392    -0.20202     7.91282
  E(xc)   -1825.45978 -1827.56275 -1835.12285    -0.07740    -0.00152     0.04689
  Local  ************************307176.13121    39.06203     0.66373   -23.54824
  n-local  -114.39365  -108.41341   -82.67640     0.23194     0.02575    -0.11696
  augment  2402.35670  2405.06441  2424.54209     0.09709     0.00140    -0.05948
  Kinetic  5666.45259  5731.62513  5792.79795     2.40381     0.05677    -1.43748
  Fock        0.00000     0.00000     0.00000     0.00000     0.00000     0.00000
  Total     -23.73815   -23.75000     2.08896     0.01173     0.01466     0.02173
  in kB     -23.20006   -23.21164     2.04161     0.01146     0.01432     0.02124

 VOLUME and BASIS-vectors are now :
  energy-cutoff  :      500.00
  volume of cell :     1639.34
      direct lattice vectors                 reciprocal lattice vectors
     8.813512802  0.000000000  0.000000000     0.113462137 -0.065507406  0.000000000
     4.406756909  7.632725690  0.000000000     0.000000000  0.131014796  0.000000000
     0.000000000  0.000000000 24.369114204     0.000000000  0.000000000  0.041035550

  length of vectors
     8.813512802  8.813512802 24.369114204     0.131014796  0.131014796  0.041035550

 FORCES acting on ions
    electron-ion (+dipol)            ewald-force                    non-local-force                 convergence-correction
   0.846E-04 0.144E-01 0.265E+04   0.115E-02 -.136E-01 -.265E+04   0.136E-04 -.146E-02 -.738E+00   -.126E-02 0.171E-03 -.453E-01
   0.343E+00 0.132E-01 0.265E+04   -.487E+00 -.730E-01 -.265E+04   0.570E-01 0.838E-01 -.298E+00   0.741E-01 -.275E-01 -.980E-01
   -.344E+00 0.280E-02 0.265E+04   0.486E+00 -.728E-01 -.265E+04   -.570E-01 0.838E-01 -.298E+00   -.727E-01 -.172E-01 -.954E-01
   0.170E+00 0.298E+00 0.265E+04   -.295E+00 -.392E+00 -.265E+04   0.103E+00 0.703E-02 -.306E+00   0.125E-01 0.779E-01 -.987E-01
   -.137E-01 -.696E-02 0.265E+04   -.235E-03 0.642E-03 -.265E+04   0.931E-04 -.677E-03 -.898E-01   0.141E-01 0.730E-02 -.678E-01
   -.161E+00 0.291E+00 0.265E+04   0.295E+00 -.391E+00 -.265E+04   -.103E+00 0.720E-02 -.305E+00   -.220E-01 0.832E-01 -.950E-01
   -.181E+00 -.306E+00 0.265E+04   0.192E+00 0.464E+00 -.265E+04   0.451E-01 -.909E-01 -.298E+00   -.523E-01 -.543E-01 -.933E-01
   0.171E+00 -.300E+00 0.265E+04   -.192E+00 0.464E+00 -.265E+04   -.450E-01 -.911E-01 -.298E+00   0.616E-01 -.612E-01 -.928E-01
   0.143E-01 -.699E-02 0.265E+04   -.594E-03 0.130E-01 -.265E+04   0.762E-04 0.218E-02 -.443E+00   -.141E-01 -.801E-02 -.966E-01
   0.329E+01 0.200E+01 0.912E+03   -.284E+01 -.174E+01 -.912E+03   -.311E+00 -.178E+00 -.764E+00   -.103E+00 -.589E-01 0.209E+00
   -.492E-02 0.279E+01 0.917E+03   -.424E-02 -.276E+01 -.917E+03   -.211E-03 0.266E-01 -.260E+00   0.969E-02 -.104E+00 0.284E+00
   -.329E+01 0.199E+01 0.912E+03   0.285E+01 -.173E+01 -.912E+03   0.311E+00 -.178E+00 -.764E+00   0.979E-01 -.538E-01 0.204E+00
   0.233E+01 -.142E+01 0.917E+03   -.231E+01 0.140E+01 -.917E+03   0.205E-01 -.122E-01 -.263E+00   -.864E-01 0.616E-01 0.285E+00
   -.235E+01 -.143E+01 0.917E+03   0.231E+01 0.140E+01 -.917E+03   -.204E-01 -.118E-01 -.262E+00   0.105E+00 0.595E-01 0.276E+00
   0.111E-01 0.419E+01 0.917E+03   -.203E-02 -.438E+01 -.917E+03   0.230E-03 0.196E-01 -.593E+00   -.930E-02 0.125E+00 0.293E+00
   -.757E-02 -.382E+01 0.912E+03   0.676E-02 0.331E+01 -.912E+03   -.866E-04 0.357E+00 -.760E+00   0.901E-03 0.112E+00 0.203E+00
   0.369E+01 -.215E+01 0.917E+03   -.386E+01 0.225E+01 -.916E+03   0.177E-01 -.110E-01 -.584E+00   0.104E+00 -.707E-01 0.293E+00
   -.368E+01 -.215E+01 0.917E+03   0.385E+01 0.225E+01 -.916E+03   -.177E-01 -.112E-01 -.585E+00   -.105E+00 -.624E-01 0.297E+00
   -.234E-01 0.108E+00 -.847E+03   0.194E-01 -.299E+00 0.845E+03   0.995E-03 0.475E-01 0.525E+00   0.308E-02 0.149E+00 0.946E+00
   0.256E+01 0.194E+01 -.830E+03   -.182E+01 -.152E+01 0.829E+03   -.100E+01 -.575E+00 -.932E+00   0.226E+00 0.130E+00 0.151E+01
   -.253E+01 0.189E+01 -.830E+03   0.180E+01 -.147E+01 0.829E+03   0.100E+01 -.576E+00 -.933E+00   -.238E+00 0.129E+00 0.151E+01
   -.718E+01 0.351E+01 -.833E+03   0.682E+01 -.330E+01 0.832E+03   0.357E+00 -.211E+00 0.551E+00   0.859E-02 -.619E-02 0.981E+00
   -.252E-01 -.365E+01 -.831E+03   0.339E-01 0.281E+01 0.830E+03   -.859E-03 0.115E+01 -.937E+00   -.800E-02 -.271E+00 0.151E+01
   0.721E+01 0.348E+01 -.833E+03   -.685E+01 -.326E+01 0.832E+03   -.357E+00 -.211E+00 0.549E+00   -.496E-02 -.384E-02 0.980E+00
   0.224E+00 0.412E+00 -.848E+03   -.648E-01 -.322E+00 0.846E+03   -.359E-01 -.196E-01 0.508E+00   -.129E+00 -.735E-01 0.946E+00
   -.272E+00 0.412E+00 -.848E+03   0.110E+00 -.326E+00 0.846E+03   0.359E-01 -.182E-01 0.507E+00   0.132E+00 -.704E-01 0.947E+00
   0.461E-01 -.810E+01 -.834E+03   -.448E-01 0.769E+01 0.832E+03   -.146E-04 0.410E+00 0.545E+00   -.143E-02 0.103E-01 0.983E+00
   -.314E+00 0.396E+01 -.252E+04   0.313E+00 -.396E+01 0.252E+04   -.167E-03 -.109E-02 0.507E+00   0.142E-02 0.598E-03 0.630E+00
   0.815E+01 0.149E+02 -.250E+04   -.755E+01 -.139E+02 0.250E+04   -.100E+01 -.154E+01 -.428E-01   0.387E+00 0.531E+00 0.592E+00
   -.782E+01 0.149E+02 -.250E+04   0.721E+01 -.139E+02 0.250E+04   0.100E+01 -.154E+01 -.418E-01   -.389E+00 0.534E+00 0.593E+00
   0.150E+02 0.241E+01 -.249E+04   -.138E+02 -.239E+01 0.249E+04   -.182E+01 -.953E-01 0.578E-01   0.653E+00 0.675E-01 0.589E+00
   -.149E+02 0.189E+01 -.249E+04   0.137E+02 -.187E+01 0.249E+04   0.182E+01 -.961E-01 0.478E-01   -.654E+00 0.722E-01 0.593E+00
   0.377E+01 -.171E+02 -.250E+04   -.319E+01 0.161E+02 0.250E+04   -.836E+00 0.164E+01 -.375E-01   0.268E+00 -.600E+00 0.593E+00
   -.402E+01 -.171E+02 -.250E+04   0.344E+01 0.160E+02 0.250E+04   0.837E+00 0.164E+01 -.516E-01   -.263E+00 -.601E+00 0.596E+00
   0.248E+00 -.381E+01 -.253E+04   -.237E+00 0.381E+01 0.253E+04   -.474E-03 0.136E-02 0.667E+00   -.103E-01 -.400E-02 0.585E+00
   -.400E-01 -.968E-01 -.128E+04   0.419E-01 0.101E+00 0.128E+04   -.514E-02 0.150E-02 0.268E+01   0.160E-02 -.755E-03 0.552E+00
   0.131E+00 -.182E+00 -.806E+03   -.118E+00 0.181E+00 0.806E+03   -.857E-02 -.114E-02 -.849E-01   -.162E-02 0.742E-03 -.169E+00
   0.260E+03 -.958E+01 -.121E+04   -.324E+03 0.119E+02 0.121E+04   0.638E+02 -.234E+01 0.161E+01   0.444E-01 0.325E-03 -.233E+00
   -.261E+03 0.969E+01 -.121E+04   0.324E+03 -.121E+02 0.121E+04   -.638E+02 0.237E+01 -.121E+01   -.414E-01 0.333E-02 -.223E+00
   0.194E-01 -.430E-01 -.134E+02   0.000E+00 0.300E-12 -.523E-11   -.227E-01 0.282E-01 -.342E+01   -.129E-02 0.437E-02 0.166E+02

 POSITION                                       TOTAL-FORCE (eV/Angst)
      0.00000      0.00000      5.28038         0.000104     -0.000242     -0.147922
      2.93784      0.00000      5.28038        -0.012440     -0.003239     -0.059900
      5.87568      0.00000      5.28038         0.012701     -0.003055     -0.059865
      1.46892      2.54424      5.28038        -0.008701     -0.008978     -0.060717
      4.40676      2.54424      5.28038         0.000373      0.000578     -0.090194
      7.34459      2.54424      5.28038         0.008864     -0.008964     -0.060559
      2.93784      5.08848      5.28038         0.003986      0.012808     -0.060824
      5.87568      5.08848      5.28038        -0.003613      0.012823     -0.060698
      8.81351      5.08848      5.28038        -0.000189      0.000437     -0.082022
      1.46892      0.84808      7.67911         0.032738      0.019136      0.081018
      4.40676      0.84808      7.67911         0.000443     -0.048496     -0.027726
      7.34459      0.84808      7.67911        -0.032674      0.019249      0.081012
      2.93784      3.39232      7.67911        -0.042561      0.024924     -0.028242
      5.87568      3.39232      7.67911         0.043192      0.024741     -0.028232
      8.81351      3.39232      7.67911         0.000164     -0.054223      0.037408
      4.40676      5.93656      7.67911         0.000115     -0.038035      0.081605
      7.34459      5.93656      7.67911        -0.047265      0.027457      0.037664
     10.28243      5.93656      7.67911         0.047558      0.027422      0.037746
      8.81351      1.69581     10.07501         0.000149      0.005922      0.044643
      2.95207      1.70438     10.04871        -0.035047     -0.020786     -0.029371
      5.86144      1.70438     10.04871         0.034755     -0.020666     -0.028642
     10.26527      4.25031     10.05786         0.006701     -0.002840      0.029228
      4.40676      4.22397     10.04871        -0.000070      0.038363     -0.031828
      7.36176      4.25031     10.05786        -0.006413     -0.002722      0.028572
     11.75166      6.78482     10.07501        -0.005768     -0.002659      0.041947
      5.87537      6.78482     10.07501         0.006135     -0.002670      0.041939
      8.81351      6.76483     10.05786         0.000025      0.006174      0.025092
      0.00000      0.00000     12.48798         0.000208     -0.000006     -0.060489
      2.98892      0.08359     12.48152        -0.008156      0.002115      0.067905
      5.82460      0.08359     12.48152         0.008365      0.002494      0.068373
      1.56685      2.54668     12.48152        -0.006056     -0.008887      0.064443
      7.24666      2.54668     12.48152         0.005293     -0.008901      0.065842
      2.98469      5.00245     12.48152         0.009150      0.007953      0.068370
      5.82882      5.00245     12.48152        -0.009221      0.007181      0.069234
      8.81351      5.08848     12.49580        -0.000054      0.000355     -0.010049
      4.40676      2.54424     12.17616        -0.001544      0.005475     -0.050350
      4.42913      2.53477     16.31136         0.002858     -0.001090      0.003088
      3.25363      2.57773     16.28064        -0.000473     -0.005270      0.004320
      5.60479      2.49109     16.33285        -0.003630     -0.003881     -0.001818
    total drift:                               -0.004569     -0.010387     -0.241117

  FREE ENERGIE OF THE ION-ELECTRON SYSTEM (eV)
  free  energy   TOTEN  =      -136.71134099 eV

  energy  without entropy=     -136.71134099  energy(sigma->0) =     -136.71134099

 stress matrix after NEB project (eV)
    -23.73815      0.01173      0.02173
      0.01173    -23.75000      0.01466
      0.02173      0.01466      2.08896
  FORCES: max atom, RMS     0.006831    0.001578
  FORCE total and by dimension    0.009853    0.005270
  Stress total and by dimension   33.644136   23.750004
|           W    W    AA    RRRRR   N    N  II  N    N   GGGG   !!!           |
|           W    W   A  A   R    R  NN   N  II  NN   N  G    G  !!!           |
|           W    W  A    A  R    R  N N  N  II  N N  N  G       !!!           |
|           W WW W  AAAAAA  RRRRR   N  N N  II  N  N N  G  GGG   !            |
|           WW  WW  A    A  R   R   N   NN  II  N   NN  G    G                |
|           W    W  A    A  R    R  N    N  II  N    N   GGGG   !!!           |
|     Tetrahedron method does not include variations of the Fermi             |
|     occupations, so forces and stress will be inaccurate. We suggest        |
|     using a different smearing scheme ISMEAR = 1 or 2 for metals in         |
|     relaxations.                                                            |

 total charge

# of ion       s       p       d       tot
    1        0.548   0.239   8.765   9.551
    2        0.543   0.241   8.765   9.549
    3        0.543   0.241   8.765   9.549
    4        0.543   0.241   8.765   9.549
    5        0.545   0.241   8.762   9.547
    6        0.543   0.241   8.765   9.549
    7        0.543   0.241   8.765   9.549
    8        0.543   0.241   8.765   9.549
    9        0.543   0.239   8.768   9.550
   10        0.526   0.308   8.767   9.601
   11        0.521   0.308   8.781   9.610
   12        0.526   0.308   8.767   9.601
   13        0.521   0.308   8.781   9.610
   14        0.521   0.308   8.781   9.610
   15        0.517   0.309   8.775   9.601
   16        0.526   0.308   8.767   9.601
   17        0.517   0.309   8.775   9.601
   18        0.517   0.309   8.775   9.601
   19        0.517   0.300   8.774   9.591
   20        0.557   0.338   8.741   9.635
   21        0.557   0.338   8.741   9.635
   22        0.509   0.309   8.778   9.596
   23        0.557   0.338   8.741   9.635
   24        0.509   0.309   8.778   9.596
   25        0.517   0.299   8.774   9.591
   26        0.517   0.299   8.774   9.591
   27        0.510   0.309   8.778   9.597
   28        0.539   0.224   8.758   9.521
   29        0.571   0.245   8.740   9.556
   30        0.571   0.245   8.740   9.556
   31        0.570   0.244   8.740   9.554
   32        0.570   0.244   8.740   9.554
   33        0.571   0.245   8.740   9.556
   34        0.571   0.245   8.739   9.556
   35        0.535   0.223   8.762   9.520
   36        0.349   0.318   4.142   4.809
   37        0.933   1.801   0.000   2.734
   38        1.607   3.529   0.000   5.136
   39        1.607   3.529   0.000   5.136
tot         23.333  18.866 310.836 353.035

 BZINTS: Fermi energy:    0.294622;  407.000000 electrons
         Band energy:-0.150013E+04;  BLOECHL correction:   -0.028152