 vasp.6.2.0 18Jan21 (build Jun 12 2021 23:27:24) complex

 executed on             LinuxIFC date 2022.05.26  19:50:57

 INCAR:
   ISMEAR = -5
   SIGMA = 0.1
   ISPIN = 1
   EDIFF = 1.d-5
   EDIFFG = -0.01
   NSW = 0
   NELM = 150
   ENCUT = 500
   ISIF = 2
   IBRION = 2
   LREAL = Auto
   ALGO = Fast
   ICHARG = 11
   LORBIT = 10
   LCHARG = .F.
   LWAVE = .F.

 POTCAR:    PAW_PBE Ag 02Apr2005
 POTCAR:    PAW_PBE Hf 20Jan2003
 POTCAR:    PAW_PBE O 08Apr2002
|           W    W    AA    RRRRR   N    N  II  N    N   GGGG   !!!           |
|           W    W   A  A   R    R  NN   N  II  NN   N  G    G  !!!           |
|           W    W  A    A  R    R  N N  N  II  N N  N  G       !!!           |
|           W WW W  AAAAAA  RRRRR   N  N N  II  N  N N  G  GGG   !            |
|           WW  WW  A    A  R   R   N   NN  II  N   NN  G    G                |
|           W    W  A    A  R    R  N    N  II  N    N   GGGG   !!!           |
|     For optimal performance we recommend to set                             |
|       NCORE = 2 up to number-of-cores-per-socket                            |
|     This setting can greatly improve the performance of VASP for DFT.       |
|     The default, NCORE=1 might be grossly inefficient on modern             |
|     multi-core architectures or massively parallel machines. Do your        |
|     Unfortunately you need to use the default for GW and RPA                |
|     calculations (for HF NCORE is supported but not extensively tested      |
|     yet).                                                                   |

 POTCAR:    PAW_PBE Ag 02Apr2005
   VRHFIN =Ag : s1 d10

   TITEL  = PAW_PBE Ag 02Apr2005
   POMASS =  107.868; ZVAL   =   11.000    mass and valenz
   ENMAX  =  249.844; ENMIN  =  187.383 eV

 POTCAR:    PAW_PBE Hf 20Jan2003
   VRHFIN =Hf: 6s5d

   TITEL  = PAW_PBE Hf 20Jan2003
   POMASS =  178.490; ZVAL   =    4.000    mass and valenz
   ENMAX  =  220.334; ENMIN  =  165.250 eV

 POTCAR:    PAW_PBE O 08Apr2002
   VRHFIN =O: s2p4

   TITEL  = PAW_PBE O 08Apr2002
   POMASS =   16.000; ZVAL   =    6.000    mass and valenz
   ENMAX  =  400.000; ENMIN  =  300.000 eV

 Optimization of the real space projectors (new method)

 maximal supplied QI-value         = 15.12
 optimisation between [QCUT,QGAM] = [ 11.34, 22.83] = [ 36.00,145.93] Ry
 Optimized for a Real-space Cutoff    1.43 Angstroem

   l    n(q)    QCUT    max X(q) W(low)/X(q) W(high)/X(q)  e(spline)
   2      9    11.338    53.897    0.16E-03    0.20E-03    0.28E-06
   2      9    11.338    52.416    0.16E-03    0.20E-03    0.29E-06
   0     10    11.338   122.045    0.31E-04    0.76E-04    0.15E-06
   0     10    11.338    73.629    0.30E-04    0.72E-04    0.15E-06
   1      9    11.338    15.255    0.20E-03    0.19E-04    0.17E-06
   1      9    11.338     9.562    0.16E-03    0.15E-04    0.14E-06
 Optimization of the real space projectors (new method)

[...]

   l    n(q)    QCUT    max X(q) W(low)/X(q) W(high)/X(q)  e(spline)
   2     10    11.350    48.111    0.20E-03    0.11E-03    0.41E-06
   2     10    11.350    40.545    0.19E-03    0.10E-03    0.39E-06
   0     11    11.350   121.658    0.22E-04    0.19E-04    0.24E-06
   0     11    11.350    71.177    0.17E-04    0.17E-04    0.23E-06
   1     11    11.350    14.183    0.25E-03    0.43E-03    0.12E-05
   1     11    11.350     8.257    0.17E-03    0.29E-03    0.81E-06
 Optimization of the real space projectors (new method)

 maximal supplied QI-value         = 24.76
 optimisation between [QCUT,QGAM] = [ 11.39, 22.77] = [ 36.31,145.25] Ry
 Optimized for a Real-space Cutoff    1.00 Angstroem

   l    n(q)    QCUT    max X(q) W(low)/X(q) W(high)/X(q)  e(spline)
   0      7    11.387    20.381    0.39E-03    0.13E-02    0.15E-06
   0      7    11.387    15.268    0.42E-03    0.14E-02    0.17E-06
   1      6    11.387     5.964    0.41E-03    0.11E-02    0.17E-06
   1      6    11.387     5.382    0.39E-03    0.87E-03    0.15E-06
  PAW_PBE Ag 02Apr2005                  :
  PAW_PBE Hf 20Jan2003                  :
  PAW_PBE O 08Apr2002                   :

 POSCAR: Ag-Hf-O
  positions in direct lattice
  velocities in cartesian coordinates
 exchange correlation table for  LEXCH =        8
   RHO(1)=    0.500       N(1)  =     2000
   RHO(2)=  100.500       N(2)  =     4000

 VTST: version 3.2, (02/03/18)

 CHAIN: initializing optimizer

 OPT: Using VASP Conjugate-Gradient optimizer
 CHAIN: Read ICHAIN            0

 POSCAR: Ag-Hf-O
  positions in direct lattice
  velocities in cartesian coordinates

 ion  position               nearest neighbor table
   1  0.000  0.000  0.238-   2 2.93   8 2.93   7 2.93   6 2.93   4 2.93  12 2.93  16 2.93  10 2.93
                             3 2.93
   2  0.333  0.000  0.238-   1 2.93   8 2.93   9 2.93   3 2.93   4 2.93   5 2.93  10 2.93  17 2.93
                            11 2.93
   3  0.667  0.000  0.238-   9 2.93   2 2.93   5 2.93  11 2.93   7 2.93  18 2.93   1 2.93   6 2.93
                            12 2.93
   4  0.000  0.333  0.238-   5 2.93   6 2.93   2 2.93   1 2.93   7 2.93  13 2.93  15 2.93   9 2.93
                            10 2.93
   5  0.333  0.333  0.238-   4 2.93   3 2.93   7 2.93   2 2.93   8 2.93  14 2.93  13 2.93  11 2.93
                             6 2.93
   6  0.667  0.333  0.238-   4 2.93   9 2.93   1 2.93  15 2.93   8 2.93  12 2.93   3 2.93   5 2.93
                            14 2.93
   7  0.000  0.667  0.238-   8 2.93   1 2.93   5 2.93   3 2.93   4 2.93  16 2.93  18 2.93  13 2.93
                             9 2.93
   8  0.333  0.667  0.238-   7 2.93   1 2.93   2 2.93   9 2.93   5 2.93  16 2.93   6 2.93  17 2.93
                            14 2.93
   9  0.667  0.667  0.238-   3 2.93   2 2.93   8 2.93   6 2.93  17 2.93   4 2.93  15 2.93   7 2.93
                            18 2.93
  10  0.111  0.111  0.346-  20 2.90  19 2.92  26 2.92  12 2.93  16 2.93  15 2.93  17 2.93  13 2.93
                            11 2.93   2 2.93   1 2.93   4 2.93
  11  0.444  0.111  0.346-  21 2.90  20 2.90  14 2.93  17 2.93  18 2.93   3 2.93  12 2.93  13 2.93
                            10 2.93   5 2.93   2 2.93  27 2.93
  12  0.778  0.111  0.346-  21 2.90  25 2.92  19 2.92  10 2.93  16 2.93  18 2.93  15 2.93  11 2.93
                             1 2.93  14 2.93   6 2.93   3 2.93
  13  0.111  0.444  0.346-  20 2.90  23 2.90  15 2.93  14 2.93  18 2.93  10 2.93  11 2.93  16 2.93
                             4 2.93   5 2.93   7 2.93  22 2.93
  14  0.444  0.444  0.346-  23 2.90  21 2.90  13 2.93  11 2.93  16 2.93   5 2.93  12 2.93  17 2.93
                             8 2.93  15 2.93   6 2.93  24 2.93
  15  0.778  0.444  0.346-  19 2.92  24 2.93  22 2.93  13 2.93  10 2.93  12 2.93  17 2.93  18 2.93
                             4 2.93   6 2.93   9 2.93  14 2.93
  16  0.111  0.778  0.346-  23 2.90  26 2.92  25 2.92  18 2.93  12 2.93  10 2.93  14 2.93  17 2.93
                            13 2.93   7 2.93   8 2.93   1 2.93
  17  0.444  0.778  0.346-  26 2.92  27 2.93  24 2.93  11 2.93  10 2.93   9 2.93  18 2.93  15 2.93
                            16 2.93   2 2.93  14 2.93   8 2.93
  18  0.778  0.778  0.346-  25 2.92  22 2.93  27 2.93  16 2.93  12 2.93  13 2.93  11 2.93  17 2.93
                            15 2.93   7 2.93   3 2.93   9 2.93
  19  0.889  0.222  0.454-  10 2.92  12 2.92  15 2.92  20 2.93  21 2.93  26 2.93  25 2.93  24 2.93
                            22 2.93  28 2.94  32 2.98  31 2.98
  20  0.222  0.222  0.452-  36 2.86  10 2.90  13 2.90  11 2.90  19 2.93  26 2.93  27 2.93  22 2.93
                            21 2.94  23 2.94  31 2.97  29 2.97
  21  0.556  0.222  0.452-  36 2.86  12 2.90  11 2.90  14 2.90  25 2.93  19 2.93  27 2.93  24 2.93
                            20 2.94  23 2.94  30 2.97  32 2.97
  22  0.889  0.556  0.454-  24 2.93  27 2.93  18 2.93  15 2.93  25 2.93  19 2.93  13 2.93  23 2.93
                            20 2.93  35 2.94  33 2.96  31 2.96
  23  0.222  0.556  0.452-  36 2.86  16 2.90  14 2.90  13 2.90  26 2.93  25 2.93  22 2.93  24 2.93
                            21 2.94  20 2.94  34 2.97  33 2.97
  24  0.556  0.556  0.454-  27 2.93  22 2.93  15 2.93  17 2.93  19 2.93  26 2.93  14 2.93  23 2.93
                            21 2.93  35 2.94  32 2.96  34 2.96
  25  0.889  0.889  0.454-  16 2.92  12 2.92  18 2.92  23 2.93  21 2.93  26 2.93  19 2.93  22 2.93
                            27 2.93  28 2.94  33 2.98  30 2.98
  26  0.222  0.889  0.454-  16 2.92  10 2.92  17 2.92  23 2.93  20 2.93  25 2.93  19 2.93  27 2.93
                            24 2.93  28 2.94  34 2.98  29 2.98
  27  0.556  0.889  0.454-  24 2.93  22 2.93  17 2.93  18 2.93  26 2.93  25 2.93  11 2.93  20 2.93
                            21 2.93  35 2.94  29 2.96  30 2.96
  28  0.000  0.000  0.562-  26 2.94  25 2.94  19 2.94  29 2.94  34 2.94  33 2.94  32 2.94  31 2.94
                            30 2.94
  29  0.333  0.003  0.563-  30 2.90  31 2.91  36 2.91  35 2.94  28 2.94  27 2.96  20 2.97  26 2.98
                            34 2.98
  30  0.664  0.003  0.563-  29 2.90  32 2.91  36 2.91  35 2.94  28 2.94  27 2.96  21 2.97  25 2.98
                            33 2.98
  31  0.003  0.333  0.563-  33 2.90  29 2.91  36 2.91  35 2.94  28 2.94  22 2.96  20 2.97  19 2.98
                            32 2.98
  32  0.664  0.333  0.563-  34 2.90  30 2.91  36 2.91  35 2.94  28 2.94  24 2.96  21 2.97  19 2.98
                            31 2.98
  33  0.003  0.664  0.563-  31 2.90  34 2.91  36 2.91  35 2.94  28 2.94  22 2.96  23 2.97  25 2.98
                            30 2.98
  34  0.333  0.664  0.563-  32 2.90  33 2.91  36 2.91  35 2.94  28 2.94  24 2.96  23 2.97  26 2.98
                            29 2.98
  35  0.667  0.667  0.563-  30 2.94  29 2.94  32 2.94  34 2.94  31 2.94  33 2.94  24 2.94  27 2.94
                            22 2.94
  36  0.333  0.333  0.556-  37 1.79  21 2.86  20 2.86  23 2.86  31 2.91  33 2.91  30 2.91  29 2.91
                            34 2.91  32 2.91
  37  0.333  0.333  0.637-  36 1.79

  LATTYP: Found a hexagonal cell.
 ALAT       =     8.7913665772
 C/A-ratio  =     2.5227160501

  Lattice vectors:

 A1 = (  -4.3956832886,  -7.6135467898,   0.0000000000)
 A2 = (   8.7913665771,   0.0000000000,   0.0000000000)
 A3 = (   0.0000000000,   0.0000000000,  22.1781215668)

Analysis of symmetry for initial positions (statically):
 Subroutine PRICEL returns:
 Original cell was already a primitive cell.

 Routine SETGRP: Setting up the symmetry group for a
 hexagonal supercell.

 Subroutine GETGRP returns: Found  6 space group operations
 (whereof  6 operations were pure point group operations)
 out of a pool of 24 trial point group operations.

The static configuration has the point symmetry C_3v.

Analysis of symmetry for dynamics (positions and initial velocities):
 Subroutine PRICEL returns:
 Original cell was already a primitive cell.

[...]

The dynamic configuration has the point symmetry C_3v.

Analysis of constrained symmetry for selective dynamics:
 Subroutine PRICEL returns:
 Original cell was already a primitive cell.

 Routine SETGRP: Setting up the symmetry group for a
 hexagonal supercell.

 Subroutine GETGRP returns: Found  6 space group operations
[...]
     24      -4.8020      2.00000
     25      -4.7826      2.00000
     26      -4.7673      2.00000
     27      -4.7598      2.00000
     28      -4.7319      2.00000
     29      -4.7203      2.00000
     30      -4.7145      2.00000
     31      -4.6945      2.00000
     32      -4.6753      2.00000
     33      -4.6445      2.00000
     34      -4.6423      2.00000
     35      -4.6137      2.00000
     36      -4.6001      2.00000
     37      -4.5646      2.00000
     38      -4.5335      2.00000
     39      -4.4996      2.00000
     40      -4.4962      2.00000
     41      -4.4898      2.00000
     42      -4.4709      2.00000
     43      -4.4590      2.00000
     44      -4.3794      2.00000
     45      -4.3608      2.00000
     46      -4.3439      2.00000
     47      -4.3287      2.00000
     48      -4.3258      2.00000
     49      -4.3211      2.00000
     50      -4.3081      2.00000
     51      -4.3023      2.00000
     52      -4.2920      2.00000
     53      -4.2844      2.00000
     54      -4.2353      2.00000
     55      -4.2272      2.00000
     56      -4.2110      2.00000
     57      -4.1933      2.00000
     58      -4.1820      2.00000
     59      -4.1583      2.00000
     60      -4.1519      2.00000
[...]
    238       6.3223      0.00000
    239       6.3901      0.00000
    240       6.5712      0.00000
    241       7.1353      0.00000
    242       7.1852      0.00000
    243       7.2365      0.00000
    244       7.3488      0.00000
    245       7.3828      0.00000
    246       7.3969      0.00000
    247       7.4430      0.00000
    248       7.5369      0.00000
    249       7.6236      0.00000
    250       7.6630      0.00000
    251       7.7371      0.00000
    252       7.7692      0.00000

 soft charge-density along one line, spin component           1
         0         1         2         3         4         5         6         7         8         9
 total charge-density along one line

------------------------ aborting loop because EDIFF is reached ----------------------------------------

 total charge

# of ion       s       p       d       tot
    1        0.418   0.202   9.176   9.796
    2        0.414   0.204   9.176   9.794
    3        0.414   0.204   9.176   9.794
    4        0.414   0.204   9.176   9.794
    5        0.417   0.202   9.175   9.795
    6        0.414   0.204   9.176   9.794
    7        0.414   0.204   9.176   9.794
    8        0.414   0.204   9.176   9.794
    9        0.414   0.203   9.177   9.794
   10        0.406   0.271   9.163   9.840
   11        0.405   0.270   9.166   9.841
   12        0.406   0.271   9.163   9.840
   13        0.405   0.270   9.166   9.841
   14        0.405   0.270   9.166   9.841
   15        0.402   0.270   9.163   9.834
   16        0.406   0.271   9.163   9.840
   17        0.402   0.270   9.163   9.834
   18        0.402   0.270   9.163   9.834
   19        0.403   0.265   9.167   9.834
   20        0.432   0.296   9.145   9.874
   21        0.432   0.296   9.145   9.874
   22        0.396   0.272   9.163   9.832
   23        0.432   0.296   9.145   9.874
   24        0.396   0.272   9.163   9.832
   25        0.403   0.265   9.167   9.834
   26        0.403   0.265   9.167   9.834
   27        0.396   0.272   9.163   9.832
   28        0.413   0.204   9.172   9.790
   29        0.440   0.212   9.161   9.813
   30        0.440   0.212   9.161   9.813
   31        0.440   0.212   9.161   9.813
   32        0.440   0.212   9.161   9.813
   33        0.440   0.212   9.161   9.813
   34        0.440   0.212   9.161   9.813
   35        0.414   0.204   9.171   9.789
   36        0.627   0.612   2.380   3.620
   37        1.595   3.326   0.000   4.921
tot         16.755  12.381 323.177 352.313

  FORCE on cell =-STRESS in cart. coord.  units (eV):
  Direction    XX          YY          ZZ          XY          YZ          ZX
  Alpha Z   748.26682   748.26682   748.26682
  Ewald  117598.72035117598.72025************    -0.00001    -0.00001     0.00002
  Hartree127699.14685127699.14681************    -0.00000    -0.00000     0.00000
  E(xc)   -2074.42460 -2074.42461 -2083.53684     0.00001     0.00000     0.00000
  Local  ************************256344.04665     0.00049    -0.00004    -0.00013
  n-local  -340.80602  -325.74590  -334.89829     9.36075    -0.41148     0.39933
  augment  3225.15393  3225.15413  3239.70038    -0.00017    -0.00001    -0.00001
  Kinetic  4928.78940  4929.31308  4960.67283     2.84421     1.13240    -0.61727
  Fock        0.00000     0.00000     0.00000     0.00000     0.00000     0.00000
  Total      -5.50942    -5.50942    -0.37519    -0.00000     0.00000     0.00000
  in kB      -5.94632    -5.94632    -0.40494    -0.00000     0.00000     0.00000

 VOLUME and BASIS-vectors are now :
  energy-cutoff  :      500.00
  volume of cell :     1484.46
      direct lattice vectors                 reciprocal lattice vectors
     8.791366577  0.000000000  0.000000000     0.113747958 -0.065672414  0.000000000
     4.395683289  7.613546790  0.000000000     0.000000000  0.131344829  0.000000000
     0.000000000  0.000000000 22.178121567     0.000000000  0.000000000  0.045089481

  length of vectors
     8.791366577  8.791366577 22.178121567     0.131344829  0.131344829  0.045089481

 FORCES acting on ions
    electron-ion (+dipol)            ewald-force                    non-local-force                 convergence-correction
   0.460E-04 -.282E-04 0.248E+04   -.953E-04 0.592E-04 -.248E+04   0.409E-17 -.296E-17 -.170E+01   -.833E-04 -.155E-03 0.125E+00
   -.403E+00 -.204E+00 0.248E+04   0.298E+00 0.711E-01 -.248E+04   0.313E-01 0.971E-01 -.161E+01   0.646E-01 0.308E-01 0.114E+00
   0.403E+00 -.204E+00 0.248E+04   -.298E+00 0.712E-01 -.248E+04   -.313E-01 0.971E-01 -.161E+01   -.652E-01 0.326E-01 0.115E+00
   -.378E+00 -.247E+00 0.248E+04   0.211E+00 0.223E+00 -.248E+04   0.997E-01 -.214E-01 -.161E+01   0.591E-01 0.407E-01 0.114E+00
   -.581E-05 -.188E-04 0.248E+04   0.980E-04 -.199E-05 -.248E+04   0.120E-17 -.270E-17 -.155E+01   0.618E-02 0.378E-02 0.777E-01
   0.378E+00 -.247E+00 0.248E+04   -.211E+00 0.223E+00 -.248E+04   -.997E-01 -.214E-01 -.161E+01   -.605E-01 0.416E-01 0.115E+00
   0.251E-01 0.451E+00 0.248E+04   -.876E-01 -.294E+00 -.248E+04   0.684E-01 -.757E-01 -.161E+01   -.387E-02 -.722E-01 0.115E+00
   -.251E-01 0.451E+00 0.248E+04   0.876E-01 -.294E+00 -.248E+04   -.684E-01 -.757E-01 -.161E+01   0.547E-02 -.732E-01 0.115E+00
   0.363E-04 -.131E-04 0.248E+04   0.792E-04 -.642E-04 -.248E+04   -.202E-17 0.327E-18 -.172E+01   -.663E-02 -.341E-02 0.108E+00
   -.868E+00 -.501E+00 0.817E+03   0.100E+01 0.579E+00 -.816E+03   -.194E+00 -.112E+00 -.519E+00   0.265E-01 0.153E-01 -.244E+00
   -.282E-04 -.108E+01 0.811E+03   0.400E-04 0.986E+00 -.811E+03   0.750E-12 0.114E+00 -.414E+00   0.617E-02 -.518E-01 -.263E+00
   0.868E+00 -.501E+00 0.817E+03   -.100E+01 0.579E+00 -.816E+03   0.194E+00 -.112E+00 -.519E+00   -.277E-01 0.159E-01 -.244E+00
   -.938E+00 0.542E+00 0.811E+03   0.854E+00 -.493E+00 -.811E+03   0.989E-01 -.571E-01 -.414E+00   -.419E-01 0.313E-01 -.263E+00
   0.938E+00 0.542E+00 0.811E+03   -.854E+00 -.493E+00 -.811E+03   -.989E-01 -.571E-01 -.414E+00   0.522E-01 0.304E-01 -.265E+00
   0.151E-04 -.117E+01 0.815E+03   -.108E-03 0.108E+01 -.814E+03   0.249E-12 0.379E-01 -.576E+00   -.126E-02 0.543E-01 -.263E+00
   -.800E-05 0.100E+01 0.817E+03   0.206E-04 -.116E+01 -.816E+03   0.147E-11 0.224E+00 -.519E+00   -.960E-04 -.320E-01 -.244E+00
   -.102E+01 0.587E+00 0.815E+03   0.936E+00 -.540E+00 -.814E+03   0.328E-01 -.189E-01 -.576E+00   0.464E-01 -.283E-01 -.263E+00
   0.102E+01 0.587E+00 0.815E+03   -.936E+00 -.540E+00 -.814E+03   -.328E-01 -.189E-01 -.576E+00   -.462E-01 -.267E-01 -.262E+00
   0.383E-04 -.655E+01 -.856E+03   -.125E-03 0.640E+01 0.855E+03   0.960E-12 0.146E+00 0.985E+00   0.109E-02 -.927E-02 -.265E+00
   -.365E+02 -.210E+02 -.887E+03   0.367E+02 0.212E+02 0.887E+03   -.481E+00 -.278E+00 0.152E+00   -.765E-01 -.442E-01 -.312E+00
   0.365E+02 -.210E+02 -.887E+03   -.367E+02 0.212E+02 0.887E+03   0.481E+00 -.278E+00 0.152E+00   0.657E-01 -.447E-01 -.313E+00
   -.156E+02 0.899E+01 -.862E+03   0.155E+02 -.897E+01 0.861E+03   0.166E+00 -.956E-01 0.585E+00   -.935E-01 0.544E-01 -.311E+00
   -.495E-04 0.421E+02 -.887E+03   0.355E-04 -.424E+02 0.887E+03   0.365E-11 0.555E+00 0.152E+00   -.555E-02 0.799E-01 -.313E+00
   0.156E+02 0.899E+01 -.862E+03   -.155E+02 -.897E+01 0.861E+03   -.166E+00 -.956E-01 0.585E+00   0.951E-01 0.550E-01 -.311E+00
   0.567E+01 0.327E+01 -.856E+03   -.554E+01 -.320E+01 0.855E+03   -.127E+00 -.731E-01 0.985E+00   0.795E-02 0.444E-02 -.265E+00
   -.567E+01 0.327E+01 -.856E+03   0.554E+01 -.320E+01 0.855E+03   0.127E+00 -.731E-01 0.985E+00   -.779E-02 0.545E-02 -.265E+00
   0.193E-04 -.180E+02 -.862E+03   0.110E-03 0.179E+02 0.861E+03   0.126E-11 0.191E+00 0.585E+00   -.310E-03 -.108E+00 -.311E+00
   0.545E-04 -.356E-04 -.245E+04   -.115E-03 0.768E-04 0.245E+04   0.491E-17 0.213E-17 0.148E+01   0.264E-03 0.177E-04 -.735E-01
   -.152E+02 -.311E+02 -.244E+04   0.156E+02 0.316E+02 0.244E+04   -.519E+00 -.746E+00 0.204E+01   0.311E-01 0.124E-01 -.715E-01
   0.152E+02 -.311E+02 -.244E+04   -.156E+02 0.316E+02 0.244E+04   0.519E+00 -.746E+00 0.204E+01   -.319E-01 0.133E-01 -.713E-01
   -.345E+02 0.235E+01 -.244E+04   0.351E+02 -.230E+01 0.244E+04   -.905E+00 -.764E-01 0.204E+01   0.264E-01 0.209E-01 -.715E-01
   0.345E+02 0.235E+01 -.244E+04   -.351E+02 -.230E+01 0.244E+04   0.905E+00 -.764E-01 0.204E+01   -.265E-01 0.218E-01 -.705E-01
   -.193E+02 0.287E+02 -.244E+04   0.196E+02 -.293E+02 0.244E+04   -.386E+00 0.822E+00 0.204E+01   -.398E-02 -.337E-01 -.713E-01
   0.193E+02 0.287E+02 -.244E+04   -.196E+02 -.293E+02 0.244E+04   0.386E+00 0.822E+00 0.204E+01   0.531E-02 -.338E-01 -.706E-01
   0.258E-04 -.125E-04 -.246E+04   0.103E-03 -.654E-04 0.245E+04   -.409E-17 -.604E-17 0.157E+01   -.633E-02 -.322E-02 -.122E-02
   -.708E-05 0.147E-05 -.769E+03   0.378E-04 0.404E-05 0.774E+03   0.818E-18 0.233E-18 -.384E+01   0.168E-03 0.105E-03 -.161E-01
   0.180E-03 -.968E-04 -.151E+04   0.260E-04 0.338E-06 0.153E+04   0.785E-18 0.355E-18 -.250E+02   0.324E-02 0.199E-02 -.929E-01
   0.537E-03 -.771E-03 0.322E+02   0.419E-13 -.154E-13 0.432E-11   0.530E-16 -.545E-17 -.275E+02   -.287E-02 0.164E-02 -.459E+01

 POSITION                                       TOTAL-FORCE (eV/Angst)
      0.00000      0.00000      5.28219         0.000000      0.000000     -0.016202
      2.93046      0.00000      5.28219        -0.007862     -0.003608      0.025021
      5.86091      0.00000      5.28219         0.007862     -0.003608      0.025021
      1.46523      2.53785      5.28219        -0.007056     -0.005005      0.025021
      4.39568      2.53785      5.28219         0.000000      0.000000      0.011327
      7.32614      2.53785      5.28219         0.007056     -0.005005      0.025021
      2.93046      5.07570      5.28219         0.000806      0.008613      0.025021
      5.86091      5.07570      5.28219        -0.000806      0.008613      0.025021
      8.79137      5.07570      5.28219         0.000000      0.000000      0.009477
      1.46523      0.84595      7.67490        -0.032538     -0.018786     -0.052228
      4.39568      0.84595      7.67490        -0.000000     -0.038031     -0.050600
      7.32614      0.84595      7.67490         0.032538     -0.018786     -0.052228
      2.93046      3.38380      7.67490        -0.032935      0.019015     -0.050600
      5.86091      3.38380      7.67490         0.032935      0.019015     -0.050600
      8.79137      3.38380      7.67490        -0.000000     -0.001323      0.039164
      4.39568      5.92165      7.67490         0.000000      0.037572     -0.052228
      7.32614      5.92165      7.67490        -0.001146      0.000661      0.039164
     10.25659      5.92165      7.67490         0.001146      0.000661      0.039164
      8.79137      1.69178     10.05827        -0.000000     -0.013841      0.046066
      2.92613      1.68940     10.03306        -0.270163     -0.155979     -0.223531
      5.86523      1.68940     10.03306         0.270163     -0.155979     -0.223531
     10.25456      4.23092     10.06776         0.033117     -0.019120      0.049133
      4.39568      4.23474     10.03306         0.000000      0.311957     -0.223531
      7.32817      4.23092     10.06776        -0.033117     -0.019120      0.049133
     11.72193      6.76766     10.05827         0.011987      0.006921      0.046066
      5.86080      6.76766     10.05827        -0.011987      0.006921      0.046066
      8.79137      6.76525     10.06776         0.000000      0.038240      0.049133
      0.00000      0.00000     12.45716         0.000000      0.000000     -0.045679
      2.94326      0.02074     12.49530        -0.140882     -0.231329     -0.142984
      5.84810      0.02074     12.49530         0.140882     -0.231329     -0.142984
      1.48959      2.53857     12.49530        -0.270778     -0.006343     -0.142984
      7.30177      2.53857     12.49530         0.270778     -0.006343     -0.142984
      2.94201      5.05424     12.49530        -0.129896      0.237672     -0.142984
      5.84935      5.05424     12.49530         0.129896      0.237672     -0.142984
      8.79137      5.07570     12.47846         0.000000      0.000000     -0.058544
      4.39568      2.53785     12.33403         0.000000      0.000000      1.392270
      4.39568      2.53785     14.12262         0.000000      0.000000     -0.008877
    total drift:                               -0.002336      0.000867      0.127407

  FREE ENERGIE OF THE ION-ELECTRON SYSTEM (eV)
  free  energy   TOTEN  =      -106.48644433 eV

  energy  without entropy=     -106.48644433  energy(sigma->0) =     -106.48644433

 stress matrix after NEB project (eV)
     -5.50942     -0.00000      0.00000
     -0.00000     -5.50942     -0.00000
      0.00000      0.00000     -0.37519
  FORCES: max atom, RMS     0.008877    0.001459
  FORCE total and by dimension    0.008877    0.008877
  Stress total and by dimension    7.800529    5.509423
|           W    W    AA    RRRRR   N    N  II  N    N   GGGG   !!!           |
|           W    W   A  A   R    R  NN   N  II  NN   N  G    G  !!!           |
|           W    W  A    A  R    R  N N  N  II  N N  N  G       !!!           |
|           W WW W  AAAAAA  RRRRR   N  N N  II  N  N N  G  GGG   !            |
|           WW  WW  A    A  R   R   N   NN  II  N   NN  G    G                |
|           W    W  A    A  R    R  N    N  II  N    N   GGGG   !!!           |
|     Tetrahedron method does not include variations of the Fermi             |
|     occupations, so forces and stress will be inaccurate. We suggest        |
|     using a different smearing scheme ISMEAR = 1 or 2 for metals in         |
|     relaxations.                                                            |

 total charge

# of ion       s       p       d       tot
    1        0.418   0.202   9.176   9.796
    2        0.414   0.204   9.176   9.794
    3        0.414   0.204   9.176   9.794
    4        0.414   0.204   9.176   9.794
    5        0.417   0.202   9.175   9.795
    6        0.414   0.204   9.176   9.794
    7        0.414   0.204   9.176   9.794
    8        0.414   0.204   9.176   9.794
    9        0.414   0.203   9.177   9.794
   10        0.406   0.271   9.163   9.840
   11        0.405   0.270   9.166   9.841
   12        0.406   0.271   9.163   9.840
   13        0.405   0.270   9.166   9.841
   14        0.405   0.270   9.166   9.841
   15        0.402   0.270   9.163   9.834
   16        0.406   0.271   9.163   9.840
   17        0.402   0.270   9.163   9.834
   18        0.402   0.270   9.163   9.834
   19        0.403   0.265   9.167   9.834
   20        0.432   0.296   9.145   9.874
   21        0.432   0.296   9.145   9.874
   22        0.396   0.272   9.163   9.832
   23        0.432   0.296   9.145   9.874
   24        0.396   0.272   9.163   9.832
   25        0.403   0.265   9.167   9.834
   26        0.403   0.265   9.167   9.834
   27        0.396   0.272   9.163   9.832
   28        0.413   0.204   9.172   9.790
   29        0.440   0.212   9.161   9.813
   30        0.440   0.212   9.161   9.813
   31        0.440   0.212   9.161   9.813
   32        0.440   0.212   9.161   9.813
   33        0.440   0.212   9.161   9.813
   34        0.440   0.212   9.161   9.813
   35        0.414   0.204   9.171   9.789
   36        0.627   0.612   2.380   3.620
   37        1.595   3.326   0.000   4.921
tot         16.755  12.381 323.177 352.313

 BZINTS: Fermi energy:    0.744443;  395.000000 electrons
         Band energy:-0.137330E+04;  BLOECHL correction:   -0.073102