 vasp.6.2.0 18Jan21 (build Jun 12 2021 23:27:24) complex

 executed on             LinuxIFC date 2022.05.28  02:28:51

 INCAR:
   ISMEAR = -5
   SIGMA = 0.1
   ISPIN = 1
   EDIFF = 1.d-5
   EDIFFG = -0.01
   NSW = 0
   NELM = 150
   ENCUT = 500
   ISIF = 2
   IBRION = 2
   LREAL = Auto
   ALGO = Fast
   ICHARG = 11
   LORBIT = 10
   LCHARG = .F.
   LWAVE = .F.

 POTCAR:    PAW_PBE Cu 22Jun2005
 POTCAR:    PAW_PBE Zr_sv 04Jan2005
 POTCAR:    PAW_PBE C 08Apr2002
 POTCAR:    PAW_PBE O 08Apr2002
|           W    W    AA    RRRRR   N    N  II  N    N   GGGG   !!!           |
|           W    W   A  A   R    R  NN   N  II  NN   N  G    G  !!!           |
|           W    W  A    A  R    R  N N  N  II  N N  N  G       !!!           |
|           W WW W  AAAAAA  RRRRR   N  N N  II  N  N N  G  GGG   !            |
|           WW  WW  A    A  R   R   N   NN  II  N   NN  G    G                |
|           W    W  A    A  R    R  N    N  II  N    N   GGGG   !!!           |
|     For optimal performance we recommend to set                             |
|       NCORE = 2 up to number-of-cores-per-socket                            |
|     This setting can greatly improve the performance of VASP for DFT.       |
|     The default, NCORE=1 might be grossly inefficient on modern             |
|     multi-core architectures or massively parallel machines. Do your        |
|     Unfortunately you need to use the default for GW and RPA                |
|     calculations (for HF NCORE is supported but not extensively tested      |
|     yet).                                                                   |

 POTCAR:    PAW_PBE Cu 22Jun2005
   VRHFIN =Cu: d10 p1

   TITEL  = PAW_PBE Cu 22Jun2005
   POMASS =   63.546; ZVAL   =   11.000    mass and valenz
   ENMAX  =  295.446; ENMIN  =  221.585 eV

 POTCAR:    PAW_PBE Zr_sv 04Jan2005
   VRHFIN =Zr: 4s4p5s4d

   TITEL  = PAW_PBE Zr_sv 04Jan2005
   POMASS =   91.224; ZVAL   =   12.000    mass and valenz
   ENMAX  =  229.898; ENMIN  =  172.424 eV

 POTCAR:    PAW_PBE C 08Apr2002
   VRHFIN =C: s2p2

   TITEL  = PAW_PBE C 08Apr2002
   POMASS =   12.011; ZVAL   =    4.000    mass and valenz
   ENMAX  =  400.000; ENMIN  =  300.000 eV

 POTCAR:    PAW_PBE O 08Apr2002
   VRHFIN =O: s2p4

   TITEL  = PAW_PBE O 08Apr2002
   POMASS =   16.000; ZVAL   =    6.000    mass and valenz
   ENMAX  =  400.000; ENMIN  =  300.000 eV

 Optimization of the real space projectors (new method)

 maximal supplied QI-value         = 16.25
 optimisation between [QCUT,QGAM] = [ 11.38, 22.75] = [ 36.24,144.96] Ry
 Optimized for a Real-space Cutoff    1.52 Angstroem

   l    n(q)    QCUT    max X(q) W(low)/X(q) W(high)/X(q)  e(spline)
   2      9    11.376     4.610    0.21E-03    0.10E-03    0.26E-06
   2      9    11.376     8.522    0.33E-03    0.16E-03    0.37E-06
   0     10    11.376    51.609    0.62E-04    0.20E-04    0.13E-06
   0     10    11.376    27.747    0.54E-04    0.20E-04    0.13E-06
   1     10    11.376    20.408    0.13E-04    0.99E-04    0.19E-06
   1     10    11.376    13.425    0.12E-04    0.87E-04    0.17E-06
 Optimization of the real space projectors (new method)

[...]

   l    n(q)    QCUT    max X(q) W(low)/X(q) W(high)/X(q)  e(spline)
   0      7    11.310   115.676    0.43E-03    0.13E-02    0.19E-06
   0      7    11.310    87.132    0.43E-03    0.13E-02    0.18E-06
   1      6    11.310     4.429    0.42E-03    0.74E-03    0.11E-06
   1      6    11.310     2.733    0.34E-03    0.55E-03    0.92E-07
 Optimization of the real space projectors (new method)

 maximal supplied QI-value         = 24.76
 optimisation between [QCUT,QGAM] = [ 11.39, 22.77] = [ 36.31,145.25] Ry
 Optimized for a Real-space Cutoff    1.00 Angstroem

   l    n(q)    QCUT    max X(q) W(low)/X(q) W(high)/X(q)  e(spline)
   0      7    11.387    20.381    0.39E-03    0.13E-02    0.15E-06
   0      7    11.387    15.268    0.42E-03    0.14E-02    0.17E-06
   1      6    11.387     5.964    0.41E-03    0.11E-02    0.17E-06
   1      6    11.387     5.382    0.39E-03    0.87E-03    0.15E-06
  PAW_PBE Cu 22Jun2005                  :
  PAW_PBE Zr_sv 04Jan2005               :
  PAW_PBE C 08Apr2002                   :
  PAW_PBE O 08Apr2002                   :

 POSCAR: Cu-Zr-CO2
  positions in direct lattice
  velocities in cartesian coordinates
 exchange correlation table for  LEXCH =        8
   RHO(1)=    0.500       N(1)  =     2000
   RHO(2)=  100.500       N(2)  =     4000

 VTST: version 3.2, (02/03/18)

 CHAIN: initializing optimizer

 OPT: Using VASP Conjugate-Gradient optimizer
 CHAIN: Read ICHAIN            0

 POSCAR: Cu-Zr-CO2
  positions in direct lattice
  velocities in cartesian coordinates

 ion  position               nearest neighbor table
   1  0.000  0.000  0.229-   7 2.57   3 2.57   4 2.57   2 2.57   6 2.57   8 2.57  12 2.57  10 2.57
                            16 2.57
   2  0.333  0.000  0.229-   8 2.57   9 2.57   5 2.57   1 2.57   3 2.57  11 2.57   4 2.57  10 2.57
                            17 2.57
   3  0.667  0.000  0.229-   1 2.57   7 2.57   6 2.57   9 2.57   2 2.57  12 2.57   5 2.57  18 2.57
                            11 2.57
   4  0.000  0.333  0.229-   5 2.57   6 2.57   1 2.57   7 2.57   2 2.57  13 2.57   9 2.57  10 2.57
                            15 2.57
   5  0.333  0.333  0.229-   4 2.57   2 2.57   7 2.57  13 2.57   8 2.57   6 2.57   3 2.57  11 2.57
                            14 2.57
   6  0.667  0.333  0.229-   4 2.57   9 2.57  15 2.57   3 2.57   1 2.57   8 2.57  14 2.57   5 2.57
                            12 2.57
   7  0.000  0.667  0.229-   1 2.57   3 2.57  16 2.57  18 2.57   4 2.57   5 2.57   8 2.57   9 2.57
                            13 2.57
   8  0.333  0.667  0.229-   9 2.57   2 2.57  17 2.57   6 2.57   1 2.57   7 2.57   5 2.57  14 2.57
                            16 2.57
   9  0.667  0.667  0.229-   8 2.57   6 2.57   2 2.57  17 2.57   3 2.57   7 2.57   4 2.57  15 2.57
                            18 2.57
  10  0.111  0.111  0.318-  26 2.54  19 2.54  11 2.57  12 2.57  13 2.57   1 2.57   2 2.57   4 2.57
                            15 2.57  16 2.57  17 2.57  20 2.59
  11  0.444  0.111  0.318-  27 2.56  10 2.57  13 2.57   2 2.57  17 2.57  14 2.57  12 2.57   5 2.57
                             3 2.57  18 2.57  20 2.58  21 2.58
  12  0.778  0.111  0.318-  19 2.54  25 2.54  15 2.57  10 2.57  14 2.57  18 2.57   3 2.57   1 2.57
                            16 2.57  11 2.57   6 2.57  21 2.59
  13  0.111  0.444  0.318-  22 2.56  16 2.57  18 2.57  10 2.57  11 2.57  14 2.57   5 2.57   4 2.57
                             7 2.57  15 2.57  23 2.58  20 2.58
  14  0.444  0.444  0.318-  24 2.56  15 2.57  17 2.57  12 2.57  16 2.57  13 2.57  11 2.57   6 2.57
                             8 2.57   5 2.57  21 2.58  23 2.58
  15  0.778  0.444  0.318-  19 2.54  24 2.56  22 2.56  14 2.57  17 2.57  12 2.57   6 2.57  18 2.57
                            10 2.57   9 2.57  13 2.57   4 2.57
  16  0.111  0.778  0.318-  25 2.54  26 2.54  18 2.57  13 2.57   7 2.57  14 2.57  17 2.57  12 2.57
                            10 2.57   8 2.57   1 2.57  23 2.59
  17  0.444  0.778  0.318-  26 2.54  27 2.56  24 2.56  14 2.57  15 2.57   8 2.57   9 2.57  11 2.57
                            16 2.57  18 2.57  10 2.57   2 2.57
  18  0.778  0.778  0.318-  25 2.54  22 2.56  27 2.56  16 2.57  13 2.57   7 2.57  15 2.57  12 2.57
                            17 2.57   9 2.57   3 2.57  11 2.57
  19  0.889  0.221  0.406-  12 2.54  10 2.54  15 2.54  25 2.55  26 2.55  32 2.56  31 2.56  22 2.57
                            24 2.57  28 2.57  21 2.58  20 2.58
  20  0.223  0.223  0.408-  23 2.55  21 2.55  29 2.57  31 2.57  27 2.57  22 2.57  26 2.58  19 2.58
                            11 2.58  13 2.58  10 2.59  36 2.86
  21  0.554  0.223  0.408-  20 2.55  23 2.55  32 2.57  30 2.57  24 2.57  27 2.57  19 2.58  25 2.58
                            14 2.58  11 2.58  12 2.59  36 2.86
  22  0.889  0.556  0.407-  18 2.56  15 2.56  13 2.56  31 2.56  33 2.56  24 2.57  27 2.57  23 2.57
                            20 2.57  19 2.57  25 2.57  35 2.58
  23  0.223  0.554  0.408-  20 2.55  21 2.55  33 2.57  34 2.57  22 2.57  24 2.57  25 2.58  26 2.58
                            13 2.58  14 2.58  16 2.59  36 2.86
  24  0.556  0.556  0.407-  15 2.56  17 2.56  14 2.56  32 2.56  34 2.56  22 2.57  27 2.57  21 2.57
                            23 2.57  19 2.57  26 2.57  35 2.58
  25  0.889  0.889  0.406-  12 2.54  16 2.54  18 2.54  19 2.55  26 2.55  33 2.56  30 2.56  22 2.57
                            27 2.57  28 2.57  21 2.58  23 2.58
  26  0.221  0.889  0.406-  10 2.54  16 2.54  17 2.54  25 2.55  19 2.55  29 2.56  34 2.56  27 2.57
                            24 2.57  28 2.57  20 2.58  23 2.58
  27  0.556  0.889  0.407-  17 2.56  18 2.56  11 2.56  29 2.56  30 2.56  24 2.57  22 2.57  20 2.57
                            21 2.57  26 2.57  25 2.57  35 2.58
  28  0.000  0.000  0.496-  33 2.55  30 2.55  31 2.55  29 2.55  32 2.55  34 2.55  25 2.57  19 2.57
                            26 2.57
  29  0.334  0.994  0.496-  34 2.47  35 2.54  28 2.55  27 2.56  26 2.56  20 2.57  30 2.60  31 2.62
                            36 2.64
  30  0.672  0.994  0.496-  33 2.47  35 2.54  28 2.55  27 2.56  25 2.56  21 2.57  29 2.60  32 2.62
                            36 2.64
  31  0.994  0.334  0.496-  32 2.47  35 2.54  28 2.55  22 2.56  19 2.56  20 2.57  33 2.60  29 2.62
                            36 2.64
  32  0.672  0.334  0.496-  31 2.47  35 2.54  28 2.55  24 2.56  19 2.56  21 2.57  34 2.60  30 2.62
                            36 2.64
  33  0.994  0.672  0.496-  30 2.47  35 2.54  28 2.55  22 2.56  25 2.56  23 2.57  31 2.60  34 2.62
                            36 2.64
  34  0.334  0.672  0.496-  29 2.47  35 2.54  28 2.55  24 2.56  26 2.56  23 2.57  32 2.60  33 2.62
                            36 2.64
  35  0.667  0.667  0.497-  34 2.54  32 2.54  29 2.54  30 2.54  33 2.54  31 2.54  24 2.58  27 2.58
                            22 2.58
  36  0.333  0.333  0.513-  39 2.24  38 2.24  37 2.52  31 2.64  29 2.64  33 2.64  32 2.64  34 2.64
                            30 2.64  23 2.86  20 2.86  21 2.86
  37  0.334  0.332  0.620-  39 1.28  38 1.28  36 2.52
  38  0.184  0.335  0.595-  37 1.28  36 2.24
  39  0.480  0.335  0.595-  37 1.28  36 2.24

  LATTYP: Found a hexagonal cell.
 ALAT       =     7.6967864036
 C/A-ratio  =     3.0484540560

  Lattice vectors:

 A1 = (  -3.8483927580,  -6.6656128093,   0.0000000000)
 A2 = (   7.6967864037,   0.0000000000,   0.0000000000)
 A3 = (   0.0000000000,   0.0000000000,  23.4632997305)

Analysis of symmetry for initial positions (statically):
 Subroutine PRICEL returns:
 Original cell was already a primitive cell.

 Routine SETGRP: Setting up the symmetry group for a
 hexagonal supercell.

 Subroutine GETGRP returns: Found  2 space group operations
 (whereof  2 operations were pure point group operations)
 out of a pool of 24 trial point group operations.

The static configuration has the point symmetry C_1h.

Analysis of symmetry for dynamics (positions and initial velocities):
 Subroutine PRICEL returns:
 Original cell was already a primitive cell.

[...]

The dynamic configuration has the point symmetry C_1h.

[...]
     41      -4.3453      2.00000
     42      -4.3431      2.00000
     43      -4.2949      2.00000
     44      -4.2604      2.00000
     45      -4.2477      2.00000
     46      -4.2041      2.00000
     47      -4.1452      2.00000
     48      -4.1068      2.00000
     49      -4.0470      2.00000
     50      -4.0254      2.00000
     51      -3.9853      2.00000
     52      -3.9751      2.00000
     53      -3.9463      2.00000
     54      -3.9282      2.00000
     55      -3.9162      2.00000
     56      -3.9077      2.00000
     57      -3.8906      2.00000
     58      -3.7797      2.00000
     59      -3.7575      2.00000
     60      -3.7331      2.00000
[...]
    238       5.0825      0.00000
    239       5.1852      0.00000
    240       5.3700      0.00000
    241       5.4309      0.00000
    242       5.4362      0.00000
    243       5.5803      0.00000
    244       5.6443      0.00000
    245       5.7360      0.00000
    246       5.8807      0.00000
    247       5.9278      0.00000
    248       6.0361      0.00000
    249       6.4223      0.00000
    250       6.4516      0.00000
    251       6.4938      0.00000
    252       6.5529      0.00000

 soft charge-density along one line, spin component           1
         0         1         2         3         4         5         6         7         8         9
 total charge-density along one line

------------------------ aborting loop because EDIFF is reached ----------------------------------------

 total charge

# of ion       s       p       d       tot
    1        0.449   0.283   9.188   9.920
    2        0.448   0.286   9.185   9.918
    3        0.448   0.286   9.185   9.918
    4        0.448   0.285   9.187   9.920
    5        0.449   0.285   9.183   9.917
    6        0.448   0.285   9.187   9.920
    7        0.448   0.285   9.186   9.919
    8        0.448   0.285   9.186   9.919
    9        0.448   0.284   9.188   9.920
   10        0.442   0.371   9.178   9.990
   11        0.442   0.364   9.182   9.987
   12        0.442   0.371   9.178   9.990
   13        0.440   0.364   9.181   9.986
   14        0.440   0.364   9.181   9.986
   15        0.439   0.373   9.176   9.988
   16        0.442   0.371   9.177   9.990
   17        0.439   0.373   9.177   9.989
   18        0.439   0.373   9.177   9.989
   19        0.441   0.376   9.177   9.994
   20        0.453   0.380   9.162   9.996
   21        0.453   0.380   9.162   9.996
   22        0.434   0.377   9.175   9.986
   23        0.455   0.379   9.165   9.999
   24        0.434   0.377   9.175   9.986
   25        0.446   0.371   9.183   9.999
   26        0.446   0.371   9.183   9.999
   27        0.436   0.373   9.180   9.989
   28        0.448   0.296   9.182   9.926
   29        0.489   0.318   9.167   9.974
   30        0.489   0.318   9.167   9.974
   31        0.474   0.314   9.177   9.965
   32        0.474   0.314   9.177   9.965
   33        0.488   0.317   9.170   9.974
   34        0.488   0.317   9.170   9.974
   35        0.448   0.301   9.181   9.931
   36        2.224   5.994   1.594   9.812
   37        0.918   1.538   0.000   2.456
   38        1.601   3.478   0.000   5.079
   39        1.601   3.478   0.000   5.079
tot         22.140  26.252 322.827 371.220

  FORCE on cell =-STRESS in cart. coord.  units (eV):
  Direction    XX          YY          ZZ          XY          YZ          ZX
  Alpha Z   859.28580   859.28580   859.28580
  Ewald  217547.81369216774.91986************     0.00042    -4.70842     0.00022
  Hartree230559.02806230138.43889************     0.00005    -2.96414     0.00007
  E(xc)   -2371.45178 -2373.20319 -2376.65570    -0.00027    -0.01832    -0.00004
  Local  ************************460330.56805     0.02005     7.85961    -0.00077
  n-local  -818.57940  -811.97602  -823.06582     1.48353     0.06113     0.04034
  augment  3321.69316  3322.29283  3341.93787    -0.01785    -0.03957     0.00034
  Kinetic  3667.24596  3698.96673  3704.94827     0.49290    -0.27396    -0.25359
  Fock        0.00000     0.00000     0.00000     0.00000     0.00000     0.00000
  Total      -3.30037    -2.91618    -1.35181     0.00000    -0.08367     0.00000
  in kB      -4.39273    -3.88139    -1.79923     0.00000    -0.11136     0.00000

 VOLUME and BASIS-vectors are now :
  energy-cutoff  :      500.00
  volume of cell :     1203.76
      direct lattice vectors                 reciprocal lattice vectors
     7.696786404  0.000000000  0.000000000     0.129924354 -0.075011849  0.000000000
     3.848392758  6.665612809  0.000000000     0.000000000  0.150023716  0.000000000
     0.000000000  0.000000000 23.463299730     0.000000000  0.000000000  0.042619751

  length of vectors
     7.696786404  7.696786404 23.463299730     0.150023716  0.150023716  0.042619751

 FORCES acting on ions
    electron-ion (+dipol)            ewald-force                    non-local-force                 convergence-correction
   -.416E-04 0.149E+00 0.378E+04   0.579E-04 -.486E-01 -.377E+04   0.308E-08 -.462E-01 -.227E+01   -.334E-03 -.535E-01 -.232E+00
   -.913E+00 -.827E+00 0.377E+04   0.845E+00 0.819E+00 -.377E+04   0.332E-01 0.233E-01 -.184E+01   0.460E-01 -.936E-02 -.180E+00
   0.913E+00 -.827E+00 0.377E+04   -.845E+00 0.819E+00 -.377E+04   -.332E-01 0.233E-01 -.184E+01   -.451E-01 -.674E-02 -.179E+00
   -.129E+01 -.368E+00 0.377E+04   0.117E+01 0.296E+00 -.377E+04   0.103E+00 0.109E-01 -.206E+01   0.230E-01 0.539E-01 -.139E+00
   -.616E-04 -.394E-01 0.377E+04   0.116E-03 -.176E-02 -.377E+04   -.213E-08 0.320E-01 -.184E+01   0.122E-01 0.479E-02 -.742E-01
   0.129E+01 -.368E+00 0.377E+04   -.117E+01 0.296E+00 -.377E+04   -.103E+00 0.109E-01 -.206E+01   -.247E-01 0.551E-01 -.138E+00
   -.346E+00 0.117E+01 0.377E+04   0.329E+00 -.112E+01 -.377E+04   0.341E-01 -.483E-01 -.193E+01   -.802E-02 -.102E-01 -.231E+00
   0.346E+00 0.117E+01 0.377E+04   -.330E+00 -.112E+01 -.377E+04   -.341E-01 -.483E-01 -.193E+01   0.115E-01 -.117E-01 -.231E+00
   -.144E-03 -.699E-01 0.378E+04   0.263E-03 0.504E-01 -.377E+04   -.323E-08 0.485E-01 -.213E+01   -.133E-01 -.206E-01 -.215E+00
   -.995E+01 -.543E+01 0.138E+04   0.102E+02 0.546E+01 -.138E+04   -.241E+00 -.665E-01 -.910E+00   0.658E-01 0.559E-01 -.225E+00
   -.913E-04 -.754E+01 0.137E+04   0.189E-03 0.717E+01 -.137E+04   -.175E-07 0.263E+00 -.519E+00   0.118E-01 0.953E-01 -.251E+00
   0.995E+01 -.543E+01 0.138E+04   -.102E+02 0.546E+01 -.138E+04   0.241E+00 -.665E-01 -.910E+00   -.678E-01 0.580E-01 -.225E+00
   -.682E+01 0.375E+01 0.137E+04   0.657E+01 -.353E+01 -.137E+04   0.220E+00 -.152E+00 -.512E+00   0.358E-01 -.601E-01 -.251E+00
   0.682E+01 0.375E+01 0.137E+04   -.657E+01 -.353E+01 -.137E+04   -.220E+00 -.152E+00 -.512E+00   -.114E-01 -.611E-01 -.251E+00
   -.139E-03 -.235E+01 0.138E+04   0.296E-03 0.231E+01 -.138E+04   -.604E-09 0.906E-02 -.111E+01   -.405E-02 0.371E-01 -.200E+00
   -.870E-04 0.113E+02 0.138E+04   0.186E-03 -.116E+02 -.138E+04   -.199E-07 0.300E+00 -.781E+00   -.169E-03 -.344E-01 -.207E+00
   -.190E+01 0.960E+00 0.138E+04   0.179E+01 -.875E+00 -.138E+04   0.842E-01 -.660E-01 -.849E+00   0.404E-01 -.314E-01 -.244E+00
   0.190E+01 0.960E+00 0.138E+04   -.179E+01 -.875E+00 -.138E+04   -.842E-01 -.660E-01 -.849E+00   -.397E-01 -.284E-01 -.243E+00
   -.592E-04 -.225E+01 -.101E+04   0.661E-04 0.227E+01 0.101E+04   0.160E-08 -.240E-01 0.133E+01   -.247E-02 0.391E-02 -.516E+00
   -.219E+02 -.104E+02 -.107E+04   0.229E+02 0.109E+02 0.107E+04   -.980E+00 -.512E+00 -.400E+00   -.436E-01 -.278E-02 -.576E+00
   0.219E+02 -.104E+02 -.107E+04   -.229E+02 0.109E+02 0.107E+04   0.980E+00 -.512E+00 -.400E+00   0.676E-01 -.135E-02 -.577E+00
   -.728E+01 0.168E+01 -.103E+04   0.731E+01 -.145E+01 0.103E+04   0.577E-01 -.172E+00 0.869E+00   -.583E-01 -.664E-01 -.588E+00
   -.519E-04 0.219E+02 -.108E+04   0.148E-03 -.231E+02 0.108E+04   -.871E-07 0.131E+01 -.541E+00   0.120E-01 0.341E-01 -.613E+00
   0.728E+01 0.168E+01 -.103E+04   -.731E+01 -.145E+01 0.103E+04   -.577E-01 -.172E+00 0.869E+00   0.557E-01 -.677E-01 -.588E+00
   0.343E+01 0.292E+01 -.101E+04   -.348E+01 -.298E+01 0.101E+04   -.116E-01 0.235E-01 0.118E+01   0.313E-01 0.525E-01 -.528E+00
   -.343E+01 0.292E+01 -.101E+04   0.348E+01 -.298E+01 0.101E+04   0.116E-01 0.235E-01 0.118E+01   -.307E-01 0.497E-01 -.527E+00
   -.146E-03 -.824E+01 -.103E+04   0.244E-03 0.791E+01 0.103E+04   -.236E-07 0.354E+00 0.951E+00   -.953E-03 0.258E-01 -.604E+00
   -.121E-04 0.136E+02 -.347E+04   0.338E-04 -.135E+02 0.347E+04   0.168E-07 -.253E+00 0.169E+01   -.302E-03 0.988E-01 -.347E+00
   0.133E+02 0.320E+02 -.341E+04   -.130E+02 -.322E+02 0.341E+04   -.309E+00 0.727E-01 0.130E+01   -.698E-01 -.849E-01 -.517E+00
   -.133E+02 0.320E+02 -.341E+04   0.130E+02 -.322E+02 0.341E+04   0.309E+00 0.727E-01 0.130E+01   0.708E-01 -.823E-01 -.517E+00
   0.370E+02 0.720E+01 -.338E+04   -.379E+02 -.708E+01 0.338E+04   0.849E+00 -.144E+00 0.305E+01   -.202E+00 0.870E-02 -.436E+00
   -.370E+02 0.720E+01 -.338E+04   0.379E+02 -.708E+01 0.338E+04   -.849E+00 -.144E+00 0.305E+01   0.200E+00 0.966E-02 -.438E+00
   0.172E+01 -.397E+02 -.341E+04   -.160E+01 0.398E+02 0.341E+04   -.326E-01 0.779E-02 0.145E+01   -.893E-01 0.684E-01 -.490E+00
   -.172E+01 -.397E+02 -.341E+04   0.160E+01 0.398E+02 0.341E+04   0.326E-01 0.779E-02 0.145E+01   0.927E-01 0.669E-01 -.491E+00
   -.141E-03 -.144E+02 -.349E+04   0.264E-03 0.142E+02 0.349E+04   -.217E-07 0.326E+00 0.184E+01   -.133E-01 -.118E+00 -.362E+00
   0.144E-03 0.162E+01 -.369E+04   0.122E-03 -.163E+01 0.369E+04   0.171E-08 -.257E-01 0.946E+00   0.502E-02 -.109E-01 -.661E+00
   0.141E-04 0.668E+01 -.157E+04   0.148E-05 -.742E+01 0.159E+04   -.478E-07 0.718E+00 -.177E+02   0.155E-03 0.660E-02 -.142E+00
   0.258E+03 -.281E+01 -.219E+04   -.305E+03 0.368E+01 0.218E+04   0.476E+02 -.882E+00 0.662E+01   -.334E+00 0.123E-01 -.281E+00
   -.258E+03 -.281E+01 -.219E+04   0.305E+03 0.368E+01 0.218E+04   -.476E+02 -.882E+00 0.662E+01   0.334E+00 0.124E-01 -.282E+00
   0.238E-03 0.729E+00 0.219E+02   0.114E-12 -.123E-12 -.909E-11   0.531E-07 -.798E+00 -.822E+01   0.571E-01 0.475E-01 -.138E+02

 POSITION                                       TOTAL-FORCE (eV/Angst)
      0.00000      0.00000      5.37156        -0.000000      0.001332      0.017671
      2.56560      0.00000      5.37156         0.010255      0.008132      0.075793
      5.13119      0.00000      5.37156        -0.010255      0.008132      0.075793
      1.28280      2.22187      5.37156         0.006505     -0.006613      0.047305
      3.84839      2.22187      5.37156         0.000000     -0.003883      0.055439
      6.41399      2.22187      5.37156        -0.006505     -0.006613      0.047305
      2.56560      4.44374      5.37156         0.008187     -0.001424      0.074622
      5.13119      4.44374      5.37156        -0.008187     -0.001424      0.074622
      7.69679      4.44374      5.37156        -0.000000      0.008831      0.032754
      1.28280      0.74062      7.46636         0.037025      0.024946     -0.105033
      3.84839      0.74062      7.46636         0.000000     -0.012222     -0.022050
      6.41399      0.74062      7.46636        -0.037025      0.024946     -0.105033
      2.56560      2.96249      7.46636        -0.008741      0.008642     -0.019461
      5.13119      2.96249      7.46636         0.008741      0.008642     -0.019461
      7.69679      2.96249      7.46636        -0.000000      0.006857     -0.054084
      3.84839      5.18437      7.46636         0.000000     -0.033974     -0.094611
      6.41399      5.18437      7.46636         0.013215     -0.010777     -0.024217
      8.97958      5.18437      7.46636        -0.013215     -0.010777     -0.024217
      7.69679      1.47435      9.52922         0.000000     -0.002178      0.115818
      2.57570      1.48708      9.58099        -0.053755     -0.044650     -0.109954
      5.12109      1.48708      9.58099         0.053755     -0.044650     -0.109954
      8.97941      3.70322      9.55185         0.030242     -0.009253      0.050695
      3.84839      3.69145      9.58099        -0.000000      0.068181     -0.079916
      6.41416      3.70322      9.55185        -0.030242     -0.009253      0.050695
     10.26835      5.92844      9.52922        -0.030337      0.014183      0.006625
      5.12522      5.92844      9.52922         0.030337      0.014183      0.006625
      7.69679      5.92479      9.55185        -0.000000      0.055690     -0.012919
      0.00000      0.00000     11.63765         0.000000     -0.032940     -0.043782
      6.39598      6.62341     11.64088        -0.014072     -0.213505     -0.200630
      8.99759      6.62341     11.64088         0.014072     -0.213505     -0.200630
      8.93403      2.22738     11.64088        -0.229984     -0.014500     -0.182302
      6.45955      2.22738     11.64088         0.229984     -0.014500     -0.182302
     10.23483      4.48044     11.64088        -0.010271      0.223370     -0.204688
      5.15874      4.48044     11.64088         0.010271      0.223370     -0.204688
      7.69679      4.44374     11.66679        -0.000000      0.044754     -0.066574
      3.84839      2.22187     12.03290         0.000000     -0.048565      1.374364
      3.84839      2.21149     14.55066         0.000000     -0.011040      0.149853
      2.70939      2.23420     13.96043         0.011939      0.001025     -0.094734
      4.98740      2.23420     13.96043        -0.011939      0.001025     -0.094734
    total drift:                                0.057334     -0.021415     -0.139490

  FREE ENERGIE OF THE ION-ELECTRON SYSTEM (eV)
  free  energy   TOTEN  =      -152.89891068 eV

  energy  without entropy=     -152.89891068  energy(sigma->0) =     -152.89891068

 stress matrix after NEB project (eV)
     -3.30037      0.00000      0.00000
      0.00000     -2.91618     -0.08367
      0.00000     -0.08367     -1.35181
  FORCES: max atom, RMS     0.150259    0.032350
  FORCE total and by dimension    0.202025    0.149853
  Stress total and by dimension    4.608462    3.300366
|           W    W    AA    RRRRR   N    N  II  N    N   GGGG   !!!           |
|           W    W   A  A   R    R  NN   N  II  NN   N  G    G  !!!           |
|           W    W  A    A  R    R  N N  N  II  N N  N  G       !!!           |
|           W WW W  AAAAAA  RRRRR   N  N N  II  N  N N  G  GGG   !            |
|           WW  WW  A    A  R   R   N   NN  II  N   NN  G    G                |
|           W    W  A    A  R    R  N    N  II  N    N   GGGG   !!!           |
|     Tetrahedron method does not include variations of the Fermi             |
|     occupations, so forces and stress will be inaccurate. We suggest        |
|     using a different smearing scheme ISMEAR = 1 or 2 for metals in         |
|     relaxations.                                                            |

 total charge

# of ion       s       p       d       tot
    1        0.449   0.283   9.188   9.920
    2        0.448   0.286   9.185   9.918
    3        0.448   0.286   9.185   9.918
    4        0.448   0.285   9.187   9.920
    5        0.449   0.285   9.183   9.917
    6        0.448   0.285   9.187   9.920
    7        0.448   0.285   9.186   9.919
    8        0.448   0.285   9.186   9.919
    9        0.448   0.284   9.188   9.920
   10        0.442   0.371   9.178   9.990
   11        0.442   0.364   9.182   9.987
   12        0.442   0.371   9.178   9.990
   13        0.440   0.364   9.181   9.986
   14        0.440   0.364   9.181   9.986
   15        0.439   0.373   9.176   9.988
   16        0.442   0.371   9.177   9.990
   17        0.439   0.373   9.177   9.989
   18        0.439   0.373   9.177   9.989
   19        0.441   0.376   9.177   9.994
   20        0.453   0.380   9.162   9.996
   21        0.453   0.380   9.162   9.996
   22        0.434   0.377   9.175   9.986
   23        0.455   0.379   9.165   9.999
   24        0.434   0.377   9.175   9.986
   25        0.446   0.371   9.183   9.999
   26        0.446   0.371   9.183   9.999
   27        0.436   0.373   9.180   9.989
   28        0.448   0.296   9.182   9.926
   29        0.489   0.318   9.167   9.974
   30        0.489   0.318   9.167   9.974
   31        0.474   0.314   9.177   9.965
   32        0.474   0.314   9.177   9.965
   33        0.488   0.317   9.170   9.974
   34        0.488   0.317   9.170   9.974
   35        0.448   0.301   9.181   9.931
   36        2.224   5.994   1.594   9.812
   37        0.918   1.538   0.000   2.456
   38        1.601   3.478   0.000   5.079
   39        1.601   3.478   0.000   5.079
tot         22.140  26.252 322.827 371.220

 BZINTS: Fermi energy:   -0.196797;  413.000000 electrons
         Band energy:-0.163737E+04;  BLOECHL correction:   -0.035551