 vasp.6.2.0 18Jan21 (build Jun 12 2021 23:27:24) complex

 executed on             LinuxIFC date 2022.05.26  19:58:32

 INCAR:
   ISMEAR = -5
   SIGMA = 0.1
   ISPIN = 1
   EDIFF = 1.d-5
   EDIFFG = -0.01
   NSW = 0
   NELM = 150
   ENCUT = 500
   ISIF = 2
   IBRION = 2
   LREAL = Auto
   ALGO = Fast
   ICHARG = 11
   LORBIT = 10
   LCHARG = .F.
   LWAVE = .F.

 POTCAR:    PAW_PBE Cu 22Jun2005
 POTCAR:    PAW_PBE Mn 06Sep2000
 POTCAR:    PAW_PBE N 08Apr2002
|           W    W    AA    RRRRR   N    N  II  N    N   GGGG   !!!           |
|           W    W   A  A   R    R  NN   N  II  NN   N  G    G  !!!           |
|           W    W  A    A  R    R  N N  N  II  N N  N  G       !!!           |
|           W WW W  AAAAAA  RRRRR   N  N N  II  N  N N  G  GGG   !            |
|           WW  WW  A    A  R   R   N   NN  II  N   NN  G    G                |
|           W    W  A    A  R    R  N    N  II  N    N   GGGG   !!!           |
|     For optimal performance we recommend to set                             |
|       NCORE = 2 up to number-of-cores-per-socket                            |
|     This setting can greatly improve the performance of VASP for DFT.       |
|     The default, NCORE=1 might be grossly inefficient on modern             |
|     multi-core architectures or massively parallel machines. Do your        |
|     Unfortunately you need to use the default for GW and RPA                |
|     calculations (for HF NCORE is supported but not extensively tested      |
|     yet).                                                                   |

 POTCAR:    PAW_PBE Cu 22Jun2005
   VRHFIN =Cu: d10 p1

   TITEL  = PAW_PBE Cu 22Jun2005
   POMASS =   63.546; ZVAL   =   11.000    mass and valenz
   ENMAX  =  295.446; ENMIN  =  221.585 eV

 POTCAR:    PAW_PBE Mn 06Sep2000
   VRHFIN =Mn: d6 s1

   TITEL  = PAW_PBE Mn 06Sep2000
   POMASS =   54.938; ZVAL   =    7.000    mass and valenz
   ENMAX  =  269.864; ENMIN  =  202.398 eV

 POTCAR:    PAW_PBE N 08Apr2002
   VRHFIN =N: s2p3

   TITEL  = PAW_PBE N 08Apr2002
   POMASS =   14.001; ZVAL   =    5.000    mass and valenz
   ENMAX  =  400.000; ENMIN  =  300.000 eV

 Optimization of the real space projectors (new method)

 maximal supplied QI-value         = 16.25
 optimisation between [QCUT,QGAM] = [ 11.38, 22.75] = [ 36.24,144.96] Ry
 Optimized for a Real-space Cutoff    1.52 Angstroem

   l    n(q)    QCUT    max X(q) W(low)/X(q) W(high)/X(q)  e(spline)
   2      9    11.376     4.610    0.21E-03    0.10E-03    0.26E-06
   2      9    11.376     8.522    0.33E-03    0.16E-03    0.37E-06
   0     10    11.376    51.609    0.62E-04    0.20E-04    0.13E-06
   0     10    11.376    27.747    0.54E-04    0.20E-04    0.13E-06
   1     10    11.376    20.408    0.13E-04    0.99E-04    0.19E-06
   1     10    11.376    13.425    0.12E-04    0.87E-04    0.17E-06
 Optimization of the real space projectors (new method)

[...]

   l    n(q)    QCUT    max X(q) W(low)/X(q) W(high)/X(q)  e(spline)
   2      8    11.376   110.144    0.49E-03    0.27E-04    0.26E-06
   2      8    11.376   103.200    0.49E-03    0.28E-04    0.27E-06
   0      9    11.376    68.437    0.57E-04    0.92E-04    0.15E-06
   0      9    11.376    33.971    0.51E-04    0.83E-04    0.14E-06
   1      9    11.376    17.065    0.34E-03    0.68E-04    0.14E-06
   1      9    11.376    12.540    0.27E-03    0.59E-04    0.11E-06
 Optimization of the real space projectors (new method)

 maximal supplied QI-value         = 25.13
 optimisation between [QCUT,QGAM] = [ 11.31, 22.87] = [ 35.82,146.48] Ry
 Optimized for a Real-space Cutoff    1.27 Angstroem

   l    n(q)    QCUT    max X(q) W(low)/X(q) W(high)/X(q)  e(spline)
   0      9    11.310    79.467    0.75E-04    0.16E-03    0.36E-06
   0      9    11.310    66.151    0.74E-04    0.16E-03    0.36E-06
   1      8    11.310    17.416    0.35E-03    0.12E-03    0.95E-06
   1      8    11.310    12.382    0.37E-03    0.13E-03    0.98E-06
  PAW_PBE Cu 22Jun2005                  :
  PAW_PBE Mn 06Sep2000                  :
  PAW_PBE N 08Apr2002                   :

 POSCAR: Cu-Mn-N
  positions in direct lattice
  velocities in cartesian coordinates
 exchange correlation table for  LEXCH =        8
   RHO(1)=    0.500       N(1)  =     2000
   RHO(2)=  100.500       N(2)  =     4000

 VTST: version 3.2, (02/03/18)

 CHAIN: initializing optimizer

 OPT: Using VASP Conjugate-Gradient optimizer
 CHAIN: Read ICHAIN            0

 POSCAR: Cu-Mn-N
  positions in direct lattice
  velocities in cartesian coordinates

 ion  position               nearest neighbor table
   1  0.000  0.000  0.252-   7 2.57   3 2.57   4 2.57   2 2.57   6 2.57   8 2.57  12 2.57  10 2.57
                            16 2.57
   2  0.333  0.000  0.252-   8 2.57   9 2.57   5 2.57   1 2.57   3 2.57  11 2.57   4 2.57  10 2.57
                            17 2.57
   3  0.667  0.000  0.252-   1 2.57   7 2.57   6 2.57   9 2.57   2 2.57  12 2.57   5 2.57  18 2.57
                            11 2.57
   4  0.000  0.333  0.252-   5 2.57   6 2.57   1 2.57   7 2.57   2 2.57  13 2.57   9 2.57  10 2.57
                            15 2.57
   5  0.333  0.333  0.252-   4 2.57   2 2.57   7 2.57  13 2.57   8 2.57   6 2.57   3 2.57  11 2.57
                            14 2.57
   6  0.667  0.333  0.252-   4 2.57   9 2.57  15 2.57   3 2.57   1 2.57   8 2.57  14 2.57   5 2.57
                            12 2.57
   7  0.000  0.667  0.252-   1 2.57   3 2.57  16 2.57  18 2.57   4 2.57   5 2.57   8 2.57   9 2.57
                            13 2.57
   8  0.333  0.667  0.252-   9 2.57   2 2.57  17 2.57   6 2.57   1 2.57   7 2.57   5 2.57  14 2.57
                            16 2.57
   9  0.667  0.667  0.252-   8 2.57   6 2.57   2 2.57  17 2.57   3 2.57   7 2.57   4 2.57  15 2.57
                            18 2.57
  10  0.111  0.111  0.351-  20 2.55  26 2.56  19 2.56  11 2.57  12 2.57  13 2.57   1 2.57   2 2.57
                             4 2.57  15 2.57  16 2.57  17 2.57
  11  0.444  0.111  0.351-  20 2.55  21 2.55  27 2.56  10 2.57  13 2.57   2 2.57  17 2.57  14 2.57
                            12 2.57   5 2.57   3 2.57  18 2.57
  12  0.778  0.111  0.351-  21 2.55  19 2.56  25 2.56  15 2.57  10 2.57  14 2.57  18 2.57   3 2.57
                             1 2.57  16 2.57  11 2.57   6 2.57
  13  0.111  0.444  0.351-  23 2.55  20 2.55  22 2.56  16 2.57  18 2.57  10 2.57  11 2.57  14 2.57
                             5 2.57   4 2.57   7 2.57  15 2.57
  14  0.444  0.444  0.351-  21 2.55  23 2.55  24 2.56  15 2.57  17 2.57  12 2.57  16 2.57  13 2.57
                            11 2.57   6 2.57   8 2.57   5 2.57
  15  0.778  0.444  0.351-  19 2.56  24 2.56  22 2.56  14 2.57  17 2.57  12 2.57   6 2.57  18 2.57
                            10 2.57   9 2.57  13 2.57   4 2.57
  16  0.111  0.778  0.351-  23 2.55  25 2.56  26 2.56  18 2.57  13 2.57   7 2.57  14 2.57  17 2.57
                            12 2.57  10 2.57   8 2.57   1 2.57
  17  0.444  0.778  0.351-  26 2.56  27 2.56  24 2.56  14 2.57  15 2.57   8 2.57   9 2.57  11 2.57
                            16 2.57  18 2.57  10 2.57   2 2.57
  18  0.778  0.778  0.351-  25 2.56  22 2.56  27 2.56  16 2.57  13 2.57   7 2.57  15 2.57  12 2.57
                            17 2.57   9 2.57   3 2.57  11 2.57
  19  0.889  0.222  0.449-  28 2.55  15 2.56  12 2.56  10 2.56  22 2.56  24 2.56  21 2.57  20 2.57
                            25 2.57  26 2.57  32 2.57  31 2.57
  20  0.222  0.222  0.448-  36 2.48  11 2.55  13 2.55  10 2.55  29 2.56  31 2.56  23 2.56  21 2.56
                            26 2.57  19 2.57  27 2.57  22 2.57
  21  0.555  0.222  0.448-  36 2.48  14 2.55  11 2.55  12 2.55  32 2.56  30 2.56  20 2.56  23 2.56
                            19 2.57  25 2.57  24 2.57  27 2.57
  22  0.888  0.556  0.449-  35 2.55  24 2.56  27 2.56  31 2.56  33 2.56  18 2.56  15 2.56  13 2.56
                            19 2.56  25 2.56  23 2.57  20 2.57
  23  0.222  0.555  0.448-  36 2.48  13 2.55  14 2.55  16 2.55  33 2.56  34 2.56  20 2.56  21 2.56
                            25 2.57  26 2.57  22 2.57  24 2.57
  24  0.556  0.556  0.449-  35 2.55  22 2.56  27 2.56  32 2.56  34 2.56  15 2.56  17 2.56  14 2.56
                            19 2.56  26 2.56  21 2.57  23 2.57
  25  0.889  0.889  0.449-  28 2.55  18 2.56  16 2.56  12 2.56  22 2.56  27 2.56  21 2.57  23 2.57
                            19 2.57  26 2.57  33 2.57  30 2.57
  26  0.222  0.889  0.449-  28 2.55  17 2.56  10 2.56  16 2.56  27 2.56  24 2.56  20 2.57  23 2.57
                            25 2.57  19 2.57  29 2.57  34 2.57
  27  0.556  0.888  0.449-  35 2.55  24 2.56  22 2.56  29 2.56  30 2.56  17 2.56  18 2.56  11 2.56
                            26 2.56  25 2.56  20 2.57  21 2.57
  28  0.000  0.000  0.547-  25 2.55  19 2.55  26 2.55  33 2.58  30 2.58  31 2.58  29 2.58  32 2.58
                            34 2.58
  29  0.333  0.003  0.547-  31 2.54  36 2.55  30 2.55  20 2.56  27 2.56  26 2.57  28 2.58  35 2.58
                            34 2.61
  30  0.664  0.003  0.547-  32 2.54  36 2.55  29 2.55  21 2.56  27 2.56  25 2.57  28 2.58  35 2.58
                            33 2.61
  31  0.003  0.333  0.547-  29 2.54  36 2.55  33 2.55  20 2.56  22 2.56  19 2.57  28 2.58  35 2.58
                            32 2.61
  32  0.664  0.333  0.547-  30 2.54  36 2.55  34 2.55  21 2.56  24 2.56  19 2.57  28 2.58  35 2.58
                            31 2.61
  33  0.003  0.664  0.547-  34 2.54  36 2.55  31 2.55  23 2.56  22 2.56  25 2.57  28 2.58  35 2.58
                            30 2.61
  34  0.333  0.664  0.547-  33 2.54  36 2.55  32 2.55  23 2.56  24 2.56  26 2.57  28 2.58  35 2.58
                            29 2.61
  35  0.667  0.667  0.547-  24 2.55  27 2.55  22 2.55  34 2.58  32 2.58  29 2.58  30 2.58  33 2.58
                            31 2.58
  36  0.333  0.333  0.542-  37 1.57  23 2.48  20 2.48  21 2.48  31 2.55  29 2.55  33 2.55  34 2.55
                            32 2.55  30 2.55
  37  0.333  0.333  0.615-  36 1.57

  LATTYP: Found a hexagonal cell.
 ALAT       =     7.6967864036
 C/A-ratio  =     2.7653617908

  Lattice vectors:

 A1 = (  -3.8483927580,  -6.6656128093,   0.0000000000)
 A2 = (   7.6967864037,   0.0000000000,   0.0000000000)
 A3 = (   0.0000000000,   0.0000000000,  21.2843990326)

Analysis of symmetry for initial positions (statically):
 Subroutine PRICEL returns:
 Original cell was already a primitive cell.

 Routine SETGRP: Setting up the symmetry group for a
 hexagonal supercell.

 Subroutine GETGRP returns: Found  6 space group operations
 (whereof  6 operations were pure point group operations)
 out of a pool of 24 trial point group operations.

The static configuration has the point symmetry C_3v.

Analysis of symmetry for dynamics (positions and initial velocities):
 Subroutine PRICEL returns:
 Original cell was already a primitive cell.

[...]

The dynamic configuration has the point symmetry C_3v.

Analysis of constrained symmetry for selective dynamics:
 Subroutine PRICEL returns:
 Original cell was already a primitive cell.

 Routine SETGRP: Setting up the symmetry group for a
 hexagonal supercell.

 Subroutine GETGRP returns: Found  6 space group operations
[...]
     24      -4.3342      2.00000
     25      -4.2128      2.00000
     26      -4.1576      2.00000
     27      -4.1064      2.00000
     28      -4.0946      2.00000
     29      -4.0862      2.00000
     30      -4.0722      2.00000
     31      -4.0712      2.00000
     32      -4.0612      2.00000
     33      -4.0202      2.00000
     34      -3.9806      2.00000
     35      -3.9662      2.00000
     36      -3.9228      2.00000
     37      -3.8548      2.00000
     38      -3.8291      2.00000
     39      -3.8055      2.00000
     40      -3.7962      2.00000
     41      -3.7577      2.00000
     42      -3.6973      2.00000
     43      -3.6732      2.00000
     44      -3.6583      2.00000
     45      -3.6298      2.00000
     46      -3.6189      2.00000
     47      -3.5642      2.00000
     48      -3.5075      2.00000
     49      -3.4825      2.00000
     50      -3.4153      2.00000
     51      -3.3918      2.00000
     52      -3.3877      2.00000
     53      -3.3533      2.00000
     54      -3.3468      2.00000
     55      -3.3424      2.00000
     56      -3.3018      2.00000
     57      -3.2921      2.00000
     58      -3.2795      2.00000
     59      -3.2739      2.00000
     60      -3.2568      2.00000
[...]
    238       6.1974      0.00000
    239       6.3314      0.00000
    240       6.4226      0.00000
    241       6.9256      0.00000
    242       6.9469      0.00000
    243       7.0715      0.00000
    244       7.1282      0.00000
    245       7.2280      0.00000
    246       7.2727      0.00000
    247       7.3669      0.00000
    248       7.4765      0.00000
    249       7.5246      0.00000
    250       7.7678      0.00000
    251       7.8053      0.00000
    252       7.9322      0.00000

 soft charge-density along one line, spin component           1
         0         1         2         3         4         5         6         7         8         9
 total charge-density along one line

------------------------ aborting loop because EDIFF is reached ----------------------------------------

 total charge

# of ion       s       p       d       tot
    1        0.451   0.283   9.189   9.923
    2        0.448   0.285   9.186   9.920
    3        0.448   0.285   9.186   9.920
    4        0.448   0.285   9.186   9.920
    5        0.449   0.284   9.186   9.920
    6        0.448   0.285   9.186   9.920
    7        0.448   0.285   9.186   9.920
    8        0.448   0.285   9.186   9.920
    9        0.447   0.285   9.187   9.919
   10        0.441   0.370   9.179   9.991
   11        0.440   0.371   9.181   9.991
   12        0.441   0.370   9.179   9.991
   13        0.440   0.371   9.181   9.991
   14        0.440   0.371   9.181   9.991
   15        0.439   0.369   9.179   9.988
   16        0.441   0.370   9.179   9.991
   17        0.439   0.369   9.179   9.988
   18        0.439   0.369   9.179   9.988
   19        0.442   0.366   9.182   9.990
   20        0.459   0.392   9.168  10.019
   21        0.459   0.392   9.168  10.019
   22        0.434   0.375   9.179   9.988
   23        0.459   0.392   9.168  10.019
   24        0.434   0.375   9.179   9.988
   25        0.442   0.366   9.182   9.990
   26        0.442   0.366   9.182   9.990
   27        0.434   0.375   9.179   9.988
   28        0.452   0.281   9.189   9.922
   29        0.446   0.296   9.186   9.927
   30        0.446   0.296   9.186   9.927
   31        0.446   0.296   9.186   9.927
   32        0.446   0.296   9.186   9.927
   33        0.446   0.296   9.186   9.927
   34        0.446   0.296   9.186   9.927
   35        0.448   0.285   9.188   9.920
   36        0.444   0.499   5.339   6.282
   37        1.355   2.184   0.000   3.539
tot         17.378  14.318 326.715 358.411

  FORCE on cell =-STRESS in cart. coord.  units (eV):
  Direction    XX          YY          ZZ          XY          YZ          ZX
  Alpha Z   882.50165   882.50165   882.50165
  Ewald  173176.43065173176.43023************     0.00040     0.00012     0.00018
  Hartree186188.74846186188.74843************     0.00005     0.00006     0.00007
  E(xc)   -2300.34146 -2300.34098 -2305.12859    -0.00042    -0.00003    -0.00006
  Local  ************************372614.38256     0.01854    -0.00059    -0.00098
  n-local  -795.72189  -782.57268  -801.52931     7.21943    -0.02685     0.26104
  augment  3339.13092  3339.15094  3350.71839    -0.01734     0.00024     0.00038
  Kinetic  3296.82586  3299.00884  3306.03352     2.83959     1.67718    -1.37062
  Fock        0.00000     0.00000     0.00000     0.00000     0.00000     0.00000
  Total      -5.23328    -5.23328     0.51431     0.00000    -0.00000    -0.00000
  in kB      -7.67846    -7.67846     0.75462     0.00000    -0.00000    -0.00000

 VOLUME and BASIS-vectors are now :
  energy-cutoff  :      500.00
  volume of cell :     1091.97
      direct lattice vectors                 reciprocal lattice vectors
     7.696786404  0.000000000  0.000000000     0.129924354 -0.075011849  0.000000000
     3.848392758  6.665612809  0.000000000     0.000000000  0.150023716  0.000000000
     0.000000000  0.000000000 21.284399033     0.000000000  0.000000000  0.046982769

  length of vectors
     7.696786404  7.696786404 21.284399033     0.150023716  0.150023716  0.046982769

 FORCES acting on ions
    electron-ion (+dipol)            ewald-force                    non-local-force                 convergence-correction
   -.416E-04 0.157E-06 0.348E+04   0.579E-04 -.438E-05 -.348E+04   0.198E-17 -.937E-18 -.220E+01   -.251E-03 -.112E-03 -.238E+00
   -.556E-01 0.260E-01 0.348E+04   0.289E-01 -.272E-01 -.348E+04   -.454E-02 0.471E-01 -.198E+01   0.330E-01 -.398E-01 -.257E+00
   0.556E-01 0.260E-01 0.348E+04   -.290E-01 -.272E-01 -.348E+04   0.454E-02 0.471E-01 -.198E+01   -.323E-01 -.374E-01 -.256E+00
   -.526E-02 -.612E-01 0.348E+04   -.917E-02 0.387E-01 -.348E+04   0.385E-01 -.275E-01 -.198E+01   -.179E-01 0.484E-01 -.257E+00
   -.650E-04 -.534E-05 0.348E+04   0.116E-03 -.101E-04 -.348E+04   0.694E-17 0.777E-18 -.195E+01   0.120E-01 0.735E-02 -.185E+00
   0.530E-02 -.611E-01 0.348E+04   0.905E-02 0.386E-01 -.348E+04   -.385E-01 -.275E-01 -.198E+01   0.164E-01 0.496E-01 -.256E+00
   0.503E-01 0.351E-01 0.348E+04   -.381E-01 -.115E-01 -.348E+04   0.431E-01 -.196E-01 -.198E+01   -.485E-01 -.930E-02 -.256E+00
   -.502E-01 0.351E-01 0.348E+04   0.379E-01 -.115E-01 -.348E+04   -.431E-01 -.196E-01 -.198E+01   0.519E-01 -.106E-01 -.256E+00
   -.144E-03 -.329E-04 0.348E+04   0.263E-03 0.206E-04 -.348E+04   -.224E-17 -.449E-18 -.210E+01   -.131E-01 -.677E-02 -.219E+00
   0.576E+00 0.333E+00 0.117E+04   -.368E+00 -.213E+00 -.117E+04   -.251E+00 -.145E+00 -.742E+00   0.231E-01 0.133E-01 0.489E-01
   -.904E-04 0.512E+00 0.117E+04   0.189E-03 -.713E+00 -.117E+04   -.121E-07 0.182E+00 -.644E+00   0.113E-01 -.293E-02 0.842E-02
   -.576E+00 0.333E+00 0.117E+04   0.368E+00 -.213E+00 -.117E+04   0.251E+00 -.145E+00 -.742E+00   -.241E-01 0.138E-01 0.469E-01
   0.443E+00 -.256E+00 0.117E+04   -.617E+00 0.356E+00 -.117E+04   0.158E+00 -.910E-01 -.644E+00   0.358E-02 0.121E-01 0.845E-02
   -.443E+00 -.256E+00 0.117E+04   0.617E+00 0.356E+00 -.117E+04   -.158E+00 -.910E-01 -.644E+00   0.194E-01 0.108E-01 0.515E-02
   -.143E-03 -.146E+00 0.117E+04   0.299E-03 -.330E-01 -.117E+04   -.548E-08 0.823E-01 -.769E+00   -.272E-02 0.854E-01 0.150E-01
   -.913E-04 -.665E+00 0.117E+04   0.186E-03 0.425E+00 -.117E+04   -.193E-07 0.289E+00 -.742E+00   -.104E-02 -.289E-01 0.469E-01
   -.127E+00 0.729E-01 0.117E+04   -.285E-01 0.167E-01 -.117E+04   0.713E-01 -.411E-01 -.769E+00   0.733E-01 -.451E-01 0.149E-01
   0.127E+00 0.730E-01 0.117E+04   0.283E-01 0.167E-01 -.117E+04   -.713E-01 -.411E-01 -.769E+00   -.721E-01 -.433E-01 0.161E-01
   -.606E-04 -.144E+01 -.116E+04   0.688E-04 0.140E+01 0.116E+04   0.221E-09 -.332E-02 0.941E+00   0.129E-01 0.400E-01 0.777E-01
   -.146E+02 -.845E+01 -.117E+04   0.151E+02 0.870E+01 0.117E+04   -.651E+00 -.376E+00 -.505E-01   0.285E-01 0.163E-01 0.160E+00
   0.146E+02 -.845E+01 -.117E+04   -.151E+02 0.870E+01 0.117E+04   0.651E+00 -.376E+00 -.505E-01   -.513E-01 0.145E-01 0.159E+00
   -.834E+01 0.481E+01 -.116E+04   0.798E+01 -.461E+01 0.116E+04   0.411E+00 -.237E+00 0.866E+00   0.556E-02 0.752E-02 0.421E-01
   -.793E-04 0.169E+02 -.117E+04   0.145E-03 -.174E+02 0.117E+04   -.500E-07 0.752E+00 -.505E-01   -.143E-01 -.529E-01 0.159E+00
   0.834E+01 0.481E+01 -.116E+04   -.798E+01 -.461E+01 0.116E+04   -.411E+00 -.237E+00 0.866E+00   0.180E-01 0.949E-02 0.428E-01
   0.125E+01 0.721E+00 -.116E+04   -.121E+01 -.699E+00 0.116E+04   0.287E-02 0.166E-02 0.941E+00   -.198E-01 -.114E-01 0.779E-01
   -.125E+01 0.721E+00 -.116E+04   0.121E+01 -.699E+00 0.116E+04   -.287E-02 0.166E-02 0.941E+00   0.414E-01 -.865E-02 0.778E-01
   -.125E-03 -.963E+01 -.116E+04   0.241E-03 0.922E+01 0.116E+04   -.316E-07 0.474E+00 0.866E+00   0.925E-02 0.995E-03 0.423E-01
   -.349E-04 0.166E-04 -.345E+04   0.357E-04 -.341E-04 0.344E+04   0.210E-17 0.124E-17 0.219E+01   -.127E-02 -.682E-03 0.199E+00
   0.642E+00 0.105E+01 -.343E+04   -.623E+00 -.128E+01 0.343E+04   -.149E+00 -.597E-02 0.308E+01   0.327E-01 0.762E-01 0.169E+00
   -.642E+00 0.105E+01 -.343E+04   0.623E+00 -.128E+01 0.343E+04   0.149E+00 -.597E-02 0.308E+01   -.110E-01 0.773E-01 0.169E+00
   0.123E+01 0.317E-01 -.343E+04   -.142E+01 0.101E+00 0.343E+04   -.796E-01 -.126E+00 0.308E+01   0.824E-01 -.990E-02 0.169E+00
   -.123E+01 0.320E-01 -.343E+04   0.142E+01 0.101E+00 0.343E+04   0.796E-01 -.126E+00 0.308E+01   -.604E-01 -.865E-02 0.171E+00
   0.587E+00 -.108E+01 -.343E+04   -.798E+00 0.118E+01 0.343E+04   0.692E-01 0.132E+00 0.308E+01   0.615E-01 -.482E-01 0.169E+00
   -.586E+00 -.108E+01 -.343E+04   0.798E+00 0.118E+01 0.343E+04   -.692E-01 0.132E+00 0.308E+01   -.370E-01 -.480E-01 0.171E+00
   -.131E-03 -.180E-04 -.345E+04   0.254E-03 0.595E-05 0.345E+04   0.172E-17 0.470E-17 0.244E+01   -.141E-01 -.734E-02 0.249E+00
   -.564E-04 -.260E-04 -.197E+04   0.914E-04 0.167E-04 0.197E+04   -.803E-17 0.793E-19 0.328E+01   0.123E-02 0.790E-03 0.538E-01
   0.107E-03 -.463E-04 -.189E+04   0.201E-04 0.850E-05 0.191E+04   0.277E-18 0.664E-18 -.195E+02   0.111E-02 0.684E-03 -.134E+00
   -.193E-03 -.791E-04 0.122E+02   0.591E-13 0.451E-13 -.130E-10   0.119E-15 -.778E-16 -.124E+02   0.117E+00 0.648E-01 0.255E+00

 POSITION                                       TOTAL-FORCE (eV/Angst)
      0.00000      0.00000      5.37156         0.000000      0.000000      0.015430
      2.56560      0.00000      5.37156         0.002246      0.007070      0.065432
      5.13119      0.00000      5.37156        -0.002246      0.007070      0.065432
      1.28280      2.22187      5.37156         0.007246     -0.001590      0.065432
      3.84839      2.22187      5.37156         0.000000      0.000000      0.041925
      6.41399      2.22187      5.37156        -0.007246     -0.001590      0.065432
      2.56560      4.44374      5.37156         0.005000     -0.005480      0.065432
      5.13119      4.44374      5.37156        -0.005000     -0.005480      0.065432
      7.69679      4.44374      5.37156         0.000000      0.000000      0.045824
      1.28280      0.74062      7.46636        -0.018713     -0.010804     -0.060816
      3.84839      0.74062      7.46636         0.000000     -0.027834     -0.064468
      6.41399      0.74062      7.46636         0.018713     -0.010804     -0.060816
      2.56560      2.96249      7.46636        -0.024105      0.013917     -0.064468
      5.13119      2.96249      7.46636         0.024105      0.013917     -0.064468
      7.69679      2.96249      7.46636         0.000000     -0.011603     -0.017526
      3.84839      5.18437      7.46636        -0.000000      0.021607     -0.060816
      6.41399      5.18437      7.46636        -0.010048      0.005801     -0.017526
      8.97958      5.18437      7.46636         0.010048      0.005801     -0.017526
      7.69679      1.48275      9.55327         0.000000     -0.012153      0.052367
      2.56715      1.48214      9.54261        -0.172559     -0.099627     -0.199134
      5.12964      1.48214      9.54261         0.172559     -0.099627     -0.199134
      8.97640      3.70496      9.55687         0.049531     -0.028596      0.034006
      3.84839      3.70133      9.54261        -0.000000      0.199253     -0.199134
      6.41717      3.70496      9.55687        -0.049531     -0.028596      0.034006
     10.26108      5.92424      9.55327         0.010524      0.006076      0.052367
      5.13249      5.92424      9.55327        -0.010524      0.006076      0.052367
      7.69679      5.92131      9.55687        -0.000000      0.057193      0.034006
      0.00000      0.00000     11.63217         0.000000      0.000000     -0.054565
      2.57513      0.01976     11.64308        -0.107458     -0.168903     -0.118274
      5.12165      0.01976     11.64308         0.107458     -0.168903     -0.118274
      1.30468      2.22025     11.64308        -0.200003     -0.008610     -0.118274
      6.39211      2.22025     11.64308         0.200003     -0.008610     -0.118274
      2.57794      4.42560     11.64308        -0.092545      0.177513     -0.118274
      5.11885      4.42560     11.64308         0.092545      0.177513     -0.118274
      7.69679      4.44374     11.63403         0.000000      0.000000     -0.026206
      3.84839      2.22187     11.52902         0.000000      0.000000      1.051028
      3.84839      2.22187     13.09719         0.000000      0.000000      0.010327
    total drift:                                0.117214      0.064708      0.038461

  FREE ENERGIE OF THE ION-ELECTRON SYSTEM (eV)
  free  energy   TOTEN  =      -137.75738331 eV

  energy  without entropy=     -137.75738331  energy(sigma->0) =     -137.75738331

 stress matrix after NEB project (eV)
     -5.23328      0.00000     -0.00000
      0.00000     -5.23328      0.00000
     -0.00000     -0.00000      0.51431
  FORCES: max atom, RMS     0.010327    0.001698
  FORCE total and by dimension    0.010327    0.010327
  Stress total and by dimension    7.418830    5.233284
|           W    W    AA    RRRRR   N    N  II  N    N   GGGG   !!!           |
|           W    W   A  A   R    R  NN   N  II  NN   N  G    G  !!!           |
|           W    W  A    A  R    R  N N  N  II  N N  N  G       !!!           |
|           W WW W  AAAAAA  RRRRR   N  N N  II  N  N N  G  GGG   !            |
|           WW  WW  A    A  R   R   N   NN  II  N   NN  G    G                |
|           W    W  A    A  R    R  N    N  II  N    N   GGGG   !!!           |
|     Tetrahedron method does not include variations of the Fermi             |
|     occupations, so forces and stress will be inaccurate. We suggest        |
|     using a different smearing scheme ISMEAR = 1 or 2 for metals in         |
|     relaxations.                                                            |

 total charge

# of ion       s       p       d       tot
    1        0.451   0.283   9.189   9.923
    2        0.448   0.285   9.186   9.920
    3        0.448   0.285   9.186   9.920
    4        0.448   0.285   9.186   9.920
    5        0.449   0.284   9.186   9.920
    6        0.448   0.285   9.186   9.920
    7        0.448   0.285   9.186   9.920
    8        0.448   0.285   9.186   9.920
    9        0.447   0.285   9.187   9.919
   10        0.441   0.370   9.179   9.991
   11        0.440   0.371   9.181   9.991
   12        0.441   0.370   9.179   9.991
   13        0.440   0.371   9.181   9.991
   14        0.440   0.371   9.181   9.991
   15        0.439   0.369   9.179   9.988
   16        0.441   0.370   9.179   9.991
   17        0.439   0.369   9.179   9.988
   18        0.439   0.369   9.179   9.988
   19        0.442   0.366   9.182   9.990
   20        0.459   0.392   9.168  10.019
   21        0.459   0.392   9.168  10.019
   22        0.434   0.375   9.179   9.988
   23        0.459   0.392   9.168  10.019
   24        0.434   0.375   9.179   9.988
   25        0.442   0.366   9.182   9.990
   26        0.442   0.366   9.182   9.990
   27        0.434   0.375   9.179   9.988
   28        0.452   0.281   9.189   9.922
   29        0.446   0.296   9.186   9.927
   30        0.446   0.296   9.186   9.927
   31        0.446   0.296   9.186   9.927
   32        0.446   0.296   9.186   9.927
   33        0.446   0.296   9.186   9.927
   34        0.446   0.296   9.186   9.927
   35        0.448   0.285   9.188   9.920
   36        0.444   0.499   5.339   6.282
   37        1.355   2.184   0.000   3.539
tot         17.378  14.318 326.715 358.411

 BZINTS: Fermi energy:    0.024542;  397.000000 electrons
         Band energy:-0.112422E+04;  BLOECHL correction:   -0.045372