 vasp.6.2.0 18Jan21 (build Jun 12 2021 23:27:24) complex

 executed on             LinuxIFC date 2022.05.27  06:04:27

 INCAR:
   ISMEAR = -5
   SIGMA = 0.1
   ISPIN = 1
   EDIFF = 1.d-5
   EDIFFG = -0.01
   NSW = 0
   NELM = 150
   ENCUT = 500
   ISIF = 2
   IBRION = 2
   LREAL = Auto
   ALGO = Fast
   ICHARG = 11
   LORBIT = 10
   LCHARG = .F.
   LWAVE = .F.

 POTCAR:    PAW_PBE Cu 22Jun2005
 POTCAR:    PAW_PBE Ni 02Aug2007
 POTCAR:    PAW_PBE O 08Apr2002
 POTCAR:    PAW_PBE H 15Jun2001
|           W    W    AA    RRRRR   N    N  II  N    N   GGGG   !!!           |
|           W    W   A  A   R    R  NN   N  II  NN   N  G    G  !!!           |
|           W    W  A    A  R    R  N N  N  II  N N  N  G       !!!           |
|           W WW W  AAAAAA  RRRRR   N  N N  II  N  N N  G  GGG   !            |
|           WW  WW  A    A  R   R   N   NN  II  N   NN  G    G                |
|           W    W  A    A  R    R  N    N  II  N    N   GGGG   !!!           |
|     For optimal performance we recommend to set                             |
|       NCORE = 2 up to number-of-cores-per-socket                            |
|     This setting can greatly improve the performance of VASP for DFT.       |
|     The default, NCORE=1 might be grossly inefficient on modern             |
|     multi-core architectures or massively parallel machines. Do your        |
|     Unfortunately you need to use the default for GW and RPA                |
|     calculations (for HF NCORE is supported but not extensively tested      |
|     yet).                                                                   |

 POTCAR:    PAW_PBE Cu 22Jun2005
   VRHFIN =Cu: d10 p1

   TITEL  = PAW_PBE Cu 22Jun2005
   POMASS =   63.546; ZVAL   =   11.000    mass and valenz
   ENMAX  =  295.446; ENMIN  =  221.585 eV

 POTCAR:    PAW_PBE Ni 02Aug2007
   VRHFIN =Ni:

   TITEL  = PAW_PBE Ni 02Aug2007
   POMASS =   58.690; ZVAL   =   10.000    mass and valenz
   ENMAX  =  269.532; ENMIN  =  202.149 eV

 POTCAR:    PAW_PBE O 08Apr2002
   VRHFIN =O: s2p4

   TITEL  = PAW_PBE O 08Apr2002
   POMASS =   16.000; ZVAL   =    6.000    mass and valenz
   ENMAX  =  400.000; ENMIN  =  300.000 eV

 POTCAR:    PAW_PBE H 15Jun2001
   VRHFIN =H: ultrasoft test

   TITEL  = PAW_PBE H 15Jun2001
   POMASS =    1.000; ZVAL   =    1.000    mass and valenz
   ENMAX  =  250.000; ENMIN  =  200.000 eV

 Optimization of the real space projectors (new method)

 maximal supplied QI-value         = 16.25
 optimisation between [QCUT,QGAM] = [ 11.38, 22.75] = [ 36.24,144.96] Ry
 Optimized for a Real-space Cutoff    1.52 Angstroem

   l    n(q)    QCUT    max X(q) W(low)/X(q) W(high)/X(q)  e(spline)
   2      9    11.376     4.610    0.21E-03    0.10E-03    0.26E-06
   2      9    11.376     8.522    0.33E-03    0.16E-03    0.37E-06
   0     10    11.376    51.609    0.62E-04    0.20E-04    0.13E-06
   0     10    11.376    27.747    0.54E-04    0.20E-04    0.13E-06
   1     10    11.376    20.408    0.13E-04    0.99E-04    0.19E-06
   1     10    11.376    13.425    0.12E-04    0.87E-04    0.17E-06
 Optimization of the real space projectors (new method)

[...]

   l    n(q)    QCUT    max X(q) W(low)/X(q) W(high)/X(q)  e(spline)
   0      7    11.387    20.381    0.39E-03    0.13E-02    0.15E-06
   0      7    11.387    15.268    0.42E-03    0.14E-02    0.17E-06
   1      6    11.387     5.964    0.41E-03    0.11E-02    0.17E-06
   1      6    11.387     5.382    0.39E-03    0.87E-03    0.15E-06
 Optimization of the real space projectors (new method)

 maximal supplied QI-value         = 34.20
 optimisation between [QCUT,QGAM] = [ 11.29, 22.57] = [ 35.68,142.71] Ry
 Optimized for a Real-space Cutoff    1.16 Angstroem

   l    n(q)    QCUT    max X(q) W(low)/X(q) W(high)/X(q)  e(spline)
   0      8    11.287    19.460    0.40E-03    0.73E-03    0.16E-06
   0      8    11.287    12.209    0.38E-03    0.70E-03    0.15E-06
   1      7    11.287     4.655    0.22E-03    0.25E-04    0.22E-06
  PAW_PBE Cu 22Jun2005                  :
  PAW_PBE Ni 02Aug2007                  :
  PAW_PBE O 08Apr2002                   :
  PAW_PBE H 15Jun2001                   :

 POSCAR: Cu-Ni-OH
  positions in direct lattice
  velocities in cartesian coordinates
 exchange correlation table for  LEXCH =        8
   RHO(1)=    0.500       N(1)  =     2000
   RHO(2)=  100.500       N(2)  =     4000

 VTST: version 3.2, (02/03/18)

 CHAIN: initializing optimizer

 OPT: Using VASP Conjugate-Gradient optimizer
 CHAIN: Read ICHAIN            0

 POSCAR: Cu-Ni-OH
  positions in direct lattice
  velocities in cartesian coordinates

 ion  position               nearest neighbor table
   1  0.000  0.000  0.252-   7 2.57   3 2.57   4 2.57   2 2.57   6 2.57   8 2.57  12 2.57  10 2.57
                            16 2.57
   2  0.333  0.000  0.252-   8 2.57   9 2.57   5 2.57   1 2.57   3 2.57  11 2.57   4 2.57  10 2.57
                            17 2.57
   3  0.667  0.000  0.252-   1 2.57   7 2.57   6 2.57   9 2.57   2 2.57  12 2.57   5 2.57  18 2.57
                            11 2.57
   4  0.000  0.333  0.252-   5 2.57   6 2.57   1 2.57   7 2.57   2 2.57  13 2.57   9 2.57  10 2.57
                            15 2.57
   5  0.333  0.333  0.252-   4 2.57   2 2.57   7 2.57  13 2.57   8 2.57   6 2.57   3 2.57  11 2.57
                            14 2.57
   6  0.667  0.333  0.252-   4 2.57   9 2.57  15 2.57   3 2.57   1 2.57   8 2.57  14 2.57   5 2.57
                            12 2.57
   7  0.000  0.667  0.252-   1 2.57   3 2.57  16 2.57  18 2.57   4 2.57   5 2.57   8 2.57   9 2.57
                            13 2.57
   8  0.333  0.667  0.252-   9 2.57   2 2.57  17 2.57   6 2.57   1 2.57   7 2.57   5 2.57  14 2.57
                            16 2.57
   9  0.667  0.667  0.252-   8 2.57   6 2.57   2 2.57  17 2.57   3 2.57   7 2.57   4 2.57  15 2.57
                            18 2.57
  10  0.111  0.111  0.351-  20 2.55  26 2.56  19 2.56  11 2.57  12 2.57  13 2.57   1 2.57   2 2.57
                             4 2.57  15 2.57  16 2.57  17 2.57
  11  0.444  0.111  0.351-  20 2.55  21 2.55  27 2.56  10 2.57  13 2.57   2 2.57  17 2.57  14 2.57
                            12 2.57   5 2.57   3 2.57  18 2.57
  12  0.778  0.111  0.351-  21 2.55  19 2.56  25 2.56  15 2.57  10 2.57  14 2.57  18 2.57   3 2.57
                             1 2.57  16 2.57  11 2.57   6 2.57
  13  0.111  0.444  0.351-  23 2.55  20 2.55  22 2.56  16 2.57  18 2.57  10 2.57  11 2.57  14 2.57
                             5 2.57   4 2.57   7 2.57  15 2.57
  14  0.444  0.444  0.351-  21 2.55  23 2.55  24 2.56  15 2.57  17 2.57  12 2.57  16 2.57  13 2.57
                            11 2.57   6 2.57   8 2.57   5 2.57
  15  0.778  0.444  0.351-  24 2.55  22 2.55  19 2.56  14 2.57  17 2.57  12 2.57   6 2.57  18 2.57
                            10 2.57   9 2.57  13 2.57   4 2.57
  16  0.111  0.778  0.351-  23 2.55  25 2.56  26 2.56  18 2.57  13 2.57   7 2.57  14 2.57  17 2.57
                            12 2.57  10 2.57   8 2.57   1 2.57
  17  0.444  0.778  0.351-  27 2.55  24 2.55  26 2.56  14 2.57  15 2.57   8 2.57   9 2.57  11 2.57
                            16 2.57  18 2.57  10 2.57   2 2.57
  18  0.778  0.778  0.351-  22 2.55  27 2.55  25 2.56  16 2.57  13 2.57   7 2.57  15 2.57  12 2.57
                            17 2.57   9 2.57   3 2.57  11 2.57
  19  0.889  0.223  0.449-  28 2.54  32 2.55  31 2.55  15 2.56  12 2.56  10 2.56  22 2.56  24 2.56
                            21 2.57  20 2.57  25 2.57  26 2.57
  20  0.222  0.222  0.448-  36 2.48  29 2.54  31 2.54  10 2.55  11 2.55  13 2.55  26 2.57  19 2.57
                            27 2.57  22 2.57  23 2.57  21 2.57
  21  0.556  0.222  0.448-  36 2.48  32 2.54  30 2.54  12 2.55  14 2.55  11 2.55  19 2.57  25 2.57
                            24 2.57  27 2.57  20 2.57  23 2.57
  22  0.889  0.556  0.449-  35 2.54  31 2.55  33 2.55  18 2.55  15 2.55  13 2.56  19 2.56  25 2.56
                            24 2.57  27 2.57  23 2.57  20 2.57
  23  0.222  0.556  0.448-  36 2.48  33 2.54  34 2.54  16 2.55  13 2.55  14 2.55  25 2.57  26 2.57
                            22 2.57  24 2.57  20 2.57  21 2.57
  24  0.556  0.556  0.449-  35 2.54  32 2.55  34 2.55  15 2.55  17 2.55  14 2.56  19 2.56  26 2.56
                            22 2.57  27 2.57  21 2.57  23 2.57
  25  0.889  0.889  0.449-  28 2.54  33 2.55  30 2.55  18 2.56  16 2.56  12 2.56  22 2.56  27 2.56
                            21 2.57  23 2.57  19 2.57  26 2.57
  26  0.223  0.889  0.449-  28 2.54  29 2.55  34 2.55  17 2.56  10 2.56  16 2.56  27 2.56  24 2.56
                            20 2.57  23 2.57  25 2.57  19 2.57
  27  0.556  0.889  0.449-  35 2.54  29 2.55  30 2.55  17 2.55  18 2.55  11 2.56  26 2.56  25 2.56
                            24 2.57  22 2.57  20 2.57  21 2.57
  28  0.000  0.000  0.546-  25 2.54  19 2.54  26 2.54  33 2.57  30 2.57  31 2.57  29 2.57  32 2.57
                            34 2.57
  29  0.333  0.002  0.546-  20 2.54  27 2.55  31 2.55  36 2.55  30 2.55  26 2.55  28 2.57  35 2.57
                            34 2.60
  30  0.665  0.002  0.546-  21 2.54  27 2.55  32 2.55  36 2.55  29 2.55  25 2.55  28 2.57  35 2.57
                            33 2.60
  31  0.002  0.333  0.546-  20 2.54  22 2.55  29 2.55  36 2.55  33 2.55  19 2.55  28 2.57  35 2.57
                            32 2.60
  32  0.665  0.333  0.546-  21 2.54  24 2.55  30 2.55  36 2.55  34 2.55  19 2.55  28 2.57  35 2.57
                            31 2.60
  33  0.002  0.665  0.546-  23 2.54  22 2.55  34 2.55  36 2.55  31 2.55  25 2.55  28 2.57  35 2.57
                            30 2.60
  34  0.333  0.665  0.546-  23 2.54  24 2.55  33 2.55  36 2.55  32 2.55  26 2.55  28 2.57  35 2.57
                            29 2.60
  35  0.667  0.667  0.546-  24 2.54  27 2.54  22 2.54  34 2.57  32 2.57  29 2.57  30 2.57  33 2.57
                            31 2.57
  36  0.333  0.333  0.542-  37 1.81  23 2.48  20 2.48  21 2.48  31 2.55  29 2.55  33 2.55  34 2.55
                            32 2.55  30 2.55
  37  0.333  0.333  0.627-  38 0.97  36 1.81
  38  0.333  0.333  0.673-  37 0.97

  LATTYP: Found a hexagonal cell.
 ALAT       =     7.6967864036
 C/A-ratio  =     2.7653617908

  Lattice vectors:

 A1 = (  -3.8483927580,  -6.6656128093,   0.0000000000)
 A2 = (   7.6967864037,   0.0000000000,   0.0000000000)
 A3 = (   0.0000000000,   0.0000000000,  21.2843990326)

Analysis of symmetry for initial positions (statically):
 Subroutine PRICEL returns:
 Original cell was already a primitive cell.

 Routine SETGRP: Setting up the symmetry group for a
 hexagonal supercell.

 Subroutine GETGRP returns: Found  6 space group operations
 (whereof  6 operations were pure point group operations)
 out of a pool of 24 trial point group operations.

The static configuration has the point symmetry C_3v.

Analysis of symmetry for dynamics (positions and initial velocities):
 Subroutine PRICEL returns:
 Original cell was already a primitive cell.

[...]

The dynamic configuration has the point symmetry C_3v.

Analysis of constrained symmetry for selective dynamics:
 Subroutine PRICEL returns:
 Original cell was already a primitive cell.

[...]
     33      -3.8170      2.00000
     34      -3.7580      2.00000
     35      -3.7534      2.00000
     36      -3.7345      2.00000
     37      -3.6388      2.00000
     38      -3.6353      2.00000
     39      -3.5362      2.00000
     40      -3.5316      2.00000
     41      -3.4571      2.00000
     42      -3.4491      2.00000
     43      -3.4432      2.00000
     44      -3.4175      2.00000
     45      -3.4011      2.00000
     46      -3.3944      2.00000
     47      -3.3811      2.00000
     48      -3.2277      2.00000
     49      -3.2020      2.00000
     50      -3.1873      2.00000
     51      -3.1738      2.00000
     52      -3.1650      2.00000
     53      -3.1609      2.00000
     54      -3.1154      2.00000
     55      -3.1061      2.00000
     56      -3.0992      2.00000
     57      -3.0730      2.00000
     58      -3.0610      2.00000
     59      -3.0369      2.00000
     60      -3.0309      2.00000
[...]
    238       6.3202      0.00000
    239       6.5229      0.00000
    240       6.6019      0.00000
    241       6.6276      0.00000
    242       6.8303      0.00000
    243       6.9699      0.00000
    244       7.0570      0.00000
    245       7.2071      0.00000
    246       7.3101      0.00000
    247       7.4024      0.00000
    248       7.4594      0.00000
    249       7.5913      0.00000
    250       7.7363      0.00000
    251       7.8775      0.00000
    252       8.1259      0.00000

 soft charge-density along one line, spin component           1
         0         1         2         3         4         5         6         7         8         9
 total charge-density along one line

------------------------ aborting loop because EDIFF is reached ----------------------------------------

 total charge

# of ion       s       p       d       tot
    1        0.446   0.285   9.188   9.919
    2        0.449   0.285   9.188   9.921
    3        0.449   0.285   9.188   9.921
    4        0.449   0.285   9.188   9.921
    5        0.446   0.287   9.188   9.921
    6        0.449   0.285   9.188   9.921
    7        0.449   0.285   9.188   9.921
    8        0.449   0.285   9.188   9.921
    9        0.445   0.286   9.188   9.919
   10        0.441   0.372   9.180   9.993
   11        0.443   0.369   9.183   9.995
   12        0.441   0.372   9.180   9.993
   13        0.443   0.369   9.183   9.995
   14        0.443   0.369   9.183   9.995
   15        0.440   0.371   9.181   9.992
   16        0.441   0.372   9.180   9.993
   17        0.440   0.371   9.181   9.992
   18        0.440   0.371   9.181   9.992
   19        0.441   0.375   9.179   9.995
   20        0.448   0.386   9.173  10.007
   21        0.448   0.386   9.173  10.007
   22        0.441   0.373   9.184   9.998
   23        0.448   0.386   9.173  10.007
   24        0.441   0.373   9.184   9.998
   25        0.441   0.375   9.179   9.995
   26        0.441   0.375   9.179   9.995
   27        0.441   0.373   9.184   9.998
   28        0.451   0.284   9.194   9.929
   29        0.439   0.282   9.199   9.920
   30        0.439   0.282   9.199   9.920
   31        0.439   0.282   9.199   9.920
   32        0.439   0.282   9.199   9.920
   33        0.439   0.282   9.199   9.920
   34        0.439   0.282   9.199   9.920
   35        0.448   0.287   9.189   9.924
   36        0.451   0.477   8.349   9.277
   37        1.545   3.515   0.000   5.060
   38        0.610   0.127   0.000   0.737
tot         18.134  15.685 329.859 363.678

  FORCE on cell =-STRESS in cart. coord.  units (eV):
  Direction    XX          YY          ZZ          XY          YZ          ZX
  Alpha Z   884.84632   884.84632   884.84632
  Ewald  175199.27929175199.27881************     0.00042     0.00011     0.00020
  Hartree188613.42182188613.42176************     0.00006     0.00005     0.00009
  E(xc)   -2335.44000 -2335.43957 -2338.86643    -0.00038    -0.00003    -0.00006
  Local  ************************376922.08954     0.01899    -0.00059    -0.00104
  n-local  -798.28225  -786.65861  -808.58828     7.01965     0.00529     0.13467
  augment  3493.33973  3493.36018  3500.78349    -0.01771     0.00027     0.00047
  Kinetic  3358.63386  3360.09844  3349.37744     3.83148     1.79775    -1.15860
  Fock        0.00000     0.00000     0.00000     0.00000     0.00000     0.00000
  Total      -3.09167    -3.09167     4.02023     0.00000     0.00000     0.00000
  in kB      -4.53621    -4.53621     5.89863     0.00000     0.00000     0.00000

 VOLUME and BASIS-vectors are now :
  energy-cutoff  :      500.00
  volume of cell :     1091.97
      direct lattice vectors                 reciprocal lattice vectors
     7.696786404  0.000000000  0.000000000     0.129924354 -0.075011849  0.000000000
     3.848392758  6.665612809  0.000000000     0.000000000  0.150023716  0.000000000
     0.000000000  0.000000000 21.284399033     0.000000000  0.000000000  0.046982769

  length of vectors
     7.696786404  7.696786404 21.284399033     0.150023716  0.150023716  0.046982769

 FORCES acting on ions
    electron-ion (+dipol)            ewald-force                    non-local-force                 convergence-correction
   -.415E-04 0.201E-06 0.352E+04   0.578E-04 -.445E-05 -.351E+04   -.496E-17 -.630E-18 -.281E+01   -.307E-03 -.144E-03 -.127E+01
   0.352E+00 0.315E+00 0.352E+04   -.250E+00 -.308E+00 -.351E+04   -.918E-02 0.504E-01 -.200E+01   -.873E-01 -.469E-01 -.111E+01
   -.352E+00 0.315E+00 0.352E+04   0.250E+00 -.309E+00 -.351E+04   0.918E-02 0.504E-01 -.200E+01   0.881E-01 -.444E-01 -.111E+01
   0.449E+00 0.147E+00 0.352E+04   -.392E+00 -.625E-01 -.351E+04   0.390E-01 -.331E-01 -.200E+01   -.842E-01 -.522E-01 -.111E+01
   -.667E-04 -.626E-05 0.352E+04   0.116E-03 -.101E-04 -.351E+04   -.213E-17 0.165E-17 -.188E+01   0.122E-01 0.744E-02 -.970E+00
   -.449E+00 0.148E+00 0.352E+04   0.392E+00 -.627E-01 -.351E+04   -.390E-01 -.331E-01 -.200E+01   0.826E-01 -.509E-01 -.111E+01
   0.967E-01 -.462E+00 0.352E+04   -.142E+00 0.371E+00 -.351E+04   0.482E-01 -.172E-01 -.200E+01   0.565E-02 0.984E-01 -.111E+01
   -.966E-01 -.462E+00 0.352E+04   0.142E+00 0.371E+00 -.351E+04   -.482E-01 -.172E-01 -.200E+01   -.216E-02 0.970E-01 -.111E+01
   -.144E-03 -.328E-04 0.352E+04   0.264E-03 0.206E-04 -.351E+04   0.368E-18 -.408E-17 -.247E+01   -.132E-01 -.683E-02 -.116E+01
   0.307E+01 0.177E+01 0.122E+04   -.276E+01 -.159E+01 -.122E+04   -.313E+00 -.181E+00 -.849E+00   0.251E-01 0.144E-01 -.130E+00
   -.901E-04 0.291E+01 0.122E+04   0.190E-03 -.293E+01 -.122E+04   0.250E-08 -.375E-01 -.612E+00   0.117E-01 0.460E-01 0.159E+00
   -.307E+01 0.177E+01 0.122E+04   0.276E+01 -.159E+01 -.122E+04   0.313E+00 -.181E+00 -.849E+00   -.265E-01 0.160E-01 -.130E+00
   0.252E+01 -.145E+01 0.122E+04   -.254E+01 0.147E+01 -.122E+04   -.325E-01 0.188E-01 -.612E+00   0.462E-01 -.120E-01 0.159E+00
   -.252E+01 -.145E+01 0.122E+04   0.254E+01 0.147E+01 -.122E+04   0.325E-01 0.188E-01 -.612E+00   -.221E-01 -.131E-01 0.158E+00
   -.144E-03 0.399E-02 0.122E+04   0.300E-03 -.955E-01 -.122E+04   -.273E-08 0.409E-01 -.811E+00   -.353E-02 0.384E-01 -.199E+00
   -.910E-04 -.354E+01 0.122E+04   0.185E-03 0.319E+01 -.122E+04   -.240E-07 0.361E+00 -.849E+00   -.354E-03 -.322E-01 -.130E+00
   0.342E-02 -.212E-02 0.122E+04   -.827E-01 0.480E-01 -.122E+04   0.355E-01 -.205E-01 -.811E+00   0.322E-01 -.223E-01 -.199E+00
   -.333E-02 -.208E-02 0.122E+04   0.825E-01 0.480E-01 -.122E+04   -.355E-01 -.205E-01 -.811E+00   -.311E-01 -.196E-01 -.198E+00
   -.543E-04 0.228E+01 -.111E+04   0.654E-04 -.235E+01 0.111E+04   -.103E-07 0.155E+00 0.951E+00   -.108E-01 -.760E-01 0.732E+00
   0.135E+02 0.779E+01 -.108E+04   -.131E+02 -.758E+01 0.108E+04   -.725E+00 -.418E+00 -.795E+00   0.403E+00 0.232E+00 0.100E+01
   -.135E+02 0.779E+01 -.108E+04   0.131E+02 -.758E+01 0.108E+04   0.725E+00 -.418E+00 -.795E+00   -.421E+00 0.233E+00 0.100E+01
   0.735E+01 -.424E+01 -.110E+04   -.759E+01 0.438E+01 0.110E+04   0.157E+00 -.904E-01 0.764E+00   0.116E+00 -.796E-01 0.694E+00
   -.714E-04 -.156E+02 -.108E+04   0.141E-03 0.152E+02 0.108E+04   -.557E-07 0.837E+00 -.795E+00   -.101E-01 -.482E+00 0.100E+01
   -.735E+01 -.424E+01 -.110E+04   0.759E+01 0.438E+01 0.110E+04   -.157E+00 -.904E-01 0.764E+00   -.137E+00 -.800E-01 0.694E+00
   -.198E+01 -.114E+01 -.111E+04   0.204E+01 0.117E+01 0.111E+04   -.134E+00 -.776E-01 0.951E+00   0.515E-01 0.297E-01 0.732E+00
   0.198E+01 -.114E+01 -.111E+04   -.204E+01 0.117E+01 0.111E+04   0.134E+00 -.776E-01 0.951E+00   -.708E-01 0.288E-01 0.732E+00
   -.133E-03 0.849E+01 -.110E+04   0.245E-03 -.877E+01 0.110E+04   -.120E-07 0.181E+00 0.764E+00   -.109E-01 0.140E+00 0.694E+00
   -.245E-04 0.214E-04 -.344E+04   0.312E-04 -.356E-04 0.343E+04   0.245E-17 -.141E-17 0.209E+01   -.517E-04 0.200E-04 0.111E+01
   0.272E+02 0.479E+02 -.342E+04   -.279E+02 -.495E+02 0.341E+04   0.443E+00 0.105E+01 0.343E+01   0.111E+00 0.341E+00 0.942E+00
   -.272E+02 0.479E+02 -.342E+04   0.279E+02 -.495E+02 0.341E+04   -.443E+00 0.105E+01 0.343E+01   -.110E+00 0.344E+00 0.942E+00
   0.551E+02 -.380E+00 -.342E+04   -.568E+02 0.603E+00 0.341E+04   0.113E+01 -.139E+00 0.343E+01   0.351E+00 -.748E-01 0.942E+00
   -.551E+02 -.380E+00 -.342E+04   0.568E+02 0.602E+00 0.341E+04   -.113E+01 -.139E+00 0.343E+01   -.352E+00 -.738E-01 0.942E+00
   0.279E+02 -.476E+02 -.342E+04   -.289E+02 0.489E+02 0.341E+04   0.684E+00 -.906E+00 0.343E+01   0.243E+00 -.267E+00 0.942E+00
   -.279E+02 -.476E+02 -.342E+04   0.289E+02 0.489E+02 0.341E+04   -.684E+00 -.906E+00 0.343E+01   -.239E+00 -.268E+00 0.942E+00
   -.135E-03 -.179E-04 -.344E+04   0.260E-03 0.695E-05 0.343E+04   0.246E-18 0.390E-17 0.211E+01   -.130E-01 -.669E-02 0.102E+01
   -.711E-04 -.243E-04 -.284E+04   0.130E-03 0.238E-04 0.284E+04   -.171E-17 0.328E-17 0.804E+00   0.891E-02 0.543E-02 0.381E+00
   0.187E-03 -.786E-04 -.221E+04   0.169E-04 0.810E-05 0.218E+04   -.443E-18 0.114E-17 0.224E+02   0.339E-02 0.206E-02 -.373E+00
   0.471E-05 -.133E-04 -.400E+03   0.638E-06 0.549E-06 0.408E+03   -.292E-19 -.341E-19 -.835E+01   0.184E-03 0.111E-03 -.582E-02
   -.515E-04 -.975E-04 -.210E+02   0.909E-13 0.135E-13 0.762E-11   0.220E-15 -.436E-15 0.164E+02   -.553E-01 -.346E-01 0.450E+01

 POSITION                                       TOTAL-FORCE (eV/Angst)
      0.00000      0.00000      5.37156        -0.000000     -0.000000      0.080782
      2.56560      0.00000      5.37156         0.005662      0.010903      0.094988
      5.13119      0.00000      5.37156        -0.005662      0.010903      0.094988
      1.28280      2.22187      5.37156         0.012273     -0.000548      0.094988
      3.84839      2.22187      5.37156        -0.000000     -0.000000      0.099104
      6.41399      2.22187      5.37156        -0.012273     -0.000548      0.094988
      2.56560      4.44374      5.37156         0.006611     -0.010355      0.094988
      5.13119      4.44374      5.37156        -0.006611     -0.010355      0.094988
      7.69679      4.44374      5.37156        -0.000000     -0.000000      0.071836
      1.28280      0.74062      7.46636         0.021313      0.012305     -0.055552
      3.84839      0.74062      7.46636         0.000000     -0.024730     -0.132785
      6.41399      0.74062      7.46636        -0.021313      0.012305     -0.055552
      2.56560      2.96249      7.46636        -0.021417      0.012365     -0.132785
      5.13119      2.96249      7.46636         0.021417      0.012365     -0.132785
      7.69679      2.96249      7.46636         0.000000     -0.012536     -0.069209
      3.84839      5.18437      7.46636         0.000000     -0.024611     -0.055552
      6.41399      5.18437      7.46636        -0.010857      0.006268     -0.069209
      8.97958      5.18437      7.46636         0.010857      0.006268     -0.069209
      7.69679      1.48353      9.55071        -0.000000      0.018720      0.030570
      2.56540      1.48114      9.54275         0.053996      0.031175     -0.080564
      5.13138      1.48114      9.54275        -0.053996      0.031175     -0.080564
      8.97935      3.70325      9.54809         0.040060     -0.023128     -0.002141
      3.84839      3.70334      9.54275         0.000000     -0.062350     -0.080564
      6.41422      3.70325      9.54809        -0.040060     -0.023128     -0.002141
     10.26040      5.92385      9.55071        -0.016212     -0.009360      0.030570
      5.13317      5.92385      9.55071         0.016212     -0.009360      0.030570
      7.69679      5.92472      9.54809        -0.000000      0.046257     -0.002141
      0.00000      0.00000     11.61525        -0.000000     -0.000000     -0.025251
      2.57297      0.01446     11.62005        -0.101508     -0.192653     -0.057352
      5.12381      0.01446     11.62005         0.101508     -0.192653     -0.057352
      1.29901      2.22103     11.62005        -0.217596      0.008418     -0.057352
      6.39777      2.22103     11.62005         0.217596      0.008418     -0.057352
      2.57443      4.43012     11.62005        -0.116088      0.184235     -0.057352
      5.12235      4.43012     11.62005         0.116088      0.184235     -0.057352
      7.69679      4.44374     11.61370        -0.000000     -0.000000      0.008603
      3.84839      2.22187     11.53520        -0.000000     -0.000000      0.566934
      3.84839      2.22187     13.34954        -0.000000     -0.000000     -0.071715
      3.84839      2.22187     14.31519        -0.000000     -0.000000     -0.027073
    total drift:                               -0.055302     -0.034735     -0.060854

  FREE ENERGIE OF THE ION-ELECTRON SYSTEM (eV)
  free  energy   TOTEN  =      -137.40460847 eV

  energy  without entropy=     -137.40460847  energy(sigma->0) =     -137.40460847

 stress matrix after NEB project (eV)
     -3.09167      0.00000      0.00000
      0.00000     -3.09167      0.00000
     -0.00000      0.00000      4.02023
  FORCES: max atom, RMS     0.071715    0.012435
  FORCE total and by dimension    0.076655    0.071715
  Stress total and by dimension    5.939625    4.020234
|           W    W    AA    RRRRR   N    N  II  N    N   GGGG   !!!           |
|           W    W   A  A   R    R  NN   N  II  NN   N  G    G  !!!           |
|           W    W  A    A  R    R  N N  N  II  N N  N  G       !!!           |
|           W WW W  AAAAAA  RRRRR   N  N N  II  N  N N  G  GGG   !            |
|           WW  WW  A    A  R   R   N   NN  II  N   NN  G    G                |
|           W    W  A    A  R    R  N    N  II  N    N   GGGG   !!!           |
|     Tetrahedron method does not include variations of the Fermi             |
|     occupations, so forces and stress will be inaccurate. We suggest        |
|     using a different smearing scheme ISMEAR = 1 or 2 for metals in         |
|     relaxations.                                                            |

 total charge

# of ion       s       p       d       tot
    1        0.446   0.285   9.188   9.919
    2        0.449   0.285   9.188   9.921
    3        0.449   0.285   9.188   9.921
    4        0.449   0.285   9.188   9.921
    5        0.446   0.287   9.188   9.921
    6        0.449   0.285   9.188   9.921
    7        0.449   0.285   9.188   9.921
    8        0.449   0.285   9.188   9.921
    9        0.445   0.286   9.188   9.919
   10        0.441   0.372   9.180   9.993
   11        0.443   0.369   9.183   9.995
   12        0.441   0.372   9.180   9.993
   13        0.443   0.369   9.183   9.995
   14        0.443   0.369   9.183   9.995
   15        0.440   0.371   9.181   9.992
   16        0.441   0.372   9.180   9.993
   17        0.440   0.371   9.181   9.992
   18        0.440   0.371   9.181   9.992
   19        0.441   0.375   9.179   9.995
   20        0.448   0.386   9.173  10.007
   21        0.448   0.386   9.173  10.007
   22        0.441   0.373   9.184   9.998
   23        0.448   0.386   9.173  10.007
   24        0.441   0.373   9.184   9.998
   25        0.441   0.375   9.179   9.995
   26        0.441   0.375   9.179   9.995
   27        0.441   0.373   9.184   9.998
   28        0.451   0.284   9.194   9.929
   29        0.439   0.282   9.199   9.920
   30        0.439   0.282   9.199   9.920
   31        0.439   0.282   9.199   9.920
   32        0.439   0.282   9.199   9.920
   33        0.439   0.282   9.199   9.920
   34        0.439   0.282   9.199   9.920
   35        0.448   0.287   9.189   9.924
   36        0.451   0.477   8.349   9.277
   37        1.545   3.515   0.000   5.060
   38        0.610   0.127   0.000   0.737
tot         18.134  15.685 329.859 363.678

 BZINTS: Fermi energy:    0.227057;  402.000000 electrons
         Band energy:-0.105731E+04;  BLOECHL correction:   -0.045606