 vasp.6.2.0 18Jan21 (build Jun 12 2021 23:27:24) complex

 executed on             LinuxIFC date 2022.05.28  00:48:09

 INCAR:
   ISMEAR = -5
   SIGMA = 0.1
   ISPIN = 1
   EDIFF = 1.d-5
   EDIFFG = -0.01
   NSW = 0
   NELM = 150
   ENCUT = 500
   ISIF = 2
   IBRION = 2
   LREAL = Auto
   ALGO = Fast
   ICHARG = 11
   LORBIT = 10
   LCHARG = .F.
   LWAVE = .F.

 POTCAR:    PAW_PBE Au 04Oct2007
 POTCAR:    PAW_PBE Ni 02Aug2007
 POTCAR:    PAW_PBE C 08Apr2002
 POTCAR:    PAW_PBE O 08Apr2002
|           W    W    AA    RRRRR   N    N  II  N    N   GGGG   !!!           |
|           W    W   A  A   R    R  NN   N  II  NN   N  G    G  !!!           |
|           W    W  A    A  R    R  N N  N  II  N N  N  G       !!!           |
|           W WW W  AAAAAA  RRRRR   N  N N  II  N  N N  G  GGG   !            |
|           WW  WW  A    A  R   R   N   NN  II  N   NN  G    G                |
|           W    W  A    A  R    R  N    N  II  N    N   GGGG   !!!           |
|     For optimal performance we recommend to set                             |
|       NCORE = 2 up to number-of-cores-per-socket                            |
|     This setting can greatly improve the performance of VASP for DFT.       |
|     The default, NCORE=1 might be grossly inefficient on modern             |
|     multi-core architectures or massively parallel machines. Do your        |
|     Unfortunately you need to use the default for GW and RPA                |
|     calculations (for HF NCORE is supported but not extensively tested      |
|     yet).                                                                   |

 POTCAR:    PAW_PBE Au 04Oct2007
   VRHFIN =Au: s1d10

   TITEL  = PAW_PBE Au 04Oct2007
   POMASS =  196.966; ZVAL   =   11.000    mass and valenz
   ENMAX  =  229.943; ENMIN  =  172.457 eV

 POTCAR:    PAW_PBE Ni 02Aug2007
   VRHFIN =Ni:

   TITEL  = PAW_PBE Ni 02Aug2007
   POMASS =   58.690; ZVAL   =   10.000    mass and valenz
   ENMAX  =  269.532; ENMIN  =  202.149 eV

 POTCAR:    PAW_PBE C 08Apr2002
   VRHFIN =C: s2p2

   TITEL  = PAW_PBE C 08Apr2002
   POMASS =   12.011; ZVAL   =    4.000    mass and valenz
   ENMAX  =  400.000; ENMIN  =  300.000 eV

 POTCAR:    PAW_PBE O 08Apr2002
   VRHFIN =O: s2p4

   TITEL  = PAW_PBE O 08Apr2002
   POMASS =   16.000; ZVAL   =    6.000    mass and valenz
   ENMAX  =  400.000; ENMIN  =  300.000 eV

 Optimization of the real space projectors (new method)

 maximal supplied QI-value         = 15.12
 optimisation between [QCUT,QGAM] = [ 11.34, 22.83] = [ 36.00,145.93] Ry
 Optimized for a Real-space Cutoff    1.39 Angstroem

   l    n(q)    QCUT    max X(q) W(low)/X(q) W(high)/X(q)  e(spline)
   2      9    11.338    60.898    0.39E-03    0.42E-03    0.21E-06
   2      9    11.338    58.894    0.40E-03    0.42E-03    0.22E-06
   0      9    11.338   109.617    0.13E-03    0.20E-04    0.13E-06
   0      9    11.338    75.026    0.13E-03    0.20E-04    0.13E-06
   1      9    11.338    16.344    0.33E-04    0.24E-03    0.18E-06
   1      9    11.338    10.160    0.26E-04    0.19E-03    0.15E-06
 Optimization of the real space projectors (new method)

[...]

   l    n(q)    QCUT    max X(q) W(low)/X(q) W(high)/X(q)  e(spline)
   0      7    11.310   115.676    0.43E-03    0.13E-02    0.19E-06
   0      7    11.310    87.132    0.43E-03    0.13E-02    0.18E-06
   1      6    11.310     4.429    0.42E-03    0.74E-03    0.11E-06
   1      6    11.310     2.733    0.34E-03    0.55E-03    0.92E-07
 Optimization of the real space projectors (new method)

 maximal supplied QI-value         = 24.76
 optimisation between [QCUT,QGAM] = [ 11.39, 22.77] = [ 36.31,145.25] Ry
 Optimized for a Real-space Cutoff    1.00 Angstroem

   l    n(q)    QCUT    max X(q) W(low)/X(q) W(high)/X(q)  e(spline)
   0      7    11.387    20.381    0.39E-03    0.13E-02    0.15E-06
   0      7    11.387    15.268    0.42E-03    0.14E-02    0.17E-06
   1      6    11.387     5.964    0.41E-03    0.11E-02    0.17E-06
   1      6    11.387     5.382    0.39E-03    0.87E-03    0.15E-06
  PAW_PBE Au 04Oct2007                  :
  PAW_PBE Ni 02Aug2007                  :
  PAW_PBE C 08Apr2002                   :
  PAW_PBE O 08Apr2002                   :

 POSCAR: Au-Ni-CO2
  positions in direct lattice
  velocities in cartesian coordinates
 exchange correlation table for  LEXCH =        8
   RHO(1)=    0.500       N(1)  =     2000
   RHO(2)=  100.500       N(2)  =     4000

 VTST: version 3.2, (02/03/18)

 CHAIN: initializing optimizer

 OPT: Using VASP Conjugate-Gradient optimizer
 CHAIN: Read ICHAIN            0

 POSCAR: Au-Ni-CO2
  positions in direct lattice
  velocities in cartesian coordinates

 ion  position               nearest neighbor table
   1  0.000  0.000  0.217-  16 2.94  12 2.94   6 2.94   8 2.94   7 2.94   3 2.94  10 2.94   4 2.94
                             2 2.94
   2  0.333  0.000  0.217-   9 2.94  11 2.94  17 2.94  10 2.94   8 2.94   4 2.94   5 2.94   1 2.94
                             3 2.94
   3  0.667  0.000  0.217-   7 2.94  18 2.94  12 2.94   1 2.94  11 2.94   5 2.94   6 2.94   9 2.94
                             2 2.94
   4  0.000  0.333  0.217-  10 2.94   6 2.94   5 2.94  13 2.94   2 2.94  15 2.94   9 2.94   1 2.94
                             7 2.94
   5  0.333  0.333  0.217-  13 2.94   7 2.94  11 2.94   4 2.94   2 2.94  14 2.94   3 2.94   8 2.94
                             6 2.94
   6  0.667  0.333  0.217-  15 2.94  14 2.94   1 2.94  12 2.94   4 2.94   9 2.94   8 2.94   3 2.94
                             5 2.94
   7  0.000  0.667  0.217-  18 2.94   3 2.94  16 2.94   5 2.94   1 2.94  13 2.94   8 2.94   4 2.94
                             9 2.94
   8  0.333  0.667  0.217-   9 2.94  17 2.94   1 2.94   2 2.94  14 2.94  16 2.94   6 2.94   7 2.94
                             5 2.94
   9  0.667  0.667  0.217-   2 2.94   8 2.94  17 2.94   6 2.94  15 2.94   4 2.94   3 2.94  18 2.94
                             7 2.94
  10  0.111  0.111  0.315-  20 2.93  26 2.93  19 2.93  11 2.94  17 2.94   2 2.94   4 2.94   1 2.94
                            12 2.94  16 2.94  13 2.94  15 2.94
  11  0.444  0.111  0.315-  20 2.92  21 2.92  27 2.93  13 2.94   2 2.94  10 2.94  17 2.94   5 2.94
                             3 2.94  18 2.94  14 2.94  12 2.94
  12  0.778  0.111  0.315-  21 2.93  25 2.93  19 2.93  16 2.94  18 2.94   1 2.94  14 2.94  15 2.94
                             3 2.94   6 2.94  10 2.94  11 2.94
  13  0.111  0.444  0.315-  23 2.92  20 2.92  22 2.93   5 2.94  18 2.94  11 2.94   7 2.94   4 2.94
                            16 2.94  10 2.94  14 2.94  15 2.94
  14  0.444  0.444  0.315-  21 2.92  23 2.92  24 2.93  15 2.94   6 2.94  12 2.94   8 2.94  17 2.94
                             5 2.94  16 2.94  13 2.94  11 2.94
  15  0.778  0.444  0.315-  24 2.92  22 2.92  19 2.93  14 2.94   6 2.94  17 2.94  12 2.94   9 2.94
                             4 2.94  10 2.94  13 2.94  18 2.94
  16  0.111  0.778  0.315-  23 2.93  25 2.93  26 2.93  18 2.94  12 2.94   7 2.94   1 2.94   8 2.94
                            13 2.94  10 2.94  14 2.94  17 2.94
  17  0.444  0.778  0.315-  27 2.92  24 2.92  26 2.93   9 2.94  15 2.94   2 2.94  10 2.94  11 2.94
                             8 2.94  14 2.94  16 2.94  18 2.94
  18  0.778  0.778  0.315-  22 2.92  27 2.92  25 2.93  16 2.94   7 2.94  13 2.94  12 2.94   3 2.94
                            11 2.94   9 2.94  15 2.94  17 2.94
  19  0.889  0.222  0.413-  10 2.93  12 2.93  15 2.93  26 2.93  25 2.93  24 2.94  22 2.94  21 2.95
                            20 2.95  28 2.95  32 2.96  31 2.96
  20  0.223  0.223  0.413-  36 2.70  29 2.91  31 2.91  11 2.92  13 2.92  23 2.92  21 2.92  10 2.93
                            27 2.95  22 2.95  26 2.95  19 2.95
  21  0.554  0.223  0.413-  36 2.70  30 2.91  32 2.91  14 2.92  11 2.92  20 2.92  23 2.92  12 2.93
                            27 2.95  24 2.95  25 2.95  19 2.95
  22  0.888  0.556  0.413-  18 2.92  15 2.92  24 2.92  27 2.92  13 2.93  25 2.94  19 2.94  33 2.94
                            31 2.94  23 2.95  20 2.95  35 2.96
  23  0.223  0.554  0.413-  36 2.70  33 2.91  34 2.91  13 2.92  14 2.92  20 2.92  21 2.92  16 2.93
                            22 2.95  24 2.95  25 2.95  26 2.95
  24  0.556  0.556  0.413-  15 2.92  17 2.92  27 2.92  22 2.92  14 2.93  26 2.94  19 2.94  32 2.94
                            34 2.94  21 2.95  23 2.95  35 2.96
  25  0.889  0.889  0.413-  16 2.93  12 2.93  18 2.93  19 2.93  26 2.93  22 2.94  27 2.94  23 2.95
                            21 2.95  28 2.95  33 2.96  30 2.96
  26  0.222  0.889  0.413-  10 2.93  16 2.93  17 2.93  19 2.93  25 2.93  27 2.94  24 2.94  20 2.95
                            23 2.95  28 2.95  29 2.96  34 2.96
  27  0.556  0.888  0.413-  17 2.92  18 2.92  24 2.92  22 2.92  11 2.93  26 2.94  25 2.94  29 2.94
                            30 2.94  20 2.95  21 2.95  35 2.96
  28  0.000  0.000  0.512-  25 2.95  19 2.95  26 2.95  34 2.97  32 2.97  33 2.97  30 2.97  31 2.97
                            29 2.97
  29  0.334  0.007  0.511-  30 2.87  31 2.88  36 2.89  20 2.91  27 2.94  26 2.96  35 2.97  28 2.97
                            34 3.06
  30  0.660  0.007  0.511-  29 2.87  32 2.88  36 2.89  21 2.91  27 2.94  25 2.96  35 2.97  28 2.97
                            33 3.06
  31  0.007  0.334  0.511-  33 2.87  29 2.88  36 2.89  20 2.91  22 2.94  19 2.96  35 2.97  28 2.97
                            32 3.06
  32  0.660  0.334  0.511-  34 2.87  30 2.88  36 2.89  21 2.91  24 2.94  19 2.96  35 2.97  28 2.97
                            31 3.06
  33  0.007  0.660  0.511-  31 2.87  34 2.88  36 2.89  23 2.91  22 2.94  25 2.96  35 2.97  28 2.97
                            30 3.06
  34  0.334  0.660  0.511-  32 2.87  33 2.88  36 2.89  23 2.91  24 2.94  26 2.96  35 2.97  28 2.97
                            29 3.06
  35  0.667  0.667  0.513-  24 2.96  27 2.96  22 2.96  29 2.97  34 2.97  32 2.97  31 2.97  30 2.97
                            33 2.97
  36  0.333  0.333  0.499-  20 2.70  23 2.70  21 2.70  33 2.89  31 2.89  29 2.89  30 2.89  34 2.89
                            32 2.89
  37  0.336  0.340  0.655-  38 1.18  39 1.18
  38  0.206  0.333  0.656-  37 1.18
  39  0.465  0.348  0.654-  37 1.18

  LATTYP: Found a hexagonal cell.
 ALAT       =     8.8135128021
 C/A-ratio  =     2.7649717827

  Lattice vectors:

 A1 = (  -4.4067569092,  -7.6327256898,   0.0000000000)
 A2 = (   8.8135128021,   0.0000000000,   0.0000000000)
 A3 = (   0.0000000000,   0.0000000000,  24.3691142040)

Analysis of symmetry for initial positions (statically):
 Subroutine PRICEL returns:
 Original cell was already a primitive cell.

 Routine SETGRP: Setting up the symmetry group for a
 hexagonal supercell.

 Subroutine GETGRP returns: Found  1 space group operations
 (whereof  1 operations were pure point group operations)
 out of a pool of 24 trial point group operations.

The static configuration has the point symmetry C_1 .

Analysis of symmetry for dynamics (positions and initial velocities):
 Subroutine PRICEL returns:
 Original cell was already a primitive cell.

[...]

The dynamic configuration has the point symmetry C_1 .

Analysis of constrained symmetry for selective dynamics:
 Subroutine PRICEL returns:
[...]
     41      -4.9623      2.00000
     42      -4.9462      2.00000
     43      -4.9397      2.00000
     44      -4.9302      2.00000
     45      -4.8847      2.00000
     46      -4.7960      2.00000
     47      -4.7586      2.00000
     48      -4.7020      2.00000
     49      -4.6828      2.00000
     50      -4.6789      2.00000
     51      -4.6716      2.00000
     52      -4.5694      2.00000
     53      -4.5556      2.00000
     54      -4.5211      2.00000
     55      -4.5090      2.00000
     56      -4.4993      2.00000
     57      -4.4898      2.00000
     58      -4.4682      2.00000
     59      -4.4381      2.00000
     60      -4.3993      2.00000
[...]
    238       5.0470      0.00000
    239       5.2400      0.00000
    240       5.3501      0.00000
    241       5.5612      0.00000
    242       5.7470      0.00000
    243       5.7959      0.00000
    244       5.9061      0.00000
    245       6.0360      0.00000
    246       6.0509      0.00000
    247       6.0831      0.00000
    248       6.1950      0.00000
    249       6.3912      0.00000
    250       6.4232      0.00000
    251       6.4430      0.00000
    252       6.4945      0.00000

 soft charge-density along one line, spin component           1
         0         1         2         3         4         5         6         7         8         9
 total charge-density along one line

------------------------ aborting loop because EDIFF is reached ----------------------------------------

 total charge

# of ion       s       p       d       tot
    1        0.544   0.240   8.767   9.550
    2        0.544   0.240   8.765   9.550
    3        0.544   0.240   8.765   9.550
    4        0.544   0.240   8.765   9.550
    5        0.542   0.241   8.763   9.546
    6        0.544   0.240   8.765   9.550
    7        0.545   0.240   8.765   9.550
    8        0.544   0.240   8.765   9.550
    9        0.545   0.239   8.766   9.550
   10        0.520   0.308   8.770   9.598
   11        0.520   0.307   8.777   9.604
   12        0.520   0.308   8.770   9.598
   13        0.520   0.307   8.777   9.604
   14        0.520   0.307   8.777   9.604
   15        0.518   0.308   8.775   9.601
   16        0.520   0.308   8.770   9.598
   17        0.518   0.308   8.775   9.601
   18        0.518   0.308   8.775   9.601
   19        0.516   0.302   8.776   9.595
   20        0.534   0.322   8.761   9.617
   21        0.534   0.322   8.761   9.617
   22        0.513   0.309   8.773   9.596
   23        0.535   0.322   8.760   9.617
   24        0.513   0.309   8.773   9.595
   25        0.517   0.302   8.776   9.595
   26        0.517   0.302   8.776   9.595
   27        0.513   0.309   8.773   9.596
   28        0.539   0.225   8.767   9.531
   29        0.551   0.234   8.761   9.546
   30        0.551   0.234   8.761   9.546
   31        0.550   0.232   8.762   9.544
   32        0.549   0.232   8.762   9.544
   33        0.551   0.234   8.761   9.546
   34        0.551   0.234   8.761   9.546
   35        0.538   0.225   8.768   9.531
   36        0.336   0.230   8.376   8.942
   37        0.933   1.799   0.000   2.732
   38        1.607   3.529   0.000   5.136
   39        1.607   3.529   0.000   5.136
tot         23.128  18.665 315.264 357.056

  FORCE on cell =-STRESS in cart. coord.  units (eV):
  Direction    XX          YY          ZZ          XY          YZ          ZX
  Alpha Z   958.72474   958.72474   958.72474
  Ewald  147947.01706147153.79037************    37.87515    -1.77356   -14.71145
  Hartree156595.64919156218.99438************    17.63808    -1.05567    -6.83125
  E(xc)   -1855.58756 -1857.68829 -1864.63488     0.10216    -0.00294    -0.03846
  Local  ************************315762.39925   -52.03226     2.74916    20.26120
  n-local  -125.01811  -119.13197   -96.07065    -0.29030     0.00216     0.12177
  augment  2554.42368  2557.09882  2572.18074    -0.13246     0.01125     0.05002
  Kinetic  5702.36541  5767.41484  5818.04748    -3.16497     0.06084     1.16425
  Fock        0.00000     0.00000     0.00000     0.00000     0.00000     0.00000
  Total     -22.46718   -22.45520     1.44367    -0.00460    -0.00876     0.01607
  in kB     -21.95789   -21.94619     1.41094    -0.00450    -0.00856     0.01571

 VOLUME and BASIS-vectors are now :
  energy-cutoff  :      500.00
  volume of cell :     1639.34
      direct lattice vectors                 reciprocal lattice vectors
     8.813512802  0.000000000  0.000000000     0.113462137 -0.065507406  0.000000000
     4.406756909  7.632725690  0.000000000     0.000000000  0.131014796  0.000000000
     0.000000000  0.000000000 24.369114204     0.000000000  0.000000000  0.041035550

  length of vectors
     8.813512802  8.813512802 24.369114204     0.131014796  0.131014796  0.041035550

 FORCES acting on ions
    electron-ion (+dipol)            ewald-force                    non-local-force                 convergence-correction
   0.117E-02 0.134E-01 0.268E+04   0.752E-03 -.143E-01 -.268E+04   -.136E-03 -.236E-02 -.632E+00   -.187E-02 0.231E-02 -.229E+00
   0.465E+00 0.523E+00 0.268E+04   -.523E+00 -.482E+00 -.268E+04   0.153E-01 -.906E-02 -.353E+00   0.397E-01 -.310E-01 -.247E+00
   -.467E+00 0.517E+00 0.268E+04   0.522E+00 -.487E+00 -.268E+04   -.151E-01 -.943E-02 -.352E+00   -.377E-01 -.197E-01 -.243E+00
   0.672E+00 0.154E+00 0.268E+04   -.666E+00 -.221E+00 -.268E+04   0.363E-02 0.173E-01 -.360E+00   -.880E-02 0.467E-01 -.245E+00
   -.102E-01 -.660E-03 0.268E+04   -.455E-02 -.455E-02 -.268E+04   0.373E-05 0.259E-03 -.356E+00   0.149E-01 0.489E-02 -.275E+00
   -.666E+00 0.151E+00 0.268E+04   0.671E+00 -.223E+00 -.268E+04   -.360E-02 0.174E-01 -.361E+00   -.137E-02 0.514E-01 -.238E+00
   0.205E+00 -.674E+00 0.268E+04   -.148E+00 0.705E+00 -.268E+04   -.149E-01 -.798E-02 -.351E+00   -.387E-01 -.204E-01 -.240E+00
   -.210E+00 -.670E+00 0.268E+04   0.144E+00 0.708E+00 -.268E+04   0.146E-01 -.830E-02 -.352E+00   0.483E-01 -.277E-01 -.237E+00
   0.991E-02 -.162E-01 0.268E+04   0.408E-02 0.189E-01 -.268E+04   0.280E-03 0.336E-02 -.411E+00   -.144E-01 -.571E-02 -.221E+00
   0.415E+01 0.251E+01 0.958E+03   -.395E+01 -.240E+01 -.958E+03   -.130E+00 -.737E-01 -.597E+00   -.444E-01 -.249E-01 -.550E-01
   0.229E-02 0.581E+01 0.967E+03   -.164E-01 -.579E+01 -.966E+03   0.289E-03 0.467E-02 -.441E+00   0.141E-01 -.370E-01 -.275E-01
   -.415E+01 0.253E+01 0.958E+03   0.396E+01 -.243E+01 -.958E+03   0.130E+00 -.736E-01 -.597E+00   0.345E-01 -.142E-01 -.521E-01
   0.492E+01 -.291E+01 0.967E+03   -.491E+01 0.289E+01 -.966E+03   0.381E-02 -.115E-02 -.442E+00   -.257E-01 0.284E-01 -.239E-01
   -.491E+01 -.290E+01 0.967E+03   0.488E+01 0.289E+01 -.966E+03   -.397E-02 -.114E-02 -.443E+00   0.503E-01 0.247E-01 -.223E-01
   -.195E-01 0.174E+01 0.960E+03   0.347E-01 -.183E+01 -.959E+03   -.525E-04 0.265E-01 -.500E+00   -.153E-01 0.426E-01 -.245E-01
   0.141E-01 -.485E+01 0.958E+03   -.175E-01 0.463E+01 -.957E+03   0.244E-03 0.147E+00 -.592E+00   0.327E-02 0.399E-01 -.501E-01
   0.155E+01 -.975E+00 0.959E+03   -.163E+01 0.103E+01 -.959E+03   0.231E-01 -.144E-01 -.485E+00   0.326E-01 -.326E-01 -.252E-01
   -.157E+01 -.960E+00 0.959E+03   0.165E+01 0.100E+01 -.959E+03   -.233E-01 -.141E-01 -.483E+00   -.351E-01 -.184E-01 -.241E-01
   -.162E+00 0.300E+01 -.800E+03   0.180E+00 -.316E+01 0.799E+03   -.784E-03 0.499E-01 0.512E+00   -.171E-01 0.962E-01 0.314E+00
   0.360E+02 0.214E+02 -.750E+03   -.355E+02 -.211E+02 0.750E+03   -.597E+00 -.340E+00 -.484E+00   0.880E-01 0.535E-01 0.465E+00
   -.358E+02 0.216E+02 -.750E+03   0.353E+02 -.213E+02 0.750E+03   0.598E+00 -.339E+00 -.483E+00   -.743E-01 0.617E-01 0.463E+00
   0.116E+02 -.755E+01 -.787E+03   -.119E+02 0.774E+01 0.786E+03   0.248E+00 -.154E+00 0.505E+00   0.569E-01 -.408E-01 0.313E+00
   0.225E+00 -.423E+02 -.750E+03   -.238E+00 0.418E+02 0.750E+03   0.619E-03 0.684E+00 -.479E+00   0.129E-01 -.956E-01 0.464E+00
   -.119E+02 -.764E+01 -.787E+03   0.122E+02 0.784E+01 0.786E+03   -.249E+00 -.154E+00 0.505E+00   -.780E-01 -.474E-01 0.313E+00
   -.198E+01 -.909E+00 -.801E+03   0.210E+01 0.983E+00 0.801E+03   -.350E-01 -.187E-01 0.489E+00   -.812E-01 -.475E-01 0.310E+00
   0.203E+01 -.112E+01 -.801E+03   -.215E+01 0.121E+01 0.800E+03   0.362E-01 -.195E-01 0.491E+00   0.738E-01 -.620E-01 0.313E+00
   -.381E-01 0.136E+02 -.788E+03   0.449E-01 -.139E+02 0.787E+03   -.879E-03 0.292E+00 0.503E+00   -.614E-02 0.683E-01 0.311E+00
   -.156E+00 0.433E+01 -.254E+04   0.157E+00 -.434E+01 0.254E+04   -.101E-03 -.340E-02 0.630E+00   -.107E-02 0.274E-02 0.494E+00
   0.274E+02 0.518E+02 -.251E+04   -.270E+02 -.510E+02 0.251E+04   -.499E+00 -.774E+00 0.392E+00   0.775E-01 0.667E-01 0.390E+00
   -.272E+02 0.531E+02 -.251E+04   0.268E+02 -.524E+02 0.251E+04   0.500E+00 -.778E+00 0.376E+00   -.755E-01 0.784E-01 0.388E+00
   0.572E+02 0.179E+01 -.250E+04   -.564E+02 -.178E+01 0.250E+04   -.890E+00 -.382E-01 0.518E+00   0.936E-01 0.357E-01 0.391E+00
   -.591E+02 0.276E+01 -.250E+04   0.583E+02 -.276E+01 0.250E+04   0.887E+00 -.355E-01 0.532E+00   -.103E+00 0.405E-01 0.383E+00
   0.266E+02 -.542E+02 -.251E+04   -.262E+02 0.535E+02 0.251E+04   -.436E+00 0.815E+00 0.377E+00   0.277E-01 -.107E+00 0.386E+00
   -.255E+02 -.558E+02 -.251E+04   0.250E+02 0.551E+02 0.251E+04   0.436E+00 0.811E+00 0.391E+00   -.171E-01 -.114E+00 0.382E+00
   -.113E+01 -.554E+01 -.254E+04   0.114E+01 0.555E+01 0.254E+04   0.539E-03 0.375E-02 0.593E+00   -.151E-01 -.120E-01 0.402E+00
   0.135E+01 0.134E+01 -.213E+04   -.136E+01 -.135E+01 0.213E+04   -.631E-02 -.301E-02 0.203E+01   0.209E-01 0.140E-01 0.518E+00
   -.343E-01 0.109E+00 -.880E+03   0.660E-01 -.108E+00 0.880E+03   -.244E-01 0.241E-02 -.290E-01   -.155E-02 0.912E-03 -.455E-01
   0.262E+03 0.129E+02 -.132E+04   -.326E+03 -.160E+02 0.132E+04   0.637E+02 0.309E+01 -.107E+01   0.130E-01 0.444E-02 -.491E-01
   -.262E+03 -.126E+02 -.132E+04   0.325E+03 0.157E+02 0.132E+04   -.636E+02 -.309E+01 0.118E+01   -.160E-01 0.193E-02 -.561E-01
   -.283E-01 -.194E-02 -.392E+01   0.000E+00 0.156E-12 -.637E-11   0.383E-01 -.421E-02 -.630E+00   -.730E-02 0.840E-02 0.437E+01

 POSITION                                       TOTAL-FORCE (eV/Angst)
      0.00000      0.00000      5.28038        -0.000159     -0.000984     -0.057997
      2.93784      0.00000      5.28038        -0.002733      0.001067     -0.051096
      5.87568      0.00000      5.28038         0.002682      0.001065     -0.051185
      1.46892      2.54424      5.28038        -0.000089     -0.003123     -0.052623
      4.40676      2.54424      5.28038         0.000080     -0.000117     -0.071700
      7.34459      2.54424      5.28038         0.000002     -0.003221     -0.052624
      2.93784      5.08848      5.28038         0.002882      0.002287     -0.052244
      5.87568      5.08848      5.28038        -0.003063      0.002288     -0.052397
      8.81351      5.08848      5.28038        -0.000228      0.000214     -0.060441
      1.46892      0.84808      7.67911         0.027436      0.016590      0.061180
      4.40676      0.84808      7.67911         0.000219     -0.013122      0.012243
      7.34459      0.84808      7.67911        -0.027728      0.016718      0.061124
      2.93784      3.39232      7.67911        -0.012038      0.007149      0.011234
      5.87568      3.39232      7.67911         0.012472      0.007192      0.011061
      8.81351      3.39232      7.67911        -0.000261     -0.024530      0.047747
      4.40676      5.93656      7.67911         0.000018     -0.033290      0.061826
      7.34459      5.93656      7.67911        -0.021462      0.011059      0.048905
     10.28243      5.93656      7.67911         0.021244      0.011292      0.049040
      8.81351      1.69394     10.07055        -0.000301     -0.014298      0.012355
      2.94670      1.70128     10.05847        -0.018626     -0.011143      0.022532
      5.86681      1.70128     10.05847         0.018402     -0.010842      0.022750
     10.27376      4.24541     10.05945         0.010639     -0.005815      0.014820
      4.40676      4.23017     10.05847         0.000017      0.019448      0.022350
      7.35327      4.24541     10.05945        -0.011294     -0.006056      0.015592
     11.75328      6.78576     10.07055         0.010450      0.007354      0.005655
      5.87375      6.78576     10.07055        -0.010914      0.007542      0.006288
      8.81351      6.77463     10.05945        -0.000293      0.011550      0.010137
      0.00000      0.00000     12.48855        -0.000131     -0.001553     -0.022936
      2.97006      0.05170     12.45862         0.009559     -0.003257      0.013552
      5.84345      0.05170     12.45862        -0.009655     -0.003228      0.013432
      1.52981      2.54630     12.45862        -0.000199      0.007761      0.009496
      7.28371      2.54630     12.45862         0.000897      0.007009      0.007742
      2.96650      5.03473     12.45862        -0.001818     -0.005102      0.014270
      5.84701      5.03473     12.45862         0.001486     -0.004083      0.012677
      8.81351      5.08848     12.49203         0.000035      0.001629     -0.003028
      4.40676      2.54424     12.16149        -0.000487      0.002894     -0.051746
      4.45645      2.59574     15.96905         0.005678      0.003784      0.000283
      3.28131      2.53869     15.98949         0.002455     -0.000550      0.008434
      5.63197      2.65283     15.94771        -0.005175     -0.001577      0.003293
    total drift:                                0.002692      0.002251     -0.179758

  FREE ENERGIE OF THE ION-ELECTRON SYSTEM (eV)
  free  energy   TOTEN  =      -134.38467657 eV

  energy  without entropy=     -134.38467657  energy(sigma->0) =     -134.38467657

 stress matrix after NEB project (eV)
    -22.46718     -0.00460      0.01607
     -0.00460    -22.45520     -0.00876
      0.01607     -0.00876      1.44367
  FORCES: max atom, RMS     0.008801    0.002052
  FORCE total and by dimension    0.012814    0.008434
  Stress total and by dimension   31.797721   22.467176
|           W    W    AA    RRRRR   N    N  II  N    N   GGGG   !!!           |
|           W    W   A  A   R    R  NN   N  II  NN   N  G    G  !!!           |
|           W    W  A    A  R    R  N N  N  II  N N  N  G       !!!           |
|           W WW W  AAAAAA  RRRRR   N  N N  II  N  N N  G  GGG   !            |
|           WW  WW  A    A  R   R   N   NN  II  N   NN  G    G                |
|           W    W  A    A  R    R  N    N  II  N    N   GGGG   !!!           |
|     Tetrahedron method does not include variations of the Fermi             |
|     occupations, so forces and stress will be inaccurate. We suggest        |
|     using a different smearing scheme ISMEAR = 1 or 2 for metals in         |
|     relaxations.                                                            |

 total charge

# of ion       s       p       d       tot
    1        0.544   0.240   8.767   9.550
    2        0.544   0.240   8.765   9.550
    3        0.544   0.240   8.765   9.550
    4        0.544   0.240   8.765   9.550
    5        0.542   0.241   8.763   9.546
    6        0.544   0.240   8.765   9.550
    7        0.545   0.240   8.765   9.550
    8        0.544   0.240   8.765   9.550
    9        0.545   0.239   8.766   9.550
   10        0.520   0.308   8.770   9.598
   11        0.520   0.307   8.777   9.604
   12        0.520   0.308   8.770   9.598
   13        0.520   0.307   8.777   9.604
   14        0.520   0.307   8.777   9.604
   15        0.518   0.308   8.775   9.601
   16        0.520   0.308   8.770   9.598
   17        0.518   0.308   8.775   9.601
   18        0.518   0.308   8.775   9.601
   19        0.516   0.302   8.776   9.595
   20        0.534   0.322   8.761   9.617
   21        0.534   0.322   8.761   9.617
   22        0.513   0.309   8.773   9.596
   23        0.535   0.322   8.760   9.617
   24        0.513   0.309   8.773   9.595
   25        0.517   0.302   8.776   9.595
   26        0.517   0.302   8.776   9.595
   27        0.513   0.309   8.773   9.596
   28        0.539   0.225   8.767   9.531
   29        0.551   0.234   8.761   9.546
   30        0.551   0.234   8.761   9.546
   31        0.550   0.232   8.762   9.544
   32        0.549   0.232   8.762   9.544
   33        0.551   0.234   8.761   9.546
   34        0.551   0.234   8.761   9.546
   35        0.538   0.225   8.768   9.531
   36        0.336   0.230   8.376   8.942
   37        0.933   1.799   0.000   2.732
   38        1.607   3.529   0.000   5.136
   39        1.607   3.529   0.000   5.136
tot         23.128  18.665 315.264 357.056

 BZINTS: Fermi energy:    0.252750;  411.000000 electrons
         Band energy:-0.149540E+04;  BLOECHL correction:   -0.102905