 vasp.6.2.0 18Jan21 (build Jun 12 2021 23:27:24) complex

 executed on             LinuxIFC date 2022.05.28  01:14:44

 INCAR:
   ISMEAR = -5
   SIGMA = 0.1
   ISPIN = 1
   EDIFF = 1.d-5
   EDIFFG = -0.01
   NSW = 0
   NELM = 150
   ENCUT = 500
   ISIF = 2
   IBRION = 2
   LREAL = Auto
   ALGO = Fast
   ICHARG = 11
   LORBIT = 10
   LCHARG = .F.
   LWAVE = .F.

 POTCAR:    PAW_PBE Au 04Oct2007
 POTCAR:    PAW_PBE Os 17Jan2003
 POTCAR:    PAW_PBE H 15Jun2001
 POTCAR:    PAW_PBE O 08Apr2002
|           W    W    AA    RRRRR   N    N  II  N    N   GGGG   !!!           |
|           W    W   A  A   R    R  NN   N  II  NN   N  G    G  !!!           |
|           W    W  A    A  R    R  N N  N  II  N N  N  G       !!!           |
|           W WW W  AAAAAA  RRRRR   N  N N  II  N  N N  G  GGG   !            |
|           WW  WW  A    A  R   R   N   NN  II  N   NN  G    G                |
|           W    W  A    A  R    R  N    N  II  N    N   GGGG   !!!           |
|     For optimal performance we recommend to set                             |
|       NCORE = 2 up to number-of-cores-per-socket                            |
|     This setting can greatly improve the performance of VASP for DFT.       |
|     The default, NCORE=1 might be grossly inefficient on modern             |
|     multi-core architectures or massively parallel machines. Do your        |
|     Unfortunately you need to use the default for GW and RPA                |
|     calculations (for HF NCORE is supported but not extensively tested      |
|     yet).                                                                   |

 POTCAR:    PAW_PBE Au 04Oct2007
   VRHFIN =Au: s1d10

   TITEL  = PAW_PBE Au 04Oct2007
   POMASS =  196.966; ZVAL   =   11.000    mass and valenz
   ENMAX  =  229.943; ENMIN  =  172.457 eV

 POTCAR:    PAW_PBE Os 17Jan2003
   VRHFIN =Os: 6s5d

   TITEL  = PAW_PBE Os 17Jan2003
   POMASS =  190.200; ZVAL   =    8.000    mass and valenz
   ENMAX  =  228.022; ENMIN  =  171.017 eV

 POTCAR:    PAW_PBE H 15Jun2001
   VRHFIN =H: ultrasoft test

   TITEL  = PAW_PBE H 15Jun2001
   POMASS =    1.000; ZVAL   =    1.000    mass and valenz
   ENMAX  =  250.000; ENMIN  =  200.000 eV

 POTCAR:    PAW_PBE O 08Apr2002
   VRHFIN =O: s2p4

   TITEL  = PAW_PBE O 08Apr2002
   POMASS =   16.000; ZVAL   =    6.000    mass and valenz
   ENMAX  =  400.000; ENMIN  =  300.000 eV

 Optimization of the real space projectors (new method)

 maximal supplied QI-value         = 15.12
 optimisation between [QCUT,QGAM] = [ 11.34, 22.83] = [ 36.00,145.93] Ry
 Optimized for a Real-space Cutoff    1.39 Angstroem

   l    n(q)    QCUT    max X(q) W(low)/X(q) W(high)/X(q)  e(spline)
   2      9    11.338    60.898    0.39E-03    0.42E-03    0.21E-06
   2      9    11.338    58.894    0.40E-03    0.42E-03    0.22E-06
   0      9    11.338   109.617    0.13E-03    0.20E-04    0.13E-06
   0      9    11.338    75.026    0.13E-03    0.20E-04    0.13E-06
   1      9    11.338    16.344    0.33E-04    0.24E-03    0.18E-06
   1      9    11.338    10.160    0.26E-04    0.19E-03    0.15E-06
 Optimization of the real space projectors (new method)

[...]

   l    n(q)    QCUT    max X(q) W(low)/X(q) W(high)/X(q)  e(spline)
   0      8    11.287    19.460    0.40E-03    0.73E-03    0.16E-06
   0      8    11.287    12.209    0.38E-03    0.70E-03    0.15E-06
   1      7    11.287     4.655    0.22E-03    0.25E-04    0.22E-06
 Optimization of the real space projectors (new method)

 maximal supplied QI-value         = 24.76
 optimisation between [QCUT,QGAM] = [ 11.39, 22.77] = [ 36.31,145.25] Ry
 Optimized for a Real-space Cutoff    1.00 Angstroem

   l    n(q)    QCUT    max X(q) W(low)/X(q) W(high)/X(q)  e(spline)
   0      7    11.387    20.381    0.39E-03    0.13E-02    0.15E-06
   0      7    11.387    15.268    0.42E-03    0.14E-02    0.17E-06
   1      6    11.387     5.964    0.41E-03    0.11E-02    0.17E-06
   1      6    11.387     5.382    0.39E-03    0.87E-03    0.15E-06
  PAW_PBE Au 04Oct2007                  :
  PAW_PBE Os 17Jan2003                  :
  PAW_PBE H 15Jun2001                   :
  PAW_PBE O 08Apr2002                   :

 POSCAR: Au-Os-H2O
  positions in direct lattice
  velocities in cartesian coordinates
 exchange correlation table for  LEXCH =        8
   RHO(1)=    0.500       N(1)  =     2000
   RHO(2)=  100.500       N(2)  =     4000

 VTST: version 3.2, (02/03/18)

 CHAIN: initializing optimizer

 OPT: Using VASP Conjugate-Gradient optimizer
 CHAIN: Read ICHAIN            0

 POSCAR: Au-Os-H2O
  positions in direct lattice
  velocities in cartesian coordinates

 ion  position               nearest neighbor table
   1  0.000  0.000  0.213-  16 2.94  12 2.94   6 2.94   8 2.94   7 2.94   3 2.94  10 2.94   4 2.94
                             2 2.94
   2  0.333  0.000  0.213-   9 2.94  11 2.94  17 2.94  10 2.94   8 2.94   4 2.94   5 2.94   1 2.94
                             3 2.94
   3  0.667  0.000  0.213-   7 2.94  18 2.94  12 2.94   1 2.94  11 2.94   5 2.94   6 2.94   9 2.94
                             2 2.94
   4  0.000  0.333  0.213-  10 2.94   6 2.94   5 2.94  13 2.94   2 2.94  15 2.94   9 2.94   1 2.94
                             7 2.94
   5  0.333  0.333  0.213-  13 2.94   7 2.94  11 2.94   4 2.94   2 2.94  14 2.94   3 2.94   8 2.94
                             6 2.94
   6  0.667  0.333  0.213-  15 2.94  14 2.94   1 2.94  12 2.94   4 2.94   9 2.94   8 2.94   3 2.94
                             5 2.94
   7  0.000  0.667  0.213-  18 2.94   3 2.94  16 2.94   5 2.94   1 2.94  13 2.94   8 2.94   4 2.94
                             9 2.94
   8  0.333  0.667  0.213-   9 2.94  17 2.94   1 2.94   2 2.94  14 2.94  16 2.94   6 2.94   7 2.94
                             5 2.94
   9  0.667  0.667  0.213-   2 2.94   8 2.94  17 2.94   6 2.94  15 2.94   4 2.94   3 2.94  18 2.94
                             7 2.94
  10  0.111  0.111  0.310-  20 2.90  11 2.94  17 2.94   2 2.94   4 2.94   1 2.94  12 2.94  16 2.94
                            13 2.94  15 2.94  26 2.95  19 2.95
  11  0.444  0.111  0.310-  20 2.91  21 2.91  27 2.94  13 2.94   2 2.94  10 2.94  17 2.94   5 2.94
                             3 2.94  18 2.94  14 2.94  12 2.94
  12  0.778  0.111  0.310-  21 2.90  16 2.94  18 2.94   1 2.94  14 2.94  15 2.94   3 2.94   6 2.94
                            10 2.94  11 2.94  25 2.95  19 2.95
  13  0.111  0.444  0.310-  23 2.91  20 2.91  22 2.94   5 2.94  18 2.94  11 2.94   7 2.94   4 2.94
                            16 2.94  10 2.94  14 2.94  15 2.94
  14  0.444  0.444  0.310-  21 2.91  23 2.91  24 2.94  15 2.94   6 2.94  12 2.94   8 2.94  17 2.94
                             5 2.94  16 2.94  13 2.94  11 2.94
  15  0.778  0.444  0.310-  24 2.92  22 2.92  14 2.94   6 2.94  17 2.94  12 2.94   9 2.94   4 2.94
                            10 2.94  13 2.94  18 2.94  19 2.95
  16  0.111  0.778  0.310-  23 2.90  18 2.94  12 2.94   7 2.94   1 2.94   8 2.94  13 2.94  10 2.94
                            14 2.94  17 2.94  25 2.95  26 2.95
  17  0.444  0.778  0.310-  27 2.92  24 2.92   9 2.94  15 2.94   2 2.94  10 2.94  11 2.94   8 2.94
                            14 2.94  16 2.94  18 2.94  26 2.95
  18  0.778  0.778  0.310-  22 2.92  27 2.92  16 2.94   7 2.94  13 2.94  12 2.94   3 2.94  11 2.94
                             9 2.94  15 2.94  17 2.94  25 2.95
  19  0.888  0.223  0.408-  24 2.93  22 2.93  21 2.93  20 2.93  28 2.95  15 2.95  26 2.95  25 2.95
                            10 2.95  12 2.95  32 2.98  31 2.98
  20  0.222  0.222  0.406-  36 2.77  10 2.90  11 2.91  13 2.91  26 2.93  19 2.93  23 2.95  21 2.95
                            27 2.96  22 2.96  29 2.96  31 2.96
  21  0.556  0.222  0.406-  36 2.77  12 2.90  14 2.91  11 2.91  25 2.93  19 2.93  20 2.95  23 2.95
                            27 2.96  24 2.96  30 2.96  32 2.96
  22  0.886  0.557  0.407-  24 2.90  27 2.90  18 2.92  15 2.92  25 2.93  19 2.93  13 2.94  35 2.95
                            23 2.96  20 2.96  33 2.98  31 2.98
  23  0.222  0.556  0.406-  36 2.77  16 2.90  13 2.91  14 2.91  25 2.93  26 2.93  20 2.95  21 2.95
                            22 2.96  24 2.96  33 2.96  34 2.96
  24  0.557  0.557  0.407-  27 2.90  22 2.90  15 2.92  17 2.92  26 2.93  19 2.93  14 2.94  35 2.95
                            21 2.96  23 2.96  32 2.98  34 2.98
  25  0.888  0.888  0.408-  22 2.93  27 2.93  23 2.93  21 2.93  28 2.95  18 2.95  19 2.95  26 2.95
                            16 2.95  12 2.95  33 2.98  30 2.98
  26  0.223  0.888  0.408-  27 2.93  24 2.93  20 2.93  23 2.93  28 2.95  17 2.95  19 2.95  25 2.95
                            10 2.95  16 2.95  29 2.98  34 2.98
  27  0.557  0.886  0.407-  24 2.90  22 2.90  17 2.92  18 2.92  26 2.93  25 2.93  11 2.94  35 2.95
                            20 2.96  21 2.96  29 2.98  30 2.98
  28  0.000  0.000  0.505-  25 2.95  19 2.95  26 2.95  34 2.98  32 2.98  33 2.98  30 2.98  31 2.98
                            29 2.98
  29  0.333  0.009  0.505-  31 2.86  30 2.86  36 2.88  20 2.96  28 2.98  35 2.98  27 2.98  26 2.98
                            34 3.09
  30  0.658  0.009  0.505-  32 2.86  29 2.86  36 2.88  21 2.96  28 2.98  35 2.98  27 2.98  25 2.98
                            33 3.09
  31  0.009  0.333  0.505-  29 2.86  33 2.86  36 2.88  20 2.96  28 2.98  35 2.98  22 2.98  19 2.98
                            32 3.09
  32  0.658  0.333  0.505-  30 2.86  34 2.86  36 2.88  21 2.96  28 2.98  35 2.98  24 2.98  19 2.98
                            31 3.09
  33  0.009  0.658  0.505-  34 2.86  31 2.86  36 2.88  23 2.96  28 2.98  35 2.98  22 2.98  25 2.98
                            30 3.09
  34  0.333  0.658  0.505-  33 2.86  32 2.86  36 2.88  23 2.96  28 2.98  35 2.98  24 2.98  26 2.98
                            29 3.09
  35  0.667  0.667  0.505-  24 2.95  27 2.95  22 2.95  29 2.98  34 2.98  32 2.98  31 2.98  30 2.98
                            33 2.98
  36  0.333  0.333  0.494-  39 2.25  20 2.77  23 2.77  21 2.77  33 2.88  31 2.88  29 2.88  30 2.88
                            34 2.88  32 2.88
  37  0.207  0.408  0.592-  39 0.98
  38  0.386  0.406  0.592-  39 0.98
  39  0.332  0.334  0.584-  38 0.98  37 0.98  36 2.25

  LATTYP: Found a hexagonal cell.
 ALAT       =     8.8135128021
 C/A-ratio  =     2.8075332270

  Lattice vectors:

 A1 = (  -4.4067569092,  -7.6327256898,   0.0000000000)
 A2 = (   8.8135128021,   0.0000000000,   0.0000000000)
 A3 = (   0.0000000000,   0.0000000000,  24.7442300386)

Analysis of symmetry for initial positions (statically):
 Subroutine PRICEL returns:
 Original cell was already a primitive cell.

 Routine SETGRP: Setting up the symmetry group for a
 hexagonal supercell.

 Subroutine GETGRP returns: Found  1 space group operations
 (whereof  1 operations were pure point group operations)
 out of a pool of 24 trial point group operations.

The static configuration has the point symmetry C_1 .

Analysis of symmetry for dynamics (positions and initial velocities):
 Subroutine PRICEL returns:
 Original cell was already a primitive cell.

[...]

The dynamic configuration has the point symmetry C_1 .

Analysis of constrained symmetry for selective dynamics:
 Subroutine PRICEL returns:
[...]
     41      -4.8377      2.00000
     42      -4.8264      2.00000
     43      -4.7632      2.00000
     44      -4.7103      2.00000
     45      -4.6937      2.00000
     46      -4.6375      2.00000
     47      -4.6271      2.00000
     48      -4.5985      2.00000
     49      -4.5901      2.00000
     50      -4.4926      2.00000
     51      -4.4634      2.00000
     52      -4.4393      2.00000
     53      -4.4256      2.00000
     54      -4.4167      2.00000
     55      -4.4084      2.00000
     56      -4.4039      2.00000
     57      -4.3613      2.00000
     58      -4.3196      2.00000
     59      -4.2830      2.00000
     60      -4.2736      2.00000
[...]
    238       5.8160      0.00000
    239       6.0259      0.00000
    240       6.0683      0.00000
    241       6.1481      0.00000
    242       6.2007      0.00000
    243       6.3534      0.00000
    244       6.4467      0.00000
    245       6.4596      0.00000
    246       6.5207      0.00000
    247       6.5762      0.00000
    248       6.6371      0.00000
    249       6.6710      0.00000
    250       6.7264      0.00000
    251       6.8305      0.00000
    252       6.8619      0.00000

 soft charge-density along one line, spin component           1
         0         1         2         3         4         5         6         7         8         9
 total charge-density along one line

------------------------ aborting loop because EDIFF is reached ----------------------------------------

 total charge

# of ion       s       p       d       tot
    1        0.546   0.238   8.766   9.551
    2        0.545   0.240   8.764   9.550
    3        0.545   0.240   8.764   9.550
    4        0.546   0.240   8.764   9.550
    5        0.542   0.242   8.762   9.546
    6        0.546   0.240   8.764   9.550
    7        0.546   0.241   8.764   9.550
    8        0.546   0.241   8.764   9.550
    9        0.541   0.239   8.770   9.549
   10        0.525   0.308   8.766   9.599
   11        0.523   0.307   8.780   9.610
   12        0.525   0.308   8.766   9.599
   13        0.523   0.307   8.780   9.610
   14        0.523   0.307   8.780   9.610
   15        0.514   0.308   8.777   9.599
   16        0.525   0.308   8.766   9.599
   17        0.514   0.308   8.777   9.599
   18        0.514   0.308   8.777   9.599
   19        0.519   0.299   8.772   9.590
   20        0.551   0.339   8.739   9.629
   21        0.551   0.339   8.739   9.629
   22        0.509   0.307   8.779   9.595
   23        0.551   0.340   8.738   9.630
   24        0.509   0.307   8.779   9.595
   25        0.518   0.299   8.773   9.590
   26        0.518   0.299   8.773   9.590
   27        0.507   0.307   8.779   9.594
   28        0.537   0.230   8.765   9.531
   29        0.558   0.249   8.746   9.553
   30        0.558   0.249   8.746   9.553
   31        0.562   0.255   8.742   9.559
   32        0.562   0.255   8.742   9.559
   33        0.563   0.256   8.742   9.562
   34        0.563   0.256   8.742   9.561
   35        0.530   0.230   8.766   9.525
   36        0.500   0.395   5.883   6.778
   37        0.601   0.118   0.000   0.719
   38        0.602   0.118   0.000   0.719
   39        1.568   3.598   0.000   5.166
tot         22.026  13.973 312.600 348.599

  FORCE on cell =-STRESS in cart. coord.  units (eV):
  Direction    XX          YY          ZZ          XY          YZ          ZX
  Alpha Z   932.17423   932.17423   932.17423
  Ewald  156492.82791156430.13103************    -0.53941    14.13464     0.35244
  Hartree164958.94552164947.28580************    -0.09834    -1.58860     0.16455
  E(xc)   -1799.80655 -1800.06229 -1806.84446    -0.00240     0.03753    -0.00098
  Local  ************************333854.19381     0.48444    -6.20080    -0.45067
  n-local  -109.54375  -110.67471   -82.31077    -0.00946     0.02700    -0.01037
  augment  2388.12729  2389.35779  2406.18728     0.01024    -0.32948    -0.00066
  Kinetic  5598.38483  5616.45693  5672.95154     0.15792    -5.99631    -0.05016
  Fock        0.00000     0.00000     0.00000     0.00000     0.00000     0.00000
  Total     -22.23178   -22.36964     2.32831     0.00300     0.08397     0.00414
  in kB     -21.39844   -21.53114     2.24104     0.00289     0.08082     0.00399

 VOLUME and BASIS-vectors are now :
  energy-cutoff  :      500.00
  volume of cell :     1664.57
      direct lattice vectors                 reciprocal lattice vectors
     8.813512802  0.000000000  0.000000000     0.113462137 -0.065507406  0.000000000
     4.406756909  7.632725690  0.000000000     0.000000000  0.131014796  0.000000000
     0.000000000  0.000000000 24.744230039     0.000000000  0.000000000  0.040413462

  length of vectors
     8.813512802  8.813512802 24.744230039     0.131014796  0.131014796  0.040413462

 FORCES acting on ions
    electron-ion (+dipol)            ewald-force                    non-local-force                 convergence-correction
   0.156E-02 -.105E-01 0.269E+04   -.145E-03 0.731E-02 -.269E+04   -.766E-04 -.346E-02 -.993E+00   -.142E-02 0.539E-02 -.201E+00
   0.647E+00 0.278E+00 0.269E+04   -.757E+00 -.367E+00 -.269E+04   0.505E-01 0.662E-01 -.181E+00   0.550E-01 0.396E-01 -.289E+00
   -.648E+00 0.267E+00 0.269E+04   0.757E+00 -.366E+00 -.269E+04   -.506E-01 0.660E-01 -.180E+00   -.536E-01 0.505E-01 -.286E+00
   0.574E+00 0.436E+00 0.269E+04   -.703E+00 -.486E+00 -.269E+04   0.801E-01 0.145E-01 -.164E+00   0.616E-01 0.256E-01 -.279E+00
   -.149E-01 0.547E-02 0.269E+04   0.620E-03 -.180E-01 -.269E+04   0.130E-03 0.104E-01 -.119E+00   0.144E-01 0.498E-02 -.282E+00
   -.564E+00 0.431E+00 0.269E+04   0.702E+00 -.486E+00 -.269E+04   -.804E-01 0.149E-01 -.163E+00   -.714E-01 0.308E-01 -.273E+00
   -.826E-01 -.705E+00 0.269E+04   0.544E-01 0.853E+00 -.269E+04   0.352E-01 -.811E-01 -.148E+00   0.923E-02 -.733E-01 -.287E+00
   0.726E-01 -.698E+00 0.269E+04   -.543E-01 0.853E+00 -.269E+04   -.351E-01 -.814E-01 -.148E+00   0.576E-03 -.800E-01 -.284E+00
   0.142E-01 0.146E-02 0.269E+04   -.153E-03 0.104E-01 -.269E+04   0.266E-03 -.618E-02 -.534E+00   -.145E-01 -.745E-02 -.266E+00
   0.784E+01 0.457E+01 0.921E+03   -.738E+01 -.430E+01 -.919E+03   -.431E+00 -.248E+00 -.876E+00   0.365E-02 0.319E-02 -.272E-01
   -.138E-01 0.472E+01 0.928E+03   0.274E-02 -.480E+01 -.928E+03   0.226E-04 0.641E-01 -.296E+00   0.114E-01 -.451E-01 -.174E-02
   -.783E+01 0.455E+01 0.921E+03   0.738E+01 -.429E+01 -.919E+03   0.430E+00 -.248E+00 -.877E+00   -.110E-01 0.137E-01 -.290E-01
   0.406E+01 -.225E+01 0.928E+03   -.413E+01 0.229E+01 -.928E+03   0.483E-01 -.346E-01 -.281E+00   -.377E-01 0.175E-01 -.730E-02
   -.409E+01 -.224E+01 0.928E+03   0.413E+01 0.229E+01 -.928E+03   -.477E-01 -.347E-01 -.280E+00   0.610E-01 0.162E-01 -.679E-02
   0.166E-01 0.484E+01 0.924E+03   -.337E-02 -.493E+01 -.923E+03   0.314E-03 0.519E-02 -.508E+00   -.137E-01 0.172E-01 -.397E-01
   -.540E-02 -.921E+01 0.921E+03   0.134E-02 0.864E+01 -.920E+03   -.345E-03 0.516E+00 -.843E+00   0.442E-02 0.283E-02 -.382E-01
   0.411E+01 -.248E+01 0.924E+03   -.419E+01 0.254E+01 -.923E+03   0.956E-02 -.998E-02 -.522E+00   0.212E-01 -.163E-01 -.369E-01
   -.410E+01 -.250E+01 0.924E+03   0.419E+01 0.254E+01 -.923E+03   -.975E-02 -.108E-01 -.521E+00   -.255E-01 -.507E-02 -.393E-01
   0.264E-01 0.477E+01 -.886E+03   -.215E-01 -.486E+01 0.885E+03   0.839E-03 -.465E-01 0.380E+00   -.557E-02 0.946E-01 0.593E+00
   0.112E+02 0.726E+01 -.834E+03   -.104E+02 -.679E+01 0.834E+03   -.947E+00 -.556E+00 -.107E+01   0.208E+00 0.120E+00 0.949E+00
   -.112E+02 0.724E+01 -.834E+03   0.104E+02 -.678E+01 0.834E+03   0.949E+00 -.558E+00 -.107E+01   -.201E+00 0.132E+00 0.948E+00
   -.249E+01 0.153E+01 -.865E+03   0.193E+01 -.120E+01 0.864E+03   0.478E+00 -.283E+00 0.602E+00   0.814E-01 -.595E-01 0.659E+00
   -.363E-01 -.130E+02 -.832E+03   0.249E-01 0.121E+02 0.832E+03   -.631E-03 0.109E+01 -.111E+01   0.127E-01 -.258E+00 0.969E+00
   0.253E+01 0.155E+01 -.865E+03   -.196E+01 -.121E+01 0.864E+03   -.480E+00 -.283E+00 0.601E+00   -.103E+00 -.587E-01 0.659E+00
   -.350E+01 -.287E+01 -.886E+03   0.361E+01 0.287E+01 0.885E+03   0.215E-02 0.545E-01 0.395E+00   -.824E-01 -.332E-01 0.599E+00
   0.349E+01 -.284E+01 -.886E+03   -.361E+01 0.285E+01 0.885E+03   -.190E-02 0.541E-01 0.397E+00   0.911E-01 -.439E-01 0.601E+00
   0.113E-01 -.380E+01 -.866E+03   0.190E-02 0.315E+01 0.865E+03   -.337E-03 0.566E+00 0.647E+00   -.130E-01 0.102E+00 0.658E+00
   0.311E-01 -.142E+01 -.263E+04   -.322E-01 0.142E+01 0.263E+04   -.281E-03 -.800E-03 0.463E+00   0.150E-02 0.153E-03 0.553E+00
   0.247E+02 0.465E+02 -.261E+04   -.243E+02 -.458E+02 0.261E+04   -.722E+00 -.999E+00 0.643E-01   0.180E+00 0.216E+00 0.474E+00
   -.248E+02 0.463E+02 -.261E+04   0.243E+02 -.457E+02 0.261E+04   0.723E+00 -.100E+01 0.591E-01   -.181E+00 0.227E+00 0.476E+00
   0.574E+02 0.306E+01 -.260E+04   -.565E+02 -.296E+01 0.260E+04   -.136E+01 -.132E+00 -.302E+00   0.294E+00 0.476E-01 0.467E+00
   -.571E+02 0.301E+01 -.260E+04   0.562E+02 -.292E+01 0.260E+04   0.136E+01 -.132E+00 -.308E+00   -.301E+00 0.550E-01 0.463E+00
   0.310E+02 -.528E+02 -.260E+04   -.306E+02 0.519E+02 0.260E+04   -.546E+00 0.125E+01 -.408E+00   0.975E-01 -.268E+00 0.468E+00
   -.310E+02 -.525E+02 -.260E+04   0.307E+02 0.517E+02 0.260E+04   0.545E+00 0.124E+01 -.401E+00   -.864E-01 -.273E+00 0.462E+00
   0.778E-01 -.220E+01 -.263E+04   -.623E-01 0.222E+01 0.263E+04   -.191E-03 -.165E-01 0.505E+00   -.155E-01 -.990E-03 0.513E+00
   -.252E+00 0.661E+01 -.168E+04   0.247E+00 -.672E+01 0.168E+04   -.550E-02 0.709E-01 0.167E+01   0.691E-02 0.249E-02 0.274E+00
   0.676E+02 -.452E+02 -.291E+03   -.743E+02 0.498E+02 0.293E+03   0.672E+01 -.456E+01 -.154E+01   0.683E-02 -.624E-02 -.265E-01
   -.683E+02 -.441E+02 -.291E+03   0.751E+02 0.486E+02 0.293E+03   -.679E+01 -.445E+01 -.156E+01   -.644E-02 -.618E-02 -.268E-01
   0.373E+00 0.573E+02 -.166E+04   -.753E+00 -.102E+03 0.166E+04   0.386E+00 0.443E+02 0.314E+01   0.371E-02 -.118E-01 -.247E+00
   -.305E+00 -.356E+02 -.689E+00   0.156E-12 -.171E-12 -.796E-11   0.310E+00 0.356E+02 -.647E+01   0.981E-03 -.233E-01 0.781E+01

 POSITION                                       TOTAL-FORCE (eV/Angst)
      0.00000      0.00000      5.28038        -0.000223     -0.000604     -0.060328
      2.93784      0.00000      5.28038        -0.004395      0.017186     -0.014846
      5.87568      0.00000      5.28038         0.004207      0.017318     -0.014847
      1.46892      2.54424      5.28038         0.013132     -0.008825     -0.018134
      4.40676      2.54424      5.28038         0.000066      0.003630     -0.046146
      7.34459      2.54424      5.28038        -0.013462     -0.008898     -0.018112
      2.93784      5.08848      5.28038         0.016200     -0.005769     -0.014628
      5.87568      5.08848      5.28038        -0.016396     -0.005780     -0.014498
      8.81351      5.08848      5.28038        -0.000367     -0.001084     -0.027644
      1.46892      0.84808      7.67911         0.038845      0.026991      0.140141
      4.40676      0.84808      7.67911         0.000125     -0.060765     -0.016551
      7.34459      0.84808      7.67911        -0.039147      0.027020      0.140016
      2.93784      3.39232      7.67911        -0.051894      0.029821     -0.012756
      5.87568      3.39232      7.67911         0.052225      0.029839     -0.012788
      8.81351      3.39232      7.67911        -0.000314     -0.063437      0.071771
      4.40676      5.93656      7.67911        -0.000128     -0.048322      0.150550
      7.34459      5.93656      7.67911        -0.050929      0.032232      0.073230
     10.28243      5.93656      7.67911         0.050593      0.032354      0.073282
      8.81351      1.70311     10.09495        -0.000035     -0.035561     -0.050390
      2.93286      1.69329     10.03570         0.072270      0.030760     -0.098143
      5.88065      1.69329     10.03570        -0.072873      0.031429     -0.096829
     10.26497      4.25049     10.06286         0.007380     -0.006891     -0.020347
      4.40676      4.24615     10.03570         0.000489     -0.083935     -0.099695
      7.36206      4.25049     10.06286        -0.008362     -0.007000     -0.020263
     11.74534      6.78117     10.09495         0.033185      0.021422     -0.051577
      5.88169      6.78117     10.09495        -0.033475      0.021345     -0.051080
      8.81351      6.76448     10.06286        -0.000326      0.020336      0.003282
      0.00000      0.00000     12.49897        -0.000052      0.002920     -0.039721
      2.97514      0.06495     12.50272        -0.062827     -0.151030     -0.068148
      5.83837      0.06495     12.50272         0.062261     -0.149597     -0.066750
      1.54382      2.54408     12.50272        -0.159897      0.022395     -0.043643
      7.26969      2.54408     12.50272         0.157115      0.021971     -0.040866
      2.97543      5.02370     12.50272        -0.115818      0.142231     -0.037652
      5.83808      5.02370     12.50272         0.115043      0.141396     -0.037368
      8.81351      5.08848     12.49601        -0.000349      0.008087     -0.075688
      4.40676      2.54424     12.21487        -0.003817     -0.031937      0.596690
      3.62327      3.11559     14.65053        -0.002748      0.000649     -0.007722
      5.18993      3.10265     14.65257         0.005881      0.003154     -0.003659
      4.40230      2.55050     14.46124         0.008815     -0.015049     -0.068142
    total drift:                                0.005504     -0.027076      0.652934

  FREE ENERGIE OF THE ION-ELECTRON SYSTEM (eV)
  free  energy   TOTEN  =      -129.77780206 eV

  energy  without entropy=     -129.77780206  energy(sigma->0) =     -129.77780206

 stress matrix after NEB project (eV)
    -22.23178      0.00300      0.00414
      0.00300    -22.36964      0.08397
      0.00414      0.08397      2.32831
  FORCES: max atom, RMS     0.070338    0.011405
  FORCE total and by dimension    0.071225    0.068142
  Stress total and by dimension   31.624169   22.369643
|           W    W    AA    RRRRR   N    N  II  N    N   GGGG   !!!           |
|           W    W   A  A   R    R  NN   N  II  NN   N  G    G  !!!           |
|           W    W  A    A  R    R  N N  N  II  N N  N  G       !!!           |
|           W WW W  AAAAAA  RRRRR   N  N N  II  N  N N  G  GGG   !            |
|           WW  WW  A    A  R   R   N   NN  II  N   NN  G    G                |
|           W    W  A    A  R    R  N    N  II  N    N   GGGG   !!!           |
|     Tetrahedron method does not include variations of the Fermi             |
|     occupations, so forces and stress will be inaccurate. We suggest        |
|     using a different smearing scheme ISMEAR = 1 or 2 for metals in         |
|     relaxations.                                                            |

 total charge

# of ion       s       p       d       tot
    1        0.546   0.238   8.766   9.551
    2        0.545   0.240   8.764   9.550
    3        0.545   0.240   8.764   9.550
    4        0.546   0.240   8.764   9.550
    5        0.542   0.242   8.762   9.546
    6        0.546   0.240   8.764   9.550
    7        0.546   0.241   8.764   9.550
    8        0.546   0.241   8.764   9.550
    9        0.541   0.239   8.770   9.549
   10        0.525   0.308   8.766   9.599
   11        0.523   0.307   8.780   9.610
   12        0.525   0.308   8.766   9.599
   13        0.523   0.307   8.780   9.610
   14        0.523   0.307   8.780   9.610
   15        0.514   0.308   8.777   9.599
   16        0.525   0.308   8.766   9.599
   17        0.514   0.308   8.777   9.599
   18        0.514   0.308   8.777   9.599
   19        0.519   0.299   8.772   9.590
   20        0.551   0.339   8.739   9.629
   21        0.551   0.339   8.739   9.629
   22        0.509   0.307   8.779   9.595
   23        0.551   0.340   8.738   9.630
   24        0.509   0.307   8.779   9.595
   25        0.518   0.299   8.773   9.590
   26        0.518   0.299   8.773   9.590
   27        0.507   0.307   8.779   9.594
   28        0.537   0.230   8.765   9.531
   29        0.558   0.249   8.746   9.553
   30        0.558   0.249   8.746   9.553
   31        0.562   0.255   8.742   9.559
   32        0.562   0.255   8.742   9.559
   33        0.563   0.256   8.742   9.562
   34        0.563   0.256   8.742   9.561
   35        0.530   0.230   8.766   9.525
   36        0.500   0.395   5.883   6.778
   37        0.601   0.118   0.000   0.719
   38        0.602   0.118   0.000   0.719
   39        1.568   3.598   0.000   5.166
tot         22.026  13.973 312.600 348.599

 BZINTS: Fermi energy:    0.361345;  401.000000 electrons
         Band energy:-0.139313E+04;  BLOECHL correction:   -0.070867