 vasp.6.2.0 18Jan21 (build Jun 12 2021 23:27:24) complex

 executed on             LinuxIFC date 2022.05.28  02:13:00

 INCAR:
   ISMEAR = -5
   SIGMA = 0.1
   ISPIN = 1
   EDIFF = 1.d-5
   EDIFFG = -0.01
   NSW = 0
   NELM = 150
   ENCUT = 500
   ISIF = 2
   IBRION = 2
   LREAL = Auto
   ALGO = Fast
   ICHARG = 11
   LORBIT = 10
   LCHARG = .F.
   LWAVE = .F.

 POTCAR:    PAW_PBE Ag 02Apr2005
 POTCAR:    PAW_PBE Pt 04Feb2005
 POTCAR:    PAW_PBE O 08Apr2002
 POTCAR:    PAW_PBE H 15Jun2001
|           W    W    AA    RRRRR   N    N  II  N    N   GGGG   !!!           |
|           W    W   A  A   R    R  NN   N  II  NN   N  G    G  !!!           |
|           W    W  A    A  R    R  N N  N  II  N N  N  G       !!!           |
|           W WW W  AAAAAA  RRRRR   N  N N  II  N  N N  G  GGG   !            |
|           WW  WW  A    A  R   R   N   NN  II  N   NN  G    G                |
|           W    W  A    A  R    R  N    N  II  N    N   GGGG   !!!           |
|     For optimal performance we recommend to set                             |
|       NCORE = 2 up to number-of-cores-per-socket                            |
|     This setting can greatly improve the performance of VASP for DFT.       |
|     The default, NCORE=1 might be grossly inefficient on modern             |
|     multi-core architectures or massively parallel machines. Do your        |
|     Unfortunately you need to use the default for GW and RPA                |
|     calculations (for HF NCORE is supported but not extensively tested      |
|     yet).                                                                   |

 POTCAR:    PAW_PBE Ag 02Apr2005
   VRHFIN =Ag : s1 d10

   TITEL  = PAW_PBE Ag 02Apr2005
   POMASS =  107.868; ZVAL   =   11.000    mass and valenz
   ENMAX  =  249.844; ENMIN  =  187.383 eV

 POTCAR:    PAW_PBE Pt 04Feb2005
   VRHFIN =Pt: s1d9

   TITEL  = PAW_PBE Pt 04Feb2005
   POMASS =  195.080; ZVAL   =   10.000    mass and valenz
   ENMAX  =  230.283; ENMIN  =  172.712 eV

 POTCAR:    PAW_PBE O 08Apr2002
   VRHFIN =O: s2p4

   TITEL  = PAW_PBE O 08Apr2002
   POMASS =   16.000; ZVAL   =    6.000    mass and valenz
   ENMAX  =  400.000; ENMIN  =  300.000 eV

 POTCAR:    PAW_PBE H 15Jun2001
   VRHFIN =H: ultrasoft test

   TITEL  = PAW_PBE H 15Jun2001
   POMASS =    1.000; ZVAL   =    1.000    mass and valenz
   ENMAX  =  250.000; ENMIN  =  200.000 eV

 Optimization of the real space projectors (new method)

 maximal supplied QI-value         = 15.12
 optimisation between [QCUT,QGAM] = [ 11.34, 22.83] = [ 36.00,145.93] Ry
 Optimized for a Real-space Cutoff    1.43 Angstroem

   l    n(q)    QCUT    max X(q) W(low)/X(q) W(high)/X(q)  e(spline)
   2      9    11.338    53.897    0.16E-03    0.20E-03    0.28E-06
   2      9    11.338    52.416    0.16E-03    0.20E-03    0.29E-06
   0     10    11.338   122.045    0.31E-04    0.76E-04    0.15E-06
   0     10    11.338    73.629    0.30E-04    0.72E-04    0.15E-06
   1      9    11.338    15.255    0.20E-03    0.19E-04    0.17E-06
   1      9    11.338     9.562    0.16E-03    0.15E-04    0.14E-06
 Optimization of the real space projectors (new method)

[...]

   l    n(q)    QCUT    max X(q) W(low)/X(q) W(high)/X(q)  e(spline)
   0      7    11.387    20.381    0.39E-03    0.13E-02    0.15E-06
   0      7    11.387    15.268    0.42E-03    0.14E-02    0.17E-06
   1      6    11.387     5.964    0.41E-03    0.11E-02    0.17E-06
   1      6    11.387     5.382    0.39E-03    0.87E-03    0.15E-06
 Optimization of the real space projectors (new method)

 maximal supplied QI-value         = 34.20
 optimisation between [QCUT,QGAM] = [ 11.29, 22.57] = [ 35.68,142.71] Ry
 Optimized for a Real-space Cutoff    1.16 Angstroem

   l    n(q)    QCUT    max X(q) W(low)/X(q) W(high)/X(q)  e(spline)
   0      8    11.287    19.460    0.40E-03    0.73E-03    0.16E-06
   0      8    11.287    12.209    0.38E-03    0.70E-03    0.15E-06
   1      7    11.287     4.655    0.22E-03    0.25E-04    0.22E-06
  PAW_PBE Ag 02Apr2005                  :
  PAW_PBE Pt 04Feb2005                  :
  PAW_PBE O 08Apr2002                   :
  PAW_PBE H 15Jun2001                   :

 POSCAR: Ag-Pt-OOH
  positions in direct lattice
  velocities in cartesian coordinates
 exchange correlation table for  LEXCH =        8
   RHO(1)=    0.500       N(1)  =     2000
   RHO(2)=  100.500       N(2)  =     4000

 VTST: version 3.2, (02/03/18)

 CHAIN: initializing optimizer

 OPT: Using VASP Conjugate-Gradient optimizer
 CHAIN: Read ICHAIN            0

 POSCAR: Ag-Pt-OOH
  positions in direct lattice
  velocities in cartesian coordinates

 ion  position               nearest neighbor table
   1  0.000  0.000  0.204-   2 2.93   8 2.93   7 2.93   6 2.93   4 2.93  12 2.93  16 2.93  10 2.93
                             3 2.93
   2  0.333  0.000  0.204-   1 2.93   8 2.93   9 2.93   3 2.93   4 2.93   5 2.93  10 2.93  17 2.93
                            11 2.93
   3  0.667  0.000  0.204-   9 2.93   2 2.93   5 2.93  11 2.93   7 2.93  18 2.93   1 2.93   6 2.93
                            12 2.93
   4  0.000  0.333  0.204-   5 2.93   6 2.93   2 2.93   1 2.93   7 2.93  13 2.93  15 2.93   9 2.93
                            10 2.93
   5  0.333  0.333  0.204-   4 2.93   3 2.93   7 2.93   2 2.93   8 2.93  14 2.93  13 2.93  11 2.93
                             6 2.93
   6  0.667  0.333  0.204-   4 2.93   9 2.93   1 2.93  15 2.93   8 2.93  12 2.93   3 2.93   5 2.93
                            14 2.93
   7  0.000  0.667  0.204-   8 2.93   1 2.93   5 2.93   3 2.93   4 2.93  16 2.93  18 2.93  13 2.93
                             9 2.93
   8  0.333  0.667  0.204-   7 2.93   1 2.93   2 2.93   9 2.93   5 2.93  16 2.93   6 2.93  17 2.93
                            14 2.93
   9  0.667  0.667  0.204-   3 2.93   2 2.93   8 2.93   6 2.93  17 2.93   4 2.93  15 2.93   7 2.93
                            18 2.93
  10  0.111  0.111  0.296-  20 2.89  19 2.93  26 2.93  12 2.93  16 2.93  15 2.93  17 2.93  13 2.93
                            11 2.93   2 2.93   1 2.93   4 2.93
  11  0.444  0.111  0.296-  21 2.90  20 2.90  27 2.91  14 2.93  17 2.93  18 2.93   3 2.93  12 2.93
                            13 2.93  10 2.93   5 2.93   2 2.93
  12  0.778  0.111  0.296-  21 2.89  25 2.93  19 2.93  10 2.93  16 2.93  18 2.93  15 2.93  11 2.93
                             1 2.93  14 2.93   6 2.93   3 2.93
  13  0.111  0.444  0.296-  20 2.90  23 2.90  22 2.91  15 2.93  14 2.93  18 2.93  10 2.93  11 2.93
                            16 2.93   4 2.93   5 2.93   7 2.93
  14  0.444  0.444  0.296-  23 2.90  21 2.90  24 2.91  13 2.93  11 2.93  16 2.93   5 2.93  12 2.93
                            17 2.93   8 2.93  15 2.93   6 2.93
  15  0.778  0.444  0.296-  24 2.91  22 2.91  19 2.92  13 2.93  10 2.93  12 2.93  17 2.93  18 2.93
                             4 2.93   6 2.93   9 2.93  14 2.93
  16  0.111  0.778  0.296-  23 2.89  26 2.93  25 2.93  18 2.93  12 2.93  10 2.93  14 2.93  17 2.93
                            13 2.93   7 2.93   8 2.93   1 2.93
  17  0.444  0.778  0.296-  27 2.91  24 2.91  26 2.92  11 2.93  10 2.93   9 2.93  18 2.93  15 2.93
                            16 2.93   2 2.93  14 2.93   8 2.93
  18  0.778  0.778  0.296-  22 2.91  27 2.91  25 2.92  16 2.93  12 2.93  13 2.93  11 2.93  17 2.93
                            15 2.93   7 2.93   3 2.93   9 2.93
  19  0.888  0.223  0.388-  28 2.91  15 2.92  20 2.92  21 2.92  24 2.92  22 2.92  10 2.93  12 2.93
                            32 2.93  31 2.93  26 2.94  25 2.94
  20  0.221  0.221  0.387-  36 2.81  10 2.89  13 2.90  11 2.90  19 2.92  26 2.92  31 2.92  29 2.92
                            27 2.93  22 2.93  21 2.95  23 2.95
  21  0.557  0.221  0.387-  36 2.81  12 2.89  11 2.90  14 2.90  25 2.92  19 2.92  30 2.92  32 2.92
                            27 2.93  24 2.93  20 2.95  23 2.95
  22  0.889  0.556  0.388-  35 2.91  18 2.91  15 2.91  13 2.91  25 2.92  19 2.92  24 2.93  27 2.93
                            33 2.93  31 2.93  23 2.93  20 2.93
  23  0.221  0.557  0.387-  36 2.81  16 2.89  14 2.90  13 2.90  26 2.92  25 2.92  34 2.92  33 2.92
                            22 2.93  24 2.93  21 2.95  20 2.95
  24  0.556  0.556  0.388-  35 2.91  15 2.91  17 2.91  14 2.91  19 2.92  26 2.92  27 2.93  22 2.93
                            32 2.93  34 2.93  23 2.93  21 2.93
  25  0.888  0.888  0.388-  28 2.91  18 2.92  23 2.92  21 2.92  22 2.92  27 2.92  16 2.93  12 2.93
                            33 2.93  30 2.93  26 2.94  19 2.94
  26  0.223  0.888  0.388-  28 2.91  17 2.92  23 2.92  20 2.92  27 2.92  24 2.92  16 2.93  10 2.93
                            34 2.93  29 2.93  25 2.94  19 2.94
  27  0.556  0.889  0.388-  35 2.91  17 2.91  18 2.91  11 2.91  26 2.92  25 2.92  24 2.93  22 2.93
                            29 2.93  30 2.93  20 2.93  21 2.93
  28  0.000  0.000  0.479-  26 2.91  25 2.91  19 2.91  29 2.95  34 2.95  33 2.95  32 2.95  31 2.95
                            30 2.95
  29  0.333  0.004  0.480-  30 2.89  31 2.89  36 2.90  20 2.92  27 2.93  26 2.93  35 2.95  28 2.95
                            34 3.00
  30  0.662  0.004  0.480-  29 2.89  32 2.89  36 2.90  21 2.92  27 2.93  25 2.93  35 2.95  28 2.95
                            33 3.00
  31  0.004  0.333  0.480-  33 2.89  29 2.89  36 2.90  20 2.92  22 2.93  19 2.93  35 2.95  28 2.95
                            32 3.00
  32  0.662  0.333  0.480-  34 2.89  30 2.89  36 2.90  21 2.92  24 2.93  19 2.93  35 2.95  28 2.95
                            31 3.00
  33  0.004  0.662  0.480-  31 2.89  34 2.89  36 2.90  23 2.92  22 2.93  25 2.93  35 2.95  28 2.95
                            30 3.00
  34  0.333  0.662  0.480-  32 2.89  33 2.89  36 2.90  23 2.92  24 2.93  26 2.93  35 2.95  28 2.95
                            29 3.00
  35  0.667  0.667  0.479-  24 2.91  27 2.91  22 2.91  30 2.95  32 2.95  29 2.95  34 2.95  31 2.95
                            33 2.95
  36  0.333  0.333  0.473-  37 2.07  21 2.81  20 2.81  23 2.81  31 2.90  33 2.90  30 2.90  29 2.90
                            34 2.90  32 2.90
  37  0.369  0.393  0.548-  38 1.47  36 2.07
  38  0.257  0.375  0.587-  39 0.98  37 1.47
  39  0.341  0.260  0.601-  38 0.98

  LATTYP: Found a hexagonal cell.
 ALAT       =     8.7913665772
 C/A-ratio  =     2.9469639759

  Lattice vectors:

 A1 = (  -4.3956832886,  -7.6135467898,   0.0000000000)
 A2 = (   8.7913665771,   0.0000000000,   0.0000000000)
 A3 = (   0.0000000000,   0.0000000000,  25.9078406020)

Analysis of symmetry for initial positions (statically):
 Subroutine PRICEL returns:
 Original cell was already a primitive cell.

 Routine SETGRP: Setting up the symmetry group for a
 hexagonal supercell.

 Subroutine GETGRP returns: Found  1 space group operations
 (whereof  1 operations were pure point group operations)
 out of a pool of 24 trial point group operations.

The static configuration has the point symmetry C_1 .

Analysis of symmetry for dynamics (positions and initial velocities):
 Subroutine PRICEL returns:
 Original cell was already a primitive cell.

[...]

The dynamic configuration has the point symmetry C_1 .

Analysis of constrained symmetry for selective dynamics:
 Subroutine PRICEL returns:
[...]
     41      -5.0667      2.00000
     42      -5.0256      2.00000
     43      -5.0059      2.00000
     44      -5.0010      2.00000
     45      -4.9932      2.00000
     46      -4.9732      2.00000
     47      -4.9565      2.00000
     48      -4.8838      2.00000
     49      -4.8577      2.00000
     50      -4.8469      2.00000
     51      -4.8367      2.00000
     52      -4.8317      2.00000
     53      -4.8306      2.00000
     54      -4.8220      2.00000
     55      -4.8105      2.00000
     56      -4.8063      2.00000
     57      -4.7651      2.00000
     58      -4.7149      2.00000
     59      -4.7064      2.00000
     60      -4.7053      2.00000
[...]
    238       5.2155      0.00000
    239       5.3008      0.00000
    240       5.4830      0.00000
    241       5.5354      0.00000
    242       5.5977      0.00000
    243       5.6705      0.00000
    244       5.7305      0.00000
    245       5.8884      0.00000
    246       6.0150      0.00000
    247       6.1614      0.00000
    248       6.2055      0.00000
    249       6.2736      0.00000
    250       6.3716      0.00000
    251       6.5094      0.00000
    252       6.5871      0.00000

 soft charge-density along one line, spin component           1
         0         1         2         3         4         5         6         7         8         9
 total charge-density along one line

------------------------ aborting loop because EDIFF is reached ----------------------------------------

 total charge

# of ion       s       p       d       tot
    1        0.415   0.203   9.178   9.796
    2        0.419   0.203   9.176   9.799
    3        0.418   0.203   9.177   9.799
    4        0.419   0.204   9.176   9.799
    5        0.416   0.205   9.176   9.797
    6        0.418   0.203   9.177   9.798
    7        0.418   0.203   9.178   9.799
    8        0.417   0.203   9.178   9.798
    9        0.414   0.203   9.179   9.796
   10        0.408   0.270   9.163   9.840
   11        0.409   0.268   9.168   9.844
   12        0.404   0.271   9.164   9.839
   13        0.408   0.268   9.167   9.844
   14        0.408   0.269   9.167   9.844
   15        0.401   0.271   9.165   9.838
   16        0.404   0.270   9.165   9.839
   17        0.401   0.271   9.166   9.838
   18        0.402   0.271   9.166   9.838
   19        0.404   0.269   9.166   9.839
   20        0.419   0.289   9.149   9.857
   21        0.410   0.288   9.159   9.856
   22        0.401   0.271   9.168   9.840
   23        0.408   0.288   9.160   9.856
   24        0.401   0.273   9.166   9.840
   25        0.403   0.270   9.165   9.837
   26        0.403   0.270   9.165   9.838
   27        0.402   0.270   9.170   9.841
   28        0.417   0.197   9.181   9.796
   29        0.409   0.208   9.180   9.797
   30        0.406   0.206   9.183   9.795
   31        0.407   0.205   9.182   9.794
   32        0.401   0.203   9.188   9.792
   33        0.402   0.202   9.187   9.791
   34        0.392   0.205   9.189   9.785
   35        0.412   0.201   9.181   9.793
   36        0.633   0.411   8.068   9.111
   37        1.597   3.236   0.000   4.833
   38        1.589   3.390   0.000   4.980
   39        0.624   0.114   0.000   0.737
tot         18.739  15.526 329.092 363.356

  FORCE on cell =-STRESS in cart. coord.  units (eV):
  Direction    XX          YY          ZZ          XY          YZ          ZX
  Alpha Z   670.59524   670.59524   670.59524
  Ewald  178298.45043178188.41466************    25.97765   -53.05421  -151.65106
  Hartree188437.24728188351.57865************    18.20071   -26.03484   -95.18657
  E(xc)   -2136.44787 -2136.48161 -2141.17830     0.01984    -0.07873    -0.15059
  Local  ************************377585.94987   -43.71740    70.74170   231.72172
  n-local  -364.07534  -369.20942  -372.09311     1.19436    -0.54522    -3.74458
  augment  3285.09087  3287.17374  3291.79159    -0.50420     0.08436     1.37948
  Kinetic  5184.38460  5192.71031  5196.81523    -1.32035     8.97939    17.48835
  Fock        0.00000     0.00000     0.00000     0.00000     0.00000     0.00000
  Total      -7.46764    -7.54805    -0.99569    -0.14938     0.09244    -0.14325
  in kB      -6.89953    -6.97382    -0.91994    -0.13801     0.08541    -0.13235

 VOLUME and BASIS-vectors are now :
  energy-cutoff  :      500.00
  volume of cell :     1734.10
      direct lattice vectors                 reciprocal lattice vectors
     8.791366577  0.000000000  0.000000000     0.113747958 -0.065672414  0.000000000
     4.395683289  7.613546790  0.000000000     0.000000000  0.131344829  0.000000000
     0.000000000  0.000000000 25.907840602     0.000000000  0.000000000  0.038598354

  length of vectors
     8.791366577  8.791366577 25.907840602     0.131344829  0.131344829  0.038598354

 FORCES acting on ions
    electron-ion (+dipol)            ewald-force                    non-local-force                 convergence-correction
   0.743E-01 0.275E-01 0.283E+04   0.132E-01 0.342E-01 -.283E+04   -.730E-01 -.412E-01 -.227E+01   0.703E-03 -.962E-02 -.192E+00
   0.357E+00 0.384E+00 0.283E+04   -.463E+00 -.422E+00 -.283E+04   0.107E+00 0.614E-01 -.150E+01   -.482E-02 -.759E-02 -.175E+00
   -.444E+00 0.442E+00 0.283E+04   0.450E+00 -.468E+00 -.283E+04   -.224E-01 0.381E-01 -.163E+01   0.567E-02 0.351E-03 -.202E+00
   0.569E+00 0.171E+00 0.283E+04   -.620E+00 -.227E+00 -.283E+04   0.934E-01 0.501E-01 -.157E+01   -.290E-01 -.547E-02 -.179E+00
   0.127E+00 0.167E+00 0.283E+04   -.479E-01 -.779E-01 -.283E+04   -.780E-01 -.776E-01 -.155E+01   -.234E-02 -.133E-01 -.152E+00
   -.679E+00 0.223E+00 0.283E+04   0.668E+00 -.239E+00 -.283E+04   -.411E-01 -.126E-01 -.176E+01   0.383E-01 0.250E-01 -.206E+00
   0.151E+00 -.692E+00 0.283E+04   -.204E+00 0.661E+00 -.283E+04   0.362E-01 -.953E-02 -.167E+01   0.186E-01 0.258E-01 -.177E+00
   -.155E+00 -.707E+00 0.283E+04   0.171E+00 0.696E+00 -.283E+04   -.413E-01 -.194E-01 -.179E+01   0.191E-01 0.211E-01 -.200E+00
   0.165E-02 -.236E-01 0.283E+04   0.334E-01 0.421E-01 -.283E+04   0.156E-01 0.162E-01 -.201E+01   -.459E-01 -.302E-01 -.201E+00
   0.597E+01 0.347E+01 0.101E+04   -.554E+01 -.325E+01 -.101E+04   -.424E+00 -.220E+00 -.883E+00   0.275E-02 0.177E-02 0.186E+00
   0.163E+00 0.418E+01 0.102E+04   -.213E+00 -.428E+01 -.102E+04   0.384E-01 0.838E-01 -.283E+00   0.577E-02 -.122E-01 0.255E+00
   -.610E+01 0.366E+01 0.101E+04   0.575E+01 -.354E+01 -.101E+04   0.334E+00 -.141E+00 -.733E+00   -.670E-02 0.102E-01 0.183E+00
   0.366E+01 -.167E+01 0.102E+04   -.378E+01 0.165E+01 -.102E+04   0.107E+00 -.144E-02 -.387E+00   -.729E-02 0.340E-01 0.253E+00
   -.336E+01 -.170E+01 0.102E+04   0.344E+01 0.170E+01 -.102E+04   -.747E-01 -.293E-01 -.573E+00   0.218E-01 0.483E-01 0.235E+00
   -.307E+00 0.121E+01 0.101E+04   0.342E+00 -.126E+01 -.101E+04   -.324E-01 0.676E-02 -.686E+00   0.120E-02 0.231E-01 0.153E+00
   0.872E-01 -.736E+01 0.101E+04   -.143E+00 0.706E+01 -.101E+04   0.298E-01 0.326E+00 -.712E+00   0.170E-01 -.406E-01 0.201E+00
   0.694E+00 -.102E+01 0.101E+04   -.678E+00 0.111E+01 -.101E+04   -.214E-01 -.538E-01 -.674E+00   -.682E-02 -.253E-01 0.172E+00
   -.769E+00 -.739E+00 0.101E+04   0.821E+00 0.799E+00 -.101E+04   -.210E-01 -.229E-01 -.649E+00   -.107E-01 -.242E-01 0.190E+00
   -.179E+01 0.609E+01 -.843E+03   0.175E+01 -.614E+01 0.843E+03   0.143E-01 0.440E-01 0.644E+00   0.133E-01 -.473E-02 0.275E+00
   0.175E+02 0.120E+02 -.796E+03   -.165E+02 -.114E+02 0.796E+03   -.108E+01 -.556E+00 -.938E+00   0.113E+00 0.643E-01 0.358E+00
   -.155E+02 0.137E+02 -.792E+03   0.149E+02 -.135E+02 0.791E+03   0.709E+00 -.297E+00 -.410E+00   -.130E+00 0.646E-01 0.377E+00
   0.904E+01 -.476E+01 -.828E+03   -.930E+01 0.490E+01 0.827E+03   0.218E+00 -.113E+00 0.637E+00   0.623E-01 -.299E-01 0.244E+00
   0.253E+01 -.191E+02 -.787E+03   -.261E+01 0.184E+02 0.787E+03   0.548E-01 0.669E+00 -.353E+00   -.749E-04 -.127E+00 0.355E+00
   -.117E+02 -.619E+01 -.824E+03   0.119E+02 0.627E+01 0.823E+03   -.155E+00 -.846E-01 0.626E+00   -.620E-01 -.936E-02 0.254E+00
   -.291E+01 -.389E+01 -.843E+03   0.290E+01 0.393E+01 0.842E+03   0.304E-01 -.165E-01 0.670E+00   0.898E-02 -.141E-01 0.279E+00
   0.289E+01 -.604E+01 -.843E+03   -.295E+01 0.602E+01 0.842E+03   0.327E-01 0.112E-01 0.621E+00   0.281E-02 -.144E-01 0.268E+00
   -.214E-01 0.797E+01 -.831E+03   0.571E-01 -.827E+01 0.830E+03   -.214E-01 0.264E+00 0.652E+00   -.109E-01 0.610E-01 0.253E+00
   -.110E+01 -.590E+01 -.269E+04   0.108E+01 0.588E+01 0.269E+04   0.360E-01 0.510E-01 0.189E+01   -.129E-01 -.205E-01 0.307E+00
   0.278E+02 0.528E+02 -.268E+04   -.277E+02 -.527E+02 0.267E+04   -.239E+00 -.275E+00 0.176E+01   0.577E-01 0.133E+00 0.181E+00
   -.270E+02 0.636E+02 -.267E+04   0.269E+02 -.638E+02 0.267E+04   0.207E+00 -.131E-01 0.202E+01   -.316E-01 0.149E+00 0.221E+00
   0.698E+02 0.823E+01 -.266E+04   -.697E+02 -.816E+01 0.266E+04   -.370E+00 -.576E-01 0.208E+01   0.154E+00 -.288E-01 0.193E+00
   -.962E+02 0.155E+02 -.265E+04   0.967E+02 -.154E+02 0.265E+04   -.132E+00 -.596E-01 0.260E+01   -.165E+00 -.336E-01 0.242E+00
   0.527E+02 -.732E+02 -.265E+04   -.533E+02 0.733E+02 0.265E+04   0.263E+00 0.592E-01 0.242E+01   0.140E+00 -.963E-01 0.222E+00
   -.509E+02 -.967E+02 -.264E+04   0.515E+02 0.974E+02 0.263E+04   -.368E+00 -.320E+00 0.285E+01   -.120E+00 -.117E+00 0.236E+00
   -.491E+01 -.769E+01 -.268E+04   0.485E+01 0.768E+01 0.268E+04   0.736E-01 0.156E-01 0.196E+01   -.135E-01 0.105E-01 0.243E+00
   0.392E+02 0.487E+02 -.213E+04   -.393E+02 -.489E+02 0.213E+04   0.873E-01 0.180E+00 0.709E+00   0.220E-01 0.199E-01 0.154E+00
   -.154E+03 -.305E+02 -.168E+04   0.184E+03 0.391E+02 0.168E+04   -.296E+02 -.858E+01 0.366E+01   -.966E-01 -.459E-01 -.127E+00
   0.156E+03 -.235E+02 -.175E+04   -.186E+03 0.570E+02 0.176E+04   0.302E+02 -.335E+02 -.581E+01   0.633E-01 -.273E-02 -.991E-01
   -.922E+01 0.841E+02 -.305E+03   0.111E+02 -.915E+02 0.308E+03   -.184E+01 0.733E+01 -.320E+01   0.251E-02 0.110E-01 -.140E-01
   0.194E+01 0.353E+02 0.165E+01   -.107E-13 0.426E-13 -.716E-11   -.188E+01 -.353E+02 -.625E+01   0.136E-01 -.918E-02 0.457E+01

 POSITION                                       TOTAL-FORCE (eV/Angst)
      0.00000      0.00000      5.28219         0.013308      0.011331      0.034711
      2.93046      0.00000      5.28219        -0.005442      0.016158      0.033448
      5.86091      0.00000      5.28219        -0.012572      0.012089      0.045111
      1.46523      2.53785      5.28219         0.011758     -0.010597      0.034671
      4.39568      2.53785      5.28219        -0.003075     -0.001887      0.026945
      7.32614      2.53785      5.28219        -0.015379     -0.002807      0.041796
      2.93046      5.07570      5.28219         0.000313     -0.015161      0.042708
      5.86091      5.07570      5.28219        -0.008186     -0.008898      0.042385
      8.79137      5.07570      5.28219         0.002791      0.004949      0.028312
      1.46523      0.84595      7.67490         0.009304      0.001149     -0.013136
      4.39568      0.84595      7.67490        -0.006898     -0.029312     -0.078407
      7.32614      0.84595      7.67490        -0.016773     -0.002371     -0.010438
      2.93046      3.38380      7.67490        -0.027976      0.011045     -0.085618
      5.86091      3.38380      7.67490         0.024688      0.011154     -0.096387
      8.79137      3.38380      7.67490         0.002483     -0.016089     -0.025677
      4.39568      5.92165      7.67490        -0.011279     -0.010544     -0.015665
      7.32614      5.92165      7.67490        -0.013863      0.018945     -0.027408
     10.25659      5.92165      7.67490         0.018650      0.014000     -0.022588
      8.79137      1.70009     10.06101        -0.017158     -0.009549      0.008688
      2.92042      1.68610     10.02751         0.106410      0.055965      0.001692
      5.87095      1.68610     10.02751        -0.075641      0.018489     -0.062619
     10.25445      4.23098     10.04520         0.018576     -0.009147      0.022455
      4.39568      4.24134     10.02751        -0.018626     -0.064294     -0.060720
      7.32828      4.23098     10.04520        -0.025844     -0.010538      0.044868
     11.71473      6.76350     10.06101         0.021099      0.004119      0.029892
      5.86800      6.76350     10.06101        -0.029107     -0.019725      0.025383
      8.79137      6.76512     10.04520         0.001534      0.024813      0.005446
      0.00000      0.00000     12.42233         0.004320      0.009127     -0.019877
      2.94927      0.03214     12.43461        -0.060179     -0.090213     -0.045832
      5.84210      0.03214     12.43461         0.046207     -0.141441     -0.062603
      1.50247      2.53807     12.43461        -0.113586     -0.012451     -0.023179
      7.28890      2.53807     12.43461         0.249886     -0.033082     -0.106202
      2.94888      5.04334     12.43461        -0.139021      0.137208     -0.076574
      5.84248      5.04334     12.43461         0.110730      0.208633     -0.042751
      8.79137      5.07570     12.41249         0.002102      0.010353      0.000226
      4.39568      2.53785     12.25656        -0.031489     -0.059101      0.470084
      4.97278      2.99567     14.18655        -0.013163     -0.015959     -0.033292
      3.91282      2.85730     15.20144         0.007899      0.007736     -0.028429
      4.14016      1.97950     15.57413        -0.006802     -0.014096     -0.001417
    total drift:                                0.074723     -0.015086     -0.032837

  FREE ENERGIE OF THE ION-ELECTRON SYSTEM (eV)
  free  energy   TOTEN  =      -109.21059715 eV

  energy  without entropy=     -109.21059715  energy(sigma->0) =     -109.21059715

 stress matrix after NEB project (eV)
     -7.46764     -0.14938     -0.14325
     -0.14938     -7.54805      0.09244
     -0.14325      0.09244     -0.99569
  FORCES: max atom, RMS     0.039196    0.008342
  FORCE total and by dimension    0.052094    0.033292
  Stress total and by dimension   10.669246    7.548047
|           W    W    AA    RRRRR   N    N  II  N    N   GGGG   !!!           |
|           W    W   A  A   R    R  NN   N  II  NN   N  G    G  !!!           |
|           W    W  A    A  R    R  N N  N  II  N N  N  G       !!!           |
|           W WW W  AAAAAA  RRRRR   N  N N  II  N  N N  G  GGG   !            |
|           WW  WW  A    A  R   R   N   NN  II  N   NN  G    G                |
|           W    W  A    A  R    R  N    N  II  N    N   GGGG   !!!           |
|     Tetrahedron method does not include variations of the Fermi             |
|     occupations, so forces and stress will be inaccurate. We suggest        |
|     using a different smearing scheme ISMEAR = 1 or 2 for metals in         |
|     relaxations.                                                            |

 total charge

# of ion       s       p       d       tot
    1        0.415   0.203   9.178   9.796
    2        0.419   0.203   9.176   9.799
    3        0.418   0.203   9.177   9.799
    4        0.419   0.204   9.176   9.799
    5        0.416   0.205   9.176   9.797
    6        0.418   0.203   9.177   9.798
    7        0.418   0.203   9.178   9.799
    8        0.417   0.203   9.178   9.798
    9        0.414   0.203   9.179   9.796
   10        0.408   0.270   9.163   9.840
   11        0.409   0.268   9.168   9.844
   12        0.404   0.271   9.164   9.839
   13        0.408   0.268   9.167   9.844
   14        0.408   0.269   9.167   9.844
   15        0.401   0.271   9.165   9.838
   16        0.404   0.270   9.165   9.839
   17        0.401   0.271   9.166   9.838
   18        0.402   0.271   9.166   9.838
   19        0.404   0.269   9.166   9.839
   20        0.419   0.289   9.149   9.857
   21        0.410   0.288   9.159   9.856
   22        0.401   0.271   9.168   9.840
   23        0.408   0.288   9.160   9.856
   24        0.401   0.273   9.166   9.840
   25        0.403   0.270   9.165   9.837
   26        0.403   0.270   9.165   9.838
   27        0.402   0.270   9.170   9.841
   28        0.417   0.197   9.181   9.796
   29        0.409   0.208   9.180   9.797
   30        0.406   0.206   9.183   9.795
   31        0.407   0.205   9.182   9.794
   32        0.401   0.203   9.188   9.792
   33        0.402   0.202   9.187   9.791
   34        0.392   0.205   9.189   9.785
   35        0.412   0.201   9.181   9.793
   36        0.633   0.411   8.068   9.111
   37        1.597   3.236   0.000   4.833
   38        1.589   3.390   0.000   4.980
   39        0.624   0.114   0.000   0.737
tot         18.739  15.526 329.092 363.356

 BZINTS: Fermi energy:    0.128323;  408.000000 electrons
         Band energy:-0.165999E+04;  BLOECHL correction:   -0.054906