 vasp.6.2.0 18Jan21 (build Jun 12 2021 23:27:24) complex

 executed on             LinuxIFC date 2022.05.27  05:58:15

 INCAR:
   ISMEAR = -5
   SIGMA = 0.1
   ISPIN = 1
   EDIFF = 1.d-5
   EDIFFG = -0.01
   NSW = 0
   NELM = 150
   ENCUT = 500
   ISIF = 2
   IBRION = 2
   LREAL = Auto
   ALGO = Fast
   ICHARG = 11
   LORBIT = 10
   LCHARG = .F.
   LWAVE = .F.

 POTCAR:    PAW_PBE Cu 22Jun2005
 POTCAR:    PAW_PBE V 08Apr2002
 POTCAR:    PAW_PBE C 08Apr2002
 POTCAR:    PAW_PBE O 08Apr2002
|           W    W    AA    RRRRR   N    N  II  N    N   GGGG   !!!           |
|           W    W   A  A   R    R  NN   N  II  NN   N  G    G  !!!           |
|           W    W  A    A  R    R  N N  N  II  N N  N  G       !!!           |
|           W WW W  AAAAAA  RRRRR   N  N N  II  N  N N  G  GGG   !            |
|           WW  WW  A    A  R   R   N   NN  II  N   NN  G    G                |
|           W    W  A    A  R    R  N    N  II  N    N   GGGG   !!!           |
|     For optimal performance we recommend to set                             |
|       NCORE = 2 up to number-of-cores-per-socket                            |
|     This setting can greatly improve the performance of VASP for DFT.       |
|     The default, NCORE=1 might be grossly inefficient on modern             |
|     multi-core architectures or massively parallel machines. Do your        |
|     Unfortunately you need to use the default for GW and RPA                |
|     calculations (for HF NCORE is supported but not extensively tested      |
|     yet).                                                                   |

 POTCAR:    PAW_PBE Cu 22Jun2005
   VRHFIN =Cu: d10 p1

   TITEL  = PAW_PBE Cu 22Jun2005
   POMASS =   63.546; ZVAL   =   11.000    mass and valenz
   ENMAX  =  295.446; ENMIN  =  221.585 eV

 POTCAR:    PAW_PBE V 08Apr2002
   VRHFIN =V: p6 d4 s1

   TITEL  = PAW_PBE V 08Apr2002
   POMASS =   50.941; ZVAL   =    5.000    mass and valenz
   ENMAX  =  192.543; ENMIN  =  144.408 eV

 POTCAR:    PAW_PBE C 08Apr2002
   VRHFIN =C: s2p2

[...]

 POTCAR:    PAW_PBE O 08Apr2002
   VRHFIN =O: s2p4

   TITEL  = PAW_PBE O 08Apr2002
   POMASS =   16.000; ZVAL   =    6.000    mass and valenz
   ENMAX  =  400.000; ENMIN  =  300.000 eV

 Optimization of the real space projectors (new method)

 maximal supplied QI-value         = 16.25
 optimisation between [QCUT,QGAM] = [ 11.38, 22.75] = [ 36.24,144.96] Ry
 Optimized for a Real-space Cutoff    1.52 Angstroem

   l    n(q)    QCUT    max X(q) W(low)/X(q) W(high)/X(q)  e(spline)
   2      9    11.376     4.610    0.21E-03    0.10E-03    0.26E-06
   2      9    11.376     8.522    0.33E-03    0.16E-03    0.37E-06
   0     10    11.376    51.609    0.62E-04    0.20E-04    0.13E-06
   0     10    11.376    27.747    0.54E-04    0.20E-04    0.13E-06
   1     10    11.376    20.408    0.13E-04    0.99E-04    0.19E-06
   1     10    11.376    13.425    0.12E-04    0.87E-04    0.17E-06
 Optimization of the real space projectors (new method)

[...]

   l    n(q)    QCUT    max X(q) W(low)/X(q) W(high)/X(q)  e(spline)
   0      7    11.310   115.676    0.43E-03    0.13E-02    0.19E-06
   0      7    11.310    87.132    0.43E-03    0.13E-02    0.18E-06
   1      6    11.310     4.429    0.42E-03    0.74E-03    0.11E-06
   1      6    11.310     2.733    0.34E-03    0.55E-03    0.92E-07
 Optimization of the real space projectors (new method)

 maximal supplied QI-value         = 24.76
 optimisation between [QCUT,QGAM] = [ 11.39, 22.77] = [ 36.31,145.25] Ry
 Optimized for a Real-space Cutoff    1.00 Angstroem

   l    n(q)    QCUT    max X(q) W(low)/X(q) W(high)/X(q)  e(spline)
   0      7    11.387    20.381    0.39E-03    0.13E-02    0.15E-06
   0      7    11.387    15.268    0.42E-03    0.14E-02    0.17E-06
   1      6    11.387     5.964    0.41E-03    0.11E-02    0.17E-06
   1      6    11.387     5.382    0.39E-03    0.87E-03    0.15E-06
  PAW_PBE Cu 22Jun2005                  :
  PAW_PBE V 08Apr2002                   :
  PAW_PBE C 08Apr2002                   :
  PAW_PBE O 08Apr2002                   :

 POSCAR: Cu-V-CO
  positions in direct lattice
  velocities in cartesian coordinates
 exchange correlation table for  LEXCH =        8
   RHO(1)=    0.500       N(1)  =     2000
   RHO(2)=  100.500       N(2)  =     4000

 VTST: version 3.2, (02/03/18)

 CHAIN: initializing optimizer

 OPT: Using VASP Conjugate-Gradient optimizer
 CHAIN: Read ICHAIN            0

 POSCAR: Cu-V-CO
  positions in direct lattice
  velocities in cartesian coordinates

 ion  position               nearest neighbor table
   1  0.000  0.000  0.252-   7 2.57   3 2.57   4 2.57   2 2.57   6 2.57   8 2.57  12 2.57  10 2.57
                            16 2.57
   2  0.333  0.000  0.252-   8 2.57   9 2.57   5 2.57   1 2.57   3 2.57  11 2.57   4 2.57  10 2.57
                            17 2.57
   3  0.667  0.000  0.252-   1 2.57   7 2.57   6 2.57   9 2.57   2 2.57  12 2.57   5 2.57  18 2.57
                            11 2.57
   4  0.000  0.333  0.252-   5 2.57   6 2.57   1 2.57   7 2.57   2 2.57  13 2.57   9 2.57  10 2.57
                            15 2.57
   5  0.333  0.333  0.252-   4 2.57   2 2.57   7 2.57  13 2.57   8 2.57   6 2.57   3 2.57  11 2.57
                            14 2.57
   6  0.667  0.333  0.252-   4 2.57   9 2.57  15 2.57   3 2.57   1 2.57   8 2.57  14 2.57   5 2.57
                            12 2.57
   7  0.000  0.667  0.252-   1 2.57   3 2.57  16 2.57  18 2.57   4 2.57   5 2.57   8 2.57   9 2.57
                            13 2.57
   8  0.333  0.667  0.252-   9 2.57   2 2.57  17 2.57   6 2.57   1 2.57   7 2.57   5 2.57  14 2.57
                            16 2.57
   9  0.667  0.667  0.252-   8 2.57   6 2.57   2 2.57  17 2.57   3 2.57   7 2.57   4 2.57  15 2.57
                            18 2.57
  10  0.111  0.111  0.351-  26 2.56  19 2.56  20 2.56  11 2.57  12 2.57  13 2.57   1 2.57   2 2.57
                             4 2.57  15 2.57  16 2.57  17 2.57
  11  0.444  0.111  0.351-  20 2.56  21 2.56  10 2.57  13 2.57   2 2.57  17 2.57  14 2.57  12 2.57
                             5 2.57   3 2.57  18 2.57  27 2.57
  12  0.778  0.111  0.351-  19 2.56  25 2.56  21 2.56  15 2.57  10 2.57  14 2.57  18 2.57   3 2.57
                             1 2.57  16 2.57  11 2.57   6 2.57
  13  0.111  0.444  0.351-  23 2.56  20 2.56  16 2.57  18 2.57  10 2.57  11 2.57  14 2.57   5 2.57
                             4 2.57   7 2.57  15 2.57  22 2.57
  14  0.444  0.444  0.351-  21 2.56  23 2.56  15 2.57  17 2.57  12 2.57  16 2.57  13 2.57  11 2.57
                             6 2.57   8 2.57   5 2.57  24 2.57
  15  0.778  0.444  0.351-  19 2.56  24 2.57  22 2.57  14 2.57  17 2.57  12 2.57   6 2.57  18 2.57
                            10 2.57   9 2.57  13 2.57   4 2.57
  16  0.111  0.778  0.351-  25 2.56  26 2.56  23 2.56  18 2.57  13 2.57   7 2.57  14 2.57  17 2.57
                            12 2.57  10 2.57   8 2.57   1 2.57
  17  0.444  0.778  0.351-  26 2.56  27 2.57  24 2.57  14 2.57  15 2.57   8 2.57   9 2.57  11 2.57
                            16 2.57  18 2.57  10 2.57   2 2.57
  18  0.778  0.778  0.351-  25 2.56  22 2.57  27 2.57  16 2.57  13 2.57   7 2.57  15 2.57  12 2.57
                            17 2.57   9 2.57   3 2.57  11 2.57
  19  0.889  0.222  0.449-  12 2.56  10 2.56  15 2.56  28 2.56  25 2.56  26 2.56  21 2.57  20 2.57
                            22 2.57  24 2.57  32 2.58  31 2.58
  20  0.222  0.222  0.449-  36 2.54  11 2.56  13 2.56  10 2.56  23 2.56  21 2.56  26 2.57  19 2.57
                            27 2.57  22 2.57  29 2.57  31 2.57
  21  0.555  0.222  0.449-  36 2.54  14 2.56  11 2.56  12 2.56  20 2.56  23 2.56  19 2.57  25 2.57
                            24 2.57  27 2.57  32 2.57  30 2.57
  22  0.888  0.556  0.449-  24 2.56  27 2.56  35 2.56  18 2.57  15 2.57  19 2.57  25 2.57  31 2.57
                            33 2.57  13 2.57  23 2.57  20 2.57
  23  0.222  0.555  0.449-  36 2.54  13 2.56  14 2.56  16 2.56  20 2.56  21 2.56  25 2.57  26 2.57
                            22 2.57  24 2.57  33 2.57  34 2.57
  24  0.556  0.556  0.449-  22 2.56  27 2.56  35 2.56  15 2.57  17 2.57  19 2.57  26 2.57  32 2.57
                            34 2.57  14 2.57  21 2.57  23 2.57
  25  0.889  0.889  0.449-  12 2.56  16 2.56  18 2.56  28 2.56  19 2.56  26 2.56  21 2.57  23 2.57
                            22 2.57  27 2.57  33 2.58  30 2.58
  26  0.222  0.889  0.449-  10 2.56  16 2.56  17 2.56  28 2.56  25 2.56  19 2.56  20 2.57  23 2.57
                            27 2.57  24 2.57  29 2.58  34 2.58
  27  0.556  0.888  0.449-  24 2.56  22 2.56  35 2.56  17 2.57  18 2.57  26 2.57  25 2.57  29 2.57
                            30 2.57  11 2.57  20 2.57  21 2.57
  28  0.000  0.000  0.547-  25 2.56  19 2.56  26 2.56  33 2.57  30 2.57  31 2.57  29 2.57  32 2.57
                            34 2.57
  29  0.333  0.000  0.548-  30 2.56  36 2.56  31 2.56  27 2.57  35 2.57  28 2.57  20 2.57  34 2.57
                            26 2.58
  30  0.666  0.000  0.548-  29 2.56  36 2.56  32 2.56  27 2.57  35 2.57  28 2.57  21 2.57  33 2.57
                            25 2.58
  31  0.000  0.333  0.548-  33 2.56  36 2.56  29 2.56  22 2.57  35 2.57  28 2.57  20 2.57  32 2.57
                            19 2.58
  32  0.666  0.333  0.548-  34 2.56  36 2.56  30 2.56  24 2.57  35 2.57  28 2.57  21 2.57  31 2.57
                            19 2.58
  33  0.000  0.666  0.548-  31 2.56  36 2.56  34 2.56  22 2.57  35 2.57  28 2.57  23 2.57  30 2.57
                            25 2.58
  34  0.333  0.666  0.548-  32 2.56  36 2.56  33 2.56  24 2.57  35 2.57  28 2.57  23 2.57  29 2.57
                            26 2.58
  35  0.667  0.667  0.548-  24 2.56  27 2.56  22 2.56  34 2.57  32 2.57  29 2.57  30 2.57  33 2.57
                            31 2.57
  36  0.333  0.333  0.546-  37 1.95  23 2.54  20 2.54  21 2.54  31 2.56  29 2.56  33 2.56  32 2.56
                            34 2.56  30 2.56
  37  0.333  0.333  0.638-  38 1.17  36 1.95
  38  0.333  0.333  0.693-  37 1.17

  LATTYP: Found a hexagonal cell.
 ALAT       =     7.6967864036
 C/A-ratio  =     2.7653617908

  Lattice vectors:

 A1 = (  -3.8483927580,  -6.6656128093,   0.0000000000)
 A2 = (   7.6967864037,   0.0000000000,   0.0000000000)
 A3 = (   0.0000000000,   0.0000000000,  21.2843990326)

Analysis of symmetry for initial positions (statically):
 Subroutine PRICEL returns:
 Original cell was already a primitive cell.

 Routine SETGRP: Setting up the symmetry group for a
 hexagonal supercell.

 Subroutine GETGRP returns: Found  6 space group operations
 (whereof  6 operations were pure point group operations)
 out of a pool of 24 trial point group operations.

The static configuration has the point symmetry C_3v.

Analysis of symmetry for dynamics (positions and initial velocities):
 Subroutine PRICEL returns:
 Original cell was already a primitive cell.

[...]

The dynamic configuration has the point symmetry C_3v.

Analysis of constrained symmetry for selective dynamics:
 Subroutine PRICEL returns:
 Original cell was already a primitive cell.

 Routine SETGRP: Setting up the symmetry group for a
 hexagonal supercell.

[...]
     33      -4.0818      2.00000
     34      -4.0798      2.00000
     35      -4.0691      2.00000
     36      -4.0499      2.00000
     37      -4.0147      2.00000
     38      -4.0080      2.00000
     39      -3.9611      2.00000
     40      -3.9028      2.00000
     41      -3.8748      2.00000
     42      -3.7670      2.00000
     43      -3.7555      2.00000
     44      -3.6840      2.00000
     45      -3.6763      2.00000
     46      -3.6734      2.00000
     47      -3.6415      2.00000
     48      -3.6325      2.00000
     49      -3.6282      2.00000
     50      -3.6220      2.00000
     51      -3.4393      2.00000
     52      -3.4323      2.00000
     53      -3.4198      2.00000
     54      -3.4025      2.00000
     55      -3.3618      2.00000
     56      -3.3584      2.00000
     57      -3.3388      2.00000
     58      -3.3309      2.00000
     59      -3.3232      2.00000
     60      -3.3056      2.00000
[...]
    238       5.8426      0.00000
    239       6.1061      0.00000
    240       6.1634      0.00000
    241       6.2082      0.00000
    242       6.3388      0.00000
    243       6.4429      0.00000
    244       7.0290      0.00000
    245       7.0451      0.00000
    246       7.1142      0.00000
    247       7.1463      0.00000
    248       7.2096      0.00000
    249       7.3027      0.00000
    250       7.4419      0.00000
    251       7.4638      0.00000
    252       7.5203      0.00000

 soft charge-density along one line, spin component           1
         0         1         2         3         4         5         6         7         8         9
 total charge-density along one line

------------------------ aborting loop because EDIFF is reached ----------------------------------------

 total charge

# of ion       s       p       d       tot
    1        0.449   0.281   9.189   9.920
    2        0.446   0.285   9.187   9.918
    3        0.446   0.285   9.187   9.918
    4        0.446   0.285   9.187   9.918
    5        0.452   0.284   9.181   9.918
    6        0.446   0.285   9.187   9.918
    7        0.446   0.285   9.187   9.918
    8        0.446   0.285   9.187   9.918
    9        0.448   0.282   9.190   9.920
   10        0.443   0.371   9.175   9.989
   11        0.443   0.365   9.183   9.991
   12        0.443   0.371   9.175   9.989
   13        0.443   0.365   9.183   9.991
   14        0.443   0.365   9.183   9.991
   15        0.439   0.370   9.175   9.985
   16        0.443   0.371   9.175   9.989
   17        0.439   0.370   9.175   9.985
   18        0.439   0.370   9.175   9.985
   19        0.442   0.369   9.178   9.988
   20        0.465   0.390   9.161  10.015
   21        0.465   0.390   9.161  10.015
   22        0.432   0.373   9.180   9.985
   23        0.465   0.390   9.161  10.015
   24        0.432   0.373   9.180   9.985
   25        0.442   0.369   9.178   9.988
   26        0.442   0.369   9.178   9.988
   27        0.432   0.373   9.180   9.985
   28        0.444   0.286   9.184   9.914
   29        0.468   0.300   9.168   9.935
   30        0.468   0.300   9.168   9.935
   31        0.468   0.300   9.168   9.935
   32        0.468   0.300   9.168   9.935
   33        0.468   0.300   9.168   9.935
   34        0.468   0.300   9.168   9.935
   35        0.442   0.288   9.184   9.914
   36        0.520   0.680   3.546   4.746
   37        0.971   1.530   0.000   2.501
   38        1.614   3.529   0.000   5.143
tot         18.818  17.383 324.755 360.956

  FORCE on cell =-STRESS in cart. coord.  units (eV):
  Direction    XX          YY          ZZ          XY          YZ          ZX
  Alpha Z   891.10192   891.10192   891.10192
  Ewald  167932.62936167932.62900************     0.00038     0.00013     0.00017
  Hartree181015.55991181015.55992************     0.00003     0.00007     0.00006
  E(xc)   -2312.46627 -2312.46583 -2316.88656    -0.00039    -0.00003    -0.00006
  Local  ************************361540.70890     0.01883    -0.00063    -0.00097
  n-local  -783.33604  -769.83476  -795.33318     6.97043    -0.11513     0.22225
  augment  3332.40704  3332.42745  3356.75085    -0.01768     0.00025     0.00039
  Kinetic  3355.37420  3356.83711  3363.54771     1.91984     1.70181    -1.15316
  Fock        0.00000     0.00000     0.00000     0.00000     0.00000     0.00000
  Total      -8.43900    -8.43900    -1.91713     0.00000    -0.00000     0.00000
  in kB     -12.38199   -12.38199    -2.81288     0.00000    -0.00000     0.00000

 VOLUME and BASIS-vectors are now :
  energy-cutoff  :      500.00
  volume of cell :     1091.97
      direct lattice vectors                 reciprocal lattice vectors
     7.696786404  0.000000000  0.000000000     0.129924354 -0.075011849  0.000000000
     3.848392758  6.665612809  0.000000000     0.000000000  0.150023716  0.000000000
     0.000000000  0.000000000 21.284399033     0.000000000  0.000000000  0.046982769

  length of vectors
     7.696786404  7.696786404 21.284399033     0.150023716  0.150023716  0.046982769

 FORCES acting on ions
    electron-ion (+dipol)            ewald-force                    non-local-force                 convergence-correction
   -.416E-04 0.163E-06 0.347E+04   0.581E-04 -.431E-05 -.347E+04   -.465E-17 0.618E-18 -.246E+01   -.278E-03 -.128E-03 0.554E-01
   -.686E+00 -.603E+00 0.347E+04   0.568E+00 0.514E+00 -.346E+04   0.123E+00 0.207E+00 -.191E+01   0.492E-02 -.105E+00 0.113E+00
   0.686E+00 -.603E+00 0.347E+04   -.568E+00 0.514E+00 -.346E+04   -.123E+00 0.207E+00 -.191E+01   -.414E-02 -.102E+00 0.114E+00
   -.866E+00 -.292E+00 0.347E+04   0.729E+00 0.235E+00 -.346E+04   0.241E+00 0.265E-02 -.191E+01   -.883E-01 0.566E-01 0.114E+00
   -.648E-04 -.533E-05 0.346E+04   0.116E-03 -.101E-04 -.346E+04   -.470E-17 0.138E-17 -.116E+01   0.121E-01 0.740E-02 0.350E+00
   0.866E+00 -.292E+00 0.347E+04   -.729E+00 0.235E+00 -.346E+04   -.241E+00 0.265E-02 -.191E+01   0.867E-01 0.579E-01 0.115E+00
   -.180E+00 0.896E+00 0.347E+04   0.161E+00 -.749E+00 -.346E+04   0.118E+00 -.210E+00 -.191E+01   -.907E-01 0.476E-01 0.114E+00
   0.180E+00 0.896E+00 0.347E+04   -.161E+00 -.749E+00 -.346E+04   -.118E+00 -.210E+00 -.191E+01   0.942E-01 0.462E-01 0.115E+00
   -.144E-03 -.330E-04 0.347E+04   0.263E-03 0.205E-04 -.346E+04   -.215E-17 -.400E-18 -.221E+01   -.132E-01 -.680E-02 0.444E-01
   -.435E+01 -.251E+01 0.117E+04   0.478E+01 0.276E+01 -.117E+04   -.370E+00 -.214E+00 -.940E+00   -.817E-01 -.472E-01 -.301E+00
   -.904E-04 -.490E+01 0.116E+04   0.189E-03 0.474E+01 -.116E+04   -.170E-07 0.255E+00 -.132E+00   0.115E-01 -.117E+00 -.306E+00
   0.435E+01 -.251E+01 0.117E+04   -.478E+01 0.276E+01 -.117E+04   0.370E+00 -.214E+00 -.940E+00   0.805E-01 -.462E-01 -.302E+00
   -.424E+01 0.245E+01 0.116E+04   0.411E+01 -.237E+01 -.116E+04   0.220E+00 -.127E+00 -.132E+00   -.951E-01 0.693E-01 -.306E+00
   0.424E+01 0.245E+01 0.116E+04   -.411E+01 -.237E+01 -.116E+04   -.220E+00 -.127E+00 -.132E+00   0.119E+00 0.681E-01 -.309E+00
   -.141E-03 -.125E+01 0.117E+04   0.297E-03 0.980E+00 -.117E+04   -.865E-08 0.130E+00 -.984E+00   -.312E-02 0.120E+00 -.244E+00
   -.921E-04 0.502E+01 0.117E+04   0.186E-03 -.552E+01 -.117E+04   -.285E-07 0.427E+00 -.940E+00   -.702E-03 0.916E-01 -.302E+00
   -.108E+01 0.623E+00 0.117E+04   0.849E+00 -.490E+00 -.117E+04   0.112E+00 -.649E-01 -.984E+00   0.103E+00 -.627E-01 -.244E+00
   0.108E+01 0.623E+00 0.117E+04   -.849E+00 -.490E+00 -.117E+04   -.112E+00 -.649E-01 -.984E+00   -.102E+00 -.605E-01 -.243E+00
   -.653E-04 -.632E+01 -.113E+04   0.717E-04 0.636E+01 0.113E+04   0.966E-09 -.145E-01 0.105E+01   0.101E-02 -.127E-01 -.438E+00
   -.471E+02 -.272E+02 -.119E+04   0.487E+02 0.281E+02 0.119E+04   -.122E+01 -.703E+00 -.848E+00   -.508E+00 -.293E+00 -.903E+00
   0.471E+02 -.272E+02 -.119E+04   -.487E+02 0.281E+02 0.119E+04   0.122E+01 -.703E+00 -.848E+00   0.487E+00 -.294E+00 -.904E+00
   -.221E+02 0.127E+02 -.114E+04   0.220E+02 -.127E+02 0.114E+04   0.375E+00 -.216E+00 0.573E+00   -.259E+00 0.149E+00 -.652E+00
   -.808E-04 0.543E+02 -.119E+04   0.150E-03 -.562E+02 0.119E+04   -.936E-07 0.141E+01 -.848E+00   -.124E-01 0.568E+00 -.904E+00
   0.221E+02 0.127E+02 -.114E+04   -.220E+02 -.127E+02 0.114E+04   -.375E+00 -.216E+00 0.573E+00   0.261E+00 0.150E+00 -.651E+00
   0.547E+01 0.316E+01 -.113E+04   -.550E+01 -.318E+01 0.113E+04   0.126E-01 0.725E-02 0.105E+01   0.114E-01 0.658E-02 -.438E+00
   -.547E+01 0.316E+01 -.113E+04   0.550E+01 -.318E+01 0.113E+04   -.126E-01 0.725E-02 0.105E+01   -.102E-01 0.744E-02 -.438E+00
   -.125E-03 -.255E+02 -.114E+04   0.240E-03 0.254E+02 0.114E+04   -.288E-07 0.433E+00 0.573E+00   -.981E-03 -.299E+00 -.652E+00
   -.368E-04 0.164E-04 -.337E+04   0.400E-04 -.330E-04 0.337E+04   -.163E-17 -.269E-17 0.229E+01   -.139E-02 -.752E-03 -.337E+00
   -.254E+02 -.499E+02 -.335E+04   0.263E+02 0.514E+02 0.335E+04   -.697E+00 -.986E+00 0.140E+01   -.234E+00 -.460E+00 -.437E+00
   0.254E+02 -.499E+02 -.335E+04   -.263E+02 0.514E+02 0.335E+04   0.697E+00 -.986E+00 0.140E+01   0.256E+00 -.459E+00 -.437E+00
   -.559E+02 0.300E+01 -.335E+04   0.577E+02 -.290E+01 0.335E+04   -.120E+01 -.110E+00 0.140E+01   -.515E+00 0.279E-01 -.437E+00
   0.559E+02 0.300E+01 -.335E+04   -.577E+02 -.290E+01 0.335E+04   0.120E+01 -.110E+00 0.140E+01   0.537E+00 0.291E-01 -.436E+00
   -.306E+02 0.469E+02 -.335E+04   0.313E+02 -.485E+02 0.335E+04   -.506E+00 0.110E+01 0.140E+01   -.270E+00 0.451E+00 -.437E+00
   0.306E+02 0.469E+02 -.335E+04   -.314E+02 -.485E+02 0.335E+04   0.506E+00 0.110E+01 0.140E+01   0.295E+00 0.451E+00 -.436E+00
   -.128E-03 -.159E-04 -.338E+04   0.252E-03 0.341E-05 0.338E+04   0.384E-17 0.313E-17 0.265E+01   -.143E-01 -.744E-02 -.308E+00
   -.517E-04 -.146E-04 -.143E+04   0.627E-04 0.126E-04 0.143E+04   0.126E-17 -.172E-17 -.154E+01   0.428E-04 0.388E-04 -.209E+00
   -.734E-05 -.776E-04 -.114E+04   0.877E-05 0.454E-05 0.112E+04   -.236E-19 0.151E-18 0.181E+02   0.786E-03 0.480E-03 0.182E+00
   0.223E-03 -.749E-04 -.187E+04   0.200E-05 0.224E-05 0.193E+04   -.393E-18 0.328E-18 -.584E+02   0.315E-02 0.193E-02 0.295E+00
   -.101E-03 -.179E-03 0.600E+02   0.143E-12 0.520E-12 -.239E-10   -.106E-15 -.220E-15 -.496E+02   0.594E-01 0.313E-01 -.104E+02

 POSITION                                       TOTAL-FORCE (eV/Angst)
      0.00000      0.00000      5.37156         0.000000      0.000000     -0.028202
      2.56560      0.00000      5.37156         0.010253      0.014107      0.055325
      5.13119      0.00000      5.37156        -0.010253      0.014107      0.055325
      1.28280      2.22187      5.37156         0.017344      0.001826      0.055325
      3.84839      2.22187      5.37156        -0.000000      0.000000      0.033729
      6.41399      2.22187      5.37156        -0.017344      0.001826      0.055325
      2.56560      4.44374      5.37156         0.007091     -0.015933      0.055325
      5.13119      4.44374      5.37156        -0.007091     -0.015933      0.055325
      7.69679      4.44374      5.37156        -0.000000      0.000000      0.027254
      1.28280      0.74062      7.46636        -0.021072     -0.012166     -0.086481
      3.84839      0.74062      7.46636         0.000000     -0.022702     -0.051701
      6.41399      0.74062      7.46636         0.021072     -0.012166     -0.086481
      2.56560      2.96249      7.46636        -0.019661      0.011351     -0.051701
      5.13119      2.96249      7.46636         0.019661      0.011351     -0.051701
      7.69679      2.96249      7.46636         0.000000     -0.016703     -0.036600
      3.84839      5.18437      7.46636        -0.000000      0.024332     -0.086481
      6.41399      5.18437      7.46636        -0.014465      0.008352     -0.036600
      8.97958      5.18437      7.46636         0.014465      0.008352     -0.036600
      7.69679      1.48017      9.54910        -0.000000      0.011915      0.053935
      2.56637      1.48170      9.55121        -0.083096     -0.047975     -0.117776
      5.13041      1.48170      9.55121         0.083096     -0.047975     -0.117776
      8.97729      3.70444      9.56154         0.023022     -0.013292      0.019980
      3.84839      3.70222      9.55121        -0.000000      0.095951     -0.117776
      6.41628      3.70444      9.56154        -0.023022     -0.013292      0.019980
     10.26332      5.92553      9.54910        -0.010319     -0.005958      0.053935
      5.13026      5.92553      9.54910         0.010319     -0.005958      0.053935
      7.69679      5.92234      9.56154        -0.000000      0.026583      0.019980
      0.00000      0.00000     11.64072         0.000000      0.000000     -0.009021
      2.56831      0.00307     11.65724         0.016557      0.010244      0.037344
      5.12847      0.00307     11.65724        -0.016557      0.010244      0.037344
      1.28681      2.22269     11.65724         0.017150      0.009217      0.037344
      6.40997      2.22269     11.65724        -0.017150      0.009217      0.037344
      2.56689      4.43985     11.65724         0.000593     -0.019460      0.037344
      5.12989      4.43985     11.65724        -0.000593     -0.019460      0.037344
      7.69679      4.44374     11.65596         0.000000      0.000000     -0.021828
      3.84839      2.22187     11.62023         0.000000      0.000000      0.212582
      3.84839      2.22187     13.57035         0.000000      0.000000     -0.141340
      3.84839      2.22187     14.73954         0.000000      0.000000      0.026735
    total drift:                                0.059257      0.031141      0.025235

  FREE ENERGIE OF THE ION-ELECTRON SYSTEM (eV)
  free  energy   TOTEN  =      -146.07148511 eV

  energy  without entropy=     -146.07148511  energy(sigma->0) =     -146.07148511

 stress matrix after NEB project (eV)
     -8.43900      0.00000      0.00000
      0.00000     -8.43900     -0.00000
     -0.00000     -0.00000     -1.91713
  FORCES: max atom, RMS     0.141340    0.023335
  FORCE total and by dimension    0.143846    0.141340
  Stress total and by dimension   12.087544    8.438997
|           W    W    AA    RRRRR   N    N  II  N    N   GGGG   !!!           |
|           W    W   A  A   R    R  NN   N  II  NN   N  G    G  !!!           |
|           W    W  A    A  R    R  N N  N  II  N N  N  G       !!!           |
|           W WW W  AAAAAA  RRRRR   N  N N  II  N  N N  G  GGG   !            |
|           WW  WW  A    A  R   R   N   NN  II  N   NN  G    G                |
|           W    W  A    A  R    R  N    N  II  N    N   GGGG   !!!           |
|     Tetrahedron method does not include variations of the Fermi             |
|     occupations, so forces and stress will be inaccurate. We suggest        |
|     using a different smearing scheme ISMEAR = 1 or 2 for metals in         |
|     relaxations.                                                            |

 total charge

# of ion       s       p       d       tot
    1        0.449   0.281   9.189   9.920
    2        0.446   0.285   9.187   9.918
    3        0.446   0.285   9.187   9.918
    4        0.446   0.285   9.187   9.918
    5        0.452   0.284   9.181   9.918
    6        0.446   0.285   9.187   9.918
    7        0.446   0.285   9.187   9.918
    8        0.446   0.285   9.187   9.918
    9        0.448   0.282   9.190   9.920
   10        0.443   0.371   9.175   9.989
   11        0.443   0.365   9.183   9.991
   12        0.443   0.371   9.175   9.989
   13        0.443   0.365   9.183   9.991
   14        0.443   0.365   9.183   9.991
   15        0.439   0.370   9.175   9.985
   16        0.443   0.371   9.175   9.989
   17        0.439   0.370   9.175   9.985
   18        0.439   0.370   9.175   9.985
   19        0.442   0.369   9.178   9.988
   20        0.465   0.390   9.161  10.015
   21        0.465   0.390   9.161  10.015
   22        0.432   0.373   9.180   9.985
   23        0.465   0.390   9.161  10.015
   24        0.432   0.373   9.180   9.985
   25        0.442   0.369   9.178   9.988
   26        0.442   0.369   9.178   9.988
   27        0.432   0.373   9.180   9.985
   28        0.444   0.286   9.184   9.914
   29        0.468   0.300   9.168   9.935
   30        0.468   0.300   9.168   9.935
   31        0.468   0.300   9.168   9.935
   32        0.468   0.300   9.168   9.935
   33        0.468   0.300   9.168   9.935
   34        0.468   0.300   9.168   9.935
   35        0.442   0.288   9.184   9.914
   36        0.520   0.680   3.546   4.746
   37        0.971   1.530   0.000   2.501
   38        1.614   3.529   0.000   5.143
tot         18.818  17.383 324.755 360.956

 BZINTS: Fermi energy:    0.040222;  400.000000 electrons
         Band energy:-0.118422E+04;  BLOECHL correction:   -0.020631