 vasp.6.2.0 18Jan21 (build Jun 12 2021 23:27:24) complex

 executed on             LinuxIFC date 2022.05.27  05:16:45

 INCAR:
   ISMEAR = -5
   SIGMA = 0.1
   ISPIN = 1
   EDIFF = 1.d-5
   EDIFFG = -0.01
   NSW = 0
   NELM = 150
   ENCUT = 500
   ISIF = 2
   IBRION = 2
   LREAL = Auto
   ALGO = Fast
   ICHARG = 11
   LORBIT = 10
   LCHARG = .F.
   LWAVE = .F.

 POTCAR:    PAW_PBE Au 04Oct2007
 POTCAR:    PAW_PBE Hf 20Jan2003
 POTCAR:    PAW_PBE H 15Jun2001
|           W    W    AA    RRRRR   N    N  II  N    N   GGGG   !!!           |
|           W    W   A  A   R    R  NN   N  II  NN   N  G    G  !!!           |
|           W    W  A    A  R    R  N N  N  II  N N  N  G       !!!           |
|           W WW W  AAAAAA  RRRRR   N  N N  II  N  N N  G  GGG   !            |
|           WW  WW  A    A  R   R   N   NN  II  N   NN  G    G                |
|           W    W  A    A  R    R  N    N  II  N    N   GGGG   !!!           |
|     For optimal performance we recommend to set                             |
|       NCORE = 2 up to number-of-cores-per-socket                            |
|     This setting can greatly improve the performance of VASP for DFT.       |
|     The default, NCORE=1 might be grossly inefficient on modern             |
|     multi-core architectures or massively parallel machines. Do your        |
|     Unfortunately you need to use the default for GW and RPA                |
|     calculations (for HF NCORE is supported but not extensively tested      |
|     yet).                                                                   |

 POTCAR:    PAW_PBE Au 04Oct2007
   VRHFIN =Au: s1d10

   TITEL  = PAW_PBE Au 04Oct2007
   POMASS =  196.966; ZVAL   =   11.000    mass and valenz
   ENMAX  =  229.943; ENMIN  =  172.457 eV

 POTCAR:    PAW_PBE Hf 20Jan2003
   VRHFIN =Hf: 6s5d

   TITEL  = PAW_PBE Hf 20Jan2003
   POMASS =  178.490; ZVAL   =    4.000    mass and valenz
   ENMAX  =  220.334; ENMIN  =  165.250 eV

 POTCAR:    PAW_PBE H 15Jun2001
   VRHFIN =H: ultrasoft test

   TITEL  = PAW_PBE H 15Jun2001
   POMASS =    1.000; ZVAL   =    1.000    mass and valenz
   ENMAX  =  250.000; ENMIN  =  200.000 eV

 Optimization of the real space projectors (new method)

 maximal supplied QI-value         = 15.12
 optimisation between [QCUT,QGAM] = [ 11.34, 22.83] = [ 36.00,145.93] Ry
 Optimized for a Real-space Cutoff    1.39 Angstroem

   l    n(q)    QCUT    max X(q) W(low)/X(q) W(high)/X(q)  e(spline)
   2      9    11.338    60.898    0.39E-03    0.42E-03    0.21E-06
   2      9    11.338    58.894    0.40E-03    0.42E-03    0.22E-06
   0      9    11.338   109.617    0.13E-03    0.20E-04    0.13E-06
   0      9    11.338    75.026    0.13E-03    0.20E-04    0.13E-06
   1      9    11.338    16.344    0.33E-04    0.24E-03    0.18E-06
   1      9    11.338    10.160    0.26E-04    0.19E-03    0.15E-06
 Optimization of the real space projectors (new method)

[...]

   l    n(q)    QCUT    max X(q) W(low)/X(q) W(high)/X(q)  e(spline)
   2     10    11.350    48.111    0.20E-03    0.11E-03    0.41E-06
   2     10    11.350    40.545    0.19E-03    0.10E-03    0.39E-06
   0     11    11.350   121.658    0.22E-04    0.19E-04    0.24E-06
   0     11    11.350    71.177    0.17E-04    0.17E-04    0.23E-06
   1     11    11.350    14.183    0.25E-03    0.43E-03    0.12E-05
   1     11    11.350     8.257    0.17E-03    0.29E-03    0.81E-06
 Optimization of the real space projectors (new method)

 maximal supplied QI-value         = 34.20
 optimisation between [QCUT,QGAM] = [ 11.29, 22.57] = [ 35.68,142.71] Ry
 Optimized for a Real-space Cutoff    1.16 Angstroem

   l    n(q)    QCUT    max X(q) W(low)/X(q) W(high)/X(q)  e(spline)
   0      8    11.287    19.460    0.40E-03    0.73E-03    0.16E-06
   0      8    11.287    12.209    0.38E-03    0.70E-03    0.15E-06
   1      7    11.287     4.655    0.22E-03    0.25E-04    0.22E-06
  PAW_PBE Au 04Oct2007                  :
  PAW_PBE Hf 20Jan2003                  :
  PAW_PBE H 15Jun2001                   :

 POSCAR: Au-Hf-H2
  positions in direct lattice
  velocities in cartesian coordinates
 exchange correlation table for  LEXCH =        8
   RHO(1)=    0.500       N(1)  =     2000
   RHO(2)=  100.500       N(2)  =     4000

 VTST: version 3.2, (02/03/18)

 CHAIN: initializing optimizer

 OPT: Using VASP Conjugate-Gradient optimizer
 CHAIN: Read ICHAIN            0

 POSCAR: Au-Hf-H2
  positions in direct lattice
  velocities in cartesian coordinates

 ion  position               nearest neighbor table
   1  0.000  0.000  0.220-  16 2.94  12 2.94   6 2.94   8 2.94   7 2.94   3 2.94  10 2.94   4 2.94
                             2 2.94
   2  0.333  0.000  0.220-   9 2.94  11 2.94  17 2.94  10 2.94   8 2.94   4 2.94   5 2.94   1 2.94
                             3 2.94
   3  0.667  0.000  0.220-   7 2.94  18 2.94  12 2.94   1 2.94  11 2.94   5 2.94   6 2.94   9 2.94
                             2 2.94
   4  0.000  0.333  0.220-  10 2.94   6 2.94   5 2.94  13 2.94   2 2.94  15 2.94   9 2.94   1 2.94
                             7 2.94
   5  0.333  0.333  0.220-  13 2.94   7 2.94  11 2.94   4 2.94   2 2.94  14 2.94   3 2.94   8 2.94
                             6 2.94
   6  0.667  0.333  0.220-  15 2.94  14 2.94   1 2.94  12 2.94   4 2.94   9 2.94   8 2.94   3 2.94
                             5 2.94
   7  0.000  0.667  0.220-  18 2.94   3 2.94  16 2.94   5 2.94   1 2.94  13 2.94   8 2.94   4 2.94
                             9 2.94
   8  0.333  0.667  0.220-   9 2.94  17 2.94   1 2.94   2 2.94  14 2.94  16 2.94   6 2.94   7 2.94
                             5 2.94
   9  0.667  0.667  0.220-   2 2.94   8 2.94  17 2.94   6 2.94  15 2.94   4 2.94   3 2.94  18 2.94
                             7 2.94
  10  0.111  0.111  0.320-  20 2.93  26 2.94  19 2.94  11 2.94  17 2.94   2 2.94   4 2.94   1 2.94
                            12 2.94  16 2.94  13 2.94  15 2.94
  11  0.444  0.111  0.320-  20 2.92  21 2.92  13 2.94   2 2.94  10 2.94  17 2.94   5 2.94   3 2.94
                            18 2.94  14 2.94  12 2.94  27 2.94
  12  0.778  0.111  0.320-  21 2.93  25 2.94  19 2.94  16 2.94  18 2.94   1 2.94  14 2.94  15 2.94
                             3 2.94   6 2.94  10 2.94  11 2.94
  13  0.111  0.444  0.320-  23 2.92  20 2.92   5 2.94  18 2.94  11 2.94   7 2.94   4 2.94  16 2.94
                            10 2.94  14 2.94  15 2.94  22 2.94
  14  0.444  0.444  0.320-  21 2.92  23 2.92  15 2.94   6 2.94  12 2.94   8 2.94  17 2.94   5 2.94
                            16 2.94  13 2.94  11 2.94  24 2.94
  15  0.778  0.444  0.320-  24 2.93  22 2.93  19 2.94  14 2.94   6 2.94  17 2.94  12 2.94   9 2.94
                             4 2.94  10 2.94  13 2.94  18 2.94
  16  0.111  0.778  0.320-  23 2.93  25 2.94  26 2.94  18 2.94  12 2.94   7 2.94   1 2.94   8 2.94
                            13 2.94  10 2.94  14 2.94  17 2.94
  17  0.444  0.778  0.320-  27 2.93  24 2.93  26 2.94   9 2.94  15 2.94   2 2.94  10 2.94  11 2.94
                             8 2.94  14 2.94  16 2.94  18 2.94
  18  0.778  0.778  0.320-  22 2.93  27 2.93  25 2.94  16 2.94   7 2.94  13 2.94  12 2.94   3 2.94
                            11 2.94   9 2.94  15 2.94  17 2.94
  19  0.889  0.222  0.420-  15 2.94  10 2.94  12 2.94  24 2.94  22 2.94  26 2.94  25 2.94  21 2.94
                            20 2.94  28 2.96  32 3.04  31 3.04
  20  0.223  0.223  0.419-  36 2.81  11 2.92  13 2.92  23 2.93  21 2.93  10 2.93  26 2.94  19 2.94
                            27 2.95  22 2.95  29 2.99  31 2.99
  21  0.555  0.223  0.419-  36 2.81  14 2.92  11 2.92  20 2.93  23 2.93  12 2.93  25 2.94  19 2.94
                            27 2.95  24 2.95  30 2.99  32 2.99
  22  0.887  0.556  0.420-  24 2.92  27 2.92  18 2.93  15 2.93  25 2.94  19 2.94  13 2.94  23 2.95
                            20 2.95  35 2.96  33 3.01  31 3.01
  23  0.223  0.555  0.419-  36 2.81  13 2.92  14 2.92  20 2.93  21 2.93  16 2.93  25 2.94  26 2.94
                            22 2.95  24 2.95  33 2.99  34 2.99
  24  0.556  0.556  0.420-  27 2.92  22 2.92  15 2.93  17 2.93  26 2.94  19 2.94  14 2.94  21 2.95
                            23 2.95  35 2.96  32 3.01  34 3.01
  25  0.889  0.889  0.420-  18 2.94  16 2.94  12 2.94  22 2.94  27 2.94  19 2.94  26 2.94  23 2.94
                            21 2.94  28 2.96  33 3.04  30 3.04
  26  0.222  0.889  0.420-  17 2.94  10 2.94  16 2.94  27 2.94  24 2.94  19 2.94  25 2.94  20 2.94
                            23 2.94  28 2.96  29 3.04  34 3.04
  27  0.556  0.887  0.420-  24 2.92  22 2.92  17 2.93  18 2.93  26 2.94  25 2.94  11 2.94  20 2.95
                            21 2.95  35 2.96  29 3.01  30 3.01
  28  0.000  0.000  0.521-  25 2.96  19 2.96  26 2.96  34 2.98  32 2.98  33 2.98  30 2.98  31 2.98
                            29 2.98
  29  0.334  0.008  0.523-  30 2.86  31 2.87  36 2.88  35 2.97  28 2.98  20 2.99  27 3.01  26 3.04
                            34 3.08
  30  0.658  0.008  0.523-  29 2.86  32 2.87  36 2.88  35 2.97  28 2.98  21 2.99  27 3.01  25 3.04
                            33 3.08
  31  0.008  0.334  0.523-  33 2.86  29 2.87  36 2.88  35 2.97  28 2.98  20 2.99  22 3.01  19 3.04
                            32 3.08
  32  0.658  0.334  0.523-  34 2.86  30 2.87  36 2.88  35 2.97  28 2.98  21 2.99  24 3.01  19 3.04
                            31 3.08
  33  0.008  0.658  0.523-  31 2.86  34 2.87  36 2.88  35 2.97  28 2.98  23 2.99  22 3.01  25 3.04
                            30 3.08
  34  0.334  0.658  0.523-  32 2.86  33 2.87  36 2.88  35 2.97  28 2.98  23 2.99  24 3.01  26 3.04
                            29 3.08
  35  0.667  0.667  0.521-  24 2.96  27 2.96  22 2.96  29 2.97  34 2.97  32 2.97  31 2.97  30 2.97
                            33 2.97
  36  0.333  0.333  0.513-  37 2.22  38 2.22  20 2.81  23 2.81  21 2.81  33 2.88  31 2.88  29 2.88
                            30 2.88  34 2.88  32 2.88
  37  0.289  0.334  0.604-  38 0.78  36 2.22
  38  0.378  0.334  0.604-  37 0.78  36 2.22

  LATTYP: Found a hexagonal cell.
 ALAT       =     8.8135128021
 C/A-ratio  =     2.7231967240

  Lattice vectors:

 A1 = (  -4.4067569092,  -7.6327256898,   0.0000000000)
 A2 = (   8.8135128021,   0.0000000000,   0.0000000000)
 A3 = (   0.0000000000,   0.0000000000,  24.0009291894)

Analysis of symmetry for initial positions (statically):
 Subroutine PRICEL returns:
 Original cell was already a primitive cell.

 Routine SETGRP: Setting up the symmetry group for a
 hexagonal supercell.

 Subroutine GETGRP returns: Found  2 space group operations
 (whereof  2 operations were pure point group operations)
 out of a pool of 24 trial point group operations.

The static configuration has the point symmetry C_1h.

Analysis of symmetry for dynamics (positions and initial velocities):
 Subroutine PRICEL returns:
 Original cell was already a primitive cell.

[...]

The dynamic configuration has the point symmetry C_1h.

Analysis of constrained symmetry for selective dynamics:
 Subroutine PRICEL returns:
 Original cell was already a primitive cell.

 Routine SETGRP: Setting up the symmetry group for a
 hexagonal supercell.

 Subroutine GETGRP returns: Found  2 space group operations
[...]
     33      -5.0452      2.00000
     34      -5.0274      2.00000
     35      -5.0055      2.00000
     36      -4.9999      2.00000
     37      -4.9946      2.00000
     38      -4.8446      2.00000
     39      -4.8093      2.00000
     40      -4.7477      2.00000
     41      -4.7074      2.00000
     42      -4.6826      2.00000
     43      -4.6533      2.00000
     44      -4.6299      2.00000
     45      -4.6046      2.00000
     46      -4.5736      2.00000
     47      -4.4920      2.00000
     48      -4.4850      2.00000
     49      -4.4399      2.00000
     50      -4.4161      2.00000
     51      -4.4102      2.00000
     52      -4.4053      2.00000
     53      -4.3861      2.00000
     54      -4.3629      2.00000
     55      -4.3235      2.00000
     56      -4.2915      2.00000
     57      -4.2822      2.00000
     58      -4.2718      2.00000
     59      -4.2631      2.00000
     60      -4.2499      2.00000
[...]
    238       6.2540      0.00000
    239       6.2864      0.00000
    240       6.4395      0.00000
    241       6.5096      0.00000
    242       6.5573      0.00000
    243       6.6072      0.00000
    244       6.8408      0.00000
    245       6.8649      0.00000
    246       6.9390      0.00000
    247       6.9515      0.00000
    248       6.9783      0.00000
    249       7.0160      0.00000
    250       7.1024      0.00000
    251       7.2296      0.00000
    252       7.2938      0.00000

 soft charge-density along one line, spin component           1
         0         1         2         3         4         5         6         7         8         9
 total charge-density along one line

------------------------ aborting loop because EDIFF is reached ----------------------------------------

 total charge

# of ion       s       p       d       tot
    1        0.552   0.237   8.766   9.554
    2        0.541   0.241   8.765   9.547
    3        0.541   0.241   8.765   9.547
    4        0.540   0.241   8.766   9.548
    5        0.547   0.242   8.760   9.549
    6        0.540   0.241   8.766   9.548
    7        0.541   0.241   8.765   9.548
    8        0.541   0.241   8.765   9.548
    9        0.546   0.239   8.766   9.551
   10        0.524   0.307   8.769   9.600
   11        0.521   0.306   8.778   9.605
   12        0.524   0.307   8.769   9.600
   13        0.520   0.306   8.779   9.605
   14        0.520   0.306   8.779   9.605
   15        0.517   0.308   8.773   9.597
   16        0.523   0.307   8.770   9.599
   17        0.517   0.308   8.772   9.597
   18        0.517   0.308   8.772   9.597
   19        0.522   0.299   8.765   9.587
   20        0.572   0.336   8.731   9.639
   21        0.572   0.336   8.731   9.639
   22        0.511   0.305   8.775   9.591
   23        0.571   0.336   8.731   9.638
   24        0.511   0.305   8.775   9.591
   25        0.523   0.297   8.767   9.588
   26        0.523   0.297   8.767   9.588
   27        0.511   0.305   8.775   9.591
   28        0.541   0.233   8.753   9.526
   29        0.601   0.252   8.725   9.578
   30        0.601   0.252   8.725   9.578
   31        0.600   0.254   8.723   9.577
   32        0.600   0.254   8.723   9.577
   33        0.601   0.252   8.726   9.578
   34        0.601   0.252   8.726   9.578
   35        0.539   0.233   8.756   9.528
   36        0.527   0.515   1.832   2.874
   37        0.582   0.029   0.000   0.611
   38        0.582   0.029   0.000   0.611
tot         20.760  10.299 308.353 339.412

  FORCE on cell =-STRESS in cart. coord.  units (eV):
  Direction    XX          YY          ZZ          XY          YZ          ZX
  Alpha Z   918.68984   918.68984   918.68984
  Ewald  141642.41772141624.92866************    -0.00034    -0.06776    -0.00017
  Hartree149890.54656149889.39522************    -0.00000    -0.07325    -0.00005
  E(xc)   -1749.46967 -1749.57719 -1756.71492     0.00001    -0.00159    -0.00000
  Local  ************************303787.57450     0.00186     0.18686     0.00013
  n-local   -42.47138   -41.38183   -13.11883     4.74814    -0.16733     0.06393
  augment  2362.52277  2362.54626  2382.65630    -0.00139     0.01767     0.00002
  Kinetic  5387.79107  5393.53997  5454.45111     1.00960     0.02926    -0.08387
  Fock        0.00000     0.00000     0.00000     0.00000     0.00000     0.00000
  Total     -21.97475   -21.85203     2.54783    -0.00000    -0.07613    -0.00000
  in kB     -21.80609   -21.68431     2.52827    -0.00000    -0.07555    -0.00000

 VOLUME and BASIS-vectors are now :
  energy-cutoff  :      500.00
  volume of cell :     1614.57
      direct lattice vectors                 reciprocal lattice vectors
     8.813512802  0.000000000  0.000000000     0.113462137 -0.065507406  0.000000000
     4.406756909  7.632725690  0.000000000     0.000000000  0.131014796  0.000000000
     0.000000000  0.000000000 24.000929189     0.000000000  0.000000000  0.041665054

  length of vectors
     8.813512802  8.813512802 24.000929189     0.131014796  0.131014796  0.041665054

 FORCES acting on ions
    electron-ion (+dipol)            ewald-force                    non-local-force                 convergence-correction
   -.198E-04 0.403E-01 0.259E+04   0.518E-04 -.930E-03 -.259E+04   -.145E-08 -.218E-01 -.482E+00   -.281E-03 -.155E-01 0.369E-01
   -.257E-01 -.387E+00 0.259E+04   0.393E-01 0.383E+00 -.259E+04   0.536E-02 0.622E-01 -.400E+00   -.184E-01 -.661E-01 0.253E-01
   0.257E-01 -.387E+00 0.259E+04   -.394E-01 0.383E+00 -.259E+04   -.536E-02 0.622E-01 -.400E+00   0.187E-01 -.641E-01 0.260E-01
   -.378E+00 0.171E+00 0.259E+04   0.352E+00 -.158E+00 -.259E+04   0.772E-01 -.288E-01 -.415E+00   -.597E-01 0.170E-01 0.214E-01
   0.732E-05 0.293E-04 0.258E+04   0.951E-04 -.912E-04 -.259E+04   -.291E-09 -.437E-02 0.665E-01   0.439E-02 0.492E-02 0.605E-01
   0.378E+00 0.171E+00 0.259E+04   -.352E+00 -.158E+00 -.259E+04   -.772E-01 -.288E-01 -.415E+00   0.580E-01 0.179E-01 0.226E-01
   -.327E+00 0.210E+00 0.259E+04   0.313E+00 -.225E+00 -.259E+04   0.493E-01 -.333E-01 -.396E+00   -.392E-01 0.518E-01 0.290E-01
   0.327E+00 0.210E+00 0.259E+04   -.313E+00 -.225E+00 -.259E+04   -.493E-01 -.333E-01 -.396E+00   0.411E-01 0.506E-01 0.293E-01
   0.197E-04 -.129E-01 0.259E+04   0.166E-03 0.104E-02 -.259E+04   0.842E-09 0.126E-01 -.288E+00   -.466E-02 -.623E-06 0.578E-01
   -.104E+01 -.563E+00 0.825E+03   0.122E+01 0.697E+00 -.824E+03   -.205E+00 -.132E+00 -.566E+00   -.182E-01 -.209E-01 -.159E+00
   0.139E-04 -.235E+01 0.821E+03   0.148E-03 0.249E+01 -.821E+03   -.432E-08 -.649E-01 -.164E+00   0.425E-02 -.128E+00 -.147E+00
   0.104E+01 -.563E+00 0.825E+03   -.122E+01 0.697E+00 -.824E+03   0.205E+00 -.132E+00 -.566E+00   0.162E-01 -.189E-01 -.158E+00
   -.206E+01 0.117E+01 0.821E+03   0.217E+01 -.125E+01 -.821E+03   -.447E-01 0.281E-01 -.143E+00   -.102E+00 0.784E-01 -.146E+00
   0.206E+01 0.117E+01 0.821E+03   -.217E+01 -.125E+01 -.821E+03   0.447E-01 0.281E-01 -.143E+00   0.111E+00 0.777E-01 -.145E+00
   0.325E-04 0.258E+01 0.828E+03   0.235E-03 -.265E+01 -.827E+03   -.237E-09 -.356E-02 -.467E+00   -.296E-02 0.264E-01 -.159E+00
   -.204E-04 0.118E+01 0.825E+03   0.162E-03 -.141E+01 -.824E+03   0.167E-07 0.251E+00 -.539E+00   0.384E-03 0.187E-01 -.150E+00
   0.225E+01 -.130E+01 0.828E+03   -.230E+01 0.133E+01 -.827E+03   0.788E-03 0.514E-02 -.422E+00   0.143E-01 -.163E-01 -.153E+00
   -.225E+01 -.130E+01 0.828E+03   0.230E+01 0.133E+01 -.827E+03   -.788E-03 0.514E-02 -.422E+00   -.142E-01 -.136E-01 -.152E+00
   -.427E-04 -.623E+01 -.942E+03   0.563E-04 0.632E+01 0.942E+03   -.399E-08 -.599E-01 0.510E+00   -.606E-02 -.750E-02 -.105E+00
   -.277E+02 -.159E+02 -.970E+03   0.288E+02 0.166E+02 0.971E+03   -.107E+01 -.642E+00 -.123E+01   -.135E-01 -.160E-01 -.419E-01
   0.277E+02 -.159E+02 -.970E+03   -.288E+02 0.166E+02 0.971E+03   0.107E+01 -.642E+00 -.123E+01   0.228E-01 -.145E-01 -.430E-01
   -.204E+02 0.117E+02 -.939E+03   0.202E+02 -.116E+02 0.938E+03   0.250E+00 -.148E+00 0.601E+00   -.313E-01 0.278E-01 -.123E+00
   -.743E-05 0.319E+02 -.970E+03   0.137E-03 -.332E+02 0.971E+03   0.825E-07 0.124E+01 -.114E+01   0.560E-02 0.428E-01 -.312E-01
   0.204E+02 0.117E+02 -.939E+03   -.202E+02 -.116E+02 0.938E+03   -.250E+00 -.148E+00 0.601E+00   0.232E-01 0.262E-01 -.123E+00
   0.541E+01 0.316E+01 -.942E+03   -.550E+01 -.320E+01 0.942E+03   0.675E-01 0.405E-01 0.536E+00   0.123E-01 -.104E-01 -.105E+00
   -.541E+01 0.316E+01 -.942E+03   0.550E+01 -.320E+01 0.942E+03   -.675E-01 0.405E-01 0.536E+00   -.173E-01 -.143E-01 -.105E+00
   0.716E-05 -.236E+02 -.939E+03   0.200E-03 0.233E+02 0.938E+03   0.200E-07 0.301E+00 0.630E+00   -.322E-02 -.480E-01 -.122E+00
   -.874E-05 0.225E+00 -.258E+04   0.261E-04 -.223E+00 0.258E+04   0.272E-09 0.409E-02 0.457E+00   -.141E-02 -.159E-01 -.449E-01
   -.166E+02 -.358E+02 -.259E+04   0.179E+02 0.379E+02 0.259E+04   -.135E+01 -.209E+01 -.683E+00   0.286E-01 -.191E-01 -.558E-01
   0.166E+02 -.358E+02 -.259E+04   -.179E+02 0.379E+02 0.259E+04   0.135E+01 -.209E+01 -.683E+00   -.217E-01 -.176E-01 -.562E-01
   -.388E+02 0.389E+01 -.259E+04   0.413E+02 -.380E+01 0.259E+04   -.248E+01 -.104E+00 -.735E+00   -.211E-02 0.275E-01 -.650E-01
   0.388E+02 0.389E+01 -.259E+04   -.413E+02 -.380E+01 0.259E+04   0.248E+01 -.104E+00 -.735E+00   0.774E-02 0.282E-01 -.670E-01
   -.233E+02 0.319E+02 -.259E+04   0.244E+02 -.340E+02 0.259E+04   -.117E+01 0.219E+01 -.667E+00   -.370E-02 0.488E-02 -.675E-01
   0.233E+02 0.319E+02 -.259E+04   -.244E+02 -.340E+02 0.259E+04   0.117E+01 0.219E+01 -.667E+00   0.119E-01 0.415E-02 -.689E-01
   0.309E-04 -.241E+00 -.258E+04   0.146E-03 0.241E+00 0.258E+04   0.290E-09 0.436E-02 0.546E+00   -.585E-02 0.641E-02 -.168E-01
   -.205E-04 0.983E-02 -.895E+03   0.408E-04 -.243E-01 0.893E+03   -.116E-08 -.174E-01 0.192E+01   0.114E-03 0.172E-02 -.230E-01
   0.162E+02 0.246E-01 -.261E+03   -.208E+02 -.206E-01 0.262E+03   0.461E+01 -.109E-02 -.707E+00   -.326E-03 -.264E-03 0.912E-03
   -.162E+02 0.246E-01 -.261E+03   0.208E+02 -.206E-01 0.262E+03   -.461E+01 -.109E-02 -.707E+00   0.275E-03 -.258E-03 0.926E-03
   -.819E-03 0.628E-01 0.120E+02   -.320E-13 -.197E-12 0.989E-11   -.454E-08 -.682E-01 -.940E+01   0.143E-01 0.571E-02 -.232E+01

 POSITION                                       TOTAL-FORCE (eV/Angst)
      0.00000      0.00000      5.28038         0.000000      0.002122     -0.165337
      2.93784      0.00000      5.28038         0.000467     -0.006813     -0.079188
      5.87568      0.00000      5.28038        -0.000467     -0.006813     -0.079188
      1.46892      2.54424      5.28038        -0.007274      0.001632     -0.084144
      4.40676      2.54424      5.28038         0.000000      0.000485     -0.073718
      7.34459      2.54424      5.28038         0.007274      0.001632     -0.084144
      2.93784      5.08848      5.28038        -0.004677      0.002769     -0.082841
      5.87568      5.08848      5.28038         0.004677      0.002769     -0.082841
      8.81351      5.08848      5.28038         0.000000      0.000793     -0.089754
      1.46892      0.84808      7.67911        -0.037694     -0.017772      0.052980
      4.40676      0.84808      7.67911        -0.000000     -0.050148      0.005401
      7.34459      0.84808      7.67911         0.037694     -0.017772      0.052980
      2.93784      3.39232      7.67911        -0.043263      0.029671      0.003644
      5.87568      3.39232      7.67911         0.043263      0.029671      0.003644
      8.81351      3.39232      7.67911        -0.000000     -0.038371      0.120402
      4.40676      5.93656      7.67911         0.000000      0.040378      0.052040
      7.34459      5.93656      7.67911        -0.032696      0.014883      0.128526
     10.28243      5.93656      7.67911         0.032696      0.014883      0.128526
      8.81351      1.69636     10.07469         0.000000      0.019699      0.042039
      2.94338      1.69936     10.06127        -0.006144      0.003482     -0.079147
      5.87013      1.69936     10.06127         0.006144      0.003482     -0.079147
     10.27220      4.24631     10.06987        -0.018056      0.006279      0.016219
      4.40676      4.23400     10.06127         0.000000      0.008638     -0.069938
      7.35483      4.24631     10.06987         0.018056      0.006279      0.016219
     11.75117      6.78454     10.07469        -0.009917     -0.004844      0.018233
      5.87585      6.78454     10.07469         0.009917     -0.004844      0.018233
      8.81351      6.77283     10.06987        -0.000000     -0.010247      0.020770
      0.00000      0.00000     12.49672        -0.000000     -0.010209     -0.031740
      2.97727      0.06002     12.55884        -0.033839     -0.059701      0.014476
      5.83624      0.06002     12.55884         0.033839     -0.059701      0.014476
      1.54061      2.54838     12.55884        -0.014419      0.006024      0.062771
      7.27290      2.54838     12.55884         0.014419      0.006024      0.062771
      2.97010      5.02433     12.55884        -0.046282      0.050130      0.008415
      5.84341      5.02433     12.55884         0.046282      0.050130      0.008415
      8.81351      5.08848     12.50791         0.000000      0.010444     -0.007483
      4.40676      2.54424     12.31155        -0.000000     -0.030176      0.255780
      4.01480      2.54673     14.49441        -0.016229      0.002557     -0.009175
      4.79872      2.54673     14.49441         0.016229      0.002557     -0.009175
    total drift:                                0.013511      0.000332      0.293081

  FREE ENERGIE OF THE ION-ELECTRON SYSTEM (eV)
  free  energy   TOTEN  =      -124.94007639 eV

  energy  without entropy=     -124.94007639  energy(sigma->0) =     -124.94007639

 stress matrix after NEB project (eV)
    -21.97475     -0.00000     -0.00000
     -0.00000    -21.85203     -0.07613
     -0.00000     -0.07613      2.54783
  FORCES: max atom, RMS     0.018818    0.004317
  FORCE total and by dimension    0.026612    0.016229
  Stress total and by dimension   31.095075   21.974747
|           W    W    AA    RRRRR   N    N  II  N    N   GGGG   !!!           |
|           W    W   A  A   R    R  NN   N  II  NN   N  G    G  !!!           |
|           W    W  A    A  R    R  N N  N  II  N N  N  G       !!!           |
|           W WW W  AAAAAA  RRRRR   N  N N  II  N  N N  G  GGG   !            |
|           WW  WW  A    A  R   R   N   NN  II  N   NN  G    G                |
|           W    W  A    A  R    R  N    N  II  N    N   GGGG   !!!           |
|     Tetrahedron method does not include variations of the Fermi             |
|     occupations, so forces and stress will be inaccurate. We suggest        |
|     using a different smearing scheme ISMEAR = 1 or 2 for metals in         |
|     relaxations.                                                            |

 total charge

# of ion       s       p       d       tot
    1        0.552   0.237   8.766   9.554
    2        0.541   0.241   8.765   9.547
    3        0.541   0.241   8.765   9.547
    4        0.540   0.241   8.766   9.548
    5        0.547   0.242   8.760   9.549
    6        0.540   0.241   8.766   9.548
    7        0.541   0.241   8.765   9.548
    8        0.541   0.241   8.765   9.548
    9        0.546   0.239   8.766   9.551
   10        0.524   0.307   8.769   9.600
   11        0.521   0.306   8.778   9.605
   12        0.524   0.307   8.769   9.600
   13        0.520   0.306   8.779   9.605
   14        0.520   0.306   8.779   9.605
   15        0.517   0.308   8.773   9.597
   16        0.523   0.307   8.770   9.599
   17        0.517   0.308   8.772   9.597
   18        0.517   0.308   8.772   9.597
   19        0.522   0.299   8.765   9.587
   20        0.572   0.336   8.731   9.639
   21        0.572   0.336   8.731   9.639
   22        0.511   0.305   8.775   9.591
   23        0.571   0.336   8.731   9.638
   24        0.511   0.305   8.775   9.591
   25        0.523   0.297   8.767   9.588
   26        0.523   0.297   8.767   9.588
   27        0.511   0.305   8.775   9.591
   28        0.541   0.233   8.753   9.526
   29        0.601   0.252   8.725   9.578
   30        0.601   0.252   8.725   9.578
   31        0.600   0.254   8.723   9.577
   32        0.600   0.254   8.723   9.577
   33        0.601   0.252   8.726   9.578
   34        0.601   0.252   8.726   9.578
   35        0.539   0.233   8.756   9.528
   36        0.527   0.515   1.832   2.874
   37        0.582   0.029   0.000   0.611
   38        0.582   0.029   0.000   0.611
tot         20.760  10.299 308.353 339.412

 BZINTS: Fermi energy:    0.428412;  391.000000 electrons
         Band energy:-0.132053E+04;  BLOECHL correction:   -0.036621