 vasp.6.2.0 18Jan21 (build Jun 12 2021 23:27:24) complex

 executed on             LinuxIFC date 2022.05.28  02:39:19

 INCAR:
   ISMEAR = -5
   SIGMA = 0.1
   ISPIN = 1
   EDIFF = 1.d-5
   EDIFFG = -0.01
   NSW = 0
   NELM = 150
   ENCUT = 500
   ISIF = 2
   IBRION = 2
   LREAL = Auto
   ALGO = Fast
   ICHARG = 11
   LORBIT = 10
   LCHARG = .F.
   LWAVE = .F.

 POTCAR:    PAW_PBE Cu 22Jun2005
 POTCAR:    PAW_PBE Rh 04Feb2005
 POTCAR:    PAW_PBE O 08Apr2002
 POTCAR:    PAW_PBE H 15Jun2001
|           W    W    AA    RRRRR   N    N  II  N    N   GGGG   !!!           |
|           W    W   A  A   R    R  NN   N  II  NN   N  G    G  !!!           |
|           W    W  A    A  R    R  N N  N  II  N N  N  G       !!!           |
|           W WW W  AAAAAA  RRRRR   N  N N  II  N  N N  G  GGG   !            |
|           WW  WW  A    A  R   R   N   NN  II  N   NN  G    G                |
|           W    W  A    A  R    R  N    N  II  N    N   GGGG   !!!           |
|     For optimal performance we recommend to set                             |
|       NCORE = 2 up to number-of-cores-per-socket                            |
|     This setting can greatly improve the performance of VASP for DFT.       |
|     The default, NCORE=1 might be grossly inefficient on modern             |
|     multi-core architectures or massively parallel machines. Do your        |
|     Unfortunately you need to use the default for GW and RPA                |
|     calculations (for HF NCORE is supported but not extensively tested      |
|     yet).                                                                   |

 POTCAR:    PAW_PBE Cu 22Jun2005
   VRHFIN =Cu: d10 p1

   TITEL  = PAW_PBE Cu 22Jun2005
   POMASS =   63.546; ZVAL   =   11.000    mass and valenz
   ENMAX  =  295.446; ENMIN  =  221.585 eV

 POTCAR:    PAW_PBE Rh 04Feb2005
   VRHFIN =Rh: s1 d8

   TITEL  = PAW_PBE Rh 04Feb2005
   POMASS =  102.906; ZVAL   =    9.000    mass and valenz
   ENMAX  =  228.996; ENMIN  =  171.747 eV

 POTCAR:    PAW_PBE O 08Apr2002
   VRHFIN =O: s2p4

   TITEL  = PAW_PBE O 08Apr2002
   POMASS =   16.000; ZVAL   =    6.000    mass and valenz
   ENMAX  =  400.000; ENMIN  =  300.000 eV

 POTCAR:    PAW_PBE H 15Jun2001
   VRHFIN =H: ultrasoft test

   TITEL  = PAW_PBE H 15Jun2001
   POMASS =    1.000; ZVAL   =    1.000    mass and valenz
   ENMAX  =  250.000; ENMIN  =  200.000 eV

 Optimization of the real space projectors (new method)

 maximal supplied QI-value         = 16.25
 optimisation between [QCUT,QGAM] = [ 11.38, 22.75] = [ 36.24,144.96] Ry
 Optimized for a Real-space Cutoff    1.52 Angstroem

   l    n(q)    QCUT    max X(q) W(low)/X(q) W(high)/X(q)  e(spline)
   2      9    11.376     4.610    0.21E-03    0.10E-03    0.26E-06
   2      9    11.376     8.522    0.33E-03    0.16E-03    0.37E-06
   0     10    11.376    51.609    0.62E-04    0.20E-04    0.13E-06
   0     10    11.376    27.747    0.54E-04    0.20E-04    0.13E-06
   1     10    11.376    20.408    0.13E-04    0.99E-04    0.19E-06
   1     10    11.376    13.425    0.12E-04    0.87E-04    0.17E-06
 Optimization of the real space projectors (new method)

[...]

   l    n(q)    QCUT    max X(q) W(low)/X(q) W(high)/X(q)  e(spline)
   0      7    11.387    20.381    0.39E-03    0.13E-02    0.15E-06
   0      7    11.387    15.268    0.42E-03    0.14E-02    0.17E-06
   1      6    11.387     5.964    0.41E-03    0.11E-02    0.17E-06
   1      6    11.387     5.382    0.39E-03    0.87E-03    0.15E-06
 Optimization of the real space projectors (new method)

 maximal supplied QI-value         = 34.20
 optimisation between [QCUT,QGAM] = [ 11.29, 22.57] = [ 35.68,142.71] Ry
 Optimized for a Real-space Cutoff    1.16 Angstroem

   l    n(q)    QCUT    max X(q) W(low)/X(q) W(high)/X(q)  e(spline)
   0      8    11.287    19.460    0.40E-03    0.73E-03    0.16E-06
   0      8    11.287    12.209    0.38E-03    0.70E-03    0.15E-06
   1      7    11.287     4.655    0.22E-03    0.25E-04    0.22E-06
  PAW_PBE Cu 22Jun2005                  :
  PAW_PBE Rh 04Feb2005                  :
  PAW_PBE O 08Apr2002                   :
  PAW_PBE H 15Jun2001                   :

 POSCAR: Cu-Rh-OOH
  positions in direct lattice
  velocities in cartesian coordinates
 exchange correlation table for  LEXCH =        8
   RHO(1)=    0.500       N(1)  =     2000
   RHO(2)=  100.500       N(2)  =     4000

 VTST: version 3.2, (02/03/18)

 CHAIN: initializing optimizer

 OPT: Using VASP Conjugate-Gradient optimizer
 CHAIN: Read ICHAIN            0

 POSCAR: Cu-Rh-OOH
  positions in direct lattice
  velocities in cartesian coordinates

 ion  position               nearest neighbor table
   1  0.000  0.000  0.212-   7 2.57   3 2.57   4 2.57   2 2.57   6 2.57   8 2.57  12 2.57  10 2.57
                            16 2.57
   2  0.333  0.000  0.212-   8 2.57   9 2.57   5 2.57   1 2.57   3 2.57  11 2.57   4 2.57  10 2.57
                            17 2.57
   3  0.667  0.000  0.212-   1 2.57   7 2.57   6 2.57   9 2.57   2 2.57  12 2.57   5 2.57  18 2.57
                            11 2.57
   4  0.000  0.333  0.212-   5 2.57   6 2.57   1 2.57   7 2.57   2 2.57  13 2.57   9 2.57  10 2.57
                            15 2.57
   5  0.333  0.333  0.212-   4 2.57   2 2.57   7 2.57  13 2.57   8 2.57   6 2.57   3 2.57  11 2.57
                            14 2.57
   6  0.667  0.333  0.212-   4 2.57   9 2.57  15 2.57   3 2.57   1 2.57   8 2.57  14 2.57   5 2.57
                            12 2.57
   7  0.000  0.667  0.212-   1 2.57   3 2.57  16 2.57  18 2.57   4 2.57   5 2.57   8 2.57   9 2.57
                            13 2.57
   8  0.333  0.667  0.212-   9 2.57   2 2.57  17 2.57   6 2.57   1 2.57   7 2.57   5 2.57  14 2.57
                            16 2.57
   9  0.667  0.667  0.212-   8 2.57   6 2.57   2 2.57  17 2.57   3 2.57   7 2.57   4 2.57  15 2.57
                            18 2.57
  10  0.111  0.111  0.294-  20 2.55  26 2.56  19 2.56  11 2.57  12 2.57  13 2.57   1 2.57   2 2.57
                             4 2.57  15 2.57  16 2.57  17 2.57
  11  0.444  0.111  0.294-  20 2.55  21 2.55  27 2.56  10 2.57  13 2.57   2 2.57  17 2.57  14 2.57
                            12 2.57   5 2.57   3 2.57  18 2.57
  12  0.778  0.111  0.294-  21 2.55  19 2.56  25 2.56  15 2.57  10 2.57  14 2.57  18 2.57   3 2.57
                             1 2.57  16 2.57  11 2.57   6 2.57
  13  0.111  0.444  0.294-  23 2.55  20 2.55  22 2.56  16 2.57  18 2.57  10 2.57  11 2.57  14 2.57
                             5 2.57   4 2.57   7 2.57  15 2.57
  14  0.444  0.444  0.294-  21 2.55  23 2.55  24 2.56  15 2.57  17 2.57  12 2.57  16 2.57  13 2.57
                            11 2.57   6 2.57   8 2.57   5 2.57
  15  0.778  0.444  0.294-  19 2.56  24 2.56  22 2.56  14 2.57  17 2.57  12 2.57   6 2.57  18 2.57
                            10 2.57   9 2.57  13 2.57   4 2.57
  16  0.111  0.778  0.294-  23 2.55  25 2.56  26 2.56  18 2.57  13 2.57   7 2.57  14 2.57  17 2.57
                            12 2.57  10 2.57   8 2.57   1 2.57
  17  0.444  0.778  0.294-  26 2.56  27 2.56  24 2.56  14 2.57  15 2.57   8 2.57   9 2.57  11 2.57
                            16 2.57  18 2.57  10 2.57   2 2.57
  18  0.778  0.778  0.294-  25 2.56  22 2.56  27 2.56  16 2.57  13 2.57   7 2.57  15 2.57  12 2.57
                            17 2.57   9 2.57   3 2.57  11 2.57
  19  0.889  0.223  0.376-  28 2.55  32 2.55  31 2.55  15 2.56  12 2.56  10 2.56  21 2.56  20 2.56
                            22 2.56  24 2.56  25 2.57  26 2.57
  20  0.222  0.222  0.376-  10 2.55  11 2.55  13 2.55  26 2.56  19 2.56  27 2.57  22 2.57  36 2.57
                            29 2.58  31 2.58  23 2.58  21 2.58
  21  0.557  0.222  0.376-  12 2.55  14 2.55  11 2.55  19 2.56  25 2.56  24 2.57  27 2.57  36 2.57
                            32 2.58  30 2.58  20 2.58  23 2.58
  22  0.889  0.556  0.377-  35 2.54  31 2.56  33 2.56  18 2.56  15 2.56  19 2.56  25 2.56  13 2.56
                            24 2.56  27 2.56  23 2.57  20 2.57
  23  0.222  0.557  0.376-  16 2.55  13 2.55  14 2.55  25 2.56  26 2.56  22 2.57  24 2.57  36 2.57
                            33 2.58  34 2.58  20 2.58  21 2.58
  24  0.556  0.556  0.377-  35 2.54  32 2.56  34 2.56  15 2.56  17 2.56  19 2.56  26 2.56  14 2.56
                            22 2.56  27 2.56  21 2.57  23 2.57
  25  0.889  0.889  0.376-  28 2.55  33 2.55  30 2.55  18 2.56  16 2.56  12 2.56  21 2.56  23 2.56
                            22 2.56  27 2.56  19 2.57  26 2.57
  26  0.223  0.889  0.376-  28 2.55  29 2.55  34 2.55  17 2.56  10 2.56  16 2.56  20 2.56  23 2.56
                            27 2.56  24 2.56  25 2.57  19 2.57
  27  0.556  0.889  0.377-  35 2.54  29 2.56  30 2.56  17 2.56  18 2.56  26 2.56  25 2.56  11 2.56
                            24 2.56  22 2.56  20 2.57  21 2.57
  28  0.000  0.000  0.458-  25 2.55  19 2.55  26 2.55  33 2.56  30 2.56  31 2.56  29 2.56  32 2.56
                            34 2.56
  29  0.333  0.998  0.459-  34 2.54  26 2.55  28 2.56  27 2.56  35 2.56  31 2.58  20 2.58  36 2.58
                            30 2.59
  30  0.669  0.998  0.459-  33 2.54  25 2.55  28 2.56  27 2.56  35 2.56  32 2.58  21 2.58  36 2.58
                            29 2.59
  31  0.998  0.333  0.459-  32 2.54  19 2.55  28 2.56  22 2.56  35 2.56  29 2.58  20 2.58  36 2.58
                            33 2.59
  32  0.669  0.333  0.459-  31 2.54  19 2.55  28 2.56  24 2.56  35 2.56  30 2.58  21 2.58  36 2.58
                            34 2.59
  33  0.998  0.669  0.459-  30 2.54  25 2.55  28 2.56  22 2.56  35 2.56  34 2.58  23 2.58  36 2.58
                            31 2.59
  34  0.333  0.669  0.459-  29 2.54  26 2.55  28 2.56  24 2.56  35 2.56  33 2.58  23 2.58  36 2.58
                            32 2.59
  35  0.667  0.667  0.458-  24 2.54  27 2.54  22 2.54  34 2.56  32 2.56  29 2.56  30 2.56  33 2.56
                            31 2.56
  36  0.333  0.333  0.458-  37 1.98  23 2.57  20 2.57  21 2.57  31 2.58  29 2.58  33 2.58  34 2.58
                            32 2.58  30 2.58
  37  0.373  0.380  0.533-  38 1.48  36 1.98
  38  0.284  0.306  0.573-  39 0.98  37 1.48
  39  0.360  0.307  0.604-  38 0.98

  LATTYP: Found a hexagonal cell.
 ALAT       =     7.6967864036
 C/A-ratio  =     3.2973366172

  Lattice vectors:

 A1 = (  -3.8483927580,  -6.6656128093,   0.0000000000)
 A2 = (   7.6967864037,   0.0000000000,   0.0000000000)
 A3 = (   0.0000000000,   0.0000000000,  25.3788956434)

Analysis of symmetry for initial positions (statically):
 Subroutine PRICEL returns:
 Original cell was already a primitive cell.

 Routine SETGRP: Setting up the symmetry group for a
 hexagonal supercell.

 Subroutine GETGRP returns: Found  1 space group operations
 (whereof  1 operations were pure point group operations)
 out of a pool of 24 trial point group operations.

The static configuration has the point symmetry C_1 .

Analysis of symmetry for dynamics (positions and initial velocities):
 Subroutine PRICEL returns:
 Original cell was already a primitive cell.

[...]

The dynamic configuration has the point symmetry C_1 .

Analysis of constrained symmetry for selective dynamics:
 Subroutine PRICEL returns:
[...]
     41      -4.3650      2.00000
     42      -4.2760      2.00000
     43      -4.2585      2.00000
     44      -4.2148      2.00000
     45      -4.1854      2.00000
     46      -4.1782      2.00000
     47      -4.1561      2.00000
     48      -4.1409      2.00000
     49      -4.1355      2.00000
     50      -4.1303      2.00000
     51      -3.9984      2.00000
     52      -3.9256      2.00000
     53      -3.9201      2.00000
     54      -3.9103      2.00000
     55      -3.8736      2.00000
     56      -3.8469      2.00000
     57      -3.8362      2.00000
     58      -3.8251      2.00000
     59      -3.8210      2.00000
     60      -3.8016      2.00000
[...]
    238       5.2039      0.00000
    239       5.2593      0.00000
    240       5.3315      0.00000
    241       5.5025      0.00000
    242       5.5772      0.00000
    243       5.6140      0.00000
    244       5.6755      0.00000
    245       5.8554      0.00000
    246       5.8939      0.00000
    247       5.9418      0.00000
    248       5.9826      0.00000
    249       5.9976      0.00000
    250       6.2933      0.00000
    251       6.6735      0.00000
    252       6.8296      0.00000

 soft charge-density along one line, spin component           1
         0         1         2         3         4         5         6         7         8         9
 total charge-density along one line

------------------------ aborting loop because EDIFF is reached ----------------------------------------

 total charge

# of ion       s       p       d       tot
    1        0.448   0.284   9.189   9.922
    2        0.449   0.286   9.185   9.920
    3        0.450   0.285   9.187   9.921
    4        0.449   0.286   9.185   9.920
    5        0.448   0.287   9.182   9.917
    6        0.449   0.284   9.187   9.921
    7        0.450   0.285   9.187   9.921
    8        0.449   0.284   9.188   9.921
    9        0.446   0.284   9.189   9.919
   10        0.443   0.371   9.177   9.991
   11        0.443   0.366   9.184   9.993
   12        0.440   0.373   9.176   9.990
   13        0.443   0.367   9.184   9.993
   14        0.443   0.367   9.183   9.993
   15        0.439   0.369   9.181   9.988
   16        0.441   0.373   9.176   9.990
   17        0.438   0.369   9.181   9.988
   18        0.439   0.370   9.180   9.988
   19        0.442   0.373   9.181   9.996
   20        0.454   0.382   9.171  10.008
   21        0.449   0.384   9.173  10.006
   22        0.435   0.371   9.184   9.991
   23        0.449   0.384   9.173  10.006
   24        0.435   0.374   9.181   9.990
   25        0.442   0.372   9.182   9.997
   26        0.442   0.373   9.181   9.996
   27        0.435   0.371   9.184   9.991
   28        0.454   0.289   9.195   9.938
   29        0.452   0.296   9.186   9.934
   30        0.447   0.295   9.191   9.933
   31        0.452   0.296   9.187   9.935
   32        0.447   0.292   9.194   9.934
   33        0.446   0.294   9.192   9.932
   34        0.446   0.292   9.194   9.932
   35        0.446   0.293   9.194   9.933
   36        0.492   0.510   7.452   8.453
   37        1.598   3.231   0.000   4.829
   38        1.592   3.383   0.000   4.974
   39        0.621   0.113   0.000   0.734
tot         19.884  18.859 328.894 367.636

  FORCE on cell =-STRESS in cart. coord.  units (eV):
  Direction    XX          YY          ZZ          XY          YZ          ZX
  Alpha Z   761.88089   761.88089   761.88089
  Ewald  256991.83949256849.50698************    82.03851   -78.72468  -102.71892
  Hartree269918.44147269850.67729************    44.69792   -50.26378   -82.23455
  E(xc)   -2352.40110 -2352.71720 -2356.02285     0.12018    -0.06550     0.05473
  Local  ************************539726.84479  -118.03416   121.27255   181.44673
  n-local  -800.32298  -803.07099  -812.82568     2.35657    -1.07435    -2.25107
  augment  3379.25521  3381.00427  3392.57470    -0.94324     0.45107     0.16428
  Kinetic  3512.27093  3533.69481  3512.70685    -9.86922     8.42505     5.55268
  Fock        0.00000     0.00000     0.00000     0.00000     0.00000     0.00000
  Total      -3.16796    -3.64447     2.26348     0.36656     0.02036     0.01389
  in kB      -3.89823    -4.48458     2.78525     0.45106     0.02505     0.01709

 VOLUME and BASIS-vectors are now :
  energy-cutoff  :      500.00
  volume of cell :     1302.03
      direct lattice vectors                 reciprocal lattice vectors
     7.696786404  0.000000000  0.000000000     0.129924354 -0.075011849  0.000000000
     3.848392758  6.665612809  0.000000000     0.000000000  0.150023716  0.000000000
     0.000000000  0.000000000 25.378895643     0.000000000  0.000000000  0.039402818

  length of vectors
     7.696786404  7.696786404 25.378895643     0.150023716  0.150023716  0.039402818

 FORCES acting on ions
    electron-ion (+dipol)            ewald-force                    non-local-force                 convergence-correction
   0.127E+00 0.531E-01 0.391E+04   0.105E-01 0.101E-01 -.391E+04   -.682E-01 -.279E-01 -.288E+01   -.515E-01 -.254E-01 -.508E+00
   -.409E+00 0.104E+00 0.391E+04   0.187E+00 0.291E-01 -.391E+04   0.117E+00 0.177E-01 -.174E+01   0.104E+00 -.117E+00 -.404E+00
   0.235E+00 -.339E-02 0.391E+04   -.197E+00 -.147E-01 -.391E+04   -.235E-01 0.321E-01 -.184E+01   -.301E-01 -.486E-02 -.474E+00
   -.983E-01 -.409E+00 0.391E+04   0.115E+00 0.141E+00 -.391E+04   0.640E-01 0.970E-01 -.173E+01   -.534E-01 0.152E+00 -.394E+00
   -.129E-01 -.350E-02 0.391E+04   -.437E-01 -.337E-01 -.391E+04   -.263E-01 -.812E-02 -.175E+01   0.825E-01 0.449E-01 -.363E+00
   0.107E+00 -.196E+00 0.391E+04   -.713E-01 0.128E+00 -.391E+04   -.385E-01 -.513E-01 -.199E+01   -.208E-01 0.110E+00 -.519E+00
   0.141E+00 0.209E+00 0.391E+04   -.115E+00 -.157E+00 -.391E+04   0.760E-02 -.437E-01 -.183E+01   -.331E-01 -.254E-01 -.472E+00
   -.135E+00 0.202E+00 0.391E+04   0.822E-01 -.125E+00 -.391E+04   -.615E-01 -.189E-01 -.200E+01   0.935E-01 -.741E-01 -.512E+00
   0.140E+00 0.104E+00 0.391E+04   0.326E-01 0.230E-01 -.391E+04   -.493E-01 -.496E-01 -.239E+01   -.119E+00 -.761E-01 -.473E+00
   0.270E+00 0.137E+00 0.139E+04   0.936E-01 0.419E-01 -.139E+04   -.424E+00 -.228E+00 -.107E+01   0.702E-01 0.541E-01 -.233E+00
   0.306E+00 -.462E+00 0.138E+04   -.184E+00 0.217E+00 -.138E+04   -.482E-01 0.174E+00 -.294E+00   -.690E-01 0.228E-01 -.192E+00
   -.597E+00 0.277E+00 0.139E+04   0.900E-01 -.232E+00 -.139E+04   0.487E+00 -.125E+00 -.990E+00   -.134E-03 0.950E-01 -.260E+00
   -.246E+00 0.562E+00 0.138E+04   0.104E+00 -.319E+00 -.138E+04   0.134E+00 -.145E+00 -.276E+00   -.275E-01 -.710E-01 -.182E+00
   0.686E+00 0.429E+00 0.138E+04   -.424E+00 -.291E+00 -.138E+04   -.241E+00 -.137E+00 -.594E+00   -.335E-02 0.792E-02 -.281E+00
   -.198E+00 -.141E+01 0.139E+04   0.320E+00 0.116E+01 -.138E+04   -.114E+00 0.157E+00 -.784E+00   -.129E-01 0.915E-01 -.368E+00
   -.766E-01 -.716E+00 0.139E+04   -.145E+00 0.246E+00 -.139E+04   0.136E+00 0.499E+00 -.997E+00   0.889E-01 -.503E-01 -.248E+00
   -.135E+01 0.526E+00 0.139E+04   0.121E+01 -.271E+00 -.138E+04   0.795E-01 -.179E+00 -.814E+00   0.560E-01 -.751E-01 -.366E+00
   0.124E+01 0.673E+00 0.139E+04   -.106E+01 -.556E+00 -.138E+04   -.904E-01 -.442E-01 -.821E+00   -.679E-01 -.586E-01 -.318E+00
   -.168E+01 0.492E+00 -.115E+04   0.162E+01 -.524E+00 0.115E+04   0.650E-01 0.567E-01 0.850E+00   -.188E-01 -.294E-01 -.822E-02
   -.164E+02 -.907E+01 -.117E+04   0.175E+02 0.974E+01 0.117E+04   -.133E+01 -.809E+00 -.817E+00   0.235E+00 0.133E+00 0.265E+00
   0.181E+02 -.747E+01 -.116E+04   -.190E+02 0.788E+01 0.116E+04   0.107E+01 -.477E+00 -.446E+00   -.230E+00 0.782E-01 0.304E+00
   -.963E+01 0.536E+01 -.116E+04   0.891E+01 -.501E+01 0.116E+04   0.521E+00 -.292E+00 0.845E+00   0.240E+00 -.799E-01 0.247E-01
   0.226E+01 0.196E+02 -.116E+04   -.239E+01 -.206E+02 0.116E+04   0.156E+00 0.118E+01 -.424E+00   -.440E-01 -.234E+00 0.301E+00
   0.700E+01 0.411E+01 -.116E+04   -.653E+01 -.384E+01 0.116E+04   -.372E+00 -.217E+00 0.947E+00   -.124E+00 -.648E-01 0.218E-01
   0.889E+00 0.148E+00 -.115E+04   -.797E+00 -.866E-01 0.115E+04   -.319E-01 -.252E-01 0.923E+00   -.488E-01 -.338E-01 0.689E-01
   -.703E+00 -.193E+01 -.115E+04   0.625E+00 0.190E+01 0.115E+04   0.949E-01 0.339E-01 0.856E+00   -.286E-01 -.926E-02 -.434E-03
   -.202E+00 -.114E+02 -.116E+04   0.174E+00 0.106E+02 0.116E+04   -.951E-02 0.631E+00 0.880E+00   0.366E-01 0.248E+00 0.482E-01
   -.704E+00 -.124E+01 -.369E+04   0.571E+00 0.114E+01 0.369E+04   0.204E+00 0.140E+00 0.212E+01   -.572E-01 -.355E-01 0.555E+00
   -.230E+01 0.265E+00 -.368E+04   0.205E+01 -.801E+00 0.368E+04   -.166E-01 0.186E+00 0.208E+01   0.225E+00 0.287E+00 0.441E+00
   0.248E+01 0.110E+02 -.368E+04   -.214E+01 -.123E+02 0.368E+04   -.120E+00 0.842E+00 0.240E+01   -.173E+00 0.374E+00 0.494E+00
   0.698E+00 -.289E+00 -.368E+04   -.135E+01 0.312E+00 0.367E+04   0.189E+00 -.800E-01 0.211E+01   0.375E+00 0.483E-01 0.445E+00
   -.245E+02 0.728E+01 -.366E+04   0.260E+02 -.698E+01 0.366E+04   -.856E+00 -.253E+00 0.317E+01   -.417E+00 -.488E-01 0.572E+00
   0.123E+02 -.627E+01 -.367E+04   -.135E+02 0.744E+01 0.367E+04   0.787E+00 -.680E+00 0.258E+01   0.248E+00 -.347E+00 0.492E+00
   -.852E+01 -.258E+02 -.366E+04   0.967E+01 0.271E+02 0.365E+04   -.775E+00 -.719E+00 0.329E+01   -.255E+00 -.336E+00 0.566E+00
   -.603E+01 -.451E+01 -.370E+04   0.600E+01 0.448E+01 0.370E+04   0.412E-01 0.202E-01 0.242E+01   0.750E-02 0.159E-01 0.653E+00
   0.335E+02 0.237E+02 -.280E+04   -.334E+02 -.238E+02 0.280E+04   -.165E+00 0.268E-01 -.220E+00   0.513E-01 0.385E-01 0.491E+00
   -.132E+03 -.698E+02 -.230E+04   0.157E+03 0.840E+02 0.230E+04   -.255E+02 -.142E+02 0.321E+01   -.105E+00 -.460E-01 0.164E-01
   0.157E+03 0.659E+02 -.228E+04   -.199E+03 -.757E+02 0.227E+04   0.424E+02 0.969E+01 0.120E+02   0.193E+00 0.974E-01 -.111E+00
   -.433E+02 0.498E+01 -.411E+03   0.481E+02 -.497E+01 0.418E+03   -.478E+01 -.256E-01 -.665E+01   -.626E-02 0.704E-02 -.349E-01
   -.115E+02 0.507E+01 -.656E+01   -.711E-14 0.372E-12 0.210E-11   0.114E+02 -.509E+01 0.739E+01   0.111E+00 0.633E-01 -.965E+00

 POSITION                                       TOTAL-FORCE (eV/Angst)
      0.00000      0.00000      5.37156         0.015671      0.008734      0.033732
      2.56560      0.00000      5.37156        -0.002124      0.032480      0.080985
      5.13119      0.00000      5.37156        -0.017471      0.008051      0.085859
      1.28280      2.22187      5.37156         0.025538     -0.019487      0.082651
      3.84839      2.22187      5.37156        -0.002134     -0.001595      0.054481
      6.41399      2.22187      5.37156        -0.025644     -0.010034      0.076664
      2.56560      4.44374      5.37156        -0.000593     -0.018096      0.089629
      5.13119      4.44374      5.37156        -0.021958     -0.018133      0.075970
      7.69679      4.44374      5.37156         0.003005      0.000451      0.035319
      1.28280      0.74062      7.46636         0.008224      0.003767     -0.087474
      3.84839      0.74062      7.46636         0.002897     -0.049436     -0.079493
      6.41399      0.74062      7.46636        -0.021296      0.013761     -0.055473
      2.56560      2.96249      7.46636        -0.036686      0.025161     -0.075658
      5.13119      2.96249      7.46636         0.016041      0.007629     -0.085483
      7.69679      2.96249      7.46636        -0.006284     -0.002938     -0.032397
      3.84839      5.18437      7.46636         0.000944     -0.021985     -0.062984
      6.41399      5.18437      7.46636        -0.004756     -0.000046     -0.032820
      8.97958      5.18437      7.46636         0.021180      0.013230     -0.028341
      7.69679      1.48472      9.55134        -0.009738     -0.006392     -0.002118
      2.55991      1.47796      9.54139        -0.002450     -0.005830     -0.145813
      5.13688      1.47796      9.54139        -0.052649      0.008281     -0.112413
      8.97851      3.70374      9.55759         0.037436     -0.024322     -0.015686
      3.84839      3.70969      9.54139        -0.014941     -0.039262     -0.122740
      6.41506      3.70374      9.55759        -0.024040     -0.014118      0.014662
     10.25938      5.92325      9.55134         0.009459      0.001426      0.005632
      5.13420      5.92325      9.55134        -0.013123     -0.007920     -0.000209
      7.69679      5.92375      9.55759        -0.002673      0.039484     -0.021605
      0.00000      0.00000     11.61948         0.011117      0.007348      0.008787
      6.40389      6.65412     11.64269        -0.043875     -0.065132     -0.018152
      8.98968      6.65412     11.64269         0.048149     -0.182678     -0.087964
      8.96459      2.21887     11.64269        -0.093178     -0.010054     -0.028589
      6.42899      2.21887     11.64269         0.216799      0.000841     -0.072924
     10.25748      4.45823     11.64269        -0.147720      0.145233     -0.090560
      5.13610      4.45823     11.64269         0.116392      0.181592     -0.055909
      7.69679      4.44374     11.62337         0.012406      0.006089      0.020760
      3.84839      2.22187     11.63466         0.013452     -0.001816      0.716239
      4.33226      2.52983     13.52694        -0.016542     -0.006136     -0.037990
      3.36523      2.03657     14.53354        -0.002921      0.008928     -0.031564
      3.94767      2.04366     15.32332         0.004085     -0.007079      0.002990
    total drift:                                0.065934      0.044894     -0.131551

  FREE ENERGIE OF THE ION-ELECTRON SYSTEM (eV)
  free  energy   TOTEN  =      -143.81558537 eV

  energy  without entropy=     -143.81558537  energy(sigma->0) =     -143.81558537

 stress matrix after NEB project (eV)
     -3.16796      0.36656      0.01389
      0.36656     -3.64447      0.02036
      0.01389      0.02036      2.26348
  FORCES: max atom, RMS     0.041887    0.008645
  FORCE total and by dimension    0.053988    0.037990
  Stress total and by dimension    5.358299    3.644466
|           W    W    AA    RRRRR   N    N  II  N    N   GGGG   !!!           |
|           W    W   A  A   R    R  NN   N  II  NN   N  G    G  !!!           |
|           W    W  A    A  R    R  N N  N  II  N N  N  G       !!!           |
|           W WW W  AAAAAA  RRRRR   N  N N  II  N  N N  G  GGG   !            |
|           WW  WW  A    A  R   R   N   NN  II  N   NN  G    G                |
|           W    W  A    A  R    R  N    N  II  N    N   GGGG   !!!           |
|     Tetrahedron method does not include variations of the Fermi             |
|     occupations, so forces and stress will be inaccurate. We suggest        |
|     using a different smearing scheme ISMEAR = 1 or 2 for metals in         |
|     relaxations.                                                            |

 total charge

# of ion       s       p       d       tot
    1        0.448   0.284   9.189   9.922
    2        0.449   0.286   9.185   9.920
    3        0.450   0.285   9.187   9.921
    4        0.449   0.286   9.185   9.920
    5        0.448   0.287   9.182   9.917
    6        0.449   0.284   9.187   9.921
    7        0.450   0.285   9.187   9.921
    8        0.449   0.284   9.188   9.921
    9        0.446   0.284   9.189   9.919
   10        0.443   0.371   9.177   9.991
   11        0.443   0.366   9.184   9.993
   12        0.440   0.373   9.176   9.990
   13        0.443   0.367   9.184   9.993
   14        0.443   0.367   9.183   9.993
   15        0.439   0.369   9.181   9.988
   16        0.441   0.373   9.176   9.990
   17        0.438   0.369   9.181   9.988
   18        0.439   0.370   9.180   9.988
   19        0.442   0.373   9.181   9.996
   20        0.454   0.382   9.171  10.008
   21        0.449   0.384   9.173  10.006
   22        0.435   0.371   9.184   9.991
   23        0.449   0.384   9.173  10.006
   24        0.435   0.374   9.181   9.990
   25        0.442   0.372   9.182   9.997
   26        0.442   0.373   9.181   9.996
   27        0.435   0.371   9.184   9.991
   28        0.454   0.289   9.195   9.938
   29        0.452   0.296   9.186   9.934
   30        0.447   0.295   9.191   9.933
   31        0.452   0.296   9.187   9.935
   32        0.447   0.292   9.194   9.934
   33        0.446   0.294   9.192   9.932
   34        0.446   0.292   9.194   9.932
   35        0.446   0.293   9.194   9.933
   36        0.492   0.510   7.452   8.453
   37        1.598   3.231   0.000   4.829
   38        1.592   3.383   0.000   4.974
   39        0.621   0.113   0.000   0.734
tot         19.884  18.859 328.894 367.636

 BZINTS: Fermi energy:   -0.487453;  407.000000 electrons
         Band energy:-0.141743E+04;  BLOECHL correction:   -0.048722