 vasp.6.2.0 18Jan21 (build Jun 12 2021 23:27:24) complex

 executed on             LinuxIFC date 2022.05.27  06:15:47

 INCAR:
   ISMEAR = -5
   SIGMA = 0.1
   ISPIN = 1
   EDIFF = 1.d-5
   EDIFFG = -0.01
   NSW = 0
   NELM = 150
   ENCUT = 500
   ISIF = 2
   IBRION = 2
   LREAL = Auto
   ALGO = Fast
   ICHARG = 11
   LORBIT = 10
   LCHARG = .F.
   LWAVE = .F.

 POTCAR:    PAW_PBE Cu 22Jun2005
 POTCAR:    PAW_PBE Ta 17Jan2003
 POTCAR:    PAW_PBE H 15Jun2001
|           W    W    AA    RRRRR   N    N  II  N    N   GGGG   !!!           |
|           W    W   A  A   R    R  NN   N  II  NN   N  G    G  !!!           |
|           W    W  A    A  R    R  N N  N  II  N N  N  G       !!!           |
|           W WW W  AAAAAA  RRRRR   N  N N  II  N  N N  G  GGG   !            |
|           WW  WW  A    A  R   R   N   NN  II  N   NN  G    G                |
|           W    W  A    A  R    R  N    N  II  N    N   GGGG   !!!           |
|     For optimal performance we recommend to set                             |
|       NCORE = 2 up to number-of-cores-per-socket                            |
|     This setting can greatly improve the performance of VASP for DFT.       |
|     The default, NCORE=1 might be grossly inefficient on modern             |
|     multi-core architectures or massively parallel machines. Do your        |
|     Unfortunately you need to use the default for GW and RPA                |
|     calculations (for HF NCORE is supported but not extensively tested      |
|     yet).                                                                   |

 POTCAR:    PAW_PBE Cu 22Jun2005
   VRHFIN =Cu: d10 p1

   TITEL  = PAW_PBE Cu 22Jun2005
   POMASS =   63.546; ZVAL   =   11.000    mass and valenz
   ENMAX  =  295.446; ENMIN  =  221.585 eV

 POTCAR:    PAW_PBE Ta 17Jan2003
   VRHFIN =Ta:  6s5d

   TITEL  = PAW_PBE Ta 17Jan2003
   POMASS =  180.948; ZVAL   =    5.000    mass and valenz
   ENMAX  =  223.667; ENMIN  =  167.750 eV

 POTCAR:    PAW_PBE H 15Jun2001
   VRHFIN =H: ultrasoft test

   TITEL  = PAW_PBE H 15Jun2001
   POMASS =    1.000; ZVAL   =    1.000    mass and valenz
   ENMAX  =  250.000; ENMIN  =  200.000 eV

 Optimization of the real space projectors (new method)

 maximal supplied QI-value         = 16.25
 optimisation between [QCUT,QGAM] = [ 11.38, 22.75] = [ 36.24,144.96] Ry
 Optimized for a Real-space Cutoff    1.52 Angstroem

   l    n(q)    QCUT    max X(q) W(low)/X(q) W(high)/X(q)  e(spline)
   2      9    11.376     4.610    0.21E-03    0.10E-03    0.26E-06
   2      9    11.376     8.522    0.33E-03    0.16E-03    0.37E-06
   0     10    11.376    51.609    0.62E-04    0.20E-04    0.13E-06
   0     10    11.376    27.747    0.54E-04    0.20E-04    0.13E-06
   1     10    11.376    20.408    0.13E-04    0.99E-04    0.19E-06
   1     10    11.376    13.425    0.12E-04    0.87E-04    0.17E-06
 Optimization of the real space projectors (new method)

[...]

   l    n(q)    QCUT    max X(q) W(low)/X(q) W(high)/X(q)  e(spline)
   2     10    11.437    62.315    0.14E-03    0.26E-03    0.80E-06
   2     10    11.437    52.185    0.14E-03    0.26E-03    0.80E-06
   0     11    11.437   103.837    0.25E-04    0.17E-04    0.84E-07
   0     11    11.437    59.728    0.20E-04    0.15E-04    0.73E-07
   1     11    11.437    13.958    0.47E-03    0.12E-03    0.89E-06
   1     11    11.437     8.441    0.33E-03    0.88E-04    0.61E-06
 Optimization of the real space projectors (new method)

 maximal supplied QI-value         = 34.20
 optimisation between [QCUT,QGAM] = [ 11.29, 22.57] = [ 35.68,142.71] Ry
 Optimized for a Real-space Cutoff    1.16 Angstroem

   l    n(q)    QCUT    max X(q) W(low)/X(q) W(high)/X(q)  e(spline)
   0      8    11.287    19.460    0.40E-03    0.73E-03    0.16E-06
   0      8    11.287    12.209    0.38E-03    0.70E-03    0.15E-06
   1      7    11.287     4.655    0.22E-03    0.25E-04    0.22E-06
  PAW_PBE Cu 22Jun2005                  :
  PAW_PBE Ta 17Jan2003                  :
  PAW_PBE H 15Jun2001                   :

 POSCAR: Cu-Ta-H2
  positions in direct lattice
  velocities in cartesian coordinates
 exchange correlation table for  LEXCH =        8
   RHO(1)=    0.500       N(1)  =     2000
   RHO(2)=  100.500       N(2)  =     4000

 VTST: version 3.2, (02/03/18)

 CHAIN: initializing optimizer

 OPT: Using VASP Conjugate-Gradient optimizer
 CHAIN: Read ICHAIN            0

 POSCAR: Cu-Ta-H2
  positions in direct lattice
  velocities in cartesian coordinates

 ion  position               nearest neighbor table
   1  0.000  0.000  0.252-   7 2.57   3 2.57   4 2.57   2 2.57   6 2.57   8 2.57  12 2.57  10 2.57
                            16 2.57
   2  0.333  0.000  0.252-   8 2.57   9 2.57   5 2.57   1 2.57   3 2.57  11 2.57   4 2.57  10 2.57
                            17 2.57
   3  0.667  0.000  0.252-   1 2.57   7 2.57   6 2.57   9 2.57   2 2.57  12 2.57   5 2.57  18 2.57
                            11 2.57
   4  0.000  0.333  0.252-   5 2.57   6 2.57   1 2.57   7 2.57   2 2.57  13 2.57   9 2.57  10 2.57
                            15 2.57
   5  0.333  0.333  0.252-   4 2.57   2 2.57   7 2.57  13 2.57   8 2.57   6 2.57   3 2.57  11 2.57
                            14 2.57
   6  0.667  0.333  0.252-   4 2.57   9 2.57  15 2.57   3 2.57   1 2.57   8 2.57  14 2.57   5 2.57
                            12 2.57
   7  0.000  0.667  0.252-   1 2.57   3 2.57  16 2.57  18 2.57   4 2.57   5 2.57   8 2.57   9 2.57
                            13 2.57
   8  0.333  0.667  0.252-   9 2.57   2 2.57  17 2.57   6 2.57   1 2.57   7 2.57   5 2.57  14 2.57
                            16 2.57
   9  0.667  0.667  0.252-   8 2.57   6 2.57   2 2.57  17 2.57   3 2.57   7 2.57   4 2.57  15 2.57
                            18 2.57
  10  0.111  0.111  0.351-  20 2.55  26 2.56  19 2.56  11 2.57  12 2.57  13 2.57   1 2.57   2 2.57
                             4 2.57  15 2.57  16 2.57  17 2.57
  11  0.444  0.111  0.351-  20 2.56  21 2.56  10 2.57  13 2.57   2 2.57  17 2.57  14 2.57  12 2.57
                             5 2.57   3 2.57  18 2.57  27 2.57
  12  0.778  0.111  0.351-  21 2.55  19 2.56  25 2.56  15 2.57  10 2.57  14 2.57  18 2.57   3 2.57
                             1 2.57  16 2.57  11 2.57   6 2.57
  13  0.111  0.444  0.351-  23 2.56  20 2.56  16 2.57  18 2.57  10 2.57  11 2.57  14 2.57   5 2.57
                             4 2.57   7 2.57  15 2.57  22 2.57
  14  0.444  0.444  0.351-  21 2.56  23 2.56  15 2.57  17 2.57  12 2.57  16 2.57  13 2.57  11 2.57
                             6 2.57   8 2.57   5 2.57  24 2.57
  15  0.778  0.444  0.351-  19 2.56  14 2.57  17 2.57  12 2.57   6 2.57  18 2.57  10 2.57   9 2.57
                            13 2.57   4 2.57  24 2.57  22 2.57
  16  0.111  0.778  0.351-  23 2.55  25 2.56  26 2.56  18 2.57  13 2.57   7 2.57  14 2.57  17 2.57
                            12 2.57  10 2.57   8 2.57   1 2.57
  17  0.444  0.778  0.351-  26 2.56  14 2.57  15 2.57   8 2.57   9 2.57  11 2.57  16 2.57  18 2.57
                            10 2.57   2 2.57  27 2.57  24 2.57
  18  0.778  0.778  0.351-  25 2.56  16 2.57  13 2.57   7 2.57  15 2.57  12 2.57  17 2.57   9 2.57
                             3 2.57  11 2.57  22 2.57  27 2.57
  19  0.889  0.222  0.449-  12 2.56  10 2.56  15 2.56  21 2.56  20 2.56  25 2.56  26 2.56  22 2.57
                            24 2.57  28 2.57  32 2.59  31 2.59
  20  0.222  0.222  0.449-  10 2.55  11 2.56  13 2.56  26 2.56  19 2.56  27 2.57  22 2.57  23 2.58
                            21 2.58  36 2.61  29 2.61  31 2.61
  21  0.557  0.222  0.449-  12 2.55  14 2.56  11 2.56  19 2.56  25 2.56  24 2.57  27 2.57  20 2.58
                            23 2.58  36 2.61  32 2.61  30 2.61
  22  0.888  0.556  0.450-  24 2.56  27 2.56  19 2.57  25 2.57  23 2.57  20 2.57  18 2.57  15 2.57
                            35 2.57  13 2.57  31 2.59  33 2.59
  23  0.222  0.557  0.449-  16 2.55  13 2.56  14 2.56  25 2.56  26 2.56  22 2.57  24 2.57  20 2.58
                            21 2.58  36 2.61  33 2.61  34 2.61
  24  0.556  0.556  0.450-  22 2.56  27 2.56  19 2.57  26 2.57  21 2.57  23 2.57  15 2.57  17 2.57
                            35 2.57  14 2.57  32 2.59  34 2.59
  25  0.889  0.889  0.449-  12 2.56  16 2.56  18 2.56  21 2.56  23 2.56  19 2.56  26 2.56  22 2.57
                            27 2.57  28 2.57  33 2.59  30 2.59
  26  0.222  0.889  0.449-  10 2.56  16 2.56  17 2.56  20 2.56  23 2.56  25 2.56  19 2.56  27 2.57
                            24 2.57  28 2.57  29 2.59  34 2.59
  27  0.556  0.888  0.450-  24 2.56  22 2.56  26 2.57  25 2.57  20 2.57  21 2.57  17 2.57  18 2.57
                            35 2.57  11 2.57  29 2.59  30 2.59
  28  0.000  0.000  0.548-  33 2.55  30 2.55  31 2.55  29 2.55  32 2.55  34 2.55  25 2.57  19 2.57
                            26 2.57
  29  0.333  0.997  0.549-  34 2.52  35 2.55  28 2.55  31 2.59  27 2.59  36 2.59  30 2.59  26 2.59
                            20 2.61
  30  0.670  0.997  0.549-  33 2.52  35 2.55  28 2.55  32 2.59  27 2.59  36 2.59  29 2.59  25 2.59
                            21 2.61
  31  0.997  0.333  0.549-  32 2.52  35 2.55  28 2.55  29 2.59  22 2.59  36 2.59  33 2.59  19 2.59
                            20 2.61
  32  0.670  0.333  0.549-  31 2.52  35 2.55  28 2.55  30 2.59  24 2.59  36 2.59  34 2.59  19 2.59
                            21 2.61
  33  0.997  0.670  0.549-  30 2.52  35 2.55  28 2.55  34 2.59  22 2.59  36 2.59  31 2.59  25 2.59
                            23 2.61
  34  0.333  0.670  0.549-  29 2.52  35 2.55  28 2.55  33 2.59  24 2.59  36 2.59  32 2.59  26 2.59
                            23 2.61
  35  0.667  0.667  0.549-  34 2.55  32 2.55  29 2.55  30 2.55  33 2.55  31 2.55  24 2.57  27 2.57
                            22 2.57
  36  0.333  0.333  0.549-  38 2.00  37 2.00  31 2.59  29 2.59  33 2.59  34 2.59  32 2.59  30 2.59
                            23 2.61  20 2.61  21 2.61
  37  0.279  0.334  0.641-  38 0.84  36 2.00
  38  0.387  0.334  0.641-  37 0.84  36 2.00

  LATTYP: Found a hexagonal cell.
 ALAT       =     7.6967864036
 C/A-ratio  =     2.7653617908

  Lattice vectors:

 A1 = (  -3.8483927580,  -6.6656128093,   0.0000000000)
 A2 = (   7.6967864037,   0.0000000000,   0.0000000000)
 A3 = (   0.0000000000,   0.0000000000,  21.2843990326)

Analysis of symmetry for initial positions (statically):
 Subroutine PRICEL returns:
 Original cell was already a primitive cell.

 Routine SETGRP: Setting up the symmetry group for a
 hexagonal supercell.

 Subroutine GETGRP returns: Found  2 space group operations
 (whereof  2 operations were pure point group operations)
 out of a pool of 24 trial point group operations.

The static configuration has the point symmetry C_1h.

Analysis of symmetry for dynamics (positions and initial velocities):
 Subroutine PRICEL returns:
 Original cell was already a primitive cell.

[...]

The dynamic configuration has the point symmetry C_1h.

Analysis of constrained symmetry for selective dynamics:
 Subroutine PRICEL returns:
 Original cell was already a primitive cell.

 Routine SETGRP: Setting up the symmetry group for a
 hexagonal supercell.

 Subroutine GETGRP returns: Found  2 space group operations
[...]
     33      -3.9209      2.00000
     34      -3.9084      2.00000
     35      -3.8840      2.00000
     36      -3.8081      2.00000
     37      -3.7828      2.00000
     38      -3.6368      2.00000
     39      -3.6330      2.00000
     40      -3.5767      2.00000
     41      -3.5565      2.00000
     42      -3.5424      2.00000
     43      -3.5319      2.00000
     44      -3.5187      2.00000
     45      -3.5071      2.00000
     46      -3.5047      2.00000
     47      -3.3536      2.00000
     48      -3.3214      2.00000
     49      -3.3125      2.00000
     50      -3.2959      2.00000
     51      -3.2513      2.00000
     52      -3.2348      2.00000
     53      -3.2278      2.00000
     54      -3.2178      2.00000
     55      -3.2093      2.00000
     56      -3.1974      2.00000
     57      -3.1744      2.00000
     58      -3.1637      2.00000
     59      -3.1542      2.00000
     60      -3.1458      2.00000
[...]
    238       6.7370      0.00000
    239       6.8642      0.00000
    240       6.8993      0.00000
    241       7.0189      0.00000
    242       7.0764      0.00000
    243       7.1956      0.00000
    244       7.3902      0.00000
    245       7.4220      0.00000
    246       7.5411      0.00000
    247       7.5591      0.00000
    248       7.8047      0.00000
    249       7.9400      0.00000
    250       8.1002      0.00000
    251       8.1772      0.00000
    252       8.2126      0.00000

 soft charge-density along one line, spin component           1
         0         1         2         3         4         5         6         7         8         9
 total charge-density along one line

------------------------ aborting loop because EDIFF is reached ----------------------------------------

 total charge

# of ion       s       p       d       tot
    1        0.450   0.281   9.189   9.920
    2        0.446   0.286   9.185   9.918
    3        0.446   0.286   9.185   9.918
    4        0.445   0.285   9.187   9.918
    5        0.451   0.286   9.180   9.917
    6        0.445   0.285   9.187   9.918
    7        0.446   0.286   9.185   9.917
    8        0.446   0.286   9.185   9.917
    9        0.448   0.282   9.189   9.919
   10        0.444   0.371   9.174   9.989
   11        0.443   0.364   9.182   9.989
   12        0.444   0.371   9.174   9.989
   13        0.443   0.364   9.183   9.989
   14        0.443   0.364   9.183   9.989
   15        0.439   0.370   9.174   9.983
   16        0.443   0.371   9.174   9.988
   17        0.438   0.369   9.175   9.983
   18        0.438   0.369   9.175   9.983
   19        0.441   0.370   9.177   9.988
   20        0.469   0.400   9.154  10.023
   21        0.469   0.400   9.154  10.023
   22        0.429   0.371   9.179   9.979
   23        0.470   0.397   9.157  10.024
   24        0.429   0.371   9.179   9.979
   25        0.442   0.368   9.177   9.987
   26        0.442   0.368   9.177   9.987
   27        0.430   0.369   9.182   9.981
   28        0.443   0.294   9.181   9.918
   29        0.483   0.319   9.157   9.959
   30        0.483   0.319   9.157   9.959
   31        0.479   0.320   9.159   9.958
   32        0.479   0.320   9.159   9.958
   33        0.482   0.319   9.158   9.959
   34        0.482   0.319   9.158   9.959
   35        0.439   0.296   9.181   9.917
   36        0.703   0.678   3.244   4.625
   37        0.559   0.029   0.000   0.588
   38        0.559   0.029   0.000   0.588
tot         17.612  12.529 324.359 354.500

  FORCE on cell =-STRESS in cart. coord.  units (eV):
  Direction    XX          YY          ZZ          XY          YZ          ZX
  Alpha Z   876.90372   876.90372   876.90372
  Ewald  169470.57661169453.84793************     0.00035    -0.10363     0.00014
  Hartree182267.24872182266.05482************     0.00002    -0.04050     0.00005
  E(xc)   -2274.40960 -2274.28797 -2278.82001    -0.00032     0.00213    -0.00003
  Local  ************************364654.22730     0.01957     0.13633    -0.00065
  n-local  -762.65236  -760.73441  -775.46011     1.66177    -0.07574     0.04049
  augment  3309.93170  3309.63742  3335.38230    -0.01828     0.01841     0.00027
  Kinetic  3197.09535  3199.68768  3233.09737     0.57330    -0.05396    -0.20929
  Fock        0.00000     0.00000     0.00000     0.00000     0.00000     0.00000
  Total      -8.11470    -8.06098    -2.46342     0.00000    -0.11697     0.00000
  in kB     -11.90617   -11.82735    -3.61441     0.00000    -0.17162     0.00000

 VOLUME and BASIS-vectors are now :
  energy-cutoff  :      500.00
  volume of cell :     1091.97
      direct lattice vectors                 reciprocal lattice vectors
     7.696786404  0.000000000  0.000000000     0.129924354 -0.075011849  0.000000000
     3.848392758  6.665612809  0.000000000     0.000000000  0.150023716  0.000000000
     0.000000000  0.000000000 21.284399033     0.000000000  0.000000000  0.046982769

  length of vectors
     7.696786404  7.696786404 21.284399033     0.150023716  0.150023716  0.046982769

 FORCES acting on ions
    electron-ion (+dipol)            ewald-force                    non-local-force                 convergence-correction
   -.407E-04 0.772E-01 0.344E+04   0.581E-04 -.148E-02 -.344E+04   0.239E-08 -.359E-01 -.242E+01   -.363E-03 -.449E-01 0.140E+00
   -.989E+00 -.714E+00 0.344E+04   0.863E+00 0.711E+00 -.343E+04   0.133E+00 0.194E+00 -.181E+01   0.443E-02 -.177E+00 0.229E+00
   0.989E+00 -.714E+00 0.344E+04   -.863E+00 0.711E+00 -.343E+04   -.133E+00 0.194E+00 -.181E+01   -.357E-02 -.175E+00 0.230E+00
   -.108E+01 -.448E+00 0.344E+04   0.105E+01 0.391E+00 -.343E+04   0.226E+00 -.308E-01 -.192E+01   -.160E+00 0.886E-01 0.212E+00
   -.612E-04 -.799E-01 0.343E+04   0.116E-03 -.246E-03 -.343E+04   0.175E-09 -.263E-02 -.103E+01   0.121E-01 0.774E-01 0.432E+00
   0.108E+01 -.448E+00 0.344E+04   -.105E+01 0.391E+00 -.343E+04   -.226E+00 -.308E-01 -.192E+01   0.158E+00 0.897E-01 0.213E+00
   -.329E+00 0.118E+01 0.344E+04   0.185E+00 -.110E+01 -.343E+04   0.182E+00 -.174E+00 -.187E+01   -.371E-01 0.755E-01 0.207E+00
   0.330E+00 0.118E+01 0.344E+04   -.186E+00 -.110E+01 -.343E+04   -.182E+00 -.174E+00 -.187E+01   0.404E-01 0.741E-01 0.207E+00
   -.143E-03 -.343E-01 0.344E+04   0.263E-03 0.173E-02 -.344E+04   -.305E-08 0.458E-01 -.215E+01   -.131E-01 -.612E-02 0.131E+00
   -.589E+01 -.336E+01 0.111E+04   0.635E+01 0.365E+01 -.111E+04   -.441E+00 -.263E+00 -.104E+01   -.461E-01 -.448E-01 -.422E+00
   -.909E-04 -.708E+01 0.110E+04   0.190E-03 0.691E+01 -.110E+04   -.135E-07 0.202E+00 0.418E-01   0.120E-01 -.659E-01 -.405E+00
   0.589E+01 -.336E+01 0.111E+04   -.635E+01 0.365E+01 -.111E+04   0.441E+00 -.263E+00 -.104E+01   0.443E-01 -.444E-01 -.423E+00
   -.622E+01 0.344E+01 0.110E+04   0.599E+01 -.345E+01 -.110E+04   0.213E+00 -.903E-01 -.806E-02   -.103E-01 0.121E+00 -.427E+00
   0.622E+01 0.344E+01 0.110E+04   -.599E+01 -.345E+01 -.110E+04   -.213E+00 -.903E-01 -.806E-02   0.334E-01 0.119E+00 -.430E+00
   -.140E-03 -.209E+01 0.111E+04   0.296E-03 0.182E+01 -.111E+04   -.820E-08 0.123E+00 -.106E+01   -.291E-02 0.137E+00 -.444E+00
   -.927E-04 0.693E+01 0.111E+04   0.187E-03 -.733E+01 -.111E+04   -.323E-07 0.485E+00 -.884E+00   -.126E-02 -.511E-01 -.396E+00
   -.178E+01 0.103E+01 0.111E+04   0.157E+01 -.898E+00 -.111E+04   0.134E+00 -.548E-01 -.957E+00   0.747E-01 -.753E-01 -.411E+00
   0.178E+01 0.103E+01 0.111E+04   -.157E+01 -.899E+00 -.111E+04   -.134E+00 -.548E-01 -.957E+00   -.727E-01 -.727E-01 -.408E+00
   -.673E-04 -.887E+01 -.120E+04   0.733E-04 0.896E+01 0.120E+04   0.370E-08 -.556E-01 0.977E+00   0.924E-03 -.342E-01 -.730E+00
   -.649E+02 -.374E+02 -.129E+04   0.664E+02 0.383E+02 0.129E+04   -.129E+01 -.639E+00 -.953E+00   -.313E+00 -.199E+00 -.114E+01
   0.649E+02 -.374E+02 -.129E+04   -.664E+02 0.383E+02 0.129E+04   0.129E+01 -.639E+00 -.953E+00   0.293E+00 -.203E+00 -.114E+01
   -.349E+02 0.200E+02 -.123E+04   0.346E+02 -.199E+02 0.123E+04   0.485E+00 -.314E+00 0.655E+00   -.153E+00 0.149E+00 -.871E+00
   -.876E-04 0.748E+02 -.129E+04   0.153E-03 -.766E+02 0.129E+04   -.976E-07 0.147E+01 -.859E+00   -.144E-01 0.383E+00 -.115E+01
   0.349E+02 0.200E+02 -.123E+04   -.346E+02 -.199E+02 0.123E+04   -.485E+00 -.314E+00 0.655E+00   0.177E+00 0.148E+00 -.870E+00
   0.775E+01 0.451E+01 -.120E+04   -.781E+01 -.453E+01 0.120E+04   0.365E-01 0.537E-01 0.101E+01   0.142E-01 -.197E-01 -.704E+00
   -.775E+01 0.451E+01 -.120E+04   0.781E+01 -.453E+01 0.120E+04   -.365E-01 0.537E-01 0.101E+01   -.373E-01 -.178E-01 -.704E+00
   -.119E-03 -.402E+02 -.123E+04   0.238E-03 0.399E+02 0.123E+04   -.350E-07 0.526E+00 0.675E+00   0.127E-01 -.217E+00 -.860E+00
   -.461E-04 0.372E+00 -.343E+04   0.480E-04 -.367E+00 0.343E+04   -.393E-08 0.590E-01 0.192E+01   -.169E-02 -.737E-01 -.327E+00
   -.575E+02 -.104E+03 -.344E+04   0.586E+02 0.105E+03 0.344E+04   -.822E+00 -.934E+00 0.174E+00   -.219E+00 -.399E+00 -.439E+00
   0.575E+02 -.104E+03 -.344E+04   -.586E+02 0.105E+03 0.344E+04   0.822E+00 -.934E+00 0.174E+00   0.242E+00 -.399E+00 -.441E+00
   -.118E+03 0.266E+01 -.344E+04   0.120E+03 -.247E+01 0.344E+04   -.127E+01 -.180E+00 0.290E+00   -.384E+00 -.154E-02 -.416E+00
   0.118E+03 0.266E+01 -.344E+04   -.120E+03 -.247E+01 0.344E+04   0.127E+01 -.180E+00 0.290E+00   0.406E+00 -.980E-03 -.415E+00
   -.620E+02 0.101E+03 -.344E+04   0.627E+02 -.103E+03 0.344E+04   -.495E+00 0.110E+01 0.264E+00   -.193E+00 0.425E+00 -.443E+00
   0.620E+02 0.101E+03 -.344E+04   -.627E+02 -.103E+03 0.344E+04   0.495E+00 0.110E+01 0.264E+00   0.217E+00 0.425E+00 -.441E+00
   -.140E-03 -.408E+00 -.344E+04   0.246E-03 0.418E+00 0.344E+04   0.291E-08 -.437E-01 0.249E+01   -.136E-01 0.505E-01 -.339E+00
   -.398E-04 0.586E-01 -.154E+04   0.604E-04 -.870E-01 0.153E+04   0.364E-08 -.546E-01 0.152E+01   -.461E-03 0.186E-02 -.202E+00
   0.146E+02 0.375E-01 -.340E+03   -.184E+02 -.287E-01 0.341E+03   0.379E+01 -.227E-02 -.997E+00   -.194E-01 0.582E-04 0.612E-01
   -.146E+02 0.375E-01 -.340E+03   0.184E+02 -.287E-01 0.341E+03   -.379E+01 -.227E-02 -.997E+00   0.194E-01 0.606E-04 0.612E-01
   -.244E-03 -.839E-01 0.283E+02   0.391E-13 0.346E-12 0.267E-11   -.284E-08 0.427E-01 -.151E+02   0.654E-01 0.444E-01 -.133E+02

 POSITION                                       TOTAL-FORCE (eV/Angst)
      0.00000      0.00000      5.37156         0.000000     -0.005251     -0.037369
      2.56560      0.00000      5.37156         0.010313      0.014480      0.050943
      5.13119      0.00000      5.37156        -0.010313      0.014480      0.050943
      1.28280      2.22187      5.37156         0.031449      0.001392      0.043475
      3.84839      2.22187      5.37156         0.000000     -0.005486      0.043145
      6.41399      2.22187      5.37156        -0.031449      0.001392      0.043475
      2.56560      4.44374      5.37156        -0.000250     -0.017075      0.049450
      5.13119      4.44374      5.37156         0.000250     -0.017075      0.049450
      7.69679      4.44374      5.37156        -0.000000      0.007045      0.017984
      1.28280      0.74062      7.46636        -0.025762     -0.014382     -0.090809
      3.84839      0.74062      7.46636         0.000000     -0.034384     -0.046418
      6.41399      0.74062      7.46636         0.025762     -0.014382     -0.090809
      2.56560      2.96249      7.46636        -0.033654      0.021396     -0.056024
      5.13119      2.96249      7.46636         0.033654      0.021396     -0.056024
      7.69679      2.96249      7.46636         0.000000     -0.012339     -0.015578
      3.84839      5.18437      7.46636        -0.000000      0.036325     -0.082955
      6.41399      5.18437      7.46636        -0.007266      0.000620     -0.002743
      8.97958      5.18437      7.46636         0.007266      0.000620     -0.002743
      7.69679      1.48082      9.55187        -0.000000      0.002148      0.069634
      2.55960      1.47778      9.55047        -0.067235     -0.022012     -0.120817
      5.13719      1.47778      9.55047         0.067235     -0.022012     -0.120817
      8.97653      3.70488      9.56926         0.009958     -0.014130      0.024869
      3.84839      3.71005      9.55047        -0.000000      0.099767     -0.116700
      6.41705      3.70488      9.56926        -0.009958     -0.014130      0.024869
     10.26275      5.92520      9.55187         0.002560      0.006864      0.029213
      5.13082      5.92520      9.55187        -0.002560      0.006864      0.029213
      7.69679      5.92146      9.56926        -0.000000      0.027294      0.021231
      0.00000      0.00000     11.65662         0.000000     -0.009050     -0.013691
      6.40243      6.64574     11.69071        -0.017393     -0.032721     -0.022595
      8.99114      6.64574     11.69071         0.017393     -0.032721     -0.022595
      8.95659      2.22180     11.69071         0.029108      0.011004      0.070394
      6.43698      2.22180     11.69071        -0.029108      0.011004      0.070394
     10.25095      4.46369     11.69071        -0.036051      0.017152     -0.039573
      5.14262      4.46369     11.69071         0.036051      0.017152     -0.039573
      7.69679      4.44374     11.67656        -0.000000      0.017023     -0.006575
      3.84839      2.22187     11.69355         0.000000     -0.081282      0.376889
      3.43076      2.22713     13.64886        -0.029349      0.006506     -0.040582
      4.26602      2.22713     13.64886         0.029349      0.006506     -0.040582
    total drift:                                0.065170      0.003141     -0.031949

  FREE ENERGIE OF THE ION-ELECTRON SYSTEM (eV)
  free  energy   TOTEN  =      -139.68793741 eV

  energy  without entropy=     -139.68793741  energy(sigma->0) =     -139.68793741

 stress matrix after NEB project (eV)
     -8.11470      0.00000      0.00000
      0.00000     -8.06098     -0.11697
      0.00000     -0.11697     -2.46342
  FORCES: max atom, RMS     0.050503    0.011586
  FORCE total and by dimension    0.071423    0.040582
  Stress total and by dimension   11.701428    8.114697
|           W    W    AA    RRRRR   N    N  II  N    N   GGGG   !!!           |
|           W    W   A  A   R    R  NN   N  II  NN   N  G    G  !!!           |
|           W    W  A    A  R    R  N N  N  II  N N  N  G       !!!           |
|           W WW W  AAAAAA  RRRRR   N  N N  II  N  N N  G  GGG   !            |
|           WW  WW  A    A  R   R   N   NN  II  N   NN  G    G                |
|           W    W  A    A  R    R  N    N  II  N    N   GGGG   !!!           |
|     Tetrahedron method does not include variations of the Fermi             |
|     occupations, so forces and stress will be inaccurate. We suggest        |
|     using a different smearing scheme ISMEAR = 1 or 2 for metals in         |
|     relaxations.                                                            |

 total charge

# of ion       s       p       d       tot
    1        0.450   0.281   9.189   9.920
    2        0.446   0.286   9.185   9.918
    3        0.446   0.286   9.185   9.918
    4        0.445   0.285   9.187   9.918
    5        0.451   0.286   9.180   9.917
    6        0.445   0.285   9.187   9.918
    7        0.446   0.286   9.185   9.917
    8        0.446   0.286   9.185   9.917
    9        0.448   0.282   9.189   9.919
   10        0.444   0.371   9.174   9.989
   11        0.443   0.364   9.182   9.989
   12        0.444   0.371   9.174   9.989
   13        0.443   0.364   9.183   9.989
   14        0.443   0.364   9.183   9.989
   15        0.439   0.370   9.174   9.983
   16        0.443   0.371   9.174   9.988
   17        0.438   0.369   9.175   9.983
   18        0.438   0.369   9.175   9.983
   19        0.441   0.370   9.177   9.988
   20        0.469   0.400   9.154  10.023
   21        0.469   0.400   9.154  10.023
   22        0.429   0.371   9.179   9.979
   23        0.470   0.397   9.157  10.024
   24        0.429   0.371   9.179   9.979
   25        0.442   0.368   9.177   9.987
   26        0.442   0.368   9.177   9.987
   27        0.430   0.369   9.182   9.981
   28        0.443   0.294   9.181   9.918
   29        0.483   0.319   9.157   9.959
   30        0.483   0.319   9.157   9.959
   31        0.479   0.320   9.159   9.958
   32        0.479   0.320   9.159   9.958
   33        0.482   0.319   9.158   9.959
   34        0.482   0.319   9.158   9.959
   35        0.439   0.296   9.181   9.917
   36        0.703   0.678   3.244   4.625
   37        0.559   0.029   0.000   0.588
   38        0.559   0.029   0.000   0.588
tot         17.612  12.529 324.359 354.500

 BZINTS: Fermi energy:    0.203309;  392.000000 electrons
         Band energy:-0.105945E+04;  BLOECHL correction:   -0.026200