 vasp.6.2.0 18Jan21 (build Jun 12 2021 23:27:24) complex

 executed on             LinuxIFC date 2022.05.26  19:34:22

 INCAR:
   ISMEAR = -5
   SIGMA = 0.1
   ISPIN = 1
   EDIFF = 1.d-5
   EDIFFG = -0.01
   NSW = 0
   NELM = 150
   ENCUT = 500
   ISIF = 2
   IBRION = 2
   LREAL = Auto
   ALGO = Fast
   ICHARG = 11
   LORBIT = 10
   LCHARG = .F.
   LWAVE = .F.

 POTCAR:    PAW_PBE Au 04Oct2007
 POTCAR:    PAW_PBE Os 17Jan2003
 POTCAR:    PAW_PBE N 08Apr2002
|           W    W    AA    RRRRR   N    N  II  N    N   GGGG   !!!           |
|           W    W   A  A   R    R  NN   N  II  NN   N  G    G  !!!           |
|           W    W  A    A  R    R  N N  N  II  N N  N  G       !!!           |
|           W WW W  AAAAAA  RRRRR   N  N N  II  N  N N  G  GGG   !            |
|           WW  WW  A    A  R   R   N   NN  II  N   NN  G    G                |
|           W    W  A    A  R    R  N    N  II  N    N   GGGG   !!!           |
|     For optimal performance we recommend to set                             |
|       NCORE = 2 up to number-of-cores-per-socket                            |
|     This setting can greatly improve the performance of VASP for DFT.       |
|     The default, NCORE=1 might be grossly inefficient on modern             |
|     multi-core architectures or massively parallel machines. Do your        |
|     Unfortunately you need to use the default for GW and RPA                |
|     calculations (for HF NCORE is supported but not extensively tested      |
|     yet).                                                                   |

 POTCAR:    PAW_PBE Au 04Oct2007
   VRHFIN =Au: s1d10

   TITEL  = PAW_PBE Au 04Oct2007
   POMASS =  196.966; ZVAL   =   11.000    mass and valenz
   ENMAX  =  229.943; ENMIN  =  172.457 eV

 POTCAR:    PAW_PBE Os 17Jan2003
   VRHFIN =Os: 6s5d

   TITEL  = PAW_PBE Os 17Jan2003
   POMASS =  190.200; ZVAL   =    8.000    mass and valenz
   ENMAX  =  228.022; ENMIN  =  171.017 eV

 POTCAR:    PAW_PBE N 08Apr2002
   VRHFIN =N: s2p3

   TITEL  = PAW_PBE N 08Apr2002
   POMASS =   14.001; ZVAL   =    5.000    mass and valenz
   ENMAX  =  400.000; ENMIN  =  300.000 eV

 Optimization of the real space projectors (new method)

 maximal supplied QI-value         = 15.12
 optimisation between [QCUT,QGAM] = [ 11.34, 22.83] = [ 36.00,145.93] Ry
 Optimized for a Real-space Cutoff    1.39 Angstroem

   l    n(q)    QCUT    max X(q) W(low)/X(q) W(high)/X(q)  e(spline)
   2      9    11.338    60.898    0.39E-03    0.42E-03    0.21E-06
   2      9    11.338    58.894    0.40E-03    0.42E-03    0.22E-06
   0      9    11.338   109.617    0.13E-03    0.20E-04    0.13E-06
   0      9    11.338    75.026    0.13E-03    0.20E-04    0.13E-06
   1      9    11.338    16.344    0.33E-04    0.24E-03    0.18E-06
   1      9    11.338    10.160    0.26E-04    0.19E-03    0.15E-06
 Optimization of the real space projectors (new method)

[...]

   l    n(q)    QCUT    max X(q) W(low)/X(q) W(high)/X(q)  e(spline)
   2     10    11.327   152.873    0.32E-03    0.72E-03    0.11E-05
   2     10    11.327   151.010    0.32E-03    0.72E-03    0.11E-05
   0     11    11.327    72.114    0.43E-04    0.61E-04    0.13E-06
   0     11    11.327    44.596    0.40E-04    0.57E-04    0.12E-06
   1     10    11.327    13.742    0.16E-03    0.10E-03    0.19E-06
   1     10    11.327     8.461    0.12E-03    0.78E-04    0.15E-06
 Optimization of the real space projectors (new method)

 maximal supplied QI-value         = 25.13
 optimisation between [QCUT,QGAM] = [ 11.31, 22.87] = [ 35.82,146.48] Ry
 Optimized for a Real-space Cutoff    1.27 Angstroem

   l    n(q)    QCUT    max X(q) W(low)/X(q) W(high)/X(q)  e(spline)
   0      9    11.310    79.467    0.75E-04    0.16E-03    0.36E-06
   0      9    11.310    66.151    0.74E-04    0.16E-03    0.36E-06
   1      8    11.310    17.416    0.35E-03    0.12E-03    0.95E-06
   1      8    11.310    12.382    0.37E-03    0.13E-03    0.98E-06
  PAW_PBE Au 04Oct2007                  :
  PAW_PBE Os 17Jan2003                  :
  PAW_PBE N 08Apr2002                   :

 POSCAR: Au-Os-N
  positions in direct lattice
  velocities in cartesian coordinates
 exchange correlation table for  LEXCH =        8
   RHO(1)=    0.500       N(1)  =     2000
   RHO(2)=  100.500       N(2)  =     4000

 VTST: version 3.2, (02/03/18)

 CHAIN: initializing optimizer

 OPT: Using VASP Conjugate-Gradient optimizer
 CHAIN: Read ICHAIN            0

 POSCAR: Au-Os-N
  positions in direct lattice
  velocities in cartesian coordinates

 ion  position               nearest neighbor table
   1  0.000  0.000  0.238-  16 2.94  12 2.94   6 2.94   8 2.94   7 2.94   3 2.94  10 2.94   4 2.94
                             2 2.94
   2  0.333  0.000  0.238-   9 2.94  11 2.94  17 2.94  10 2.94   8 2.94   4 2.94   5 2.94   1 2.94
                             3 2.94
   3  0.667  0.000  0.238-   7 2.94  18 2.94  12 2.94   1 2.94  11 2.94   5 2.94   6 2.94   9 2.94
                             2 2.94
   4  0.000  0.333  0.238-  10 2.94   6 2.94   5 2.94  13 2.94   2 2.94  15 2.94   9 2.94   1 2.94
                             7 2.94
   5  0.333  0.333  0.238-  13 2.94   7 2.94  11 2.94   4 2.94   2 2.94  14 2.94   3 2.94   8 2.94
                             6 2.94
   6  0.667  0.333  0.238-  15 2.94  14 2.94   1 2.94  12 2.94   4 2.94   9 2.94   8 2.94   3 2.94
                             5 2.94
   7  0.000  0.667  0.238-  18 2.94   3 2.94  16 2.94   5 2.94   1 2.94  13 2.94   8 2.94   4 2.94
                             9 2.94
   8  0.333  0.667  0.238-   9 2.94  17 2.94   1 2.94   2 2.94  14 2.94  16 2.94   6 2.94   7 2.94
                             5 2.94
   9  0.667  0.667  0.238-   2 2.94   8 2.94  17 2.94   6 2.94  15 2.94   4 2.94   3 2.94  18 2.94
                             7 2.94
  10  0.111  0.111  0.346-  20 2.90  11 2.94  17 2.94   2 2.94   4 2.94   1 2.94  12 2.94  16 2.94
                            13 2.94  15 2.94  26 2.95  19 2.95
  11  0.444  0.111  0.346-  20 2.91  21 2.91  27 2.94  13 2.94   2 2.94  10 2.94  17 2.94   5 2.94
                             3 2.94  18 2.94  14 2.94  12 2.94
  12  0.778  0.111  0.346-  21 2.90  16 2.94  18 2.94   1 2.94  14 2.94  15 2.94   3 2.94   6 2.94
                            10 2.94  11 2.94  25 2.95  19 2.95
  13  0.111  0.444  0.346-  23 2.91  20 2.91  22 2.94   5 2.94  18 2.94  11 2.94   7 2.94   4 2.94
                            16 2.94  10 2.94  14 2.94  15 2.94
  14  0.444  0.444  0.346-  21 2.91  23 2.91  24 2.94  15 2.94   6 2.94  12 2.94   8 2.94  17 2.94
                             5 2.94  16 2.94  13 2.94  11 2.94
  15  0.778  0.444  0.346-  24 2.92  22 2.92  14 2.94   6 2.94  17 2.94  12 2.94   9 2.94   4 2.94
                            10 2.94  13 2.94  18 2.94  19 2.95
  16  0.111  0.778  0.346-  23 2.90  18 2.94  12 2.94   7 2.94   1 2.94   8 2.94  13 2.94  10 2.94
                            14 2.94  17 2.94  25 2.95  26 2.95
  17  0.444  0.778  0.346-  27 2.92  24 2.92   9 2.94  15 2.94   2 2.94  10 2.94  11 2.94   8 2.94
                            14 2.94  16 2.94  18 2.94  26 2.95
  18  0.778  0.778  0.346-  22 2.92  27 2.92  16 2.94   7 2.94  13 2.94  12 2.94   3 2.94  11 2.94
                             9 2.94  15 2.94  17 2.94  25 2.95
  19  0.888  0.223  0.455-  24 2.93  22 2.93  21 2.93  20 2.93  28 2.95  15 2.95  26 2.95  25 2.95
                            10 2.95  12 2.95  32 2.98  31 2.98
  20  0.222  0.222  0.452-  36 2.77  10 2.90  11 2.91  13 2.91  26 2.93  19 2.93  23 2.95  21 2.95
                            27 2.96  22 2.96  29 2.96  31 2.96
  21  0.556  0.222  0.452-  36 2.77  12 2.90  14 2.91  11 2.91  25 2.93  19 2.93  20 2.95  23 2.95
                            27 2.96  24 2.96  30 2.96  32 2.96
  22  0.886  0.557  0.453-  24 2.90  27 2.90  18 2.92  15 2.92  25 2.93  19 2.93  13 2.94  35 2.95
                            23 2.96  20 2.96  33 2.98  31 2.98
  23  0.222  0.556  0.452-  36 2.77  16 2.90  13 2.91  14 2.91  25 2.93  26 2.93  20 2.95  21 2.95
                            22 2.96  24 2.96  33 2.96  34 2.96
  24  0.557  0.557  0.453-  27 2.90  22 2.90  15 2.92  17 2.92  26 2.93  19 2.93  14 2.94  35 2.95
                            21 2.96  23 2.96  32 2.98  34 2.98
  25  0.888  0.888  0.455-  22 2.93  27 2.93  23 2.93  21 2.93  28 2.95  18 2.95  19 2.95  26 2.95
                            16 2.95  12 2.95  33 2.98  30 2.98
  26  0.223  0.888  0.455-  27 2.93  24 2.93  20 2.93  23 2.93  28 2.95  17 2.95  19 2.95  25 2.95
                            10 2.95  16 2.95  29 2.98  34 2.98
  27  0.557  0.886  0.453-  24 2.90  22 2.90  17 2.92  18 2.92  26 2.93  25 2.93  11 2.94  35 2.95
                            20 2.96  21 2.96  29 2.98  30 2.98
  28  0.000  0.000  0.563-  25 2.95  19 2.95  26 2.95  34 2.98  32 2.98  33 2.98  30 2.98  31 2.98
                            29 2.98
  29  0.333  0.009  0.563-  31 2.86  30 2.86  36 2.88  20 2.96  28 2.98  35 2.98  27 2.98  26 2.98
                            34 3.09
  30  0.658  0.009  0.563-  32 2.86  29 2.86  36 2.88  21 2.96  28 2.98  35 2.98  27 2.98  25 2.98
                            33 3.09
  31  0.009  0.333  0.563-  29 2.86  33 2.86  36 2.88  20 2.96  28 2.98  35 2.98  22 2.98  19 2.98
                            32 3.09
  32  0.658  0.333  0.563-  30 2.86  34 2.86  36 2.88  21 2.96  28 2.98  35 2.98  24 2.98  19 2.98
                            31 3.09
  33  0.009  0.658  0.563-  34 2.86  31 2.86  36 2.88  23 2.96  28 2.98  35 2.98  22 2.98  25 2.98
                            30 3.09
  34  0.333  0.658  0.563-  33 2.86  32 2.86  36 2.88  23 2.96  28 2.98  35 2.98  24 2.98  26 2.98
                            29 3.09
  35  0.667  0.667  0.563-  24 2.95  27 2.95  22 2.95  29 2.98  34 2.98  32 2.98  31 2.98  30 2.98
                            33 2.98
  36  0.333  0.333  0.550-  37 1.69  20 2.77  23 2.77  21 2.77  33 2.88  31 2.88  29 2.88  30 2.88
                            34 2.88  32 2.88
  37  0.333  0.333  0.626-  36 1.69

  LATTYP: Found a hexagonal cell.
 ALAT       =     8.8135128021
 C/A-ratio  =     2.5184286595

  Lattice vectors:

 A1 = (  -4.4067569092,  -7.6327256898,   0.0000000000)
 A2 = (   8.8135128021,   0.0000000000,   0.0000000000)
 A3 = (   0.0000000000,   0.0000000000,  22.1962032318)

Analysis of symmetry for initial positions (statically):
 Subroutine PRICEL returns:
 Original cell was already a primitive cell.

 Routine SETGRP: Setting up the symmetry group for a
 hexagonal supercell.

 Subroutine GETGRP returns: Found  6 space group operations
 (whereof  6 operations were pure point group operations)
 out of a pool of 24 trial point group operations.

The static configuration has the point symmetry C_3v.

Analysis of symmetry for dynamics (positions and initial velocities):
 Subroutine PRICEL returns:
 Original cell was already a primitive cell.

[...]

The dynamic configuration has the point symmetry C_3v.

Analysis of constrained symmetry for selective dynamics:
 Subroutine PRICEL returns:
 Original cell was already a primitive cell.

 Routine SETGRP: Setting up the symmetry group for a
 hexagonal supercell.

 Subroutine GETGRP returns: Found  6 space group operations
[...]
     24      -5.0773      2.00000
     25      -5.0553      2.00000
     26      -5.0429      2.00000
     27      -4.9944      2.00000
     28      -4.9237      2.00000
     29      -4.9181      2.00000
     30      -4.8210      2.00000
     31      -4.8078      2.00000
     32      -4.7777      2.00000
     33      -4.7575      2.00000
     34      -4.7388      2.00000
     35      -4.7116      2.00000
     36      -4.6583      2.00000
     37      -4.6342      2.00000
     38      -4.5895      2.00000
     39      -4.5672      2.00000
     40      -4.5290      2.00000
     41      -4.5030      2.00000
     42      -4.4586      2.00000
     43      -4.3894      2.00000
     44      -4.3647      2.00000
     45      -4.2913      2.00000
     46      -4.2629      2.00000
     47      -4.1981      2.00000
     48      -4.1836      2.00000
     49      -4.1585      2.00000
     50      -4.1283      2.00000
     51      -4.1219      2.00000
     52      -4.1189      2.00000
     53      -4.0863      2.00000
     54      -4.0770      2.00000
     55      -4.0488      2.00000
     56      -3.9887      2.00000
     57      -3.9806      2.00000
     58      -3.9702      2.00000
     59      -3.9459      2.00000
     60      -3.9417      2.00000
[...]
    238       6.5325      0.00000
    239       6.5444      0.00000
    240       6.5858      0.00000
    241       6.7796      0.00000
    242       6.7966      0.00000
    243       6.8368      0.00000
    244       6.8858      0.00000
    245       6.9432      0.00000
    246       7.2141      0.00000
    247       7.2441      0.00000
    248       7.3538      0.00000
    249       7.6237      0.00000
    250       7.6735      0.00000
    251       7.8182      0.00000
    252       7.8475      0.00000

 soft charge-density along one line, spin component           1
         0         1         2         3         4         5         6         7         8         9
 total charge-density along one line

------------------------ aborting loop because EDIFF is reached ----------------------------------------

 total charge

# of ion       s       p       d       tot
    1        0.548   0.239   8.766   9.553
    2        0.543   0.241   8.765   9.548
    3        0.543   0.241   8.765   9.548
    4        0.543   0.241   8.765   9.548
    5        0.545   0.240   8.763   9.549
    6        0.543   0.241   8.765   9.548
    7        0.543   0.241   8.765   9.548
    8        0.543   0.241   8.765   9.548
    9        0.542   0.241   8.766   9.548
   10        0.521   0.307   8.771   9.600
   11        0.518   0.311   8.776   9.605
   12        0.521   0.307   8.771   9.600
   13        0.518   0.311   8.776   9.605
   14        0.518   0.311   8.776   9.605
   15        0.515   0.309   8.772   9.596
   16        0.521   0.307   8.771   9.600
   17        0.515   0.309   8.772   9.596
   18        0.515   0.309   8.772   9.596
   19        0.518   0.298   8.777   9.593
   20        0.553   0.338   8.746   9.637
   21        0.553   0.338   8.746   9.637
   22        0.509   0.310   8.774   9.593
   23        0.553   0.338   8.746   9.637
   24        0.509   0.310   8.774   9.593
   25        0.518   0.298   8.777   9.593
   26        0.518   0.298   8.777   9.593
   27        0.509   0.310   8.774   9.593
   28        0.542   0.225   8.769   9.536
   29        0.540   0.247   8.766   9.553
   30        0.540   0.247   8.766   9.553
   31        0.540   0.247   8.766   9.553
   32        0.540   0.247   8.766   9.553
   33        0.540   0.247   8.766   9.553
   34        0.540   0.247   8.766   9.553
   35        0.537   0.224   8.772   9.533
   36        0.653   0.658   6.128   7.438
   37        1.358   2.199   0.000   3.557
tot         20.620  12.578 312.997 346.195

  FORCE on cell =-STRESS in cart. coord.  units (eV):
  Direction    XX          YY          ZZ          XY          YZ          ZX
  Alpha Z  1029.68148  1029.68148  1029.68148
  Ewald  119176.69522119176.69564************    -0.00032    -0.00009    -0.00013
  Hartree127858.28454127858.28455************     0.00001    -0.00002    -0.00004
  E(xc)   -1785.42984 -1785.42983 -1792.36377    -0.00001     0.00000     0.00000
  Local  ************************259567.09985     0.00192     0.00002     0.00002
  n-local  -111.57250   -62.81657   -58.11546    24.55040    -1.45523     1.53403
  augment  2385.61408  2385.61560  2395.13627    -0.00132    -0.00000     0.00005
  Kinetic  5561.47681  5571.19269  5584.72836     5.68088     0.19129     0.28683
  Fock        0.00000     0.00000     0.00000     0.00000     0.00000     0.00000
  Total     -17.61382   -17.61382     1.84651    -0.00000     0.00000     0.00000
  in kB     -18.89978   -18.89978     1.98132    -0.00000     0.00000     0.00000

 VOLUME and BASIS-vectors are now :
  energy-cutoff  :      500.00
  volume of cell :     1493.16
      direct lattice vectors                 reciprocal lattice vectors
     8.813512802  0.000000000  0.000000000     0.113462137 -0.065507406  0.000000000
     4.406756909  7.632725690  0.000000000     0.000000000  0.131014796  0.000000000
     0.000000000  0.000000000 22.196203232     0.000000000  0.000000000  0.045052750

  length of vectors
     8.813512802  8.813512802 22.196203232     0.131014796  0.131014796  0.045052750

 FORCES acting on ions
    electron-ion (+dipol)            ewald-force                    non-local-force                 convergence-correction
   -.196E-04 -.162E-04 0.248E+04   0.520E-04 0.434E-04 -.248E+04   -.366E-17 -.355E-18 -.654E+00   -.202E-03 -.131E-03 -.324E+00
   0.666E+00 0.305E+00 0.249E+04   -.771E+00 -.382E+00 -.249E+04   0.103E-01 0.630E-01 -.360E+00   0.957E-01 0.182E-01 -.340E+00
   -.666E+00 0.305E+00 0.249E+04   0.771E+00 -.382E+00 -.249E+04   -.103E-01 0.630E-01 -.360E+00   -.954E-01 0.202E-01 -.340E+00
   0.597E+00 0.424E+00 0.249E+04   -.716E+00 -.476E+00 -.249E+04   0.597E-01 -.226E-01 -.360E+00   0.637E-01 0.737E-01 -.340E+00
   0.868E-05 -.233E-04 0.249E+04   0.951E-04 0.175E-05 -.249E+04   -.622E-18 -.874E-18 -.284E+00   0.430E-02 0.262E-02 -.334E+00
   -.597E+00 0.424E+00 0.249E+04   0.716E+00 -.476E+00 -.249E+04   -.597E-01 -.226E-01 -.360E+00   -.653E-01 0.747E-01 -.339E+00
   -.691E-01 -.729E+00 0.249E+04   0.545E-01 0.858E+00 -.249E+04   0.495E-01 -.404E-01 -.360E+00   -.302E-01 -.928E-01 -.340E+00
   0.691E-01 -.729E+00 0.249E+04   -.546E-01 0.858E+00 -.249E+04   -.495E-01 -.404E-01 -.360E+00   0.321E-01 -.938E-01 -.339E+00
   0.195E-04 -.416E-04 0.249E+04   0.166E-03 -.201E-04 -.249E+04   0.176E-17 -.171E-17 -.457E+00   -.464E-02 -.240E-02 -.270E+00
   0.763E+01 0.441E+01 0.837E+03   -.747E+01 -.431E+01 -.836E+03   -.293E+00 -.169E+00 -.497E+00   0.886E-01 0.511E-01 -.113E+00
   0.142E-04 0.480E+01 0.845E+03   0.148E-03 -.485E+01 -.844E+03   0.384E-08 0.577E-01 -.331E+00   0.380E-02 -.658E-01 -.699E-01
   -.763E+01 0.441E+01 0.837E+03   0.747E+01 -.431E+01 -.836E+03   0.293E+00 -.169E+00 -.497E+00   -.899E-01 0.525E-01 -.113E+00
   0.416E+01 -.240E+01 0.845E+03   -.420E+01 0.243E+01 -.844E+03   0.500E-01 -.289E-01 -.331E+00   -.548E-01 0.365E-01 -.699E-01
   -.416E+01 -.240E+01 0.845E+03   0.420E+01 0.243E+01 -.844E+03   -.500E-01 -.289E-01 -.331E+00   0.627E-01 0.360E-01 -.700E-01
   0.309E-04 0.473E+01 0.840E+03   0.236E-03 -.489E+01 -.840E+03   -.880E-09 -.132E-01 -.416E+00   -.241E-02 0.119E+00 -.111E+00
   -.214E-04 -.881E+01 0.837E+03   0.163E-03 0.863E+01 -.836E+03   0.225E-07 0.338E+00 -.497E+00   0.297E-03 -.104E+00 -.113E+00
   0.409E+01 -.236E+01 0.840E+03   -.424E+01 0.245E+01 -.840E+03   -.114E-01 0.661E-02 -.416E+00   0.102E+00 -.610E-01 -.111E+00
   -.409E+01 -.236E+01 0.840E+03   0.424E+01 0.245E+01 -.840E+03   0.114E-01 0.661E-02 -.416E+00   -.102E+00 -.591E-01 -.111E+00
   -.423E-04 0.439E+01 -.847E+03   0.537E-04 -.457E+01 0.846E+03   -.356E-08 -.535E-01 0.571E+00   -.527E-03 0.174E+00 0.182E+00
   0.123E+02 0.708E+01 -.796E+03   -.116E+02 -.668E+01 0.796E+03   -.885E+00 -.511E+00 -.565E+00   0.106E+00 0.609E-01 0.251E+00
   -.123E+02 0.708E+01 -.796E+03   0.116E+02 -.668E+01 0.796E+03   0.885E+00 -.511E+00 -.565E+00   -.105E+00 0.628E-01 0.250E+00
   -.249E+01 0.144E+01 -.827E+03   0.211E+01 -.122E+01 0.826E+03   0.438E+00 -.253E+00 0.703E+00   0.119E-02 -.512E-02 0.119E+00
   -.116E-04 -.142E+02 -.796E+03   0.142E-03 0.134E+02 0.796E+03   0.680E-07 0.102E+01 -.565E+00   0.175E-02 -.122E+00 0.250E+00
   0.249E+01 0.144E+01 -.827E+03   -.211E+01 -.122E+01 0.826E+03   -.438E+00 -.253E+00 0.703E+00   -.813E-02 -.464E-02 0.119E+00
   -.380E+01 -.220E+01 -.847E+03   0.395E+01 0.228E+01 0.846E+03   0.463E-01 0.267E-01 0.571E+00   -.149E+00 -.860E-01 0.182E+00
   0.380E+01 -.220E+01 -.847E+03   -.395E+01 0.228E+01 0.846E+03   -.463E-01 0.267E-01 0.571E+00   0.151E+00 -.875E-01 0.182E+00
   0.104E-04 -.288E+01 -.827E+03   0.199E-03 0.243E+01 0.826E+03   0.337E-07 0.506E+00 0.703E+00   -.439E-02 0.355E-02 0.119E+00
   -.127E-04 -.124E-04 -.246E+04   0.291E-04 0.335E-04 0.246E+04   -.134E-17 0.868E-19 0.552E+00   0.124E-03 0.535E-04 0.347E+00
   0.251E+02 0.442E+02 -.245E+04   -.251E+02 -.443E+02 0.245E+04   -.424E+00 -.573E+00 0.510E+00   0.115E+00 0.668E-01 0.253E+00
   -.251E+02 0.442E+02 -.245E+04   0.251E+02 -.443E+02 0.245E+04   0.424E+00 -.573E+00 0.510E+00   -.115E+00 0.688E-01 0.254E+00
   0.509E+02 -.378E+00 -.245E+04   -.509E+02 0.430E+00 0.245E+04   -.708E+00 -.810E-01 0.510E+00   0.115E+00 0.662E-01 0.253E+00
   -.509E+02 -.378E+00 -.245E+04   0.509E+02 0.430E+00 0.245E+04   0.708E+00 -.810E-01 0.510E+00   -.117E+00 0.673E-01 0.253E+00
   0.258E+02 -.439E+02 -.245E+04   -.258E+02 0.438E+02 0.245E+04   -.284E+00 0.654E+00 0.510E+00   0.214E-02 -.134E+00 0.254E+00
   -.258E+02 -.439E+02 -.245E+04   0.258E+02 0.438E+02 0.245E+04   0.284E+00 0.654E+00 0.510E+00   -.549E-04 -.135E+00 0.253E+00
   0.320E-04 -.289E-04 -.246E+04   0.143E-03 -.491E-04 0.246E+04   0.133E-16 0.317E-17 0.666E+00   -.476E-02 -.245E-02 0.253E+00
   0.539E-06 -.122E-04 -.152E+04   0.835E-04 0.756E-05 0.152E+04   0.247E-17 -.256E-17 0.217E+01   0.183E-02 0.111E-02 0.123E+00
   0.108E-03 -.606E-04 -.138E+04   0.218E-04 0.136E-05 0.141E+04   -.617E-18 0.637E-18 -.252E+02   0.172E-02 0.105E-02 -.149E+00
   -.641E-03 -.822E-03 0.245E+02   -.801E-14 0.178E-12 -.455E-12   0.126E-15 -.332E-15 -.239E+02   0.824E-03 0.110E-02 -.983E-01

 POSITION                                       TOTAL-FORCE (eV/Angst)
      0.00000      0.00000      5.28038        -0.000000      0.000000     -0.118038
      2.93784      0.00000      5.28038         0.001675      0.004954     -0.042523
      5.87568      0.00000      5.28038        -0.001675      0.004954     -0.042523
      1.46892      2.54424      5.28038         0.005128     -0.001026     -0.042523
      4.40676      2.54424      5.28038        -0.000000      0.000000     -0.074266
      7.34459      2.54424      5.28038        -0.005128     -0.001026     -0.042523
      2.93784      5.08848      5.28038         0.003452     -0.003928     -0.042523
      5.87568      5.08848      5.28038        -0.003452     -0.003928     -0.042523
      8.81351      5.08848      5.28038        -0.000000      0.000000     -0.058583
      1.46892      0.84808      7.67911        -0.042956     -0.024800      0.124725
      4.40676      0.84808      7.67911        -0.000000     -0.059522      0.022543
      7.34459      0.84808      7.67911         0.042956     -0.024800      0.124725
      2.93784      3.39232      7.67911        -0.051547      0.029761      0.022543
      5.87568      3.39232      7.67911         0.051547      0.029761      0.022543
      8.81351      3.39232      7.67911        -0.000000     -0.061556      0.106043
      4.40676      5.93656      7.67911         0.000000      0.049601      0.124725
      7.34459      5.93656      7.67911        -0.053309      0.030778      0.106043
     10.28243      5.93656      7.67911         0.053309      0.030778      0.106043
      8.81351      1.70311     10.09495        -0.000000     -0.053668     -0.047679
      2.93286      1.69329     10.03570        -0.084938     -0.049039     -0.152690
      5.88065      1.69329     10.03570         0.084938     -0.049039     -0.152690
     10.26497      4.25049     10.06286         0.056766     -0.032774      0.006077
      4.40676      4.24615     10.03570         0.000000      0.098078     -0.152690
      7.36206      4.25049     10.06286        -0.056766     -0.032774      0.006077
     11.74534      6.78117     10.09495         0.046478      0.026834     -0.047679
      5.88169      6.78117     10.09495        -0.046478      0.026834     -0.047679
      8.81351      6.76448     10.06286         0.000000      0.065548      0.006077
      0.00000      0.00000     12.49897        -0.000000      0.000000     -0.040391
      2.97514      0.06495     12.50272        -0.259343     -0.523632     -0.246406
      5.83837      0.06495     12.50272         0.259343     -0.523632     -0.246406
      1.54382      2.54408     12.50272        -0.583150      0.037218     -0.246406
      7.26969      2.54408     12.50272         0.583150      0.037218     -0.246406
      2.97543      5.02370     12.50272        -0.323807      0.486413     -0.246406
      5.83808      5.02370     12.50272         0.323807      0.486413     -0.246406
      8.81351      5.08848     12.49601        -0.000000      0.000000      0.017839
      4.40676      2.54424     12.21487        -0.000000      0.000000      1.864782
      4.40676      2.54424     13.90062        -0.000000      0.000000     -0.034824
    total drift:                                0.000183      0.000283      0.527199

  FREE ENERGIE OF THE ION-ELECTRON SYSTEM (eV)
  free  energy   TOTEN  =      -123.40791422 eV

  energy  without entropy=     -123.40791422  energy(sigma->0) =     -123.40791422

 stress matrix after NEB project (eV)
    -17.61382     -0.00000      0.00000
     -0.00000    -17.61382      0.00000
      0.00000      0.00000      1.84651
  FORCES: max atom, RMS     0.034824    0.005725
  FORCE total and by dimension    0.034824    0.034824
  Stress total and by dimension   24.978049   17.613821
|           W    W    AA    RRRRR   N    N  II  N    N   GGGG   !!!           |
|           W    W   A  A   R    R  NN   N  II  NN   N  G    G  !!!           |
|           W    W  A    A  R    R  N N  N  II  N N  N  G       !!!           |
|           W WW W  AAAAAA  RRRRR   N  N N  II  N  N N  G  GGG   !            |
|           WW  WW  A    A  R   R   N   NN  II  N   NN  G    G                |
|           W    W  A    A  R    R  N    N  II  N    N   GGGG   !!!           |
|     Tetrahedron method does not include variations of the Fermi             |
|     occupations, so forces and stress will be inaccurate. We suggest        |
|     using a different smearing scheme ISMEAR = 1 or 2 for metals in         |
|     relaxations.                                                            |

 total charge

# of ion       s       p       d       tot
    1        0.548   0.239   8.766   9.553
    2        0.543   0.241   8.765   9.548
    3        0.543   0.241   8.765   9.548
    4        0.543   0.241   8.765   9.548
    5        0.545   0.240   8.763   9.549
    6        0.543   0.241   8.765   9.548
    7        0.543   0.241   8.765   9.548
    8        0.543   0.241   8.765   9.548
    9        0.542   0.241   8.766   9.548
   10        0.521   0.307   8.771   9.600
   11        0.518   0.311   8.776   9.605
   12        0.521   0.307   8.771   9.600
   13        0.518   0.311   8.776   9.605
   14        0.518   0.311   8.776   9.605
   15        0.515   0.309   8.772   9.596
   16        0.521   0.307   8.771   9.600
   17        0.515   0.309   8.772   9.596
   18        0.515   0.309   8.772   9.596
   19        0.518   0.298   8.777   9.593
   20        0.553   0.338   8.746   9.637
   21        0.553   0.338   8.746   9.637
   22        0.509   0.310   8.774   9.593
   23        0.553   0.338   8.746   9.637
   24        0.509   0.310   8.774   9.593
   25        0.518   0.298   8.777   9.593
   26        0.518   0.298   8.777   9.593
   27        0.509   0.310   8.774   9.593
   28        0.542   0.225   8.769   9.536
   29        0.540   0.247   8.766   9.553
   30        0.540   0.247   8.766   9.553
   31        0.540   0.247   8.766   9.553
   32        0.540   0.247   8.766   9.553
   33        0.540   0.247   8.766   9.553
   34        0.540   0.247   8.766   9.553
   35        0.537   0.224   8.772   9.533
   36        0.653   0.658   6.128   7.438
   37        1.358   2.199   0.000   3.557
tot         20.620  12.578 312.997 346.195

 BZINTS: Fermi energy:    0.704860;  398.000000 electrons
         Band energy:-0.122170E+04;  BLOECHL correction:   -0.089901