 vasp.6.2.0 18Jan21 (build Jun 12 2021 23:27:24) complex

 executed on             LinuxIFC date 2022.05.26  20:30:03

 INCAR:
   ISMEAR = -5
   SIGMA = 0.1
   ISPIN = 1
   EDIFF = 1.d-5
   EDIFFG = -0.01
   NSW = 0
   NELM = 150
   ENCUT = 500
   ISIF = 2
   IBRION = 2
   LREAL = Auto
   ALGO = Fast
   ICHARG = 11
   LORBIT = 10
   LCHARG = .F.
   LWAVE = .F.

 POTCAR:    PAW_PBE Cu 22Jun2005
 POTCAR:    PAW_PBE Pt 04Feb2005
|           W    W    AA    RRRRR   N    N  II  N    N   GGGG   !!!           |
|           W    W   A  A   R    R  NN   N  II  NN   N  G    G  !!!           |
|           W    W  A    A  R    R  N N  N  II  N N  N  G       !!!           |
|           W WW W  AAAAAA  RRRRR   N  N N  II  N  N N  G  GGG   !            |
|           WW  WW  A    A  R   R   N   NN  II  N   NN  G    G                |
|           W    W  A    A  R    R  N    N  II  N    N   GGGG   !!!           |
|     For optimal performance we recommend to set                             |
|       NCORE = 2 up to number-of-cores-per-socket                            |
|     This setting can greatly improve the performance of VASP for DFT.       |
|     The default, NCORE=1 might be grossly inefficient on modern             |
|     multi-core architectures or massively parallel machines. Do your        |
|     Unfortunately you need to use the default for GW and RPA                |
|     calculations (for HF NCORE is supported but not extensively tested      |
|     yet).                                                                   |

 POTCAR:    PAW_PBE Cu 22Jun2005
   VRHFIN =Cu: d10 p1

   TITEL  = PAW_PBE Cu 22Jun2005
   POMASS =   63.546; ZVAL   =   11.000    mass and valenz
   ENMAX  =  295.446; ENMIN  =  221.585 eV

 POTCAR:    PAW_PBE Pt 04Feb2005
   VRHFIN =Pt: s1d9

   TITEL  = PAW_PBE Pt 04Feb2005
   POMASS =  195.080; ZVAL   =   10.000    mass and valenz
   ENMAX  =  230.283; ENMIN  =  172.712 eV

 Optimization of the real space projectors (new method)

 maximal supplied QI-value         = 16.25
 optimisation between [QCUT,QGAM] = [ 11.38, 22.75] = [ 36.24,144.96] Ry
 Optimized for a Real-space Cutoff    1.52 Angstroem

   l    n(q)    QCUT    max X(q) W(low)/X(q) W(high)/X(q)  e(spline)
   2      9    11.376     4.610    0.21E-03    0.10E-03    0.26E-06
   2      9    11.376     8.522    0.33E-03    0.16E-03    0.37E-06
   0     10    11.376    51.609    0.62E-04    0.20E-04    0.13E-06
   0     10    11.376    27.747    0.54E-04    0.20E-04    0.13E-06
   1     10    11.376    20.408    0.13E-04    0.99E-04    0.19E-06
   1     10    11.376    13.425    0.12E-04    0.87E-04    0.17E-06
 Optimization of the real space projectors (new method)

 maximal supplied QI-value         = 14.36
 optimisation between [QCUT,QGAM] = [ 11.35, 22.84] = [ 36.05,146.02] Ry
 Optimized for a Real-space Cutoff    1.47 Angstroem

   l    n(q)    QCUT    max X(q) W(low)/X(q) W(high)/X(q)  e(spline)
   2      9    11.346    66.195    0.31E-03    0.12E-04    0.29E-06
   2      9    11.346    64.643    0.32E-03    0.12E-04    0.29E-06
   0     10    11.346    95.520    0.90E-04    0.16E-04    0.19E-06
   0     10    11.346    63.403    0.87E-04    0.15E-04    0.19E-06
   1     10    11.346    19.961    0.17E-03    0.21E-03    0.11E-06
   1     10    11.346    13.289    0.14E-03    0.18E-03    0.89E-07
  PAW_PBE Cu 22Jun2005                  :
  PAW_PBE Pt 04Feb2005                  :

 POSCAR: Cu-Pt
  positions in direct lattice
  velocities in cartesian coordinates
 exchange correlation table for  LEXCH =        8
   RHO(1)=    0.500       N(1)  =     2000
   RHO(2)=  100.500       N(2)  =     4000

 VTST: version 3.2, (02/03/18)

 CHAIN: initializing optimizer

 OPT: Using VASP Conjugate-Gradient optimizer
 CHAIN: Read ICHAIN            0

 POSCAR: Cu-Pt
  positions in direct lattice
  velocities in cartesian coordinates

 ion  position               nearest neighbor table
   1  0.000  0.000  0.252-   7 2.57   3 2.57   4 2.57   2 2.57   6 2.57   8 2.57  12 2.57  10 2.57
                            16 2.57
   2  0.333  0.000  0.252-   8 2.57   9 2.57   5 2.57   1 2.57   3 2.57  11 2.57   4 2.57  10 2.57
                            17 2.57
   3  0.667  0.000  0.252-   1 2.57   7 2.57   6 2.57   9 2.57   2 2.57  12 2.57   5 2.57  18 2.57
                            11 2.57
   4  0.000  0.333  0.252-   5 2.57   6 2.57   1 2.57   7 2.57   2 2.57  13 2.57   9 2.57  10 2.57
                            15 2.57
   5  0.333  0.333  0.252-   4 2.57   2 2.57   7 2.57  13 2.57   8 2.57   6 2.57   3 2.57  11 2.57
                            14 2.57
   6  0.667  0.333  0.252-   4 2.57   9 2.57  15 2.57   3 2.57   1 2.57   8 2.57  14 2.57   5 2.57
                            12 2.57
   7  0.000  0.667  0.252-   1 2.57   3 2.57  16 2.57  18 2.57   4 2.57   5 2.57   8 2.57   9 2.57
                            13 2.57
   8  0.333  0.667  0.252-   9 2.57   2 2.57  17 2.57   6 2.57   1 2.57   7 2.57   5 2.57  14 2.57
                            16 2.57
   9  0.667  0.667  0.252-   8 2.57   6 2.57   2 2.57  17 2.57   3 2.57   7 2.57   4 2.57  15 2.57
                            18 2.57
  10  0.111  0.111  0.351-  20 2.53  26 2.56  19 2.56  11 2.57  12 2.57  13 2.57   1 2.57   2 2.57
                             4 2.57  15 2.57  16 2.57  17 2.57
  11  0.444  0.111  0.351-  20 2.55  21 2.55  27 2.56  10 2.57  13 2.57   2 2.57  17 2.57  14 2.57
                            12 2.57   5 2.57   3 2.57  18 2.57
  12  0.778  0.111  0.351-  21 2.53  19 2.56  25 2.56  15 2.57  10 2.57  14 2.57  18 2.57   3 2.57
                             1 2.57  16 2.57  11 2.57   6 2.57
  13  0.111  0.444  0.351-  23 2.55  20 2.55  22 2.56  16 2.57  18 2.57  10 2.57  11 2.57  14 2.57
                             5 2.57   4 2.57   7 2.57  15 2.57
  14  0.444  0.444  0.351-  21 2.55  23 2.55  24 2.56  15 2.57  17 2.57  12 2.57  16 2.57  13 2.57
                            11 2.57   6 2.57   8 2.57   5 2.57
  15  0.778  0.444  0.351-  19 2.56  24 2.56  22 2.56  14 2.57  17 2.57  12 2.57   6 2.57  18 2.57
                            10 2.57   9 2.57  13 2.57   4 2.57
  16  0.111  0.778  0.351-  23 2.53  25 2.56  26 2.56  18 2.57  13 2.57   7 2.57  14 2.57  17 2.57
                            12 2.57  10 2.57   8 2.57   1 2.57
  17  0.444  0.778  0.351-  26 2.56  27 2.56  24 2.56  14 2.57  15 2.57   8 2.57   9 2.57  11 2.57
                            16 2.57  18 2.57  10 2.57   2 2.57
  18  0.778  0.778  0.351-  25 2.56  22 2.56  27 2.56  16 2.57  13 2.57   7 2.57  15 2.57  12 2.57
                            17 2.57   9 2.57   3 2.57  11 2.57
  19  0.888  0.223  0.449-  28 2.54  32 2.55  31 2.55  21 2.55  20 2.55  15 2.56  12 2.56  10 2.56
                            22 2.56  24 2.56  25 2.58  26 2.58
  20  0.221  0.221  0.448-  10 2.53  11 2.55  13 2.55  26 2.55  19 2.55  27 2.57  22 2.57  29 2.59
                            31 2.59  36 2.60  23 2.60  21 2.60
  21  0.558  0.221  0.448-  12 2.53  14 2.55  11 2.55  19 2.55  25 2.55  24 2.57  27 2.57  32 2.59
                            30 2.59  36 2.60  20 2.60  23 2.60
  22  0.889  0.556  0.449-  35 2.54  18 2.56  15 2.56  13 2.56  19 2.56  25 2.56  24 2.56  27 2.56
                            31 2.57  33 2.57  23 2.57  20 2.57
  23  0.221  0.558  0.448-  16 2.53  13 2.55  14 2.55  25 2.55  26 2.55  22 2.57  24 2.57  33 2.59
                            34 2.59  36 2.60  20 2.60  21 2.60
  24  0.556  0.556  0.449-  35 2.54  15 2.56  17 2.56  14 2.56  19 2.56  26 2.56  22 2.56  27 2.56
                            32 2.57  34 2.57  21 2.57  23 2.57
  25  0.888  0.888  0.449-  28 2.54  33 2.55  30 2.55  21 2.55  23 2.55  18 2.56  16 2.56  12 2.56
                            22 2.56  27 2.56  19 2.58  26 2.58
  26  0.223  0.888  0.449-  28 2.54  29 2.55  34 2.55  20 2.55  23 2.55  17 2.56  10 2.56  16 2.56
                            27 2.56  24 2.56  25 2.58  19 2.58
  27  0.556  0.889  0.449-  35 2.54  17 2.56  18 2.56  11 2.56  26 2.56  25 2.56  24 2.56  22 2.56
                            29 2.57  30 2.57  20 2.57  21 2.57
  28  0.000  0.000  0.546-  25 2.54  19 2.54  26 2.54  33 2.55  30 2.55  31 2.55  29 2.55  32 2.55
                            34 2.55
  29  0.333  0.997  0.547-  34 2.52  26 2.55  28 2.55  35 2.56  27 2.57  31 2.59  20 2.59  36 2.59
                            30 2.59
  30  0.670  0.997  0.547-  33 2.52  25 2.55  28 2.55  35 2.56  27 2.57  32 2.59  21 2.59  36 2.59
                            29 2.59
  31  0.997  0.333  0.547-  32 2.52  19 2.55  28 2.55  35 2.56  22 2.57  29 2.59  20 2.59  36 2.59
                            33 2.59
  32  0.670  0.333  0.547-  31 2.52  19 2.55  28 2.55  35 2.56  24 2.57  30 2.59  21 2.59  36 2.59
                            34 2.59
  33  0.997  0.670  0.547-  30 2.52  25 2.55  28 2.55  35 2.56  22 2.57  34 2.59  23 2.59  36 2.59
                            31 2.59
  34  0.333  0.670  0.547-  29 2.52  26 2.55  28 2.55  35 2.56  24 2.57  33 2.59  23 2.59  36 2.59
                            32 2.59
  35  0.667  0.667  0.546-  24 2.54  27 2.54  22 2.54  34 2.56  32 2.56  29 2.56  30 2.56  33 2.56
                            31 2.56
  36  0.333  0.333  0.547-  31 2.59  29 2.59  33 2.59  34 2.59  32 2.59  30 2.59  23 2.60  20 2.60
                            21 2.60

  LATTYP: Found a hexagonal cell.
 ALAT       =     7.6967864036
 C/A-ratio  =     2.7653617908

  Lattice vectors:

 A1 = (  -3.8483927580,  -6.6656128093,   0.0000000000)
 A2 = (   7.6967864037,   0.0000000000,   0.0000000000)
 A3 = (   0.0000000000,   0.0000000000,  21.2843990326)

Analysis of symmetry for initial positions (statically):
 Subroutine PRICEL returns:
 Original cell was already a primitive cell.

 Routine SETGRP: Setting up the symmetry group for a
 hexagonal supercell.

 Subroutine GETGRP returns: Found  6 space group operations
 (whereof  6 operations were pure point group operations)
 out of a pool of 24 trial point group operations.

The static configuration has the point symmetry C_3v.

Analysis of symmetry for dynamics (positions and initial velocities):
 Subroutine PRICEL returns:
 Original cell was already a primitive cell.

[...]

The dynamic configuration has the point symmetry C_3v.

Analysis of constrained symmetry for selective dynamics:
 Subroutine PRICEL returns:
 Original cell was already a primitive cell.

 Routine SETGRP: Setting up the symmetry group for a
 hexagonal supercell.

 Subroutine GETGRP returns: Found  6 space group operations
 (whereof  6 operations were pure point group operations)
 out of a pool of 24 trial point group operations.

The constrained configuration has the point symmetry C_3v.

 Subroutine INISYM returns: Found  6 space group operations
 (whereof  6 operations are pure point group operations),
 and found     1 'primitive' translations

                                     Primitive cell

  volume of cell :    1091.9705

  direct lattice vectors                    reciprocal lattice vectors
     7.696786404  0.000000000  0.000000000     0.129924354 -0.075011849  0.000000000
     3.848392758  6.665612809  0.000000000     0.000000000  0.150023716  0.000000000
[...]
     15      -4.4834      2.00000
     16      -4.4697      2.00000
     17      -4.4416      2.00000
     18      -4.4059      2.00000
     19      -4.3556      2.00000
     20      -4.3257      2.00000
     21      -4.3237      2.00000
     22      -4.2980      2.00000
     23      -4.2583      2.00000
     24      -4.1940      2.00000
     25      -4.1318      2.00000
     26      -4.0655      2.00000
     27      -4.0400      2.00000
     28      -3.9893      2.00000
     29      -3.9789      2.00000
     30      -3.9714      2.00000
     31      -3.9699      2.00000
     32      -3.9646      2.00000
     33      -3.9347      2.00000
     34      -3.8983      2.00000
     35      -3.8518      2.00000
     36      -3.8036      2.00000
     37      -3.6683      2.00000
     38      -3.6521      2.00000
     39      -3.6217      2.00000
     40      -3.5947      2.00000
     41      -3.5736      2.00000
     42      -3.5711      2.00000
     43      -3.5445      2.00000
     44      -3.5328      2.00000
     45      -3.5296      2.00000
     46      -3.3597      2.00000
     47      -3.3556      2.00000
     48      -3.3144      2.00000
     49      -3.3061      2.00000
     50      -3.2623      2.00000
     51      -3.2590      2.00000
     52      -3.2408      2.00000
     53      -3.2295      2.00000
     54      -3.2251      2.00000
     55      -3.2090      2.00000
     56      -3.1861      2.00000
     57      -3.1717      2.00000
     58      -3.1601      2.00000
     59      -3.1557      2.00000
     60      -3.1501      2.00000
[...]
    238       6.9035      0.00000
    239       6.9377      0.00000
    240       7.0856      0.00000
    241       7.1321      0.00000
    242       7.3366      0.00000
    243       7.3588      0.00000
    244       7.4227      0.00000
    245       7.5030      0.00000
    246       7.6740      0.00000
    247       7.7697      0.00000
    248       7.9533      0.00000
    249       8.0559      0.00000
    250       8.2467      0.00000
    251       8.3398      0.00000
    252       8.5134      0.00000

 soft charge-density along one line, spin component           1
         0         1         2         3         4         5         6         7         8         9
 total charge-density along one line

------------------------ aborting loop because EDIFF is reached ----------------------------------------

 total charge

# of ion       s       p       d       tot
    1        0.446   0.287   9.189   9.921
    2        0.449   0.284   9.188   9.921
    3        0.449   0.284   9.188   9.921
    4        0.449   0.284   9.188   9.921
    5        0.447   0.286   9.186   9.919
    6        0.449   0.284   9.188   9.921
    7        0.449   0.284   9.188   9.921
    8        0.449   0.284   9.188   9.921
    9        0.448   0.284   9.187   9.918
   10        0.441   0.375   9.177   9.992
   11        0.444   0.369   9.182   9.994
   12        0.441   0.375   9.177   9.992
   13        0.444   0.369   9.182   9.994
   14        0.444   0.369   9.182   9.994
   15        0.439   0.370   9.180   9.989
   16        0.441   0.375   9.177   9.992
   17        0.439   0.370   9.180   9.989
   18        0.439   0.370   9.180   9.989
   19        0.443   0.375   9.181   9.999
   20        0.438   0.376   9.185  10.000
   21        0.438   0.376   9.185  10.000
   22        0.439   0.373   9.182   9.993
   23        0.438   0.376   9.185  10.000
   24        0.439   0.373   9.182   9.993
   25        0.443   0.375   9.181   9.999
   26        0.443   0.375   9.181   9.999
   27        0.439   0.373   9.182   9.993
   28        0.452   0.292   9.194   9.938
   29        0.449   0.300   9.187   9.936
   30        0.449   0.300   9.187   9.936
   31        0.449   0.300   9.187   9.936
   32        0.449   0.300   9.187   9.936
   33        0.449   0.300   9.187   9.936
   34        0.449   0.300   9.187   9.936
   35        0.449   0.295   9.193   9.936
   36        0.715   0.424   8.142   9.281
tot         16.278  12.084 329.596 357.959

  FORCE on cell =-STRESS in cart. coord.  units (eV):
  Direction    XX          YY          ZZ          XY          YZ          ZX
  Alpha Z   876.11742   876.11742   876.11742
  Ewald  174378.99860174378.99818************     0.00037     0.00010     0.00016
  Hartree187360.43961187360.43959************     0.00003     0.00005     0.00006
  E(xc)   -2291.65488 -2291.65440 -2296.57883    -0.00042    -0.00003    -0.00006
  Local  ************************375262.72784     0.01850    -0.00053    -0.00088
  n-local  -757.34078  -740.64721  -765.15941     8.80836    -0.14891     0.33235
  augment  3359.32127  3359.34134  3378.13068    -0.01738     0.00023     0.00040
  Kinetic  3272.01565  3277.17738  3303.32426     3.92580     1.58946    -1.21935
  Fock        0.00000     0.00000     0.00000     0.00000     0.00000     0.00000
  Total      -1.89087    -1.89087     4.02598     0.00000    -0.00000    -0.00000
  in kB      -2.77435    -2.77435     5.90705     0.00000    -0.00000    -0.00000

 VOLUME and BASIS-vectors are now :
  energy-cutoff  :      500.00
  volume of cell :     1091.97
      direct lattice vectors                 reciprocal lattice vectors
     7.696786404  0.000000000  0.000000000     0.129924354 -0.075011849  0.000000000
     3.848392758  6.665612809  0.000000000     0.000000000  0.150023716  0.000000000
     0.000000000  0.000000000 21.284399033     0.000000000  0.000000000  0.046982769

  length of vectors
     7.696786404  7.696786404 21.284399033     0.150023716  0.150023716  0.046982769

 FORCES acting on ions
    electron-ion (+dipol)            ewald-force                    non-local-force                 convergence-correction
   -.415E-04 0.255E-06 0.348E+04   0.580E-04 -.439E-05 -.348E+04   0.104E-17 0.147E-18 -.242E+01   -.327E-03 -.156E-03 -.807E+00
   -.315E+00 -.310E-01 0.348E+04   0.177E+00 0.172E+00 -.348E+04   0.124E-01 -.434E-01 -.200E+01   0.125E+00 -.981E-01 -.618E+00
   0.315E+00 -.310E-01 0.348E+04   -.177E+00 0.172E+00 -.348E+04   -.124E-01 -.434E-01 -.200E+01   -.124E+00 -.957E-01 -.617E+00
   -.184E+00 -.257E+00 0.348E+04   0.237E+00 0.668E-01 -.348E+04   -.314E-01 0.324E-01 -.200E+01   -.224E-01 0.157E+00 -.618E+00
   -.615E-04 -.321E-05 0.348E+04   0.116E-03 -.101E-04 -.348E+04   -.184E-17 -.360E-18 -.193E+01   0.121E-01 0.738E-02 -.591E+00
   0.184E+00 -.257E+00 0.348E+04   -.238E+00 0.666E-01 -.348E+04   0.314E-01 0.324E-01 -.200E+01   0.208E-01 0.158E+00 -.617E+00
   0.131E+00 0.288E+00 0.348E+04   0.609E-01 -.239E+00 -.348E+04   -.438E-01 0.110E-01 -.200E+01   -.145E+00 -.598E-01 -.617E+00
   -.130E+00 0.288E+00 0.348E+04   -.612E-01 -.239E+00 -.348E+04   0.438E-01 0.110E-01 -.200E+01   0.148E+00 -.612E-01 -.617E+00
   -.144E-03 -.329E-04 0.348E+04   0.263E-03 0.206E-04 -.348E+04   0.111E-19 0.167E-17 -.223E+01   -.131E-01 -.675E-02 -.565E+00
   0.977E+00 0.564E+00 0.116E+04   -.984E+00 -.568E+00 -.116E+04   -.729E-01 -.421E-01 -.853E+00   0.914E-01 0.527E-01 -.783E-01
   -.916E-04 -.239E+01 0.116E+04   0.191E-03 0.254E+01 -.115E+04   0.530E-08 -.796E-01 -.832E+00   0.118E-01 -.765E-01 -.498E-01
   -.977E+00 0.564E+00 0.116E+04   0.984E+00 -.568E+00 -.116E+04   0.729E-01 -.421E-01 -.853E+00   -.928E-01 0.533E-01 -.792E-01
   -.207E+01 0.119E+01 0.116E+04   0.220E+01 -.127E+01 -.115E+04   -.689E-01 0.398E-01 -.832E+00   -.599E-01 0.493E-01 -.498E-01
   0.207E+01 0.119E+01 0.116E+04   -.220E+01 -.127E+01 -.115E+04   0.689E-01 0.398E-01 -.832E+00   0.830E-01 0.476E-01 -.528E-01
   -.142E-03 -.230E+00 0.116E+04   0.298E-03 -.812E-01 -.116E+04   -.453E-08 0.680E-01 -.764E+00   -.298E-02 0.229E+00 -.193E+00
   -.919E-04 -.113E+01 0.116E+04   0.186E-03 0.114E+01 -.116E+04   -.560E-08 0.841E-01 -.853E+00   -.118E-02 -.108E+00 -.793E-01
   -.200E+00 0.115E+00 0.116E+04   -.703E-01 0.409E-01 -.116E+04   0.589E-01 -.340E-01 -.764E+00   0.198E+00 -.117E+00 -.193E+00
   0.200E+00 0.115E+00 0.116E+04   0.701E-01 0.408E-01 -.116E+04   -.589E-01 -.340E-01 -.764E+00   -.196E+00 -.115E+00 -.191E+00
   -.533E-04 -.158E+00 -.118E+04   0.696E-04 0.248E+00 0.118E+04   0.883E-08 -.133E+00 0.524E+00   0.108E-02 0.451E-01 0.112E+00
   -.314E+02 -.181E+02 -.119E+04   0.309E+02 0.178E+02 0.119E+04   0.339E+00 0.196E+00 0.535E+00   0.195E+00 0.113E+00 0.224E+00
   0.314E+02 -.181E+02 -.119E+04   -.309E+02 0.178E+02 0.119E+04   -.339E+00 0.196E+00 0.535E+00   -.216E+00 0.110E+00 0.224E+00
   -.180E+02 0.104E+02 -.118E+04   0.175E+02 -.101E+02 0.118E+04   0.374E+00 -.216E+00 0.823E+00   0.126E+00 -.599E-01 -.233E-01
   -.803E-04 0.363E+02 -.119E+04   0.148E-03 -.357E+02 0.119E+04   0.261E-07 -.392E+00 0.535E+00   -.139E-01 -.244E+00 0.224E+00
   0.180E+02 0.104E+02 -.118E+04   -.175E+02 -.101E+02 0.118E+04   -.374E+00 -.216E+00 0.823E+00   -.103E+00 -.602E-01 -.232E-01
   0.137E+00 0.791E-01 -.118E+04   -.215E+00 -.124E+00 0.118E+04   0.115E+00 0.663E-01 0.524E+00   -.408E-01 -.235E-01 0.111E+00
   -.137E+00 0.791E-01 -.118E+04   0.215E+00 -.124E+00 0.118E+04   -.115E+00 0.663E-01 0.524E+00   0.399E-01 -.214E-01 0.112E+00
   -.125E-03 -.208E+02 -.118E+04   0.245E-03 0.202E+02 0.118E+04   -.287E-07 0.432E+00 0.823E+00   0.113E-01 0.139E+00 -.232E-01
   -.378E-04 0.165E-04 -.348E+04   0.430E-04 -.324E-04 0.347E+04   -.891E-17 -.489E-17 0.225E+01   -.110E-03 -.103E-04 0.665E+00
   -.257E+02 -.416E+02 -.349E+04   0.257E+02 0.412E+02 0.349E+04   -.526E-01 0.226E+00 0.189E+01   0.835E-01 0.147E+00 0.541E+00
   0.257E+02 -.416E+02 -.349E+04   -.257E+02 0.412E+02 0.349E+04   0.526E-01 0.226E+00 0.189E+01   -.830E-01 0.148E+00 0.541E+00
   -.489E+02 -.144E+01 -.349E+04   0.485E+02 0.160E+01 0.349E+04   0.169E+00 -.158E+00 0.189E+01   0.169E+00 -.140E-02 0.541E+00
   0.489E+02 -.144E+01 -.349E+04   -.485E+02 0.160E+01 0.349E+04   -.169E+00 -.158E+00 0.189E+01   -.169E+00 -.646E-03 0.542E+00
   -.232E+02 0.431E+02 -.349E+04   0.229E+02 -.428E+02 0.349E+04   0.222E+00 -.674E-01 0.189E+01   0.871E-01 -.146E+00 0.541E+00
   0.232E+02 0.431E+02 -.349E+04   -.229E+02 -.428E+02 0.349E+04   -.222E+00 -.674E-01 0.189E+01   -.846E-01 -.146E+00 0.542E+00
   -.158E-03 -.315E-04 -.348E+04   0.253E-03 0.220E-05 0.347E+04   -.423E-18 -.125E-17 0.240E+01   -.124E-01 -.631E-02 0.582E+00
   -.467E-04 -.360E-04 -.316E+04   0.123E-03 0.248E-04 0.316E+04   -.479E-17 -.463E-17 0.214E+01   0.202E-02 0.123E-02 0.479E+00
   -.195E-03 0.114E-04 0.288E+01   0.164E-12 0.245E-12 0.409E-11   -.607E-16 -.336E-16 -.214E+01   0.251E-01 0.114E-01 -.720E+00

 POSITION                                       TOTAL-FORCE (eV/Angst)
      0.00000      0.00000      5.37156        -0.000000     -0.000000      0.109871
      2.56560      0.00000      5.37156        -0.000469      0.000791      0.064584
      5.13119      0.00000      5.37156         0.000469      0.000791      0.064584
      1.28280      2.22187      5.37156         0.000451     -0.000802      0.064584
      3.84839      2.22187      5.37156        -0.000000     -0.000000      0.063238
      6.41399      2.22187      5.37156        -0.000451     -0.000802      0.064584
      2.56560      4.44374      5.37156         0.000920      0.000011      0.064584
      5.13119      4.44374      5.37156        -0.000920      0.000011      0.064584
      7.69679      4.44374      5.37156         0.000000      0.000000      0.060276
      1.28280      0.74062      7.46636         0.012645      0.007301     -0.073590
      3.84839      0.74062      7.46636         0.000000     -0.011166     -0.114976
      6.41399      0.74062      7.46636        -0.012645      0.007301     -0.073590
      2.56560      2.96249      7.46636        -0.009670      0.005583     -0.114976
      5.13119      2.96249      7.46636         0.009670      0.005583     -0.114976
      7.69679      2.96249      7.46636         0.000000     -0.015145     -0.055804
      3.84839      5.18437      7.46636         0.000000     -0.014601     -0.073590
      6.41399      5.18437      7.46636        -0.013116      0.007573     -0.055804
      8.97958      5.18437      7.46636         0.013116      0.007573     -0.055804
      7.69679      1.48680      9.55287        -0.000000      0.003305      0.000337
      2.54973      1.47208      9.52995         0.005343      0.003085     -0.007976
      5.14706      1.47208      9.52995        -0.005343      0.003085     -0.007976
      8.97744      3.70436      9.55084        -0.019508      0.011263     -0.003352
      3.84839      3.72144      9.52995         0.000000     -0.006170     -0.007976
      6.41613      3.70436      9.55084         0.019508      0.011263     -0.003352
     10.25757      5.92221      9.55287        -0.002862     -0.001653      0.000337
      5.13600      5.92221      9.55287         0.002862     -0.001653      0.000337
      7.69679      5.92251      9.55084         0.000000     -0.022526     -0.003352
      0.00000      0.00000     11.61595        -0.000000     -0.000000      0.013732
      6.40108      6.64688     11.64473        -0.004039     -0.009054      0.012511
      8.99249      6.64688     11.64473         0.004039     -0.009054      0.012511
      8.95691      2.22006     11.64473        -0.009860      0.001029      0.012511
      6.43666      2.22006     11.64473         0.009860      0.001029      0.012511
     10.25261      4.46428     11.64473        -0.005821      0.008025      0.012511
      5.14096      4.46428     11.64473         0.005821      0.008025      0.012511
      7.69679      4.44374     11.61500         0.000000      0.000000      0.007851
      3.84839      2.22187     11.65010        -0.000000     -0.000000      0.048546
    total drift:                                0.024923      0.011453      0.019600

  FREE ENERGIE OF THE ION-ELECTRON SYSTEM (eV)
  free  energy   TOTEN  =      -128.86811987 eV

  energy  without entropy=     -128.86811987  energy(sigma->0) =     -128.86811987

 stress matrix after NEB project (eV)
     -1.89087      0.00000     -0.00000
      0.00000     -1.89087      0.00000
     -0.00000     -0.00000      4.02598
  FORCES: max atom, RMS     0.048546    0.012942
  FORCE total and by dimension    0.077652    0.048546
  Stress total and by dimension    4.833139    4.025976
|           W    W    AA    RRRRR   N    N  II  N    N   GGGG   !!!           |
|           W    W   A  A   R    R  NN   N  II  NN   N  G    G  !!!           |
|           W    W  A    A  R    R  N N  N  II  N N  N  G       !!!           |
|           W WW W  AAAAAA  RRRRR   N  N N  II  N  N N  G  GGG   !            |
|           WW  WW  A    A  R   R   N   NN  II  N   NN  G    G                |
|           W    W  A    A  R    R  N    N  II  N    N   GGGG   !!!           |
|     Tetrahedron method does not include variations of the Fermi             |
|     occupations, so forces and stress will be inaccurate. We suggest        |
|     using a different smearing scheme ISMEAR = 1 or 2 for metals in         |
|     relaxations.                                                            |

 total charge

# of ion       s       p       d       tot
    1        0.446   0.287   9.189   9.921
    2        0.449   0.284   9.188   9.921
    3        0.449   0.284   9.188   9.921
    4        0.449   0.284   9.188   9.921
    5        0.447   0.286   9.186   9.919
    6        0.449   0.284   9.188   9.921
    7        0.449   0.284   9.188   9.921
    8        0.449   0.284   9.188   9.921
    9        0.448   0.284   9.187   9.918
   10        0.441   0.375   9.177   9.992
   11        0.444   0.369   9.182   9.994
   12        0.441   0.375   9.177   9.992
   13        0.444   0.369   9.182   9.994
   14        0.444   0.369   9.182   9.994
   15        0.439   0.370   9.180   9.989
   16        0.441   0.375   9.177   9.992
   17        0.439   0.370   9.180   9.989
   18        0.439   0.370   9.180   9.989
   19        0.443   0.375   9.181   9.999
   20        0.438   0.376   9.185  10.000
   21        0.438   0.376   9.185  10.000
   22        0.439   0.373   9.182   9.993
   23        0.438   0.376   9.185  10.000
   24        0.439   0.373   9.182   9.993
   25        0.443   0.375   9.181   9.999
   26        0.443   0.375   9.181   9.999
   27        0.439   0.373   9.182   9.993
   28        0.452   0.292   9.194   9.938
   29        0.449   0.300   9.187   9.936
   30        0.449   0.300   9.187   9.936
   31        0.449   0.300   9.187   9.936
   32        0.449   0.300   9.187   9.936
   33        0.449   0.300   9.187   9.936
   34        0.449   0.300   9.187   9.936
   35        0.449   0.295   9.193   9.936
   36        0.715   0.424   8.142   9.281
tot         16.278  12.084 329.596 357.959

 BZINTS: Fermi energy:    0.107636;  395.000000 electrons
         Band energy:-0.105483E+04;  BLOECHL correction:   -0.076098