 vasp.6.2.0 18Jan21 (build Jun 12 2021 23:27:24) complex

 executed on             LinuxIFC date 2022.05.27  06:02:04

 INCAR:
   ISMEAR = -5
   SIGMA = 0.1
   ISPIN = 1
   EDIFF = 1.d-5
   EDIFFG = -0.01
   NSW = 0
   NELM = 150
   ENCUT = 500
   ISIF = 2
   IBRION = 2
   LREAL = Auto
   ALGO = Fast
   ICHARG = 11
   LORBIT = 10
   LCHARG = .F.
   LWAVE = .F.

 POTCAR:    PAW_PBE Cu 22Jun2005
 POTCAR:    PAW_PBE Fe 06Sep2000
 POTCAR:    PAW_PBE O 08Apr2002
 POTCAR:    PAW_PBE H 15Jun2001
|           W    W    AA    RRRRR   N    N  II  N    N   GGGG   !!!           |
|           W    W   A  A   R    R  NN   N  II  NN   N  G    G  !!!           |
|           W    W  A    A  R    R  N N  N  II  N N  N  G       !!!           |
|           W WW W  AAAAAA  RRRRR   N  N N  II  N  N N  G  GGG   !            |
|           WW  WW  A    A  R   R   N   NN  II  N   NN  G    G                |
|           W    W  A    A  R    R  N    N  II  N    N   GGGG   !!!           |
|     For optimal performance we recommend to set                             |
|       NCORE = 2 up to number-of-cores-per-socket                            |
|     This setting can greatly improve the performance of VASP for DFT.       |
|     The default, NCORE=1 might be grossly inefficient on modern             |
|     multi-core architectures or massively parallel machines. Do your        |
|     Unfortunately you need to use the default for GW and RPA                |
|     calculations (for HF NCORE is supported but not extensively tested      |
|     yet).                                                                   |

 POTCAR:    PAW_PBE Cu 22Jun2005
   VRHFIN =Cu: d10 p1

   TITEL  = PAW_PBE Cu 22Jun2005
   POMASS =   63.546; ZVAL   =   11.000    mass and valenz
   ENMAX  =  295.446; ENMIN  =  221.585 eV

 POTCAR:    PAW_PBE Fe 06Sep2000
   VRHFIN =Fe:  d7 s1

   TITEL  = PAW_PBE Fe 06Sep2000
   POMASS =   55.847; ZVAL   =    8.000    mass and valenz
   ENMAX  =  267.882; ENMIN  =  200.911 eV

 POTCAR:    PAW_PBE O 08Apr2002
   VRHFIN =O: s2p4

   TITEL  = PAW_PBE O 08Apr2002
   POMASS =   16.000; ZVAL   =    6.000    mass and valenz
   ENMAX  =  400.000; ENMIN  =  300.000 eV

 POTCAR:    PAW_PBE H 15Jun2001
   VRHFIN =H: ultrasoft test

   TITEL  = PAW_PBE H 15Jun2001
   POMASS =    1.000; ZVAL   =    1.000    mass and valenz
   ENMAX  =  250.000; ENMIN  =  200.000 eV

 Optimization of the real space projectors (new method)

 maximal supplied QI-value         = 16.25
 optimisation between [QCUT,QGAM] = [ 11.38, 22.75] = [ 36.24,144.96] Ry
 Optimized for a Real-space Cutoff    1.52 Angstroem

   l    n(q)    QCUT    max X(q) W(low)/X(q) W(high)/X(q)  e(spline)
   2      9    11.376     4.610    0.21E-03    0.10E-03    0.26E-06
   2      9    11.376     8.522    0.33E-03    0.16E-03    0.37E-06
   0     10    11.376    51.609    0.62E-04    0.20E-04    0.13E-06
   0     10    11.376    27.747    0.54E-04    0.20E-04    0.13E-06
   1     10    11.376    20.408    0.13E-04    0.99E-04    0.19E-06
   1     10    11.376    13.425    0.12E-04    0.87E-04    0.17E-06
 Optimization of the real space projectors (new method)

[...]

   l    n(q)    QCUT    max X(q) W(low)/X(q) W(high)/X(q)  e(spline)
   0      7    11.387    20.381    0.39E-03    0.13E-02    0.15E-06
   0      7    11.387    15.268    0.42E-03    0.14E-02    0.17E-06
   1      6    11.387     5.964    0.41E-03    0.11E-02    0.17E-06
   1      6    11.387     5.382    0.39E-03    0.87E-03    0.15E-06
 Optimization of the real space projectors (new method)

 maximal supplied QI-value         = 34.20
 optimisation between [QCUT,QGAM] = [ 11.29, 22.57] = [ 35.68,142.71] Ry
 Optimized for a Real-space Cutoff    1.16 Angstroem

   l    n(q)    QCUT    max X(q) W(low)/X(q) W(high)/X(q)  e(spline)
   0      8    11.287    19.460    0.40E-03    0.73E-03    0.16E-06
   0      8    11.287    12.209    0.38E-03    0.70E-03    0.15E-06
   1      7    11.287     4.655    0.22E-03    0.25E-04    0.22E-06
  PAW_PBE Cu 22Jun2005                  :
  PAW_PBE Fe 06Sep2000                  :
  PAW_PBE O 08Apr2002                   :
  PAW_PBE H 15Jun2001                   :

 POSCAR: Cu-Fe-OH
  positions in direct lattice
  velocities in cartesian coordinates
 exchange correlation table for  LEXCH =        8
   RHO(1)=    0.500       N(1)  =     2000
   RHO(2)=  100.500       N(2)  =     4000

 VTST: version 3.2, (02/03/18)

 CHAIN: initializing optimizer

 OPT: Using VASP Conjugate-Gradient optimizer
 CHAIN: Read ICHAIN            0

 POSCAR: Cu-Fe-OH
  positions in direct lattice
  velocities in cartesian coordinates

 ion  position               nearest neighbor table
   1  0.000  0.000  0.252-   7 2.57   3 2.57   4 2.57   2 2.57   6 2.57   8 2.57  12 2.57  10 2.57
                            16 2.57
   2  0.333  0.000  0.252-   8 2.57   9 2.57   5 2.57   1 2.57   3 2.57  11 2.57   4 2.57  10 2.57
                            17 2.57
   3  0.667  0.000  0.252-   1 2.57   7 2.57   6 2.57   9 2.57   2 2.57  12 2.57   5 2.57  18 2.57
                            11 2.57
   4  0.000  0.333  0.252-   5 2.57   6 2.57   1 2.57   7 2.57   2 2.57  13 2.57   9 2.57  10 2.57
                            15 2.57
   5  0.333  0.333  0.252-   4 2.57   2 2.57   7 2.57  13 2.57   8 2.57   6 2.57   3 2.57  11 2.57
                            14 2.57
   6  0.667  0.333  0.252-   4 2.57   9 2.57  15 2.57   3 2.57   1 2.57   8 2.57  14 2.57   5 2.57
                            12 2.57
   7  0.000  0.667  0.252-   1 2.57   3 2.57  16 2.57  18 2.57   4 2.57   5 2.57   8 2.57   9 2.57
                            13 2.57
   8  0.333  0.667  0.252-   9 2.57   2 2.57  17 2.57   6 2.57   1 2.57   7 2.57   5 2.57  14 2.57
                            16 2.57
   9  0.667  0.667  0.252-   8 2.57   6 2.57   2 2.57  17 2.57   3 2.57   7 2.57   4 2.57  15 2.57
                            18 2.57
  10  0.111  0.111  0.351-  20 2.55  26 2.56  19 2.56  11 2.57  12 2.57  13 2.57   1 2.57   2 2.57
                             4 2.57  15 2.57  16 2.57  17 2.57
  11  0.444  0.111  0.351-  20 2.55  21 2.55  27 2.56  10 2.57  13 2.57   2 2.57  17 2.57  14 2.57
                            12 2.57   5 2.57   3 2.57  18 2.57
  12  0.778  0.111  0.351-  21 2.55  19 2.56  25 2.56  15 2.57  10 2.57  14 2.57  18 2.57   3 2.57
                             1 2.57  16 2.57  11 2.57   6 2.57
  13  0.111  0.444  0.351-  23 2.55  20 2.55  22 2.56  16 2.57  18 2.57  10 2.57  11 2.57  14 2.57
                             5 2.57   4 2.57   7 2.57  15 2.57
  14  0.444  0.444  0.351-  21 2.55  23 2.55  24 2.56  15 2.57  17 2.57  12 2.57  16 2.57  13 2.57
                            11 2.57   6 2.57   8 2.57   5 2.57
  15  0.778  0.444  0.351-  19 2.56  24 2.56  22 2.56  14 2.57  17 2.57  12 2.57   6 2.57  18 2.57
                            10 2.57   9 2.57  13 2.57   4 2.57
  16  0.111  0.778  0.351-  23 2.55  25 2.56  26 2.56  18 2.57  13 2.57   7 2.57  14 2.57  17 2.57
                            12 2.57  10 2.57   8 2.57   1 2.57
  17  0.444  0.778  0.351-  26 2.56  27 2.56  24 2.56  14 2.57  15 2.57   8 2.57   9 2.57  11 2.57
                            16 2.57  18 2.57  10 2.57   2 2.57
  18  0.778  0.778  0.351-  25 2.56  22 2.56  27 2.56  16 2.57  13 2.57   7 2.57  15 2.57  12 2.57
                            17 2.57   9 2.57   3 2.57  11 2.57
  19  0.889  0.223  0.449-  28 2.55  15 2.56  12 2.56  10 2.56  22 2.56  24 2.56  32 2.57  31 2.57
                            21 2.57  20 2.57  25 2.57  26 2.57
  20  0.222  0.222  0.448-  36 2.47  11 2.55  13 2.55  10 2.55  29 2.55  31 2.55  23 2.56  21 2.56
                            26 2.57  19 2.57  27 2.57  22 2.57
  21  0.555  0.222  0.448-  36 2.47  14 2.55  11 2.55  12 2.55  32 2.55  30 2.55  20 2.56  23 2.56
                            19 2.57  25 2.57  24 2.57  27 2.57
  22  0.888  0.556  0.449-  35 2.54  31 2.56  33 2.56  18 2.56  15 2.56  24 2.56  27 2.56  13 2.56
                            19 2.56  25 2.56  23 2.57  20 2.57
  23  0.222  0.555  0.448-  36 2.47  13 2.55  14 2.55  16 2.55  33 2.55  34 2.55  20 2.56  21 2.56
                            25 2.57  26 2.57  22 2.57  24 2.57
  24  0.556  0.556  0.449-  35 2.54  32 2.56  34 2.56  15 2.56  17 2.56  22 2.56  27 2.56  14 2.56
                            19 2.56  26 2.56  21 2.57  23 2.57
  25  0.889  0.889  0.449-  28 2.55  18 2.56  16 2.56  12 2.56  22 2.56  27 2.56  33 2.57  30 2.57
                            21 2.57  23 2.57  19 2.57  26 2.57
  26  0.223  0.889  0.449-  28 2.55  17 2.56  10 2.56  16 2.56  27 2.56  24 2.56  29 2.57  34 2.57
                            20 2.57  23 2.57  25 2.57  19 2.57
  27  0.556  0.888  0.449-  35 2.54  29 2.56  30 2.56  17 2.56  18 2.56  24 2.56  22 2.56  11 2.56
                            26 2.56  25 2.56  20 2.57  21 2.57
  28  0.000  0.000  0.546-  25 2.55  19 2.55  26 2.55  33 2.58  30 2.58  31 2.58  29 2.58  32 2.58
                            34 2.58
  29  0.333  0.003  0.547-  31 2.54  30 2.54  36 2.54  20 2.55  27 2.56  26 2.57  28 2.58  35 2.58
                            34 2.61
  30  0.664  0.003  0.547-  32 2.54  29 2.54  36 2.54  21 2.55  27 2.56  25 2.57  28 2.58  35 2.58
                            33 2.61
  31  0.003  0.333  0.547-  29 2.54  33 2.54  36 2.54  20 2.55  22 2.56  19 2.57  28 2.58  35 2.58
                            32 2.61
  32  0.664  0.333  0.547-  30 2.54  34 2.54  36 2.54  21 2.55  24 2.56  19 2.57  28 2.58  35 2.58
                            31 2.61
  33  0.003  0.664  0.547-  34 2.54  31 2.54  36 2.54  23 2.55  22 2.56  25 2.57  28 2.58  35 2.58
                            30 2.61
  34  0.333  0.664  0.547-  33 2.54  32 2.54  36 2.54  23 2.55  24 2.56  26 2.57  28 2.58  35 2.58
                            29 2.61
  35  0.667  0.667  0.546-  24 2.54  27 2.54  22 2.54  34 2.58  32 2.58  29 2.58  30 2.58  33 2.58
                            31 2.58
  36  0.333  0.333  0.541-  37 1.77  23 2.47  20 2.47  21 2.47  31 2.54  29 2.54  33 2.54  34 2.54
                            32 2.54  30 2.54
  37  0.333  0.333  0.624-  38 0.97  36 1.77
  38  0.333  0.333  0.669-  37 0.97

  LATTYP: Found a hexagonal cell.
 ALAT       =     7.6967864036
 C/A-ratio  =     2.7653617908

  Lattice vectors:

 A1 = (  -3.8483927580,  -6.6656128093,   0.0000000000)
 A2 = (   7.6967864037,   0.0000000000,   0.0000000000)
 A3 = (   0.0000000000,   0.0000000000,  21.2843990326)

Analysis of symmetry for initial positions (statically):
 Subroutine PRICEL returns:
 Original cell was already a primitive cell.

 Routine SETGRP: Setting up the symmetry group for a
 hexagonal supercell.

 Subroutine GETGRP returns: Found  6 space group operations
 (whereof  6 operations were pure point group operations)
 out of a pool of 24 trial point group operations.

The static configuration has the point symmetry C_3v.

Analysis of symmetry for dynamics (positions and initial velocities):
 Subroutine PRICEL returns:
 Original cell was already a primitive cell.

[...]

The dynamic configuration has the point symmetry C_3v.

Analysis of constrained symmetry for selective dynamics:
 Subroutine PRICEL returns:
 Original cell was already a primitive cell.

[...]
     33      -3.7701      2.00000
     34      -3.7592      2.00000
     35      -3.7322      2.00000
     36      -3.6988      2.00000
     37      -3.6714      2.00000
     38      -3.6336      2.00000
     39      -3.5731      2.00000
     40      -3.5464      2.00000
     41      -3.4755      2.00000
     42      -3.4692      2.00000
     43      -3.3907      2.00000
     44      -3.3863      2.00000
     45      -3.3659      2.00000
     46      -3.3466      2.00000
     47      -3.3420      2.00000
     48      -3.3119      2.00000
     49      -3.2804      2.00000
     50      -3.1411      2.00000
     51      -3.1196      2.00000
     52      -3.1183      2.00000
     53      -3.1150      2.00000
     54      -3.0603      2.00000
     55      -3.0535      2.00000
     56      -3.0452      2.00000
     57      -3.0178      2.00000
     58      -3.0081      2.00000
     59      -2.9859      2.00000
     60      -2.9770      2.00000
[...]
    238       6.3408      0.00000
    239       6.5465      0.00000
    240       6.5750      0.00000
    241       6.6420      0.00000
    242       6.7628      0.00000
    243       6.9650      0.00000
    244       7.0150      0.00000
    245       7.1424      0.00000
    246       7.3367      0.00000
    247       7.4172      0.00000
    248       7.5145      0.00000
    249       7.6405      0.00000
    250       7.6663      0.00000
    251       7.8960      0.00000
    252       8.1630      0.00000

 soft charge-density along one line, spin component           1
         0         1         2         3         4         5         6         7         8         9
 total charge-density along one line

------------------------ aborting loop because EDIFF is reached ----------------------------------------

 total charge

# of ion       s       p       d       tot
    1        0.448   0.284   9.189   9.921
    2        0.449   0.285   9.186   9.920
    3        0.449   0.285   9.186   9.920
    4        0.449   0.285   9.186   9.920
    5        0.448   0.287   9.183   9.918
    6        0.449   0.285   9.186   9.920
    7        0.449   0.285   9.186   9.920
    8        0.449   0.285   9.186   9.920
    9        0.446   0.284   9.186   9.915
   10        0.443   0.371   9.177   9.991
   11        0.442   0.368   9.182   9.992
   12        0.443   0.371   9.177   9.991
   13        0.442   0.368   9.182   9.992
   14        0.442   0.368   9.182   9.992
   15        0.439   0.368   9.181   9.988
   16        0.443   0.371   9.177   9.991
   17        0.439   0.368   9.181   9.988
   18        0.439   0.368   9.181   9.988
   19        0.439   0.369   9.182   9.989
   20        0.457   0.394   9.166  10.017
   21        0.457   0.394   9.166  10.017
   22        0.435   0.372   9.183   9.990
   23        0.457   0.394   9.166  10.017
   24        0.435   0.372   9.183   9.990
   25        0.439   0.369   9.182   9.989
   26        0.439   0.369   9.182   9.989
   27        0.435   0.372   9.183   9.990
   28        0.450   0.284   9.189   9.922
   29        0.444   0.290   9.189   9.924
   30        0.444   0.290   9.189   9.924
   31        0.444   0.290   9.189   9.924
   32        0.444   0.290   9.189   9.924
   33        0.444   0.290   9.189   9.924
   34        0.444   0.290   9.189   9.924
   35        0.442   0.288   9.186   9.917
   36        0.442   0.506   6.371   7.319
   37        1.552   3.523   0.000   5.075
   38        0.607   0.126   0.000   0.733
tot         18.165  15.757 327.764 361.686

  FORCE on cell =-STRESS in cart. coord.  units (eV):
  Direction    XX          YY          ZZ          XY          YZ          ZX
  Alpha Z   893.40886   893.40886   893.40886
  Ewald  173579.61284173579.61240************     0.00041     0.00012     0.00019
  Hartree186847.31773186847.31769************     0.00005     0.00006     0.00008
  E(xc)   -2319.03864 -2319.03821 -2322.51101    -0.00038    -0.00003    -0.00006
  Local  ************************373589.57840     0.01866    -0.00060    -0.00101
  n-local  -820.60242  -807.49356  -824.93361     7.17586    -0.04560     0.20320
  augment  3353.94242  3353.96228  3365.94319    -0.01720     0.00028     0.00052
  Kinetic  3351.28419  3357.42807  3343.77396     3.94024     1.67644    -0.99130
  Fock        0.00000     0.00000     0.00000     0.00000     0.00000     0.00000
  Total      -6.64746    -6.64746     0.26147     0.00000     0.00000     0.00000
  in kB      -9.75339    -9.75339     0.38363     0.00000     0.00000     0.00000

 VOLUME and BASIS-vectors are now :
  energy-cutoff  :      500.00
  volume of cell :     1091.97
      direct lattice vectors                 reciprocal lattice vectors
     7.696786404  0.000000000  0.000000000     0.129924354 -0.075011849  0.000000000
     3.848392758  6.665612809  0.000000000     0.000000000  0.150023716  0.000000000
     0.000000000  0.000000000 21.284399033     0.000000000  0.000000000  0.046982769

  length of vectors
     7.696786404  7.696786404 21.284399033     0.150023716  0.150023716  0.046982769

 FORCES acting on ions
    electron-ion (+dipol)            ewald-force                    non-local-force                 convergence-correction
   -.416E-04 0.139E-06 0.350E+04   0.579E-04 -.441E-05 -.349E+04   0.307E-17 0.177E-17 -.286E+01   -.325E-03 -.155E-03 -.572E+00
   -.352E-01 0.223E+00 0.350E+04   -.162E+00 -.195E+00 -.350E+04   0.482E-01 0.876E-01 -.183E+01   0.147E+00 -.975E-01 -.458E+00
   0.352E-01 0.223E+00 0.350E+04   0.161E+00 -.195E+00 -.350E+04   -.482E-01 0.876E-01 -.183E+01   -.146E+00 -.950E-01 -.457E+00
   0.175E+00 -.142E+00 0.350E+04   -.250E+00 -.424E-01 -.350E+04   0.100E+00 -.207E-02 -.183E+01   -.109E-01 0.176E+00 -.458E+00
   -.660E-04 -.595E-05 0.350E+04   0.116E-03 -.101E-04 -.350E+04   -.321E-17 -.438E-18 -.175E+01   0.121E-01 0.738E-02 -.467E+00
   -.175E+00 -.142E+00 0.350E+04   0.249E+00 -.426E-01 -.350E+04   -.100E+00 -.207E-02 -.183E+01   0.935E-02 0.177E+00 -.457E+00
   0.211E+00 -.810E-01 0.350E+04   -.881E-01 0.237E+00 -.350E+04   0.518E-01 -.856E-01 -.183E+01   -.155E+00 -.791E-01 -.457E+00
   -.210E+00 -.810E-01 0.350E+04   0.878E-01 0.237E+00 -.350E+04   -.518E-01 -.856E-01 -.183E+01   0.159E+00 -.804E-01 -.457E+00
   -.144E-03 -.328E-04 0.350E+04   0.263E-03 0.206E-04 -.350E+04   -.406E-18 0.131E-17 -.233E+01   -.131E-01 -.675E-02 -.375E+00
   0.251E+01 0.145E+01 0.120E+04   -.201E+01 -.116E+01 -.120E+04   -.508E+00 -.293E+00 -.110E+01   0.226E-01 0.130E-01 -.378E+00
   -.902E-04 0.237E+01 0.120E+04   0.189E-03 -.234E+01 -.120E+04   -.105E-07 0.158E+00 -.447E+00   0.118E-01 -.214E+00 -.462E+00
   -.251E+01 0.145E+01 0.120E+04   0.201E+01 -.116E+01 -.120E+04   0.508E+00 -.293E+00 -.110E+01   -.241E-01 0.136E-01 -.379E+00
   0.205E+01 -.118E+01 0.120E+04   -.203E+01 0.117E+01 -.120E+04   0.137E+00 -.790E-01 -.447E+00   -.179E+00 0.118E+00 -.462E+00
   -.205E+01 -.118E+01 0.120E+04   0.203E+01 0.117E+01 -.120E+04   -.137E+00 -.790E-01 -.447E+00   0.202E+00 0.116E+00 -.465E+00
   -.143E-03 0.302E-02 0.120E+04   0.299E-03 -.375E+00 -.120E+04   -.920E-08 0.138E+00 -.897E+00   -.297E-02 0.213E+00 -.466E+00
   -.914E-04 -.290E+01 0.120E+04   0.185E-03 0.232E+01 -.120E+04   -.390E-07 0.586E+00 -.110E+01   -.116E-02 -.289E-01 -.379E+00
   0.258E-02 -.164E-02 0.120E+04   -.325E+00 0.188E+00 -.120E+04   0.120E+00 -.691E-01 -.897E+00   0.184E+00 -.109E+00 -.466E+00
   -.249E-02 -.160E-02 0.120E+04   0.325E+00 0.188E+00 -.120E+04   -.120E+00 -.691E-01 -.897E+00   -.182E+00 -.107E+00 -.464E+00
   -.581E-04 0.646E+00 -.113E+04   0.673E-04 -.812E+00 0.113E+04   -.996E-08 0.150E+00 0.918E+00   0.132E-02 0.379E-02 -.108E+00
   0.854E-01 0.493E-01 -.112E+04   0.161E+01 0.932E+00 0.112E+04   -.127E+01 -.731E+00 -.109E+01   -.423E+00 -.245E+00 -.603E+00
   -.854E-01 0.494E-01 -.112E+04   -.161E+01 0.932E+00 0.112E+04   0.127E+01 -.731E+00 -.109E+01   0.402E+00 -.247E+00 -.603E+00
   -.183E+01 0.106E+01 -.113E+04   0.166E+01 -.959E+00 0.113E+04   0.448E+00 -.259E+00 0.813E+00   -.211E+00 0.135E+00 -.286E+00
   -.761E-04 -.987E-01 -.112E+04   0.142E-03 -.186E+01 0.112E+04   -.973E-07 0.146E+01 -.109E+01   -.137E-01 0.471E+00 -.603E+00
   0.183E+01 0.106E+01 -.113E+04   -.166E+01 -.959E+00 0.113E+04   -.448E+00 -.259E+00 0.813E+00   0.235E+00 0.135E+00 -.287E+00
   -.559E+00 -.323E+00 -.113E+04   0.703E+00 0.406E+00 0.113E+04   -.130E+00 -.748E-01 0.918E+00   -.525E-02 -.301E-02 -.108E+00
   0.559E+00 -.323E+00 -.113E+04   -.703E+00 0.406E+00 0.113E+04   0.130E+00 -.748E-01 0.918E+00   0.429E-02 -.553E-03 -.107E+00
   -.127E-03 -.211E+01 -.113E+04   0.243E-03 0.192E+01 0.113E+04   -.344E-07 0.517E+00 0.813E+00   0.115E-01 -.251E+00 -.286E+00
   -.324E-04 0.174E-04 -.343E+04   0.328E-04 -.349E-04 0.343E+04   -.217E-16 0.492E-17 0.186E+01   0.142E-02 0.869E-03 0.100E+00
   0.150E+02 0.262E+02 -.341E+04   -.150E+02 -.267E+02 0.341E+04   0.186E+00 0.774E+00 0.297E+01   -.344E+00 -.577E+00 0.336E-01
   -.150E+02 0.262E+02 -.341E+04   0.150E+02 -.267E+02 0.341E+04   -.186E+00 0.774E+00 0.297E+01   0.323E+00 -.575E+00 0.331E-01
   0.302E+02 -.160E+00 -.341E+04   -.306E+02 0.396E+00 0.341E+04   0.763E+00 -.226E+00 0.297E+01   -.671E+00 -.947E-02 0.336E-01
   -.302E+02 -.159E+00 -.341E+04   0.306E+02 0.396E+00 0.341E+04   -.763E+00 -.226E+00 0.297E+01   0.649E+00 -.874E-02 0.351E-01
   0.152E+02 -.261E+02 -.341E+04   -.156E+02 0.263E+02 0.341E+04   0.577E+00 -.548E+00 0.297E+01   -.337E+00 0.567E+00 0.331E-01
   -.152E+02 -.261E+02 -.341E+04   0.156E+02 0.263E+02 0.341E+04   -.577E+00 -.548E+00 0.297E+01   0.318E+00 0.567E+00 0.352E-01
   -.133E-03 -.184E-04 -.343E+04   0.257E-03 0.700E-05 0.343E+04   0.174E-18 -.429E-18 0.208E+01   -.108E-01 -.543E-02 0.147E+00
   -.695E-04 -.299E-04 -.224E+04   0.105E-03 0.189E-04 0.224E+04   0.169E-17 0.192E-17 0.224E+01   0.480E-02 0.290E-02 -.366E-01
   0.187E-03 -.788E-04 -.217E+04   0.188E-04 0.871E-05 0.215E+04   -.152E-17 0.194E-18 0.214E+02   0.351E-02 0.213E-02 0.786E+00
   0.458E-05 -.134E-04 -.399E+03   0.710E-06 0.593E-06 0.407E+03   -.241E-18 0.563E-19 -.844E+01   0.185E-03 0.112E-03 0.787E-01
   -.122E-03 -.134E-03 -.388E+01   0.177E-12 0.203E-12 0.227E-11   0.111E-15 0.224E-15 0.137E+02   -.303E-01 -.204E-01 -.979E+01

 POSITION                                       TOTAL-FORCE (eV/Angst)
      0.00000      0.00000      5.37156        -0.000000     -0.000000      0.013512
      2.56560      0.00000      5.37156        -0.001173      0.019185      0.066082
      5.13119      0.00000      5.37156         0.001173      0.019185      0.066082
      1.28280      2.22187      5.37156         0.016028     -0.010609      0.066082
      3.84839      2.22187      5.37156        -0.000000     -0.000000      0.050676
      6.41399      2.22187      5.37156        -0.016028     -0.010609      0.066082
      2.56560      4.44374      5.37156         0.017201     -0.008576      0.066082
      5.13119      4.44374      5.37156        -0.017201     -0.008576      0.066082
      7.69679      4.44374      5.37156        -0.000000      0.000000      0.014905
      1.28280      0.74062      7.46636         0.021357      0.012330     -0.050552
      3.84839      0.74062      7.46636         0.000000     -0.032845     -0.084335
      6.41399      0.74062      7.46636        -0.021357      0.012330     -0.050552
      2.56560      2.96249      7.46636        -0.028445      0.016423     -0.084335
      5.13119      2.96249      7.46636         0.028445      0.016423     -0.084335
      7.69679      2.96249      7.46636         0.000000     -0.020991     -0.022265
      3.84839      5.18437      7.46636         0.000000     -0.024660     -0.050552
      6.41399      5.18437      7.46636        -0.018179      0.010496     -0.022265
      8.97958      5.18437      7.46636         0.018179      0.010496     -0.022265
      7.69679      1.48386      9.55425         0.000000     -0.011366      0.015104
      2.56752      1.48236      9.54187         0.021687      0.012521     -0.083379
      5.12927      1.48236      9.54187        -0.021687      0.012521     -0.083379
      8.97669      3.70479      9.55452         0.057311     -0.033089     -0.006238
      3.84839      3.70090      9.54187         0.000000     -0.025042     -0.083379
      6.41688      3.70479      9.55452        -0.057311     -0.033089     -0.006238
     10.26012      5.92368      9.55425         0.009843      0.005683      0.015104
      5.13345      5.92368      9.55425        -0.009843      0.005683      0.015104
      7.69679      5.92165      9.55452        -0.000000      0.066177     -0.006238
      0.00000      0.00000     11.62539        -0.000000     -0.000000      0.012243
      2.57645      0.02208     11.63568        -0.139645     -0.257188     -0.154873
      5.12034      0.02208     11.63568         0.139645     -0.257188     -0.154873
      1.30734      2.22023     11.63568        -0.292554      0.007658     -0.154873
      6.38944      2.22023     11.63568         0.292554      0.007658     -0.154873
      2.57929      4.42331     11.63568        -0.152909      0.249530     -0.154873
      5.11749      4.42331     11.63568         0.152909      0.249530     -0.154873
      7.69679      4.44374     11.62587        -0.000000      0.000000      0.044074
      3.84839      2.22187     11.51524        -0.000000      0.000000      1.078005
      3.84839      2.22187     13.28318        -0.000000     -0.000000      0.054327
      3.84839      2.22187     14.24933        -0.000000      0.000000     -0.040001
    total drift:                               -0.030456     -0.020536     -0.008539

  FREE ENERGIE OF THE ION-ELECTRON SYSTEM (eV)
  free  energy   TOTEN  =      -139.34610284 eV

  energy  without entropy=     -139.34610284  energy(sigma->0) =     -139.34610284

 stress matrix after NEB project (eV)
     -6.64746      0.00000      0.00000
      0.00000     -6.64746      0.00000
     -0.00000      0.00000      0.26147
  FORCES: max atom, RMS     0.054327    0.010944
  FORCE total and by dimension    0.067464    0.054327
  Stress total and by dimension    9.404570    6.647465
|           W    W    AA    RRRRR   N    N  II  N    N   GGGG   !!!           |
|           W    W   A  A   R    R  NN   N  II  NN   N  G    G  !!!           |
|           W    W  A    A  R    R  N N  N  II  N N  N  G       !!!           |
|           W WW W  AAAAAA  RRRRR   N  N N  II  N  N N  G  GGG   !            |
|           WW  WW  A    A  R   R   N   NN  II  N   NN  G    G                |
|           W    W  A    A  R    R  N    N  II  N    N   GGGG   !!!           |
|     Tetrahedron method does not include variations of the Fermi             |
|     occupations, so forces and stress will be inaccurate. We suggest        |
|     using a different smearing scheme ISMEAR = 1 or 2 for metals in         |
|     relaxations.                                                            |

 total charge

# of ion       s       p       d       tot
    1        0.448   0.284   9.189   9.921
    2        0.449   0.285   9.186   9.920
    3        0.449   0.285   9.186   9.920
    4        0.449   0.285   9.186   9.920
    5        0.448   0.287   9.183   9.918
    6        0.449   0.285   9.186   9.920
    7        0.449   0.285   9.186   9.920
    8        0.449   0.285   9.186   9.920
    9        0.446   0.284   9.186   9.915
   10        0.443   0.371   9.177   9.991
   11        0.442   0.368   9.182   9.992
   12        0.443   0.371   9.177   9.991
   13        0.442   0.368   9.182   9.992
   14        0.442   0.368   9.182   9.992
   15        0.439   0.368   9.181   9.988
   16        0.443   0.371   9.177   9.991
   17        0.439   0.368   9.181   9.988
   18        0.439   0.368   9.181   9.988
   19        0.439   0.369   9.182   9.989
   20        0.457   0.394   9.166  10.017
   21        0.457   0.394   9.166  10.017
   22        0.435   0.372   9.183   9.990
   23        0.457   0.394   9.166  10.017
   24        0.435   0.372   9.183   9.990
   25        0.439   0.369   9.182   9.989
   26        0.439   0.369   9.182   9.989
   27        0.435   0.372   9.183   9.990
   28        0.450   0.284   9.189   9.922
   29        0.444   0.290   9.189   9.924
   30        0.444   0.290   9.189   9.924
   31        0.444   0.290   9.189   9.924
   32        0.444   0.290   9.189   9.924
   33        0.444   0.290   9.189   9.924
   34        0.444   0.290   9.189   9.924
   35        0.442   0.288   9.186   9.917
   36        0.442   0.506   6.371   7.319
   37        1.552   3.523   0.000   5.075
   38        0.607   0.126   0.000   0.733
tot         18.165  15.757 327.764 361.686

 BZINTS: Fermi energy:    0.312033;  400.000000 electrons
         Band energy:-0.103900E+04;  BLOECHL correction:   -0.041482