 vasp.6.2.0 18Jan21 (build Jun 12 2021 23:27:24) complex

 executed on             LinuxIFC date 2022.05.27  06:11:21

 INCAR:
   ISMEAR = -5
   SIGMA = 0.1
   ISPIN = 1
   EDIFF = 1.d-5
   EDIFFG = -0.01
   NSW = 0
   NELM = 150
   ENCUT = 500
   ISIF = 2
   IBRION = 2
   LREAL = Auto
   ALGO = Fast
   ICHARG = 11
   LORBIT = 10
   LCHARG = .F.
   LWAVE = .F.

 POTCAR:    PAW_PBE Cu 22Jun2005
 POTCAR:    PAW_PBE Ru 04Feb2005
 POTCAR:    PAW_PBE N 08Apr2002
|           W    W    AA    RRRRR   N    N  II  N    N   GGGG   !!!           |
|           W    W   A  A   R    R  NN   N  II  NN   N  G    G  !!!           |
|           W    W  A    A  R    R  N N  N  II  N N  N  G       !!!           |
|           W WW W  AAAAAA  RRRRR   N  N N  II  N  N N  G  GGG   !            |
|           WW  WW  A    A  R   R   N   NN  II  N   NN  G    G                |
|           W    W  A    A  R    R  N    N  II  N    N   GGGG   !!!           |
|     For optimal performance we recommend to set                             |
|       NCORE = 2 up to number-of-cores-per-socket                            |
|     This setting can greatly improve the performance of VASP for DFT.       |
|     The default, NCORE=1 might be grossly inefficient on modern             |
|     multi-core architectures or massively parallel machines. Do your        |
|     Unfortunately you need to use the default for GW and RPA                |
|     calculations (for HF NCORE is supported but not extensively tested      |
|     yet).                                                                   |

 POTCAR:    PAW_PBE Cu 22Jun2005
   VRHFIN =Cu: d10 p1

   TITEL  = PAW_PBE Cu 22Jun2005
   POMASS =   63.546; ZVAL   =   11.000    mass and valenz
   ENMAX  =  295.446; ENMIN  =  221.585 eV

 POTCAR:    PAW_PBE Ru 04Feb2005
   VRHFIN =Ru: s1 d7

   TITEL  = PAW_PBE Ru 04Feb2005
   POMASS =  101.070; ZVAL   =    8.000    mass and valenz
   ENMAX  =  213.271; ENMIN  =  159.953 eV

 POTCAR:    PAW_PBE N 08Apr2002
   VRHFIN =N: s2p3

   TITEL  = PAW_PBE N 08Apr2002
   POMASS =   14.001; ZVAL   =    5.000    mass and valenz
   ENMAX  =  400.000; ENMIN  =  300.000 eV

 Optimization of the real space projectors (new method)

 maximal supplied QI-value         = 16.25
 optimisation between [QCUT,QGAM] = [ 11.38, 22.75] = [ 36.24,144.96] Ry
 Optimized for a Real-space Cutoff    1.52 Angstroem

   l    n(q)    QCUT    max X(q) W(low)/X(q) W(high)/X(q)  e(spline)
   2      9    11.376     4.610    0.21E-03    0.10E-03    0.26E-06
   2      9    11.376     8.522    0.33E-03    0.16E-03    0.37E-06
   0     10    11.376    51.609    0.62E-04    0.20E-04    0.13E-06
   0     10    11.376    27.747    0.54E-04    0.20E-04    0.13E-06
   1     10    11.376    20.408    0.13E-04    0.99E-04    0.19E-06
   1     10    11.376    13.425    0.12E-04    0.87E-04    0.17E-06
 Optimization of the real space projectors (new method)

[...]

   l    n(q)    QCUT    max X(q) W(low)/X(q) W(high)/X(q)  e(spline)
   2      9    11.327    61.733    0.26E-03    0.14E-03    0.16E-06
   2      9    11.327    59.886    0.26E-03    0.14E-03    0.17E-06
   0     10    11.327    23.358    0.19E-03    0.14E-04    0.46E-06
   0     10    11.327    11.320    0.15E-03    0.11E-04    0.37E-06
   1     10    11.327    14.765    0.49E-04    0.26E-03    0.24E-06
   1     10    11.327     8.283    0.37E-04    0.20E-03    0.18E-06
 Optimization of the real space projectors (new method)

 maximal supplied QI-value         = 25.13
 optimisation between [QCUT,QGAM] = [ 11.31, 22.87] = [ 35.82,146.48] Ry
 Optimized for a Real-space Cutoff    1.27 Angstroem

   l    n(q)    QCUT    max X(q) W(low)/X(q) W(high)/X(q)  e(spline)
   0      9    11.310    79.467    0.75E-04    0.16E-03    0.36E-06
   0      9    11.310    66.151    0.74E-04    0.16E-03    0.36E-06
   1      8    11.310    17.416    0.35E-03    0.12E-03    0.95E-06
   1      8    11.310    12.382    0.37E-03    0.13E-03    0.98E-06
  PAW_PBE Cu 22Jun2005                  :
  PAW_PBE Ru 04Feb2005                  :
  PAW_PBE N 08Apr2002                   :

 POSCAR: Cu-Ru-N2
  positions in direct lattice
  velocities in cartesian coordinates
 exchange correlation table for  LEXCH =        8
   RHO(1)=    0.500       N(1)  =     2000
   RHO(2)=  100.500       N(2)  =     4000

 VTST: version 3.2, (02/03/18)

 CHAIN: initializing optimizer

 OPT: Using VASP Conjugate-Gradient optimizer
 CHAIN: Read ICHAIN            0

 POSCAR: Cu-Ru-N2
  positions in direct lattice
  velocities in cartesian coordinates

 ion  position               nearest neighbor table
   1  0.000  0.000  0.252-   7 2.57   3 2.57   4 2.57   2 2.57   6 2.57   8 2.57  12 2.57  10 2.57
                            16 2.57
   2  0.333  0.000  0.252-   8 2.57   9 2.57   5 2.57   1 2.57   3 2.57  11 2.57   4 2.57  10 2.57
                            17 2.57
   3  0.667  0.000  0.252-   1 2.57   7 2.57   6 2.57   9 2.57   2 2.57  12 2.57   5 2.57  18 2.57
                            11 2.57
   4  0.000  0.333  0.252-   5 2.57   6 2.57   1 2.57   7 2.57   2 2.57  13 2.57   9 2.57  10 2.57
                            15 2.57
   5  0.333  0.333  0.252-   4 2.57   2 2.57   7 2.57  13 2.57   8 2.57   6 2.57   3 2.57  11 2.57
                            14 2.57
   6  0.667  0.333  0.252-   4 2.57   9 2.57  15 2.57   3 2.57   1 2.57   8 2.57  14 2.57   5 2.57
                            12 2.57
   7  0.000  0.667  0.252-   1 2.57   3 2.57  16 2.57  18 2.57   4 2.57   5 2.57   8 2.57   9 2.57
                            13 2.57
   8  0.333  0.667  0.252-   9 2.57   2 2.57  17 2.57   6 2.57   1 2.57   7 2.57   5 2.57  14 2.57
                            16 2.57
   9  0.667  0.667  0.252-   8 2.57   6 2.57   2 2.57  17 2.57   3 2.57   7 2.57   4 2.57  15 2.57
                            18 2.57
  10  0.111  0.111  0.351-  20 2.55  26 2.56  19 2.56  11 2.57  12 2.57  13 2.57   1 2.57   2 2.57
                             4 2.57  15 2.57  16 2.57  17 2.57
  11  0.444  0.111  0.351-  20 2.55  21 2.55  10 2.57  13 2.57   2 2.57  17 2.57  14 2.57  12 2.57
                             5 2.57   3 2.57  18 2.57  27 2.57
  12  0.778  0.111  0.351-  21 2.55  19 2.56  25 2.56  15 2.57  10 2.57  14 2.57  18 2.57   3 2.57
                             1 2.57  16 2.57  11 2.57   6 2.57
  13  0.111  0.444  0.351-  23 2.55  20 2.55  16 2.57  18 2.57  10 2.57  11 2.57  14 2.57   5 2.57
                             4 2.57   7 2.57  15 2.57  22 2.57
  14  0.444  0.444  0.351-  21 2.55  23 2.55  15 2.57  17 2.57  12 2.57  16 2.57  13 2.57  11 2.57
                             6 2.57   8 2.57   5 2.57  24 2.57
  15  0.778  0.444  0.351-  19 2.56  14 2.57  17 2.57  12 2.57   6 2.57  18 2.57  10 2.57   9 2.57
                            13 2.57   4 2.57  24 2.57  22 2.57
  16  0.111  0.778  0.351-  23 2.55  25 2.56  26 2.56  18 2.57  13 2.57   7 2.57  14 2.57  17 2.57
                            12 2.57  10 2.57   8 2.57   1 2.57
  17  0.444  0.778  0.351-  26 2.56  14 2.57  15 2.57   8 2.57   9 2.57  11 2.57  16 2.57  18 2.57
                            10 2.57   2 2.57  27 2.57  24 2.57
  18  0.778  0.778  0.351-  25 2.56  16 2.57  13 2.57   7 2.57  15 2.57  12 2.57  17 2.57   9 2.57
                             3 2.57  11 2.57  22 2.57  27 2.57
  19  0.889  0.223  0.449-  28 2.55  15 2.56  21 2.56  20 2.56  12 2.56  10 2.56  22 2.56  24 2.56
                            32 2.56  31 2.56  25 2.57  26 2.57
  20  0.222  0.222  0.448-  10 2.55  11 2.55  13 2.55  36 2.55  26 2.56  19 2.56  27 2.57  22 2.57
                            23 2.57  21 2.57  29 2.58  31 2.58
  21  0.556  0.222  0.448-  12 2.55  14 2.55  11 2.55  36 2.55  19 2.56  25 2.56  24 2.57  27 2.57
                            20 2.57  23 2.57  32 2.58  30 2.58
  22  0.888  0.556  0.449-  35 2.55  24 2.56  27 2.56  19 2.56  25 2.56  18 2.57  15 2.57  31 2.57
                            33 2.57  23 2.57  20 2.57  13 2.57
  23  0.222  0.556  0.448-  16 2.55  13 2.55  14 2.55  36 2.55  25 2.56  26 2.56  22 2.57  24 2.57
                            20 2.57  21 2.57  33 2.58  34 2.58
  24  0.556  0.556  0.449-  35 2.55  22 2.56  27 2.56  19 2.56  26 2.56  15 2.57  17 2.57  32 2.57
                            34 2.57  21 2.57  23 2.57  14 2.57
  25  0.889  0.889  0.449-  28 2.55  18 2.56  21 2.56  23 2.56  16 2.56  12 2.56  22 2.56  27 2.56
                            33 2.56  30 2.56  19 2.57  26 2.57
  26  0.223  0.889  0.449-  28 2.55  17 2.56  20 2.56  23 2.56  10 2.56  16 2.56  27 2.56  24 2.56
                            29 2.56  34 2.56  25 2.57  19 2.57
  27  0.556  0.888  0.449-  35 2.55  24 2.56  22 2.56  26 2.56  25 2.56  17 2.57  18 2.57  29 2.57
                            30 2.57  20 2.57  21 2.57  11 2.57
  28  0.000  0.000  0.546-  25 2.55  19 2.55  26 2.55  33 2.56  30 2.56  31 2.56  29 2.56  32 2.56
                            34 2.56
  29  0.333  0.999  0.548-  34 2.55  28 2.56  26 2.56  35 2.56  27 2.57  31 2.57  36 2.57  30 2.58
                            20 2.58
  30  0.668  0.999  0.548-  33 2.55  28 2.56  25 2.56  35 2.56  27 2.57  32 2.57  36 2.57  29 2.58
                            21 2.58
  31  0.999  0.333  0.548-  32 2.55  28 2.56  19 2.56  35 2.56  22 2.57  29 2.57  36 2.57  33 2.58
                            20 2.58
  32  0.668  0.333  0.548-  31 2.55  28 2.56  19 2.56  35 2.56  24 2.57  30 2.57  36 2.57  34 2.58
                            21 2.58
  33  0.999  0.668  0.548-  30 2.55  28 2.56  25 2.56  35 2.56  22 2.57  34 2.57  36 2.57  31 2.58
                            23 2.58
  34  0.333  0.668  0.548-  29 2.55  28 2.56  26 2.56  35 2.56  24 2.57  33 2.57  36 2.57  32 2.58
                            23 2.58
  35  0.667  0.667  0.547-  24 2.55  27 2.55  22 2.55  34 2.56  32 2.56  29 2.56  30 2.56  33 2.56
                            31 2.56
  36  0.333  0.333  0.546-  37 2.35  38 2.35  23 2.55  20 2.55  21 2.55  31 2.57  29 2.57  33 2.57
                            34 2.57  32 2.57  30 2.57
  37  0.260  0.331  0.653-  38 1.14  36 2.35
  38  0.409  0.331  0.653-  37 1.14  36 2.35

  LATTYP: Found a hexagonal cell.
 ALAT       =     7.6967864036
 C/A-ratio  =     2.7653617908

  Lattice vectors:

 A1 = (  -3.8483927580,  -6.6656128093,   0.0000000000)
 A2 = (   7.6967864037,   0.0000000000,   0.0000000000)
 A3 = (   0.0000000000,   0.0000000000,  21.2843990326)

Analysis of symmetry for initial positions (statically):
 Subroutine PRICEL returns:
 Original cell was already a primitive cell.

 Routine SETGRP: Setting up the symmetry group for a
 hexagonal supercell.

 Subroutine GETGRP returns: Found  2 space group operations
 (whereof  2 operations were pure point group operations)
 out of a pool of 24 trial point group operations.

The static configuration has the point symmetry C_1h.

Analysis of symmetry for dynamics (positions and initial velocities):
 Subroutine PRICEL returns:
 Original cell was already a primitive cell.

[...]

The dynamic configuration has the point symmetry C_1h.

Analysis of constrained symmetry for selective dynamics:
 Subroutine PRICEL returns:
 Original cell was already a primitive cell.

 Routine SETGRP: Setting up the symmetry group for a
 hexagonal supercell.

[...]
     33      -3.8116      2.00000
     34      -3.8058      2.00000
     35      -3.7960      2.00000
     36      -3.7727      2.00000
     37      -3.7615      2.00000
     38      -3.7586      2.00000
     39      -3.6935      2.00000
     40      -3.6597      2.00000
     41      -3.5840      2.00000
     42      -3.4851      2.00000
     43      -3.4781      2.00000
     44      -3.4169      2.00000
     45      -3.4061      2.00000
     46      -3.3962      2.00000
     47      -3.3720      2.00000
     48      -3.3631      2.00000
     49      -3.3591      2.00000
     50      -3.3565      2.00000
     51      -3.1581      2.00000
     52      -3.1462      2.00000
     53      -3.1410      2.00000
     54      -3.1367      2.00000
     55      -3.0749      2.00000
     56      -3.0678      2.00000
     57      -3.0623      2.00000
     58      -3.0546      2.00000
     59      -3.0473      2.00000
     60      -3.0292      2.00000
[...]
    238       6.0874      0.00000
    239       6.1644      0.00000
    240       6.4062      0.00000
    241       6.4225      0.00000
    242       6.6369      0.00000
    243       6.7890      0.00000
    244       7.0287      0.00000
    245       7.0400      0.00000
    246       7.1691      0.00000
    247       7.2001      0.00000
    248       7.3901      0.00000
    249       7.5218      0.00000
    250       7.5300      0.00000
    251       7.6684      0.00000
    252       7.7871      0.00000

 soft charge-density along one line, spin component           1
         0         1         2         3         4         5         6         7         8         9
 total charge-density along one line

------------------------ aborting loop because EDIFF is reached ----------------------------------------

 total charge

# of ion       s       p       d       tot
    1        0.447   0.285   9.188   9.920
    2        0.450   0.285   9.186   9.920
    3        0.450   0.285   9.186   9.920
    4        0.450   0.285   9.186   9.920
    5        0.446   0.288   9.180   9.914
    6        0.450   0.285   9.186   9.920
    7        0.450   0.285   9.186   9.920
    8        0.450   0.285   9.186   9.920
    9        0.447   0.283   9.191   9.920
   10        0.441   0.373   9.173   9.987
   11        0.444   0.364   9.185   9.993
   12        0.441   0.373   9.173   9.987
   13        0.444   0.364   9.184   9.992
   14        0.444   0.364   9.184   9.992
   15        0.437   0.369   9.178   9.985
   16        0.441   0.373   9.173   9.987
   17        0.437   0.370   9.178   9.985
   18        0.437   0.370   9.178   9.985
   19        0.441   0.370   9.182   9.993
   20        0.454   0.389   9.167  10.011
   21        0.454   0.389   9.167  10.011
   22        0.431   0.373   9.182   9.986
   23        0.454   0.392   9.164  10.010
   24        0.431   0.373   9.182   9.986
   25        0.442   0.369   9.182   9.994
   26        0.442   0.369   9.182   9.994
   27        0.432   0.371   9.183   9.986
   28        0.450   0.290   9.192   9.932
   29        0.458   0.302   9.183   9.943
   30        0.458   0.302   9.183   9.943
   31        0.454   0.302   9.184   9.939
   32        0.454   0.302   9.184   9.939
   33        0.458   0.302   9.183   9.943
   34        0.458   0.302   9.183   9.943
   35        0.442   0.293   9.192   9.928
   36        0.520   0.531   6.727   7.779
   37        1.357   2.449   0.000   3.806
   38        1.357   2.449   0.000   3.806
tot         18.854  17.105 328.081 364.040

  FORCE on cell =-STRESS in cart. coord.  units (eV):
  Direction    XX          YY          ZZ          XY          YZ          ZX
  Alpha Z   895.85170   895.85170   895.85170
  Ewald  171592.24413171277.73801************     0.00040     0.64960     0.00018
  Hartree184642.44553184530.22704************     0.00004     0.86610     0.00007
  E(xc)   -2326.23848 -2327.48152 -2331.17336    -0.00026    -0.00437    -0.00004
  Local  ************************369069.01790     0.02015    -1.66328    -0.00075
  n-local  -774.28243  -762.96507  -783.21787     2.09060     0.08390     0.09197
  augment  3354.78302  3354.41990  3374.20648    -0.01857     0.01345     0.00021
  Kinetic  3403.84416  3419.73611  3443.61021     1.41345     0.20591    -0.17013
  Fock        0.00000     0.00000     0.00000     0.00000     0.00000     0.00000
  Total      -5.21442    -5.37761     0.47497     0.00000     0.15131    -0.00000
  in kB      -7.65078    -7.89021     0.69689     0.00000     0.22201    -0.00000

 VOLUME and BASIS-vectors are now :
  energy-cutoff  :      500.00
  volume of cell :     1091.97
      direct lattice vectors                 reciprocal lattice vectors
     7.696786404  0.000000000  0.000000000     0.129924354 -0.075011849  0.000000000
     3.848392758  6.665612809  0.000000000     0.000000000  0.150023716  0.000000000
     0.000000000  0.000000000 21.284399033     0.000000000  0.000000000  0.046982769

  length of vectors
     7.696786404  7.696786404 21.284399033     0.150023716  0.150023716  0.046982769

 FORCES acting on ions
    electron-ion (+dipol)            ewald-force                    non-local-force                 convergence-correction
   -.407E-04 0.229E-01 0.350E+04   0.580E-04 -.131E-01 -.350E+04   -.664E-09 0.998E-02 -.308E+01   -.354E-03 -.208E-01 -.311E+00
   -.244E+00 0.864E-01 0.350E+04   0.193E+00 -.131E-01 -.350E+04   0.360E-01 -.240E-01 -.181E+01   0.248E-01 -.303E-01 -.263E+00
   0.244E+00 0.865E-01 0.350E+04   -.193E+00 -.131E-01 -.350E+04   -.360E-01 -.240E-01 -.181E+01   -.240E-01 -.278E-01 -.262E+00
   -.897E-01 -.277E+00 0.350E+04   0.964E-01 0.170E+00 -.350E+04   0.320E-01 0.373E-01 -.185E+01   -.147E-01 0.640E-01 -.255E+00
   -.622E-04 -.749E-01 0.350E+04   0.116E-03 0.238E-02 -.350E+04   -.150E-08 0.225E-01 -.172E+01   0.121E-01 0.504E-01 -.118E+00
   0.897E-01 -.277E+00 0.350E+04   -.965E-01 0.170E+00 -.350E+04   -.320E-01 0.373E-01 -.185E+01   0.131E-01 0.651E-01 -.254E+00
   0.137E+00 0.197E+00 0.350E+04   -.966E-01 -.157E+00 -.350E+04   -.195E-01 -.307E-01 -.179E+01   -.299E-02 -.250E-01 -.275E+00
   -.136E+00 0.197E+00 0.350E+04   0.963E-01 -.157E+00 -.350E+04   0.195E-01 -.307E-01 -.179E+01   0.640E-02 -.265E-01 -.275E+00
   -.143E-03 0.529E-01 0.350E+04   0.263E-03 0.107E-01 -.350E+04   0.118E-08 -.177E-01 -.253E+01   -.131E-01 -.462E-01 -.293E+00
   0.556E+00 0.335E+00 0.121E+04   -.501E-01 -.120E+00 -.121E+04   -.537E+00 -.247E+00 -.117E+01   0.488E-01 0.480E-01 -.450E+00
   -.921E-04 -.356E+00 0.121E+04   0.190E-03 -.115E+00 -.121E+04   -.173E-07 0.260E+00 -.469E+00   0.119E-01 0.143E+00 -.360E+00
   -.556E+00 0.335E+00 0.121E+04   0.500E-01 -.120E+00 -.121E+04   0.537E+00 -.247E+00 -.117E+01   -.506E-01 0.491E-01 -.450E+00
   -.363E+00 0.169E+00 0.121E+04   -.159E-01 0.871E-01 -.121E+04   0.215E+00 -.183E+00 -.484E+00   0.125E+00 -.432E-01 -.385E+00
   0.363E+00 0.169E+00 0.121E+04   0.156E-01 0.871E-01 -.121E+04   -.215E+00 -.183E+00 -.484E+00   -.101E+00 -.448E-01 -.387E+00
   -.143E-03 -.132E+01 0.121E+04   0.298E-03 0.102E+01 -.121E+04   -.131E-07 0.197E+00 -.929E+00   -.345E-02 0.827E-01 -.468E+00
   -.922E-04 -.640E+00 0.121E+04   0.186E-03 0.714E-01 -.121E+04   -.421E-07 0.633E+00 -.121E+01   -.901E-03 -.960E-01 -.449E+00
   -.101E+01 0.640E+00 0.121E+04   0.821E+00 -.455E+00 -.121E+04   0.135E+00 -.114E+00 -.855E+00   0.408E-01 -.621E-01 -.448E+00
   0.101E+01 0.640E+00 0.121E+04   -.821E+00 -.455E+00 -.121E+04   -.135E+00 -.114E+00 -.855E+00   -.394E-01 -.594E-01 -.446E+00
   -.633E-04 -.116E+01 -.109E+04   0.684E-04 0.104E+01 0.109E+04   -.498E-08 0.747E-01 0.977E+00   -.964E-03 0.453E-01 -.521E+00
   -.229E+02 -.127E+02 -.111E+04   0.240E+02 0.134E+02 0.111E+04   -.129E+01 -.796E+00 -.114E+01   0.122E+00 0.404E-01 -.486E+00
   0.229E+02 -.127E+02 -.111E+04   -.240E+02 0.134E+02 0.111E+04   0.129E+01 -.796E+00 -.114E+01   -.120E+00 0.386E-01 -.487E+00
   -.143E+02 0.764E+01 -.110E+04   0.136E+02 -.720E+01 0.110E+04   0.586E+00 -.415E+00 0.853E+00   0.123E+00 -.476E-01 -.510E+00
   -.828E-04 0.255E+02 -.111E+04   0.146E-03 -.270E+02 0.111E+04   -.105E-06 0.158E+01 -.127E+01   -.214E-02 -.108E+00 -.477E+00
   0.143E+02 0.764E+01 -.110E+04   -.136E+02 -.720E+01 0.110E+04   -.586E+00 -.415E+00 0.853E+00   -.101E+00 -.485E-01 -.510E+00
   0.122E+01 0.105E+01 -.109E+04   -.117E+01 -.104E+01 0.109E+04   -.175E-01 0.175E-01 0.887E+00   -.437E-01 -.390E-01 -.513E+00
   -.122E+01 0.105E+01 -.109E+04   0.117E+01 -.104E+01 0.109E+04   0.175E-01 0.175E-01 0.887E+00   0.427E-01 -.392E-01 -.513E+00
   -.121E-03 -.165E+02 -.110E+04   0.243E-03 0.155E+02 0.110E+04   -.546E-07 0.819E+00 0.838E+00   0.109E-01 0.165E+00 -.499E+00
   -.361E-04 0.333E+01 -.337E+04   0.364E-04 -.332E+01 0.337E+04   0.137E-08 -.205E-01 0.216E+01   -.186E-02 -.258E-01 0.160E+00
   -.758E+01 -.506E+01 -.335E+04   0.784E+01 0.491E+01 0.335E+04   -.405E+00 -.716E-01 0.200E+01   0.815E-01 0.802E-01 0.115E+00
   0.758E+01 -.506E+01 -.335E+04   -.784E+01 0.490E+01 0.335E+04   0.405E+00 -.716E-01 0.200E+01   -.589E-01 0.815E-01 0.114E+00
   -.714E+01 -.145E+01 -.334E+04   0.700E+01 0.165E+01 0.334E+04   -.118E+00 -.225E+00 0.275E+01   0.121E+00 0.326E-01 0.121E+00
   0.714E+01 -.145E+01 -.334E+04   -.700E+01 0.165E+01 0.334E+04   0.118E+00 -.225E+00 0.275E+01   -.995E-01 0.332E-01 0.121E+00
   -.644E+01 0.691E+01 -.335E+04   0.639E+01 -.698E+01 0.335E+04   -.608E-01 0.293E+00 0.199E+01   0.533E-01 -.767E-01 0.114E+00
   0.644E+01 0.691E+01 -.335E+04   -.639E+01 -.698E+01 0.335E+04   0.608E-01 0.293E+00 0.199E+01   -.289E-01 -.774E-01 0.115E+00
   -.153E-03 -.286E+01 -.338E+04   0.257E-03 0.281E+01 0.337E+04   -.502E-08 0.754E-01 0.256E+01   -.141E-01 -.477E-02 0.224E+00
   -.527E-04 -.103E+01 -.228E+04   0.100E-03 0.106E+01 0.228E+04   -.391E-08 0.587E-01 0.428E+01   0.401E-03 -.112E-02 -.179E-01
   0.223E+03 -.145E+00 -.168E+04   -.265E+03 0.148E+00 0.168E+04   0.425E+02 -.945E-02 -.613E+01   0.110E-01 0.221E-03 0.997E-01
   -.223E+03 -.145E+00 -.168E+04   0.265E+03 0.148E+00 0.168E+04   -.425E+02 -.945E-02 -.613E+01   -.110E-01 0.251E-03 0.997E-01
   -.111E-03 -.225E+00 0.233E+02   0.568E-13 0.493E-12 -.227E-10   -.105E-07 0.158E+00 -.139E+02   0.115E+00 0.695E-01 -.940E+01

 POSITION                                       TOTAL-FORCE (eV/Angst)
      0.00000      0.00000      5.37156         0.000000     -0.001035      0.021542
      2.56560      0.00000      5.37156         0.009630      0.020205      0.075473
      5.13119      0.00000      5.37156        -0.009630      0.020205      0.075473
      1.28280      2.22187      5.37156         0.024901     -0.005213      0.070122
      3.84839      2.22187      5.37156        -0.000000      0.000269      0.026437
      6.41399      2.22187      5.37156        -0.024901     -0.005213      0.070122
      2.56560      4.44374      5.37156         0.015825     -0.015647      0.070610
      5.13119      4.44374      5.37156        -0.015825     -0.015647      0.070610
      7.69679      4.44374      5.37156         0.000000     -0.000355      0.022884
      1.28280      0.74062      7.46636         0.018731      0.016340     -0.056910
      3.84839      0.74062      7.46636         0.000000     -0.067538     -0.100999
      6.41399      0.74062      7.46636        -0.018731      0.016340     -0.056910
      2.56560      2.96249      7.46636        -0.050989      0.029282     -0.088307
      5.13119      2.96249      7.46636         0.050989      0.029282     -0.088307
      7.69679      2.96249      7.46636         0.000000     -0.014768     -0.003281
      3.84839      5.18437      7.46636         0.000000     -0.032178     -0.047171
      6.41399      5.18437      7.46636        -0.017108      0.009709      0.007027
      8.97958      5.18437      7.46636         0.017108      0.009709      0.007027
      7.69679      1.48414      9.55535        -0.000000      0.002432      0.032722
      2.56128      1.47875      9.53998        -0.000784     -0.026745     -0.137106
      5.13551      1.47875      9.53998         0.000784     -0.026745     -0.137106
      8.97644      3.70493      9.56275         0.042559     -0.023919      0.001598
      3.84839      3.70811      9.53998         0.000000     -0.015258     -0.103079
      6.41713      3.70493      9.56275        -0.042559     -0.023919      0.001598
     10.25987      5.92354      9.55535        -0.004488     -0.002717      0.000854
      5.13370      5.92354      9.55535         0.004488     -0.002717      0.000854
      7.69679      5.92136      9.56275        -0.000000      0.044559     -0.013311
      0.00000      0.00000     11.63109         0.000000     -0.028657     -0.028773
      6.40750      6.66078     11.65531        -0.067795     -0.146623     -0.127573
      8.98608      6.66078     11.65531         0.067795     -0.146623     -0.127573
      8.97216      2.21866     11.65531        -0.148179      0.008903     -0.085604
      6.42142      2.21866     11.65531         0.148179      0.008903     -0.085604
     10.26144      4.45178     11.65531        -0.067663      0.143414     -0.119111
      5.13213      4.45178     11.65531         0.067663      0.143414     -0.119111
      7.69679      4.44374     11.63516        -0.000000      0.024406     -0.021929
      3.84839      2.22187     11.61289        -0.000000      0.087111      1.026445
      3.27648      2.20828     13.89150         0.018117     -0.006482     -0.016817
      4.42031      2.20828     13.89150        -0.018117     -0.006482     -0.016817
    total drift:                                0.115077      0.002298      0.029270

  FREE ENERGIE OF THE ION-ELECTRON SYSTEM (eV)
  free  energy   TOTEN  =      -146.75613358 eV

  energy  without entropy=     -146.75613358  energy(sigma->0) =     -146.75613358

 stress matrix after NEB project (eV)
     -5.21442      0.00000     -0.00000
      0.00000     -5.37761      0.15131
     -0.00000      0.15131      0.47497
  FORCES: max atom, RMS     0.025555    0.005863
  FORCE total and by dimension    0.036140    0.018117
  Stress total and by dimension    7.508676    5.377605
|           W    W    AA    RRRRR   N    N  II  N    N   GGGG   !!!           |
|           W    W   A  A   R    R  NN   N  II  NN   N  G    G  !!!           |
|           W    W  A    A  R    R  N N  N  II  N N  N  G       !!!           |
|           W WW W  AAAAAA  RRRRR   N  N N  II  N  N N  G  GGG   !            |
|           WW  WW  A    A  R   R   N   NN  II  N   NN  G    G                |
|           W    W  A    A  R    R  N    N  II  N    N   GGGG   !!!           |
|     Tetrahedron method does not include variations of the Fermi             |
|     occupations, so forces and stress will be inaccurate. We suggest        |
|     using a different smearing scheme ISMEAR = 1 or 2 for metals in         |
|     relaxations.                                                            |

 total charge

# of ion       s       p       d       tot
    1        0.447   0.285   9.188   9.920
    2        0.450   0.285   9.186   9.920
    3        0.450   0.285   9.186   9.920
    4        0.450   0.285   9.186   9.920
    5        0.446   0.288   9.180   9.914
    6        0.450   0.285   9.186   9.920
    7        0.450   0.285   9.186   9.920
    8        0.450   0.285   9.186   9.920
    9        0.447   0.283   9.191   9.920
   10        0.441   0.373   9.173   9.987
   11        0.444   0.364   9.185   9.993
   12        0.441   0.373   9.173   9.987
   13        0.444   0.364   9.184   9.992
   14        0.444   0.364   9.184   9.992
   15        0.437   0.369   9.178   9.985
   16        0.441   0.373   9.173   9.987
   17        0.437   0.370   9.178   9.985
   18        0.437   0.370   9.178   9.985
   19        0.441   0.370   9.182   9.993
   20        0.454   0.389   9.167  10.011
   21        0.454   0.389   9.167  10.011
   22        0.431   0.373   9.182   9.986
   23        0.454   0.392   9.164  10.010
   24        0.431   0.373   9.182   9.986
   25        0.442   0.369   9.182   9.994
   26        0.442   0.369   9.182   9.994
   27        0.432   0.371   9.183   9.986
   28        0.450   0.290   9.192   9.932
   29        0.458   0.302   9.183   9.943
   30        0.458   0.302   9.183   9.943
   31        0.454   0.302   9.184   9.939
   32        0.454   0.302   9.184   9.939
   33        0.458   0.302   9.183   9.943
   34        0.458   0.302   9.183   9.943
   35        0.442   0.293   9.192   9.928
   36        0.520   0.531   6.727   7.779
   37        1.357   2.449   0.000   3.806
   38        1.357   2.449   0.000   3.806
tot         18.854  17.105 328.081 364.040

 BZINTS: Fermi energy:    0.280856;  403.000000 electrons
         Band energy:-0.108229E+04;  BLOECHL correction:   -0.056638