 vasp.6.2.0 18Jan21 (build Jun 12 2021 23:27:24) complex

 executed on             LinuxIFC date 2022.05.26  19:24:24

 INCAR:
   ISMEAR = -5
   SIGMA = 0.1
   ISPIN = 1
   EDIFF = 1.d-5
   EDIFFG = -0.01
   NSW = 0
   NELM = 150
   ENCUT = 500
   ISIF = 2
   IBRION = 2
   LREAL = Auto
   ALGO = Fast
   ICHARG = 11
   LORBIT = 10
   LCHARG = .F.
   LWAVE = .F.

 POTCAR:    PAW_PBE Au 04Oct2007
 POTCAR:    PAW_PBE Zr_sv 04Jan2005
 POTCAR:    PAW_PBE N 08Apr2002
|           W    W    AA    RRRRR   N    N  II  N    N   GGGG   !!!           |
|           W    W   A  A   R    R  NN   N  II  NN   N  G    G  !!!           |
|           W    W  A    A  R    R  N N  N  II  N N  N  G       !!!           |
|           W WW W  AAAAAA  RRRRR   N  N N  II  N  N N  G  GGG   !            |
|           WW  WW  A    A  R   R   N   NN  II  N   NN  G    G                |
|           W    W  A    A  R    R  N    N  II  N    N   GGGG   !!!           |
|     For optimal performance we recommend to set                             |
|       NCORE = 2 up to number-of-cores-per-socket                            |
|     This setting can greatly improve the performance of VASP for DFT.       |
|     The default, NCORE=1 might be grossly inefficient on modern             |
|     multi-core architectures or massively parallel machines. Do your        |
|     Unfortunately you need to use the default for GW and RPA                |
|     calculations (for HF NCORE is supported but not extensively tested      |
|     yet).                                                                   |

 POTCAR:    PAW_PBE Au 04Oct2007
   VRHFIN =Au: s1d10

   TITEL  = PAW_PBE Au 04Oct2007
   POMASS =  196.966; ZVAL   =   11.000    mass and valenz
   ENMAX  =  229.943; ENMIN  =  172.457 eV

 POTCAR:    PAW_PBE Zr_sv 04Jan2005
   VRHFIN =Zr: 4s4p5s4d

   TITEL  = PAW_PBE Zr_sv 04Jan2005
   POMASS =   91.224; ZVAL   =   12.000    mass and valenz
   ENMAX  =  229.898; ENMIN  =  172.424 eV

 POTCAR:    PAW_PBE N 08Apr2002
   VRHFIN =N: s2p3

   TITEL  = PAW_PBE N 08Apr2002
   POMASS =   14.001; ZVAL   =    5.000    mass and valenz
   ENMAX  =  400.000; ENMIN  =  300.000 eV

 Optimization of the real space projectors (new method)

 maximal supplied QI-value         = 15.12
 optimisation between [QCUT,QGAM] = [ 11.34, 22.83] = [ 36.00,145.93] Ry
 Optimized for a Real-space Cutoff    1.39 Angstroem

   l    n(q)    QCUT    max X(q) W(low)/X(q) W(high)/X(q)  e(spline)
   2      9    11.338    60.898    0.39E-03    0.42E-03    0.21E-06
   2      9    11.338    58.894    0.40E-03    0.42E-03    0.22E-06
   0      9    11.338   109.617    0.13E-03    0.20E-04    0.13E-06
   0      9    11.338    75.026    0.13E-03    0.20E-04    0.13E-06
   1      9    11.338    16.344    0.33E-04    0.24E-03    0.18E-06
   1      9    11.338    10.160    0.26E-04    0.19E-03    0.15E-06
 Optimization of the real space projectors (new method)

[...]

   l    n(q)    QCUT    max X(q) W(low)/X(q) W(high)/X(q)  e(spline)
   0     10    11.338    12.107    0.38E-04    0.13E-04    0.27E-07
   0     10    11.338     9.948    0.69E-04    0.30E-04    0.38E-07
   1     10    11.338     3.563    0.26E-04    0.18E-04    0.40E-07
   1     10    11.338     4.524    0.25E-03    0.39E-04    0.44E-06
   2      9    11.338    87.261    0.26E-03    0.91E-05    0.26E-06
   2      9    11.338    70.950    0.25E-03    0.91E-05    0.25E-06
 Optimization of the real space projectors (new method)

 maximal supplied QI-value         = 25.13
 optimisation between [QCUT,QGAM] = [ 11.31, 22.87] = [ 35.82,146.48] Ry
 Optimized for a Real-space Cutoff    1.27 Angstroem

   l    n(q)    QCUT    max X(q) W(low)/X(q) W(high)/X(q)  e(spline)
   0      9    11.310    79.467    0.75E-04    0.16E-03    0.36E-06
   0      9    11.310    66.151    0.74E-04    0.16E-03    0.36E-06
   1      8    11.310    17.416    0.35E-03    0.12E-03    0.95E-06
   1      8    11.310    12.382    0.37E-03    0.13E-03    0.98E-06
  PAW_PBE Au 04Oct2007                  :
  PAW_PBE Zr_sv 04Jan2005               :
  PAW_PBE N 08Apr2002                   :

 POSCAR: Au-Zr-N
  positions in direct lattice
  velocities in cartesian coordinates
 exchange correlation table for  LEXCH =        8
   RHO(1)=    0.500       N(1)  =     2000
   RHO(2)=  100.500       N(2)  =     4000

 VTST: version 3.2, (02/03/18)

 CHAIN: initializing optimizer

 OPT: Using VASP Conjugate-Gradient optimizer
 CHAIN: Read ICHAIN            0

 POSCAR: Au-Zr-N
  positions in direct lattice
  velocities in cartesian coordinates

 ion  position               nearest neighbor table
   1  0.000  0.000  0.238-  16 2.94  12 2.94   6 2.94   8 2.94   7 2.94   3 2.94  10 2.94   4 2.94
                             2 2.94
   2  0.333  0.000  0.238-   9 2.94  11 2.94  17 2.94  10 2.94   8 2.94   4 2.94   5 2.94   1 2.94
                             3 2.94
   3  0.667  0.000  0.238-   7 2.94  18 2.94  12 2.94   1 2.94  11 2.94   5 2.94   6 2.94   9 2.94
                             2 2.94
   4  0.000  0.333  0.238-  10 2.94   6 2.94   5 2.94  13 2.94   2 2.94  15 2.94   9 2.94   1 2.94
                             7 2.94
   5  0.333  0.333  0.238-  13 2.94   7 2.94  11 2.94   4 2.94   2 2.94  14 2.94   3 2.94   8 2.94
                             6 2.94
   6  0.667  0.333  0.238-  15 2.94  14 2.94   1 2.94  12 2.94   4 2.94   9 2.94   8 2.94   3 2.94
                             5 2.94
   7  0.000  0.667  0.238-  18 2.94   3 2.94  16 2.94   5 2.94   1 2.94  13 2.94   8 2.94   4 2.94
                             9 2.94
   8  0.333  0.667  0.238-   9 2.94  17 2.94   1 2.94   2 2.94  14 2.94  16 2.94   6 2.94   7 2.94
                             5 2.94
   9  0.667  0.667  0.238-   2 2.94   8 2.94  17 2.94   6 2.94  15 2.94   4 2.94   3 2.94  18 2.94
                             7 2.94
  10  0.111  0.111  0.346-  20 2.93  26 2.93  19 2.93  11 2.94  17 2.94   2 2.94   4 2.94   1 2.94
                            12 2.94  16 2.94  13 2.94  15 2.94
  11  0.444  0.111  0.346-  20 2.92  21 2.92  27 2.94  13 2.94   2 2.94  10 2.94  17 2.94   5 2.94
                             3 2.94  18 2.94  14 2.94  12 2.94
  12  0.778  0.111  0.346-  21 2.93  25 2.93  19 2.93  16 2.94  18 2.94   1 2.94  14 2.94  15 2.94
                             3 2.94   6 2.94  10 2.94  11 2.94
  13  0.111  0.444  0.346-  23 2.92  20 2.92  22 2.94   5 2.94  18 2.94  11 2.94   7 2.94   4 2.94
                            16 2.94  10 2.94  14 2.94  15 2.94
  14  0.444  0.444  0.346-  21 2.92  23 2.92  24 2.94  15 2.94   6 2.94  12 2.94   8 2.94  17 2.94
                             5 2.94  16 2.94  13 2.94  11 2.94
  15  0.778  0.444  0.346-  24 2.93  22 2.93  19 2.93  14 2.94   6 2.94  17 2.94  12 2.94   9 2.94
                             4 2.94  10 2.94  13 2.94  18 2.94
  16  0.111  0.778  0.346-  23 2.93  25 2.93  26 2.93  18 2.94  12 2.94   7 2.94   1 2.94   8 2.94
                            13 2.94  10 2.94  14 2.94  17 2.94
  17  0.444  0.778  0.346-  27 2.93  24 2.93  26 2.93   9 2.94  15 2.94   2 2.94  10 2.94  11 2.94
                             8 2.94  14 2.94  16 2.94  18 2.94
  18  0.778  0.778  0.346-  22 2.93  27 2.93  25 2.93  16 2.94   7 2.94  13 2.94  12 2.94   3 2.94
                            11 2.94   9 2.94  15 2.94  17 2.94
  19  0.889  0.222  0.454-  10 2.93  12 2.93  15 2.93  26 2.94  25 2.94  24 2.94  22 2.94  21 2.95
                            20 2.95  28 2.96  32 3.04  31 3.04
  20  0.223  0.223  0.453-  36 2.86  23 2.92  21 2.92  11 2.92  13 2.92  10 2.93  27 2.94  22 2.94
                            26 2.95  19 2.95  29 3.00  31 3.00
  21  0.554  0.223  0.453-  36 2.86  20 2.92  23 2.92  14 2.92  11 2.92  12 2.93  27 2.94  24 2.94
                            25 2.95  19 2.95  30 3.00  32 3.00
  22  0.888  0.556  0.454-  24 2.92  27 2.92  18 2.93  15 2.93  13 2.94  25 2.94  19 2.94  23 2.94
                            20 2.94  35 2.96  33 3.01  31 3.01
  23  0.223  0.554  0.453-  36 2.86  20 2.92  21 2.92  13 2.92  14 2.92  16 2.93  22 2.94  24 2.94
                            25 2.95  26 2.95  33 3.00  34 3.00
  24  0.556  0.556  0.454-  27 2.92  22 2.92  15 2.93  17 2.93  14 2.94  26 2.94  19 2.94  21 2.94
                            23 2.94  35 2.96  32 3.01  34 3.01
  25  0.889  0.889  0.454-  16 2.93  12 2.93  18 2.93  19 2.94  26 2.94  22 2.94  27 2.94  23 2.95
                            21 2.95  28 2.96  33 3.04  30 3.04
  26  0.222  0.889  0.454-  10 2.93  16 2.93  17 2.93  19 2.94  25 2.94  27 2.94  24 2.94  20 2.95
                            23 2.95  28 2.96  29 3.04  34 3.04
  27  0.556  0.888  0.454-  24 2.92  22 2.92  17 2.93  18 2.93  11 2.94  26 2.94  25 2.94  20 2.94
                            21 2.94  35 2.96  29 3.01  30 3.01
  28  0.000  0.000  0.563-  25 2.96  19 2.96  26 2.96  34 2.97  32 2.97  33 2.97  30 2.97  31 2.97
                            29 2.97
  29  0.334  0.006  0.566-  30 2.88  31 2.89  36 2.89  35 2.96  28 2.97  20 3.00  27 3.01  26 3.04
                            34 3.04
  30  0.661  0.006  0.566-  29 2.88  32 2.89  36 2.89  35 2.96  28 2.97  21 3.00  27 3.01  25 3.04
                            33 3.04
  31  0.006  0.334  0.566-  33 2.88  29 2.89  36 2.89  35 2.96  28 2.97  20 3.00  22 3.01  19 3.04
                            32 3.04
  32  0.661  0.334  0.566-  34 2.88  30 2.89  36 2.89  35 2.96  28 2.97  21 3.00  24 3.01  19 3.04
                            31 3.04
  33  0.006  0.661  0.566-  31 2.88  34 2.89  36 2.89  35 2.96  28 2.97  23 3.00  22 3.01  25 3.04
                            30 3.04
  34  0.334  0.661  0.566-  32 2.88  33 2.89  36 2.89  35 2.96  28 2.97  23 3.00  24 3.01  26 3.04
                            29 3.04
  35  0.667  0.667  0.563-  24 2.96  27 2.96  22 2.96  29 2.96  34 2.96  32 2.96  31 2.96  30 2.96
                            33 2.96
  36  0.333  0.333  0.557-  37 1.83  20 2.86  23 2.86  21 2.86  33 2.89  31 2.89  29 2.89  30 2.89
                            34 2.89  32 2.89
  37  0.333  0.333  0.640-  36 1.83

  LATTYP: Found a hexagonal cell.
 ALAT       =     8.8135128021
 C/A-ratio  =     2.5184286595

  Lattice vectors:

 A1 = (  -4.4067569092,  -7.6327256898,   0.0000000000)
 A2 = (   8.8135128021,   0.0000000000,   0.0000000000)
 A3 = (   0.0000000000,   0.0000000000,  22.1962032318)

Analysis of symmetry for initial positions (statically):
 Subroutine PRICEL returns:
 Original cell was already a primitive cell.

 Routine SETGRP: Setting up the symmetry group for a
 hexagonal supercell.

 Subroutine GETGRP returns: Found  6 space group operations
 (whereof  6 operations were pure point group operations)
 out of a pool of 24 trial point group operations.

The static configuration has the point symmetry C_3v.

Analysis of symmetry for dynamics (positions and initial velocities):
 Subroutine PRICEL returns:
 Original cell was already a primitive cell.

[...]

The dynamic configuration has the point symmetry C_3v.

Analysis of constrained symmetry for selective dynamics:
 Subroutine PRICEL returns:
 Original cell was already a primitive cell.

 Routine SETGRP: Setting up the symmetry group for a
 hexagonal supercell.

 Subroutine GETGRP returns: Found  6 space group operations
[...]
     24      -5.2262      2.00000
     25      -5.2194      2.00000
     26      -5.2146      2.00000
     27      -5.1657      2.00000
     28      -5.1293      2.00000
     29      -5.1037      2.00000
     30      -5.0733      2.00000
     31      -5.0649      2.00000
     32      -4.9967      2.00000
     33      -4.9565      2.00000
     34      -4.8543      2.00000
     35      -4.8511      2.00000
     36      -4.8304      2.00000
     37      -4.8068      2.00000
     38      -4.7907      2.00000
     39      -4.7761      2.00000
     40      -4.7031      2.00000
     41      -4.6812      2.00000
     42      -4.5916      2.00000
     43      -4.5653      2.00000
     44      -4.5224      2.00000
     45      -4.4629      2.00000
     46      -4.4383      2.00000
     47      -4.4018      2.00000
     48      -4.3809      2.00000
     49      -4.3558      2.00000
     50      -4.3367      2.00000
     51      -4.2473      2.00000
     52      -4.2207      2.00000
     53      -4.2049      2.00000
     54      -4.1759      2.00000
     55      -4.1648      2.00000
     56      -4.1539      2.00000
     57      -4.1511      2.00000
     58      -4.1259      2.00000
     59      -4.0768      2.00000
     60      -4.0544      2.00000
[...]
    238       6.0881      0.00000
    239       6.3026      0.00000
    240       6.3567      0.00000
    241       6.4610      0.00000
    242       6.5075      0.00000
    243       6.6657      0.00000
    244       6.6738      0.00000
    245       6.7232      0.00000
    246       6.7931      0.00000
    247       6.9464      0.00000
    248       7.0321      0.00000
    249       7.1566      0.00000
    250       7.2188      0.00000
    251       7.3529      0.00000
    252       7.4138      0.00000

 soft charge-density along one line, spin component           1
         0         1         2         3         4         5         6         7         8         9
 total charge-density along one line

------------------------ aborting loop because EDIFF is reached ----------------------------------------

 total charge

# of ion       s       p       d       tot
    1        0.544   0.239   8.766   9.550
    2        0.543   0.240   8.765   9.548
    3        0.543   0.240   8.765   9.548
    4        0.543   0.240   8.765   9.548
    5        0.545   0.240   8.762   9.546
    6        0.543   0.240   8.765   9.548
    7        0.543   0.240   8.765   9.548
    8        0.543   0.240   8.765   9.548
    9        0.542   0.240   8.768   9.550
   10        0.518   0.307   8.773   9.599
   11        0.521   0.306   8.776   9.603
   12        0.518   0.307   8.773   9.599
   13        0.521   0.306   8.776   9.603
   14        0.521   0.306   8.776   9.603
   15        0.517   0.309   8.772   9.598
   16        0.518   0.307   8.773   9.599
   17        0.517   0.309   8.772   9.598
   18        0.517   0.309   8.772   9.598
   19        0.515   0.296   8.774   9.585
   20        0.549   0.321   8.760   9.631
   21        0.549   0.321   8.760   9.631
   22        0.508   0.304   8.775   9.586
   23        0.549   0.321   8.760   9.631
   24        0.508   0.304   8.775   9.586
   25        0.515   0.296   8.774   9.585
   26        0.515   0.296   8.774   9.585
   27        0.508   0.304   8.775   9.586
   28        0.543   0.230   8.759   9.532
   29        0.573   0.232   8.757   9.563
   30        0.573   0.232   8.757   9.563
   31        0.573   0.232   8.757   9.563
   32        0.573   0.232   8.757   9.563
   33        0.573   0.232   8.757   9.563
   34        0.573   0.232   8.757   9.563
   35        0.545   0.231   8.756   9.532
   36        2.200   5.996   1.929  10.125
   37        1.343   2.193   0.000   3.535
tot         22.344  17.734 308.763 348.841

  FORCE on cell =-STRESS in cart. coord.  units (eV):
  Direction    XX          YY          ZZ          XY          YZ          ZX
  Alpha Z  1033.41195  1033.41195  1033.41195
  Ewald  119413.31099119413.31146************    -0.00032    -0.00008    -0.00012
  Hartree128235.51655128235.51656************     0.00001    -0.00002    -0.00003
  E(xc)   -1800.35309 -1800.35308 -1806.66040    -0.00001    -0.00000    -0.00000
  Local  ************************260185.19055     0.00191     0.00001    -0.00000
  n-local   -88.12343   -42.74227   -60.43757    22.90140    -1.61824     1.63644
  augment  2366.05756  2366.05911  2389.60556    -0.00134    -0.00001     0.00003
  Kinetic  5656.21530  5663.94183  5742.15414     5.41865     0.17460     0.38582
  Fock        0.00000     0.00000     0.00000     0.00000     0.00000     0.00000
  Total     -16.89487   -16.89487     2.15033    -0.00000     0.00000    -0.00000
  in kB     -18.12834   -18.12834     2.30732    -0.00000     0.00000    -0.00000

 VOLUME and BASIS-vectors are now :
  energy-cutoff  :      500.00
  volume of cell :     1493.16
      direct lattice vectors                 reciprocal lattice vectors
     8.813512802  0.000000000  0.000000000     0.113462137 -0.065507406  0.000000000
     4.406756909  7.632725690  0.000000000     0.000000000  0.131014796  0.000000000
     0.000000000  0.000000000 22.196203232     0.000000000  0.000000000  0.045052750

  length of vectors
     8.813512802  8.813512802 22.196203232     0.131014796  0.131014796  0.045052750

 FORCES acting on ions
    electron-ion (+dipol)            ewald-force                    non-local-force                 convergence-correction
   -.195E-04 -.161E-04 0.250E+04   0.519E-04 0.434E-04 -.250E+04   0.635E-17 0.356E-18 -.616E+00   -.146E-03 -.978E-04 -.240E+00
   0.361E+00 0.393E+00 0.250E+04   -.433E+00 -.586E+00 -.250E+04   0.131E-01 0.686E-01 -.363E+00   0.541E-01 0.113E+00 -.265E+00
   -.361E+00 0.393E+00 0.250E+04   0.433E+00 -.586E+00 -.250E+04   -.131E-01 0.686E-01 -.363E+00   -.539E-01 0.115E+00 -.265E+00
   0.520E+00 0.116E+00 0.250E+04   -.724E+00 -.821E-01 -.250E+04   0.659E-01 -.229E-01 -.363E+00   0.125E+00 -.975E-02 -.265E+00
   0.845E-05 -.235E-04 0.250E+04   0.951E-04 0.171E-05 -.250E+04   0.284E-18 -.299E-17 -.294E+00   0.427E-02 0.260E-02 -.237E+00
   -.520E+00 0.116E+00 0.250E+04   0.724E+00 -.822E-01 -.250E+04   -.659E-01 -.229E-01 -.363E+00   -.127E+00 -.874E-02 -.265E+00
   0.160E+00 -.509E+00 0.250E+04   -.291E+00 0.668E+00 -.250E+04   0.528E-01 -.456E-01 -.363E+00   0.728E-01 -.104E+00 -.265E+00
   -.160E+00 -.509E+00 0.250E+04   0.291E+00 0.668E+00 -.250E+04   -.528E-01 -.456E-01 -.363E+00   -.709E-01 -.105E+00 -.265E+00
   0.194E-04 -.416E-04 0.250E+04   0.166E-03 -.201E-04 -.250E+04   -.485E-17 0.346E-18 -.505E+00   -.466E-02 -.242E-02 -.245E+00
   0.388E+01 0.224E+01 0.863E+03   -.380E+01 -.219E+01 -.862E+03   -.161E+00 -.931E-01 -.416E+00   0.506E-01 0.291E-01 -.104E+00
   0.157E-04 0.651E+01 0.871E+03   0.147E-03 -.663E+01 -.870E+03   0.190E-08 0.285E-01 -.371E+00   0.345E-02 0.564E-01 -.179E+00
   -.388E+01 0.224E+01 0.863E+03   0.380E+01 -.219E+01 -.862E+03   0.161E+00 -.931E-01 -.416E+00   -.515E-01 0.305E-01 -.105E+00
   0.564E+01 -.325E+01 0.871E+03   -.574E+01 0.331E+01 -.870E+03   0.247E-01 -.143E-01 -.371E+00   0.509E-01 -.249E-01 -.179E+00
   -.564E+01 -.325E+01 0.871E+03   0.574E+01 0.331E+01 -.870E+03   -.247E-01 -.143E-01 -.371E+00   -.432E-01 -.251E-01 -.180E+00
   0.303E-04 0.504E+00 0.863E+03   0.236E-03 -.487E+00 -.862E+03   0.125E-08 0.187E-01 -.449E+00   -.221E-02 -.424E-01 -.159E+00
   -.217E-04 -.448E+01 0.863E+03   0.163E-03 0.439E+01 -.862E+03   0.124E-07 0.186E+00 -.416E+00   0.403E-03 -.599E-01 -.105E+00
   0.436E+00 -.252E+00 0.863E+03   -.421E+00 0.243E+00 -.862E+03   0.162E-01 -.935E-02 -.449E+00   -.376E-01 0.197E-01 -.159E+00
   -.436E+00 -.252E+00 0.863E+03   0.421E+00 0.243E+00 -.862E+03   -.162E-01 -.935E-02 -.449E+00   0.373E-01 0.213E-01 -.159E+00
   -.426E-04 -.986E+00 -.804E+03   0.520E-04 0.950E+00 0.804E+03   0.718E-08 0.108E+00 0.921E+00   0.348E-02 -.479E-01 0.409E-01
   0.406E+02 0.234E+02 -.748E+03   -.401E+02 -.231E+02 0.748E+03   -.771E+00 -.445E+00 -.676E+00   -.699E-01 -.405E-01 -.240E-01
   -.406E+02 0.234E+02 -.748E+03   0.401E+02 -.231E+02 0.748E+03   0.771E+00 -.445E+00 -.676E+00   0.694E-01 -.378E-01 -.241E-01
   0.116E+02 -.667E+01 -.794E+03   -.118E+02 0.683E+01 0.794E+03   0.309E+00 -.179E+00 0.721E+00   0.372E-01 -.275E-01 0.459E-01
   -.760E-05 -.468E+02 -.748E+03   0.144E-03 0.463E+02 0.748E+03   0.592E-07 0.890E+00 -.676E+00   0.173E-02 0.790E-01 -.241E-01
   -.116E+02 -.667E+01 -.794E+03   0.118E+02 0.683E+01 0.794E+03   -.309E+00 -.179E+00 0.721E+00   -.443E-01 -.255E-01 0.460E-01
   0.854E+00 0.493E+00 -.804E+03   -.823E+00 -.475E+00 0.804E+03   -.934E-01 -.539E-01 0.921E+00   0.481E-01 0.277E-01 0.406E-01
   -.854E+00 0.493E+00 -.804E+03   0.822E+00 -.475E+00 0.804E+03   0.934E-01 -.539E-01 0.921E+00   -.394E-01 0.270E-01 0.409E-01
   0.124E-04 0.133E+02 -.794E+03   0.194E-03 -.137E+02 0.794E+03   0.238E-07 0.357E+00 0.721E+00   -.577E-02 0.459E-01 0.459E-01
   -.160E-04 -.139E-04 -.242E+04   0.299E-04 0.359E-04 0.242E+04   -.150E-17 -.134E-17 0.397E+00   0.390E-03 0.206E-03 0.810E-01
   0.500E+02 0.831E+02 -.243E+04   -.494E+02 -.821E+02 0.243E+04   -.805E+00 -.129E+01 0.728E+00   0.137E-03 0.116E-01 0.811E-01
   -.500E+02 0.831E+02 -.243E+04   0.494E+02 -.821E+02 0.243E+04   0.805E+00 -.129E+01 0.728E+00   -.438E-03 0.139E-01 0.825E-01
   0.970E+02 0.180E+01 -.243E+04   -.958E+02 -.174E+01 0.243E+04   -.152E+01 -.513E-01 0.728E+00   0.102E-01 -.574E-02 0.811E-01
   -.970E+02 0.180E+01 -.243E+04   0.958E+02 -.174E+01 0.243E+04   0.152E+01 -.513E-01 0.728E+00   -.118E-01 -.426E-02 0.815E-01
   0.469E+02 -.849E+02 -.243E+04   -.464E+02 0.839E+02 0.243E+04   -.716E+00 0.134E+01 0.728E+00   0.118E-01 -.733E-02 0.825E-01
   -.469E+02 -.849E+02 -.243E+04   0.464E+02 0.839E+02 0.243E+04   0.716E+00 0.134E+01 0.728E+00   -.957E-02 -.806E-02 0.815E-01
   0.300E-04 -.260E-04 -.242E+04   0.143E-03 -.511E-04 0.242E+04   0.127E-17 -.627E-17 0.391E+00   -.495E-02 -.257E-02 0.127E+00
   0.245E-03 -.141E-03 -.235E+04   0.120E-03 0.103E-04 0.236E+04   0.103E-17 -.108E-17 -.371E+01   0.573E-02 0.350E-02 0.431E-01
   0.115E-03 -.653E-04 -.143E+04   0.170E-04 0.109E-05 0.144E+04   -.324E-17 -.305E-18 -.129E+02   0.181E-02 0.110E-02 -.156E+00
   -.375E-03 -.938E-03 0.191E+02   -.506E-13 0.606E-13 -.909E-11   0.221E-15 0.214E-15 -.158E+02   0.119E-01 0.762E-02 -.287E+01

 POSITION                                       TOTAL-FORCE (eV/Angst)
      0.00000      0.00000      5.28038        -0.000000      0.000000     -0.090997
      2.93784      0.00000      5.28038        -0.004761     -0.010600     -0.055286
      5.87568      0.00000      5.28038         0.004761     -0.010600     -0.055286
      1.46892      2.54424      5.28038        -0.011561      0.001177     -0.055286
      4.40676      2.54424      5.28038        -0.000000      0.000000     -0.085383
      7.34459      2.54424      5.28038         0.011561      0.001177     -0.055286
      2.93784      5.08848      5.28038        -0.006799      0.009424     -0.055286
      5.87568      5.08848      5.28038         0.006799      0.009424     -0.055286
      8.81351      5.08848      5.28038        -0.000000      0.000000     -0.056659
      1.46892      0.84808      7.67911        -0.025504     -0.014725      0.070354
      4.40676      0.84808      7.67911        -0.000000     -0.033771      0.044369
      7.34459      0.84808      7.67911         0.025504     -0.014725      0.070354
      2.93784      3.39232      7.67911        -0.029246      0.016885      0.044369
      5.87568      3.39232      7.67911         0.029246      0.016885      0.044369
      8.81351      3.39232      7.67911        -0.000000     -0.006555      0.133698
      4.40676      5.93656      7.67911         0.000000      0.029449      0.070354
      7.34459      5.93656      7.67911        -0.005677      0.003278      0.133698
     10.28243      5.93656      7.67911         0.005677      0.003278      0.133698
      8.81351      1.69571     10.07248         0.000000      0.021564      0.119469
      2.94528      1.70046     10.06340        -0.340897     -0.196817     -0.315443
      5.86824      1.70046     10.06340         0.340897     -0.196817     -0.315443
     10.27570      4.24429     10.07162         0.077498     -0.044743      0.091807
      4.40676      4.23182     10.06340         0.000000      0.393634     -0.315443
      7.35132      4.24429     10.07162        -0.077498     -0.044743      0.091807
     11.75174      6.78487     10.07248        -0.018675     -0.010782      0.119469
      5.87529      6.78487     10.07248         0.018675     -0.010782      0.119469
      8.81351      6.77688     10.07162         0.000000      0.089487      0.091807
      0.00000      0.00000     12.49858        -0.000000      0.000000     -0.052511
      2.96552      0.04535     12.55994        -0.181585     -0.319853     -0.143219
      5.84799      0.04535     12.55994         0.181585     -0.319853     -0.143219
      1.52204      2.54555     12.55994        -0.367794      0.002670     -0.143219
      7.29148      2.54555     12.55994         0.367794      0.002670     -0.143219
      2.96327      5.04183     12.55994        -0.186209      0.317184     -0.143219
      5.85025      5.04183     12.55994         0.186209      0.317184     -0.143219
      8.81351      5.08848     12.50663        -0.000000      0.000000     -0.034272
      4.40676      2.54424     12.37417        -0.000000      0.000000      1.052549
      4.40676      2.54424     14.20012        -0.000000      0.000000      0.025542
    total drift:                                0.011498      0.006678      0.451575

  FREE ENERGIE OF THE ION-ELECTRON SYSTEM (eV)
  free  energy   TOTEN  =      -122.77903378 eV

  energy  without entropy=     -122.77903378  energy(sigma->0) =     -122.77903378

 stress matrix after NEB project (eV)
    -16.89487     -0.00000     -0.00000
     -0.00000    -16.89487      0.00000
      0.00000      0.00000      2.15033
  FORCES: max atom, RMS     0.025542    0.004199
  FORCE total and by dimension    0.025542    0.025542
  Stress total and by dimension   23.989525   16.894872
|           W    W    AA    RRRRR   N    N  II  N    N   GGGG   !!!           |
|           W    W   A  A   R    R  NN   N  II  NN   N  G    G  !!!           |
|           W    W  A    A  R    R  N N  N  II  N N  N  G       !!!           |
|           W WW W  AAAAAA  RRRRR   N  N N  II  N  N N  G  GGG   !            |
|           WW  WW  A    A  R   R   N   NN  II  N   NN  G    G                |
|           W    W  A    A  R    R  N    N  II  N    N   GGGG   !!!           |
|     Tetrahedron method does not include variations of the Fermi             |
|     occupations, so forces and stress will be inaccurate. We suggest        |
|     using a different smearing scheme ISMEAR = 1 or 2 for metals in         |
|     relaxations.                                                            |

 total charge

# of ion       s       p       d       tot
    1        0.544   0.239   8.766   9.550
    2        0.543   0.240   8.765   9.548
    3        0.543   0.240   8.765   9.548
    4        0.543   0.240   8.765   9.548
    5        0.545   0.240   8.762   9.546
    6        0.543   0.240   8.765   9.548
    7        0.543   0.240   8.765   9.548
    8        0.543   0.240   8.765   9.548
    9        0.542   0.240   8.768   9.550
   10        0.518   0.307   8.773   9.599
   11        0.521   0.306   8.776   9.603
   12        0.518   0.307   8.773   9.599
   13        0.521   0.306   8.776   9.603
   14        0.521   0.306   8.776   9.603
   15        0.517   0.309   8.772   9.598
   16        0.518   0.307   8.773   9.599
   17        0.517   0.309   8.772   9.598
   18        0.517   0.309   8.772   9.598
   19        0.515   0.296   8.774   9.585
   20        0.549   0.321   8.760   9.631
   21        0.549   0.321   8.760   9.631
   22        0.508   0.304   8.775   9.586
   23        0.549   0.321   8.760   9.631
   24        0.508   0.304   8.775   9.586
   25        0.515   0.296   8.774   9.585
   26        0.515   0.296   8.774   9.585
   27        0.508   0.304   8.775   9.586
   28        0.543   0.230   8.759   9.532
   29        0.573   0.232   8.757   9.563
   30        0.573   0.232   8.757   9.563
   31        0.573   0.232   8.757   9.563
   32        0.573   0.232   8.757   9.563
   33        0.573   0.232   8.757   9.563
   34        0.573   0.232   8.757   9.563
   35        0.545   0.231   8.756   9.532
   36        2.200   5.996   1.929  10.125
   37        1.343   2.193   0.000   3.535
tot         22.344  17.734 308.763 348.841

 BZINTS: Fermi energy:    0.616468;  402.000000 electrons
         Band energy:-0.148178E+04;  BLOECHL correction:   -0.091384