 vasp.6.2.0 18Jan21 (build Jun 12 2021 23:27:24) complex

 executed on             LinuxIFC date 2022.05.30  16:03:53

 INCAR:
   ISMEAR = -5
   SIGMA = 0.1
   ISPIN = 1
   EDIFF = 1.d-5
   EDIFFG = -0.01
   NSW = 0
   NELM = 150
   ENCUT = 500
   ISIF = 2
   IBRION = 2
   LREAL = Auto
   ALGO = Fast
   ICHARG = 11
   LORBIT = 10
   LCHARG = .F.
   LWAVE = .F.

 POTCAR:    PAW_PBE Au 04Oct2007
 POTCAR:    PAW_PBE Mo 08Apr2002
 POTCAR:    PAW_PBE C 08Apr2002
 POTCAR:    PAW_PBE O 08Apr2002
 POTCAR:    PAW_PBE H 15Jun2001
|           W    W    AA    RRRRR   N    N  II  N    N   GGGG   !!!           |
|           W    W   A  A   R    R  NN   N  II  NN   N  G    G  !!!           |
|           W    W  A    A  R    R  N N  N  II  N N  N  G       !!!           |
|           W WW W  AAAAAA  RRRRR   N  N N  II  N  N N  G  GGG   !            |
|           WW  WW  A    A  R   R   N   NN  II  N   NN  G    G                |
|           W    W  A    A  R    R  N    N  II  N    N   GGGG   !!!           |
|     For optimal performance we recommend to set                             |
|       NCORE = 2 up to number-of-cores-per-socket                            |
|     This setting can greatly improve the performance of VASP for DFT.       |
|     The default, NCORE=1 might be grossly inefficient on modern             |
|     multi-core architectures or massively parallel machines. Do your        |
|     Unfortunately you need to use the default for GW and RPA                |
|     calculations (for HF NCORE is supported but not extensively tested      |
|     yet).                                                                   |

 POTCAR:    PAW_PBE Au 04Oct2007
   VRHFIN =Au: s1d10

   TITEL  = PAW_PBE Au 04Oct2007
   POMASS =  196.966; ZVAL   =   11.000    mass and valenz
   ENMAX  =  229.943; ENMIN  =  172.457 eV

 POTCAR:    PAW_PBE Mo 08Apr2002
   VRHFIN =Mo: 4p5s4d

   TITEL  = PAW_PBE Mo 08Apr2002
   POMASS =   95.940; ZVAL   =    6.000    mass and valenz
   ENMAX  =  224.584; ENMIN  =  168.438 eV

 POTCAR:    PAW_PBE C 08Apr2002
   VRHFIN =C: s2p2

[...]

 POTCAR:    PAW_PBE O 08Apr2002
   VRHFIN =O: s2p4

   TITEL  = PAW_PBE O 08Apr2002
   POMASS =   16.000; ZVAL   =    6.000    mass and valenz
   ENMAX  =  400.000; ENMIN  =  300.000 eV

 POTCAR:    PAW_PBE H 15Jun2001
   VRHFIN =H: ultrasoft test

   TITEL  = PAW_PBE H 15Jun2001
   POMASS =    1.000; ZVAL   =    1.000    mass and valenz
   ENMAX  =  250.000; ENMIN  =  200.000 eV

 Optimization of the real space projectors (new method)

 maximal supplied QI-value         = 15.12
 optimisation between [QCUT,QGAM] = [ 11.34, 22.83] = [ 36.00,145.93] Ry
 Optimized for a Real-space Cutoff    1.39 Angstroem

   l    n(q)    QCUT    max X(q) W(low)/X(q) W(high)/X(q)  e(spline)
   2      9    11.338    60.898    0.39E-03    0.42E-03    0.21E-06
   2      9    11.338    58.894    0.40E-03    0.42E-03    0.22E-06
   0      9    11.338   109.617    0.13E-03    0.20E-04    0.13E-06
   0      9    11.338    75.026    0.13E-03    0.20E-04    0.13E-06
   1      9    11.338    16.344    0.33E-04    0.24E-03    0.18E-06
   1      9    11.338    10.160    0.26E-04    0.19E-03    0.15E-06
 Optimization of the real space projectors (new method)

[...]

   l    n(q)    QCUT    max X(q) W(low)/X(q) W(high)/X(q)  e(spline)
   0      7    11.387    20.381    0.39E-03    0.13E-02    0.15E-06
   0      7    11.387    15.268    0.42E-03    0.14E-02    0.17E-06
   1      6    11.387     5.964    0.41E-03    0.11E-02    0.17E-06
   1      6    11.387     5.382    0.39E-03    0.87E-03    0.15E-06
 Optimization of the real space projectors (new method)

 maximal supplied QI-value         = 34.20
 optimisation between [QCUT,QGAM] = [ 11.29, 22.57] = [ 35.68,142.71] Ry
 Optimized for a Real-space Cutoff    1.16 Angstroem

   l    n(q)    QCUT    max X(q) W(low)/X(q) W(high)/X(q)  e(spline)
   0      8    11.287    19.460    0.40E-03    0.73E-03    0.16E-06
   0      8    11.287    12.209    0.38E-03    0.70E-03    0.15E-06
   1      7    11.287     4.655    0.22E-03    0.25E-04    0.22E-06
  PAW_PBE Au 04Oct2007                  :
  PAW_PBE Mo 08Apr2002                  :
  PAW_PBE C 08Apr2002                   :
  PAW_PBE O 08Apr2002                   :
  PAW_PBE H 15Jun2001                   :

 POSCAR: Au-Mo-COH
  positions in direct lattice
  velocities in cartesian coordinates
 exchange correlation table for  LEXCH =        8
   RHO(1)=    0.500       N(1)  =     2000
   RHO(2)=  100.500       N(2)  =     4000

 VTST: version 3.2, (02/03/18)

 CHAIN: initializing optimizer

 OPT: Using VASP Conjugate-Gradient optimizer
 CHAIN: Read ICHAIN            0

 POSCAR: Au-Mo-COH
  positions in direct lattice
  velocities in cartesian coordinates

 ion  position               nearest neighbor table
   1  0.000  0.000  0.197-  16 2.94  12 2.94   6 2.94   8 2.94   7 2.94   3 2.94  10 2.94   4 2.94
                             2 2.94
   2  0.333  0.000  0.197-   9 2.94  11 2.94  17 2.94  10 2.94   8 2.94   4 2.94   5 2.94   1 2.94
                             3 2.94
   3  0.667  0.000  0.197-   7 2.94  18 2.94  12 2.94   1 2.94  11 2.94   5 2.94   6 2.94   9 2.94
                             2 2.94
   4  0.000  0.333  0.197-  10 2.94   6 2.94   5 2.94  13 2.94   2 2.94  15 2.94   9 2.94   1 2.94
                             7 2.94
   5  0.333  0.333  0.197-  13 2.94   7 2.94  11 2.94   4 2.94   2 2.94  14 2.94   3 2.94   8 2.94
                             6 2.94
   6  0.667  0.333  0.197-  15 2.94  14 2.94   1 2.94  12 2.94   4 2.94   9 2.94   8 2.94   3 2.94
                             5 2.94
   7  0.000  0.667  0.197-  18 2.94   3 2.94  16 2.94   5 2.94   1 2.94  13 2.94   8 2.94   4 2.94
                             9 2.94
   8  0.333  0.667  0.197-   9 2.94  17 2.94   1 2.94   2 2.94  14 2.94  16 2.94   6 2.94   7 2.94
                             5 2.94
   9  0.667  0.667  0.197-   2 2.94   8 2.94  17 2.94   6 2.94  15 2.94   4 2.94   3 2.94  18 2.94
                             7 2.94
  10  0.111  0.111  0.287-  20 2.91  11 2.94  17 2.94   2 2.94   4 2.94   1 2.94  12 2.94  16 2.94
                            13 2.94  15 2.94  26 2.95  19 2.95
  11  0.444  0.111  0.287-  20 2.91  21 2.91  13 2.94   2 2.94  10 2.94  17 2.94   5 2.94   3 2.94
                            18 2.94  14 2.94  12 2.94  27 2.94
  12  0.778  0.111  0.287-  21 2.91  16 2.94  18 2.94   1 2.94  14 2.94  15 2.94   3 2.94   6 2.94
                            10 2.94  11 2.94  25 2.95  19 2.95
  13  0.111  0.444  0.287-  23 2.91  20 2.91   5 2.94  18 2.94  11 2.94   7 2.94   4 2.94  16 2.94
                            10 2.94  14 2.94  15 2.94  22 2.94
  14  0.444  0.444  0.287-  21 2.91  23 2.91  15 2.94   6 2.94  12 2.94   8 2.94  17 2.94   5 2.94
                            16 2.94  13 2.94  11 2.94  24 2.94
  15  0.778  0.444  0.287-  24 2.93  22 2.93  14 2.94   6 2.94  17 2.94  12 2.94   9 2.94   4 2.94
                            10 2.94  13 2.94  18 2.94  19 2.95
  16  0.111  0.778  0.287-  23 2.91  18 2.94  12 2.94   7 2.94   1 2.94   8 2.94  13 2.94  10 2.94
                            14 2.94  17 2.94  25 2.95  26 2.95
  17  0.444  0.778  0.287-  27 2.93  24 2.93   9 2.94  15 2.94   2 2.94  10 2.94  11 2.94   8 2.94
                            14 2.94  16 2.94  18 2.94  26 2.95
  18  0.778  0.778  0.287-  22 2.93  27 2.93  16 2.94   7 2.94  13 2.94  12 2.94   3 2.94  11 2.94
                             9 2.94  15 2.94  17 2.94  25 2.95
  19  0.889  0.223  0.377-  24 2.93  22 2.93  21 2.94  20 2.94  28 2.95  26 2.95  25 2.95  15 2.95
                            10 2.95  12 2.95  32 3.02  31 3.02
  20  0.222  0.222  0.375-  36 2.77  11 2.91  13 2.91  10 2.91  23 2.94  21 2.94  26 2.94  19 2.94
                            27 2.95  22 2.95  29 2.98  31 2.98
  21  0.555  0.222  0.375-  36 2.77  14 2.91  11 2.91  12 2.91  20 2.94  23 2.94  25 2.94  19 2.94
                            27 2.95  24 2.95  30 2.98  32 2.98
  22  0.887  0.557  0.376-  24 2.91  27 2.91  18 2.93  15 2.93  25 2.93  19 2.93  13 2.94  35 2.95
                            23 2.95  20 2.95  33 3.00  31 3.00
  23  0.222  0.555  0.375-  36 2.77  13 2.91  14 2.91  16 2.91  20 2.94  21 2.94  25 2.94  26 2.94
                            22 2.95  24 2.95  33 2.98  34 2.98
  24  0.557  0.557  0.376-  27 2.91  22 2.91  15 2.93  17 2.93  26 2.93  19 2.93  14 2.94  35 2.95
                            21 2.95  23 2.95  32 3.00  34 3.00
  25  0.889  0.889  0.377-  22 2.93  27 2.93  23 2.94  21 2.94  28 2.95  19 2.95  26 2.95  18 2.95
                            16 2.95  12 2.95  33 3.02  30 3.02
  26  0.223  0.889  0.377-  27 2.93  24 2.93  20 2.94  23 2.94  28 2.95  19 2.95  25 2.95  17 2.95
                            10 2.95  16 2.95  29 3.02  34 3.02
  27  0.557  0.887  0.376-  24 2.91  22 2.91  17 2.93  18 2.93  26 2.93  25 2.93  11 2.94  35 2.95
                            20 2.95  21 2.95  29 3.00  30 3.00
  28  0.000  0.000  0.467-  25 2.95  19 2.95  26 2.95  34 2.98  32 2.98  33 2.98  30 2.98  31 2.98
                            29 2.98
  29  0.333  0.010  0.469-  30 2.85  31 2.85  36 2.87  20 2.98  35 2.98  28 2.98  27 3.00  26 3.02
                            34 3.11
  30  0.657  0.010  0.469-  29 2.85  32 2.85  36 2.87  21 2.98  35 2.98  28 2.98  27 3.00  25 3.02
                            33 3.11
  31  0.010  0.333  0.469-  33 2.85  29 2.85  36 2.87  20 2.98  35 2.98  28 2.98  22 3.00  19 3.02
                            32 3.11
  32  0.657  0.333  0.469-  34 2.85  30 2.85  36 2.87  21 2.98  35 2.98  28 2.98  24 3.00  19 3.02
                            31 3.11
  33  0.010  0.657  0.469-  31 2.85  34 2.85  36 2.87  23 2.98  35 2.98  28 2.98  22 3.00  25 3.02
                            30 3.11
  34  0.333  0.657  0.469-  32 2.85  33 2.85  36 2.87  23 2.98  35 2.98  28 2.98  24 3.00  26 3.02
                            29 3.11
  35  0.667  0.667  0.467-  24 2.95  27 2.95  22 2.95  29 2.98  34 2.98  32 2.98  31 2.98  30 2.98
                            33 2.98
  36  0.333  0.333  0.457-  37 1.84  20 2.77  23 2.77  21 2.77  33 2.87  31 2.87  29 2.87  30 2.87
                            34 2.87  32 2.87
  37  0.333  0.333  0.526-  38 1.26  36 1.84
  38  0.333  0.333  0.573-  39 0.96  37 1.26
  39  0.333  0.333  0.609-  38 0.96

  LATTYP: Found a hexagonal cell.
 ALAT       =     8.8135128021
 C/A-ratio  =     3.0356784858

  Lattice vectors:

 A1 = (  -4.4067569092,  -7.6327256898,   0.0000000000)
 A2 = (   8.8135128021,   0.0000000000,   0.0000000000)
 A3 = (   0.0000000000,   0.0000000000,  26.7549911976)

Analysis of symmetry for initial positions (statically):
 Subroutine PRICEL returns:
 Original cell was already a primitive cell.

 Routine SETGRP: Setting up the symmetry group for a
 hexagonal supercell.

 Subroutine GETGRP returns: Found  6 space group operations
 (whereof  6 operations were pure point group operations)
 out of a pool of 24 trial point group operations.

The static configuration has the point symmetry C_3v.

Analysis of symmetry for dynamics (positions and initial velocities):
 Subroutine PRICEL returns:
 Original cell was already a primitive cell.

[...]

[...]
     41      -5.0511      2.00000
     42      -4.9294      2.00000
     43      -4.9187      2.00000
     44      -4.8597      2.00000
     45      -4.8079      2.00000
     46      -4.7899      2.00000
     47      -4.7521      2.00000
     48      -4.7340      2.00000
     49      -4.6993      2.00000
     50      -4.6851      2.00000
     51      -4.5893      2.00000
     52      -4.5625      2.00000
     53      -4.5451      2.00000
     54      -4.5188      2.00000
     55      -4.5129      2.00000
     56      -4.5051      2.00000
     57      -4.4904      2.00000
     58      -4.4666      2.00000
     59      -4.4269      2.00000
     60      -4.3935      2.00000
[...]
    238       5.2646      0.00000
    239       5.3045      0.00000
    240       5.4726      0.00000
    241       5.5773      0.00000
    242       5.7040      0.00000
    243       5.9216      0.00000
    244       5.9397      0.00000
    245       5.9658      0.00000
    246       6.0710      0.00000
    247       6.0955      0.00000
    248       6.1047      0.00000
    249       6.1742      0.00000
    250       6.2794      0.00000
    251       6.3276      0.00000
    252       6.3757      0.00000

 soft charge-density along one line, spin component           1
         0         1         2         3         4         5         6         7         8         9
 total charge-density along one line

------------------------ aborting loop because EDIFF is reached ----------------------------------------

 total charge

# of ion       s       p       d       tot
    1        0.544   0.239   8.768   9.551
    2        0.546   0.241   8.763   9.551
    3        0.546   0.241   8.763   9.551
    4        0.546   0.241   8.763   9.551
    5        0.543   0.243   8.759   9.545
    6        0.546   0.241   8.763   9.551
    7        0.546   0.241   8.763   9.551
    8        0.546   0.241   8.763   9.551
    9        0.541   0.240   8.769   9.551
   10        0.521   0.308   8.770   9.598
   11        0.524   0.307   8.779   9.610
   12        0.521   0.308   8.770   9.598
   13        0.524   0.307   8.779   9.610
   14        0.524   0.307   8.779   9.610
   15        0.514   0.310   8.774   9.597
   16        0.521   0.308   8.770   9.598
   17        0.514   0.310   8.774   9.597
   18        0.514   0.310   8.774   9.597
   19        0.518   0.296   8.772   9.586
   20        0.559   0.332   8.747   9.639
   21        0.559   0.332   8.747   9.639
   22        0.507   0.308   8.775   9.589
   23        0.559   0.332   8.747   9.639
   24        0.507   0.308   8.775   9.589
   25        0.518   0.296   8.772   9.586
   26        0.518   0.296   8.772   9.586
   27        0.507   0.308   8.775   9.589
   28        0.542   0.229   8.760   9.531
   29        0.567   0.250   8.744   9.560
   30        0.567   0.250   8.744   9.560
   31        0.567   0.250   8.744   9.560
   32        0.567   0.250   8.744   9.560
   33        0.567   0.250   8.744   9.560
   34        0.567   0.250   8.744   9.560
   35        0.541   0.231   8.755   9.527
   36        0.443   0.521   4.362   5.326
   37        0.927   1.449   0.000   2.376
   38        1.523   3.772   0.000   5.295
   39        0.562   0.137   0.000   0.699
tot         22.270  15.585 311.070 348.925

  FORCE on cell =-STRESS in cart. coord.  units (eV):
  Direction    XX          YY          ZZ          XY          YZ          ZX
  Alpha Z   863.64149   863.64149   863.64149
  Ewald  184413.16092184413.16134************    -0.00032    -0.00009    -0.00013
  Hartree192908.94590192908.94590************     0.00001    -0.00002    -0.00004
  E(xc)   -1802.82508 -1802.82522 -1810.56472     0.00012    -0.00001    -0.00002
  Local  ************************389373.75764     0.00216     0.00000    -0.00001
  n-local  -118.97784   -72.56652   -70.00692    23.11337    -1.67458     1.51683
  augment  2380.91846  2380.92001  2396.95168    -0.00134    -0.00001     0.00003
  Kinetic  5631.88339  5642.51684  5632.25555     6.77100     0.17083     0.37916
  Fock        0.00000     0.00000     0.00000     0.00000     0.00000     0.00000
  Total     -21.00716   -21.00716     3.53567    -0.00000     0.00000     0.00000
  in kB     -18.70013   -18.70012     3.14737    -0.00000     0.00000     0.00000

 VOLUME and BASIS-vectors are now :
  energy-cutoff  :      500.00
  volume of cell :     1799.84
      direct lattice vectors                 reciprocal lattice vectors
     8.813512802  0.000000000  0.000000000     0.113462137 -0.065507406  0.000000000
     4.406756909  7.632725690  0.000000000     0.000000000  0.131014796  0.000000000
     0.000000000  0.000000000 26.754991198     0.000000000  0.000000000  0.037376204

  length of vectors
     8.813512802  8.813512802 26.754991198     0.131014796  0.131014796  0.037376204

 FORCES acting on ions
    electron-ion (+dipol)            ewald-force                    non-local-force                 convergence-correction
   -.201E-04 -.165E-04 0.281E+04   0.519E-04 0.433E-04 -.281E+04   -.139E-16 -.128E-17 -.899E+00   -.280E-03 -.175E-03 -.389E+00
   0.521E+00 0.149E+00 0.282E+04   -.594E+00 -.189E+00 -.281E+04   0.389E-01 0.570E-01 -.230E+00   0.430E-01 0.118E-02 -.353E+00
   -.521E+00 0.149E+00 0.282E+04   0.594E+00 -.189E+00 -.281E+04   -.389E-01 0.570E-01 -.230E+00   -.426E-01 0.322E-02 -.352E+00
   0.389E+00 0.377E+00 0.282E+04   -.461E+00 -.420E+00 -.281E+04   0.688E-01 0.520E-02 -.230E+00   0.226E-01 0.366E-01 -.353E+00
   0.104E-04 -.222E-04 0.282E+04   0.951E-04 0.174E-05 -.282E+04   0.155E-17 -.106E-17 -.114E+00   0.440E-02 0.267E-02 -.311E+00
   -.389E+00 0.377E+00 0.282E+04   0.461E+00 -.420E+00 -.281E+04   -.688E-01 0.520E-02 -.230E+00   -.242E-01 0.375E-01 -.351E+00
   -.132E+00 -.526E+00 0.282E+04   0.133E+00 0.609E+00 -.281E+04   0.299E-01 -.622E-01 -.230E+00   -.185E-01 -.385E-01 -.352E+00
   0.131E+00 -.526E+00 0.282E+04   -.134E+00 0.609E+00 -.281E+04   -.299E-01 -.622E-01 -.230E+00   0.204E-01 -.397E-01 -.351E+00
   0.196E-04 -.415E-04 0.282E+04   0.166E-03 -.200E-04 -.282E+04   -.206E-17 0.814E-18 -.630E+00   -.466E-02 -.241E-02 -.402E+00
   0.555E+01 0.320E+01 0.961E+03   -.531E+01 -.307E+01 -.960E+03   -.328E+00 -.190E+00 -.606E+00   0.771E-01 0.444E-01 0.124E+00
   0.148E-04 0.298E+01 0.966E+03   0.148E-03 -.318E+01 -.966E+03   0.548E-08 0.824E-01 -.277E+00   0.426E-02 0.417E-01 0.163E+00
   -.555E+01 0.320E+01 0.961E+03   0.531E+01 -.307E+01 -.960E+03   0.328E+00 -.190E+00 -.606E+00   -.790E-01 0.464E-01 0.125E+00
   0.258E+01 -.149E+01 0.966E+03   -.275E+01 0.159E+01 -.966E+03   0.713E-01 -.412E-01 -.277E+00   0.386E-01 -.169E-01 0.163E+00
   -.258E+01 -.149E+01 0.966E+03   0.275E+01 0.159E+01 -.966E+03   -.713E-01 -.412E-01 -.277E+00   -.302E-01 -.176E-01 0.164E+00
   0.316E-04 0.440E+01 0.964E+03   0.236E-03 -.452E+01 -.964E+03   0.175E-08 0.262E-01 -.465E+00   -.297E-02 0.423E-01 0.156E+00
   -.205E-04 -.641E+01 0.961E+03   0.162E-03 0.613E+01 -.960E+03   0.252E-07 0.379E+00 -.606E+00   0.398E-03 -.916E-01 0.125E+00
   0.381E+01 -.220E+01 0.964E+03   -.391E+01 0.226E+01 -.964E+03   0.227E-01 -.131E-01 -.465E+00   0.354E-01 -.233E-01 0.156E+00
   -.381E+01 -.220E+01 0.964E+03   0.391E+01 0.226E+01 -.964E+03   -.227E-01 -.131E-01 -.465E+00   -.353E-01 -.207E-01 0.156E+00
   -.435E-04 0.627E+00 -.920E+03   0.546E-04 -.801E+00 0.919E+03   0.256E-08 0.385E-01 0.677E+00   -.593E-02 0.128E+00 0.610E+00
   0.136E+00 0.787E-01 -.887E+03   0.468E+00 0.270E+00 0.886E+03   -.112E+01 -.647E+00 -.109E+01   0.291E+00 0.168E+00 0.966E+00
   -.136E+00 0.787E-01 -.887E+03   -.468E+00 0.270E+00 0.886E+03   0.112E+01 -.647E+00 -.109E+01   -.282E+00 0.170E+00 0.966E+00
   -.831E+01 0.480E+01 -.901E+03   0.780E+01 -.451E+01 0.900E+03   0.450E+00 -.260E+00 0.701E+00   0.925E-01 -.563E-01 0.661E+00
   -.104E-04 -.158E+00 -.887E+03   0.139E-03 -.540E+00 0.886E+03   0.862E-07 0.129E+01 -.109E+01   0.583E-02 -.329E+00 0.966E+00
   0.831E+01 0.480E+01 -.901E+03   -.780E+01 -.451E+01 0.900E+03   -.450E+00 -.260E+00 0.701E+00   -.101E+00 -.581E-01 0.661E+00
   -.543E+00 -.314E+00 -.920E+03   0.694E+00 0.401E+00 0.919E+03   -.333E-01 -.192E-01 0.677E+00   -.113E+00 -.656E-01 0.610E+00
   0.543E+00 -.314E+00 -.920E+03   -.694E+00 0.401E+00 0.919E+03   0.333E-01 -.192E-01 0.677E+00   0.108E+00 -.693E-01 0.610E+00
   0.886E-05 -.959E+01 -.901E+03   0.198E-03 0.901E+01 0.900E+03   0.346E-07 0.519E+00 0.701E+00   -.308E-02 0.108E+00 0.661E+00
   -.143E-04 -.132E-04 -.271E+04   0.298E-04 0.339E-04 0.271E+04   -.421E-17 0.826E-18 0.372E+00   -.334E-03 -.210E-03 0.723E+00
   0.242E+02 0.399E+02 -.269E+04   -.235E+02 -.391E+02 0.269E+04   -.938E+00 -.138E+01 0.187E+00   0.232E+00 0.341E+00 0.463E+00
   -.242E+02 0.399E+02 -.269E+04   0.235E+02 -.391E+02 0.269E+04   0.938E+00 -.138E+01 0.187E+00   -.231E+00 0.343E+00 0.463E+00
   0.466E+02 0.958E+00 -.269E+04   -.456E+02 -.847E+00 0.269E+04   -.167E+01 -.121E+00 0.187E+00   0.411E+00 0.301E-01 0.463E+00
   -.466E+02 0.958E+00 -.269E+04   0.456E+02 -.847E+00 0.269E+04   0.167E+01 -.121E+00 0.187E+00   -.413E+00 0.308E-01 0.462E+00
   0.225E+02 -.409E+02 -.269E+04   -.221E+02 0.399E+02 0.269E+04   -.729E+00 0.150E+01 0.187E+00   0.182E+00 -.371E+00 0.463E+00
   -.225E+02 -.409E+02 -.269E+04   0.221E+02 0.399E+02 0.269E+04   0.729E+00 0.150E+01 0.187E+00   -.180E+00 -.373E+00 0.462E+00
   0.337E-04 -.285E-04 -.271E+04   0.141E-03 -.496E-04 0.271E+04   -.143E-16 -.137E-17 0.352E+00   -.478E-02 -.247E-02 0.533E+00
   -.306E-05 0.214E-05 -.127E+04   0.625E-04 0.565E-05 0.128E+04   -.544E-17 0.154E-17 -.755E+00   0.126E-02 0.749E-03 0.341E+00
   -.652E-05 -.794E-04 -.101E+04   0.152E-04 0.965E-06 0.989E+03   0.954E-18 -.127E-17 0.203E+02   0.118E-02 0.718E-03 -.236E+00
   0.244E-03 -.900E-04 -.172E+04   0.502E-05 0.504E-06 0.172E+04   0.432E-18 0.340E-18 -.567E+01   0.388E-02 0.237E-02 -.252E+00
   0.636E-05 -.145E-04 -.331E+03   0.216E-06 0.375E-07 0.339E+03   -.110E-19 -.578E-21 -.871E+01   0.205E-03 0.125E-03 -.309E-01
   -.534E-03 -.943E-03 -.919E+01   -.256E-14 -.162E-13 -.307E-11   0.204E-15 0.221E-15 0.772E+00   0.379E-02 0.292E-02 0.868E+01

 POSITION                                       TOTAL-FORCE (eV/Angst)
      0.00000      0.00000      5.28038        -0.000000      0.000000     -0.106853
      2.93784      0.00000      5.28038         0.008753      0.019136     -0.060521
      5.87568      0.00000      5.28038        -0.008753      0.019136     -0.060521
      1.46892      2.54424      5.28038         0.020949     -0.001988     -0.060521
      4.40676      2.54424      5.28038        -0.000000      0.000000     -0.091638
      7.34459      2.54424      5.28038        -0.020949     -0.001988     -0.060521
      2.93784      5.08848      5.28038         0.012196     -0.017148     -0.060521
      5.87568      5.08848      5.28038        -0.012196     -0.017148     -0.060521
      8.81351      5.08848      5.28038        -0.000000      0.000000     -0.057257
      1.46892      0.84808      7.67911        -0.012682     -0.007322      0.165316
      4.40676      0.84808      7.67911        -0.000000     -0.072084      0.079784
      7.34459      0.84808      7.67911         0.012682     -0.007322      0.165316
      2.93784      3.39232      7.67911        -0.062426      0.036042      0.079784
      5.87568      3.39232      7.67911         0.062426      0.036042      0.079784
      8.81351      3.39232      7.67911        -0.000000     -0.052084      0.160286
      4.40676      5.93656      7.67911         0.000000      0.014644      0.165316
      7.34459      5.93656      7.67911        -0.045106      0.026042      0.160286
     10.28243      5.93656      7.67911         0.045106      0.026042      0.160286
      8.81351      1.70181     10.09390        -0.000000     -0.005852      0.045500
      2.93906      1.69686     10.04479        -0.230086     -0.132840     -0.331631
      5.87446      1.69686     10.04479         0.230086     -0.132840     -0.331631
     10.26694      4.24935     10.06849         0.044201     -0.025519      0.016352
      4.40676      4.23900     10.04479         0.000000      0.265681     -0.331631
      7.36009      4.24935     10.06849        -0.044201     -0.025519      0.016352
     11.74646      6.78182     10.09390         0.005068      0.002926      0.045500
      5.88057      6.78182     10.09390        -0.005068      0.002926      0.045500
      8.81351      6.76675     10.06849         0.000000      0.051039      0.016352
      0.00000      0.00000     12.49934        -0.000000      0.000000     -0.149944
      2.98260      0.07565     12.53968        -0.089801     -0.195719     -0.175177
      5.83091      0.07565     12.53968         0.089801     -0.195719     -0.175177
      1.55682      2.54518     12.53968        -0.214398      0.020090     -0.175177
      7.25669      2.54518     12.53968         0.214398      0.020090     -0.175177
      2.98097      5.01189     12.53968        -0.124597      0.175629     -0.175177
      5.83254      5.01189     12.53968         0.124597      0.175629     -0.175177
      8.81351      5.08848     12.49853        -0.000000      0.000000     -0.071194
      4.40676      2.54424     12.23451        -0.000000      0.000000      1.423246
      4.40676      2.54424     14.07012        -0.000000      0.000000      0.077690
      4.40676      2.54424     15.32581        -0.000000      0.000000     -0.020912
      4.40676      2.54424     16.28278        -0.000000      0.000000      0.004229
    total drift:                                0.003258      0.001979      0.265800

  FREE ENERGIE OF THE ION-ELECTRON SYSTEM (eV)
  free  energy   TOTEN  =      -134.08466836 eV

  energy  without entropy=     -134.08466836  energy(sigma->0) =     -134.08466836

 stress matrix after NEB project (eV)
    -21.00716     -0.00000      0.00000
     -0.00000    -21.00716      0.00000
     -0.00000      0.00000      3.53567
  FORCES: max atom, RMS     0.077690    0.012901
  FORCE total and by dimension    0.080566    0.077690
  Stress total and by dimension   29.918269   21.007165
|           W    W    AA    RRRRR   N    N  II  N    N   GGGG   !!!           |
|           W    W   A  A   R    R  NN   N  II  NN   N  G    G  !!!           |
|           W    W  A    A  R    R  N N  N  II  N N  N  G       !!!           |
|           W WW W  AAAAAA  RRRRR   N  N N  II  N  N N  G  GGG   !            |
|           WW  WW  A    A  R   R   N   NN  II  N   NN  G    G                |
|           W    W  A    A  R    R  N    N  II  N    N   GGGG   !!!           |
|     Tetrahedron method does not include variations of the Fermi             |
|     occupations, so forces and stress will be inaccurate. We suggest        |
|     using a different smearing scheme ISMEAR = 1 or 2 for metals in         |
|     relaxations.                                                            |

 total charge

# of ion       s       p       d       tot
    1        0.544   0.239   8.768   9.551
    2        0.546   0.241   8.763   9.551
    3        0.546   0.241   8.763   9.551
    4        0.546   0.241   8.763   9.551
    5        0.543   0.243   8.759   9.545
    6        0.546   0.241   8.763   9.551
    7        0.546   0.241   8.763   9.551
    8        0.546   0.241   8.763   9.551
    9        0.541   0.240   8.769   9.551
   10        0.521   0.308   8.770   9.598
   11        0.524   0.307   8.779   9.610
   12        0.521   0.308   8.770   9.598
   13        0.524   0.307   8.779   9.610
   14        0.524   0.307   8.779   9.610
   15        0.514   0.310   8.774   9.597
   16        0.521   0.308   8.770   9.598
   17        0.514   0.310   8.774   9.597
   18        0.514   0.310   8.774   9.597
   19        0.518   0.296   8.772   9.586
   20        0.559   0.332   8.747   9.639
   21        0.559   0.332   8.747   9.639
   22        0.507   0.308   8.775   9.589
   23        0.559   0.332   8.747   9.639
   24        0.507   0.308   8.775   9.589
   25        0.518   0.296   8.772   9.586
   26        0.518   0.296   8.772   9.586
   27        0.507   0.308   8.775   9.589
   28        0.542   0.229   8.760   9.531
   29        0.567   0.250   8.744   9.560
   30        0.567   0.250   8.744   9.560
   31        0.567   0.250   8.744   9.560
   32        0.567   0.250   8.744   9.560
   33        0.567   0.250   8.744   9.560
   34        0.567   0.250   8.744   9.560
   35        0.541   0.231   8.755   9.527
   36        0.443   0.521   4.362   5.326
   37        0.927   1.449   0.000   2.376
   38        1.523   3.772   0.000   5.295
   39        0.562   0.137   0.000   0.699
tot         22.270  15.585 311.070 348.925

 BZINTS: Fermi energy:    0.292161;  402.000000 electrons
         Band energy:-0.146604E+04;  BLOECHL correction:   -0.051202