 vasp.6.2.0 18Jan21 (build Jun 12 2021 23:27:24) complex

 executed on             LinuxIFC date 2022.05.27  05:28:39

 INCAR:
   ISMEAR = -5
   SIGMA = 0.1
   ISPIN = 1
   EDIFF = 1.d-5
   EDIFFG = -0.01
   NSW = 0
   NELM = 150
   ENCUT = 500
   ISIF = 2
   IBRION = 2
   LREAL = Auto
   ALGO = Fast
   ICHARG = 11
   LORBIT = 10
   LCHARG = .F.
   LWAVE = .F.

 POTCAR:    PAW_PBE Ag 02Apr2005
 POTCAR:    PAW_PBE Cr 06Sep2000
 POTCAR:    PAW_PBE H 15Jun2001
|           W    W    AA    RRRRR   N    N  II  N    N   GGGG   !!!           |
|           W    W   A  A   R    R  NN   N  II  NN   N  G    G  !!!           |
|           W    W  A    A  R    R  N N  N  II  N N  N  G       !!!           |
|           W WW W  AAAAAA  RRRRR   N  N N  II  N  N N  G  GGG   !            |
|           WW  WW  A    A  R   R   N   NN  II  N   NN  G    G                |
|           W    W  A    A  R    R  N    N  II  N    N   GGGG   !!!           |
|     For optimal performance we recommend to set                             |
|       NCORE = 2 up to number-of-cores-per-socket                            |
|     This setting can greatly improve the performance of VASP for DFT.       |
|     The default, NCORE=1 might be grossly inefficient on modern             |
|     multi-core architectures or massively parallel machines. Do your        |
|     Unfortunately you need to use the default for GW and RPA                |
|     calculations (for HF NCORE is supported but not extensively tested      |
|     yet).                                                                   |

 POTCAR:    PAW_PBE Ag 02Apr2005
   VRHFIN =Ag : s1 d10

   TITEL  = PAW_PBE Ag 02Apr2005
   POMASS =  107.868; ZVAL   =   11.000    mass and valenz
   ENMAX  =  249.844; ENMIN  =  187.383 eV

 POTCAR:    PAW_PBE Cr 06Sep2000
   VRHFIN =Cr : d5 s1

   TITEL  = PAW_PBE Cr 06Sep2000
   POMASS =   51.996; ZVAL   =    6.000    mass and valenz
   ENMAX  =  227.080; ENMIN  =  170.310 eV

 POTCAR:    PAW_PBE H 15Jun2001
   VRHFIN =H: ultrasoft test

   TITEL  = PAW_PBE H 15Jun2001
   POMASS =    1.000; ZVAL   =    1.000    mass and valenz
   ENMAX  =  250.000; ENMIN  =  200.000 eV

 Optimization of the real space projectors (new method)

 maximal supplied QI-value         = 15.12
 optimisation between [QCUT,QGAM] = [ 11.34, 22.83] = [ 36.00,145.93] Ry
 Optimized for a Real-space Cutoff    1.43 Angstroem

   l    n(q)    QCUT    max X(q) W(low)/X(q) W(high)/X(q)  e(spline)
   2      9    11.338    53.897    0.16E-03    0.20E-03    0.28E-06
   2      9    11.338    52.416    0.16E-03    0.20E-03    0.29E-06
   0     10    11.338   122.045    0.31E-04    0.76E-04    0.15E-06
   0     10    11.338    73.629    0.30E-04    0.72E-04    0.15E-06
   1      9    11.338    15.255    0.20E-03    0.19E-04    0.17E-06
   1      9    11.338     9.562    0.16E-03    0.15E-04    0.14E-06
 Optimization of the real space projectors (new method)

[...]

   l    n(q)    QCUT    max X(q) W(low)/X(q) W(high)/X(q)  e(spline)
   2      9    11.338    94.395    0.18E-03    0.10E-02    0.64E-06
   2      9    11.338    88.078    0.18E-03    0.10E-02    0.65E-06
   0     10    11.338    50.173    0.13E-03    0.16E-03    0.96E-07
   0     10    11.338    24.906    0.12E-03    0.14E-03    0.88E-07
   1      9    11.338    12.133    0.13E-03    0.15E-03    0.24E-06
   1      9    11.338     7.290    0.10E-03    0.10E-03    0.18E-06
 Optimization of the real space projectors (new method)

 maximal supplied QI-value         = 34.20
 optimisation between [QCUT,QGAM] = [ 11.29, 22.57] = [ 35.68,142.71] Ry
 Optimized for a Real-space Cutoff    1.16 Angstroem

   l    n(q)    QCUT    max X(q) W(low)/X(q) W(high)/X(q)  e(spline)
   0      8    11.287    19.460    0.40E-03    0.73E-03    0.16E-06
   0      8    11.287    12.209    0.38E-03    0.70E-03    0.15E-06
   1      7    11.287     4.655    0.22E-03    0.25E-04    0.22E-06
  PAW_PBE Ag 02Apr2005                  :
  PAW_PBE Cr 06Sep2000                  :
  PAW_PBE H 15Jun2001                   :

 POSCAR: Ag-Cr-H2
  positions in direct lattice
  velocities in cartesian coordinates
 exchange correlation table for  LEXCH =        8
   RHO(1)=    0.500       N(1)  =     2000
   RHO(2)=  100.500       N(2)  =     4000

 VTST: version 3.2, (02/03/18)

 CHAIN: initializing optimizer

 OPT: Using VASP Conjugate-Gradient optimizer
 CHAIN: Read ICHAIN            0

 POSCAR: Ag-Cr-H2
  positions in direct lattice
  velocities in cartesian coordinates

 ion  position               nearest neighbor table
   1  0.000  0.000  0.238-   2 2.93   8 2.93   7 2.93   6 2.93   4 2.93  12 2.93  16 2.93  10 2.93
                             3 2.93
   2  0.333  0.000  0.238-   1 2.93   8 2.93   9 2.93   3 2.93   4 2.93   5 2.93  10 2.93  17 2.93
                            11 2.93
   3  0.667  0.000  0.238-   9 2.93   2 2.93   5 2.93  11 2.93   7 2.93  18 2.93   1 2.93   6 2.93
                            12 2.93
   4  0.000  0.333  0.238-   5 2.93   6 2.93   2 2.93   1 2.93   7 2.93  13 2.93  15 2.93   9 2.93
                            10 2.93
   5  0.333  0.333  0.238-   4 2.93   3 2.93   7 2.93   2 2.93   8 2.93  14 2.93  13 2.93  11 2.93
                             6 2.93
   6  0.667  0.333  0.238-   4 2.93   9 2.93   1 2.93  15 2.93   8 2.93  12 2.93   3 2.93   5 2.93
                            14 2.93
   7  0.000  0.667  0.238-   8 2.93   1 2.93   5 2.93   3 2.93   4 2.93  16 2.93  18 2.93  13 2.93
                             9 2.93
   8  0.333  0.667  0.238-   7 2.93   1 2.93   2 2.93   9 2.93   5 2.93  16 2.93   6 2.93  17 2.93
                            14 2.93
   9  0.667  0.667  0.238-   3 2.93   2 2.93   8 2.93   6 2.93  17 2.93   4 2.93  15 2.93   7 2.93
                            18 2.93
  10  0.111  0.111  0.346-  20 2.91  19 2.92  26 2.92  12 2.93  16 2.93  15 2.93  17 2.93  13 2.93
                            11 2.93   2 2.93   1 2.93   4 2.93
  11  0.444  0.111  0.346-  21 2.90  20 2.90  27 2.92  14 2.93  17 2.93  18 2.93   3 2.93  12 2.93
                            13 2.93  10 2.93   5 2.93   2 2.93
  12  0.778  0.111  0.346-  21 2.91  25 2.92  19 2.92  10 2.93  16 2.93  18 2.93  15 2.93  11 2.93
                             1 2.93  14 2.93   6 2.93   3 2.93
  13  0.111  0.444  0.346-  20 2.90  23 2.90  22 2.92  15 2.93  14 2.93  18 2.93  10 2.93  11 2.93
                            16 2.93   4 2.93   5 2.93   7 2.93
  14  0.444  0.444  0.346-  23 2.90  21 2.90  24 2.92  13 2.93  11 2.93  16 2.93   5 2.93  12 2.93
                            17 2.93   8 2.93  15 2.93   6 2.93
  15  0.778  0.444  0.346-  24 2.92  22 2.92  19 2.92  13 2.93  10 2.93  12 2.93  17 2.93  18 2.93
                             4 2.93   6 2.93   9 2.93  14 2.93
  16  0.111  0.778  0.346-  23 2.91  26 2.92  25 2.92  18 2.93  12 2.93  10 2.93  14 2.93  17 2.93
                            13 2.93   7 2.93   8 2.93   1 2.93
  17  0.444  0.778  0.346-  27 2.92  24 2.92  26 2.92  11 2.93  10 2.93   9 2.93  18 2.93  15 2.93
                            16 2.93   2 2.93  14 2.93   8 2.93
  18  0.778  0.778  0.346-  22 2.92  27 2.92  25 2.92  16 2.93  12 2.93  13 2.93  11 2.93  17 2.93
                            15 2.93   7 2.93   3 2.93   9 2.93
  19  0.889  0.222  0.454-  28 2.91  15 2.92  10 2.92  12 2.92  24 2.93  22 2.93  26 2.93  25 2.93
                            20 2.94  21 2.94  32 2.96  31 2.96
  20  0.223  0.223  0.453-  36 2.73  13 2.90  11 2.90  21 2.91  23 2.91  10 2.91  31 2.91  29 2.91
                            27 2.93  22 2.93  19 2.94  26 2.94
  21  0.554  0.223  0.453-  36 2.73  11 2.90  14 2.90  20 2.91  23 2.91  12 2.91  30 2.91  32 2.91
                            27 2.93  24 2.93  25 2.94  19 2.94
  22  0.888  0.556  0.453-  35 2.91  18 2.92  15 2.92  13 2.92  24 2.92  27 2.92  25 2.93  19 2.93
                            33 2.93  31 2.93  23 2.93  20 2.93
  23  0.223  0.554  0.453-  36 2.73  14 2.90  13 2.90  21 2.91  20 2.91  16 2.91  34 2.91  33 2.91
                            22 2.93  24 2.93  26 2.94  25 2.94
  24  0.556  0.556  0.453-  35 2.91  15 2.92  17 2.92  14 2.92  27 2.92  22 2.92  19 2.93  26 2.93
                            32 2.93  34 2.93  23 2.93  21 2.93
  25  0.889  0.889  0.454-  28 2.91  18 2.92  16 2.92  12 2.92  22 2.93  27 2.93  26 2.93  19 2.93
                            23 2.94  21 2.94  33 2.96  30 2.96
  26  0.222  0.889  0.454-  28 2.91  17 2.92  16 2.92  10 2.92  27 2.93  24 2.93  25 2.93  19 2.93
                            23 2.94  20 2.94  34 2.96  29 2.96
  27  0.556  0.888  0.453-  35 2.91  17 2.92  18 2.92  11 2.92  24 2.92  22 2.92  26 2.93  25 2.93
                            29 2.93  30 2.93  20 2.93  21 2.93
  28  0.000  0.000  0.560-  26 2.91  25 2.91  19 2.91  29 2.96  34 2.96  33 2.96  32 2.96  31 2.96
                            30 2.96
  29  0.333  0.007  0.561-  30 2.87  31 2.87  36 2.88  20 2.91  27 2.93  26 2.96  35 2.96  28 2.96
                            34 3.06
  30  0.659  0.007  0.561-  29 2.87  32 2.87  36 2.88  21 2.91  27 2.93  25 2.96  35 2.96  28 2.96
                            33 3.06
  31  0.007  0.333  0.561-  33 2.87  29 2.87  36 2.88  20 2.91  22 2.93  19 2.96  35 2.96  28 2.96
                            32 3.06
  32  0.659  0.333  0.561-  34 2.87  30 2.87  36 2.88  21 2.91  24 2.93  19 2.96  35 2.96  28 2.96
                            31 3.06
  33  0.007  0.659  0.561-  31 2.87  34 2.87  36 2.88  23 2.91  22 2.93  25 2.96  35 2.96  28 2.96
                            30 3.06
  34  0.333  0.659  0.561-  32 2.87  33 2.87  36 2.88  23 2.91  24 2.93  26 2.96  35 2.96  28 2.96
                            29 3.06
  35  0.667  0.667  0.560-  24 2.91  27 2.91  22 2.91  30 2.96  32 2.96  29 2.96  34 2.96  31 2.96
                            33 2.96
  36  0.333  0.333  0.550-  38 1.69  37 1.69  21 2.73  20 2.73  23 2.73  31 2.88  33 2.88  30 2.88
                            29 2.88  34 2.88  32 2.88
  37  0.282  0.333  0.623-  36 1.69
  38  0.386  0.333  0.623-  36 1.69

  LATTYP: Found a hexagonal cell.
 ALAT       =     8.7913665772
 C/A-ratio  =     2.5227160501

  Lattice vectors:

 A1 = (  -4.3956832886,  -7.6135467898,   0.0000000000)
 A2 = (   8.7913665771,   0.0000000000,   0.0000000000)
 A3 = (   0.0000000000,   0.0000000000,  22.1781215668)

Analysis of symmetry for initial positions (statically):
 Subroutine PRICEL returns:
 Original cell was already a primitive cell.

 Routine SETGRP: Setting up the symmetry group for a
 hexagonal supercell.

 Subroutine GETGRP returns: Found  2 space group operations
 (whereof  2 operations were pure point group operations)
 out of a pool of 24 trial point group operations.

The static configuration has the point symmetry C_1h.

Analysis of symmetry for dynamics (positions and initial velocities):
 Subroutine PRICEL returns:
 Original cell was already a primitive cell.

[...]

The dynamic configuration has the point symmetry C_1h.

Analysis of constrained symmetry for selective dynamics:
 Subroutine PRICEL returns:
 Original cell was already a primitive cell.

 Routine SETGRP: Setting up the symmetry group for a
 hexagonal supercell.

 Subroutine GETGRP returns: Found  2 space group operations
[...]
     33      -4.4843      2.00000
     34      -4.4235      2.00000
     35      -4.4176      2.00000
     36      -4.3868      2.00000
     37      -4.3831      2.00000
     38      -4.3542      2.00000
     39      -4.3249      2.00000
     40      -4.3219      2.00000
     41      -4.3105      2.00000
     42      -4.3007      2.00000
     43      -4.2866      2.00000
     44      -4.2063      2.00000
     45      -4.1783      2.00000
     46      -4.1690      2.00000
     47      -4.1673      2.00000
     48      -4.1605      2.00000
     49      -4.1558      2.00000
     50      -4.1384      2.00000
     51      -4.1353      2.00000
     52      -4.1191      2.00000
     53      -4.1148      2.00000
     54      -4.0499      2.00000
     55      -4.0428      2.00000
     56      -4.0313      2.00000
     57      -4.0278      2.00000
     58      -4.0103      2.00000
     59      -3.9955      2.00000
     60      -3.9598      2.00000
[...]
    238       6.8598      0.00000
    239       7.0159      0.00000
    240       7.0341      0.00000
    241       7.1424      0.00000
    242       7.1833      0.00000
    243       7.2105      0.00000
    244       7.2348      0.00000
    245       7.2821      0.00000
    246       7.3372      0.00000
    247       7.4290      0.00000
    248       7.5153      0.00000
    249       7.5641      0.00000
    250       7.8115      0.00000
    251       7.9080      0.00000
    252       7.9317      0.00000

 soft charge-density along one line, spin component           1
         0         1         2         3         4         5         6         7         8         9
 total charge-density along one line

------------------------ aborting loop because EDIFF is reached ----------------------------------------

 total charge

# of ion       s       p       d       tot
    1        0.419   0.202   9.179   9.799
    2        0.416   0.204   9.177   9.797
    3        0.416   0.204   9.177   9.797
    4        0.418   0.203   9.177   9.798
    5        0.420   0.202   9.174   9.797
    6        0.418   0.203   9.177   9.798
    7        0.415   0.204   9.178   9.797
    8        0.415   0.204   9.178   9.797
    9        0.416   0.202   9.179   9.797
   10        0.408   0.269   9.163   9.840
   11        0.409   0.266   9.169   9.844
   12        0.408   0.269   9.163   9.840
   13        0.408   0.267   9.168   9.844
   14        0.408   0.267   9.168   9.844
   15        0.404   0.269   9.165   9.838
   16        0.409   0.269   9.161   9.840
   17        0.404   0.270   9.164   9.838
   18        0.404   0.270   9.164   9.838
   19        0.402   0.266   9.166   9.834
   20        0.433   0.296   9.141   9.870
   21        0.433   0.296   9.141   9.870
   22        0.395   0.275   9.166   9.836
   23        0.436   0.296   9.141   9.872
   24        0.395   0.275   9.166   9.836
   25        0.403   0.265   9.167   9.834
   26        0.403   0.265   9.167   9.834
   27        0.396   0.274   9.167   9.837
   28        0.411   0.197   9.179   9.786
   29        0.429   0.209   9.166   9.804
   30        0.429   0.209   9.166   9.804
   31        0.425   0.213   9.164   9.801
   32        0.425   0.213   9.164   9.801
   33        0.429   0.208   9.167   9.804
   34        0.429   0.208   9.167   9.804
   35        0.408   0.197   9.180   9.785
   36        0.384   0.423   4.310   5.117
   37        0.540   0.029   0.000   0.569
   38        0.540   0.029   0.000   0.569
tot         15.960   8.887 325.163 350.009

  FORCE on cell =-STRESS in cart. coord.  units (eV):
  Direction    XX          YY          ZZ          XY          YZ          ZX
  Alpha Z   736.02263   736.02263   736.02263
  Ewald  119850.79773119831.52413************     0.00000     0.02974    -0.00000
  Hartree129922.04932129917.92180************     0.00000     0.06231    -0.00000
  E(xc)   -2059.98188 -2060.16138 -2066.67981    -0.00003     0.05618     0.00000
  Local  ************************261056.40403     0.00032     0.28677    -0.00004
  n-local  -332.82548  -332.23854  -335.88786     2.38610     0.16217     0.02737
  augment  3246.64567  3246.35766  3260.02024    -0.00011    -0.23559     0.00004
  Kinetic  4827.53762  4831.16923  4862.29051     1.32538    -0.37973     0.15199
  Fock        0.00000     0.00000     0.00000     0.00000     0.00000     0.00000
  Total     -10.30316   -10.30731    -0.65050    -0.00000    -0.01815    -0.00000
  in kB     -11.12021   -11.12469    -0.70209    -0.00000    -0.01959    -0.00000

 VOLUME and BASIS-vectors are now :
  energy-cutoff  :      500.00
  volume of cell :     1484.46
      direct lattice vectors                 reciprocal lattice vectors
     8.791366577  0.000000000  0.000000000     0.113747958 -0.065672414  0.000000000
     4.395683289  7.613546790  0.000000000     0.000000000  0.131344829  0.000000000
     0.000000000  0.000000000 22.178121567     0.000000000  0.000000000  0.045089481

  length of vectors
     8.791366577  8.791366577 22.178121567     0.131344829  0.131344829  0.045089481

 FORCES acting on ions
    electron-ion (+dipol)            ewald-force                    non-local-force                 convergence-correction
   0.459E-04 0.328E-01 0.249E+04   -.953E-04 -.255E-02 -.249E+04   0.182E-12 0.278E-01 -.200E+01   -.119E-03 -.587E-01 0.175E+00
   -.166E+00 0.179E+00 0.249E+04   -.177E+00 -.108E+00 -.249E+04   0.159E+00 0.894E-01 -.155E+01   0.175E+00 -.148E+00 0.236E+00
   0.167E+00 0.179E+00 0.249E+04   0.178E+00 -.108E+00 -.249E+04   -.159E+00 0.894E-01 -.155E+01   -.175E+00 -.146E+00 0.237E+00
   0.189E+00 -.138E+00 0.249E+04   -.180E+00 -.101E+00 -.249E+04   0.740E-01 0.442E-01 -.154E+01   -.643E-01 0.183E+00 0.296E+00
   -.783E-05 -.914E-01 0.249E+04   0.981E-04 0.389E-03 -.249E+04   0.233E-12 0.355E-01 -.115E+01   0.616E-02 0.514E-01 0.437E+00
   -.190E+00 -.138E+00 0.249E+04   0.180E+00 -.101E+00 -.249E+04   -.740E-01 0.442E-01 -.154E+01   0.630E-01 0.184E+00 0.297E+00
   0.509E-03 -.161E-01 0.249E+04   -.272E-02 0.209E+00 -.249E+04   0.808E-01 -.154E+00 -.154E+01   -.753E-01 -.388E-01 0.236E+00
   -.478E-03 -.161E-01 0.249E+04   0.265E-02 0.209E+00 -.249E+04   -.808E-01 -.154E+00 -.154E+01   0.769E-01 -.397E-01 0.236E+00
   0.363E-04 0.179E-01 0.249E+04   0.792E-04 0.216E-02 -.249E+04   -.192E-12 -.293E-01 -.184E+01   -.657E-02 0.999E-02 0.166E+00
   0.165E+01 0.998E+00 0.813E+03   -.142E+01 -.841E+00 -.813E+03   -.324E+00 -.179E+00 -.781E+00   0.975E-01 0.261E-01 0.399E+00
   -.286E-04 0.155E+01 0.815E+03   0.411E-04 -.168E+01 -.815E+03   0.857E-12 0.131E+00 -.250E+00   0.638E-02 -.300E-01 0.429E+00
   -.165E+01 0.998E+00 0.813E+03   0.142E+01 -.841E+00 -.813E+03   0.324E+00 -.179E+00 -.781E+00   -.990E-01 0.265E-01 0.398E+00
   0.124E+01 -.741E+00 0.815E+03   -.144E+01 0.848E+00 -.815E+03   0.146E+00 -.110E+00 -.344E+00   0.344E-01 0.210E-01 0.372E+00
   -.124E+01 -.741E+00 0.815E+03   0.144E+01 0.848E+00 -.815E+03   -.146E+00 -.110E+00 -.344E+00   -.244E-01 0.197E-01 0.370E+00
   0.159E-04 0.825E+00 0.814E+03   -.108E-03 -.106E+01 -.814E+03   0.644E-12 0.980E-01 -.745E+00   -.116E-02 0.115E+00 0.403E+00
   -.807E-05 -.195E+01 0.813E+03   0.207E-04 0.165E+01 -.813E+03   0.275E-11 0.419E+00 -.733E+00   -.455E-03 -.118E+00 0.354E+00
   0.742E+00 -.467E+00 0.814E+03   -.931E+00 0.542E+00 -.814E+03   0.891E-01 -.418E-01 -.748E+00   0.805E-01 -.279E-01 0.363E+00
   -.742E+00 -.468E+00 0.814E+03   0.931E+00 0.542E+00 -.814E+03   -.891E-01 -.418E-01 -.748E+00   -.800E-01 -.262E-01 0.365E+00
   0.401E-04 -.244E+01 -.879E+03   -.126E-03 0.217E+01 0.878E+03   0.765E-12 0.117E+00 0.753E+00   0.977E-03 0.151E+00 0.587E+00
   -.656E+01 -.377E+01 -.881E+03   0.767E+01 0.430E+01 0.881E+03   -.129E+01 -.633E+00 -.105E+01   0.159E+00 0.931E-01 0.856E+00
   0.656E+01 -.377E+01 -.881E+03   -.767E+01 0.430E+01 0.881E+03   0.129E+01 -.633E+00 -.105E+01   -.170E+00 0.910E-01 0.855E+00
   -.557E+01 0.316E+01 -.874E+03   0.520E+01 -.287E+01 0.873E+03   0.262E+00 -.183E+00 0.400E+00   0.126E+00 -.112E+00 0.456E+00
   -.550E-04 0.732E+01 -.881E+03   0.394E-04 -.867E+01 0.881E+03   0.102E-10 0.156E+01 -.119E+01   -.692E-02 -.170E+00 0.762E+00
   0.557E+01 0.316E+01 -.874E+03   -.520E+01 -.287E+01 0.873E+03   -.262E+00 -.183E+00 0.400E+00   -.114E+00 -.112E+00 0.456E+00
   0.216E+01 0.127E+01 -.879E+03   -.193E+01 -.119E+01 0.878E+03   -.102E+00 -.417E-01 0.764E+00   -.120E+00 -.388E-01 0.528E+00
   -.216E+01 0.127E+01 -.879E+03   0.193E+01 -.119E+01 0.878E+03   0.102E+00 -.417E-01 0.764E+00   0.118E+00 -.371E-01 0.528E+00
   0.200E-04 -.652E+01 -.874E+03   0.110E-03 0.599E+01 0.873E+03   0.227E-11 0.346E+00 0.384E+00   0.575E-02 0.200E+00 0.410E+00
   0.538E-04 0.357E+00 -.250E+04   -.113E-03 -.439E+00 0.249E+04   0.920E-13 0.140E-01 0.201E+01   0.973E-04 0.469E-01 0.200E+00
   -.465E+01 -.937E+01 -.250E+04   0.528E+01 0.102E+02 0.250E+04   -.925E+00 -.133E+01 0.151E+01   0.272E+00 0.449E+00 0.189E+00
   0.465E+01 -.937E+01 -.250E+04   -.528E+01 0.102E+02 0.250E+04   0.925E+00 -.133E+01 0.151E+01   -.272E+00 0.449E+00 0.189E+00
   -.919E+01 0.116E+01 -.250E+04   0.103E+02 -.118E+01 0.250E+04   -.167E+01 -.230E-01 0.165E+01   0.582E+00 0.503E-01 0.213E+00
   0.919E+01 0.116E+01 -.250E+04   -.103E+02 -.118E+01 0.250E+04   0.167E+01 -.230E-01 0.165E+01   -.582E+00 0.509E-01 0.214E+00
   -.706E+01 0.837E+01 -.250E+04   0.754E+01 -.914E+01 0.250E+04   -.770E+00 0.134E+01 0.155E+01   0.275E+00 -.544E+00 0.228E+00
   0.706E+01 0.837E+01 -.250E+04   -.754E+01 -.914E+01 0.250E+04   0.770E+00 0.134E+01 0.155E+01   -.274E+00 -.544E+00 0.230E+00
   0.255E-04 -.408E+00 -.250E+04   0.104E-03 0.388E+00 0.250E+04   0.424E-12 0.646E-01 0.211E+01   -.598E-02 -.252E-01 0.260E+00
   -.288E-04 -.334E+00 -.127E+04   0.576E-04 0.209E+00 0.127E+04   0.135E-12 0.206E-01 -.384E+00   0.108E-02 0.324E-01 0.254E+00
   0.136E+02 -.399E-01 -.273E+03   -.164E+02 0.159E-01 0.275E+03   0.283E+01 0.946E-02 -.129E+01   0.549E-02 0.124E-01 -.106E+00
   -.136E+02 -.399E-01 -.273E+03   0.164E+02 0.159E-01 0.275E+03   -.283E+01 0.946E-02 -.129E+01   -.543E-02 0.124E-01 -.106E+00
   0.309E-03 -.451E+00 -.403E+01   -.117E-12 -.540E-13 0.881E-11   0.257E-11 0.391E+00 -.894E+01   0.840E-02 0.594E-01 0.130E+02

 POSITION                                       TOTAL-FORCE (eV/Angst)
      0.00000      0.00000      5.28219        -0.000000     -0.000671     -0.035942
      2.93046      0.00000      5.28219        -0.009508      0.013357      0.024783
      5.86091      0.00000      5.28219         0.009508      0.013357      0.024783
      1.46523      2.53785      5.28219         0.019626     -0.010735      0.015704
      4.39568      2.53785      5.28219        -0.000000     -0.004084     -0.025559
      7.32614      2.53785      5.28219        -0.019626     -0.010735      0.015704
      2.93046      5.07570      5.28219         0.002469     -0.000770      0.025792
      5.86091      5.07570      5.28219        -0.002469     -0.000770      0.025792
      8.79137      5.07570      5.28219         0.000000      0.000746      0.009308
      1.46523      0.84595      7.67490        -0.001637      0.004384     -0.015449
      4.39568      0.84595      7.67490        -0.000000     -0.034075     -0.053968
      7.32614      0.84595      7.67490         0.001637      0.004384     -0.015449
      2.93046      3.38380      7.67490        -0.029134      0.017389     -0.048349
      5.86091      3.38380      7.67490         0.029134      0.017389     -0.048349
      8.79137      3.38380      7.67490        -0.000000     -0.023295     -0.000465
      4.39568      5.92165      7.67490        -0.000000     -0.000816     -0.015278
      7.32614      5.92165      7.67490        -0.019612      0.005875     -0.000355
     10.25659      5.92165      7.67490         0.019612      0.005875     -0.000355
      8.79137      1.69374     10.05841        -0.000000     -0.002371      0.033276
      2.93927      1.69699     10.03909        -0.013820     -0.009089     -0.057005
      5.85210      1.69699     10.03909         0.013820     -0.009089     -0.057005
     10.25385      4.23133     10.05420         0.007385     -0.001590      0.014438
      4.39568      4.21957     10.03909         0.000000      0.039225     -0.045998
      7.32888      4.23133     10.05420        -0.007385     -0.001590      0.014438
     11.72023      6.76668     10.05841         0.001609      0.001698      0.017878
      5.86251      6.76668     10.05841        -0.001609      0.001698      0.017878
      8.79137      6.76443     10.05420         0.000000      0.016689      0.016052
      0.00000      0.00000     12.42643        -0.000000     -0.021419     -0.012630
      2.96234      0.05459     12.44639        -0.019525     -0.015130     -0.006587
      5.82903      0.05459     12.44639         0.019525     -0.015130     -0.006587
      1.52844      2.53816     12.44639         0.037554      0.003662      0.037431
      7.26292      2.53816     12.44639        -0.037554      0.003662      0.037431
      2.96179      5.02079     12.44639        -0.023523      0.034690     -0.016093
      5.82958      5.02079     12.44639         0.023523      0.034690     -0.016093
      8.79137      5.07570     12.42906         0.000000      0.019356     -0.019196
      4.39568      2.53785     12.18689        -0.000000     -0.072478      0.191663
      3.93865      2.53184     13.80981         0.053633     -0.002145     -0.012820
      4.85271      2.53184     13.80981        -0.053633     -0.002145     -0.012820
    total drift:                                0.008707     -0.000516     -0.002038

  FREE ENERGIE OF THE ION-ELECTRON SYSTEM (eV)
  free  energy   TOTEN  =      -102.59203649 eV

  energy  without entropy=     -102.59203649  energy(sigma->0) =     -102.59203649

 stress matrix after NEB project (eV)
    -10.30316     -0.00000     -0.00000
     -0.00000    -10.30731     -0.01815
     -0.00000     -0.01815     -0.65050
  FORCES: max atom, RMS     0.055185    0.012660
  FORCE total and by dimension    0.078044    0.053633
  Stress total and by dimension   14.588340   10.307310
|           W    W    AA    RRRRR   N    N  II  N    N   GGGG   !!!           |
|           W    W   A  A   R    R  NN   N  II  NN   N  G    G  !!!           |
|           W    W  A    A  R    R  N N  N  II  N N  N  G       !!!           |
|           W WW W  AAAAAA  RRRRR   N  N N  II  N  N N  G  GGG   !            |
|           WW  WW  A    A  R   R   N   NN  II  N   NN  G    G                |
|           W    W  A    A  R    R  N    N  II  N    N   GGGG   !!!           |
|     Tetrahedron method does not include variations of the Fermi             |
|     occupations, so forces and stress will be inaccurate. We suggest        |
|     using a different smearing scheme ISMEAR = 1 or 2 for metals in         |
|     relaxations.                                                            |

 total charge

# of ion       s       p       d       tot
    1        0.419   0.202   9.179   9.799
    2        0.416   0.204   9.177   9.797
    3        0.416   0.204   9.177   9.797
    4        0.418   0.203   9.177   9.798
    5        0.420   0.202   9.174   9.797
    6        0.418   0.203   9.177   9.798
    7        0.415   0.204   9.178   9.797
    8        0.415   0.204   9.178   9.797
    9        0.416   0.202   9.179   9.797
   10        0.408   0.269   9.163   9.840
   11        0.409   0.266   9.169   9.844
   12        0.408   0.269   9.163   9.840
   13        0.408   0.267   9.168   9.844
   14        0.408   0.267   9.168   9.844
   15        0.404   0.269   9.165   9.838
   16        0.409   0.269   9.161   9.840
   17        0.404   0.270   9.164   9.838
   18        0.404   0.270   9.164   9.838
   19        0.402   0.266   9.166   9.834
   20        0.433   0.296   9.141   9.870
   21        0.433   0.296   9.141   9.870
   22        0.395   0.275   9.166   9.836
   23        0.436   0.296   9.141   9.872
   24        0.395   0.275   9.166   9.836
   25        0.403   0.265   9.167   9.834
   26        0.403   0.265   9.167   9.834
   27        0.396   0.274   9.167   9.837
   28        0.411   0.197   9.179   9.786
   29        0.429   0.209   9.166   9.804
   30        0.429   0.209   9.166   9.804
   31        0.425   0.213   9.164   9.801
   32        0.425   0.213   9.164   9.801
   33        0.429   0.208   9.167   9.804
   34        0.429   0.208   9.167   9.804
   35        0.408   0.197   9.180   9.785
   36        0.384   0.423   4.310   5.117
   37        0.540   0.029   0.000   0.569
   38        0.540   0.029   0.000   0.569
tot         15.960   8.887 325.163 350.009

 BZINTS: Fermi energy:    0.822010;  393.000000 electrons
         Band energy:-0.127369E+04;  BLOECHL correction:   -0.014525