 vasp.6.2.0 18Jan21 (build Jun 12 2021 23:27:24) complex

 executed on             LinuxIFC date 2022.05.26  20:10:53

 INCAR:
   ISMEAR = -5
   SIGMA = 0.1
   ISPIN = 1
   EDIFF = 1.d-5
   EDIFFG = -0.01
   NSW = 0
   NELM = 150
   ENCUT = 500
   ISIF = 2
   IBRION = 2
   LREAL = Auto
   ALGO = Fast
   ICHARG = 11
   LORBIT = 10
   LCHARG = .F.
   LWAVE = .F.

 POTCAR:    PAW_PBE Au 04Oct2007
 POTCAR:    PAW_PBE V 08Apr2002
|           W    W    AA    RRRRR   N    N  II  N    N   GGGG   !!!           |
|           W    W   A  A   R    R  NN   N  II  NN   N  G    G  !!!           |
|           W    W  A    A  R    R  N N  N  II  N N  N  G       !!!           |
|           W WW W  AAAAAA  RRRRR   N  N N  II  N  N N  G  GGG   !            |
|           WW  WW  A    A  R   R   N   NN  II  N   NN  G    G                |
|           W    W  A    A  R    R  N    N  II  N    N   GGGG   !!!           |
|     For optimal performance we recommend to set                             |
|       NCORE = 2 up to number-of-cores-per-socket                            |
|     This setting can greatly improve the performance of VASP for DFT.       |
|     The default, NCORE=1 might be grossly inefficient on modern             |
|     multi-core architectures or massively parallel machines. Do your        |
|     Unfortunately you need to use the default for GW and RPA                |
|     calculations (for HF NCORE is supported but not extensively tested      |
|     yet).                                                                   |

 POTCAR:    PAW_PBE Au 04Oct2007
   VRHFIN =Au: s1d10

   TITEL  = PAW_PBE Au 04Oct2007
   POMASS =  196.966; ZVAL   =   11.000    mass and valenz
   ENMAX  =  229.943; ENMIN  =  172.457 eV

 POTCAR:    PAW_PBE V 08Apr2002
   VRHFIN =V: p6 d4 s1

   TITEL  = PAW_PBE V 08Apr2002
   POMASS =   50.941; ZVAL   =    5.000    mass and valenz
   ENMAX  =  192.543; ENMIN  =  144.408 eV

 Optimization of the real space projectors (new method)

 maximal supplied QI-value         = 15.12
 optimisation between [QCUT,QGAM] = [ 11.34, 22.83] = [ 36.00,145.93] Ry
 Optimized for a Real-space Cutoff    1.39 Angstroem

   l    n(q)    QCUT    max X(q) W(low)/X(q) W(high)/X(q)  e(spline)
   2      9    11.338    60.898    0.39E-03    0.42E-03    0.21E-06
   2      9    11.338    58.894    0.40E-03    0.42E-03    0.22E-06
   0      9    11.338   109.617    0.13E-03    0.20E-04    0.13E-06
   0      9    11.338    75.026    0.13E-03    0.20E-04    0.13E-06
   1      9    11.338    16.344    0.33E-04    0.24E-03    0.18E-06
   1      9    11.338    10.160    0.26E-04    0.19E-03    0.15E-06
 Optimization of the real space projectors (new method)

 maximal supplied QI-value         = 13.98
 optimisation between [QCUT,QGAM] = [ 11.33, 22.79] = [ 35.93,145.49] Ry
 Optimized for a Real-space Cutoff    1.56 Angstroem

   l    n(q)    QCUT    max X(q) W(low)/X(q) W(high)/X(q)  e(spline)
   2     10    11.327    96.114    0.36E-03    0.35E-03    0.42E-06
   2     10    11.327    88.986    0.37E-03    0.35E-03    0.42E-06
   0     11    11.327    20.919    0.40E-04    0.56E-04    0.79E-06
   0     11    11.327     9.593    0.30E-04    0.41E-04    0.60E-06
   1     10    11.327    11.615    0.15E-03    0.10E-03    0.19E-06
   1     10    11.327     7.031    0.11E-03    0.73E-04    0.14E-06
  PAW_PBE Au 04Oct2007                  :
  PAW_PBE V 08Apr2002                   :

 POSCAR: Au-V
  positions in direct lattice
  velocities in cartesian coordinates
 exchange correlation table for  LEXCH =        8
   RHO(1)=    0.500       N(1)  =     2000
   RHO(2)=  100.500       N(2)  =     4000

 VTST: version 3.2, (02/03/18)

 CHAIN: initializing optimizer

 OPT: Using VASP Conjugate-Gradient optimizer
 CHAIN: Read ICHAIN            0

 POSCAR: Au-V
  positions in direct lattice
  velocities in cartesian coordinates

 ion  position               nearest neighbor table
   1  0.000  0.000  0.238-  16 2.94  12 2.94   6 2.94   8 2.94   7 2.94   3 2.94  10 2.94   4 2.94
                             2 2.94
   2  0.333  0.000  0.238-   9 2.94  11 2.94  17 2.94  10 2.94   8 2.94   4 2.94   5 2.94   1 2.94
                             3 2.94
   3  0.667  0.000  0.238-   7 2.94  18 2.94  12 2.94   1 2.94  11 2.94   5 2.94   6 2.94   9 2.94
                             2 2.94
   4  0.000  0.333  0.238-  10 2.94   6 2.94   5 2.94  13 2.94   2 2.94  15 2.94   9 2.94   1 2.94
                             7 2.94
   5  0.333  0.333  0.238-  13 2.94   7 2.94  11 2.94   4 2.94   2 2.94  14 2.94   3 2.94   8 2.94
                             6 2.94
   6  0.667  0.333  0.238-  15 2.94  14 2.94   1 2.94  12 2.94   4 2.94   9 2.94   8 2.94   3 2.94
                             5 2.94
   7  0.000  0.667  0.238-  18 2.94   3 2.94  16 2.94   5 2.94   1 2.94  13 2.94   8 2.94   4 2.94
                             9 2.94
   8  0.333  0.667  0.238-   9 2.94  17 2.94   1 2.94   2 2.94  14 2.94  16 2.94   6 2.94   7 2.94
                             5 2.94
   9  0.667  0.667  0.238-   2 2.94   8 2.94  17 2.94   6 2.94  15 2.94   4 2.94   3 2.94  18 2.94
                             7 2.94
  10  0.111  0.111  0.346-  20 2.93  26 2.94  19 2.94  11 2.94  17 2.94   2 2.94   4 2.94   1 2.94
                            12 2.94  16 2.94  13 2.94  15 2.94
  11  0.444  0.111  0.346-  20 2.92  21 2.92  27 2.94  13 2.94   2 2.94  10 2.94  17 2.94   5 2.94
                             3 2.94  18 2.94  14 2.94  12 2.94
  12  0.778  0.111  0.346-  21 2.93  25 2.94  19 2.94  16 2.94  18 2.94   1 2.94  14 2.94  15 2.94
                             3 2.94   6 2.94  10 2.94  11 2.94
  13  0.111  0.444  0.346-  23 2.92  20 2.92  22 2.94   5 2.94  18 2.94  11 2.94   7 2.94   4 2.94
                            16 2.94  10 2.94  14 2.94  15 2.94
  14  0.444  0.444  0.346-  21 2.92  23 2.92  24 2.94  15 2.94   6 2.94  12 2.94   8 2.94  17 2.94
                             5 2.94  16 2.94  13 2.94  11 2.94
  15  0.778  0.444  0.346-  24 2.92  22 2.92  19 2.93  14 2.94   6 2.94  17 2.94  12 2.94   9 2.94
                             4 2.94  10 2.94  13 2.94  18 2.94
  16  0.111  0.778  0.346-  23 2.93  25 2.94  26 2.94  18 2.94  12 2.94   7 2.94   1 2.94   8 2.94
                            13 2.94  10 2.94  14 2.94  17 2.94
  17  0.444  0.778  0.346-  27 2.92  24 2.92  26 2.93   9 2.94  15 2.94   2 2.94  10 2.94  11 2.94
                             8 2.94  14 2.94  16 2.94  18 2.94
  18  0.778  0.778  0.346-  22 2.92  27 2.92  25 2.93  16 2.94   7 2.94  13 2.94  12 2.94   3 2.94
                            11 2.94   9 2.94  15 2.94  17 2.94
  19  0.889  0.222  0.454-  15 2.93  10 2.94  12 2.94  24 2.94  22 2.94  28 2.94  26 2.94  25 2.94
                            21 2.95  20 2.95  32 3.03  31 3.03
  20  0.223  0.223  0.453-  36 2.72  23 2.92  21 2.92  11 2.92  13 2.92  10 2.93  29 2.95  31 2.95
                            26 2.95  19 2.95  27 2.95  22 2.95
  21  0.554  0.223  0.453-  36 2.72  20 2.92  23 2.92  14 2.92  11 2.92  12 2.93  30 2.95  32 2.95
                            25 2.95  19 2.95  27 2.95  24 2.95
  22  0.887  0.557  0.453-  24 2.91  27 2.91  18 2.92  15 2.92  25 2.94  19 2.94  13 2.94  23 2.95
                            20 2.95  35 2.96  33 2.99  31 2.99
  23  0.223  0.554  0.453-  36 2.72  20 2.92  21 2.92  13 2.92  14 2.92  16 2.93  33 2.95  34 2.95
                            25 2.95  26 2.95  22 2.95  24 2.95
  24  0.557  0.557  0.453-  27 2.91  22 2.91  15 2.92  17 2.92  26 2.94  19 2.94  14 2.94  21 2.95
                            23 2.95  35 2.96  32 2.99  34 2.99
  25  0.889  0.889  0.454-  18 2.93  16 2.94  12 2.94  22 2.94  27 2.94  28 2.94  19 2.94  26 2.94
                            23 2.95  21 2.95  33 3.03  30 3.03
  26  0.222  0.889  0.454-  17 2.93  10 2.94  16 2.94  27 2.94  24 2.94  28 2.94  19 2.94  25 2.94
                            20 2.95  23 2.95  29 3.03  34 3.03
  27  0.557  0.887  0.453-  24 2.91  22 2.91  17 2.92  18 2.92  26 2.94  25 2.94  11 2.94  20 2.95
                            21 2.95  35 2.96  29 2.99  30 2.99
  28  0.000  0.000  0.562-  25 2.94  19 2.94  26 2.94  34 2.99  32 2.99  33 2.99  30 2.99  31 2.99
                            29 2.99
  29  0.334  0.011  0.564-  30 2.83  31 2.85  36 2.86  20 2.95  35 2.98  27 2.99  28 2.99  26 3.03
                            34 3.13
  30  0.655  0.011  0.564-  29 2.83  32 2.85  36 2.86  21 2.95  35 2.98  27 2.99  28 2.99  25 3.03
                            33 3.13
  31  0.011  0.334  0.564-  33 2.83  29 2.85  36 2.86  20 2.95  35 2.98  22 2.99  28 2.99  19 3.03
                            32 3.13
  32  0.655  0.334  0.564-  34 2.83  30 2.85  36 2.86  21 2.95  35 2.98  24 2.99  28 2.99  19 3.03
                            31 3.13
  33  0.011  0.655  0.564-  31 2.83  34 2.85  36 2.86  23 2.95  35 2.98  22 2.99  28 2.99  25 3.03
                            30 3.13
  34  0.334  0.655  0.564-  32 2.83  33 2.85  36 2.86  23 2.95  35 2.98  24 2.99  28 2.99  26 3.03
                            29 3.13
  35  0.667  0.667  0.563-  24 2.96  27 2.96  22 2.96  29 2.98  34 2.98  32 2.98  31 2.98  30 2.98
                            33 2.98
  36  0.333  0.333  0.550-  20 2.72  23 2.72  21 2.72  33 2.86  31 2.86  29 2.86  30 2.86  34 2.86
                            32 2.86

  LATTYP: Found a hexagonal cell.
 ALAT       =     8.8135128021
 C/A-ratio  =     2.5184286595

  Lattice vectors:

 A1 = (  -4.4067569092,  -7.6327256898,   0.0000000000)
 A2 = (   8.8135128021,   0.0000000000,   0.0000000000)
 A3 = (   0.0000000000,   0.0000000000,  22.1962032318)

Analysis of symmetry for initial positions (statically):
 Subroutine PRICEL returns:
 Original cell was already a primitive cell.

 Routine SETGRP: Setting up the symmetry group for a
 hexagonal supercell.

 Subroutine GETGRP returns: Found  6 space group operations
 (whereof  6 operations were pure point group operations)
 out of a pool of 24 trial point group operations.

The static configuration has the point symmetry C_3v.

Analysis of symmetry for dynamics (positions and initial velocities):
 Subroutine PRICEL returns:
 Original cell was already a primitive cell.

[...]

The dynamic configuration has the point symmetry C_3v.

Analysis of constrained symmetry for selective dynamics:
 Subroutine PRICEL returns:
 Original cell was already a primitive cell.

 Routine SETGRP: Setting up the symmetry group for a
 hexagonal supercell.

 Subroutine GETGRP returns: Found  6 space group operations
 (whereof  6 operations were pure point group operations)
 out of a pool of 24 trial point group operations.

The constrained configuration has the point symmetry C_3v.

 Subroutine INISYM returns: Found  6 space group operations
 (whereof  6 operations are pure point group operations),
 and found     1 'primitive' translations

                                     Primitive cell

  volume of cell :    1493.1636

  direct lattice vectors                    reciprocal lattice vectors
     8.813512802  0.000000000  0.000000000     0.113462137 -0.065507406  0.000000000
     4.406756909  7.632725690  0.000000000     0.000000000  0.131014796  0.000000000
[...]
     15      -5.2338      2.00000
     16      -5.2202      2.00000
     17      -5.2163      2.00000
     18      -5.1982      2.00000
     19      -5.1482      2.00000
     20      -5.1411      2.00000
     21      -5.1281      2.00000
     22      -5.1147      2.00000
     23      -5.0687      2.00000
     24      -5.0302      2.00000
     25      -5.0149      2.00000
     26      -4.9825      2.00000
     27      -4.9157      2.00000
     28      -4.8883      2.00000
     29      -4.7742      2.00000
     30      -4.7670      2.00000
     31      -4.7535      2.00000
     32      -4.7327      2.00000
     33      -4.7145      2.00000
     34      -4.7089      2.00000
     35      -4.6233      2.00000
     36      -4.5980      2.00000
     37      -4.5307      2.00000
     38      -4.5136      2.00000
     39      -4.4579      2.00000
     40      -4.3929      2.00000
     41      -4.3655      2.00000
     42      -4.3188      2.00000
     43      -4.2980      2.00000
     44      -4.2884      2.00000
     45      -4.2651      2.00000
     46      -4.1674      2.00000
     47      -4.1647      2.00000
     48      -4.1290      2.00000
     49      -4.0986      2.00000
     50      -4.0960      2.00000
     51      -4.0920      2.00000
     52      -4.0643      2.00000
     53      -4.0482      2.00000
     54      -3.9995      2.00000
     55      -3.9793      2.00000
     56      -3.9617      2.00000
     57      -3.9578      2.00000
     58      -3.9355      2.00000
     59      -3.9282      2.00000
     60      -3.9142      2.00000
[...]
    238       6.7135      0.00000
    239       6.7490      0.00000
    240       6.7741      0.00000
    241       6.8208      0.00000
    242       6.9221      0.00000
    243       7.1243      0.00000
    244       7.2087      0.00000
    245       7.3016      0.00000
    246       7.5737      0.00000
    247       7.5846      0.00000
    248       7.6761      0.00000
    249       7.6870      0.00000
    250       7.8760      0.00000
    251       7.9855      0.00000
    252       8.0165      0.00000

 soft charge-density along one line, spin component           1
         0         1         2         3         4         5         6         7         8         9
 total charge-density along one line

------------------------ aborting loop because EDIFF is reached ----------------------------------------

 total charge

# of ion       s       p       d       tot
    1        0.548   0.238   8.766   9.552
    2        0.542   0.241   8.765   9.549
    3        0.542   0.241   8.765   9.549
    4        0.542   0.241   8.765   9.549
    5        0.546   0.241   8.762   9.549
    6        0.542   0.241   8.765   9.549
    7        0.542   0.241   8.765   9.549
    8        0.542   0.241   8.765   9.549
    9        0.544   0.239   8.767   9.551
   10        0.526   0.307   8.767   9.600
   11        0.520   0.306   8.780   9.607
   12        0.526   0.307   8.767   9.600
   13        0.520   0.306   8.780   9.607
   14        0.520   0.306   8.780   9.607
   15        0.517   0.308   8.775   9.600
   16        0.526   0.307   8.767   9.600
   17        0.517   0.308   8.775   9.600
   18        0.517   0.308   8.775   9.600
   19        0.518   0.298   8.771   9.587
   20        0.562   0.335   8.733   9.630
   21        0.562   0.335   8.733   9.630
   22        0.509   0.306   8.777   9.593
   23        0.562   0.335   8.733   9.630
   24        0.509   0.306   8.777   9.593
   25        0.518   0.298   8.771   9.587
   26        0.518   0.298   8.771   9.587
   27        0.509   0.306   8.777   9.593
   28        0.539   0.227   8.754   9.520
   29        0.578   0.242   8.736   9.556
   30        0.578   0.242   8.736   9.556
   31        0.578   0.242   8.736   9.556
   32        0.578   0.242   8.736   9.556
   33        0.578   0.242   8.736   9.556
   34        0.578   0.242   8.736   9.556
   35        0.538   0.226   8.758   9.522
   36        0.390   0.391   3.188   3.969
tot         19.281  10.043 309.814 339.138

  FORCE on cell =-STRESS in cart. coord.  units (eV):
  Direction    XX          YY          ZZ          XY          YZ          ZX
  Alpha Z   984.20807   984.20807   984.20807
  Ewald  117204.90334117204.90371************    -0.00033    -0.00009    -0.00017
  Hartree125702.05466125702.05465************     0.00000    -0.00003    -0.00005
  E(xc)   -1748.23113 -1748.23112 -1755.92504    -0.00001    -0.00000    -0.00000
  Local  ************************255200.49673     0.00171     0.00005     0.00011
  n-local   -73.32832   -24.97142   -22.14377    23.60275    -1.51504     1.69090
  augment  2382.93120  2382.93270  2403.26567    -0.00130     0.00002     0.00003
  Kinetic  5368.29999  5375.94611  5435.11853     4.67286     0.23570    -0.02749
  Fock        0.00000     0.00000     0.00000     0.00000     0.00000     0.00000
  Total     -23.78455   -23.78455     1.65818    -0.00000     0.00000     0.00000
  in kB     -25.52103   -25.52102     1.77924    -0.00000     0.00000     0.00000

 VOLUME and BASIS-vectors are now :
  energy-cutoff  :      500.00
  volume of cell :     1493.16
      direct lattice vectors                 reciprocal lattice vectors
     8.813512802  0.000000000  0.000000000     0.113462137 -0.065507406  0.000000000
     4.406756909  7.632725690  0.000000000     0.000000000  0.131014796  0.000000000
     0.000000000  0.000000000 22.196203232     0.000000000  0.000000000  0.045052750

  length of vectors
     8.813512802  8.813512802 22.196203232     0.131014796  0.131014796  0.045052750

 FORCES acting on ions
    electron-ion (+dipol)            ewald-force                    non-local-force                 convergence-correction
   -.197E-04 -.163E-04 0.245E+04   0.518E-04 0.433E-04 -.245E+04   -.486E-17 0.112E-17 -.690E+00   -.238E-03 -.151E-03 -.173E+00
   0.168E+00 -.398E+00 0.245E+04   -.197E+00 0.260E+00 -.245E+04   0.425E-01 0.112E+00 -.319E+00   -.202E-01 0.169E-01 -.185E+00
   -.168E+00 -.398E+00 0.245E+04   0.197E+00 0.260E+00 -.245E+04   -.425E-01 0.112E+00 -.319E+00   0.205E-01 0.188E-01 -.185E+00
   -.261E+00 0.344E+00 0.245E+04   0.127E+00 -.301E+00 -.245E+04   0.118E+00 -.190E-01 -.319E+00   0.454E-02 -.260E-01 -.185E+00
   0.735E-05 -.240E-04 0.245E+04   0.951E-04 0.173E-05 -.245E+04   0.291E-17 0.359E-18 0.190E-01   0.428E-02 0.260E-02 -.732E-01
   0.261E+00 0.344E+00 0.245E+04   -.127E+00 -.301E+00 -.245E+04   -.118E+00 -.190E-01 -.319E+00   -.608E-02 -.251E-01 -.184E+00
   -.429E+00 0.539E-01 0.245E+04   0.324E+00 0.408E-01 -.245E+04   0.753E-01 -.926E-01 -.319E+00   0.266E-01 0.840E-02 -.185E+00
   0.429E+00 0.539E-01 0.245E+04   -.324E+00 0.408E-01 -.245E+04   -.753E-01 -.926E-01 -.319E+00   -.248E-01 0.730E-02 -.185E+00
   0.198E-04 -.416E-04 0.245E+04   0.166E-03 -.200E-04 -.245E+04   0.697E-19 -.180E-18 -.396E+00   -.458E-02 -.237E-02 -.138E+00
   0.738E+00 0.426E+00 0.779E+03   -.315E+00 -.182E+00 -.778E+03   -.308E+00 -.178E+00 -.635E+00   -.915E-01 -.530E-01 0.208E+00
   0.142E-04 -.657E+00 0.779E+03   0.148E-03 0.702E+00 -.779E+03   -.192E-09 -.288E-02 -.117E+00   0.399E-02 -.801E-01 0.258E+00
   -.738E+00 0.426E+00 0.779E+03   0.315E+00 -.182E+00 -.778E+03   0.308E+00 -.178E+00 -.635E+00   0.901E-01 -.518E-01 0.208E+00
   -.569E+00 0.328E+00 0.779E+03   0.608E+00 -.351E+00 -.779E+03   -.250E-02 0.144E-02 -.117E+00   -.671E-01 0.438E-01 0.258E+00
   0.569E+00 0.328E+00 0.779E+03   -.608E+00 -.351E+00 -.779E+03   0.250E-02 0.144E-02 -.117E+00   0.746E-01 0.429E-01 0.257E+00
   0.324E-04 0.360E+01 0.783E+03   0.235E-03 -.373E+01 -.783E+03   0.971E-09 0.146E-01 -.515E+00   -.228E-02 0.511E-01 0.224E+00
   -.208E-04 -.852E+00 0.779E+03   0.162E-03 0.363E+00 -.778E+03   0.237E-07 0.355E+00 -.635E+00   -.723E-04 0.104E+00 0.208E+00
   0.312E+01 -.180E+01 0.783E+03   -.323E+01 0.186E+01 -.783E+03   0.126E-01 -.729E-02 -.515E+00   0.433E-01 -.271E-01 0.224E+00
   -.312E+01 -.180E+01 0.783E+03   0.323E+01 0.186E+01 -.783E+03   -.126E-01 -.729E-02 -.515E+00   -.430E-01 -.251E-01 0.224E+00
   -.421E-04 -.419E+01 -.906E+03   0.565E-04 0.420E+01 0.905E+03   0.285E-09 0.428E-02 0.526E+00   -.530E-03 -.555E-02 0.664E+00
   -.125E+02 -.723E+01 -.915E+03   0.135E+02 0.778E+01 0.916E+03   -.103E+01 -.594E+00 -.102E+01   0.714E-01 0.411E-01 0.854E+00
   0.125E+02 -.723E+01 -.915E+03   -.135E+02 0.778E+01 0.916E+03   0.103E+01 -.594E+00 -.102E+01   -.706E-01 0.413E-01 0.854E+00
   -.146E+02 0.845E+01 -.898E+03   0.143E+02 -.828E+01 0.897E+03   0.319E+00 -.184E+00 0.539E+00   -.102E-01 0.608E-02 0.653E+00
   -.832E-05 0.145E+02 -.915E+03   0.137E-03 -.156E+02 0.916E+03   0.790E-07 0.119E+01 -.102E+01   0.254E-03 -.818E-01 0.854E+00
   0.146E+02 0.845E+01 -.898E+03   -.143E+02 -.828E+01 0.897E+03   -.319E+00 -.184E+00 0.539E+00   0.100E-01 0.585E-02 0.653E+00
   0.363E+01 0.210E+01 -.906E+03   -.364E+01 -.210E+01 0.905E+03   -.370E-02 -.214E-02 0.526E+00   0.516E-02 0.292E-02 0.664E+00
   -.363E+01 0.210E+01 -.906E+03   0.364E+01 -.210E+01 0.905E+03   0.370E-02 -.214E-02 0.526E+00   -.475E-02 0.235E-02 0.664E+00
   0.855E-05 -.169E+02 -.898E+03   0.199E-03 0.166E+02 0.897E+03   0.245E-07 0.368E+00 0.539E+00   -.362E-03 -.119E-01 0.653E+00
   -.931E-05 -.106E-04 -.246E+04   0.272E-04 0.298E-04 0.246E+04   -.225E-17 0.168E-17 0.539E+00   0.118E-04 -.820E-05 0.354E+00
   -.822E+01 -.233E+02 -.248E+04   0.923E+01 0.248E+02 0.248E+04   -.112E+01 -.173E+01 -.220E+00   0.116E+00 0.206E+00 0.233E+00
   0.822E+01 -.233E+02 -.248E+04   -.923E+01 0.248E+02 0.248E+04   0.112E+01 -.173E+01 -.220E+00   -.116E+00 0.207E+00 0.233E+00
   -.243E+02 0.452E+01 -.248E+04   0.261E+02 -.441E+01 0.248E+04   -.206E+01 -.101E+00 -.220E+00   0.236E+00 -.268E-02 0.233E+00
   0.243E+02 0.452E+01 -.248E+04   -.261E+02 -.441E+01 0.248E+04   0.206E+01 -.101E+00 -.220E+00   -.237E+00 -.189E-02 0.233E+00
   -.161E+02 0.188E+02 -.248E+04   0.169E+02 -.204E+02 0.248E+04   -.942E+00 0.183E+01 -.220E+00   0.121E+00 -.204E+00 0.233E+00
   0.161E+02 0.188E+02 -.248E+04   -.169E+02 -.204E+02 0.248E+04   0.942E+00 0.183E+01 -.220E+00   -.120E+00 -.204E+00 0.233E+00
   0.339E-04 -.341E-04 -.247E+04   0.144E-03 -.453E-04 0.247E+04   0.844E-18 -.128E-17 0.656E+00   -.436E-02 -.222E-02 0.300E+00
   -.282E-04 0.471E-05 -.108E+04   0.527E-04 0.489E-05 0.108E+04   -.184E-17 -.581E-18 0.233E+01   0.728E-03 0.442E-03 0.215E+00
   -.819E-03 -.776E-03 -.451E+01   -.780E-14 0.258E-12 0.227E-12   0.554E-15 -.890E-15 -.444E+01   0.631E-02 0.421E-02 0.935E+01

 POSITION                                       TOTAL-FORCE (eV/Angst)
      0.00000      0.00000      5.28038         0.000000      0.000000     -0.155024
      2.93784      0.00000      5.28038        -0.006987     -0.008753     -0.063552
      5.87568      0.00000      5.28038         0.006987     -0.008753     -0.063552
      1.46892      2.54424      5.28038        -0.011074     -0.001674     -0.063552
      4.40676      2.54424      5.28038         0.000000      0.000000     -0.077405
      7.34459      2.54424      5.28038         0.011074     -0.001674     -0.063552
      2.93784      5.08848      5.28038        -0.004087      0.010427     -0.063552
      5.87568      5.08848      5.28038         0.004087      0.010427     -0.063552
      8.81351      5.08848      5.28038         0.000000      0.000000     -0.085798
      1.46892      0.84808      7.67911         0.025111      0.014498      0.115358
      4.40676      0.84808      7.67911        -0.000000     -0.039181      0.035738
      7.34459      0.84808      7.67911        -0.025111      0.014498      0.115358
      2.93784      3.39232      7.67911        -0.033931      0.019590      0.035738
      5.87568      3.39232      7.67911         0.033931      0.019590      0.035738
      8.81351      3.39232      7.67911        -0.000000     -0.056841      0.096471
      4.40676      5.93656      7.67911        -0.000000     -0.028996      0.115358
      7.34459      5.93656      7.67911        -0.049225      0.028420      0.096471
     10.28243      5.93656      7.67911         0.049225      0.028420      0.096471
      8.81351      1.69782     10.07545         0.000000      0.010028      0.002393
      2.94790      1.70197     10.06171        -0.012481     -0.007206     -0.009297
      5.86562      1.70197     10.06171         0.012481     -0.007206     -0.009297
     10.26824      4.24860     10.06503         0.005964     -0.003443     -0.007838
      4.40676      4.22879     10.06171         0.000000      0.014412     -0.009297
      7.35878      4.24860     10.06503        -0.005964     -0.003443     -0.007838
     11.74991      6.78381     10.07545        -0.008684     -0.005014      0.002393
      5.87712      6.78381     10.07545         0.008684     -0.005014      0.002393
      8.81351      6.76826     10.06503         0.000000      0.006887     -0.007838
      0.00000      0.00000     12.47281         0.000000      0.000000     -0.007724
      2.99055      0.08121     12.52138         0.004031     -0.005969      0.006632
      5.82296      0.08121     12.52138        -0.004031     -0.005969      0.006632
      1.56560      2.54929     12.52138        -0.003154      0.006475      0.006632
      7.24791      2.54929     12.52138         0.003154      0.006475      0.006632
      2.98181      5.00223     12.52138        -0.007184     -0.000506      0.006632
      5.83171      5.00223     12.52138         0.007184     -0.000506      0.006632
      8.81351      5.08848     12.50032         0.000000      0.000000      0.011926
      4.40676      2.54424     12.20130         0.000000      0.000000     -0.042935
    total drift:                                0.005488      0.003438      0.402648

  FREE ENERGIE OF THE ION-ELECTRON SYSTEM (eV)
  free  energy   TOTEN  =      -114.37531451 eV

  energy  without entropy=     -114.37531451  energy(sigma->0) =     -114.37531451

 stress matrix after NEB project (eV)
    -23.78455     -0.00000      0.00000
     -0.00000    -23.78455     -0.00000
      0.00000      0.00000      1.65818
  FORCES: max atom, RMS     0.042935    0.010735
  FORCE total and by dimension    0.064407    0.042935
  Stress total and by dimension   33.677278   23.784549
|           W    W    AA    RRRRR   N    N  II  N    N   GGGG   !!!           |
|           W    W   A  A   R    R  NN   N  II  NN   N  G    G  !!!           |
|           W    W  A    A  R    R  N N  N  II  N N  N  G       !!!           |
|           W WW W  AAAAAA  RRRRR   N  N N  II  N  N N  G  GGG   !            |
|           WW  WW  A    A  R   R   N   NN  II  N   NN  G    G                |
|           W    W  A    A  R    R  N    N  II  N    N   GGGG   !!!           |
|     Tetrahedron method does not include variations of the Fermi             |
|     occupations, so forces and stress will be inaccurate. We suggest        |
|     using a different smearing scheme ISMEAR = 1 or 2 for metals in         |
|     relaxations.                                                            |

 total charge

# of ion       s       p       d       tot
    1        0.548   0.238   8.766   9.552
    2        0.542   0.241   8.765   9.549
    3        0.542   0.241   8.765   9.549
    4        0.542   0.241   8.765   9.549
    5        0.546   0.241   8.762   9.549
    6        0.542   0.241   8.765   9.549
    7        0.542   0.241   8.765   9.549
    8        0.542   0.241   8.765   9.549
    9        0.544   0.239   8.767   9.551
   10        0.526   0.307   8.767   9.600
   11        0.520   0.306   8.780   9.607
   12        0.526   0.307   8.767   9.600
   13        0.520   0.306   8.780   9.607
   14        0.520   0.306   8.780   9.607
   15        0.517   0.308   8.775   9.600
   16        0.526   0.307   8.767   9.600
   17        0.517   0.308   8.775   9.600
   18        0.517   0.308   8.775   9.600
   19        0.518   0.298   8.771   9.587
   20        0.562   0.335   8.733   9.630
   21        0.562   0.335   8.733   9.630
   22        0.509   0.306   8.777   9.593
   23        0.562   0.335   8.733   9.630
   24        0.509   0.306   8.777   9.593
   25        0.518   0.298   8.771   9.587
   26        0.518   0.298   8.771   9.587
   27        0.509   0.306   8.777   9.593
   28        0.539   0.227   8.754   9.520
   29        0.578   0.242   8.736   9.556
   30        0.578   0.242   8.736   9.556
   31        0.578   0.242   8.736   9.556
   32        0.578   0.242   8.736   9.556
   33        0.578   0.242   8.736   9.556
   34        0.578   0.242   8.736   9.556
   35        0.538   0.226   8.758   9.522
   36        0.390   0.391   3.188   3.969
tot         19.281  10.043 309.814 339.138

 BZINTS: Fermi energy:    0.697649;  390.000000 electrons
         Band energy:-0.117848E+04;  BLOECHL correction:   -0.025204