 vasp.6.2.0 18Jan21 (build Jun 12 2021 23:27:24) complex

 executed on             LinuxIFC date 2022.05.30  17:00:36

 INCAR:
   ISMEAR = -5
   SIGMA = 0.1
   ISPIN = 1
   EDIFF = 1.d-5
   EDIFFG = -0.01
   NSW = 0
   NELM = 150
   ENCUT = 500
   ISIF = 2
   IBRION = 2
   LREAL = Auto
   ALGO = Fast
   ICHARG = 11
   LORBIT = 10
   LCHARG = .F.
   LWAVE = .F.

 POTCAR:    PAW_PBE Ag 02Apr2005
 POTCAR:    PAW_PBE Fe 06Sep2000
 POTCAR:    PAW_PBE C 08Apr2002
|           W    W    AA    RRRRR   N    N  II  N    N   GGGG   !!!           |
|           W    W   A  A   R    R  NN   N  II  NN   N  G    G  !!!           |
|           W    W  A    A  R    R  N N  N  II  N N  N  G       !!!           |
|           W WW W  AAAAAA  RRRRR   N  N N  II  N  N N  G  GGG   !            |
|           WW  WW  A    A  R   R   N   NN  II  N   NN  G    G                |
|           W    W  A    A  R    R  N    N  II  N    N   GGGG   !!!           |
|     For optimal performance we recommend to set                             |
|       NCORE = 2 up to number-of-cores-per-socket                            |
|     This setting can greatly improve the performance of VASP for DFT.       |
|     The default, NCORE=1 might be grossly inefficient on modern             |
|     multi-core architectures or massively parallel machines. Do your        |
|     Unfortunately you need to use the default for GW and RPA                |
|     calculations (for HF NCORE is supported but not extensively tested      |
|     yet).                                                                   |

 POTCAR:    PAW_PBE Ag 02Apr2005
   VRHFIN =Ag : s1 d10

   TITEL  = PAW_PBE Ag 02Apr2005
   POMASS =  107.868; ZVAL   =   11.000    mass and valenz
   ENMAX  =  249.844; ENMIN  =  187.383 eV

 POTCAR:    PAW_PBE Fe 06Sep2000
   VRHFIN =Fe:  d7 s1

   TITEL  = PAW_PBE Fe 06Sep2000
   POMASS =   55.847; ZVAL   =    8.000    mass and valenz
   ENMAX  =  267.882; ENMIN  =  200.911 eV

 POTCAR:    PAW_PBE C 08Apr2002
   VRHFIN =C: s2p2

   TITEL  = PAW_PBE C 08Apr2002
   POMASS =   12.011; ZVAL   =    4.000    mass and valenz
   ENMAX  =  400.000; ENMIN  =  300.000 eV

 Optimization of the real space projectors (new method)

 maximal supplied QI-value         = 15.12
 optimisation between [QCUT,QGAM] = [ 11.34, 22.83] = [ 36.00,145.93] Ry
 Optimized for a Real-space Cutoff    1.43 Angstroem

   l    n(q)    QCUT    max X(q) W(low)/X(q) W(high)/X(q)  e(spline)
   2      9    11.338    53.897    0.16E-03    0.20E-03    0.28E-06
   2      9    11.338    52.416    0.16E-03    0.20E-03    0.29E-06
   0     10    11.338   122.045    0.31E-04    0.76E-04    0.15E-06
   0     10    11.338    73.629    0.30E-04    0.72E-04    0.15E-06
   1      9    11.338    15.255    0.20E-03    0.19E-04    0.17E-06
   1      9    11.338     9.562    0.16E-03    0.15E-04    0.14E-06
 Optimization of the real space projectors (new method)

[...]

   l    n(q)    QCUT    max X(q) W(low)/X(q) W(high)/X(q)  e(spline)
   2      8    11.376    80.901    0.45E-03    0.44E-04    0.21E-06
   2      8    11.376    75.754    0.45E-03    0.45E-04    0.22E-06
   0      9    11.376    58.752    0.65E-04    0.95E-04    0.17E-06
   0      9    11.376    30.679    0.59E-04    0.87E-04    0.16E-06
   1      9    11.376    17.977    0.38E-03    0.10E-03    0.14E-06
   1      9    11.376    13.559    0.31E-03    0.90E-04    0.12E-06
 Optimization of the real space projectors (new method)

 maximal supplied QI-value         = 25.13
 optimisation between [QCUT,QGAM] = [ 11.31, 22.87] = [ 35.82,146.48] Ry
 Optimized for a Real-space Cutoff    1.00 Angstroem

   l    n(q)    QCUT    max X(q) W(low)/X(q) W(high)/X(q)  e(spline)
   0      7    11.310   115.676    0.43E-03    0.13E-02    0.19E-06
   0      7    11.310    87.132    0.43E-03    0.13E-02    0.18E-06
   1      6    11.310     4.429    0.42E-03    0.74E-03    0.11E-06
   1      6    11.310     2.733    0.34E-03    0.55E-03    0.92E-07
  PAW_PBE Ag 02Apr2005                  :
  PAW_PBE Fe 06Sep2000                  :
  PAW_PBE C 08Apr2002                   :

 POSCAR: Ag-Fe-C
  positions in direct lattice
  velocities in cartesian coordinates
 exchange correlation table for  LEXCH =        8
   RHO(1)=    0.500       N(1)  =     2000
   RHO(2)=  100.500       N(2)  =     4000

 VTST: version 3.2, (02/03/18)

 CHAIN: initializing optimizer

 OPT: Using VASP Conjugate-Gradient optimizer
 CHAIN: Read ICHAIN            0

 POSCAR: Ag-Fe-C
  positions in direct lattice
  velocities in cartesian coordinates

 ion  position               nearest neighbor table
   1  0.000  0.000  0.217-   2 2.93   8 2.93   7 2.93   6 2.93   4 2.93  12 2.93  16 2.93  10 2.93
                             3 2.93
   2  0.333  0.000  0.217-   1 2.93   8 2.93   9 2.93   3 2.93   4 2.93   5 2.93  10 2.93  17 2.93
                            11 2.93
   3  0.667  0.000  0.217-   9 2.93   2 2.93   5 2.93  11 2.93   7 2.93  18 2.93   1 2.93   6 2.93
                            12 2.93
   4  0.000  0.333  0.217-   5 2.93   6 2.93   2 2.93   1 2.93   7 2.93  13 2.93  15 2.93   9 2.93
                            10 2.93
   5  0.333  0.333  0.217-   4 2.93   3 2.93   7 2.93   2 2.93   8 2.93  14 2.93  13 2.93  11 2.93
                             6 2.93
   6  0.667  0.333  0.217-   4 2.93   9 2.93   1 2.93  15 2.93   8 2.93  12 2.93   3 2.93   5 2.93
                            14 2.93
   7  0.000  0.667  0.217-   8 2.93   1 2.93   5 2.93   3 2.93   4 2.93  16 2.93  18 2.93  13 2.93
                             9 2.93
   8  0.333  0.667  0.217-   7 2.93   1 2.93   2 2.93   9 2.93   5 2.93  16 2.93   6 2.93  17 2.93
                            14 2.93
   9  0.667  0.667  0.217-   3 2.93   2 2.93   8 2.93   6 2.93  17 2.93   4 2.93  15 2.93   7 2.93
                            18 2.93
  10  0.111  0.111  0.315-  20 2.92  19 2.93  26 2.93  12 2.93  16 2.93  15 2.93  17 2.93  13 2.93
                            11 2.93   2 2.93   1 2.93   4 2.93
  11  0.444  0.111  0.315-  21 2.90  20 2.90  27 2.92  14 2.93  17 2.93  18 2.93   3 2.93  12 2.93
                            13 2.93  10 2.93   5 2.93   2 2.93
  12  0.778  0.111  0.315-  21 2.92  25 2.93  19 2.93  10 2.93  16 2.93  18 2.93  15 2.93  11 2.93
                             1 2.93  14 2.93   6 2.93   3 2.93
  13  0.111  0.444  0.315-  20 2.90  23 2.90  22 2.92  15 2.93  14 2.93  18 2.93  10 2.93  11 2.93
                            16 2.93   4 2.93   5 2.93   7 2.93
  14  0.444  0.444  0.315-  23 2.90  21 2.90  24 2.92  13 2.93  11 2.93  16 2.93   5 2.93  12 2.93
                            17 2.93   8 2.93  15 2.93   6 2.93
  15  0.778  0.444  0.315-  24 2.92  22 2.92  19 2.93  13 2.93  10 2.93  12 2.93  17 2.93  18 2.93
                             4 2.93   6 2.93   9 2.93  14 2.93
  16  0.111  0.778  0.315-  23 2.92  26 2.93  25 2.93  18 2.93  12 2.93  10 2.93  14 2.93  17 2.93
                            13 2.93   7 2.93   8 2.93   1 2.93
  17  0.444  0.778  0.315-  27 2.92  24 2.92  26 2.93  11 2.93  10 2.93   9 2.93  18 2.93  15 2.93
                            16 2.93   2 2.93  14 2.93   8 2.93
  18  0.778  0.778  0.315-  22 2.92  27 2.92  25 2.93  16 2.93  12 2.93  13 2.93  11 2.93  17 2.93
                            15 2.93   7 2.93   3 2.93   9 2.93
  19  0.889  0.222  0.413-  28 2.91  15 2.93  10 2.93  12 2.93  24 2.93  22 2.93  26 2.93  25 2.93
                            20 2.94  21 2.94  32 2.94  31 2.94
  20  0.223  0.223  0.412-  36 2.70  31 2.89  29 2.89  13 2.90  11 2.90  21 2.91  23 2.91  10 2.92
                            27 2.94  22 2.94  19 2.94  26 2.94
  21  0.554  0.223  0.412-  36 2.70  30 2.89  32 2.89  11 2.90  14 2.90  20 2.91  23 2.91  12 2.92
                            27 2.94  24 2.94  25 2.94  19 2.94
  22  0.888  0.556  0.413-  35 2.91  18 2.92  15 2.92  33 2.92  31 2.92  13 2.92  24 2.92  27 2.92
                            25 2.93  19 2.93  23 2.94  20 2.94
  23  0.223  0.554  0.412-  36 2.70  34 2.89  33 2.89  14 2.90  13 2.90  21 2.91  20 2.91  16 2.92
                            22 2.94  24 2.94  26 2.94  25 2.94
  24  0.556  0.556  0.413-  35 2.91  15 2.92  17 2.92  32 2.92  34 2.92  14 2.92  27 2.92  22 2.92
                            19 2.93  26 2.93  23 2.94  21 2.94
  25  0.889  0.889  0.413-  28 2.91  18 2.93  16 2.93  12 2.93  22 2.93  27 2.93  26 2.93  19 2.93
                            23 2.94  21 2.94  33 2.94  30 2.94
  26  0.222  0.889  0.413-  28 2.91  17 2.93  16 2.93  10 2.93  27 2.93  24 2.93  25 2.93  19 2.93
                            23 2.94  20 2.94  34 2.94  29 2.94
  27  0.556  0.888  0.413-  35 2.91  17 2.92  18 2.92  29 2.92  30 2.92  11 2.92  24 2.92  22 2.92
                            26 2.93  25 2.93  20 2.94  21 2.94
  28  0.000  0.000  0.510-  26 2.91  25 2.91  19 2.91  29 2.97  34 2.97  33 2.97  32 2.97  31 2.97
                            30 2.97
  29  0.333  0.008  0.510-  31 2.86  30 2.86  36 2.87  20 2.89  27 2.92  26 2.94  28 2.97  35 2.97
                            34 3.07
  30  0.659  0.008  0.510-  32 2.86  29 2.86  36 2.87  21 2.89  27 2.92  25 2.94  28 2.97  35 2.97
                            33 3.07
  31  0.008  0.333  0.510-  29 2.86  33 2.86  36 2.87  20 2.89  22 2.92  19 2.94  28 2.97  35 2.97
                            32 3.07
  32  0.659  0.333  0.510-  30 2.86  34 2.86  36 2.87  21 2.89  24 2.92  19 2.94  28 2.97  35 2.97
                            31 3.07
  33  0.008  0.659  0.510-  34 2.86  31 2.86  36 2.87  23 2.89  22 2.92  25 2.94  28 2.97  35 2.97
                            30 3.07
  34  0.333  0.659  0.510-  33 2.86  32 2.86  36 2.87  23 2.89  24 2.92  26 2.94  28 2.97  35 2.97
                            29 3.07
  35  0.667  0.667  0.510-  24 2.91  27 2.91  22 2.91  32 2.97  30 2.97  29 2.97  34 2.97  31 2.97
                            33 2.97
  36  0.333  0.333  0.499-  37 1.59  21 2.70  20 2.70  23 2.70  31 2.87  30 2.87  33 2.87  29 2.87
                            34 2.87  32 2.87
  37  0.333  0.333  0.564-  36 1.59

  LATTYP: Found a hexagonal cell.
 ALAT       =     8.7913665772
 C/A-ratio  =     2.7711238095

  Lattice vectors:

 A1 = (  -4.3956832886,  -7.6135467898,   0.0000000000)
 A2 = (   8.7913665771,   0.0000000000,   0.0000000000)
 A3 = (   0.0000000000,   0.0000000000,  24.3619652401)

Analysis of symmetry for initial positions (statically):
 Subroutine PRICEL returns:
 Original cell was already a primitive cell.

 Routine SETGRP: Setting up the symmetry group for a
 hexagonal supercell.

 Subroutine GETGRP returns: Found  6 space group operations
 (whereof  6 operations were pure point group operations)
 out of a pool of 24 trial point group operations.

The static configuration has the point symmetry C_3v.

Analysis of symmetry for dynamics (positions and initial velocities):
 Subroutine PRICEL returns:
 Original cell was already a primitive cell.

[...]

The dynamic configuration has the point symmetry C_3v.

Analysis of constrained symmetry for selective dynamics:
 Subroutine PRICEL returns:
 Original cell was already a primitive cell.

 Routine SETGRP: Setting up the symmetry group for a
 hexagonal supercell.

 Subroutine GETGRP returns: Found  6 space group operations
[...]
     24      -5.1554      2.00000
     25      -5.1385      2.00000
     26      -5.1181      2.00000
     27      -5.0990      2.00000
     28      -5.0875      2.00000
     29      -5.0816      2.00000
     30      -5.0549      2.00000
     31      -5.0521      2.00000
     32      -5.0449      2.00000
     33      -5.0102      2.00000
     34      -4.9512      2.00000
     35      -4.9410      2.00000
     36      -4.9129      2.00000
     37      -4.9006      2.00000
     38      -4.8801      2.00000
     39      -4.8537      2.00000
     40      -4.8474      2.00000
     41      -4.8327      2.00000
     42      -4.8228      2.00000
     43      -4.7980      2.00000
     44      -4.7423      2.00000
     45      -4.7074      2.00000
     46      -4.7019      2.00000
     47      -4.6966      2.00000
     48      -4.6864      2.00000
     49      -4.6808      2.00000
     50      -4.6635      2.00000
     51      -4.6575      2.00000
     52      -4.6443      2.00000
     53      -4.6377      2.00000
     54      -4.5759      2.00000
     55      -4.5669      2.00000
     56      -4.5566      2.00000
     57      -4.5505      2.00000
     58      -4.5341      2.00000
     59      -4.5156      2.00000
     60      -4.4837      2.00000
[...]
    238       5.7743      0.00000
    239       5.8818      0.00000
    240       5.9200      0.00000
    241       6.3687      0.00000
    242       6.3918      0.00000
    243       6.5905      0.00000
    244       6.6153      0.00000
    245       6.6257      0.00000
    246       6.6950      0.00000
    247       6.7434      0.00000
    248       6.8483      0.00000
    249       6.9140      0.00000
    250       7.0952      0.00000
    251       7.1338      0.00000
    252       7.1939      0.00000

 soft charge-density along one line, spin component           1
         0         1         2         3         4         5         6         7         8         9
 total charge-density along one line

------------------------ aborting loop because EDIFF is reached ----------------------------------------

 total charge

# of ion       s       p       d       tot
    1        0.416   0.203   9.177   9.796
    2        0.417   0.203   9.176   9.797
    3        0.417   0.203   9.176   9.797
    4        0.417   0.203   9.176   9.797
    5        0.419   0.201   9.178   9.798
    6        0.417   0.203   9.176   9.797
    7        0.417   0.203   9.176   9.797
    8        0.417   0.203   9.176   9.797
    9        0.413   0.205   9.176   9.793
   10        0.405   0.268   9.165   9.839
   11        0.404   0.272   9.165   9.841
   12        0.405   0.268   9.165   9.839
   13        0.404   0.272   9.165   9.841
   14        0.404   0.272   9.165   9.841
   15        0.403   0.270   9.165   9.837
   16        0.405   0.268   9.165   9.839
   17        0.403   0.270   9.165   9.837
   18        0.403   0.270   9.165   9.837
   19        0.404   0.263   9.168   9.836
   20        0.422   0.294   9.151   9.866
   21        0.422   0.294   9.151   9.866
   22        0.397   0.277   9.164   9.838
   23        0.422   0.294   9.151   9.866
   24        0.397   0.277   9.164   9.838
   25        0.404   0.263   9.168   9.836
   26        0.404   0.263   9.168   9.836
   27        0.397   0.277   9.164   9.838
   28        0.417   0.192   9.181   9.789
   29        0.407   0.207   9.179   9.793
   30        0.407   0.207   9.179   9.793
   31        0.407   0.207   9.179   9.793
   32        0.407   0.207   9.179   9.793
   33        0.407   0.207   9.179   9.793
   34        0.407   0.207   9.179   9.793
   35        0.413   0.193   9.181   9.788
   36        0.468   0.469   6.616   7.553
   37        1.018   1.222   0.000   2.241
tot         15.813  10.077 327.575 353.464

  FORCE on cell =-STRESS in cart. coord.  units (eV):
  Direction    XX          YY          ZZ          XY          YZ          ZX
  Alpha Z   684.94064   684.94064   684.94064
  Ewald  153977.29334153977.29338************     0.00003    -0.00000     0.00002
  Hartree163951.64949163951.64951************     0.00001    -0.00000     0.00001
  E(xc)   -2082.06106 -2082.06104 -2087.55316    -0.00001     0.00000     0.00000
  Local  ************************329402.98926     0.00028    -0.00004    -0.00010
  n-local  -356.96937  -339.84549  -353.08691    10.80250    -0.44938     0.59342
  augment  3259.21414  3259.21432  3262.13999    -0.00015    -0.00001     0.00005
  Kinetic  4899.22612  4902.10015  4911.32708     4.64665     0.80661    -0.33445
  Fock        0.00000     0.00000     0.00000     0.00000     0.00000     0.00000
  Total      -8.17909    -8.17909    -0.38297    -0.00000     0.00000     0.00000
  in kB      -8.03636    -8.03636    -0.37628    -0.00000     0.00000     0.00000

 VOLUME and BASIS-vectors are now :
  energy-cutoff  :      500.00
  volume of cell :     1630.63
      direct lattice vectors                 reciprocal lattice vectors
     8.791366577  0.000000000  0.000000000     0.113747958 -0.065672414  0.000000000
     4.395683289  7.613546790  0.000000000     0.000000000  0.131344829  0.000000000
     0.000000000  0.000000000 24.361965240     0.000000000  0.000000000  0.041047592

  length of vectors
     8.791366577  8.791366577 24.361965240     0.131344829  0.131344829  0.041047592

 FORCES acting on ions
    electron-ion (+dipol)            ewald-force                    non-local-force                 convergence-correction
   0.464E-04 -.280E-04 0.268E+04   -.954E-04 0.593E-04 -.268E+04   0.254E-17 0.419E-18 -.180E+01   -.164E-03 -.201E-03 -.987E-01
   0.545E+00 0.511E+00 0.268E+04   -.525E+00 -.493E+00 -.268E+04   -.202E-01 0.817E-02 -.169E+01   0.941E-03 -.256E-01 -.116E+00
   -.545E+00 0.511E+00 0.268E+04   0.525E+00 -.493E+00 -.268E+04   0.202E-01 0.817E-02 -.169E+01   -.143E-02 -.236E-01 -.115E+00
   0.715E+00 0.217E+00 0.268E+04   -.689E+00 -.208E+00 -.268E+04   -.303E-02 -.216E-01 -.169E+01   -.215E-01 0.138E-01 -.116E+00
   -.691E-05 -.194E-04 0.268E+04   0.981E-04 -.199E-05 -.268E+04   -.231E-17 0.279E-17 -.177E+01   0.628E-02 0.384E-02 -.111E+00
   -.715E+00 0.217E+00 0.268E+04   0.689E+00 -.208E+00 -.268E+04   0.303E-02 -.216E-01 -.169E+01   0.200E-01 0.147E-01 -.115E+00
   0.170E+00 -.728E+00 0.268E+04   -.164E+00 0.701E+00 -.268E+04   0.172E-01 0.134E-01 -.169E+01   -.207E-01 0.111E-01 -.115E+00
   -.170E+00 -.728E+00 0.268E+04   0.164E+00 0.701E+00 -.268E+04   -.172E-01 0.134E-01 -.169E+01   0.223E-01 0.100E-01 -.115E+00
   0.362E-04 -.131E-04 0.268E+04   0.792E-04 -.643E-04 -.268E+04   0.111E-17 0.104E-17 -.176E+01   -.664E-02 -.342E-02 -.123E+00
   0.446E+01 0.258E+01 0.902E+03   -.433E+01 -.250E+01 -.901E+03   -.159E+00 -.916E-01 -.536E+00   0.232E-01 0.134E-01 -.586E-02
   -.290E-04 0.564E+01 0.911E+03   0.416E-04 -.573E+01 -.910E+03   0.388E-12 0.591E-01 -.746E+00   0.665E-02 0.606E-02 -.619E-01
   -.446E+01 0.258E+01 0.902E+03   0.433E+01 -.250E+01 -.901E+03   0.159E+00 -.916E-01 -.536E+00   -.251E-01 0.145E-01 -.512E-02
   0.489E+01 -.282E+01 0.911E+03   -.497E+01 0.287E+01 -.910E+03   0.512E-01 -.295E-01 -.746E+00   0.846E-02 0.276E-02 -.619E-01
   -.489E+01 -.282E+01 0.911E+03   0.497E+01 0.287E+01 -.910E+03   -.512E-01 -.295E-01 -.746E+00   0.237E-02 0.162E-02 -.625E-01
   0.165E-04 0.144E+01 0.903E+03   -.108E-03 -.156E+01 -.903E+03   0.139E-12 0.212E-01 -.560E+00   -.185E-02 0.774E-01 -.522E-01
   -.787E-05 -.515E+01 0.902E+03   0.208E-04 0.500E+01 -.901E+03   0.120E-11 0.183E+00 -.536E+00   0.162E-04 -.291E-01 -.511E-02
   0.124E+01 -.718E+00 0.903E+03   -.135E+01 0.778E+00 -.903E+03   0.184E-01 -.106E-01 -.560E+00   0.661E-01 -.403E-01 -.522E-01
   -.124E+01 -.718E+00 0.903E+03   0.135E+01 0.778E+00 -.903E+03   -.184E-01 -.106E-01 -.560E+00   -.658E-01 -.380E-01 -.509E-01
   0.404E-04 0.126E+01 -.905E+03   -.128E-03 -.121E+01 0.905E+03   -.531E-13 -.808E-02 0.710E+00   -.648E-02 -.350E-01 0.113E+00
   0.226E+02 0.130E+02 -.867E+03   -.220E+02 -.127E+02 0.867E+03   -.678E+00 -.391E+00 -.510E+00   -.471E-01 -.271E-01 0.352E-01
   -.226E+02 0.130E+02 -.867E+03   0.220E+02 -.127E+02 0.867E+03   0.678E+00 -.391E+00 -.510E+00   0.485E-01 -.275E-01 0.350E-01
   0.746E+01 -.431E+01 -.893E+03   -.765E+01 0.442E+01 0.892E+03   0.298E+00 -.172E+00 0.654E+00   -.728E-01 0.440E-01 0.124E+00
   -.589E-04 -.260E+02 -.867E+03   0.445E-04 0.254E+02 0.867E+03   0.514E-11 0.782E+00 -.510E+00   0.762E-03 0.564E-01 0.350E-01
   -.746E+01 -.431E+01 -.893E+03   0.765E+01 0.442E+01 0.892E+03   -.298E+00 -.172E+00 0.654E+00   0.730E-01 0.422E-01 0.124E+00
   -.109E+01 -.631E+00 -.905E+03   0.105E+01 0.604E+00 0.905E+03   0.700E-02 0.404E-02 0.710E+00   0.231E-01 0.132E-01 0.112E+00
   0.109E+01 -.631E+00 -.905E+03   -.105E+01 0.604E+00 0.905E+03   -.700E-02 0.404E-02 0.710E+00   -.339E-01 0.118E-01 0.113E+00
   0.206E-04 0.861E+01 -.893E+03   0.109E-03 -.884E+01 0.892E+03   0.226E-11 0.344E+00 0.654E+00   0.103E-02 -.850E-01 0.124E+00
   0.542E-04 -.370E-04 -.267E+04   -.114E-03 0.775E-04 0.267E+04   -.619E-17 -.367E-17 0.198E+01   -.242E-03 -.275E-03 0.194E+00
   0.237E+02 0.412E+02 -.266E+04   -.231E+02 -.405E+02 0.266E+04   -.440E+00 -.660E+00 0.242E+01   -.108E+00 -.126E+00 0.159E+00
   -.237E+02 0.412E+02 -.266E+04   0.231E+02 -.405E+02 0.266E+04   0.440E+00 -.660E+00 0.242E+01   0.108E+00 -.125E+00 0.158E+00
   0.475E+02 -.125E+00 -.266E+04   -.466E+02 0.214E+00 0.266E+04   -.792E+00 -.510E-01 0.242E+01   -.163E+00 -.301E-01 0.159E+00
   -.475E+02 -.125E+00 -.266E+04   0.466E+02 0.213E+00 0.266E+04   0.792E+00 -.510E-01 0.242E+01   0.162E+00 -.296E-01 0.158E+00
   0.239E+02 -.411E+02 -.266E+04   -.235E+02 0.403E+02 0.266E+04   -.352E+00 0.711E+00 0.242E+01   -.538E-01 0.156E+00 0.158E+00
   -.239E+02 -.411E+02 -.266E+04   0.235E+02 0.403E+02 0.266E+04   0.352E+00 0.711E+00 0.242E+01   0.550E-01 0.155E+00 0.158E+00
   0.229E-04 -.134E-04 -.267E+04   0.106E-03 -.657E-04 0.267E+04   0.122E-17 -.139E-17 0.210E+01   -.638E-02 -.326E-02 0.216E+00
   -.260E-04 -.181E-04 -.170E+04   0.771E-04 0.110E-04 0.170E+04   -.228E-18 0.130E-18 0.577E+01   0.482E-02 0.294E-02 0.842E-02
   0.474E-04 -.249E-04 -.124E+04   0.225E-04 0.410E-06 0.125E+04   0.507E-18 0.587E-18 -.809E+01   0.855E-03 0.522E-03 0.673E-01
   0.382E-03 -.735E-03 0.125E+01   0.143E-15 -.159E-13 0.341E-11   -.540E-16 0.110E-15 -.216E+01   -.159E-02 0.242E-02 0.870E+00

 POSITION                                       TOTAL-FORCE (eV/Angst)
      0.00000      0.00000      5.28219        -0.000000      0.000000      0.018523
      2.93046      0.00000      5.28219         0.001797      0.001631      0.023678
      5.86091      0.00000      5.28219        -0.001797      0.001631      0.023678
      1.46523      2.53785      5.28219         0.002311      0.000741      0.023678
      4.39568      2.53785      5.28219        -0.000000      0.000000     -0.014466
      7.32614      2.53785      5.28219        -0.002311      0.000741      0.023678
      2.93046      5.07570      5.28219         0.000514     -0.002372      0.023678
      5.86091      5.07570      5.28219        -0.000514     -0.002372      0.023678
      8.79137      5.07570      5.28219        -0.000000      0.000000      0.031469
      1.46523      0.84595      7.67490        -0.003398     -0.001962      0.007359
      4.39568      0.84595      7.67490        -0.000000     -0.028061     -0.055962
      7.32614      0.84595      7.67490         0.003398     -0.001962      0.007359
      2.93046      3.38380      7.67490        -0.024302      0.014030     -0.055962
      5.86091      3.38380      7.67490         0.024302      0.014030     -0.055962
      8.79137      3.38380      7.67490        -0.000000     -0.023011      0.011461
      4.39568      5.92165      7.67490         0.000000      0.003924      0.007359
      7.32614      5.92165      7.67490        -0.019928      0.011506      0.011461
     10.25659      5.92165      7.67490         0.019928      0.011506      0.011461
      8.79137      1.69341     10.06265         0.000000      0.012772      0.020087
      2.94295      1.69911     10.03964        -0.128131     -0.073977     -0.080010
      5.84841      1.69911     10.03964         0.128131     -0.073977     -0.080010
     10.25212      4.23233     10.05217         0.028965     -0.016723      0.015563
      4.39568      4.21532     10.03964         0.000000      0.147953     -0.080010
      7.33061      4.23233     10.05217        -0.028965     -0.016723      0.015563
     11.72051      6.76684     10.06265        -0.011061     -0.006386      0.020087
      5.86222      6.76684     10.06265         0.011061     -0.006386      0.020087
      8.79137      6.76243     10.05217         0.000000      0.033446      0.015563
      0.00000      0.00000     12.42704        -0.000000      0.000000     -0.005891
      2.96539      0.06299     12.42777        -0.026605     -0.061244     -0.048938
      5.82597      0.06299     12.42777         0.026605     -0.061244     -0.048938
      1.53725      2.53661     12.42777        -0.066342      0.007582     -0.048938
      7.25412      2.53661     12.42777         0.066342      0.007582     -0.048938
      2.96754      5.01395     12.42777        -0.039737      0.053663     -0.048938
      5.82383      5.01395     12.42777         0.039737      0.053663     -0.048938
      8.79137      5.07570     12.42264        -0.000000      0.000000     -0.014094
      4.39568      2.53785     12.15183        -0.000000      0.000000      0.353940
      4.39568      2.53785     13.74155        -0.000000      0.000000      0.026587
    total drift:                               -0.001209      0.001683     -0.041414

  FREE ENERGIE OF THE ION-ELECTRON SYSTEM (eV)
  free  energy   TOTEN  =      -102.16294002 eV

  energy  without entropy=     -102.16294002  energy(sigma->0) =     -102.16294002

 stress matrix after NEB project (eV)
     -8.17909     -0.00000      0.00000
     -0.00000     -8.17909      0.00000
      0.00000      0.00000     -0.38297
  FORCES: max atom, RMS     0.026587    0.004371
  FORCE total and by dimension    0.026587    0.026587
  Stress total and by dimension   11.573313    8.179086
|           W    W    AA    RRRRR   N    N  II  N    N   GGGG   !!!           |
|           W    W   A  A   R    R  NN   N  II  NN   N  G    G  !!!           |
|           W    W  A    A  R    R  N N  N  II  N N  N  G       !!!           |
|           W WW W  AAAAAA  RRRRR   N  N N  II  N  N N  G  GGG   !            |
|           WW  WW  A    A  R   R   N   NN  II  N   NN  G    G                |
|           W    W  A    A  R    R  N    N  II  N    N   GGGG   !!!           |
|     Tetrahedron method does not include variations of the Fermi             |
|     occupations, so forces and stress will be inaccurate. We suggest        |
|     using a different smearing scheme ISMEAR = 1 or 2 for metals in         |
|     relaxations.                                                            |

 total charge

# of ion       s       p       d       tot
    1        0.416   0.203   9.177   9.796
    2        0.417   0.203   9.176   9.797
    3        0.417   0.203   9.176   9.797
    4        0.417   0.203   9.176   9.797
    5        0.419   0.201   9.178   9.798
    6        0.417   0.203   9.176   9.797
    7        0.417   0.203   9.176   9.797
    8        0.417   0.203   9.176   9.797
    9        0.413   0.205   9.176   9.793
   10        0.405   0.268   9.165   9.839
   11        0.404   0.272   9.165   9.841
   12        0.405   0.268   9.165   9.839
   13        0.404   0.272   9.165   9.841
   14        0.404   0.272   9.165   9.841
   15        0.403   0.270   9.165   9.837
   16        0.405   0.268   9.165   9.839
   17        0.403   0.270   9.165   9.837
   18        0.403   0.270   9.165   9.837
   19        0.404   0.263   9.168   9.836
   20        0.422   0.294   9.151   9.866
   21        0.422   0.294   9.151   9.866
   22        0.397   0.277   9.164   9.838
   23        0.422   0.294   9.151   9.866
   24        0.397   0.277   9.164   9.838
   25        0.404   0.263   9.168   9.836
   26        0.404   0.263   9.168   9.836
   27        0.397   0.277   9.164   9.838
   28        0.417   0.192   9.181   9.789
   29        0.407   0.207   9.179   9.793
   30        0.407   0.207   9.179   9.793
   31        0.407   0.207   9.179   9.793
   32        0.407   0.207   9.179   9.793
   33        0.407   0.207   9.179   9.793
   34        0.407   0.207   9.179   9.793
   35        0.413   0.193   9.181   9.788
   36        0.468   0.469   6.616   7.553
   37        1.018   1.222   0.000   2.241
tot         15.813  10.077 327.575 353.464

 BZINTS: Fermi energy:    0.295622;  397.000000 electrons
         Band energy:-0.149297E+04;  BLOECHL correction:   -0.064601