 vasp.6.2.0 18Jan21 (build Jun 12 2021 23:27:24) complex

 executed on             LinuxIFC date 2022.05.28  00:42:57

 INCAR:
   ISMEAR = -5
   SIGMA = 0.1
   ISPIN = 1
   EDIFF = 1.d-5
   EDIFFG = -0.01
   NSW = 0
   NELM = 150
   ENCUT = 500
   ISIF = 2
   IBRION = 2
   LREAL = Auto
   ALGO = Fast
   ICHARG = 11
   LORBIT = 10
   LCHARG = .F.
   LWAVE = .F.

 POTCAR:    PAW_PBE Au 04Oct2007
 POTCAR:    PAW_PBE Fe 06Sep2000
 POTCAR:    PAW_PBE H 15Jun2001
 POTCAR:    PAW_PBE O 08Apr2002
|           W    W    AA    RRRRR   N    N  II  N    N   GGGG   !!!           |
|           W    W   A  A   R    R  NN   N  II  NN   N  G    G  !!!           |
|           W    W  A    A  R    R  N N  N  II  N N  N  G       !!!           |
|           W WW W  AAAAAA  RRRRR   N  N N  II  N  N N  G  GGG   !            |
|           WW  WW  A    A  R   R   N   NN  II  N   NN  G    G                |
|           W    W  A    A  R    R  N    N  II  N    N   GGGG   !!!           |
|     For optimal performance we recommend to set                             |
|       NCORE = 2 up to number-of-cores-per-socket                            |
|     This setting can greatly improve the performance of VASP for DFT.       |
|     The default, NCORE=1 might be grossly inefficient on modern             |
|     multi-core architectures or massively parallel machines. Do your        |
|     Unfortunately you need to use the default for GW and RPA                |
|     calculations (for HF NCORE is supported but not extensively tested      |
|     yet).                                                                   |

 POTCAR:    PAW_PBE Au 04Oct2007
   VRHFIN =Au: s1d10

   TITEL  = PAW_PBE Au 04Oct2007
   POMASS =  196.966; ZVAL   =   11.000    mass and valenz
   ENMAX  =  229.943; ENMIN  =  172.457 eV

 POTCAR:    PAW_PBE Fe 06Sep2000
   VRHFIN =Fe:  d7 s1

   TITEL  = PAW_PBE Fe 06Sep2000
   POMASS =   55.847; ZVAL   =    8.000    mass and valenz
   ENMAX  =  267.882; ENMIN  =  200.911 eV

 POTCAR:    PAW_PBE H 15Jun2001
   VRHFIN =H: ultrasoft test

   TITEL  = PAW_PBE H 15Jun2001
   POMASS =    1.000; ZVAL   =    1.000    mass and valenz
   ENMAX  =  250.000; ENMIN  =  200.000 eV

 POTCAR:    PAW_PBE O 08Apr2002
   VRHFIN =O: s2p4

   TITEL  = PAW_PBE O 08Apr2002
   POMASS =   16.000; ZVAL   =    6.000    mass and valenz
   ENMAX  =  400.000; ENMIN  =  300.000 eV

 Optimization of the real space projectors (new method)

 maximal supplied QI-value         = 15.12
 optimisation between [QCUT,QGAM] = [ 11.34, 22.83] = [ 36.00,145.93] Ry
 Optimized for a Real-space Cutoff    1.39 Angstroem

   l    n(q)    QCUT    max X(q) W(low)/X(q) W(high)/X(q)  e(spline)
   2      9    11.338    60.898    0.39E-03    0.42E-03    0.21E-06
   2      9    11.338    58.894    0.40E-03    0.42E-03    0.22E-06
   0      9    11.338   109.617    0.13E-03    0.20E-04    0.13E-06
   0      9    11.338    75.026    0.13E-03    0.20E-04    0.13E-06
   1      9    11.338    16.344    0.33E-04    0.24E-03    0.18E-06
   1      9    11.338    10.160    0.26E-04    0.19E-03    0.15E-06
 Optimization of the real space projectors (new method)

[...]

   l    n(q)    QCUT    max X(q) W(low)/X(q) W(high)/X(q)  e(spline)
   0      8    11.287    19.460    0.40E-03    0.73E-03    0.16E-06
   0      8    11.287    12.209    0.38E-03    0.70E-03    0.15E-06
   1      7    11.287     4.655    0.22E-03    0.25E-04    0.22E-06
 Optimization of the real space projectors (new method)

 maximal supplied QI-value         = 24.76
 optimisation between [QCUT,QGAM] = [ 11.39, 22.77] = [ 36.31,145.25] Ry
 Optimized for a Real-space Cutoff    1.00 Angstroem

   l    n(q)    QCUT    max X(q) W(low)/X(q) W(high)/X(q)  e(spline)
   0      7    11.387    20.381    0.39E-03    0.13E-02    0.15E-06
   0      7    11.387    15.268    0.42E-03    0.14E-02    0.17E-06
   1      6    11.387     5.964    0.41E-03    0.11E-02    0.17E-06
   1      6    11.387     5.382    0.39E-03    0.87E-03    0.15E-06
  PAW_PBE Au 04Oct2007                  :
  PAW_PBE Fe 06Sep2000                  :
  PAW_PBE H 15Jun2001                   :
  PAW_PBE O 08Apr2002                   :

 POSCAR: Au-Fe-H2O
  positions in direct lattice
  velocities in cartesian coordinates
 exchange correlation table for  LEXCH =        8
   RHO(1)=    0.500       N(1)  =     2000
   RHO(2)=  100.500       N(2)  =     4000

 VTST: version 3.2, (02/03/18)

 CHAIN: initializing optimizer

 OPT: Using VASP Conjugate-Gradient optimizer
 CHAIN: Read ICHAIN            0

 POSCAR: Au-Fe-H2O
  positions in direct lattice
  velocities in cartesian coordinates

 ion  position               nearest neighbor table
   1  0.000  0.000  0.213-  16 2.94  12 2.94   6 2.94   8 2.94   7 2.94   3 2.94  10 2.94   4 2.94
                             2 2.94
   2  0.333  0.000  0.213-   9 2.94  11 2.94  17 2.94  10 2.94   8 2.94   4 2.94   5 2.94   1 2.94
                             3 2.94
   3  0.667  0.000  0.213-   7 2.94  18 2.94  12 2.94   1 2.94  11 2.94   5 2.94   6 2.94   9 2.94
                             2 2.94
   4  0.000  0.333  0.213-  10 2.94   6 2.94   5 2.94  13 2.94   2 2.94  15 2.94   9 2.94   1 2.94
                             7 2.94
   5  0.333  0.333  0.213-  13 2.94   7 2.94  11 2.94   4 2.94   2 2.94  14 2.94   3 2.94   8 2.94
                             6 2.94
   6  0.667  0.333  0.213-  15 2.94  14 2.94   1 2.94  12 2.94   4 2.94   9 2.94   8 2.94   3 2.94
                             5 2.94
   7  0.000  0.667  0.213-  18 2.94   3 2.94  16 2.94   5 2.94   1 2.94  13 2.94   8 2.94   4 2.94
                             9 2.94
   8  0.333  0.667  0.213-   9 2.94  17 2.94   1 2.94   2 2.94  14 2.94  16 2.94   6 2.94   7 2.94
                             5 2.94
   9  0.667  0.667  0.213-   2 2.94   8 2.94  17 2.94   6 2.94  15 2.94   4 2.94   3 2.94  18 2.94
                             7 2.94
  10  0.111  0.111  0.310-  20 2.93  26 2.94  19 2.94  11 2.94  17 2.94   2 2.94   4 2.94   1 2.94
                            12 2.94  16 2.94  13 2.94  15 2.94
  11  0.444  0.111  0.310-  20 2.91  21 2.91  27 2.93  13 2.94   2 2.94  10 2.94  17 2.94   5 2.94
                             3 2.94  18 2.94  14 2.94  12 2.94
  12  0.778  0.111  0.310-  21 2.93  25 2.94  19 2.94  16 2.94  18 2.94   1 2.94  14 2.94  15 2.94
                             3 2.94   6 2.94  10 2.94  11 2.94
  13  0.111  0.444  0.310-  23 2.91  20 2.91  22 2.93   5 2.94  18 2.94  11 2.94   7 2.94   4 2.94
                            16 2.94  10 2.94  14 2.94  15 2.94
  14  0.444  0.444  0.310-  21 2.91  23 2.91  24 2.93  15 2.94   6 2.94  12 2.94   8 2.94  17 2.94
                             5 2.94  16 2.94  13 2.94  11 2.94
  15  0.778  0.444  0.310-  24 2.92  22 2.92  19 2.94  14 2.94   6 2.94  17 2.94  12 2.94   9 2.94
                             4 2.94  10 2.94  13 2.94  18 2.94
  16  0.111  0.778  0.310-  23 2.93  25 2.94  26 2.94  18 2.94  12 2.94   7 2.94   1 2.94   8 2.94
                            13 2.94  10 2.94  14 2.94  17 2.94
  17  0.444  0.778  0.310-  27 2.92  24 2.92  26 2.94   9 2.94  15 2.94   2 2.94  10 2.94  11 2.94
                             8 2.94  14 2.94  16 2.94  18 2.94
  18  0.778  0.778  0.310-  22 2.92  27 2.92  25 2.94  16 2.94   7 2.94  13 2.94  12 2.94   3 2.94
                            11 2.94   9 2.94  15 2.94  17 2.94
  19  0.889  0.222  0.407-  10 2.94  12 2.94  15 2.94  26 2.94  25 2.94  24 2.94  22 2.94  28 2.95
                            21 2.95  20 2.95  32 2.98  31 2.98
  20  0.223  0.223  0.406-  36 2.70  23 2.91  21 2.91  11 2.91  13 2.91  29 2.92  31 2.92  10 2.93
                            27 2.95  22 2.95  26 2.95  19 2.95
  21  0.553  0.223  0.406-  36 2.70  20 2.91  23 2.91  14 2.91  11 2.91  30 2.92  32 2.92  12 2.93
                            27 2.95  24 2.95  25 2.95  19 2.95
  22  0.887  0.557  0.407-  24 2.91  27 2.91  18 2.92  15 2.92  13 2.93  25 2.94  19 2.94  33 2.95
                            31 2.95  23 2.95  20 2.95  35 2.95
  23  0.223  0.553  0.406-  36 2.70  20 2.91  21 2.91  13 2.91  14 2.91  33 2.92  34 2.92  16 2.93
                            22 2.95  24 2.95  25 2.95  26 2.95
  24  0.557  0.557  0.407-  27 2.91  22 2.91  15 2.92  17 2.92  14 2.93  26 2.94  19 2.94  32 2.95
                            34 2.95  21 2.95  23 2.95  35 2.95
  25  0.889  0.889  0.407-  16 2.94  12 2.94  18 2.94  19 2.94  26 2.94  22 2.94  27 2.94  28 2.95
                            23 2.95  21 2.95  33 2.98  30 2.98
  26  0.222  0.889  0.407-  10 2.94  16 2.94  17 2.94  19 2.94  25 2.94  27 2.94  24 2.94  28 2.95
                            20 2.95  23 2.95  29 2.98  34 2.98
  27  0.557  0.887  0.407-  24 2.91  22 2.91  17 2.92  18 2.92  11 2.93  26 2.94  25 2.94  29 2.95
                            30 2.95  20 2.95  21 2.95  35 2.95
  28  0.000  0.000  0.505-  25 2.95  19 2.95  26 2.95  34 2.98  32 2.98  33 2.98  30 2.98  31 2.98
                            29 2.98
  29  0.333  0.010  0.504-  30 2.85  31 2.85  36 2.87  20 2.92  27 2.95  26 2.98  35 2.98  28 2.98
                            34 3.11
  30  0.657  0.010  0.504-  29 2.85  32 2.85  36 2.87  21 2.92  27 2.95  25 2.98  35 2.98  28 2.98
                            33 3.11
  31  0.010  0.333  0.504-  33 2.85  29 2.85  36 2.87  20 2.92  22 2.95  19 2.98  35 2.98  28 2.98
                            32 3.11
  32  0.657  0.333  0.504-  34 2.85  30 2.85  36 2.87  21 2.92  24 2.95  19 2.98  35 2.98  28 2.98
                            31 3.11
  33  0.010  0.657  0.504-  31 2.85  34 2.85  36 2.87  23 2.92  22 2.95  25 2.98  35 2.98  28 2.98
                            30 3.11
  34  0.333  0.657  0.504-  32 2.85  33 2.85  36 2.87  23 2.92  24 2.95  26 2.98  35 2.98  28 2.98
                            29 3.11
  35  0.667  0.667  0.505-  24 2.95  27 2.95  22 2.95  29 2.98  34 2.98  32 2.98  31 2.98  30 2.98
                            33 2.98
  36  0.333  0.333  0.491-  39 2.10  20 2.70  23 2.70  21 2.70  33 2.87  31 2.87  29 2.87  30 2.87
                            34 2.87  32 2.87
  37  0.280  0.261  0.585-  39 0.98
  38  0.458  0.261  0.585-  39 0.98
  39  0.333  0.334  0.576-  38 0.98  37 0.98  36 2.10

  LATTYP: Found a hexagonal cell.
 ALAT       =     8.8135128021
 C/A-ratio  =     2.8075332270

  Lattice vectors:

 A1 = (  -4.4067569092,  -7.6327256898,   0.0000000000)
 A2 = (   8.8135128021,   0.0000000000,   0.0000000000)
 A3 = (   0.0000000000,   0.0000000000,  24.7442300386)

Analysis of symmetry for initial positions (statically):
 Subroutine PRICEL returns:
 Original cell was already a primitive cell.

 Routine SETGRP: Setting up the symmetry group for a
 hexagonal supercell.

 Subroutine GETGRP returns: Found  1 space group operations
 (whereof  1 operations were pure point group operations)
 out of a pool of 24 trial point group operations.

The static configuration has the point symmetry C_1 .

Analysis of symmetry for dynamics (positions and initial velocities):
 Subroutine PRICEL returns:
 Original cell was already a primitive cell.

[...]

The dynamic configuration has the point symmetry C_1 .

Analysis of constrained symmetry for selective dynamics:
 Subroutine PRICEL returns:
[...]
     41      -4.9191      2.00000
     42      -4.8670      2.00000
     43      -4.7849      2.00000
     44      -4.7592      2.00000
     45      -4.7318      2.00000
     46      -4.6808      2.00000
     47      -4.6718      2.00000
     48      -4.6645      2.00000
     49      -4.6319      2.00000
     50      -4.5504      2.00000
     51      -4.5274      2.00000
     52      -4.4932      2.00000
     53      -4.4897      2.00000
     54      -4.4815      2.00000
     55      -4.4696      2.00000
     56      -4.4585      2.00000
     57      -4.4222      2.00000
     58      -4.3772      2.00000
     59      -4.3583      2.00000
     60      -4.3338      2.00000
[...]
    238       5.7763      0.00000
    239       5.9855      0.00000
    240       6.0299      0.00000
    241       6.0469      0.00000
    242       6.0894      0.00000
    243       6.2958      0.00000
    244       6.3551      0.00000
    245       6.3968      0.00000
    246       6.4699      0.00000
    247       6.5454      0.00000
    248       6.6018      0.00000
    249       6.6304      0.00000
    250       6.6944      0.00000
    251       6.7947      0.00000
    252       6.8434      0.00000

 soft charge-density along one line, spin component           1
         0         1         2         3         4         5         6         7         8         9
 total charge-density along one line

------------------------ aborting loop because EDIFF is reached ----------------------------------------

 total charge

# of ion       s       p       d       tot
    1        0.546   0.239   8.768   9.553
    2        0.545   0.241   8.765   9.551
    3        0.545   0.241   8.765   9.551
    4        0.545   0.241   8.765   9.551
    5        0.543   0.242   8.762   9.547
    6        0.545   0.241   8.765   9.551
    7        0.545   0.241   8.766   9.551
    8        0.545   0.241   8.766   9.551
    9        0.542   0.239   8.770   9.551
   10        0.523   0.308   8.771   9.601
   11        0.523   0.307   8.780   9.611
   12        0.523   0.308   8.771   9.601
   13        0.522   0.308   8.780   9.610
   14        0.522   0.308   8.780   9.610
   15        0.517   0.309   8.777   9.603
   16        0.523   0.308   8.770   9.601
   17        0.516   0.309   8.777   9.603
   18        0.516   0.309   8.777   9.603
   19        0.520   0.300   8.774   9.594
   20        0.547   0.331   8.751   9.628
   21        0.547   0.331   8.751   9.628
   22        0.511   0.310   8.777   9.598
   23        0.547   0.331   8.749   9.627
   24        0.511   0.310   8.777   9.598
   25        0.518   0.300   8.774   9.593
   26        0.518   0.300   8.774   9.593
   27        0.513   0.310   8.776   9.599
   28        0.539   0.226   8.765   9.530
   29        0.565   0.245   8.751   9.562
   30        0.565   0.245   8.751   9.562
   31        0.565   0.243   8.752   9.560
   32        0.565   0.243   8.752   9.560
   33        0.558   0.237   8.757   9.551
   34        0.558   0.237   8.757   9.551
   35        0.533   0.227   8.766   9.526
   36        0.319   0.305   6.183   6.807
   37        0.601   0.118   0.000   0.719
   38        0.601   0.118   0.000   0.719
   39        1.569   3.602   0.000   5.171
tot         21.858  13.808 313.011 348.677

  FORCE on cell =-STRESS in cart. coord.  units (eV):
  Direction    XX          YY          ZZ          XY          YZ          ZX
  Alpha Z   920.39128   920.39128   920.39128
  Ewald  157627.72880157564.06954************     0.03413   -16.01131     0.33411
  Hartree166145.80537166133.55796************     0.00503    -0.46828     0.10104
  E(xc)   -1802.42056 -1802.67253 -1809.38393     0.00012    -0.04749     0.00116
  Local  ************************336153.13098    -0.02673     9.98064    -0.36188
  n-local  -111.76698  -112.93960   -86.70032     0.00562     0.07987    -0.00851
  augment  2409.31672  2410.54961  2424.89123    -0.00172     0.34479    -0.00250
  Kinetic  5555.21688  5573.16781  5627.16956    -0.01122     6.08570    -0.06609
  Fock        0.00000     0.00000     0.00000     0.00000     0.00000     0.00000
  Total     -22.92294   -23.18690     0.40650     0.00524    -0.03608    -0.00266
  in kB     -22.06370   -22.31776     0.39127     0.00504    -0.03473    -0.00256

 VOLUME and BASIS-vectors are now :
  energy-cutoff  :      500.00
  volume of cell :     1664.57
      direct lattice vectors                 reciprocal lattice vectors
     8.813512802  0.000000000  0.000000000     0.113462137 -0.065507406  0.000000000
     4.406756909  7.632725690  0.000000000     0.000000000  0.131014796  0.000000000
     0.000000000  0.000000000 24.744230039     0.000000000  0.000000000  0.040413462

  length of vectors
     8.813512802  8.813512802 24.744230039     0.131014796  0.131014796  0.040413462

 FORCES acting on ions
    electron-ion (+dipol)            ewald-force                    non-local-force                 convergence-correction
   0.225E-02 -.608E-02 0.270E+04   -.250E-03 -.112E-01 -.270E+04   0.502E-04 0.131E-01 -.797E+00   -.206E-02 0.655E-02 -.271E+00
   0.557E+00 0.362E+00 0.270E+04   -.664E+00 -.480E+00 -.270E+04   0.457E-01 0.703E-01 -.204E+00   0.585E-01 0.601E-01 -.342E+00
   -.559E+00 0.350E+00 0.270E+04   0.664E+00 -.480E+00 -.270E+04   -.458E-01 0.704E-01 -.204E+00   -.564E-01 0.710E-01 -.338E+00
   0.602E+00 0.287E+00 0.270E+04   -.738E+00 -.322E+00 -.270E+04   0.711E-01 -.585E-02 -.206E+00   0.728E-01 0.297E-01 -.347E+00
   -.150E-01 -.342E-01 0.270E+04   0.648E-03 0.190E-01 -.270E+04   0.355E-04 -.261E-02 -.141E+00   0.145E-01 0.151E-01 -.314E+00
   -.592E+00 0.283E+00 0.270E+04   0.737E+00 -.322E+00 -.270E+04   -.712E-01 -.566E-02 -.206E+00   -.826E-01 0.340E-01 -.342E+00
   0.200E-01 -.645E+00 0.270E+04   -.736E-01 0.802E+00 -.270E+04   0.354E-01 -.661E-01 -.240E+00   0.272E-01 -.918E-01 -.343E+00
   -.294E-01 -.638E+00 0.270E+04   0.737E-01 0.801E+00 -.270E+04   -.353E-01 -.661E-01 -.240E+00   -.179E-01 -.989E-01 -.342E+00
   0.139E-01 0.399E-01 0.270E+04   -.732E-04 -.739E-02 -.270E+04   0.372E-04 -.715E-02 -.475E+00   -.140E-01 -.237E-01 -.335E+00
   0.520E+01 0.299E+01 0.925E+03   -.496E+01 -.286E+01 -.925E+03   -.287E+00 -.167E+00 -.689E+00   0.858E-01 0.582E-01 0.429E+00
   -.161E-01 0.632E+01 0.935E+03   0.340E-02 -.647E+01 -.935E+03   0.441E-04 0.375E-01 -.295E+00   0.130E-01 0.685E-01 0.544E+00
   -.519E+01 0.297E+01 0.925E+03   0.496E+01 -.285E+01 -.925E+03   0.286E+00 -.167E+00 -.690E+00   -.942E-01 0.659E-01 0.428E+00
   0.546E+01 -.329E+01 0.935E+03   -.560E+01 0.335E+01 -.935E+03   0.499E-01 -.289E-01 -.331E+00   0.565E-01 -.150E-01 0.540E+00
   -.549E+01 -.328E+01 0.935E+03   0.561E+01 0.335E+01 -.935E+03   -.498E-01 -.288E-01 -.331E+00   -.348E-01 -.190E-01 0.537E+00
   0.152E-01 0.306E+01 0.928E+03   -.328E-02 -.313E+01 -.928E+03   0.145E-03 0.247E-01 -.530E+00   -.122E-01 0.674E-02 0.369E+00
   -.201E-02 -.587E+01 0.925E+03   0.624E-03 0.560E+01 -.925E+03   -.895E-04 0.344E+00 -.747E+00   0.147E-02 -.118E+00 0.438E+00
   0.277E+01 -.145E+01 0.928E+03   -.280E+01 0.150E+01 -.928E+03   0.650E-02 -.564E-02 -.548E+00   -.108E-01 -.243E-01 0.375E+00
   -.277E+01 -.146E+01 0.928E+03   0.280E+01 0.150E+01 -.928E+03   -.642E-02 -.575E-02 -.548E+00   0.100E-01 -.127E-01 0.378E+00
   0.341E-01 0.265E+01 -.881E+03   -.245E-01 -.285E+01 0.879E+03   -.126E-03 0.414E-01 0.493E+00   -.974E-02 0.131E+00 0.139E+01
   0.292E+02 0.162E+02 -.830E+03   -.291E+02 -.161E+02 0.828E+03   -.979E+00 -.555E+00 -.867E+00   0.820E+00 0.482E+00 0.242E+01
   -.292E+02 0.162E+02 -.830E+03   0.291E+02 -.161E+02 0.828E+03   0.980E+00 -.556E+00 -.868E+00   -.823E+00 0.486E+00 0.241E+01
   0.621E+01 -.389E+01 -.865E+03   -.690E+01 0.427E+01 0.863E+03   0.361E+00 -.178E+00 0.524E+00   0.352E+00 -.212E+00 0.150E+01
   -.222E-01 -.340E+02 -.832E+03   0.220E-01 0.338E+02 0.830E+03   -.231E-03 0.117E+01 -.859E+00   0.408E-03 -.956E+00 0.242E+01
   -.617E+01 -.386E+01 -.865E+03   0.688E+01 0.425E+01 0.863E+03   -.361E+00 -.178E+00 0.524E+00   -.365E+00 -.215E+00 0.150E+01
   -.283E+01 -.705E+00 -.881E+03   0.298E+01 0.852E+00 0.879E+03   -.174E-01 -.658E-01 0.569E+00   -.107E+00 -.707E-01 0.139E+01
   0.284E+01 -.675E+00 -.881E+03   -.299E+01 0.827E+00 0.879E+03   0.173E-01 -.657E-01 0.568E+00   0.994E-01 -.767E-01 0.139E+01
   -.212E-02 0.813E+01 -.864E+03   0.692E-02 -.893E+01 0.862E+03   0.177E-03 0.408E+00 0.476E+00   -.523E-02 0.410E+00 0.150E+01
   0.535E-01 0.225E+01 -.264E+04   -.536E-01 -.229E+01 0.264E+04   0.177E-03 0.305E-01 0.397E+00   -.190E-03 -.662E-02 0.941E+00
   0.409E+02 0.688E+02 -.261E+04   -.408E+02 -.687E+02 0.261E+04   -.725E+00 -.119E+01 -.202E+00   0.545E+00 0.910E+00 0.709E+00
   -.410E+02 0.685E+02 -.261E+04   0.409E+02 -.685E+02 0.261E+04   0.725E+00 -.119E+01 -.200E+00   -.544E+00 0.917E+00 0.708E+00
   0.762E+02 -.240E+01 -.261E+04   -.761E+02 0.245E+01 0.261E+04   -.143E+01 -.537E-01 -.127E+00   0.109E+01 0.287E-01 0.707E+00
   -.759E+02 -.237E+01 -.261E+04   0.758E+02 0.242E+01 0.261E+04   0.143E+01 -.545E-01 -.125E+00   -.109E+01 0.327E-01 0.703E+00
   0.331E+02 -.628E+02 -.262E+04   -.332E+02 0.628E+02 0.262E+04   -.531E+00 0.107E+01 0.358E+00   0.519E+00 -.946E+00 0.704E+00
   -.331E+02 -.626E+02 -.262E+04   0.333E+02 0.627E+02 0.262E+04   0.532E+00 0.107E+01 0.356E+00   -.512E+00 -.950E+00 0.703E+00
   0.512E-01 0.135E+01 -.265E+04   -.392E-01 -.135E+01 0.265E+04   -.302E-03 0.308E-02 0.496E+00   -.120E-01 -.779E-02 0.845E+00
   -.262E+00 -.687E+01 -.167E+04   0.259E+00 0.700E+01 0.167E+04   -.623E-02 -.119E+00 0.106E+01   0.900E-02 0.158E-01 0.374E+00
   0.676E+02 0.440E+02 -.299E+03   -.744E+02 -.484E+02 0.300E+03   0.669E+01 0.442E+01 -.165E+01   0.470E-01 0.346E-01 -.114E+00
   -.676E+02 0.440E+02 -.299E+03   0.743E+02 -.485E+02 0.301E+03   -.669E+01 0.442E+01 -.169E+01   -.464E-01 0.345E-01 -.114E+00
   -.107E+00 -.571E+02 -.170E+04   0.109E+00 0.100E+03 0.170E+04   0.106E-02 -.432E+02 0.566E+01   0.674E-03 0.113E-01 -.109E+01
   0.234E-01 0.347E+02 -.189E+02   0.113E-12 -.412E-12 -.341E-11   0.126E-03 -.348E+02 -.254E+01   -.214E-01 0.649E-01 0.220E+02

 POSITION                                       TOTAL-FORCE (eV/Angst)
      0.00000      0.00000      5.28038        -0.000064      0.002620     -0.059539
      2.93784      0.00000      5.28038        -0.002995      0.012243     -0.004221
      5.87568      0.00000      5.28038         0.002910      0.012300     -0.004245
      1.46892      2.54424      5.28038         0.008006     -0.010861     -0.000933
      4.40676      2.54424      5.28038         0.000160     -0.002525     -0.026065
      7.34459      2.54424      5.28038        -0.008118     -0.010852     -0.000772
      2.93784      5.08848      5.28038         0.008936     -0.000815     -0.004492
      5.87568      5.08848      5.28038        -0.009017     -0.000841     -0.004351
      8.81351      5.08848      5.28038        -0.000264      0.001906     -0.023360
      1.46892      0.84808      7.67911         0.040898      0.021893      0.100856
      4.40676      0.84808      7.67911         0.000216     -0.041415      0.003629
      7.34459      0.84808      7.67911        -0.041090      0.021898      0.100740
      2.93784      3.39232      7.67911        -0.031062      0.022051      0.003944
      5.87568      3.39232      7.67911         0.031451      0.022022      0.003899
      8.81351      3.39232      7.67911        -0.000132     -0.036979      0.062972
      4.40676      5.93656      7.67911        -0.000067     -0.046837      0.091189
      7.34459      5.93656      7.67911        -0.035874      0.020084      0.062644
     10.28243      5.93656      7.67911         0.035800      0.020169      0.062640
      8.81351      1.69603     10.07519        -0.000336     -0.025445     -0.027211
      2.95264      1.70471     10.05068         0.001339      0.003463     -0.096171
      5.86088      1.70471     10.05068        -0.001849      0.003639     -0.095599
     10.26798      4.24875     10.06116         0.013779     -0.008759     -0.007957
      4.40676      4.22331     10.05068        -0.000104     -0.000481     -0.051380
      7.35905      4.24875     10.06116        -0.014414     -0.008831     -0.007923
     11.75147      6.78471     10.07519         0.023730      0.010103     -0.016894
      5.87556      6.78471     10.07519        -0.024212      0.010049     -0.016846
      8.81351      6.76796     10.06116        -0.000316      0.013692     -0.021879
      0.00000      0.00000     12.48698        -0.000081     -0.011448     -0.138332
      2.98147      0.07441     12.46921        -0.103065     -0.205589     -0.074670
      5.83205      0.07441     12.46921         0.102635     -0.204421     -0.074016
      1.55518      2.54482     12.46921        -0.214669      0.020404     -0.087089
      7.25833      2.54482     12.46921         0.212370      0.020219     -0.085684
      2.98047      5.01349     12.46921        -0.134865      0.176540     -0.107701
      5.83305      5.01349     12.46921         0.134493      0.175825     -0.107282
      8.81351      5.08848     12.49182        -0.000299     -0.001584     -0.068699
      4.40676      2.54424     12.16047        -0.000132      0.028835      0.832081
      3.61934      1.99469     14.46454        -0.017751     -0.013613     -0.002291
      5.18714      1.99475     14.46887         0.020862     -0.015828     -0.003373
      4.40389      2.54823     14.26090         0.003194      0.027168     -0.105619
    total drift:                                0.002124     -0.009771      0.597702

  FREE ENERGIE OF THE ION-ELECTRON SYSTEM (eV)
  free  energy   TOTEN  =      -127.56113464 eV

  energy  without entropy=     -127.56113464  energy(sigma->0) =     -127.56113464

 stress matrix after NEB project (eV)
    -22.92294      0.00524     -0.00266
      0.00524    -23.18690     -0.03608
     -0.00266     -0.03608      0.40650
  FORCES: max atom, RMS     0.109103    0.018332
  FORCE total and by dimension    0.114483    0.105619
  Stress total and by dimension   32.607694   23.186901
|           W    W    AA    RRRRR   N    N  II  N    N   GGGG   !!!           |
|           W    W   A  A   R    R  NN   N  II  NN   N  G    G  !!!           |
|           W    W  A    A  R    R  N N  N  II  N N  N  G       !!!           |
|           W WW W  AAAAAA  RRRRR   N  N N  II  N  N N  G  GGG   !            |
|           WW  WW  A    A  R   R   N   NN  II  N   NN  G    G                |
|           W    W  A    A  R    R  N    N  II  N    N   GGGG   !!!           |
|     Tetrahedron method does not include variations of the Fermi             |
|     occupations, so forces and stress will be inaccurate. We suggest        |
|     using a different smearing scheme ISMEAR = 1 or 2 for metals in         |
|     relaxations.                                                            |

 total charge

# of ion       s       p       d       tot
    1        0.546   0.239   8.768   9.553
    2        0.545   0.241   8.765   9.551
    3        0.545   0.241   8.765   9.551
    4        0.545   0.241   8.765   9.551
    5        0.543   0.242   8.762   9.547
    6        0.545   0.241   8.765   9.551
    7        0.545   0.241   8.766   9.551
    8        0.545   0.241   8.766   9.551
    9        0.542   0.239   8.770   9.551
   10        0.523   0.308   8.771   9.601
   11        0.523   0.307   8.780   9.611
   12        0.523   0.308   8.771   9.601
   13        0.522   0.308   8.780   9.610
   14        0.522   0.308   8.780   9.610
   15        0.517   0.309   8.777   9.603
   16        0.523   0.308   8.770   9.601
   17        0.516   0.309   8.777   9.603
   18        0.516   0.309   8.777   9.603
   19        0.520   0.300   8.774   9.594
   20        0.547   0.331   8.751   9.628
   21        0.547   0.331   8.751   9.628
   22        0.511   0.310   8.777   9.598
   23        0.547   0.331   8.749   9.627
   24        0.511   0.310   8.777   9.598
   25        0.518   0.300   8.774   9.593
   26        0.518   0.300   8.774   9.593
   27        0.513   0.310   8.776   9.599
   28        0.539   0.226   8.765   9.530
   29        0.565   0.245   8.751   9.562
   30        0.565   0.245   8.751   9.562
   31        0.565   0.243   8.752   9.560
   32        0.565   0.243   8.752   9.560
   33        0.558   0.237   8.757   9.551
   34        0.558   0.237   8.757   9.551
   35        0.533   0.227   8.766   9.526
   36        0.319   0.305   6.183   6.807
   37        0.601   0.118   0.000   0.719
   38        0.601   0.118   0.000   0.719
   39        1.569   3.602   0.000   5.171
tot         21.858  13.808 313.011 348.677

 BZINTS: Fermi energy:    0.297299;  401.000000 electrons
         Band energy:-0.141088E+04;  BLOECHL correction:   -0.052522