 vasp.6.2.0 18Jan21 (build Jun 12 2021 23:27:24) complex

 executed on             LinuxIFC date 2022.05.28  01:50:02

 INCAR:
   ISMEAR = -5
   SIGMA = 0.1
   ISPIN = 1
   EDIFF = 1.d-5
   EDIFFG = -0.01
   NSW = 0
   NELM = 150
   ENCUT = 500
   ISIF = 2
   IBRION = 2
   LREAL = Auto
   ALGO = Fast
   ICHARG = 11
   LORBIT = 10
   LCHARG = .F.
   LWAVE = .F.

 POTCAR:    PAW_PBE Ag 02Apr2005
 POTCAR:    PAW_PBE Ru 04Feb2005
 POTCAR:    PAW_PBE O 08Apr2002
 POTCAR:    PAW_PBE H 15Jun2001
|           W    W    AA    RRRRR   N    N  II  N    N   GGGG   !!!           |
|           W    W   A  A   R    R  NN   N  II  NN   N  G    G  !!!           |
|           W    W  A    A  R    R  N N  N  II  N N  N  G       !!!           |
|           W WW W  AAAAAA  RRRRR   N  N N  II  N  N N  G  GGG   !            |
|           WW  WW  A    A  R   R   N   NN  II  N   NN  G    G                |
|           W    W  A    A  R    R  N    N  II  N    N   GGGG   !!!           |
|     For optimal performance we recommend to set                             |
|       NCORE = 2 up to number-of-cores-per-socket                            |
|     This setting can greatly improve the performance of VASP for DFT.       |
|     The default, NCORE=1 might be grossly inefficient on modern             |
|     multi-core architectures or massively parallel machines. Do your        |
|     Unfortunately you need to use the default for GW and RPA                |
|     calculations (for HF NCORE is supported but not extensively tested      |
|     yet).                                                                   |

 POTCAR:    PAW_PBE Ag 02Apr2005
   VRHFIN =Ag : s1 d10

   TITEL  = PAW_PBE Ag 02Apr2005
   POMASS =  107.868; ZVAL   =   11.000    mass and valenz
   ENMAX  =  249.844; ENMIN  =  187.383 eV

 POTCAR:    PAW_PBE Ru 04Feb2005
   VRHFIN =Ru: s1 d7

   TITEL  = PAW_PBE Ru 04Feb2005
   POMASS =  101.070; ZVAL   =    8.000    mass and valenz
   ENMAX  =  213.271; ENMIN  =  159.953 eV

 POTCAR:    PAW_PBE O 08Apr2002
   VRHFIN =O: s2p4

   TITEL  = PAW_PBE O 08Apr2002
   POMASS =   16.000; ZVAL   =    6.000    mass and valenz
   ENMAX  =  400.000; ENMIN  =  300.000 eV

 POTCAR:    PAW_PBE H 15Jun2001
   VRHFIN =H: ultrasoft test

   TITEL  = PAW_PBE H 15Jun2001
   POMASS =    1.000; ZVAL   =    1.000    mass and valenz
   ENMAX  =  250.000; ENMIN  =  200.000 eV

 Optimization of the real space projectors (new method)

 maximal supplied QI-value         = 15.12
 optimisation between [QCUT,QGAM] = [ 11.34, 22.83] = [ 36.00,145.93] Ry
 Optimized for a Real-space Cutoff    1.43 Angstroem

   l    n(q)    QCUT    max X(q) W(low)/X(q) W(high)/X(q)  e(spline)
   2      9    11.338    53.897    0.16E-03    0.20E-03    0.28E-06
   2      9    11.338    52.416    0.16E-03    0.20E-03    0.29E-06
   0     10    11.338   122.045    0.31E-04    0.76E-04    0.15E-06
   0     10    11.338    73.629    0.30E-04    0.72E-04    0.15E-06
   1      9    11.338    15.255    0.20E-03    0.19E-04    0.17E-06
   1      9    11.338     9.562    0.16E-03    0.15E-04    0.14E-06
 Optimization of the real space projectors (new method)

[...]

   l    n(q)    QCUT    max X(q) W(low)/X(q) W(high)/X(q)  e(spline)
   0      7    11.387    20.381    0.39E-03    0.13E-02    0.15E-06
   0      7    11.387    15.268    0.42E-03    0.14E-02    0.17E-06
   1      6    11.387     5.964    0.41E-03    0.11E-02    0.17E-06
   1      6    11.387     5.382    0.39E-03    0.87E-03    0.15E-06
 Optimization of the real space projectors (new method)

 maximal supplied QI-value         = 34.20
 optimisation between [QCUT,QGAM] = [ 11.29, 22.57] = [ 35.68,142.71] Ry
 Optimized for a Real-space Cutoff    1.16 Angstroem

   l    n(q)    QCUT    max X(q) W(low)/X(q) W(high)/X(q)  e(spline)
   0      8    11.287    19.460    0.40E-03    0.73E-03    0.16E-06
   0      8    11.287    12.209    0.38E-03    0.70E-03    0.15E-06
   1      7    11.287     4.655    0.22E-03    0.25E-04    0.22E-06
  PAW_PBE Ag 02Apr2005                  :
  PAW_PBE Ru 04Feb2005                  :
  PAW_PBE O 08Apr2002                   :
  PAW_PBE H 15Jun2001                   :

 POSCAR: Ag-Ru-OOH
  positions in direct lattice
  velocities in cartesian coordinates
 exchange correlation table for  LEXCH =        8
   RHO(1)=    0.500       N(1)  =     2000
   RHO(2)=  100.500       N(2)  =     4000

 VTST: version 3.2, (02/03/18)

 CHAIN: initializing optimizer

 OPT: Using VASP Conjugate-Gradient optimizer
 CHAIN: Read ICHAIN            0

 POSCAR: Ag-Ru-OOH
  positions in direct lattice
  velocities in cartesian coordinates

 ion  position               nearest neighbor table
   1  0.000  0.000  0.204-   2 2.93   8 2.93   7 2.93   6 2.93   4 2.93  12 2.93  16 2.93  10 2.93
                             3 2.93
   2  0.333  0.000  0.204-   1 2.93   8 2.93   9 2.93   3 2.93   4 2.93   5 2.93  10 2.93  17 2.93
                            11 2.93
   3  0.667  0.000  0.204-   9 2.93   2 2.93   5 2.93  11 2.93   7 2.93  18 2.93   1 2.93   6 2.93
                            12 2.93
   4  0.000  0.333  0.204-   5 2.93   6 2.93   2 2.93   1 2.93   7 2.93  13 2.93  15 2.93   9 2.93
                            10 2.93
   5  0.333  0.333  0.204-   4 2.93   3 2.93   7 2.93   2 2.93   8 2.93  14 2.93  13 2.93  11 2.93
                             6 2.93
   6  0.667  0.333  0.204-   4 2.93   9 2.93   1 2.93  15 2.93   8 2.93  12 2.93   3 2.93   5 2.93
                            14 2.93
   7  0.000  0.667  0.204-   8 2.93   1 2.93   5 2.93   3 2.93   4 2.93  16 2.93  18 2.93  13 2.93
                             9 2.93
   8  0.333  0.667  0.204-   7 2.93   1 2.93   2 2.93   9 2.93   5 2.93  16 2.93   6 2.93  17 2.93
                            14 2.93
   9  0.667  0.667  0.204-   3 2.93   2 2.93   8 2.93   6 2.93  17 2.93   4 2.93  15 2.93   7 2.93
                            18 2.93
  10  0.111  0.111  0.296-  20 2.90  19 2.93  26 2.93  12 2.93  16 2.93  15 2.93  17 2.93  13 2.93
                            11 2.93   2 2.93   1 2.93   4 2.93
  11  0.444  0.111  0.296-  21 2.90  20 2.90  27 2.92  14 2.93  17 2.93  18 2.93   3 2.93  12 2.93
                            13 2.93  10 2.93   5 2.93   2 2.93
  12  0.778  0.111  0.296-  21 2.90  25 2.93  19 2.93  10 2.93  16 2.93  18 2.93  15 2.93  11 2.93
                             1 2.93  14 2.93   6 2.93   3 2.93
  13  0.111  0.444  0.296-  20 2.90  23 2.90  22 2.92  15 2.93  14 2.93  18 2.93  10 2.93  11 2.93
                            16 2.93   4 2.93   5 2.93   7 2.93
  14  0.444  0.444  0.296-  23 2.90  21 2.90  24 2.92  13 2.93  11 2.93  16 2.93   5 2.93  12 2.93
                            17 2.93   8 2.93  15 2.93   6 2.93
  15  0.778  0.444  0.296-  24 2.92  22 2.92  19 2.93  13 2.93  10 2.93  12 2.93  17 2.93  18 2.93
                             4 2.93   6 2.93   9 2.93  14 2.93
  16  0.111  0.778  0.296-  23 2.90  26 2.93  25 2.93  18 2.93  12 2.93  10 2.93  14 2.93  17 2.93
                            13 2.93   7 2.93   8 2.93   1 2.93
  17  0.444  0.778  0.296-  27 2.92  24 2.92  26 2.93  11 2.93  10 2.93   9 2.93  18 2.93  15 2.93
                            16 2.93   2 2.93  14 2.93   8 2.93
  18  0.778  0.778  0.296-  22 2.92  27 2.92  25 2.93  16 2.93  12 2.93  13 2.93  11 2.93  17 2.93
                            15 2.93   7 2.93   3 2.93   9 2.93
  19  0.889  0.223  0.388-  28 2.91  15 2.93  10 2.93  12 2.93  24 2.93  22 2.93  26 2.93  25 2.93
                            20 2.94  21 2.94  32 2.94  31 2.94
  20  0.223  0.223  0.387-  36 2.77  13 2.90  11 2.90  10 2.90  21 2.92  23 2.92  31 2.92  29 2.92
                            27 2.93  22 2.93  19 2.94  26 2.94
  21  0.555  0.223  0.387-  36 2.77  11 2.90  14 2.90  12 2.90  20 2.92  23 2.92  30 2.92  32 2.92
                            27 2.93  24 2.93  25 2.94  19 2.94
  22  0.888  0.556  0.388-  35 2.91  18 2.92  15 2.92  13 2.92  33 2.92  31 2.92  24 2.92  27 2.92
                            25 2.93  19 2.93  23 2.93  20 2.93
  23  0.223  0.555  0.387-  36 2.77  14 2.90  13 2.90  16 2.90  21 2.92  20 2.92  34 2.92  33 2.92
                            22 2.93  24 2.93  26 2.94  25 2.94
  24  0.556  0.556  0.388-  35 2.91  15 2.92  17 2.92  14 2.92  32 2.92  34 2.92  27 2.92  22 2.92
                            19 2.93  26 2.93  23 2.93  21 2.93
  25  0.889  0.889  0.388-  28 2.91  18 2.93  16 2.93  12 2.93  22 2.93  27 2.93  26 2.93  19 2.93
                            23 2.94  21 2.94  33 2.94  30 2.94
  26  0.223  0.889  0.388-  28 2.91  17 2.93  16 2.93  10 2.93  27 2.93  24 2.93  25 2.93  19 2.93
                            23 2.94  20 2.94  34 2.94  29 2.94
  27  0.556  0.888  0.388-  35 2.91  17 2.92  18 2.92  11 2.92  29 2.92  30 2.92  24 2.92  22 2.92
                            26 2.93  25 2.93  20 2.93  21 2.93
  28  0.000  0.000  0.480-  38 2.23  26 2.91  25 2.91  19 2.91  29 2.95  34 2.95  33 2.95  32 2.95
                            31 2.95  30 2.95
  29  0.333  0.006  0.480-  38 2.32  31 2.88  30 2.88  36 2.89  20 2.92  27 2.92  26 2.94  28 2.95
                            35 2.96  34 3.03
  30  0.661  0.006  0.480-  32 2.88  29 2.88  36 2.89  21 2.92  27 2.92  25 2.94  28 2.95  35 2.96
                            33 3.03
  31  0.006  0.333  0.480-  38 2.35  37 2.58  29 2.88  33 2.88  36 2.89  20 2.92  22 2.92  19 2.94
                            28 2.95  35 2.96  32 3.03
  32  0.661  0.333  0.480-  30 2.88  34 2.88  36 2.89  21 2.92  24 2.92  19 2.94  28 2.95  35 2.96
                            31 3.03
  33  0.006  0.661  0.480-  37 2.38  34 2.88  31 2.88  36 2.89  23 2.92  22 2.92  25 2.94  28 2.95
                            35 2.96  30 3.03
  34  0.333  0.661  0.480-  33 2.88  32 2.88  36 2.89  23 2.92  24 2.92  26 2.94  28 2.95  35 2.96
                            29 3.03
  35  0.667  0.667  0.479-  24 2.91  27 2.91  22 2.91  30 2.96  32 2.96  29 2.96  34 2.96  31 2.96
                            33 2.96
  36  0.333  0.333  0.472-  37 1.75  21 2.77  20 2.77  23 2.77  31 2.89  30 2.89  33 2.89  29 2.89
                            34 2.89  32 2.89
  37  0.211  0.414  0.529-  36 1.75  33 2.38  31 2.58
  38  0.107  0.101  0.540-  39 0.97  28 2.23  29 2.32  31 2.35
  39  0.109  0.089  0.577-  38 0.97

  LATTYP: Found a hexagonal cell.
 ALAT       =     8.7913665772
 C/A-ratio  =     2.9469639759

  Lattice vectors:

 A1 = (  -4.3956832886,  -7.6135467898,   0.0000000000)
 A2 = (   8.7913665771,   0.0000000000,   0.0000000000)
 A3 = (   0.0000000000,   0.0000000000,  25.9078406020)

Analysis of symmetry for initial positions (statically):
 Subroutine PRICEL returns:
 Original cell was already a primitive cell.

 Routine SETGRP: Setting up the symmetry group for a
 hexagonal supercell.

 Subroutine GETGRP returns: Found  1 space group operations
 (whereof  1 operations were pure point group operations)
 out of a pool of 24 trial point group operations.

The static configuration has the point symmetry C_1 .

Analysis of symmetry for dynamics (positions and initial velocities):
 Subroutine PRICEL returns:
 Original cell was already a primitive cell.

[...]

The dynamic configuration has the point symmetry C_1 .

[...]
     41      -5.0520      2.00000
     42      -5.0152      2.00000
     43      -5.0076      2.00000
     44      -4.9978      2.00000
     45      -4.9755      2.00000
     46      -4.9562      2.00000
     47      -4.9131      2.00000
     48      -4.8852      2.00000
     49      -4.8661      2.00000
     50      -4.8470      2.00000
     51      -4.8392      2.00000
     52      -4.8296      2.00000
     53      -4.8238      2.00000
     54      -4.8208      2.00000
     55      -4.8031      2.00000
     56      -4.7934      2.00000
     57      -4.7562      2.00000
     58      -4.7274      2.00000
     59      -4.7130      2.00000
     60      -4.7063      2.00000
[...]
    238       5.2908      0.00000
    239       5.3117      0.00000
    240       5.5218      0.00000
    241       5.6168      0.00000
    242       5.7629      0.00000
    243       5.9644      0.00000
    244       5.9965      0.00000
    245       6.0168      0.00000
    246       6.0512      0.00000
    247       6.2445      0.00000
    248       6.2892      0.00000
    249       6.3351      0.00000
    250       6.5122      0.00000
    251       6.5761      0.00000
    252       6.6079      0.00000

 soft charge-density along one line, spin component           1
         0         1         2         3         4         5         6         7         8         9
 total charge-density along one line

------------------------ aborting loop because EDIFF is reached ----------------------------------------

 total charge

# of ion       s       p       d       tot
    1        0.417   0.203   9.178   9.798
    2        0.415   0.203   9.178   9.797
    3        0.416   0.205   9.176   9.797
    4        0.419   0.201   9.178   9.798
    5        0.416   0.204   9.176   9.797
    6        0.415   0.205   9.176   9.797
    7        0.420   0.201   9.178   9.799
    8        0.417   0.203   9.178   9.798
    9        0.415   0.203   9.178   9.795
   10        0.407   0.269   9.163   9.839
   11        0.404   0.272   9.166   9.842
   12        0.417   0.264   9.164   9.845
   13        0.406   0.270   9.167   9.843
   14        0.401   0.273   9.167   9.841
   15        0.406   0.267   9.166   9.839
   16        0.408   0.270   9.163   9.840
   17        0.405   0.268   9.165   9.839
   18        0.401   0.271   9.164   9.836
   19        0.405   0.269   9.163   9.837
   20        0.420   0.304   9.144   9.868
   21        0.441   0.285   9.152   9.877
   22        0.395   0.275   9.166   9.835
   23        0.418   0.303   9.148   9.868
   24        0.393   0.273   9.169   9.836
   25        0.398   0.276   9.158   9.832
   26        0.404   0.267   9.166   9.837
   27        0.392   0.277   9.166   9.835
   28        0.378   0.241   9.185   9.804
   29        0.371   0.239   9.187   9.797
   30        0.412   0.219   9.169   9.800
   31        0.355   0.232   9.199   9.787
   32        0.407   0.214   9.177   9.798
   33        0.385   0.227   9.184   9.796
   34        0.398   0.202   9.197   9.798
   35        0.416   0.194   9.186   9.795
   36        0.571   0.619   6.650   7.839
   37        1.602   3.265   0.000   4.867
   38        1.557   3.491   0.000   5.047
   39        0.616   0.120   0.000   0.736
tot         18.539  16.041 327.646 362.227

  FORCE on cell =-STRESS in cart. coord.  units (eV):
  Direction    XX          YY          ZZ          XY          YZ          ZX
  Alpha Z   658.48003   658.48003   658.48003
  Ewald  179850.26368179877.56698************    54.38752     5.76111   -26.53309
  Hartree189890.20480189924.87927************    66.31415   -16.28548    10.08129
  E(xc)   -2130.29894 -2130.35786 -2134.22103    -0.08879     0.18075    -0.23310
  Local  ************************381003.57717  -123.78592    16.19970     6.98129
  n-local  -360.84544  -361.73423  -362.41508    -1.99476     3.77656    -4.27107
  augment  3280.67042  3281.48398  3283.35863     1.59519    -3.40212     3.89809
  Kinetic  5142.27370  5143.64980  5131.36819     3.60096    -5.99244     9.56591
  Fock        0.00000     0.00000     0.00000     0.00000     0.00000     0.00000
  Total      -4.93412    -5.77936    -0.69802     0.02834     0.23808    -0.51068
  in kB      -4.55875    -5.33969    -0.64492     0.02619     0.21997    -0.47183

 VOLUME and BASIS-vectors are now :
  energy-cutoff  :      500.00
  volume of cell :     1734.10
      direct lattice vectors                 reciprocal lattice vectors
     8.791366577  0.000000000  0.000000000     0.113747958 -0.065672414  0.000000000
     4.395683289  7.613546790  0.000000000     0.000000000  0.131344829  0.000000000
     0.000000000  0.000000000 25.907840602     0.000000000  0.000000000  0.038598354

  length of vectors
     8.791366577  8.791366577 25.907840602     0.131344829  0.131344829  0.038598354

 FORCES acting on ions
    electron-ion (+dipol)            ewald-force                    non-local-force                 convergence-correction
   0.151E+00 0.142E+00 0.283E+04   -.240E+00 -.570E-01 -.282E+04   0.504E-01 -.676E-01 -.189E+01   0.275E-01 -.379E-02 -.549E-01
   -.508E-02 0.653E+00 0.283E+04   -.129E+00 -.666E+00 -.282E+04   0.762E-01 -.399E-02 -.153E+01   0.604E-01 0.174E-01 -.773E-01
   -.127E+00 0.541E+00 0.283E+04   0.368E+00 -.461E+00 -.282E+04   -.136E+00 0.810E-02 -.153E+01   -.949E-01 -.618E-01 -.838E-01
   0.600E+00 -.318E+00 0.283E+04   -.715E+00 0.638E-01 -.282E+04   0.638E-01 0.130E+00 -.166E+01   0.494E-01 0.988E-01 -.792E-01
   -.142E+00 -.415E-01 0.283E+04   0.298E+00 -.302E-01 -.283E+04   -.603E-01 0.448E-01 -.170E+01   -.812E-01 0.199E-01 -.758E-01
   -.389E+00 -.155E+00 0.283E+04   0.417E+00 -.417E-01 -.282E+04   -.856E-01 0.962E-01 -.148E+01   0.375E-01 0.811E-01 -.403E-01
   0.406E+00 -.491E+00 0.283E+04   -.287E+00 0.710E+00 -.282E+04   -.353E-01 -.108E+00 -.179E+01   -.680E-01 -.100E+00 -.983E-01
   -.307E+00 -.357E+00 0.283E+04   0.345E+00 0.400E+00 -.282E+04   -.437E-01 -.233E-01 -.160E+01   0.136E-01 -.256E-01 -.670E-01
   -.185E+00 0.322E-01 0.283E+04   -.576E-01 0.822E-01 -.282E+04   0.170E+00 -.804E-01 -.184E+01   0.567E-01 -.268E-01 -.895E-01
   0.474E+01 0.296E+01 0.101E+04   -.432E+01 -.289E+01 -.101E+04   -.440E+00 -.981E-01 -.850E+00   0.237E-01 0.561E-01 0.288E+00
   -.221E+01 0.551E+01 0.101E+04   0.212E+01 -.570E+01 -.101E+04   0.116E+00 0.968E-01 -.290E+00   -.303E-01 0.413E-01 0.308E+00
   -.230E+01 0.208E+01 0.100E+04   0.220E+01 -.210E+01 -.100E+04   0.821E-01 -.459E-01 -.853E+00   0.228E-01 0.516E-01 0.315E+00
   0.343E+01 -.342E+01 0.101E+04   -.359E+01 0.349E+01 -.101E+04   0.163E+00 -.429E-01 -.610E+00   -.177E-01 -.755E-02 0.316E+00
   -.520E+01 -.188E+01 0.101E+04   0.531E+01 0.204E+01 -.101E+04   -.718E-01 -.112E+00 -.251E+00   0.235E-02 -.123E-01 0.311E+00
   0.149E+01 -.714E+00 0.100E+04   -.173E+01 0.554E+00 -.100E+04   0.194E+00 0.135E+00 -.628E+00   0.376E-01 0.167E-01 0.265E+00
   0.454E+00 -.453E+01 0.101E+04   -.364E+00 0.418E+01 -.100E+04   -.107E+00 0.367E+00 -.911E+00   -.689E-02 -.350E-01 0.299E+00
   -.442E+00 0.932E+00 0.100E+04   0.455E+00 -.895E+00 -.100E+04   -.458E-01 -.300E-01 -.671E+00   0.242E-01 -.128E-01 0.250E+00
   0.101E+00 -.100E+01 0.100E+04   -.907E-01 0.132E+01 -.100E+04   0.454E-01 -.223E+00 -.728E+00   -.338E-01 -.852E-01 0.270E+00
   0.168E+02 -.553E+01 -.833E+03   -.164E+02 0.548E+01 0.832E+03   -.398E+00 0.744E-01 -.598E-01   -.829E-02 0.103E-01 0.374E+00
   -.295E+01 0.764E+01 -.798E+03   0.388E+01 -.741E+01 0.798E+03   -.114E+01 -.420E+00 -.102E+01   0.166E+00 0.141E+00 0.570E+00
   -.126E+02 0.685E+01 -.831E+03   0.119E+02 -.646E+01 0.830E+03   0.998E+00 -.586E+00 -.716E+00   -.175E+00 0.109E+00 0.617E+00
   0.105E+02 -.134E+02 -.833E+03   -.109E+02 0.135E+02 0.832E+03   0.328E+00 -.145E+00 0.478E+00   0.108E+00 -.584E-01 0.380E+00
   -.886E+01 -.121E+02 -.812E+03   0.907E+01 0.110E+02 0.812E+03   -.146E+00 0.137E+01 -.709E+00   -.418E-01 -.214E+00 0.568E+00
   -.177E+01 0.136E+00 -.847E+03   0.201E+01 0.185E+00 0.846E+03   -.184E+00 -.243E+00 0.783E+00   -.661E-01 -.758E-01 0.367E+00
   0.101E+02 -.261E+01 -.848E+03   -.979E+01 0.238E+01 0.848E+03   -.261E+00 0.245E+00 0.108E+00   0.883E-02 -.245E-03 0.400E+00
   -.238E+01 0.126E+02 -.832E+03   0.242E+01 -.126E+02 0.831E+03   -.126E-01 -.631E-01 -.218E-01   -.193E-01 0.112E-01 0.387E+00
   -.762E+01 0.592E+01 -.845E+03   0.736E+01 -.604E+01 0.844E+03   0.144E+00 0.107E+00 0.484E+00   0.194E-01 0.849E-01 0.396E+00
   0.120E+03 0.561E+02 -.259E+04   -.121E+03 -.569E+02 0.259E+04   0.482E+00 0.434E+00 0.133E+01   0.105E-01 0.792E-02 0.272E+00
   -.110E+03 0.911E+02 -.260E+04   0.111E+03 -.915E+02 0.260E+04   -.142E+01 -.259E+00 0.196E+01   0.108E+00 0.287E+00 0.291E+00
   -.659E+01 0.142E+02 -.271E+04   0.606E+01 -.134E+02 0.271E+04   0.681E+00 -.110E+01 0.182E+01   -.119E+00 0.235E+00 0.285E+00
   0.805E+02 -.938E+02 -.257E+04   -.819E+02 0.946E+02 0.257E+04   0.495E+00 -.452E+00 0.278E+01   0.359E+00 0.185E-01 0.348E+00
   0.171E+02 -.143E+02 -.271E+04   -.186E+02 0.147E+02 0.270E+04   0.174E+01 -.248E+00 0.222E+01   -.253E+00 -.265E-01 0.276E+00
   0.451E+02 -.106E+03 -.265E+04   -.458E+02 0.108E+03 0.265E+04   0.259E+00 -.120E+01 0.252E+01   0.146E+00 -.333E+00 0.356E+00
   -.445E+02 0.971E+01 -.269E+04   0.453E+02 -.104E+02 0.269E+04   -.303E+00 0.103E+01 0.271E+01   -.189E+00 -.243E+00 0.308E+00
   0.884E+01 -.117E+02 -.271E+04   -.893E+01 0.115E+02 0.270E+04   0.169E-01 0.217E+00 0.191E+01   0.421E-01 -.214E-01 0.266E+00
   -.112E+03 0.650E+02 -.172E+04   0.110E+03 -.629E+02 0.173E+04   0.276E+01 -.234E+01 -.409E+01   -.670E-01 0.509E-01 0.337E+00
   -.283E+02 -.208E+02 -.187E+04   0.211E+02 0.255E+02 0.189E+04   0.710E+01 -.463E+01 -.265E+02   0.135E+00 -.128E+00 -.198E+00
   0.144E+02 0.134E+02 -.182E+04   -.114E+02 -.822E+01 0.180E+04   -.304E+01 -.521E+01 0.260E+02   0.432E-01 0.466E-01 0.247E-01
   0.566E+01 0.101E+02 -.367E+03   -.601E+01 -.109E+02 0.375E+03   0.333E+00 0.746E+00 -.807E+01   0.603E-02 0.623E-02 -.913E-02
   -.862E+01 0.127E+02 0.830E+01   0.835E-13 0.247E-12 0.102E-10   0.836E+01 -.126E+02 -.168E+02   0.237E+00 -.792E-01 0.857E+01

 POSITION                                       TOTAL-FORCE (eV/Angst)
      0.00000      0.00000      5.28219        -0.010580      0.012428     -0.023877
      2.93046      0.00000      5.28219         0.003474     -0.000890      0.029302
      5.86091      0.00000      5.28219         0.010847      0.025807      0.025699
      1.46523      2.53785      5.28219        -0.000782     -0.026645      0.007707
      4.39568      2.53785      5.28219         0.015301     -0.007826      0.009795
      7.32614      2.53785      5.28219        -0.019464     -0.019966      0.024459
      2.93046      5.07570      5.28219         0.016590      0.009925      0.008410
      5.86091      5.07570      5.28219         0.007975     -0.007342      0.019601
      8.79137      5.07570      5.28219        -0.015990      0.006540      0.022359
      1.46523      0.84595      7.67490        -0.000823      0.024566     -0.013239
      4.39568      0.84595      7.67490        -0.000755     -0.052255     -0.051602
      7.32614      0.84595      7.67490         0.006382     -0.008794     -0.054203
      2.93046      3.38380      7.67490        -0.017744      0.014914     -0.103716
      5.86091      3.38380      7.67490         0.044220      0.035330     -0.047396
      8.79137      3.38380      7.67490        -0.003862     -0.009713     -0.008113
      4.39568      5.92165      7.67490        -0.023353     -0.017367     -0.003615
      7.32614      5.92165      7.67490        -0.008624     -0.006298     -0.005209
     10.25659      5.92165      7.67490         0.022042      0.008250      0.053214
      8.79137      1.69450     10.06282         0.019354      0.027323      0.020808
      2.93652      1.69540     10.03056        -0.046574     -0.045018      0.007241
      5.85484      1.69540     10.03056         0.195633     -0.083666     -0.264014
     10.25378      4.23137     10.05553        -0.007098     -0.100922      0.051975
      4.39568      4.22274     10.03056         0.020060      0.009651     -0.042428
      7.32895      4.23137     10.05553        -0.009121      0.001814      0.008240
     11.71957      6.76630     10.06282         0.082005      0.023621      0.168641
      5.86316      6.76630     10.06282         0.010483     -0.000572      0.007812
      8.79137      6.76435     10.05553        -0.098843      0.079009      0.056151
      0.00000      0.00000     12.42400        -0.520375     -0.321221     -0.031710
      2.95387      0.04433     12.43748         0.357349     -0.431638      0.011455
      5.83749      0.04433     12.43748         0.028874     -0.057727     -0.137576
      1.51533      2.53597     12.43748        -0.545703      0.354580     -0.012358
      7.27604      2.53597     12.43748        -0.045926      0.086680     -0.182559
      2.95713      5.03325     12.43748        -0.265225      0.590591     -0.112601
      5.83423      5.03325     12.43748         0.312060      0.108779     -0.211659
      8.79137      5.07570     12.42069        -0.028160      0.010531     -0.022887
      4.39568      2.53785     12.23056         0.477137     -0.190822      0.852753
      3.67662      3.15053     13.70777         0.040212     -0.035364     -0.044656
      1.38779      0.76973     13.98671         0.002273      0.001412     -0.007405
      1.34515      0.67671     14.95445        -0.003269     -0.007706     -0.004797
    total drift:                               -0.023660      0.029674      0.023076

  FREE ENERGIE OF THE ION-ELECTRON SYSTEM (eV)
  free  energy   TOTEN  =      -112.84440158 eV

  energy  without entropy=     -112.84440158  energy(sigma->0) =     -112.84440158

 stress matrix after NEB project (eV)
     -4.93412      0.02834     -0.51068
      0.02834     -5.77936      0.23808
     -0.51068      0.23808     -0.69802
  FORCES: max atom, RMS     0.069727    0.011342
  FORCE total and by dimension    0.070830    0.044656
  Stress total and by dimension    7.672706    5.779363
|           W    W    AA    RRRRR   N    N  II  N    N   GGGG   !!!           |
|           W    W   A  A   R    R  NN   N  II  NN   N  G    G  !!!           |
|           W    W  A    A  R    R  N N  N  II  N N  N  G       !!!           |
|           W WW W  AAAAAA  RRRRR   N  N N  II  N  N N  G  GGG   !            |
|           WW  WW  A    A  R   R   N   NN  II  N   NN  G    G                |
|           W    W  A    A  R    R  N    N  II  N    N   GGGG   !!!           |
|     Tetrahedron method does not include variations of the Fermi             |
|     occupations, so forces and stress will be inaccurate. We suggest        |
|     using a different smearing scheme ISMEAR = 1 or 2 for metals in         |
|     relaxations.                                                            |

 total charge

# of ion       s       p       d       tot
    1        0.417   0.203   9.178   9.798
    2        0.415   0.203   9.178   9.797
    3        0.416   0.205   9.176   9.797
    4        0.419   0.201   9.178   9.798
    5        0.416   0.204   9.176   9.797
    6        0.415   0.205   9.176   9.797
    7        0.420   0.201   9.178   9.799
    8        0.417   0.203   9.178   9.798
    9        0.415   0.203   9.178   9.795
   10        0.407   0.269   9.163   9.839
   11        0.404   0.272   9.166   9.842
   12        0.417   0.264   9.164   9.845
   13        0.406   0.270   9.167   9.843
   14        0.401   0.273   9.167   9.841
   15        0.406   0.267   9.166   9.839
   16        0.408   0.270   9.163   9.840
   17        0.405   0.268   9.165   9.839
   18        0.401   0.271   9.164   9.836
   19        0.405   0.269   9.163   9.837
   20        0.420   0.304   9.144   9.868
   21        0.441   0.285   9.152   9.877
   22        0.395   0.275   9.166   9.835
   23        0.418   0.303   9.148   9.868
   24        0.393   0.273   9.169   9.836
   25        0.398   0.276   9.158   9.832
   26        0.404   0.267   9.166   9.837
   27        0.392   0.277   9.166   9.835
   28        0.378   0.241   9.185   9.804
   29        0.371   0.239   9.187   9.797
   30        0.412   0.219   9.169   9.800
   31        0.355   0.232   9.199   9.787
   32        0.407   0.214   9.177   9.798
   33        0.385   0.227   9.184   9.796
   34        0.398   0.202   9.197   9.798
   35        0.416   0.194   9.186   9.795
   36        0.571   0.619   6.650   7.839
   37        1.602   3.265   0.000   4.867
   38        1.557   3.491   0.000   5.047
   39        0.616   0.120   0.000   0.736
tot         18.539  16.041 327.646 362.227

 BZINTS: Fermi energy:    0.146522;  406.000000 electrons
         Band energy:-0.164819E+04;  BLOECHL correction:   -0.034567