 vasp.6.2.0 18Jan21 (build Jun 12 2021 23:27:24) complex

 executed on             LinuxIFC date 2022.05.30  16:43:04

 INCAR:
   ISMEAR = -5
   SIGMA = 0.1
   ISPIN = 1
   EDIFF = 1.d-5
   EDIFFG = -0.01
   NSW = 0
   NELM = 150
   ENCUT = 500
   ISIF = 2
   IBRION = 2
   LREAL = Auto
   ALGO = Fast
   ICHARG = 11
   LORBIT = 10
   LCHARG = .F.
   LWAVE = .F.

 POTCAR:    PAW_PBE Au 04Oct2007
 POTCAR:    PAW_PBE Pt 04Feb2005
 POTCAR:    PAW_PBE C 08Apr2002
 POTCAR:    PAW_PBE O 08Apr2002
 POTCAR:    PAW_PBE H 15Jun2001
|           W    W    AA    RRRRR   N    N  II  N    N   GGGG   !!!           |
|           W    W   A  A   R    R  NN   N  II  NN   N  G    G  !!!           |
|           W    W  A    A  R    R  N N  N  II  N N  N  G       !!!           |
|           W WW W  AAAAAA  RRRRR   N  N N  II  N  N N  G  GGG   !            |
|           WW  WW  A    A  R   R   N   NN  II  N   NN  G    G                |
|           W    W  A    A  R    R  N    N  II  N    N   GGGG   !!!           |
|     For optimal performance we recommend to set                             |
|       NCORE = 2 up to number-of-cores-per-socket                            |
|     This setting can greatly improve the performance of VASP for DFT.       |
|     The default, NCORE=1 might be grossly inefficient on modern             |
|     multi-core architectures or massively parallel machines. Do your        |
|     Unfortunately you need to use the default for GW and RPA                |
|     calculations (for HF NCORE is supported but not extensively tested      |
|     yet).                                                                   |

 POTCAR:    PAW_PBE Au 04Oct2007
   VRHFIN =Au: s1d10

   TITEL  = PAW_PBE Au 04Oct2007
   POMASS =  196.966; ZVAL   =   11.000    mass and valenz
   ENMAX  =  229.943; ENMIN  =  172.457 eV

 POTCAR:    PAW_PBE Pt 04Feb2005
   VRHFIN =Pt: s1d9

   TITEL  = PAW_PBE Pt 04Feb2005
   POMASS =  195.080; ZVAL   =   10.000    mass and valenz
   ENMAX  =  230.283; ENMIN  =  172.712 eV

 POTCAR:    PAW_PBE C 08Apr2002
   VRHFIN =C: s2p2

   TITEL  = PAW_PBE C 08Apr2002
   POMASS =   12.011; ZVAL   =    4.000    mass and valenz
   ENMAX  =  400.000; ENMIN  =  300.000 eV

 POTCAR:    PAW_PBE O 08Apr2002
   VRHFIN =O: s2p4

   TITEL  = PAW_PBE O 08Apr2002
   POMASS =   16.000; ZVAL   =    6.000    mass and valenz
   ENMAX  =  400.000; ENMIN  =  300.000 eV

 POTCAR:    PAW_PBE H 15Jun2001
   VRHFIN =H: ultrasoft test

   TITEL  = PAW_PBE H 15Jun2001
   POMASS =    1.000; ZVAL   =    1.000    mass and valenz
   ENMAX  =  250.000; ENMIN  =  200.000 eV

 Optimization of the real space projectors (new method)

 maximal supplied QI-value         = 15.12
 optimisation between [QCUT,QGAM] = [ 11.34, 22.83] = [ 36.00,145.93] Ry
 Optimized for a Real-space Cutoff    1.39 Angstroem

   l    n(q)    QCUT    max X(q) W(low)/X(q) W(high)/X(q)  e(spline)
   2      9    11.338    60.898    0.39E-03    0.42E-03    0.21E-06
   2      9    11.338    58.894    0.40E-03    0.42E-03    0.22E-06
   0      9    11.338   109.617    0.13E-03    0.20E-04    0.13E-06
   0      9    11.338    75.026    0.13E-03    0.20E-04    0.13E-06
   1      9    11.338    16.344    0.33E-04    0.24E-03    0.18E-06
   1      9    11.338    10.160    0.26E-04    0.19E-03    0.15E-06
 Optimization of the real space projectors (new method)

[...]

   l    n(q)    QCUT    max X(q) W(low)/X(q) W(high)/X(q)  e(spline)
   0      7    11.387    20.381    0.39E-03    0.13E-02    0.15E-06
   0      7    11.387    15.268    0.42E-03    0.14E-02    0.17E-06
   1      6    11.387     5.964    0.41E-03    0.11E-02    0.17E-06
   1      6    11.387     5.382    0.39E-03    0.87E-03    0.15E-06
 Optimization of the real space projectors (new method)

 maximal supplied QI-value         = 34.20
 optimisation between [QCUT,QGAM] = [ 11.29, 22.57] = [ 35.68,142.71] Ry
 Optimized for a Real-space Cutoff    1.16 Angstroem

   l    n(q)    QCUT    max X(q) W(low)/X(q) W(high)/X(q)  e(spline)
   0      8    11.287    19.460    0.40E-03    0.73E-03    0.16E-06
   0      8    11.287    12.209    0.38E-03    0.70E-03    0.15E-06
   1      7    11.287     4.655    0.22E-03    0.25E-04    0.22E-06
  PAW_PBE Au 04Oct2007                  :
  PAW_PBE Pt 04Feb2005                  :
  PAW_PBE C 08Apr2002                   :
  PAW_PBE O 08Apr2002                   :
  PAW_PBE H 15Jun2001                   :

 POSCAR: Au-Pt-COH
  positions in direct lattice
  velocities in cartesian coordinates
 exchange correlation table for  LEXCH =        8
   RHO(1)=    0.500       N(1)  =     2000
   RHO(2)=  100.500       N(2)  =     4000

 VTST: version 3.2, (02/03/18)

 CHAIN: initializing optimizer

 OPT: Using VASP Conjugate-Gradient optimizer
 CHAIN: Read ICHAIN            0

 POSCAR: Au-Pt-COH
  positions in direct lattice
  velocities in cartesian coordinates

 ion  position               nearest neighbor table
   1  0.000  0.000  0.197-  16 2.94  12 2.94   6 2.94   8 2.94   7 2.94   3 2.94  10 2.94   4 2.94
                             2 2.94
   2  0.333  0.000  0.197-   9 2.94  11 2.94  17 2.94  10 2.94   8 2.94   4 2.94   5 2.94   1 2.94
                             3 2.94
   3  0.667  0.000  0.197-   7 2.94  18 2.94  12 2.94   1 2.94  11 2.94   5 2.94   6 2.94   9 2.94
                             2 2.94
   4  0.000  0.333  0.197-  10 2.94   6 2.94   5 2.94  13 2.94   2 2.94  15 2.94   9 2.94   1 2.94
                             7 2.94
   5  0.333  0.333  0.197-  13 2.94   7 2.94  11 2.94   4 2.94   2 2.94  14 2.94   3 2.94   8 2.94
                             6 2.94
   6  0.667  0.333  0.197-  15 2.94  14 2.94   1 2.94  12 2.94   4 2.94   9 2.94   8 2.94   3 2.94
                             5 2.94
   7  0.000  0.667  0.197-  18 2.94   3 2.94  16 2.94   5 2.94   1 2.94  13 2.94   8 2.94   4 2.94
                             9 2.94
   8  0.333  0.667  0.197-   9 2.94  17 2.94   1 2.94   2 2.94  14 2.94  16 2.94   6 2.94   7 2.94
                             5 2.94
   9  0.667  0.667  0.197-   2 2.94   8 2.94  17 2.94   6 2.94  15 2.94   4 2.94   3 2.94  18 2.94
                             7 2.94
  10  0.111  0.111  0.287-  20 2.91  26 2.93  19 2.93  11 2.94  17 2.94   2 2.94   4 2.94   1 2.94
                            12 2.94  16 2.94  13 2.94  15 2.94
  11  0.444  0.111  0.287-  20 2.92  21 2.92  27 2.93  13 2.94   2 2.94  10 2.94  17 2.94   5 2.94
                             3 2.94  18 2.94  14 2.94  12 2.94
  12  0.778  0.111  0.287-  21 2.91  25 2.93  19 2.93  16 2.94  18 2.94   1 2.94  14 2.94  15 2.94
                             3 2.94   6 2.94  10 2.94  11 2.94
  13  0.111  0.444  0.287-  23 2.92  20 2.92  22 2.93   5 2.94  18 2.94  11 2.94   7 2.94   4 2.94
                            16 2.94  10 2.94  14 2.94  15 2.94
  14  0.444  0.444  0.287-  21 2.92  23 2.92  24 2.93  15 2.94   6 2.94  12 2.94   8 2.94  17 2.94
                             5 2.94  16 2.94  13 2.94  11 2.94
  15  0.778  0.444  0.287-  24 2.93  22 2.93  19 2.93  14 2.94   6 2.94  17 2.94  12 2.94   9 2.94
                             4 2.94  10 2.94  13 2.94  18 2.94
  16  0.111  0.778  0.287-  23 2.91  25 2.93  26 2.93  18 2.94  12 2.94   7 2.94   1 2.94   8 2.94
                            13 2.94  10 2.94  14 2.94  17 2.94
  17  0.444  0.778  0.287-  27 2.93  24 2.93  26 2.93   9 2.94  15 2.94   2 2.94  10 2.94  11 2.94
                             8 2.94  14 2.94  16 2.94  18 2.94
  18  0.778  0.778  0.287-  22 2.93  27 2.93  25 2.93  16 2.94   7 2.94  13 2.94  12 2.94   3 2.94
                            11 2.94   9 2.94  15 2.94  17 2.94
  19  0.889  0.222  0.377-  21 2.93  20 2.93  15 2.93  10 2.93  12 2.93  24 2.94  22 2.94  26 2.94
                            25 2.94  28 2.96  32 2.96  31 2.96
  20  0.221  0.221  0.376-  36 2.82  10 2.91  11 2.92  13 2.92  26 2.93  19 2.93  27 2.94  22 2.94
                            23 2.96  21 2.96  29 2.96  31 2.96
  21  0.557  0.221  0.376-  36 2.82  12 2.91  14 2.92  11 2.92  25 2.93  19 2.93  24 2.94  27 2.94
                            20 2.96  23 2.96  30 2.96  32 2.96
  22  0.888  0.556  0.376-  18 2.93  15 2.93  24 2.93  27 2.93  13 2.93  25 2.94  19 2.94  23 2.94
                            20 2.94  35 2.96  33 2.96  31 2.96
  23  0.221  0.557  0.376-  36 2.82  16 2.91  13 2.92  14 2.92  25 2.93  26 2.93  22 2.94  24 2.94
                            20 2.96  21 2.96  33 2.96  34 2.96
  24  0.556  0.556  0.376-  15 2.93  17 2.93  27 2.93  22 2.93  14 2.93  26 2.94  19 2.94  21 2.94
                            23 2.94  35 2.96  32 2.96  34 2.96
  25  0.889  0.889  0.377-  23 2.93  21 2.93  18 2.93  16 2.93  12 2.93  22 2.94  27 2.94  19 2.94
                            26 2.94  28 2.96  33 2.96  30 2.96
  26  0.222  0.889  0.377-  20 2.93  23 2.93  17 2.93  10 2.93  16 2.93  27 2.94  24 2.94  19 2.94
                            25 2.94  28 2.96  29 2.96  34 2.96
  27  0.556  0.888  0.376-  17 2.93  18 2.93  24 2.93  22 2.93  11 2.93  26 2.94  25 2.94  20 2.94
                            21 2.94  35 2.96  29 2.96  30 2.96
  28  0.000  0.000  0.467-  34 2.95  32 2.95  33 2.95  30 2.95  31 2.95  29 2.95  25 2.96  19 2.96
                            26 2.96
  29  0.333  0.002  0.467-  30 2.92  31 2.92  36 2.93  35 2.95  28 2.95  27 2.96  20 2.96  26 2.96
                            34 2.98
  30  0.664  0.002  0.467-  29 2.92  32 2.92  36 2.93  35 2.95  28 2.95  27 2.96  21 2.96  25 2.96
                            33 2.98
  31  0.002  0.333  0.467-  33 2.92  29 2.92  36 2.93  35 2.95  28 2.95  22 2.96  20 2.96  19 2.96
                            32 2.98
  32  0.664  0.333  0.467-  34 2.92  30 2.92  36 2.93  35 2.95  28 2.95  24 2.96  21 2.96  19 2.96
                            31 2.98
  33  0.002  0.664  0.467-  31 2.92  34 2.92  36 2.93  35 2.95  28 2.95  22 2.96  23 2.96  25 2.96
                            30 2.98
  34  0.333  0.664  0.467-  32 2.92  33 2.92  36 2.93  35 2.95  28 2.95  24 2.96  23 2.96  26 2.96
                            29 2.98
  35  0.667  0.667  0.467-  29 2.95  34 2.95  32 2.95  31 2.95  30 2.95  33 2.95  24 2.96  27 2.96
                            22 2.96
  36  0.333  0.333  0.460-  37 1.80  20 2.82  23 2.82  21 2.82  33 2.93  31 2.93  29 2.93  30 2.93
                            34 2.93  32 2.93
  37  0.333  0.333  0.527-  38 1.24  36 1.80
  38  0.333  0.333  0.573-  39 0.97  37 1.24
  39  0.333  0.333  0.609-  38 0.97

  LATTYP: Found a hexagonal cell.
 ALAT       =     8.8135128021
 C/A-ratio  =     3.0356784858

  Lattice vectors:

 A1 = (  -4.4067569092,  -7.6327256898,   0.0000000000)
 A2 = (   8.8135128021,   0.0000000000,   0.0000000000)
 A3 = (   0.0000000000,   0.0000000000,  26.7549911976)

Analysis of symmetry for initial positions (statically):
 Subroutine PRICEL returns:
 Original cell was already a primitive cell.

 Routine SETGRP: Setting up the symmetry group for a
 hexagonal supercell.

 Subroutine GETGRP returns: Found  6 space group operations
 (whereof  6 operations were pure point group operations)
 out of a pool of 24 trial point group operations.

The static configuration has the point symmetry C_3v.

Analysis of symmetry for dynamics (positions and initial velocities):
[...]
     41      -4.9094      2.00000
     42      -4.7641      2.00000
     43      -4.7402      2.00000
     44      -4.7230      2.00000
     45      -4.6912      2.00000
     46      -4.6676      2.00000
     47      -4.6055      2.00000
     48      -4.5749      2.00000
     49      -4.5057      2.00000
     50      -4.4966      2.00000
     51      -4.4029      2.00000
     52      -4.3975      2.00000
     53      -4.3646      2.00000
     54      -4.3457      2.00000
     55      -4.3349      2.00000
     56      -4.3179      2.00000
     57      -4.3120      2.00000
     58      -4.2844      2.00000
     59      -4.2686      2.00000
     60      -4.2127      2.00000
[...]
    238       5.1745      0.00000
    239       5.3157      0.00000
    240       5.3448      0.00000
    241       5.5395      0.00000
    242       5.6322      0.00000
    243       5.8857      0.00000
    244       5.9217      0.00000
    245       5.9465      0.00000
    246       6.1029      0.00000
    247       6.1350      0.00000
    248       6.1604      0.00000
    249       6.2384      0.00000
    250       6.2595      0.00000
    251       6.3584      0.00000
    252       6.4172      0.00000

 soft charge-density along one line, spin component           1
         0         1         2         3         4         5         6         7         8         9
 total charge-density along one line

------------------------ aborting loop because EDIFF is reached ----------------------------------------

 total charge

# of ion       s       p       d       tot
    1        0.540   0.242   8.764   9.545
    2        0.545   0.240   8.765   9.551
    3        0.545   0.240   8.765   9.551
    4        0.545   0.240   8.765   9.551
    5        0.540   0.241   8.768   9.548
    6        0.545   0.240   8.765   9.551
    7        0.545   0.240   8.765   9.551
    8        0.545   0.240   8.765   9.551
    9        0.540   0.242   8.764   9.546
   10        0.523   0.309   8.773   9.604
   11        0.521   0.308   8.775   9.604
   12        0.523   0.309   8.773   9.604
   13        0.521   0.308   8.775   9.604
   14        0.521   0.308   8.775   9.604
   15        0.515   0.310   8.775   9.599
   16        0.523   0.309   8.773   9.604
   17        0.515   0.310   8.775   9.599
   18        0.515   0.310   8.775   9.599
   19        0.521   0.303   8.775   9.598
   20        0.530   0.329   8.756   9.615
   21        0.530   0.329   8.756   9.615
   22        0.515   0.307   8.774   9.596
   23        0.530   0.329   8.756   9.615
   24        0.515   0.307   8.774   9.596
   25        0.521   0.303   8.775   9.598
   26        0.521   0.303   8.775   9.598
   27        0.515   0.307   8.774   9.596
   28        0.543   0.236   8.765   9.543
   29        0.533   0.243   8.776   9.552
   30        0.533   0.243   8.776   9.552
   31        0.533   0.243   8.776   9.552
   32        0.533   0.243   8.776   9.552
   33        0.533   0.243   8.776   9.552
   34        0.533   0.243   8.776   9.552
   35        0.543   0.236   8.767   9.546
   36        0.670   0.716   8.058   9.444
   37        0.936   1.424   0.000   2.360
   38        1.536   3.749   0.000   5.285
   39        0.544   0.126   0.000   0.670
tot         22.237  15.709 315.015 352.961

  FORCE on cell =-STRESS in cart. coord.  units (eV):
  Direction    XX          YY          ZZ          XY          YZ          ZX
  Alpha Z   867.87122   867.87122   867.87122
  Ewald  188314.52634188314.52678************    -0.00033    -0.00008    -0.00012
  Hartree197033.36990197033.36991************     0.00001    -0.00002    -0.00003
  E(xc)   -1820.50870 -1820.50884 -1825.46424     0.00013    -0.00001    -0.00002
  Local  ************************397564.60961     0.00224    -0.00000    -0.00005
  n-local   -97.53783   -52.90496   -51.46212    22.36741    -1.21865     1.09607
  augment  2430.25023  2430.25184  2433.63214    -0.00139     0.00003     0.00008
  Kinetic  5714.38290  5718.87930  5682.96291     3.73141     0.65450     0.04603
  Fock        0.00000     0.00000     0.00000     0.00000     0.00000     0.00000
  Total     -17.51715   -17.51715     1.75901    -0.00000     0.00000    -0.00000
  in kB     -15.59339   -15.59339     1.56583    -0.00000     0.00000    -0.00000

 VOLUME and BASIS-vectors are now :
  energy-cutoff  :      500.00
  volume of cell :     1799.84
      direct lattice vectors                 reciprocal lattice vectors
     8.813512802  0.000000000  0.000000000     0.113462137 -0.065507406  0.000000000
     4.406756909  7.632725690  0.000000000     0.000000000  0.131014796  0.000000000
     0.000000000  0.000000000 26.754991198     0.000000000  0.000000000  0.037376204

  length of vectors
     8.813512802  8.813512802 26.754991198     0.131014796  0.131014796  0.037376204

 FORCES acting on ions
    electron-ion (+dipol)            ewald-force                    non-local-force                 convergence-correction
   -.201E-04 -.165E-04 0.285E+04   0.519E-04 0.433E-04 -.285E+04   0.700E-17 0.737E-18 -.926E+00   -.203E-03 -.130E-03 -.642E+00
   0.175E+00 0.316E+00 0.285E+04   -.246E+00 -.378E+00 -.285E+04   0.105E-02 0.106E-02 -.247E+00   0.681E-01 0.629E-01 -.624E+00
   -.175E+00 0.316E+00 0.285E+04   0.246E+00 -.378E+00 -.285E+04   -.105E-02 0.106E-02 -.247E+00   -.678E-01 0.649E-01 -.624E+00
   0.361E+00 -.651E-02 0.285E+04   -.450E+00 -.239E-01 -.285E+04   0.144E-02 0.378E-03 -.247E+00   0.886E-01 0.274E-01 -.624E+00
   0.101E-04 -.223E-04 0.285E+04   0.952E-04 0.171E-05 -.285E+04   0.366E-17 -.187E-17 -.437E+00   0.430E-02 0.262E-02 -.612E+00
   -.361E+00 -.648E-02 0.285E+04   0.450E+00 -.239E-01 -.285E+04   -.144E-02 0.378E-03 -.247E+00   -.902E-01 0.284E-01 -.623E+00
   0.186E+00 -.310E+00 0.285E+04   -.204E+00 0.402E+00 -.285E+04   0.393E-03 -.144E-02 -.247E+00   0.224E-01 -.912E-01 -.624E+00
   -.186E+00 -.310E+00 0.285E+04   0.204E+00 0.402E+00 -.285E+04   -.393E-03 -.144E-02 -.247E+00   -.205E-01 -.923E-01 -.623E+00
   0.193E-04 -.415E-04 0.285E+04   0.166E-03 -.201E-04 -.285E+04   0.207E-17 -.401E-17 -.445E+00   -.464E-02 -.240E-02 -.625E+00
   0.398E+01 0.230E+01 0.101E+04   -.364E+01 -.210E+01 -.100E+04   -.271E+00 -.157E+00 -.592E+00   -.733E-02 -.435E-02 -.275E+00
   0.140E-04 0.328E+01 0.101E+04   0.149E-03 -.346E+01 -.101E+04   -.665E-10 -.999E-03 -.434E+00   0.381E-02 0.122E+00 -.334E+00
   -.398E+01 0.230E+01 0.101E+04   0.364E+01 -.210E+01 -.100E+04   0.271E+00 -.157E+00 -.592E+00   0.601E-02 -.285E-02 -.275E+00
   0.284E+01 -.164E+01 0.101E+04   -.300E+01 0.173E+01 -.101E+04   -.865E-03 0.499E-03 -.434E+00   0.108E+00 -.576E-01 -.334E+00
   -.284E+01 -.164E+01 0.101E+04   0.300E+01 0.173E+01 -.101E+04   0.865E-03 0.499E-03 -.434E+00   -.100E+00 -.580E-01 -.334E+00
   0.314E-04 0.419E+00 0.100E+04   0.236E-03 -.361E+00 -.100E+04   -.376E-08 -.564E-01 -.295E+00   -.240E-02 -.176E-01 -.360E+00
   -.208E-04 -.459E+01 0.101E+04   0.163E-03 0.420E+01 -.100E+04   0.208E-07 0.313E+00 -.592E+00   0.300E-03 0.660E-02 -.275E+00
   0.363E+00 -.210E+00 0.100E+04   -.313E+00 0.181E+00 -.100E+04   -.489E-01 0.282E-01 -.295E+00   -.162E-01 0.717E-02 -.360E+00
   -.363E+00 -.210E+00 0.100E+04   0.313E+00 0.181E+00 -.100E+04   0.489E-01 0.282E-01 -.295E+00   0.162E-01 0.909E-02 -.360E+00
   -.420E-04 0.212E+01 -.869E+03   0.526E-04 -.204E+01 0.868E+03   0.103E-08 0.155E-01 0.518E+00   -.363E-03 -.104E+00 0.351E+00
   0.140E+02 0.806E+01 -.829E+03   -.135E+02 -.779E+01 0.829E+03   -.394E+00 -.227E+00 -.531E+00   -.715E-02 -.426E-02 0.313E+00
   -.140E+02 0.806E+01 -.829E+03   0.135E+02 -.779E+01 0.829E+03   0.394E+00 -.227E+00 -.531E+00   0.801E-02 -.207E-02 0.313E+00
   0.577E+01 -.333E+01 -.861E+03   -.607E+01 0.350E+01 0.860E+03   0.245E+00 -.142E+00 0.596E+00   0.360E-01 -.250E-01 0.359E+00
   -.152E-04 -.161E+02 -.829E+03   0.145E-03 0.156E+02 0.829E+03   0.303E-07 0.455E+00 -.531E+00   0.196E-02 0.798E-02 0.313E+00
   -.577E+01 -.333E+01 -.861E+03   0.607E+01 0.350E+01 0.860E+03   -.245E+00 -.142E+00 0.596E+00   -.431E-01 -.248E-01 0.359E+00
   -.183E+01 -.106E+01 -.869E+03   0.177E+01 0.102E+01 0.868E+03   -.134E-01 -.773E-02 0.518E+00   0.921E-01 0.531E-01 0.351E+00
   0.183E+01 -.106E+01 -.869E+03   -.177E+01 0.102E+01 0.868E+03   0.134E-01 -.773E-02 0.518E+00   -.903E-01 0.519E-01 0.351E+00
   0.601E-05 0.667E+01 -.861E+03   0.200E-03 -.701E+01 0.860E+03   0.189E-07 0.283E+00 0.596E+00   -.421E-02 0.437E-01 0.359E+00
   -.128E-04 -.132E-04 -.273E+04   0.285E-04 0.351E-04 0.273E+04   0.806E-18 0.154E-17 -.768E-01   0.127E-02 0.713E-03 0.580E+00
   0.276E+02 0.466E+02 -.270E+04   -.279E+02 -.472E+02 0.270E+04   0.123E+00 0.248E+00 0.286E+00   -.365E-01 -.239E-01 0.593E+00
   -.276E+02 0.466E+02 -.270E+04   0.279E+02 -.472E+02 0.270E+04   -.123E+00 0.248E+00 0.286E+00   0.304E-01 -.218E-01 0.594E+00
   0.541E+02 0.650E+00 -.270E+04   -.548E+02 -.594E+00 0.270E+04   0.276E+00 -.171E-01 0.286E+00   -.389E-01 -.197E-01 0.593E+00
   -.541E+02 0.650E+00 -.270E+04   0.548E+02 -.594E+00 0.270E+04   -.276E+00 -.171E-01 0.286E+00   0.310E-01 -.186E-01 0.593E+00
   0.265E+02 -.472E+02 -.270E+04   -.269E+02 0.478E+02 0.270E+04   0.153E+00 -.230E+00 0.286E+00   -.355E-02 0.372E-01 0.594E+00
   -.265E+02 -.472E+02 -.270E+04   0.269E+02 0.478E+02 0.270E+04   -.153E+00 -.230E+00 0.286E+00   -.601E-03 0.362E-01 0.593E+00
   0.288E-04 -.266E-04 -.273E+04   0.147E-03 -.504E-04 0.273E+04   0.463E-18 -.459E-17 -.267E-01   -.361E-02 -.179E-02 0.665E+00
   0.313E-04 -.175E-04 -.216E+04   0.101E-03 0.891E-05 0.216E+04   0.383E-17 0.183E-17 -.242E+01   0.453E-02 0.272E-02 0.534E+00
   -.666E-05 -.833E-04 -.108E+04   0.144E-04 0.927E-06 0.106E+04   -.163E-17 0.523E-18 0.188E+02   0.147E-02 0.891E-03 0.109E+00
   0.246E-03 -.906E-04 -.176E+04   0.531E-05 0.494E-06 0.177E+04   -.522E-18 0.800E-19 -.855E+01   0.397E-02 0.243E-02 0.809E-02
   0.635E-05 -.141E-04 -.332E+03   0.259E-06 0.365E-07 0.340E+03   0.305E-19 -.378E-19 -.826E+01   0.205E-03 0.125E-03 -.723E-02
   -.426E-03 -.930E-03 0.464E+01   0.421E-13 0.137E-12 0.426E-11   0.224E-15 -.577E-16 -.435E+01   -.907E-02 -.444E-02 -.104E-01

 POSITION                                       TOTAL-FORCE (eV/Angst)
      0.00000      0.00000      5.28038         0.000000      0.000000      0.026627
      2.93784      0.00000      5.28038        -0.001137      0.003247     -0.046770
      5.87568      0.00000      5.28038         0.001137      0.003247     -0.046770
      1.46892      2.54424      5.28038         0.002243     -0.002608     -0.046770
      4.40676      2.54424      5.28038        -0.000000      0.000000     -0.067660
      7.34459      2.54424      5.28038        -0.002243     -0.002608     -0.046770
      2.93784      5.08848      5.28038         0.003380     -0.000639     -0.046770
      5.87568      5.08848      5.28038        -0.003380     -0.000639     -0.046770
      8.81351      5.08848      5.28038         0.000000      0.000000     -0.028529
      1.46892      0.84808      7.67911         0.059303      0.034239      0.147438
      4.40676      0.84808      7.67911        -0.000000     -0.059522      0.039632
      7.34459      0.84808      7.67911        -0.059303      0.034239      0.147438
      2.93784      3.39232      7.67911        -0.051548      0.029761      0.039632
      5.87568      3.39232      7.67911         0.051548      0.029761      0.039632
      8.81351      3.39232      7.67911        -0.000000     -0.016254      0.149496
      4.40676      5.93656      7.67911        -0.000000     -0.068478      0.147438
      7.34459      5.93656      7.67911        -0.014076      0.008127      0.149496
     10.28243      5.93656      7.67911         0.014076      0.008127      0.149496
      8.81351      1.69709     10.07334        -0.000000     -0.015667     -0.047908
      2.92757      1.69024     10.04824         0.075295      0.043472     -0.062201
      5.88594      1.69024     10.04824        -0.075295      0.043472     -0.062201
     10.27700      4.24354     10.06671        -0.008452      0.004880     -0.037051
      4.40676      4.25225     10.04824        -0.000000     -0.086943     -0.062201
      7.35003      4.24354     10.06671         0.008452      0.004880     -0.037051
     11.75055      6.78418     10.07334         0.013568      0.007834     -0.047908
      5.87648      6.78418     10.07334        -0.013568      0.007834     -0.047908
      8.81351      6.77837     10.06671        -0.000000     -0.009760     -0.037051
      0.00000      0.00000     12.49905        -0.000000      0.000000     -0.078024
      2.94801      0.01573     12.49317        -0.220950     -0.425141     -0.123665
      5.86551      0.01573     12.49317         0.220950     -0.425141     -0.123665
      1.48763      2.54518     12.49317        -0.478658      0.021222     -0.123665
      7.32589      2.54518     12.49317         0.478658      0.021222     -0.123665
      2.94638      5.07181     12.49317        -0.257708      0.403919     -0.123665
      5.86714      5.07181     12.49317         0.257708      0.403919     -0.123665
      8.81351      5.08848     12.49660         0.000000      0.000000     -0.080868
      4.40676      2.54424     12.29817        -0.000000      0.000000      0.664754
      4.40676      2.54424     14.09336         0.000000      0.000000      0.018765
      4.40676      2.54424     15.33305        -0.000000      0.000000     -0.027661
      4.40676      2.54424     16.30276         0.000000      0.000000      0.026985
    total drift:                               -0.009491     -0.005366      0.272659

  FREE ENERGIE OF THE ION-ELECTRON SYSTEM (eV)
  free  energy   TOTEN  =      -129.34148944 eV

  energy  without entropy=     -129.34148944  energy(sigma->0) =     -129.34148944

 stress matrix after NEB project (eV)
    -17.51715     -0.00000     -0.00000
     -0.00000    -17.51715      0.00000
     -0.00000      0.00000      1.75901
  FORCES: max atom, RMS     0.027661    0.006879
  FORCE total and by dimension    0.042958    0.027661
  Stress total and by dimension   24.835365   17.517153
|           W    W    AA    RRRRR   N    N  II  N    N   GGGG   !!!           |
|           W    W   A  A   R    R  NN   N  II  NN   N  G    G  !!!           |
|           W    W  A    A  R    R  N N  N  II  N N  N  G       !!!           |
|           W WW W  AAAAAA  RRRRR   N  N N  II  N  N N  G  GGG   !            |
|           WW  WW  A    A  R   R   N   NN  II  N   NN  G    G                |
|           W    W  A    A  R    R  N    N  II  N    N   GGGG   !!!           |
|     Tetrahedron method does not include variations of the Fermi             |
|     occupations, so forces and stress will be inaccurate. We suggest        |
|     using a different smearing scheme ISMEAR = 1 or 2 for metals in         |
|     relaxations.                                                            |

 total charge

# of ion       s       p       d       tot
    1        0.540   0.242   8.764   9.545
    2        0.545   0.240   8.765   9.551
    3        0.545   0.240   8.765   9.551
    4        0.545   0.240   8.765   9.551
    5        0.540   0.241   8.768   9.548
    6        0.545   0.240   8.765   9.551
    7        0.545   0.240   8.765   9.551
    8        0.545   0.240   8.765   9.551
    9        0.540   0.242   8.764   9.546
   10        0.523   0.309   8.773   9.604
   11        0.521   0.308   8.775   9.604
   12        0.523   0.309   8.773   9.604
   13        0.521   0.308   8.775   9.604
   14        0.521   0.308   8.775   9.604
   15        0.515   0.310   8.775   9.599
   16        0.523   0.309   8.773   9.604
   17        0.515   0.310   8.775   9.599
   18        0.515   0.310   8.775   9.599
   19        0.521   0.303   8.775   9.598
   20        0.530   0.329   8.756   9.615
   21        0.530   0.329   8.756   9.615
   22        0.515   0.307   8.774   9.596
   23        0.530   0.329   8.756   9.615
   24        0.515   0.307   8.774   9.596
   25        0.521   0.303   8.775   9.598
   26        0.521   0.303   8.775   9.598
   27        0.515   0.307   8.774   9.596
   28        0.543   0.236   8.765   9.543
   29        0.533   0.243   8.776   9.552
   30        0.533   0.243   8.776   9.552
   31        0.533   0.243   8.776   9.552
   32        0.533   0.243   8.776   9.552
   33        0.533   0.243   8.776   9.552
   34        0.533   0.243   8.776   9.552
   35        0.543   0.236   8.767   9.546
   36        0.670   0.716   8.058   9.444
   37        0.936   1.424   0.000   2.360
   38        1.536   3.749   0.000   5.285
   39        0.544   0.126   0.000   0.670
tot         22.237  15.709 315.015 352.961

 BZINTS: Fermi energy:    0.475588;  406.000000 electrons
         Band energy:-0.141906E+04;  BLOECHL correction:   -0.059852