 vasp.6.2.0 18Jan21 (build Jun 12 2021 23:27:24) complex

 executed on             LinuxIFC date 2022.05.26  19:56:11

 INCAR:
   ISMEAR = -5
   SIGMA = 0.1
   ISPIN = 1
   EDIFF = 1.d-5
   EDIFFG = -0.01
   NSW = 0
   NELM = 150
   ENCUT = 500
   ISIF = 2
   IBRION = 2
   LREAL = Auto
   ALGO = Fast
   ICHARG = 11
   LORBIT = 10
   LCHARG = .F.
   LWAVE = .F.

 POTCAR:    PAW_PBE Ag 02Apr2005
 POTCAR:    PAW_PBE Pt 04Feb2005
 POTCAR:    PAW_PBE O 08Apr2002
|           W    W    AA    RRRRR   N    N  II  N    N   GGGG   !!!           |
|           W    W   A  A   R    R  NN   N  II  NN   N  G    G  !!!           |
|           W    W  A    A  R    R  N N  N  II  N N  N  G       !!!           |
|           W WW W  AAAAAA  RRRRR   N  N N  II  N  N N  G  GGG   !            |
|           WW  WW  A    A  R   R   N   NN  II  N   NN  G    G                |
|           W    W  A    A  R    R  N    N  II  N    N   GGGG   !!!           |
|     For optimal performance we recommend to set                             |
|       NCORE = 2 up to number-of-cores-per-socket                            |
|     This setting can greatly improve the performance of VASP for DFT.       |
|     The default, NCORE=1 might be grossly inefficient on modern             |
|     multi-core architectures or massively parallel machines. Do your        |
|     Unfortunately you need to use the default for GW and RPA                |
|     calculations (for HF NCORE is supported but not extensively tested      |
|     yet).                                                                   |

 POTCAR:    PAW_PBE Ag 02Apr2005
   VRHFIN =Ag : s1 d10

   TITEL  = PAW_PBE Ag 02Apr2005
   POMASS =  107.868; ZVAL   =   11.000    mass and valenz
   ENMAX  =  249.844; ENMIN  =  187.383 eV

 POTCAR:    PAW_PBE Pt 04Feb2005
   VRHFIN =Pt: s1d9

   TITEL  = PAW_PBE Pt 04Feb2005
   POMASS =  195.080; ZVAL   =   10.000    mass and valenz
   ENMAX  =  230.283; ENMIN  =  172.712 eV

 POTCAR:    PAW_PBE O 08Apr2002
   VRHFIN =O: s2p4

   TITEL  = PAW_PBE O 08Apr2002
   POMASS =   16.000; ZVAL   =    6.000    mass and valenz
   ENMAX  =  400.000; ENMIN  =  300.000 eV

 Optimization of the real space projectors (new method)

 maximal supplied QI-value         = 15.12
 optimisation between [QCUT,QGAM] = [ 11.34, 22.83] = [ 36.00,145.93] Ry
 Optimized for a Real-space Cutoff    1.43 Angstroem

   l    n(q)    QCUT    max X(q) W(low)/X(q) W(high)/X(q)  e(spline)
   2      9    11.338    53.897    0.16E-03    0.20E-03    0.28E-06
   2      9    11.338    52.416    0.16E-03    0.20E-03    0.29E-06
   0     10    11.338   122.045    0.31E-04    0.76E-04    0.15E-06
   0     10    11.338    73.629    0.30E-04    0.72E-04    0.15E-06
   1      9    11.338    15.255    0.20E-03    0.19E-04    0.17E-06
   1      9    11.338     9.562    0.16E-03    0.15E-04    0.14E-06
 Optimization of the real space projectors (new method)

[...]

   l    n(q)    QCUT    max X(q) W(low)/X(q) W(high)/X(q)  e(spline)
   2      9    11.346    66.195    0.31E-03    0.12E-04    0.29E-06
   2      9    11.346    64.643    0.32E-03    0.12E-04    0.29E-06
   0     10    11.346    95.520    0.90E-04    0.16E-04    0.19E-06
   0     10    11.346    63.403    0.87E-04    0.15E-04    0.19E-06
   1     10    11.346    19.961    0.17E-03    0.21E-03    0.11E-06
   1     10    11.346    13.289    0.14E-03    0.18E-03    0.89E-07
 Optimization of the real space projectors (new method)

 maximal supplied QI-value         = 24.76
 optimisation between [QCUT,QGAM] = [ 11.39, 22.77] = [ 36.31,145.25] Ry
 Optimized for a Real-space Cutoff    1.00 Angstroem

   l    n(q)    QCUT    max X(q) W(low)/X(q) W(high)/X(q)  e(spline)
   0      7    11.387    20.381    0.39E-03    0.13E-02    0.15E-06
   0      7    11.387    15.268    0.42E-03    0.14E-02    0.17E-06
   1      6    11.387     5.964    0.41E-03    0.11E-02    0.17E-06
   1      6    11.387     5.382    0.39E-03    0.87E-03    0.15E-06
  PAW_PBE Ag 02Apr2005                  :
  PAW_PBE Pt 04Feb2005                  :
  PAW_PBE O 08Apr2002                   :

 POSCAR: Ag-Pt-O
  positions in direct lattice
  velocities in cartesian coordinates
 exchange correlation table for  LEXCH =        8
   RHO(1)=    0.500       N(1)  =     2000
   RHO(2)=  100.500       N(2)  =     4000

 VTST: version 3.2, (02/03/18)

 CHAIN: initializing optimizer

 OPT: Using VASP Conjugate-Gradient optimizer
 CHAIN: Read ICHAIN            0

 POSCAR: Ag-Pt-O
  positions in direct lattice
  velocities in cartesian coordinates

 ion  position               nearest neighbor table
   1  0.000  0.000  0.238-   2 2.93   8 2.93   7 2.93   6 2.93   4 2.93  12 2.93  16 2.93  10 2.93
                             3 2.93
   2  0.333  0.000  0.238-   1 2.93   8 2.93   9 2.93   3 2.93   4 2.93   5 2.93  10 2.93  17 2.93
                            11 2.93
   3  0.667  0.000  0.238-   9 2.93   2 2.93   5 2.93  11 2.93   7 2.93  18 2.93   1 2.93   6 2.93
                            12 2.93
   4  0.000  0.333  0.238-   5 2.93   6 2.93   2 2.93   1 2.93   7 2.93  13 2.93  15 2.93   9 2.93
                            10 2.93
   5  0.333  0.333  0.238-   4 2.93   3 2.93   7 2.93   2 2.93   8 2.93  14 2.93  13 2.93  11 2.93
                             6 2.93
   6  0.667  0.333  0.238-   4 2.93   9 2.93   1 2.93  15 2.93   8 2.93  12 2.93   3 2.93   5 2.93
                            14 2.93
   7  0.000  0.667  0.238-   8 2.93   1 2.93   5 2.93   3 2.93   4 2.93  16 2.93  18 2.93  13 2.93
                             9 2.93
   8  0.333  0.667  0.238-   7 2.93   1 2.93   2 2.93   9 2.93   5 2.93  16 2.93   6 2.93  17 2.93
                            14 2.93
   9  0.667  0.667  0.238-   3 2.93   2 2.93   8 2.93   6 2.93  17 2.93   4 2.93  15 2.93   7 2.93
                            18 2.93
  10  0.111  0.111  0.346-  20 2.89  19 2.93  26 2.93  12 2.93  16 2.93  15 2.93  17 2.93  13 2.93
                            11 2.93   2 2.93   1 2.93   4 2.93
  11  0.444  0.111  0.346-  21 2.90  20 2.90  27 2.91  14 2.93  17 2.93  18 2.93   3 2.93  12 2.93
                            13 2.93  10 2.93   5 2.93   2 2.93
  12  0.778  0.111  0.346-  21 2.89  25 2.93  19 2.93  10 2.93  16 2.93  18 2.93  15 2.93  11 2.93
                             1 2.93  14 2.93   6 2.93   3 2.93
  13  0.111  0.444  0.346-  20 2.90  23 2.90  22 2.91  15 2.93  14 2.93  18 2.93  10 2.93  11 2.93
                            16 2.93   4 2.93   5 2.93   7 2.93
  14  0.444  0.444  0.346-  23 2.90  21 2.90  24 2.91  13 2.93  11 2.93  16 2.93   5 2.93  12 2.93
                            17 2.93   8 2.93  15 2.93   6 2.93
  15  0.778  0.444  0.346-  24 2.91  22 2.91  19 2.92  13 2.93  10 2.93  12 2.93  17 2.93  18 2.93
                             4 2.93   6 2.93   9 2.93  14 2.93
  16  0.111  0.778  0.346-  23 2.89  26 2.93  25 2.93  18 2.93  12 2.93  10 2.93  14 2.93  17 2.93
                            13 2.93   7 2.93   8 2.93   1 2.93
  17  0.444  0.778  0.346-  27 2.91  24 2.91  26 2.92  11 2.93  10 2.93   9 2.93  18 2.93  15 2.93
                            16 2.93   2 2.93  14 2.93   8 2.93
  18  0.778  0.778  0.346-  22 2.91  27 2.91  25 2.92  16 2.93  12 2.93  13 2.93  11 2.93  17 2.93
                            15 2.93   7 2.93   3 2.93   9 2.93
  19  0.888  0.223  0.454-  28 2.91  15 2.92  20 2.92  21 2.92  24 2.92  22 2.92  10 2.93  12 2.93
                            32 2.93  31 2.93  26 2.94  25 2.94
  20  0.221  0.221  0.452-  36 2.81  10 2.89  13 2.90  11 2.90  19 2.92  26 2.92  31 2.92  29 2.92
                            27 2.93  22 2.93  21 2.95  23 2.95
  21  0.557  0.221  0.452-  36 2.81  12 2.89  11 2.90  14 2.90  25 2.92  19 2.92  30 2.92  32 2.92
                            27 2.93  24 2.93  20 2.95  23 2.95
  22  0.889  0.556  0.453-  35 2.91  18 2.91  15 2.91  13 2.91  25 2.92  19 2.92  24 2.93  27 2.93
                            33 2.93  31 2.93  23 2.93  20 2.93
  23  0.221  0.557  0.452-  36 2.81  16 2.89  14 2.90  13 2.90  26 2.92  25 2.92  34 2.92  33 2.92
                            22 2.93  24 2.93  21 2.95  20 2.95
  24  0.556  0.556  0.453-  35 2.91  15 2.91  17 2.91  14 2.91  19 2.92  26 2.92  27 2.93  22 2.93
                            32 2.93  34 2.93  23 2.93  21 2.93
  25  0.888  0.888  0.454-  28 2.91  18 2.92  23 2.92  21 2.92  22 2.92  27 2.92  16 2.93  12 2.93
                            33 2.93  30 2.93  26 2.94  19 2.94
  26  0.223  0.888  0.454-  28 2.91  17 2.92  23 2.92  20 2.92  27 2.92  24 2.92  16 2.93  10 2.93
                            34 2.93  29 2.93  25 2.94  19 2.94
  27  0.556  0.889  0.453-  35 2.91  17 2.91  18 2.91  11 2.91  26 2.92  25 2.92  24 2.93  22 2.93
                            29 2.93  30 2.93  20 2.93  21 2.93
  28  0.000  0.000  0.560-  26 2.91  25 2.91  19 2.91  29 2.95  34 2.95  33 2.95  32 2.95  31 2.95
                            30 2.95
  29  0.333  0.004  0.561-  30 2.89  31 2.89  36 2.90  20 2.92  27 2.93  26 2.93  35 2.95  28 2.95
                            34 3.00
  30  0.662  0.004  0.561-  29 2.89  32 2.89  36 2.90  21 2.92  27 2.93  25 2.93  35 2.95  28 2.95
                            33 3.00
  31  0.004  0.333  0.561-  33 2.89  29 2.89  36 2.90  20 2.92  22 2.93  19 2.93  35 2.95  28 2.95
                            32 3.00
  32  0.662  0.333  0.561-  34 2.89  30 2.89  36 2.90  21 2.92  24 2.93  19 2.93  35 2.95  28 2.95
                            31 3.00
  33  0.004  0.662  0.561-  31 2.89  34 2.89  36 2.90  23 2.92  22 2.93  25 2.93  35 2.95  28 2.95
                            30 3.00
  34  0.333  0.662  0.561-  32 2.89  33 2.89  36 2.90  23 2.92  24 2.93  26 2.93  35 2.95  28 2.95
                            29 3.00
  35  0.667  0.667  0.560-  24 2.91  27 2.91  22 2.91  30 2.95  32 2.95  29 2.95  34 2.95  31 2.95
                            33 2.95
  36  0.333  0.333  0.553-  37 1.86  21 2.81  20 2.81  23 2.81  31 2.90  33 2.90  30 2.90  29 2.90
                            34 2.90  32 2.90
  37  0.333  0.333  0.637-  36 1.86

  LATTYP: Found a hexagonal cell.
 ALAT       =     8.7913665772
 C/A-ratio  =     2.5227160501

  Lattice vectors:

 A1 = (  -4.3956832886,  -7.6135467898,   0.0000000000)
 A2 = (   8.7913665771,   0.0000000000,   0.0000000000)
 A3 = (   0.0000000000,   0.0000000000,  22.1781215668)

Analysis of symmetry for initial positions (statically):
 Subroutine PRICEL returns:
 Original cell was already a primitive cell.

 Routine SETGRP: Setting up the symmetry group for a
 hexagonal supercell.

 Subroutine GETGRP returns: Found  6 space group operations
 (whereof  6 operations were pure point group operations)
 out of a pool of 24 trial point group operations.

The static configuration has the point symmetry C_3v.

Analysis of symmetry for dynamics (positions and initial velocities):
 Subroutine PRICEL returns:
 Original cell was already a primitive cell.

[...]

The dynamic configuration has the point symmetry C_3v.

Analysis of constrained symmetry for selective dynamics:
 Subroutine PRICEL returns:
 Original cell was already a primitive cell.

 Routine SETGRP: Setting up the symmetry group for a
 hexagonal supercell.

 Subroutine GETGRP returns: Found  6 space group operations
[...]
     24      -4.7294      2.00000
     25      -4.7163      2.00000
     26      -4.6830      2.00000
     27      -4.6654      2.00000
     28      -4.6515      2.00000
     29      -4.6364      2.00000
     30      -4.6317      2.00000
     31      -4.6264      2.00000
     32      -4.6026      2.00000
     33      -4.5899      2.00000
     34      -4.5752      2.00000
     35      -4.5253      2.00000
     36      -4.4969      2.00000
     37      -4.4936      2.00000
     38      -4.4726      2.00000
     39      -4.4469      2.00000
     40      -4.4286      2.00000
     41      -4.4146      2.00000
     42      -4.4053      2.00000
     43      -4.3790      2.00000
     44      -4.3435      2.00000
     45      -4.2795      2.00000
     46      -4.2619      2.00000
     47      -4.2553      2.00000
     48      -4.2471      2.00000
     49      -4.2331      2.00000
     50      -4.2326      2.00000
     51      -4.2290      2.00000
     52      -4.2246      2.00000
     53      -4.2108      2.00000
     54      -4.1410      2.00000
     55      -4.1304      2.00000
     56      -4.1091      2.00000
     57      -4.1048      2.00000
     58      -4.1034      2.00000
     59      -4.0896      2.00000
     60      -4.0651      2.00000
[...]
    238       6.2727      0.00000
    239       6.3416      0.00000
    240       6.4816      0.00000
    241       7.0239      0.00000
    242       7.1595      0.00000
    243       7.1922      0.00000
    244       7.3622      0.00000
    245       7.3805      0.00000
    246       7.4187      0.00000
    247       7.4676      0.00000
    248       7.5027      0.00000
    249       7.5956      0.00000
    250       7.6719      0.00000
    251       7.6927      0.00000
    252       7.7865      0.00000

 soft charge-density along one line, spin component           1
         0         1         2         3         4         5         6         7         8         9
 total charge-density along one line

------------------------ aborting loop because EDIFF is reached ----------------------------------------

 total charge

# of ion       s       p       d       tot
    1        0.416   0.202   9.178   9.797
    2        0.418   0.203   9.177   9.798
    3        0.418   0.203   9.177   9.798
    4        0.418   0.203   9.177   9.798
    5        0.415   0.205   9.175   9.795
    6        0.418   0.203   9.177   9.798
    7        0.418   0.203   9.177   9.798
    8        0.418   0.203   9.177   9.798
    9        0.414   0.202   9.179   9.795
   10        0.405   0.271   9.164   9.840
   11        0.407   0.269   9.168   9.844
   12        0.405   0.271   9.164   9.840
   13        0.407   0.269   9.168   9.844
   14        0.407   0.269   9.168   9.844
   15        0.402   0.270   9.166   9.838
   16        0.405   0.271   9.164   9.840
   17        0.402   0.270   9.166   9.838
   18        0.402   0.270   9.166   9.838
   19        0.402   0.272   9.163   9.837
   20        0.418   0.289   9.155   9.862
   21        0.418   0.289   9.155   9.862
   22        0.403   0.269   9.170   9.841
   23        0.418   0.289   9.155   9.862
   24        0.403   0.269   9.170   9.841
   25        0.402   0.272   9.163   9.837
   26        0.402   0.272   9.163   9.837
   27        0.403   0.269   9.170   9.841
   28        0.418   0.196   9.182   9.796
   29        0.393   0.205   9.189   9.787
   30        0.393   0.205   9.189   9.787
   31        0.393   0.205   9.189   9.787
   32        0.393   0.205   9.189   9.787
   33        0.393   0.205   9.189   9.787
   34        0.393   0.205   9.189   9.787
   35        0.412   0.201   9.179   9.792
   36        0.693   0.550   8.019   9.262
   37        1.600   3.218   0.000   4.818
tot         16.543  12.138 329.064 357.746

  FORCE on cell =-STRESS in cart. coord.  units (eV):
  Direction    XX          YY          ZZ          XY          YZ          ZX
  Alpha Z   763.01571   763.01571   763.01571
  Ewald  121732.12141121732.12149************     0.00003     0.00000     0.00004
  Hartree132066.62586132066.62589************     0.00001     0.00000     0.00002
  E(xc)   -2103.55179 -2103.55181 -2108.28903     0.00002    -0.00000    -0.00000
  Local  ************************265155.93597     0.00051    -0.00006    -0.00017
  n-local  -347.77539  -328.41820  -340.98341    10.91198    -0.31179     0.35147
  augment  3279.98317  3279.98343  3284.28188    -0.00023    -0.00001    -0.00003
  Kinetic  5045.42106  5050.58545  5052.35399     4.92498     1.15648    -0.36770
  Fock        0.00000     0.00000     0.00000     0.00000     0.00000     0.00000
  Total      -6.76188    -6.76188     0.06375    -0.00000     0.00000    -0.00000
  in kB      -7.29810    -7.29810     0.06880    -0.00000     0.00000    -0.00000

 VOLUME and BASIS-vectors are now :
  energy-cutoff  :      500.00
  volume of cell :     1484.46
      direct lattice vectors                 reciprocal lattice vectors
     8.791366577  0.000000000  0.000000000     0.113747958 -0.065672414  0.000000000
     4.395683289  7.613546790  0.000000000     0.000000000  0.131344829  0.000000000
     0.000000000  0.000000000 22.178121567     0.000000000  0.000000000  0.045089481

  length of vectors
     8.791366577  8.791366577 22.178121567     0.131344829  0.131344829  0.045089481

 FORCES acting on ions
    electron-ion (+dipol)            ewald-force                    non-local-force                 convergence-correction
   0.459E-04 -.283E-04 0.252E+04   -.954E-04 0.593E-04 -.252E+04   -.575E-17 -.199E-17 -.229E+01   -.107E-03 -.169E-03 -.193E+00
   0.366E+00 0.400E+00 0.252E+04   -.465E+00 -.420E+00 -.252E+04   0.452E-01 0.642E-01 -.164E+01   0.572E-01 -.282E-01 -.205E+00
   -.366E+00 0.400E+00 0.252E+04   0.465E+00 -.420E+00 -.252E+04   -.452E-01 0.642E-01 -.164E+01   -.577E-01 -.263E-01 -.204E+00
   0.529E+00 0.117E+00 0.252E+04   -.597E+00 -.192E+00 -.252E+04   0.782E-01 0.703E-02 -.164E+01   0.437E-02 0.638E-01 -.205E+00
   -.579E-05 -.188E-04 0.252E+04   0.981E-04 -.197E-05 -.252E+04   0.562E-18 -.915E-18 -.147E+01   0.624E-02 0.382E-02 -.201E+00
   -.529E+00 0.117E+00 0.252E+04   0.596E+00 -.192E+00 -.252E+04   -.782E-01 0.703E-02 -.164E+01   -.577E-02 0.648E-01 -.204E+00
   0.163E+00 -.517E+00 0.252E+04   -.132E+00 0.613E+00 -.252E+04   0.330E-01 -.713E-01 -.164E+01   -.512E-01 -.363E-01 -.204E+00
   -.163E+00 -.517E+00 0.252E+04   0.132E+00 0.613E+00 -.252E+04   -.330E-01 -.713E-01 -.164E+01   0.528E-01 -.373E-01 -.204E+00
   0.362E-04 -.130E-04 0.252E+04   0.792E-04 -.643E-04 -.252E+04   0.501E-17 0.126E-17 -.210E+01   -.667E-02 -.344E-02 -.220E+00
   0.589E+01 0.340E+01 0.873E+03   -.554E+01 -.320E+01 -.872E+03   -.346E+00 -.200E+00 -.848E+00   -.147E-02 -.821E-03 -.119E+00
   -.287E-04 0.365E+01 0.879E+03   0.411E-04 -.366E+01 -.878E+03   0.481E-12 0.732E-01 -.283E+00   0.629E-02 -.803E-01 -.123E+00
   -.589E+01 0.340E+01 0.873E+03   0.554E+01 -.320E+01 -.872E+03   0.346E+00 -.200E+00 -.848E+00   -.111E-03 0.252E-03 -.119E+00
   0.316E+01 -.182E+01 0.879E+03   -.317E+01 0.183E+01 -.878E+03   0.634E-01 -.366E-01 -.283E+00   -.665E-01 0.456E-01 -.123E+00
   -.316E+01 -.182E+01 0.879E+03   0.317E+01 0.183E+01 -.878E+03   -.634E-01 -.366E-01 -.283E+00   0.772E-01 0.448E-01 -.123E+00
   0.162E-04 0.106E+01 0.874E+03   -.109E-03 -.123E+01 -.873E+03   0.418E-12 0.636E-01 -.732E+00   -.166E-02 0.799E-01 -.133E+00
   -.765E-05 -.680E+01 0.873E+03   0.205E-04 0.639E+01 -.872E+03   0.263E-11 0.400E+00 -.848E+00   0.118E-03 -.296E-03 -.119E+00
   0.920E+00 -.531E+00 0.874E+03   -.107E+01 0.617E+00 -.873E+03   0.551E-01 -.318E-01 -.732E+00   0.684E-01 -.414E-01 -.133E+00
   -.920E+00 -.531E+00 0.874E+03   0.107E+01 0.617E+00 -.873E+03   -.551E-01 -.318E-01 -.732E+00   -.684E-01 -.395E-01 -.132E+00
   0.413E-04 0.456E+01 -.814E+03   -.131E-03 -.473E+01 0.814E+03   0.637E-12 0.970E-01 0.649E+00   -.650E-03 0.532E-01 0.826E-02
   0.153E+02 0.885E+01 -.770E+03   -.143E+02 -.828E+01 0.771E+03   -.935E+00 -.540E+00 -.595E+00   0.246E-01 0.142E-01 0.521E-01
   -.153E+02 0.885E+01 -.770E+03   0.143E+02 -.828E+01 0.771E+03   0.935E+00 -.540E+00 -.595E+00   -.245E-01 0.144E-01 0.515E-01
   0.709E+01 -.409E+01 -.802E+03   -.716E+01 0.413E+01 0.801E+03   0.145E+00 -.835E-01 0.706E+00   -.595E-01 0.345E-01 -.408E-01
   -.565E-04 -.177E+02 -.770E+03   0.446E-04 0.166E+02 0.771E+03   0.709E-11 0.108E+01 -.595E+00   0.530E-03 -.278E-01 0.515E-01
   -.709E+01 -.409E+01 -.802E+03   0.716E+01 0.413E+01 0.801E+03   -.145E+00 -.835E-01 0.706E+00   0.595E-01 0.345E-01 -.402E-01
   -.395E+01 -.228E+01 -.814E+03   0.409E+01 0.236E+01 0.814E+03   -.840E-01 -.485E-01 0.649E+00   -.454E-01 -.263E-01 0.835E-02
   0.395E+01 -.228E+01 -.814E+03   -.409E+01 0.236E+01 0.814E+03   0.840E-01 -.485E-01 0.649E+00   0.454E-01 -.273E-01 0.830E-02
   0.201E-04 0.818E+01 -.802E+03   0.110E-03 -.827E+01 0.801E+03   0.110E-11 0.167E+00 0.706E+00   -.553E-03 -.688E-01 -.408E-01
   0.546E-04 -.372E-04 -.248E+04   -.117E-03 0.786E-04 0.248E+04   -.558E-17 0.208E-17 0.195E+01   -.117E-02 -.812E-03 0.267E+00
   0.291E+02 0.502E+02 -.247E+04   -.292E+02 -.509E+02 0.247E+04   0.150E+00 0.552E+00 0.228E+01   -.897E-01 -.678E-01 0.845E-01
   -.291E+02 0.502E+02 -.247E+04   0.292E+02 -.509E+02 0.247E+04   -.150E+00 0.552E+00 0.228E+01   0.994E-01 -.662E-01 0.846E-01
   0.580E+02 0.804E-01 -.247E+04   -.587E+02 0.121E+00 0.247E+04   0.553E+00 -.146E+00 0.228E+01   -.103E+00 -.436E-01 0.845E-01
   -.580E+02 0.804E-01 -.247E+04   0.587E+02 0.121E+00 0.247E+04   -.553E+00 -.146E+00 0.228E+01   0.113E+00 -.427E-01 0.846E-01
   0.290E+02 -.503E+02 -.247E+04   -.295E+02 0.508E+02 0.247E+04   0.403E+00 -.406E+00 0.228E+01   -.716E-02 0.120E+00 0.845E-01
   -.290E+02 -.503E+02 -.247E+04   0.295E+02 0.508E+02 0.247E+04   -.403E+00 -.406E+00 0.228E+01   0.189E-01 0.119E+00 0.846E-01
   0.216E-04 -.103E-04 -.248E+04   0.107E-03 -.669E-04 0.247E+04   0.250E-17 0.130E-17 0.193E+01   -.779E-02 -.407E-02 0.128E+00
   0.328E-04 -.204E-04 -.197E+04   0.953E-04 0.113E-04 0.197E+04   0.375E-17 -.377E-17 -.152E+01   0.226E-02 0.141E-02 -.251E+00
   0.182E-03 -.990E-04 -.166E+04   0.251E-04 0.307E-06 0.169E+04   0.123E-18 -.108E-17 -.271E+02   0.334E-02 0.206E-02 0.578E-01
   0.631E-03 -.773E-03 0.323E+02   0.113E-12 0.209E-12 0.682E-12   -.160E-15 -.356E-17 -.301E+02   0.397E-01 0.263E-01 -.220E+01

 POSITION                                       TOTAL-FORCE (eV/Angst)
      0.00000      0.00000      5.28219         0.000000     -0.000000      0.026456
      2.93046      0.00000      5.28219         0.004307      0.016370      0.044127
      5.86091      0.00000      5.28219        -0.004307      0.016370      0.044127
      1.46523      2.53785      5.28219         0.016330     -0.004455      0.044127
      4.39568      2.53785      5.28219         0.000000     -0.000000      0.051312
      7.32614      2.53785      5.28219        -0.016330     -0.004455      0.044127
      2.93046      5.07570      5.28219         0.012023     -0.011915      0.044127
      5.86091      5.07570      5.28219        -0.012023     -0.011915      0.044127
      8.79137      5.07570      5.28219         0.000000     -0.000000      0.028457
      1.46523      0.84595      7.67490         0.005930      0.003424     -0.002487
      4.39568      0.84595      7.67490        -0.000000     -0.026993     -0.066292
      7.32614      0.84595      7.67490        -0.005930      0.003424     -0.002487
      2.93046      3.38380      7.67490        -0.023377      0.013497     -0.066292
      5.86091      3.38380      7.67490         0.023377      0.013497     -0.066292
      8.79137      3.38380      7.67490        -0.000000     -0.028452     -0.035312
      4.39568      5.92165      7.67490        -0.000000     -0.006848     -0.002487
      7.32614      5.92165      7.67490        -0.024641      0.014226     -0.035312
     10.25659      5.92165      7.67490         0.024641      0.014226     -0.035312
      8.79137      1.70009     10.06101        -0.000000     -0.013092      0.006230
      2.92042      1.68610     10.02751         0.086954      0.050203     -0.113812
      5.87095      1.68610     10.02751        -0.086954      0.050203     -0.113812
     10.25445      4.23098     10.04520         0.013917     -0.008035     -0.012401
      4.39568      4.24134     10.02751        -0.000000     -0.100406     -0.113812
      7.32828      4.23098     10.04520        -0.013917     -0.008035     -0.012401
     11.71473      6.76350     10.06101         0.011338      0.006546      0.006230
      5.86800      6.76350     10.06101        -0.011338      0.006546      0.006230
      8.79137      6.76512     10.04520         0.000000      0.016070     -0.012401
      0.00000      0.00000     12.42233         0.000000     -0.000000     -0.025951
      2.94927      0.03214     12.43461        -0.099694     -0.190999     -0.041560
      5.84210      0.03214     12.43461         0.099694     -0.190999     -0.041560
      1.50247      2.53807     12.43461        -0.215256      0.009162     -0.041560
      7.28890      2.53807     12.43461         0.215256      0.009162     -0.041560
      2.94888      5.04334     12.43461        -0.115563      0.181836     -0.041560
      5.84248      5.04334     12.43461         0.115563      0.181836     -0.041560
      8.79137      5.07570     12.41249         0.000000     -0.000000     -0.002262
      4.39568      2.53785     12.25656         0.000000     -0.000000      0.566071
      4.39568      2.53785     14.11732         0.000000     -0.000000      0.012736
    total drift:                                0.040369      0.025546      0.082200

  FREE ENERGIE OF THE ION-ELECTRON SYSTEM (eV)
  free  energy   TOTEN  =       -99.91609732 eV

  energy  without entropy=      -99.91609732  energy(sigma->0) =      -99.91609732

 stress matrix after NEB project (eV)
     -6.76188     -0.00000     -0.00000
     -0.00000     -6.76188     -0.00000
     -0.00000      0.00000      0.06375
  FORCES: max atom, RMS     0.012736    0.002094
  FORCE total and by dimension    0.012736    0.012736
  Stress total and by dimension    9.562950    6.761876
|           W    W    AA    RRRRR   N    N  II  N    N   GGGG   !!!           |
|           W    W   A  A   R    R  NN   N  II  NN   N  G    G  !!!           |
|           W    W  A    A  R    R  N N  N  II  N N  N  G       !!!           |
|           W WW W  AAAAAA  RRRRR   N  N N  II  N  N N  G  GGG   !            |
|           WW  WW  A    A  R   R   N   NN  II  N   NN  G    G                |
|           W    W  A    A  R    R  N    N  II  N    N   GGGG   !!!           |
|     Tetrahedron method does not include variations of the Fermi             |
|     occupations, so forces and stress will be inaccurate. We suggest        |
|     using a different smearing scheme ISMEAR = 1 or 2 for metals in         |
|     relaxations.                                                            |

 total charge

# of ion       s       p       d       tot
    1        0.416   0.202   9.178   9.797
    2        0.418   0.203   9.177   9.798
    3        0.418   0.203   9.177   9.798
    4        0.418   0.203   9.177   9.798
    5        0.415   0.205   9.175   9.795
    6        0.418   0.203   9.177   9.798
    7        0.418   0.203   9.177   9.798
    8        0.418   0.203   9.177   9.798
    9        0.414   0.202   9.179   9.795
   10        0.405   0.271   9.164   9.840
   11        0.407   0.269   9.168   9.844
   12        0.405   0.271   9.164   9.840
   13        0.407   0.269   9.168   9.844
   14        0.407   0.269   9.168   9.844
   15        0.402   0.270   9.166   9.838
   16        0.405   0.271   9.164   9.840
   17        0.402   0.270   9.166   9.838
   18        0.402   0.270   9.166   9.838
   19        0.402   0.272   9.163   9.837
   20        0.418   0.289   9.155   9.862
   21        0.418   0.289   9.155   9.862
   22        0.403   0.269   9.170   9.841
   23        0.418   0.289   9.155   9.862
   24        0.403   0.269   9.170   9.841
   25        0.402   0.272   9.163   9.837
   26        0.402   0.272   9.163   9.837
   27        0.403   0.269   9.170   9.841
   28        0.418   0.196   9.182   9.796
   29        0.393   0.205   9.189   9.787
   30        0.393   0.205   9.189   9.787
   31        0.393   0.205   9.189   9.787
   32        0.393   0.205   9.189   9.787
   33        0.393   0.205   9.189   9.787
   34        0.393   0.205   9.189   9.787
   35        0.412   0.201   9.179   9.792
   36        0.693   0.550   8.019   9.262
   37        1.600   3.218   0.000   4.818
tot         16.543  12.138 329.064 357.746

 BZINTS: Fermi energy:    0.746940;  401.000000 electrons
         Band energy:-0.135024E+04;  BLOECHL correction:   -0.032665