 vasp.6.2.0 18Jan21 (build Jun 12 2021 23:27:24) complex

 executed on             LinuxIFC date 2022.05.28  01:40:09

 INCAR:
   ISMEAR = -5
   SIGMA = 0.1
   ISPIN = 1
   EDIFF = 1.d-5
   EDIFFG = -0.01
   NSW = 0
   NELM = 150
   ENCUT = 500
   ISIF = 2
   IBRION = 2
   LREAL = Auto
   ALGO = Fast
   ICHARG = 11
   LORBIT = 10
   LCHARG = .F.
   LWAVE = .F.

 POTCAR:    PAW_PBE Ag 02Apr2005
 POTCAR:    PAW_PBE Mo 08Apr2002
 POTCAR:    PAW_PBE H 15Jun2001
 POTCAR:    PAW_PBE O 08Apr2002
|           W    W    AA    RRRRR   N    N  II  N    N   GGGG   !!!           |
|           W    W   A  A   R    R  NN   N  II  NN   N  G    G  !!!           |
|           W    W  A    A  R    R  N N  N  II  N N  N  G       !!!           |
|           W WW W  AAAAAA  RRRRR   N  N N  II  N  N N  G  GGG   !            |
|           WW  WW  A    A  R   R   N   NN  II  N   NN  G    G                |
|           W    W  A    A  R    R  N    N  II  N    N   GGGG   !!!           |
|     For optimal performance we recommend to set                             |
|       NCORE = 2 up to number-of-cores-per-socket                            |
|     This setting can greatly improve the performance of VASP for DFT.       |
|     The default, NCORE=1 might be grossly inefficient on modern             |
|     multi-core architectures or massively parallel machines. Do your        |
|     Unfortunately you need to use the default for GW and RPA                |
|     calculations (for HF NCORE is supported but not extensively tested      |
|     yet).                                                                   |

 POTCAR:    PAW_PBE Ag 02Apr2005
   VRHFIN =Ag : s1 d10

   TITEL  = PAW_PBE Ag 02Apr2005
   POMASS =  107.868; ZVAL   =   11.000    mass and valenz
   ENMAX  =  249.844; ENMIN  =  187.383 eV

 POTCAR:    PAW_PBE Mo 08Apr2002
   VRHFIN =Mo: 4p5s4d

[...]

 POTCAR:    PAW_PBE H 15Jun2001
   VRHFIN =H: ultrasoft test

   TITEL  = PAW_PBE H 15Jun2001
   POMASS =    1.000; ZVAL   =    1.000    mass and valenz
   ENMAX  =  250.000; ENMIN  =  200.000 eV

 POTCAR:    PAW_PBE O 08Apr2002
   VRHFIN =O: s2p4

   TITEL  = PAW_PBE O 08Apr2002
   POMASS =   16.000; ZVAL   =    6.000    mass and valenz
   ENMAX  =  400.000; ENMIN  =  300.000 eV

 Optimization of the real space projectors (new method)

 maximal supplied QI-value         = 15.12
 optimisation between [QCUT,QGAM] = [ 11.34, 22.83] = [ 36.00,145.93] Ry
 Optimized for a Real-space Cutoff    1.43 Angstroem

   l    n(q)    QCUT    max X(q) W(low)/X(q) W(high)/X(q)  e(spline)
   2      9    11.338    53.897    0.16E-03    0.20E-03    0.28E-06
   2      9    11.338    52.416    0.16E-03    0.20E-03    0.29E-06
   0     10    11.338   122.045    0.31E-04    0.76E-04    0.15E-06
   0     10    11.338    73.629    0.30E-04    0.72E-04    0.15E-06
   1      9    11.338    15.255    0.20E-03    0.19E-04    0.17E-06
   1      9    11.338     9.562    0.16E-03    0.15E-04    0.14E-06
 Optimization of the real space projectors (new method)

[...]

   l    n(q)    QCUT    max X(q) W(low)/X(q) W(high)/X(q)  e(spline)
   0      8    11.287    19.460    0.40E-03    0.73E-03    0.16E-06
   0      8    11.287    12.209    0.38E-03    0.70E-03    0.15E-06
   1      7    11.287     4.655    0.22E-03    0.25E-04    0.22E-06
 Optimization of the real space projectors (new method)

 maximal supplied QI-value         = 24.76
 optimisation between [QCUT,QGAM] = [ 11.39, 22.77] = [ 36.31,145.25] Ry
 Optimized for a Real-space Cutoff    1.00 Angstroem

   l    n(q)    QCUT    max X(q) W(low)/X(q) W(high)/X(q)  e(spline)
   0      7    11.387    20.381    0.39E-03    0.13E-02    0.15E-06
   0      7    11.387    15.268    0.42E-03    0.14E-02    0.17E-06
   1      6    11.387     5.964    0.41E-03    0.11E-02    0.17E-06
   1      6    11.387     5.382    0.39E-03    0.87E-03    0.15E-06
  PAW_PBE Ag 02Apr2005                  :
  PAW_PBE Mo 08Apr2002                  :
  PAW_PBE H 15Jun2001                   :
  PAW_PBE O 08Apr2002                   :

 POSCAR: Ag-Mo-H2O
  positions in direct lattice
  velocities in cartesian coordinates
 exchange correlation table for  LEXCH =        8
   RHO(1)=    0.500       N(1)  =     2000
   RHO(2)=  100.500       N(2)  =     4000

 VTST: version 3.2, (02/03/18)

 CHAIN: initializing optimizer

 OPT: Using VASP Conjugate-Gradient optimizer
 CHAIN: Read ICHAIN            0

 POSCAR: Ag-Mo-H2O
  positions in direct lattice
  velocities in cartesian coordinates

 ion  position               nearest neighbor table
   1  0.000  0.000  0.212-   2 2.93   8 2.93   7 2.93   6 2.93   4 2.93  12 2.93  16 2.93  10 2.93
                             3 2.93
   2  0.333  0.000  0.212-   1 2.93   8 2.93   9 2.93   3 2.93   4 2.93   5 2.93  10 2.93  17 2.93
                            11 2.93
   3  0.667  0.000  0.212-   9 2.93   2 2.93   5 2.93  11 2.93   7 2.93  18 2.93   1 2.93   6 2.93
                            12 2.93
   4  0.000  0.333  0.212-   5 2.93   6 2.93   2 2.93   1 2.93   7 2.93  13 2.93  15 2.93   9 2.93
                            10 2.93
   5  0.333  0.333  0.212-   4 2.93   3 2.93   7 2.93   2 2.93   8 2.93  14 2.93  13 2.93  11 2.93
                             6 2.93
   6  0.667  0.333  0.212-   4 2.93   9 2.93   1 2.93  15 2.93   8 2.93  12 2.93   3 2.93   5 2.93
                            14 2.93
   7  0.000  0.667  0.212-   8 2.93   1 2.93   5 2.93   3 2.93   4 2.93  16 2.93  18 2.93  13 2.93
                             9 2.93
   8  0.333  0.667  0.212-   7 2.93   1 2.93   2 2.93   9 2.93   5 2.93  16 2.93   6 2.93  17 2.93
                            14 2.93
   9  0.667  0.667  0.212-   3 2.93   2 2.93   8 2.93   6 2.93  17 2.93   4 2.93  15 2.93   7 2.93
                            18 2.93
  10  0.111  0.111  0.308-  20 2.90  19 2.93  26 2.93  12 2.93  16 2.93  15 2.93  17 2.93  13 2.93
                            11 2.93   2 2.93   1 2.93   4 2.93
  11  0.444  0.111  0.308-  21 2.90  20 2.90  27 2.93  14 2.93  17 2.93  18 2.93   3 2.93  12 2.93
                            13 2.93  10 2.93   5 2.93   2 2.93
  12  0.778  0.111  0.308-  21 2.90  25 2.93  19 2.93  10 2.93  16 2.93  18 2.93  15 2.93  11 2.93
                             1 2.93  14 2.93   6 2.93   3 2.93
  13  0.111  0.444  0.308-  20 2.90  23 2.90  22 2.93  15 2.93  14 2.93  18 2.93  10 2.93  11 2.93
                            16 2.93   4 2.93   5 2.93   7 2.93
  14  0.444  0.444  0.308-  23 2.90  21 2.90  24 2.93  13 2.93  11 2.93  16 2.93   5 2.93  12 2.93
                            17 2.93   8 2.93  15 2.93   6 2.93
  15  0.778  0.444  0.308-  24 2.92  22 2.92  19 2.92  13 2.93  10 2.93  12 2.93  17 2.93  18 2.93
                             4 2.93   6 2.93   9 2.93  14 2.93
  16  0.111  0.778  0.308-  23 2.90  26 2.93  25 2.93  18 2.93  12 2.93  10 2.93  14 2.93  17 2.93
                            13 2.93   7 2.93   8 2.93   1 2.93
  17  0.444  0.778  0.308-  27 2.92  24 2.92  26 2.92  11 2.93  10 2.93   9 2.93  18 2.93  15 2.93
                            16 2.93   2 2.93  14 2.93   8 2.93
  18  0.778  0.778  0.308-  22 2.92  27 2.92  25 2.92  16 2.93  12 2.93  13 2.93  11 2.93  17 2.93
                            15 2.93   7 2.93   3 2.93   9 2.93
  19  0.889  0.222  0.403-  28 2.92  15 2.92  10 2.93  12 2.93  24 2.93  22 2.93  26 2.93  25 2.93
                            20 2.93  21 2.93  32 2.96  31 2.96
  20  0.222  0.222  0.402-  36 2.79  13 2.90  11 2.90  10 2.90  21 2.93  23 2.93  19 2.93  26 2.93
                            27 2.93  22 2.93  31 2.94  29 2.94
  21  0.555  0.222  0.402-  36 2.79  11 2.90  14 2.90  12 2.90  20 2.93  23 2.93  25 2.93  19 2.93
                            27 2.93  24 2.93  30 2.94  32 2.94
  22  0.888  0.556  0.403-  35 2.91  24 2.92  27 2.92  18 2.92  15 2.92  13 2.93  25 2.93  19 2.93
                            23 2.93  20 2.93  33 2.94  31 2.94
  23  0.222  0.555  0.402-  36 2.79  14 2.90  13 2.90  16 2.90  21 2.93  20 2.93  26 2.93  25 2.93
                            22 2.93  24 2.93  34 2.94  33 2.94
  24  0.556  0.556  0.403-  35 2.91  27 2.92  22 2.92  15 2.92  17 2.92  14 2.93  19 2.93  26 2.93
                            23 2.93  21 2.93  32 2.94  34 2.94
  25  0.889  0.889  0.403-  28 2.92  18 2.92  16 2.93  12 2.93  22 2.93  27 2.93  26 2.93  19 2.93
                            23 2.93  21 2.93  33 2.96  30 2.96
  26  0.222  0.889  0.403-  28 2.92  17 2.92  16 2.93  10 2.93  27 2.93  24 2.93  25 2.93  19 2.93
                            23 2.93  20 2.93  34 2.96  29 2.96
  27  0.556  0.888  0.403-  35 2.91  24 2.92  22 2.92  17 2.92  18 2.92  11 2.93  26 2.93  25 2.93
                            20 2.93  21 2.93  29 2.94  30 2.94
  28  0.000  0.000  0.498-  26 2.92  25 2.92  19 2.92  29 2.95  34 2.95  33 2.95  32 2.95  31 2.95
                            30 2.95
  29  0.333  0.005  0.500-  31 2.88  30 2.89  36 2.89  27 2.94  20 2.94  28 2.95  35 2.96  26 2.96
                            34 3.02
  30  0.662  0.005  0.500-  32 2.88  29 2.89  36 2.89  27 2.94  21 2.94  28 2.95  35 2.96  25 2.96
                            33 3.02
  31  0.005  0.333  0.500-  29 2.88  33 2.89  36 2.89  22 2.94  20 2.94  28 2.95  35 2.96  19 2.96
                            32 3.02
  32  0.662  0.333  0.500-  30 2.88  34 2.89  36 2.89  24 2.94  21 2.94  28 2.95  35 2.96  19 2.96
                            31 3.02
  33  0.005  0.662  0.500-  34 2.88  31 2.89  36 2.89  22 2.94  23 2.94  28 2.95  35 2.96  25 2.96
                            30 3.02
  34  0.333  0.662  0.500-  33 2.88  32 2.89  36 2.89  24 2.94  23 2.94  28 2.95  35 2.96  26 2.96
                            29 3.02
  35  0.667  0.667  0.498-  24 2.91  27 2.91  22 2.91  30 2.96  32 2.96  29 2.96  34 2.96  31 2.96
                            33 2.96
  36  0.333  0.333  0.491-  39 2.28  21 2.79  20 2.79  23 2.79  31 2.89  30 2.89  33 2.89  29 2.89
                            34 2.89  32 2.89
  37  0.283  0.257  0.590-  39 0.98
  38  0.461  0.257  0.590-  39 0.98
  39  0.335  0.329  0.582-  37 0.98  38 0.98  36 2.28

  LATTYP: Found a hexagonal cell.
 ALAT       =     8.7913665772
 C/A-ratio  =     2.8382349142

  Lattice vectors:

 A1 = (  -4.3956832886,  -7.6135467898,   0.0000000000)
 A2 = (   8.7913665771,   0.0000000000,   0.0000000000)
 A3 = (   0.0000000000,   0.0000000000,  24.9519635625)

Analysis of symmetry for initial positions (statically):
 Subroutine PRICEL returns:
 Original cell was already a primitive cell.

 Routine SETGRP: Setting up the symmetry group for a
 hexagonal supercell.

 Subroutine GETGRP returns: Found  1 space group operations
 (whereof  1 operations were pure point group operations)
 out of a pool of 24 trial point group operations.

The static configuration has the point symmetry C_1 .

Analysis of symmetry for dynamics (positions and initial velocities):
 Subroutine PRICEL returns:
 Original cell was already a primitive cell.

[...]

The dynamic configuration has the point symmetry C_1 .

Analysis of constrained symmetry for selective dynamics:
 Subroutine PRICEL returns:
 Original cell was already a primitive cell.

 Routine SETGRP: Setting up the symmetry group for a
 hexagonal supercell.

[...]
     41      -4.7045      2.00000
     42      -4.6789      2.00000
     43      -4.6753      2.00000
     44      -4.6661      2.00000
     45      -4.6548      2.00000
     46      -4.6472      2.00000
     47      -4.5489      2.00000
     48      -4.5256      2.00000
     49      -4.5126      2.00000
     50      -4.5097      2.00000
     51      -4.5073      2.00000
     52      -4.5047      2.00000
     53      -4.4933      2.00000
     54      -4.4837      2.00000
     55      -4.4790      2.00000
     56      -4.4670      2.00000
     57      -4.3946      2.00000
     58      -4.3885      2.00000
     59      -4.3831      2.00000
     60      -4.3755      2.00000
[...]
    238       5.7105      0.00000
    239       5.8480      0.00000
    240       5.8783      0.00000
    241       6.0179      0.00000
    242       6.1649      0.00000
    243       6.2696      0.00000
    244       6.3640      0.00000
    245       6.3961      0.00000
    246       6.5027      0.00000
    247       6.6146      0.00000
    248       6.7183      0.00000
    249       6.8603      0.00000
    250       6.9397      0.00000
    251       6.9551      0.00000
    252       7.1252      0.00000

 soft charge-density along one line, spin component           1
         0         1         2         3         4         5         6         7         8         9
 total charge-density along one line

------------------------ aborting loop because EDIFF is reached ----------------------------------------

 total charge

# of ion       s       p       d       tot
    1        0.421   0.201   9.178   9.800
    2        0.416   0.204   9.177   9.797
    3        0.416   0.204   9.177   9.797
    4        0.416   0.203   9.178   9.797
    5        0.420   0.201   9.176   9.797
    6        0.416   0.203   9.178   9.797
    7        0.415   0.203   9.178   9.797
    8        0.415   0.203   9.178   9.797
    9        0.416   0.202   9.179   9.797
   10        0.411   0.269   9.162   9.842
   11        0.410   0.266   9.169   9.844
   12        0.411   0.269   9.162   9.841
   13        0.408   0.267   9.169   9.844
   14        0.408   0.267   9.169   9.844
   15        0.404   0.267   9.165   9.837
   16        0.411   0.269   9.162   9.841
   17        0.404   0.268   9.166   9.837
   18        0.404   0.268   9.166   9.837
   19        0.404   0.264   9.167   9.835
   20        0.442   0.303   9.132   9.878
   21        0.442   0.303   9.133   9.878
   22        0.393   0.272   9.168   9.833
   23        0.443   0.302   9.132   9.878
   24        0.393   0.272   9.168   9.833
   25        0.403   0.264   9.168   9.834
   26        0.403   0.264   9.168   9.834
   27        0.394   0.272   9.168   9.833
   28        0.413   0.203   9.173   9.789
   29        0.440   0.224   9.154   9.818
   30        0.440   0.224   9.154   9.818
   31        0.440   0.222   9.155   9.817
   32        0.440   0.223   9.155   9.817
   33        0.435   0.217   9.159   9.812
   34        0.435   0.217   9.159   9.812
   35        0.404   0.204   9.177   9.786
   36        0.383   0.296   4.097   4.775
   37        0.603   0.118   0.000   0.721
   38        0.603   0.118   0.000   0.721
   39        1.566   3.611   0.000   5.177
tot         17.739  12.628 324.873 355.240

  FORCE on cell =-STRESS in cart. coord.  units (eV):
  Direction    XX          YY          ZZ          XY          YZ          ZX
  Alpha Z   680.59640   680.59640   680.59640
  Ewald  159992.63859159928.64053************     0.06502   -10.17393    -0.03137
  Hartree169932.24923169920.24176************     0.00993     6.05664    -0.04205
  E(xc)   -2092.01376 -2092.14770 -2097.79523    -0.00006    -0.00845     0.00027
  Local  ************************341049.50254    -0.05304    -2.40628     0.07736
  n-local  -365.20059  -365.57138  -366.82295     0.00265     0.00125     0.00240
  augment  3233.86624  3234.89742  3247.69264    -0.00113     0.33654    -0.00045
  Kinetic  4975.50882  4992.75210  5029.99091    -0.01080     6.15434    -0.00852
  Fock        0.00000     0.00000     0.00000     0.00000     0.00000     0.00000
  Total      -8.60678    -8.59407     0.54942     0.01256    -0.03989    -0.00236
  in kB      -8.25664    -8.24444     0.52707     0.01205    -0.03827    -0.00227

 VOLUME and BASIS-vectors are now :
  energy-cutoff  :      500.00
  volume of cell :     1670.12
      direct lattice vectors                 reciprocal lattice vectors
     8.791366577  0.000000000  0.000000000     0.113747958 -0.065672414  0.000000000
     4.395683289  7.613546790  0.000000000     0.000000000  0.131344829  0.000000000
     0.000000000  0.000000000 24.951963562     0.000000000  0.000000000  0.040077006

  length of vectors
     8.791366577  8.791366577 24.951963562     0.131344829  0.131344829  0.040077006

 FORCES acting on ions
    electron-ion (+dipol)            ewald-force                    non-local-force                 convergence-correction
   0.929E-03 0.326E-01 0.271E+04   -.446E-04 -.111E-01 -.271E+04   0.356E-04 0.181E-02 -.209E+01   -.936E-03 -.191E-01 0.834E-01
   -.263E+00 0.685E-01 0.271E+04   -.889E-01 -.248E+00 -.271E+04   0.171E+00 0.195E+00 -.150E+01   0.171E+00 -.142E-01 0.133E+00
   0.263E+00 0.589E-01 0.271E+04   0.890E-01 -.248E+00 -.271E+04   -.171E+00 0.195E+00 -.150E+01   -.171E+00 -.457E-02 0.135E+00
   -.718E-01 -.248E+00 0.271E+04   -.249E+00 0.611E-01 -.271E+04   0.232E+00 0.231E-01 -.151E+01   0.844E-01 0.152E+00 0.128E+00
   -.135E-01 -.853E-01 0.271E+04   0.766E-06 0.199E-01 -.271E+04   -.203E-02 0.177E-01 -.118E+01   0.157E-01 0.419E-01 0.223E+00
   0.803E-01 -.252E+00 0.271E+04   0.249E+00 0.610E-01 -.271E+04   -.232E+00 0.230E-01 -.151E+01   -.927E-01 0.156E+00 0.131E+00
   0.990E-01 0.204E+00 0.271E+04   -.160E+00 0.187E+00 -.271E+04   0.115E+00 -.229E+00 -.157E+01   -.545E-01 -.152E+00 0.121E+00
   -.107E+00 0.210E+00 0.271E+04   0.160E+00 0.187E+00 -.271E+04   -.115E+00 -.228E+00 -.157E+01   0.624E-01 -.158E+00 0.122E+00
   0.128E-01 0.181E-01 0.271E+04   0.124E-03 -.855E-02 -.271E+04   0.234E-02 -.616E-02 -.183E+01   -.155E-01 -.357E-02 0.118E+00
   0.232E+01 0.134E+01 0.919E+03   -.195E+01 -.111E+01 -.918E+03   -.466E+00 -.275E+00 -.872E+00   0.101E+00 0.460E-01 0.129E+00
   -.105E-01 0.236E+01 0.919E+03   -.514E-03 -.247E+01 -.919E+03   -.227E-02 0.103E+00 -.144E+00   0.134E-01 -.248E-01 0.163E+00
   -.231E+01 0.134E+01 0.919E+03   0.195E+01 -.111E+01 -.918E+03   0.466E+00 -.275E+00 -.871E+00   -.107E+00 0.499E-01 0.124E+00
   0.202E+01 -.130E+01 0.919E+03   -.215E+01 0.136E+01 -.919E+03   0.118E+00 -.655E-01 -.184E+00   -.101E-01 0.213E-01 0.141E+00
   -.203E+01 -.129E+01 0.919E+03   0.215E+01 0.136E+01 -.919E+03   -.122E+00 -.655E-01 -.184E+00   0.303E-01 0.179E-01 0.133E+00
   0.615E-02 -.307E+00 0.918E+03   0.524E-03 0.575E-01 -.917E+03   0.962E-04 0.114E+00 -.779E+00   -.676E-02 0.112E+00 0.102E+00
   -.383E-03 -.258E+01 0.919E+03   -.806E-04 0.211E+01 -.918E+03   -.872E-05 0.568E+00 -.872E+00   0.509E-03 -.103E+00 0.115E+00
   -.136E+00 0.219E+00 0.918E+03   -.475E-01 -.996E-01 -.917E+03   0.829E-01 -.516E-01 -.785E+00   0.799E-01 -.569E-01 0.105E+00
   0.136E+00 0.212E+00 0.918E+03   0.476E-01 -.100E+00 -.917E+03   -.830E-01 -.518E-01 -.786E+00   -.805E-01 -.494E-01 0.109E+00
   -.783E-02 -.370E+01 -.897E+03   0.425E-02 0.346E+01 0.896E+03   -.138E-03 0.149E+00 0.681E+00   0.367E-02 0.762E-01 0.235E+00
   -.109E+02 -.707E+01 -.892E+03   0.124E+02 0.788E+01 0.894E+03   -.156E+01 -.877E+00 -.154E+01   0.121E+00 0.669E-01 0.325E+00
   0.109E+02 -.707E+01 -.892E+03   -.124E+02 0.788E+01 0.894E+03   0.157E+01 -.876E+00 -.154E+01   -.140E+00 0.658E-01 0.321E+00
   -.725E+01 0.389E+01 -.895E+03   0.684E+01 -.369E+01 0.894E+03   0.326E+00 -.174E+00 0.342E+00   0.973E-01 -.429E-01 0.126E+00
   0.109E-01 0.124E+02 -.894E+03   -.379E-02 -.141E+02 0.896E+03   0.232E-02 0.186E+01 -.150E+01   -.971E-02 -.143E+00 0.290E+00
   0.724E+01 0.389E+01 -.895E+03   -.684E+01 -.368E+01 0.894E+03   -.327E+00 -.174E+00 0.342E+00   -.933E-01 -.403E-01 0.126E+00
   0.265E+01 0.248E+01 -.897E+03   -.243E+01 -.232E+01 0.896E+03   -.120E+00 -.107E+00 0.785E+00   -.891E-01 -.438E-01 0.229E+00
   -.265E+01 0.247E+01 -.897E+03   0.243E+01 -.232E+01 0.896E+03   0.120E+00 -.107E+00 0.785E+00   0.904E-01 -.405E-01 0.231E+00
   0.197E-02 -.735E+01 -.894E+03   -.941E-03 0.687E+01 0.893E+03   0.147E-03 0.392E+00 0.310E+00   -.120E-02 0.106E+00 0.126E+00
   -.124E-01 0.226E+01 -.265E+04   0.101E-01 -.236E+01 0.265E+04   -.408E-04 0.706E-01 0.171E+01   0.230E-02 0.239E-01 0.359E-01
   0.696E+01 0.103E+02 -.263E+04   -.623E+01 -.919E+01 0.263E+04   -.976E+00 -.151E+01 0.744E+00   0.196E+00 0.284E+00 0.659E-01
   -.694E+01 0.104E+02 -.263E+04   0.622E+01 -.923E+01 0.263E+04   0.976E+00 -.151E+01 0.745E+00   -.199E+00 0.287E+00 0.659E-01
   0.818E+01 -.312E+01 -.264E+04   -.675E+01 0.322E+01 0.264E+04   -.185E+01 -.110E+00 0.787E+00   0.339E+00 0.144E-01 0.622E-01
   -.824E+01 -.313E+01 -.264E+04   0.680E+01 0.323E+01 0.264E+04   0.185E+01 -.110E+00 0.787E+00   -.337E+00 0.187E-01 0.640E-01
   -.571E-01 -.366E+01 -.264E+04   0.541E+00 0.256E+01 0.264E+04   -.678E+00 0.147E+01 0.122E+01   0.123E+00 -.299E+00 0.630E-01
   0.599E-01 -.369E+01 -.264E+04   -.549E+00 0.259E+01 0.264E+04   0.678E+00 0.148E+01 0.122E+01   -.118E+00 -.298E+00 0.649E-01
   0.162E-02 0.166E+01 -.265E+04   0.864E-02 -.167E+01 0.265E+04   0.230E-02 -.521E-02 0.204E+01   -.127E-01 0.105E-01 0.813E-01
   0.322E-01 -.597E+01 -.130E+04   -.320E-01 0.591E+01 0.130E+04   0.268E-03 0.107E-01 0.152E+01   0.416E-04 -.168E-01 0.941E-01
   0.675E+02 0.438E+02 -.288E+03   -.743E+02 -.483E+02 0.290E+03   0.675E+01 0.446E+01 -.164E+01   0.495E-02 0.294E-02 -.297E-01
   -.676E+02 0.437E+02 -.288E+03   0.743E+02 -.481E+02 0.290E+03   -.675E+01 0.444E+01 -.164E+01   -.509E-02 0.264E-02 -.295E-01
   0.400E-01 -.580E+02 -.163E+04   -.468E-01 0.101E+03 0.162E+04   0.217E-01 -.433E+02 0.553E+01   -.583E-02 -.159E-01 -.225E+00
   -.127E-01 0.345E+02 0.334E+01   -.144E-13 0.298E-12 0.682E-12   0.250E-01 -.346E+02 -.806E+01   -.142E-01 0.295E-01 0.464E+01

 POSITION                                       TOTAL-FORCE (eV/Angst)
      0.00000      0.00000      5.28219         0.000032      0.004930     -0.061089
      2.93046      0.00000      5.28219        -0.009824      0.002406      0.018585
      5.86091      0.00000      5.28219         0.009899      0.002350      0.018613
      1.46523      2.53785      5.28219        -0.004450     -0.010835      0.019243
      4.39568      2.53785      5.28219         0.000207     -0.005125     -0.003418
      7.32614      2.53785      5.28219         0.004615     -0.010864      0.019273
      2.93046      5.07570      5.28219        -0.001184      0.010655      0.024928
      5.86091      5.07570      5.28219         0.001235      0.010690      0.024937
      8.79137      5.07570      5.28219        -0.000137      0.000474     -0.004017
      1.46523      0.84595      7.67490         0.007924      0.005706     -0.026099
      4.39568      0.84595      7.67490         0.000241     -0.034115     -0.062397
      7.32614      0.84595      7.67490        -0.007786      0.005728     -0.026072
      2.93046      3.38380      7.67490        -0.024150      0.018743     -0.059319
      5.86091      3.38380      7.67490         0.024692      0.018786     -0.059336
      8.79137      3.38380      7.67490         0.000056     -0.022812      0.002556
      4.39568      5.92165      7.67490         0.000085     -0.003961     -0.033780
      7.32614      5.92165      7.67490        -0.020379      0.011252      0.007041
     10.25659      5.92165      7.67490         0.020444      0.011223      0.007015
      8.79137      1.69286     10.06155         0.000005     -0.012299     -0.012238
      2.93202      1.69280     10.03008        -0.011291      0.002408     -0.050906
      5.85935      1.69280     10.03008         0.010809      0.002436     -0.050989
     10.25345      4.23157     10.06207         0.016301     -0.011950     -0.011400
      4.39568      4.22795     10.03008        -0.000187      0.035251     -0.028411
      7.32929      4.23157     10.06207        -0.016165     -0.011908     -0.011428
     11.72099      6.76712     10.06155         0.013552      0.009757     -0.005557
      5.86174      6.76712     10.06155        -0.013469      0.009690     -0.005540
      8.79137      6.76396     10.06207         0.000022      0.021775     -0.021129
      0.00000      0.00000     12.43674         0.000037     -0.002832      0.054194
      2.95191      0.04038     12.46589        -0.051394     -0.085292     -0.039270
      5.83946      0.04038     12.46589         0.051543     -0.085496     -0.039310
      1.51092      2.53624     12.46589        -0.081818      0.003943     -0.026550
      7.28044      2.53624     12.46589         0.082218      0.003888     -0.026773
      2.95470      5.03693     12.46589        -0.070650      0.080625     -0.047916
      5.83667      5.03693     12.46589         0.070708      0.080714     -0.048007
      8.79137      5.07570     12.43630        -0.000102     -0.000090      0.059714
      4.39568      2.53785     12.24527         0.000583     -0.062721      0.498056
      3.61263      1.95317     14.72996        -0.005485     -0.003720      0.010524
      5.18106      1.95420     14.72999        -0.005891      0.004427      0.006716
      4.39630      2.50595     14.52956         0.009152      0.006167     -0.010444
    total drift:                               -0.001877     -0.025810     -0.080140

  FREE ENERGIE OF THE ION-ELECTRON SYSTEM (eV)
  free  energy   TOTEN  =      -111.23365545 eV

  energy  without entropy=     -111.23365545  energy(sigma->0) =     -111.23365545

 stress matrix after NEB project (eV)
     -8.60678      0.01256     -0.00236
      0.01256     -8.59407     -0.03989
     -0.00236     -0.03989      0.54942
  FORCES: max atom, RMS     0.015195    0.003526
  FORCE total and by dimension    0.022022    0.010524
  Stress total and by dimension   12.175390    8.606783
|           W    W    AA    RRRRR   N    N  II  N    N   GGGG   !!!           |
|           W    W   A  A   R    R  NN   N  II  NN   N  G    G  !!!           |
|           W    W  A    A  R    R  N N  N  II  N N  N  G       !!!           |
|           W WW W  AAAAAA  RRRRR   N  N N  II  N  N N  G  GGG   !            |
|           WW  WW  A    A  R   R   N   NN  II  N   NN  G    G                |
|           W    W  A    A  R    R  N    N  II  N    N   GGGG   !!!           |
|     Tetrahedron method does not include variations of the Fermi             |
|     occupations, so forces and stress will be inaccurate. We suggest        |
|     using a different smearing scheme ISMEAR = 1 or 2 for metals in         |
|     relaxations.                                                            |

 total charge

# of ion       s       p       d       tot
    1        0.421   0.201   9.178   9.800
    2        0.416   0.204   9.177   9.797
    3        0.416   0.204   9.177   9.797
    4        0.416   0.203   9.178   9.797
    5        0.420   0.201   9.176   9.797
    6        0.416   0.203   9.178   9.797
    7        0.415   0.203   9.178   9.797
    8        0.415   0.203   9.178   9.797
    9        0.416   0.202   9.179   9.797
   10        0.411   0.269   9.162   9.842
   11        0.410   0.266   9.169   9.844
   12        0.411   0.269   9.162   9.841
   13        0.408   0.267   9.169   9.844
   14        0.408   0.267   9.169   9.844
   15        0.404   0.267   9.165   9.837
   16        0.411   0.269   9.162   9.841
   17        0.404   0.268   9.166   9.837
   18        0.404   0.268   9.166   9.837
   19        0.404   0.264   9.167   9.835
   20        0.442   0.303   9.132   9.878
   21        0.442   0.303   9.133   9.878
   22        0.393   0.272   9.168   9.833
   23        0.443   0.302   9.132   9.878
   24        0.393   0.272   9.168   9.833
   25        0.403   0.264   9.168   9.834
   26        0.403   0.264   9.168   9.834
   27        0.394   0.272   9.168   9.833
   28        0.413   0.203   9.173   9.789
   29        0.440   0.224   9.154   9.818
   30        0.440   0.224   9.154   9.818
   31        0.440   0.222   9.155   9.817
   32        0.440   0.223   9.155   9.817
   33        0.435   0.217   9.159   9.812
   34        0.435   0.217   9.159   9.812
   35        0.404   0.204   9.177   9.786
   36        0.383   0.296   4.097   4.775
   37        0.603   0.118   0.000   0.721
   38        0.603   0.118   0.000   0.721
   39        1.566   3.611   0.000   5.177
tot         17.739  12.628 324.873 355.240

 BZINTS: Fermi energy:    0.473982;  399.000000 electrons
         Band energy:-0.148898E+04;  BLOECHL correction:   -0.016810