 vasp.6.2.0 18Jan21 (build Jun 12 2021 23:27:24) complex

 executed on             LinuxIFC date 2022.05.26  19:35:40

 INCAR:
   ISMEAR = -5
   SIGMA = 0.1
   ISPIN = 1
   EDIFF = 1.d-5
   EDIFFG = -0.01
   NSW = 0
   NELM = 150
   ENCUT = 500
   ISIF = 2
   IBRION = 2
   LREAL = Auto
   ALGO = Fast
   ICHARG = 11
   LORBIT = 10
   LCHARG = .F.
   LWAVE = .F.

 POTCAR:    PAW_PBE Au 04Oct2007
 POTCAR:    PAW_PBE Ir 06Sep2000
 POTCAR:    PAW_PBE O 08Apr2002
|           W    W    AA    RRRRR   N    N  II  N    N   GGGG   !!!           |
|           W    W   A  A   R    R  NN   N  II  NN   N  G    G  !!!           |
|           W    W  A    A  R    R  N N  N  II  N N  N  G       !!!           |
|           W WW W  AAAAAA  RRRRR   N  N N  II  N  N N  G  GGG   !            |
|           WW  WW  A    A  R   R   N   NN  II  N   NN  G    G                |
|           W    W  A    A  R    R  N    N  II  N    N   GGGG   !!!           |
|     For optimal performance we recommend to set                             |
|       NCORE = 2 up to number-of-cores-per-socket                            |
|     This setting can greatly improve the performance of VASP for DFT.       |
|     The default, NCORE=1 might be grossly inefficient on modern             |
|     multi-core architectures or massively parallel machines. Do your        |
|     Unfortunately you need to use the default for GW and RPA                |
|     calculations (for HF NCORE is supported but not extensively tested      |
|     yet).                                                                   |

 POTCAR:    PAW_PBE Au 04Oct2007
   VRHFIN =Au: s1d10

   TITEL  = PAW_PBE Au 04Oct2007
   POMASS =  196.966; ZVAL   =   11.000    mass and valenz
   ENMAX  =  229.943; ENMIN  =  172.457 eV

 POTCAR:    PAW_PBE Ir 06Sep2000
   VRHFIN =Ir: s1d8

   TITEL  = PAW_PBE Ir 06Sep2000
   POMASS =  192.220; ZVAL   =    9.000    mass and valenz
   ENMAX  =  210.864; ENMIN  =  158.148 eV

 POTCAR:    PAW_PBE O 08Apr2002
   VRHFIN =O: s2p4

   TITEL  = PAW_PBE O 08Apr2002
   POMASS =   16.000; ZVAL   =    6.000    mass and valenz
   ENMAX  =  400.000; ENMIN  =  300.000 eV

 Optimization of the real space projectors (new method)

 maximal supplied QI-value         = 15.12
 optimisation between [QCUT,QGAM] = [ 11.34, 22.83] = [ 36.00,145.93] Ry
 Optimized for a Real-space Cutoff    1.39 Angstroem

   l    n(q)    QCUT    max X(q) W(low)/X(q) W(high)/X(q)  e(spline)
   2      9    11.338    60.898    0.39E-03    0.42E-03    0.21E-06
   2      9    11.338    58.894    0.40E-03    0.42E-03    0.22E-06
   0      9    11.338   109.617    0.13E-03    0.20E-04    0.13E-06
   0      9    11.338    75.026    0.13E-03    0.20E-04    0.13E-06
   1      9    11.338    16.344    0.33E-04    0.24E-03    0.18E-06
   1      9    11.338    10.160    0.26E-04    0.19E-03    0.15E-06
 Optimization of the real space projectors (new method)

[...]

   l    n(q)    QCUT    max X(q) W(low)/X(q) W(high)/X(q)  e(spline)
   2      9    11.346   134.116    0.47E-03    0.13E-03    0.92E-06
   2      9    11.346   130.192    0.47E-03    0.13E-03    0.92E-06
   0     10    11.346    60.310    0.74E-04    0.13E-03    0.69E-06
   0     10    11.346    39.218    0.68E-04    0.12E-03    0.65E-06
   1     10    11.346    18.439    0.15E-03    0.34E-04    0.20E-06
   1     10    11.346    12.760    0.12E-03    0.31E-04    0.16E-06
 Optimization of the real space projectors (new method)

 maximal supplied QI-value         = 24.76
 optimisation between [QCUT,QGAM] = [ 11.39, 22.77] = [ 36.31,145.25] Ry
 Optimized for a Real-space Cutoff    1.00 Angstroem

   l    n(q)    QCUT    max X(q) W(low)/X(q) W(high)/X(q)  e(spline)
   0      7    11.387    20.381    0.39E-03    0.13E-02    0.15E-06
   0      7    11.387    15.268    0.42E-03    0.14E-02    0.17E-06
   1      6    11.387     5.964    0.41E-03    0.11E-02    0.17E-06
   1      6    11.387     5.382    0.39E-03    0.87E-03    0.15E-06
  PAW_PBE Au 04Oct2007                  :
  PAW_PBE Ir 06Sep2000                  :
  PAW_PBE O 08Apr2002                   :

 POSCAR: Au-Ir-O
  positions in direct lattice
  velocities in cartesian coordinates
 exchange correlation table for  LEXCH =        8
   RHO(1)=    0.500       N(1)  =     2000
   RHO(2)=  100.500       N(2)  =     4000

 VTST: version 3.2, (02/03/18)

 CHAIN: initializing optimizer

 OPT: Using VASP Conjugate-Gradient optimizer
 CHAIN: Read ICHAIN            0

 POSCAR: Au-Ir-O
  positions in direct lattice
  velocities in cartesian coordinates

 ion  position               nearest neighbor table
   1  0.000  0.000  0.238-  16 2.94  12 2.94   6 2.94   8 2.94   7 2.94   3 2.94  10 2.94   4 2.94
                             2 2.94
   2  0.333  0.000  0.238-   9 2.94  11 2.94  17 2.94  10 2.94   8 2.94   4 2.94   5 2.94   1 2.94
                             3 2.94
   3  0.667  0.000  0.238-   7 2.94  18 2.94  12 2.94   1 2.94  11 2.94   5 2.94   6 2.94   9 2.94
                             2 2.94
   4  0.000  0.333  0.238-  10 2.94   6 2.94   5 2.94  13 2.94   2 2.94  15 2.94   9 2.94   1 2.94
                             7 2.94
   5  0.333  0.333  0.238-  13 2.94   7 2.94  11 2.94   4 2.94   2 2.94  14 2.94   3 2.94   8 2.94
                             6 2.94
   6  0.667  0.333  0.238-  15 2.94  14 2.94   1 2.94  12 2.94   4 2.94   9 2.94   8 2.94   3 2.94
                             5 2.94
   7  0.000  0.667  0.238-  18 2.94   3 2.94  16 2.94   5 2.94   1 2.94  13 2.94   8 2.94   4 2.94
                             9 2.94
   8  0.333  0.667  0.238-   9 2.94  17 2.94   1 2.94   2 2.94  14 2.94  16 2.94   6 2.94   7 2.94
                             5 2.94
   9  0.667  0.667  0.238-   2 2.94   8 2.94  17 2.94   6 2.94  15 2.94   4 2.94   3 2.94  18 2.94
                             7 2.94
  10  0.111  0.111  0.346-  20 2.90  11 2.94  17 2.94   2 2.94   4 2.94   1 2.94  12 2.94  16 2.94
                            13 2.94  15 2.94  26 2.94  19 2.94
  11  0.444  0.111  0.346-  20 2.91  21 2.91  27 2.93  13 2.94   2 2.94  10 2.94  17 2.94   5 2.94
                             3 2.94  18 2.94  14 2.94  12 2.94
  12  0.778  0.111  0.346-  21 2.90  16 2.94  18 2.94   1 2.94  14 2.94  15 2.94   3 2.94   6 2.94
                            10 2.94  11 2.94  25 2.94  19 2.94
  13  0.111  0.444  0.346-  23 2.91  20 2.91  22 2.93   5 2.94  18 2.94  11 2.94   7 2.94   4 2.94
                            16 2.94  10 2.94  14 2.94  15 2.94
  14  0.444  0.444  0.346-  21 2.91  23 2.91  24 2.93  15 2.94   6 2.94  12 2.94   8 2.94  17 2.94
                             5 2.94  16 2.94  13 2.94  11 2.94
  15  0.778  0.444  0.346-  24 2.92  22 2.92  14 2.94   6 2.94  17 2.94  12 2.94   9 2.94   4 2.94
                            10 2.94  13 2.94  18 2.94  19 2.94
  16  0.111  0.778  0.346-  23 2.90  18 2.94  12 2.94   7 2.94   1 2.94   8 2.94  13 2.94  10 2.94
                            14 2.94  17 2.94  25 2.94  26 2.94
  17  0.444  0.778  0.346-  27 2.92  24 2.92   9 2.94  15 2.94   2 2.94  10 2.94  11 2.94   8 2.94
                            14 2.94  16 2.94  18 2.94  26 2.94
  18  0.778  0.778  0.346-  22 2.92  27 2.92  16 2.94   7 2.94  13 2.94  12 2.94   3 2.94  11 2.94
                             9 2.94  15 2.94  17 2.94  25 2.94
  19  0.889  0.223  0.454-  21 2.93  20 2.93  24 2.93  22 2.93  15 2.94  10 2.94  12 2.94  26 2.95
                            25 2.95  28 2.95  32 2.96  31 2.96
  20  0.222  0.222  0.452-  36 2.78  10 2.90  11 2.91  13 2.91  26 2.93  19 2.93  29 2.95  31 2.95
                            27 2.95  22 2.95  23 2.95  21 2.95
  21  0.557  0.222  0.452-  36 2.78  12 2.90  14 2.91  11 2.91  25 2.93  19 2.93  30 2.95  32 2.95
                            24 2.95  27 2.95  20 2.95  23 2.95
  22  0.887  0.557  0.453-  24 2.91  27 2.91  18 2.92  15 2.92  13 2.93  25 2.93  19 2.93  23 2.95
                            20 2.95  35 2.95  33 2.96  31 2.96
  23  0.222  0.557  0.452-  36 2.78  16 2.90  13 2.91  14 2.91  25 2.93  26 2.93  33 2.95  34 2.95
                            22 2.95  24 2.95  20 2.95  21 2.95
  24  0.557  0.557  0.453-  27 2.91  22 2.91  15 2.92  17 2.92  14 2.93  26 2.93  19 2.93  21 2.95
                            23 2.95  35 2.95  32 2.96  34 2.96
  25  0.889  0.889  0.454-  23 2.93  21 2.93  22 2.93  27 2.93  18 2.94  16 2.94  12 2.94  19 2.95
                            26 2.95  28 2.95  33 2.96  30 2.96
  26  0.223  0.889  0.454-  20 2.93  23 2.93  27 2.93  24 2.93  17 2.94  10 2.94  16 2.94  19 2.95
                            25 2.95  28 2.95  29 2.96  34 2.96
  27  0.557  0.887  0.453-  24 2.91  22 2.91  17 2.92  18 2.92  11 2.93  26 2.93  25 2.93  20 2.95
                            21 2.95  35 2.95  29 2.96  30 2.96
  28  0.000  0.000  0.563-  25 2.95  19 2.95  26 2.95  34 2.96  32 2.96  33 2.96  30 2.96  31 2.96
                            29 2.96
  29  0.333  0.005  0.562-  31 2.89  30 2.89  36 2.90  20 2.95  28 2.96  35 2.96  27 2.96  26 2.96
                            34 3.03
  30  0.661  0.005  0.562-  32 2.89  29 2.89  36 2.90  21 2.95  28 2.96  35 2.96  27 2.96  25 2.96
                            33 3.03
  31  0.005  0.333  0.562-  29 2.89  33 2.89  36 2.90  20 2.95  28 2.96  35 2.96  22 2.96  19 2.96
                            32 3.03
  32  0.661  0.333  0.562-  30 2.89  34 2.89  36 2.90  21 2.95  28 2.96  35 2.96  24 2.96  19 2.96
                            31 3.03
  33  0.005  0.661  0.562-  34 2.89  31 2.89  36 2.90  23 2.95  28 2.96  35 2.96  22 2.96  25 2.96
                            30 3.03
  34  0.333  0.661  0.562-  33 2.89  32 2.89  36 2.90  23 2.95  28 2.96  35 2.96  24 2.96  26 2.96
                            29 3.03
  35  0.667  0.667  0.563-  24 2.95  27 2.95  22 2.95  29 2.96  34 2.96  32 2.96  31 2.96  30 2.96
                            33 2.96
  36  0.333  0.333  0.551-  37 1.78  20 2.78  23 2.78  21 2.78  33 2.90  31 2.90  29 2.90  30 2.90
                            34 2.90  32 2.90
  37  0.333  0.333  0.632-  36 1.78

  LATTYP: Found a hexagonal cell.
 ALAT       =     8.8135128021
 C/A-ratio  =     2.5184286595

  Lattice vectors:

 A1 = (  -4.4067569092,  -7.6327256898,   0.0000000000)
 A2 = (   8.8135128021,   0.0000000000,   0.0000000000)
 A3 = (   0.0000000000,   0.0000000000,  22.1962032318)

Analysis of symmetry for initial positions (statically):
 Subroutine PRICEL returns:
 Original cell was already a primitive cell.

 Routine SETGRP: Setting up the symmetry group for a
 hexagonal supercell.

 Subroutine GETGRP returns: Found  6 space group operations
 (whereof  6 operations were pure point group operations)
 out of a pool of 24 trial point group operations.

The static configuration has the point symmetry C_3v.

Analysis of symmetry for dynamics (positions and initial velocities):
 Subroutine PRICEL returns:
 Original cell was already a primitive cell.

[...]

The dynamic configuration has the point symmetry C_3v.

Analysis of constrained symmetry for selective dynamics:
 Subroutine PRICEL returns:
 Original cell was already a primitive cell.

 Routine SETGRP: Setting up the symmetry group for a
 hexagonal supercell.

 Subroutine GETGRP returns: Found  6 space group operations
[...]
     24      -5.1433      2.00000
     25      -5.1191      2.00000
     26      -5.0969      2.00000
     27      -5.0430      2.00000
     28      -4.9711      2.00000
     29      -4.9661      2.00000
     30      -4.8808      2.00000
     31      -4.8495      2.00000
     32      -4.8307      2.00000
     33      -4.8230      2.00000
     34      -4.7952      2.00000
     35      -4.7772      2.00000
     36      -4.7213      2.00000
     37      -4.7055      2.00000
     38      -4.6864      2.00000
     39      -4.5715      2.00000
     40      -4.5653      2.00000
     41      -4.5279      2.00000
     42      -4.5081      2.00000
     43      -4.4548      2.00000
     44      -4.4346      2.00000
     45      -4.3507      2.00000
     46      -4.3231      2.00000
     47      -4.2873      2.00000
     48      -4.2404      2.00000
     49      -4.2179      2.00000
     50      -4.1852      2.00000
     51      -4.1751      2.00000
     52      -4.1634      2.00000
     53      -4.1385      2.00000
     54      -4.1224      2.00000
     55      -4.1047      2.00000
     56      -4.0625      2.00000
     57      -4.0325      2.00000
     58      -4.0220      2.00000
     59      -3.9978      2.00000
     60      -3.9884      2.00000
[...]
    238       6.4909      0.00000
    239       6.5484      0.00000
    240       6.5571      0.00000
    241       6.6744      0.00000
    242       6.7510      0.00000
    243       6.8067      0.00000
    244       6.8555      0.00000
    245       6.9203      0.00000
    246       7.1498      0.00000
    247       7.1604      0.00000
    248       7.2896      0.00000
    249       7.5032      0.00000
    250       7.6826      0.00000
    251       7.7608      0.00000
    252       7.8623      0.00000

 soft charge-density along one line, spin component           1
         0         1         2         3         4         5         6         7         8         9
 total charge-density along one line

------------------------ aborting loop because EDIFF is reached ----------------------------------------

 total charge

# of ion       s       p       d       tot
    1        0.546   0.238   8.769   9.553
    2        0.544   0.241   8.765   9.550
    3        0.544   0.241   8.765   9.550
    4        0.544   0.241   8.765   9.550
    5        0.543   0.241   8.763   9.548
    6        0.544   0.241   8.765   9.550
    7        0.544   0.241   8.765   9.550
    8        0.544   0.241   8.765   9.550
    9        0.541   0.240   8.765   9.546
   10        0.525   0.309   8.770   9.605
   11        0.519   0.311   8.777   9.607
   12        0.525   0.309   8.770   9.605
   13        0.519   0.311   8.777   9.607
   14        0.519   0.311   8.777   9.607
   15        0.515   0.308   8.779   9.602
   16        0.525   0.309   8.770   9.605
   17        0.515   0.308   8.779   9.602
   18        0.515   0.308   8.779   9.602
   19        0.516   0.303   8.776   9.595
   20        0.547   0.336   8.746   9.628
   21        0.547   0.336   8.746   9.628
   22        0.511   0.307   8.778   9.596
   23        0.547   0.336   8.746   9.628
   24        0.511   0.307   8.778   9.596
   25        0.516   0.303   8.776   9.595
   26        0.516   0.303   8.776   9.595
   27        0.511   0.307   8.778   9.596
   28        0.543   0.227   8.771   9.540
   29        0.533   0.240   8.770   9.542
   30        0.533   0.240   8.770   9.542
   31        0.533   0.240   8.770   9.542
   32        0.533   0.240   8.770   9.542
   33        0.533   0.240   8.770   9.542
   34        0.533   0.240   8.770   9.542
   35        0.535   0.230   8.769   9.534
   36        0.639   0.614   6.907   8.160
   37        1.608   3.207   0.000   4.815
tot         20.815  13.510 313.829 348.154

  FORCE on cell =-STRESS in cart. coord.  units (eV):
  Direction    XX          YY          ZZ          XY          YZ          ZX
  Alpha Z  1032.98006  1032.98006  1032.98006
  Ewald  119832.10442119832.10485************    -0.00033    -0.00008    -0.00013
  Hartree128621.95959128621.95960************     0.00001    -0.00002    -0.00003
  E(xc)   -1798.36963 -1798.36964 -1804.67342     0.00001     0.00000     0.00000
  Local  ************************260952.93933     0.00201     0.00001    -0.00001
  n-local  -113.94350   -61.46076   -58.38763    25.48344    -1.22761     1.65012
  augment  2414.35466  2414.35620  2423.02030    -0.00133     0.00002     0.00005
  Kinetic  5593.99439  5604.49553  5625.67331     5.26477     0.26189     0.32578
  Fock        0.00000     0.00000     0.00000     0.00000     0.00000     0.00000
  Total     -20.02206   -20.02206     2.92904    -0.00000     0.00000    -0.00000
  in kB     -21.48384   -21.48384     3.14288    -0.00000     0.00000    -0.00000

 VOLUME and BASIS-vectors are now :
  energy-cutoff  :      500.00
  volume of cell :     1493.16
      direct lattice vectors                 reciprocal lattice vectors
     8.813512802  0.000000000  0.000000000     0.113462137 -0.065507406  0.000000000
     4.406756909  7.632725690  0.000000000     0.000000000  0.131014796  0.000000000
     0.000000000  0.000000000 22.196203232     0.000000000  0.000000000  0.045052750

  length of vectors
     8.813512802  8.813512802 22.196203232     0.131014796  0.131014796  0.045052750

 FORCES acting on ions
    electron-ion (+dipol)            ewald-force                    non-local-force                 convergence-correction
   -.195E-04 -.162E-04 0.250E+04   0.519E-04 0.434E-04 -.249E+04   0.232E-17 -.165E-18 -.916E+00   -.296E-03 -.184E-03 -.469E+00
   0.395E+00 0.283E+00 0.250E+04   -.549E+00 -.367E+00 -.250E+04   0.492E-01 0.946E-01 -.280E+00   0.969E-01 0.103E-02 -.489E+00
   -.395E+00 0.283E+00 0.250E+04   0.549E+00 -.367E+00 -.250E+04   -.492E-01 0.946E-01 -.280E+00   -.965E-01 0.297E-02 -.489E+00
   0.443E+00 0.201E+00 0.250E+04   -.593E+00 -.292E+00 -.250E+04   0.106E+00 -.471E-02 -.280E+00   0.494E-01 0.833E-01 -.489E+00
   0.903E-05 -.230E-04 0.250E+04   0.952E-04 0.174E-05 -.250E+04   0.145E-17 -.207E-18 -.244E+00   0.432E-02 0.263E-02 -.467E+00
   -.443E+00 0.201E+00 0.250E+04   0.593E+00 -.292E+00 -.250E+04   -.106E+00 -.471E-02 -.280E+00   -.510E-01 0.842E-01 -.488E+00
   0.476E-01 -.484E+00 0.250E+04   -.437E-01 0.659E+00 -.250E+04   0.573E-01 -.899E-01 -.280E+00   -.456E-01 -.851E-01 -.489E+00
   -.476E-01 -.484E+00 0.250E+04   0.436E-01 0.659E+00 -.250E+04   -.573E-01 -.899E-01 -.280E+00   0.474E-01 -.862E-01 -.488E+00
   0.193E-04 -.416E-04 0.250E+04   0.166E-03 -.201E-04 -.250E+04   0.170E-17 -.286E-17 -.540E+00   -.456E-02 -.236E-02 -.460E+00
   0.620E+01 0.358E+01 0.854E+03   -.580E+01 -.335E+01 -.854E+03   -.391E+00 -.226E+00 -.722E+00   0.253E-01 0.145E-01 0.418E+00
   0.140E-04 0.424E+01 0.860E+03   0.149E-03 -.432E+01 -.860E+03   0.425E-08 0.638E-01 -.203E+00   0.437E-02 -.288E-01 0.504E+00
   -.620E+01 0.358E+01 0.854E+03   0.580E+01 -.335E+01 -.854E+03   0.391E+00 -.226E+00 -.722E+00   -.272E-01 0.158E-01 0.419E+00
   0.367E+01 -.212E+01 0.860E+03   -.374E+01 0.216E+01 -.860E+03   0.553E-01 -.319E-01 -.203E+00   -.225E-01 0.185E-01 0.504E+00
   -.367E+01 -.212E+01 0.860E+03   0.374E+01 0.216E+01 -.860E+03   -.553E-01 -.319E-01 -.203E+00   0.302E-01 0.173E-01 0.504E+00
   0.310E-04 0.302E+01 0.856E+03   0.236E-03 -.312E+01 -.856E+03   -.580E-09 -.872E-02 -.473E+00   -.250E-02 0.722E-01 0.389E+00
   -.213E-04 -.716E+01 0.854E+03   0.163E-03 0.670E+01 -.854E+03   0.301E-07 0.451E+00 -.722E+00   -.175E-03 -.314E-01 0.419E+00
   0.261E+01 -.151E+01 0.856E+03   -.270E+01 0.156E+01 -.856E+03   -.755E-02 0.436E-02 -.473E+00   0.615E-01 -.378E-01 0.389E+00
   -.261E+01 -.151E+01 0.856E+03   0.270E+01 0.156E+01 -.856E+03   0.755E-02 0.436E-02 -.473E+00   -.609E-01 -.354E-01 0.390E+00
   -.415E-04 0.431E+01 -.824E+03   0.530E-04 -.461E+01 0.822E+03   0.466E-08 0.700E-01 0.571E+00   -.466E-02 0.168E+00 0.123E+01
   0.144E+02 0.832E+01 -.778E+03   -.139E+02 -.801E+01 0.776E+03   -.852E+00 -.492E+00 -.607E+00   0.399E+00 0.230E+00 0.176E+01
   -.144E+02 0.832E+01 -.778E+03   0.139E+02 -.801E+01 0.776E+03   0.852E+00 -.492E+00 -.607E+00   -.397E+00 0.230E+00 0.176E+01
   0.619E+00 -.358E+00 -.810E+03   -.111E+01 0.640E+00 0.808E+03   0.383E+00 -.221E+00 0.699E+00   0.145E+00 -.821E-01 0.129E+01
   -.133E-04 -.166E+02 -.778E+03   0.143E-03 0.160E+02 0.776E+03   0.655E-07 0.983E+00 -.607E+00   0.470E-03 -.459E+00 0.176E+01
   -.619E+00 -.358E+00 -.810E+03   0.111E+01 0.640E+00 0.808E+03   -.383E+00 -.221E+00 0.699E+00   -.146E+00 -.840E-01 0.129E+01
   -.374E+01 -.216E+01 -.824E+03   0.399E+01 0.231E+01 0.822E+03   -.606E-01 -.350E-01 0.571E+00   -.150E+00 -.866E-01 0.123E+01
   0.374E+01 -.216E+01 -.824E+03   -.399E+01 0.231E+01 0.822E+03   0.606E-01 -.350E-01 0.571E+00   0.143E+00 -.880E-01 0.123E+01
   0.924E-05 0.715E+00 -.810E+03   0.200E-03 -.128E+01 0.808E+03   0.294E-07 0.442E+00 0.699E+00   0.106E-02 0.167E+00 0.129E+01
   -.116E-04 -.124E-04 -.246E+04   0.286E-04 0.341E-04 0.246E+04   0.459E-17 0.434E-18 0.437E+00   -.391E-03 -.244E-03 0.102E+01
   0.256E+02 0.444E+02 -.244E+04   -.260E+02 -.455E+02 0.244E+04   -.136E+00 0.210E-01 0.546E+00   0.418E+00 0.663E+00 0.105E+01
   -.256E+02 0.444E+02 -.244E+04   0.260E+02 -.455E+02 0.244E+04   0.136E+00 0.210E-01 0.546E+00   -.418E+00 0.664E+00 0.105E+01
   0.512E+02 -.476E-01 -.244E+04   -.524E+02 0.182E+00 0.244E+04   -.498E-01 -.128E+00 0.546E+00   0.783E+00 0.309E-01 0.105E+01
   -.512E+02 -.475E-01 -.244E+04   0.524E+02 0.182E+00 0.244E+04   0.498E-01 -.128E+00 0.546E+00   -.784E+00 0.313E-01 0.105E+01
   0.257E+02 -.443E+02 -.244E+04   -.264E+02 0.453E+02 0.244E+04   0.862E-01 0.107E+00 0.546E+00   0.366E+00 -.694E+00 0.105E+01
   -.257E+02 -.443E+02 -.244E+04   0.264E+02 0.453E+02 0.244E+04   -.862E-01 0.107E+00 0.546E+00   -.365E+00 -.695E+00 0.105E+01
   0.301E-04 -.284E-04 -.246E+04   0.145E-03 -.495E-04 0.246E+04   0.131E-17 0.169E-17 0.618E+00   -.430E-02 -.219E-02 0.942E+00
   -.113E-04 -.205E-04 -.171E+04   0.926E-04 0.834E-05 0.171E+04   -.368E-17 -.381E-17 0.243E+00   0.260E-02 0.158E-02 0.168E+01
   0.182E-03 -.999E-04 -.165E+04   0.229E-04 0.146E-05 0.168E+04   0.569E-17 0.974E-19 -.313E+02   0.366E-02 0.224E-02 -.423E+00
   -.539E-03 -.850E-03 0.110E+02   -.123E-12 0.843E-13 0.864E-11   0.114E-15 0.535E-16 -.323E+02   0.334E-02 0.264E-02 0.219E+02

 POSITION                                       TOTAL-FORCE (eV/Angst)
      0.00000      0.00000      5.28038        -0.000000     -0.000000     -0.118683
      2.93784      0.00000      5.28038        -0.007736      0.012126     -0.067027
      5.87568      0.00000      5.28038         0.007736      0.012126     -0.067027
      1.46892      2.54424      5.28038         0.006634     -0.012762     -0.067027
      4.40676      2.54424      5.28038        -0.000000     -0.000000     -0.085014
      7.34459      2.54424      5.28038        -0.006634     -0.012762     -0.067027
      2.93784      5.08848      5.28038         0.014369      0.000636     -0.067027
      5.87568      5.08848      5.28038        -0.014369      0.000636     -0.067027
      8.81351      5.08848      5.28038        -0.000000     -0.000000     -0.090861
      1.46892      0.84808      7.67911         0.031052      0.017928      0.146438
      4.40676      0.84808      7.67911        -0.000000     -0.050751      0.049172
      7.34459      0.84808      7.67911        -0.031052      0.017928      0.146438
      2.93784      3.39232      7.67911        -0.043952      0.025375      0.049172
      5.87568      3.39232      7.67911         0.043952      0.025375      0.049172
      8.81351      3.39232      7.67911        -0.000000     -0.041327      0.089564
      4.40676      5.93656      7.67911        -0.000000     -0.035856      0.146438
      7.34459      5.93656      7.67911        -0.035790      0.020663      0.089564
     10.28243      5.93656      7.67911         0.035790      0.020663      0.089564
      8.81351      1.70038     10.08128        -0.000000     -0.056934     -0.061928
      2.93047      1.69191     10.03818         0.087832      0.050710     -0.076029
      5.88304      1.69191     10.03818        -0.087832      0.050710     -0.076029
     10.26792      4.24878     10.06124         0.038378     -0.022158     -0.033085
      4.40676      4.24891     10.03818        -0.000000     -0.101419     -0.076029
      7.35911      4.24878     10.06124        -0.038378     -0.022158     -0.033085
     11.74770      6.78254     10.08128         0.049306      0.028467     -0.061928
      5.87933      6.78254     10.08128        -0.049306      0.028467     -0.061928
      8.81351      6.76789     10.06124         0.000000      0.044315     -0.033085
      0.00000      0.00000     12.49619        -0.000000     -0.000000     -0.020668
      2.96082      0.04010     12.48308        -0.195729     -0.412679     -0.138566
      5.85269      0.04010     12.48308         0.195729     -0.412679     -0.138566
      1.51514      2.54410     12.48308        -0.455255      0.036833     -0.138566
      7.29838      2.54410     12.48308         0.455255      0.036833     -0.138566
      2.96107      5.04853     12.48308        -0.259526      0.375846     -0.138566
      5.85244      5.04853     12.48308         0.259526      0.375846     -0.138566
      8.81351      5.08848     12.49171        -0.000000     -0.000000      0.047861
      4.40676      2.54424     12.23647        -0.000000     -0.000000      1.199617
      4.40676      2.54424     14.02116        -0.000000     -0.000000     -0.041089
    total drift:                                0.002800      0.001790      0.638048

  FREE ENERGIE OF THE ION-ELECTRON SYSTEM (eV)
  free  energy   TOTEN  =      -119.65642520 eV

  energy  without entropy=     -119.65642520  energy(sigma->0) =     -119.65642520

 stress matrix after NEB project (eV)
    -20.02206     -0.00000     -0.00000
     -0.00000    -20.02206      0.00000
      0.00000      0.00000      2.92904
  FORCES: max atom, RMS     0.041089    0.006755
  FORCE total and by dimension    0.041089    0.041089
  Stress total and by dimension   28.466561   20.022061
|           W    W    AA    RRRRR   N    N  II  N    N   GGGG   !!!           |
|           W    W   A  A   R    R  NN   N  II  NN   N  G    G  !!!           |
|           W    W  A    A  R    R  N N  N  II  N N  N  G       !!!           |
|           W WW W  AAAAAA  RRRRR   N  N N  II  N  N N  G  GGG   !            |
|           WW  WW  A    A  R   R   N   NN  II  N   NN  G    G                |
|           W    W  A    A  R    R  N    N  II  N    N   GGGG   !!!           |
|     Tetrahedron method does not include variations of the Fermi             |
|     occupations, so forces and stress will be inaccurate. We suggest        |
|     using a different smearing scheme ISMEAR = 1 or 2 for metals in         |
|     relaxations.                                                            |

 total charge

# of ion       s       p       d       tot
    1        0.546   0.238   8.769   9.553
    2        0.544   0.241   8.765   9.550
    3        0.544   0.241   8.765   9.550
    4        0.544   0.241   8.765   9.550
    5        0.543   0.241   8.763   9.548
    6        0.544   0.241   8.765   9.550
    7        0.544   0.241   8.765   9.550
    8        0.544   0.241   8.765   9.550
    9        0.541   0.240   8.765   9.546
   10        0.525   0.309   8.770   9.605
   11        0.519   0.311   8.777   9.607
   12        0.525   0.309   8.770   9.605
   13        0.519   0.311   8.777   9.607
   14        0.519   0.311   8.777   9.607
   15        0.515   0.308   8.779   9.602
   16        0.525   0.309   8.770   9.605
   17        0.515   0.308   8.779   9.602
   18        0.515   0.308   8.779   9.602
   19        0.516   0.303   8.776   9.595
   20        0.547   0.336   8.746   9.628
   21        0.547   0.336   8.746   9.628
   22        0.511   0.307   8.778   9.596
   23        0.547   0.336   8.746   9.628
   24        0.511   0.307   8.778   9.596
   25        0.516   0.303   8.776   9.595
   26        0.516   0.303   8.776   9.595
   27        0.511   0.307   8.778   9.596
   28        0.543   0.227   8.771   9.540
   29        0.533   0.240   8.770   9.542
   30        0.533   0.240   8.770   9.542
   31        0.533   0.240   8.770   9.542
   32        0.533   0.240   8.770   9.542
   33        0.533   0.240   8.770   9.542
   34        0.533   0.240   8.770   9.542
   35        0.535   0.230   8.769   9.534
   36        0.639   0.614   6.907   8.160
   37        1.608   3.207   0.000   4.815
tot         20.815  13.510 313.829 348.154

 BZINTS: Fermi energy:    0.665907;  400.000000 electrons
         Band energy:-0.125327E+04;  BLOECHL correction:   -0.052374