 vasp.6.2.0 18Jan21 (build Jun 12 2021 23:27:24) complex

 executed on             LinuxIFC date 2022.05.28  02:54:26

 INCAR:
   ISMEAR = -5
   SIGMA = 0.1
   ISPIN = 1
   EDIFF = 1.d-5
   EDIFFG = -0.01
   NSW = 0
   NELM = 150
   ENCUT = 500
   ISIF = 2
   IBRION = 2
   LREAL = Auto
   ALGO = Fast
   ICHARG = 11
   LORBIT = 10
   LCHARG = .F.
   LWAVE = .F.

 POTCAR:    PAW_PBE Cu 22Jun2005
 POTCAR:    PAW_PBE Pt 04Feb2005
 POTCAR:    PAW_PBE C 08Apr2002
 POTCAR:    PAW_PBE O 08Apr2002
|           W    W    AA    RRRRR   N    N  II  N    N   GGGG   !!!           |
|           W    W   A  A   R    R  NN   N  II  NN   N  G    G  !!!           |
|           W    W  A    A  R    R  N N  N  II  N N  N  G       !!!           |
|           W WW W  AAAAAA  RRRRR   N  N N  II  N  N N  G  GGG   !            |
|           WW  WW  A    A  R   R   N   NN  II  N   NN  G    G                |
|           W    W  A    A  R    R  N    N  II  N    N   GGGG   !!!           |
|     For optimal performance we recommend to set                             |
|       NCORE = 2 up to number-of-cores-per-socket                            |
|     This setting can greatly improve the performance of VASP for DFT.       |
|     The default, NCORE=1 might be grossly inefficient on modern             |
|     multi-core architectures or massively parallel machines. Do your        |
|     Unfortunately you need to use the default for GW and RPA                |
|     calculations (for HF NCORE is supported but not extensively tested      |
|     yet).                                                                   |

 POTCAR:    PAW_PBE Cu 22Jun2005
   VRHFIN =Cu: d10 p1

   TITEL  = PAW_PBE Cu 22Jun2005
   POMASS =   63.546; ZVAL   =   11.000    mass and valenz
   ENMAX  =  295.446; ENMIN  =  221.585 eV

 POTCAR:    PAW_PBE Pt 04Feb2005
   VRHFIN =Pt: s1d9

   TITEL  = PAW_PBE Pt 04Feb2005
   POMASS =  195.080; ZVAL   =   10.000    mass and valenz
   ENMAX  =  230.283; ENMIN  =  172.712 eV

 POTCAR:    PAW_PBE C 08Apr2002
   VRHFIN =C: s2p2

   TITEL  = PAW_PBE C 08Apr2002
   POMASS =   12.011; ZVAL   =    4.000    mass and valenz
   ENMAX  =  400.000; ENMIN  =  300.000 eV

 POTCAR:    PAW_PBE O 08Apr2002
   VRHFIN =O: s2p4

   TITEL  = PAW_PBE O 08Apr2002
   POMASS =   16.000; ZVAL   =    6.000    mass and valenz
   ENMAX  =  400.000; ENMIN  =  300.000 eV

 Optimization of the real space projectors (new method)

 maximal supplied QI-value         = 16.25
 optimisation between [QCUT,QGAM] = [ 11.38, 22.75] = [ 36.24,144.96] Ry
 Optimized for a Real-space Cutoff    1.52 Angstroem

   l    n(q)    QCUT    max X(q) W(low)/X(q) W(high)/X(q)  e(spline)
   2      9    11.376     4.610    0.21E-03    0.10E-03    0.26E-06
   2      9    11.376     8.522    0.33E-03    0.16E-03    0.37E-06
   0     10    11.376    51.609    0.62E-04    0.20E-04    0.13E-06
   0     10    11.376    27.747    0.54E-04    0.20E-04    0.13E-06
   1     10    11.376    20.408    0.13E-04    0.99E-04    0.19E-06
   1     10    11.376    13.425    0.12E-04    0.87E-04    0.17E-06
 Optimization of the real space projectors (new method)

[...]

   l    n(q)    QCUT    max X(q) W(low)/X(q) W(high)/X(q)  e(spline)
   0      7    11.310   115.676    0.43E-03    0.13E-02    0.19E-06
   0      7    11.310    87.132    0.43E-03    0.13E-02    0.18E-06
   1      6    11.310     4.429    0.42E-03    0.74E-03    0.11E-06
   1      6    11.310     2.733    0.34E-03    0.55E-03    0.92E-07
 Optimization of the real space projectors (new method)

 maximal supplied QI-value         = 24.76
 optimisation between [QCUT,QGAM] = [ 11.39, 22.77] = [ 36.31,145.25] Ry
 Optimized for a Real-space Cutoff    1.00 Angstroem

   l    n(q)    QCUT    max X(q) W(low)/X(q) W(high)/X(q)  e(spline)
   0      7    11.387    20.381    0.39E-03    0.13E-02    0.15E-06
   0      7    11.387    15.268    0.42E-03    0.14E-02    0.17E-06
   1      6    11.387     5.964    0.41E-03    0.11E-02    0.17E-06
   1      6    11.387     5.382    0.39E-03    0.87E-03    0.15E-06
  PAW_PBE Cu 22Jun2005                  :
  PAW_PBE Pt 04Feb2005                  :
  PAW_PBE C 08Apr2002                   :
  PAW_PBE O 08Apr2002                   :

 POSCAR: Cu-Pt-CO2
  positions in direct lattice
  velocities in cartesian coordinates
 exchange correlation table for  LEXCH =        8
   RHO(1)=    0.500       N(1)  =     2000
   RHO(2)=  100.500       N(2)  =     4000

 VTST: version 3.2, (02/03/18)

 CHAIN: initializing optimizer

 OPT: Using VASP Conjugate-Gradient optimizer
 CHAIN: Read ICHAIN            0

 POSCAR: Cu-Pt-CO2
  positions in direct lattice
  velocities in cartesian coordinates

 ion  position               nearest neighbor table
   1  0.000  0.000  0.229-   7 2.57   3 2.57   4 2.57   2 2.57   6 2.57   8 2.57  12 2.57  10 2.57
                            16 2.57
   2  0.333  0.000  0.229-   8 2.57   9 2.57   5 2.57   1 2.57   3 2.57  11 2.57   4 2.57  10 2.57
                            17 2.57
   3  0.667  0.000  0.229-   1 2.57   7 2.57   6 2.57   9 2.57   2 2.57  12 2.57   5 2.57  18 2.57
                            11 2.57
   4  0.000  0.333  0.229-   5 2.57   6 2.57   1 2.57   7 2.57   2 2.57  13 2.57   9 2.57  10 2.57
                            15 2.57
   5  0.333  0.333  0.229-   4 2.57   2 2.57   7 2.57  13 2.57   8 2.57   6 2.57   3 2.57  11 2.57
                            14 2.57
   6  0.667  0.333  0.229-   4 2.57   9 2.57  15 2.57   3 2.57   1 2.57   8 2.57  14 2.57   5 2.57
                            12 2.57
   7  0.000  0.667  0.229-   1 2.57   3 2.57  16 2.57  18 2.57   4 2.57   5 2.57   8 2.57   9 2.57
                            13 2.57
   8  0.333  0.667  0.229-   9 2.57   2 2.57  17 2.57   6 2.57   1 2.57   7 2.57   5 2.57  14 2.57
                            16 2.57
   9  0.667  0.667  0.229-   8 2.57   6 2.57   2 2.57  17 2.57   3 2.57   7 2.57   4 2.57  15 2.57
                            18 2.57
  10  0.111  0.111  0.318-  20 2.53  26 2.56  19 2.56  11 2.57  12 2.57  13 2.57   1 2.57   2 2.57
                             4 2.57  15 2.57  16 2.57  17 2.57
  11  0.444  0.111  0.318-  20 2.55  21 2.55  27 2.56  10 2.57  13 2.57   2 2.57  17 2.57  14 2.57
                            12 2.57   5 2.57   3 2.57  18 2.57
  12  0.778  0.111  0.318-  21 2.53  19 2.56  25 2.56  15 2.57  10 2.57  14 2.57  18 2.57   3 2.57
                             1 2.57  16 2.57  11 2.57   6 2.57
  13  0.111  0.444  0.318-  23 2.55  20 2.55  22 2.56  16 2.57  18 2.57  10 2.57  11 2.57  14 2.57
                             5 2.57   4 2.57   7 2.57  15 2.57
  14  0.444  0.444  0.318-  21 2.55  23 2.55  24 2.56  15 2.57  17 2.57  12 2.57  16 2.57  13 2.57
                            11 2.57   6 2.57   8 2.57   5 2.57
  15  0.778  0.444  0.318-  19 2.56  24 2.56  22 2.56  14 2.57  17 2.57  12 2.57   6 2.57  18 2.57
                            10 2.57   9 2.57  13 2.57   4 2.57
  16  0.111  0.778  0.318-  23 2.53  25 2.56  26 2.56  18 2.57  13 2.57   7 2.57  14 2.57  17 2.57
                            12 2.57  10 2.57   8 2.57   1 2.57
  17  0.444  0.778  0.318-  26 2.56  27 2.56  24 2.56  14 2.57  15 2.57   8 2.57   9 2.57  11 2.57
                            16 2.57  18 2.57  10 2.57   2 2.57
  18  0.778  0.778  0.318-  25 2.56  22 2.56  27 2.56  16 2.57  13 2.57   7 2.57  15 2.57  12 2.57
                            17 2.57   9 2.57   3 2.57  11 2.57
  19  0.888  0.223  0.407-  28 2.54  32 2.55  31 2.55  21 2.55  20 2.55  15 2.56  12 2.56  10 2.56
                            22 2.56  24 2.56  25 2.58  26 2.58
  20  0.221  0.221  0.406-  10 2.53  11 2.55  13 2.55  26 2.55  19 2.55  27 2.57  22 2.57  29 2.59
                            31 2.59  36 2.60  23 2.60  21 2.60
  21  0.558  0.221  0.406-  12 2.53  14 2.55  11 2.55  19 2.55  25 2.55  24 2.57  27 2.57  32 2.59
                            30 2.59  36 2.60  20 2.60  23 2.60
  22  0.889  0.556  0.407-  35 2.54  18 2.56  15 2.56  13 2.56  19 2.56  25 2.56  24 2.56  27 2.56
                            31 2.57  33 2.57  23 2.57  20 2.57
  23  0.221  0.558  0.406-  16 2.53  13 2.55  14 2.55  25 2.55  26 2.55  22 2.57  24 2.57  33 2.59
                            34 2.59  36 2.60  20 2.60  21 2.60
  24  0.556  0.556  0.407-  35 2.54  15 2.56  17 2.56  14 2.56  19 2.56  26 2.56  22 2.56  27 2.56
                            32 2.57  34 2.57  21 2.57  23 2.57
  25  0.888  0.888  0.407-  28 2.54  33 2.55  30 2.55  21 2.55  23 2.55  18 2.56  16 2.56  12 2.56
                            22 2.56  27 2.56  19 2.58  26 2.58
  26  0.223  0.888  0.407-  28 2.54  29 2.55  34 2.55  20 2.55  23 2.55  17 2.56  10 2.56  16 2.56
                            27 2.56  24 2.56  25 2.58  19 2.58
  27  0.556  0.889  0.407-  35 2.54  17 2.56  18 2.56  11 2.56  26 2.56  25 2.56  24 2.56  22 2.56
                            29 2.57  30 2.57  20 2.57  21 2.57
  28  0.000  0.000  0.495-  25 2.54  19 2.54  26 2.54  33 2.55  30 2.55  31 2.55  29 2.55  32 2.55
                            34 2.55
  29  0.333  0.997  0.496-  34 2.52  26 2.55  28 2.55  35 2.56  27 2.57  31 2.59  20 2.59  36 2.59
                            30 2.59
  30  0.670  0.997  0.496-  33 2.52  25 2.55  28 2.55  35 2.56  27 2.57  32 2.59  21 2.59  36 2.59
                            29 2.59
  31  0.997  0.333  0.496-  32 2.52  19 2.55  28 2.55  35 2.56  22 2.57  29 2.59  20 2.59  36 2.59
                            33 2.59
  32  0.670  0.333  0.496-  31 2.52  19 2.55  28 2.55  35 2.56  24 2.57  30 2.59  21 2.59  36 2.59
                            34 2.59
  33  0.997  0.670  0.496-  30 2.52  25 2.55  28 2.55  35 2.56  22 2.57  34 2.59  23 2.59  36 2.59
                            31 2.59
  34  0.333  0.670  0.496-  29 2.52  26 2.55  28 2.55  35 2.56  24 2.57  33 2.59  23 2.59  36 2.59
                            32 2.59
  35  0.667  0.667  0.495-  24 2.54  27 2.54  22 2.54  34 2.56  32 2.56  29 2.56  30 2.56  33 2.56
                            31 2.56
  36  0.333  0.333  0.497-  31 2.59  29 2.59  33 2.59  34 2.59  32 2.59  30 2.59  23 2.60  20 2.60
                            21 2.60
  37  0.332  0.337  0.655-  39 1.18  38 1.18
  38  0.179  0.337  0.655-  37 1.18
  39  0.484  0.337  0.655-  37 1.18

  LATTYP: Found a hexagonal cell.
 ALAT       =     7.6967864036
 C/A-ratio  =     3.0484540560

  Lattice vectors:

 A1 = (  -3.8483927580,  -6.6656128093,   0.0000000000)
 A2 = (   7.6967864037,   0.0000000000,   0.0000000000)
 A3 = (   0.0000000000,   0.0000000000,  23.4632997305)

Analysis of symmetry for initial positions (statically):
 Subroutine PRICEL returns:
 Original cell was already a primitive cell.

 Routine SETGRP: Setting up the symmetry group for a
 hexagonal supercell.

 Subroutine GETGRP returns: Found  2 space group operations
 (whereof  2 operations were pure point group operations)
 out of a pool of 24 trial point group operations.

The static configuration has the point symmetry C_1h.

Analysis of symmetry for dynamics (positions and initial velocities):
 Subroutine PRICEL returns:
 Original cell was already a primitive cell.

[...]

The dynamic configuration has the point symmetry C_1h.

Analysis of constrained symmetry for selective dynamics:
 Subroutine PRICEL returns:
[...]
     41      -4.2249      2.00000
     42      -4.1878      2.00000
     43      -4.1402      2.00000
     44      -4.0933      2.00000
     45      -3.9592      2.00000
     46      -3.9428      2.00000
     47      -3.9123      2.00000
     48      -3.8842      2.00000
     49      -3.8646      2.00000
     50      -3.8607      2.00000
     51      -3.8350      2.00000
     52      -3.8232      2.00000
     53      -3.8200      2.00000
     54      -3.6503      2.00000
     55      -3.6463      2.00000
     56      -3.6048      2.00000
     57      -3.5963      2.00000
     58      -3.5528      2.00000
     59      -3.5495      2.00000
     60      -3.5305      2.00000
[...]
    238       5.2185      0.00000
    239       5.3098      0.00000
    240       5.4646      0.00000
    241       5.5368      0.00000
    242       5.6123      0.00000
    243       5.8766      0.00000
    244       5.8909      0.00000
    245       6.1012      0.00000
    246       6.1708      0.00000
    247       6.2006      0.00000
    248       6.2740      0.00000
    249       6.2891      0.00000
    250       6.3385      0.00000
    251       6.3909      0.00000
    252       6.6166      0.00000

 soft charge-density along one line, spin component           1
         0         1         2         3         4         5         6         7         8         9
 total charge-density along one line

------------------------ aborting loop because EDIFF is reached ----------------------------------------

 total charge

# of ion       s       p       d       tot
    1        0.446   0.286   9.189   9.921
    2        0.449   0.284   9.188   9.921
    3        0.449   0.284   9.188   9.921
    4        0.449   0.284   9.188   9.921
    5        0.447   0.286   9.186   9.919
    6        0.449   0.284   9.188   9.921
    7        0.449   0.284   9.188   9.921
    8        0.449   0.284   9.188   9.921
    9        0.448   0.284   9.187   9.918
   10        0.441   0.375   9.177   9.992
   11        0.444   0.369   9.182   9.994
   12        0.441   0.375   9.177   9.992
   13        0.444   0.369   9.182   9.994
   14        0.444   0.369   9.182   9.994
   15        0.439   0.370   9.180   9.989
   16        0.441   0.375   9.177   9.992
   17        0.439   0.370   9.180   9.989
   18        0.439   0.370   9.180   9.989
   19        0.443   0.375   9.181   9.999
   20        0.438   0.376   9.186  10.001
   21        0.438   0.376   9.186  10.001
   22        0.438   0.373   9.182   9.993
   23        0.439   0.376   9.186  10.001
   24        0.438   0.373   9.182   9.993
   25        0.443   0.375   9.182  10.000
   26        0.443   0.375   9.182  10.000
   27        0.439   0.373   9.182   9.993
   28        0.452   0.291   9.194   9.938
   29        0.449   0.301   9.187   9.936
   30        0.449   0.301   9.187   9.936
   31        0.448   0.299   9.187   9.935
   32        0.448   0.299   9.187   9.935
   33        0.449   0.301   9.186   9.936
   34        0.449   0.301   9.186   9.936
   35        0.448   0.294   9.193   9.936
   36        0.717   0.426   8.144   9.287
   37        0.932   1.799   0.000   2.732
   38        1.607   3.530   0.000   5.137
   39        1.607   3.530   0.000   5.137
tot         20.425  20.943 329.602 370.970

  FORCE on cell =-STRESS in cart. coord.  units (eV):
  Direction    XX          YY          ZZ          XY          YZ          ZX
  Alpha Z   849.77651   849.77651   849.77651
  Ewald  211012.43121210211.72480************     0.00039    -0.17367     0.00016
  Hartree223927.24648223547.77125************     0.00004    -0.23982     0.00006
  E(xc)   -2364.67068 -2366.77958 -2371.61267    -0.00031     0.00012    -0.00003
  Local  ************************447231.75124     0.02031     0.40347    -0.00071
  n-local  -803.47139  -797.53289  -813.60056     1.92380     0.04554     0.16003
  augment  3369.84972  3372.56744  3391.40178    -0.01836     0.00322     0.00037
  Kinetic  3552.80311  3618.03895  3646.81136     0.91744     0.00881    -0.15522
  Fock        0.00000     0.00000     0.00000     0.00000     0.00000     0.00000
  Total      -1.82342    -1.92140     4.21108     0.00000     0.04767    -0.00000
  in kB      -2.42694    -2.55735     5.60487     0.00000     0.06344    -0.00000

 VOLUME and BASIS-vectors are now :
  energy-cutoff  :      500.00
  volume of cell :     1203.76
      direct lattice vectors                 reciprocal lattice vectors
     7.696786404  0.000000000  0.000000000     0.129924354 -0.075011849  0.000000000
     3.848392758  6.665612809  0.000000000     0.000000000  0.150023716  0.000000000
     0.000000000  0.000000000 23.463299730     0.000000000  0.000000000  0.042619751

  length of vectors
     7.696786404  7.696786404 23.463299730     0.150023716  0.150023716  0.042619751

 FORCES acting on ions
    electron-ion (+dipol)            ewald-force                    non-local-force                 convergence-correction
   -.416E-04 0.235E-01 0.373E+04   0.580E-04 -.136E-01 -.373E+04   0.378E-09 -.568E-02 -.240E+01   -.327E-03 -.488E-02 -.900E+00
   -.271E+00 0.199E-01 0.373E+04   0.151E+00 0.113E+00 -.373E+04   0.998E-02 -.381E-01 -.197E+01   0.112E+00 -.952E-01 -.713E+00
   0.271E+00 0.199E-01 0.373E+04   -.151E+00 0.113E+00 -.373E+04   -.998E-02 -.381E-01 -.197E+01   -.111E+00 -.928E-01 -.712E+00
   -.143E+00 -.254E+00 0.373E+04   0.184E+00 0.658E-01 -.373E+04   -.210E-01 0.293E-01 -.200E+01   -.204E-01 0.158E+00 -.714E+00
   -.624E-04 -.130E-01 0.373E+04   0.116E-03 -.159E-02 -.373E+04   0.199E-09 -.298E-02 -.189E+01   0.121E-01 0.175E-01 -.671E+00
   0.143E+00 -.254E+00 0.373E+04   -.185E+00 0.656E-01 -.373E+04   0.210E-01 0.293E-01 -.200E+01   0.189E-01 0.159E+00 -.713E+00
   0.146E+00 0.230E+00 0.373E+04   0.339E-01 -.178E+00 -.373E+04   -.374E-01 0.884E-02 -.198E+01   -.140E+00 -.601E-01 -.705E+00
   -.146E+00 0.230E+00 0.373E+04   -.342E-01 -.178E+00 -.373E+04   0.374E-01 0.884E-02 -.198E+01   0.144E+00 -.615E-01 -.705E+00
   -.144E-03 -.195E-02 0.373E+04   0.263E-03 0.152E-01 -.373E+04   -.384E-09 0.576E-02 -.222E+01   -.131E-01 -.179E-01 -.663E+00
   0.124E+01 0.832E+00 0.133E+04   -.126E+01 -.844E+00 -.133E+04   -.723E-01 -.404E-01 -.865E+00   0.102E+00 0.582E-01 -.125E+00
   -.908E-04 -.187E+01 0.133E+04   0.191E-03 0.202E+01 -.132E+04   0.549E-08 -.825E-01 -.835E+00   0.118E-01 -.788E-01 -.981E-01
   -.124E+01 0.832E+00 0.133E+04   0.126E+01 -.844E+00 -.133E+04   0.723E-01 -.404E-01 -.865E+00   -.104E+00 0.588E-01 -.126E+00
   -.172E+01 0.915E+00 0.133E+04   0.185E+01 -.100E+01 -.132E+04   -.671E-01 0.352E-01 -.837E+00   -.668E-01 0.598E-01 -.954E-01
   0.172E+01 0.915E+00 0.133E+04   -.185E+01 -.100E+01 -.132E+04   0.671E-01 0.352E-01 -.837E+00   0.900E-01 0.581E-01 -.985E-01
   -.140E-03 -.386E+00 0.133E+04   0.298E-03 0.616E-01 -.133E+04   -.445E-08 0.668E-01 -.800E+00   -.298E-02 0.241E+00 -.239E+00
   -.885E-04 -.148E+01 0.133E+04   0.186E-03 0.151E+01 -.133E+04   -.555E-08 0.834E-01 -.855E+00   -.118E-02 -.123E+00 -.126E+00
   -.272E+00 0.118E+00 0.133E+04   -.282E-02 0.520E-01 -.133E+04   0.603E-01 -.351E-01 -.778E+00   0.201E+00 -.129E+00 -.238E+00
   0.272E+00 0.118E+00 0.133E+04   0.260E-02 0.519E-01 -.133E+04   -.603E-01 -.351E-01 -.778E+00   -.200E+00 -.127E+00 -.236E+00
   -.576E-04 0.879E+00 -.109E+04   0.690E-04 -.790E+00 0.109E+04   0.847E-08 -.127E+00 0.565E+00   0.108E-02 0.421E-01 0.100E-01
   -.290E+02 -.161E+02 -.110E+04   0.285E+02 0.158E+02 0.110E+04   0.329E+00 0.202E+00 0.561E+00   0.200E+00 0.116E+00 0.120E+00
   0.290E+02 -.161E+02 -.110E+04   -.285E+02 0.158E+02 0.110E+04   -.329E+00 0.202E+00 0.561E+00   -.221E+00 0.114E+00 0.119E+00
   -.160E+02 0.843E+01 -.110E+04   0.155E+02 -.814E+01 0.110E+04   0.363E+00 -.225E+00 0.850E+00   0.130E+00 -.565E-01 -.157E+00
   -.911E-04 0.327E+02 -.110E+04   0.147E-03 -.320E+02 0.110E+04   0.255E-07 -.383E+00 0.563E+00   -.139E-01 -.252E+00 0.118E+00
   0.160E+02 0.843E+01 -.110E+04   -.155E+02 -.814E+01 0.110E+04   -.363E+00 -.225E+00 0.850E+00   -.106E+00 -.568E-01 -.157E+00
   -.282E+00 0.540E-01 -.109E+04   0.197E+00 -.103E+00 0.109E+04   0.119E+00 0.702E-01 0.545E+00   -.380E-01 -.241E-01 0.975E-02
   0.282E+00 0.540E-01 -.109E+04   -.197E+00 -.103E+00 0.109E+04   -.119E+00 0.702E-01 0.545E+00   0.371E-01 -.220E-01 0.102E-01
   -.122E-03 -.183E+02 -.110E+04   0.245E-03 0.177E+02 0.110E+04   -.279E-07 0.418E+00 0.848E+00   0.113E-01 0.139E+00 -.153E+00
   -.343E-04 0.437E+01 -.349E+04   0.397E-04 -.436E+01 0.349E+04   0.915E-10 -.137E-02 0.227E+01   -.109E-03 -.649E-02 0.807E+00
   -.173E+02 -.211E+02 -.350E+04   0.173E+02 0.208E+02 0.349E+04   -.651E-01 0.224E+00 0.183E+01   0.702E-01 0.151E+00 0.723E+00
   0.173E+02 -.211E+02 -.350E+04   -.173E+02 0.208E+02 0.349E+04   0.651E-01 0.224E+00 0.183E+01   -.697E-01 0.152E+00 0.722E+00
   -.294E+02 -.107E+01 -.349E+04   0.290E+02 0.124E+01 0.348E+04   0.183E+00 -.159E+00 0.196E+01   0.175E+00 -.838E-02 0.723E+00
   0.294E+02 -.107E+01 -.349E+04   -.290E+02 0.124E+01 0.348E+04   -.183E+00 -.159E+00 0.196E+01   -.175E+00 -.762E-02 0.724E+00
   -.145E+02 0.221E+02 -.350E+04   0.142E+02 -.219E+02 0.349E+04   0.214E+00 -.657E-01 0.183E+01   0.101E+00 -.143E+00 0.720E+00
   0.145E+02 0.221E+02 -.350E+04   -.142E+02 -.219E+02 0.349E+04   -.214E+00 -.657E-01 0.183E+01   -.983E-01 -.144E+00 0.722E+00
   -.160E-03 -.482E+01 -.349E+04   0.256E-03 0.482E+01 0.349E+04   -.336E-09 0.505E-02 0.241E+01   -.123E-01 -.996E-02 0.749E+00
   -.426E-04 0.583E+00 -.312E+04   0.123E-03 -.593E+00 0.312E+04   -.113E-09 0.170E-02 0.192E+01   0.202E-02 0.875E-02 0.543E+00
   0.259E-05 0.386E+00 -.115E+04   0.467E-06 -.387E+00 0.115E+04   -.246E-09 0.369E-02 0.544E-01   0.324E-04 0.102E-03 0.101E-02
   0.257E+03 -.124E+00 -.173E+04   -.321E+03 0.174E+00 0.173E+04   0.637E+02 -.527E-01 0.181E-01   0.182E-01 -.115E-02 0.999E-02
   -.257E+03 -.125E+00 -.173E+04   0.321E+03 0.174E+00 0.173E+04   -.637E+02 -.527E-01 0.181E-01   -.183E-01 -.113E-02 0.991E-02
   0.390E-04 0.952E-01 0.343E+01   0.568E-13 -.312E-12 0.227E-12   0.733E-08 -.110E+00 -.202E+01   0.251E-01 0.989E-02 -.150E+01

 POSITION                                       TOTAL-FORCE (eV/Angst)
      0.00000      0.00000      5.37156         0.000000     -0.000566      0.113731
      2.56560      0.00000      5.37156         0.001194      0.000506      0.070444
      5.13119      0.00000      5.37156        -0.001194      0.000506      0.070444
      1.28280      2.22187      5.37156         0.001022     -0.000551      0.069785
      3.84839      2.22187      5.37156        -0.000000      0.000053      0.069220
      6.41399      2.22187      5.37156        -0.001022     -0.000551      0.069785
      2.56560      4.44374      5.37156         0.001075     -0.000005      0.070167
      5.13119      4.44374      5.37156        -0.001075     -0.000005      0.070167
      7.69679      4.44374      5.37156        -0.000000      0.001266      0.064937
      1.28280      0.74062      7.46636         0.009123      0.006504     -0.072471
      3.84839      0.74062      7.46636         0.000000     -0.009469     -0.112014
      6.41399      0.74062      7.46636        -0.009123      0.006504     -0.072471
      2.56560      2.96249      7.46636        -0.008977      0.005873     -0.112268
      5.13119      2.96249      7.46636         0.008977      0.005873     -0.112268
      7.69679      2.96249      7.46636         0.000000     -0.016245     -0.056718
      3.84839      5.18437      7.46636         0.000000     -0.011562     -0.071601
      6.41399      5.18437      7.46636        -0.013670      0.007272     -0.054916
      8.97958      5.18437      7.46636         0.013670      0.007272     -0.054916
      7.69679      1.48680      9.55287        -0.000000      0.003783      0.002707
      2.54973      1.47208      9.52995         0.003458      0.000762     -0.011153
      5.14706      1.47208      9.52995        -0.003458      0.000762     -0.011153
      8.97744      3.70436      9.55084        -0.018471      0.010776     -0.006673
      3.84839      3.72144      9.52995         0.000000     -0.004324     -0.009747
      6.41613      3.70436      9.55084         0.018471      0.010776     -0.006673
     10.25757      5.92221      9.55287        -0.003441     -0.001284     -0.002514
      5.13600      5.92221      9.55287         0.003441     -0.001284     -0.002514
      7.69679      5.92251      9.55084         0.000000     -0.020144     -0.009289
      0.00000      0.00000     11.61595         0.000000     -0.003384      0.017907
      6.40108      6.64688     11.64473        -0.003211     -0.013278      0.008571
      8.99249      6.64688     11.64473         0.003211     -0.013278      0.008571
      8.95691      2.22006     11.64473        -0.011558      0.001258      0.016383
      6.43666      2.22006     11.64473         0.011558      0.001258      0.016383
     10.25261      4.46428     11.64473        -0.004584      0.012432      0.008859
      5.14096      4.46428     11.64473         0.004584      0.012432      0.008859
      7.69679      4.44374     11.61500        -0.000000      0.003614      0.014011
      3.84839      2.22187     11.65010        -0.000000      0.001435      0.003513
      3.84839      2.24529     15.36995        -0.000000      0.002746      0.000787
      2.67179      2.24617     15.37255        -0.002415     -0.003864      0.002064
      5.02499      2.24617     15.37255         0.002415     -0.003864      0.002064
    total drift:                                0.025096     -0.004936     -0.101375

  FREE ENERGIE OF THE ION-ELECTRON SYSTEM (eV)
  free  energy   TOTEN  =      -151.84476592 eV

  energy  without entropy=     -151.84476592  energy(sigma->0) =     -151.84476592

 stress matrix after NEB project (eV)
     -1.82342      0.00000     -0.00000
      0.00000     -1.92140      0.04767
     -0.00000      0.04767      4.21108
  FORCES: max atom, RMS     0.005002    0.001222
  FORCE total and by dimension    0.007630    0.003864
  Stress total and by dimension    4.975378    4.211082
|           W    W    AA    RRRRR   N    N  II  N    N   GGGG   !!!           |
|           W    W   A  A   R    R  NN   N  II  NN   N  G    G  !!!           |
|           W    W  A    A  R    R  N N  N  II  N N  N  G       !!!           |
|           W WW W  AAAAAA  RRRRR   N  N N  II  N  N N  G  GGG   !            |
|           WW  WW  A    A  R   R   N   NN  II  N   NN  G    G                |
|           W    W  A    A  R    R  N    N  II  N    N   GGGG   !!!           |
|     Tetrahedron method does not include variations of the Fermi             |
|     occupations, so forces and stress will be inaccurate. We suggest        |
|     using a different smearing scheme ISMEAR = 1 or 2 for metals in         |
|     relaxations.                                                            |

 total charge

# of ion       s       p       d       tot
    1        0.446   0.286   9.189   9.921
    2        0.449   0.284   9.188   9.921
    3        0.449   0.284   9.188   9.921
    4        0.449   0.284   9.188   9.921
    5        0.447   0.286   9.186   9.919
    6        0.449   0.284   9.188   9.921
    7        0.449   0.284   9.188   9.921
    8        0.449   0.284   9.188   9.921
    9        0.448   0.284   9.187   9.918
   10        0.441   0.375   9.177   9.992
   11        0.444   0.369   9.182   9.994
   12        0.441   0.375   9.177   9.992
   13        0.444   0.369   9.182   9.994
   14        0.444   0.369   9.182   9.994
   15        0.439   0.370   9.180   9.989
   16        0.441   0.375   9.177   9.992
   17        0.439   0.370   9.180   9.989
   18        0.439   0.370   9.180   9.989
   19        0.443   0.375   9.181   9.999
   20        0.438   0.376   9.186  10.001
   21        0.438   0.376   9.186  10.001
   22        0.438   0.373   9.182   9.993
   23        0.439   0.376   9.186  10.001
   24        0.438   0.373   9.182   9.993
   25        0.443   0.375   9.182  10.000
   26        0.443   0.375   9.182  10.000
   27        0.439   0.373   9.182   9.993
   28        0.452   0.291   9.194   9.938
   29        0.449   0.301   9.187   9.936
   30        0.449   0.301   9.187   9.936
   31        0.448   0.299   9.187   9.935
   32        0.448   0.299   9.187   9.935
   33        0.449   0.301   9.186   9.936
   34        0.449   0.301   9.186   9.936
   35        0.448   0.294   9.193   9.936
   36        0.717   0.426   8.144   9.287
   37        0.932   1.799   0.000   2.732
   38        1.607   3.530   0.000   5.137
   39        1.607   3.530   0.000   5.137
tot         20.425  20.943 329.602 370.970

 BZINTS: Fermi energy:   -0.182709;  411.000000 electrons
         Band energy:-0.134712E+04;  BLOECHL correction:   -0.075789