 vasp.6.2.0 18Jan21 (build Jun 12 2021 23:27:24) complex

 executed on             LinuxIFC date 2022.05.28  02:16:24

 INCAR:
   ISMEAR = -5
   SIGMA = 0.1
   ISPIN = 1
   EDIFF = 1.d-5
   EDIFFG = -0.01
   NSW = 0
   NELM = 150
   ENCUT = 500
   ISIF = 2
   IBRION = 2
   LREAL = Auto
   ALGO = Fast
   ICHARG = 11
   LORBIT = 10
   LCHARG = .F.
   LWAVE = .F.

 POTCAR:    PAW_PBE Cu 22Jun2005
 POTCAR:    PAW_PBE V 08Apr2002
 POTCAR:    PAW_PBE O 08Apr2002
 POTCAR:    PAW_PBE H 15Jun2001
|           W    W    AA    RRRRR   N    N  II  N    N   GGGG   !!!           |
|           W    W   A  A   R    R  NN   N  II  NN   N  G    G  !!!           |
|           W    W  A    A  R    R  N N  N  II  N N  N  G       !!!           |
|           W WW W  AAAAAA  RRRRR   N  N N  II  N  N N  G  GGG   !            |
|           WW  WW  A    A  R   R   N   NN  II  N   NN  G    G                |
|           W    W  A    A  R    R  N    N  II  N    N   GGGG   !!!           |
|     For optimal performance we recommend to set                             |
|       NCORE = 2 up to number-of-cores-per-socket                            |
|     This setting can greatly improve the performance of VASP for DFT.       |
|     The default, NCORE=1 might be grossly inefficient on modern             |
|     multi-core architectures or massively parallel machines. Do your        |
|     Unfortunately you need to use the default for GW and RPA                |
|     calculations (for HF NCORE is supported but not extensively tested      |
|     yet).                                                                   |

 POTCAR:    PAW_PBE Cu 22Jun2005
   VRHFIN =Cu: d10 p1

   TITEL  = PAW_PBE Cu 22Jun2005
   POMASS =   63.546; ZVAL   =   11.000    mass and valenz
   ENMAX  =  295.446; ENMIN  =  221.585 eV

 POTCAR:    PAW_PBE V 08Apr2002
   VRHFIN =V: p6 d4 s1

   TITEL  = PAW_PBE V 08Apr2002
   POMASS =   50.941; ZVAL   =    5.000    mass and valenz
   ENMAX  =  192.543; ENMIN  =  144.408 eV

 POTCAR:    PAW_PBE O 08Apr2002
   VRHFIN =O: s2p4

   TITEL  = PAW_PBE O 08Apr2002
   POMASS =   16.000; ZVAL   =    6.000    mass and valenz
   ENMAX  =  400.000; ENMIN  =  300.000 eV

 POTCAR:    PAW_PBE H 15Jun2001
   VRHFIN =H: ultrasoft test

   TITEL  = PAW_PBE H 15Jun2001
   POMASS =    1.000; ZVAL   =    1.000    mass and valenz
   ENMAX  =  250.000; ENMIN  =  200.000 eV

 Optimization of the real space projectors (new method)

 maximal supplied QI-value         = 16.25
 optimisation between [QCUT,QGAM] = [ 11.38, 22.75] = [ 36.24,144.96] Ry
 Optimized for a Real-space Cutoff    1.52 Angstroem

   l    n(q)    QCUT    max X(q) W(low)/X(q) W(high)/X(q)  e(spline)
   2      9    11.376     4.610    0.21E-03    0.10E-03    0.26E-06
   2      9    11.376     8.522    0.33E-03    0.16E-03    0.37E-06
   0     10    11.376    51.609    0.62E-04    0.20E-04    0.13E-06
   0     10    11.376    27.747    0.54E-04    0.20E-04    0.13E-06
   1     10    11.376    20.408    0.13E-04    0.99E-04    0.19E-06
   1     10    11.376    13.425    0.12E-04    0.87E-04    0.17E-06
 Optimization of the real space projectors (new method)

[...]

   l    n(q)    QCUT    max X(q) W(low)/X(q) W(high)/X(q)  e(spline)
   0      7    11.387    20.381    0.39E-03    0.13E-02    0.15E-06
   0      7    11.387    15.268    0.42E-03    0.14E-02    0.17E-06
   1      6    11.387     5.964    0.41E-03    0.11E-02    0.17E-06
   1      6    11.387     5.382    0.39E-03    0.87E-03    0.15E-06
 Optimization of the real space projectors (new method)

 maximal supplied QI-value         = 34.20
 optimisation between [QCUT,QGAM] = [ 11.29, 22.57] = [ 35.68,142.71] Ry
 Optimized for a Real-space Cutoff    1.16 Angstroem

   l    n(q)    QCUT    max X(q) W(low)/X(q) W(high)/X(q)  e(spline)
   0      8    11.287    19.460    0.40E-03    0.73E-03    0.16E-06
   0      8    11.287    12.209    0.38E-03    0.70E-03    0.15E-06
   1      7    11.287     4.655    0.22E-03    0.25E-04    0.22E-06
  PAW_PBE Cu 22Jun2005                  :
  PAW_PBE V 08Apr2002                   :
  PAW_PBE O 08Apr2002                   :
  PAW_PBE H 15Jun2001                   :

 POSCAR: Cu-V-OOH
  positions in direct lattice
  velocities in cartesian coordinates
 exchange correlation table for  LEXCH =        8
   RHO(1)=    0.500       N(1)  =     2000
   RHO(2)=  100.500       N(2)  =     4000

 VTST: version 3.2, (02/03/18)

 CHAIN: initializing optimizer

 OPT: Using VASP Conjugate-Gradient optimizer
 CHAIN: Read ICHAIN            0

 POSCAR: Cu-V-OOH
  positions in direct lattice
  velocities in cartesian coordinates

 ion  position               nearest neighbor table
   1  0.000  0.000  0.212-   7 2.57   3 2.57   4 2.57   2 2.57   6 2.57   8 2.57  12 2.57  10 2.57
                            16 2.57
   2  0.333  0.000  0.212-   8 2.57   9 2.57   5 2.57   1 2.57   3 2.57  11 2.57   4 2.57  10 2.57
                            17 2.57
   3  0.667  0.000  0.212-   1 2.57   7 2.57   6 2.57   9 2.57   2 2.57  12 2.57   5 2.57  18 2.57
                            11 2.57
   4  0.000  0.333  0.212-   5 2.57   6 2.57   1 2.57   7 2.57   2 2.57  13 2.57   9 2.57  10 2.57
                            15 2.57
   5  0.333  0.333  0.212-   4 2.57   2 2.57   7 2.57  13 2.57   8 2.57   6 2.57   3 2.57  11 2.57
                            14 2.57
   6  0.667  0.333  0.212-   4 2.57   9 2.57  15 2.57   3 2.57   1 2.57   8 2.57  14 2.57   5 2.57
                            12 2.57
   7  0.000  0.667  0.212-   1 2.57   3 2.57  16 2.57  18 2.57   4 2.57   5 2.57   8 2.57   9 2.57
                            13 2.57
   8  0.333  0.667  0.212-   9 2.57   2 2.57  17 2.57   6 2.57   1 2.57   7 2.57   5 2.57  14 2.57
                            16 2.57
   9  0.667  0.667  0.212-   8 2.57   6 2.57   2 2.57  17 2.57   3 2.57   7 2.57   4 2.57  15 2.57
                            18 2.57
  10  0.111  0.111  0.294-  26 2.56  19 2.56  20 2.56  11 2.57  12 2.57  13 2.57   1 2.57   2 2.57
                             4 2.57  15 2.57  16 2.57  17 2.57
  11  0.444  0.111  0.294-  20 2.56  21 2.56  10 2.57  13 2.57   2 2.57  17 2.57  14 2.57  12 2.57
                             5 2.57   3 2.57  18 2.57  27 2.57
  12  0.778  0.111  0.294-  19 2.56  25 2.56  21 2.56  15 2.57  10 2.57  14 2.57  18 2.57   3 2.57
                             1 2.57  16 2.57  11 2.57   6 2.57
  13  0.111  0.444  0.294-  23 2.56  20 2.56  16 2.57  18 2.57  10 2.57  11 2.57  14 2.57   5 2.57
                             4 2.57   7 2.57  15 2.57  22 2.57
  14  0.444  0.444  0.294-  21 2.56  23 2.56  15 2.57  17 2.57  12 2.57  16 2.57  13 2.57  11 2.57
                             6 2.57   8 2.57   5 2.57  24 2.57
  15  0.778  0.444  0.294-  19 2.56  24 2.57  22 2.57  14 2.57  17 2.57  12 2.57   6 2.57  18 2.57
                            10 2.57   9 2.57  13 2.57   4 2.57
  16  0.111  0.778  0.294-  25 2.56  26 2.56  23 2.56  18 2.57  13 2.57   7 2.57  14 2.57  17 2.57
                            12 2.57  10 2.57   8 2.57   1 2.57
  17  0.444  0.778  0.294-  26 2.56  27 2.57  24 2.57  14 2.57  15 2.57   8 2.57   9 2.57  11 2.57
                            16 2.57  18 2.57  10 2.57   2 2.57
  18  0.778  0.778  0.294-  25 2.56  22 2.57  27 2.57  16 2.57  13 2.57   7 2.57  15 2.57  12 2.57
                            17 2.57   9 2.57   3 2.57  11 2.57
  19  0.889  0.222  0.376-  12 2.56  10 2.56  15 2.56  28 2.56  25 2.56  26 2.56  21 2.57  20 2.57
                            22 2.57  24 2.57  32 2.58  31 2.58
  20  0.222  0.222  0.376-  36 2.54  11 2.56  13 2.56  10 2.56  23 2.56  21 2.56  26 2.57  19 2.57
                            27 2.57  22 2.57  29 2.57  31 2.57
  21  0.555  0.222  0.376-  36 2.54  14 2.56  11 2.56  12 2.56  20 2.56  23 2.56  19 2.57  25 2.57
                            24 2.57  27 2.57  32 2.57  30 2.57
  22  0.888  0.556  0.377-  24 2.56  27 2.56  35 2.56  18 2.57  15 2.57  19 2.57  25 2.57  31 2.57
                            33 2.57  13 2.57  23 2.57  20 2.57
  23  0.222  0.555  0.376-  36 2.54  13 2.56  14 2.56  16 2.56  20 2.56  21 2.56  25 2.57  26 2.57
                            22 2.57  24 2.57  33 2.57  34 2.57
  24  0.556  0.556  0.377-  22 2.56  27 2.56  35 2.56  15 2.57  17 2.57  19 2.57  26 2.57  32 2.57
                            34 2.57  14 2.57  21 2.57  23 2.57
  25  0.889  0.889  0.376-  12 2.56  16 2.56  18 2.56  28 2.56  19 2.56  26 2.56  21 2.57  23 2.57
                            22 2.57  27 2.57  33 2.58  30 2.58
  26  0.222  0.889  0.376-  10 2.56  16 2.56  17 2.56  28 2.56  25 2.56  19 2.56  20 2.57  23 2.57
                            27 2.57  24 2.57  29 2.58  34 2.58
  27  0.556  0.888  0.377-  24 2.56  22 2.56  35 2.56  17 2.57  18 2.57  26 2.57  25 2.57  29 2.57
                            30 2.57  11 2.57  20 2.57  21 2.57
  28  0.000  0.000  0.459-  38 2.04  25 2.56  19 2.56  26 2.56  33 2.57  30 2.57  31 2.57  29 2.57
                            32 2.57  34 2.57
  29  0.333  0.000  0.459-  30 2.56  36 2.56  31 2.56  27 2.57  35 2.57  28 2.57  20 2.57  34 2.57
                            26 2.58
  30  0.666  0.000  0.459-  29 2.56  36 2.56  32 2.56  27 2.57  35 2.57  28 2.57  21 2.57  33 2.57
                            25 2.58
  31  0.000  0.333  0.459-  38 2.03  33 2.56  36 2.56  29 2.56  22 2.57  35 2.57  28 2.57  20 2.57
                            32 2.57  19 2.58
  32  0.666  0.333  0.459-  38 2.06  37 2.16  34 2.56  36 2.56  30 2.56  24 2.57  35 2.57  28 2.57
                            21 2.57  31 2.57  19 2.58
  33  0.000  0.666  0.459-  31 2.56  36 2.56  34 2.56  22 2.57  35 2.57  28 2.57  23 2.57  30 2.57
                            25 2.58
  34  0.333  0.666  0.459-  37 2.10  32 2.56  36 2.56  33 2.56  24 2.57  35 2.57  28 2.57  23 2.57
                            29 2.57  26 2.58
  35  0.667  0.667  0.459-  24 2.56  27 2.56  22 2.56  34 2.57  32 2.57  29 2.57  30 2.57  33 2.57
                            31 2.57
  36  0.333  0.333  0.458-  37 1.71  23 2.54  20 2.54  21 2.54  31 2.56  29 2.56  33 2.56  32 2.56
                            34 2.56  30 2.56
  37  0.409  0.421  0.510-  36 1.71  34 2.10  32 2.16
  38  0.893  0.220  0.514-  39 0.97  31 2.03  28 2.04  32 2.06
  39  0.859  0.239  0.552-  38 0.97

  LATTYP: Found a hexagonal cell.
 ALAT       =     7.6967864036
 C/A-ratio  =     3.2973366172

  Lattice vectors:

 A1 = (  -3.8483927580,  -6.6656128093,   0.0000000000)
 A2 = (   7.6967864037,   0.0000000000,   0.0000000000)
 A3 = (   0.0000000000,   0.0000000000,  25.3788956434)

Analysis of symmetry for initial positions (statically):
 Subroutine PRICEL returns:
 Original cell was already a primitive cell.

 Routine SETGRP: Setting up the symmetry group for a
 hexagonal supercell.

 Subroutine GETGRP returns: Found  1 space group operations
 (whereof  1 operations were pure point group operations)
 out of a pool of 24 trial point group operations.

The static configuration has the point symmetry C_1 .

Analysis of symmetry for dynamics (positions and initial velocities):
 Subroutine PRICEL returns:
 Original cell was already a primitive cell.

[...]

The dynamic configuration has the point symmetry C_1 .

[...]
     41      -4.4644      2.00000
     42      -4.3978      2.00000
     43      -4.3494      2.00000
     44      -4.3131      2.00000
     45      -4.2925      2.00000
     46      -4.2768      2.00000
     47      -4.2126      2.00000
     48      -4.2037      2.00000
     49      -4.1893      2.00000
     50      -4.1762      2.00000
     51      -4.1576      2.00000
     52      -4.1358      2.00000
     53      -4.0902      2.00000
     54      -3.9941      2.00000
     55      -3.9746      2.00000
     56      -3.9480      2.00000
     57      -3.9388      2.00000
     58      -3.9088      2.00000
     59      -3.8898      2.00000
     60      -3.8755      2.00000
[...]
    238       5.2312      0.00000
    239       5.2941      0.00000
    240       5.4098      0.00000
    241       5.4808      0.00000
    242       5.5419      0.00000
    243       5.6679      0.00000
    244       5.8318      0.00000
    245       5.8752      0.00000
    246       5.9385      0.00000
    247       6.0051      0.00000
    248       6.2293      0.00000
    249       6.3383      0.00000
    250       6.4740      0.00000
    251       6.7373      0.00000
    252       6.8156      0.00000

 soft charge-density along one line, spin component           1
         0         1         2         3         4         5         6         7         8         9
 total charge-density along one line

------------------------ aborting loop because EDIFF is reached ----------------------------------------

 total charge

# of ion       s       p       d       tot
    1        0.448   0.284   9.188   9.920
    2        0.446   0.287   9.185   9.918
    3        0.447   0.287   9.184   9.919
    4        0.448   0.286   9.185   9.919
    5        0.448   0.285   9.184   9.917
    6        0.449   0.283   9.188   9.920
    7        0.448   0.285   9.186   9.919
    8        0.449   0.283   9.188   9.920
    9        0.446   0.285   9.186   9.917
   10        0.444   0.369   9.180   9.992
   11        0.439   0.370   9.181   9.989
   12        0.444   0.370   9.178   9.992
   13        0.442   0.367   9.182   9.991
   14        0.440   0.368   9.182   9.990
   15        0.440   0.368   9.179   9.988
   16        0.442   0.372   9.176   9.990
   17        0.438   0.372   9.175   9.985
   18        0.439   0.371   9.177   9.987
   19        0.442   0.372   9.182   9.996
   20        0.460   0.393   9.162  10.015
   21        0.456   0.405   9.151  10.012
   22        0.434   0.374   9.180   9.987
   23        0.463   0.392   9.161  10.016
   24        0.432   0.379   9.176   9.986
   25        0.440   0.372   9.176   9.989
   26        0.437   0.376   9.174   9.987
   27        0.436   0.367   9.187   9.991
   28        0.412   0.331   9.198   9.941
   29        0.472   0.304   9.172   9.947
   30        0.462   0.293   9.191   9.946
   31        0.442   0.354   9.167   9.963
   32        0.405   0.369   9.191   9.965
   33        0.463   0.295   9.184   9.942
   34        0.429   0.333   9.189   9.950
   35        0.444   0.281   9.202   9.927
   36        0.580   0.772   3.656   5.008
   37        1.596   3.331   0.000   4.927
   38        1.549   3.534   0.000   5.083
   39        0.608   0.120   0.000   0.728
tot         19.860  19.639 324.982 364.482

  FORCE on cell =-STRESS in cart. coord.  units (eV):
  Direction    XX          YY          ZZ          XY          YZ          ZX
  Alpha Z   754.50698   754.50698   754.50698
  Ewald  257594.83216257624.31396************   -59.51916   -32.31760   -78.32706
  Hartree270339.92022270383.68673************   -65.93032   -44.23912   -73.97019
  E(xc)   -2332.56104 -2332.59432 -2336.22424    -0.09707    -0.21349    -0.49544
  Local  ************************540913.36847   126.48538    80.90299   150.08220
  n-local  -801.81459  -802.47904  -815.16417     1.22430     1.05259     2.34010
  augment  3341.16644  3342.01954  3356.80690    -0.39860    -0.64346    -0.58423
  Kinetic  3443.03357  3444.05437  3443.96965    -1.17193    -4.32313     1.29580
  Fock        0.00000     0.00000     0.00000     0.00000     0.00000     0.00000
  Total      -2.34378    -2.91114    -0.91202     0.59259     0.21877     0.34118
  in kB      -2.88407    -3.58222    -1.12225     0.72920     0.26921     0.41983

 VOLUME and BASIS-vectors are now :
  energy-cutoff  :      500.00
  volume of cell :     1302.03
      direct lattice vectors                 reciprocal lattice vectors
     7.696786404  0.000000000  0.000000000     0.129924354 -0.075011849  0.000000000
     3.848392758  6.665612809  0.000000000     0.000000000  0.150023716  0.000000000
     0.000000000  0.000000000 25.378895643     0.000000000  0.000000000  0.039402818

  length of vectors
     7.696786404  7.696786404 25.378895643     0.150023716  0.150023716  0.039402818

 FORCES acting on ions
    electron-ion (+dipol)            ewald-force                    non-local-force                 convergence-correction
   -.993E-01 0.207E+00 0.389E+04   0.501E-01 -.249E+00 -.389E+04   0.428E-01 0.492E-01 -.236E+01   0.121E-01 -.717E-02 -.261E+00
   -.973E+00 -.575E+00 0.389E+04   0.777E+00 0.485E+00 -.389E+04   0.137E+00 0.165E+00 -.197E+01   0.677E-01 -.709E-01 -.259E+00
   0.961E+00 -.262E+00 0.389E+04   -.827E+00 0.274E+00 -.389E+04   -.991E-01 0.106E-01 -.189E+01   -.415E-01 -.323E-01 -.313E+00
   -.109E+01 -.508E+00 0.389E+04   0.105E+01 0.334E+00 -.389E+04   0.960E-01 0.507E-01 -.164E+01   -.358E-01 0.115E+00 -.234E+00
   0.147E+00 -.129E-01 0.389E+04   -.211E+00 -.836E-01 -.388E+04   -.159E-01 0.207E-01 -.185E+01   0.626E-01 0.658E-01 -.214E+00
   0.967E+00 -.505E+00 0.389E+04   -.837E+00 0.271E+00 -.389E+04   -.113E+00 0.602E-01 -.181E+01   -.231E-01 0.156E+00 -.246E+00
   -.620E-01 0.905E+00 0.389E+04   0.603E-01 -.755E+00 -.389E+04   0.322E-01 -.104E+00 -.191E+01   -.358E-01 -.460E-01 -.260E+00
   0.254E+00 0.950E+00 0.389E+04   -.218E+00 -.602E+00 -.389E+04   -.110E+00 -.222E+00 -.199E+01   0.677E-01 -.115E+00 -.233E+00
   -.811E-01 -.168E+00 0.389E+04   0.157E+00 0.325E+00 -.389E+04   -.511E-02 -.679E-01 -.218E+01   -.729E-01 -.689E-01 -.312E+00
   -.682E+01 -.171E+01 0.136E+04   0.710E+01 0.200E+01 -.135E+04   -.257E+00 -.236E+00 -.724E+00   -.301E-01 -.509E-01 -.293E+00
   0.982E+00 -.366E+01 0.134E+04   -.877E+00 0.353E+01 -.134E+04   -.954E-01 0.625E-01 -.789E-01   -.131E-01 0.574E-01 -.300E+00
   0.576E+01 -.585E+00 0.136E+04   -.622E+01 0.685E+00 -.136E+04   0.433E+00 -.159E+00 -.104E+01   0.415E-01 0.717E-01 -.300E+00
   -.472E+01 0.193E+01 0.134E+04   0.433E+01 -.197E+01 -.134E+04   0.268E+00 0.137E-01 -.373E+00   0.831E-01 0.350E-01 -.294E+00
   0.636E+01 0.194E+01 0.135E+04   -.588E+01 -.185E+01 -.135E+04   -.440E+00 -.152E+00 -.558E+00   -.485E-02 0.689E-01 -.298E+00
   -.149E+01 -.323E+01 0.136E+04   0.155E+01 0.303E+01 -.136E+04   0.495E-02 0.108E+00 -.869E+00   -.688E-01 0.830E-01 -.326E+00
   0.582E+00 0.606E+01 0.135E+04   -.703E+00 -.622E+01 -.135E+04   0.455E-01 0.257E+00 -.108E+01   0.869E-01 -.906E-01 -.297E+00
   -.219E+01 -.109E+01 0.135E+04   0.195E+01 0.109E+01 -.135E+04   0.189E+00 0.488E-01 -.940E+00   0.144E-01 -.829E-01 -.326E+00
   0.148E+01 0.367E+00 0.135E+04   -.125E+01 -.295E+00 -.135E+04   -.124E+00 0.273E-02 -.627E+00   -.648E-01 -.782E-01 -.295E+00
   -.797E+01 -.367E+01 -.115E+04   0.771E+01 0.361E+01 0.115E+04   0.212E+00 0.764E-01 0.438E+00   0.210E-01 0.461E-01 0.120E-01
   -.574E+02 -.256E+02 -.125E+04   0.576E+02 0.253E+02 0.125E+04   -.479E+00 0.131E+00 -.906E-01   -.650E-02 0.128E+00 0.119E+00
   0.644E+02 -.159E+02 -.123E+04   -.652E+02 0.161E+02 0.123E+04   0.907E+00 -.334E+00 -.595E+00   -.275E-02 0.125E+00 0.912E-01
   -.309E+02 0.197E+01 -.120E+04   0.305E+02 -.176E+01 0.120E+04   0.375E+00 -.185E+00 0.702E+00   0.554E-01 -.102E+00 0.223E-01
   0.120E+02 0.524E+02 -.124E+04   -.120E+02 -.537E+02 0.124E+04   0.178E-01 0.142E+01 -.445E+00   0.124E-02 -.609E-01 0.130E+00
   0.193E+02 -.398E+01 -.118E+04   -.186E+02 0.407E+01 0.118E+04   -.593E+00 -.114E+00 0.164E+00   -.711E-01 -.261E-01 -.291E-01
   0.146E+02 0.155E+02 -.118E+04   -.146E+02 -.153E+02 0.118E+04   0.130E-01 -.104E+00 0.718E+00   0.258E-01 -.169E-01 0.417E-01
   -.140E+02 0.587E+01 -.118E+04   0.138E+02 -.584E+01 0.118E+04   0.128E+00 0.101E-01 0.856E+00   -.323E-02 -.632E-01 -.444E-01
   -.561E+00 -.279E+02 -.121E+04   0.752E+00 0.278E+02 0.121E+04   -.141E+00 0.643E-01 0.117E+01   -.475E-01 -.111E-01 -.571E-01
   -.529E+01 0.148E+03 -.359E+04   0.506E+01 -.152E+03 0.359E+04   0.253E+00 0.379E+01 0.332E+01   -.483E-01 0.352E-01 0.303E+00
   -.831E+02 -.570E+02 -.372E+04   0.846E+02 0.576E+02 0.372E+04   -.139E+01 -.103E+01 0.186E+01   0.303E-01 0.207E+00 0.315E+00
   0.883E+02 -.112E+02 -.371E+04   -.901E+02 0.104E+02 0.371E+04   0.150E+01 0.340E+00 0.278E+01   0.261E-01 0.625E-01 0.315E+00
   -.224E+03 -.698E+02 -.360E+04   0.229E+03 0.719E+02 0.360E+04   -.459E+01 -.185E+01 0.325E+01   0.225E+00 0.411E-01 0.363E+00
   0.107E+03 -.263E+02 -.352E+04   -.107E+03 0.263E+02 0.351E+04   0.432E-02 -.660E-01 0.473E+01   -.120E+00 0.362E-01 0.311E+00
   -.126E+02 0.579E+02 -.372E+04   0.114E+02 -.580E+02 0.372E+04   0.861E+00 0.503E+00 0.214E+01   0.507E-01 -.177E+00 0.287E+00
   0.311E+02 -.494E+02 -.364E+04   -.304E+02 0.534E+02 0.363E+04   -.564E+00 -.331E+01 0.397E+01   -.104E+00 -.226E+00 0.229E+00
   -.286E+02 -.672E+02 -.372E+04   0.284E+02 0.686E+02 0.372E+04   0.290E+00 -.987E+00 0.313E+01   0.603E-01 -.762E-01 0.317E+00
   0.756E+02 0.444E+02 -.159E+04   -.754E+02 -.445E+02 0.159E+04   -.363E+00 0.510E-01 -.133E-02   -.243E-01 0.446E-01 0.136E+00
   0.888E+02 0.250E+02 -.250E+04   -.832E+02 -.218E+02 0.252E+04   -.545E+01 -.308E+01 -.246E+02   -.141E+00 -.979E-01 -.134E+00
   -.332E+02 0.161E+02 -.254E+04   0.417E+02 -.217E+02 0.252E+04   -.850E+01 0.561E+01 0.202E+02   0.329E-01 0.139E-01 0.613E-01
   0.125E+02 -.840E+01 -.476E+03   -.141E+02 0.943E+01 0.484E+03   0.165E+01 -.102E+01 -.797E+01   0.312E-02 0.732E-03 -.630E-03
   0.159E+02 0.278E+00 0.105E+02   0.355E-13 0.355E-13 0.102E-11   -.159E+02 -.179E+00 -.827E+01   0.887E-02 -.108E+00 -.227E+01

 POSITION                                       TOTAL-FORCE (eV/Angst)
      0.00000      0.00000      5.37156         0.004379      0.000416     -0.014874
      2.56560      0.00000      5.37156         0.007622      0.004485      0.072115
      5.13119      0.00000      5.37156        -0.008219     -0.009618      0.097532
      1.28280      2.22187      5.37156         0.020255     -0.007344      0.069684
      3.84839      2.22187      5.37156        -0.019363     -0.009780      0.046854
      6.41399      2.22187      5.37156        -0.007570     -0.017486      0.045657
      2.56560      4.44374      5.37156        -0.006648     -0.000127      0.062787
      5.13119      4.44374      5.37156        -0.007371      0.011334      0.041402
      7.69679      4.44374      5.37156        -0.003306      0.020515      0.055979
      1.28280      0.74062      7.46636        -0.014982     -0.002077     -0.103479
      3.84839      0.74062      7.46636        -0.005482     -0.006567     -0.009786
      6.41399      0.74062      7.46636         0.009022      0.012948     -0.128476
      2.56560      2.96249      7.46636        -0.044513      0.008564     -0.056177
      5.13119      2.96249      7.46636         0.036259      0.007768     -0.092233
      7.69679      2.96249      7.46636        -0.010139     -0.011059     -0.046565
      3.84839      5.18437      7.46636         0.009879      0.000145     -0.104517
      6.41399      5.18437      7.46636        -0.032893     -0.026792     -0.016054
      8.97958      5.18437      7.46636         0.040017     -0.003775      0.014641
      7.69679      1.48017      9.54910        -0.031014      0.054196     -0.044414
      2.56637      1.48170      9.55121        -0.260686     -0.057309     -0.222162
      5.13041      1.48170      9.55121         0.108838      0.013820      0.061537
      8.97729      3.70444      9.56154         0.014155     -0.076437      0.050144
      3.84839      3.70222      9.55121         0.021666      0.083814     -0.115473
      6.41628      3.70444      9.56154        -0.013624     -0.058800      0.046164
     10.26332      5.92553      9.54910         0.061344      0.040339      0.122423
      5.13026      5.92553      9.54910        -0.051336     -0.022494      0.222080
      7.69679      5.92234      9.56154         0.000502      0.019670     -0.001289
      0.00000      0.00000     11.64072        -0.024443     -0.548007      0.025462
      2.56831      0.00307     11.65724         0.177019     -0.212607     -0.230252
      5.12847      0.00307     11.65724        -0.196791     -0.400862     -0.295665
      1.28681      2.22269     11.65724         0.415551      0.264878      0.173713
      6.40997      2.22269     11.65724         0.017514     -0.055096      0.222103
      2.56689      4.43985     11.65724        -0.296564      0.175240     -0.269300
      5.12989      4.43985     11.65724         0.100407      0.448777      0.035229
      7.69679      4.44374     11.65596         0.157726      0.359775     -0.216878
      3.84839      2.22187     11.62023        -0.170850     -0.010079      0.507511
      4.77094      2.80745     12.93161        -0.004262      0.002877     -0.003358
      7.72431      1.46790     13.05227         0.001031      0.004597     -0.008966
      7.52634      1.59108     13.99680         0.006868      0.002160      0.006900
    total drift:                                0.052676     -0.009469     -0.070530

  FREE ENERGIE OF THE ION-ELECTRON SYSTEM (eV)
  free  energy   TOTEN  =      -148.72917903 eV

  energy  without entropy=     -148.72917903  energy(sigma->0) =     -148.72917903

 stress matrix after NEB project (eV)
     -2.34378      0.59259      0.34118
      0.59259     -2.91114      0.21877
      0.34118      0.21877     -0.91202
  FORCES: max atom, RMS     0.010128    0.002479
  FORCE total and by dimension    0.015484    0.008966
  Stress total and by dimension    3.978783    2.911145
|           W    W    AA    RRRRR   N    N  II  N    N   GGGG   !!!           |
|           W    W   A  A   R    R  NN   N  II  NN   N  G    G  !!!           |
|           W    W  A    A  R    R  N N  N  II  N N  N  G       !!!           |
|           W WW W  AAAAAA  RRRRR   N  N N  II  N  N N  G  GGG   !            |
|           WW  WW  A    A  R   R   N   NN  II  N   NN  G    G                |
|           W    W  A    A  R    R  N    N  II  N    N   GGGG   !!!           |
|     Tetrahedron method does not include variations of the Fermi             |
|     occupations, so forces and stress will be inaccurate. We suggest        |
|     using a different smearing scheme ISMEAR = 1 or 2 for metals in         |
|     relaxations.                                                            |

 total charge

# of ion       s       p       d       tot
    1        0.448   0.284   9.188   9.920
    2        0.446   0.287   9.185   9.918
    3        0.447   0.287   9.184   9.919
    4        0.448   0.286   9.185   9.919
    5        0.448   0.285   9.184   9.917
    6        0.449   0.283   9.188   9.920
    7        0.448   0.285   9.186   9.919
    8        0.449   0.283   9.188   9.920
    9        0.446   0.285   9.186   9.917
   10        0.444   0.369   9.180   9.992
   11        0.439   0.370   9.181   9.989
   12        0.444   0.370   9.178   9.992
   13        0.442   0.367   9.182   9.991
   14        0.440   0.368   9.182   9.990
   15        0.440   0.368   9.179   9.988
   16        0.442   0.372   9.176   9.990
   17        0.438   0.372   9.175   9.985
   18        0.439   0.371   9.177   9.987
   19        0.442   0.372   9.182   9.996
   20        0.460   0.393   9.162  10.015
   21        0.456   0.405   9.151  10.012
   22        0.434   0.374   9.180   9.987
   23        0.463   0.392   9.161  10.016
   24        0.432   0.379   9.176   9.986
   25        0.440   0.372   9.176   9.989
   26        0.437   0.376   9.174   9.987
   27        0.436   0.367   9.187   9.991
   28        0.412   0.331   9.198   9.941
   29        0.472   0.304   9.172   9.947
   30        0.462   0.293   9.191   9.946
   31        0.442   0.354   9.167   9.963
   32        0.405   0.369   9.191   9.965
   33        0.463   0.295   9.184   9.942
   34        0.429   0.333   9.189   9.950
   35        0.444   0.281   9.202   9.927
   36        0.580   0.772   3.656   5.008
   37        1.596   3.331   0.000   4.927
   38        1.549   3.534   0.000   5.083
   39        0.608   0.120   0.000   0.728
tot         19.860  19.639 324.982 364.482

 BZINTS: Fermi energy:   -0.496649;  403.000000 electrons
         Band energy:-0.143710E+04;  BLOECHL correction:   -0.026496