 vasp.6.2.0 18Jan21 (build Jun 12 2021 23:27:24) complex

 executed on             LinuxIFC date 2022.05.28  00:57:16

 INCAR:
   ISMEAR = -5
   SIGMA = 0.1
   ISPIN = 1
   EDIFF = 1.d-5
   EDIFFG = -0.01
   NSW = 0
   NELM = 150
   ENCUT = 500
   ISIF = 2
   IBRION = 2
   LREAL = Auto
   ALGO = Fast
   ICHARG = 11
   LORBIT = 10
   LCHARG = .F.
   LWAVE = .F.

 POTCAR:    PAW_PBE Au 04Oct2007
 POTCAR:    PAW_PBE Nb_sv 25May2007
 POTCAR:    PAW_PBE O 08Apr2002
 POTCAR:    PAW_PBE H 15Jun2001
|           W    W    AA    RRRRR   N    N  II  N    N   GGGG   !!!           |
|           W    W   A  A   R    R  NN   N  II  NN   N  G    G  !!!           |
|           W    W  A    A  R    R  N N  N  II  N N  N  G       !!!           |
|           W WW W  AAAAAA  RRRRR   N  N N  II  N  N N  G  GGG   !            |
|           WW  WW  A    A  R   R   N   NN  II  N   NN  G    G                |
|           W    W  A    A  R    R  N    N  II  N    N   GGGG   !!!           |
|     For optimal performance we recommend to set                             |
|       NCORE = 2 up to number-of-cores-per-socket                            |
|     This setting can greatly improve the performance of VASP for DFT.       |
|     The default, NCORE=1 might be grossly inefficient on modern             |
|     multi-core architectures or massively parallel machines. Do your        |
|     Unfortunately you need to use the default for GW and RPA                |
|     calculations (for HF NCORE is supported but not extensively tested      |
|     yet).                                                                   |

 POTCAR:    PAW_PBE Au 04Oct2007
   VRHFIN =Au: s1d10

   TITEL  = PAW_PBE Au 04Oct2007
   POMASS =  196.966; ZVAL   =   11.000    mass and valenz
   ENMAX  =  229.943; ENMIN  =  172.457 eV

 POTCAR:    PAW_PBE Nb_sv 25May2007
   VRHFIN =Nb: 4p5s4d

   TITEL  = PAW_PBE Nb_sv 25May2007
   POMASS =   92.910; ZVAL   =   13.000    mass and valenz
   ENMAX  =  293.235; ENMIN  =  219.927 eV

 POTCAR:    PAW_PBE O 08Apr2002
   VRHFIN =O: s2p4

   TITEL  = PAW_PBE O 08Apr2002
   POMASS =   16.000; ZVAL   =    6.000    mass and valenz
   ENMAX  =  400.000; ENMIN  =  300.000 eV

 POTCAR:    PAW_PBE H 15Jun2001
   VRHFIN =H: ultrasoft test

   TITEL  = PAW_PBE H 15Jun2001
   POMASS =    1.000; ZVAL   =    1.000    mass and valenz
   ENMAX  =  250.000; ENMIN  =  200.000 eV

 Optimization of the real space projectors (new method)

 maximal supplied QI-value         = 15.12
 optimisation between [QCUT,QGAM] = [ 11.34, 22.83] = [ 36.00,145.93] Ry
 Optimized for a Real-space Cutoff    1.39 Angstroem

   l    n(q)    QCUT    max X(q) W(low)/X(q) W(high)/X(q)  e(spline)
   2      9    11.338    60.898    0.39E-03    0.42E-03    0.21E-06
   2      9    11.338    58.894    0.40E-03    0.42E-03    0.22E-06
   0      9    11.338   109.617    0.13E-03    0.20E-04    0.13E-06
   0      9    11.338    75.026    0.13E-03    0.20E-04    0.13E-06
   1      9    11.338    16.344    0.33E-04    0.24E-03    0.18E-06
   1      9    11.338    10.160    0.26E-04    0.19E-03    0.15E-06
 Optimization of the real space projectors (new method)

[...]

   l    n(q)    QCUT    max X(q) W(low)/X(q) W(high)/X(q)  e(spline)
   0      7    11.387    20.381    0.39E-03    0.13E-02    0.15E-06
   0      7    11.387    15.268    0.42E-03    0.14E-02    0.17E-06
   1      6    11.387     5.964    0.41E-03    0.11E-02    0.17E-06
   1      6    11.387     5.382    0.39E-03    0.87E-03    0.15E-06
 Optimization of the real space projectors (new method)

 maximal supplied QI-value         = 34.20
 optimisation between [QCUT,QGAM] = [ 11.29, 22.57] = [ 35.68,142.71] Ry
 Optimized for a Real-space Cutoff    1.16 Angstroem

   l    n(q)    QCUT    max X(q) W(low)/X(q) W(high)/X(q)  e(spline)
   0      8    11.287    19.460    0.40E-03    0.73E-03    0.16E-06
   0      8    11.287    12.209    0.38E-03    0.70E-03    0.15E-06
   1      7    11.287     4.655    0.22E-03    0.25E-04    0.22E-06
  PAW_PBE Au 04Oct2007                  :
  PAW_PBE Nb_sv 25May2007               :
  PAW_PBE O 08Apr2002                   :
  PAW_PBE H 15Jun2001                   :

 POSCAR: Au-Nb-OOH
  positions in direct lattice
  velocities in cartesian coordinates
 exchange correlation table for  LEXCH =        8
   RHO(1)=    0.500       N(1)  =     2000
   RHO(2)=  100.500       N(2)  =     4000

 VTST: version 3.2, (02/03/18)

 CHAIN: initializing optimizer

 OPT: Using VASP Conjugate-Gradient optimizer
 CHAIN: Read ICHAIN            0

 POSCAR: Au-Nb-OOH
  positions in direct lattice
  velocities in cartesian coordinates

 ion  position               nearest neighbor table
   1  0.000  0.000  0.204-  16 2.94  12 2.94   6 2.94   8 2.94   7 2.94   3 2.94  10 2.94   4 2.94
                             2 2.94
   2  0.333  0.000  0.204-   9 2.94  11 2.94  17 2.94  10 2.94   8 2.94   4 2.94   5 2.94   1 2.94
                             3 2.94
   3  0.667  0.000  0.204-   7 2.94  18 2.94  12 2.94   1 2.94  11 2.94   5 2.94   6 2.94   9 2.94
                             2 2.94
   4  0.000  0.333  0.204-  10 2.94   6 2.94   5 2.94  13 2.94   2 2.94  15 2.94   9 2.94   1 2.94
                             7 2.94
   5  0.333  0.333  0.204-  13 2.94   7 2.94  11 2.94   4 2.94   2 2.94  14 2.94   3 2.94   8 2.94
                             6 2.94
   6  0.667  0.333  0.204-  15 2.94  14 2.94   1 2.94  12 2.94   4 2.94   9 2.94   8 2.94   3 2.94
                             5 2.94
   7  0.000  0.667  0.204-  18 2.94   3 2.94  16 2.94   5 2.94   1 2.94  13 2.94   8 2.94   4 2.94
                             9 2.94
   8  0.333  0.667  0.204-   9 2.94  17 2.94   1 2.94   2 2.94  14 2.94  16 2.94   6 2.94   7 2.94
                             5 2.94
   9  0.667  0.667  0.204-   2 2.94   8 2.94  17 2.94   6 2.94  15 2.94   4 2.94   3 2.94  18 2.94
                             7 2.94
  10  0.111  0.111  0.296-  20 2.91  11 2.94  17 2.94   2 2.94   4 2.94   1 2.94  12 2.94  16 2.94
                            13 2.94  15 2.94  26 2.95  19 2.95
  11  0.444  0.111  0.296-  20 2.91  21 2.91  13 2.94   2 2.94  10 2.94  17 2.94   5 2.94   3 2.94
                            18 2.94  14 2.94  12 2.94  27 2.94
  12  0.778  0.111  0.296-  21 2.91  16 2.94  18 2.94   1 2.94  14 2.94  15 2.94   3 2.94   6 2.94
                            10 2.94  11 2.94  25 2.95  19 2.95
  13  0.111  0.444  0.296-  23 2.91  20 2.91   5 2.94  18 2.94  11 2.94   7 2.94   4 2.94  16 2.94
                            10 2.94  14 2.94  15 2.94  22 2.94
  14  0.444  0.444  0.296-  21 2.91  23 2.91  15 2.94   6 2.94  12 2.94   8 2.94  17 2.94   5 2.94
                            16 2.94  13 2.94  11 2.94  24 2.94
  15  0.778  0.444  0.296-  24 2.93  22 2.93  14 2.94   6 2.94  17 2.94  12 2.94   9 2.94   4 2.94
                            10 2.94  13 2.94  18 2.94  19 2.94
  16  0.111  0.778  0.296-  23 2.91  18 2.94  12 2.94   7 2.94   1 2.94   8 2.94  13 2.94  10 2.94
                            14 2.94  17 2.94  25 2.95  26 2.95
  17  0.444  0.778  0.296-  27 2.93  24 2.93   9 2.94  15 2.94   2 2.94  10 2.94  11 2.94   8 2.94
                            14 2.94  16 2.94  18 2.94  26 2.94
  18  0.778  0.778  0.296-  22 2.93  27 2.93  16 2.94   7 2.94  13 2.94  12 2.94   3 2.94  11 2.94
                             9 2.94  15 2.94  17 2.94  25 2.94
  19  0.889  0.223  0.389-  24 2.93  22 2.93  21 2.94  20 2.94  15 2.94  26 2.94  25 2.94  10 2.95
                            12 2.95  28 2.95  32 3.04  31 3.04
  20  0.222  0.222  0.388-  36 2.78  10 2.91  11 2.91  13 2.91  26 2.94  19 2.94  23 2.94  21 2.94
                            27 2.95  22 2.95  29 2.99  31 2.99
  21  0.556  0.222  0.388-  36 2.78  12 2.91  14 2.91  11 2.91  25 2.94  19 2.94  20 2.94  23 2.94
                            27 2.95  24 2.95  30 2.99  32 2.99
  22  0.887  0.557  0.388-  24 2.91  27 2.91  18 2.93  15 2.93  25 2.93  19 2.93  13 2.94  23 2.95
                            20 2.95  35 2.96  33 3.02  31 3.02
  23  0.222  0.556  0.388-  36 2.78  16 2.91  13 2.91  14 2.91  25 2.94  26 2.94  20 2.94  21 2.94
                            22 2.95  24 2.95  33 2.99  34 2.99
  24  0.557  0.557  0.388-  27 2.91  22 2.91  15 2.93  17 2.93  26 2.93  19 2.93  14 2.94  21 2.95
                            23 2.95  35 2.96  32 3.02  34 3.02
  25  0.889  0.889  0.389-  22 2.93  27 2.93  23 2.94  21 2.94  18 2.94  19 2.94  26 2.94  16 2.95
                            12 2.95  28 2.95  33 3.04  30 3.04
  26  0.223  0.889  0.389-  27 2.93  24 2.93  20 2.94  23 2.94  17 2.94  19 2.94  25 2.94  10 2.95
                            16 2.95  28 2.95  29 3.04  34 3.04
  27  0.557  0.887  0.388-  24 2.91  22 2.91  17 2.93  18 2.93  26 2.93  25 2.93  11 2.94  20 2.95
                            21 2.95  35 2.96  29 3.02  30 3.02
  28  0.000  0.000  0.482-  25 2.95  19 2.95  26 2.95  34 2.98  32 2.98  33 2.98  30 2.98  31 2.98
                            29 2.98
  29  0.334  0.009  0.484-  30 2.85  31 2.86  36 2.87  35 2.98  28 2.98  20 2.99  27 3.02  26 3.04
                            34 3.10
  30  0.657  0.009  0.484-  29 2.85  32 2.86  36 2.87  35 2.98  28 2.98  21 2.99  27 3.02  25 3.04
                            33 3.10
  31  0.009  0.334  0.484-  33 2.85  29 2.86  36 2.87  35 2.98  28 2.98  20 2.99  22 3.02  19 3.04
                            32 3.10
  32  0.657  0.334  0.484-  34 2.85  30 2.86  36 2.87  35 2.98  28 2.98  21 2.99  24 3.02  19 3.04
                            31 3.10
  33  0.009  0.657  0.484-  31 2.85  34 2.86  36 2.87  35 2.98  28 2.98  23 2.99  22 3.02  25 3.04
                            30 3.10
  34  0.334  0.657  0.484-  32 2.85  33 2.86  36 2.87  35 2.98  28 2.98  23 2.99  24 3.02  26 3.04
                            29 3.10
  35  0.667  0.667  0.482-  24 2.96  27 2.96  22 2.96  29 2.98  34 2.98  32 2.98  31 2.98  30 2.98
                            33 2.98
  36  0.333  0.333  0.472-  37 1.91  20 2.78  23 2.78  21 2.78  33 2.87  31 2.87  29 2.87  30 2.87
                            34 2.87  32 2.87
  37  0.325  0.341  0.546-  38 1.43  36 1.91
  38  0.434  0.335  0.587-  39 1.00  37 1.43
  39  0.535  0.331  0.568-  38 1.00

  LATTYP: Found a hexagonal cell.
 ALAT       =     8.8135128021
 C/A-ratio  =     2.9412617888

  Lattice vectors:

 A1 = (  -4.4067569092,  -7.6327256898,   0.0000000000)
 A2 = (   8.8135128021,   0.0000000000,   0.0000000000)
 A3 = (   0.0000000000,   0.0000000000,  25.9228484302)

Analysis of symmetry for initial positions (statically):
 Subroutine PRICEL returns:
 Original cell was already a primitive cell.

 Routine SETGRP: Setting up the symmetry group for a
 hexagonal supercell.

 Subroutine GETGRP returns: Found  1 space group operations
 (whereof  1 operations were pure point group operations)
 out of a pool of 24 trial point group operations.

The static configuration has the point symmetry C_1 .

Analysis of symmetry for dynamics (positions and initial velocities):
 Subroutine PRICEL returns:
 Original cell was already a primitive cell.

[...]

The dynamic configuration has the point symmetry C_1 .

Analysis of constrained symmetry for selective dynamics:
 Subroutine PRICEL returns:
[...]
     41      -5.5181      2.00000
     42      -5.5008      2.00000
     43      -5.4897      2.00000
     44      -5.4618      2.00000
     45      -5.4477      2.00000
     46      -5.3216      2.00000
     47      -5.2884      2.00000
     48      -5.2334      2.00000
     49      -5.1793      2.00000
     50      -5.1475      2.00000
     51      -5.1098      2.00000
     52      -5.0883      2.00000
     53      -5.0803      2.00000
     54      -5.0505      2.00000
     55      -4.9704      2.00000
     56      -4.9567      2.00000
     57      -4.9249      2.00000
     58      -4.8954      2.00000
     59      -4.8927      2.00000
     60      -4.8727      2.00000
[...]
    238       4.5605      0.00000
    239       4.6609      0.00000
    240       5.0094      0.00000
    241       5.0214      0.00000
    242       5.2372      0.00000
    243       5.4463      0.00000
    244       5.5942      0.00000
    245       5.6228      0.00000
    246       5.7494      0.00000
    247       5.7895      0.00000
    248       5.8007      0.00000
    249       5.9810      0.00000
    250       6.0161      0.00000
    251       6.0917      0.00000
    252       6.1577      0.00000

 soft charge-density along one line, spin component           1
         0         1         2         3         4         5         6         7         8         9
 total charge-density along one line

------------------------ aborting loop because EDIFF is reached ----------------------------------------

 total charge

# of ion       s       p       d       tot
    1        0.548   0.237   8.766   9.551
    2        0.543   0.241   8.764   9.548
    3        0.544   0.241   8.764   9.548
    4        0.540   0.241   8.766   9.547
    5        0.544   0.241   8.762   9.547
    6        0.542   0.241   8.764   9.548
    7        0.542   0.241   8.764   9.547
    8        0.544   0.241   8.763   9.548
    9        0.543   0.240   8.766   9.549
   10        0.523   0.306   8.769   9.598
   11        0.520   0.308   8.777   9.605
   12        0.526   0.306   8.766   9.598
   13        0.518   0.308   8.779   9.605
   14        0.520   0.307   8.779   9.606
   15        0.515   0.308   8.772   9.595
   16        0.521   0.306   8.770   9.597
   17        0.515   0.308   8.771   9.594
   18        0.514   0.308   8.772   9.594
   19        0.522   0.295   8.772   9.589
   20        0.574   0.337   8.734   9.645
   21        0.578   0.341   8.725   9.644
   22        0.508   0.306   8.776   9.590
   23        0.569   0.338   8.734   9.641
   24        0.509   0.306   8.775   9.589
   25        0.520   0.294   8.773   9.588
   26        0.518   0.294   8.775   9.587
   27        0.509   0.306   8.773   9.588
   28        0.543   0.231   8.752   9.526
   29        0.583   0.244   8.740   9.567
   30        0.586   0.246   8.737   9.570
   31        0.589   0.242   8.739   9.570
   32        0.604   0.260   8.725   9.589
   33        0.582   0.242   8.743   9.567
   34        0.582   0.246   8.741   9.569
   35        0.538   0.232   8.755   9.525
   36        2.188   6.025   2.264  10.477
   37        1.589   3.332   0.000   4.920
   38        1.597   3.369   0.000   4.966
   39        0.592   0.109   0.000   0.701
tot         24.941  22.523 308.868 356.332

  FORCE on cell =-STRESS in cart. coord.  units (eV):
  Direction    XX          YY          ZZ          XY          YZ          ZX
  Alpha Z   911.99906   911.99906   911.99906
  Ewald  177675.66270177403.81834************   -10.43139     0.87457   154.84872
  Hartree186286.12624186158.73099************    -4.47130    -0.29986    99.07791
  E(xc)   -1848.89498 -1849.58819 -1855.75629    -0.03751     0.01746     0.08838
  Local  ************************375716.26499    12.93052    -1.22446  -242.13676
  n-local  -100.02873  -103.00301   -70.40849     0.41709    -0.43052     3.40373
  augment  2392.85860  2396.09562  2412.71689     0.08721     0.14702    -1.51207
  Kinetic  5844.23892  5882.97592  5903.17819     1.78467     0.60078   -13.27280
  Fock        0.00000     0.00000     0.00000     0.00000     0.00000     0.00000
  Total     -20.98556   -20.94470     1.61431     0.27930    -0.31502     0.49710
  in kB     -19.28056   -19.24302     1.48316     0.25661    -0.28943     0.45671

 VOLUME and BASIS-vectors are now :
  energy-cutoff  :      500.00
  volume of cell :     1743.86
      direct lattice vectors                 reciprocal lattice vectors
     8.813512802  0.000000000  0.000000000     0.113462137 -0.065507406  0.000000000
     4.406756909  7.632725690  0.000000000     0.000000000  0.131014796  0.000000000
     0.000000000  0.000000000 25.922848430     0.000000000  0.000000000  0.038576008

  length of vectors
     8.813512802  8.813512802 25.922848430     0.131014796  0.131014796  0.038576008

 FORCES acting on ions
    electron-ion (+dipol)            ewald-force                    non-local-force                 convergence-correction
   -.953E-01 0.930E-01 0.282E+04   0.327E-01 -.116E-01 -.282E+04   0.486E-01 -.501E-01 -.669E+00   -.145E-02 -.255E-01 0.137E+00
   0.107E+01 0.903E+00 0.282E+04   -.943E+00 -.992E+00 -.282E+04   -.480E-01 0.941E-01 -.343E+00   -.637E-01 -.194E-01 0.104E+00
   -.965E+00 0.101E+01 0.282E+04   0.910E+00 -.105E+01 -.282E+04   -.754E-02 0.769E-01 -.279E+00   0.613E-01 -.442E-01 0.140E+00
   0.125E+01 0.374E+00 0.282E+04   -.130E+01 -.307E+00 -.282E+04   0.837E-01 -.496E-01 -.409E+00   -.391E-01 -.787E-02 0.451E-01
   0.349E-01 0.113E-01 0.282E+04   -.658E-01 -.892E-02 -.282E+04   0.385E-01 -.236E-01 -.134E+00   -.921E-02 0.218E-01 0.635E-01
   -.129E+01 0.329E+00 0.282E+04   0.137E+01 -.307E+00 -.282E+04   -.119E+00 -.200E-01 -.250E+00   0.550E-01 -.106E-01 0.132E+00
   0.404E+00 -.133E+01 0.282E+04   -.427E+00 0.130E+01 -.282E+04   0.375E-01 -.238E-01 -.389E+00   -.127E-01 0.526E-01 0.747E-01
   -.344E+00 -.137E+01 0.282E+04   0.394E+00 0.136E+01 -.282E+04   -.510E-01 -.355E-01 -.258E+00   0.336E-02 0.536E-01 0.124E+00
   -.589E-01 -.142E-01 0.282E+04   0.328E-01 0.204E-01 -.282E+04   0.136E-01 0.182E-01 -.412E+00   0.717E-02 -.198E-01 0.145E+00
   0.945E+01 0.556E+01 0.102E+04   -.906E+01 -.532E+01 -.102E+04   -.300E+00 -.193E+00 -.473E+00   -.127E+00 -.674E-01 -.332E+00
   0.337E+00 0.111E+02 0.104E+04   -.362E+00 -.110E+02 -.104E+04   -.346E-01 -.847E-02 -.258E+00   0.521E-01 -.165E+00 -.350E+00
   -.986E+01 0.591E+01 0.102E+04   0.943E+01 -.563E+01 -.102E+04   0.367E+00 -.244E+00 -.658E+00   0.855E-01 -.462E-01 -.321E+00
   0.969E+01 -.548E+01 0.104E+04   -.965E+01 0.540E+01 -.104E+04   0.152E-01 0.763E-02 -.256E+00   -.107E+00 0.106E+00 -.358E+00
   -.928E+01 -.558E+01 0.104E+04   0.921E+01 0.557E+01 -.104E+04   -.356E-01 -.420E-04 -.162E+00   0.173E+00 0.684E-01 -.339E+00
   -.394E+00 0.227E+01 0.102E+04   0.440E+00 -.231E+01 -.102E+04   0.121E-01 0.213E-02 -.462E+00   -.586E-01 -.103E-01 -.275E+00
   0.141E+00 -.112E+02 0.102E+04   -.824E-01 0.108E+02 -.102E+04   -.318E-01 0.366E+00 -.520E+00   -.178E-01 0.129E+00 -.344E+00
   0.187E+01 -.144E+01 0.102E+04   -.199E+01 0.150E+01 -.102E+04   0.365E-01 0.222E-02 -.443E+00   0.219E-01 -.447E-01 -.268E+00
   -.200E+01 -.108E+01 0.102E+04   0.207E+01 0.105E+01 -.102E+04   -.159E-01 0.203E-01 -.402E+00   -.112E-01 0.258E-01 -.271E+00
   -.308E+01 0.458E+01 -.825E+03   0.311E+01 -.471E+01 0.825E+03   0.964E-02 0.193E-02 0.535E+00   -.628E-01 0.891E-01 -.517E+00
   0.661E+02 0.378E+02 -.718E+03   -.650E+02 -.371E+02 0.719E+03   -.114E+01 -.716E+00 -.104E+01   -.100E+00 -.823E-01 -.431E+00
   -.633E+02 0.393E+02 -.711E+03   0.620E+02 -.385E+02 0.712E+03   0.121E+01 -.789E+00 -.152E+01   0.160E+00 -.424E-01 -.415E+00
   0.184E+02 -.111E+02 -.804E+03   -.187E+02 0.112E+02 0.804E+03   0.446E+00 -.244E+00 0.737E+00   -.148E+00 0.982E-01 -.468E+00
   0.249E+01 -.757E+02 -.714E+03   -.258E+01 0.744E+02 0.716E+03   0.411E-01 0.127E+01 -.951E+00   0.566E-01 0.155E+00 -.423E+00
   -.210E+02 -.134E+02 -.799E+03   0.213E+02 0.135E+02 0.799E+03   -.450E+00 -.202E+00 0.566E+00   0.914E-01 0.419E-01 -.487E+00
   -.353E+01 -.359E+00 -.826E+03   0.364E+01 0.403E+00 0.826E+03   -.918E-02 0.121E-01 0.643E+00   -.575E-01 -.876E-02 -.525E+00
   0.293E+01 -.339E+01 -.827E+03   -.304E+01 0.352E+01 0.827E+03   0.115E-01 -.367E-01 0.712E+00   0.485E-01 -.735E-01 -.539E+00
   0.565E+00 0.226E+02 -.803E+03   -.570E+00 -.228E+02 0.803E+03   -.885E-03 0.448E+00 0.718E+00   0.144E-01 -.166E+00 -.493E+00
   -.799E+01 0.362E+01 -.264E+04   0.817E+01 -.374E+01 0.264E+04   -.909E-01 0.825E-01 0.327E+00   -.570E-01 0.291E-01 -.157E+00
   0.856E+02 0.133E+03 -.265E+04   -.848E+02 -.132E+03 0.265E+04   -.109E+01 -.159E+01 0.916E-01   0.577E-01 0.171E-01 -.125E+00
   -.762E+02 0.157E+03 -.263E+04   0.752E+02 -.156E+03 0.263E+04   0.119E+01 -.181E+01 -.799E-01   -.658E-02 0.162E-01 -.116E+00
   0.152E+03 0.383E+01 -.265E+04   -.151E+03 -.367E+01 0.265E+04   -.202E+01 -.188E+00 -.132E+00   0.317E-01 0.469E-01 -.115E+00
   -.188E+03 0.370E+01 -.260E+04   0.186E+03 -.355E+01 0.260E+04   0.244E+01 -.150E+00 -.123E+01   -.471E-01 0.174E-01 -.135E+00
   0.845E+02 -.139E+03 -.265E+04   -.840E+02 0.138E+03 0.265E+04   -.749E+00 0.170E+01 0.149E+00   -.221E-01 -.434E-01 -.129E+00
   -.751E+02 -.163E+03 -.263E+04   0.744E+02 0.161E+03 0.263E+04   0.841E+00 0.179E+01 0.107E+00   0.207E-01 -.821E-01 -.155E+00
   -.815E+01 -.510E+01 -.264E+04   0.822E+01 0.518E+01 0.264E+04   -.466E-01 -.631E-01 0.596E+00   0.484E-02 -.943E-02 -.180E+00
   0.308E+02 0.878E+01 -.261E+04   -.302E+02 -.891E+01 0.261E+04   -.497E+00 -.450E-01 -.191E+01   0.537E-01 0.267E-01 -.121E-01
   0.160E+03 -.943E+01 -.176E+04   -.188E+03 0.114E+02 0.175E+04   0.280E+02 -.194E+01 0.360E+01   -.509E-02 -.796E-02 -.122E-01
   -.101E+03 0.475E+01 -.184E+04   0.905E+02 -.443E+01 0.189E+04   0.101E+02 -.315E+00 -.449E+02   0.145E-02 -.663E-02 0.215E-01
   -.878E+02 0.350E+01 -.264E+03   0.944E+02 -.375E+01 0.260E+03   -.659E+01 0.249E+00 0.359E+01   0.557E-03 -.100E-02 0.227E-02
   -.316E+02 0.262E+01 0.538E+02   -.142E-13 0.237E-12 0.171E-12   0.316E+02 -.260E+01 -.462E+02   0.454E-01 0.102E-01 -.730E+01

 POSITION                                       TOTAL-FORCE (eV/Angst)
      0.00000      0.00000      5.28038        -0.015190      0.005019     -0.151034
      2.93784      0.00000      5.28038         0.011037     -0.014940     -0.056089
      5.87568      0.00000      5.28038        -0.000191     -0.003568     -0.073659
      1.46892      2.54424      5.28038        -0.011337      0.008561     -0.042222
      4.40676      2.54424      5.28038        -0.001464     -0.000231     -0.070221
      7.34459      2.54424      5.28038         0.014656     -0.009911     -0.068566
      2.93784      5.08848      5.28038         0.002671     -0.002474     -0.058506
      5.87568      5.08848      5.28038         0.002498      0.004042     -0.068209
      8.81351      5.08848      5.28038        -0.005130      0.003817     -0.087662
      1.46892      0.84808      7.67911        -0.035879     -0.027119      0.053828
      4.40676      0.84808      7.67911        -0.007585     -0.067648      0.003849
      7.34459      0.84808      7.67911         0.021010     -0.011876      0.072989
      2.93784      3.39232      7.67911        -0.055101      0.032808      0.002335
      5.87568      3.39232      7.67911         0.063592      0.051283     -0.024066
      8.81351      3.39232      7.67911        -0.000859     -0.042921      0.107975
      4.40676      5.93656      7.67911         0.009534      0.039851      0.062064
      7.34459      5.93656      7.67911        -0.054789      0.016015      0.119778
     10.28243      5.93656      7.67911         0.038524      0.016457      0.115097
      8.81351      1.70030     10.08698        -0.025816     -0.038416     -0.025518
      2.93503      1.69454     10.04736        -0.197966     -0.091593     -0.137884
      5.87848      1.69454     10.04736         0.060631      0.003540     -0.116655
     10.26776      4.24887     10.06889         0.052815     -0.034525      0.006952
      4.40676      4.24365     10.04736         0.001981      0.153585     -0.119736
      7.35926      4.24887     10.06889        -0.021957     -0.025580     -0.020847
     11.74777      6.78258     10.08698         0.034376      0.047348     -0.028824
      5.87926      6.78258     10.08698        -0.045795      0.017047     -0.032930
      8.81351      6.76771     10.06889         0.008220      0.065492      0.004790
      0.00000      0.00000     12.49943         0.033829     -0.008297     -0.034146
      2.98194      0.07009     12.55649        -0.154757     -0.294688     -0.221673
      5.83157      0.07009     12.55649         0.115238     -0.255205     -0.154373
      1.55167      2.54739     12.55649        -0.296172      0.019070     -0.234054
      7.26184      2.54739     12.55649         0.251057      0.014247     -0.094173
      2.97649      5.01524     12.55649        -0.211297      0.274918     -0.257605
      5.83702      5.01524     12.55649         0.207259      0.291985     -0.219203
      8.81351      5.08848     12.50498         0.023716      0.008573      0.085372
      4.40676      2.54424     12.24418         0.172561     -0.154259      1.763634
      4.36231      2.59988     14.14893         0.012169      0.009537     -0.004746
      5.30620      2.55845     15.22261         0.003991      0.000305      0.005042
      6.17111      2.52598     14.72121        -0.000082     -0.000247     -0.001106
    total drift:                               -0.007713      0.030059      0.302815

  FREE ENERGIE OF THE ION-ELECTRON SYSTEM (eV)
  free  energy   TOTEN  =      -131.97548036 eV

  energy  without entropy=     -131.97548036  energy(sigma->0) =     -131.97548036

 stress matrix after NEB project (eV)
    -20.98556      0.27930      0.49710
      0.27930    -20.94470     -0.31502
      0.49710     -0.31502      1.61431
  FORCES: max atom, RMS     0.016173    0.002793
  FORCE total and by dimension    0.017444    0.012169
  Stress total and by dimension   29.707386   20.985557
|           W    W    AA    RRRRR   N    N  II  N    N   GGGG   !!!           |
|           W    W   A  A   R    R  NN   N  II  NN   N  G    G  !!!           |
|           W    W  A    A  R    R  N N  N  II  N N  N  G       !!!           |
|           W WW W  AAAAAA  RRRRR   N  N N  II  N  N N  G  GGG   !            |
|           WW  WW  A    A  R   R   N   NN  II  N   NN  G    G                |
|           W    W  A    A  R    R  N    N  II  N    N   GGGG   !!!           |
|     Tetrahedron method does not include variations of the Fermi             |
|     occupations, so forces and stress will be inaccurate. We suggest        |
|     using a different smearing scheme ISMEAR = 1 or 2 for metals in         |
|     relaxations.                                                            |

 total charge

# of ion       s       p       d       tot
    1        0.548   0.237   8.766   9.551
    2        0.543   0.241   8.764   9.548
    3        0.544   0.241   8.764   9.548
    4        0.540   0.241   8.766   9.547
    5        0.544   0.241   8.762   9.547
    6        0.542   0.241   8.764   9.548
    7        0.542   0.241   8.764   9.547
    8        0.544   0.241   8.763   9.548
    9        0.543   0.240   8.766   9.549
   10        0.523   0.306   8.769   9.598
   11        0.520   0.308   8.777   9.605
   12        0.526   0.306   8.766   9.598
   13        0.518   0.308   8.779   9.605
   14        0.520   0.307   8.779   9.606
   15        0.515   0.308   8.772   9.595
   16        0.521   0.306   8.770   9.597
   17        0.515   0.308   8.771   9.594
   18        0.514   0.308   8.772   9.594
   19        0.522   0.295   8.772   9.589
   20        0.574   0.337   8.734   9.645
   21        0.578   0.341   8.725   9.644
   22        0.508   0.306   8.776   9.590
   23        0.569   0.338   8.734   9.641
   24        0.509   0.306   8.775   9.589
   25        0.520   0.294   8.773   9.588
   26        0.518   0.294   8.775   9.587
   27        0.509   0.306   8.773   9.588
   28        0.543   0.231   8.752   9.526
   29        0.583   0.244   8.740   9.567
   30        0.586   0.246   8.737   9.570
   31        0.589   0.242   8.739   9.570
   32        0.604   0.260   8.725   9.589
   33        0.582   0.242   8.743   9.567
   34        0.582   0.246   8.741   9.569
   35        0.538   0.232   8.755   9.525
   36        2.188   6.025   2.264  10.477
   37        1.589   3.332   0.000   4.920
   38        1.597   3.369   0.000   4.966
   39        0.592   0.109   0.000   0.701
tot         24.941  22.523 308.868 356.332

 BZINTS: Fermi energy:   -0.061700;  411.000000 electrons
         Band energy:-0.192989E+04;  BLOECHL correction:   -0.034999