 vasp.6.2.0 18Jan21 (build Jun 12 2021 23:27:24) complex

 executed on             LinuxIFC date 2022.05.26  19:52:35

 INCAR:
   ISMEAR = -5
   SIGMA = 0.1
   ISPIN = 1
   EDIFF = 1.d-5
   EDIFFG = -0.01
   NSW = 0
   NELM = 150
   ENCUT = 500
   ISIF = 2
   IBRION = 2
   LREAL = Auto
   ALGO = Fast
   ICHARG = 11
   LORBIT = 10
   LCHARG = .F.
   LWAVE = .F.

 POTCAR:    PAW_PBE Ag 02Apr2005
 POTCAR:    PAW_PBE W 08Apr2002
 POTCAR:    PAW_PBE O 08Apr2002
|           W    W    AA    RRRRR   N    N  II  N    N   GGGG   !!!           |
|           W    W   A  A   R    R  NN   N  II  NN   N  G    G  !!!           |
|           W    W  A    A  R    R  N N  N  II  N N  N  G       !!!           |
|           W WW W  AAAAAA  RRRRR   N  N N  II  N  N N  G  GGG   !            |
|           WW  WW  A    A  R   R   N   NN  II  N   NN  G    G                |
|           W    W  A    A  R    R  N    N  II  N    N   GGGG   !!!           |
|     For optimal performance we recommend to set                             |
|       NCORE = 2 up to number-of-cores-per-socket                            |
|     This setting can greatly improve the performance of VASP for DFT.       |
|     The default, NCORE=1 might be grossly inefficient on modern             |
|     multi-core architectures or massively parallel machines. Do your        |
|     Unfortunately you need to use the default for GW and RPA                |
|     calculations (for HF NCORE is supported but not extensively tested      |
|     yet).                                                                   |

 POTCAR:    PAW_PBE Ag 02Apr2005
   VRHFIN =Ag : s1 d10

   TITEL  = PAW_PBE Ag 02Apr2005
   POMASS =  107.868; ZVAL   =   11.000    mass and valenz
   ENMAX  =  249.844; ENMIN  =  187.383 eV

 POTCAR:    PAW_PBE W 08Apr2002
   VRHFIN =W : 6s5d

[...]

 POTCAR:    PAW_PBE O 08Apr2002
   VRHFIN =O: s2p4

   TITEL  = PAW_PBE O 08Apr2002
   POMASS =   16.000; ZVAL   =    6.000    mass and valenz
   ENMAX  =  400.000; ENMIN  =  300.000 eV

 Optimization of the real space projectors (new method)

 maximal supplied QI-value         = 15.12
 optimisation between [QCUT,QGAM] = [ 11.34, 22.83] = [ 36.00,145.93] Ry
 Optimized for a Real-space Cutoff    1.43 Angstroem

   l    n(q)    QCUT    max X(q) W(low)/X(q) W(high)/X(q)  e(spline)
   2      9    11.338    53.897    0.16E-03    0.20E-03    0.28E-06
   2      9    11.338    52.416    0.16E-03    0.20E-03    0.29E-06
   0     10    11.338   122.045    0.31E-04    0.76E-04    0.15E-06
   0     10    11.338    73.629    0.30E-04    0.72E-04    0.15E-06
   1      9    11.338    15.255    0.20E-03    0.19E-04    0.17E-06
   1      9    11.338     9.562    0.16E-03    0.15E-04    0.14E-06
 Optimization of the real space projectors (new method)

[...]

   l    n(q)    QCUT    max X(q) W(low)/X(q) W(high)/X(q)  e(spline)
   2     10    11.429   130.855    0.22E-03    0.64E-03    0.11E-05
   2     10    11.429   114.007    0.22E-03    0.64E-03    0.11E-05
   0     11    11.429    84.709    0.39E-04    0.67E-04    0.23E-06
   0     11    11.429    49.163    0.35E-04    0.62E-04    0.21E-06
   1     10    11.429    15.765    0.84E-04    0.15E-03    0.24E-06
   1     10    11.429    10.638    0.58E-04    0.12E-03    0.19E-06
 Optimization of the real space projectors (new method)

 maximal supplied QI-value         = 24.76
 optimisation between [QCUT,QGAM] = [ 11.39, 22.77] = [ 36.31,145.25] Ry
 Optimized for a Real-space Cutoff    1.00 Angstroem

   l    n(q)    QCUT    max X(q) W(low)/X(q) W(high)/X(q)  e(spline)
   0      7    11.387    20.381    0.39E-03    0.13E-02    0.15E-06
   0      7    11.387    15.268    0.42E-03    0.14E-02    0.17E-06
   1      6    11.387     5.964    0.41E-03    0.11E-02    0.17E-06
   1      6    11.387     5.382    0.39E-03    0.87E-03    0.15E-06
  PAW_PBE Ag 02Apr2005                  :
  PAW_PBE W 08Apr2002                   :
  PAW_PBE O 08Apr2002                   :

 POSCAR: Ag-W-O
  positions in direct lattice
  velocities in cartesian coordinates
 exchange correlation table for  LEXCH =        8
   RHO(1)=    0.500       N(1)  =     2000
   RHO(2)=  100.500       N(2)  =     4000

 VTST: version 3.2, (02/03/18)

 CHAIN: initializing optimizer

 OPT: Using VASP Conjugate-Gradient optimizer
 CHAIN: Read ICHAIN            0

 POSCAR: Ag-W-O
  positions in direct lattice
  velocities in cartesian coordinates

 ion  position               nearest neighbor table
   1  0.000  0.000  0.238-   2 2.93   8 2.93   7 2.93   6 2.93   4 2.93  12 2.93  16 2.93  10 2.93
                             3 2.93
   2  0.333  0.000  0.238-   1 2.93   8 2.93   9 2.93   3 2.93   4 2.93   5 2.93  10 2.93  17 2.93
                            11 2.93
   3  0.667  0.000  0.238-   9 2.93   2 2.93   5 2.93  11 2.93   7 2.93  18 2.93   1 2.93   6 2.93
                            12 2.93
   4  0.000  0.333  0.238-   5 2.93   6 2.93   2 2.93   1 2.93   7 2.93  13 2.93  15 2.93   9 2.93
                            10 2.93
   5  0.333  0.333  0.238-   4 2.93   3 2.93   7 2.93   2 2.93   8 2.93  14 2.93  13 2.93  11 2.93
                             6 2.93
   6  0.667  0.333  0.238-   4 2.93   9 2.93   1 2.93  15 2.93   8 2.93  12 2.93   3 2.93   5 2.93
                            14 2.93
   7  0.000  0.667  0.238-   8 2.93   1 2.93   5 2.93   3 2.93   4 2.93  16 2.93  18 2.93  13 2.93
                             9 2.93
   8  0.333  0.667  0.238-   7 2.93   1 2.93   2 2.93   9 2.93   5 2.93  16 2.93   6 2.93  17 2.93
                            14 2.93
   9  0.667  0.667  0.238-   3 2.93   2 2.93   8 2.93   6 2.93  17 2.93   4 2.93  15 2.93   7 2.93
                            18 2.93
  10  0.111  0.111  0.346-  20 2.89  12 2.93  16 2.93  15 2.93  17 2.93  13 2.93  11 2.93   2 2.93
                             1 2.93   4 2.93  19 2.93  26 2.93
  11  0.444  0.111  0.346-  21 2.90  20 2.90  14 2.93  17 2.93  18 2.93   3 2.93  12 2.93  13 2.93
                            10 2.93   5 2.93   2 2.93  27 2.93
  12  0.778  0.111  0.346-  21 2.89  10 2.93  16 2.93  18 2.93  15 2.93  11 2.93   1 2.93  14 2.93
                             6 2.93   3 2.93  25 2.93  19 2.93
  13  0.111  0.444  0.346-  20 2.90  23 2.90  15 2.93  14 2.93  18 2.93  10 2.93  11 2.93  16 2.93
                             4 2.93   5 2.93   7 2.93  22 2.93
  14  0.444  0.444  0.346-  23 2.90  21 2.90  13 2.93  11 2.93  16 2.93   5 2.93  12 2.93  17 2.93
                             8 2.93  15 2.93   6 2.93  24 2.93
  15  0.778  0.444  0.346-  24 2.93  22 2.93  13 2.93  10 2.93  12 2.93  17 2.93  18 2.93   4 2.93
                             6 2.93   9 2.93  14 2.93  19 2.93
  16  0.111  0.778  0.346-  23 2.89  18 2.93  12 2.93  10 2.93  14 2.93  17 2.93  13 2.93   7 2.93
                             8 2.93   1 2.93  26 2.93  25 2.93
  17  0.444  0.778  0.346-  27 2.93  24 2.93  11 2.93  10 2.93   9 2.93  18 2.93  15 2.93  16 2.93
                             2 2.93  14 2.93   8 2.93  26 2.93
  18  0.778  0.778  0.346-  22 2.93  27 2.93  16 2.93  12 2.93  13 2.93  11 2.93  17 2.93  15 2.93
                             7 2.93   3 2.93   9 2.93  25 2.93
  19  0.889  0.223  0.454-  28 2.92  20 2.93  21 2.93  24 2.93  22 2.93  15 2.93  10 2.93  12 2.93
                            26 2.94  25 2.94  32 2.98  31 2.98
  20  0.222  0.222  0.452-  36 2.76  10 2.89  13 2.90  11 2.90  19 2.93  26 2.93  27 2.94  22 2.94
                            21 2.94  23 2.94  31 2.96  29 2.96
  21  0.556  0.222  0.452-  36 2.76  12 2.89  11 2.90  14 2.90  25 2.93  19 2.93  27 2.94  24 2.94
                            20 2.94  23 2.94  30 2.96  32 2.96
  22  0.888  0.556  0.454-  35 2.92  24 2.92  27 2.92  18 2.93  15 2.93  25 2.93  19 2.93  13 2.93
                            23 2.94  20 2.94  33 2.96  31 2.96
  23  0.222  0.556  0.452-  36 2.76  16 2.89  14 2.90  13 2.90  26 2.93  25 2.93  22 2.94  24 2.94
                            21 2.94  20 2.94  34 2.96  33 2.96
  24  0.556  0.556  0.454-  35 2.92  27 2.92  22 2.92  15 2.93  17 2.93  19 2.93  26 2.93  14 2.93
                            23 2.94  21 2.94  32 2.96  34 2.96
  25  0.889  0.889  0.454-  28 2.92  23 2.93  21 2.93  22 2.93  27 2.93  18 2.93  16 2.93  12 2.93
                            26 2.94  19 2.94  33 2.98  30 2.98
  26  0.223  0.889  0.454-  28 2.92  23 2.93  20 2.93  27 2.93  24 2.93  17 2.93  16 2.93  10 2.93
                            25 2.94  19 2.94  34 2.98  29 2.98
  27  0.556  0.888  0.454-  35 2.92  24 2.92  22 2.92  17 2.93  18 2.93  26 2.93  25 2.93  11 2.93
                            20 2.94  21 2.94  29 2.96  30 2.96
  28  0.000  0.000  0.562-  26 2.92  25 2.92  19 2.92  29 2.96  34 2.96  33 2.96  32 2.96  31 2.96
                            30 2.96
  29  0.333  0.007  0.563-  31 2.86  30 2.87  36 2.88  20 2.96  27 2.96  28 2.96  35 2.96  26 2.98
                            34 3.06
  30  0.659  0.007  0.563-  32 2.86  29 2.87  36 2.88  21 2.96  27 2.96  28 2.96  35 2.96  25 2.98
                            33 3.06
  31  0.007  0.333  0.563-  29 2.86  33 2.87  36 2.88  20 2.96  22 2.96  28 2.96  35 2.96  19 2.98
                            32 3.06
  32  0.659  0.333  0.563-  30 2.86  34 2.87  36 2.88  21 2.96  24 2.96  28 2.96  35 2.96  19 2.98
                            31 3.06
  33  0.007  0.659  0.563-  34 2.86  31 2.87  36 2.88  23 2.96  22 2.96  28 2.96  35 2.96  25 2.98
                            30 3.06
  34  0.333  0.659  0.563-  33 2.86  32 2.87  36 2.88  23 2.96  24 2.96  28 2.96  35 2.96  26 2.98
                            29 3.06
  35  0.667  0.667  0.561-  24 2.92  27 2.92  22 2.92  30 2.96  32 2.96  29 2.96  34 2.96  31 2.96
                            33 2.96
  36  0.333  0.333  0.550-  37 1.73  21 2.76  20 2.76  23 2.76  31 2.88  30 2.88  33 2.88  29 2.88
                            34 2.88  32 2.88
  37  0.333  0.333  0.628-  36 1.73

  LATTYP: Found a hexagonal cell.
 ALAT       =     8.7913665772
 C/A-ratio  =     2.5227160501

  Lattice vectors:

 A1 = (  -4.3956832886,  -7.6135467898,   0.0000000000)
 A2 = (   8.7913665771,   0.0000000000,   0.0000000000)
 A3 = (   0.0000000000,   0.0000000000,  22.1781215668)

Analysis of symmetry for initial positions (statically):
 Subroutine PRICEL returns:
 Original cell was already a primitive cell.

 Routine SETGRP: Setting up the symmetry group for a
 hexagonal supercell.

 Subroutine GETGRP returns: Found  6 space group operations
 (whereof  6 operations were pure point group operations)
 out of a pool of 24 trial point group operations.

The static configuration has the point symmetry C_3v.

Analysis of symmetry for dynamics (positions and initial velocities):
 Subroutine PRICEL returns:
 Original cell was already a primitive cell.

[...]

The dynamic configuration has the point symmetry C_3v.

Analysis of constrained symmetry for selective dynamics:
 Subroutine PRICEL returns:
 Original cell was already a primitive cell.

 Routine SETGRP: Setting up the symmetry group for a
 hexagonal supercell.

 Subroutine GETGRP returns: Found  6 space group operations
 (whereof  6 operations were pure point group operations)
 out of a pool of 24 trial point group operations.

[...]
     24      -4.6866      2.00000
     25      -4.6718      2.00000
     26      -4.6501      2.00000
     27      -4.6324      2.00000
     28      -4.6163      2.00000
     29      -4.5862      2.00000
     30      -4.5832      2.00000
     31      -4.5801      2.00000
     32      -4.5527      2.00000
     33      -4.5450      2.00000
     34      -4.5321      2.00000
     35      -4.4918      2.00000
     36      -4.4816      2.00000
     37      -4.4580      2.00000
     38      -4.4301      2.00000
     39      -4.4226      2.00000
     40      -4.4070      2.00000
     41      -4.3699      2.00000
     42      -4.3476      2.00000
     43      -4.3218      2.00000
     44      -4.3022      2.00000
     45      -4.2562      2.00000
     46      -4.2380      2.00000
     47      -4.2117      2.00000
     48      -4.2000      2.00000
     49      -4.1966      2.00000
     50      -4.1830      2.00000
     51      -4.1755      2.00000
     52      -4.1700      2.00000
     53      -4.1542      2.00000
     54      -4.1404      2.00000
     55      -4.1213      2.00000
     56      -4.1032      2.00000
     57      -4.0834      2.00000
     58      -4.0743      2.00000
     59      -4.0410      2.00000
     60      -4.0346      2.00000
[...]
    238       6.2957      0.00000
    239       6.3736      0.00000
    240       6.4371      0.00000
    241       7.1998      0.00000
    242       7.2341      0.00000
    243       7.2839      0.00000
    244       7.3231      0.00000
    245       7.3414      0.00000
    246       7.3569      0.00000
    247       7.4397      0.00000
    248       7.5725      0.00000
    249       7.6123      0.00000
    250       7.6394      0.00000
    251       7.6694      0.00000
    252       7.7908      0.00000

 soft charge-density along one line, spin component           1
         0         1         2         3         4         5         6         7         8         9
 total charge-density along one line

------------------------ aborting loop because EDIFF is reached ----------------------------------------

 total charge

# of ion       s       p       d       tot
    1        0.421   0.200   9.178   9.799
    2        0.416   0.204   9.177   9.796
    3        0.416   0.204   9.177   9.796
    4        0.416   0.204   9.177   9.796
    5        0.419   0.202   9.177   9.798
    6        0.416   0.204   9.177   9.796
    7        0.416   0.204   9.177   9.796
    8        0.416   0.204   9.177   9.796
    9        0.413   0.204   9.177   9.794
   10        0.409   0.268   9.165   9.842
   11        0.403   0.273   9.167   9.843
   12        0.409   0.268   9.165   9.842
   13        0.403   0.273   9.167   9.843
   14        0.403   0.273   9.167   9.843
   15        0.402   0.269   9.165   9.836
   16        0.409   0.268   9.165   9.842
   17        0.402   0.269   9.165   9.836
   18        0.402   0.269   9.165   9.836
   19        0.403   0.261   9.168   9.833
   20        0.443   0.310   9.134   9.887
   21        0.443   0.310   9.134   9.887
   22        0.392   0.275   9.164   9.830
   23        0.443   0.310   9.134   9.887
   24        0.392   0.275   9.164   9.830
   25        0.403   0.261   9.168   9.833
   26        0.403   0.261   9.168   9.833
   27        0.392   0.275   9.164   9.830
   28        0.417   0.194   9.176   9.787
   29        0.422   0.220   9.166   9.809
   30        0.422   0.220   9.166   9.809
   31        0.422   0.220   9.166   9.809
   32        0.422   0.220   9.166   9.809
   33        0.422   0.220   9.166   9.809
   34        0.422   0.220   9.166   9.809
   35        0.410   0.200   9.175   9.785
   36        0.689   0.602   4.155   5.446
   37        1.606   3.313   0.000   4.919
tot         16.757  12.427 324.984 354.168

  FORCE on cell =-STRESS in cart. coord.  units (eV):
  Direction    XX          YY          ZZ          XY          YZ          ZX
  Alpha Z   762.46864   762.46864   762.46864
  Ewald  119170.30826119170.30825************     0.00002    -0.00001     0.00003
  Hartree129375.80375129375.80374************     0.00001    -0.00000     0.00001
  E(xc)   -2084.94645 -2084.94645 -2091.21275     0.00000     0.00000     0.00000
  Local  ************************259767.33330     0.00043    -0.00005    -0.00015
  n-local  -359.46538  -341.96104  -348.38037    10.87851    -0.45126     0.52645
  augment  3230.82056  3230.82071  3240.74378    -0.00010     0.00000     0.00004
  Kinetic  4976.23246  4978.97434  4980.78363     4.16320     0.88969    -0.46218
  Fock        0.00000     0.00000     0.00000     0.00000     0.00000     0.00000
  Total      -6.23366    -6.23366    -0.37939    -0.00000    -0.00000    -0.00000
  in kB      -6.72799    -6.72799    -0.40948    -0.00000    -0.00000    -0.00000

 VOLUME and BASIS-vectors are now :
  energy-cutoff  :      500.00
  volume of cell :     1484.46
      direct lattice vectors                 reciprocal lattice vectors
     8.791366577  0.000000000  0.000000000     0.113747958 -0.065672414  0.000000000
     4.395683289  7.613546790  0.000000000     0.000000000  0.131344829  0.000000000
     0.000000000  0.000000000 22.178121567     0.000000000  0.000000000  0.045089481

  length of vectors
     8.791366577  8.791366577 22.178121567     0.131344829  0.131344829  0.045089481

 FORCES acting on ions
    electron-ion (+dipol)            ewald-force                    non-local-force                 convergence-correction
   0.462E-04 -.281E-04 0.250E+04   -.953E-04 0.593E-04 -.249E+04   0.113E-17 0.189E-17 -.183E+01   -.203E-03 -.221E-03 -.197E+00
   0.232E+00 0.403E+00 0.250E+04   -.264E+00 -.398E+00 -.249E+04   0.273E-02 0.858E-01 -.165E+01   0.323E-01 -.823E-01 -.205E+00
   -.232E+00 0.403E+00 0.250E+04   0.264E+00 -.398E+00 -.249E+04   -.273E-02 0.858E-01 -.165E+01   -.327E-01 -.804E-01 -.204E+00
   0.465E+00 -.791E-03 0.250E+04   -.476E+00 -.293E-01 -.249E+04   0.757E-01 -.405E-01 -.165E+01   -.549E-01 0.693E-01 -.205E+00
   -.579E-05 -.188E-04 0.250E+04   0.980E-04 -.197E-05 -.249E+04   0.698E-17 0.122E-17 -.154E+01   0.626E-02 0.383E-02 -.133E+00
   -.465E+00 -.754E-03 0.250E+04   0.476E+00 -.294E-01 -.249E+04   -.757E-01 -.405E-01 -.165E+01   0.535E-01 0.701E-01 -.204E+00
   0.233E+00 -.402E+00 0.250E+04   -.213E+00 0.427E+00 -.249E+04   0.730E-01 -.453E-01 -.165E+01   -.856E-01 0.124E-01 -.204E+00
   -.233E+00 -.402E+00 0.250E+04   0.213E+00 0.427E+00 -.249E+04   -.730E-01 -.453E-01 -.165E+01   0.871E-01 0.113E-01 -.204E+00
   0.362E-04 -.130E-04 0.250E+04   0.792E-04 -.643E-04 -.249E+04   0.838E-17 0.466E-17 -.173E+01   -.658E-02 -.339E-02 -.196E+00
   0.459E+01 0.265E+01 0.835E+03   -.417E+01 -.241E+01 -.834E+03   -.411E+00 -.237E+00 -.616E+00   -.381E-01 -.220E-01 0.687E-01
   -.283E-04 0.362E+01 0.837E+03   0.404E-04 -.388E+01 -.837E+03   0.113E-11 0.172E+00 -.436E+00   0.688E-02 0.151E-01 0.784E-01
   -.459E+01 0.265E+01 0.835E+03   0.417E+01 -.241E+01 -.834E+03   0.411E+00 -.237E+00 -.616E+00   0.360E-01 -.211E-01 0.697E-01
   0.314E+01 -.181E+01 0.837E+03   -.336E+01 0.194E+01 -.837E+03   0.149E+00 -.860E-01 -.436E+00   0.163E-01 -.153E-02 0.784E-01
   -.314E+01 -.181E+01 0.837E+03   0.336E+01 0.194E+01 -.837E+03   -.149E+00 -.860E-01 -.436E+00   -.580E-02 -.311E-02 0.772E-01
   0.157E-04 0.553E+00 0.834E+03   -.108E-03 -.724E+00 -.833E+03   0.366E-12 0.557E-01 -.633E+00   -.173E-02 0.890E-01 0.854E-01
   -.813E-05 -.530E+01 0.835E+03   0.205E-04 0.481E+01 -.834E+03   0.312E-11 0.475E+00 -.616E+00   -.372E-03 0.417E-01 0.696E-01
   0.479E+00 -.277E+00 0.834E+03   -.627E+00 0.362E+00 -.833E+03   0.482E-01 -.278E-01 -.633E+00   0.762E-01 -.461E-01 0.854E-01
   -.479E+00 -.277E+00 0.834E+03   0.627E+00 0.362E+00 -.833E+03   -.482E-01 -.278E-01 -.633E+00   -.756E-01 -.437E-01 0.877E-01
   0.382E-04 -.205E+01 -.852E+03   -.127E-03 0.207E+01 0.850E+03   -.382E-13 -.582E-02 0.862E+00   -.652E-02 -.218E-01 0.536E+00
   -.639E+01 -.369E+01 -.831E+03   0.717E+01 0.414E+01 0.831E+03   -.103E+01 -.595E+00 -.615E+00   0.542E-01 0.316E-01 0.604E+00
   0.639E+01 -.369E+01 -.831E+03   -.717E+01 0.414E+01 0.831E+03   0.103E+01 -.595E+00 -.615E+00   -.528E-01 0.297E-01 0.604E+00
   -.490E+01 0.283E+01 -.843E+03   0.468E+01 -.270E+01 0.842E+03   0.322E+00 -.186E+00 0.704E+00   -.406E-01 0.326E-01 0.433E+00
   -.517E-04 0.738E+01 -.831E+03   0.401E-04 -.827E+01 0.831E+03   0.781E-11 0.119E+01 -.615E+00   -.625E-03 -.602E-01 0.604E+00
   0.490E+01 0.283E+01 -.843E+03   -.468E+01 -.270E+01 0.842E+03   -.322E+00 -.186E+00 0.704E+00   0.517E-01 0.298E-01 0.433E+00
   0.178E+01 0.103E+01 -.852E+03   -.179E+01 -.104E+01 0.850E+03   0.504E-02 0.291E-02 0.862E+00   0.981E-02 0.573E-02 0.536E+00
   -.178E+01 0.103E+01 -.852E+03   0.179E+01 -.104E+01 0.850E+03   -.504E-02 0.291E-02 0.862E+00   -.225E-01 0.521E-02 0.536E+00
   0.204E-04 -.565E+01 -.843E+03   0.109E-03 0.540E+01 0.842E+03   0.245E-11 0.372E+00 0.704E+00   0.733E-02 -.518E-01 0.433E+00
   0.533E-04 -.358E-04 -.246E+04   -.114E-03 0.770E-04 0.246E+04   -.105E-16 -.145E-16 0.170E+01   -.492E-03 0.340E-03 0.336E+00
   0.132E+02 0.215E+02 -.246E+04   -.125E+02 -.208E+02 0.245E+04   -.838E+00 -.107E+01 0.209E+01   -.202E-01 0.283E-01 0.291E+00
   -.132E+02 0.215E+02 -.246E+04   0.125E+02 -.208E+02 0.245E+04   0.838E+00 -.107E+01 0.209E+01   0.206E-01 0.294E-01 0.290E+00
   0.253E+02 0.684E+00 -.246E+04   -.243E+02 -.455E+00 0.245E+04   -.134E+01 -.193E+00 0.209E+01   0.151E-01 -.303E-01 0.291E+00
   -.253E+02 0.685E+00 -.246E+04   0.243E+02 -.455E+00 0.245E+04   0.134E+01 -.193E+00 0.209E+01   -.263E-01 -.310E-01 0.291E+00
   0.120E+02 -.222E+02 -.246E+04   -.117E+02 0.212E+02 0.245E+04   -.504E+00 0.126E+01 0.209E+01   0.302E-01 -.604E-02 0.290E+00
   -.120E+02 -.222E+02 -.246E+04   0.117E+02 0.212E+02 0.245E+04   0.504E+00 0.126E+01 0.209E+01   -.399E-01 -.764E-02 0.291E+00
   0.235E-04 -.125E-04 -.246E+04   0.105E-03 -.654E-04 0.246E+04   -.742E-17 -.403E-17 0.192E+01   -.481E-02 -.311E-02 0.290E+00
   -.886E-05 -.650E-05 -.113E+04   0.578E-04 0.738E-05 0.113E+04   -.132E-17 0.887E-18 -.685E+00   0.140E-02 0.119E-02 0.160E+00
   0.181E-03 -.978E-04 -.159E+04   0.304E-04 0.445E-06 0.162E+04   -.258E-18 -.968E-19 -.318E+02   0.383E-02 0.258E-02 -.178E+00
   0.539E-03 -.780E-03 0.276E+02   -.292E-13 0.140E-12 0.273E-11   -.120E-15 -.447E-15 -.335E+02   -.763E-02 -.648E-02 0.602E+01

 POSITION                                       TOTAL-FORCE (eV/Angst)
      0.00000      0.00000      5.28219        -0.000000     -0.000000     -0.029203
      2.93046      0.00000      5.28219         0.003599      0.009333      0.038457
      5.86091      0.00000      5.28219        -0.003599      0.009333      0.038457
      1.46523      2.53785      5.28219         0.009882     -0.001550      0.038457
      4.39568      2.53785      5.28219        -0.000000     -0.000000      0.010327
      7.32614      2.53785      5.28219        -0.009882     -0.001550      0.038457
      2.93046      5.07570      5.28219         0.006283     -0.007783      0.038457
      5.86091      5.07570      5.28219        -0.006283     -0.007783      0.038457
      8.79137      5.07570      5.28219        -0.000000     -0.000000      0.026164
      1.46523      0.84595      7.67490        -0.021615     -0.012479     -0.025042
      4.39568      0.84595      7.67490        -0.000000     -0.071234     -0.053838
      7.32614      0.84595      7.67490         0.021615     -0.012479     -0.025042
      2.93046      3.38380      7.67490        -0.061690      0.035617     -0.053838
      5.86091      3.38380      7.67490         0.061690      0.035617     -0.053838
      8.79137      3.38380      7.67490        -0.000000     -0.026774      0.043576
      4.39568      5.92165      7.67490         0.000000      0.024959     -0.025042
      7.32614      5.92165      7.67490        -0.023187      0.013387      0.043576
     10.25659      5.92165      7.67490         0.023187      0.013387      0.043576
      8.79137      1.69504     10.07204        -0.000000     -0.006645     -0.004108
      2.92602      1.68934     10.02478        -0.205891     -0.118871     -0.203389
      5.86534      1.68934     10.02478         0.205891     -0.118871     -0.203389
     10.25093      4.23302     10.06482         0.057834     -0.033390      0.015616
      4.39568      4.23487     10.02478         0.000000      0.237742     -0.203389
      7.33181      4.23302     10.06482        -0.057834     -0.033390      0.015616
     11.71910      6.76603     10.07204         0.005755      0.003323     -0.004108
      5.86363      6.76603     10.07204        -0.005755      0.003323     -0.004108
      8.79137      6.76105     10.06482         0.000000      0.066781      0.015616
      0.00000      0.00000     12.45341         0.000000     -0.000000     -0.009212
      2.96185      0.05622     12.48740        -0.158329     -0.286896     -0.241247
      5.82952      0.05622     12.48740         0.158329     -0.286896     -0.241247
      1.52961      2.53693     12.48740        -0.327624      0.006332     -0.241247
      7.26176      2.53693     12.48740         0.327624      0.006332     -0.241247
      2.96344      5.02040     12.48740        -0.169295      0.280565     -0.241247
      5.82792      5.02040     12.48740         0.169295      0.280565     -0.241247
      8.79137      5.07570     12.44798         0.000000     -0.000000      0.023940
      4.39568      2.53785     12.20252        -0.000000     -0.000000      1.866024
      4.39568      2.53785     13.93259        -0.000000     -0.000000      0.010259
    total drift:                               -0.007091     -0.007261      0.126027

  FREE ENERGIE OF THE ION-ELECTRON SYSTEM (eV)
  free  energy   TOTEN  =      -106.82525591 eV

  energy  without entropy=     -106.82525591  energy(sigma->0) =     -106.82525591

 stress matrix after NEB project (eV)
     -6.23366     -0.00000     -0.00000
     -0.00000     -6.23366      0.00000
     -0.00000     -0.00000     -0.37939
  FORCES: max atom, RMS     0.010259    0.001687
  FORCE total and by dimension    0.010259    0.010259
  Stress total and by dimension    8.823883    6.233657
|           W    W    AA    RRRRR   N    N  II  N    N   GGGG   !!!           |
|           W    W   A  A   R    R  NN   N  II  NN   N  G    G  !!!           |
|           W    W  A    A  R    R  N N  N  II  N N  N  G       !!!           |
|           W WW W  AAAAAA  RRRRR   N  N N  II  N  N N  G  GGG   !            |
|           WW  WW  A    A  R   R   N   NN  II  N   NN  G    G                |
|           W    W  A    A  R    R  N    N  II  N    N   GGGG   !!!           |
|     Tetrahedron method does not include variations of the Fermi             |
|     occupations, so forces and stress will be inaccurate. We suggest        |
|     using a different smearing scheme ISMEAR = 1 or 2 for metals in         |
|     relaxations.                                                            |

 total charge

# of ion       s       p       d       tot
    1        0.421   0.200   9.178   9.799
    2        0.416   0.204   9.177   9.796
    3        0.416   0.204   9.177   9.796
    4        0.416   0.204   9.177   9.796
    5        0.419   0.202   9.177   9.798
    6        0.416   0.204   9.177   9.796
    7        0.416   0.204   9.177   9.796
    8        0.416   0.204   9.177   9.796
    9        0.413   0.204   9.177   9.794
   10        0.409   0.268   9.165   9.842
   11        0.403   0.273   9.167   9.843
   12        0.409   0.268   9.165   9.842
   13        0.403   0.273   9.167   9.843
   14        0.403   0.273   9.167   9.843
   15        0.402   0.269   9.165   9.836
   16        0.409   0.268   9.165   9.842
   17        0.402   0.269   9.165   9.836
   18        0.402   0.269   9.165   9.836
   19        0.403   0.261   9.168   9.833
   20        0.443   0.310   9.134   9.887
   21        0.443   0.310   9.134   9.887
   22        0.392   0.275   9.164   9.830
   23        0.443   0.310   9.134   9.887
   24        0.392   0.275   9.164   9.830
   25        0.403   0.261   9.168   9.833
   26        0.403   0.261   9.168   9.833
   27        0.392   0.275   9.164   9.830
   28        0.417   0.194   9.176   9.787
   29        0.422   0.220   9.166   9.809
   30        0.422   0.220   9.166   9.809
   31        0.422   0.220   9.166   9.809
   32        0.422   0.220   9.166   9.809
   33        0.422   0.220   9.166   9.809
   34        0.422   0.220   9.166   9.809
   35        0.410   0.200   9.175   9.785
   36        0.689   0.602   4.155   5.446
   37        1.606   3.313   0.000   4.919
tot         16.757  12.427 324.984 354.168

 BZINTS: Fermi energy:    0.805696;  397.000000 electrons
         Band energy:-0.133576E+04;  BLOECHL correction:   -0.029786