 vasp.6.2.0 18Jan21 (build Jun 12 2021 23:27:24) complex

 executed on             LinuxIFC date 2022.05.26  19:18:57

 INCAR:
   ISMEAR = -5
   SIGMA = 0.1
   ISPIN = 1
   EDIFF = 1.d-5
   EDIFFG = -0.01
   NSW = 0
   NELM = 150
   ENCUT = 500
   ISIF = 2
   IBRION = 2
   LREAL = Auto
   ALGO = Fast
   ICHARG = 11
   LORBIT = 10
   LCHARG = .F.
   LWAVE = .F.

 POTCAR:    PAW_PBE Au 04Oct2007
 POTCAR:    PAW_PBE Cr 06Sep2000
 POTCAR:    PAW_PBE O 08Apr2002
|           W    W    AA    RRRRR   N    N  II  N    N   GGGG   !!!           |
|           W    W   A  A   R    R  NN   N  II  NN   N  G    G  !!!           |
|           W    W  A    A  R    R  N N  N  II  N N  N  G       !!!           |
|           W WW W  AAAAAA  RRRRR   N  N N  II  N  N N  G  GGG   !            |
|           WW  WW  A    A  R   R   N   NN  II  N   NN  G    G                |
|           W    W  A    A  R    R  N    N  II  N    N   GGGG   !!!           |
|     For optimal performance we recommend to set                             |
|       NCORE = 2 up to number-of-cores-per-socket                            |
|     This setting can greatly improve the performance of VASP for DFT.       |
|     The default, NCORE=1 might be grossly inefficient on modern             |
|     multi-core architectures or massively parallel machines. Do your        |
|     Unfortunately you need to use the default for GW and RPA                |
|     calculations (for HF NCORE is supported but not extensively tested      |
|     yet).                                                                   |

 POTCAR:    PAW_PBE Au 04Oct2007
   VRHFIN =Au: s1d10

   TITEL  = PAW_PBE Au 04Oct2007
   POMASS =  196.966; ZVAL   =   11.000    mass and valenz
   ENMAX  =  229.943; ENMIN  =  172.457 eV

 POTCAR:    PAW_PBE Cr 06Sep2000
   VRHFIN =Cr : d5 s1

   TITEL  = PAW_PBE Cr 06Sep2000
   POMASS =   51.996; ZVAL   =    6.000    mass and valenz
   ENMAX  =  227.080; ENMIN  =  170.310 eV

 POTCAR:    PAW_PBE O 08Apr2002
   VRHFIN =O: s2p4

   TITEL  = PAW_PBE O 08Apr2002
   POMASS =   16.000; ZVAL   =    6.000    mass and valenz
   ENMAX  =  400.000; ENMIN  =  300.000 eV

 Optimization of the real space projectors (new method)

 maximal supplied QI-value         = 15.12
 optimisation between [QCUT,QGAM] = [ 11.34, 22.83] = [ 36.00,145.93] Ry
 Optimized for a Real-space Cutoff    1.39 Angstroem

   l    n(q)    QCUT    max X(q) W(low)/X(q) W(high)/X(q)  e(spline)
   2      9    11.338    60.898    0.39E-03    0.42E-03    0.21E-06
   2      9    11.338    58.894    0.40E-03    0.42E-03    0.22E-06
   0      9    11.338   109.617    0.13E-03    0.20E-04    0.13E-06
   0      9    11.338    75.026    0.13E-03    0.20E-04    0.13E-06
   1      9    11.338    16.344    0.33E-04    0.24E-03    0.18E-06
   1      9    11.338    10.160    0.26E-04    0.19E-03    0.15E-06
 Optimization of the real space projectors (new method)

[...]

   l    n(q)    QCUT    max X(q) W(low)/X(q) W(high)/X(q)  e(spline)
   2      9    11.338    94.395    0.18E-03    0.10E-02    0.64E-06
   2      9    11.338    88.078    0.18E-03    0.10E-02    0.65E-06
   0     10    11.338    50.173    0.13E-03    0.16E-03    0.96E-07
   0     10    11.338    24.906    0.12E-03    0.14E-03    0.88E-07
   1      9    11.338    12.133    0.13E-03    0.15E-03    0.24E-06
   1      9    11.338     7.290    0.10E-03    0.10E-03    0.18E-06
 Optimization of the real space projectors (new method)

 maximal supplied QI-value         = 24.76
 optimisation between [QCUT,QGAM] = [ 11.39, 22.77] = [ 36.31,145.25] Ry
 Optimized for a Real-space Cutoff    1.00 Angstroem

   l    n(q)    QCUT    max X(q) W(low)/X(q) W(high)/X(q)  e(spline)
   0      7    11.387    20.381    0.39E-03    0.13E-02    0.15E-06
   0      7    11.387    15.268    0.42E-03    0.14E-02    0.17E-06
   1      6    11.387     5.964    0.41E-03    0.11E-02    0.17E-06
   1      6    11.387     5.382    0.39E-03    0.87E-03    0.15E-06
  PAW_PBE Au 04Oct2007                  :
  PAW_PBE Cr 06Sep2000                  :
  PAW_PBE O 08Apr2002                   :

 POSCAR: Au-Cr-O
  positions in direct lattice
  velocities in cartesian coordinates
 exchange correlation table for  LEXCH =        8
   RHO(1)=    0.500       N(1)  =     2000
   RHO(2)=  100.500       N(2)  =     4000

 VTST: version 3.2, (02/03/18)

 CHAIN: initializing optimizer

 OPT: Using VASP Conjugate-Gradient optimizer
 CHAIN: Read ICHAIN            0

 POSCAR: Au-Cr-O
  positions in direct lattice
  velocities in cartesian coordinates

 ion  position               nearest neighbor table
   1  0.000  0.000  0.238-  16 2.94  12 2.94   6 2.94   8 2.94   7 2.94   3 2.94  10 2.94   4 2.94
                             2 2.94
   2  0.333  0.000  0.238-   9 2.94  11 2.94  17 2.94  10 2.94   8 2.94   4 2.94   5 2.94   1 2.94
                             3 2.94
   3  0.667  0.000  0.238-   7 2.94  18 2.94  12 2.94   1 2.94  11 2.94   5 2.94   6 2.94   9 2.94
                             2 2.94
   4  0.000  0.333  0.238-  10 2.94   6 2.94   5 2.94  13 2.94   2 2.94  15 2.94   9 2.94   1 2.94
                             7 2.94
   5  0.333  0.333  0.238-  13 2.94   7 2.94  11 2.94   4 2.94   2 2.94  14 2.94   3 2.94   8 2.94
                             6 2.94
   6  0.667  0.333  0.238-  15 2.94  14 2.94   1 2.94  12 2.94   4 2.94   9 2.94   8 2.94   3 2.94
                             5 2.94
   7  0.000  0.667  0.238-  18 2.94   3 2.94  16 2.94   5 2.94   1 2.94  13 2.94   8 2.94   4 2.94
                             9 2.94
   8  0.333  0.667  0.238-   9 2.94  17 2.94   1 2.94   2 2.94  14 2.94  16 2.94   6 2.94   7 2.94
                             5 2.94
   9  0.667  0.667  0.238-   2 2.94   8 2.94  17 2.94   6 2.94  15 2.94   4 2.94   3 2.94  18 2.94
                             7 2.94
  10  0.111  0.111  0.346-  20 2.92  26 2.94  19 2.94  11 2.94  17 2.94   2 2.94   4 2.94   1 2.94
                            12 2.94  16 2.94  13 2.94  15 2.94
  11  0.444  0.111  0.346-  20 2.91  21 2.91  27 2.93  13 2.94   2 2.94  10 2.94  17 2.94   5 2.94
                             3 2.94  18 2.94  14 2.94  12 2.94
  12  0.778  0.111  0.346-  21 2.92  25 2.94  19 2.94  16 2.94  18 2.94   1 2.94  14 2.94  15 2.94
                             3 2.94   6 2.94  10 2.94  11 2.94
  13  0.111  0.444  0.346-  23 2.91  20 2.91  22 2.93   5 2.94  18 2.94  11 2.94   7 2.94   4 2.94
                            16 2.94  10 2.94  14 2.94  15 2.94
  14  0.444  0.444  0.346-  21 2.91  23 2.91  24 2.93  15 2.94   6 2.94  12 2.94   8 2.94  17 2.94
                             5 2.94  16 2.94  13 2.94  11 2.94
  15  0.778  0.444  0.346-  24 2.92  22 2.92  19 2.94  14 2.94   6 2.94  17 2.94  12 2.94   9 2.94
                             4 2.94  10 2.94  13 2.94  18 2.94
  16  0.111  0.778  0.346-  23 2.92  25 2.94  26 2.94  18 2.94  12 2.94   7 2.94   1 2.94   8 2.94
                            13 2.94  10 2.94  14 2.94  17 2.94
  17  0.444  0.778  0.346-  27 2.92  24 2.92  26 2.94   9 2.94  15 2.94   2 2.94  10 2.94  11 2.94
                             8 2.94  14 2.94  16 2.94  18 2.94
  18  0.778  0.778  0.346-  22 2.92  27 2.92  25 2.94  16 2.94   7 2.94  13 2.94  12 2.94   3 2.94
                            11 2.94   9 2.94  15 2.94  17 2.94
  19  0.889  0.222  0.454-  10 2.94  12 2.94  15 2.94  26 2.94  25 2.94  24 2.94  22 2.94  28 2.95
                            21 2.95  20 2.95  32 3.00  31 3.00
  20  0.223  0.223  0.453-  36 2.71  11 2.91  13 2.91  23 2.91  21 2.91  29 2.92  31 2.92  10 2.92
                            26 2.95  19 2.95  27 2.96  22 2.96
  21  0.553  0.223  0.453-  36 2.71  14 2.91  11 2.91  20 2.91  23 2.91  30 2.92  32 2.92  12 2.92
                            25 2.95  19 2.95  27 2.96  24 2.96
  22  0.886  0.557  0.453-  24 2.90  27 2.90  18 2.92  15 2.92  13 2.93  25 2.94  19 2.94  23 2.96
                            20 2.96  35 2.96  33 2.96  31 2.96
  23  0.223  0.553  0.453-  36 2.71  13 2.91  14 2.91  20 2.91  21 2.91  33 2.92  34 2.92  16 2.92
                            25 2.95  26 2.95  22 2.96  24 2.96
  24  0.557  0.557  0.453-  27 2.90  22 2.90  15 2.92  17 2.92  14 2.93  26 2.94  19 2.94  21 2.96
                            23 2.96  35 2.96  32 2.96  34 2.96
  25  0.889  0.889  0.454-  16 2.94  12 2.94  18 2.94  19 2.94  26 2.94  22 2.94  27 2.94  28 2.95
                            23 2.95  21 2.95  33 3.00  30 3.00
  26  0.222  0.889  0.454-  10 2.94  16 2.94  17 2.94  19 2.94  25 2.94  27 2.94  24 2.94  28 2.95
                            20 2.95  23 2.95  29 3.00  34 3.00
  27  0.557  0.886  0.453-  24 2.90  22 2.90  17 2.92  18 2.92  11 2.93  26 2.94  25 2.94  20 2.96
                            21 2.96  35 2.96  29 2.96  30 2.96
  28  0.000  0.000  0.563-  25 2.95  19 2.95  26 2.95  34 2.99  32 2.99  33 2.99  30 2.99  31 2.99
                            29 2.99
  29  0.334  0.011  0.562-  30 2.84  31 2.84  36 2.86  20 2.92  27 2.96  35 2.99  28 2.99  26 3.00
                            34 3.13
  30  0.655  0.011  0.562-  29 2.84  32 2.84  36 2.86  21 2.92  27 2.96  35 2.99  28 2.99  25 3.00
                            33 3.13
  31  0.011  0.334  0.562-  33 2.84  29 2.84  36 2.86  20 2.92  22 2.96  35 2.99  28 2.99  19 3.00
                            32 3.13
  32  0.655  0.334  0.562-  34 2.84  30 2.84  36 2.86  21 2.92  24 2.96  35 2.99  28 2.99  19 3.00
                            31 3.13
  33  0.011  0.655  0.562-  31 2.84  34 2.84  36 2.86  23 2.92  22 2.96  35 2.99  28 2.99  25 3.00
                            30 3.13
  34  0.334  0.655  0.562-  32 2.84  33 2.84  36 2.86  23 2.92  24 2.96  35 2.99  28 2.99  26 3.00
                            29 3.13
  35  0.667  0.667  0.563-  24 2.96  27 2.96  22 2.96  29 2.99  34 2.99  32 2.99  31 2.99  30 2.99
                            33 2.99
  36  0.333  0.333  0.549-  37 1.60  20 2.71  23 2.71  21 2.71  33 2.86  31 2.86  29 2.86  30 2.86
                            34 2.86  32 2.86
  37  0.333  0.333  0.621-  36 1.60

  LATTYP: Found a hexagonal cell.
 ALAT       =     8.8135128021
 C/A-ratio  =     2.5184286595

  Lattice vectors:

 A1 = (  -4.4067569092,  -7.6327256898,   0.0000000000)
 A2 = (   8.8135128021,   0.0000000000,   0.0000000000)
 A3 = (   0.0000000000,   0.0000000000,  22.1962032318)

Analysis of symmetry for initial positions (statically):
 Subroutine PRICEL returns:
 Original cell was already a primitive cell.

 Routine SETGRP: Setting up the symmetry group for a
 hexagonal supercell.

 Subroutine GETGRP returns: Found  6 space group operations
 (whereof  6 operations were pure point group operations)
 out of a pool of 24 trial point group operations.

The static configuration has the point symmetry C_3v.

Analysis of symmetry for dynamics (positions and initial velocities):
 Subroutine PRICEL returns:
 Original cell was already a primitive cell.

[...]

The dynamic configuration has the point symmetry C_3v.

Analysis of constrained symmetry for selective dynamics:
 Subroutine PRICEL returns:
 Original cell was already a primitive cell.

 Routine SETGRP: Setting up the symmetry group for a
 hexagonal supercell.

 Subroutine GETGRP returns: Found  6 space group operations
[...]
     24      -5.1185      2.00000
     25      -5.0817      2.00000
     26      -5.0766      2.00000
     27      -5.0307      2.00000
     28      -4.9523      2.00000
     29      -4.9376      2.00000
     30      -4.8178      2.00000
     31      -4.8116      2.00000
     32      -4.7934      2.00000
     33      -4.7746      2.00000
     34      -4.7620      2.00000
     35      -4.7160      2.00000
     36      -4.6366      2.00000
     37      -4.6310      2.00000
     38      -4.6155      2.00000
     39      -4.5621      2.00000
     40      -4.5150      2.00000
     41      -4.4800      2.00000
     42      -4.4337      2.00000
     43      -4.4070      2.00000
     44      -4.3780      2.00000
     45      -4.3449      2.00000
     46      -4.3001      2.00000
     47      -4.2405      2.00000
     48      -4.2250      2.00000
     49      -4.1971      2.00000
     50      -4.1734      2.00000
     51      -4.1595      2.00000
     52      -4.1304      2.00000
     53      -4.1278      2.00000
     54      -4.1065      2.00000
     55      -4.0949      2.00000
     56      -4.0418      2.00000
     57      -4.0300      2.00000
     58      -3.9980      2.00000
     59      -3.9903      2.00000
     60      -3.9770      2.00000
[...]
    238       6.4574      0.00000
    239       6.4666      0.00000
    240       6.4953      0.00000
    241       6.5640      0.00000
    242       6.7611      0.00000
    243       6.7958      0.00000
    244       6.8162      0.00000
    245       6.8342      0.00000
    246       7.1418      0.00000
    247       7.1689      0.00000
    248       7.3056      0.00000
    249       7.4975      0.00000
    250       7.6387      0.00000
    251       7.7415      0.00000
    252       7.7762      0.00000

 soft charge-density along one line, spin component           1
         0         1         2         3         4         5         6         7         8         9
 total charge-density along one line

------------------------ aborting loop because EDIFF is reached ----------------------------------------

 total charge

# of ion       s       p       d       tot
    1        0.549   0.238   8.767   9.554
    2        0.543   0.242   8.765   9.549
    3        0.543   0.242   8.765   9.549
    4        0.543   0.242   8.765   9.549
    5        0.545   0.241   8.763   9.549
    6        0.543   0.242   8.765   9.549
    7        0.543   0.242   8.765   9.549
    8        0.543   0.242   8.765   9.549
    9        0.543   0.241   8.766   9.550
   10        0.521   0.308   8.772   9.601
   11        0.518   0.311   8.777   9.606
   12        0.521   0.308   8.772   9.601
   13        0.518   0.311   8.777   9.606
   14        0.518   0.311   8.777   9.606
   15        0.515   0.311   8.772   9.599
   16        0.521   0.308   8.772   9.601
   17        0.515   0.311   8.772   9.599
   18        0.515   0.311   8.772   9.599
   19        0.517   0.298   8.777   9.592
   20        0.554   0.337   8.742   9.633
   21        0.554   0.337   8.742   9.633
   22        0.510   0.312   8.773   9.595
   23        0.554   0.337   8.742   9.633
   24        0.510   0.312   8.773   9.595
   25        0.517   0.298   8.777   9.592
   26        0.517   0.298   8.777   9.592
   27        0.510   0.312   8.773   9.595
   28        0.544   0.222   8.762   9.528
   29        0.553   0.239   8.762   9.554
   30        0.553   0.239   8.762   9.554
   31        0.553   0.239   8.762   9.554
   32        0.553   0.239   8.762   9.554
   33        0.553   0.239   8.762   9.554
   34        0.553   0.239   8.762   9.554
   35        0.538   0.223   8.764   9.525
   36        0.476   0.665   4.487   5.628
   37        1.616   3.262   0.000   4.878
tot         20.790  13.608 311.308 345.706

  FORCE on cell =-STRESS in cart. coord.  units (eV):
  Direction    XX          YY          ZZ          XY          YZ          ZX
  Alpha Z  1009.86267  1009.86267  1009.86267
  Ewald  118886.03664118886.03707************    -0.00031    -0.00009    -0.00013
  Hartree127580.18530127580.18531************     0.00001    -0.00002    -0.00003
  E(xc)   -1783.19960 -1783.19959 -1790.37910    -0.00001     0.00000     0.00001
  Local  ************************258837.24542     0.00197     0.00002    -0.00000
  n-local  -107.31254   -60.01712   -56.99791    23.57898    -1.68599     1.63202
  augment  2401.42694  2401.42845  2410.91732    -0.00130     0.00002     0.00005
  Kinetic  5526.11576  5534.88372  5563.50812     5.25330     0.25129     0.16521
  Fock        0.00000     0.00000     0.00000     0.00000     0.00000     0.00000
  Total     -20.01403   -20.01402     1.43351    -0.00000     0.00000     0.00000
  in kB     -21.47522   -21.47522     1.53817    -0.00000     0.00000     0.00000

 VOLUME and BASIS-vectors are now :
  energy-cutoff  :      500.00
  volume of cell :     1493.16
      direct lattice vectors                 reciprocal lattice vectors
     8.813512802  0.000000000  0.000000000     0.113462137 -0.065507406  0.000000000
     4.406756909  7.632725690  0.000000000     0.000000000  0.131014796  0.000000000
     0.000000000  0.000000000 22.196203232     0.000000000  0.000000000  0.045052750

  length of vectors
     8.813512802  8.813512802 22.196203232     0.131014796  0.131014796  0.045052750

 FORCES acting on ions
    electron-ion (+dipol)            ewald-force                    non-local-force                 convergence-correction
   -.194E-04 -.161E-04 0.248E+04   0.519E-04 0.433E-04 -.248E+04   -.147E-17 0.111E-17 -.612E+00   -.216E-03 -.138E-03 -.262E+00
   0.525E+00 0.165E+00 0.248E+04   -.574E+00 -.212E+00 -.248E+04   -.287E-02 0.508E-01 -.353E+00   0.529E-01 -.215E-02 -.289E+00
   -.525E+00 0.165E+00 0.248E+04   0.574E+00 -.212E+00 -.248E+04   0.287E-02 0.508E-01 -.353E+00   -.526E-01 -.271E-03 -.288E+00
   0.405E+00 0.372E+00 0.248E+04   -.471E+00 -.392E+00 -.248E+04   0.426E-01 -.279E-01 -.353E+00   0.247E-01 0.469E-01 -.289E+00
   0.935E-05 -.228E-04 0.248E+04   0.951E-04 0.174E-05 -.248E+04   -.551E-18 -.313E-18 -.277E+00   0.422E-02 0.257E-02 -.264E+00
   -.406E+00 0.372E+00 0.248E+04   0.471E+00 -.392E+00 -.248E+04   -.426E-01 -.279E-01 -.353E+00   -.262E-01 0.478E-01 -.288E+00
   -.119E+00 -.537E+00 0.248E+04   0.104E+00 0.603E+00 -.248E+04   0.454E-01 -.229E-01 -.353E+00   -.265E-01 -.455E-01 -.288E+00
   0.119E+00 -.537E+00 0.248E+04   -.104E+00 0.603E+00 -.248E+04   -.454E-01 -.229E-01 -.353E+00   0.283E-01 -.465E-01 -.288E+00
   0.196E-04 -.416E-04 0.248E+04   0.166E-03 -.201E-04 -.248E+04   0.248E-17 0.130E-17 -.434E+00   -.455E-02 -.235E-02 -.206E+00
   0.401E+01 0.232E+01 0.829E+03   -.381E+01 -.220E+01 -.829E+03   -.265E+00 -.153E+00 -.511E+00   0.610E-01 0.351E-01 0.201E+00
   0.147E-04 0.402E+01 0.836E+03   0.147E-03 -.415E+01 -.836E+03   0.417E-08 0.627E-01 -.359E+00   0.389E-02 0.758E-02 0.280E+00
   -.401E+01 0.232E+01 0.829E+03   0.381E+01 -.220E+01 -.829E+03   0.265E+00 -.153E+00 -.511E+00   -.622E-01 0.359E-01 0.200E+00
   0.348E+01 -.201E+01 0.836E+03   -.359E+01 0.207E+01 -.836E+03   0.543E-01 -.313E-01 -.359E+00   0.879E-02 -.155E-03 0.280E+00
   -.348E+01 -.201E+01 0.836E+03   0.359E+01 0.207E+01 -.836E+03   -.543E-01 -.313E-01 -.359E+00   -.161E-02 -.107E-02 0.278E+00
   0.311E-04 0.405E+01 0.833E+03   0.236E-03 -.421E+01 -.833E+03   0.105E-08 0.158E-01 -.458E+00   -.192E-02 0.945E-01 0.212E+00
   -.211E-04 -.463E+01 0.829E+03   0.163E-03 0.440E+01 -.829E+03   0.203E-07 0.306E+00 -.511E+00   -.278E-03 -.718E-01 0.200E+00
   0.351E+01 -.203E+01 0.833E+03   -.365E+01 0.211E+01 -.833E+03   0.137E-01 -.789E-02 -.458E+00   0.811E-01 -.485E-01 0.212E+00
   -.351E+01 -.203E+01 0.833E+03   0.365E+01 0.211E+01 -.833E+03   -.137E-01 -.789E-02 -.458E+00   -.806E-01 -.468E-01 0.212E+00
   -.415E-04 0.801E+00 -.852E+03   0.547E-04 -.108E+01 0.851E+03   0.435E-08 0.653E-01 0.713E+00   0.812E-03 0.178E+00 0.574E+00
   0.126E+02 0.726E+01 -.819E+03   -.120E+02 -.694E+01 0.819E+03   -.103E+01 -.596E+00 -.712E+00   0.385E+00 0.222E+00 0.100E+01
   -.126E+02 0.726E+01 -.819E+03   0.120E+02 -.694E+01 0.819E+03   0.103E+01 -.596E+00 -.712E+00   -.391E+00 0.222E+00 0.100E+01
   -.142E+01 0.819E+00 -.836E+03   0.949E+00 -.548E+00 0.835E+03   0.394E+00 -.228E+00 0.672E+00   0.124E+00 -.710E-01 0.573E+00
   -.866E-05 -.145E+02 -.819E+03   0.140E-03 0.139E+02 0.819E+03   0.794E-07 0.119E+01 -.712E+00   -.372E-02 -.449E+00 0.100E+01
   0.142E+01 0.819E+00 -.836E+03   -.949E+00 -.548E+00 0.835E+03   -.394E+00 -.228E+00 0.672E+00   -.122E+00 -.706E-01 0.573E+00
   -.693E+00 -.400E+00 -.852E+03   0.938E+00 0.541E+00 0.851E+03   -.566E-01 -.327E-01 0.713E+00   -.154E+00 -.889E-01 0.573E+00
   0.693E+00 -.400E+00 -.852E+03   -.938E+00 0.541E+00 0.851E+03   0.566E-01 -.327E-01 0.713E+00   0.155E+00 -.881E-01 0.574E+00
   0.116E-04 -.164E+01 -.836E+03   0.196E-03 0.110E+01 0.835E+03   0.303E-07 0.455E+00 0.672E+00   -.269E-03 0.143E+00 0.573E+00
   -.127E-04 -.130E-04 -.246E+04   0.297E-04 0.337E-04 0.246E+04   0.184E-17 0.512E-17 0.538E+00   0.104E-03 0.427E-04 0.424E+00
   0.298E+02 0.469E+02 -.244E+04   -.296E+02 -.468E+02 0.244E+04   -.680E+00 -.908E+00 0.608E+00   0.294E+00 0.468E+00 0.332E+00
   -.298E+02 0.469E+02 -.244E+04   0.296E+02 -.468E+02 0.244E+04   0.680E+00 -.908E+00 0.608E+00   -.294E+00 0.469E+00 0.332E+00
   0.555E+02 0.236E+01 -.244E+04   -.553E+02 -.223E+01 0.244E+04   -.113E+01 -.135E+00 0.608E+00   0.553E+00 0.207E-01 0.332E+00
   -.555E+02 0.236E+01 -.244E+04   0.553E+02 -.223E+01 0.244E+04   0.113E+01 -.135E+00 0.608E+00   -.553E+00 0.215E-01 0.333E+00
   0.257E+02 -.492E+02 -.244E+04   -.257E+02 0.490E+02 0.244E+04   -.446E+00 0.104E+01 0.608E+00   0.259E+00 -.489E+00 0.332E+00
   -.257E+02 -.492E+02 -.244E+04   0.257E+02 0.490E+02 0.244E+04   0.446E+00 0.104E+01 0.608E+00   -.258E+00 -.490E+00 0.333E+00
   0.352E-04 -.291E-04 -.247E+04   0.141E-03 -.492E-04 0.247E+04   -.153E-17 -.252E-17 0.629E+00   -.424E-02 -.215E-02 0.392E+00
   -.161E-04 -.567E-05 -.110E+04   0.635E-04 0.589E-05 0.110E+04   0.447E-17 0.195E-17 0.480E+00   0.157E-02 0.964E-03 0.219E+00
   0.179E-03 -.970E-04 -.163E+04   0.286E-04 0.183E-05 0.166E+04   -.209E-19 -.770E-19 -.290E+02   0.347E-02 0.213E-02 -.966E+00
   -.598E-03 -.867E-03 0.213E+02   -.294E-13 0.214E-12 -.546E-11   0.584E-16 0.221E-15 -.292E+02   0.280E-02 0.232E-02 0.812E+01

 POSITION                                       TOTAL-FORCE (eV/Angst)
      0.00000      0.00000      5.28038        -0.000000      0.000000     -0.126992
      2.93784      0.00000      5.28038         0.000883      0.002971     -0.043337
      5.87568      0.00000      5.28038        -0.000883      0.002971     -0.043337
      1.46892      2.54424      5.28038         0.003015     -0.000721     -0.043337
      4.40676      2.54424      5.28038        -0.000000      0.000000     -0.077293
      7.34459      2.54424      5.28038        -0.003015     -0.000721     -0.043337
      2.93784      5.08848      5.28038         0.002132     -0.002251     -0.043337
      5.87568      5.08848      5.28038        -0.002132     -0.002251     -0.043337
      8.81351      5.08848      5.28038        -0.000000      0.000000     -0.071930
      1.46892      0.84808      7.67911        -0.005374     -0.003103      0.110490
      4.40676      0.84808      7.67911        -0.000000     -0.056544      0.037963
      7.34459      0.84808      7.67911         0.005374     -0.003103      0.110490
      2.93784      3.39232      7.67911        -0.048969      0.028272      0.037963
      5.87568      3.39232      7.67911         0.048969      0.028272      0.037963
      8.81351      3.39232      7.67911        -0.000000     -0.050105      0.105364
      4.40676      5.93656      7.67911         0.000000      0.006205      0.110490
      7.34459      5.93656      7.67911        -0.043392      0.025052      0.105364
     10.28243      5.93656      7.67911         0.043392      0.025052      0.105364
      8.81351      1.69581     10.07501        -0.000000     -0.039241     -0.016869
      2.95207      1.70438     10.04871        -0.076330     -0.044069     -0.050953
      5.86144      1.70438     10.04871         0.076330     -0.044069     -0.050953
     10.26527      4.25031     10.05786         0.047003     -0.027137      0.023632
      4.40676      4.22397     10.04871         0.000000      0.088139     -0.050953
      7.36176      4.25031     10.05786        -0.047003     -0.027137      0.023632
     11.75166      6.78482     10.07501         0.033984      0.019621     -0.016869
      5.87537      6.78482     10.07501        -0.033984      0.019621     -0.016869
      8.81351      6.76483     10.05786         0.000000      0.054274      0.023632
      0.00000      0.00000     12.48798        -0.000000      0.000000     -0.022068
      2.98892      0.08359     12.48152        -0.194264     -0.354928     -0.255870
      5.82460      0.08359     12.48152         0.194264     -0.354928     -0.255870
      1.56685      2.54668     12.48152        -0.404508      0.009227     -0.255870
      7.24666      2.54668     12.48152         0.404508      0.009227     -0.255870
      2.98469      5.00245     12.48152        -0.210245      0.345701     -0.255870
      5.82882      5.00245     12.48152         0.210245      0.345701     -0.255870
      8.81351      5.08848     12.49580        -0.000000      0.000000      0.040024
      4.40676      2.54424     12.17616        -0.000000      0.000000      1.409566
      4.40676      2.54424     13.78043        -0.000000      0.000000      0.015050
    total drift:                                0.002205      0.001458      0.258941

  FREE ENERGIE OF THE ION-ELECTRON SYSTEM (eV)
  free  energy   TOTEN  =      -121.68841409 eV

  energy  without entropy=     -121.68841409  energy(sigma->0) =     -121.68841409

 stress matrix after NEB project (eV)
    -20.01403     -0.00000      0.00000
     -0.00000    -20.01402      0.00000
      0.00000      0.00000      1.43351
  FORCES: max atom, RMS     0.015050    0.002474
  FORCE total and by dimension    0.015050    0.015050
  Stress total and by dimension   28.340384   20.014026
|           W    W    AA    RRRRR   N    N  II  N    N   GGGG   !!!           |
|           W    W   A  A   R    R  NN   N  II  NN   N  G    G  !!!           |
|           W    W  A    A  R    R  N N  N  II  N N  N  G       !!!           |
|           W WW W  AAAAAA  RRRRR   N  N N  II  N  N N  G  GGG   !            |
|           WW  WW  A    A  R   R   N   NN  II  N   NN  G    G                |
|           W    W  A    A  R    R  N    N  II  N    N   GGGG   !!!           |
|     Tetrahedron method does not include variations of the Fermi             |
|     occupations, so forces and stress will be inaccurate. We suggest        |
|     using a different smearing scheme ISMEAR = 1 or 2 for metals in         |
|     relaxations.                                                            |

 total charge

# of ion       s       p       d       tot
    1        0.549   0.238   8.767   9.554
    2        0.543   0.242   8.765   9.549
    3        0.543   0.242   8.765   9.549
    4        0.543   0.242   8.765   9.549
    5        0.545   0.241   8.763   9.549
    6        0.543   0.242   8.765   9.549
    7        0.543   0.242   8.765   9.549
    8        0.543   0.242   8.765   9.549
    9        0.543   0.241   8.766   9.550
   10        0.521   0.308   8.772   9.601
   11        0.518   0.311   8.777   9.606
   12        0.521   0.308   8.772   9.601
   13        0.518   0.311   8.777   9.606
   14        0.518   0.311   8.777   9.606
   15        0.515   0.311   8.772   9.599
   16        0.521   0.308   8.772   9.601
   17        0.515   0.311   8.772   9.599
   18        0.515   0.311   8.772   9.599
   19        0.517   0.298   8.777   9.592
   20        0.554   0.337   8.742   9.633
   21        0.554   0.337   8.742   9.633
   22        0.510   0.312   8.773   9.595
   23        0.554   0.337   8.742   9.633
   24        0.510   0.312   8.773   9.595
   25        0.517   0.298   8.777   9.592
   26        0.517   0.298   8.777   9.592
   27        0.510   0.312   8.773   9.595
   28        0.544   0.222   8.762   9.528
   29        0.553   0.239   8.762   9.554
   30        0.553   0.239   8.762   9.554
   31        0.553   0.239   8.762   9.554
   32        0.553   0.239   8.762   9.554
   33        0.553   0.239   8.762   9.554
   34        0.553   0.239   8.762   9.554
   35        0.538   0.223   8.764   9.525
   36        0.476   0.665   4.487   5.628
   37        1.616   3.262   0.000   4.878
tot         20.790  13.608 311.308 345.706

 BZINTS: Fermi energy:    0.664187;  397.000000 electrons
         Band energy:-0.124442E+04;  BLOECHL correction:   -0.039291