 vasp.6.2.0 18Jan21 (build Jun 12 2021 23:27:24) complex

 executed on             LinuxIFC date 2022.05.28  01:12:10

 INCAR:
   ISMEAR = -5
   SIGMA = 0.1
   ISPIN = 1
   EDIFF = 1.d-5
   EDIFFG = -0.01
   NSW = 0
   NELM = 150
   ENCUT = 500
   ISIF = 2
   IBRION = 2
   LREAL = Auto
   ALGO = Fast
   ICHARG = 11
   LORBIT = 10
   LCHARG = .F.
   LWAVE = .F.

 POTCAR:    PAW_PBE Au 04Oct2007
 POTCAR:    PAW_PBE Re 17Jan2003
 POTCAR:    PAW_PBE H 15Jun2001
 POTCAR:    PAW_PBE O 08Apr2002
|           W    W    AA    RRRRR   N    N  II  N    N   GGGG   !!!           |
|           W    W   A  A   R    R  NN   N  II  NN   N  G    G  !!!           |
|           W    W  A    A  R    R  N N  N  II  N N  N  G       !!!           |
|           W WW W  AAAAAA  RRRRR   N  N N  II  N  N N  G  GGG   !            |
|           WW  WW  A    A  R   R   N   NN  II  N   NN  G    G                |
|           W    W  A    A  R    R  N    N  II  N    N   GGGG   !!!           |
|     For optimal performance we recommend to set                             |
|       NCORE = 2 up to number-of-cores-per-socket                            |
|     This setting can greatly improve the performance of VASP for DFT.       |
|     The default, NCORE=1 might be grossly inefficient on modern             |
|     multi-core architectures or massively parallel machines. Do your        |
|     Unfortunately you need to use the default for GW and RPA                |
|     calculations (for HF NCORE is supported but not extensively tested      |
|     yet).                                                                   |

 POTCAR:    PAW_PBE Au 04Oct2007
   VRHFIN =Au: s1d10

   TITEL  = PAW_PBE Au 04Oct2007
   POMASS =  196.966; ZVAL   =   11.000    mass and valenz
   ENMAX  =  229.943; ENMIN  =  172.457 eV

 POTCAR:    PAW_PBE Re 17Jan2003
   VRHFIN =Re: 5p6s5d

   TITEL  = PAW_PBE Re 17Jan2003
   POMASS =  186.207; ZVAL   =    7.000    mass and valenz
   ENMAX  =  226.216; ENMIN  =  169.662 eV

 POTCAR:    PAW_PBE H 15Jun2001
   VRHFIN =H: ultrasoft test

   TITEL  = PAW_PBE H 15Jun2001
   POMASS =    1.000; ZVAL   =    1.000    mass and valenz
   ENMAX  =  250.000; ENMIN  =  200.000 eV

 POTCAR:    PAW_PBE O 08Apr2002
   VRHFIN =O: s2p4

   TITEL  = PAW_PBE O 08Apr2002
   POMASS =   16.000; ZVAL   =    6.000    mass and valenz
   ENMAX  =  400.000; ENMIN  =  300.000 eV

 Optimization of the real space projectors (new method)

 maximal supplied QI-value         = 15.12
 optimisation between [QCUT,QGAM] = [ 11.34, 22.83] = [ 36.00,145.93] Ry
 Optimized for a Real-space Cutoff    1.39 Angstroem

   l    n(q)    QCUT    max X(q) W(low)/X(q) W(high)/X(q)  e(spline)
   2      9    11.338    60.898    0.39E-03    0.42E-03    0.21E-06
   2      9    11.338    58.894    0.40E-03    0.42E-03    0.22E-06
   0      9    11.338   109.617    0.13E-03    0.20E-04    0.13E-06
   0      9    11.338    75.026    0.13E-03    0.20E-04    0.13E-06
   1      9    11.338    16.344    0.33E-04    0.24E-03    0.18E-06
   1      9    11.338    10.160    0.26E-04    0.19E-03    0.15E-06
 Optimization of the real space projectors (new method)

[...]

   l    n(q)    QCUT    max X(q) W(low)/X(q) W(high)/X(q)  e(spline)
   0      8    11.287    19.460    0.40E-03    0.73E-03    0.16E-06
   0      8    11.287    12.209    0.38E-03    0.70E-03    0.15E-06
   1      7    11.287     4.655    0.22E-03    0.25E-04    0.22E-06
 Optimization of the real space projectors (new method)

 maximal supplied QI-value         = 24.76
 optimisation between [QCUT,QGAM] = [ 11.39, 22.77] = [ 36.31,145.25] Ry
 Optimized for a Real-space Cutoff    1.00 Angstroem

   l    n(q)    QCUT    max X(q) W(low)/X(q) W(high)/X(q)  e(spline)
   0      7    11.387    20.381    0.39E-03    0.13E-02    0.15E-06
   0      7    11.387    15.268    0.42E-03    0.14E-02    0.17E-06
   1      6    11.387     5.964    0.41E-03    0.11E-02    0.17E-06
   1      6    11.387     5.382    0.39E-03    0.87E-03    0.15E-06
  PAW_PBE Au 04Oct2007                  :
  PAW_PBE Re 17Jan2003                  :
  PAW_PBE H 15Jun2001                   :
  PAW_PBE O 08Apr2002                   :

 POSCAR: Au-Re-H2O
  positions in direct lattice
  velocities in cartesian coordinates
 exchange correlation table for  LEXCH =        8
   RHO(1)=    0.500       N(1)  =     2000
   RHO(2)=  100.500       N(2)  =     4000

 VTST: version 3.2, (02/03/18)

 CHAIN: initializing optimizer

 OPT: Using VASP Conjugate-Gradient optimizer
 CHAIN: Read ICHAIN            0

 POSCAR: Au-Re-H2O
  positions in direct lattice
  velocities in cartesian coordinates

 ion  position               nearest neighbor table
   1  0.000  0.000  0.213-  16 2.94  12 2.94   6 2.94   8 2.94   7 2.94   3 2.94  10 2.94   4 2.94
                             2 2.94
   2  0.333  0.000  0.213-   9 2.94  11 2.94  17 2.94  10 2.94   8 2.94   4 2.94   5 2.94   1 2.94
                             3 2.94
   3  0.667  0.000  0.213-   7 2.94  18 2.94  12 2.94   1 2.94  11 2.94   5 2.94   6 2.94   9 2.94
                             2 2.94
   4  0.000  0.333  0.213-  10 2.94   6 2.94   5 2.94  13 2.94   2 2.94  15 2.94   9 2.94   1 2.94
                             7 2.94
   5  0.333  0.333  0.213-  13 2.94   7 2.94  11 2.94   4 2.94   2 2.94  14 2.94   3 2.94   8 2.94
                             6 2.94
   6  0.667  0.333  0.213-  15 2.94  14 2.94   1 2.94  12 2.94   4 2.94   9 2.94   8 2.94   3 2.94
                             5 2.94
   7  0.000  0.667  0.213-  18 2.94   3 2.94  16 2.94   5 2.94   1 2.94  13 2.94   8 2.94   4 2.94
                             9 2.94
   8  0.333  0.667  0.213-   9 2.94  17 2.94   1 2.94   2 2.94  14 2.94  16 2.94   6 2.94   7 2.94
                             5 2.94
   9  0.667  0.667  0.213-   2 2.94   8 2.94  17 2.94   6 2.94  15 2.94   4 2.94   3 2.94  18 2.94
                             7 2.94
  10  0.111  0.111  0.310-  20 2.90  11 2.94  17 2.94   2 2.94   4 2.94   1 2.94  12 2.94  16 2.94
                            13 2.94  15 2.94  26 2.96  19 2.96
  11  0.444  0.111  0.310-  20 2.91  21 2.91  13 2.94   2 2.94  10 2.94  17 2.94   5 2.94   3 2.94
                            18 2.94  14 2.94  12 2.94  27 2.94
  12  0.778  0.111  0.310-  21 2.90  16 2.94  18 2.94   1 2.94  14 2.94  15 2.94   3 2.94   6 2.94
                            10 2.94  11 2.94  25 2.96  19 2.96
  13  0.111  0.444  0.310-  23 2.91  20 2.91   5 2.94  18 2.94  11 2.94   7 2.94   4 2.94  16 2.94
                            10 2.94  14 2.94  15 2.94  22 2.94
  14  0.444  0.444  0.310-  21 2.91  23 2.91  15 2.94   6 2.94  12 2.94   8 2.94  17 2.94   5 2.94
                            16 2.94  13 2.94  11 2.94  24 2.94
  15  0.778  0.444  0.310-  24 2.92  22 2.92  14 2.94   6 2.94  17 2.94  12 2.94   9 2.94   4 2.94
                            10 2.94  13 2.94  18 2.94  19 2.95
  16  0.111  0.778  0.310-  23 2.90  18 2.94  12 2.94   7 2.94   1 2.94   8 2.94  13 2.94  10 2.94
                            14 2.94  17 2.94  25 2.96  26 2.96
  17  0.444  0.778  0.310-  27 2.92  24 2.92   9 2.94  15 2.94   2 2.94  10 2.94  11 2.94   8 2.94
                            14 2.94  16 2.94  18 2.94  26 2.95
  18  0.778  0.778  0.310-  22 2.92  27 2.92  16 2.94   7 2.94  13 2.94  12 2.94   3 2.94  11 2.94
                             9 2.94  15 2.94  17 2.94  25 2.95
  19  0.888  0.224  0.408-  24 2.93  22 2.93  21 2.93  20 2.93  28 2.94  15 2.95  26 2.96  25 2.96
                            10 2.96  12 2.96  32 3.02  31 3.02
  20  0.222  0.222  0.406-  36 2.75  10 2.90  11 2.91  13 2.91  26 2.93  19 2.93  23 2.95  21 2.95
                            27 2.96  22 2.96  29 2.97  31 2.97
  21  0.556  0.222  0.406-  36 2.75  12 2.90  14 2.91  11 2.91  25 2.93  19 2.93  20 2.95  23 2.95
                            27 2.96  24 2.96  30 2.97  32 2.97
  22  0.886  0.557  0.407-  24 2.90  27 2.90  18 2.92  15 2.92  25 2.93  19 2.93  13 2.94  35 2.95
                            23 2.96  20 2.96  33 3.00  31 3.00
  23  0.222  0.556  0.406-  36 2.75  16 2.90  13 2.91  14 2.91  25 2.93  26 2.93  20 2.95  21 2.95
                            22 2.96  24 2.96  33 2.97  34 2.97
  24  0.557  0.557  0.407-  27 2.90  22 2.90  15 2.92  17 2.92  26 2.93  19 2.93  14 2.94  35 2.95
                            21 2.96  23 2.96  32 3.00  34 3.00
  25  0.888  0.888  0.408-  22 2.93  27 2.93  23 2.93  21 2.93  28 2.94  18 2.95  19 2.96  26 2.96
                            16 2.96  12 2.96  33 3.02  30 3.02
  26  0.224  0.888  0.408-  27 2.93  24 2.93  20 2.93  23 2.93  28 2.94  17 2.95  19 2.96  25 2.96
                            10 2.96  16 2.96  29 3.02  34 3.02
  27  0.557  0.886  0.407-  24 2.90  22 2.90  17 2.92  18 2.92  26 2.93  25 2.93  11 2.94  35 2.95
                            20 2.96  21 2.96  29 3.00  30 3.00
  28  0.000  0.000  0.505-  25 2.94  19 2.94  26 2.94  34 2.99  32 2.99  33 2.99  30 2.99  31 2.99
                            29 2.99
  29  0.333  0.011  0.507-  30 2.84  31 2.84  36 2.86  20 2.97  35 2.99  28 2.99  27 3.00  26 3.02
                            34 3.14
  30  0.655  0.011  0.507-  29 2.84  32 2.84  36 2.86  21 2.97  35 2.99  28 2.99  27 3.00  25 3.02
                            33 3.14
  31  0.011  0.333  0.507-  33 2.84  29 2.84  36 2.86  20 2.97  35 2.99  28 2.99  22 3.00  19 3.02
                            32 3.14
  32  0.655  0.333  0.507-  34 2.84  30 2.84  36 2.86  21 2.97  35 2.99  28 2.99  24 3.00  19 3.02
                            31 3.14
  33  0.011  0.655  0.507-  31 2.84  34 2.84  36 2.86  23 2.97  35 2.99  28 2.99  22 3.00  25 3.02
                            30 3.14
  34  0.333  0.655  0.507-  32 2.84  33 2.84  36 2.86  23 2.97  35 2.99  28 2.99  24 3.00  26 3.02
                            29 3.14
  35  0.667  0.667  0.505-  24 2.95  27 2.95  22 2.95  29 2.99  34 2.99  32 2.99  31 2.99  30 2.99
                            33 2.99
  36  0.333  0.333  0.493-  39 2.25  20 2.75  23 2.75  21 2.75  33 2.86  31 2.86  29 2.86  30 2.86
                            34 2.86  32 2.86
  37  0.280  0.262  0.593-  39 0.98
  38  0.458  0.261  0.593-  39 0.98
  39  0.333  0.333  0.584-  37 0.98  38 0.98  36 2.25

  LATTYP: Found a hexagonal cell.
 ALAT       =     8.8135128021
 C/A-ratio  =     2.8075332270

  Lattice vectors:

 A1 = (  -4.4067569092,  -7.6327256898,   0.0000000000)
 A2 = (   8.8135128021,   0.0000000000,   0.0000000000)
 A3 = (   0.0000000000,   0.0000000000,  24.7442300386)

Analysis of symmetry for initial positions (statically):
 Subroutine PRICEL returns:
 Original cell was already a primitive cell.

 Routine SETGRP: Setting up the symmetry group for a
 hexagonal supercell.

 Subroutine GETGRP returns: Found  1 space group operations
 (whereof  1 operations were pure point group operations)
 out of a pool of 24 trial point group operations.

The static configuration has the point symmetry C_1 .

Analysis of symmetry for dynamics (positions and initial velocities):
 Subroutine PRICEL returns:
 Original cell was already a primitive cell.

[...]

The dynamic configuration has the point symmetry C_1 .

Analysis of constrained symmetry for selective dynamics:
 Subroutine PRICEL returns:
[...]
     41      -4.8275      2.00000
     42      -4.8267      2.00000
     43      -4.7657      2.00000
     44      -4.7076      2.00000
     45      -4.6772      2.00000
     46      -4.6537      2.00000
     47      -4.6371      2.00000
     48      -4.6042      2.00000
     49      -4.5928      2.00000
     50      -4.4967      2.00000
     51      -4.4703      2.00000
     52      -4.4527      2.00000
     53      -4.4359      2.00000
     54      -4.4168      2.00000
     55      -4.4131      2.00000
     56      -4.3985      2.00000
     57      -4.3692      2.00000
     58      -4.3255      2.00000
     59      -4.3021      2.00000
     60      -4.2924      2.00000
[...]
    238       5.8188      0.00000
    239       6.0152      0.00000
    240       6.0603      0.00000
    241       6.1190      0.00000
    242       6.2137      0.00000
    243       6.3623      0.00000
    244       6.3917      0.00000
    245       6.4389      0.00000
    246       6.5363      0.00000
    247       6.5763      0.00000
    248       6.6183      0.00000
    249       6.6832      0.00000
    250       6.7230      0.00000
    251       6.8582      0.00000
    252       6.9021      0.00000

 soft charge-density along one line, spin component           1
         0         1         2         3         4         5         6         7         8         9
 total charge-density along one line

------------------------ aborting loop because EDIFF is reached ----------------------------------------

 total charge

# of ion       s       p       d       tot
    1        0.547   0.238   8.766   9.551
    2        0.545   0.241   8.764   9.550
    3        0.545   0.241   8.764   9.550
    4        0.545   0.241   8.764   9.550
    5        0.544   0.241   8.761   9.545
    6        0.545   0.241   8.764   9.550
    7        0.545   0.240   8.765   9.550
    8        0.545   0.240   8.765   9.550
    9        0.541   0.239   8.769   9.549
   10        0.528   0.307   8.765   9.599
   11        0.524   0.306   8.781   9.612
   12        0.528   0.307   8.765   9.599
   13        0.523   0.307   8.781   9.612
   14        0.523   0.307   8.781   9.612
   15        0.515   0.307   8.777   9.599
   16        0.528   0.307   8.765   9.600
   17        0.515   0.307   8.777   9.599
   18        0.515   0.307   8.777   9.599
   19        0.518   0.295   8.773   9.586
   20        0.564   0.345   8.729   9.638
   21        0.564   0.345   8.729   9.638
   22        0.506   0.305   8.779   9.591
   23        0.565   0.345   8.729   9.638
   24        0.506   0.305   8.779   9.591
   25        0.517   0.295   8.774   9.585
   26        0.517   0.295   8.774   9.585
   27        0.508   0.305   8.779   9.592
   28        0.538   0.229   8.756   9.522
   29        0.575   0.259   8.733   9.567
   30        0.575   0.259   8.733   9.567
   31        0.575   0.258   8.732   9.565
   32        0.574   0.258   8.733   9.565
   33        0.570   0.251   8.736   9.558
   34        0.570   0.251   8.736   9.558
   35        0.531   0.228   8.759   9.518
   36        0.480   0.383   4.595   5.457
   37        0.600   0.118   0.000   0.719
   38        0.600   0.118   0.000   0.718
   39        1.567   3.607   0.000   5.174
tot         22.123  13.976 311.211 347.310

  FORCE on cell =-STRESS in cart. coord.  units (eV):
  Direction    XX          YY          ZZ          XY          YZ          ZX
  Alpha Z   929.84082   929.84082   929.84082
  Ewald  155284.06549155219.33456************    -0.36203   -14.02054    -0.01835
  Hartree163710.55209163698.65599************    -0.07161     2.22445     0.02673
  E(xc)   -1794.85368 -1795.08354 -1802.49189    -0.00152    -0.01898     0.00022
  Local  ************************331314.35144     0.33474     5.17066    -0.03037
  n-local  -101.34253  -102.08251   -71.91444    -0.00393     0.08353     0.00023
  augment  2378.02144  2379.23654  2399.69670     0.00548     0.31727     0.00076
  Kinetic  5573.52159  5591.89246  5657.53424     0.10220     6.16347     0.01971
  Fock        0.00000     0.00000     0.00000     0.00000     0.00000     0.00000
  Total     -23.17086   -23.19799     2.14396     0.00333    -0.08014    -0.00107
  in kB     -22.30232   -22.32844     2.06360     0.00321    -0.07714    -0.00103

 VOLUME and BASIS-vectors are now :
  energy-cutoff  :      500.00
  volume of cell :     1664.57
      direct lattice vectors                 reciprocal lattice vectors
     8.813512802  0.000000000  0.000000000     0.113462137 -0.065507406  0.000000000
     4.406756909  7.632725690  0.000000000     0.000000000  0.131014796  0.000000000
     0.000000000  0.000000000 24.744230039     0.000000000  0.000000000  0.040413462

  length of vectors
     8.813512802  8.813512802 24.744230039     0.131014796  0.131014796  0.040413462

 FORCES acting on ions
    electron-ion (+dipol)            ewald-force                    non-local-force                 convergence-correction
   0.118E-02 -.938E-02 0.268E+04   0.206E-04 -.978E-02 -.268E+04   -.120E-03 0.149E-01 -.941E+00   -.108E-02 0.687E-02 -.139E+00
   0.659E+00 0.160E+00 0.268E+04   -.809E+00 -.338E+00 -.268E+04   0.805E-01 0.117E+00 -.134E+00   0.619E-01 0.664E-01 -.213E+00
   -.660E+00 0.149E+00 0.268E+04   0.809E+00 -.337E+00 -.268E+04   -.804E-01 0.116E+00 -.133E+00   -.608E-01 0.768E-01 -.211E+00
   0.468E+00 0.499E+00 0.268E+04   -.688E+00 -.520E+00 -.268E+04   0.131E+00 -.175E-02 -.127E+00   0.901E-01 0.124E-01 -.215E+00
   -.135E-01 -.185E-01 0.268E+04   0.196E-03 0.165E-01 -.268E+04   -.120E-04 0.234E-02 -.291E-01   0.135E-01 -.203E-02 -.266E+00
   -.459E+00 0.494E+00 0.268E+04   0.688E+00 -.521E+00 -.268E+04   -.131E+00 -.162E-02 -.127E+00   -.990E-01 0.173E-01 -.212E+00
   -.213E+00 -.654E+00 0.268E+04   0.121E+00 0.858E+00 -.268E+04   0.667E-01 -.116E+00 -.160E+00   0.299E-01 -.819E-01 -.225E+00
   0.204E+00 -.648E+00 0.268E+04   -.121E+00 0.858E+00 -.268E+04   -.667E-01 -.116E+00 -.161E+00   -.205E-01 -.876E-01 -.224E+00
   0.138E-01 0.186E-01 0.268E+04   0.976E-04 -.649E-02 -.268E+04   0.429E-04 -.887E-02 -.536E+00   -.141E-01 -.288E-02 -.198E+00
   0.827E+01 0.477E+01 0.908E+03   -.771E+01 -.444E+01 -.907E+03   -.479E+00 -.274E+00 -.844E+00   -.552E-01 -.379E-01 0.744E-01
   -.886E-02 0.447E+01 0.916E+03   0.599E-03 -.453E+01 -.916E+03   0.165E-03 0.542E-01 -.205E+00   0.832E-02 -.623E-01 0.701E-01
   -.827E+01 0.477E+01 0.908E+03   0.771E+01 -.444E+01 -.907E+03   0.479E+00 -.274E+00 -.844E+00   0.518E-01 -.328E-01 0.653E-01
   0.385E+01 -.232E+01 0.916E+03   -.393E+01 0.237E+01 -.915E+03   0.694E-01 -.388E-01 -.224E+00   -.494E-01 0.217E-01 0.650E-01
   -.387E+01 -.231E+01 0.916E+03   0.393E+01 0.237E+01 -.915E+03   -.694E-01 -.386E-01 -.223E+00   0.665E-01 0.205E-01 0.555E-01
   0.856E-02 0.510E+01 0.912E+03   -.487E-03 -.525E+01 -.912E+03   -.116E-03 0.445E-01 -.538E+00   -.802E-02 0.328E-01 0.126E+00
   -.208E-02 -.947E+01 0.908E+03   0.434E-03 0.879E+01 -.907E+03   0.599E-05 0.564E+00 -.877E+00   0.163E-02 0.802E-01 0.582E-01
   0.453E+01 -.251E+01 0.912E+03   -.463E+01 0.257E+01 -.912E+03   0.167E-01 -.139E-01 -.555E+00   0.175E-01 -.724E-02 0.124E+00
   -.453E+01 -.252E+01 0.912E+03   0.463E+01 0.257E+01 -.912E+03   -.169E-01 -.137E-01 -.555E+00   -.196E-01 -.114E-02 0.125E+00
   -.964E-02 0.384E+01 -.899E+03   -.431E-02 -.397E+01 0.898E+03   -.493E-03 -.299E-01 0.411E+00   0.146E-01 0.102E+00 0.839E+00
   0.867E+01 0.441E+01 -.847E+03   -.761E+01 -.380E+01 0.847E+03   -.111E+01 -.615E+00 -.134E+01   0.912E-01 0.419E-01 0.113E+01
   -.866E+01 0.440E+01 -.847E+03   0.761E+01 -.380E+01 0.847E+03   0.111E+01 -.615E+00 -.134E+01   -.111E+00 0.458E-01 0.113E+01
   -.607E+01 0.325E+01 -.877E+03   0.558E+01 -.298E+01 0.876E+03   0.515E+00 -.278E+00 0.605E+00   -.116E-01 -.163E-02 0.884E+00
   0.247E-02 -.102E+02 -.849E+03   0.486E-02 0.893E+01 0.849E+03   -.251E-03 0.135E+01 -.133E+01   -.728E-02 -.122E+00 0.112E+01
   0.607E+01 0.324E+01 -.877E+03   -.558E+01 -.298E+01 0.876E+03   -.515E+00 -.278E+00 0.605E+00   0.140E-01 0.712E-02 0.882E+00
   -.379E+01 -.137E+01 -.900E+03   0.390E+01 0.147E+01 0.898E+03   0.380E-01 -.226E-01 0.480E+00   -.978E-01 -.437E-01 0.834E+00
   0.378E+01 -.137E+01 -.900E+03   -.390E+01 0.146E+01 0.898E+03   -.374E-01 -.228E-01 0.481E+00   0.116E+00 -.365E-01 0.838E+00
   0.795E-02 -.620E+01 -.876E+03   -.834E-04 0.559E+01 0.875E+03   -.240E-03 0.612E+00 0.559E+00   -.763E-02 0.128E-01 0.869E+00
   -.214E-02 0.209E+01 -.261E+04   -.557E-02 -.213E+01 0.261E+04   0.764E-04 0.192E-01 0.376E+00   0.765E-02 0.233E-02 0.546E+00
   0.329E+02 0.561E+02 -.259E+04   -.321E+02 -.549E+02 0.259E+04   -.105E+01 -.163E+01 -.673E+00   0.145E+00 0.200E+00 0.388E+00
   -.329E+02 0.561E+02 -.259E+04   0.321E+02 -.549E+02 0.259E+04   0.105E+01 -.163E+01 -.677E+00   -.162E+00 0.206E+00 0.394E+00
   0.616E+02 -.293E+01 -.260E+04   -.600E+02 0.303E+01 0.260E+04   -.195E+01 -.116E+00 -.600E+00   0.260E+00 0.390E-01 0.407E+00
   -.615E+02 -.295E+01 -.260E+04   0.599E+02 0.304E+01 0.260E+04   0.195E+01 -.117E+00 -.594E+00   -.275E+00 0.452E-01 0.414E+00
   0.269E+02 -.502E+02 -.260E+04   -.263E+02 0.490E+02 0.260E+04   -.809E+00 0.161E+01 -.219E+00   0.936E-01 -.260E+00 0.417E+00
   -.270E+02 -.502E+02 -.260E+04   0.263E+02 0.490E+02 0.260E+04   0.808E+00 0.161E+01 -.216E+00   -.987E-01 -.258E+00 0.419E+00
   0.216E-01 0.128E+01 -.261E+04   -.144E-01 -.126E+01 0.261E+04   0.196E-03 0.858E-03 0.539E+00   -.775E-02 -.209E-01 0.430E+00
   -.353E-01 -.521E+01 -.146E+04   0.331E-01 0.527E+01 0.146E+04   0.990E-04 -.196E-01 0.137E+01   0.294E-02 0.370E-02 0.349E+00
   0.678E+02 0.431E+02 -.290E+03   -.746E+02 -.475E+02 0.292E+03   0.680E+01 0.439E+01 -.171E+01   -.273E-02 0.164E-03 -.284E-01
   -.673E+02 0.439E+02 -.290E+03   0.740E+02 -.483E+02 0.292E+03   -.675E+01 0.446E+01 -.171E+01   0.299E-02 0.491E-03 -.287E-01
   -.333E+00 -.563E+02 -.164E+04   0.574E+00 0.997E+02 0.164E+04   -.246E+00 -.435E+02 0.429E+01   0.549E-02 0.154E-01 -.211E+00
   0.210E+00 0.348E+02 -.247E+01   0.139E-13 -.256E-12 0.773E-11   -.197E+00 -.348E+02 -.791E+01   -.131E-01 -.814E-03 0.109E+02

 POSITION                                       TOTAL-FORCE (eV/Angst)
      0.00000      0.00000      5.28038         0.000014      0.002365     -0.101805
      2.93784      0.00000      5.28038        -0.008131      0.004817     -0.026028
      5.87568      0.00000      5.28038         0.008179      0.004843     -0.026114
      1.46892      2.54424      5.28038         0.000965     -0.010619     -0.023765
      4.40676      2.54424      5.28038         0.000246     -0.001859     -0.061288
      7.34459      2.54424      5.28038        -0.000952     -0.010633     -0.023668
      2.93784      5.08848      5.28038         0.004418      0.005589     -0.023137
      5.87568      5.08848      5.28038        -0.004380      0.005563     -0.023015
      8.81351      5.08848      5.28038        -0.000155      0.000136     -0.038643
      1.46892      0.84808      7.67911         0.032024      0.018624      0.151093
      4.40676      0.84808      7.67911         0.000247     -0.070722     -0.015018
      7.34459      0.84808      7.67911        -0.031970      0.018622      0.151035
      2.93784      3.39232      7.67911        -0.054351      0.035139     -0.012025
      5.87568      3.39232      7.67911         0.054844      0.035202     -0.012132
      8.81351      3.39232      7.67911        -0.000036     -0.067865      0.076999
      4.40676      5.93656      7.67911         0.000017     -0.037319      0.141596
      7.34459      5.93656      7.67911        -0.060013      0.033815      0.078801
     10.28243      5.93656      7.67911         0.060082      0.033888      0.078789
      8.81351      1.70659     10.09931         0.000200     -0.057895      0.003553
      2.93410      1.69400     10.03753         0.048738      0.029160     -0.065844
      5.87941      1.69400     10.03753        -0.049165      0.029311     -0.066182
     10.26439      4.25082     10.06692         0.009577     -0.007242      0.007553
      4.40676      4.24472     10.03753        -0.000174     -0.040817     -0.031199
      7.36264      4.25082     10.06692        -0.009627     -0.007409      0.007778
     11.74232      6.77943     10.09931         0.049354      0.029255      0.004949
      5.88471      6.77943     10.09931        -0.048840      0.029336      0.005017
      8.81351      6.76381     10.06692         0.000021      0.011284     -0.002615
      0.00000      0.00000     12.49835         0.000042     -0.015281     -0.102880
      2.98825      0.08685     12.53577        -0.086718     -0.164335     -0.073623
      5.82526      0.08685     12.53577         0.086348     -0.164087     -0.073155
      1.56934      2.54447     12.53577        -0.153802      0.016059     -0.075537
      7.24417      2.54447     12.53577         0.153469      0.016132     -0.075928
      2.98785      5.00140     12.53577        -0.102293      0.131791     -0.108961
      5.82567      5.00140     12.53577         0.102141      0.131956     -0.109255
      8.81351      5.08848     12.49628        -0.000312     -0.002774     -0.052686
      4.40676      2.54424     12.20474         0.000854      0.037666      0.521695
      3.61820      1.99983     14.66849         0.004848     -0.000536      0.002785
      5.18908      1.99114     14.66929        -0.006452      0.000472      0.001207
      4.40676      2.54407     14.45940         0.000744     -0.001627     -0.008348
    total drift:                               -0.000852      0.007807      0.499682

  FREE ENERGIE OF THE ION-ELECTRON SYSTEM (eV)
  free  energy   TOTEN  =      -130.86545977 eV

  energy  without entropy=     -130.86545977  energy(sigma->0) =     -130.86545977

 stress matrix after NEB project (eV)
    -23.17086      0.00333     -0.00107
      0.00333    -23.19799     -0.08014
     -0.00107     -0.08014      2.14396
  FORCES: max atom, RMS     0.008538    0.001946
  FORCE total and by dimension    0.012155    0.008348
  Stress total and by dimension   32.857956   23.197995
|           W    W    AA    RRRRR   N    N  II  N    N   GGGG   !!!           |
|           W    W   A  A   R    R  NN   N  II  NN   N  G    G  !!!           |
|           W    W  A    A  R    R  N N  N  II  N N  N  G       !!!           |
|           W WW W  AAAAAA  RRRRR   N  N N  II  N  N N  G  GGG   !            |
|           WW  WW  A    A  R   R   N   NN  II  N   NN  G    G                |
|           W    W  A    A  R    R  N    N  II  N    N   GGGG   !!!           |
|     Tetrahedron method does not include variations of the Fermi             |
|     occupations, so forces and stress will be inaccurate. We suggest        |
|     using a different smearing scheme ISMEAR = 1 or 2 for metals in         |
|     relaxations.                                                            |

 total charge

# of ion       s       p       d       tot
    1        0.547   0.238   8.766   9.551
    2        0.545   0.241   8.764   9.550
    3        0.545   0.241   8.764   9.550
    4        0.545   0.241   8.764   9.550
    5        0.544   0.241   8.761   9.545
    6        0.545   0.241   8.764   9.550
    7        0.545   0.240   8.765   9.550
    8        0.545   0.240   8.765   9.550
    9        0.541   0.239   8.769   9.549
   10        0.528   0.307   8.765   9.599
   11        0.524   0.306   8.781   9.612
   12        0.528   0.307   8.765   9.599
   13        0.523   0.307   8.781   9.612
   14        0.523   0.307   8.781   9.612
   15        0.515   0.307   8.777   9.599
   16        0.528   0.307   8.765   9.600
   17        0.515   0.307   8.777   9.599
   18        0.515   0.307   8.777   9.599
   19        0.518   0.295   8.773   9.586
   20        0.564   0.345   8.729   9.638
   21        0.564   0.345   8.729   9.638
   22        0.506   0.305   8.779   9.591
   23        0.565   0.345   8.729   9.638
   24        0.506   0.305   8.779   9.591
   25        0.517   0.295   8.774   9.585
   26        0.517   0.295   8.774   9.585
   27        0.508   0.305   8.779   9.592
   28        0.538   0.229   8.756   9.522
   29        0.575   0.259   8.733   9.567
   30        0.575   0.259   8.733   9.567
   31        0.575   0.258   8.732   9.565
   32        0.574   0.258   8.733   9.565
   33        0.570   0.251   8.736   9.558
   34        0.570   0.251   8.736   9.558
   35        0.531   0.228   8.759   9.518
   36        0.480   0.383   4.595   5.457
   37        0.600   0.118   0.000   0.719
   38        0.600   0.118   0.000   0.718
   39        1.567   3.607   0.000   5.174
tot         22.123  13.976 311.211 347.310

 BZINTS: Fermi energy:    0.368839;  400.000000 electrons
         Band energy:-0.139735E+04;  BLOECHL correction:   -0.048733