 vasp.6.2.0 18Jan21 (build Jun 12 2021 23:27:24) complex

 executed on             LinuxIFC date 2022.05.26  19:53:48

 INCAR:
   ISMEAR = -5
   SIGMA = 0.1
   ISPIN = 1
   EDIFF = 1.d-5
   EDIFFG = -0.01
   NSW = 0
   NELM = 150
   ENCUT = 500
   ISIF = 2
   IBRION = 2
   LREAL = Auto
   ALGO = Fast
   ICHARG = 11
   LORBIT = 10
   LCHARG = .F.
   LWAVE = .F.

 POTCAR:    PAW_PBE Ag 02Apr2005
 POTCAR:    PAW_PBE Os 17Jan2003
 POTCAR:    PAW_PBE N 08Apr2002
|           W    W    AA    RRRRR   N    N  II  N    N   GGGG   !!!           |
|           W    W   A  A   R    R  NN   N  II  NN   N  G    G  !!!           |
|           W    W  A    A  R    R  N N  N  II  N N  N  G       !!!           |
|           W WW W  AAAAAA  RRRRR   N  N N  II  N  N N  G  GGG   !            |
|           WW  WW  A    A  R   R   N   NN  II  N   NN  G    G                |
|           W    W  A    A  R    R  N    N  II  N    N   GGGG   !!!           |
|     For optimal performance we recommend to set                             |
|       NCORE = 2 up to number-of-cores-per-socket                            |
|     This setting can greatly improve the performance of VASP for DFT.       |
|     The default, NCORE=1 might be grossly inefficient on modern             |
|     multi-core architectures or massively parallel machines. Do your        |
|     Unfortunately you need to use the default for GW and RPA                |
|     calculations (for HF NCORE is supported but not extensively tested      |
|     yet).                                                                   |

 POTCAR:    PAW_PBE Ag 02Apr2005
   VRHFIN =Ag : s1 d10

   TITEL  = PAW_PBE Ag 02Apr2005
   POMASS =  107.868; ZVAL   =   11.000    mass and valenz
   ENMAX  =  249.844; ENMIN  =  187.383 eV

 POTCAR:    PAW_PBE Os 17Jan2003
   VRHFIN =Os: 6s5d

   TITEL  = PAW_PBE Os 17Jan2003
   POMASS =  190.200; ZVAL   =    8.000    mass and valenz
   ENMAX  =  228.022; ENMIN  =  171.017 eV

 POTCAR:    PAW_PBE N 08Apr2002
   VRHFIN =N: s2p3

   TITEL  = PAW_PBE N 08Apr2002
   POMASS =   14.001; ZVAL   =    5.000    mass and valenz
   ENMAX  =  400.000; ENMIN  =  300.000 eV

 Optimization of the real space projectors (new method)

 maximal supplied QI-value         = 15.12
 optimisation between [QCUT,QGAM] = [ 11.34, 22.83] = [ 36.00,145.93] Ry
 Optimized for a Real-space Cutoff    1.43 Angstroem

   l    n(q)    QCUT    max X(q) W(low)/X(q) W(high)/X(q)  e(spline)
   2      9    11.338    53.897    0.16E-03    0.20E-03    0.28E-06
   2      9    11.338    52.416    0.16E-03    0.20E-03    0.29E-06
   0     10    11.338   122.045    0.31E-04    0.76E-04    0.15E-06
   0     10    11.338    73.629    0.30E-04    0.72E-04    0.15E-06
   1      9    11.338    15.255    0.20E-03    0.19E-04    0.17E-06
   1      9    11.338     9.562    0.16E-03    0.15E-04    0.14E-06
 Optimization of the real space projectors (new method)

[...]

   l    n(q)    QCUT    max X(q) W(low)/X(q) W(high)/X(q)  e(spline)
   2     10    11.327   152.873    0.32E-03    0.72E-03    0.11E-05
   2     10    11.327   151.010    0.32E-03    0.72E-03    0.11E-05
   0     11    11.327    72.114    0.43E-04    0.61E-04    0.13E-06
   0     11    11.327    44.596    0.40E-04    0.57E-04    0.12E-06
   1     10    11.327    13.742    0.16E-03    0.10E-03    0.19E-06
   1     10    11.327     8.461    0.12E-03    0.78E-04    0.15E-06
 Optimization of the real space projectors (new method)

 maximal supplied QI-value         = 25.13
 optimisation between [QCUT,QGAM] = [ 11.31, 22.87] = [ 35.82,146.48] Ry
 Optimized for a Real-space Cutoff    1.27 Angstroem

   l    n(q)    QCUT    max X(q) W(low)/X(q) W(high)/X(q)  e(spline)
   0      9    11.310    79.467    0.75E-04    0.16E-03    0.36E-06
   0      9    11.310    66.151    0.74E-04    0.16E-03    0.36E-06
   1      8    11.310    17.416    0.35E-03    0.12E-03    0.95E-06
   1      8    11.310    12.382    0.37E-03    0.13E-03    0.98E-06
  PAW_PBE Ag 02Apr2005                  :
  PAW_PBE Os 17Jan2003                  :
  PAW_PBE N 08Apr2002                   :

 POSCAR: Ag-Os-N
  positions in direct lattice
  velocities in cartesian coordinates
 exchange correlation table for  LEXCH =        8
   RHO(1)=    0.500       N(1)  =     2000
   RHO(2)=  100.500       N(2)  =     4000

 VTST: version 3.2, (02/03/18)

 CHAIN: initializing optimizer

 OPT: Using VASP Conjugate-Gradient optimizer
 CHAIN: Read ICHAIN            0

 POSCAR: Ag-Os-N
  positions in direct lattice
  velocities in cartesian coordinates

 ion  position               nearest neighbor table
   1  0.000  0.000  0.238-   2 2.93   8 2.93   7 2.93   6 2.93   4 2.93  12 2.93  16 2.93  10 2.93
                             3 2.93
   2  0.333  0.000  0.238-   1 2.93   8 2.93   9 2.93   3 2.93   4 2.93   5 2.93  10 2.93  17 2.93
                            11 2.93
   3  0.667  0.000  0.238-   9 2.93   2 2.93   5 2.93  11 2.93   7 2.93  18 2.93   1 2.93   6 2.93
                            12 2.93
   4  0.000  0.333  0.238-   5 2.93   6 2.93   2 2.93   1 2.93   7 2.93  13 2.93  15 2.93   9 2.93
                            10 2.93
   5  0.333  0.333  0.238-   4 2.93   3 2.93   7 2.93   2 2.93   8 2.93  14 2.93  13 2.93  11 2.93
                             6 2.93
   6  0.667  0.333  0.238-   4 2.93   9 2.93   1 2.93  15 2.93   8 2.93  12 2.93   3 2.93   5 2.93
                            14 2.93
   7  0.000  0.667  0.238-   8 2.93   1 2.93   5 2.93   3 2.93   4 2.93  16 2.93  18 2.93  13 2.93
                             9 2.93
   8  0.333  0.667  0.238-   7 2.93   1 2.93   2 2.93   9 2.93   5 2.93  16 2.93   6 2.93  17 2.93
                            14 2.93
   9  0.667  0.667  0.238-   3 2.93   2 2.93   8 2.93   6 2.93  17 2.93   4 2.93  15 2.93   7 2.93
                            18 2.93
  10  0.111  0.111  0.346-  20 2.89  12 2.93  16 2.93  15 2.93  17 2.93  13 2.93  11 2.93   2 2.93
                             1 2.93   4 2.93  19 2.93  26 2.93
  11  0.444  0.111  0.346-  21 2.89  20 2.89  27 2.92  14 2.93  17 2.93  18 2.93   3 2.93  12 2.93
                            13 2.93  10 2.93   5 2.93   2 2.93
  12  0.778  0.111  0.346-  21 2.89  10 2.93  16 2.93  18 2.93  15 2.93  11 2.93   1 2.93  14 2.93
                             6 2.93   3 2.93  25 2.93  19 2.93
  13  0.111  0.444  0.346-  20 2.89  23 2.89  22 2.92  15 2.93  14 2.93  18 2.93  10 2.93  11 2.93
                            16 2.93   4 2.93   5 2.93   7 2.93
  14  0.444  0.444  0.346-  23 2.89  21 2.89  24 2.92  13 2.93  11 2.93  16 2.93   5 2.93  12 2.93
                            17 2.93   8 2.93  15 2.93   6 2.93
  15  0.778  0.444  0.346-  24 2.92  22 2.92  19 2.93  13 2.93  10 2.93  12 2.93  17 2.93  18 2.93
                             4 2.93   6 2.93   9 2.93  14 2.93
  16  0.111  0.778  0.346-  23 2.89  18 2.93  12 2.93  10 2.93  14 2.93  17 2.93  13 2.93   7 2.93
                             8 2.93   1 2.93  26 2.93  25 2.93
  17  0.444  0.778  0.346-  27 2.92  24 2.92  26 2.93  11 2.93  10 2.93   9 2.93  18 2.93  15 2.93
                            16 2.93   2 2.93  14 2.93   8 2.93
  18  0.778  0.778  0.346-  22 2.92  27 2.92  25 2.93  16 2.93  12 2.93  13 2.93  11 2.93  17 2.93
                            15 2.93   7 2.93   3 2.93   9 2.93
  19  0.888  0.223  0.454-  28 2.90  24 2.93  22 2.93  15 2.93  20 2.93  21 2.93  10 2.93  12 2.93
                            26 2.94  25 2.94  32 2.95  31 2.95
  20  0.222  0.222  0.452-  36 2.76  13 2.89  11 2.89  10 2.89  31 2.93  29 2.93  21 2.93  23 2.93
                            19 2.93  26 2.93  27 2.94  22 2.94
  21  0.556  0.222  0.452-  36 2.76  11 2.89  14 2.89  12 2.89  30 2.93  32 2.93  20 2.93  23 2.93
                            25 2.93  19 2.93  27 2.94  24 2.94
  22  0.888  0.556  0.453-  35 2.90  18 2.92  15 2.92  24 2.92  27 2.92  13 2.92  25 2.93  19 2.93
                            33 2.94  31 2.94  23 2.94  20 2.94
  23  0.222  0.556  0.452-  36 2.76  14 2.89  13 2.89  16 2.89  34 2.93  33 2.93  21 2.93  20 2.93
                            26 2.93  25 2.93  22 2.94  24 2.94
  24  0.556  0.556  0.453-  35 2.90  15 2.92  17 2.92  27 2.92  22 2.92  14 2.92  19 2.93  26 2.93
                            32 2.94  34 2.94  23 2.94  21 2.94
  25  0.888  0.888  0.454-  28 2.90  22 2.93  27 2.93  18 2.93  23 2.93  21 2.93  16 2.93  12 2.93
                            26 2.94  19 2.94  33 2.95  30 2.95
  26  0.223  0.888  0.454-  28 2.90  27 2.93  24 2.93  17 2.93  23 2.93  20 2.93  16 2.93  10 2.93
                            25 2.94  19 2.94  34 2.95  29 2.95
  27  0.556  0.888  0.453-  35 2.90  17 2.92  18 2.92  24 2.92  22 2.92  11 2.92  26 2.93  25 2.93
                            29 2.94  30 2.94  20 2.94  21 2.94
  28  0.000  0.000  0.560-  26 2.90  25 2.90  19 2.90  29 2.96  34 2.96  33 2.96  32 2.96  31 2.96
                            30 2.96
  29  0.333  0.008  0.561-  31 2.86  30 2.87  36 2.88  20 2.93  27 2.94  26 2.95  28 2.96  35 2.97
                            34 3.06
  30  0.659  0.008  0.561-  32 2.86  29 2.87  36 2.88  21 2.93  27 2.94  25 2.95  28 2.96  35 2.97
                            33 3.06
  31  0.008  0.333  0.561-  29 2.86  33 2.87  36 2.88  20 2.93  22 2.94  19 2.95  28 2.96  35 2.97
                            32 3.06
  32  0.659  0.333  0.561-  30 2.86  34 2.87  36 2.88  21 2.93  24 2.94  19 2.95  28 2.96  35 2.97
                            31 3.06
  33  0.008  0.659  0.561-  34 2.86  31 2.87  36 2.88  23 2.93  22 2.94  25 2.95  28 2.96  35 2.97
                            30 3.06
  34  0.333  0.659  0.561-  33 2.86  32 2.87  36 2.88  23 2.93  24 2.94  26 2.95  28 2.96  35 2.97
                            29 3.06
  35  0.667  0.667  0.560-  24 2.90  27 2.90  22 2.90  30 2.97  32 2.97  29 2.97  34 2.97  31 2.97
                            33 2.97
  36  0.333  0.333  0.550-  37 1.69  21 2.76  20 2.76  23 2.76  31 2.88  30 2.88  33 2.88  29 2.88
                            34 2.88  32 2.88
  37  0.333  0.333  0.626-  36 1.69

  LATTYP: Found a hexagonal cell.
 ALAT       =     8.7913665772
 C/A-ratio  =     2.5227160501

  Lattice vectors:

 A1 = (  -4.3956832886,  -7.6135467898,   0.0000000000)
 A2 = (   8.7913665771,   0.0000000000,   0.0000000000)
 A3 = (   0.0000000000,   0.0000000000,  22.1781215668)

Analysis of symmetry for initial positions (statically):
 Subroutine PRICEL returns:
 Original cell was already a primitive cell.

 Routine SETGRP: Setting up the symmetry group for a
 hexagonal supercell.

 Subroutine GETGRP returns: Found  6 space group operations
 (whereof  6 operations were pure point group operations)
 out of a pool of 24 trial point group operations.

The static configuration has the point symmetry C_3v.

Analysis of symmetry for dynamics (positions and initial velocities):
 Subroutine PRICEL returns:
 Original cell was already a primitive cell.

[...]

The dynamic configuration has the point symmetry C_3v.

Analysis of constrained symmetry for selective dynamics:
 Subroutine PRICEL returns:
 Original cell was already a primitive cell.

 Routine SETGRP: Setting up the symmetry group for a
 hexagonal supercell.

 Subroutine GETGRP returns: Found  6 space group operations
[...]
     24      -4.6655      2.00000
     25      -4.6426      2.00000
     26      -4.6215      2.00000
     27      -4.6109      2.00000
     28      -4.5820      2.00000
     29      -4.5697      2.00000
     30      -4.5611      2.00000
     31      -4.5452      2.00000
     32      -4.5279      2.00000
     33      -4.5133      2.00000
     34      -4.5113      2.00000
     35      -4.4706      2.00000
     36      -4.4447      2.00000
     37      -4.4268      2.00000
     38      -4.4028      2.00000
     39      -4.3910      2.00000
     40      -4.3696      2.00000
     41      -4.3469      2.00000
     42      -4.3249      2.00000
     43      -4.3030      2.00000
     44      -4.2633      2.00000
     45      -4.2109      2.00000
     46      -4.2033      2.00000
     47      -4.1882      2.00000
     48      -4.1762      2.00000
     49      -4.1732      2.00000
     50      -4.1610      2.00000
     51      -4.1531      2.00000
     52      -4.1490      2.00000
     53      -4.1322      2.00000
     54      -4.1061      2.00000
     55      -4.0845      2.00000
     56      -4.0608      2.00000
     57      -4.0505      2.00000
     58      -4.0414      2.00000
     59      -4.0169      2.00000
     60      -4.0031      2.00000
[...]
    238       6.2946      0.00000
    239       6.3827      0.00000
    240       6.4433      0.00000
    241       7.2067      0.00000
    242       7.2422      0.00000
    243       7.2805      0.00000
    244       7.3153      0.00000
    245       7.3525      0.00000
    246       7.3783      0.00000
    247       7.4495      0.00000
    248       7.5809      0.00000
    249       7.6269      0.00000
    250       7.6429      0.00000
    251       7.6882      0.00000
    252       7.8028      0.00000

 soft charge-density along one line, spin component           1
         0         1         2         3         4         5         6         7         8         9
 total charge-density along one line

------------------------ aborting loop because EDIFF is reached ----------------------------------------

 total charge

# of ion       s       p       d       tot
    1        0.419   0.201   9.178   9.798
    2        0.415   0.204   9.177   9.796
    3        0.415   0.204   9.177   9.796
    4        0.415   0.204   9.177   9.796
    5        0.422   0.201   9.176   9.799
    6        0.415   0.204   9.177   9.796
    7        0.415   0.204   9.177   9.796
    8        0.415   0.204   9.177   9.796
    9        0.413   0.204   9.176   9.793
   10        0.408   0.267   9.165   9.840
   11        0.403   0.274   9.165   9.842
   12        0.408   0.267   9.165   9.840
   13        0.403   0.274   9.165   9.842
   14        0.403   0.274   9.165   9.842
   15        0.403   0.269   9.165   9.837
   16        0.408   0.267   9.165   9.840
   17        0.403   0.269   9.165   9.837
   18        0.403   0.269   9.165   9.837
   19        0.405   0.264   9.167   9.836
   20        0.434   0.302   9.145   9.882
   21        0.434   0.302   9.145   9.882
   22        0.394   0.276   9.166   9.836
   23        0.434   0.302   9.145   9.882
   24        0.394   0.276   9.166   9.836
   25        0.405   0.264   9.167   9.836
   26        0.405   0.264   9.167   9.836
   27        0.394   0.276   9.166   9.836
   28        0.417   0.194   9.182   9.793
   29        0.404   0.219   9.179   9.803
   30        0.404   0.219   9.179   9.803
   31        0.404   0.219   9.179   9.803
   32        0.404   0.219   9.179   9.803
   33        0.404   0.219   9.179   9.803
   34        0.404   0.219   9.179   9.803
   35        0.414   0.195   9.183   9.791
   36        0.693   0.613   6.165   7.471
   37        1.351   2.213   0.000   3.564
tot         16.386  11.318 327.116 354.819

  FORCE on cell =-STRESS in cart. coord.  units (eV):
  Direction    XX          YY          ZZ          XY          YZ          ZX
  Alpha Z   767.66604   767.66604   767.66604
  Ewald  120901.25488120901.25492************     0.00003    -0.00000     0.00003
  Hartree131113.03261131113.03262************     0.00001    -0.00000     0.00001
  E(xc)   -2087.04638 -2087.04637 -2092.26678    -0.00001     0.00000     0.00000
  Local  ************************263410.95319     0.00037    -0.00005    -0.00014
  n-local  -361.79832  -343.52032  -350.48156    11.43606    -0.36538     0.52644
  augment  3238.71368  3238.71380  3242.96688    -0.00010     0.00000     0.00008
  Kinetic  4985.13381  4987.67160  4979.47242     4.39219     1.03907    -0.40702
  Fock        0.00000     0.00000     0.00000     0.00000     0.00000     0.00000
  Total      -6.04594    -6.04594     0.09756    -0.00000     0.00000    -0.00000
  in kB      -6.52538    -6.52538     0.10530    -0.00000     0.00000    -0.00000

 VOLUME and BASIS-vectors are now :
  energy-cutoff  :      500.00
  volume of cell :     1484.46
      direct lattice vectors                 reciprocal lattice vectors
     8.791366577  0.000000000  0.000000000     0.113747958 -0.065672414  0.000000000
     4.395683289  7.613546790  0.000000000     0.000000000  0.131344829  0.000000000
     0.000000000  0.000000000 22.178121567     0.000000000  0.000000000  0.045089481

  length of vectors
     8.791366577  8.791366577 22.178121567     0.131344829  0.131344829  0.045089481

 FORCES acting on ions
    electron-ion (+dipol)            ewald-force                    non-local-force                 convergence-correction
   0.459E-04 -.283E-04 0.251E+04   -.954E-04 0.593E-04 -.251E+04   0.104E-16 -.287E-17 -.191E+01   -.126E-03 -.179E-03 -.109E+00
   0.527E+00 0.475E+00 0.251E+04   -.566E+00 -.563E+00 -.251E+04   0.237E-01 0.105E+00 -.165E+01   0.223E-01 -.103E-01 -.847E-01
   -.527E+00 0.475E+00 0.251E+04   0.566E+00 -.563E+00 -.251E+04   -.237E-01 0.105E+00 -.165E+01   -.228E-01 -.829E-02 -.840E-01
   0.674E+00 0.219E+00 0.251E+04   -.770E+00 -.208E+00 -.251E+04   0.103E+00 -.322E-01 -.165E+01   0.245E-02 0.246E-01 -.847E-01
   -.626E-05 -.192E-04 0.251E+04   0.980E-04 -.197E-05 -.251E+04   0.354E-18 0.411E-19 -.157E+01   0.630E-02 0.385E-02 -.153E-01
   -.674E+00 0.219E+00 0.251E+04   0.770E+00 -.209E+00 -.251E+04   -.103E+00 -.322E-01 -.165E+01   -.391E-02 0.256E-01 -.837E-01
   0.148E+00 -.693E+00 0.251E+04   -.205E+00 0.771E+00 -.251E+04   0.795E-01 -.732E-01 -.165E+01   -.181E-01 -.151E-01 -.839E-01
   -.148E+00 -.693E+00 0.251E+04   0.204E+00 0.771E+00 -.251E+04   -.795E-01 -.732E-01 -.165E+01   0.198E-01 -.161E-01 -.837E-01
   0.361E-04 -.131E-04 0.251E+04   0.792E-04 -.643E-04 -.251E+04   -.310E-17 -.334E-17 -.172E+01   -.670E-02 -.346E-02 -.705E-01
   0.657E+01 0.379E+01 0.849E+03   -.625E+01 -.361E+01 -.848E+03   -.340E+00 -.196E+00 -.638E+00   -.470E-02 -.269E-02 0.401E-02
   -.287E-04 0.572E+01 0.856E+03   0.410E-04 -.586E+01 -.856E+03   0.977E-12 0.149E+00 -.425E+00   0.644E-02 -.472E-01 -.108E-01
   -.657E+01 0.379E+01 0.849E+03   0.625E+01 -.361E+01 -.848E+03   0.340E+00 -.196E+00 -.638E+00   0.294E-02 -.120E-02 0.453E-02
   0.495E+01 -.286E+01 0.856E+03   -.508E+01 0.293E+01 -.856E+03   0.129E+00 -.744E-01 -.425E+00   -.378E-01 0.292E-01 -.109E-01
   -.495E+01 -.286E+01 0.856E+03   0.508E+01 0.293E+01 -.856E+03   -.129E+00 -.744E-01 -.425E+00   0.489E-01 0.285E-01 -.107E-01
   0.159E-04 0.168E+01 0.849E+03   -.109E-03 -.176E+01 -.849E+03   0.107E-13 0.163E-02 -.620E+00   -.195E-02 0.581E-01 -.367E-01
   -.806E-05 -.758E+01 0.849E+03   0.205E-04 0.721E+01 -.848E+03   0.258E-11 0.393E+00 -.638E+00   0.387E-03 0.307E-02 0.454E-02
   0.145E+01 -.838E+00 0.849E+03   -.153E+01 0.882E+00 -.849E+03   0.141E-02 -.814E-03 -.620E+00   0.493E-01 -.308E-01 -.367E-01
   -.145E+01 -.838E+00 0.849E+03   0.153E+01 0.882E+00 -.849E+03   -.141E-02 -.814E-03 -.620E+00   -.494E-01 -.286E-01 -.363E-01
   0.394E-04 0.226E+01 -.844E+03   -.128E-03 -.208E+01 0.843E+03   -.716E-12 -.109E+00 0.568E+00   -.616E-02 -.733E-01 -.655E-02
   0.118E+02 0.682E+01 -.803E+03   -.109E+02 -.630E+01 0.804E+03   -.100E+01 -.580E+00 -.593E+00   -.693E-01 -.399E-01 -.333E-02
   -.118E+02 0.682E+01 -.803E+03   0.109E+02 -.630E+01 0.804E+03   0.100E+01 -.580E+00 -.593E+00   0.708E-01 -.386E-01 -.327E-02
   0.219E+01 -.126E+01 -.831E+03   -.248E+01 0.143E+01 0.830E+03   0.366E+00 -.212E+00 0.727E+00   -.444E-01 0.208E-01 -.623E-01
   -.538E-04 -.136E+02 -.803E+03   0.430E-04 0.126E+02 0.804E+03   0.761E-11 0.116E+01 -.593E+00   0.231E-02 0.812E-01 -.324E-02
   -.219E+01 -.126E+01 -.831E+03   0.248E+01 0.143E+01 0.830E+03   -.366E+00 -.212E+00 0.727E+00   0.337E-01 0.196E-01 -.627E-01
   -.196E+01 -.113E+01 -.844E+03   0.180E+01 0.104E+01 0.843E+03   0.944E-01 0.545E-01 0.568E+00   0.575E-01 0.330E-01 -.730E-02
   0.196E+01 -.113E+01 -.844E+03   -.180E+01 0.104E+01 0.843E+03   -.944E-01 0.545E-01 0.568E+00   -.669E-01 0.312E-01 -.651E-02
   0.205E-04 0.253E+01 -.831E+03   0.110E-03 -.287E+01 0.830E+03   0.278E-11 0.423E+00 0.727E+00   -.489E-02 -.488E-01 -.623E-01
   0.536E-04 -.364E-04 -.248E+04   -.115E-03 0.778E-04 0.248E+04   -.937E-17 -.678E-17 0.192E+01   0.115E-02 0.527E-03 0.122E+00
   0.223E+02 0.401E+02 -.248E+04   -.220E+02 -.398E+02 0.248E+04   -.427E+00 -.593E+00 0.219E+01   -.307E-01 0.636E-02 0.978E-01
   -.223E+02 0.401E+02 -.248E+04   0.220E+02 -.398E+02 0.248E+04   0.427E+00 -.593E+00 0.219E+01   0.202E-01 0.833E-02 0.976E-01
   0.458E+02 -.752E+00 -.248E+04   -.455E+02 0.869E+00 0.248E+04   -.728E+00 -.734E-01 0.219E+01   -.963E-02 -.296E-01 0.978E-01
   -.458E+02 -.752E+00 -.248E+04   0.455E+02 0.869E+00 0.248E+04   0.728E+00 -.734E-01 0.219E+01   -.204E-02 -.288E-01 0.969E-01
   0.236E+02 -.393E+02 -.248E+04   -.235E+02 0.389E+02 0.248E+04   -.300E+00 0.667E+00 0.219E+01   0.178E-01 0.139E-01 0.976E-01
   -.236E+02 -.393E+02 -.248E+04   0.235E+02 0.389E+02 0.248E+04   0.300E+00 0.667E+00 0.219E+01   -.263E-01 0.127E-01 0.969E-01
   0.223E-04 -.122E-04 -.248E+04   0.106E-03 -.658E-04 0.248E+04   -.475E-17 -.908E-18 0.204E+01   -.551E-02 -.275E-02 0.134E+00
   -.309E-05 -.173E-04 -.156E+04   0.774E-04 0.978E-05 0.156E+04   -.271E-17 -.525E-17 0.177E+01   0.281E-02 0.167E-02 -.589E-02
   0.107E-03 -.598E-04 -.139E+04   0.255E-04 0.391E-06 0.142E+04   -.392E-18 0.436E-18 -.243E+02   0.204E-02 0.123E-02 -.769E-01
   0.474E-03 -.751E-03 0.238E+02   0.279E-13 -.302E-13 0.887E-11   -.174E-15 -.572E-17 -.234E+02   -.442E-01 -.223E-01 -.289E+00

 POSITION                                       TOTAL-FORCE (eV/Angst)
      0.00000      0.00000      5.28219        -0.000000     -0.000000     -0.009751
      2.93046      0.00000      5.28219         0.007568      0.008076      0.042737
      5.86091      0.00000      5.28219        -0.007568      0.008076      0.042737
      1.46523      2.53785      5.28219         0.010778      0.002516      0.042737
      4.39568      2.53785      5.28219         0.000000     -0.000000      0.010573
      7.32614      2.53785      5.28219        -0.010778      0.002516      0.042737
      2.93046      5.07570      5.28219         0.003210     -0.010592      0.042737
      5.86091      5.07570      5.28219        -0.003210     -0.010592      0.042737
      8.79137      5.07570      5.28219         0.000000      0.000000      0.032186
      1.46523      0.84595      7.67490        -0.026221     -0.015139     -0.008045
      4.39568      0.84595      7.67490        -0.000000     -0.045678     -0.067925
      7.32614      0.84595      7.67490         0.026221     -0.015139     -0.008045
      2.93046      3.38380      7.67490        -0.039558      0.022839     -0.067925
      5.86091      3.38380      7.67490         0.039558      0.022839     -0.067925
      8.79137      3.38380      7.67490        -0.000000     -0.028586      0.005569
      4.39568      5.92165      7.67490         0.000000      0.030278     -0.008045
      7.32614      5.92165      7.67490        -0.024756      0.014293      0.005569
     10.25659      5.92165      7.67490         0.024756      0.014293      0.005569
      8.79137      1.69824     10.07044         0.000000      0.006113     -0.001536
      2.93075      1.69207     10.02201        -0.171647     -0.099100     -0.210292
      5.86061      1.69207     10.02201         0.171647     -0.099100     -0.210292
     10.25044      4.23330     10.05478         0.033161     -0.019146      0.001749
      4.39568      4.22940     10.02201         0.000000      0.198201     -0.210292
      7.33230      4.23330     10.05478        -0.033161     -0.019146      0.001749
     11.71633      6.76443     10.07044        -0.005294     -0.003057     -0.001536
      5.86640      6.76443     10.07044         0.005294     -0.003057     -0.001536
      8.79137      6.76048     10.05478         0.000000      0.038291      0.001749
      0.00000      0.00000     12.42728         0.000000     -0.000000      0.018029
      2.96092      0.05748     12.44843        -0.170850     -0.329408     -0.169604
      5.83045      0.05748     12.44843         0.170850     -0.329408     -0.169604
      1.53024      2.53549     12.44843        -0.370701      0.016744     -0.169604
      7.26113      2.53549     12.44843         0.370701      0.016744     -0.169604
      2.96500      5.02058     12.44843        -0.199851      0.312664     -0.169604
      5.82636      5.02058     12.44843         0.199851      0.312664     -0.169604
      8.79137      5.07570     12.42122         0.000000      0.000000      0.027151
      4.39568      2.53785     12.20312         0.000000      0.000000      1.551975
      4.39568      2.53785     13.88981         0.000000      0.000000     -0.027525
    total drift:                               -0.043751     -0.023021      0.047771

  FREE ENERGIE OF THE ION-ELECTRON SYSTEM (eV)
  free  energy   TOTEN  =      -105.79054268 eV

  energy  without entropy=     -105.79054268  energy(sigma->0) =     -105.79054268

 stress matrix after NEB project (eV)
     -6.04594     -0.00000     -0.00000
     -0.00000     -6.04594      0.00000
      0.00000      0.00000      0.09756
  FORCES: max atom, RMS     0.027525    0.004525
  FORCE total and by dimension    0.027525    0.027525
  Stress total and by dimension    8.550803    6.045937
|           W    W    AA    RRRRR   N    N  II  N    N   GGGG   !!!           |
|           W    W   A  A   R    R  NN   N  II  NN   N  G    G  !!!           |
|           W    W  A    A  R    R  N N  N  II  N N  N  G       !!!           |
|           W WW W  AAAAAA  RRRRR   N  N N  II  N  N N  G  GGG   !            |
|           WW  WW  A    A  R   R   N   NN  II  N   NN  G    G                |
|           W    W  A    A  R    R  N    N  II  N    N   GGGG   !!!           |
|     Tetrahedron method does not include variations of the Fermi             |
|     occupations, so forces and stress will be inaccurate. We suggest        |
|     using a different smearing scheme ISMEAR = 1 or 2 for metals in         |
|     relaxations.                                                            |

 total charge

# of ion       s       p       d       tot
    1        0.419   0.201   9.178   9.798
    2        0.415   0.204   9.177   9.796
    3        0.415   0.204   9.177   9.796
    4        0.415   0.204   9.177   9.796
    5        0.422   0.201   9.176   9.799
    6        0.415   0.204   9.177   9.796
    7        0.415   0.204   9.177   9.796
    8        0.415   0.204   9.177   9.796
    9        0.413   0.204   9.176   9.793
   10        0.408   0.267   9.165   9.840
   11        0.403   0.274   9.165   9.842
   12        0.408   0.267   9.165   9.840
   13        0.403   0.274   9.165   9.842
   14        0.403   0.274   9.165   9.842
   15        0.403   0.269   9.165   9.837
   16        0.408   0.267   9.165   9.840
   17        0.403   0.269   9.165   9.837
   18        0.403   0.269   9.165   9.837
   19        0.405   0.264   9.167   9.836
   20        0.434   0.302   9.145   9.882
   21        0.434   0.302   9.145   9.882
   22        0.394   0.276   9.166   9.836
   23        0.434   0.302   9.145   9.882
   24        0.394   0.276   9.166   9.836
   25        0.405   0.264   9.167   9.836
   26        0.405   0.264   9.167   9.836
   27        0.394   0.276   9.166   9.836
   28        0.417   0.194   9.182   9.793
   29        0.404   0.219   9.179   9.803
   30        0.404   0.219   9.179   9.803
   31        0.404   0.219   9.179   9.803
   32        0.404   0.219   9.179   9.803
   33        0.404   0.219   9.179   9.803
   34        0.404   0.219   9.179   9.803
   35        0.414   0.195   9.183   9.791
   36        0.693   0.613   6.165   7.471
   37        1.351   2.213   0.000   3.564
tot         16.386  11.318 327.116 354.819

 BZINTS: Fermi energy:    0.821050;  398.000000 electrons
         Band energy:-0.131350E+04;  BLOECHL correction:   -0.073621