 vasp.6.2.0 18Jan21 (build Jun 12 2021 23:27:24) complex

 executed on             LinuxIFC date 2022.05.26  19:56:56

 INCAR:
   ISMEAR = -5
   SIGMA = 0.1
   ISPIN = 1
   EDIFF = 1.d-5
   EDIFFG = -0.01
   NSW = 0
   NELM = 150
   ENCUT = 500
   ISIF = 2
   IBRION = 2
   LREAL = Auto
   ALGO = Fast
   ICHARG = 11
   LORBIT = 10
   LCHARG = .F.
   LWAVE = .F.

 POTCAR:    PAW_PBE Cu 22Jun2005
 POTCAR:    PAW_PBE V 08Apr2002
 POTCAR:    PAW_PBE H 15Jun2001
|           W    W    AA    RRRRR   N    N  II  N    N   GGGG   !!!           |
|           W    W   A  A   R    R  NN   N  II  NN   N  G    G  !!!           |
|           W    W  A    A  R    R  N N  N  II  N N  N  G       !!!           |
|           W WW W  AAAAAA  RRRRR   N  N N  II  N  N N  G  GGG   !            |
|           WW  WW  A    A  R   R   N   NN  II  N   NN  G    G                |
|           W    W  A    A  R    R  N    N  II  N    N   GGGG   !!!           |
|     For optimal performance we recommend to set                             |
|       NCORE = 2 up to number-of-cores-per-socket                            |
|     This setting can greatly improve the performance of VASP for DFT.       |
|     The default, NCORE=1 might be grossly inefficient on modern             |
|     multi-core architectures or massively parallel machines. Do your        |
|     Unfortunately you need to use the default for GW and RPA                |
|     calculations (for HF NCORE is supported but not extensively tested      |
|     yet).                                                                   |

 POTCAR:    PAW_PBE Cu 22Jun2005
   VRHFIN =Cu: d10 p1

   TITEL  = PAW_PBE Cu 22Jun2005
   POMASS =   63.546; ZVAL   =   11.000    mass and valenz
   ENMAX  =  295.446; ENMIN  =  221.585 eV

 POTCAR:    PAW_PBE V 08Apr2002
   VRHFIN =V: p6 d4 s1

   TITEL  = PAW_PBE V 08Apr2002
   POMASS =   50.941; ZVAL   =    5.000    mass and valenz
   ENMAX  =  192.543; ENMIN  =  144.408 eV

 POTCAR:    PAW_PBE H 15Jun2001
   VRHFIN =H: ultrasoft test

   TITEL  = PAW_PBE H 15Jun2001
   POMASS =    1.000; ZVAL   =    1.000    mass and valenz
   ENMAX  =  250.000; ENMIN  =  200.000 eV

 Optimization of the real space projectors (new method)

 maximal supplied QI-value         = 16.25
 optimisation between [QCUT,QGAM] = [ 11.38, 22.75] = [ 36.24,144.96] Ry
 Optimized for a Real-space Cutoff    1.52 Angstroem

   l    n(q)    QCUT    max X(q) W(low)/X(q) W(high)/X(q)  e(spline)
   2      9    11.376     4.610    0.21E-03    0.10E-03    0.26E-06
   2      9    11.376     8.522    0.33E-03    0.16E-03    0.37E-06
   0     10    11.376    51.609    0.62E-04    0.20E-04    0.13E-06
   0     10    11.376    27.747    0.54E-04    0.20E-04    0.13E-06
   1     10    11.376    20.408    0.13E-04    0.99E-04    0.19E-06
   1     10    11.376    13.425    0.12E-04    0.87E-04    0.17E-06
 Optimization of the real space projectors (new method)

[...]

   l    n(q)    QCUT    max X(q) W(low)/X(q) W(high)/X(q)  e(spline)
   2     10    11.327    96.114    0.36E-03    0.35E-03    0.42E-06
   2     10    11.327    88.986    0.37E-03    0.35E-03    0.42E-06
   0     11    11.327    20.919    0.40E-04    0.56E-04    0.79E-06
   0     11    11.327     9.593    0.30E-04    0.41E-04    0.60E-06
   1     10    11.327    11.615    0.15E-03    0.10E-03    0.19E-06
   1     10    11.327     7.031    0.11E-03    0.73E-04    0.14E-06
 Optimization of the real space projectors (new method)

 maximal supplied QI-value         = 34.20
 optimisation between [QCUT,QGAM] = [ 11.29, 22.57] = [ 35.68,142.71] Ry
 Optimized for a Real-space Cutoff    1.16 Angstroem

   l    n(q)    QCUT    max X(q) W(low)/X(q) W(high)/X(q)  e(spline)
   0      8    11.287    19.460    0.40E-03    0.73E-03    0.16E-06
   0      8    11.287    12.209    0.38E-03    0.70E-03    0.15E-06
   1      7    11.287     4.655    0.22E-03    0.25E-04    0.22E-06
  PAW_PBE Cu 22Jun2005                  :
  PAW_PBE V 08Apr2002                   :
  PAW_PBE H 15Jun2001                   :

 POSCAR: Cu-V-H
  positions in direct lattice
  velocities in cartesian coordinates
 exchange correlation table for  LEXCH =        8
   RHO(1)=    0.500       N(1)  =     2000
   RHO(2)=  100.500       N(2)  =     4000

 VTST: version 3.2, (02/03/18)

 CHAIN: initializing optimizer

 OPT: Using VASP Conjugate-Gradient optimizer
 CHAIN: Read ICHAIN            0

 POSCAR: Cu-V-H
  positions in direct lattice
  velocities in cartesian coordinates

 ion  position               nearest neighbor table
   1  0.000  0.000  0.252-   7 2.57   3 2.57   4 2.57   2 2.57   6 2.57   8 2.57  12 2.57  10 2.57
                            16 2.57
   2  0.333  0.000  0.252-   8 2.57   9 2.57   5 2.57   1 2.57   3 2.57  11 2.57   4 2.57  10 2.57
                            17 2.57
   3  0.667  0.000  0.252-   1 2.57   7 2.57   6 2.57   9 2.57   2 2.57  12 2.57   5 2.57  18 2.57
                            11 2.57
   4  0.000  0.333  0.252-   5 2.57   6 2.57   1 2.57   7 2.57   2 2.57  13 2.57   9 2.57  10 2.57
                            15 2.57
   5  0.333  0.333  0.252-   4 2.57   2 2.57   7 2.57  13 2.57   8 2.57   6 2.57   3 2.57  11 2.57
                            14 2.57
   6  0.667  0.333  0.252-   4 2.57   9 2.57  15 2.57   3 2.57   1 2.57   8 2.57  14 2.57   5 2.57
                            12 2.57
   7  0.000  0.667  0.252-   1 2.57   3 2.57  16 2.57  18 2.57   4 2.57   5 2.57   8 2.57   9 2.57
                            13 2.57
   8  0.333  0.667  0.252-   9 2.57   2 2.57  17 2.57   6 2.57   1 2.57   7 2.57   5 2.57  14 2.57
                            16 2.57
   9  0.667  0.667  0.252-   8 2.57   6 2.57   2 2.57  17 2.57   3 2.57   7 2.57   4 2.57  15 2.57
                            18 2.57
  10  0.111  0.111  0.351-  26 2.56  19 2.56  20 2.56  11 2.57  12 2.57  13 2.57   1 2.57   2 2.57
                             4 2.57  15 2.57  16 2.57  17 2.57
  11  0.444  0.111  0.351-  20 2.56  21 2.56  10 2.57  13 2.57   2 2.57  17 2.57  14 2.57  12 2.57
                             5 2.57   3 2.57  18 2.57  27 2.57
  12  0.778  0.111  0.351-  19 2.56  25 2.56  21 2.56  15 2.57  10 2.57  14 2.57  18 2.57   3 2.57
                             1 2.57  16 2.57  11 2.57   6 2.57
  13  0.111  0.444  0.351-  23 2.56  20 2.56  16 2.57  18 2.57  10 2.57  11 2.57  14 2.57   5 2.57
                             4 2.57   7 2.57  15 2.57  22 2.57
  14  0.444  0.444  0.351-  21 2.56  23 2.56  15 2.57  17 2.57  12 2.57  16 2.57  13 2.57  11 2.57
                             6 2.57   8 2.57   5 2.57  24 2.57
  15  0.778  0.444  0.351-  19 2.56  24 2.57  22 2.57  14 2.57  17 2.57  12 2.57   6 2.57  18 2.57
                            10 2.57   9 2.57  13 2.57   4 2.57
  16  0.111  0.778  0.351-  25 2.56  26 2.56  23 2.56  18 2.57  13 2.57   7 2.57  14 2.57  17 2.57
                            12 2.57  10 2.57   8 2.57   1 2.57
  17  0.444  0.778  0.351-  26 2.56  27 2.57  24 2.57  14 2.57  15 2.57   8 2.57   9 2.57  11 2.57
                            16 2.57  18 2.57  10 2.57   2 2.57
  18  0.778  0.778  0.351-  25 2.56  22 2.57  27 2.57  16 2.57  13 2.57   7 2.57  15 2.57  12 2.57
                            17 2.57   9 2.57   3 2.57  11 2.57
  19  0.889  0.222  0.449-  12 2.56  10 2.56  15 2.56  28 2.56  25 2.56  26 2.56  21 2.57  20 2.57
                            22 2.57  24 2.57  32 2.58  31 2.58
  20  0.222  0.222  0.449-  36 2.54  11 2.56  13 2.56  10 2.56  23 2.56  21 2.56  26 2.57  19 2.57
                            27 2.57  22 2.57  29 2.57  31 2.57
  21  0.555  0.222  0.449-  36 2.54  14 2.56  11 2.56  12 2.56  20 2.56  23 2.56  19 2.57  25 2.57
                            24 2.57  27 2.57  32 2.57  30 2.57
  22  0.888  0.556  0.449-  24 2.56  27 2.56  35 2.56  18 2.57  15 2.57  19 2.57  25 2.57  31 2.57
                            33 2.57  13 2.57  23 2.57  20 2.57
  23  0.222  0.555  0.449-  36 2.54  13 2.56  14 2.56  16 2.56  20 2.56  21 2.56  25 2.57  26 2.57
                            22 2.57  24 2.57  33 2.57  34 2.57
  24  0.556  0.556  0.449-  22 2.56  27 2.56  35 2.56  15 2.57  17 2.57  19 2.57  26 2.57  32 2.57
                            34 2.57  14 2.57  21 2.57  23 2.57
  25  0.889  0.889  0.449-  12 2.56  16 2.56  18 2.56  28 2.56  19 2.56  26 2.56  21 2.57  23 2.57
                            22 2.57  27 2.57  33 2.58  30 2.58
  26  0.222  0.889  0.449-  10 2.56  16 2.56  17 2.56  28 2.56  25 2.56  19 2.56  20 2.57  23 2.57
                            27 2.57  24 2.57  29 2.58  34 2.58
  27  0.556  0.888  0.449-  24 2.56  22 2.56  35 2.56  17 2.57  18 2.57  26 2.57  25 2.57  29 2.57
                            30 2.57  11 2.57  20 2.57  21 2.57
  28  0.000  0.000  0.547-  25 2.56  19 2.56  26 2.56  33 2.57  30 2.57  31 2.57  29 2.57  32 2.57
                            34 2.57
  29  0.333  0.000  0.548-  30 2.56  36 2.56  31 2.56  27 2.57  35 2.57  28 2.57  20 2.57  34 2.57
                            26 2.58
  30  0.666  0.000  0.548-  29 2.56  36 2.56  32 2.56  27 2.57  35 2.57  28 2.57  21 2.57  33 2.57
                            25 2.58
  31  0.000  0.333  0.548-  33 2.56  36 2.56  29 2.56  22 2.57  35 2.57  28 2.57  20 2.57  32 2.57
                            19 2.58
  32  0.666  0.333  0.548-  34 2.56  36 2.56  30 2.56  24 2.57  35 2.57  28 2.57  21 2.57  31 2.57
                            19 2.58
  33  0.000  0.666  0.548-  31 2.56  36 2.56  34 2.56  22 2.57  35 2.57  28 2.57  23 2.57  30 2.57
                            25 2.58
  34  0.333  0.666  0.548-  32 2.56  36 2.56  33 2.56  24 2.57  35 2.57  28 2.57  23 2.57  29 2.57
                            26 2.58
  35  0.667  0.667  0.548-  24 2.56  27 2.56  22 2.56  34 2.57  32 2.57  29 2.57  30 2.57  33 2.57
                            31 2.57
  36  0.333  0.333  0.546-  37 1.66  23 2.54  20 2.54  21 2.54  31 2.56  29 2.56  33 2.56  32 2.56
                            34 2.56  30 2.56
  37  0.333  0.333  0.624-  36 1.66

  LATTYP: Found a hexagonal cell.
 ALAT       =     7.6967864036
 C/A-ratio  =     2.7653617908

  Lattice vectors:

 A1 = (  -3.8483927580,  -6.6656128093,   0.0000000000)
 A2 = (   7.6967864037,   0.0000000000,   0.0000000000)
 A3 = (   0.0000000000,   0.0000000000,  21.2843990326)

Analysis of symmetry for initial positions (statically):
 Subroutine PRICEL returns:
 Original cell was already a primitive cell.

 Routine SETGRP: Setting up the symmetry group for a
 hexagonal supercell.

 Subroutine GETGRP returns: Found  6 space group operations
 (whereof  6 operations were pure point group operations)
 out of a pool of 24 trial point group operations.

The static configuration has the point symmetry C_3v.

Analysis of symmetry for dynamics (positions and initial velocities):
 Subroutine PRICEL returns:
 Original cell was already a primitive cell.

[...]

The dynamic configuration has the point symmetry C_3v.

Analysis of constrained symmetry for selective dynamics:
 Subroutine PRICEL returns:
 Original cell was already a primitive cell.

 Routine SETGRP: Setting up the symmetry group for a
 hexagonal supercell.

 Subroutine GETGRP returns: Found  6 space group operations
 (whereof  6 operations were pure point group operations)
[...]
     24      -4.2345      2.00000
     25      -4.2260      2.00000
     26      -4.1760      2.00000
     27      -4.1603      2.00000
     28      -4.1553      2.00000
     29      -4.1531      2.00000
     30      -4.1495      2.00000
     31      -4.1358      2.00000
     32      -4.0914      2.00000
     33      -4.0835      2.00000
     34      -4.0688      2.00000
     35      -3.9776      2.00000
     36      -3.9689      2.00000
     37      -3.8454      2.00000
     38      -3.8376      2.00000
     39      -3.7577      2.00000
     40      -3.7557      2.00000
     41      -3.7492      2.00000
     42      -3.7277      2.00000
     43      -3.7058      2.00000
     44      -3.7032      2.00000
     45      -3.6989      2.00000
     46      -3.5352      2.00000
     47      -3.5071      2.00000
     48      -3.4928      2.00000
     49      -3.4798      2.00000
     50      -3.4388      2.00000
     51      -3.4367      2.00000
     52      -3.4225      2.00000
     53      -3.4107      2.00000
     54      -3.3976      2.00000
     55      -3.3853      2.00000
     56      -3.3583      2.00000
     57      -3.3524      2.00000
     58      -3.3442      2.00000
     59      -3.3340      2.00000
     60      -3.3188      2.00000
[...]
    238       6.8899      0.00000
    239       6.9004      0.00000
    240       7.0202      0.00000
    241       7.0420      0.00000
    242       7.1402      0.00000
    243       7.2120      0.00000
    244       7.3058      0.00000
    245       7.3732      0.00000
    246       7.4182      0.00000
    247       7.5547      0.00000
    248       7.7026      0.00000
    249       7.8009      0.00000
    250       8.0096      0.00000
    251       8.0946      0.00000
    252       8.4232      0.00000

 soft charge-density along one line, spin component           1
         0         1         2         3         4         5         6         7         8         9
 total charge-density along one line

------------------------ aborting loop because EDIFF is reached ----------------------------------------

 total charge

# of ion       s       p       d       tot
    1        0.451   0.281   9.189   9.921
    2        0.447   0.286   9.187   9.919
    3        0.447   0.286   9.187   9.919
    4        0.447   0.286   9.187   9.919
    5        0.450   0.285   9.183   9.918
    6        0.447   0.286   9.187   9.919
    7        0.447   0.286   9.187   9.919
    8        0.447   0.286   9.187   9.919
    9        0.450   0.284   9.188   9.922
   10        0.443   0.371   9.176   9.990
   11        0.441   0.366   9.183   9.991
   12        0.443   0.371   9.176   9.990
   13        0.441   0.366   9.183   9.991
   14        0.441   0.366   9.183   9.991
   15        0.439   0.370   9.177   9.986
   16        0.443   0.371   9.176   9.990
   17        0.439   0.370   9.177   9.986
   18        0.439   0.370   9.177   9.986
   19        0.442   0.368   9.181   9.991
   20        0.466   0.388   9.162  10.017
   21        0.466   0.388   9.162  10.017
   22        0.433   0.375   9.179   9.987
   23        0.466   0.388   9.162  10.017
   24        0.433   0.375   9.179   9.987
   25        0.442   0.368   9.181   9.991
   26        0.442   0.368   9.181   9.991
   27        0.433   0.375   9.179   9.987
   28        0.446   0.288   9.182   9.916
   29        0.470   0.300   9.165   9.935
   30        0.470   0.300   9.165   9.935
   31        0.470   0.300   9.165   9.935
   32        0.470   0.300   9.165   9.935
   33        0.470   0.300   9.165   9.935
   34        0.470   0.300   9.165   9.935
   35        0.441   0.291   9.183   9.915
   36        0.535   0.604   3.363   4.502
   37        0.514   0.008   0.000   0.522
tot         16.784  12.268 324.576 353.628

  FORCE on cell =-STRESS in cart. coord.  units (eV):
  Direction    XX          YY          ZZ          XY          YZ          ZX
  Alpha Z   856.27838   856.27838   856.27838
  Ewald  170628.99637170628.99603************     0.00036     0.00012     0.00015
  Hartree183416.56230183416.56232************     0.00002     0.00006     0.00006
  E(xc)   -2270.64194 -2270.64144 -2275.68840    -0.00043    -0.00004    -0.00006
  Local  ************************367047.03046     0.01851    -0.00057    -0.00089
  n-local  -761.51552  -747.73875  -765.56928     7.20345    -0.24949     0.33488
  augment  3327.14269  3327.16303  3349.05186    -0.01762     0.00022     0.00034
  Kinetic  3167.30740  3169.16350  3198.41767     1.90994     1.76983    -1.34909
  Fock        0.00000     0.00000     0.00000     0.00000     0.00000     0.00000
  Total      -6.38794    -6.38794     0.95244     0.00000    -0.00000    -0.00000
  in kB      -9.37261    -9.37261     1.39746     0.00000    -0.00000    -0.00000

 VOLUME and BASIS-vectors are now :
  energy-cutoff  :      500.00
  volume of cell :     1091.97
      direct lattice vectors                 reciprocal lattice vectors
     7.696786404  0.000000000  0.000000000     0.129924354 -0.075011849  0.000000000
     3.848392758  6.665612809  0.000000000     0.000000000  0.150023716  0.000000000
     0.000000000  0.000000000 21.284399033     0.000000000  0.000000000  0.046982769

  length of vectors
     7.696786404  7.696786404 21.284399033     0.150023716  0.150023716  0.046982769

 FORCES acting on ions
    electron-ion (+dipol)            ewald-force                    non-local-force                 convergence-correction
   -.416E-04 0.149E-06 0.344E+04   0.581E-04 -.429E-05 -.344E+04   0.102E-17 0.499E-17 -.234E+01   -.278E-03 -.128E-03 -.642E-01
   -.611E+00 -.716E+00 0.344E+04   0.631E+00 0.622E+00 -.344E+04   0.423E-01 0.155E+00 -.197E+01   -.527E-01 -.577E-01 0.548E-01
   0.611E+00 -.716E+00 0.344E+04   -.631E+00 0.622E+00 -.344E+04   -.423E-01 0.155E+00 -.197E+01   0.535E-01 -.553E-01 0.556E-01
   -.926E+00 -.171E+00 0.344E+04   0.854E+00 0.235E+00 -.344E+04   0.155E+00 -.408E-01 -.197E+01   -.763E-01 -.169E-01 0.548E-01
   -.617E-04 -.340E-05 0.344E+04   0.116E-03 -.101E-04 -.344E+04   -.512E-17 -.404E-17 -.154E+01   0.121E-01 0.740E-02 0.121E+00
   0.926E+00 -.171E+00 0.344E+04   -.854E+00 0.235E+00 -.344E+04   -.155E+00 -.408E-01 -.197E+01   0.748E-01 -.156E-01 0.559E-01
   -.315E+00 0.887E+00 0.344E+04   0.224E+00 -.857E+00 -.344E+04   0.113E+00 -.114E+00 -.197E+01   -.211E-01 0.739E-01 0.557E-01
   0.315E+00 0.887E+00 0.344E+04   -.224E+00 -.857E+00 -.344E+04   -.113E+00 -.114E+00 -.197E+01   0.245E-01 0.726E-01 0.558E-01
   -.144E-03 -.330E-04 0.344E+04   0.263E-03 0.204E-04 -.344E+04   0.454E-19 -.105E-17 -.200E+01   -.132E-01 -.680E-02 0.771E-01
   -.512E+01 -.296E+01 0.111E+04   0.543E+01 0.314E+01 -.111E+04   -.324E+00 -.187E+00 -.866E+00   -.128E-01 -.742E-02 0.266E-01
   -.907E-04 -.597E+01 0.110E+04   0.189E-03 0.569E+01 -.110E+04   -.187E-07 0.280E+00 -.262E+00   0.115E-01 -.358E-01 0.838E-01
   0.512E+01 -.296E+01 0.111E+04   -.543E+01 0.314E+01 -.111E+04   0.324E+00 -.187E+00 -.866E+00   0.116E-01 -.644E-02 0.255E-01
   -.517E+01 0.298E+01 0.110E+04   0.493E+01 -.285E+01 -.110E+04   0.243E+00 -.140E+00 -.262E+00   -.248E-01 0.287E-01 0.838E-01
   0.517E+01 0.298E+01 0.110E+04   -.493E+01 -.285E+01 -.110E+04   -.243E+00 -.140E+00 -.262E+00   0.483E-01 0.275E-01 0.816E-01
   -.141E-03 -.978E+00 0.111E+04   0.297E-03 0.814E+00 -.111E+04   -.760E-08 0.114E+00 -.917E+00   -.311E-02 0.467E-01 0.597E-01
   -.924E-04 0.591E+01 0.111E+04   0.187E-03 -.627E+01 -.111E+04   -.249E-07 0.374E+00 -.866E+00   -.702E-03 0.121E-01 0.254E-01
   -.847E+00 0.489E+00 0.111E+04   0.705E+00 -.407E+00 -.111E+04   0.988E-01 -.570E-01 -.917E+00   0.396E-01 -.260E-01 0.596E-01
   0.847E+00 0.489E+00 0.111E+04   -.705E+00 -.407E+00 -.111E+04   -.988E-01 -.570E-01 -.917E+00   -.384E-01 -.238E-01 0.607E-01
   -.667E-04 -.744E+01 -.122E+04   0.730E-04 0.741E+01 0.122E+04   0.130E-08 -.195E-01 0.108E+01   0.103E-02 0.304E-01 0.207E+00
   -.539E+02 -.311E+02 -.129E+04   0.548E+02 0.316E+02 0.129E+04   -.103E+01 -.594E+00 -.632E+00   0.610E-01 0.351E-01 0.410E+00
   0.539E+02 -.311E+02 -.129E+04   -.548E+02 0.316E+02 0.129E+04   0.103E+01 -.594E+00 -.632E+00   -.817E-01 0.341E-01 0.409E+00
   -.267E+02 0.154E+02 -.123E+04   0.265E+02 -.153E+02 0.123E+04   0.335E+00 -.193E+00 0.659E+00   -.440E-01 0.243E-01 0.162E+00
   -.827E-04 0.623E+02 -.129E+04   0.152E-03 -.633E+02 0.129E+04   -.791E-07 0.119E+01 -.632E+00   -.124E-01 -.890E-01 0.409E+00
   0.267E+02 0.154E+02 -.123E+04   -.265E+02 -.153E+02 0.123E+04   -.335E+00 -.193E+00 0.659E+00   0.454E-01 0.254E-01 0.163E+00
   0.644E+01 0.372E+01 -.122E+04   -.642E+01 -.371E+01 0.122E+04   0.169E-01 0.973E-02 0.108E+01   -.260E-01 -.150E-01 0.207E+00
   -.644E+01 0.372E+01 -.122E+04   0.642E+01 -.371E+01 0.122E+04   -.169E-01 0.973E-02 0.108E+01   0.272E-01 -.141E-01 0.207E+00
   -.125E-03 -.309E+02 -.123E+04   0.239E-03 0.306E+02 0.123E+04   -.257E-07 0.387E+00 0.659E+00   -.985E-03 -.503E-01 0.163E+00
   -.402E-04 0.146E-04 -.346E+04   0.453E-04 -.316E-04 0.346E+04   -.120E-17 -.540E-18 0.205E+01   -.134E-02 -.722E-03 0.268E+00
   -.458E+02 -.856E+02 -.347E+04   0.464E+02 0.861E+02 0.347E+04   -.688E+00 -.756E+00 0.152E+01   0.152E+00 0.236E+00 0.278E+00
   0.458E+02 -.856E+02 -.347E+04   -.464E+02 0.861E+02 0.347E+04   0.688E+00 -.756E+00 0.152E+01   -.130E+00 0.238E+00 0.279E+00
   -.971E+02 0.314E+01 -.347E+04   0.978E+02 -.292E+01 0.347E+04   -.999E+00 -.218E+00 0.152E+01   0.281E+00 0.131E-01 0.278E+00
   0.971E+02 0.314E+01 -.347E+04   -.978E+02 -.292E+01 0.347E+04   0.999E+00 -.218E+00 0.152E+01   -.259E+00 0.143E-01 0.279E+00
   -.513E+02 0.825E+02 -.347E+04   0.514E+02 -.832E+02 0.347E+04   -.311E+00 0.974E+00 0.152E+01   0.141E+00 -.231E+00 0.279E+00
   0.513E+02 0.825E+02 -.347E+04   -.514E+02 -.832E+02 0.347E+04   0.311E+00 0.974E+00 0.152E+01   -.116E+00 -.231E+00 0.279E+00
   -.121E-03 -.154E-04 -.348E+04   0.246E-03 0.214E-05 0.347E+04   0.331E-18 -.318E-17 0.241E+01   -.143E-01 -.741E-02 0.265E+00
   -.444E-04 -.626E-05 -.154E+04   0.627E-04 0.126E-04 0.155E+04   0.304E-17 0.634E-18 -.153E+01   -.581E-04 -.232E-04 0.252E+00
   0.348E-05 -.486E-05 -.359E+03   0.325E-05 0.146E-05 0.361E+03   -.186E-19 -.294E-19 -.190E+01   0.670E-05 0.371E-05 -.679E-01
   -.234E-03 0.968E-05 0.466E+01   0.131E-12 0.579E-12 0.415E-11   -.219E-15 -.336E-15 -.104E+02   0.555E-01 0.290E-01 0.570E+01

 POSITION                                       TOTAL-FORCE (eV/Angst)
      0.00000      0.00000      5.37156         0.000000      0.000000     -0.006629
      2.56560      0.00000      5.37156         0.009804      0.004500      0.061884
      5.13119      0.00000      5.37156        -0.009804      0.004500      0.061884
      1.28280      2.22187      5.37156         0.008800      0.006240      0.061884
      3.84839      2.22187      5.37156         0.000000     -0.000000      0.049981
      6.41399      2.22187      5.37156        -0.008800      0.006240      0.061884
      2.56560      4.44374      5.37156        -0.001005     -0.010741      0.061884
      5.13119      4.44374      5.37156         0.001005     -0.010741      0.061884
      7.69679      4.44374      5.37156         0.000000      0.000000      0.023304
      1.28280      0.74062      7.46636        -0.026535     -0.015320     -0.091995
      3.84839      0.74062      7.46636         0.000000     -0.038803     -0.054208
      6.41399      0.74062      7.46636         0.026535     -0.015320     -0.091995
      2.56560      2.96249      7.46636        -0.033604      0.019402     -0.054208
      5.13119      2.96249      7.46636         0.033604      0.019402     -0.054208
      7.69679      2.96249      7.46636         0.000000     -0.003267     -0.012156
      3.84839      5.18437      7.46636        -0.000000      0.030640     -0.091995
      6.41399      5.18437      7.46636        -0.002829      0.001633     -0.012156
      8.97958      5.18437      7.46636         0.002829      0.001633     -0.012156
      7.69679      1.48017      9.54910         0.000000     -0.016358      0.017050
      2.56637      1.48170      9.55121        -0.107131     -0.061852     -0.147907
      5.13041      1.48170      9.55121         0.107131     -0.061852     -0.147907
      8.97729      3.70444      9.56154         0.047728     -0.027556      0.012108
      3.84839      3.70222      9.55121        -0.000000      0.123705     -0.147907
      6.41628      3.70444      9.56154        -0.047728     -0.027556      0.012108
     10.26332      5.92553      9.54910         0.014166      0.008179      0.017050
      5.13026      5.92553      9.54910        -0.014166      0.008179      0.017050
      7.69679      5.92234      9.56154        -0.000000      0.055111      0.012108
      0.00000      0.00000     11.64072         0.000000      0.000000      0.020665
      2.56831      0.00307     11.65724         0.003028     -0.018986     -0.037341
      5.12847      0.00307     11.65724        -0.003028     -0.018986     -0.037341
      1.28681      2.22269     11.65724        -0.014928      0.012116     -0.037341
      6.40997      2.22269     11.65724         0.014928      0.012116     -0.037341
      2.56689      4.43985     11.65724        -0.017956      0.006870     -0.037341
      5.12989      4.43985     11.65724         0.017956      0.006870     -0.037341
      7.69679      4.44374     11.65596        -0.000000     -0.000000      0.032561
      3.84839      2.22187     11.62023         0.000000      0.000000      0.540167
      3.84839      2.22187     13.28211         0.000000      0.000000      0.024021
    total drift:                                0.055311      0.028998      0.001521

  FREE ENERGIE OF THE ION-ELECTRON SYSTEM (eV)
  free  energy   TOTEN  =      -132.81449544 eV

  energy  without entropy=     -132.81449544  energy(sigma->0) =     -132.81449544

 stress matrix after NEB project (eV)
     -6.38794      0.00000     -0.00000
      0.00000     -6.38794     -0.00000
     -0.00000     -0.00000      0.95244
  FORCES: max atom, RMS     0.024021    0.003949
  FORCE total and by dimension    0.024021    0.024021
  Stress total and by dimension    9.083982    6.387941
|           W    W    AA    RRRRR   N    N  II  N    N   GGGG   !!!           |
|           W    W   A  A   R    R  NN   N  II  NN   N  G    G  !!!           |
|           W    W  A    A  R    R  N N  N  II  N N  N  G       !!!           |
|           W WW W  AAAAAA  RRRRR   N  N N  II  N  N N  G  GGG   !            |
|           WW  WW  A    A  R   R   N   NN  II  N   NN  G    G                |
|           W    W  A    A  R    R  N    N  II  N    N   GGGG   !!!           |
|     Tetrahedron method does not include variations of the Fermi             |
|     occupations, so forces and stress will be inaccurate. We suggest        |
|     using a different smearing scheme ISMEAR = 1 or 2 for metals in         |
|     relaxations.                                                            |

 total charge

# of ion       s       p       d       tot
    1        0.451   0.281   9.189   9.921
    2        0.447   0.286   9.187   9.919
    3        0.447   0.286   9.187   9.919
    4        0.447   0.286   9.187   9.919
    5        0.450   0.285   9.183   9.918
    6        0.447   0.286   9.187   9.919
    7        0.447   0.286   9.187   9.919
    8        0.447   0.286   9.187   9.919
    9        0.450   0.284   9.188   9.922
   10        0.443   0.371   9.176   9.990
   11        0.441   0.366   9.183   9.991
   12        0.443   0.371   9.176   9.990
   13        0.441   0.366   9.183   9.991
   14        0.441   0.366   9.183   9.991
   15        0.439   0.370   9.177   9.986
   16        0.443   0.371   9.176   9.990
   17        0.439   0.370   9.177   9.986
   18        0.439   0.370   9.177   9.986
   19        0.442   0.368   9.181   9.991
   20        0.466   0.388   9.162  10.017
   21        0.466   0.388   9.162  10.017
   22        0.433   0.375   9.179   9.987
   23        0.466   0.388   9.162  10.017
   24        0.433   0.375   9.179   9.987
   25        0.442   0.368   9.181   9.991
   26        0.442   0.368   9.181   9.991
   27        0.433   0.375   9.179   9.987
   28        0.446   0.288   9.182   9.916
   29        0.470   0.300   9.165   9.935
   30        0.470   0.300   9.165   9.935
   31        0.470   0.300   9.165   9.935
   32        0.470   0.300   9.165   9.935
   33        0.470   0.300   9.165   9.935
   34        0.470   0.300   9.165   9.935
   35        0.441   0.291   9.183   9.915
   36        0.535   0.604   3.363   4.502
   37        0.514   0.008   0.000   0.522
tot         16.784  12.268 324.576 353.628

 BZINTS: Fermi energy:   -0.004367;  391.000000 electrons
         Band energy:-0.112043E+04;  BLOECHL correction:   -0.021511