 vasp.6.2.0 18Jan21 (build Jun 12 2021 23:27:24) complex

 executed on             LinuxIFC date 2022.05.30  15:56:06

 INCAR:
   ISMEAR = -5
   SIGMA = 0.1
   ISPIN = 1
   EDIFF = 1.d-5
   EDIFFG = -0.01
   NSW = 0
   NELM = 150
   ENCUT = 500
   ISIF = 2
   IBRION = 2
   LREAL = Auto
   ALGO = Fast
   ICHARG = 11
   LORBIT = 10
   LCHARG = .F.
   LWAVE = .F.

 POTCAR:    PAW_PBE Au 04Oct2007
 POTCAR:    PAW_PBE Fe 06Sep2000
 POTCAR:    PAW_PBE C 08Apr2002
|           W    W    AA    RRRRR   N    N  II  N    N   GGGG   !!!           |
|           W    W   A  A   R    R  NN   N  II  NN   N  G    G  !!!           |
|           W    W  A    A  R    R  N N  N  II  N N  N  G       !!!           |
|           W WW W  AAAAAA  RRRRR   N  N N  II  N  N N  G  GGG   !            |
|           WW  WW  A    A  R   R   N   NN  II  N   NN  G    G                |
|           W    W  A    A  R    R  N    N  II  N    N   GGGG   !!!           |
|     For optimal performance we recommend to set                             |
|       NCORE = 2 up to number-of-cores-per-socket                            |
|     This setting can greatly improve the performance of VASP for DFT.       |
|     The default, NCORE=1 might be grossly inefficient on modern             |
|     multi-core architectures or massively parallel machines. Do your        |
|     Unfortunately you need to use the default for GW and RPA                |
|     calculations (for HF NCORE is supported but not extensively tested      |
|     yet).                                                                   |

 POTCAR:    PAW_PBE Au 04Oct2007
   VRHFIN =Au: s1d10

   TITEL  = PAW_PBE Au 04Oct2007
   POMASS =  196.966; ZVAL   =   11.000    mass and valenz
   ENMAX  =  229.943; ENMIN  =  172.457 eV

 POTCAR:    PAW_PBE Fe 06Sep2000
   VRHFIN =Fe:  d7 s1

   TITEL  = PAW_PBE Fe 06Sep2000
   POMASS =   55.847; ZVAL   =    8.000    mass and valenz
   ENMAX  =  267.882; ENMIN  =  200.911 eV

 POTCAR:    PAW_PBE C 08Apr2002
   VRHFIN =C: s2p2

   TITEL  = PAW_PBE C 08Apr2002
   POMASS =   12.011; ZVAL   =    4.000    mass and valenz
   ENMAX  =  400.000; ENMIN  =  300.000 eV

 Optimization of the real space projectors (new method)

 maximal supplied QI-value         = 15.12
 optimisation between [QCUT,QGAM] = [ 11.34, 22.83] = [ 36.00,145.93] Ry
 Optimized for a Real-space Cutoff    1.39 Angstroem

   l    n(q)    QCUT    max X(q) W(low)/X(q) W(high)/X(q)  e(spline)
   2      9    11.338    60.898    0.39E-03    0.42E-03    0.21E-06
   2      9    11.338    58.894    0.40E-03    0.42E-03    0.22E-06
   0      9    11.338   109.617    0.13E-03    0.20E-04    0.13E-06
   0      9    11.338    75.026    0.13E-03    0.20E-04    0.13E-06
   1      9    11.338    16.344    0.33E-04    0.24E-03    0.18E-06
   1      9    11.338    10.160    0.26E-04    0.19E-03    0.15E-06
 Optimization of the real space projectors (new method)

[...]

   l    n(q)    QCUT    max X(q) W(low)/X(q) W(high)/X(q)  e(spline)
   2      8    11.376    80.901    0.45E-03    0.44E-04    0.21E-06
   2      8    11.376    75.754    0.45E-03    0.45E-04    0.22E-06
   0      9    11.376    58.752    0.65E-04    0.95E-04    0.17E-06
   0      9    11.376    30.679    0.59E-04    0.87E-04    0.16E-06
   1      9    11.376    17.977    0.38E-03    0.10E-03    0.14E-06
   1      9    11.376    13.559    0.31E-03    0.90E-04    0.12E-06
 Optimization of the real space projectors (new method)

 maximal supplied QI-value         = 25.13
 optimisation between [QCUT,QGAM] = [ 11.31, 22.87] = [ 35.82,146.48] Ry
 Optimized for a Real-space Cutoff    1.00 Angstroem

   l    n(q)    QCUT    max X(q) W(low)/X(q) W(high)/X(q)  e(spline)
   0      7    11.310   115.676    0.43E-03    0.13E-02    0.19E-06
   0      7    11.310    87.132    0.43E-03    0.13E-02    0.18E-06
   1      6    11.310     4.429    0.42E-03    0.74E-03    0.11E-06
   1      6    11.310     2.733    0.34E-03    0.55E-03    0.92E-07
  PAW_PBE Au 04Oct2007                  :
  PAW_PBE Fe 06Sep2000                  :
  PAW_PBE C 08Apr2002                   :

 POSCAR: Au-Fe-C
  positions in direct lattice
  velocities in cartesian coordinates
 exchange correlation table for  LEXCH =        8
   RHO(1)=    0.500       N(1)  =     2000
   RHO(2)=  100.500       N(2)  =     4000

 VTST: version 3.2, (02/03/18)

 CHAIN: initializing optimizer

 OPT: Using VASP Conjugate-Gradient optimizer
 CHAIN: Read ICHAIN            0

 POSCAR: Au-Fe-C
  positions in direct lattice
  velocities in cartesian coordinates

 ion  position               nearest neighbor table
   1  0.000  0.000  0.217-  16 2.94  12 2.94   6 2.94   8 2.94   7 2.94   3 2.94  10 2.94   4 2.94
                             2 2.94
   2  0.333  0.000  0.217-   9 2.94  11 2.94  17 2.94  10 2.94   8 2.94   4 2.94   5 2.94   1 2.94
                             3 2.94
   3  0.667  0.000  0.217-   7 2.94  18 2.94  12 2.94   1 2.94  11 2.94   5 2.94   6 2.94   9 2.94
                             2 2.94
   4  0.000  0.333  0.217-  10 2.94   6 2.94   5 2.94  13 2.94   2 2.94  15 2.94   9 2.94   1 2.94
                             7 2.94
   5  0.333  0.333  0.217-  13 2.94   7 2.94  11 2.94   4 2.94   2 2.94  14 2.94   3 2.94   8 2.94
                             6 2.94
   6  0.667  0.333  0.217-  15 2.94  14 2.94   1 2.94  12 2.94   4 2.94   9 2.94   8 2.94   3 2.94
                             5 2.94
   7  0.000  0.667  0.217-  18 2.94   3 2.94  16 2.94   5 2.94   1 2.94  13 2.94   8 2.94   4 2.94
                             9 2.94
   8  0.333  0.667  0.217-   9 2.94  17 2.94   1 2.94   2 2.94  14 2.94  16 2.94   6 2.94   7 2.94
                             5 2.94
   9  0.667  0.667  0.217-   2 2.94   8 2.94  17 2.94   6 2.94  15 2.94   4 2.94   3 2.94  18 2.94
                             7 2.94
  10  0.111  0.111  0.316-  20 2.93  26 2.94  19 2.94  11 2.94  17 2.94   2 2.94   4 2.94   1 2.94
                            12 2.94  16 2.94  13 2.94  15 2.94
  11  0.444  0.111  0.316-  20 2.91  21 2.91  27 2.93  13 2.94   2 2.94  10 2.94  17 2.94   5 2.94
                             3 2.94  18 2.94  14 2.94  12 2.94
  12  0.778  0.111  0.316-  21 2.93  25 2.94  19 2.94  16 2.94  18 2.94   1 2.94  14 2.94  15 2.94
                             3 2.94   6 2.94  10 2.94  11 2.94
  13  0.111  0.444  0.316-  23 2.91  20 2.91  22 2.93   5 2.94  18 2.94  11 2.94   7 2.94   4 2.94
                            16 2.94  10 2.94  14 2.94  15 2.94
  14  0.444  0.444  0.316-  21 2.91  23 2.91  24 2.93  15 2.94   6 2.94  12 2.94   8 2.94  17 2.94
                             5 2.94  16 2.94  13 2.94  11 2.94
  15  0.778  0.444  0.316-  24 2.92  22 2.92  19 2.94  14 2.94   6 2.94  17 2.94  12 2.94   9 2.94
                             4 2.94  10 2.94  13 2.94  18 2.94
  16  0.111  0.778  0.316-  23 2.93  25 2.94  26 2.94  18 2.94  12 2.94   7 2.94   1 2.94   8 2.94
                            13 2.94  10 2.94  14 2.94  17 2.94
  17  0.444  0.778  0.316-  27 2.92  24 2.92  26 2.94   9 2.94  15 2.94   2 2.94  10 2.94  11 2.94
                             8 2.94  14 2.94  16 2.94  18 2.94
  18  0.778  0.778  0.316-  22 2.92  27 2.92  25 2.94  16 2.94   7 2.94  13 2.94  12 2.94   3 2.94
                            11 2.94   9 2.94  15 2.94  17 2.94
  19  0.889  0.222  0.414-  10 2.94  12 2.94  15 2.94  26 2.94  25 2.94  24 2.94  22 2.94  28 2.95
                            21 2.95  20 2.95  32 2.98  31 2.98
  20  0.223  0.223  0.413-  36 2.70  23 2.91  21 2.91  11 2.91  13 2.91  29 2.92  31 2.92  10 2.93
                            27 2.95  22 2.95  26 2.95  19 2.95
  21  0.553  0.223  0.413-  36 2.70  20 2.91  23 2.91  14 2.91  11 2.91  30 2.92  32 2.92  12 2.93
                            27 2.95  24 2.95  25 2.95  19 2.95
  22  0.887  0.557  0.414-  24 2.91  27 2.91  18 2.92  15 2.92  13 2.93  25 2.94  19 2.94  33 2.95
                            31 2.95  23 2.95  20 2.95  35 2.95
  23  0.223  0.553  0.413-  36 2.70  20 2.91  21 2.91  13 2.91  14 2.91  33 2.92  34 2.92  16 2.93
                            22 2.95  24 2.95  25 2.95  26 2.95
  24  0.557  0.557  0.414-  27 2.91  22 2.91  15 2.92  17 2.92  14 2.93  26 2.94  19 2.94  32 2.95
                            34 2.95  21 2.95  23 2.95  35 2.95
  25  0.889  0.889  0.414-  16 2.94  12 2.94  18 2.94  19 2.94  26 2.94  22 2.94  27 2.94  28 2.95
                            23 2.95  21 2.95  33 2.98  30 2.98
  26  0.222  0.889  0.414-  10 2.94  16 2.94  17 2.94  19 2.94  25 2.94  27 2.94  24 2.94  28 2.95
                            20 2.95  23 2.95  29 2.98  34 2.98
  27  0.557  0.887  0.414-  24 2.91  22 2.91  17 2.92  18 2.92  11 2.93  26 2.94  25 2.94  29 2.95
                            30 2.95  20 2.95  21 2.95  35 2.95
  28  0.000  0.000  0.514-  25 2.95  19 2.95  26 2.95  34 2.98  32 2.98  33 2.98  30 2.98  31 2.98
                            29 2.98
  29  0.333  0.010  0.513-  30 2.85  31 2.85  36 2.87  20 2.92  27 2.95  26 2.98  35 2.98  28 2.98
                            34 3.11
  30  0.657  0.010  0.513-  29 2.85  32 2.85  36 2.87  21 2.92  27 2.95  25 2.98  35 2.98  28 2.98
                            33 3.11
  31  0.010  0.333  0.513-  33 2.85  29 2.85  36 2.87  20 2.92  22 2.95  19 2.98  35 2.98  28 2.98
                            32 3.11
  32  0.657  0.333  0.513-  34 2.85  30 2.85  36 2.87  21 2.92  24 2.95  19 2.98  35 2.98  28 2.98
                            31 3.11
  33  0.010  0.657  0.513-  31 2.85  34 2.85  36 2.87  23 2.92  22 2.95  25 2.98  35 2.98  28 2.98
                            30 3.11
  34  0.333  0.657  0.513-  32 2.85  33 2.85  36 2.87  23 2.92  24 2.95  26 2.98  35 2.98  28 2.98
                            29 3.11
  35  0.667  0.667  0.514-  24 2.95  27 2.95  22 2.95  29 2.98  34 2.98  32 2.98  31 2.98  30 2.98
                            33 2.98
  36  0.333  0.333  0.500-  37 1.60  20 2.70  23 2.70  21 2.70  33 2.87  31 2.87  29 2.87  30 2.87
                            34 2.87  32 2.87
  37  0.333  0.333  0.566-  36 1.60

  LATTYP: Found a hexagonal cell.
 ALAT       =     8.8135128021
 C/A-ratio  =     2.7586513333

  Lattice vectors:

 A1 = (  -4.4067569092,  -7.6327256898,   0.0000000000)
 A2 = (   8.8135128021,   0.0000000000,   0.0000000000)
 A3 = (   0.0000000000,   0.0000000000,  24.3134088421)

Analysis of symmetry for initial positions (statically):
 Subroutine PRICEL returns:
 Original cell was already a primitive cell.

 Routine SETGRP: Setting up the symmetry group for a
 hexagonal supercell.

 Subroutine GETGRP returns: Found  6 space group operations
 (whereof  6 operations were pure point group operations)
 out of a pool of 24 trial point group operations.

The static configuration has the point symmetry C_3v.

Analysis of symmetry for dynamics (positions and initial velocities):
 Subroutine PRICEL returns:
 Original cell was already a primitive cell.

[...]

The dynamic configuration has the point symmetry C_3v.

Analysis of constrained symmetry for selective dynamics:
 Subroutine PRICEL returns:
 Original cell was already a primitive cell.

 Routine SETGRP: Setting up the symmetry group for a
 hexagonal supercell.

 Subroutine GETGRP returns: Found  6 space group operations
[...]
     24      -5.6198      2.00000
     25      -5.6012      2.00000
     26      -5.5752      2.00000
     27      -5.5490      2.00000
     28      -5.4710      2.00000
     29      -5.4228      2.00000
     30      -5.3247      2.00000
     31      -5.3149      2.00000
     32      -5.3011      2.00000
     33      -5.2929      2.00000
     34      -5.2817      2.00000
     35      -5.1927      2.00000
     36      -5.1180      2.00000
     37      -5.0982      2.00000
     38      -5.0901      2.00000
     39      -5.0860      2.00000
     40      -5.0284      2.00000
     41      -4.9537      2.00000
     42      -4.9209      2.00000
     43      -4.8701      2.00000
     44      -4.8453      2.00000
     45      -4.8411      2.00000
     46      -4.8237      2.00000
     47      -4.7244      2.00000
     48      -4.7118      2.00000
     49      -4.6772      2.00000
     50      -4.6585      2.00000
     51      -4.6527      2.00000
     52      -4.6446      2.00000
     53      -4.6264      2.00000
     54      -4.5997      2.00000
     55      -4.5613      2.00000
     56      -4.5284      2.00000
     57      -4.5096      2.00000
     58      -4.5023      2.00000
     59      -4.4800      2.00000
     60      -4.4760      2.00000
[...]
    238       5.9126      0.00000
    239       5.9637      0.00000
    240       6.0097      0.00000
    241       6.0817      0.00000
    242       6.2481      0.00000
    243       6.2732      0.00000
    244       6.3105      0.00000
    245       6.3306      0.00000
    246       6.6565      0.00000
    247       6.6852      0.00000
    248       6.7747      0.00000
    249       6.8275      0.00000
    250       6.8381      0.00000
    251       6.8967      0.00000
    252       6.9619      0.00000

 soft charge-density along one line, spin component           1
         0         1         2         3         4         5         6         7         8         9
 total charge-density along one line

------------------------ aborting loop because EDIFF is reached ----------------------------------------

 total charge

# of ion       s       p       d       tot
    1        0.545   0.240   8.764   9.549
    2        0.544   0.241   8.764   9.549
    3        0.544   0.241   8.764   9.549
    4        0.544   0.241   8.764   9.549
    5        0.543   0.240   8.764   9.547
    6        0.544   0.241   8.764   9.549
    7        0.544   0.241   8.764   9.549
    8        0.544   0.241   8.764   9.549
    9        0.543   0.241   8.766   9.550
   10        0.519   0.307   8.771   9.597
   11        0.519   0.309   8.776   9.604
   12        0.519   0.307   8.771   9.597
   13        0.519   0.309   8.776   9.604
   14        0.519   0.309   8.776   9.604
   15        0.516   0.310   8.772   9.598
   16        0.519   0.307   8.771   9.597
   17        0.516   0.310   8.772   9.598
   18        0.516   0.310   8.772   9.598
   19        0.517   0.298   8.778   9.592
   20        0.542   0.330   8.755   9.627
   21        0.542   0.330   8.755   9.627
   22        0.512   0.311   8.773   9.596
   23        0.542   0.330   8.755   9.627
   24        0.512   0.311   8.773   9.596
   25        0.517   0.298   8.778   9.592
   26        0.517   0.298   8.778   9.592
   27        0.512   0.311   8.773   9.596
   28        0.543   0.222   8.764   9.529
   29        0.543   0.238   8.765   9.546
   30        0.543   0.238   8.765   9.546
   31        0.543   0.238   8.765   9.546
   32        0.543   0.238   8.765   9.546
   33        0.543   0.238   8.765   9.546
   34        0.543   0.238   8.765   9.546
   35        0.540   0.222   8.770   9.531
   36        0.436   0.499   6.572   7.507
   37        1.032   1.192   0.000   2.223
tot         20.078  11.324 313.451 344.852

  FORCE on cell =-STRESS in cart. coord.  units (eV):
  Direction    XX          YY          ZZ          XY          YZ          ZX
  Alpha Z   925.53734   925.53734   925.53734
  Ewald  151280.16937151280.16980************    -0.00032    -0.00009    -0.00013
  Hartree159676.38607159676.38608************     0.00001    -0.00002    -0.00003
  E(xc)   -1780.46411 -1780.46409 -1787.60572    -0.00002    -0.00000    -0.00000
  Local  ************************323583.70533     0.00182     0.00004     0.00004
  n-local  -106.33098   -59.12848   -61.42520    23.29163    -1.44683     1.63832
  augment  2405.86933  2405.87085  2415.10089    -0.00131    -0.00000     0.00007
  Kinetic  5474.78767  5484.78233  5517.59340     5.58379    -0.10342     0.49457
  Fock        0.00000     0.00000     0.00000     0.00000     0.00000     0.00000
  Total     -20.96024   -20.96024     1.14826    -0.00000     0.00000    -0.00000
  in kB     -20.53205   -20.53205     1.12480    -0.00000     0.00000    -0.00000

 VOLUME and BASIS-vectors are now :
  energy-cutoff  :      500.00
  volume of cell :     1635.59
      direct lattice vectors                 reciprocal lattice vectors
     8.813512802  0.000000000  0.000000000     0.113462137 -0.065507406  0.000000000
     4.406756909  7.632725690  0.000000000     0.000000000  0.131014796  0.000000000
     0.000000000  0.000000000 24.313408842     0.000000000  0.000000000  0.041129568

  length of vectors
     8.813512802  8.813512802 24.313408842     0.131014796  0.131014796  0.041129568

 FORCES acting on ions
    electron-ion (+dipol)            ewald-force                    non-local-force                 convergence-correction
   -.198E-04 -.163E-04 0.265E+04   0.519E-04 0.434E-04 -.265E+04   0.314E-17 0.248E-18 -.502E+00   -.237E-03 -.151E-03 -.146E+00
   0.663E+00 0.402E+00 0.265E+04   -.638E+00 -.440E+00 -.265E+04   -.105E-01 -.177E-02 -.335E+00   -.142E-01 0.366E-01 -.163E+00
   -.663E+00 0.402E+00 0.265E+04   0.638E+00 -.440E+00 -.265E+04   0.105E-01 -.177E-02 -.335E+00   0.145E-01 0.385E-01 -.162E+00
   0.680E+00 0.373E+00 0.265E+04   -.701E+00 -.332E+00 -.265E+04   -.677E-02 -.819E-02 -.335E+00   0.246E-01 -.306E-01 -.163E+00
   0.817E-05 -.235E-04 0.266E+04   0.951E-04 0.173E-05 -.265E+04   0.571E-17 -.541E-18 -.399E+00   0.428E-02 0.260E-02 -.127E+00
   -.680E+00 0.373E+00 0.265E+04   0.700E+00 -.332E+00 -.265E+04   0.677E-02 -.819E-02 -.335E+00   -.262E-01 -.297E-01 -.162E+00
   0.170E-01 -.775E+00 0.265E+04   -.625E-01 0.773E+00 -.265E+04   0.371E-02 0.995E-02 -.335E+00   0.406E-01 -.672E-02 -.162E+00
   -.171E-01 -.775E+00 0.265E+04   0.624E-01 0.773E+00 -.265E+04   -.371E-02 0.995E-02 -.335E+00   -.388E-01 -.782E-02 -.162E+00
   0.197E-04 -.415E-04 0.265E+04   0.166E-03 -.201E-04 -.265E+04   0.164E-17 -.538E-19 -.408E+00   -.459E-02 -.237E-02 -.182E+00
   0.486E+01 0.280E+01 0.890E+03   -.471E+01 -.272E+01 -.890E+03   -.140E+00 -.809E-01 -.488E+00   -.156E-01 -.912E-02 -.709E-01
   0.153E-04 0.614E+01 0.900E+03   0.147E-03 -.622E+01 -.900E+03   0.179E-08 0.269E-01 -.561E+00   0.405E-02 0.209E-01 -.124E+00
   -.486E+01 0.280E+01 0.890E+03   0.471E+01 -.272E+01 -.890E+03   0.140E+00 -.809E-01 -.488E+00   0.142E-01 -.796E-02 -.710E-01
   0.532E+01 -.307E+01 0.900E+03   -.538E+01 0.311E+01 -.900E+03   0.233E-01 -.134E-01 -.561E+00   0.204E-01 -.668E-02 -.124E+00
   -.532E+01 -.307E+01 0.900E+03   0.538E+01 0.311E+01 -.900E+03   -.233E-01 -.134E-01 -.561E+00   -.128E-01 -.752E-02 -.125E+00
   0.313E-04 0.321E+01 0.893E+03   0.236E-03 -.322E+01 -.893E+03   0.102E-08 0.154E-01 -.424E+00   -.224E-02 -.381E-01 -.933E-01
   -.214E-04 -.561E+01 0.890E+03   0.163E-03 0.544E+01 -.890E+03   0.108E-07 0.162E+00 -.488E+00   -.173E-04 0.163E-01 -.710E-01
   0.278E+01 -.160E+01 0.893E+03   -.279E+01 0.161E+01 -.893E+03   0.133E-01 -.768E-02 -.424E+00   -.338E-01 0.175E-01 -.933E-01
   -.278E+01 -.160E+01 0.893E+03   0.279E+01 0.161E+01 -.893E+03   -.133E-01 -.768E-02 -.424E+00   0.342E-01 0.195E-01 -.927E-01
   -.404E-04 0.257E+01 -.904E+03   0.540E-04 -.257E+01 0.904E+03   0.199E-08 0.300E-01 0.690E+00   -.317E-02 -.579E-01 0.303E-01
   0.280E+02 0.162E+02 -.857E+03   -.274E+02 -.158E+02 0.858E+03   -.823E+00 -.475E+00 -.579E+00   0.517E-01 0.297E-01 0.169E+00
   -.280E+02 0.162E+02 -.857E+03   0.274E+02 -.158E+02 0.858E+03   0.823E+00 -.475E+00 -.579E+00   -.560E-01 0.301E-01 0.169E+00
   0.520E+01 -.300E+01 -.889E+03   -.563E+01 0.325E+01 0.888E+03   0.375E+00 -.216E+00 0.663E+00   0.742E-01 -.456E-01 0.358E-01
   -.106E-04 -.323E+02 -.857E+03   0.142E-03 0.316E+02 0.858E+03   0.633E-07 0.951E+00 -.579E+00   -.219E-02 -.635E-01 0.169E+00
   -.520E+01 -.300E+01 -.889E+03   0.563E+01 0.325E+01 0.888E+03   -.375E+00 -.216E+00 0.663E+00   -.795E-01 -.458E-01 0.358E-01
   -.223E+01 -.129E+01 -.904E+03   0.222E+01 0.128E+01 0.904E+03   -.259E-01 -.150E-01 0.690E+00   0.467E-01 0.269E-01 0.299E-01
   0.223E+01 -.129E+01 -.904E+03   -.222E+01 0.128E+01 0.904E+03   0.259E-01 -.150E-01 0.690E+00   -.514E-01 0.262E-01 0.303E-01
   0.112E-04 0.600E+01 -.889E+03   0.197E-03 -.650E+01 0.888E+03   0.288E-07 0.433E+00 0.663E+00   -.291E-02 0.870E-01 0.358E-01
   -.123E-04 -.132E-04 -.265E+04   0.295E-04 0.338E-04 0.265E+04   -.920E-18 0.326E-19 0.545E+00   -.158E-04 -.273E-04 0.210E+00
   0.292E+02 0.482E+02 -.263E+04   -.289E+02 -.479E+02 0.263E+04   -.449E+00 -.687E+00 0.786E+00   0.656E-01 0.162E+00 0.207E+00
   -.292E+02 0.482E+02 -.263E+04   0.289E+02 -.479E+02 0.263E+04   0.449E+00 -.687E+00 0.786E+00   -.653E-01 0.163E+00 0.207E+00
   0.564E+02 0.119E+01 -.263E+04   -.559E+02 -.110E+01 0.263E+04   -.820E+00 -.455E-01 0.786E+00   0.173E+00 -.240E-01 0.207E+00
   -.564E+02 0.119E+01 -.263E+04   0.559E+02 -.110E+01 0.263E+04   0.820E+00 -.455E-01 0.786E+00   -.174E+00 -.232E-01 0.207E+00
   0.272E+02 -.494E+02 -.263E+04   -.270E+02 0.490E+02 0.263E+04   -.371E+00 0.733E+00 0.786E+00   0.109E+00 -.138E+00 0.207E+00
   -.272E+02 -.494E+02 -.263E+04   0.270E+02 0.490E+02 0.263E+04   0.371E+00 0.733E+00 0.786E+00   -.107E+00 -.139E+00 0.207E+00
   0.349E-04 -.292E-04 -.265E+04   0.142E-03 -.491E-04 0.265E+04   -.486E-17 0.365E-17 0.564E+00   -.440E-02 -.224E-02 0.301E+00
   -.200E-04 -.107E-04 -.167E+04   0.846E-04 0.789E-05 0.167E+04   -.885E-18 -.735E-18 0.618E+01   0.471E-02 0.288E-02 0.166E+00
   0.470E-04 -.260E-04 -.123E+04   0.192E-04 0.122E-05 0.123E+04   -.503E-18 -.694E-18 -.899E+01   0.826E-03 0.503E-03 -.230E+00
   -.719E-03 -.799E-03 0.254E+01   0.212E-13 0.291E-12 0.955E-11   0.216E-15 -.220E-15 -.240E+01   -.118E-01 -.609E-02 0.969E-01

 POSITION                                       TOTAL-FORCE (eV/Angst)
      0.00000      0.00000      5.28038         0.000000      0.000000     -0.062158
      2.93784      0.00000      5.28038         0.000528     -0.002314     -0.032300
      5.87568      0.00000      5.28038        -0.000528     -0.002314     -0.032300
      1.46892      2.54424      5.28038        -0.001740      0.001614     -0.032300
      4.40676      2.54424      5.28038         0.000000      0.000000     -0.075210
      7.34459      2.54424      5.28038         0.001740      0.001614     -0.032300
      2.93784      5.08848      5.28038        -0.002268      0.000700     -0.032300
      5.87568      5.08848      5.28038         0.002268      0.000700     -0.032300
      8.81351      5.08848      5.28038         0.000000      0.000000     -0.036781
      1.46892      0.84808      7.67911        -0.007808     -0.004508      0.074501
      4.40676      0.84808      7.67911        -0.000000     -0.032691      0.009149
      7.34459      0.84808      7.67911         0.007808     -0.004508      0.074501
      2.93784      3.39232      7.67911        -0.028312      0.016346      0.009149
      5.87568      3.39232      7.67911         0.028312      0.016346      0.009149
      8.81351      3.39232      7.67911        -0.000000     -0.040943      0.070151
      4.40676      5.93656      7.67911         0.000000      0.009016      0.074501
      7.34459      5.93656      7.67911        -0.035457      0.020471      0.070151
     10.28243      5.93656      7.67911         0.035457      0.020471      0.070151
      8.81351      1.69603     10.07519        -0.000000     -0.020945      0.023555
      2.95264      1.70471     10.05068        -0.122523     -0.070739     -0.055983
      5.86088      1.70471     10.05068         0.122523     -0.070739     -0.055983
     10.26798      4.24875     10.06116         0.021648     -0.012498      0.043162
      4.40676      4.22331     10.05068         0.000000      0.141477     -0.055983
      7.35905      4.24875     10.06116        -0.021648     -0.012498      0.043162
     11.75147      6.78471     10.07519         0.018138      0.010472      0.023555
      5.87556      6.78471     10.07519        -0.018138      0.010472      0.023555
      8.81351      6.76796     10.06116         0.000000      0.024997      0.043162
      0.00000      0.00000     12.48698         0.000000      0.000000     -0.075283
      2.98147      0.07441     12.46921        -0.096514     -0.198872     -0.128349
      5.83205      0.07441     12.46921         0.096514     -0.198872     -0.128349
      1.55518      2.54482     12.46921        -0.220485      0.015852     -0.128349
      7.25833      2.54482     12.46921         0.220485      0.015852     -0.128349
      2.98047      5.01349     12.46921        -0.123971      0.183019     -0.128349
      5.83305      5.01349     12.46921         0.123971      0.183019     -0.128349
      8.81351      5.08848     12.49182         0.000000      0.000000     -0.052890
      4.40676      2.54424     12.16047         0.000000      0.000000      0.747648
      4.40676      2.54424     13.75808         0.000000      0.000000      0.024962
    total drift:                               -0.012483     -0.006885      0.228422

  FREE ENERGIE OF THE ION-ELECTRON SYSTEM (eV)
  free  energy   TOTEN  =      -119.90211501 eV

  energy  without entropy=     -119.90211501  energy(sigma->0) =     -119.90211501

 stress matrix after NEB project (eV)
    -20.96024     -0.00000     -0.00000
     -0.00000    -20.96024      0.00000
     -0.00000      0.00000      1.14826
  FORCES: max atom, RMS     0.024962    0.004104
  FORCE total and by dimension    0.024962    0.024962
  Stress total and by dimension   29.664491   20.960244
|           W    W    AA    RRRRR   N    N  II  N    N   GGGG   !!!           |
|           W    W   A  A   R    R  NN   N  II  NN   N  G    G  !!!           |
|           W    W  A    A  R    R  N N  N  II  N N  N  G       !!!           |
|           W WW W  AAAAAA  RRRRR   N  N N  II  N  N N  G  GGG   !            |
|           WW  WW  A    A  R   R   N   NN  II  N   NN  G    G                |
|           W    W  A    A  R    R  N    N  II  N    N   GGGG   !!!           |
|     Tetrahedron method does not include variations of the Fermi             |
|     occupations, so forces and stress will be inaccurate. We suggest        |
|     using a different smearing scheme ISMEAR = 1 or 2 for metals in         |
|     relaxations.                                                            |

 total charge

# of ion       s       p       d       tot
    1        0.545   0.240   8.764   9.549
    2        0.544   0.241   8.764   9.549
    3        0.544   0.241   8.764   9.549
    4        0.544   0.241   8.764   9.549
    5        0.543   0.240   8.764   9.547
    6        0.544   0.241   8.764   9.549
    7        0.544   0.241   8.764   9.549
    8        0.544   0.241   8.764   9.549
    9        0.543   0.241   8.766   9.550
   10        0.519   0.307   8.771   9.597
   11        0.519   0.309   8.776   9.604
   12        0.519   0.307   8.771   9.597
   13        0.519   0.309   8.776   9.604
   14        0.519   0.309   8.776   9.604
   15        0.516   0.310   8.772   9.598
   16        0.519   0.307   8.771   9.597
   17        0.516   0.310   8.772   9.598
   18        0.516   0.310   8.772   9.598
   19        0.517   0.298   8.778   9.592
   20        0.542   0.330   8.755   9.627
   21        0.542   0.330   8.755   9.627
   22        0.512   0.311   8.773   9.596
   23        0.542   0.330   8.755   9.627
   24        0.512   0.311   8.773   9.596
   25        0.517   0.298   8.778   9.592
   26        0.517   0.298   8.778   9.592
   27        0.512   0.311   8.773   9.596
   28        0.543   0.222   8.764   9.529
   29        0.543   0.238   8.765   9.546
   30        0.543   0.238   8.765   9.546
   31        0.543   0.238   8.765   9.546
   32        0.543   0.238   8.765   9.546
   33        0.543   0.238   8.765   9.546
   34        0.543   0.238   8.765   9.546
   35        0.540   0.222   8.770   9.531
   36        0.436   0.499   6.572   7.507
   37        1.032   1.192   0.000   2.223
tot         20.078  11.324 313.451 344.852

 BZINTS: Fermi energy:    0.127212;  397.000000 electrons
         Band energy:-0.141778E+04;  BLOECHL correction:   -0.079014