 vasp.6.2.0 18Jan21 (build Jun 12 2021 23:27:24) complex

 executed on             LinuxIFC date 2022.05.27  05:20:13

 INCAR:
   ISMEAR = -5
   SIGMA = 0.1
   ISPIN = 1
   EDIFF = 1.d-5
   EDIFFG = -0.01
   NSW = 0
   NELM = 150
   ENCUT = 500
   ISIF = 2
   IBRION = 2
   LREAL = Auto
   ALGO = Fast
   ICHARG = 11
   LORBIT = 10
   LCHARG = .F.
   LWAVE = .F.

 POTCAR:    PAW_PBE Au 04Oct2007
 POTCAR:    PAW_PBE Re 17Jan2003
 POTCAR:    PAW_PBE O 08Apr2002
 POTCAR:    PAW_PBE H 15Jun2001
|           W    W    AA    RRRRR   N    N  II  N    N   GGGG   !!!           |
|           W    W   A  A   R    R  NN   N  II  NN   N  G    G  !!!           |
|           W    W  A    A  R    R  N N  N  II  N N  N  G       !!!           |
|           W WW W  AAAAAA  RRRRR   N  N N  II  N  N N  G  GGG   !            |
|           WW  WW  A    A  R   R   N   NN  II  N   NN  G    G                |
|           W    W  A    A  R    R  N    N  II  N    N   GGGG   !!!           |
|     For optimal performance we recommend to set                             |
|       NCORE = 2 up to number-of-cores-per-socket                            |
|     This setting can greatly improve the performance of VASP for DFT.       |
|     The default, NCORE=1 might be grossly inefficient on modern             |
|     multi-core architectures or massively parallel machines. Do your        |
|     Unfortunately you need to use the default for GW and RPA                |
|     calculations (for HF NCORE is supported but not extensively tested      |
|     yet).                                                                   |

 POTCAR:    PAW_PBE Au 04Oct2007
   VRHFIN =Au: s1d10

   TITEL  = PAW_PBE Au 04Oct2007
   POMASS =  196.966; ZVAL   =   11.000    mass and valenz
   ENMAX  =  229.943; ENMIN  =  172.457 eV

 POTCAR:    PAW_PBE Re 17Jan2003
   VRHFIN =Re: 5p6s5d

   TITEL  = PAW_PBE Re 17Jan2003
   POMASS =  186.207; ZVAL   =    7.000    mass and valenz
   ENMAX  =  226.216; ENMIN  =  169.662 eV

 POTCAR:    PAW_PBE O 08Apr2002
   VRHFIN =O: s2p4

   TITEL  = PAW_PBE O 08Apr2002
   POMASS =   16.000; ZVAL   =    6.000    mass and valenz
   ENMAX  =  400.000; ENMIN  =  300.000 eV

 POTCAR:    PAW_PBE H 15Jun2001
   VRHFIN =H: ultrasoft test

   TITEL  = PAW_PBE H 15Jun2001
   POMASS =    1.000; ZVAL   =    1.000    mass and valenz
   ENMAX  =  250.000; ENMIN  =  200.000 eV

 Optimization of the real space projectors (new method)

 maximal supplied QI-value         = 15.12
 optimisation between [QCUT,QGAM] = [ 11.34, 22.83] = [ 36.00,145.93] Ry
 Optimized for a Real-space Cutoff    1.39 Angstroem

   l    n(q)    QCUT    max X(q) W(low)/X(q) W(high)/X(q)  e(spline)
   2      9    11.338    60.898    0.39E-03    0.42E-03    0.21E-06
   2      9    11.338    58.894    0.40E-03    0.42E-03    0.22E-06
   0      9    11.338   109.617    0.13E-03    0.20E-04    0.13E-06
   0      9    11.338    75.026    0.13E-03    0.20E-04    0.13E-06
   1      9    11.338    16.344    0.33E-04    0.24E-03    0.18E-06
   1      9    11.338    10.160    0.26E-04    0.19E-03    0.15E-06
 Optimization of the real space projectors (new method)

[...]

   l    n(q)    QCUT    max X(q) W(low)/X(q) W(high)/X(q)  e(spline)
   0      7    11.387    20.381    0.39E-03    0.13E-02    0.15E-06
   0      7    11.387    15.268    0.42E-03    0.14E-02    0.17E-06
   1      6    11.387     5.964    0.41E-03    0.11E-02    0.17E-06
   1      6    11.387     5.382    0.39E-03    0.87E-03    0.15E-06
 Optimization of the real space projectors (new method)

 maximal supplied QI-value         = 34.20
 optimisation between [QCUT,QGAM] = [ 11.29, 22.57] = [ 35.68,142.71] Ry
 Optimized for a Real-space Cutoff    1.16 Angstroem

   l    n(q)    QCUT    max X(q) W(low)/X(q) W(high)/X(q)  e(spline)
   0      8    11.287    19.460    0.40E-03    0.73E-03    0.16E-06
   0      8    11.287    12.209    0.38E-03    0.70E-03    0.15E-06
   1      7    11.287     4.655    0.22E-03    0.25E-04    0.22E-06
  PAW_PBE Au 04Oct2007                  :
  PAW_PBE Re 17Jan2003                  :
  PAW_PBE O 08Apr2002                   :
  PAW_PBE H 15Jun2001                   :

 POSCAR: Au-Re-OH
  positions in direct lattice
  velocities in cartesian coordinates
 exchange correlation table for  LEXCH =        8
   RHO(1)=    0.500       N(1)  =     2000
   RHO(2)=  100.500       N(2)  =     4000

 VTST: version 3.2, (02/03/18)

 CHAIN: initializing optimizer

 OPT: Using VASP Conjugate-Gradient optimizer
 CHAIN: Read ICHAIN            0

 POSCAR: Au-Re-OH
  positions in direct lattice
  velocities in cartesian coordinates

 ion  position               nearest neighbor table
   1  0.000  0.000  0.238-  16 2.94  12 2.94   6 2.94   8 2.94   7 2.94   3 2.94  10 2.94   4 2.94
                             2 2.94
   2  0.333  0.000  0.238-   9 2.94  11 2.94  17 2.94  10 2.94   8 2.94   4 2.94   5 2.94   1 2.94
                             3 2.94
   3  0.667  0.000  0.238-   7 2.94  18 2.94  12 2.94   1 2.94  11 2.94   5 2.94   6 2.94   9 2.94
                             2 2.94
   4  0.000  0.333  0.238-  10 2.94   6 2.94   5 2.94  13 2.94   2 2.94  15 2.94   9 2.94   1 2.94
                             7 2.94
   5  0.333  0.333  0.238-  13 2.94   7 2.94  11 2.94   4 2.94   2 2.94  14 2.94   3 2.94   8 2.94
                             6 2.94
   6  0.667  0.333  0.238-  15 2.94  14 2.94   1 2.94  12 2.94   4 2.94   9 2.94   8 2.94   3 2.94
                             5 2.94
   7  0.000  0.667  0.238-  18 2.94   3 2.94  16 2.94   5 2.94   1 2.94  13 2.94   8 2.94   4 2.94
                             9 2.94
   8  0.333  0.667  0.238-   9 2.94  17 2.94   1 2.94   2 2.94  14 2.94  16 2.94   6 2.94   7 2.94
                             5 2.94
   9  0.667  0.667  0.238-   2 2.94   8 2.94  17 2.94   6 2.94  15 2.94   4 2.94   3 2.94  18 2.94
                             7 2.94
  10  0.111  0.111  0.346-  20 2.90  11 2.94  17 2.94   2 2.94   4 2.94   1 2.94  12 2.94  16 2.94
                            13 2.94  15 2.94  26 2.96  19 2.96
  11  0.444  0.111  0.346-  20 2.91  21 2.91  13 2.94   2 2.94  10 2.94  17 2.94   5 2.94   3 2.94
                            18 2.94  14 2.94  12 2.94  27 2.94
  12  0.778  0.111  0.346-  21 2.90  16 2.94  18 2.94   1 2.94  14 2.94  15 2.94   3 2.94   6 2.94
                            10 2.94  11 2.94  25 2.96  19 2.96
  13  0.111  0.444  0.346-  23 2.91  20 2.91   5 2.94  18 2.94  11 2.94   7 2.94   4 2.94  16 2.94
                            10 2.94  14 2.94  15 2.94  22 2.94
  14  0.444  0.444  0.346-  21 2.91  23 2.91  15 2.94   6 2.94  12 2.94   8 2.94  17 2.94   5 2.94
                            16 2.94  13 2.94  11 2.94  24 2.94
  15  0.778  0.444  0.346-  24 2.92  22 2.92  14 2.94   6 2.94  17 2.94  12 2.94   9 2.94   4 2.94
                            10 2.94  13 2.94  18 2.94  19 2.95
  16  0.111  0.778  0.346-  23 2.90  18 2.94  12 2.94   7 2.94   1 2.94   8 2.94  13 2.94  10 2.94
                            14 2.94  17 2.94  25 2.96  26 2.96
  17  0.444  0.778  0.346-  27 2.92  24 2.92   9 2.94  15 2.94   2 2.94  10 2.94  11 2.94   8 2.94
                            14 2.94  16 2.94  18 2.94  26 2.95
  18  0.778  0.778  0.346-  22 2.92  27 2.92  16 2.94   7 2.94  13 2.94  12 2.94   3 2.94  11 2.94
                             9 2.94  15 2.94  17 2.94  25 2.95
  19  0.888  0.224  0.455-  24 2.93  22 2.93  21 2.93  20 2.93  28 2.94  15 2.95  26 2.96  25 2.96
                            10 2.96  12 2.96  32 3.02  31 3.02
  20  0.222  0.222  0.452-  36 2.75  10 2.90  11 2.91  13 2.91  26 2.93  19 2.93  23 2.95  21 2.95
                            27 2.96  22 2.96  29 2.97  31 2.97
  21  0.556  0.222  0.452-  36 2.75  12 2.90  14 2.91  11 2.91  25 2.93  19 2.93  20 2.95  23 2.95
                            27 2.96  24 2.96  30 2.97  32 2.97
  22  0.886  0.557  0.454-  24 2.90  27 2.90  18 2.92  15 2.92  25 2.93  19 2.93  13 2.94  35 2.95
                            23 2.96  20 2.96  33 3.00  31 3.00
  23  0.222  0.556  0.452-  36 2.75  16 2.90  13 2.91  14 2.91  25 2.93  26 2.93  20 2.95  21 2.95
                            22 2.96  24 2.96  33 2.97  34 2.97
  24  0.557  0.557  0.454-  27 2.90  22 2.90  15 2.92  17 2.92  26 2.93  19 2.93  14 2.94  35 2.95
                            21 2.96  23 2.96  32 3.00  34 3.00
  25  0.888  0.888  0.455-  22 2.93  27 2.93  23 2.93  21 2.93  28 2.94  18 2.95  19 2.96  26 2.96
                            16 2.96  12 2.96  33 3.02  30 3.02
  26  0.224  0.888  0.455-  27 2.93  24 2.93  20 2.93  23 2.93  28 2.94  17 2.95  19 2.96  25 2.96
                            10 2.96  16 2.96  29 3.02  34 3.02
  27  0.557  0.886  0.454-  24 2.90  22 2.90  17 2.92  18 2.92  26 2.93  25 2.93  11 2.94  35 2.95
                            20 2.96  21 2.96  29 3.00  30 3.00
  28  0.000  0.000  0.563-  25 2.94  19 2.94  26 2.94  34 2.99  32 2.99  33 2.99  30 2.99  31 2.99
                            29 2.99
  29  0.333  0.011  0.565-  30 2.84  31 2.84  36 2.86  20 2.97  35 2.99  28 2.99  27 3.00  26 3.02
                            34 3.14
  30  0.655  0.011  0.565-  29 2.84  32 2.84  36 2.86  21 2.97  35 2.99  28 2.99  27 3.00  25 3.02
                            33 3.14
  31  0.011  0.333  0.565-  33 2.84  29 2.84  36 2.86  20 2.97  35 2.99  28 2.99  22 3.00  19 3.02
                            32 3.14
  32  0.655  0.333  0.565-  34 2.84  30 2.84  36 2.86  21 2.97  35 2.99  28 2.99  24 3.00  19 3.02
                            31 3.14
  33  0.011  0.655  0.565-  31 2.84  34 2.84  36 2.86  23 2.97  35 2.99  28 2.99  22 3.00  25 3.02
                            30 3.14
  34  0.333  0.655  0.565-  32 2.84  33 2.84  36 2.86  23 2.97  35 2.99  28 2.99  24 3.00  26 3.02
                            29 3.14
  35  0.667  0.667  0.563-  24 2.95  27 2.95  22 2.95  29 2.99  34 2.99  32 2.99  31 2.99  30 2.99
                            33 2.99
  36  0.333  0.333  0.550-  37 1.88  20 2.75  23 2.75  21 2.75  33 2.86  31 2.86  29 2.86  30 2.86
                            34 2.86  32 2.86
  37  0.333  0.333  0.634-  38 0.97  36 1.88
  38  0.333  0.333  0.678-  37 0.97

  LATTYP: Found a hexagonal cell.
 ALAT       =     8.8135128021
 C/A-ratio  =     2.5184286595

  Lattice vectors:

 A1 = (  -4.4067569092,  -7.6327256898,   0.0000000000)
 A2 = (   8.8135128021,   0.0000000000,   0.0000000000)
 A3 = (   0.0000000000,   0.0000000000,  22.1962032318)

Analysis of symmetry for initial positions (statically):
 Subroutine PRICEL returns:
 Original cell was already a primitive cell.

 Routine SETGRP: Setting up the symmetry group for a
 hexagonal supercell.

 Subroutine GETGRP returns: Found  6 space group operations
 (whereof  6 operations were pure point group operations)
 out of a pool of 24 trial point group operations.

The static configuration has the point symmetry C_3v.

Analysis of symmetry for dynamics (positions and initial velocities):
 Subroutine PRICEL returns:
 Original cell was already a primitive cell.

[...]

The dynamic configuration has the point symmetry C_3v.

Analysis of constrained symmetry for selective dynamics:
 Subroutine PRICEL returns:
 Original cell was already a primitive cell.

[...]
     33      -4.5489      2.00000
     34      -4.4979      2.00000
     35      -4.4910      2.00000
     36      -4.4633      2.00000
     37      -4.4388      2.00000
     38      -4.4104      2.00000
     39      -4.3227      2.00000
     40      -4.2890      2.00000
     41      -4.2739      2.00000
     42      -4.2540      2.00000
     43      -4.2019      2.00000
     44      -4.1415      2.00000
     45      -4.1061      2.00000
     46      -4.0431      2.00000
     47      -4.0262      2.00000
     48      -3.9744      2.00000
     49      -3.9436      2.00000
     50      -3.9107      2.00000
     51      -3.8905      2.00000
     52      -3.8840      2.00000
     53      -3.8667      2.00000
     54      -3.8492      2.00000
     55      -3.8294      2.00000
     56      -3.8142      2.00000
     57      -3.7580      2.00000
     58      -3.7497      2.00000
     59      -3.7268      2.00000
     60      -3.7095      2.00000
[...]
    238       6.5187      0.00000
    239       6.6308      0.00000
    240       6.6575      0.00000
    241       6.7671      0.00000
    242       6.8082      0.00000
    243       6.9976      0.00000
    244       7.0301      0.00000
    245       7.0603      0.00000
    246       7.1315      0.00000
    247       7.4320      0.00000
    248       7.4513      0.00000
    249       7.4969      0.00000
    250       7.5616      0.00000
    251       7.6527      0.00000
    252       7.6752      0.00000

 soft charge-density along one line, spin component           1
         0         1         2         3         4         5         6         7         8         9
 total charge-density along one line

------------------------ aborting loop because EDIFF is reached ----------------------------------------

 total charge

# of ion       s       p       d       tot
    1        0.548   0.237   8.768   9.554
    2        0.544   0.241   8.765   9.550
    3        0.544   0.241   8.765   9.550
    4        0.544   0.241   8.765   9.550
    5        0.546   0.240   8.763   9.549
    6        0.544   0.241   8.765   9.550
    7        0.544   0.241   8.765   9.550
    8        0.544   0.241   8.765   9.550
    9        0.542   0.241   8.766   9.549
   10        0.527   0.306   8.769   9.602
   11        0.520   0.309   8.779   9.608
   12        0.527   0.306   8.769   9.602
   13        0.520   0.309   8.779   9.608
   14        0.520   0.309   8.779   9.608
   15        0.514   0.308   8.778   9.599
   16        0.527   0.306   8.769   9.602
   17        0.514   0.308   8.778   9.599
   18        0.514   0.308   8.778   9.599
   19        0.516   0.294   8.778   9.588
   20        0.569   0.347   8.723   9.639
   21        0.569   0.347   8.723   9.639
   22        0.506   0.306   8.780   9.592
   23        0.569   0.347   8.723   9.639
   24        0.506   0.306   8.780   9.592
   25        0.516   0.294   8.778   9.588
   26        0.516   0.294   8.778   9.588
   27        0.506   0.306   8.780   9.592
   28        0.542   0.228   8.756   9.527
   29        0.561   0.250   8.750   9.561
   30        0.561   0.250   8.750   9.561
   31        0.561   0.250   8.750   9.561
   32        0.561   0.250   8.750   9.561
   33        0.561   0.250   8.750   9.561
   34        0.561   0.250   8.750   9.561
   35        0.533   0.227   8.764   9.524
   36        0.520   0.509   4.547   5.575
   37        1.547   3.546   0.000   5.093
   38        0.596   0.127   0.000   0.723
tot         21.461  13.913 311.270 346.644

  FORCE on cell =-STRESS in cart. coord.  units (eV):
  Direction    XX          YY          ZZ          XY          YZ          ZX
  Alpha Z  1033.34003  1033.34003  1033.34003
  Ewald  117749.24961117749.25004************    -0.00031    -0.00008    -0.00013
  Hartree126593.74580126593.74580************     0.00001    -0.00002    -0.00004
  E(xc)   -1792.74905 -1792.74907 -1798.57279     0.00002     0.00000     0.00000
  Local  ************************256654.93347     0.00202     0.00001    -0.00000
  n-local  -123.64113   -71.68935   -65.33657    25.10236    -1.42343     1.21356
  augment  2381.43188  2381.43333  2395.46212    -0.00126     0.00004     0.00005
  Kinetic  5589.15330  5599.71291  5601.83716     6.64579     0.00598     0.72707
  Fock        0.00000     0.00000     0.00000     0.00000     0.00000     0.00000
  Total     -20.62473   -20.62473     2.11092    -0.00000     0.00000     0.00000
  in kB     -22.13051   -22.13051     2.26504    -0.00000     0.00000     0.00000

 VOLUME and BASIS-vectors are now :
  energy-cutoff  :      500.00
  volume of cell :     1493.16
      direct lattice vectors                 reciprocal lattice vectors
     8.813512802  0.000000000  0.000000000     0.113462137 -0.065507406  0.000000000
     4.406756909  7.632725690  0.000000000     0.000000000  0.131014796  0.000000000
     0.000000000  0.000000000 22.196203232     0.000000000  0.000000000  0.045052750

  length of vectors
     8.813512802  8.813512802 22.196203232     0.131014796  0.131014796  0.045052750

 FORCES acting on ions
    electron-ion (+dipol)            ewald-force                    non-local-force                 convergence-correction
   -.194E-04 -.161E-04 0.248E+04   0.520E-04 0.434E-04 -.248E+04   -.499E-17 -.175E-18 -.951E+00   -.160E-03 -.106E-03 -.379E+00
   0.641E+00 0.722E-01 0.248E+04   -.821E+00 -.364E+00 -.248E+04   0.648E-01 0.161E+00 -.260E+00   0.101E+00 0.122E+00 -.424E+00
   -.641E+00 0.722E-01 0.248E+04   0.821E+00 -.364E+00 -.248E+04   -.648E-01 0.161E+00 -.260E+00   -.101E+00 0.124E+00 -.423E+00
   0.383E+00 0.519E+00 0.248E+04   -.726E+00 -.529E+00 -.248E+04   0.172E+00 -.246E-01 -.260E+00   0.157E+00 0.261E-01 -.424E+00
   0.926E-05 -.230E-04 0.248E+04   0.951E-04 0.175E-05 -.248E+04   0.471E-17 0.671E-18 -.702E-01   0.419E-02 0.255E-02 -.383E+00
   -.383E+00 0.519E+00 0.248E+04   0.726E+00 -.529E+00 -.248E+04   -.172E+00 -.246E-01 -.260E+00   -.158E+00 0.271E-01 -.423E+00
   -.258E+00 -.591E+00 0.248E+04   0.956E-01 0.893E+00 -.248E+04   0.107E+00 -.137E+00 -.260E+00   0.574E-01 -.149E+00 -.423E+00
   0.258E+00 -.591E+00 0.248E+04   -.957E-01 0.893E+00 -.248E+04   -.107E+00 -.137E+00 -.260E+00   -.556E-01 -.150E+00 -.423E+00
   0.195E-04 -.416E-04 0.248E+04   0.166E-03 -.201E-04 -.248E+04   -.570E-18 -.396E-18 -.506E+00   -.457E-02 -.236E-02 -.364E+00
   0.829E+01 0.478E+01 0.834E+03   -.784E+01 -.453E+01 -.834E+03   -.507E+00 -.292E+00 -.690E+00   0.776E-01 0.447E-01 0.305E+00
   0.145E-04 0.465E+01 0.842E+03   0.148E-03 -.483E+01 -.843E+03   0.243E-08 0.365E-01 -.158E+00   0.354E-02 0.739E-01 0.399E+00
   -.829E+01 0.478E+01 0.834E+03   0.784E+01 -.453E+01 -.834E+03   0.507E+00 -.292E+00 -.690E+00   -.784E-01 0.453E-01 0.303E+00
   0.403E+01 -.233E+01 0.842E+03   -.418E+01 0.241E+01 -.843E+03   0.316E-01 -.182E-01 -.158E+00   0.661E-01 -.336E-01 0.399E+00
   -.403E+01 -.233E+01 0.842E+03   0.418E+01 0.241E+01 -.843E+03   -.316E-01 -.182E-01 -.158E+00   -.591E-01 -.342E-01 0.397E+00
   0.311E-04 0.518E+01 0.839E+03   0.236E-03 -.524E+01 -.838E+03   -.468E-09 -.703E-02 -.504E+00   -.171E-02 0.400E-02 0.252E+00
   -.215E-04 -.957E+01 0.834E+03   0.163E-03 0.906E+01 -.834E+03   0.389E-07 0.585E+00 -.690E+00   -.176E-03 -.906E-01 0.303E+00
   0.449E+01 -.259E+01 0.839E+03   -.454E+01 0.262E+01 -.838E+03   -.609E-02 0.352E-02 -.504E+00   0.286E-02 -.305E-02 0.252E+00
   -.449E+01 -.259E+01 0.839E+03   0.454E+01 0.262E+01 -.838E+03   0.609E-02 0.352E-02 -.504E+00   -.266E-02 -.179E-02 0.252E+00
   -.430E-04 0.400E+01 -.844E+03   0.543E-04 -.427E+01 0.843E+03   0.158E-08 0.238E-01 0.591E+00   0.509E-02 0.174E+00 0.888E+00
   0.101E+02 0.583E+01 -.793E+03   -.939E+01 -.542E+01 0.793E+03   -.121E+01 -.698E+00 -.125E+01   0.585E+00 0.338E+00 0.152E+01
   -.101E+02 0.583E+01 -.793E+03   0.939E+01 -.542E+01 0.793E+03   0.121E+01 -.698E+00 -.125E+01   -.592E+00 0.338E+00 0.152E+01
   -.503E+01 0.290E+01 -.823E+03   0.433E+01 -.250E+01 0.821E+03   0.540E+00 -.312E+00 0.668E+00   0.215E+00 -.125E+00 0.999E+00
   -.104E-04 -.117E+02 -.793E+03   0.140E-03 0.108E+02 0.793E+03   0.929E-07 0.140E+01 -.125E+01   -.369E-02 -.682E+00 0.152E+01
   0.503E+01 0.290E+01 -.823E+03   -.433E+01 -.250E+01 0.821E+03   -.540E+00 -.312E+00 0.668E+00   -.214E+00 -.123E+00 0.998E+00
   -.346E+01 -.200E+01 -.844E+03   0.370E+01 0.214E+01 0.843E+03   -.206E-01 -.119E-01 0.591E+00   -.146E+00 -.844E-01 0.888E+00
   0.346E+01 -.200E+01 -.844E+03   -.370E+01 0.214E+01 0.843E+03   0.206E-01 -.119E-01 0.591E+00   0.153E+00 -.824E-01 0.888E+00
   0.113E-04 -.580E+01 -.823E+03   0.197E-03 0.500E+01 0.821E+03   0.415E-07 0.623E+00 0.668E+00   -.154E-02 0.249E+00 0.999E+00
   -.141E-04 -.131E-04 -.243E+04   0.302E-04 0.342E-04 0.243E+04   0.145E-16 -.290E-17 0.382E+00   0.156E-02 0.882E-03 0.774E+00
   0.324E+02 0.553E+02 -.242E+04   -.324E+02 -.555E+02 0.242E+04   -.794E+00 -.104E+01 0.328E-01   0.496E+00 0.773E+00 0.653E+00
   -.324E+02 0.553E+02 -.242E+04   0.324E+02 -.555E+02 0.242E+04   0.794E+00 -.104E+01 0.328E-01   -.503E+00 0.775E+00 0.654E+00
   0.641E+02 0.423E+00 -.242E+04   -.643E+02 -.259E+00 0.242E+04   -.130E+01 -.167E+00 0.328E-01   0.918E+00 0.431E-01 0.653E+00
   -.641E+02 0.423E+00 -.242E+04   0.643E+02 -.259E+00 0.242E+04   0.130E+01 -.167E+00 0.328E-01   -.925E+00 0.443E-01 0.655E+00
   0.317E+02 -.557E+02 -.242E+04   -.319E+02 0.558E+02 0.242E+04   -.504E+00 0.121E+01 0.328E-01   0.419E+00 -.823E+00 0.654E+00
   -.317E+02 -.557E+02 -.242E+04   0.319E+02 0.558E+02 0.242E+04   0.504E+00 0.121E+01 0.328E-01   -.424E+00 -.823E+00 0.655E+00
   0.339E-04 -.284E-04 -.243E+04   0.140E-03 -.499E-04 0.243E+04   -.123E-17 -.613E-18 0.638E+00   -.325E-02 -.158E-02 0.618E+00
   -.383E-05 -.364E-05 -.131E+04   0.737E-04 0.671E-05 0.131E+04   0.366E-17 -.347E-18 0.146E+01   0.145E-02 0.871E-03 0.683E+00
   0.198E-03 -.948E-04 -.153E+04   0.225E-04 0.143E-05 0.151E+04   0.368E-17 -.176E-17 0.160E+02   0.386E-02 0.236E-02 -.695E+00
   0.787E-05 -.132E-04 -.312E+03   0.119E-05 0.106E-06 0.321E+03   -.121E-18 0.123E-18 -.852E+01   0.209E-03 0.127E-03 -.179E+00
   -.574E-03 -.875E-03 -.171E+02   -.161E-13 -.228E-12 -.568E-11   0.117E-15 0.441E-15 0.304E+01   -.556E-02 -.252E-02 0.145E+02

 POSITION                                       TOTAL-FORCE (eV/Angst)
      0.00000      0.00000      5.28038        -0.000000     -0.000000     -0.166584
      2.93784      0.00000      5.28038        -0.014298     -0.006773     -0.059779
      5.87568      0.00000      5.28038         0.014298     -0.006773     -0.059779
      1.46892      2.54424      5.28038        -0.013015     -0.008996     -0.059779
      4.40676      2.54424      5.28038        -0.000000     -0.000000     -0.078744
      7.34459      2.54424      5.28038         0.013015     -0.008996     -0.059779
      2.93784      5.08848      5.28038         0.001284      0.015769     -0.059779
      5.87568      5.08848      5.28038        -0.001284      0.015769     -0.059779
      8.81351      5.08848      5.28038        -0.000000     -0.000000     -0.087620
      1.46892      0.84808      7.67911         0.013364      0.007715      0.172359
      4.40676      0.84808      7.67911        -0.000000     -0.070532      0.001906
      7.34459      0.84808      7.67911        -0.013364      0.007715      0.172359
      2.93784      3.39232      7.67911        -0.061083      0.035266      0.001906
      5.87568      3.39232      7.67911         0.061083      0.035266      0.001906
      8.81351      3.39232      7.67911        -0.000000     -0.065529      0.117894
      4.40676      5.93656      7.67911        -0.000000     -0.015431      0.172359
      7.34459      5.93656      7.67911        -0.056750      0.032765      0.117894
     10.28243      5.93656      7.67911         0.056750      0.032765      0.117894
      8.81351      1.70659     10.09931        -0.000000     -0.080590     -0.066962
      2.93410      1.69400     10.03753         0.086663      0.050035      0.041880
      5.87941      1.69400     10.03753        -0.086663      0.050035      0.041880
     10.26439      4.25082     10.06692         0.062467     -0.036066     -0.014559
      4.40676      4.24472     10.03753        -0.000000     -0.100070      0.041880
      7.36264      4.25082     10.06692        -0.062467     -0.036066     -0.014559
     11.74232      6.77943     10.09931         0.069793      0.040295     -0.066962
      5.88471      6.77943     10.09931        -0.069793      0.040295     -0.066962
      8.81351      6.76381     10.06692         0.000000      0.072131     -0.014559
      0.00000      0.00000     12.49835        -0.000000     -0.000000     -0.002319
      2.98825      0.08685     12.53577        -0.224571     -0.473391     -0.221479
      5.82526      0.08685     12.53577         0.224571     -0.473391     -0.221479
      1.56934      2.54447     12.53577        -0.522254      0.042212     -0.221479
      7.24417      2.54447     12.53577         0.522254      0.042212     -0.221479
      2.98785      5.00140     12.53577        -0.297683      0.431179     -0.221479
      5.82567      5.00140     12.53577         0.297684      0.431179     -0.221479
      8.81351      5.08848     12.49628        -0.000000     -0.000000      0.099207
      4.40676      2.54424     12.20474        -0.000000     -0.000000      1.364834
      4.40676      2.54424     14.08048        -0.000000     -0.000000     -0.267964
      4.40676      2.54424     15.04551        -0.000000     -0.000000      0.069183
    total drift:                               -0.006139     -0.003397      0.508607

  FREE ENERGIE OF THE ION-ELECTRON SYSTEM (eV)
  free  energy   TOTEN  =      -126.74576683 eV

  energy  without entropy=     -126.74576683  energy(sigma->0) =     -126.74576683

 stress matrix after NEB project (eV)
    -20.62473     -0.00000      0.00000
     -0.00000    -20.62473      0.00000
     -0.00000      0.00000      2.11092
  FORCES: max atom, RMS     0.267964    0.044895
  FORCE total and by dimension    0.276751    0.267964
  Stress total and by dimension   29.244058   20.624730
|           W    W    AA    RRRRR   N    N  II  N    N   GGGG   !!!           |
|           W    W   A  A   R    R  NN   N  II  NN   N  G    G  !!!           |
|           W    W  A    A  R    R  N N  N  II  N N  N  G       !!!           |
|           W WW W  AAAAAA  RRRRR   N  N N  II  N  N N  G  GGG   !            |
|           WW  WW  A    A  R   R   N   NN  II  N   NN  G    G                |
|           W    W  A    A  R    R  N    N  II  N    N   GGGG   !!!           |
|     Tetrahedron method does not include variations of the Fermi             |
|     occupations, so forces and stress will be inaccurate. We suggest        |
|     using a different smearing scheme ISMEAR = 1 or 2 for metals in         |
|     relaxations.                                                            |

 total charge

# of ion       s       p       d       tot
    1        0.548   0.237   8.768   9.554
    2        0.544   0.241   8.765   9.550
    3        0.544   0.241   8.765   9.550
    4        0.544   0.241   8.765   9.550
    5        0.546   0.240   8.763   9.549
    6        0.544   0.241   8.765   9.550
    7        0.544   0.241   8.765   9.550
    8        0.544   0.241   8.765   9.550
    9        0.542   0.241   8.766   9.549
   10        0.527   0.306   8.769   9.602
   11        0.520   0.309   8.779   9.608
   12        0.527   0.306   8.769   9.602
   13        0.520   0.309   8.779   9.608
   14        0.520   0.309   8.779   9.608
   15        0.514   0.308   8.778   9.599
   16        0.527   0.306   8.769   9.602
   17        0.514   0.308   8.778   9.599
   18        0.514   0.308   8.778   9.599
   19        0.516   0.294   8.778   9.588
   20        0.569   0.347   8.723   9.639
   21        0.569   0.347   8.723   9.639
   22        0.506   0.306   8.780   9.592
   23        0.569   0.347   8.723   9.639
   24        0.506   0.306   8.780   9.592
   25        0.516   0.294   8.778   9.588
   26        0.516   0.294   8.778   9.588
   27        0.506   0.306   8.780   9.592
   28        0.542   0.228   8.756   9.527
   29        0.561   0.250   8.750   9.561
   30        0.561   0.250   8.750   9.561
   31        0.561   0.250   8.750   9.561
   32        0.561   0.250   8.750   9.561
   33        0.561   0.250   8.750   9.561
   34        0.561   0.250   8.750   9.561
   35        0.533   0.227   8.764   9.524
   36        0.520   0.509   4.547   5.575
   37        1.547   3.546   0.000   5.093
   38        0.596   0.127   0.000   0.723
tot         21.461  13.913 311.270 346.644

 BZINTS: Fermi energy:    0.962445;  399.000000 electrons
         Band energy:-0.115455E+04;  BLOECHL correction:   -0.033476