 vasp.6.2.0 18Jan21 (build Jun 12 2021 23:27:24) complex

 executed on             LinuxIFC date 2022.05.27  05:09:24

 INCAR:
   ISMEAR = -5
   SIGMA = 0.1
   ISPIN = 1
   EDIFF = 1.d-5
   EDIFFG = -0.01
   NSW = 0
   NELM = 150
   ENCUT = 500
   ISIF = 2
   IBRION = 2
   LREAL = Auto
   ALGO = Fast
   ICHARG = 11
   LORBIT = 10
   LCHARG = .F.
   LWAVE = .F.

 POTCAR:    PAW_PBE Au 04Oct2007
 POTCAR:    PAW_PBE Nb_sv 25May2007
 POTCAR:    PAW_PBE N 08Apr2002
|           W    W    AA    RRRRR   N    N  II  N    N   GGGG   !!!           |
|           W    W   A  A   R    R  NN   N  II  NN   N  G    G  !!!           |
|           W    W  A    A  R    R  N N  N  II  N N  N  G       !!!           |
|           W WW W  AAAAAA  RRRRR   N  N N  II  N  N N  G  GGG   !            |
|           WW  WW  A    A  R   R   N   NN  II  N   NN  G    G                |
|           W    W  A    A  R    R  N    N  II  N    N   GGGG   !!!           |
|     For optimal performance we recommend to set                             |
|       NCORE = 2 up to number-of-cores-per-socket                            |
|     This setting can greatly improve the performance of VASP for DFT.       |
|     The default, NCORE=1 might be grossly inefficient on modern             |
|     multi-core architectures or massively parallel machines. Do your        |
|     Unfortunately you need to use the default for GW and RPA                |
|     calculations (for HF NCORE is supported but not extensively tested      |
|     yet).                                                                   |

 POTCAR:    PAW_PBE Au 04Oct2007
   VRHFIN =Au: s1d10

   TITEL  = PAW_PBE Au 04Oct2007
   POMASS =  196.966; ZVAL   =   11.000    mass and valenz
   ENMAX  =  229.943; ENMIN  =  172.457 eV

 POTCAR:    PAW_PBE Nb_sv 25May2007
   VRHFIN =Nb: 4p5s4d

   TITEL  = PAW_PBE Nb_sv 25May2007
   POMASS =   92.910; ZVAL   =   13.000    mass and valenz
   ENMAX  =  293.235; ENMIN  =  219.927 eV

 POTCAR:    PAW_PBE N 08Apr2002
   VRHFIN =N: s2p3

   TITEL  = PAW_PBE N 08Apr2002
   POMASS =   14.001; ZVAL   =    5.000    mass and valenz
   ENMAX  =  400.000; ENMIN  =  300.000 eV

 Optimization of the real space projectors (new method)

 maximal supplied QI-value         = 15.12
 optimisation between [QCUT,QGAM] = [ 11.34, 22.83] = [ 36.00,145.93] Ry
 Optimized for a Real-space Cutoff    1.39 Angstroem

   l    n(q)    QCUT    max X(q) W(low)/X(q) W(high)/X(q)  e(spline)
   2      9    11.338    60.898    0.39E-03    0.42E-03    0.21E-06
   2      9    11.338    58.894    0.40E-03    0.42E-03    0.22E-06
   0      9    11.338   109.617    0.13E-03    0.20E-04    0.13E-06
   0      9    11.338    75.026    0.13E-03    0.20E-04    0.13E-06
   1      9    11.338    16.344    0.33E-04    0.24E-03    0.18E-06
   1      9    11.338    10.160    0.26E-04    0.19E-03    0.15E-06
 Optimization of the real space projectors (new method)

[...]

   l    n(q)    QCUT    max X(q) W(low)/X(q) W(high)/X(q)  e(spline)
   0     11    11.450    10.201    0.21E-04    0.96E-05    0.78E-07
   0     11    11.450     8.174    0.31E-04    0.18E-04    0.14E-06
   1     10    11.450     3.488    0.27E-04    0.12E-04    0.96E-07
   1     10    11.450     4.917    0.11E-03    0.11E-03    0.37E-06
   2     10    11.450   153.744    0.37E-03    0.81E-03    0.10E-05
   2     10    11.450   126.342    0.37E-03    0.81E-03    0.10E-05
 Optimization of the real space projectors (new method)

 maximal supplied QI-value         = 25.13
 optimisation between [QCUT,QGAM] = [ 11.31, 22.87] = [ 35.82,146.48] Ry
 Optimized for a Real-space Cutoff    1.27 Angstroem

   l    n(q)    QCUT    max X(q) W(low)/X(q) W(high)/X(q)  e(spline)
   0      9    11.310    79.467    0.75E-04    0.16E-03    0.36E-06
   0      9    11.310    66.151    0.74E-04    0.16E-03    0.36E-06
   1      8    11.310    17.416    0.35E-03    0.12E-03    0.95E-06
   1      8    11.310    12.382    0.37E-03    0.13E-03    0.98E-06
  PAW_PBE Au 04Oct2007                  :
  PAW_PBE Nb_sv 25May2007               :
  PAW_PBE N 08Apr2002                   :

 POSCAR: Au-Nb-N2
  positions in direct lattice
  velocities in cartesian coordinates
 exchange correlation table for  LEXCH =        8
   RHO(1)=    0.500       N(1)  =     2000
   RHO(2)=  100.500       N(2)  =     4000

 VTST: version 3.2, (02/03/18)

 CHAIN: initializing optimizer

 OPT: Using VASP Conjugate-Gradient optimizer
 CHAIN: Read ICHAIN            0

 POSCAR: Au-Nb-N2
  positions in direct lattice
  velocities in cartesian coordinates

 ion  position               nearest neighbor table
   1  0.000  0.000  0.238-  16 2.94  12 2.94   6 2.94   8 2.94   7 2.94   3 2.94  10 2.94   4 2.94
                             2 2.94
   2  0.333  0.000  0.238-   9 2.94  11 2.94  17 2.94  10 2.94   8 2.94   4 2.94   5 2.94   1 2.94
                             3 2.94
   3  0.667  0.000  0.238-   7 2.94  18 2.94  12 2.94   1 2.94  11 2.94   5 2.94   6 2.94   9 2.94
                             2 2.94
   4  0.000  0.333  0.238-  10 2.94   6 2.94   5 2.94  13 2.94   2 2.94  15 2.94   9 2.94   1 2.94
                             7 2.94
   5  0.333  0.333  0.238-  13 2.94   7 2.94  11 2.94   4 2.94   2 2.94  14 2.94   3 2.94   8 2.94
                             6 2.94
   6  0.667  0.333  0.238-  15 2.94  14 2.94   1 2.94  12 2.94   4 2.94   9 2.94   8 2.94   3 2.94
                             5 2.94
   7  0.000  0.667  0.238-  18 2.94   3 2.94  16 2.94   5 2.94   1 2.94  13 2.94   8 2.94   4 2.94
                             9 2.94
   8  0.333  0.667  0.238-   9 2.94  17 2.94   1 2.94   2 2.94  14 2.94  16 2.94   6 2.94   7 2.94
                             5 2.94
   9  0.667  0.667  0.238-   2 2.94   8 2.94  17 2.94   6 2.94  15 2.94   4 2.94   3 2.94  18 2.94
                             7 2.94
  10  0.111  0.111  0.346-  20 2.91  11 2.94  17 2.94   2 2.94   4 2.94   1 2.94  12 2.94  16 2.94
                            13 2.94  15 2.94  26 2.95  19 2.95
  11  0.444  0.111  0.346-  20 2.91  21 2.91  13 2.94   2 2.94  10 2.94  17 2.94   5 2.94   3 2.94
                            18 2.94  14 2.94  12 2.94  27 2.94
  12  0.778  0.111  0.346-  21 2.91  16 2.94  18 2.94   1 2.94  14 2.94  15 2.94   3 2.94   6 2.94
                            10 2.94  11 2.94  25 2.95  19 2.95
  13  0.111  0.444  0.346-  23 2.91  20 2.91   5 2.94  18 2.94  11 2.94   7 2.94   4 2.94  16 2.94
                            10 2.94  14 2.94  15 2.94  22 2.94
  14  0.444  0.444  0.346-  21 2.91  23 2.91  15 2.94   6 2.94  12 2.94   8 2.94  17 2.94   5 2.94
                            16 2.94  13 2.94  11 2.94  24 2.94
  15  0.778  0.444  0.346-  24 2.93  22 2.93  14 2.94   6 2.94  17 2.94  12 2.94   9 2.94   4 2.94
                            10 2.94  13 2.94  18 2.94  19 2.94
  16  0.111  0.778  0.346-  23 2.91  18 2.94  12 2.94   7 2.94   1 2.94   8 2.94  13 2.94  10 2.94
                            14 2.94  17 2.94  25 2.95  26 2.95
  17  0.444  0.778  0.346-  27 2.93  24 2.93   9 2.94  15 2.94   2 2.94  10 2.94  11 2.94   8 2.94
                            14 2.94  16 2.94  18 2.94  26 2.94
  18  0.778  0.778  0.346-  22 2.93  27 2.93  16 2.94   7 2.94  13 2.94  12 2.94   3 2.94  11 2.94
                             9 2.94  15 2.94  17 2.94  25 2.94
  19  0.889  0.223  0.454-  24 2.93  22 2.93  21 2.94  20 2.94  15 2.94  26 2.94  25 2.94  10 2.95
                            12 2.95  28 2.95  32 3.04  31 3.04
  20  0.222  0.222  0.453-  36 2.78  10 2.91  11 2.91  13 2.91  26 2.94  19 2.94  23 2.94  21 2.94
                            27 2.95  22 2.95  29 2.99  31 2.99
  21  0.556  0.222  0.453-  36 2.78  12 2.91  14 2.91  11 2.91  25 2.94  19 2.94  20 2.94  23 2.94
                            27 2.95  24 2.95  30 2.99  32 2.99
  22  0.887  0.557  0.454-  24 2.91  27 2.91  18 2.93  15 2.93  25 2.93  19 2.93  13 2.94  23 2.95
                            20 2.95  35 2.96  33 3.02  31 3.02
  23  0.222  0.556  0.453-  36 2.78  16 2.91  13 2.91  14 2.91  25 2.94  26 2.94  20 2.94  21 2.94
                            22 2.95  24 2.95  33 2.99  34 2.99
  24  0.557  0.557  0.454-  27 2.91  22 2.91  15 2.93  17 2.93  26 2.93  19 2.93  14 2.94  21 2.95
                            23 2.95  35 2.96  32 3.02  34 3.02
  25  0.889  0.889  0.454-  22 2.93  27 2.93  23 2.94  21 2.94  18 2.94  19 2.94  26 2.94  16 2.95
                            12 2.95  28 2.95  33 3.04  30 3.04
  26  0.223  0.889  0.454-  27 2.93  24 2.93  20 2.94  23 2.94  17 2.94  19 2.94  25 2.94  10 2.95
                            16 2.95  28 2.95  29 3.04  34 3.04
  27  0.557  0.887  0.454-  24 2.91  22 2.91  17 2.93  18 2.93  26 2.93  25 2.93  11 2.94  20 2.95
                            21 2.95  35 2.96  29 3.02  30 3.02
  28  0.000  0.000  0.563-  25 2.95  19 2.95  26 2.95  34 2.98  32 2.98  33 2.98  30 2.98  31 2.98
                            29 2.98
  29  0.334  0.009  0.566-  30 2.85  31 2.86  36 2.87  35 2.98  28 2.98  20 2.99  27 3.02  26 3.04
                            34 3.10
  30  0.657  0.009  0.566-  29 2.85  32 2.86  36 2.87  35 2.98  28 2.98  21 2.99  27 3.02  25 3.04
                            33 3.10
  31  0.009  0.334  0.566-  33 2.85  29 2.86  36 2.87  35 2.98  28 2.98  20 2.99  22 3.02  19 3.04
                            32 3.10
  32  0.657  0.334  0.566-  34 2.85  30 2.86  36 2.87  35 2.98  28 2.98  21 2.99  24 3.02  19 3.04
                            31 3.10
  33  0.009  0.657  0.566-  31 2.85  34 2.86  36 2.87  35 2.98  28 2.98  23 2.99  22 3.02  25 3.04
                            30 3.10
  34  0.334  0.657  0.566-  32 2.85  33 2.86  36 2.87  35 2.98  28 2.98  23 2.99  24 3.02  26 3.04
                            29 3.10
  35  0.667  0.667  0.563-  24 2.96  27 2.96  22 2.96  29 2.98  34 2.98  32 2.98  31 2.98  30 2.98
                            33 2.98
  36  0.333  0.333  0.552-  20 2.78  23 2.78  21 2.78  33 2.87  31 2.87  29 2.87  30 2.87  34 2.87
                            32 2.87
  37  0.269  0.335  0.732-  38 1.11
  38  0.396  0.335  0.732-  37 1.11

  LATTYP: Found a hexagonal cell.
 ALAT       =     8.8135128021
 C/A-ratio  =     2.5184286595

  Lattice vectors:

 A1 = (  -4.4067569092,  -7.6327256898,   0.0000000000)
 A2 = (   8.8135128021,   0.0000000000,   0.0000000000)
 A3 = (   0.0000000000,   0.0000000000,  22.1962032318)

Analysis of symmetry for initial positions (statically):
 Subroutine PRICEL returns:
 Original cell was already a primitive cell.

 Routine SETGRP: Setting up the symmetry group for a
 hexagonal supercell.

 Subroutine GETGRP returns: Found  2 space group operations
 (whereof  2 operations were pure point group operations)
 out of a pool of 24 trial point group operations.

The static configuration has the point symmetry C_1h.

Analysis of symmetry for dynamics (positions and initial velocities):
 Subroutine PRICEL returns:
 Original cell was already a primitive cell.

[...]

The dynamic configuration has the point symmetry C_1h.

Analysis of constrained symmetry for selective dynamics:
 Subroutine PRICEL returns:
 Original cell was already a primitive cell.

 Routine SETGRP: Setting up the symmetry group for a
 hexagonal supercell.

[...]
     33      -4.7937      2.00000
     34      -4.7709      2.00000
     35      -4.7245      2.00000
     36      -4.6948      2.00000
     37      -4.6376      2.00000
     38      -4.5971      2.00000
     39      -4.5746      2.00000
     40      -4.5211      2.00000
     41      -4.5087      2.00000
     42      -4.4936      2.00000
     43      -4.4758      2.00000
     44      -4.4721      2.00000
     45      -4.3209      2.00000
     46      -4.2910      2.00000
     47      -4.2582      2.00000
     48      -4.2372      2.00000
     49      -4.1902      2.00000
     50      -4.1630      2.00000
     51      -4.1371      2.00000
     52      -4.1115      2.00000
     53      -4.0828      2.00000
     54      -4.0598      2.00000
     55      -3.9712      2.00000
     56      -3.9652      2.00000
     57      -3.9245      2.00000
     58      -3.8991      2.00000
     59      -3.8950      2.00000
     60      -3.8894      2.00000
[...]
    238       5.6536      0.00000
    239       5.8501      0.00000
    240       5.9018      0.00000
    241       6.0589      0.00000
    242       6.2666      0.00000
    243       6.3903      0.00000
    244       6.4395      0.00000
    245       6.4549      0.00000
    246       6.6174      0.00000
    247       6.7084      0.00000
    248       6.7498      0.00000
    249       6.7524      0.00000
    250       6.9638      0.00000
    251       7.0194      0.00000
    252       7.0880      0.00000

 soft charge-density along one line, spin component           1
         0         1         2         3         4         5         6         7         8         9
 total charge-density along one line

------------------------ aborting loop because EDIFF is reached ----------------------------------------

 total charge

# of ion       s       p       d       tot
    1        0.548   0.237   8.767   9.552
    2        0.541   0.241   8.766   9.548
    3        0.541   0.241   8.766   9.548
    4        0.541   0.241   8.766   9.548
    5        0.546   0.241   8.761   9.549
    6        0.541   0.241   8.766   9.548
    7        0.541   0.241   8.766   9.548
    8        0.541   0.241   8.766   9.548
    9        0.544   0.240   8.767   9.551
   10        0.528   0.307   8.766   9.602
   11        0.521   0.307   8.781   9.608
   12        0.528   0.307   8.766   9.602
   13        0.521   0.307   8.781   9.608
   14        0.521   0.307   8.781   9.608
   15        0.516   0.307   8.775   9.599
   16        0.529   0.307   8.766   9.602
   17        0.516   0.307   8.775   9.599
   18        0.516   0.307   8.775   9.599
   19        0.518   0.297   8.770   9.585
   20        0.576   0.341   8.721   9.638
   21        0.576   0.341   8.721   9.638
   22        0.507   0.305   8.779   9.591
   23        0.576   0.341   8.721   9.638
   24        0.507   0.305   8.779   9.591
   25        0.518   0.297   8.770   9.585
   26        0.518   0.297   8.770   9.585
   27        0.507   0.305   8.779   9.591
   28        0.540   0.229   8.752   9.521
   29        0.592   0.250   8.724   9.566
   30        0.592   0.250   8.724   9.566
   31        0.591   0.249   8.725   9.565
   32        0.591   0.249   8.725   9.565
   33        0.592   0.250   8.724   9.566
   34        0.592   0.250   8.724   9.566
   35        0.539   0.230   8.755   9.524
   36        2.176   5.975   2.259  10.410
   37        1.373   2.467   0.000   3.841
   38        1.373   2.467   0.000   3.841
tot         23.937  20.621 308.776 353.335

  FORCE on cell =-STRESS in cart. coord.  units (eV):
  Direction    XX          YY          ZZ          XY          YZ          ZX
  Alpha Z  1055.79965  1055.79965  1055.79965
  Ewald  115958.85715115635.82103************    -0.00032     0.07360    -0.00015
  Hartree124912.69563124796.90113************     0.00001     0.03897    -0.00004
  E(xc)   -1827.09902 -1828.34087 -1836.16539    -0.00001    -0.00011    -0.00000
  Local  ************************252962.65350     0.00235    -0.10360     0.00005
  n-local   -79.24134   -66.68715   -34.44040     4.39616    -0.00144     0.12018
  augment  2382.86021  2382.55155  2403.27680    -0.00137    -0.00075     0.00002
  Kinetic  5759.22638  5777.27159  5842.00677     1.35071    -0.00716    -0.04715
  Fock        0.00000     0.00000     0.00000     0.00000     0.00000     0.00000
  Total     -23.26608   -23.25610     2.79846    -0.00000    -0.00049    -0.00000
  in kB     -24.96470   -24.95400     3.00277    -0.00000    -0.00053    -0.00000

 VOLUME and BASIS-vectors are now :
  energy-cutoff  :      500.00
  volume of cell :     1493.16
      direct lattice vectors                 reciprocal lattice vectors
     8.813512802  0.000000000  0.000000000     0.113462137 -0.065507406  0.000000000
     4.406756909  7.632725690  0.000000000     0.000000000  0.131014796  0.000000000
     0.000000000  0.000000000 22.196203232     0.000000000  0.000000000  0.045052750

  length of vectors
     8.813512802  8.813512802 22.196203232     0.131014796  0.131014796  0.045052750

 FORCES acting on ions
    electron-ion (+dipol)            ewald-force                    non-local-force                 convergence-correction
   -.203E-04 0.576E-02 0.249E+04   0.520E-04 -.375E-02 -.249E+04   -.457E-10 -.686E-03 -.750E+00   -.240E-03 -.157E-02 -.223E+00
   0.851E+00 0.690E+00 0.249E+04   -.852E+00 -.875E+00 -.249E+04   0.412E-01 0.142E+00 -.314E+00   -.415E-01 0.296E-01 -.235E+00
   -.851E+00 0.690E+00 0.249E+04   0.852E+00 -.875E+00 -.249E+04   -.412E-01 0.142E+00 -.314E+00   0.418E-01 0.315E-01 -.235E+00
   0.102E+01 0.390E+00 0.249E+04   -.118E+01 -.303E+00 -.249E+04   0.144E+00 -.359E-01 -.318E+00   0.582E-02 -.464E-01 -.234E+00
   0.770E-05 -.698E-02 0.249E+04   0.951E-04 -.105E-02 -.249E+04   -.183E-10 -.275E-03 0.134E+00   0.428E-02 0.853E-02 -.141E+00
   -.102E+01 0.390E+00 0.249E+04   0.118E+01 -.303E+00 -.249E+04   -.144E+00 -.359E-01 -.318E+00   -.736E-02 -.454E-01 -.233E+00
   0.168E+00 -.108E+01 0.249E+04   -.329E+00 0.118E+01 -.249E+04   0.103E+00 -.106E+00 -.314E+00   0.493E-01 0.163E-01 -.232E+00
   -.168E+00 -.108E+01 0.249E+04   0.329E+00 0.118E+01 -.249E+04   -.103E+00 -.106E+00 -.314E+00   -.474E-01 0.152E-01 -.232E+00
   0.199E-04 0.205E-02 0.249E+04   0.166E-03 0.482E-02 -.249E+04   0.456E-10 0.686E-03 -.396E+00   -.459E-02 -.751E-02 -.159E+00
   0.865E+01 0.501E+01 0.875E+03   -.821E+01 -.476E+01 -.875E+03   -.395E+00 -.228E+00 -.675E+00   -.499E-01 -.280E-01 0.925E-01
   0.155E-04 0.931E+01 0.887E+03   0.147E-03 -.934E+01 -.887E+03   -.115E-08 -.173E-01 -.569E-01   0.402E-02 -.171E-01 0.115E+00
   -.865E+01 0.501E+01 0.875E+03   0.821E+01 -.476E+01 -.875E+03   0.395E+00 -.228E+00 -.675E+00   0.485E-01 -.268E-01 0.924E-01
   0.805E+01 -.466E+01 0.887E+03   -.807E+01 0.467E+01 -.887E+03   -.148E-01 0.887E-02 -.583E-01   -.146E-01 0.187E-01 0.113E+00
   -.805E+01 -.466E+01 0.887E+03   0.807E+01 0.467E+01 -.887E+03   0.148E-01 0.887E-02 -.583E-01   0.221E-01 0.179E-01 0.112E+00
   0.304E-04 0.253E+01 0.876E+03   0.236E-03 -.263E+01 -.876E+03   0.315E-09 0.473E-02 -.516E+00   -.230E-02 0.258E-01 0.771E-01
   -.220E-04 -.999E+01 0.875E+03   0.163E-03 0.949E+01 -.875E+03   0.304E-07 0.456E+00 -.673E+00   -.672E-04 0.508E-01 0.919E-01
   0.220E+01 -.128E+01 0.876E+03   -.228E+01 0.133E+01 -.876E+03   0.457E-02 -.297E-02 -.512E+00   0.173E-01 -.178E-01 0.783E-01
   -.220E+01 -.128E+01 0.876E+03   0.228E+01 0.133E+01 -.876E+03   -.457E-02 -.297E-02 -.512E+00   -.169E-01 -.158E-01 0.790E-01
   -.427E-04 0.274E+01 -.787E+03   0.518E-04 -.260E+01 0.786E+03   -.292E-08 -.439E-01 0.502E+00   -.651E-03 -.853E-01 0.477E+00
   0.544E+02 0.315E+02 -.697E+03   -.534E+02 -.310E+02 0.698E+03   -.108E+01 -.622E+00 -.135E+01   0.889E-01 0.537E-01 0.615E+00
   -.544E+02 0.315E+02 -.697E+03   0.534E+02 -.310E+02 0.698E+03   0.108E+01 -.622E+00 -.135E+01   -.881E-01 0.542E-01 0.615E+00
   0.125E+02 -.732E+01 -.767E+03   -.129E+02 0.758E+01 0.766E+03   0.393E+00 -.229E+00 0.588E+00   0.523E-01 -.295E-01 0.411E+00
   -.105E-04 -.629E+02 -.697E+03   0.144E-03 0.618E+02 0.698E+03   0.830E-07 0.125E+01 -.135E+01   0.452E-03 -.102E+00 0.614E+00
   -.125E+02 -.732E+01 -.767E+03   0.129E+02 0.758E+01 0.766E+03   -.393E+00 -.229E+00 0.588E+00   -.526E-01 -.299E-01 0.411E+00
   -.228E+01 -.129E+01 -.788E+03   0.216E+01 0.122E+01 0.787E+03   0.405E-01 0.243E-01 0.495E+00   0.766E-01 0.413E-01 0.476E+00
   0.228E+01 -.129E+01 -.788E+03   -.216E+01 0.122E+01 0.787E+03   -.405E-01 0.243E-01 0.495E+00   -.762E-01 0.406E-01 0.476E+00
   0.155E-04 0.144E+02 -.768E+03   0.194E-03 -.149E+02 0.767E+03   0.302E-07 0.453E+00 0.585E+00   -.330E-03 0.574E-01 0.411E+00
   -.165E-04 0.699E+00 -.238E+04   0.309E-04 -.698E+00 0.238E+04   -.251E-10 -.376E-03 0.466E+00   -.772E-04 -.109E-02 0.211E+00
   0.537E+02 0.892E+02 -.240E+04   -.525E+02 -.874E+02 0.240E+04   -.130E+01 -.200E+01 -.533E+00   0.331E-01 0.193E+00 0.175E+00
   -.537E+02 0.892E+02 -.240E+04   0.525E+02 -.874E+02 0.240E+04   0.130E+01 -.200E+01 -.533E+00   -.329E-01 0.194E+00 0.174E+00
   0.104E+03 0.277E+01 -.240E+04   -.102E+03 -.258E+01 0.240E+04   -.237E+01 -.121E+00 -.491E+00   0.184E+00 -.642E-01 0.174E+00
   -.104E+03 0.277E+01 -.240E+04   0.102E+03 -.258E+01 0.240E+04   0.237E+01 -.121E+00 -.491E+00   -.185E+00 -.634E-01 0.174E+00
   0.493E+02 -.920E+02 -.240E+04   -.484E+02 0.900E+02 0.240E+04   -.108E+01 0.212E+01 -.533E+00   0.153E+00 -.129E+00 0.173E+00
   -.493E+02 -.920E+02 -.240E+04   0.484E+02 0.900E+02 0.240E+04   0.108E+01 0.212E+01 -.533E+00   -.151E+00 -.130E+00 0.173E+00
   0.332E-04 -.864E+00 -.238E+04   0.140E-03 0.869E+00 0.238E+04   0.910E-10 0.137E-02 0.649E+00   -.445E-02 -.635E-02 0.219E+00
   0.231E-03 0.253E+00 -.264E+04   0.135E-03 -.262E+00 0.264E+04   -.613E-10 -.920E-03 0.358E+01   0.694E-02 0.111E-01 0.320E+00
   0.241E+03 -.938E-03 -.904E+03   -.287E+03 0.487E-03 0.904E+03   0.457E+02 -.387E-03 -.221E+00   0.326E-02 0.141E-02 -.622E-01
   -.241E+03 -.921E-03 -.904E+03   0.287E+03 0.486E-03 0.904E+03   -.457E+02 -.387E-03 -.221E+00   -.323E-02 0.143E-02 -.623E-01
   -.409E-03 -.165E-01 0.144E+01   0.000E+00 0.888E-13 -.659E-11   0.182E-09 0.274E-02 -.629E+01   0.114E-01 0.159E-01 0.510E+01

 POSITION                                       TOTAL-FORCE (eV/Angst)
      0.00000      0.00000      5.28038        -0.000000     -0.000296     -0.158231
      2.93784      0.00000      5.28038        -0.001915     -0.012629     -0.059446
      5.87568      0.00000      5.28038         0.001915     -0.012629     -0.059446
      1.46892      2.54424      5.28038        -0.011610      0.004511     -0.059784
      4.40676      2.54424      5.28038         0.000000      0.000165     -0.071015
      7.34459      2.54424      5.28038         0.011610      0.004511     -0.059784
      2.93784      5.08848      5.28038        -0.009785      0.007891     -0.059805
      5.87568      5.08848      5.28038         0.009785      0.007891     -0.059805
      8.81351      5.08848      5.28038        -0.000000     -0.000012     -0.082726
      1.46892      0.84808      7.67911        -0.008405     -0.004681      0.104234
      4.40676      0.84808      7.67911        -0.000000     -0.060677     -0.010746
      7.34459      0.84808      7.67911         0.008405     -0.004681      0.104234
      2.93784      3.39232      7.67911        -0.052816      0.030606     -0.010897
      5.87568      3.39232      7.67911         0.052816      0.030606     -0.010897
      8.81351      3.39232      7.67911        -0.000000     -0.068479      0.111272
      4.40676      5.93656      7.67911         0.000000      0.009466      0.104325
      7.34459      5.93656      7.67911        -0.059385      0.033987      0.111440
     10.28243      5.93656      7.67911         0.059385      0.033987      0.111440
      8.81351      1.70030     10.08698         0.000000      0.008160     -0.004207
      2.93503      1.69454     10.04736        -0.005604     -0.003572     -0.016288
      5.87848      1.69454     10.04736         0.005604     -0.003572     -0.016288
     10.26776      4.24887     10.06889         0.012896     -0.007322      0.006011
      4.40676      4.24365     10.04736         0.000000      0.006540     -0.017353
      7.35926      4.24887     10.06889        -0.012896     -0.007322      0.006011
     11.74777      6.78258     10.08698        -0.007160     -0.004225     -0.005705
      5.87926      6.78258     10.08698         0.007160     -0.004225     -0.005705
      8.81351      6.76771     10.06889         0.000000      0.014696      0.004716
      0.00000      0.00000     12.49943        -0.000000     -0.000501     -0.001991
      2.98194      0.07009     12.55649         0.003300     -0.002407      0.011332
      5.83157      0.07009     12.55649        -0.003300     -0.002407      0.011332
      1.55167      2.54739     12.55649         0.000237      0.004115      0.011291
      7.26184      2.54739     12.55649        -0.000237      0.004115      0.011291
      2.97649      5.01524     12.55649        -0.003464     -0.001863      0.011192
      5.83702      5.01524     12.55649         0.003464     -0.001863      0.011192
      8.81351      5.08848     12.50498         0.000000      0.000204      0.018374
      4.40676      2.54424     12.24418         0.000000      0.000849      0.020106
      3.84967      2.55792     16.25748        -0.004990      0.000534      0.000162
      4.96384      2.55792     16.25748         0.004990      0.000534      0.000162
    total drift:                                0.011032      0.002156      0.249876

  FREE ENERGIE OF THE ION-ELECTRON SYSTEM (eV)
  free  energy   TOTEN  =      -132.80064128 eV

  energy  without entropy=     -132.80064128  energy(sigma->0) =     -132.80064128

 stress matrix after NEB project (eV)
    -23.26608     -0.00000     -0.00000
     -0.00000    -23.25610     -0.00050
     -0.00000     -0.00049      2.79846
  FORCES: max atom, RMS     0.005021    0.001152
  FORCE total and by dimension    0.007101    0.004990
  Stress total and by dimension   33.014970   23.266079
|           W    W    AA    RRRRR   N    N  II  N    N   GGGG   !!!           |
|           W    W   A  A   R    R  NN   N  II  NN   N  G    G  !!!           |
|           W    W  A    A  R    R  N N  N  II  N N  N  G       !!!           |
|           W WW W  AAAAAA  RRRRR   N  N N  II  N  N N  G  GGG   !            |
|           WW  WW  A    A  R   R   N   NN  II  N   NN  G    G                |
|           W    W  A    A  R    R  N    N  II  N    N   GGGG   !!!           |
|     Tetrahedron method does not include variations of the Fermi             |
|     occupations, so forces and stress will be inaccurate. We suggest        |
|     using a different smearing scheme ISMEAR = 1 or 2 for metals in         |
|     relaxations.                                                            |

 total charge

# of ion       s       p       d       tot
    1        0.548   0.237   8.767   9.552
    2        0.541   0.241   8.766   9.548
    3        0.541   0.241   8.766   9.548
    4        0.541   0.241   8.766   9.548
    5        0.546   0.241   8.761   9.549
    6        0.541   0.241   8.766   9.548
    7        0.541   0.241   8.766   9.548
    8        0.541   0.241   8.766   9.548
    9        0.544   0.240   8.767   9.551
   10        0.528   0.307   8.766   9.602
   11        0.521   0.307   8.781   9.608
   12        0.528   0.307   8.766   9.602
   13        0.521   0.307   8.781   9.608
   14        0.521   0.307   8.781   9.608
   15        0.516   0.307   8.775   9.599
   16        0.529   0.307   8.766   9.602
   17        0.516   0.307   8.775   9.599
   18        0.516   0.307   8.775   9.599
   19        0.518   0.297   8.770   9.585
   20        0.576   0.341   8.721   9.638
   21        0.576   0.341   8.721   9.638
   22        0.507   0.305   8.779   9.591
   23        0.576   0.341   8.721   9.638
   24        0.507   0.305   8.779   9.591
   25        0.518   0.297   8.770   9.585
   26        0.518   0.297   8.770   9.585
   27        0.507   0.305   8.779   9.591
   28        0.540   0.229   8.752   9.521
   29        0.592   0.250   8.724   9.566
   30        0.592   0.250   8.724   9.566
   31        0.591   0.249   8.725   9.565
   32        0.591   0.249   8.725   9.565
   33        0.592   0.250   8.724   9.566
   34        0.592   0.250   8.724   9.566
   35        0.539   0.230   8.755   9.524
   36        2.176   5.975   2.259  10.410
   37        1.373   2.467   0.000   3.841
   38        1.373   2.467   0.000   3.841
tot         23.937  20.621 308.776 353.335

 BZINTS: Fermi energy:    0.924071;  408.000000 electrons
         Band energy:-0.149117E+04;  BLOECHL correction:   -0.028704