 vasp.6.2.0 18Jan21 (build Jun 12 2021 23:27:24) complex

 executed on             LinuxIFC date 2022.05.30  16:42:53

 INCAR:
   ISMEAR = -5
   SIGMA = 0.1
   ISPIN = 1
   EDIFF = 1.d-5
   EDIFFG = -0.01
   NSW = 0
   NELM = 150
   ENCUT = 500
   ISIF = 2
   IBRION = 2
   LREAL = Auto
   ALGO = Fast
   ICHARG = 11
   LORBIT = 10
   LCHARG = .F.
   LWAVE = .F.

 POTCAR:    PAW_PBE Au 04Oct2007
 POTCAR:    PAW_PBE Ir 06Sep2000
 POTCAR:    PAW_PBE O 08Apr2002
|           W    W    AA    RRRRR   N    N  II  N    N   GGGG   !!!           |
|           W    W   A  A   R    R  NN   N  II  NN   N  G    G  !!!           |
|           W    W  A    A  R    R  N N  N  II  N N  N  G       !!!           |
|           W WW W  AAAAAA  RRRRR   N  N N  II  N  N N  G  GGG   !            |
|           WW  WW  A    A  R   R   N   NN  II  N   NN  G    G                |
|           W    W  A    A  R    R  N    N  II  N    N   GGGG   !!!           |
|     For optimal performance we recommend to set                             |
|       NCORE = 2 up to number-of-cores-per-socket                            |
|     This setting can greatly improve the performance of VASP for DFT.       |
|     The default, NCORE=1 might be grossly inefficient on modern             |
|     multi-core architectures or massively parallel machines. Do your        |
|     Unfortunately you need to use the default for GW and RPA                |
|     calculations (for HF NCORE is supported but not extensively tested      |
|     yet).                                                                   |

 POTCAR:    PAW_PBE Au 04Oct2007
   VRHFIN =Au: s1d10

   TITEL  = PAW_PBE Au 04Oct2007
   POMASS =  196.966; ZVAL   =   11.000    mass and valenz
   ENMAX  =  229.943; ENMIN  =  172.457 eV

 POTCAR:    PAW_PBE Ir 06Sep2000
   VRHFIN =Ir: s1d8

   TITEL  = PAW_PBE Ir 06Sep2000
   POMASS =  192.220; ZVAL   =    9.000    mass and valenz
   ENMAX  =  210.864; ENMIN  =  158.148 eV

 POTCAR:    PAW_PBE O 08Apr2002
   VRHFIN =O: s2p4

   TITEL  = PAW_PBE O 08Apr2002
   POMASS =   16.000; ZVAL   =    6.000    mass and valenz
   ENMAX  =  400.000; ENMIN  =  300.000 eV

 Optimization of the real space projectors (new method)

 maximal supplied QI-value         = 15.12
 optimisation between [QCUT,QGAM] = [ 11.34, 22.83] = [ 36.00,145.93] Ry
 Optimized for a Real-space Cutoff    1.39 Angstroem

   l    n(q)    QCUT    max X(q) W(low)/X(q) W(high)/X(q)  e(spline)
   2      9    11.338    60.898    0.39E-03    0.42E-03    0.21E-06
   2      9    11.338    58.894    0.40E-03    0.42E-03    0.22E-06
   0      9    11.338   109.617    0.13E-03    0.20E-04    0.13E-06
   0      9    11.338    75.026    0.13E-03    0.20E-04    0.13E-06
   1      9    11.338    16.344    0.33E-04    0.24E-03    0.18E-06
   1      9    11.338    10.160    0.26E-04    0.19E-03    0.15E-06
 Optimization of the real space projectors (new method)

[...]

   l    n(q)    QCUT    max X(q) W(low)/X(q) W(high)/X(q)  e(spline)
   2      9    11.346   134.116    0.47E-03    0.13E-03    0.92E-06
   2      9    11.346   130.192    0.47E-03    0.13E-03    0.92E-06
   0     10    11.346    60.310    0.74E-04    0.13E-03    0.69E-06
   0     10    11.346    39.218    0.68E-04    0.12E-03    0.65E-06
   1     10    11.346    18.439    0.15E-03    0.34E-04    0.20E-06
   1     10    11.346    12.760    0.12E-03    0.31E-04    0.16E-06
 Optimization of the real space projectors (new method)

 maximal supplied QI-value         = 24.76
 optimisation between [QCUT,QGAM] = [ 11.39, 22.77] = [ 36.31,145.25] Ry
 Optimized for a Real-space Cutoff    1.00 Angstroem

   l    n(q)    QCUT    max X(q) W(low)/X(q) W(high)/X(q)  e(spline)
   0      7    11.387    20.381    0.39E-03    0.13E-02    0.15E-06
   0      7    11.387    15.268    0.42E-03    0.14E-02    0.17E-06
   1      6    11.387     5.964    0.41E-03    0.11E-02    0.17E-06
   1      6    11.387     5.382    0.39E-03    0.87E-03    0.15E-06
  PAW_PBE Au 04Oct2007                  :
  PAW_PBE Ir 06Sep2000                  :
  PAW_PBE O 08Apr2002                   :

 POSCAR: Au-Ir-O2
  positions in direct lattice
  velocities in cartesian coordinates
 exchange correlation table for  LEXCH =        8
   RHO(1)=    0.500       N(1)  =     2000
   RHO(2)=  100.500       N(2)  =     4000

 VTST: version 3.2, (02/03/18)

 CHAIN: initializing optimizer

 OPT: Using VASP Conjugate-Gradient optimizer
 CHAIN: Read ICHAIN            0

 POSCAR: Au-Ir-O2
  positions in direct lattice
  velocities in cartesian coordinates

 ion  position               nearest neighbor table
   1  0.000  0.000  0.217-  16 2.94  12 2.94   6 2.94   8 2.94   7 2.94   3 2.94  10 2.94   4 2.94
                             2 2.94
   2  0.333  0.000  0.217-   9 2.94  11 2.94  17 2.94  10 2.94   8 2.94   4 2.94   5 2.94   1 2.94
                             3 2.94
   3  0.667  0.000  0.217-   7 2.94  18 2.94  12 2.94   1 2.94  11 2.94   5 2.94   6 2.94   9 2.94
                             2 2.94
   4  0.000  0.333  0.217-  10 2.94   6 2.94   5 2.94  13 2.94   2 2.94  15 2.94   9 2.94   1 2.94
                             7 2.94
   5  0.333  0.333  0.217-  13 2.94   7 2.94  11 2.94   4 2.94   2 2.94  14 2.94   3 2.94   8 2.94
                             6 2.94
   6  0.667  0.333  0.217-  15 2.94  14 2.94   1 2.94  12 2.94   4 2.94   9 2.94   8 2.94   3 2.94
                             5 2.94
   7  0.000  0.667  0.217-  18 2.94   3 2.94  16 2.94   5 2.94   1 2.94  13 2.94   8 2.94   4 2.94
                             9 2.94
   8  0.333  0.667  0.217-   9 2.94  17 2.94   1 2.94   2 2.94  14 2.94  16 2.94   6 2.94   7 2.94
                             5 2.94
   9  0.667  0.667  0.217-   2 2.94   8 2.94  17 2.94   6 2.94  15 2.94   4 2.94   3 2.94  18 2.94
                             7 2.94
  10  0.111  0.111  0.316-  20 2.90  11 2.94  17 2.94   2 2.94   4 2.94   1 2.94  12 2.94  16 2.94
                            13 2.94  15 2.94  26 2.94  19 2.94
  11  0.444  0.111  0.316-  20 2.91  21 2.91  27 2.93  13 2.94   2 2.94  10 2.94  17 2.94   5 2.94
                             3 2.94  18 2.94  14 2.94  12 2.94
  12  0.778  0.111  0.316-  21 2.90  16 2.94  18 2.94   1 2.94  14 2.94  15 2.94   3 2.94   6 2.94
                            10 2.94  11 2.94  25 2.94  19 2.94
  13  0.111  0.444  0.316-  23 2.91  20 2.91  22 2.93   5 2.94  18 2.94  11 2.94   7 2.94   4 2.94
                            16 2.94  10 2.94  14 2.94  15 2.94
  14  0.444  0.444  0.316-  21 2.91  23 2.91  24 2.93  15 2.94   6 2.94  12 2.94   8 2.94  17 2.94
                             5 2.94  16 2.94  13 2.94  11 2.94
  15  0.778  0.444  0.316-  24 2.92  22 2.92  14 2.94   6 2.94  17 2.94  12 2.94   9 2.94   4 2.94
                            10 2.94  13 2.94  18 2.94  19 2.94
  16  0.111  0.778  0.316-  23 2.90  18 2.94  12 2.94   7 2.94   1 2.94   8 2.94  13 2.94  10 2.94
                            14 2.94  17 2.94  25 2.94  26 2.94
  17  0.444  0.778  0.316-  27 2.92  24 2.92   9 2.94  15 2.94   2 2.94  10 2.94  11 2.94   8 2.94
                            14 2.94  16 2.94  18 2.94  26 2.94
  18  0.778  0.778  0.316-  22 2.92  27 2.92  16 2.94   7 2.94  13 2.94  12 2.94   3 2.94  11 2.94
                             9 2.94  15 2.94  17 2.94  25 2.94
  19  0.889  0.223  0.415-  21 2.93  20 2.93  24 2.93  22 2.93  15 2.94  10 2.94  12 2.94  26 2.95
                            25 2.95  28 2.95  32 2.96  31 2.96
  20  0.222  0.222  0.413-  36 2.78  10 2.90  11 2.91  13 2.91  26 2.93  19 2.93  29 2.95  31 2.95
                            27 2.95  22 2.95  23 2.95  21 2.95
  21  0.557  0.222  0.413-  36 2.78  12 2.90  14 2.91  11 2.91  25 2.93  19 2.93  30 2.95  32 2.95
                            24 2.95  27 2.95  20 2.95  23 2.95
  22  0.887  0.557  0.414-  24 2.91  27 2.91  18 2.92  15 2.92  13 2.93  25 2.93  19 2.93  23 2.95
                            20 2.95  35 2.95  33 2.96  31 2.96
  23  0.222  0.557  0.413-  36 2.78  16 2.90  13 2.91  14 2.91  25 2.93  26 2.93  33 2.95  34 2.95
                            22 2.95  24 2.95  20 2.95  21 2.95
  24  0.557  0.557  0.414-  27 2.91  22 2.91  15 2.92  17 2.92  14 2.93  26 2.93  19 2.93  21 2.95
                            23 2.95  35 2.95  32 2.96  34 2.96
  25  0.889  0.889  0.415-  23 2.93  21 2.93  22 2.93  27 2.93  18 2.94  16 2.94  12 2.94  19 2.95
                            26 2.95  28 2.95  33 2.96  30 2.96
  26  0.223  0.889  0.415-  20 2.93  23 2.93  27 2.93  24 2.93  17 2.94  10 2.94  16 2.94  19 2.95
                            25 2.95  28 2.95  29 2.96  34 2.96
  27  0.557  0.887  0.414-  24 2.91  22 2.91  17 2.92  18 2.92  11 2.93  26 2.93  25 2.93  20 2.95
                            21 2.95  35 2.95  29 2.96  30 2.96
  28  0.000  0.000  0.514-  25 2.95  19 2.95  26 2.95  34 2.96  32 2.96  33 2.96  30 2.96  31 2.96
                            29 2.96
  29  0.333  0.005  0.513-  31 2.89  30 2.89  36 2.90  20 2.95  28 2.96  35 2.96  27 2.96  26 2.96
                            34 3.03
  30  0.661  0.005  0.513-  32 2.89  29 2.89  36 2.90  21 2.95  28 2.96  35 2.96  27 2.96  25 2.96
                            33 3.03
  31  0.005  0.333  0.513-  29 2.89  33 2.89  36 2.90  20 2.95  28 2.96  35 2.96  22 2.96  19 2.96
                            32 3.03
  32  0.661  0.333  0.513-  30 2.89  34 2.89  36 2.90  21 2.95  28 2.96  35 2.96  24 2.96  19 2.96
                            31 3.03
  33  0.005  0.661  0.513-  34 2.89  31 2.89  36 2.90  23 2.95  28 2.96  35 2.96  22 2.96  25 2.96
                            30 3.03
  34  0.333  0.661  0.513-  33 2.89  32 2.89  36 2.90  23 2.95  28 2.96  35 2.96  24 2.96  26 2.96
                            29 3.03
  35  0.667  0.667  0.514-  24 2.95  27 2.95  22 2.95  29 2.96  34 2.96  32 2.96  31 2.96  30 2.96
                            33 2.96
  36  0.333  0.333  0.503-  38 2.08  37 2.08  20 2.78  23 2.78  21 2.78  33 2.90  31 2.90  29 2.90
                            30 2.90  34 2.90  32 2.90
  37  0.256  0.331  0.584-  38 1.38  36 2.08
  38  0.413  0.331  0.584-  37 1.38  36 2.08

  LATTYP: Found a hexagonal cell.
 ALAT       =     8.8135128021
 C/A-ratio  =     2.7586513333

  Lattice vectors:

 A1 = (  -4.4067569092,  -7.6327256898,   0.0000000000)
 A2 = (   8.8135128021,   0.0000000000,   0.0000000000)
 A3 = (   0.0000000000,   0.0000000000,  24.3134088421)

Analysis of symmetry for initial positions (statically):
 Subroutine PRICEL returns:
 Original cell was already a primitive cell.

 Routine SETGRP: Setting up the symmetry group for a
 hexagonal supercell.

 Subroutine GETGRP returns: Found  2 space group operations
 (whereof  2 operations were pure point group operations)
 out of a pool of 24 trial point group operations.

The static configuration has the point symmetry C_1h.

Analysis of symmetry for dynamics (positions and initial velocities):
 Subroutine PRICEL returns:
 Original cell was already a primitive cell.

[...]

The dynamic configuration has the point symmetry C_1h.

Analysis of constrained symmetry for selective dynamics:
 Subroutine PRICEL returns:
 Original cell was already a primitive cell.

 Routine SETGRP: Setting up the symmetry group for a
 hexagonal supercell.

[...]
     33      -5.3920      2.00000
     34      -5.3028      2.00000
     35      -5.2893      2.00000
     36      -5.2705      2.00000
     37      -5.2578      2.00000
     38      -5.2470      2.00000
     39      -5.2133      2.00000
     40      -5.1508      2.00000
     41      -5.1393      2.00000
     42      -5.0481      2.00000
     43      -5.0430      2.00000
     44      -4.9832      2.00000
     45      -4.9141      2.00000
     46      -4.8715      2.00000
     47      -4.8534      2.00000
     48      -4.8133      2.00000
     49      -4.8007      2.00000
     50      -4.7905      2.00000
     51      -4.6933      2.00000
     52      -4.6649      2.00000
     53      -4.6397      2.00000
     54      -4.6266      2.00000
     55      -4.6142      2.00000
     56      -4.6090      2.00000
     57      -4.6027      2.00000
     58      -4.5651      2.00000
     59      -4.5156      2.00000
     60      -4.4829      2.00000
[...]
    238       5.5484      0.00000
    239       5.7227      0.00000
    240       5.9392      0.00000
    241       6.0154      0.00000
    242       6.0481      0.00000
    243       6.0554      0.00000
    244       6.1146      0.00000
    245       6.2551      0.00000
    246       6.2990      0.00000
    247       6.3692      0.00000
    248       6.4127      0.00000
    249       6.4591      0.00000
    250       6.6911      0.00000
    251       6.7504      0.00000
    252       6.9359      0.00000

 soft charge-density along one line, spin component           1
         0         1         2         3         4         5         6         7         8         9
 total charge-density along one line

------------------------ aborting loop because EDIFF is reached ----------------------------------------

 total charge

# of ion       s       p       d       tot
    1        0.544   0.239   8.767   9.550
    2        0.544   0.240   8.765   9.549
    3        0.544   0.240   8.765   9.549
    4        0.545   0.241   8.763   9.549
    5        0.542   0.242   8.761   9.545
    6        0.545   0.241   8.763   9.549
    7        0.545   0.240   8.764   9.549
    8        0.545   0.240   8.764   9.549
    9        0.540   0.240   8.768   9.547
   10        0.522   0.309   8.766   9.598
   11        0.522   0.307   8.779   9.608
   12        0.522   0.309   8.766   9.598
   13        0.521   0.307   8.779   9.607
   14        0.521   0.307   8.779   9.607
   15        0.514   0.309   8.775   9.597
   16        0.520   0.311   8.767   9.598
   17        0.514   0.309   8.777   9.599
   18        0.514   0.309   8.777   9.599
   19        0.515   0.301   8.780   9.595
   20        0.542   0.333   8.748   9.623
   21        0.542   0.333   8.748   9.623
   22        0.509   0.310   8.775   9.593
   23        0.535   0.337   8.751   9.623
   24        0.509   0.310   8.775   9.593
   25        0.516   0.303   8.774   9.594
   26        0.516   0.303   8.774   9.594
   27        0.509   0.308   8.777   9.594
   28        0.540   0.228   8.770   9.538
   29        0.539   0.239   8.766   9.544
   30        0.539   0.239   8.766   9.544
   31        0.531   0.241   8.774   9.547
   32        0.531   0.241   8.774   9.547
   33        0.538   0.239   8.769   9.546
   34        0.538   0.239   8.769   9.546
   35        0.537   0.228   8.771   9.536
   36        0.548   0.509   6.917   7.974
   37        1.611   3.252   0.000   4.863
   38        1.611   3.252   0.000   4.863
tot         22.319  16.685 313.820 352.824

  FORCE on cell =-STRESS in cart. coord.  units (eV):
  Direction    XX          YY          ZZ          XY          YZ          ZX
  Alpha Z   962.92258   962.92258   962.92258
  Ewald  152299.36095151891.36947************    -0.00031    -0.18213    -0.00010
  Hartree160794.51518160598.72144************     0.00001     0.23749    -0.00003
  E(xc)   -1827.26684 -1828.56170 -1834.24337     0.00001    -0.04198    -0.00000
  Local  ************************325105.31821     0.00277    -0.45224    -0.00003
  n-local  -110.69004  -117.18296   -90.22042     4.55193     0.25169     0.17317
  augment  2416.44060  2424.47268  2430.86593    -0.00135     0.06863     0.00003
  Kinetic  5701.40609  5759.60690  5763.66603     1.16656     0.26458     0.06485
  Fock        0.00000     0.00000     0.00000     0.00000     0.00000     0.00000
  Total     -18.17966   -19.86762     0.45544    -0.00000     0.14604     0.00000
  in kB     -17.80827   -19.46175     0.44613    -0.00000     0.14305     0.00000

 VOLUME and BASIS-vectors are now :
  energy-cutoff  :      500.00
  volume of cell :     1635.59
      direct lattice vectors                 reciprocal lattice vectors
     8.813512802  0.000000000  0.000000000     0.113462137 -0.065507406  0.000000000
     4.406756909  7.632725690  0.000000000     0.000000000  0.131014796  0.000000000
     0.000000000  0.000000000 24.313408842     0.000000000  0.000000000  0.041129568

  length of vectors
     8.813512802  8.813512802 24.313408842     0.131014796  0.131014796  0.041129568

 FORCES acting on ions
    electron-ion (+dipol)            ewald-force                    non-local-force                 convergence-correction
   -.199E-04 0.242E-01 0.269E+04   0.519E-04 -.256E-01 -.269E+04   -.726E-09 -.109E-01 -.105E+01   -.296E-03 0.134E-01 -.338E+00
   0.555E+00 0.452E+00 0.269E+04   -.601E+00 -.481E+00 -.269E+04   0.317E-02 0.295E-01 -.287E+00   0.469E-01 0.195E-01 -.418E+00
   -.555E+00 0.452E+00 0.269E+04   0.601E+00 -.481E+00 -.269E+04   -.317E-02 0.295E-01 -.287E+00   -.465E-01 0.214E-01 -.417E+00
   0.570E+00 0.227E+00 0.269E+04   -.695E+00 -.290E+00 -.269E+04   0.895E-01 -.367E-03 -.299E+00   0.354E-01 0.480E-01 -.372E+00
   0.798E-05 -.416E-01 0.269E+04   0.952E-04 0.405E-02 -.269E+04   0.766E-09 0.115E-01 -.226E+00   0.432E-02 0.294E-01 -.357E+00
   -.571E+00 0.227E+00 0.269E+04   0.695E+00 -.290E+00 -.269E+04   -.895E-01 -.367E-03 -.299E+00   -.370E-01 0.488E-01 -.371E+00
   0.146E+00 -.651E+00 0.269E+04   -.929E-01 0.770E+00 -.269E+04   -.104E-01 -.518E-01 -.327E+00   -.152E-01 -.734E-01 -.420E+00
   -.146E+00 -.651E+00 0.269E+04   0.927E-01 0.770E+00 -.269E+04   0.104E-01 -.518E-01 -.327E+00   0.170E-01 -.745E-01 -.420E+00
   0.196E-04 0.158E-01 0.269E+04   0.166E-03 0.217E-01 -.269E+04   -.127E-08 -.191E-01 -.560E+00   -.456E-02 -.298E-01 -.405E+00
   0.686E+01 0.398E+01 0.952E+03   -.639E+01 -.387E+01 -.951E+03   -.411E+00 -.159E+00 -.762E+00   -.233E-01 0.673E-01 -.271E+00
   0.170E-04 0.529E+01 0.959E+03   0.149E-03 -.533E+01 -.959E+03   -.218E-08 -.327E-01 -.417E+00   0.436E-02 -.112E-01 -.237E+00
   -.686E+01 0.398E+01 0.952E+03   0.639E+01 -.387E+01 -.951E+03   0.411E+00 -.159E+00 -.762E+00   0.215E-01 0.685E-01 -.270E+00
   0.440E+01 -.268E+01 0.959E+03   -.444E+01 0.272E+01 -.959E+03   0.430E-01 -.270E-01 -.348E+00   -.467E-01 0.135E-02 -.266E+00
   -.440E+01 -.268E+01 0.959E+03   0.444E+01 0.272E+01 -.959E+03   -.430E-01 -.270E-01 -.348E+00   0.544E-01 0.185E-03 -.266E+00
   0.309E-04 0.285E+01 0.954E+03   0.236E-03 -.285E+01 -.953E+03   -.143E-08 -.215E-01 -.558E+00   -.249E-02 0.655E-02 -.295E+00
   -.220E-04 -.785E+01 0.952E+03   0.163E-03 0.740E+01 -.951E+03   0.279E-07 0.419E+00 -.792E+00   -.176E-03 -.124E-01 -.300E+00
   0.259E+01 -.145E+01 0.954E+03   -.259E+01 0.154E+01 -.953E+03   -.494E-01 -.137E-01 -.453E+00   0.231E-01 -.574E-01 -.276E+00
   -.259E+01 -.145E+01 0.954E+03   0.259E+01 0.154E+01 -.953E+03   0.494E-01 -.137E-01 -.453E+00   -.225E-01 -.550E-01 -.274E+00
   -.415E-04 0.608E+01 -.822E+03   0.525E-04 -.630E+01 0.822E+03   0.566E-08 0.850E-01 0.692E+00   -.463E-02 0.873E-01 -.291E-01
   0.194E+02 0.125E+02 -.763E+03   -.188E+02 -.119E+02 0.763E+03   -.712E+00 -.541E+00 -.908E+00   0.220E+00 0.897E-01 0.300E+00
   -.194E+02 0.125E+02 -.763E+03   0.188E+02 -.119E+02 0.763E+03   0.712E+00 -.541E+00 -.908E+00   -.217E+00 0.893E-01 0.300E+00
   0.472E+01 -.403E+01 -.806E+03   -.507E+01 0.423E+01 0.806E+03   0.352E+00 -.203E+00 0.686E+00   0.491E-01 -.217E-01 0.134E-01
   -.817E-05 -.239E+02 -.765E+03   0.144E-03 0.234E+02 0.765E+03   0.435E-07 0.653E+00 -.528E+00   0.439E-03 -.262E+00 0.383E+00
   -.472E+01 -.403E+01 -.806E+03   0.507E+01 0.423E+01 0.806E+03   -.352E+00 -.203E+00 0.686E+00   -.491E-01 -.235E-01 0.134E-01
   -.484E+01 -.208E+01 -.824E+03   0.493E+01 0.215E+01 0.824E+03   0.179E-01 -.152E-01 0.589E+00   -.928E-01 -.414E-01 0.566E-01
   0.484E+01 -.208E+01 -.824E+03   -.493E+01 0.215E+01 0.824E+03   -.179E-01 -.152E-01 0.589E+00   0.865E-01 -.428E-01 0.570E-01
   0.109E-04 0.556E+01 -.808E+03   0.199E-03 -.612E+01 0.807E+03   0.320E-07 0.481E+00 0.732E+00   0.106E-02 0.978E-01 0.886E-01
   -.146E-04 0.542E+01 -.259E+04   0.299E-04 -.527E+01 0.259E+04   -.688E-08 -.103E+00 0.456E+00   -.335E-03 -.527E-01 0.160E+00
   0.407E+02 0.840E+02 -.254E+04   -.406E+02 -.844E+02 0.254E+04   -.336E+00 -.420E-01 0.739E+00   0.133E+00 0.758E-01 -.541E-01
   -.407E+02 0.840E+02 -.254E+04   0.406E+02 -.844E+02 0.254E+04   0.336E+00 -.420E-01 0.739E+00   -.132E+00 0.771E-01 -.550E-01
   0.101E+03 -.797E+00 -.253E+04   -.102E+03 0.867E+00 0.253E+04   0.854E-01 -.591E-01 0.941E+00   0.168E+00 0.242E-01 -.575E-01
   -.101E+03 -.797E+00 -.253E+04   0.102E+03 0.867E+00 0.253E+04   -.854E-01 -.591E-01 0.941E+00   -.169E+00 0.246E-01 -.584E-01
   0.396E+02 -.823E+02 -.254E+04   -.397E+02 0.826E+02 0.254E+04   -.222E+00 0.133E+00 0.731E+00   0.854E-01 -.108E+00 -.217E-01
   -.396E+02 -.823E+02 -.254E+04   0.397E+02 0.826E+02 0.254E+04   0.222E+00 0.133E+00 0.731E+00   -.840E-01 -.108E+00 -.216E-01
   0.304E-04 -.480E+01 -.259E+04   0.143E-03 0.458E+01 0.259E+04   0.999E-08 0.150E+00 0.554E+00   -.424E-02 0.596E-01 0.992E-01
   -.125E-04 -.235E+01 -.173E+04   0.927E-04 0.236E+01 0.173E+04   0.848E-09 0.127E-01 0.276E+01   0.214E-02 0.649E-02 -.518E+00
   0.227E+03 0.820E-01 -.172E+04   -.265E+03 0.633E-01 0.174E+04   0.374E+02 -.146E+00 -.166E+02   -.162E+00 0.475E-02 -.342E+00
   -.227E+03 0.820E-01 -.172E+04   0.265E+03 0.633E-01 0.174E+04   -.374E+02 -.146E+00 -.166E+02   0.163E+00 0.480E-02 -.342E+00
   -.419E-03 0.603E+00 0.376E+02   0.114E-12 0.144E-12 0.157E-10   -.377E-07 -.567E+00 -.315E+02   0.969E-04 -.822E-02 -.600E+01

 POSITION                                       TOTAL-FORCE (eV/Angst)
      0.00000      0.00000      5.28038         0.000000      0.000350     -0.032389
      2.93784      0.00000      5.28038         0.003382      0.020720     -0.017689
      5.87568      0.00000      5.28038        -0.003382      0.020720     -0.017689
      1.46892      2.54424      5.28038         0.001001     -0.015313     -0.025237
      4.40676      2.54424      5.28038         0.000000      0.002600     -0.051195
      7.34459      2.54424      5.28038        -0.001001     -0.015313     -0.025237
      2.93784      5.08848      5.28038         0.026739     -0.006918     -0.014971
      5.87568      5.08848      5.28038        -0.026739     -0.006918     -0.014971
      8.81351      5.08848      5.28038        -0.000000     -0.012259     -0.023681
      1.46892      0.84808      7.67911         0.045709      0.016094      0.099550
      4.40676      0.84808      7.67911        -0.000000     -0.080840     -0.048517
      7.34459      0.84808      7.67911        -0.045709      0.016094      0.099550
      2.93784      3.39232      7.67911        -0.052734      0.018351     -0.031551
      5.87568      3.39232      7.67911         0.052734      0.018351     -0.031551
      8.81351      3.39232      7.67911        -0.000000     -0.012466      0.070230
      4.40676      5.93656      7.67911        -0.000000     -0.046317      0.114728
      7.34459      5.93656      7.67911        -0.023068      0.019290      0.055441
     10.28243      5.93656      7.67911         0.023068      0.019290      0.055441
      8.81351      1.70038     10.08128        -0.000000     -0.044495     -0.035823
      2.93047      1.69191     10.03818         0.055409      0.080394     -0.005347
      5.88304      1.69191     10.03818        -0.055409      0.080394     -0.005347
     10.26792      4.24878     10.06124         0.056323     -0.029537      0.038050
      4.40676      4.24891     10.03818        -0.000000     -0.120839     -0.103482
      7.35911      4.24878     10.06124        -0.056323     -0.029537      0.038050
     11.74770      6.78254     10.08128         0.021997      0.010825     -0.015648
      5.87933      6.78254     10.08128        -0.021997      0.010825     -0.015648
      8.81351      6.76789     10.06124         0.000000      0.023259      0.040088
      0.00000      0.00000     12.49619        -0.000000     -0.002114     -0.031258
      2.96082      0.04010     12.48308        -0.153125     -0.358003     -0.178323
      5.85269      0.04010     12.48308         0.153125     -0.358003     -0.178323
      1.51514      2.54410     12.48308        -0.743340      0.034213     -0.376101
      7.29838      2.54410     12.48308         0.743340      0.034213     -0.376101
      2.96107      5.04853     12.48308        -0.208020      0.336991     -0.141392
      5.85244      5.04853     12.48308         0.208020      0.336991     -0.141392
      8.81351      5.08848     12.49171        -0.000000     -0.003194     -0.005875
      4.40676      2.54424     12.23647         0.000000      0.036042      1.401272
      3.71683      2.52961     14.19977        -0.083197      0.003028     -0.033831
      5.09669      2.52961     14.19977         0.083197      0.003028     -0.033831
    total drift:                               -0.000322      0.028094      0.096146

  FREE ENERGIE OF THE ION-ELECTRON SYSTEM (eV)
  free  energy   TOTEN  =      -123.84004792 eV

  energy  without entropy=     -123.84004792  energy(sigma->0) =     -123.84004792

 stress matrix after NEB project (eV)
    -18.17966     -0.00000      0.00000
     -0.00000    -19.86762      0.14604
      0.00000      0.14604      0.45544
  FORCES: max atom, RMS     0.089864    0.020616
  FORCE total and by dimension    0.127087    0.083197
  Stress total and by dimension   26.934599   19.867625
|           W    W    AA    RRRRR   N    N  II  N    N   GGGG   !!!           |
|           W    W   A  A   R    R  NN   N  II  NN   N  G    G  !!!           |
|           W    W  A    A  R    R  N N  N  II  N N  N  G       !!!           |
|           W WW W  AAAAAA  RRRRR   N  N N  II  N  N N  G  GGG   !            |
|           WW  WW  A    A  R   R   N   NN  II  N   NN  G    G                |
|           W    W  A    A  R    R  N    N  II  N    N   GGGG   !!!           |
|     Tetrahedron method does not include variations of the Fermi             |
|     occupations, so forces and stress will be inaccurate. We suggest        |
|     using a different smearing scheme ISMEAR = 1 or 2 for metals in         |
|     relaxations.                                                            |

 total charge

# of ion       s       p       d       tot
    1        0.544   0.239   8.767   9.550
    2        0.544   0.240   8.765   9.549
    3        0.544   0.240   8.765   9.549
    4        0.545   0.241   8.763   9.549
    5        0.542   0.242   8.761   9.545
    6        0.545   0.241   8.763   9.549
    7        0.545   0.240   8.764   9.549
    8        0.545   0.240   8.764   9.549
    9        0.540   0.240   8.768   9.547
   10        0.522   0.309   8.766   9.598
   11        0.522   0.307   8.779   9.608
   12        0.522   0.309   8.766   9.598
   13        0.521   0.307   8.779   9.607
   14        0.521   0.307   8.779   9.607
   15        0.514   0.309   8.775   9.597
   16        0.520   0.311   8.767   9.598
   17        0.514   0.309   8.777   9.599
   18        0.514   0.309   8.777   9.599
   19        0.515   0.301   8.780   9.595
   20        0.542   0.333   8.748   9.623
   21        0.542   0.333   8.748   9.623
   22        0.509   0.310   8.775   9.593
   23        0.535   0.337   8.751   9.623
   24        0.509   0.310   8.775   9.593
   25        0.516   0.303   8.774   9.594
   26        0.516   0.303   8.774   9.594
   27        0.509   0.308   8.777   9.594
   28        0.540   0.228   8.770   9.538
   29        0.539   0.239   8.766   9.544
   30        0.539   0.239   8.766   9.544
   31        0.531   0.241   8.774   9.547
   32        0.531   0.241   8.774   9.547
   33        0.538   0.239   8.769   9.546
   34        0.538   0.239   8.769   9.546
   35        0.537   0.228   8.771   9.536
   36        0.548   0.509   6.917   7.974
   37        1.611   3.252   0.000   4.863
   38        1.611   3.252   0.000   4.863
tot         22.319  16.685 313.820 352.824

 BZINTS: Fermi energy:    0.166989;  406.000000 electrons
         Band energy:-0.150175E+04;  BLOECHL correction:   -0.056872