 vasp.6.2.0 18Jan21 (build Jun 12 2021 23:27:24) complex

 executed on             LinuxIFC date 2022.05.30  17:31:03

 INCAR:
   ISMEAR = -5
   SIGMA = 0.1
   ISPIN = 1
   EDIFF = 1.d-5
   EDIFFG = -0.01
   NSW = 0
   NELM = 150
   ENCUT = 500
   ISIF = 2
   IBRION = 2
   LREAL = Auto
   ALGO = Fast
   ICHARG = 11
   LORBIT = 10
   LCHARG = .F.
   LWAVE = .F.

 POTCAR:    PAW_PBE Ag 02Apr2005
 POTCAR:    PAW_PBE Hf 20Jan2003
 POTCAR:    PAW_PBE O 08Apr2002
|           W    W    AA    RRRRR   N    N  II  N    N   GGGG   !!!           |
|           W    W   A  A   R    R  NN   N  II  NN   N  G    G  !!!           |
|           W    W  A    A  R    R  N N  N  II  N N  N  G       !!!           |
|           W WW W  AAAAAA  RRRRR   N  N N  II  N  N N  G  GGG   !            |
|           WW  WW  A    A  R   R   N   NN  II  N   NN  G    G                |
|           W    W  A    A  R    R  N    N  II  N    N   GGGG   !!!           |
|     For optimal performance we recommend to set                             |
|       NCORE = 2 up to number-of-cores-per-socket                            |
|     This setting can greatly improve the performance of VASP for DFT.       |
|     The default, NCORE=1 might be grossly inefficient on modern             |
|     multi-core architectures or massively parallel machines. Do your        |
|     Unfortunately you need to use the default for GW and RPA                |
|     calculations (for HF NCORE is supported but not extensively tested      |
|     yet).                                                                   |

 POTCAR:    PAW_PBE Ag 02Apr2005
   VRHFIN =Ag : s1 d10

   TITEL  = PAW_PBE Ag 02Apr2005
   POMASS =  107.868; ZVAL   =   11.000    mass and valenz
   ENMAX  =  249.844; ENMIN  =  187.383 eV

 POTCAR:    PAW_PBE Hf 20Jan2003
   VRHFIN =Hf: 6s5d

   TITEL  = PAW_PBE Hf 20Jan2003
   POMASS =  178.490; ZVAL   =    4.000    mass and valenz
   ENMAX  =  220.334; ENMIN  =  165.250 eV

 POTCAR:    PAW_PBE O 08Apr2002
   VRHFIN =O: s2p4

   TITEL  = PAW_PBE O 08Apr2002
   POMASS =   16.000; ZVAL   =    6.000    mass and valenz
   ENMAX  =  400.000; ENMIN  =  300.000 eV

 Optimization of the real space projectors (new method)

 maximal supplied QI-value         = 15.12
 optimisation between [QCUT,QGAM] = [ 11.34, 22.83] = [ 36.00,145.93] Ry
 Optimized for a Real-space Cutoff    1.43 Angstroem

   l    n(q)    QCUT    max X(q) W(low)/X(q) W(high)/X(q)  e(spline)
   2      9    11.338    53.897    0.16E-03    0.20E-03    0.28E-06
   2      9    11.338    52.416    0.16E-03    0.20E-03    0.29E-06
   0     10    11.338   122.045    0.31E-04    0.76E-04    0.15E-06
   0     10    11.338    73.629    0.30E-04    0.72E-04    0.15E-06
   1      9    11.338    15.255    0.20E-03    0.19E-04    0.17E-06
   1      9    11.338     9.562    0.16E-03    0.15E-04    0.14E-06
 Optimization of the real space projectors (new method)

[...]

   l    n(q)    QCUT    max X(q) W(low)/X(q) W(high)/X(q)  e(spline)
   2     10    11.350    48.111    0.20E-03    0.11E-03    0.41E-06
   2     10    11.350    40.545    0.19E-03    0.10E-03    0.39E-06
   0     11    11.350   121.658    0.22E-04    0.19E-04    0.24E-06
   0     11    11.350    71.177    0.17E-04    0.17E-04    0.23E-06
   1     11    11.350    14.183    0.25E-03    0.43E-03    0.12E-05
   1     11    11.350     8.257    0.17E-03    0.29E-03    0.81E-06
 Optimization of the real space projectors (new method)

 maximal supplied QI-value         = 24.76
 optimisation between [QCUT,QGAM] = [ 11.39, 22.77] = [ 36.31,145.25] Ry
 Optimized for a Real-space Cutoff    1.00 Angstroem

   l    n(q)    QCUT    max X(q) W(low)/X(q) W(high)/X(q)  e(spline)
   0      7    11.387    20.381    0.39E-03    0.13E-02    0.15E-06
   0      7    11.387    15.268    0.42E-03    0.14E-02    0.17E-06
   1      6    11.387     5.964    0.41E-03    0.11E-02    0.17E-06
   1      6    11.387     5.382    0.39E-03    0.87E-03    0.15E-06
  PAW_PBE Ag 02Apr2005                  :
  PAW_PBE Hf 20Jan2003                  :
  PAW_PBE O 08Apr2002                   :

 POSCAR: Ag-Hf-O2
  positions in direct lattice
  velocities in cartesian coordinates
 exchange correlation table for  LEXCH =        8
   RHO(1)=    0.500       N(1)  =     2000
   RHO(2)=  100.500       N(2)  =     4000

 VTST: version 3.2, (02/03/18)

 CHAIN: initializing optimizer

 OPT: Using VASP Conjugate-Gradient optimizer
 CHAIN: Read ICHAIN            0

 POSCAR: Ag-Hf-O2
  positions in direct lattice
  velocities in cartesian coordinates

 ion  position               nearest neighbor table
   1  0.000  0.000  0.217-   2 2.93   8 2.93   7 2.93   6 2.93   4 2.93  12 2.93  16 2.93  10 2.93
                             3 2.93
   2  0.333  0.000  0.217-   1 2.93   8 2.93   9 2.93   3 2.93   4 2.93   5 2.93  10 2.93  17 2.93
                            11 2.93
   3  0.667  0.000  0.217-   9 2.93   2 2.93   5 2.93  11 2.93   7 2.93  18 2.93   1 2.93   6 2.93
                            12 2.93
   4  0.000  0.333  0.217-   5 2.93   6 2.93   2 2.93   1 2.93   7 2.93  13 2.93  15 2.93   9 2.93
                            10 2.93
   5  0.333  0.333  0.217-   4 2.93   3 2.93   7 2.93   2 2.93   8 2.93  14 2.93  13 2.93  11 2.93
                             6 2.93
   6  0.667  0.333  0.217-   4 2.93   9 2.93   1 2.93  15 2.93   8 2.93  12 2.93   3 2.93   5 2.93
                            14 2.93
   7  0.000  0.667  0.217-   8 2.93   1 2.93   5 2.93   3 2.93   4 2.93  16 2.93  18 2.93  13 2.93
                             9 2.93
   8  0.333  0.667  0.217-   7 2.93   1 2.93   2 2.93   9 2.93   5 2.93  16 2.93   6 2.93  17 2.93
                            14 2.93
   9  0.667  0.667  0.217-   3 2.93   2 2.93   8 2.93   6 2.93  17 2.93   4 2.93  15 2.93   7 2.93
                            18 2.93
  10  0.111  0.111  0.315-  20 2.90  19 2.92  26 2.92  12 2.93  16 2.93  15 2.93  17 2.93  13 2.93
                            11 2.93   2 2.93   1 2.93   4 2.93
  11  0.444  0.111  0.315-  21 2.90  20 2.90  14 2.93  17 2.93  18 2.93   3 2.93  12 2.93  13 2.93
                            10 2.93   5 2.93   2 2.93  27 2.93
  12  0.778  0.111  0.315-  21 2.90  25 2.92  19 2.92  10 2.93  16 2.93  18 2.93  15 2.93  11 2.93
                             1 2.93  14 2.93   6 2.93   3 2.93
  13  0.111  0.444  0.315-  20 2.90  23 2.90  15 2.93  14 2.93  18 2.93  10 2.93  11 2.93  16 2.93
                             4 2.93   5 2.93   7 2.93  22 2.93
  14  0.444  0.444  0.315-  23 2.90  21 2.90  13 2.93  11 2.93  16 2.93   5 2.93  12 2.93  17 2.93
                             8 2.93  15 2.93   6 2.93  24 2.93
  15  0.778  0.444  0.315-  19 2.92  24 2.93  22 2.93  13 2.93  10 2.93  12 2.93  17 2.93  18 2.93
                             4 2.93   6 2.93   9 2.93  14 2.93
  16  0.111  0.778  0.315-  23 2.90  26 2.92  25 2.92  18 2.93  12 2.93  10 2.93  14 2.93  17 2.93
                            13 2.93   7 2.93   8 2.93   1 2.93
  17  0.444  0.778  0.315-  26 2.92  27 2.93  24 2.93  11 2.93  10 2.93   9 2.93  18 2.93  15 2.93
                            16 2.93   2 2.93  14 2.93   8 2.93
  18  0.778  0.778  0.315-  25 2.92  22 2.93  27 2.93  16 2.93  12 2.93  13 2.93  11 2.93  17 2.93
                            15 2.93   7 2.93   3 2.93   9 2.93
  19  0.889  0.222  0.413-  10 2.92  12 2.92  15 2.92  20 2.93  21 2.93  26 2.93  25 2.93  24 2.93
                            22 2.93  28 2.94  32 2.98  31 2.98
  20  0.222  0.222  0.412-  36 2.86  10 2.90  13 2.90  11 2.90  19 2.93  26 2.93  27 2.93  22 2.93
                            21 2.94  23 2.94  31 2.97  29 2.97
  21  0.556  0.222  0.412-  36 2.86  12 2.90  11 2.90  14 2.90  25 2.93  19 2.93  27 2.93  24 2.93
                            20 2.94  23 2.94  30 2.97  32 2.97
  22  0.889  0.556  0.413-  24 2.93  27 2.93  18 2.93  15 2.93  25 2.93  19 2.93  13 2.93  23 2.93
                            20 2.93  35 2.94  33 2.96  31 2.96
  23  0.222  0.556  0.412-  36 2.86  16 2.90  14 2.90  13 2.90  26 2.93  25 2.93  22 2.93  24 2.93
                            21 2.94  20 2.94  34 2.97  33 2.97
  24  0.556  0.556  0.413-  27 2.93  22 2.93  15 2.93  17 2.93  19 2.93  26 2.93  14 2.93  23 2.93
                            21 2.93  35 2.94  32 2.96  34 2.96
  25  0.889  0.889  0.413-  16 2.92  12 2.92  18 2.92  23 2.93  21 2.93  26 2.93  19 2.93  22 2.93
                            27 2.93  28 2.94  33 2.98  30 2.98
  26  0.222  0.889  0.413-  16 2.92  10 2.92  17 2.92  23 2.93  20 2.93  25 2.93  19 2.93  27 2.93
                            24 2.93  28 2.94  34 2.98  29 2.98
  27  0.556  0.889  0.413-  24 2.93  22 2.93  17 2.93  18 2.93  26 2.93  25 2.93  11 2.93  20 2.93
                            21 2.93  35 2.94  29 2.96  30 2.96
  28  0.000  0.000  0.511-  26 2.94  25 2.94  19 2.94  29 2.94  34 2.94  33 2.94  32 2.94  31 2.94
                            30 2.94
  29  0.333  0.003  0.513-  30 2.90  31 2.91  36 2.91  35 2.94  28 2.94  27 2.96  20 2.97  26 2.98
                            34 2.98
  30  0.664  0.003  0.513-  29 2.90  32 2.91  36 2.91  35 2.94  28 2.94  27 2.96  21 2.97  25 2.98
                            33 2.98
  31  0.003  0.333  0.513-  37 2.73  33 2.90  29 2.91  36 2.91  35 2.94  28 2.94  22 2.96  20 2.97
                            19 2.98  32 2.98
  32  0.664  0.333  0.513-  38 2.73  34 2.90  30 2.91  36 2.91  35 2.94  28 2.94  24 2.96  21 2.97
                            19 2.98  31 2.98
  33  0.003  0.664  0.513-  31 2.90  34 2.91  36 2.91  35 2.94  28 2.94  22 2.96  23 2.97  25 2.98
                            30 2.98
  34  0.333  0.664  0.513-  32 2.90  33 2.91  36 2.91  35 2.94  28 2.94  24 2.96  23 2.97  26 2.98
                            29 2.98
  35  0.667  0.667  0.512-  30 2.94  29 2.94  32 2.94  34 2.94  31 2.94  33 2.94  24 2.94  27 2.94
                            22 2.94
  36  0.333  0.333  0.506-  37 1.99  38 1.99  21 2.86  20 2.86  23 2.86  31 2.91  33 2.91  30 2.91
                            29 2.91  34 2.91  32 2.91
  37  0.243  0.341  0.582-  38 1.51  36 1.99  31 2.73
  38  0.415  0.341  0.582-  37 1.51  36 1.99  32 2.73

  LATTYP: Found a hexagonal cell.
 ALAT       =     8.7913665772
 C/A-ratio  =     2.7711238095

  Lattice vectors:

 A1 = (  -4.3956832886,  -7.6135467898,   0.0000000000)
 A2 = (   8.7913665771,   0.0000000000,   0.0000000000)
 A3 = (   0.0000000000,   0.0000000000,  24.3619652401)

Analysis of symmetry for initial positions (statically):
 Subroutine PRICEL returns:
 Original cell was already a primitive cell.

 Routine SETGRP: Setting up the symmetry group for a
 hexagonal supercell.

 Subroutine GETGRP returns: Found  2 space group operations
 (whereof  2 operations were pure point group operations)
 out of a pool of 24 trial point group operations.

The static configuration has the point symmetry C_1h.

Analysis of symmetry for dynamics (positions and initial velocities):
 Subroutine PRICEL returns:
 Original cell was already a primitive cell.

[...]

The dynamic configuration has the point symmetry C_1h.

Analysis of constrained symmetry for selective dynamics:
 Subroutine PRICEL returns:
 Original cell was already a primitive cell.

 Routine SETGRP: Setting up the symmetry group for a
[...]
     33      -5.1415      2.00000
     34      -5.1243      2.00000
     35      -5.1061      2.00000
     36      -5.0739      2.00000
     37      -5.0654      2.00000
     38      -5.0391      2.00000
     39      -5.0223      2.00000
     40      -4.9949      2.00000
     41      -4.9460      2.00000
     42      -4.9298      2.00000
     43      -4.9228      2.00000
     44      -4.9117      2.00000
     45      -4.8916      2.00000
     46      -4.8668      2.00000
     47      -4.8525      2.00000
     48      -4.8041      2.00000
     49      -4.7702      2.00000
     50      -4.7696      2.00000
     51      -4.7577      2.00000
     52      -4.7447      2.00000
     53      -4.7386      2.00000
     54      -4.7359      2.00000
     55      -4.7174      2.00000
     56      -4.7088      2.00000
     57      -4.7081      2.00000
     58      -4.6575      2.00000
     59      -4.6504      2.00000
     60      -4.6315      2.00000
[...]
    238       5.6361      0.00000
    239       5.7759      0.00000
    240       5.7925      0.00000
    241       5.8173      0.00000
    242       5.9141      0.00000
    243       5.9953      0.00000
    244       6.0827      0.00000
    245       6.5460      0.00000
    246       6.5549      0.00000
    247       6.6674      0.00000
    248       6.6965      0.00000
    249       6.7410      0.00000
    250       6.7591      0.00000
    251       6.8451      0.00000
    252       6.9276      0.00000

 soft charge-density along one line, spin component           1
         0         1         2         3         4         5         6         7         8         9
 total charge-density along one line

------------------------ aborting loop because EDIFF is reached ----------------------------------------

 total charge

# of ion       s       p       d       tot
    1        0.419   0.202   9.175   9.797
    2        0.414   0.204   9.176   9.794
    3        0.414   0.204   9.176   9.794
    4        0.414   0.204   9.177   9.795
    5        0.416   0.202   9.177   9.795
    6        0.414   0.204   9.177   9.795
    7        0.414   0.204   9.177   9.794
    8        0.414   0.204   9.177   9.794
    9        0.414   0.203   9.177   9.795
   10        0.408   0.269   9.164   9.841
   11        0.403   0.271   9.166   9.840
   12        0.408   0.269   9.164   9.841
   13        0.404   0.270   9.166   9.840
   14        0.404   0.270   9.166   9.840
   15        0.402   0.269   9.164   9.835
   16        0.408   0.270   9.162   9.840
   17        0.402   0.270   9.163   9.835
   18        0.402   0.270   9.163   9.835
   19        0.400   0.266   9.167   9.832
   20        0.436   0.302   9.137   9.875
   21        0.436   0.302   9.137   9.875
   22        0.396   0.272   9.163   9.831
   23        0.437   0.300   9.138   9.875
   24        0.396   0.272   9.163   9.831
   25        0.405   0.265   9.166   9.835
   26        0.405   0.265   9.166   9.835
   27        0.397   0.271   9.164   9.832
   28        0.415   0.203   9.173   9.791
   29        0.437   0.217   9.161   9.815
   30        0.437   0.217   9.161   9.815
   31        0.438   0.205   9.171   9.815
   32        0.438   0.205   9.171   9.815
   33        0.433   0.216   9.164   9.813
   34        0.433   0.216   9.164   9.813
   35        0.416   0.202   9.172   9.791
   36        0.587   0.644   2.183   3.414
   37        1.611   3.250   0.000   4.860
   38        1.611   3.250   0.000   4.860
tot         18.339  15.599 322.987 356.925

  FORCE on cell =-STRESS in cart. coord.  units (eV):
  Direction    XX          YY          ZZ          XY          YZ          ZX
  Alpha Z   697.23346   697.23346   697.23346
  Ewald  150603.54467150269.12662************     0.00003    -7.66983     0.00007
  Hartree160494.60653160330.70719************     0.00001    -9.77784     0.00002
  E(xc)   -2104.28866 -2104.43273 -2112.16076    -0.00003    -0.07524     0.00000
  Local  ************************321854.57039     0.00106    17.70249    -0.00018
  n-local  -349.33472  -355.33131  -356.72294     2.21297     0.08785     0.07276
  augment  3228.27427  3232.94210  3246.24969    -0.00017     0.03137     0.00004
  Kinetic  5033.06560  5077.19280  5096.81618     0.77283    -0.31149    -0.02798
  Fock        0.00000     0.00000     0.00000     0.00000     0.00000     0.00000
  Total      -4.39025    -4.62414    -0.51343    -0.00000    -0.01270    -0.00000
  in kB      -4.31364    -4.54345    -0.50447    -0.00000    -0.01247    -0.00000

 VOLUME and BASIS-vectors are now :
  energy-cutoff  :      500.00
  volume of cell :     1630.63
      direct lattice vectors                 reciprocal lattice vectors
     8.791366577  0.000000000  0.000000000     0.113747958 -0.065672414  0.000000000
     4.395683289  7.613546790  0.000000000     0.000000000  0.131344829  0.000000000
     0.000000000  0.000000000 24.361965240     0.000000000  0.000000000  0.041047592

  length of vectors
     8.791366577  8.791366577 24.361965240     0.131344829  0.131344829  0.041047592

 FORCES acting on ions
    electron-ion (+dipol)            ewald-force                    non-local-force                 convergence-correction
   0.460E-04 0.179E-01 0.268E+04   -.953E-04 -.203E-01 -.267E+04   0.364E-13 0.555E-02 -.168E+01   -.825E-04 -.616E-02 0.191E+00
   -.332E+00 -.895E-01 0.268E+04   0.248E+00 -.521E-01 -.267E+04   0.239E-01 0.988E-01 -.159E+01   0.514E-01 0.376E-01 0.123E+00
   0.332E+00 -.895E-01 0.268E+04   -.248E+00 -.520E-01 -.267E+04   -.239E-01 0.988E-01 -.159E+01   -.520E-01 0.395E-01 0.124E+00
   -.291E+00 -.196E+00 0.268E+04   0.957E-01 0.214E+00 -.267E+04   0.114E+00 -.274E-01 -.159E+01   0.707E-01 0.339E-03 0.112E+00
   -.791E-05 0.218E-01 0.268E+04   0.980E-04 -.167E-01 -.267E+04   0.117E-13 0.178E-02 -.165E+01   0.618E-02 -.106E-01 0.109E+00
   0.291E+00 -.196E+00 0.268E+04   -.959E-01 0.214E+00 -.267E+04   -.114E+00 -.274E-01 -.159E+01   -.720E-01 0.125E-02 0.113E+00
   0.113E+00 0.287E+00 0.268E+04   -.151E+00 -.161E+00 -.267E+04   0.310E-01 -.727E-01 -.164E+01   0.840E-02 -.359E-01 0.136E+00
   -.113E+00 0.287E+00 0.268E+04   0.151E+00 -.162E+00 -.267E+04   -.310E-01 -.727E-01 -.164E+01   -.680E-02 -.368E-01 0.136E+00
   0.364E-04 -.812E-01 0.268E+04   0.792E-04 0.367E-01 -.267E+04   0.707E-13 0.108E-01 -.171E+01   -.663E-02 0.365E-01 0.110E+00
   -.148E+00 0.170E+00 0.916E+03   0.397E+00 -.209E-01 -.915E+03   -.262E+00 -.124E+00 -.522E+00   -.183E-01 -.421E-01 -.150E+00
   -.262E-04 0.563E-01 0.911E+03   0.401E-04 -.214E+00 -.910E+03   0.897E-12 0.137E+00 -.336E+00   0.617E-02 -.310E-01 -.201E+00
   0.148E+00 0.170E+00 0.916E+03   -.397E+00 -.208E-01 -.915E+03   0.262E+00 -.124E+00 -.522E+00   0.170E-01 -.414E-01 -.150E+00
   -.286E+00 -.388E-01 0.911E+03   0.429E-01 0.454E-01 -.911E+03   0.194E+00 -.597E-01 -.378E+00   0.489E-02 0.771E-01 -.173E+00
   0.286E+00 -.388E-01 0.911E+03   -.427E-01 0.454E-01 -.911E+03   -.194E+00 -.597E-01 -.378E+00   0.540E-02 0.762E-01 -.175E+00
   0.154E-04 -.135E+01 0.913E+03   -.108E-03 0.136E+01 -.913E+03   -.605E-13 -.921E-02 -.588E+00   -.125E-02 0.296E-02 -.128E+00
   -.819E-05 0.620E-01 0.916E+03   0.206E-04 -.278E+00 -.915E+03   0.172E-11 0.262E+00 -.593E+00   -.985E-04 -.126E-02 -.147E+00
   -.107E+01 0.465E+00 0.913E+03   0.113E+01 -.458E+00 -.912E+03   0.170E-02 -.538E-02 -.484E+00   -.524E-01 -.454E-02 -.136E+00
   0.107E+01 0.464E+00 0.913E+03   -.113E+01 -.458E+00 -.912E+03   -.170E-02 -.538E-02 -.484E+00   0.525E-01 -.300E-02 -.135E+00
   0.387E-04 -.452E+01 -.856E+03   -.126E-03 0.425E+01 0.856E+03   0.140E-11 0.213E+00 0.110E+01   0.117E-02 0.244E-01 -.277E+00
   -.306E+02 -.155E+02 -.875E+03   0.313E+02 0.159E+02 0.875E+03   -.756E+00 -.390E+00 -.455E-01   -.157E+00 -.697E-01 -.355E+00
   0.306E+02 -.155E+02 -.875E+03   -.313E+02 0.159E+02 0.875E+03   0.756E+00 -.390E+00 -.455E-01   0.146E+00 -.703E-01 -.356E+00
   -.107E+02 0.489E+01 -.861E+03   0.107E+02 -.479E+01 0.860E+03   0.153E+00 -.156E+00 0.566E+00   -.103E+00 0.423E-01 -.280E+00
   -.463E-04 0.332E+02 -.875E+03   0.365E-04 -.341E+02 0.876E+03   0.654E-11 0.995E+00 -.104E+00   -.562E-02 0.153E+00 -.389E+00
   0.107E+02 0.489E+01 -.861E+03   -.107E+02 -.479E+01 0.860E+03   -.153E+00 -.156E+00 0.566E+00   0.105E+00 0.430E-01 -.281E+00
   0.498E+01 0.291E+01 -.858E+03   -.493E+01 -.277E+01 0.858E+03   -.624E-01 -.119E+00 0.849E+00   0.160E-01 -.148E-01 -.352E+00
   -.498E+01 0.292E+01 -.858E+03   0.493E+01 -.277E+01 0.858E+03   0.624E-01 -.119E+00 0.849E+00   -.158E-01 -.137E-01 -.352E+00
   0.188E-04 -.132E+02 -.864E+03   0.110E-03 0.131E+02 0.863E+03   0.157E-11 0.239E+00 0.767E+00   -.325E-03 -.130E+00 -.309E+00
   0.546E-04 0.437E+01 -.258E+04   -.116E-03 -.453E+01 0.257E+04   0.514E-12 0.783E-01 0.142E+01   0.411E-03 0.621E-01 -.117E+00
   -.305E+01 0.688E+01 -.255E+04   0.367E+01 -.671E+01 0.255E+04   -.766E+00 -.522E+00 0.188E+01   -.678E-02 0.514E-01 -.809E-01
   0.305E+01 0.688E+01 -.255E+04   -.367E+01 -.671E+01 0.255E+04   0.766E+00 -.522E+00 0.188E+01   0.580E-02 0.518E-01 -.810E-01
   0.205E+02 0.523E+01 -.253E+04   -.206E+02 -.526E+01 0.253E+04   -.468E+00 -.181E-01 0.244E+01   0.246E-01 0.220E-01 -.905E-01
   -.205E+02 0.523E+01 -.253E+04   0.206E+02 -.526E+01 0.253E+04   0.468E+00 -.181E-01 0.244E+01   -.235E-01 0.229E-01 -.904E-01
   -.228E+01 -.157E+02 -.255E+04   0.273E+01 0.156E+02 0.255E+04   -.566E+00 0.456E+00 0.210E+01   -.467E-01 -.709E-01 -.107E+00
   0.228E+01 -.157E+02 -.255E+04   -.273E+01 0.156E+02 0.255E+04   0.566E+00 0.456E+00 0.210E+01   0.478E-01 -.703E-01 -.106E+00
   0.227E-04 -.716E+01 -.259E+04   0.105E-03 0.737E+01 0.258E+04   -.471E-12 -.717E-01 0.156E+01   -.617E-02 -.106E+00 -.161E+00
   -.131E-04 0.509E+01 -.771E+03   0.378E-04 -.497E+01 0.775E+03   -.122E-11 -.185E+00 -.273E+01   -.143E-03 0.143E-02 0.218E-01
   0.158E+03 0.296E+01 -.164E+04   -.186E+03 -.257E+01 0.166E+04   0.280E+02 -.385E+00 -.186E+02   0.158E-01 -.713E-02 0.630E-03
   -.158E+03 0.296E+01 -.164E+04   0.186E+03 -.257E+01 0.166E+04   -.280E+02 -.385E+00 -.186E+02   -.205E-01 -.707E-02 0.493E-03
   0.596E-03 0.948E+00 0.426E+02   0.284E-13 -.866E-13 -.455E-12   -.638E-11 -.972E+00 -.386E+02   -.101E-01 -.261E-01 -.400E+01

 POSITION                                       TOTAL-FORCE (eV/Angst)
      0.00000      0.00000      5.28219        -0.000000     -0.001713     -0.037324
      2.93046      0.00000      5.28219        -0.008728     -0.002859      0.022545
      5.86091      0.00000      5.28219         0.008728     -0.002859      0.022545
      1.46523      2.53785      5.28219        -0.009831     -0.007252      0.014864
      4.39568      2.53785      5.28219        -0.000000     -0.002369      0.003696
      7.32614      2.53785      5.28219         0.009831     -0.007252      0.014864
      2.93046      5.07570      5.28219         0.000491      0.017417      0.019517
      5.86091      5.07570      5.28219        -0.000491      0.017417      0.019517
      8.79137      5.07570      5.28219         0.000000      0.004016      0.002899
      1.46523      0.84595      7.67490        -0.030614     -0.014667     -0.059576
      4.39568      0.84595      7.67490        -0.000000     -0.050719     -0.059267
      7.32614      0.84595      7.67490         0.030614     -0.014667     -0.059576
      2.93046      3.38380      7.67490        -0.049370      0.024906     -0.066835
      5.86091      3.38380      7.67490         0.049370      0.024906     -0.066835
      8.79137      3.38380      7.67490         0.000000      0.003965      0.031648
      4.39568      5.92165      7.67490         0.000000      0.045803     -0.058174
      7.32614      5.92165      7.67490         0.003966     -0.001728      0.038068
     10.25659      5.92165      7.67490        -0.003966     -0.001728      0.038068
      8.79137      1.69178     10.05827        -0.000000     -0.029689      0.058385
      2.92613      1.68940     10.03306        -0.192201     -0.084173     -0.174249
      5.86523      1.68940     10.03306         0.192201     -0.084173     -0.174249
     10.25456      4.23092     10.06776         0.045521     -0.012718      0.065528
      4.39568      4.23474     10.03306         0.000000      0.195362     -0.145423
      7.32817      4.23092     10.06776        -0.045521     -0.012718      0.065528
     11.72193      6.76766     10.05827        -0.004020      0.014009      0.052771
      5.86080      6.76766     10.05827         0.004020      0.014009      0.052771
      8.79137      6.76525     10.06776         0.000000      0.037314      0.069960
      0.00000      0.00000     12.45716        -0.000000     -0.019590     -0.029934
      2.94326      0.02074     12.49530        -0.157776     -0.297818     -0.193045
      5.84810      0.02074     12.49530         0.157776     -0.297818     -0.193045
      1.48959      2.53857     12.49530        -0.559121     -0.028781     -0.281738
      7.30177      2.53857     12.49530         0.559121     -0.028781     -0.281738
      2.94201      5.05424     12.49530        -0.158169      0.323670     -0.198377
      5.84935      5.05424     12.49530         0.158169      0.323670     -0.198377
      8.79137      5.07570     12.47846         0.000000      0.035961     -0.033506
      4.39568      2.53785     12.33403        -0.000000     -0.069477      1.715445
      3.63861      2.59805     14.17425         0.018868     -0.004439      0.001325
      5.15276      2.59805     14.17425        -0.018868     -0.004439      0.001325
    total drift:                               -0.009510     -0.050604      0.006201

  FREE ENERGIE OF THE ION-ELECTRON SYSTEM (eV)
  free  energy   TOTEN  =      -111.23129697 eV

  energy  without entropy=     -111.23129697  energy(sigma->0) =     -111.23129697

 stress matrix after NEB project (eV)
     -4.39025     -0.00000     -0.00000
     -0.00000     -4.62414     -0.01270
     -0.00000     -0.01270     -0.51343
  FORCES: max atom, RMS     0.019428    0.004457
  FORCE total and by dimension    0.027476    0.018868
  Stress total and by dimension    6.396947    4.624143
|           W    W    AA    RRRRR   N    N  II  N    N   GGGG   !!!           |
|           W    W   A  A   R    R  NN   N  II  NN   N  G    G  !!!           |
|           W    W  A    A  R    R  N N  N  II  N N  N  G       !!!           |
|           W WW W  AAAAAA  RRRRR   N  N N  II  N  N N  G  GGG   !            |
|           WW  WW  A    A  R   R   N   NN  II  N   NN  G    G                |
|           W    W  A    A  R    R  N    N  II  N    N   GGGG   !!!           |
|     Tetrahedron method does not include variations of the Fermi             |
|     occupations, so forces and stress will be inaccurate. We suggest        |
|     using a different smearing scheme ISMEAR = 1 or 2 for metals in         |
|     relaxations.                                                            |

 total charge

# of ion       s       p       d       tot
    1        0.419   0.202   9.175   9.797
    2        0.414   0.204   9.176   9.794
    3        0.414   0.204   9.176   9.794
    4        0.414   0.204   9.177   9.795
    5        0.416   0.202   9.177   9.795
    6        0.414   0.204   9.177   9.795
    7        0.414   0.204   9.177   9.794
    8        0.414   0.204   9.177   9.794
    9        0.414   0.203   9.177   9.795
   10        0.408   0.269   9.164   9.841
   11        0.403   0.271   9.166   9.840
   12        0.408   0.269   9.164   9.841
   13        0.404   0.270   9.166   9.840
   14        0.404   0.270   9.166   9.840
   15        0.402   0.269   9.164   9.835
   16        0.408   0.270   9.162   9.840
   17        0.402   0.270   9.163   9.835
   18        0.402   0.270   9.163   9.835
   19        0.400   0.266   9.167   9.832
   20        0.436   0.302   9.137   9.875
   21        0.436   0.302   9.137   9.875
   22        0.396   0.272   9.163   9.831
   23        0.437   0.300   9.138   9.875
   24        0.396   0.272   9.163   9.831
   25        0.405   0.265   9.166   9.835
   26        0.405   0.265   9.166   9.835
   27        0.397   0.271   9.164   9.832
   28        0.415   0.203   9.173   9.791
   29        0.437   0.217   9.161   9.815
   30        0.437   0.217   9.161   9.815
   31        0.438   0.205   9.171   9.815
   32        0.438   0.205   9.171   9.815
   33        0.433   0.216   9.164   9.813
   34        0.433   0.216   9.164   9.813
   35        0.416   0.202   9.172   9.791
   36        0.587   0.644   2.183   3.414
   37        1.611   3.250   0.000   4.860
   38        1.611   3.250   0.000   4.860
tot         18.339  15.599 322.987 356.925

 BZINTS: Fermi energy:    0.305357;  401.000000 electrons
         Band energy:-0.161068E+04;  BLOECHL correction:   -0.066169