 vasp.6.2.0 18Jan21 (build Jun 12 2021 23:27:24) complex

 executed on             LinuxIFC date 2022.05.27  05:12:12

 INCAR:
   ISMEAR = -5
   SIGMA = 0.1
   ISPIN = 1
   EDIFF = 1.d-5
   EDIFFG = -0.01
   NSW = 0
   NELM = 150
   ENCUT = 500
   ISIF = 2
   IBRION = 2
   LREAL = Auto
   ALGO = Fast
   ICHARG = 11
   LORBIT = 10
   LCHARG = .F.
   LWAVE = .F.

 POTCAR:    PAW_PBE Au 04Oct2007
 POTCAR:    PAW_PBE Pd 04Jan2005
 POTCAR:    PAW_PBE H 15Jun2001
|           W    W    AA    RRRRR   N    N  II  N    N   GGGG   !!!           |
|           W    W   A  A   R    R  NN   N  II  NN   N  G    G  !!!           |
|           W    W  A    A  R    R  N N  N  II  N N  N  G       !!!           |
|           W WW W  AAAAAA  RRRRR   N  N N  II  N  N N  G  GGG   !            |
|           WW  WW  A    A  R   R   N   NN  II  N   NN  G    G                |
|           W    W  A    A  R    R  N    N  II  N    N   GGGG   !!!           |
|     For optimal performance we recommend to set                             |
|       NCORE = 2 up to number-of-cores-per-socket                            |
|     This setting can greatly improve the performance of VASP for DFT.       |
|     The default, NCORE=1 might be grossly inefficient on modern             |
|     multi-core architectures or massively parallel machines. Do your        |
|     Unfortunately you need to use the default for GW and RPA                |
|     calculations (for HF NCORE is supported but not extensively tested      |
|     yet).                                                                   |

 POTCAR:    PAW_PBE Au 04Oct2007
   VRHFIN =Au: s1d10

   TITEL  = PAW_PBE Au 04Oct2007
   POMASS =  196.966; ZVAL   =   11.000    mass and valenz
   ENMAX  =  229.943; ENMIN  =  172.457 eV

 POTCAR:    PAW_PBE Pd 04Jan2005
   VRHFIN =Pd : s1 d9

   TITEL  = PAW_PBE Pd 04Jan2005
   POMASS =  106.420; ZVAL   =   10.000    mass and valenz
   ENMAX  =  250.925; ENMIN  =  188.194 eV

 POTCAR:    PAW_PBE H 15Jun2001
   VRHFIN =H: ultrasoft test

   TITEL  = PAW_PBE H 15Jun2001
   POMASS =    1.000; ZVAL   =    1.000    mass and valenz
   ENMAX  =  250.000; ENMIN  =  200.000 eV

 Optimization of the real space projectors (new method)

 maximal supplied QI-value         = 15.12
 optimisation between [QCUT,QGAM] = [ 11.34, 22.83] = [ 36.00,145.93] Ry
 Optimized for a Real-space Cutoff    1.39 Angstroem

   l    n(q)    QCUT    max X(q) W(low)/X(q) W(high)/X(q)  e(spline)
   2      9    11.338    60.898    0.39E-03    0.42E-03    0.21E-06
   2      9    11.338    58.894    0.40E-03    0.42E-03    0.22E-06
   0      9    11.338   109.617    0.13E-03    0.20E-04    0.13E-06
   0      9    11.338    75.026    0.13E-03    0.20E-04    0.13E-06
   1      9    11.338    16.344    0.33E-04    0.24E-03    0.18E-06
   1      9    11.338    10.160    0.26E-04    0.19E-03    0.15E-06
 Optimization of the real space projectors (new method)

[...]

   l    n(q)    QCUT    max X(q) W(low)/X(q) W(high)/X(q)  e(spline)
   2      9    11.346    59.108    0.74E-04    0.81E-04    0.26E-06
   2      9    11.346    58.101    0.74E-04    0.83E-04    0.27E-06
   0     10    11.346   102.235    0.26E-04    0.31E-04    0.16E-06
   0     10    11.346    58.388    0.23E-04    0.29E-04    0.15E-06
   1     10    11.346    22.191    0.23E-03    0.26E-03    0.14E-06
   1     10    11.346    15.590    0.19E-03    0.22E-03    0.12E-06
 Optimization of the real space projectors (new method)

 maximal supplied QI-value         = 34.20
 optimisation between [QCUT,QGAM] = [ 11.29, 22.57] = [ 35.68,142.71] Ry
 Optimized for a Real-space Cutoff    1.16 Angstroem

   l    n(q)    QCUT    max X(q) W(low)/X(q) W(high)/X(q)  e(spline)
   0      8    11.287    19.460    0.40E-03    0.73E-03    0.16E-06
   0      8    11.287    12.209    0.38E-03    0.70E-03    0.15E-06
   1      7    11.287     4.655    0.22E-03    0.25E-04    0.22E-06
  PAW_PBE Au 04Oct2007                  :
  PAW_PBE Pd 04Jan2005                  :
  PAW_PBE H 15Jun2001                   :

 POSCAR: Au-Pd-H2
  positions in direct lattice
  velocities in cartesian coordinates
 exchange correlation table for  LEXCH =        8
   RHO(1)=    0.500       N(1)  =     2000
   RHO(2)=  100.500       N(2)  =     4000

 VTST: version 3.2, (02/03/18)

 CHAIN: initializing optimizer

 OPT: Using VASP Conjugate-Gradient optimizer
 CHAIN: Read ICHAIN            0

 POSCAR: Au-Pd-H2
  positions in direct lattice
  velocities in cartesian coordinates

 ion  position               nearest neighbor table
   1  0.000  0.000  0.238-  16 2.94  12 2.94   6 2.94   8 2.94   7 2.94   3 2.94  10 2.94   4 2.94
                             2 2.94
   2  0.333  0.000  0.238-   9 2.94  11 2.94  17 2.94  10 2.94   8 2.94   4 2.94   5 2.94   1 2.94
                             3 2.94
   3  0.667  0.000  0.238-   7 2.94  18 2.94  12 2.94   1 2.94  11 2.94   5 2.94   6 2.94   9 2.94
                             2 2.94
   4  0.000  0.333  0.238-  10 2.94   6 2.94   5 2.94  13 2.94   2 2.94  15 2.94   9 2.94   1 2.94
                             7 2.94
   5  0.333  0.333  0.238-  13 2.94   7 2.94  11 2.94   4 2.94   2 2.94  14 2.94   3 2.94   8 2.94
                             6 2.94
   6  0.667  0.333  0.238-  15 2.94  14 2.94   1 2.94  12 2.94   4 2.94   9 2.94   8 2.94   3 2.94
                             5 2.94
   7  0.000  0.667  0.238-  18 2.94   3 2.94  16 2.94   5 2.94   1 2.94  13 2.94   8 2.94   4 2.94
                             9 2.94
   8  0.333  0.667  0.238-   9 2.94  17 2.94   1 2.94   2 2.94  14 2.94  16 2.94   6 2.94   7 2.94
                             5 2.94
   9  0.667  0.667  0.238-   2 2.94   8 2.94  17 2.94   6 2.94  15 2.94   4 2.94   3 2.94  18 2.94
                             7 2.94
  10  0.111  0.111  0.346-  26 2.92  19 2.92  20 2.93  11 2.94  17 2.94   2 2.94   4 2.94   1 2.94
                            12 2.94  16 2.94  13 2.94  15 2.94
  11  0.444  0.111  0.346-  27 2.93  20 2.93  21 2.93  13 2.94   2 2.94  10 2.94  17 2.94   5 2.94
                             3 2.94  18 2.94  14 2.94  12 2.94
  12  0.778  0.111  0.346-  25 2.92  19 2.92  21 2.93  16 2.94  18 2.94   1 2.94  14 2.94  15 2.94
                             3 2.94   6 2.94  10 2.94  11 2.94
  13  0.111  0.444  0.346-  22 2.93  23 2.93  20 2.93   5 2.94  18 2.94  11 2.94   7 2.94   4 2.94
                            16 2.94  10 2.94  14 2.94  15 2.94
  14  0.444  0.444  0.346-  24 2.93  21 2.93  23 2.93  15 2.94   6 2.94  12 2.94   8 2.94  17 2.94
                             5 2.94  16 2.94  13 2.94  11 2.94
  15  0.778  0.444  0.346-  19 2.93  24 2.93  22 2.93  14 2.94   6 2.94  17 2.94  12 2.94   9 2.94
                             4 2.94  10 2.94  13 2.94  18 2.94
  16  0.111  0.778  0.346-  25 2.92  26 2.92  23 2.93  18 2.94  12 2.94   7 2.94   1 2.94   8 2.94
                            13 2.94  10 2.94  14 2.94  17 2.94
  17  0.444  0.778  0.346-  26 2.93  27 2.93  24 2.93   9 2.94  15 2.94   2 2.94  10 2.94  11 2.94
                             8 2.94  14 2.94  16 2.94  18 2.94
  18  0.778  0.778  0.346-  25 2.93  22 2.93  27 2.93  16 2.94   7 2.94  13 2.94  12 2.94   3 2.94
                            11 2.94   9 2.94  15 2.94  17 2.94
  19  0.889  0.222  0.453-  10 2.92  12 2.92  15 2.93  26 2.93  25 2.93  21 2.94  20 2.94  24 2.94
                            22 2.94  28 2.96  32 2.97  31 2.97
  20  0.222  0.222  0.454-  36 2.83  10 2.93  11 2.93  13 2.93  26 2.94  19 2.94  27 2.94  22 2.94
                            23 2.94  21 2.94  29 2.95  31 2.95
  21  0.556  0.222  0.454-  36 2.83  12 2.93  14 2.93  11 2.93  25 2.94  19 2.94  24 2.94  27 2.94
                            20 2.94  23 2.94  30 2.95  32 2.95
  22  0.889  0.556  0.454-  18 2.93  15 2.93  13 2.93  24 2.94  27 2.94  23 2.94  20 2.94  25 2.94
                            19 2.94  33 2.96  31 2.96  35 2.96
  23  0.222  0.556  0.454-  36 2.83  16 2.93  13 2.93  14 2.93  25 2.94  26 2.94  22 2.94  24 2.94
                            20 2.94  21 2.94  33 2.95  34 2.95
  24  0.556  0.556  0.454-  15 2.93  17 2.93  14 2.93  27 2.94  22 2.94  21 2.94  23 2.94  26 2.94
                            19 2.94  32 2.96  34 2.96  35 2.96
  25  0.889  0.889  0.453-  16 2.92  12 2.92  18 2.93  19 2.93  26 2.93  23 2.94  21 2.94  22 2.94
                            27 2.94  28 2.96  33 2.97  30 2.97
  26  0.222  0.889  0.453-  10 2.92  16 2.92  17 2.93  19 2.93  25 2.93  20 2.94  23 2.94  27 2.94
                            24 2.94  28 2.96  29 2.97  34 2.97
  27  0.556  0.889  0.454-  17 2.93  18 2.93  11 2.93  24 2.94  22 2.94  20 2.94  21 2.94  26 2.94
                            25 2.94  29 2.96  30 2.96  35 2.96
  28  0.000  0.000  0.563-  34 2.94  32 2.94  33 2.94  30 2.94  31 2.94  29 2.94  25 2.96  19 2.96
                            26 2.96
  29  0.333  0.001  0.563-  30 2.93  31 2.93  36 2.93  35 2.94  28 2.94  20 2.95  34 2.95  27 2.96
                            26 2.97
  30  0.666  0.001  0.563-  29 2.93  32 2.93  36 2.93  35 2.94  28 2.94  21 2.95  33 2.95  27 2.96
                            25 2.97
  31  0.001  0.333  0.563-  33 2.93  29 2.93  36 2.93  35 2.94  28 2.94  20 2.95  32 2.95  22 2.96
                            19 2.97
  32  0.666  0.333  0.563-  34 2.93  30 2.93  36 2.93  35 2.94  28 2.94  21 2.95  31 2.95  24 2.96
                            19 2.97
  33  0.001  0.666  0.563-  31 2.93  34 2.93  36 2.93  35 2.94  28 2.94  23 2.95  30 2.95  22 2.96
                            25 2.97
  34  0.333  0.666  0.563-  32 2.93  33 2.93  36 2.93  35 2.94  28 2.94  23 2.95  29 2.95  24 2.96
                            26 2.97
  35  0.667  0.667  0.563-  29 2.94  34 2.94  32 2.94  31 2.94  30 2.94  33 2.94  24 2.96  27 2.96
                            22 2.96
  36  0.333  0.333  0.556-  38 1.83  37 1.83  20 2.83  23 2.83  21 2.83  33 2.93  31 2.93  29 2.93
                            30 2.93  34 2.93  32 2.93
  37  0.287  0.333  0.636-  38 0.82  36 1.83
  38  0.380  0.333  0.636-  37 0.82  36 1.83

  LATTYP: Found a hexagonal cell.
 ALAT       =     8.8135128021
 C/A-ratio  =     2.5184286595

  Lattice vectors:

 A1 = (  -4.4067569092,  -7.6327256898,   0.0000000000)
 A2 = (   8.8135128021,   0.0000000000,   0.0000000000)
 A3 = (   0.0000000000,   0.0000000000,  22.1962032318)

Analysis of symmetry for initial positions (statically):
 Subroutine PRICEL returns:
 Original cell was already a primitive cell.

 Routine SETGRP: Setting up the symmetry group for a
 hexagonal supercell.

 Subroutine GETGRP returns: Found  2 space group operations
 (whereof  2 operations were pure point group operations)
 out of a pool of 24 trial point group operations.

The static configuration has the point symmetry C_1h.

Analysis of symmetry for dynamics (positions and initial velocities):
 Subroutine PRICEL returns:
 Original cell was already a primitive cell.

[...]

The dynamic configuration has the point symmetry C_1h.

Analysis of constrained symmetry for selective dynamics:
 Subroutine PRICEL returns:
 Original cell was already a primitive cell.

 Routine SETGRP: Setting up the symmetry group for a
 hexagonal supercell.

 Subroutine GETGRP returns: Found  2 space group operations
[...]
     33      -4.5964      2.00000
     34      -4.5898      2.00000
     35      -4.5437      2.00000
     36      -4.4557      2.00000
     37      -4.4303      2.00000
     38      -4.3958      2.00000
     39      -4.3640      2.00000
     40      -4.3078      2.00000
     41      -4.2468      2.00000
     42      -4.2270      2.00000
     43      -4.1815      2.00000
     44      -4.1633      2.00000
     45      -4.1395      2.00000
     46      -4.1240      2.00000
     47      -4.0313      2.00000
     48      -3.9937      2.00000
     49      -3.9702      2.00000
     50      -3.9678      2.00000
     51      -3.9571      2.00000
     52      -3.9472      2.00000
     53      -3.9397      2.00000
     54      -3.8966      2.00000
     55      -3.8550      2.00000
     56      -3.8273      2.00000
     57      -3.7985      2.00000
     58      -3.7917      2.00000
     59      -3.7849      2.00000
     60      -3.7821      2.00000
[...]
    238       6.6711      0.00000
    239       6.6824      0.00000
    240       6.8243      0.00000
    241       6.8918      0.00000
    242       6.9426      0.00000
    243       7.0799      0.00000
    244       7.2451      0.00000
    245       7.3526      0.00000
    246       7.5114      0.00000
    247       7.5315      0.00000
    248       7.5985      0.00000
    249       7.6915      0.00000
    250       7.7498      0.00000
    251       7.8424      0.00000
    252       7.9062      0.00000

 soft charge-density along one line, spin component           1
         0         1         2         3         4         5         6         7         8         9
 total charge-density along one line

------------------------ aborting loop because EDIFF is reached ----------------------------------------

 total charge

# of ion       s       p       d       tot
    1        0.541   0.241   8.766   9.548
    2        0.545   0.240   8.765   9.550
    3        0.545   0.240   8.765   9.550
    4        0.545   0.240   8.766   9.551
    5        0.540   0.241   8.765   9.546
    6        0.545   0.240   8.766   9.551
    7        0.545   0.240   8.766   9.551
    8        0.545   0.240   8.766   9.551
    9        0.542   0.240   8.768   9.549
   10        0.518   0.309   8.771   9.599
   11        0.523   0.304   8.780   9.606
   12        0.518   0.309   8.771   9.599
   13        0.522   0.304   8.779   9.606
   14        0.522   0.304   8.779   9.606
   15        0.515   0.308   8.777   9.599
   16        0.518   0.309   8.771   9.598
   17        0.515   0.308   8.777   9.599
   18        0.515   0.308   8.777   9.599
   19        0.519   0.302   8.778   9.599
   20        0.526   0.314   8.766   9.606
   21        0.526   0.314   8.766   9.606
   22        0.513   0.305   8.771   9.590
   23        0.526   0.314   8.766   9.606
   24        0.513   0.305   8.771   9.590
   25        0.519   0.302   8.779   9.599
   26        0.519   0.302   8.779   9.599
   27        0.514   0.305   8.771   9.590
   28        0.544   0.234   8.765   9.543
   29        0.544   0.232   8.773   9.549
   30        0.544   0.232   8.773   9.549
   31        0.544   0.234   8.772   9.550
   32        0.544   0.234   8.772   9.550
   33        0.544   0.232   8.773   9.549
   34        0.544   0.232   8.773   9.549
   35        0.544   0.234   8.767   9.545
   36        0.385   0.419   8.540   9.344
   37        0.555   0.031   0.000   0.586
   38        0.555   0.031   0.000   0.586
tot         20.084  10.027 315.528 345.638

  FORCE on cell =-STRESS in cart. coord.  units (eV):
  Direction    XX          YY          ZZ          XY          YZ          ZX
  Alpha Z  1004.01463  1004.01463  1004.01463
  Ewald  119736.11302119713.79878************    -0.00034    -0.00652    -0.00015
  Hartree128496.33710128492.28723************    -0.00000    -0.00733    -0.00004
  E(xc)   -1786.29155 -1786.58398 -1792.88392     0.00000    -0.00113    -0.00000
  Local  ************************260889.84056     0.00189     0.01311     0.00009
  n-local   -68.25333   -68.07470   -48.38416     4.12824    -0.00801     0.18060
  augment  2442.74330  2443.44164  2454.53632    -0.00141     0.00134     0.00001
  Kinetic  5502.29902  5509.09611  5548.01399     0.84996    -0.00276     0.12181
  Fock        0.00000     0.00000     0.00000     0.00000     0.00000     0.00000
  Total     -18.11399   -18.12605     3.14368    -0.00000    -0.01131    -0.00000
  in kB     -19.43647   -19.44941     3.37320    -0.00000    -0.01214    -0.00000

 VOLUME and BASIS-vectors are now :
  energy-cutoff  :      500.00
  volume of cell :     1493.16
      direct lattice vectors                 reciprocal lattice vectors
     8.813512802  0.000000000  0.000000000     0.113462137 -0.065507406  0.000000000
     4.406756909  7.632725690  0.000000000     0.000000000  0.131014796  0.000000000
     0.000000000  0.000000000 22.196203232     0.000000000  0.000000000  0.045052750

  length of vectors
     8.813512802  8.813512802 22.196203232     0.131014796  0.131014796  0.045052750

 FORCES acting on ions
    electron-ion (+dipol)            ewald-force                    non-local-force                 convergence-correction
   -.199E-04 0.540E-02 0.249E+04   0.518E-04 -.152E-02 -.249E+04   0.260E-10 0.391E-03 -.877E+00   -.254E-03 -.350E-02 -.773E+00
   -.125E+00 0.929E-01 0.249E+04   0.954E-01 -.872E-01 -.249E+04   0.143E-01 -.674E-02 -.348E+00   0.112E-01 0.687E-02 -.826E+00
   0.125E+00 0.929E-01 0.249E+04   -.954E-01 -.872E-01 -.249E+04   -.143E-01 -.674E-02 -.348E+00   -.109E-01 0.870E-02 -.826E+00
   0.135E-01 -.154E+00 0.249E+04   -.266E-01 0.126E+00 -.249E+04   0.174E-02 0.147E-01 -.350E+00   0.139E-01 0.548E-02 -.830E+00
   0.720E-05 -.865E-03 0.249E+04   0.952E-04 0.559E-04 -.249E+04   -.717E-10 -.108E-02 -.394E+00   0.420E-02 0.317E-02 -.789E+00
   -.136E-01 -.154E+00 0.249E+04   0.265E-01 0.125E+00 -.249E+04   -.174E-02 0.147E-01 -.350E+00   -.153E-01 0.633E-02 -.829E+00
   0.140E+00 0.581E-01 0.249E+04   -.122E+00 -.383E-01 -.249E+04   -.133E-01 -.804E-02 -.350E+00   0.453E-02 -.112E-01 -.829E+00
   -.140E+00 0.581E-01 0.249E+04   0.122E+00 -.383E-01 -.249E+04   0.133E-01 -.804E-02 -.350E+00   -.278E-02 -.122E-01 -.829E+00
   0.194E-04 0.629E-02 0.249E+04   0.166E-03 0.149E-02 -.248E+04   -.299E-09 -.449E-02 -.546E+00   -.449E-02 -.376E-02 -.840E+00
   -.251E+00 -.143E+00 0.838E+03   0.616E+00 0.343E+00 -.837E+03   -.171E+00 -.930E-01 -.548E+00   -.120E+00 -.649E-01 -.368E+00
   0.143E-04 0.797E+00 0.837E+03   0.149E-03 -.795E+00 -.837E+03   0.372E-09 0.559E-02 -.417E+00   0.410E-02 -.320E-01 -.342E+00
   0.251E+00 -.143E+00 0.838E+03   -.616E+00 0.343E+00 -.837E+03   0.171E+00 -.930E-01 -.548E+00   0.118E+00 -.645E-01 -.369E+00
   0.666E+00 -.392E+00 0.837E+03   -.677E+00 0.400E+00 -.837E+03   0.144E-01 -.127E-01 -.416E+00   -.205E-01 0.180E-01 -.343E+00
   -.666E+00 -.392E+00 0.837E+03   0.677E+00 0.400E+00 -.837E+03   -.144E-01 -.127E-01 -.416E+00   0.274E-01 0.167E-01 -.345E+00
   0.313E-04 -.107E+01 0.836E+03   0.236E-03 0.104E+01 -.836E+03   0.322E-09 0.484E-02 -.362E+00   -.182E-02 0.349E-01 -.341E+00
   -.212E-04 0.290E+00 0.838E+03   0.162E-03 -.708E+00 -.837E+03   0.133E-07 0.199E+00 -.544E+00   -.637E-03 0.133E+00 -.372E+00
   -.915E+00 0.520E+00 0.836E+03   0.890E+00 -.510E+00 -.836E+03   0.190E-03 0.264E-02 -.363E+00   0.297E-01 -.170E-01 -.342E+00
   0.915E+00 0.520E+00 0.836E+03   -.890E+00 -.510E+00 -.836E+03   -.190E-03 0.264E-02 -.363E+00   -.289E-01 -.153E-01 -.340E+00
   -.399E-04 -.186E+01 -.831E+03   0.533E-04 0.177E+01 0.830E+03   0.411E-08 0.617E-01 0.689E+00   0.727E-03 0.187E-01 0.360E+00
   0.791E+01 0.467E+01 -.823E+03   -.751E+01 -.442E+01 0.823E+03   -.436E+00 -.261E+00 -.510E+00   0.599E-01 0.256E-01 0.529E+00
   -.791E+01 0.467E+01 -.823E+03   0.751E+01 -.442E+01 0.823E+03   0.436E+00 -.261E+00 -.510E+00   -.660E-01 0.238E-01 0.528E+00
   0.321E+01 -.195E+01 -.832E+03   -.331E+01 0.199E+01 0.831E+03   0.173E+00 -.939E-01 0.607E+00   -.525E-01 0.420E-01 0.396E+00
   -.138E-04 -.922E+01 -.823E+03   0.144E-03 0.879E+01 0.823E+03   0.326E-07 0.489E+00 -.492E+00   -.509E-02 -.764E-01 0.535E+00
   -.321E+01 -.195E+01 -.832E+03   0.331E+01 0.199E+01 0.831E+03   -.173E+00 -.939E-01 0.607E+00   0.606E-01 0.417E-01 0.396E+00
   0.166E+01 0.992E+00 -.831E+03   -.157E+01 -.940E+00 0.830E+03   -.535E-01 -.359E-01 0.708E+00   -.258E-01 -.125E-01 0.372E+00
   -.166E+01 0.992E+00 -.831E+03   0.157E+01 -.940E+00 0.830E+03   0.535E-01 -.359E-01 0.708E+00   0.249E-01 -.108E-01 0.372E+00
   0.497E-05 0.371E+01 -.832E+03   0.201E-03 -.382E+01 0.831E+03   0.133E-07 0.199E+00 0.606E+00   0.379E-02 -.579E-01 0.406E+00
   -.897E-05 0.319E+00 -.247E+04   0.262E-04 -.306E+00 0.247E+04   -.542E-09 -.814E-02 0.285E+00   -.605E-04 -.936E-02 0.666E+00
   0.452E+01 0.698E+01 -.247E+04   -.457E+01 -.706E+01 0.247E+04   -.124E+00 -.167E+00 0.593E+00   0.102E+00 0.896E-01 0.668E+00
   -.452E+01 0.698E+01 -.247E+04   0.457E+01 -.706E+01 0.247E+04   0.124E+00 -.167E+00 0.593E+00   -.102E+00 0.904E-01 0.667E+00
   0.897E+01 0.845E+00 -.247E+04   -.906E+01 -.860E+00 0.247E+04   -.213E+00 -.698E-02 0.556E+00   0.136E+00 0.334E-01 0.672E+00
   -.897E+01 0.845E+00 -.247E+04   0.906E+01 -.860E+00 0.247E+04   0.213E+00 -.698E-02 0.556E+00   -.136E+00 0.340E-01 0.673E+00
   0.303E+01 -.781E+01 -.247E+04   -.305E+01 0.791E+01 0.247E+04   -.110E+00 0.172E+00 0.596E+00   0.390E-01 -.124E+00 0.673E+00
   -.303E+01 -.781E+01 -.247E+04   0.305E+01 0.791E+01 0.247E+04   0.110E+00 0.172E+00 0.596E+00   -.379E-01 -.125E+00 0.674E+00
   0.275E-04 -.319E+00 -.247E+04   0.150E-03 0.298E+00 0.247E+04   0.770E-09 0.116E-01 0.332E+00   -.391E-02 0.108E-01 0.629E+00
   -.619E-05 -.525E-01 -.213E+04   0.992E-04 0.473E-01 0.213E+04   -.155E-10 -.233E-03 0.927E+00   0.368E-02 0.266E-02 0.630E+00
   0.201E+02 0.469E-02 -.279E+03   -.241E+02 -.577E-02 0.280E+03   0.394E+01 0.377E-03 -.808E+00   0.198E-01 0.816E-04 -.247E-02
   -.201E+02 0.470E-02 -.279E+03   0.241E+02 -.577E-02 0.280E+03   -.394E+01 0.377E-03 -.808E+00   -.198E-01 0.839E-04 -.254E-02
   -.754E-03 0.265E-01 0.368E+01   -.178E-13 0.331E-14 -.115E-10   -.216E-08 -.325E-01 -.206E+01   0.918E-02 0.601E-02 -.693E+00

 POSITION                                       TOTAL-FORCE (eV/Angst)
      0.00000      0.00000      5.28038         0.000000      0.000768     -0.023482
      2.93784      0.00000      5.28038        -0.004039      0.006741     -0.061043
      5.87568      0.00000      5.28038         0.004039      0.006741     -0.061043
      1.46892      2.54424      5.28038         0.003330     -0.007419     -0.060214
      4.40676      2.54424      5.28038         0.000000      0.001282     -0.073076
      7.34459      2.54424      5.28038        -0.003330     -0.007419     -0.060214
      2.93784      5.08848      5.28038         0.008415      0.000034     -0.059530
      5.87568      5.08848      5.28038        -0.008415      0.000034     -0.059530
      8.81351      5.08848      5.28038        -0.000000     -0.000468     -0.053386
      1.46892      0.84808      7.67911         0.074351      0.042597      0.083104
      4.40676      0.84808      7.67911        -0.000000     -0.024437      0.052926
      7.34459      0.84808      7.67911        -0.074351      0.042597      0.083104
      2.93784      3.39232      7.67911        -0.020296      0.012364      0.053868
      5.87568      3.39232      7.67911         0.020296      0.012364      0.053868
      8.81351      3.39232      7.67911         0.000000      0.008121      0.105516
      4.40676      5.93656      7.67911        -0.000000     -0.085356      0.083173
      7.34459      5.93656      7.67911         0.004282     -0.003543      0.105963
     10.28243      5.93656      7.67911        -0.004282     -0.003543      0.105963
      8.81351      1.69299     10.06281        -0.000000     -0.009908     -0.005196
      2.93673      1.69552     10.07074         0.020503      0.012921     -0.052346
      5.87678      1.69552     10.07074        -0.020503      0.012921     -0.052346
     10.28200      4.24065     10.07064         0.019856     -0.012403      0.003011
      4.40676      4.24168     10.07074        -0.000000     -0.023075     -0.056472
      7.34503      4.24065     10.07064        -0.019856     -0.012403      0.003011
     11.75410      6.78623     10.06281         0.010139      0.003771     -0.006101
      5.87293      6.78623     10.06281        -0.010139      0.003771     -0.006101
      8.81351      6.78414     10.07064         0.000000      0.025590      0.007208
      0.00000      0.00000     12.49359        -0.000000     -0.003631     -0.016318
      2.94266      0.00661     12.49157        -0.077207     -0.157510     -0.080605
      5.87086      0.00661     12.49157         0.077207     -0.157510     -0.080605
      1.47706      2.54511     12.49157        -0.163246      0.012119     -0.064337
      7.33646      2.54511     12.49157         0.163246      0.012119     -0.064337
      2.94116      5.08100     12.49157        -0.098692      0.147389     -0.079632
      5.87236      5.08100     12.49157         0.098692      0.147389     -0.079632
      8.81351      5.08848     12.49778         0.000000      0.000991     -0.007508
      4.40676      2.54424     12.34091        -0.000000     -0.002768      0.428536
      3.99503      2.54318     14.12760        -0.008249     -0.000615     -0.003099
      4.81848      2.54318     14.12760         0.008249     -0.000615     -0.003099
    total drift:                                0.008426      0.000001      0.926109

  FREE ENERGIE OF THE ION-ELECTRON SYSTEM (eV)
  free  energy   TOTEN  =      -118.85516155 eV

  energy  without entropy=     -118.85516155  energy(sigma->0) =     -118.85516155

 stress matrix after NEB project (eV)
    -18.11399     -0.00000     -0.00000
     -0.00000    -18.12605     -0.01131
     -0.00000     -0.01131      3.14368
  FORCES: max atom, RMS     0.008834    0.002027
  FORCE total and by dimension    0.012493    0.008249
  Stress total and by dimension   25.817694   18.126049
|           W    W    AA    RRRRR   N    N  II  N    N   GGGG   !!!           |
|           W    W   A  A   R    R  NN   N  II  NN   N  G    G  !!!           |
|           W    W  A    A  R    R  N N  N  II  N N  N  G       !!!           |
|           W WW W  AAAAAA  RRRRR   N  N N  II  N  N N  G  GGG   !            |
|           WW  WW  A    A  R   R   N   NN  II  N   NN  G    G                |
|           W    W  A    A  R    R  N    N  II  N    N   GGGG   !!!           |
|     Tetrahedron method does not include variations of the Fermi             |
|     occupations, so forces and stress will be inaccurate. We suggest        |
|     using a different smearing scheme ISMEAR = 1 or 2 for metals in         |
|     relaxations.                                                            |

 total charge

# of ion       s       p       d       tot
    1        0.541   0.241   8.766   9.548
    2        0.545   0.240   8.765   9.550
    3        0.545   0.240   8.765   9.550
    4        0.545   0.240   8.766   9.551
    5        0.540   0.241   8.765   9.546
    6        0.545   0.240   8.766   9.551
    7        0.545   0.240   8.766   9.551
    8        0.545   0.240   8.766   9.551
    9        0.542   0.240   8.768   9.549
   10        0.518   0.309   8.771   9.599
   11        0.523   0.304   8.780   9.606
   12        0.518   0.309   8.771   9.599
   13        0.522   0.304   8.779   9.606
   14        0.522   0.304   8.779   9.606
   15        0.515   0.308   8.777   9.599
   16        0.518   0.309   8.771   9.598
   17        0.515   0.308   8.777   9.599
   18        0.515   0.308   8.777   9.599
   19        0.519   0.302   8.778   9.599
   20        0.526   0.314   8.766   9.606
   21        0.526   0.314   8.766   9.606
   22        0.513   0.305   8.771   9.590
   23        0.526   0.314   8.766   9.606
   24        0.513   0.305   8.771   9.590
   25        0.519   0.302   8.779   9.599
   26        0.519   0.302   8.779   9.599
   27        0.514   0.305   8.771   9.590
   28        0.544   0.234   8.765   9.543
   29        0.544   0.232   8.773   9.549
   30        0.544   0.232   8.773   9.549
   31        0.544   0.234   8.772   9.550
   32        0.544   0.234   8.772   9.550
   33        0.544   0.232   8.773   9.549
   34        0.544   0.232   8.773   9.549
   35        0.544   0.234   8.767   9.545
   36        0.385   0.419   8.540   9.344
   37        0.555   0.031   0.000   0.586
   38        0.555   0.031   0.000   0.586
tot         20.084  10.027 315.528 345.638

 BZINTS: Fermi energy:    0.792290;  397.000000 electrons
         Band energy:-0.114280E+04;  BLOECHL correction:   -0.086178