 vasp.6.2.0 18Jan21 (build Jun 12 2021 23:27:24) complex

 executed on             LinuxIFC date 2022.05.30  16:36:58

 INCAR:
   ISMEAR = -5
   SIGMA = 0.1
   ISPIN = 1
   EDIFF = 1.d-5
   EDIFFG = -0.01
   NSW = 0
   NELM = 150
   ENCUT = 500
   ISIF = 2
   IBRION = 2
   LREAL = Auto
   ALGO = Fast
   ICHARG = 11
   LORBIT = 10
   LCHARG = .F.
   LWAVE = .F.

 POTCAR:    PAW_PBE Au 04Oct2007
 POTCAR:    PAW_PBE Os 17Jan2003
 POTCAR:    PAW_PBE C 08Apr2002
 POTCAR:    PAW_PBE O 08Apr2002
 POTCAR:    PAW_PBE H 15Jun2001
|           W    W    AA    RRRRR   N    N  II  N    N   GGGG   !!!           |
|           W    W   A  A   R    R  NN   N  II  NN   N  G    G  !!!           |
|           W    W  A    A  R    R  N N  N  II  N N  N  G       !!!           |
|           W WW W  AAAAAA  RRRRR   N  N N  II  N  N N  G  GGG   !            |
|           WW  WW  A    A  R   R   N   NN  II  N   NN  G    G                |
|           W    W  A    A  R    R  N    N  II  N    N   GGGG   !!!           |
|     For optimal performance we recommend to set                             |
|       NCORE = 2 up to number-of-cores-per-socket                            |
|     This setting can greatly improve the performance of VASP for DFT.       |
|     The default, NCORE=1 might be grossly inefficient on modern             |
|     multi-core architectures or massively parallel machines. Do your        |
|     Unfortunately you need to use the default for GW and RPA                |
|     calculations (for HF NCORE is supported but not extensively tested      |
|     yet).                                                                   |

 POTCAR:    PAW_PBE Au 04Oct2007
   VRHFIN =Au: s1d10

   TITEL  = PAW_PBE Au 04Oct2007
   POMASS =  196.966; ZVAL   =   11.000    mass and valenz
   ENMAX  =  229.943; ENMIN  =  172.457 eV

 POTCAR:    PAW_PBE Os 17Jan2003
   VRHFIN =Os: 6s5d

   TITEL  = PAW_PBE Os 17Jan2003
   POMASS =  190.200; ZVAL   =    8.000    mass and valenz
   ENMAX  =  228.022; ENMIN  =  171.017 eV

 POTCAR:    PAW_PBE C 08Apr2002
   VRHFIN =C: s2p2

   TITEL  = PAW_PBE C 08Apr2002
   POMASS =   12.011; ZVAL   =    4.000    mass and valenz
   ENMAX  =  400.000; ENMIN  =  300.000 eV

 POTCAR:    PAW_PBE O 08Apr2002
   VRHFIN =O: s2p4

   TITEL  = PAW_PBE O 08Apr2002
   POMASS =   16.000; ZVAL   =    6.000    mass and valenz
   ENMAX  =  400.000; ENMIN  =  300.000 eV

 POTCAR:    PAW_PBE H 15Jun2001
   VRHFIN =H: ultrasoft test

   TITEL  = PAW_PBE H 15Jun2001
   POMASS =    1.000; ZVAL   =    1.000    mass and valenz
   ENMAX  =  250.000; ENMIN  =  200.000 eV

 Optimization of the real space projectors (new method)

 maximal supplied QI-value         = 15.12
 optimisation between [QCUT,QGAM] = [ 11.34, 22.83] = [ 36.00,145.93] Ry
 Optimized for a Real-space Cutoff    1.39 Angstroem

   l    n(q)    QCUT    max X(q) W(low)/X(q) W(high)/X(q)  e(spline)
   2      9    11.338    60.898    0.39E-03    0.42E-03    0.21E-06
   2      9    11.338    58.894    0.40E-03    0.42E-03    0.22E-06
   0      9    11.338   109.617    0.13E-03    0.20E-04    0.13E-06
   0      9    11.338    75.026    0.13E-03    0.20E-04    0.13E-06
   1      9    11.338    16.344    0.33E-04    0.24E-03    0.18E-06
   1      9    11.338    10.160    0.26E-04    0.19E-03    0.15E-06
 Optimization of the real space projectors (new method)

[...]

   l    n(q)    QCUT    max X(q) W(low)/X(q) W(high)/X(q)  e(spline)
   0      7    11.387    20.381    0.39E-03    0.13E-02    0.15E-06
   0      7    11.387    15.268    0.42E-03    0.14E-02    0.17E-06
   1      6    11.387     5.964    0.41E-03    0.11E-02    0.17E-06
   1      6    11.387     5.382    0.39E-03    0.87E-03    0.15E-06
 Optimization of the real space projectors (new method)

 maximal supplied QI-value         = 34.20
 optimisation between [QCUT,QGAM] = [ 11.29, 22.57] = [ 35.68,142.71] Ry
 Optimized for a Real-space Cutoff    1.16 Angstroem

   l    n(q)    QCUT    max X(q) W(low)/X(q) W(high)/X(q)  e(spline)
   0      8    11.287    19.460    0.40E-03    0.73E-03    0.16E-06
   0      8    11.287    12.209    0.38E-03    0.70E-03    0.15E-06
   1      7    11.287     4.655    0.22E-03    0.25E-04    0.22E-06
  PAW_PBE Au 04Oct2007                  :
  PAW_PBE Os 17Jan2003                  :
  PAW_PBE C 08Apr2002                   :
  PAW_PBE O 08Apr2002                   :
  PAW_PBE H 15Jun2001                   :

 POSCAR: Au-Os-COH
  positions in direct lattice
  velocities in cartesian coordinates
 exchange correlation table for  LEXCH =        8
   RHO(1)=    0.500       N(1)  =     2000
   RHO(2)=  100.500       N(2)  =     4000

 VTST: version 3.2, (02/03/18)

 CHAIN: initializing optimizer

 OPT: Using VASP Conjugate-Gradient optimizer
 CHAIN: Read ICHAIN            0

 POSCAR: Au-Os-COH
  positions in direct lattice
  velocities in cartesian coordinates

 ion  position               nearest neighbor table
   1  0.000  0.000  0.197-  16 2.94  12 2.94   6 2.94   8 2.94   7 2.94   3 2.94  10 2.94   4 2.94
                             2 2.94
   2  0.333  0.000  0.197-   9 2.94  11 2.94  17 2.94  10 2.94   8 2.94   4 2.94   5 2.94   1 2.94
                             3 2.94
   3  0.667  0.000  0.197-   7 2.94  18 2.94  12 2.94   1 2.94  11 2.94   5 2.94   6 2.94   9 2.94
                             2 2.94
   4  0.000  0.333  0.197-  10 2.94   6 2.94   5 2.94  13 2.94   2 2.94  15 2.94   9 2.94   1 2.94
                             7 2.94
   5  0.333  0.333  0.197-  13 2.94   7 2.94  11 2.94   4 2.94   2 2.94  14 2.94   3 2.94   8 2.94
                             6 2.94
   6  0.667  0.333  0.197-  15 2.94  14 2.94   1 2.94  12 2.94   4 2.94   9 2.94   8 2.94   3 2.94
                             5 2.94
   7  0.000  0.667  0.197-  18 2.94   3 2.94  16 2.94   5 2.94   1 2.94  13 2.94   8 2.94   4 2.94
                             9 2.94
   8  0.333  0.667  0.197-   9 2.94  17 2.94   1 2.94   2 2.94  14 2.94  16 2.94   6 2.94   7 2.94
                             5 2.94
   9  0.667  0.667  0.197-   2 2.94   8 2.94  17 2.94   6 2.94  15 2.94   4 2.94   3 2.94  18 2.94
                             7 2.94
  10  0.111  0.111  0.287-  20 2.90  11 2.94  17 2.94   2 2.94   4 2.94   1 2.94  12 2.94  16 2.94
                            13 2.94  15 2.94  26 2.95  19 2.95
  11  0.444  0.111  0.287-  20 2.91  21 2.91  27 2.94  13 2.94   2 2.94  10 2.94  17 2.94   5 2.94
                             3 2.94  18 2.94  14 2.94  12 2.94
  12  0.778  0.111  0.287-  21 2.90  16 2.94  18 2.94   1 2.94  14 2.94  15 2.94   3 2.94   6 2.94
                            10 2.94  11 2.94  25 2.95  19 2.95
  13  0.111  0.444  0.287-  23 2.91  20 2.91  22 2.94   5 2.94  18 2.94  11 2.94   7 2.94   4 2.94
                            16 2.94  10 2.94  14 2.94  15 2.94
  14  0.444  0.444  0.287-  21 2.91  23 2.91  24 2.94  15 2.94   6 2.94  12 2.94   8 2.94  17 2.94
                             5 2.94  16 2.94  13 2.94  11 2.94
  15  0.778  0.444  0.287-  24 2.92  22 2.92  14 2.94   6 2.94  17 2.94  12 2.94   9 2.94   4 2.94
                            10 2.94  13 2.94  18 2.94  19 2.95
  16  0.111  0.778  0.287-  23 2.90  18 2.94  12 2.94   7 2.94   1 2.94   8 2.94  13 2.94  10 2.94
                            14 2.94  17 2.94  25 2.95  26 2.95
  17  0.444  0.778  0.287-  27 2.92  24 2.92   9 2.94  15 2.94   2 2.94  10 2.94  11 2.94   8 2.94
                            14 2.94  16 2.94  18 2.94  26 2.95
  18  0.778  0.778  0.287-  22 2.92  27 2.92  16 2.94   7 2.94  13 2.94  12 2.94   3 2.94  11 2.94
                             9 2.94  15 2.94  17 2.94  25 2.95
  19  0.888  0.223  0.377-  24 2.93  22 2.93  21 2.93  20 2.93  28 2.95  15 2.95  26 2.95  25 2.95
                            10 2.95  12 2.95  32 2.98  31 2.98
  20  0.222  0.222  0.375-  36 2.77  10 2.90  11 2.91  13 2.91  26 2.93  19 2.93  23 2.95  21 2.95
                            27 2.96  22 2.96  29 2.96  31 2.96
  21  0.556  0.222  0.375-  36 2.77  12 2.90  14 2.91  11 2.91  25 2.93  19 2.93  20 2.95  23 2.95
                            27 2.96  24 2.96  30 2.96  32 2.96
  22  0.886  0.557  0.376-  24 2.90  27 2.90  18 2.92  15 2.92  25 2.93  19 2.93  13 2.94  35 2.95
                            23 2.96  20 2.96  33 2.98  31 2.98
  23  0.222  0.556  0.375-  36 2.77  16 2.90  13 2.91  14 2.91  25 2.93  26 2.93  20 2.95  21 2.95
                            22 2.96  24 2.96  33 2.96  34 2.96
  24  0.557  0.557  0.376-  27 2.90  22 2.90  15 2.92  17 2.92  26 2.93  19 2.93  14 2.94  35 2.95
                            21 2.96  23 2.96  32 2.98  34 2.98
  25  0.888  0.888  0.377-  22 2.93  27 2.93  23 2.93  21 2.93  28 2.95  18 2.95  19 2.95  26 2.95
                            16 2.95  12 2.95  33 2.98  30 2.98
  26  0.223  0.888  0.377-  27 2.93  24 2.93  20 2.93  23 2.93  28 2.95  17 2.95  19 2.95  25 2.95
                            10 2.95  16 2.95  29 2.98  34 2.98
  27  0.557  0.886  0.376-  24 2.90  22 2.90  17 2.92  18 2.92  26 2.93  25 2.93  11 2.94  35 2.95
                            20 2.96  21 2.96  29 2.98  30 2.98
  28  0.000  0.000  0.467-  25 2.95  19 2.95  26 2.95  34 2.98  32 2.98  33 2.98  30 2.98  31 2.98
                            29 2.98
  29  0.333  0.009  0.467-  31 2.86  30 2.86  36 2.88  20 2.96  28 2.98  35 2.98  27 2.98  26 2.98
                            34 3.09
  30  0.658  0.009  0.467-  32 2.86  29 2.86  36 2.88  21 2.96  28 2.98  35 2.98  27 2.98  25 2.98
                            33 3.09
  31  0.009  0.333  0.467-  29 2.86  33 2.86  36 2.88  20 2.96  28 2.98  35 2.98  22 2.98  19 2.98
                            32 3.09
  32  0.658  0.333  0.467-  30 2.86  34 2.86  36 2.88  21 2.96  28 2.98  35 2.98  24 2.98  19 2.98
                            31 3.09
  33  0.009  0.658  0.467-  34 2.86  31 2.86  36 2.88  23 2.96  28 2.98  35 2.98  22 2.98  25 2.98
                            30 3.09
  34  0.333  0.658  0.467-  33 2.86  32 2.86  36 2.88  23 2.96  28 2.98  35 2.98  24 2.98  26 2.98
                            29 3.09
  35  0.667  0.667  0.467-  24 2.95  27 2.95  22 2.95  29 2.98  34 2.98  32 2.98  31 2.98  30 2.98
                            33 2.98
  36  0.333  0.333  0.457-  37 1.77  20 2.77  23 2.77  21 2.77  33 2.88  31 2.88  29 2.88  30 2.88
                            34 2.88  32 2.88
  37  0.333  0.333  0.523-  38 1.25  36 1.77
  38  0.333  0.333  0.569-  39 0.96  37 1.25
  39  0.333  0.333  0.605-  38 0.96

  LATTYP: Found a hexagonal cell.
 ALAT       =     8.8135128021
 C/A-ratio  =     3.0356784858

  Lattice vectors:

 A1 = (  -4.4067569092,  -7.6327256898,   0.0000000000)
 A2 = (   8.8135128021,   0.0000000000,   0.0000000000)
 A3 = (   0.0000000000,   0.0000000000,  26.7549911976)

Analysis of symmetry for initial positions (statically):
 Subroutine PRICEL returns:
 Original cell was already a primitive cell.

 Routine SETGRP: Setting up the symmetry group for a
 hexagonal supercell.

 Subroutine GETGRP returns: Found  6 space group operations
 (whereof  6 operations were pure point group operations)
 out of a pool of 24 trial point group operations.

The static configuration has the point symmetry C_3v.

Analysis of symmetry for dynamics (positions and initial velocities):
[...]
     41      -4.9736      2.00000
     42      -4.8811      2.00000
     43      -4.8654      2.00000
     44      -4.8089      2.00000
     45      -4.7491      2.00000
     46      -4.7356      2.00000
     47      -4.6953      2.00000
     48      -4.6822      2.00000
     49      -4.6343      2.00000
     50      -4.6212      2.00000
     51      -4.5243      2.00000
     52      -4.5040      2.00000
     53      -4.4774      2.00000
     54      -4.4633      2.00000
     55      -4.4459      2.00000
     56      -4.4379      2.00000
     57      -4.4323      2.00000
     58      -4.3984      2.00000
     59      -4.3655      2.00000
     60      -4.3223      2.00000
[...]
    238       5.2476      0.00000
    239       5.3032      0.00000
    240       5.4443      0.00000
    241       5.5665      0.00000
    242       5.6823      0.00000
    243       5.9117      0.00000
    244       5.9219      0.00000
    245       6.0233      0.00000
    246       6.0299      0.00000
    247       6.1071      0.00000
    248       6.1591      0.00000
    249       6.1698      0.00000
    250       6.2658      0.00000
    251       6.3723      0.00000
    252       6.3798      0.00000

 soft charge-density along one line, spin component           1
         0         1         2         3         4         5         6         7         8         9
 total charge-density along one line

------------------------ aborting loop because EDIFF is reached ----------------------------------------

 total charge

# of ion       s       p       d       tot
    1        0.546   0.239   8.768   9.553
    2        0.545   0.241   8.764   9.551
    3        0.545   0.241   8.764   9.551
    4        0.545   0.241   8.764   9.551
    5        0.544   0.242   8.761   9.548
    6        0.545   0.241   8.764   9.551
    7        0.545   0.241   8.764   9.551
    8        0.545   0.241   8.764   9.551
    9        0.541   0.240   8.769   9.550
   10        0.521   0.307   8.769   9.598
   11        0.522   0.308   8.779   9.609
   12        0.521   0.307   8.769   9.598
   13        0.522   0.308   8.779   9.609
   14        0.522   0.308   8.779   9.609
   15        0.512   0.310   8.773   9.595
   16        0.521   0.307   8.769   9.598
   17        0.512   0.310   8.773   9.595
   18        0.512   0.310   8.773   9.595
   19        0.518   0.298   8.775   9.591
   20        0.552   0.337   8.749   9.638
   21        0.552   0.337   8.749   9.638
   22        0.509   0.310   8.774   9.593
   23        0.552   0.337   8.749   9.638
   24        0.509   0.310   8.774   9.593
   25        0.518   0.298   8.775   9.591
   26        0.518   0.298   8.775   9.591
   27        0.509   0.310   8.774   9.593
   28        0.544   0.228   8.767   9.539
   29        0.544   0.254   8.759   9.557
   30        0.544   0.254   8.759   9.557
   31        0.544   0.254   8.759   9.557
   32        0.544   0.254   8.759   9.557
   33        0.544   0.254   8.759   9.557
   34        0.544   0.254   8.759   9.557
   35        0.539   0.227   8.770   9.536
   36        0.597   0.628   6.126   7.351
   37        0.918   1.498   0.000   2.416
   38        1.523   3.778   0.000   5.302
   39        0.556   0.135   0.000   0.692
tot         22.249  15.799 312.959 351.008

  FORCE on cell =-STRESS in cart. coord.  units (eV):
  Direction    XX          YY          ZZ          XY          YZ          ZX
  Alpha Z   872.62971   872.62971   872.62971
  Ewald  187017.11741187017.11785************    -0.00031    -0.00008    -0.00012
  Hartree195591.49399195591.49400************     0.00001    -0.00002    -0.00004
  E(xc)   -1812.72513 -1812.72529 -1818.29705     0.00013    -0.00001    -0.00002
  Local  ************************394787.31690     0.00217    -0.00000    -0.00003
  n-local  -132.32564   -83.97854   -80.10575    23.56485    -1.41785     1.34053
  augment  2392.52389  2392.52544  2400.47429    -0.00134    -0.00000     0.00004
  Kinetic  5684.29374  5696.40601  5655.61719     6.70513     0.09089     0.25970
  Fock        0.00000     0.00000     0.00000     0.00000     0.00000     0.00000
  Total     -19.06159   -19.06159     2.58758    -0.00000     0.00000    -0.00000
  in kB     -16.96822   -16.96822     2.30341    -0.00000     0.00000    -0.00000

 VOLUME and BASIS-vectors are now :
  energy-cutoff  :      500.00
  volume of cell :     1799.84
      direct lattice vectors                 reciprocal lattice vectors
     8.813512802  0.000000000  0.000000000     0.113462137 -0.065507406  0.000000000
     4.406756909  7.632725690  0.000000000     0.000000000  0.131014796  0.000000000
     0.000000000  0.000000000 26.754991198     0.000000000  0.000000000  0.037376204

  length of vectors
     8.813512802  8.813512802 26.754991198     0.131014796  0.131014796  0.037376204

 FORCES acting on ions
    electron-ion (+dipol)            ewald-force                    non-local-force                 convergence-correction
   -.202E-04 -.165E-04 0.283E+04   0.520E-04 0.434E-04 -.283E+04   0.231E-17 0.144E-18 -.956E+00   -.203E-03 -.130E-03 -.364E+00
   0.683E+00 0.347E+00 0.283E+04   -.786E+00 -.408E+00 -.283E+04   0.354E-01 0.769E-01 -.285E+00   0.674E-01 0.244E-02 -.392E+00
   -.684E+00 0.347E+00 0.283E+04   0.786E+00 -.408E+00 -.283E+04   -.354E-01 0.769E-01 -.285E+00   -.671E-01 0.441E-02 -.391E+00
   0.642E+00 0.418E+00 0.283E+04   -.747E+00 -.476E+00 -.283E+04   0.843E-01 -.776E-02 -.285E+00   0.359E-01 0.571E-01 -.392E+00
   0.104E-04 -.223E-04 0.284E+04   0.951E-04 0.175E-05 -.284E+04   -.548E-17 0.369E-17 -.120E+00   0.430E-02 0.262E-02 -.401E+00
   -.642E+00 0.418E+00 0.283E+04   0.747E+00 -.476E+00 -.283E+04   -.843E-01 -.776E-02 -.285E+00   -.374E-01 0.581E-01 -.391E+00
   -.412E-01 -.765E+00 0.283E+04   0.392E-01 0.885E+00 -.283E+04   0.489E-01 -.691E-01 -.285E+00   -.297E-01 -.604E-01 -.391E+00
   0.412E-01 -.765E+00 0.283E+04   -.393E-01 0.885E+00 -.283E+04   -.489E-01 -.691E-01 -.285E+00   0.316E-01 -.615E-01 -.391E+00
   0.197E-04 -.414E-04 0.283E+04   0.166E-03 -.201E-04 -.283E+04   0.556E-17 0.268E-17 -.607E+00   -.464E-02 -.240E-02 -.356E+00
   0.799E+01 0.461E+01 0.984E+03   -.766E+01 -.442E+01 -.983E+03   -.377E+00 -.218E+00 -.637E+00   0.287E-01 0.165E-01 -.160E+00
   0.148E-04 0.514E+01 0.992E+03   0.148E-03 -.510E+01 -.992E+03   0.243E-08 0.364E-01 -.296E+00   0.380E-02 -.127E+00 -.192E+00
   -.799E+01 0.461E+01 0.984E+03   0.765E+01 -.442E+01 -.983E+03   0.377E+00 -.218E+00 -.637E+00   -.300E-01 0.180E-01 -.160E+00
   0.445E+01 -.257E+01 0.992E+03   -.442E+01 0.255E+01 -.992E+03   0.316E-01 -.182E-01 -.296E+00   -.108E+00 0.671E-01 -.192E+00
   -.445E+01 -.257E+01 0.992E+03   0.442E+01 0.255E+01 -.992E+03   -.316E-01 -.182E-01 -.296E+00   0.116E+00 0.667E-01 -.192E+00
   0.311E-04 0.476E+01 0.988E+03   0.236E-03 -.484E+01 -.987E+03   -.199E-08 -.299E-01 -.481E+00   -.241E-02 0.612E-01 -.184E+00
   -.210E-04 -.923E+01 0.984E+03   0.163E-03 0.884E+01 -.983E+03   0.290E-07 0.436E+00 -.637E+00   0.297E-03 -.350E-01 -.160E+00
   0.412E+01 -.238E+01 0.988E+03   -.420E+01 0.242E+01 -.987E+03   -.259E-01 0.150E-01 -.481E+00   0.520E-01 -.322E-01 -.184E+00
   -.412E+01 -.238E+01 0.988E+03   0.420E+01 0.242E+01 -.987E+03   0.259E-01 0.150E-01 -.481E+00   -.521E-01 -.303E-01 -.184E+00
   -.430E-04 0.494E+01 -.903E+03   0.535E-04 -.494E+01 0.902E+03   -.355E-08 -.534E-01 0.601E+00   -.533E-03 0.302E-01 0.957E-01
   0.139E+02 0.804E+01 -.844E+03   -.130E+02 -.750E+01 0.844E+03   -.985E+00 -.569E+00 -.104E+01   -.513E-02 -.310E-02 0.176E+00
   -.139E+02 0.804E+01 -.844E+03   0.130E+02 -.750E+01 0.844E+03   0.985E+00 -.569E+00 -.104E+01   0.610E-02 -.120E-02 0.175E+00
   -.112E+01 0.645E+00 -.880E+03   0.743E+00 -.429E+00 0.879E+03   0.397E+00 -.229E+00 0.658E+00   0.805E-02 -.908E-02 0.268E-01
   -.120E-04 -.161E+02 -.844E+03   0.142E-03 0.150E+02 0.844E+03   0.757E-07 0.114E+01 -.104E+01   0.175E-02 0.589E-02 0.175E+00
   0.112E+01 0.645E+00 -.880E+03   -.743E+00 -.429E+00 0.879E+03   -.397E+00 -.229E+00 0.658E+00   -.150E-01 -.861E-02 0.268E-01
   -.428E+01 -.247E+01 -.903E+03   0.428E+01 0.247E+01 0.902E+03   0.462E-01 0.267E-01 0.601E+00   -.243E-01 -.141E-01 0.953E-01
   0.428E+01 -.247E+01 -.903E+03   -.428E+01 0.247E+01 0.902E+03   -.462E-01 0.267E-01 0.601E+00   0.262E-01 -.155E-01 0.957E-01
   0.913E-05 -.129E+01 -.880E+03   0.198E-03 0.858E+00 0.879E+03   0.305E-07 0.459E+00 0.658E+00   -.439E-02 0.115E-01 0.269E-01
   -.147E-04 -.136E-04 -.273E+04   0.302E-04 0.350E-04 0.273E+04   -.185E-17 0.113E-20 0.307E+00   0.101E-03 0.400E-04 0.383E+00
   0.335E+02 0.586E+02 -.270E+04   -.332E+02 -.584E+02 0.270E+04   -.483E+00 -.633E+00 0.324E+00   0.505E-01 0.372E-01 0.406E+00
   -.335E+02 0.586E+02 -.270E+04   0.332E+02 -.584E+02 0.270E+04   0.483E+00 -.633E+00 0.324E+00   -.503E-01 0.392E-01 0.407E+00
   0.675E+02 -.315E+00 -.270E+04   -.671E+02 0.429E+00 0.270E+04   -.790E+00 -.102E+00 0.324E+00   0.575E-01 0.250E-01 0.406E+00
   -.675E+02 -.315E+00 -.270E+04   0.671E+02 0.429E+00 0.270E+04   0.790E+00 -.102E+00 0.324E+00   -.589E-01 0.262E-01 0.406E+00
   0.340E+02 -.583E+02 -.270E+04   -.339E+02 0.579E+02 0.270E+04   -.307E+00 0.735E+00 0.324E+00   0.885E-02 -.632E-01 0.407E+00
   -.340E+02 -.583E+02 -.270E+04   0.339E+02 0.579E+02 0.270E+04   0.307E+00 0.735E+00 0.324E+00   -.674E-02 -.640E-01 0.406E+00
   0.330E-04 -.269E-04 -.273E+04   0.142E-03 -.506E-04 0.273E+04   0.673E-17 -.219E-17 0.414E+00   -.478E-02 -.247E-02 0.465E+00
   0.132E-05 -.970E-05 -.169E+04   0.835E-04 0.756E-05 0.169E+04   -.114E-17 0.475E-18 0.883E+00   0.181E-02 0.110E-02 0.302E+00
   -.625E-05 -.822E-04 -.105E+04   0.161E-04 0.101E-05 0.103E+04   0.352E-19 -.647E-19 0.185E+02   0.121E-02 0.738E-03 -.391E-01
   0.246E-03 -.898E-04 -.176E+04   0.558E-05 0.535E-06 0.177E+04   0.178E-18 0.574E-19 -.761E+01   0.388E-02 0.237E-02 -.744E-02
   0.626E-05 -.145E-04 -.336E+03   0.249E-06 0.397E-07 0.345E+03   0.786E-20 0.331E-20 -.864E+01   0.204E-03 0.124E-03 0.393E-03
   -.498E-03 -.941E-03 0.253E+01   -.543E-13 0.241E-12 0.614E-11   0.172E-15 -.224E-15 -.121E+01   0.433E-02 0.325E-02 -.642E+00

 POSITION                                       TOTAL-FORCE (eV/Angst)
      0.00000      0.00000      5.28038        -0.000000      0.000000     -0.103841
      2.93784      0.00000      5.28038         0.000822      0.018853     -0.044513
      5.87568      0.00000      5.28038        -0.000822      0.018853     -0.044513
      1.46892      2.54424      5.28038         0.016738     -0.008714     -0.044513
      4.40676      2.54424      5.28038        -0.000000     -0.000000     -0.056439
      7.34459      2.54424      5.28038        -0.016738     -0.008714     -0.044513
      2.93784      5.08848      5.28038         0.015916     -0.010139     -0.044513
      5.87568      5.08848      5.28038        -0.015916     -0.010139     -0.044513
      8.81351      5.08848      5.28038        -0.000000     -0.000000     -0.049994
      1.46892      0.84808      7.67911        -0.011573     -0.006682      0.162570
      4.40676      0.84808      7.67911        -0.000000     -0.061854      0.031298
      7.34459      0.84808      7.67911         0.011573     -0.006682      0.162570
      2.93784      3.39232      7.67911        -0.053567      0.030927      0.031298
      5.87568      3.39232      7.67911         0.053567      0.030927      0.031298
      8.81351      3.39232      7.67911        -0.000000     -0.052344      0.128817
      4.40676      5.93656      7.67911         0.000000      0.013363      0.162570
      7.34459      5.93656      7.67911        -0.045332      0.026172      0.128817
     10.28243      5.93656      7.67911         0.045332      0.026172      0.128817
      8.81351      1.70311     10.09495        -0.000000     -0.026944     -0.015574
      2.93286      1.69329     10.03570        -0.056537     -0.032642     -0.274920
      5.88065      1.69329     10.03570         0.056537     -0.032642     -0.274920
     10.26497      4.25049     10.06286         0.034941     -0.020173     -0.000026
      4.40676      4.24615     10.03570         0.000000      0.065283     -0.274920
      7.36206      4.25049     10.06286        -0.034941     -0.020173     -0.000026
     11.74534      6.78117     10.09495         0.023334      0.013472     -0.015574
      5.88169      6.78117     10.09495        -0.023334      0.013472     -0.015574
      8.81351      6.76448     10.06286         0.000000      0.040346     -0.000026
      0.00000      0.00000     12.49897        -0.000000      0.000000     -0.115754
      2.97514      0.06495     12.50272        -0.171790     -0.373504     -0.143359
      5.83837      0.06495     12.50272         0.171790     -0.373504     -0.143359
      1.54382      2.54408     12.50272        -0.409359      0.037977     -0.143359
      7.26969      2.54408     12.50272         0.409359      0.037977     -0.143359
      2.97543      5.02370     12.50272        -0.237569      0.335526     -0.143359
      5.83808      5.02370     12.50272         0.237569      0.335526     -0.143359
      8.81351      5.08848     12.49601        -0.000000     -0.000000     -0.106692
      4.40676      2.54424     12.21487        -0.000000      0.000000      1.466850
      4.40676      2.54424     13.98460        -0.000000      0.000000      0.012515
      4.40676      2.54424     15.23065        -0.000000      0.000000     -0.012603
      4.40676      2.54424     16.18966        -0.000000      0.000000     -0.003310
    total drift:                                0.003835      0.002312      0.672241

  FREE ENERGIE OF THE ION-ELECTRON SYSTEM (eV)
  free  energy   TOTEN  =      -133.99689164 eV

  energy  without entropy=     -133.99689164  energy(sigma->0) =     -133.99689164

 stress matrix after NEB project (eV)
    -19.06159     -0.00000     -0.00000
     -0.00000    -19.06159      0.00000
      0.00000      0.00000      2.58758
  FORCES: max atom, RMS     0.012603    0.002893
  FORCE total and by dimension    0.018067    0.012603
  Stress total and by dimension   27.081063   19.061590
|           W    W    AA    RRRRR   N    N  II  N    N   GGGG   !!!           |
|           W    W   A  A   R    R  NN   N  II  NN   N  G    G  !!!           |
|           W    W  A    A  R    R  N N  N  II  N N  N  G       !!!           |
|           W WW W  AAAAAA  RRRRR   N  N N  II  N  N N  G  GGG   !            |
|           WW  WW  A    A  R   R   N   NN  II  N   NN  G    G                |
|           W    W  A    A  R    R  N    N  II  N    N   GGGG   !!!           |
|     Tetrahedron method does not include variations of the Fermi             |
|     occupations, so forces and stress will be inaccurate. We suggest        |
|     using a different smearing scheme ISMEAR = 1 or 2 for metals in         |
|     relaxations.                                                            |

 total charge

# of ion       s       p       d       tot
    1        0.546   0.239   8.768   9.553
    2        0.545   0.241   8.764   9.551
    3        0.545   0.241   8.764   9.551
    4        0.545   0.241   8.764   9.551
    5        0.544   0.242   8.761   9.548
    6        0.545   0.241   8.764   9.551
    7        0.545   0.241   8.764   9.551
    8        0.545   0.241   8.764   9.551
    9        0.541   0.240   8.769   9.550
   10        0.521   0.307   8.769   9.598
   11        0.522   0.308   8.779   9.609
   12        0.521   0.307   8.769   9.598
   13        0.522   0.308   8.779   9.609
   14        0.522   0.308   8.779   9.609
   15        0.512   0.310   8.773   9.595
   16        0.521   0.307   8.769   9.598
   17        0.512   0.310   8.773   9.595
   18        0.512   0.310   8.773   9.595
   19        0.518   0.298   8.775   9.591
   20        0.552   0.337   8.749   9.638
   21        0.552   0.337   8.749   9.638
   22        0.509   0.310   8.774   9.593
   23        0.552   0.337   8.749   9.638
   24        0.509   0.310   8.774   9.593
   25        0.518   0.298   8.775   9.591
   26        0.518   0.298   8.775   9.591
   27        0.509   0.310   8.774   9.593
   28        0.544   0.228   8.767   9.539
   29        0.544   0.254   8.759   9.557
   30        0.544   0.254   8.759   9.557
   31        0.544   0.254   8.759   9.557
   32        0.544   0.254   8.759   9.557
   33        0.544   0.254   8.759   9.557
   34        0.544   0.254   8.759   9.557
   35        0.539   0.227   8.770   9.536
   36        0.597   0.628   6.126   7.351
   37        0.918   1.498   0.000   2.416
   38        1.523   3.778   0.000   5.302
   39        0.556   0.135   0.000   0.692
tot         22.249  15.799 312.959 351.008

 BZINTS: Fermi energy:    0.342985;  404.000000 electrons
         Band energy:-0.144849E+04;  BLOECHL correction:   -0.073191