 vasp.6.2.0 18Jan21 (build Jun 12 2021 23:27:24) complex

 executed on             LinuxIFC date 2022.05.28  02:15:26

 INCAR:
   ISMEAR = -5
   SIGMA = 0.1
   ISPIN = 1
   EDIFF = 1.d-5
   EDIFFG = -0.01
   NSW = 0
   NELM = 150
   ENCUT = 500
   ISIF = 2
   IBRION = 2
   LREAL = Auto
   ALGO = Fast
   ICHARG = 11
   LORBIT = 10
   LCHARG = .F.
   LWAVE = .F.

 POTCAR:    PAW_PBE Cu 22Jun2005
 POTCAR:    PAW_PBE V 08Apr2002
 POTCAR:    PAW_PBE H 15Jun2001
 POTCAR:    PAW_PBE O 08Apr2002
|           W    W    AA    RRRRR   N    N  II  N    N   GGGG   !!!           |
|           W    W   A  A   R    R  NN   N  II  NN   N  G    G  !!!           |
|           W    W  A    A  R    R  N N  N  II  N N  N  G       !!!           |
|           W WW W  AAAAAA  RRRRR   N  N N  II  N  N N  G  GGG   !            |
|           WW  WW  A    A  R   R   N   NN  II  N   NN  G    G                |
|           W    W  A    A  R    R  N    N  II  N    N   GGGG   !!!           |
|     For optimal performance we recommend to set                             |
|       NCORE = 2 up to number-of-cores-per-socket                            |
|     This setting can greatly improve the performance of VASP for DFT.       |
|     The default, NCORE=1 might be grossly inefficient on modern             |
|     multi-core architectures or massively parallel machines. Do your        |
|     Unfortunately you need to use the default for GW and RPA                |
|     calculations (for HF NCORE is supported but not extensively tested      |
|     yet).                                                                   |

 POTCAR:    PAW_PBE Cu 22Jun2005
   VRHFIN =Cu: d10 p1

   TITEL  = PAW_PBE Cu 22Jun2005
   POMASS =   63.546; ZVAL   =   11.000    mass and valenz
   ENMAX  =  295.446; ENMIN  =  221.585 eV

 POTCAR:    PAW_PBE V 08Apr2002
   VRHFIN =V: p6 d4 s1

   TITEL  = PAW_PBE V 08Apr2002
   POMASS =   50.941; ZVAL   =    5.000    mass and valenz
   ENMAX  =  192.543; ENMIN  =  144.408 eV

 POTCAR:    PAW_PBE H 15Jun2001
   VRHFIN =H: ultrasoft test

   TITEL  = PAW_PBE H 15Jun2001
   POMASS =    1.000; ZVAL   =    1.000    mass and valenz
   ENMAX  =  250.000; ENMIN  =  200.000 eV

 POTCAR:    PAW_PBE O 08Apr2002
   VRHFIN =O: s2p4

   TITEL  = PAW_PBE O 08Apr2002
   POMASS =   16.000; ZVAL   =    6.000    mass and valenz
   ENMAX  =  400.000; ENMIN  =  300.000 eV

 Optimization of the real space projectors (new method)

 maximal supplied QI-value         = 16.25
 optimisation between [QCUT,QGAM] = [ 11.38, 22.75] = [ 36.24,144.96] Ry
 Optimized for a Real-space Cutoff    1.52 Angstroem

   l    n(q)    QCUT    max X(q) W(low)/X(q) W(high)/X(q)  e(spline)
   2      9    11.376     4.610    0.21E-03    0.10E-03    0.26E-06
   2      9    11.376     8.522    0.33E-03    0.16E-03    0.37E-06
   0     10    11.376    51.609    0.62E-04    0.20E-04    0.13E-06
   0     10    11.376    27.747    0.54E-04    0.20E-04    0.13E-06
   1     10    11.376    20.408    0.13E-04    0.99E-04    0.19E-06
   1     10    11.376    13.425    0.12E-04    0.87E-04    0.17E-06
 Optimization of the real space projectors (new method)

[...]

   l    n(q)    QCUT    max X(q) W(low)/X(q) W(high)/X(q)  e(spline)
   0      8    11.287    19.460    0.40E-03    0.73E-03    0.16E-06
   0      8    11.287    12.209    0.38E-03    0.70E-03    0.15E-06
   1      7    11.287     4.655    0.22E-03    0.25E-04    0.22E-06
 Optimization of the real space projectors (new method)

 maximal supplied QI-value         = 24.76
 optimisation between [QCUT,QGAM] = [ 11.39, 22.77] = [ 36.31,145.25] Ry
 Optimized for a Real-space Cutoff    1.00 Angstroem

   l    n(q)    QCUT    max X(q) W(low)/X(q) W(high)/X(q)  e(spline)
   0      7    11.387    20.381    0.39E-03    0.13E-02    0.15E-06
   0      7    11.387    15.268    0.42E-03    0.14E-02    0.17E-06
   1      6    11.387     5.964    0.41E-03    0.11E-02    0.17E-06
   1      6    11.387     5.382    0.39E-03    0.87E-03    0.15E-06
  PAW_PBE Cu 22Jun2005                  :
  PAW_PBE V 08Apr2002                   :
  PAW_PBE H 15Jun2001                   :
  PAW_PBE O 08Apr2002                   :

 POSCAR: Cu-V-H2O
  positions in direct lattice
  velocities in cartesian coordinates
 exchange correlation table for  LEXCH =        8
   RHO(1)=    0.500       N(1)  =     2000
   RHO(2)=  100.500       N(2)  =     4000

 VTST: version 3.2, (02/03/18)

 CHAIN: initializing optimizer

 OPT: Using VASP Conjugate-Gradient optimizer
 CHAIN: Read ICHAIN            0

 POSCAR: Cu-V-H2O
  positions in direct lattice
  velocities in cartesian coordinates

 ion  position               nearest neighbor table
   1  0.000  0.000  0.221-   7 2.57   3 2.57   4 2.57   2 2.57   6 2.57   8 2.57  12 2.57  10 2.57
                            16 2.57
   2  0.333  0.000  0.221-   8 2.57   9 2.57   5 2.57   1 2.57   3 2.57  11 2.57   4 2.57  10 2.57
                            17 2.57
   3  0.667  0.000  0.221-   1 2.57   7 2.57   6 2.57   9 2.57   2 2.57  12 2.57   5 2.57  18 2.57
                            11 2.57
   4  0.000  0.333  0.221-   5 2.57   6 2.57   1 2.57   7 2.57   2 2.57  13 2.57   9 2.57  10 2.57
                            15 2.57
   5  0.333  0.333  0.221-   4 2.57   2 2.57   7 2.57  13 2.57   8 2.57   6 2.57   3 2.57  11 2.57
                            14 2.57
   6  0.667  0.333  0.221-   4 2.57   9 2.57  15 2.57   3 2.57   1 2.57   8 2.57  14 2.57   5 2.57
                            12 2.57
   7  0.000  0.667  0.221-   1 2.57   3 2.57  16 2.57  18 2.57   4 2.57   5 2.57   8 2.57   9 2.57
                            13 2.57
   8  0.333  0.667  0.221-   9 2.57   2 2.57  17 2.57   6 2.57   1 2.57   7 2.57   5 2.57  14 2.57
                            16 2.57
   9  0.667  0.667  0.221-   8 2.57   6 2.57   2 2.57  17 2.57   3 2.57   7 2.57   4 2.57  15 2.57
                            18 2.57
  10  0.111  0.111  0.308-  26 2.56  19 2.56  20 2.56  11 2.57  12 2.57  13 2.57   1 2.57   2 2.57
                             4 2.57  15 2.57  16 2.57  17 2.57
  11  0.444  0.111  0.308-  20 2.56  21 2.56  10 2.57  13 2.57   2 2.57  17 2.57  14 2.57  12 2.57
                             5 2.57   3 2.57  18 2.57  27 2.57
  12  0.778  0.111  0.308-  19 2.56  25 2.56  21 2.56  15 2.57  10 2.57  14 2.57  18 2.57   3 2.57
                             1 2.57  16 2.57  11 2.57   6 2.57
  13  0.111  0.444  0.308-  23 2.56  20 2.56  16 2.57  18 2.57  10 2.57  11 2.57  14 2.57   5 2.57
                             4 2.57   7 2.57  15 2.57  22 2.57
  14  0.444  0.444  0.308-  21 2.56  23 2.56  15 2.57  17 2.57  12 2.57  16 2.57  13 2.57  11 2.57
                             6 2.57   8 2.57   5 2.57  24 2.57
  15  0.778  0.444  0.308-  19 2.56  24 2.57  22 2.57  14 2.57  17 2.57  12 2.57   6 2.57  18 2.57
                            10 2.57   9 2.57  13 2.57   4 2.57
  16  0.111  0.778  0.308-  25 2.56  26 2.56  23 2.56  18 2.57  13 2.57   7 2.57  14 2.57  17 2.57
                            12 2.57  10 2.57   8 2.57   1 2.57
  17  0.444  0.778  0.308-  26 2.56  27 2.57  24 2.57  14 2.57  15 2.57   8 2.57   9 2.57  11 2.57
                            16 2.57  18 2.57  10 2.57   2 2.57
  18  0.778  0.778  0.308-  25 2.56  22 2.57  27 2.57  16 2.57  13 2.57   7 2.57  15 2.57  12 2.57
                            17 2.57   9 2.57   3 2.57  11 2.57
  19  0.889  0.222  0.393-  12 2.56  10 2.56  15 2.56  28 2.56  25 2.56  26 2.56  21 2.57  20 2.57
                            22 2.57  24 2.57  32 2.58  31 2.58
  20  0.222  0.222  0.394-  36 2.54  11 2.56  13 2.56  10 2.56  23 2.56  21 2.56  26 2.57  19 2.57
                            27 2.57  22 2.57  29 2.57  31 2.57
  21  0.555  0.222  0.394-  36 2.54  14 2.56  11 2.56  12 2.56  20 2.56  23 2.56  19 2.57  25 2.57
                            24 2.57  27 2.57  32 2.57  30 2.57
  22  0.888  0.556  0.394-  24 2.56  27 2.56  35 2.56  18 2.57  15 2.57  19 2.57  25 2.57  31 2.57
                            33 2.57  13 2.57  23 2.57  20 2.57
  23  0.222  0.555  0.394-  36 2.54  13 2.56  14 2.56  16 2.56  20 2.56  21 2.56  25 2.57  26 2.57
                            22 2.57  24 2.57  33 2.57  34 2.57
  24  0.556  0.556  0.394-  22 2.56  27 2.56  35 2.56  15 2.57  17 2.57  19 2.57  26 2.57  32 2.57
                            34 2.57  14 2.57  21 2.57  23 2.57
  25  0.889  0.889  0.393-  12 2.56  16 2.56  18 2.56  28 2.56  19 2.56  26 2.56  21 2.57  23 2.57
                            22 2.57  27 2.57  33 2.58  30 2.58
  26  0.222  0.889  0.393-  10 2.56  16 2.56  17 2.56  28 2.56  25 2.56  19 2.56  20 2.57  23 2.57
                            27 2.57  24 2.57  29 2.58  34 2.58
  27  0.556  0.888  0.394-  24 2.56  22 2.56  35 2.56  17 2.57  18 2.57  26 2.57  25 2.57  29 2.57
                            30 2.57  11 2.57  20 2.57  21 2.57
  28  0.000  0.000  0.480-  25 2.56  19 2.56  26 2.56  33 2.57  30 2.57  31 2.57  29 2.57  32 2.57
                            34 2.57
  29  0.333  0.000  0.480-  30 2.56  36 2.56  31 2.56  27 2.57  35 2.57  28 2.57  20 2.57  34 2.57
                            26 2.58
  30  0.666  0.000  0.480-  29 2.56  36 2.56  32 2.56  27 2.57  35 2.57  28 2.57  21 2.57  33 2.57
                            25 2.58
  31  0.000  0.333  0.480-  33 2.56  36 2.56  29 2.56  22 2.57  35 2.57  28 2.57  20 2.57  32 2.57
                            19 2.58
  32  0.666  0.333  0.480-  34 2.56  36 2.56  30 2.56  24 2.57  35 2.57  28 2.57  21 2.57  31 2.57
                            19 2.58
  33  0.000  0.666  0.480-  31 2.56  36 2.56  34 2.56  22 2.57  35 2.57  28 2.57  23 2.57  30 2.57
                            25 2.58
  34  0.333  0.666  0.480-  32 2.56  36 2.56  33 2.56  24 2.57  35 2.57  28 2.57  23 2.57  29 2.57
                            26 2.58
  35  0.667  0.667  0.480-  24 2.56  27 2.56  22 2.56  34 2.57  32 2.57  29 2.57  30 2.57  33 2.57
                            31 2.57
  36  0.333  0.333  0.479-  39 2.17  23 2.54  20 2.54  21 2.54  31 2.56  29 2.56  33 2.56  32 2.56
                            34 2.56  30 2.56
  37  0.273  0.250  0.578-  39 0.98
  38  0.477  0.249  0.578-  39 0.98
  39  0.335  0.330  0.568-  37 0.98  38 0.98  36 2.17

  LATTYP: Found a hexagonal cell.
 ALAT       =     7.6967864036
 C/A-ratio  =     3.1535378041

  Lattice vectors:

 A1 = (  -3.8483927580,  -6.6656128093,   0.0000000000)
 A2 = (   7.6967864037,   0.0000000000,   0.0000000000)
 A3 = (   0.0000000000,   0.0000000000,  24.2721068937)

Analysis of symmetry for initial positions (statically):
 Subroutine PRICEL returns:
 Original cell was already a primitive cell.

 Routine SETGRP: Setting up the symmetry group for a
 hexagonal supercell.

 Subroutine GETGRP returns: Found  1 space group operations
 (whereof  1 operations were pure point group operations)
 out of a pool of 24 trial point group operations.

The static configuration has the point symmetry C_1 .

Analysis of symmetry for dynamics (positions and initial velocities):
 Subroutine PRICEL returns:
 Original cell was already a primitive cell.

[...]

The dynamic configuration has the point symmetry C_1 .

Analysis of constrained symmetry for selective dynamics:
 Subroutine PRICEL returns:
[...]
     41      -3.9459      2.00000
     42      -3.9396      2.00000
     43      -3.8639      2.00000
     44      -3.8612      2.00000
     45      -3.8550      2.00000
     46      -3.8274      2.00000
     47      -3.8164      2.00000
     48      -3.8127      2.00000
     49      -3.8083      2.00000
     50      -3.6285      2.00000
     51      -3.6164      2.00000
     52      -3.6049      2.00000
     53      -3.5899      2.00000
     54      -3.5479      2.00000
     55      -3.5410      2.00000
     56      -3.5215      2.00000
     57      -3.5142      2.00000
     58      -3.5052      2.00000
     59      -3.4933      2.00000
     60      -3.4649      2.00000
[...]
    238       5.6323      0.00000
    239       5.7446      0.00000
    240       5.7868      0.00000
    241       5.8671      0.00000
    242       5.9856      0.00000
    243       6.0403      0.00000
    244       6.0956      0.00000
    245       6.1119      0.00000
    246       6.3662      0.00000
    247       6.6633      0.00000
    248       6.7448      0.00000
    249       6.9950      0.00000
    250       7.1163      0.00000
    251       7.2083      0.00000
    252       7.4861      0.00000

 soft charge-density along one line, spin component           1
         0         1         2         3         4         5         6         7         8         9
 total charge-density along one line

------------------------ aborting loop because EDIFF is reached ----------------------------------------

 total charge

# of ion       s       p       d       tot
    1        0.449   0.283   9.187   9.919
    2        0.447   0.286   9.185   9.918
    3        0.447   0.286   9.184   9.918
    4        0.447   0.286   9.185   9.918
    5        0.449   0.286   9.181   9.916
    6        0.447   0.286   9.185   9.917
    7        0.447   0.286   9.185   9.917
    8        0.447   0.286   9.185   9.917
    9        0.448   0.284   9.187   9.918
   10        0.443   0.371   9.175   9.989
   11        0.442   0.366   9.182   9.990
   12        0.443   0.371   9.175   9.989
   13        0.441   0.366   9.182   9.989
   14        0.441   0.366   9.182   9.989
   15        0.439   0.370   9.175   9.984
   16        0.443   0.371   9.175   9.989
   17        0.438   0.370   9.176   9.984
   18        0.438   0.370   9.176   9.984
   19        0.443   0.369   9.179   9.990
   20        0.465   0.394   9.156  10.016
   21        0.465   0.394   9.156  10.016
   22        0.432   0.374   9.179   9.986
   23        0.465   0.394   9.157  10.015
   24        0.432   0.374   9.179   9.986
   25        0.442   0.368   9.179   9.990
   26        0.442   0.368   9.179   9.990
   27        0.433   0.374   9.179   9.986
   28        0.445   0.292   9.177   9.914
   29        0.473   0.311   9.163   9.946
   30        0.473   0.311   9.163   9.946
   31        0.473   0.309   9.164   9.946
   32        0.473   0.309   9.164   9.946
   33        0.471   0.304   9.166   9.941
   34        0.471   0.304   9.166   9.941
   35        0.439   0.295   9.178   9.912
   36        0.488   0.548   3.392   4.428
   37        0.600   0.117   0.000   0.717
   38        0.600   0.117   0.000   0.717
   39        1.568   3.615   0.000   5.182
tot         18.990  16.134 324.535 359.659

  FORCE on cell =-STRESS in cart. coord.  units (eV):
  Direction    XX          YY          ZZ          XY          YZ          ZX
  Alpha Z   772.50058   772.50058   772.50058
  Ewald  229664.09790229598.28586************    -0.31319   -10.89193    -0.14293
  Hartree242400.01688242388.22535************    -0.06309     6.64590     0.06447
  E(xc)   -2304.03436 -2304.16008 -2308.26444    -0.00080    -0.05395    -0.00166
  Local  ************************484989.63958     0.31607    -3.03409     0.00263
  n-local  -785.57704  -786.07086  -797.05000     0.00369    -0.14673    -0.00400
  augment  3334.20224  3334.99712  3356.33668    -0.01620     0.45179     0.00622
  Kinetic  3295.75360  3313.95172  3348.97121     0.08295     6.95201     0.07663
  Fock        0.00000     0.00000     0.00000     0.00000     0.00000     0.00000
  Total     -11.14073   -11.14594    -3.82830     0.00945    -0.07699     0.00136
  in kB     -14.33400   -14.34069    -4.92561     0.01215    -0.09906     0.00174

 VOLUME and BASIS-vectors are now :
  energy-cutoff  :      500.00
  volume of cell :     1245.25
      direct lattice vectors                 reciprocal lattice vectors
     7.696786404  0.000000000  0.000000000     0.129924354 -0.075011849  0.000000000
     3.848392758  6.665612809  0.000000000     0.000000000  0.150023716  0.000000000
     0.000000000  0.000000000 24.272106894     0.000000000  0.000000000  0.041199555

  length of vectors
     7.696786404  7.696786404 24.272106894     0.150023716  0.150023716  0.041199555

 FORCES acting on ions
    electron-ion (+dipol)            ewald-force                    non-local-force                 convergence-correction
   0.247E-02 -.171E-02 0.375E+04   -.197E-04 -.109E-01 -.375E+04   0.427E-04 -.945E-03 -.239E+01   -.246E-02 0.147E-01 0.921E-01
   -.665E+00 -.569E+00 0.375E+04   0.565E+00 0.514E+00 -.375E+04   0.880E-01 0.156E+00 -.184E+01   0.169E-01 -.895E-01 0.980E-01
   0.662E+00 -.581E+00 0.375E+04   -.565E+00 0.514E+00 -.375E+04   -.885E-01 0.155E+00 -.184E+01   -.140E-01 -.764E-01 0.102E+00
   -.797E+00 -.304E+00 0.375E+04   0.737E+00 0.245E+00 -.375E+04   0.174E+00 -.146E-01 -.187E+01   -.973E-01 0.703E-01 0.858E-01
   -.158E-01 -.416E-01 0.375E+04   0.308E-03 0.185E-01 -.375E+04   -.898E-02 -.144E-01 -.151E+01   0.248E-01 0.327E-01 0.253E+00
   0.808E+00 -.308E+00 0.375E+04   -.737E+00 0.245E+00 -.375E+04   -.173E+00 -.154E-01 -.187E+01   0.863E-01 0.751E-01 0.908E-01
   -.228E+00 0.881E+00 0.375E+04   0.172E+00 -.759E+00 -.375E+04   0.114E+00 -.141E+00 -.191E+01   -.532E-01 0.106E-01 0.107E+00
   0.218E+00 0.888E+00 0.375E+04   -.172E+00 -.759E+00 -.375E+04   -.116E+00 -.140E+00 -.191E+01   0.655E-01 0.262E-02 0.108E+00
   0.149E-01 0.468E-01 0.375E+04   0.152E-03 -.741E-02 -.375E+04   0.957E-02 0.210E-02 -.213E+01   -.250E-01 -.393E-01 0.506E-01
   -.429E+01 -.247E+01 0.126E+04   0.475E+01 0.275E+01 -.126E+04   -.388E+00 -.242E+00 -.917E+00   -.790E-01 -.400E-01 -.619E+00
   -.132E-01 -.507E+01 0.125E+04   0.115E-02 0.480E+01 -.125E+04   -.833E-02 0.228E+00 -.182E+00   0.208E-01 0.314E-02 -.704E+00
   0.430E+01 -.248E+01 0.126E+04   -.475E+01 0.275E+01 -.126E+04   0.388E+00 -.242E+00 -.916E+00   0.718E-01 -.340E-01 -.625E+00
   -.438E+01 0.239E+01 0.125E+04   0.415E+01 -.228E+01 -.125E+04   0.198E+00 -.121E+00 -.206E+00   -.353E-02 0.409E-01 -.714E+00
   0.436E+01 0.239E+01 0.125E+04   -.415E+01 -.228E+01 -.125E+04   -.216E+00 -.120E+00 -.206E+00   0.420E-01 0.366E-01 -.725E+00
   0.115E-01 -.127E+01 0.126E+04   -.103E-02 0.102E+01 -.126E+04   0.176E-02 0.136E+00 -.911E+00   -.122E-01 0.106E+00 -.673E+00
   -.127E-02 0.511E+01 0.126E+04   0.564E-03 -.561E+01 -.126E+04   0.805E-03 0.455E+00 -.905E+00   -.816E-04 0.505E-01 -.598E+00
   -.961E+00 0.706E+00 0.126E+04   0.788E+00 -.574E+00 -.126E+04   0.884E-01 -.507E-01 -.905E+00   0.709E-01 -.734E-01 -.639E+00
   0.962E+00 0.695E+00 0.126E+04   -.788E+00 -.572E+00 -.126E+04   -.898E-01 -.518E-01 -.906E+00   -.706E-01 -.625E-01 -.635E+00
   0.656E-02 -.643E+01 -.123E+04   -.834E-02 0.653E+01 0.123E+04   -.488E-03 -.207E-01 0.832E+00   0.221E-02 -.895E-01 -.654E+00
   -.470E+02 -.278E+02 -.129E+04   0.487E+02 0.288E+02 0.129E+04   -.121E+01 -.694E+00 -.916E+00   -.465E+00 -.289E+00 -.121E+01
   0.470E+02 -.278E+02 -.129E+04   -.487E+02 0.288E+02 0.129E+04   0.122E+01 -.693E+00 -.916E+00   0.437E+00 -.290E+00 -.122E+01
   -.224E+02 0.126E+02 -.124E+04   0.224E+02 -.126E+02 0.124E+04   0.378E+00 -.194E+00 0.587E+00   -.294E+00 0.182E+00 -.721E+00
   -.565E-03 0.541E+02 -.129E+04   0.870E-02 -.560E+02 0.129E+04   0.904E-02 0.143E+01 -.782E+00   -.177E-01 0.504E+00 -.119E+01
   0.224E+02 0.126E+02 -.124E+04   -.224E+02 -.126E+02 0.124E+04   -.378E+00 -.195E+00 0.587E+00   0.298E+00 0.186E+00 -.720E+00
   0.504E+01 0.384E+01 -.123E+04   -.513E+01 -.384E+01 0.123E+04   0.359E-01 -.284E-01 0.970E+00   0.642E-01 0.378E-01 -.643E+00
   -.504E+01 0.384E+01 -.123E+04   0.513E+01 -.385E+01 0.123E+04   -.362E-01 -.286E-01 0.971E+00   -.606E-01 0.392E-01 -.641E+00
   0.166E-02 -.249E+02 -.124E+04   0.965E-03 0.249E+02 0.124E+04   0.276E-03 0.418E+00 0.541E+00   -.290E-02 -.345E+00 -.685E+00
   0.201E-01 0.258E+01 -.366E+04   -.176E-01 -.268E+01 0.366E+04   0.105E-03 0.106E+00 0.169E+01   -.260E-02 0.371E-02 -.395E+00
   -.233E+02 -.469E+02 -.364E+04   0.241E+02 0.481E+02 0.364E+04   -.640E+00 -.758E+00 0.712E+00   -.240E+00 -.515E+00 -.202E+00
   0.232E+02 -.469E+02 -.364E+04   -.241E+02 0.481E+02 0.364E+04   0.625E+00 -.762E+00 0.704E+00   0.269E+00 -.511E+00 -.201E+00
   -.559E+02 -.349E+00 -.364E+04   0.576E+02 0.568E+00 0.364E+04   -.113E+01 -.224E+00 0.631E+00   -.609E+00 0.710E-02 -.204E+00
   0.560E+02 -.363E+00 -.364E+04   -.577E+02 0.575E+00 0.364E+04   0.111E+01 -.224E+00 0.631E+00   0.641E+00 0.130E-01 -.201E+00
   -.342E+02 0.499E+02 -.365E+04   0.347E+02 -.513E+02 0.365E+04   -.240E+00 0.892E+00 0.123E+01   -.296E+00 0.540E+00 -.233E+00
   0.341E+02 0.500E+02 -.365E+04   -.346E+02 -.514E+02 0.365E+04   0.222E+00 0.891E+00 0.123E+01   0.336E+00 0.541E+00 -.231E+00
   0.416E-01 0.170E+01 -.368E+04   -.258E-01 -.169E+01 0.368E+04   0.105E-01 -.237E-01 0.225E+01   -.265E-01 0.151E-01 -.141E+00
   -.542E-01 -.470E+01 -.157E+04   0.542E-01 0.471E+01 0.157E+04   -.216E-03 -.662E-02 0.193E+01   -.943E-03 -.141E-01 -.610E-01
   0.671E+02 0.421E+02 -.386E+03   -.738E+02 -.464E+02 0.388E+03   0.673E+01 0.429E+01 -.187E+01   -.201E-01 -.171E-01 0.464E-01
   -.668E+02 0.426E+02 -.386E+03   0.734E+02 -.469E+02 0.387E+03   -.670E+01 0.435E+01 -.185E+01   0.199E-01 -.174E-01 0.466E-01
   -.219E+00 -.562E+02 -.222E+04   0.376E+00 0.983E+02 0.221E+04   -.156E+00 -.420E+02 0.810E+01   -.225E-02 -.236E-01 0.449E+00
   0.979E-01 0.335E+02 0.201E+02   -.111E-15 -.284E-13 -.273E-11   -.167E+00 -.335E+02 -.608E+01   0.704E-01 -.134E-01 -.140E+02

 POSITION                                       TOTAL-FORCE (eV/Angst)
      0.00000      0.00000      5.37156        -0.000013      0.000929     -0.024473
      2.56560      0.00000      5.37156         0.005280      0.011859      0.052707
      5.13119      0.00000      5.37156        -0.005374      0.011685      0.052654
      1.28280      2.22187      5.37156         0.016357     -0.003505      0.053376
      3.84839      2.22187      5.37156         0.000331     -0.004911      0.047722
      6.41399      2.22187      5.37156        -0.016311     -0.003514      0.053376
      2.56560      4.44374      5.37156         0.004977     -0.009313      0.053885
      5.13119      4.44374      5.37156        -0.005123     -0.009295      0.053923
      7.69679      4.44374      5.37156        -0.000439      0.002036      0.017621
      1.28280      0.74062      7.46636        -0.002436     -0.001299     -0.081497
      3.84839      0.74062      7.46636         0.000380     -0.043605     -0.058333
      6.41399      0.74062      7.46636         0.002441     -0.001361     -0.081471
      2.56560      2.96249      7.46636        -0.033506      0.023047     -0.057510
      5.13119      2.96249      7.46636         0.034421      0.023109     -0.057479
      7.69679      2.96249      7.46636         0.000052     -0.014822     -0.024879
      3.84839      5.18437      7.46636        -0.000027      0.002616     -0.083068
      6.41399      5.18437      7.46636        -0.013587      0.008297     -0.018372
      8.97958      5.18437      7.46636         0.013578      0.008190     -0.018457
      7.69679      1.48017      9.54910        -0.000099     -0.003197     -0.005988
      2.56637      1.48170      9.55121        -0.016406     -0.002499     -0.057159
      5.13041      1.48170      9.55121         0.015394     -0.002573     -0.057298
      8.97729      3.70444      9.56154         0.031914     -0.025062      0.001186
      3.84839      3.70222      9.55121        -0.000604      0.034580     -0.040698
      6.41628      3.70444      9.56154        -0.032181     -0.025297      0.001296
     10.26332      5.92553      9.54910         0.007621      0.005783      0.002681
      5.13026      5.92553      9.54910        -0.007776      0.005826      0.002747
      7.69679      5.92234      9.56154        -0.000038      0.039363     -0.010433
      0.00000      0.00000     11.64072         0.000010      0.010310      0.039580
      2.56831      0.00307     11.65724        -0.051401     -0.085289     -0.105461
      5.12847      0.00307     11.65724         0.052412     -0.084693     -0.105029
      1.28681      2.22269     11.65724        -0.081016      0.001666     -0.094942
      6.40997      2.22269     11.65724         0.080944      0.001148     -0.094090
      2.56689      4.43985     11.65724        -0.074642      0.072610     -0.108851
      5.12989      4.43985     11.65724         0.075377      0.072483     -0.109000
      7.69679      4.44374     11.65596        -0.000232     -0.001185      0.037119
      3.84839      2.22187     11.62023        -0.001211     -0.011455      0.831138
      3.05892      1.66365     14.02173         0.006639      0.006935     -0.006666
      4.63186      1.65717     14.01945        -0.005493      0.006378     -0.003082
      3.84727      2.20076     13.79154        -0.000214     -0.015974      0.003226
    total drift:                                0.001620      0.007481      0.072210

  FREE ENERGIE OF THE ION-ELECTRON SYSTEM (eV)
  free  energy   TOTEN  =      -144.50910126 eV

  energy  without entropy=     -144.50910126  energy(sigma->0) =     -144.50910126

 stress matrix after NEB project (eV)
    -11.14073      0.00945      0.00136
      0.00945    -11.14594     -0.07699
      0.00136     -0.07699     -3.82830
  FORCES: max atom, RMS     0.016298    0.003518
  FORCE total and by dimension    0.021968    0.015974
  Stress total and by dimension   16.217760   11.145936
|           W    W    AA    RRRRR   N    N  II  N    N   GGGG   !!!           |
|           W    W   A  A   R    R  NN   N  II  NN   N  G    G  !!!           |
|           W    W  A    A  R    R  N N  N  II  N N  N  G       !!!           |
|           W WW W  AAAAAA  RRRRR   N  N N  II  N  N N  G  GGG   !            |
|           WW  WW  A    A  R   R   N   NN  II  N   NN  G    G                |
|           W    W  A    A  R    R  N    N  II  N    N   GGGG   !!!           |
|     Tetrahedron method does not include variations of the Fermi             |
|     occupations, so forces and stress will be inaccurate. We suggest        |
|     using a different smearing scheme ISMEAR = 1 or 2 for metals in         |
|     relaxations.                                                            |

 total charge

# of ion       s       p       d       tot
    1        0.449   0.283   9.187   9.919
    2        0.447   0.286   9.185   9.918
    3        0.447   0.286   9.184   9.918
    4        0.447   0.286   9.185   9.918
    5        0.449   0.286   9.181   9.916
    6        0.447   0.286   9.185   9.917
    7        0.447   0.286   9.185   9.917
    8        0.447   0.286   9.185   9.917
    9        0.448   0.284   9.187   9.918
   10        0.443   0.371   9.175   9.989
   11        0.442   0.366   9.182   9.990
   12        0.443   0.371   9.175   9.989
   13        0.441   0.366   9.182   9.989
   14        0.441   0.366   9.182   9.989
   15        0.439   0.370   9.175   9.984
   16        0.443   0.371   9.175   9.989
   17        0.438   0.370   9.176   9.984
   18        0.438   0.370   9.176   9.984
   19        0.443   0.369   9.179   9.990
   20        0.465   0.394   9.156  10.016
   21        0.465   0.394   9.156  10.016
   22        0.432   0.374   9.179   9.986
   23        0.465   0.394   9.157  10.015
   24        0.432   0.374   9.179   9.986
   25        0.442   0.368   9.179   9.990
   26        0.442   0.368   9.179   9.990
   27        0.433   0.374   9.179   9.986
   28        0.445   0.292   9.177   9.914
   29        0.473   0.311   9.163   9.946
   30        0.473   0.311   9.163   9.946
   31        0.473   0.309   9.164   9.946
   32        0.473   0.309   9.164   9.946
   33        0.471   0.304   9.166   9.941
   34        0.471   0.304   9.166   9.941
   35        0.439   0.295   9.178   9.912
   36        0.488   0.548   3.392   4.428
   37        0.600   0.117   0.000   0.717
   38        0.600   0.117   0.000   0.717
   39        1.568   3.615   0.000   5.182
tot         18.990  16.134 324.535 359.659

 BZINTS: Fermi energy:   -0.130135;  398.000000 electrons
         Band energy:-0.125329E+04;  BLOECHL correction:   -0.021523