 vasp.6.2.0 18Jan21 (build Jun 12 2021 23:27:24) complex

 executed on             LinuxIFC date 2022.05.26  19:52:15

 INCAR:
   ISMEAR = -5
   SIGMA = 0.1
   ISPIN = 1
   EDIFF = 1.d-5
   EDIFFG = -0.01
   NSW = 0
   NELM = 150
   ENCUT = 500
   ISIF = 2
   IBRION = 2
   LREAL = Auto
   ALGO = Fast
   ICHARG = 11
   LORBIT = 10
   LCHARG = .F.
   LWAVE = .F.

 POTCAR:    PAW_PBE Ag 02Apr2005
 POTCAR:    PAW_PBE W 08Apr2002
 POTCAR:    PAW_PBE H 15Jun2001
|           W    W    AA    RRRRR   N    N  II  N    N   GGGG   !!!           |
|           W    W   A  A   R    R  NN   N  II  NN   N  G    G  !!!           |
|           W    W  A    A  R    R  N N  N  II  N N  N  G       !!!           |
|           W WW W  AAAAAA  RRRRR   N  N N  II  N  N N  G  GGG   !            |
|           WW  WW  A    A  R   R   N   NN  II  N   NN  G    G                |
|           W    W  A    A  R    R  N    N  II  N    N   GGGG   !!!           |
|     For optimal performance we recommend to set                             |
|       NCORE = 2 up to number-of-cores-per-socket                            |
|     This setting can greatly improve the performance of VASP for DFT.       |
|     The default, NCORE=1 might be grossly inefficient on modern             |
|     multi-core architectures or massively parallel machines. Do your        |
|     Unfortunately you need to use the default for GW and RPA                |
|     calculations (for HF NCORE is supported but not extensively tested      |
|     yet).                                                                   |

 POTCAR:    PAW_PBE Ag 02Apr2005
   VRHFIN =Ag : s1 d10

   TITEL  = PAW_PBE Ag 02Apr2005
   POMASS =  107.868; ZVAL   =   11.000    mass and valenz
   ENMAX  =  249.844; ENMIN  =  187.383 eV

 POTCAR:    PAW_PBE W 08Apr2002
   VRHFIN =W : 6s5d

   TITEL  = PAW_PBE W 08Apr2002
   POMASS =  183.850; ZVAL   =    6.000    mass and valenz
   ENMAX  =  223.057; ENMIN  =  167.293 eV

 POTCAR:    PAW_PBE H 15Jun2001
   VRHFIN =H: ultrasoft test

   TITEL  = PAW_PBE H 15Jun2001
   POMASS =    1.000; ZVAL   =    1.000    mass and valenz
   ENMAX  =  250.000; ENMIN  =  200.000 eV

 Optimization of the real space projectors (new method)

 maximal supplied QI-value         = 15.12
 optimisation between [QCUT,QGAM] = [ 11.34, 22.83] = [ 36.00,145.93] Ry
 Optimized for a Real-space Cutoff    1.43 Angstroem

   l    n(q)    QCUT    max X(q) W(low)/X(q) W(high)/X(q)  e(spline)
   2      9    11.338    53.897    0.16E-03    0.20E-03    0.28E-06
   2      9    11.338    52.416    0.16E-03    0.20E-03    0.29E-06
   0     10    11.338   122.045    0.31E-04    0.76E-04    0.15E-06
   0     10    11.338    73.629    0.30E-04    0.72E-04    0.15E-06
   1      9    11.338    15.255    0.20E-03    0.19E-04    0.17E-06
   1      9    11.338     9.562    0.16E-03    0.15E-04    0.14E-06
 Optimization of the real space projectors (new method)

[...]

   l    n(q)    QCUT    max X(q) W(low)/X(q) W(high)/X(q)  e(spline)
   2     10    11.429   130.855    0.22E-03    0.64E-03    0.11E-05
   2     10    11.429   114.007    0.22E-03    0.64E-03    0.11E-05
   0     11    11.429    84.709    0.39E-04    0.67E-04    0.23E-06
   0     11    11.429    49.163    0.35E-04    0.62E-04    0.21E-06
   1     10    11.429    15.765    0.84E-04    0.15E-03    0.24E-06
   1     10    11.429    10.638    0.58E-04    0.12E-03    0.19E-06
 Optimization of the real space projectors (new method)

 maximal supplied QI-value         = 34.20
 optimisation between [QCUT,QGAM] = [ 11.29, 22.57] = [ 35.68,142.71] Ry
 Optimized for a Real-space Cutoff    1.16 Angstroem

   l    n(q)    QCUT    max X(q) W(low)/X(q) W(high)/X(q)  e(spline)
   0      8    11.287    19.460    0.40E-03    0.73E-03    0.16E-06
   0      8    11.287    12.209    0.38E-03    0.70E-03    0.15E-06
   1      7    11.287     4.655    0.22E-03    0.25E-04    0.22E-06
  PAW_PBE Ag 02Apr2005                  :
  PAW_PBE W 08Apr2002                   :
  PAW_PBE H 15Jun2001                   :

 POSCAR: Ag-W-H
  positions in direct lattice
  velocities in cartesian coordinates
 exchange correlation table for  LEXCH =        8
   RHO(1)=    0.500       N(1)  =     2000
   RHO(2)=  100.500       N(2)  =     4000

 VTST: version 3.2, (02/03/18)

 CHAIN: initializing optimizer

 OPT: Using VASP Conjugate-Gradient optimizer
 CHAIN: Read ICHAIN            0

 POSCAR: Ag-W-H
  positions in direct lattice
  velocities in cartesian coordinates

 ion  position               nearest neighbor table
   1  0.000  0.000  0.238-   2 2.93   8 2.93   7 2.93   6 2.93   4 2.93  12 2.93  16 2.93  10 2.93
                             3 2.93
   2  0.333  0.000  0.238-   1 2.93   8 2.93   9 2.93   3 2.93   4 2.93   5 2.93  10 2.93  17 2.93
                            11 2.93
   3  0.667  0.000  0.238-   9 2.93   2 2.93   5 2.93  11 2.93   7 2.93  18 2.93   1 2.93   6 2.93
                            12 2.93
   4  0.000  0.333  0.238-   5 2.93   6 2.93   2 2.93   1 2.93   7 2.93  13 2.93  15 2.93   9 2.93
                            10 2.93
   5  0.333  0.333  0.238-   4 2.93   3 2.93   7 2.93   2 2.93   8 2.93  14 2.93  13 2.93  11 2.93
                             6 2.93
   6  0.667  0.333  0.238-   4 2.93   9 2.93   1 2.93  15 2.93   8 2.93  12 2.93   3 2.93   5 2.93
                            14 2.93
   7  0.000  0.667  0.238-   8 2.93   1 2.93   5 2.93   3 2.93   4 2.93  16 2.93  18 2.93  13 2.93
                             9 2.93
   8  0.333  0.667  0.238-   7 2.93   1 2.93   2 2.93   9 2.93   5 2.93  16 2.93   6 2.93  17 2.93
                            14 2.93
   9  0.667  0.667  0.238-   3 2.93   2 2.93   8 2.93   6 2.93  17 2.93   4 2.93  15 2.93   7 2.93
                            18 2.93
  10  0.111  0.111  0.346-  20 2.89  12 2.93  16 2.93  15 2.93  17 2.93  13 2.93  11 2.93   2 2.93
                             1 2.93   4 2.93  19 2.93  26 2.93
  11  0.444  0.111  0.346-  21 2.90  20 2.90  14 2.93  17 2.93  18 2.93   3 2.93  12 2.93  13 2.93
                            10 2.93   5 2.93   2 2.93  27 2.93
  12  0.778  0.111  0.346-  21 2.89  10 2.93  16 2.93  18 2.93  15 2.93  11 2.93   1 2.93  14 2.93
                             6 2.93   3 2.93  25 2.93  19 2.93
  13  0.111  0.444  0.346-  20 2.90  23 2.90  15 2.93  14 2.93  18 2.93  10 2.93  11 2.93  16 2.93
                             4 2.93   5 2.93   7 2.93  22 2.93
  14  0.444  0.444  0.346-  23 2.90  21 2.90  13 2.93  11 2.93  16 2.93   5 2.93  12 2.93  17 2.93
                             8 2.93  15 2.93   6 2.93  24 2.93
  15  0.778  0.444  0.346-  24 2.93  22 2.93  13 2.93  10 2.93  12 2.93  17 2.93  18 2.93   4 2.93
                             6 2.93   9 2.93  14 2.93  19 2.93
  16  0.111  0.778  0.346-  23 2.89  18 2.93  12 2.93  10 2.93  14 2.93  17 2.93  13 2.93   7 2.93
                             8 2.93   1 2.93  26 2.93  25 2.93
  17  0.444  0.778  0.346-  27 2.93  24 2.93  11 2.93  10 2.93   9 2.93  18 2.93  15 2.93  16 2.93
                             2 2.93  14 2.93   8 2.93  26 2.93
  18  0.778  0.778  0.346-  22 2.93  27 2.93  16 2.93  12 2.93  13 2.93  11 2.93  17 2.93  15 2.93
                             7 2.93   3 2.93   9 2.93  25 2.93
  19  0.889  0.223  0.454-  28 2.92  20 2.93  21 2.93  24 2.93  22 2.93  15 2.93  10 2.93  12 2.93
                            26 2.94  25 2.94  32 2.98  31 2.98
  20  0.222  0.222  0.452-  36 2.76  10 2.89  13 2.90  11 2.90  19 2.93  26 2.93  27 2.94  22 2.94
                            21 2.94  23 2.94  31 2.96  29 2.96
  21  0.556  0.222  0.452-  36 2.76  12 2.89  11 2.90  14 2.90  25 2.93  19 2.93  27 2.94  24 2.94
                            20 2.94  23 2.94  30 2.96  32 2.96
  22  0.888  0.556  0.454-  35 2.92  24 2.92  27 2.92  18 2.93  15 2.93  25 2.93  19 2.93  13 2.93
                            23 2.94  20 2.94  33 2.96  31 2.96
  23  0.222  0.556  0.452-  36 2.76  16 2.89  14 2.90  13 2.90  26 2.93  25 2.93  22 2.94  24 2.94
                            21 2.94  20 2.94  34 2.96  33 2.96
  24  0.556  0.556  0.454-  35 2.92  27 2.92  22 2.92  15 2.93  17 2.93  19 2.93  26 2.93  14 2.93
                            23 2.94  21 2.94  32 2.96  34 2.96
  25  0.889  0.889  0.454-  28 2.92  23 2.93  21 2.93  22 2.93  27 2.93  18 2.93  16 2.93  12 2.93
                            26 2.94  19 2.94  33 2.98  30 2.98
  26  0.223  0.889  0.454-  28 2.92  23 2.93  20 2.93  27 2.93  24 2.93  17 2.93  16 2.93  10 2.93
                            25 2.94  19 2.94  34 2.98  29 2.98
  27  0.556  0.888  0.454-  35 2.92  24 2.92  22 2.92  17 2.93  18 2.93  26 2.93  25 2.93  11 2.93
                            20 2.94  21 2.94  29 2.96  30 2.96
  28  0.000  0.000  0.562-  26 2.92  25 2.92  19 2.92  29 2.96  34 2.96  33 2.96  32 2.96  31 2.96
                            30 2.96
  29  0.333  0.007  0.563-  31 2.86  30 2.87  36 2.88  20 2.96  27 2.96  28 2.96  35 2.96  26 2.98
                            34 3.06
  30  0.659  0.007  0.563-  32 2.86  29 2.87  36 2.88  21 2.96  27 2.96  28 2.96  35 2.96  25 2.98
                            33 3.06
  31  0.007  0.333  0.563-  29 2.86  33 2.87  36 2.88  20 2.96  22 2.96  28 2.96  35 2.96  19 2.98
                            32 3.06
  32  0.659  0.333  0.563-  30 2.86  34 2.87  36 2.88  21 2.96  24 2.96  28 2.96  35 2.96  19 2.98
                            31 3.06
  33  0.007  0.659  0.563-  34 2.86  31 2.87  36 2.88  23 2.96  22 2.96  28 2.96  35 2.96  25 2.98
                            30 3.06
  34  0.333  0.659  0.563-  33 2.86  32 2.87  36 2.88  23 2.96  24 2.96  28 2.96  35 2.96  26 2.98
                            29 3.06
  35  0.667  0.667  0.561-  24 2.92  27 2.92  22 2.92  30 2.96  32 2.96  29 2.96  34 2.96  31 2.96
                            33 2.96
  36  0.333  0.333  0.550-  37 1.72  21 2.76  20 2.76  23 2.76  31 2.88  30 2.88  33 2.88  29 2.88
                            34 2.88  32 2.88
  37  0.333  0.333  0.628-  36 1.72

  LATTYP: Found a hexagonal cell.
 ALAT       =     8.7913665772
 C/A-ratio  =     2.5227160501

  Lattice vectors:

 A1 = (  -4.3956832886,  -7.6135467898,   0.0000000000)
 A2 = (   8.7913665771,   0.0000000000,   0.0000000000)
 A3 = (   0.0000000000,   0.0000000000,  22.1781215668)

Analysis of symmetry for initial positions (statically):
 Subroutine PRICEL returns:
 Original cell was already a primitive cell.

 Routine SETGRP: Setting up the symmetry group for a
 hexagonal supercell.

 Subroutine GETGRP returns: Found  6 space group operations
 (whereof  6 operations were pure point group operations)
 out of a pool of 24 trial point group operations.

The static configuration has the point symmetry C_3v.

Analysis of symmetry for dynamics (positions and initial velocities):
 Subroutine PRICEL returns:
 Original cell was already a primitive cell.

[...]

The dynamic configuration has the point symmetry C_3v.

Analysis of constrained symmetry for selective dynamics:
 Subroutine PRICEL returns:
 Original cell was already a primitive cell.

 Routine SETGRP: Setting up the symmetry group for a
 hexagonal supercell.

 Subroutine GETGRP returns: Found  6 space group operations
 (whereof  6 operations were pure point group operations)
[...]
     24      -4.7177      2.00000
     25      -4.7004      2.00000
     26      -4.6889      2.00000
     27      -4.6605      2.00000
     28      -4.6533      2.00000
     29      -4.6530      2.00000
     30      -4.6324      2.00000
     31      -4.6168      2.00000
     32      -4.5837      2.00000
     33      -4.5725      2.00000
     34      -4.5380      2.00000
     35      -4.5067      2.00000
     36      -4.5005      2.00000
     37      -4.4570      2.00000
     38      -4.4332      2.00000
     39      -4.4240      2.00000
     40      -4.4151      2.00000
     41      -4.4068      2.00000
     42      -4.3951      2.00000
     43      -4.3159      2.00000
     44      -4.2808      2.00000
     45      -4.2724      2.00000
     46      -4.2616      2.00000
     47      -4.2543      2.00000
     48      -4.2519      2.00000
     49      -4.2488      2.00000
     50      -4.2405      2.00000
     51      -4.2280      2.00000
     52      -4.2218      2.00000
     53      -4.1545      2.00000
     54      -4.1448      2.00000
     55      -4.1366      2.00000
     56      -4.1239      2.00000
     57      -4.1078      2.00000
     58      -4.0938      2.00000
     59      -4.0738      2.00000
     60      -4.0513      2.00000
[...]
    238       7.1526      0.00000
    239       7.2044      0.00000
    240       7.2285      0.00000
    241       7.2544      0.00000
    242       7.2798      0.00000
    243       7.3122      0.00000
    244       7.3701      0.00000
    245       7.5074      0.00000
    246       7.5455      0.00000
    247       7.5763      0.00000
    248       7.6512      0.00000
    249       7.6853      0.00000
    250       7.8988      0.00000
    251       7.9332      0.00000
    252       8.1180      0.00000

 soft charge-density along one line, spin component           1
         0         1         2         3         4         5         6         7         8         9
 total charge-density along one line

------------------------ aborting loop because EDIFF is reached ----------------------------------------

 total charge

# of ion       s       p       d       tot
    1        0.422   0.198   9.179   9.799
    2        0.413   0.204   9.178   9.795
    3        0.413   0.204   9.178   9.795
    4        0.413   0.204   9.178   9.795
    5        0.423   0.201   9.176   9.800
    6        0.413   0.204   9.178   9.795
    7        0.413   0.204   9.178   9.795
    8        0.413   0.204   9.178   9.795
    9        0.416   0.202   9.177   9.796
   10        0.411   0.268   9.161   9.841
   11        0.406   0.268   9.169   9.843
   12        0.411   0.268   9.161   9.841
   13        0.406   0.268   9.169   9.843
   14        0.406   0.268   9.169   9.843
   15        0.404   0.267   9.165   9.836
   16        0.411   0.268   9.161   9.841
   17        0.404   0.267   9.165   9.836
   18        0.404   0.267   9.165   9.836
   19        0.400   0.262   9.168   9.829
   20        0.451   0.306   9.132   9.889
   21        0.451   0.306   9.132   9.889
   22        0.392   0.271   9.168   9.830
   23        0.451   0.306   9.132   9.889
   24        0.392   0.271   9.168   9.830
   25        0.400   0.262   9.168   9.829
   26        0.400   0.262   9.168   9.829
   27        0.392   0.271   9.168   9.830
   28        0.406   0.198   9.174   9.778
   29        0.436   0.218   9.152   9.807
   30        0.436   0.218   9.152   9.807
   31        0.436   0.218   9.152   9.807
   32        0.436   0.218   9.152   9.807
   33        0.436   0.218   9.152   9.807
   34        0.436   0.218   9.152   9.807
   35        0.401   0.198   9.178   9.777
   36        0.617   0.429   3.878   4.924
   37        0.533   0.013   0.000   0.546
tot         15.706   8.899 324.627 349.232

  FORCE on cell =-STRESS in cart. coord.  units (eV):
  Direction    XX          YY          ZZ          XY          YZ          ZX
  Alpha Z   747.39348   747.39348   747.39348
  Ewald  118936.53283118936.53275************    -0.00000    -0.00001    -0.00002
  Hartree128929.88628128929.88624************    -0.00000    -0.00000    -0.00000
  E(xc)   -2056.94006 -2056.94005 -2064.00636    -0.00001     0.00000     0.00000
  Local  ************************259109.26152     0.00021    -0.00002    -0.00004
  n-local  -340.78027  -321.09742  -333.37565    11.33045    -0.36477     0.54898
  augment  3223.29018  3223.29032  3237.72014    -0.00009     0.00002     0.00005
  Kinetic  4842.60134  4846.49944  4884.18394     4.05224     0.08349     0.37009
  Fock        0.00000     0.00000     0.00000     0.00000     0.00000     0.00000
  Total      -9.92676    -9.92676     0.02210    -0.00000     0.00000     0.00000
  in kB     -10.71395   -10.71395     0.02385    -0.00000     0.00000     0.00000

 VOLUME and BASIS-vectors are now :
  energy-cutoff  :      500.00
  volume of cell :     1484.46
      direct lattice vectors                 reciprocal lattice vectors
     8.791366577  0.000000000  0.000000000     0.113747958 -0.065672414  0.000000000
     4.395683289  7.613546790  0.000000000     0.000000000  0.131344829  0.000000000
     0.000000000  0.000000000 22.178121567     0.000000000  0.000000000  0.045089481

  length of vectors
     8.791366577  8.791366577 22.178121567     0.131344829  0.131344829  0.045089481

 FORCES acting on ions
    electron-ion (+dipol)            ewald-force                    non-local-force                 convergence-correction
   0.461E-04 -.281E-04 0.248E+04   -.953E-04 0.593E-04 -.248E+04   0.330E-17 -.389E-17 -.194E+01   -.203E-03 -.221E-03 0.120E+00
   0.153E+00 0.109E+00 0.248E+04   -.174E+00 -.242E+00 -.248E+04   0.916E-01 0.241E+00 -.160E+01   -.706E-01 -.113E+00 0.195E+00
   -.153E+00 0.109E+00 0.248E+04   0.174E+00 -.242E+00 -.248E+04   -.916E-01 0.241E+00 -.160E+01   0.701E-01 -.111E+00 0.196E+00
   0.171E+00 0.784E-01 0.248E+04   -.297E+00 -.293E-01 -.248E+04   0.254E+00 -.412E-01 -.160E+01   -.133E+00 -.454E-02 0.195E+00
   -.797E-05 -.202E-04 0.248E+04   0.980E-04 -.197E-05 -.248E+04   -.264E-17 -.230E-18 -.982E+00   0.626E-02 0.383E-02 0.323E+00
   -.171E+00 0.785E-01 0.248E+04   0.297E+00 -.294E-01 -.248E+04   -.254E+00 -.412E-01 -.160E+01   0.131E+00 -.372E-02 0.196E+00
   0.175E-01 -.187E+00 0.248E+04   -.123E+00 0.272E+00 -.248E+04   0.163E+00 -.200E+00 -.160E+01   -.605E-01 0.117E+00 0.196E+00
   -.175E-01 -.187E+00 0.248E+04   0.123E+00 0.272E+00 -.248E+04   -.163E+00 -.200E+00 -.160E+01   0.621E-01 0.116E+00 0.196E+00
   0.363E-04 -.131E-04 0.248E+04   0.792E-04 -.643E-04 -.248E+04   -.426E-18 0.161E-17 -.171E+01   -.658E-02 -.339E-02 0.208E+00
   0.373E+01 0.215E+01 0.803E+03   -.322E+01 -.186E+01 -.802E+03   -.458E+00 -.264E+00 -.708E+00   -.877E-01 -.506E-01 0.959E-01
   -.282E-04 0.259E+01 0.803E+03   0.403E-04 -.246E+01 -.803E+03   0.453E-12 0.689E-01 -.102E+00   0.687E-02 -.227E+00 0.115E+00
   -.373E+01 0.215E+01 0.803E+03   0.322E+01 -.186E+01 -.802E+03   0.458E+00 -.264E+00 -.708E+00   0.856E-01 -.497E-01 0.968E-01
   0.224E+01 -.129E+01 0.803E+03   -.213E+01 0.123E+01 -.803E+03   0.597E-01 -.345E-01 -.102E+00   -.193E+00 0.119E+00 0.115E+00
   -.224E+01 -.129E+01 0.803E+03   0.213E+01 0.123E+01 -.803E+03   -.597E-01 -.345E-01 -.102E+00   0.204E+00 0.118E+00 0.114E+00
   0.156E-04 0.676E+00 0.802E+03   -.108E-03 -.958E+00 -.802E+03   0.849E-12 0.129E+00 -.767E+00   -.173E-02 0.120E+00 0.122E+00
   -.824E-05 -.430E+01 0.803E+03   0.205E-04 0.372E+01 -.802E+03   0.347E-11 0.529E+00 -.708E+00   -.373E-03 0.989E-01 0.968E-01
   0.585E+00 -.338E+00 0.802E+03   -.830E+00 0.479E+00 -.802E+03   0.112E+00 -.646E-01 -.767E+00   0.103E+00 -.616E-01 0.122E+00
   -.586E+00 -.338E+00 0.802E+03   0.830E+00 0.479E+00 -.802E+03   -.112E+00 -.646E-01 -.767E+00   -.102E+00 -.592E-01 0.124E+00
   0.385E-04 -.356E+01 -.894E+03   -.126E-03 0.342E+01 0.892E+03   0.806E-12 0.123E+00 0.904E+00   -.650E-02 -.168E-02 0.161E+00
   -.149E+02 -.861E+01 -.888E+03   0.165E+02 0.951E+01 0.889E+03   -.146E+01 -.842E+00 -.150E+01   -.217E+00 -.125E+00 0.107E+00
   0.149E+02 -.861E+01 -.888E+03   -.165E+02 0.951E+01 0.889E+03   0.146E+01 -.842E+00 -.150E+01   0.219E+00 -.127E+00 0.107E+00
   -.109E+02 0.627E+01 -.887E+03   0.108E+02 -.626E+01 0.887E+03   0.294E+00 -.170E+00 0.384E+00   -.230E+00 0.142E+00 0.823E-01
   -.507E-04 0.172E+02 -.888E+03   0.384E-04 -.190E+02 0.889E+03   0.111E-10 0.168E+01 -.150E+01   -.652E-03 0.253E+00 0.107E+00
   0.109E+02 0.627E+01 -.887E+03   -.108E+02 -.626E+01 0.887E+03   -.294E+00 -.170E+00 0.384E+00   0.241E+00 0.139E+00 0.819E-01
   0.308E+01 0.178E+01 -.894E+03   -.296E+01 -.171E+01 0.892E+03   -.106E+00 -.614E-01 0.904E+00   -.758E-02 -.431E-02 0.160E+00
   -.308E+01 0.178E+01 -.894E+03   0.296E+01 -.171E+01 0.892E+03   0.106E+00 -.614E-01 0.904E+00   -.507E-02 -.481E-02 0.160E+00
   0.199E-04 -.125E+02 -.887E+03   0.109E-03 0.125E+02 0.887E+03   0.223E-11 0.340E+00 0.384E+00   0.732E-02 -.271E+00 0.817E-01
   0.531E-04 -.358E-04 -.249E+04   -.112E-03 0.762E-04 0.249E+04   -.140E-17 0.225E-17 0.191E+01   -.448E-03 0.367E-03 -.393E-01
   -.114E+02 -.208E+02 -.250E+04   0.124E+02 0.224E+02 0.250E+04   -.113E+01 -.166E+01 0.119E+01   0.813E-01 0.824E-01 0.760E-01
   0.114E+02 -.208E+02 -.250E+04   -.124E+02 0.224E+02 0.250E+04   0.113E+01 -.166E+01 0.119E+01   -.809E-01 0.833E-01 0.745E-01
   -.237E+02 0.573E+00 -.250E+04   0.256E+02 -.438E+00 0.250E+04   -.200E+01 -.146E+00 0.119E+01   0.113E+00 0.305E-01 0.760E-01
   0.237E+02 0.573E+00 -.250E+04   -.256E+02 -.438E+00 0.250E+04   0.200E+01 -.146E+00 0.119E+01   -.124E+00 0.298E-01 0.754E-01
   -.124E+02 0.203E+02 -.250E+04   0.132E+02 -.219E+02 0.250E+04   -.874E+00 0.181E+01 0.119E+01   0.261E-01 -.121E+00 0.744E-01
   0.124E+02 0.203E+02 -.250E+04   -.132E+02 -.219E+02 0.250E+04   0.874E+00 0.181E+01 0.119E+01   -.359E-01 -.122E+00 0.754E-01
   0.260E-04 -.140E-04 -.249E+04   0.103E-03 -.646E-04 0.249E+04   -.271E-17 -.182E-18 0.209E+01   -.477E-02 -.308E-02 -.113E+00
   -.246E-04 -.592E-05 -.128E+04   0.578E-04 0.738E-05 0.128E+04   -.167E-17 -.665E-18 -.227E+01   0.116E-02 0.105E-02 0.266E+00
   0.525E-05 -.422E-05 -.269E+03   0.512E-05 0.761E-07 0.271E+03   -.165E-18 -.109E-18 -.233E+01   0.137E-03 0.121E-03 -.329E-01
   0.300E-03 -.712E-03 0.874E+01   -.256E-13 0.135E-12 0.523E-11   0.106E-15 0.443E-15 -.131E+02   -.112E-01 -.886E-02 0.441E+01

 POSITION                                       TOTAL-FORCE (eV/Angst)
      0.00000      0.00000      5.28219         0.000000     -0.000000     -0.057814
      2.93046      0.00000      5.28219         0.001213     -0.004376      0.030735
      5.86091      0.00000      5.28219        -0.001213     -0.004376      0.030735
      1.46523      2.53785      5.28219        -0.003183      0.003239      0.030735
      4.39568      2.53785      5.28219         0.000000     -0.000000     -0.008523
      7.32614      2.53785      5.28219         0.003183      0.003239      0.030735
      2.93046      5.07570      5.28219        -0.004396      0.001137      0.030735
      5.86091      5.07570      5.28219         0.004396      0.001137      0.030735
      8.79137      5.07570      5.28219         0.000000     -0.000000     -0.002319
      1.46523      0.84595      7.67490        -0.033757     -0.019490     -0.029270
      4.39568      0.84595      7.67490        -0.000000     -0.034136     -0.062398
      7.32614      0.84595      7.67490         0.033757     -0.019490     -0.029270
      2.93046      3.38380      7.67490        -0.029562      0.017068     -0.062398
      5.86091      3.38380      7.67490         0.029562      0.017068     -0.062398
      8.79137      3.38380      7.67490        -0.000000     -0.033602      0.010887
      4.39568      5.92165      7.67490         0.000000      0.038979     -0.029270
      7.32614      5.92165      7.67490        -0.029100      0.016801      0.010887
     10.25659      5.92165      7.67490         0.029100      0.016801      0.010887
      8.79137      1.69504     10.07204        -0.000000     -0.016569      0.008992
      2.92602      1.68934     10.02478        -0.116629     -0.067336     -0.086598
      5.86534      1.68934     10.02478         0.116629     -0.067336     -0.086598
     10.25093      4.23302     10.06482         0.050908     -0.029392      0.010118
      4.39568      4.23487     10.02478         0.000000      0.134672     -0.086598
      7.33181      4.23302     10.06482        -0.050908     -0.029392      0.010118
     11.71910      6.76603     10.07204         0.014349      0.008284      0.008992
      5.86363      6.76603     10.07204        -0.014349      0.008284      0.008992
      8.79137      6.76105     10.06482         0.000000      0.058783      0.010118
      0.00000      0.00000     12.45341        -0.000000     -0.000000      0.033574
      2.96185      0.05622     12.48740         0.000136     -0.038178     -0.025008
      5.82952      0.05622     12.48740        -0.000136     -0.038178     -0.025008
      1.52961      2.53693     12.48740        -0.032995      0.019206     -0.025008
      7.26176      2.53693     12.48740         0.032995      0.019206     -0.025008
      2.96344      5.02040     12.48740        -0.033131      0.018971     -0.025008
      5.82792      5.02040     12.48740         0.033131      0.018971     -0.025008
      8.79137      5.07570     12.44798         0.000000     -0.000000      0.080627
      4.39568      2.53785     12.20252         0.000000     -0.000000      0.358685
      4.39568      2.53785     13.91826        -0.000000     -0.000000      0.006212
    total drift:                               -0.010889     -0.009567      0.086162

  FREE ENERGIE OF THE ION-ELECTRON SYSTEM (eV)
  free  energy   TOTEN  =      -101.48953445 eV

  energy  without entropy=     -101.48953445  energy(sigma->0) =     -101.48953445

 stress matrix after NEB project (eV)
     -9.92676     -0.00000      0.00000
     -0.00000     -9.92676      0.00000
     -0.00000      0.00000      0.02210
  FORCES: max atom, RMS     0.006212    0.001021
  FORCE total and by dimension    0.006212    0.006212
  Stress total and by dimension   14.038569    9.926755
|           W    W    AA    RRRRR   N    N  II  N    N   GGGG   !!!           |
|           W    W   A  A   R    R  NN   N  II  NN   N  G    G  !!!           |
|           W    W  A    A  R    R  N N  N  II  N N  N  G       !!!           |
|           W WW W  AAAAAA  RRRRR   N  N N  II  N  N N  G  GGG   !            |
|           WW  WW  A    A  R   R   N   NN  II  N   NN  G    G                |
|           W    W  A    A  R    R  N    N  II  N    N   GGGG   !!!           |
|     Tetrahedron method does not include variations of the Fermi             |
|     occupations, so forces and stress will be inaccurate. We suggest        |
|     using a different smearing scheme ISMEAR = 1 or 2 for metals in         |
|     relaxations.                                                            |

 total charge

# of ion       s       p       d       tot
    1        0.422   0.198   9.179   9.799
    2        0.413   0.204   9.178   9.795
    3        0.413   0.204   9.178   9.795
    4        0.413   0.204   9.178   9.795
    5        0.423   0.201   9.176   9.800
    6        0.413   0.204   9.178   9.795
    7        0.413   0.204   9.178   9.795
    8        0.413   0.204   9.178   9.795
    9        0.416   0.202   9.177   9.796
   10        0.411   0.268   9.161   9.841
   11        0.406   0.268   9.169   9.843
   12        0.411   0.268   9.161   9.841
   13        0.406   0.268   9.169   9.843
   14        0.406   0.268   9.169   9.843
   15        0.404   0.267   9.165   9.836
   16        0.411   0.268   9.161   9.841
   17        0.404   0.267   9.165   9.836
   18        0.404   0.267   9.165   9.836
   19        0.400   0.262   9.168   9.829
   20        0.451   0.306   9.132   9.889
   21        0.451   0.306   9.132   9.889
   22        0.392   0.271   9.168   9.830
   23        0.451   0.306   9.132   9.889
   24        0.392   0.271   9.168   9.830
   25        0.400   0.262   9.168   9.829
   26        0.400   0.262   9.168   9.829
   27        0.392   0.271   9.168   9.830
   28        0.406   0.198   9.174   9.778
   29        0.436   0.218   9.152   9.807
   30        0.436   0.218   9.152   9.807
   31        0.436   0.218   9.152   9.807
   32        0.436   0.218   9.152   9.807
   33        0.436   0.218   9.152   9.807
   34        0.436   0.218   9.152   9.807
   35        0.401   0.198   9.178   9.777
   36        0.617   0.429   3.878   4.924
   37        0.533   0.013   0.000   0.546
tot         15.706   8.899 324.627 349.232

 BZINTS: Fermi energy:    0.719368;  392.000000 electrons
         Band energy:-0.130773E+04;  BLOECHL correction:   -0.021991