 vasp.6.2.0 18Jan21 (build Jun 12 2021 23:27:24) complex

 executed on             LinuxIFC date 2022.05.28  00:53:15

 INCAR:
   ISMEAR = -5
   SIGMA = 0.1
   ISPIN = 1
   EDIFF = 1.d-5
   EDIFFG = -0.01
   NSW = 0
   NELM = 150
   ENCUT = 500
   ISIF = 2
   IBRION = 2
   LREAL = Auto
   ALGO = Fast
   ICHARG = 11
   LORBIT = 10
   LCHARG = .F.
   LWAVE = .F.

 POTCAR:    PAW_PBE Au 04Oct2007
 POTCAR:    PAW_PBE Zr_sv 04Jan2005
 POTCAR:    PAW_PBE H 15Jun2001
 POTCAR:    PAW_PBE O 08Apr2002
|           W    W    AA    RRRRR   N    N  II  N    N   GGGG   !!!           |
|           W    W   A  A   R    R  NN   N  II  NN   N  G    G  !!!           |
|           W    W  A    A  R    R  N N  N  II  N N  N  G       !!!           |
|           W WW W  AAAAAA  RRRRR   N  N N  II  N  N N  G  GGG   !            |
|           WW  WW  A    A  R   R   N   NN  II  N   NN  G    G                |
|           W    W  A    A  R    R  N    N  II  N    N   GGGG   !!!           |
|     For optimal performance we recommend to set                             |
|       NCORE = 2 up to number-of-cores-per-socket                            |
|     This setting can greatly improve the performance of VASP for DFT.       |
|     The default, NCORE=1 might be grossly inefficient on modern             |
|     multi-core architectures or massively parallel machines. Do your        |
|     Unfortunately you need to use the default for GW and RPA                |
|     calculations (for HF NCORE is supported but not extensively tested      |
|     yet).                                                                   |

 POTCAR:    PAW_PBE Au 04Oct2007
   VRHFIN =Au: s1d10

   TITEL  = PAW_PBE Au 04Oct2007
   POMASS =  196.966; ZVAL   =   11.000    mass and valenz
   ENMAX  =  229.943; ENMIN  =  172.457 eV

 POTCAR:    PAW_PBE Zr_sv 04Jan2005
   VRHFIN =Zr: 4s4p5s4d

   TITEL  = PAW_PBE Zr_sv 04Jan2005
   POMASS =   91.224; ZVAL   =   12.000    mass and valenz
   ENMAX  =  229.898; ENMIN  =  172.424 eV

 POTCAR:    PAW_PBE H 15Jun2001
   VRHFIN =H: ultrasoft test

   TITEL  = PAW_PBE H 15Jun2001
   POMASS =    1.000; ZVAL   =    1.000    mass and valenz
   ENMAX  =  250.000; ENMIN  =  200.000 eV

 POTCAR:    PAW_PBE O 08Apr2002
   VRHFIN =O: s2p4

   TITEL  = PAW_PBE O 08Apr2002
   POMASS =   16.000; ZVAL   =    6.000    mass and valenz
   ENMAX  =  400.000; ENMIN  =  300.000 eV

 Optimization of the real space projectors (new method)

 maximal supplied QI-value         = 15.12
 optimisation between [QCUT,QGAM] = [ 11.34, 22.83] = [ 36.00,145.93] Ry
 Optimized for a Real-space Cutoff    1.39 Angstroem

   l    n(q)    QCUT    max X(q) W(low)/X(q) W(high)/X(q)  e(spline)
   2      9    11.338    60.898    0.39E-03    0.42E-03    0.21E-06
   2      9    11.338    58.894    0.40E-03    0.42E-03    0.22E-06
   0      9    11.338   109.617    0.13E-03    0.20E-04    0.13E-06
   0      9    11.338    75.026    0.13E-03    0.20E-04    0.13E-06
   1      9    11.338    16.344    0.33E-04    0.24E-03    0.18E-06
   1      9    11.338    10.160    0.26E-04    0.19E-03    0.15E-06
 Optimization of the real space projectors (new method)

[...]

   l    n(q)    QCUT    max X(q) W(low)/X(q) W(high)/X(q)  e(spline)
   0      8    11.287    19.460    0.40E-03    0.73E-03    0.16E-06
   0      8    11.287    12.209    0.38E-03    0.70E-03    0.15E-06
   1      7    11.287     4.655    0.22E-03    0.25E-04    0.22E-06
 Optimization of the real space projectors (new method)

 maximal supplied QI-value         = 24.76
 optimisation between [QCUT,QGAM] = [ 11.39, 22.77] = [ 36.31,145.25] Ry
 Optimized for a Real-space Cutoff    1.00 Angstroem

   l    n(q)    QCUT    max X(q) W(low)/X(q) W(high)/X(q)  e(spline)
   0      7    11.387    20.381    0.39E-03    0.13E-02    0.15E-06
   0      7    11.387    15.268    0.42E-03    0.14E-02    0.17E-06
   1      6    11.387     5.964    0.41E-03    0.11E-02    0.17E-06
   1      6    11.387     5.382    0.39E-03    0.87E-03    0.15E-06
  PAW_PBE Au 04Oct2007                  :
  PAW_PBE Zr_sv 04Jan2005               :
  PAW_PBE H 15Jun2001                   :
  PAW_PBE O 08Apr2002                   :

 POSCAR: Au-Zr-H2O
  positions in direct lattice
  velocities in cartesian coordinates
 exchange correlation table for  LEXCH =        8
   RHO(1)=    0.500       N(1)  =     2000
   RHO(2)=  100.500       N(2)  =     4000

 VTST: version 3.2, (02/03/18)

 CHAIN: initializing optimizer

 OPT: Using VASP Conjugate-Gradient optimizer
 CHAIN: Read ICHAIN            0

 POSCAR: Au-Zr-H2O
  positions in direct lattice
  velocities in cartesian coordinates

 ion  position               nearest neighbor table
   1  0.000  0.000  0.213-  16 2.94  12 2.94   6 2.94   8 2.94   7 2.94   3 2.94  10 2.94   4 2.94
                             2 2.94
   2  0.333  0.000  0.213-   9 2.94  11 2.94  17 2.94  10 2.94   8 2.94   4 2.94   5 2.94   1 2.94
                             3 2.94
   3  0.667  0.000  0.213-   7 2.94  18 2.94  12 2.94   1 2.94  11 2.94   5 2.94   6 2.94   9 2.94
                             2 2.94
   4  0.000  0.333  0.213-  10 2.94   6 2.94   5 2.94  13 2.94   2 2.94  15 2.94   9 2.94   1 2.94
                             7 2.94
   5  0.333  0.333  0.213-  13 2.94   7 2.94  11 2.94   4 2.94   2 2.94  14 2.94   3 2.94   8 2.94
                             6 2.94
   6  0.667  0.333  0.213-  15 2.94  14 2.94   1 2.94  12 2.94   4 2.94   9 2.94   8 2.94   3 2.94
                             5 2.94
   7  0.000  0.667  0.213-  18 2.94   3 2.94  16 2.94   5 2.94   1 2.94  13 2.94   8 2.94   4 2.94
                             9 2.94
   8  0.333  0.667  0.213-   9 2.94  17 2.94   1 2.94   2 2.94  14 2.94  16 2.94   6 2.94   7 2.94
                             5 2.94
   9  0.667  0.667  0.213-   2 2.94   8 2.94  17 2.94   6 2.94  15 2.94   4 2.94   3 2.94  18 2.94
                             7 2.94
  10  0.111  0.111  0.310-  20 2.93  26 2.93  19 2.93  11 2.94  17 2.94   2 2.94   4 2.94   1 2.94
                            12 2.94  16 2.94  13 2.94  15 2.94
  11  0.444  0.111  0.310-  20 2.92  21 2.92  27 2.94  13 2.94   2 2.94  10 2.94  17 2.94   5 2.94
                             3 2.94  18 2.94  14 2.94  12 2.94
  12  0.778  0.111  0.310-  21 2.93  25 2.93  19 2.93  16 2.94  18 2.94   1 2.94  14 2.94  15 2.94
                             3 2.94   6 2.94  10 2.94  11 2.94
  13  0.111  0.444  0.310-  23 2.92  20 2.92  22 2.94   5 2.94  18 2.94  11 2.94   7 2.94   4 2.94
                            16 2.94  10 2.94  14 2.94  15 2.94
  14  0.444  0.444  0.310-  21 2.92  23 2.92  24 2.94  15 2.94   6 2.94  12 2.94   8 2.94  17 2.94
                             5 2.94  16 2.94  13 2.94  11 2.94
  15  0.778  0.444  0.310-  24 2.93  22 2.93  19 2.93  14 2.94   6 2.94  17 2.94  12 2.94   9 2.94
                             4 2.94  10 2.94  13 2.94  18 2.94
  16  0.111  0.778  0.310-  23 2.93  25 2.93  26 2.93  18 2.94  12 2.94   7 2.94   1 2.94   8 2.94
                            13 2.94  10 2.94  14 2.94  17 2.94
  17  0.444  0.778  0.310-  27 2.93  24 2.93  26 2.93   9 2.94  15 2.94   2 2.94  10 2.94  11 2.94
                             8 2.94  14 2.94  16 2.94  18 2.94
  18  0.778  0.778  0.310-  22 2.93  27 2.93  25 2.93  16 2.94   7 2.94  13 2.94  12 2.94   3 2.94
                            11 2.94   9 2.94  15 2.94  17 2.94
  19  0.889  0.222  0.407-  10 2.93  12 2.93  15 2.93  26 2.94  25 2.94  24 2.94  22 2.94  21 2.95
                            20 2.95  28 2.96  32 3.04  31 3.04
  20  0.223  0.223  0.407-  36 2.86  23 2.92  21 2.92  11 2.92  13 2.92  10 2.93  27 2.94  22 2.94
                            26 2.95  19 2.95  29 3.00  31 3.00
  21  0.554  0.223  0.407-  36 2.86  20 2.92  23 2.92  14 2.92  11 2.92  12 2.93  27 2.94  24 2.94
                            25 2.95  19 2.95  30 3.00  32 3.00
  22  0.888  0.556  0.407-  24 2.92  27 2.92  18 2.93  15 2.93  13 2.94  25 2.94  19 2.94  23 2.94
                            20 2.94  35 2.96  33 3.01  31 3.01
  23  0.223  0.554  0.407-  36 2.86  20 2.92  21 2.92  13 2.92  14 2.92  16 2.93  22 2.94  24 2.94
                            25 2.95  26 2.95  33 3.00  34 3.00
  24  0.556  0.556  0.407-  27 2.92  22 2.92  15 2.93  17 2.93  14 2.94  26 2.94  19 2.94  21 2.94
                            23 2.94  35 2.96  32 3.01  34 3.01
  25  0.889  0.889  0.407-  16 2.93  12 2.93  18 2.93  19 2.94  26 2.94  22 2.94  27 2.94  23 2.95
                            21 2.95  28 2.96  33 3.04  30 3.04
  26  0.222  0.889  0.407-  10 2.93  16 2.93  17 2.93  19 2.94  25 2.94  27 2.94  24 2.94  20 2.95
                            23 2.95  28 2.96  29 3.04  34 3.04
  27  0.556  0.888  0.407-  24 2.92  22 2.92  17 2.93  18 2.93  11 2.94  26 2.94  25 2.94  20 2.94
                            21 2.94  35 2.96  29 3.01  30 3.01
  28  0.000  0.000  0.505-  25 2.96  19 2.96  26 2.96  34 2.97  32 2.97  33 2.97  30 2.97  31 2.97
                            29 2.97
  29  0.334  0.006  0.508-  30 2.88  31 2.89  36 2.89  35 2.96  28 2.97  20 3.00  27 3.01  26 3.04
                            34 3.04
  30  0.661  0.006  0.508-  29 2.88  32 2.89  36 2.89  35 2.96  28 2.97  21 3.00  27 3.01  25 3.04
                            33 3.04
  31  0.006  0.334  0.508-  33 2.88  29 2.89  36 2.89  35 2.96  28 2.97  20 3.00  22 3.01  19 3.04
                            32 3.04
  32  0.661  0.334  0.508-  34 2.88  30 2.89  36 2.89  35 2.96  28 2.97  21 3.00  24 3.01  19 3.04
                            31 3.04
  33  0.006  0.661  0.508-  31 2.88  34 2.89  36 2.89  35 2.96  28 2.97  23 3.00  22 3.01  25 3.04
                            30 3.04
  34  0.334  0.661  0.508-  32 2.88  33 2.89  36 2.89  35 2.96  28 2.97  23 3.00  24 3.01  26 3.04
                            29 3.04
  35  0.667  0.667  0.505-  24 2.96  27 2.96  22 2.96  29 2.96  34 2.96  32 2.96  31 2.96  30 2.96
                            33 2.96
  36  0.333  0.333  0.500-  39 2.31  20 2.86  23 2.86  21 2.86  33 2.89  31 2.89  29 2.89  30 2.89
                            34 2.89  32 2.89
  37  0.278  0.262  0.605-  39 0.98
  38  0.459  0.259  0.605-  39 0.98
  39  0.336  0.326  0.593-  38 0.98  37 0.98  36 2.31

  LATTYP: Found a hexagonal cell.
 ALAT       =     8.8135128021
 C/A-ratio  =     2.8075332270

  Lattice vectors:

 A1 = (  -4.4067569092,  -7.6327256898,   0.0000000000)
 A2 = (   8.8135128021,   0.0000000000,   0.0000000000)
 A3 = (   0.0000000000,   0.0000000000,  24.7442300386)

Analysis of symmetry for initial positions (statically):
 Subroutine PRICEL returns:
 Original cell was already a primitive cell.

 Routine SETGRP: Setting up the symmetry group for a
 hexagonal supercell.

 Subroutine GETGRP returns: Found  1 space group operations
 (whereof  1 operations were pure point group operations)
 out of a pool of 24 trial point group operations.

The static configuration has the point symmetry C_1 .

Analysis of symmetry for dynamics (positions and initial velocities):
 Subroutine PRICEL returns:
 Original cell was already a primitive cell.

[...]

The dynamic configuration has the point symmetry C_1 .

Analysis of constrained symmetry for selective dynamics:
 Subroutine PRICEL returns:
[...]
     41      -4.8877      2.00000
     42      -4.8606      2.00000
     43      -4.8569      2.00000
     44      -4.8065      2.00000
     45      -4.6653      2.00000
     46      -4.6504      2.00000
     47      -4.5944      2.00000
     48      -4.5437      2.00000
     49      -4.5234      2.00000
     50      -4.5092      2.00000
     51      -4.4829      2.00000
     52      -4.4451      2.00000
     53      -4.4277      2.00000
     54      -4.3398      2.00000
     55      -4.3322      2.00000
     56      -4.2875      2.00000
     57      -4.2709      2.00000
     58      -4.2639      2.00000
     59      -4.2582      2.00000
     60      -4.2389      2.00000
[...]
    238       5.2867      0.00000
    239       5.7064      0.00000
    240       5.8171      0.00000
    241       5.8275      0.00000
    242       5.9919      0.00000
    243       6.0751      0.00000
    244       6.1616      0.00000
    245       6.2355      0.00000
    246       6.3604      0.00000
    247       6.4727      0.00000
    248       6.5444      0.00000
    249       6.5978      0.00000
    250       6.6257      0.00000
    251       6.6731      0.00000
    252       6.7253      0.00000

 soft charge-density along one line, spin component           1
         0         1         2         3         4         5         6         7         8         9
 total charge-density along one line

------------------------ aborting loop because EDIFF is reached ----------------------------------------

 total charge

# of ion       s       p       d       tot
    1        0.550   0.238   8.767   9.554
    2        0.543   0.241   8.765   9.549
    3        0.543   0.241   8.765   9.549
    4        0.542   0.241   8.765   9.549
    5        0.543   0.242   8.762   9.546
    6        0.542   0.241   8.765   9.549
    7        0.543   0.241   8.765   9.549
    8        0.542   0.241   8.765   9.549
    9        0.545   0.240   8.766   9.551
   10        0.524   0.307   8.770   9.601
   11        0.520   0.306   8.778   9.604
   12        0.524   0.307   8.770   9.601
   13        0.519   0.307   8.778   9.603
   14        0.519   0.307   8.778   9.603
   15        0.516   0.308   8.773   9.597
   16        0.522   0.307   8.771   9.600
   17        0.516   0.308   8.772   9.596
   18        0.516   0.308   8.772   9.596
   19        0.524   0.299   8.767   9.590
   20        0.571   0.332   8.732   9.634
   21        0.571   0.332   8.732   9.634
   22        0.511   0.306   8.773   9.589
   23        0.569   0.332   8.732   9.633
   24        0.510   0.306   8.773   9.589
   25        0.523   0.298   8.769   9.590
   26        0.523   0.298   8.769   9.590
   27        0.511   0.306   8.772   9.589
   28        0.544   0.238   8.750   9.532
   29        0.604   0.254   8.725   9.583
   30        0.604   0.255   8.725   9.583
   31        0.604   0.254   8.724   9.582
   32        0.604   0.254   8.724   9.582
   33        0.601   0.249   8.729   9.578
   34        0.601   0.249   8.729   9.578
   35        0.540   0.239   8.753   9.532
   36        2.190   5.991   1.412   9.593
   37        0.597   0.117   0.000   0.715
   38        0.597   0.117   0.000   0.715
   39        1.563   3.635   0.000   5.198
tot         24.031  19.594 307.932 351.557

  FORCE on cell =-STRESS in cart. coord.  units (eV):
  Direction    XX          YY          ZZ          XY          YZ          ZX
  Alpha Z   935.49183   935.49183   935.49183
  Ewald  157245.08180157167.62909************    -0.94054   -32.67429    -0.11577
  Hartree165914.23391165898.94840************    -0.19273    -6.36961    -0.05950
  E(xc)   -1814.62493 -1814.94121 -1822.30642    -0.00396    -0.09935     0.00088
  Local  ************************335590.83158     0.88221    30.64761     0.19383
  n-local   -81.48660   -82.31775   -49.58868    -0.00894    -0.07980     0.00635
  augment  2370.35903  2371.69404  2390.25486     0.01485     0.46064    -0.00346
  Kinetic  5702.34117  5723.08013  5778.94905     0.25091     7.87538    -0.02044
  Fock        0.00000     0.00000     0.00000     0.00000     0.00000     0.00000
  Total     -21.04498   -21.07936     1.61246     0.00179    -0.23942     0.00188
  in kB     -20.25613   -20.28922     1.55201     0.00173    -0.23044     0.00181

 VOLUME and BASIS-vectors are now :
  energy-cutoff  :      500.00
  volume of cell :     1664.57
      direct lattice vectors                 reciprocal lattice vectors
     8.813512802  0.000000000  0.000000000     0.113462137 -0.065507406  0.000000000
     4.406756909  7.632725690  0.000000000     0.000000000  0.131014796  0.000000000
     0.000000000  0.000000000 24.744230039     0.000000000  0.000000000  0.040413462

  length of vectors
     8.813512802  8.813512802 24.744230039     0.131014796  0.131014796  0.040413462

 FORCES acting on ions
    electron-ion (+dipol)            ewald-force                    non-local-force                 convergence-correction
   0.683E-03 0.238E-01 0.271E+04   -.282E-03 -.102E-01 -.271E+04   0.232E-03 -.639E-02 -.464E+00   -.639E-03 -.397E-02 -.680E-01
   0.385E+00 0.456E+00 0.271E+04   -.437E+00 -.587E+00 -.271E+04   0.275E-02 0.716E-01 -.270E+00   0.503E-01 0.505E-01 -.429E-01
   -.386E+00 0.443E+00 0.271E+04   0.438E+00 -.587E+00 -.271E+04   -.250E-02 0.721E-01 -.271E+00   -.494E-01 0.630E-01 -.421E-01
   0.572E+00 0.774E-01 0.271E+04   -.719E+00 -.725E-01 -.271E+04   0.662E-01 -.353E-01 -.265E+00   0.699E-01 0.307E-01 -.461E-01
   -.159E-01 -.344E-01 0.271E+04   0.777E-03 0.183E-01 -.271E+04   0.148E-03 -.443E-02 -.544E-01   0.151E-01 0.186E-01 -.928E-01
   -.560E+00 0.715E-01 0.271E+04   0.718E+00 -.726E-01 -.271E+04   -.666E-01 -.354E-01 -.266E+00   -.804E-01 0.368E-01 -.413E-01
   0.198E+00 -.527E+00 0.271E+04   -.280E+00 0.660E+00 -.271E+04   0.522E-01 -.401E-01 -.304E+00   0.232E-01 -.865E-01 -.499E-01
   -.209E+00 -.520E+00 0.271E+04   0.281E+00 0.659E+00 -.271E+04   -.524E-01 -.399E-01 -.306E+00   -.121E-01 -.930E-01 -.472E-01
   0.164E-01 0.402E-01 0.271E+04   -.172E-03 -.779E-02 -.271E+04   -.291E-03 -.580E-02 -.265E+00   -.161E-01 -.251E-01 0.217E-01
   0.394E+01 0.227E+01 0.950E+03   -.383E+01 -.220E+01 -.949E+03   -.215E+00 -.139E+00 -.588E+00   0.889E-01 0.581E-01 -.234E+00
   -.124E-01 0.649E+01 0.958E+03   0.390E-02 -.656E+01 -.957E+03   0.390E-03 -.208E-01 -.206E+00   0.827E-02 0.283E-01 -.246E+00
   -.393E+01 0.226E+01 0.950E+03   0.383E+01 -.220E+01 -.949E+03   0.215E+00 -.140E+00 -.588E+00   -.933E-01 0.692E-01 -.241E+00
   0.562E+01 -.336E+01 0.957E+03   -.569E+01 0.339E+01 -.957E+03   -.707E-02 0.771E-02 -.204E+00   0.249E-01 -.566E-02 -.249E+00
   -.565E+01 -.337E+01 0.957E+03   0.569E+01 0.339E+01 -.957E+03   0.681E-02 0.823E-02 -.204E+00   -.268E-02 -.304E-02 -.251E+00
   0.174E-01 0.355E+00 0.949E+03   -.426E-02 -.450E+00 -.948E+03   -.354E-03 0.182E-01 -.478E+00   -.129E-01 0.440E-01 -.272E+00
   -.941E-02 -.442E+01 0.949E+03   0.104E-02 0.430E+01 -.949E+03   0.865E-03 0.258E+00 -.610E+00   0.746E-02 -.116E+00 -.257E+00
   0.399E+00 -.896E-01 0.949E+03   -.480E+00 0.158E+00 -.948E+03   0.112E-01 -.104E-01 -.490E+00   0.410E-01 -.437E-01 -.278E+00
   -.391E+00 -.104E+00 0.949E+03   0.479E+00 0.163E+00 -.948E+03   -.114E-01 -.101E-01 -.490E+00   -.483E-01 -.346E-01 -.283E+00
   0.255E-01 -.102E+01 -.841E+03   -.305E-01 0.103E+01 0.840E+03   -.107E-02 -.508E-01 0.454E+00   0.636E-02 0.416E-01 -.650E-01
   0.408E+02 0.229E+02 -.783E+03   -.398E+02 -.223E+02 0.784E+03   -.113E+01 -.664E+00 -.118E+01   0.112E+00 0.707E-01 0.278E-01
   -.408E+02 0.229E+02 -.783E+03   0.399E+02 -.223E+02 0.784E+03   0.113E+01 -.663E+00 -.118E+01   -.113E+00 0.873E-01 0.265E-01
   0.113E+02 -.677E+01 -.831E+03   -.116E+02 0.696E+01 0.831E+03   0.259E+00 -.128E+00 0.607E+00   0.551E-01 -.626E-01 -.938E-01
   -.407E-01 -.473E+02 -.785E+03   0.281E-01 0.462E+02 0.786E+03   0.114E-03 0.133E+01 -.108E+01   0.124E-01 -.150E+00 0.360E-02
   -.113E+02 -.676E+01 -.831E+03   0.116E+02 0.693E+01 0.831E+03   -.259E+00 -.129E+00 0.610E+00   -.771E-01 -.531E-01 -.939E-01
   0.338E+00 0.104E+01 -.841E+03   -.375E+00 -.104E+01 0.841E+03   0.593E-01 0.459E-02 0.541E+00   -.155E-01 0.629E-02 -.668E-01
   -.358E+00 0.108E+01 -.841E+03   0.369E+00 -.107E+01 0.841E+03   -.588E-01 0.488E-02 0.542E+00   0.416E-01 -.651E-04 -.652E-01
   0.154E-01 0.140E+02 -.830E+03   0.614E-02 -.143E+02 0.830E+03   -.549E-03 0.290E+00 0.579E+00   -.211E-01 0.743E-01 -.837E-01
   0.648E-01 0.224E+01 -.259E+04   -.692E-01 -.231E+01 0.258E+04   0.182E-03 0.432E-01 0.209E+00   0.410E-02 0.178E-01 0.897E-01
   0.556E+02 0.917E+02 -.259E+04   -.545E+02 -.900E+02 0.259E+04   -.124E+01 -.197E+01 -.966E+00   0.766E-01 0.135E+00 0.715E-01
   -.557E+02 0.914E+02 -.259E+04   0.546E+02 -.898E+02 0.259E+04   0.124E+01 -.197E+01 -.974E+00   -.806E-01 0.148E+00 0.788E-01
   0.103E+03 -.153E+01 -.259E+04   -.101E+03 0.166E+01 0.259E+04   -.238E+01 -.991E-01 -.101E+01   0.156E+00 -.329E-02 0.760E-01
   -.103E+03 -.153E+01 -.259E+04   0.101E+03 0.165E+01 0.259E+04   0.237E+01 -.996E-01 -.100E+01   -.164E+00 0.642E-02 0.772E-01
   0.462E+02 -.869E+02 -.260E+04   -.453E+02 0.852E+02 0.260E+04   -.105E+01 0.201E+01 -.622E+00   0.657E-01 -.138E+00 0.845E-01
   -.463E+02 -.867E+02 -.260E+04   0.454E+02 0.850E+02 0.260E+04   0.105E+01 0.200E+01 -.618E+00   -.524E-01 -.140E+00 0.777E-01
   0.864E-01 0.162E+01 -.259E+04   -.704E-01 -.163E+01 0.259E+04   0.953E-03 0.409E-02 0.420E+00   -.175E-01 -.449E-02 0.109E+00
   -.494E+00 -.120E+02 -.257E+04   0.482E+00 0.120E+02 0.257E+04   0.532E-03 0.789E-01 0.130E+01   0.153E-01 -.114E-01 0.597E-01
   0.718E+02 0.409E+02 -.297E+03   -.787E+02 -.449E+02 0.299E+03   0.685E+01 0.394E+01 -.240E+01   0.568E-02 0.424E-02 -.623E-02
   -.704E+02 0.428E+02 -.297E+03   0.772E+02 -.470E+02 0.299E+03   -.673E+01 0.413E+01 -.247E+01   -.517E-02 0.461E-02 -.648E-02
   -.813E+00 -.508E+02 -.168E+04   0.140E+01 0.901E+02 0.167E+04   -.584E+00 -.393E+02 0.123E+02   0.338E-02 0.828E-02 -.812E-01
   0.444E+00 0.314E+02 0.537E+01   0.113E-12 -.355E-12 -.227E-12   -.456E+00 -.313E+02 -.232E+01   0.208E-01 0.300E-01 -.250E+01

 POSITION                                       TOTAL-FORCE (eV/Angst)
      0.00000      0.00000      5.28038        -0.000210      0.001989     -0.086683
      2.93784      0.00000      5.28038         0.000008     -0.010139     -0.003667
      5.87568      0.00000      5.28038        -0.000355     -0.010294     -0.003710
      1.46892      2.54424      5.28038        -0.011167     -0.000984     -0.001268
      4.40676      2.54424      5.28038        -0.000081     -0.003204      0.031076
      7.34459      2.54424      5.28038         0.010832     -0.000916     -0.001001
      2.93784      5.08848      5.28038        -0.007607      0.004917     -0.000593
      5.87568      5.08848      5.28038         0.007101      0.004854     -0.000493
      8.81351      5.08848      5.28038        -0.000371      0.000255     -0.021792
      1.46892      0.84808      7.67911        -0.019801     -0.011424      0.013646
      4.40676      0.84808      7.67911        -0.000065     -0.060028     -0.027584
      7.34459      0.84808      7.67911         0.019368     -0.011413      0.013534
      2.93784      3.39232      7.67911        -0.047223      0.030120     -0.024945
      5.87568      3.39232      7.67911         0.047324      0.030110     -0.024871
      8.81351      3.39232      7.67911        -0.000362     -0.034518      0.096780
      4.40676      5.93656      7.67911        -0.000247      0.021355      0.009791
      7.34459      5.93656      7.67911        -0.028361      0.013010      0.101532
     10.28243      5.93656      7.67911         0.028095      0.013018      0.101398
      8.81351      1.69571     10.07248         0.000069     -0.004715     -0.031142
      2.94528      1.70046     10.06340        -0.057046     -0.032678     -0.075255
      5.86824      1.70046     10.06340         0.056918     -0.032783     -0.075502
     10.27570      4.24429     10.07162         0.001974     -0.006644      0.000765
      4.40676      4.23182     10.06340        -0.000237      0.083658     -0.067507
      7.35132      4.24429     10.07162        -0.003095     -0.006935      0.001295
     11.75174      6.78487     10.07248         0.006356      0.006534     -0.037941
      5.87529      6.78487     10.07248        -0.006448      0.006694     -0.038069
      8.81351      6.77688     10.07162        -0.000373      0.008154     -0.002636
      0.00000      0.00000     12.49858        -0.000266     -0.014263     -0.052387
      2.96552      0.04535     12.55994        -0.082251     -0.165258     -0.058206
      5.84799      0.04535     12.55994         0.081217     -0.163408     -0.056542
      1.52204      2.54555     12.55994        -0.138902      0.022737     -0.037989
      7.29148      2.54555     12.55994         0.138174      0.022650     -0.039189
      2.96327      5.04183     12.55994        -0.117320      0.132832     -0.097182
      5.85025      5.04183     12.55994         0.117225      0.133190     -0.098212
      8.81351      5.08848     12.50663        -0.000733     -0.003482     -0.000143
      4.40676      2.54424     12.37417         0.003384      0.053446      0.601906
      3.60567      1.99963     14.97276        -0.002316     -0.007964     -0.000462
      5.18393      1.97833     14.98029         0.003230     -0.009102     -0.004565
      4.40307      2.48974     14.68154         0.003561      0.000627     -0.002189
    total drift:                                0.007948      0.049647      0.557546

  FREE ENERGIE OF THE ION-ELECTRON SYSTEM (eV)
  free  energy   TOTEN  =      -131.68007644 eV

  energy  without entropy=     -131.68007644  energy(sigma->0) =     -131.68007644

 stress matrix after NEB project (eV)
    -21.04498      0.00179      0.00188
      0.00179    -21.07936     -0.23942
      0.00188     -0.23942      1.61246
  FORCES: max atom, RMS     0.010683    0.002270
  FORCE total and by dimension    0.014177    0.009102
  Stress total and by dimension   29.831952   21.079364
|           W    W    AA    RRRRR   N    N  II  N    N   GGGG   !!!           |
|           W    W   A  A   R    R  NN   N  II  NN   N  G    G  !!!           |
|           W    W  A    A  R    R  N N  N  II  N N  N  G       !!!           |
|           W WW W  AAAAAA  RRRRR   N  N N  II  N  N N  G  GGG   !            |
|           WW  WW  A    A  R   R   N   NN  II  N   NN  G    G                |
|           W    W  A    A  R    R  N    N  II  N    N   GGGG   !!!           |
|     Tetrahedron method does not include variations of the Fermi             |
|     occupations, so forces and stress will be inaccurate. We suggest        |
|     using a different smearing scheme ISMEAR = 1 or 2 for metals in         |
|     relaxations.                                                            |

 total charge

# of ion       s       p       d       tot
    1        0.550   0.238   8.767   9.554
    2        0.543   0.241   8.765   9.549
    3        0.543   0.241   8.765   9.549
    4        0.542   0.241   8.765   9.549
    5        0.543   0.242   8.762   9.546
    6        0.542   0.241   8.765   9.549
    7        0.543   0.241   8.765   9.549
    8        0.542   0.241   8.765   9.549
    9        0.545   0.240   8.766   9.551
   10        0.524   0.307   8.770   9.601
   11        0.520   0.306   8.778   9.604
   12        0.524   0.307   8.770   9.601
   13        0.519   0.307   8.778   9.603
   14        0.519   0.307   8.778   9.603
   15        0.516   0.308   8.773   9.597
   16        0.522   0.307   8.771   9.600
   17        0.516   0.308   8.772   9.596
   18        0.516   0.308   8.772   9.596
   19        0.524   0.299   8.767   9.590
   20        0.571   0.332   8.732   9.634
   21        0.571   0.332   8.732   9.634
   22        0.511   0.306   8.773   9.589
   23        0.569   0.332   8.732   9.633
   24        0.510   0.306   8.773   9.589
   25        0.523   0.298   8.769   9.590
   26        0.523   0.298   8.769   9.590
   27        0.511   0.306   8.772   9.589
   28        0.544   0.238   8.750   9.532
   29        0.604   0.254   8.725   9.583
   30        0.604   0.255   8.725   9.583
   31        0.604   0.254   8.724   9.582
   32        0.604   0.254   8.724   9.582
   33        0.601   0.249   8.729   9.578
   34        0.601   0.249   8.729   9.578
   35        0.540   0.239   8.753   9.532
   36        2.190   5.991   1.412   9.593
   37        0.597   0.117   0.000   0.715
   38        0.597   0.117   0.000   0.715
   39        1.563   3.635   0.000   5.198
tot         24.031  19.594 307.932 351.557

 BZINTS: Fermi energy:    0.588610;  405.000000 electrons
         Band energy:-0.160241E+04;  BLOECHL correction:   -0.038945