 vasp.6.2.0 18Jan21 (build Jun 12 2021 23:27:24) complex

 executed on             LinuxIFC date 2022.05.26  20:07:28

 INCAR:
   ISMEAR = -5
   SIGMA = 0.1
   ISPIN = 1
   EDIFF = 1.d-5
   EDIFFG = -0.01
   NSW = 0
   NELM = 150
   ENCUT = 500
   ISIF = 2
   IBRION = 2
   LREAL = Auto
   ALGO = Fast
   ICHARG = 11
   LORBIT = 10
   LCHARG = .F.
   LWAVE = .F.

 POTCAR:    PAW_PBE Cu 22Jun2005
 POTCAR:    PAW_PBE W 08Apr2002
 POTCAR:    PAW_PBE N 08Apr2002
|           W    W    AA    RRRRR   N    N  II  N    N   GGGG   !!!           |
|           W    W   A  A   R    R  NN   N  II  NN   N  G    G  !!!           |
|           W    W  A    A  R    R  N N  N  II  N N  N  G       !!!           |
|           W WW W  AAAAAA  RRRRR   N  N N  II  N  N N  G  GGG   !            |
|           WW  WW  A    A  R   R   N   NN  II  N   NN  G    G                |
|           W    W  A    A  R    R  N    N  II  N    N   GGGG   !!!           |
|     For optimal performance we recommend to set                             |
|       NCORE = 2 up to number-of-cores-per-socket                            |
|     This setting can greatly improve the performance of VASP for DFT.       |
|     The default, NCORE=1 might be grossly inefficient on modern             |
|     multi-core architectures or massively parallel machines. Do your        |
|     Unfortunately you need to use the default for GW and RPA                |
|     calculations (for HF NCORE is supported but not extensively tested      |
|     yet).                                                                   |

 POTCAR:    PAW_PBE Cu 22Jun2005
   VRHFIN =Cu: d10 p1

   TITEL  = PAW_PBE Cu 22Jun2005
   POMASS =   63.546; ZVAL   =   11.000    mass and valenz
   ENMAX  =  295.446; ENMIN  =  221.585 eV

 POTCAR:    PAW_PBE W 08Apr2002
   VRHFIN =W : 6s5d

   TITEL  = PAW_PBE W 08Apr2002
   POMASS =  183.850; ZVAL   =    6.000    mass and valenz
   ENMAX  =  223.057; ENMIN  =  167.293 eV

 POTCAR:    PAW_PBE N 08Apr2002
   VRHFIN =N: s2p3

   TITEL  = PAW_PBE N 08Apr2002
   POMASS =   14.001; ZVAL   =    5.000    mass and valenz
   ENMAX  =  400.000; ENMIN  =  300.000 eV

 Optimization of the real space projectors (new method)

 maximal supplied QI-value         = 16.25
 optimisation between [QCUT,QGAM] = [ 11.38, 22.75] = [ 36.24,144.96] Ry
 Optimized for a Real-space Cutoff    1.52 Angstroem

   l    n(q)    QCUT    max X(q) W(low)/X(q) W(high)/X(q)  e(spline)
   2      9    11.376     4.610    0.21E-03    0.10E-03    0.26E-06
   2      9    11.376     8.522    0.33E-03    0.16E-03    0.37E-06
   0     10    11.376    51.609    0.62E-04    0.20E-04    0.13E-06
   0     10    11.376    27.747    0.54E-04    0.20E-04    0.13E-06
   1     10    11.376    20.408    0.13E-04    0.99E-04    0.19E-06
   1     10    11.376    13.425    0.12E-04    0.87E-04    0.17E-06
 Optimization of the real space projectors (new method)

[...]

   l    n(q)    QCUT    max X(q) W(low)/X(q) W(high)/X(q)  e(spline)
   2     10    11.429   130.855    0.22E-03    0.64E-03    0.11E-05
   2     10    11.429   114.007    0.22E-03    0.64E-03    0.11E-05
   0     11    11.429    84.709    0.39E-04    0.67E-04    0.23E-06
   0     11    11.429    49.163    0.35E-04    0.62E-04    0.21E-06
   1     10    11.429    15.765    0.84E-04    0.15E-03    0.24E-06
   1     10    11.429    10.638    0.58E-04    0.12E-03    0.19E-06
 Optimization of the real space projectors (new method)

 maximal supplied QI-value         = 25.13
 optimisation between [QCUT,QGAM] = [ 11.31, 22.87] = [ 35.82,146.48] Ry
 Optimized for a Real-space Cutoff    1.27 Angstroem

   l    n(q)    QCUT    max X(q) W(low)/X(q) W(high)/X(q)  e(spline)
   0      9    11.310    79.467    0.75E-04    0.16E-03    0.36E-06
   0      9    11.310    66.151    0.74E-04    0.16E-03    0.36E-06
   1      8    11.310    17.416    0.35E-03    0.12E-03    0.95E-06
   1      8    11.310    12.382    0.37E-03    0.13E-03    0.98E-06
  PAW_PBE Cu 22Jun2005                  :
  PAW_PBE W 08Apr2002                   :
  PAW_PBE N 08Apr2002                   :

 POSCAR: Cu-W-N
  positions in direct lattice
  velocities in cartesian coordinates
 exchange correlation table for  LEXCH =        8
   RHO(1)=    0.500       N(1)  =     2000
   RHO(2)=  100.500       N(2)  =     4000

 VTST: version 3.2, (02/03/18)

 CHAIN: initializing optimizer

 OPT: Using VASP Conjugate-Gradient optimizer
 CHAIN: Read ICHAIN            0

 POSCAR: Cu-W-N
  positions in direct lattice
  velocities in cartesian coordinates

 ion  position               nearest neighbor table
   1  0.000  0.000  0.252-   7 2.57   3 2.57   4 2.57   2 2.57   6 2.57   8 2.57  12 2.57  10 2.57
                            16 2.57
   2  0.333  0.000  0.252-   8 2.57   9 2.57   5 2.57   1 2.57   3 2.57  11 2.57   4 2.57  10 2.57
                            17 2.57
   3  0.667  0.000  0.252-   1 2.57   7 2.57   6 2.57   9 2.57   2 2.57  12 2.57   5 2.57  18 2.57
                            11 2.57
   4  0.000  0.333  0.252-   5 2.57   6 2.57   1 2.57   7 2.57   2 2.57  13 2.57   9 2.57  10 2.57
                            15 2.57
   5  0.333  0.333  0.252-   4 2.57   2 2.57   7 2.57  13 2.57   8 2.57   6 2.57   3 2.57  11 2.57
                            14 2.57
   6  0.667  0.333  0.252-   4 2.57   9 2.57  15 2.57   3 2.57   1 2.57   8 2.57  14 2.57   5 2.57
                            12 2.57
   7  0.000  0.667  0.252-   1 2.57   3 2.57  16 2.57  18 2.57   4 2.57   5 2.57   8 2.57   9 2.57
                            13 2.57
   8  0.333  0.667  0.252-   9 2.57   2 2.57  17 2.57   6 2.57   1 2.57   7 2.57   5 2.57  14 2.57
                            16 2.57
   9  0.667  0.667  0.252-   8 2.57   6 2.57   2 2.57  17 2.57   3 2.57   7 2.57   4 2.57  15 2.57
                            18 2.57
  10  0.111  0.111  0.351-  20 2.54  11 2.57  12 2.57  13 2.57   1 2.57   2 2.57   4 2.57  15 2.57
                            16 2.57  17 2.57  26 2.57  19 2.57
  11  0.444  0.111  0.351-  20 2.55  21 2.55  10 2.57  13 2.57   2 2.57  17 2.57  14 2.57  12 2.57
                             5 2.57   3 2.57  18 2.57  27 2.58
  12  0.778  0.111  0.351-  21 2.54  15 2.57  10 2.57  14 2.57  18 2.57   3 2.57   1 2.57  16 2.57
                            11 2.57   6 2.57  19 2.57  25 2.57
  13  0.111  0.444  0.351-  23 2.55  20 2.55  16 2.57  18 2.57  10 2.57  11 2.57  14 2.57   5 2.57
                             4 2.57   7 2.57  15 2.57  22 2.58
  14  0.444  0.444  0.351-  21 2.55  23 2.55  15 2.57  17 2.57  12 2.57  16 2.57  13 2.57  11 2.57
                             6 2.57   8 2.57   5 2.57  24 2.58
  15  0.778  0.444  0.351-  19 2.57  14 2.57  17 2.57  12 2.57   6 2.57  18 2.57  10 2.57   9 2.57
                            13 2.57   4 2.57  24 2.57  22 2.57
  16  0.111  0.778  0.351-  23 2.54  18 2.57  13 2.57   7 2.57  14 2.57  17 2.57  12 2.57  10 2.57
                             8 2.57   1 2.57  25 2.57  26 2.57
  17  0.444  0.778  0.351-  26 2.57  14 2.57  15 2.57   8 2.57   9 2.57  11 2.57  16 2.57  18 2.57
                            10 2.57   2 2.57  27 2.57  24 2.57
  18  0.778  0.778  0.351-  25 2.57  16 2.57  13 2.57   7 2.57  15 2.57  12 2.57  17 2.57   9 2.57
                             3 2.57  11 2.57  22 2.57  27 2.57
  19  0.889  0.223  0.449-  21 2.55  20 2.55  22 2.56  24 2.56  15 2.57  12 2.57  10 2.57  25 2.57
                            26 2.57  28 2.57  32 2.60  31 2.60
  20  0.221  0.221  0.448-  10 2.54  36 2.54  11 2.55  13 2.55  26 2.55  19 2.55  27 2.57  22 2.57
                            23 2.59  21 2.59  29 2.62  31 2.62
  21  0.558  0.221  0.448-  12 2.54  36 2.54  14 2.55  11 2.55  19 2.55  25 2.55  24 2.57  27 2.57
                            20 2.59  23 2.59  32 2.62  30 2.62
  22  0.888  0.556  0.450-  24 2.56  27 2.56  19 2.56  25 2.56  35 2.56  23 2.57  20 2.57  18 2.57
                            15 2.57  13 2.58  31 2.59  33 2.59
  23  0.221  0.558  0.448-  16 2.54  36 2.54  13 2.55  14 2.55  25 2.55  26 2.55  22 2.57  24 2.57
                            20 2.59  21 2.59  33 2.62  34 2.62
  24  0.556  0.556  0.450-  22 2.56  27 2.56  19 2.56  26 2.56  35 2.56  21 2.57  23 2.57  15 2.57
                            17 2.57  14 2.58  32 2.59  34 2.59
  25  0.889  0.889  0.449-  21 2.55  23 2.55  22 2.56  27 2.56  18 2.57  16 2.57  12 2.57  19 2.57
                            26 2.57  28 2.57  33 2.60  30 2.60
  26  0.223  0.889  0.449-  20 2.55  23 2.55  27 2.56  24 2.56  17 2.57  10 2.57  16 2.57  25 2.57
                            19 2.57  28 2.57  29 2.60  34 2.60
  27  0.556  0.888  0.450-  24 2.56  22 2.56  26 2.56  25 2.56  35 2.56  20 2.57  21 2.57  17 2.57
                            18 2.57  11 2.58  29 2.59  30 2.59
  28  0.000  0.000  0.548-  33 2.56  30 2.56  31 2.56  29 2.56  32 2.56  34 2.56  25 2.57  19 2.57
                            26 2.57
  29  0.333  1.000  0.550-  34 2.56  28 2.56  35 2.57  31 2.57  36 2.57  30 2.57  27 2.59  26 2.60
                            20 2.62
  30  0.667  1.000  0.550-  33 2.56  28 2.56  35 2.57  32 2.57  36 2.57  29 2.57  27 2.59  25 2.60
                            21 2.62
  31  1.000  0.333  0.550-  32 2.56  28 2.56  35 2.57  29 2.57  36 2.57  33 2.57  22 2.59  19 2.60
                            20 2.62
  32  0.667  0.333  0.550-  31 2.56  28 2.56  35 2.57  30 2.57  36 2.57  34 2.57  24 2.59  19 2.60
                            21 2.62
  33  1.000  0.667  0.550-  30 2.56  28 2.56  35 2.57  34 2.57  36 2.57  31 2.57  22 2.59  25 2.60
                            23 2.62
  34  0.333  0.667  0.550-  29 2.56  28 2.56  35 2.57  33 2.57  36 2.57  32 2.57  24 2.59  26 2.60
                            23 2.62
  35  0.667  0.667  0.548-  24 2.56  27 2.56  22 2.56  34 2.57  32 2.57  29 2.57  30 2.57  33 2.57
                            31 2.57
  36  0.333  0.333  0.545-  37 1.74  23 2.54  20 2.54  21 2.54  31 2.57  29 2.57  33 2.57  34 2.57
                            32 2.57  30 2.57
  37  0.333  0.333  0.627-  36 1.74

  LATTYP: Found a hexagonal cell.
 ALAT       =     7.6967864036
 C/A-ratio  =     2.7653617908

  Lattice vectors:

 A1 = (  -3.8483927580,  -6.6656128093,   0.0000000000)
 A2 = (   7.6967864037,   0.0000000000,   0.0000000000)
 A3 = (   0.0000000000,   0.0000000000,  21.2843990326)

Analysis of symmetry for initial positions (statically):
 Subroutine PRICEL returns:
 Original cell was already a primitive cell.

 Routine SETGRP: Setting up the symmetry group for a
 hexagonal supercell.

 Subroutine GETGRP returns: Found  6 space group operations
 (whereof  6 operations were pure point group operations)
 out of a pool of 24 trial point group operations.

The static configuration has the point symmetry C_3v.

Analysis of symmetry for dynamics (positions and initial velocities):
 Subroutine PRICEL returns:
 Original cell was already a primitive cell.

[...]

The dynamic configuration has the point symmetry C_3v.

Analysis of constrained symmetry for selective dynamics:
 Subroutine PRICEL returns:
 Original cell was already a primitive cell.

 Routine SETGRP: Setting up the symmetry group for a
 hexagonal supercell.

 Subroutine GETGRP returns: Found  6 space group operations
[...]
     24      -4.4194      2.00000
     25      -4.3056      2.00000
     26      -4.2664      2.00000
     27      -4.2244      2.00000
     28      -4.2062      2.00000
     29      -4.1660      2.00000
     30      -4.1522      2.00000
     31      -4.1450      2.00000
     32      -4.1319      2.00000
     33      -4.1114      2.00000
     34      -4.1033      2.00000
     35      -4.0825      2.00000
     36      -4.0405      2.00000
     37      -3.9780      2.00000
     38      -3.8616      2.00000
     39      -3.8410      2.00000
     40      -3.8226      2.00000
     41      -3.8041      2.00000
     42      -3.7580      2.00000
     43      -3.7347      2.00000
     44      -3.7209      2.00000
     45      -3.6972      2.00000
     46      -3.6885      2.00000
     47      -3.5596      2.00000
     48      -3.5193      2.00000
     49      -3.5126      2.00000
     50      -3.5012      2.00000
     51      -3.4849      2.00000
     52      -3.4583      2.00000
     53      -3.4391      2.00000
     54      -3.4338      2.00000
     55      -3.4066      2.00000
     56      -3.4005      2.00000
     57      -3.3814      2.00000
     58      -3.3706      2.00000
     59      -3.3629      2.00000
     60      -3.3470      2.00000
[...]
    238       6.3858      0.00000
    239       6.4298      0.00000
    240       6.4790      0.00000
    241       7.0446      0.00000
    242       7.0582      0.00000
    243       7.0855      0.00000
    244       7.1368      0.00000
    245       7.2558      0.00000
    246       7.3571      0.00000
    247       7.4327      0.00000
    248       7.4696      0.00000
    249       7.5783      0.00000
    250       7.7634      0.00000
    251       7.8653      0.00000
    252       7.9962      0.00000

 soft charge-density along one line, spin component           1
         0         1         2         3         4         5         6         7         8         9
 total charge-density along one line

------------------------ aborting loop because EDIFF is reached ----------------------------------------

 total charge

# of ion       s       p       d       tot
    1        0.450   0.283   9.188   9.922
    2        0.449   0.285   9.185   9.919
    3        0.449   0.285   9.185   9.919
    4        0.449   0.285   9.185   9.919
    5        0.447   0.285   9.183   9.916
    6        0.449   0.285   9.185   9.919
    7        0.449   0.285   9.185   9.919
    8        0.449   0.285   9.185   9.919
    9        0.447   0.284   9.188   9.919
   10        0.441   0.370   9.176   9.988
   11        0.440   0.369   9.181   9.990
   12        0.441   0.370   9.176   9.988
   13        0.440   0.369   9.181   9.990
   14        0.440   0.369   9.181   9.990
   15        0.437   0.368   9.177   9.982
   16        0.441   0.370   9.176   9.988
   17        0.437   0.368   9.177   9.982
   18        0.437   0.368   9.177   9.982
   19        0.440   0.362   9.184   9.986
   20        0.464   0.399   9.171  10.033
   21        0.464   0.399   9.171  10.033
   22        0.430   0.371   9.178   9.979
   23        0.464   0.399   9.171  10.033
   24        0.430   0.371   9.178   9.979
   25        0.440   0.362   9.184   9.986
   26        0.440   0.362   9.184   9.986
   27        0.430   0.371   9.178   9.979
   28        0.451   0.289   9.183   9.924
   29        0.463   0.312   9.174   9.949
   30        0.463   0.312   9.174   9.949
   31        0.463   0.312   9.174   9.949
   32        0.463   0.312   9.174   9.949
   33        0.463   0.312   9.174   9.949
   34        0.463   0.312   9.174   9.949
   35        0.449   0.294   9.178   9.922
   36        0.773   0.705   4.480   5.958
   37        1.339   2.219   0.000   3.558
tot         17.789  14.657 325.756 358.202

  FORCE on cell =-STRESS in cart. coord.  units (eV):
  Direction    XX          YY          ZZ          XY          YZ          ZX
  Alpha Z   895.72911   895.72911   895.72911
  Ewald  170483.94859170483.94821************     0.00037     0.00013     0.00016
  Hartree183352.69737183352.69737************     0.00003     0.00006     0.00006
  E(xc)   -2294.15036 -2294.14987 -2300.62693    -0.00042    -0.00003    -0.00006
  Local  ************************366925.75953     0.01860    -0.00060    -0.00094
  n-local  -780.74414  -767.43752  -787.70512     6.89986    -0.15384     0.30866
  augment  3312.17006  3312.19027  3335.09691    -0.01751     0.00030     0.00056
  Kinetic  3298.91995  3302.26910  3321.48870     2.73370     1.81729    -1.22809
  Fock        0.00000     0.00000     0.00000     0.00000     0.00000     0.00000
  Total      -4.55502    -4.55502    -0.88286     0.00000    -0.00000    -0.00000
  in kB      -6.68329    -6.68329    -1.29536     0.00000    -0.00000    -0.00000

 VOLUME and BASIS-vectors are now :
  energy-cutoff  :      500.00
  volume of cell :     1091.97
      direct lattice vectors                 reciprocal lattice vectors
     7.696786404  0.000000000  0.000000000     0.129924354 -0.075011849  0.000000000
     3.848392758  6.665612809  0.000000000     0.000000000  0.150023716  0.000000000
     0.000000000  0.000000000 21.284399033     0.000000000  0.000000000  0.046982769

  length of vectors
     7.696786404  7.696786404 21.284399033     0.150023716  0.150023716  0.046982769

 FORCES acting on ions
    electron-ion (+dipol)            ewald-force                    non-local-force                 convergence-correction
   -.416E-04 0.143E-06 0.346E+04   0.581E-04 -.430E-05 -.346E+04   0.129E-16 0.165E-17 -.221E+01   -.419E-03 -.254E-03 0.112E+00
   -.482E+00 -.605E-01 0.346E+04   0.447E+00 0.101E+00 -.346E+04   -.140E-01 0.204E-01 -.191E+01   0.497E-01 -.532E-01 0.130E+00
   0.482E+00 -.605E-01 0.346E+04   -.447E+00 0.101E+00 -.346E+04   0.140E-01 0.204E-01 -.191E+01   -.488E-01 -.507E-01 0.131E+00
   -.293E+00 -.387E+00 0.346E+04   0.311E+00 0.337E+00 -.346E+04   0.106E-01 -.224E-01 -.191E+01   -.211E-01 0.696E-01 0.130E+00
   -.645E-04 -.499E-05 0.346E+04   0.116E-03 -.101E-04 -.346E+04   -.149E-17 0.288E-18 -.196E+01   0.122E-01 0.748E-02 0.172E+00
   0.293E+00 -.387E+00 0.346E+04   -.311E+00 0.337E+00 -.346E+04   -.106E-01 -.224E-01 -.191E+01   0.195E-01 0.708E-01 0.132E+00
   0.189E+00 0.448E+00 0.346E+04   -.136E+00 -.438E+00 -.346E+04   0.247E-01 0.197E-02 -.191E+01   -.683E-01 -.170E-01 0.132E+00
   -.189E+00 0.448E+00 0.346E+04   0.136E+00 -.438E+00 -.346E+04   -.247E-01 0.197E-02 -.191E+01   0.717E-01 -.185E-01 0.132E+00
   -.144E-03 -.328E-04 0.346E+04   0.263E-03 0.205E-04 -.346E+04   0.165E-18 0.117E-17 -.210E+01   -.132E-01 -.675E-02 0.111E+00
   -.489E+00 -.282E+00 0.115E+04   0.683E+00 0.394E+00 -.115E+04   -.289E+00 -.167E+00 -.714E+00   0.554E-01 0.317E-01 -.209E+00
   -.914E-04 -.171E+01 0.114E+04   0.190E-03 0.141E+01 -.114E+04   -.135E-07 0.202E+00 -.618E+00   0.124E-01 0.403E-01 -.309E+00
   0.489E+00 -.282E+00 0.115E+04   -.683E+00 0.394E+00 -.115E+04   0.289E+00 -.167E+00 -.714E+00   -.577E-01 0.331E-01 -.208E+00
   -.148E+01 0.853E+00 0.114E+04   0.122E+01 -.705E+00 -.114E+04   0.175E+00 -.101E+00 -.618E+00   0.418E-01 -.850E-02 -.309E+00
   0.148E+01 0.853E+00 0.114E+04   -.122E+01 -.705E+00 -.114E+04   -.175E+00 -.101E+00 -.618E+00   -.176E-01 -.102E-01 -.310E+00
   -.142E-03 -.170E+01 0.115E+04   0.298E-03 0.159E+01 -.115E+04   -.570E-08 0.856E-01 -.722E+00   -.379E-02 0.324E-01 -.232E+00
   -.916E-04 0.565E+00 0.115E+04   0.186E-03 -.788E+00 -.115E+04   -.222E-07 0.334E+00 -.714E+00   -.766E-03 -.679E-01 -.208E+00
   -.147E+01 0.848E+00 0.115E+04   0.138E+01 -.794E+00 -.115E+04   0.741E-01 -.428E-01 -.722E+00   0.266E-01 -.196E-01 -.231E+00
   0.147E+01 0.848E+00 0.115E+04   -.138E+01 -.794E+00 -.115E+04   -.741E-01 -.428E-01 -.722E+00   -.251E-01 -.161E-01 -.229E+00
   -.602E-04 -.587E+01 -.117E+04   0.710E-04 0.573E+01 0.117E+04   -.297E-08 0.446E-01 0.121E+01   -.128E-01 0.557E-01 -.735E+00
   -.463E+02 -.267E+02 -.120E+04   0.460E+02 0.266E+02 0.120E+04   -.538E-01 -.311E-01 0.796E+00   -.656E-01 -.382E-01 -.779E+00
   0.463E+02 -.267E+02 -.120E+04   -.460E+02 0.266E+02 0.120E+04   0.538E-01 -.311E-01 0.796E+00   0.692E-01 -.398E-01 -.779E+00
   -.255E+02 0.147E+02 -.118E+04   0.250E+02 -.144E+02 0.118E+04   0.598E+00 -.345E+00 0.114E+01   -.202E-01 0.277E-01 -.727E+00
   -.886E-04 0.535E+02 -.120E+04   0.148E-03 -.532E+02 0.120E+04   -.414E-08 0.621E-01 0.796E+00   -.173E-03 0.792E-01 -.780E+00
   0.255E+02 0.147E+02 -.118E+04   -.250E+02 -.144E+02 0.118E+04   -.598E+00 -.345E+00 0.114E+01   0.199E-01 0.245E-01 -.727E+00
   0.508E+01 0.294E+01 -.117E+04   -.496E+01 -.286E+01 0.117E+04   -.386E-01 -.223E-01 0.121E+01   -.662E-01 -.384E-01 -.736E+00
   -.508E+01 0.294E+01 -.117E+04   0.496E+01 -.286E+01 0.117E+04   0.386E-01 -.223E-01 0.121E+01   0.430E-01 -.402E-01 -.735E+00
   -.113E-03 -.294E+02 -.118E+04   0.239E-03 0.288E+02 0.118E+04   -.460E-07 0.690E+00 0.114E+01   0.130E-01 -.319E-01 -.727E+00
   -.494E-04 0.959E-05 -.341E+04   0.408E-04 -.319E-04 0.341E+04   -.236E-17 -.629E-17 0.179E+01   -.647E-03 -.556E-03 -.165E+00
   -.275E+02 -.483E+02 -.341E+04   0.278E+02 0.483E+02 0.341E+04   -.359E+00 -.222E+00 0.256E+01   -.712E-01 -.546E-01 -.207E+00
   0.275E+02 -.483E+02 -.341E+04   -.278E+02 0.483E+02 0.341E+04   0.359E+00 -.222E+00 0.256E+01   0.725E-01 -.532E-01 -.209E+00
   -.555E+02 0.338E+00 -.341E+04   0.557E+02 -.955E-01 0.341E+04   -.372E+00 -.199E+00 0.256E+01   -.825E-01 -.345E-01 -.207E+00
   0.555E+02 0.338E+00 -.341E+04   -.557E+02 -.956E-01 0.341E+04   0.372E+00 -.199E+00 0.256E+01   0.818E-01 -.342E-01 -.208E+00
   -.281E+02 0.479E+02 -.341E+04   0.279E+02 -.482E+02 0.341E+04   -.133E-01 0.422E+00 0.256E+01   -.959E-02 0.894E-01 -.209E+00
   0.281E+02 0.479E+02 -.341E+04   -.279E+02 -.482E+02 0.341E+04   0.133E-01 0.422E+00 0.256E+01   0.123E-01 0.881E-01 -.209E+00
   -.150E-03 -.282E-04 -.342E+04   0.250E-03 0.239E-05 0.342E+04   0.887E-17 -.892E-17 0.215E+01   -.125E-01 -.601E-02 -.177E+00
   -.258E-04 -.763E-05 -.170E+04   0.757E-04 0.144E-04 0.170E+04   -.189E-17 0.402E-17 -.379E+00   0.840E-03 0.527E-03 -.167E+00
   0.106E-03 -.487E-04 -.179E+04   0.162E-04 0.716E-05 0.181E+04   -.379E-18 -.500E-19 -.197E+02   0.141E-02 0.859E-03 0.468E-01
   -.163E-03 -.473E-04 0.247E+02   0.858E-13 0.262E-12 -.273E-11   0.145E-15 0.217E-15 -.153E+02   0.492E-02 0.113E-01 -.950E+01

 POSITION                                       TOTAL-FORCE (eV/Angst)
      0.00000      0.00000      5.37156        -0.000000     -0.000000      0.012207
      2.56560      0.00000      5.37156         0.001140      0.008919      0.050048
      5.13119      0.00000      5.37156        -0.001140      0.008919      0.050048
      1.28280      2.22187      5.37156         0.008294     -0.003472      0.050048
      3.84839      2.22187      5.37156        -0.000000     -0.000000      0.034029
      6.41399      2.22187      5.37156        -0.008294     -0.003472      0.050048
      2.56560      4.44374      5.37156         0.007154     -0.005447      0.050048
      5.13119      4.44374      5.37156        -0.007154     -0.005447      0.050048
      7.69679      4.44374      5.37156        -0.000000     -0.000000      0.029008
      1.28280      0.74062      7.46636        -0.037940     -0.021905     -0.074976
      3.84839      0.74062      7.46636         0.000000     -0.060582     -0.047639
      6.41399      0.74062      7.46636         0.037940     -0.021905     -0.074976
      2.56560      2.96249      7.46636        -0.052465      0.030291     -0.047639
      5.13119      2.96249      7.46636         0.052465      0.030291     -0.047639
      7.69679      2.96249      7.46636        -0.000000      0.009443      0.054526
      3.84839      5.18437      7.46636        -0.000000      0.043809     -0.074976
      6.41399      5.18437      7.46636         0.008178     -0.004722      0.054526
      8.97958      5.18437      7.46636        -0.008178     -0.004722      0.054526
      7.69679      1.48345      9.56239         0.000000     -0.034129      0.055552
      2.55319      1.47409      9.53589        -0.400903     -0.231462     -0.456654
      5.14360      1.47409      9.53589         0.400903     -0.231462     -0.456654
      8.97438      3.70612      9.57309         0.075463     -0.043568      0.040519
      3.84839      3.71744      9.53589        -0.000000      0.462923     -0.456654
      6.41919      3.70612      9.57309        -0.075463     -0.043568      0.040519
     10.26047      5.92389      9.56239         0.029557      0.017065      0.055552
      5.13310      5.92389      9.56239        -0.029557      0.017065      0.055552
      7.69679      5.91898      9.57309        -0.000000      0.087137      0.040519
      0.00000      0.00000     11.66245        -0.000000     -0.000000     -0.114992
      6.40959      6.66262     11.69844        -0.134942     -0.251105     -0.156655
      8.98399      6.66262     11.69844         0.134942     -0.251105     -0.156655
      8.97479      2.21956     11.69844        -0.284934      0.008690     -0.156655
      6.41878      2.21956     11.69844         0.284934      0.008690     -0.156655
     10.26199      4.44905     11.69844        -0.149993      0.242415     -0.156655
      5.13158      4.44905     11.69844         0.149993      0.242415     -0.156655
      7.69679      4.44374     11.67118        -0.000000     -0.000000     -0.081712
      3.84839      2.22187     11.59207        -0.000000     -0.000000      2.081292
      3.84839      2.22187     13.33540        -0.000000     -0.000000     -0.034173
    total drift:                                0.004759      0.011222     -0.028678

  FREE ENERGIE OF THE ION-ELECTRON SYSTEM (eV)
  free  energy   TOTEN  =      -141.24885608 eV

  energy  without entropy=     -141.24885608  energy(sigma->0) =     -141.24885608

 stress matrix after NEB project (eV)
     -4.55502      0.00000     -0.00000
      0.00000     -4.55502     -0.00000
     -0.00000     -0.00000     -0.88286
  FORCES: max atom, RMS     0.034173    0.005618
  FORCE total and by dimension    0.034173    0.034173
  Stress total and by dimension    6.501993    4.555023
|           W    W    AA    RRRRR   N    N  II  N    N   GGGG   !!!           |
|           W    W   A  A   R    R  NN   N  II  NN   N  G    G  !!!           |
|           W    W  A    A  R    R  N N  N  II  N N  N  G       !!!           |
|           W WW W  AAAAAA  RRRRR   N  N N  II  N  N N  G  GGG   !            |
|           WW  WW  A    A  R   R   N   NN  II  N   NN  G    G                |
|           W    W  A    A  R    R  N    N  II  N    N   GGGG   !!!           |
|     Tetrahedron method does not include variations of the Fermi             |
|     occupations, so forces and stress will be inaccurate. We suggest        |
|     using a different smearing scheme ISMEAR = 1 or 2 for metals in         |
|     relaxations.                                                            |

 total charge

# of ion       s       p       d       tot
    1        0.450   0.283   9.188   9.922
    2        0.449   0.285   9.185   9.919
    3        0.449   0.285   9.185   9.919
    4        0.449   0.285   9.185   9.919
    5        0.447   0.285   9.183   9.916
    6        0.449   0.285   9.185   9.919
    7        0.449   0.285   9.185   9.919
    8        0.449   0.285   9.185   9.919
    9        0.447   0.284   9.188   9.919
   10        0.441   0.370   9.176   9.988
   11        0.440   0.369   9.181   9.990
   12        0.441   0.370   9.176   9.988
   13        0.440   0.369   9.181   9.990
   14        0.440   0.369   9.181   9.990
   15        0.437   0.368   9.177   9.982
   16        0.441   0.370   9.176   9.988
   17        0.437   0.368   9.177   9.982
   18        0.437   0.368   9.177   9.982
   19        0.440   0.362   9.184   9.986
   20        0.464   0.399   9.171  10.033
   21        0.464   0.399   9.171  10.033
   22        0.430   0.371   9.178   9.979
   23        0.464   0.399   9.171  10.033
   24        0.430   0.371   9.178   9.979
   25        0.440   0.362   9.184   9.986
   26        0.440   0.362   9.184   9.986
   27        0.430   0.371   9.178   9.979
   28        0.451   0.289   9.183   9.924
   29        0.463   0.312   9.174   9.949
   30        0.463   0.312   9.174   9.949
   31        0.463   0.312   9.174   9.949
   32        0.463   0.312   9.174   9.949
   33        0.463   0.312   9.174   9.949
   34        0.463   0.312   9.174   9.949
   35        0.449   0.294   9.178   9.922
   36        0.773   0.705   4.480   5.958
   37        1.339   2.219   0.000   3.558
tot         17.789  14.657 325.756 358.202

 BZINTS: Fermi energy:    0.009082;  396.000000 electrons
         Band energy:-0.115573E+04;  BLOECHL correction:   -0.037877