 vasp.6.2.0 18Jan21 (build Jun 12 2021 23:27:24) complex

 executed on             LinuxIFC date 2022.05.28  00:53:14

 INCAR:
   ISMEAR = -5
   SIGMA = 0.1
   ISPIN = 1
   EDIFF = 1.d-5
   EDIFFG = -0.01
   NSW = 0
   NELM = 150
   ENCUT = 500
   ISIF = 2
   IBRION = 2
   LREAL = Auto
   ALGO = Fast
   ICHARG = 11
   LORBIT = 10
   LCHARG = .F.
   LWAVE = .F.

 POTCAR:    PAW_PBE Au 04Oct2007
 POTCAR:    PAW_PBE Zr_sv 04Jan2005
 POTCAR:    PAW_PBE C 08Apr2002
 POTCAR:    PAW_PBE O 08Apr2002
|           W    W    AA    RRRRR   N    N  II  N    N   GGGG   !!!           |
|           W    W   A  A   R    R  NN   N  II  NN   N  G    G  !!!           |
|           W    W  A    A  R    R  N N  N  II  N N  N  G       !!!           |
|           W WW W  AAAAAA  RRRRR   N  N N  II  N  N N  G  GGG   !            |
|           WW  WW  A    A  R   R   N   NN  II  N   NN  G    G                |
|           W    W  A    A  R    R  N    N  II  N    N   GGGG   !!!           |
|     For optimal performance we recommend to set                             |
|       NCORE = 2 up to number-of-cores-per-socket                            |
|     This setting can greatly improve the performance of VASP for DFT.       |
|     The default, NCORE=1 might be grossly inefficient on modern             |
|     multi-core architectures or massively parallel machines. Do your        |
|     Unfortunately you need to use the default for GW and RPA                |
|     calculations (for HF NCORE is supported but not extensively tested      |
|     yet).                                                                   |

 POTCAR:    PAW_PBE Au 04Oct2007
   VRHFIN =Au: s1d10

   TITEL  = PAW_PBE Au 04Oct2007
   POMASS =  196.966; ZVAL   =   11.000    mass and valenz
   ENMAX  =  229.943; ENMIN  =  172.457 eV

 POTCAR:    PAW_PBE Zr_sv 04Jan2005
   VRHFIN =Zr: 4s4p5s4d

   TITEL  = PAW_PBE Zr_sv 04Jan2005
   POMASS =   91.224; ZVAL   =   12.000    mass and valenz
   ENMAX  =  229.898; ENMIN  =  172.424 eV

 POTCAR:    PAW_PBE C 08Apr2002
   VRHFIN =C: s2p2

   TITEL  = PAW_PBE C 08Apr2002
   POMASS =   12.011; ZVAL   =    4.000    mass and valenz
   ENMAX  =  400.000; ENMIN  =  300.000 eV

 POTCAR:    PAW_PBE O 08Apr2002
   VRHFIN =O: s2p4

   TITEL  = PAW_PBE O 08Apr2002
   POMASS =   16.000; ZVAL   =    6.000    mass and valenz
   ENMAX  =  400.000; ENMIN  =  300.000 eV

 Optimization of the real space projectors (new method)

 maximal supplied QI-value         = 15.12
 optimisation between [QCUT,QGAM] = [ 11.34, 22.83] = [ 36.00,145.93] Ry
 Optimized for a Real-space Cutoff    1.39 Angstroem

   l    n(q)    QCUT    max X(q) W(low)/X(q) W(high)/X(q)  e(spline)
   2      9    11.338    60.898    0.39E-03    0.42E-03    0.21E-06
   2      9    11.338    58.894    0.40E-03    0.42E-03    0.22E-06
   0      9    11.338   109.617    0.13E-03    0.20E-04    0.13E-06
   0      9    11.338    75.026    0.13E-03    0.20E-04    0.13E-06
   1      9    11.338    16.344    0.33E-04    0.24E-03    0.18E-06
   1      9    11.338    10.160    0.26E-04    0.19E-03    0.15E-06
 Optimization of the real space projectors (new method)

[...]

   l    n(q)    QCUT    max X(q) W(low)/X(q) W(high)/X(q)  e(spline)
   0      7    11.310   115.676    0.43E-03    0.13E-02    0.19E-06
   0      7    11.310    87.132    0.43E-03    0.13E-02    0.18E-06
   1      6    11.310     4.429    0.42E-03    0.74E-03    0.11E-06
   1      6    11.310     2.733    0.34E-03    0.55E-03    0.92E-07
 Optimization of the real space projectors (new method)

 maximal supplied QI-value         = 24.76
 optimisation between [QCUT,QGAM] = [ 11.39, 22.77] = [ 36.31,145.25] Ry
 Optimized for a Real-space Cutoff    1.00 Angstroem

   l    n(q)    QCUT    max X(q) W(low)/X(q) W(high)/X(q)  e(spline)
   0      7    11.387    20.381    0.39E-03    0.13E-02    0.15E-06
   0      7    11.387    15.268    0.42E-03    0.14E-02    0.17E-06
   1      6    11.387     5.964    0.41E-03    0.11E-02    0.17E-06
   1      6    11.387     5.382    0.39E-03    0.87E-03    0.15E-06
  PAW_PBE Au 04Oct2007                  :
  PAW_PBE Zr_sv 04Jan2005               :
  PAW_PBE C 08Apr2002                   :
  PAW_PBE O 08Apr2002                   :

 POSCAR: Au-Zr-CO2
  positions in direct lattice
  velocities in cartesian coordinates
 exchange correlation table for  LEXCH =        8
   RHO(1)=    0.500       N(1)  =     2000
   RHO(2)=  100.500       N(2)  =     4000

 VTST: version 3.2, (02/03/18)

 CHAIN: initializing optimizer

 OPT: Using VASP Conjugate-Gradient optimizer
 CHAIN: Read ICHAIN            0

 POSCAR: Au-Zr-CO2
  positions in direct lattice
  velocities in cartesian coordinates

 ion  position               nearest neighbor table
   1  0.000  0.000  0.197-  16 2.94  12 2.94   6 2.94   8 2.94   7 2.94   3 2.94  10 2.94   4 2.94
                             2 2.94
   2  0.333  0.000  0.197-   9 2.94  11 2.94  17 2.94  10 2.94   8 2.94   4 2.94   5 2.94   1 2.94
                             3 2.94
   3  0.667  0.000  0.197-   7 2.94  18 2.94  12 2.94   1 2.94  11 2.94   5 2.94   6 2.94   9 2.94
                             2 2.94
   4  0.000  0.333  0.197-  10 2.94   6 2.94   5 2.94  13 2.94   2 2.94  15 2.94   9 2.94   1 2.94
                             7 2.94
   5  0.333  0.333  0.197-  13 2.94   7 2.94  11 2.94   4 2.94   2 2.94  14 2.94   3 2.94   8 2.94
                             6 2.94
   6  0.667  0.333  0.197-  15 2.94  14 2.94   1 2.94  12 2.94   4 2.94   9 2.94   8 2.94   3 2.94
                             5 2.94
   7  0.000  0.667  0.197-  18 2.94   3 2.94  16 2.94   5 2.94   1 2.94  13 2.94   8 2.94   4 2.94
                             9 2.94
   8  0.333  0.667  0.197-   9 2.94  17 2.94   1 2.94   2 2.94  14 2.94  16 2.94   6 2.94   7 2.94
                             5 2.94
   9  0.667  0.667  0.197-   2 2.94   8 2.94  17 2.94   6 2.94  15 2.94   4 2.94   3 2.94  18 2.94
                             7 2.94
  10  0.111  0.111  0.286-  20 2.93  26 2.93  19 2.93  11 2.94  17 2.94   2 2.94   4 2.94   1 2.94
                            12 2.94  16 2.94  13 2.94  15 2.94
  11  0.444  0.111  0.286-  20 2.92  21 2.92  27 2.94  13 2.94   2 2.94  10 2.94  17 2.94   5 2.94
                             3 2.94  18 2.94  14 2.94  12 2.94
  12  0.778  0.111  0.286-  21 2.93  25 2.93  19 2.93  16 2.94  18 2.94   1 2.94  14 2.94  15 2.94
                             3 2.94   6 2.94  10 2.94  11 2.94
  13  0.111  0.444  0.286-  23 2.92  20 2.92  22 2.94   5 2.94  18 2.94  11 2.94   7 2.94   4 2.94
                            16 2.94  10 2.94  14 2.94  15 2.94
  14  0.444  0.444  0.286-  21 2.92  23 2.92  24 2.94  15 2.94   6 2.94  12 2.94   8 2.94  17 2.94
                             5 2.94  16 2.94  13 2.94  11 2.94
  15  0.778  0.444  0.286-  24 2.93  22 2.93  19 2.93  14 2.94   6 2.94  17 2.94  12 2.94   9 2.94
                             4 2.94  10 2.94  13 2.94  18 2.94
  16  0.111  0.778  0.286-  23 2.93  25 2.93  26 2.93  18 2.94  12 2.94   7 2.94   1 2.94   8 2.94
                            13 2.94  10 2.94  14 2.94  17 2.94
  17  0.444  0.778  0.286-  27 2.93  24 2.93  26 2.93   9 2.94  15 2.94   2 2.94  10 2.94  11 2.94
                             8 2.94  14 2.94  16 2.94  18 2.94
  18  0.778  0.778  0.286-  22 2.93  27 2.93  25 2.93  16 2.94   7 2.94  13 2.94  12 2.94   3 2.94
                            11 2.94   9 2.94  15 2.94  17 2.94
  19  0.889  0.222  0.376-  10 2.93  12 2.93  15 2.93  26 2.94  25 2.94  24 2.94  22 2.94  21 2.95
                            20 2.95  28 2.96  32 3.04  31 3.04
  20  0.223  0.223  0.375-  36 2.86  23 2.92  21 2.92  11 2.92  13 2.92  10 2.93  27 2.94  22 2.94
                            26 2.95  19 2.95  29 3.00  31 3.00
  21  0.554  0.223  0.375-  36 2.86  20 2.92  23 2.92  14 2.92  11 2.92  12 2.93  27 2.94  24 2.94
                            25 2.95  19 2.95  30 3.00  32 3.00
  22  0.888  0.556  0.376-  24 2.92  27 2.92  18 2.93  15 2.93  13 2.94  25 2.94  19 2.94  23 2.94
                            20 2.94  35 2.96  33 3.01  31 3.01
  23  0.223  0.554  0.375-  36 2.86  20 2.92  21 2.92  13 2.92  14 2.92  16 2.93  22 2.94  24 2.94
                            25 2.95  26 2.95  33 3.00  34 3.00
  24  0.556  0.556  0.376-  27 2.92  22 2.92  15 2.93  17 2.93  14 2.94  26 2.94  19 2.94  21 2.94
                            23 2.94  35 2.96  32 3.01  34 3.01
  25  0.889  0.889  0.376-  16 2.93  12 2.93  18 2.93  19 2.94  26 2.94  22 2.94  27 2.94  23 2.95
                            21 2.95  28 2.96  33 3.04  30 3.04
  26  0.222  0.889  0.376-  10 2.93  16 2.93  17 2.93  19 2.94  25 2.94  27 2.94  24 2.94  20 2.95
                            23 2.95  28 2.96  29 3.04  34 3.04
  27  0.556  0.888  0.376-  24 2.92  22 2.92  17 2.93  18 2.93  11 2.94  26 2.94  25 2.94  20 2.94
                            21 2.94  35 2.96  29 3.01  30 3.01
  28  0.000  0.000  0.466-  25 2.96  19 2.96  26 2.96  34 2.97  32 2.97  33 2.97  30 2.97  31 2.97
                            29 2.97
  29  0.334  0.006  0.468-  30 2.88  31 2.89  36 2.89  35 2.96  28 2.97  20 3.00  27 3.01  26 3.04
                            34 3.04
  30  0.661  0.006  0.468-  29 2.88  32 2.89  36 2.89  35 2.96  28 2.97  21 3.00  27 3.01  25 3.04
                            33 3.04
  31  0.006  0.334  0.468-  33 2.88  29 2.89  36 2.89  35 2.96  28 2.97  20 3.00  22 3.01  19 3.04
                            32 3.04
  32  0.661  0.334  0.468-  34 2.88  30 2.89  36 2.89  35 2.96  28 2.97  21 3.00  24 3.01  19 3.04
                            31 3.04
  33  0.006  0.661  0.468-  31 2.88  34 2.89  36 2.89  35 2.96  28 2.97  23 3.00  22 3.01  25 3.04
                            30 3.04
  34  0.334  0.661  0.468-  32 2.88  33 2.89  36 2.89  35 2.96  28 2.97  23 3.00  24 3.01  26 3.04
                            29 3.04
  35  0.667  0.667  0.466-  24 2.96  27 2.96  22 2.96  29 2.96  34 2.96  32 2.96  31 2.96  30 2.96
                            33 2.96
  36  0.333  0.333  0.462-  39 2.46  20 2.86  23 2.86  21 2.86  33 2.89  31 2.89  29 2.89  30 2.89
                            34 2.89  32 2.89
  37  0.247  0.321  0.587-  38 1.17  39 1.19
  38  0.169  0.312  0.621-  37 1.17
  39  0.329  0.331  0.553-  37 1.19  36 2.46

  LATTYP: Found a hexagonal cell.
 ALAT       =     8.8135128021
 C/A-ratio  =     3.0420057082

  Lattice vectors:

 A1 = (  -4.4067569092,  -7.6327256898,   0.0000000000)
 A2 = (   8.8135128021,   0.0000000000,   0.0000000000)
 A3 = (   0.0000000000,   0.0000000000,  26.8107562534)

Analysis of symmetry for initial positions (statically):
 Subroutine PRICEL returns:
 Original cell was already a primitive cell.

 Routine SETGRP: Setting up the symmetry group for a
 hexagonal supercell.

 Subroutine GETGRP returns: Found  1 space group operations
 (whereof  1 operations were pure point group operations)
 out of a pool of 24 trial point group operations.

The static configuration has the point symmetry C_1 .

Analysis of symmetry for dynamics (positions and initial velocities):
 Subroutine PRICEL returns:
 Original cell was already a primitive cell.

[...]

The dynamic configuration has the point symmetry C_1 .

[...]
     41      -5.4065      2.00000
     42      -5.3724      2.00000
     43      -5.3483      2.00000
     44      -5.3109      2.00000
     45      -5.3018      2.00000
     46      -5.2766      2.00000
     47      -5.2712      2.00000
     48      -5.2511      2.00000
     49      -5.0908      2.00000
     50      -5.0759      2.00000
     51      -5.0142      2.00000
     52      -4.9686      2.00000
     53      -4.9494      2.00000
     54      -4.9212      2.00000
     55      -4.8994      2.00000
     56      -4.8657      2.00000
     57      -4.8428      2.00000
     58      -4.7605      2.00000
     59      -4.7481      2.00000
     60      -4.7030      2.00000
[...]
    238       4.2510      0.00000
    239       4.3790      0.00000
    240       4.5676      0.00000
    241       4.7793      0.00000
    242       4.8460      0.00000
    243       4.8648      0.00000
    244       5.0560      0.00000
    245       5.3084      0.00000
    246       5.4335      0.00000
    247       5.4742      0.00000
    248       5.6229      0.00000
    249       5.7415      0.00000
    250       5.7986      0.00000
    251       5.8988      0.00000
    252       6.0019      0.00000

 soft charge-density along one line, spin component           1
         0         1         2         3         4         5         6         7         8         9
 total charge-density along one line

------------------------ aborting loop because EDIFF is reached ----------------------------------------

 total charge

# of ion       s       p       d       tot
    1        0.550   0.237   8.767   9.554
    2        0.542   0.241   8.765   9.549
    3        0.542   0.241   8.765   9.549
    4        0.542   0.241   8.765   9.549
    5        0.543   0.242   8.761   9.546
    6        0.542   0.241   8.765   9.549
    7        0.542   0.241   8.765   9.549
    8        0.542   0.241   8.765   9.549
    9        0.545   0.240   8.766   9.551
   10        0.524   0.307   8.770   9.601
   11        0.520   0.306   8.778   9.604
   12        0.524   0.307   8.770   9.601
   13        0.520   0.306   8.778   9.604
   14        0.519   0.307   8.778   9.604
   15        0.516   0.308   8.773   9.597
   16        0.524   0.307   8.770   9.601
   17        0.516   0.308   8.773   9.597
   18        0.516   0.308   8.773   9.597
   19        0.523   0.298   8.768   9.590
   20        0.570   0.332   8.730   9.632
   21        0.569   0.332   8.730   9.632
   22        0.511   0.305   8.773   9.590
   23        0.569   0.332   8.730   9.632
   24        0.510   0.305   8.773   9.589
   25        0.523   0.298   8.769   9.590
   26        0.523   0.298   8.769   9.590
   27        0.510   0.306   8.773   9.589
   28        0.544   0.237   8.750   9.531
   29        0.603   0.252   8.725   9.580
   30        0.602   0.250   8.726   9.578
   31        0.604   0.253   8.724   9.581
   32        0.602   0.249   8.726   9.577
   33        0.603   0.251   8.725   9.579
   34        0.602   0.250   8.726   9.577
   35        0.540   0.238   8.754   9.532
   36        2.186   5.980   1.418   9.584
   37        0.927   1.792   0.000   2.719
   38        1.613   3.518   0.000   5.131
   39        1.593   3.572   0.000   5.164
tot         25.394  24.584 307.940 357.919

  FORCE on cell =-STRESS in cart. coord.  units (eV):
  Direction    XX          YY          ZZ          XY          YZ          ZX
  Alpha Z   889.33038   889.33038   889.33038
  Ewald  186765.56703186441.20450************    31.36362   -39.14946  -390.57093
  Hartree195428.29702195276.10259************    14.44019   -17.94130  -178.15889
  E(xc)   -1852.77030 -1853.61551 -1859.78547     0.08191    -0.10071    -1.01922
  Local  ************************393712.34365   -42.94232    53.55069   532.94555
  n-local  -103.04242  -100.85446   -69.85870    -0.18630     0.24939     2.70215
  augment  2376.90470  2378.03073  2394.74203    -0.10495     0.13343     1.31783
  Kinetic  5884.19646  5911.36354  5921.52360    -2.64227     3.27409    32.79105
  Fock        0.00000     0.00000     0.00000     0.00000     0.00000     0.00000
  Total     -21.62382   -21.60346     2.41276     0.00987     0.01613     0.00755
  in kB     -19.20902   -19.19093     2.14332     0.00877     0.01433     0.00671

 VOLUME and BASIS-vectors are now :
  energy-cutoff  :      500.00
  volume of cell :     1803.59
      direct lattice vectors                 reciprocal lattice vectors
     8.813512802  0.000000000  0.000000000     0.113462137 -0.065507406  0.000000000
     4.406756909  7.632725690  0.000000000     0.000000000  0.131014796  0.000000000
     0.000000000  0.000000000 26.810756253     0.000000000  0.000000000  0.037298463

  length of vectors
     8.813512802  8.813512802 26.810756253     0.131014796  0.131014796  0.037298463

 FORCES acting on ions
    electron-ion (+dipol)            ewald-force                    non-local-force                 convergence-correction
   0.213E-01 0.717E-02 0.286E+04   -.266E-01 -.138E-01 -.286E+04   0.129E-02 0.158E-02 -.527E+00   0.554E-02 0.570E-02 -.139E+00
   0.354E+00 0.493E+00 0.286E+04   -.418E+00 -.613E+00 -.286E+04   0.565E-02 0.703E-01 -.329E+00   0.556E-01 0.411E-01 -.115E+00
   -.380E+00 0.412E+00 0.286E+04   0.445E+00 -.571E+00 -.286E+04   -.358E-02 0.702E-01 -.350E+00   -.592E-01 0.782E-01 -.121E+00
   0.608E+00 0.903E-01 0.286E+04   -.741E+00 -.768E-01 -.286E+04   0.616E-01 -.300E-01 -.326E+00   0.622E-01 0.188E-01 -.115E+00
   -.855E-01 -.144E-01 0.287E+04   0.493E-01 0.673E-02 -.287E+04   0.114E-02 -.111E-03 -.929E-01   0.328E-01 0.762E-02 -.188E+00
   -.521E+00 0.652E-01 0.286E+04   0.692E+00 -.794E-01 -.286E+04   -.673E-01 -.286E-01 -.347E+00   -.926E-01 0.449E-01 -.122E+00
   0.178E+00 -.564E+00 0.286E+04   -.274E+00 0.692E+00 -.286E+04   0.551E-01 -.390E-01 -.330E+00   0.329E-01 -.820E-01 -.114E+00
   -.234E+00 -.500E+00 0.286E+04   0.296E+00 0.648E+00 -.286E+04   -.591E-01 -.432E-01 -.349E+00   0.263E-02 -.976E-01 -.123E+00
   0.793E-01 0.154E-01 0.286E+04   -.221E-01 0.714E-02 -.286E+04   -.859E-02 -.419E-02 -.306E+00   -.473E-01 -.184E-01 -.399E-01
   0.405E+01 0.244E+01 0.104E+04   -.394E+01 -.237E+01 -.104E+04   -.233E+00 -.132E+00 -.617E+00   0.983E-01 0.553E-01 0.356E-01
   -.278E+00 0.660E+01 0.105E+04   0.279E+00 -.665E+01 -.105E+04   0.290E-02 -.229E-01 -.217E+00   -.285E-02 0.181E-01 0.270E-01
   -.377E+01 0.220E+01 0.104E+04   0.366E+01 -.216E+01 -.104E+04   0.224E+00 -.131E+00 -.637E+00   -.954E-01 0.807E-01 0.134E-01
   0.549E+01 -.340E+01 0.105E+04   -.553E+01 0.345E+01 -.105E+04   -.228E-01 0.726E-02 -.212E+00   0.159E-01 -.209E-01 0.302E-01
   -.582E+01 -.329E+01 0.105E+04   0.585E+01 0.331E+01 -.105E+04   0.157E-01 0.646E-02 -.214E+00   0.617E-02 0.290E-02 0.218E-01
   0.339E+00 0.307E+00 0.104E+04   -.317E+00 -.417E+00 -.104E+04   -.586E-02 0.196E-01 -.495E+00   -.180E-01 0.577E-01 -.161E-01
   -.849E-01 -.450E+01 0.104E+04   0.438E-01 0.437E+01 -.104E+04   0.686E-02 0.265E+00 -.632E+00   0.334E-01 -.117E+00 0.236E-01
   0.377E+00 -.331E-02 0.104E+04   -.461E+00 0.683E-01 -.104E+04   0.148E-01 -.104E-01 -.495E+00   0.404E-01 -.385E-01 -.139E-01
   -.306E+00 -.357E+00 0.104E+04   0.417E+00 0.409E+00 -.104E+04   -.116E-01 -.313E-02 -.502E+00   -.688E-01 -.313E-01 -.149E-01
   0.234E+01 -.549E+00 -.821E+03   -.232E+01 0.575E+00 0.820E+03   -.178E-01 -.564E-01 0.464E+00   0.579E-02 0.283E-01 0.254E+00
   0.393E+02 0.239E+02 -.761E+03   -.384E+02 -.234E+02 0.761E+03   -.112E+01 -.656E+00 -.120E+01   0.175E+00 0.910E-01 0.411E+00
   -.416E+02 0.231E+02 -.766E+03   0.407E+02 -.226E+02 0.766E+03   0.114E+01 -.657E+00 -.115E+01   -.172E+00 0.115E+00 0.424E+00
   0.124E+02 -.815E+01 -.809E+03   -.128E+02 0.837E+01 0.808E+03   0.272E+00 -.147E+00 0.555E+00   0.878E-01 -.769E-01 0.216E+00
   -.187E+01 -.474E+02 -.764E+03   0.185E+01 0.463E+02 0.765E+03   0.745E-03 0.131E+01 -.116E+01   0.164E-01 -.200E+00 0.422E+00
   -.106E+02 -.641E+01 -.813E+03   0.109E+02 0.662E+01 0.812E+03   -.264E+00 -.157E+00 0.600E+00   -.111E+00 -.590E-01 0.216E+00
   0.840E+00 -.311E+00 -.822E+03   -.890E+00 0.284E+00 0.821E+03   0.464E-01 0.288E-01 0.485E+00   0.541E-02 -.267E-02 0.268E+00
   -.309E+00 0.203E+01 -.821E+03   0.325E+00 -.203E+01 0.820E+03   -.500E-01 0.184E-01 0.475E+00   0.337E-01 -.125E-01 0.252E+00
   -.525E+00 0.138E+02 -.811E+03   0.558E+00 -.142E+02 0.810E+03   0.290E-02 0.315E+00 0.581E+00   -.353E-01 0.119E+00 0.215E+00
   0.772E+01 0.437E+01 -.264E+04   -.773E+01 -.437E+01 0.264E+04   0.132E-01 0.524E-02 0.302E+00   -.250E-02 -.239E-02 0.282E+00
   0.495E+02 0.103E+03 -.263E+04   -.484E+02 -.101E+03 0.263E+04   -.124E+01 -.194E+01 -.856E+00   0.110E+00 0.187E+00 0.280E+00
   -.580E+02 0.853E+02 -.265E+04   0.569E+02 -.837E+02 0.265E+04   0.123E+01 -.193E+01 -.730E+00   -.105E+00 0.215E+00 0.302E+00
   0.117E+03 -.430E+00 -.262E+04   -.115E+03 0.557E+00 0.262E+04   -.233E+01 -.105E+00 -.969E+00   0.215E+00 -.780E-02 0.276E+00
   -.939E+02 0.103E+01 -.265E+04   0.919E+02 -.909E+00 0.265E+04   0.229E+01 -.104E+00 -.705E+00   -.244E+00 0.591E-03 0.303E+00
   0.452E+02 -.102E+03 -.264E+04   -.443E+02 0.101E+03 0.264E+04   -.106E+01 0.203E+01 -.814E+00   0.136E+00 -.191E+00 0.298E+00
   -.521E+02 -.851E+02 -.265E+04   0.513E+02 0.833E+02 0.265E+04   0.105E+01 0.203E+01 -.725E+00   -.116E+00 -.209E+00 0.295E+00
   0.630E+01 -.254E+01 -.265E+04   -.630E+01 0.255E+01 0.264E+04   0.135E-01 -.250E-02 0.505E+00   -.195E-01 -.500E-02 0.318E+00
   -.233E+02 -.351E+01 -.263E+04   0.232E+02 0.349E+01 0.263E+04   0.415E-01 0.149E-02 0.285E+01   0.323E-01 0.117E-01 0.266E+00
   0.209E+01 0.824E+00 -.104E+04   -.305E+01 -.913E+00 0.104E+04   0.930E+00 0.831E-01 -.480E-01   0.194E-01 0.218E-02 -.507E-01
   0.169E+03 0.164E+02 -.158E+04   -.210E+03 -.203E+02 0.164E+04   0.410E+02 0.393E+01 -.511E+02   0.256E-01 0.186E-02 -.667E-01
   -.171E+03 -.168E+02 -.157E+04   0.212E+03 0.208E+02 0.153E+04   -.408E+02 -.401E+01 0.398E+02   0.798E-02 0.538E-03 -.131E+00
   -.122E+01 -.159E-01 0.155E+02   0.000E+00 -.426E-13 -.728E-11   0.115E+01 -.108E-01 -.198E+02   0.671E-01 0.126E-01 0.408E+01

 POSITION                                       TOTAL-FORCE (eV/Angst)
      0.00000      0.00000      5.28038         0.001637      0.001029     -0.119082
      2.93784      0.00000      5.28038        -0.002587     -0.007628     -0.034933
      5.87568      0.00000      5.28038         0.001907     -0.010547     -0.035624
      1.46892      2.54424      5.28038        -0.008727      0.002731     -0.036343
      4.40676      2.54424      5.28038        -0.002239      0.000165     -0.003663
      7.34459      2.54424      5.28038         0.010718      0.002444     -0.032825
      2.93784      5.08848      5.28038        -0.007982      0.006771     -0.036314
      5.87568      5.08848      5.28038         0.005220      0.008122     -0.033345
      8.81351      5.08848      5.28038         0.001330      0.000306     -0.055015
      1.46892      0.84808      7.67911        -0.016336     -0.008844      0.015669
      4.40676      0.84808      7.67911         0.000535     -0.057121     -0.032874
      7.34459      0.84808      7.67911         0.016514     -0.009411      0.014930
      2.93784      3.39232      7.67911        -0.048667      0.030514     -0.033417
      5.87568      3.39232      7.67911         0.048910      0.028507     -0.031013
      8.81351      3.39232      7.67911        -0.001770     -0.032385      0.098975
      4.40676      5.93656      7.67911        -0.000815      0.018165      0.014448
      7.34459      5.93656      7.67911        -0.028367      0.016443      0.099150
     10.28243      5.93656      7.67911         0.030485      0.017559      0.099377
      8.81351      1.69571     10.07248         0.003820     -0.001162     -0.048052
      2.94528      1.70046     10.06340        -0.038499     -0.022409     -0.044598
      5.86824      1.70046     10.06340         0.044947     -0.025660     -0.040640
     10.27570      4.24429     10.07162         0.009242     -0.005975     -0.012333
      4.40676      4.23182     10.06340        -0.000278      0.048743     -0.040001
      7.35132      4.24429     10.07162        -0.011410     -0.007054     -0.003719
     11.75174      6.78487     10.07248         0.001791      0.000120     -0.049314
      5.87529      6.78487     10.07248        -0.001155      0.003428     -0.048119
      8.81351      6.77688     10.07162         0.000276      0.013626     -0.006900
      0.00000      0.00000     12.49858        -0.003552     -0.001544      0.019203
      2.96552      0.04535     12.55994        -0.035028     -0.087378     -0.037903
      5.84799      0.04535     12.55994         0.032245     -0.081935     -0.045374
      1.52204      2.54555     12.55994        -0.088410      0.014015     -0.026720
      7.29148      2.54555     12.55994         0.083708      0.016574     -0.044486
      2.96327      5.04183     12.55994        -0.056363      0.070645     -0.037471
      5.85025      5.04183     12.55994         0.055814      0.063946     -0.041076
      8.81351      5.08848     12.50663        -0.003725      0.000841      0.065557
      4.40676      2.54424     12.37417         0.010960     -0.001691      0.575257
      3.58978      2.44822     15.73323        -0.004085     -0.003338      0.001141
      2.86445      2.37865     16.64502        -0.001354     -0.000640      0.004437
      4.36169      2.52515     14.83732         0.001290      0.000033      0.003010
    total drift:                               -0.002024     -0.014077     -0.251407

  FREE ENERGIE OF THE ION-ELECTRON SYSTEM (eV)
  free  energy   TOTEN  =      -139.76666676 eV

  energy  without entropy=     -139.76666676  energy(sigma->0) =     -139.76666676

 stress matrix after NEB project (eV)
    -21.62382      0.00987      0.00755
      0.00987    -21.60346      0.01613
      0.00755      0.01613      2.41276
  FORCES: max atom, RMS     0.005398    0.001259
  FORCE total and by dimension    0.007860    0.004437
  Stress total and by dimension   30.661398   21.623822
|           W    W    AA    RRRRR   N    N  II  N    N   GGGG   !!!           |
|           W    W   A  A   R    R  NN   N  II  NN   N  G    G  !!!           |
|           W    W  A    A  R    R  N N  N  II  N N  N  G       !!!           |
|           W WW W  AAAAAA  RRRRR   N  N N  II  N  N N  G  GGG   !            |
|           WW  WW  A    A  R   R   N   NN  II  N   NN  G    G                |
|           W    W  A    A  R    R  N    N  II  N    N   GGGG   !!!           |
|     Tetrahedron method does not include variations of the Fermi             |
|     occupations, so forces and stress will be inaccurate. We suggest        |
|     using a different smearing scheme ISMEAR = 1 or 2 for metals in         |
|     relaxations.                                                            |

 total charge

# of ion       s       p       d       tot
    1        0.550   0.237   8.767   9.554
    2        0.542   0.241   8.765   9.549
    3        0.542   0.241   8.765   9.549
    4        0.542   0.241   8.765   9.549
    5        0.543   0.242   8.761   9.546
    6        0.542   0.241   8.765   9.549
    7        0.542   0.241   8.765   9.549
    8        0.542   0.241   8.765   9.549
    9        0.545   0.240   8.766   9.551
   10        0.524   0.307   8.770   9.601
   11        0.520   0.306   8.778   9.604
   12        0.524   0.307   8.770   9.601
   13        0.520   0.306   8.778   9.604
   14        0.519   0.307   8.778   9.604
   15        0.516   0.308   8.773   9.597
   16        0.524   0.307   8.770   9.601
   17        0.516   0.308   8.773   9.597
   18        0.516   0.308   8.773   9.597
   19        0.523   0.298   8.768   9.590
   20        0.570   0.332   8.730   9.632
   21        0.569   0.332   8.730   9.632
   22        0.511   0.305   8.773   9.590
   23        0.569   0.332   8.730   9.632
   24        0.510   0.305   8.773   9.589
   25        0.523   0.298   8.769   9.590
   26        0.523   0.298   8.769   9.590
   27        0.510   0.306   8.773   9.589
   28        0.544   0.237   8.750   9.531
   29        0.603   0.252   8.725   9.580
   30        0.602   0.250   8.726   9.578
   31        0.604   0.253   8.724   9.581
   32        0.602   0.249   8.726   9.577
   33        0.603   0.251   8.725   9.579
   34        0.602   0.250   8.726   9.577
   35        0.540   0.238   8.754   9.532
   36        2.186   5.980   1.418   9.584
   37        0.927   1.792   0.000   2.719
   38        1.613   3.518   0.000   5.131
   39        1.593   3.572   0.000   5.164
tot         25.394  24.584 307.940 357.919

 BZINTS: Fermi energy:    0.170679;  413.000000 electrons
         Band energy:-0.187467E+04;  BLOECHL correction:   -0.037971