 vasp.6.2.0 18Jan21 (build Jun 12 2021 23:27:24) complex

 executed on             LinuxIFC date 2022.05.30  17:52:40

 INCAR:
   ISMEAR = -5
   SIGMA = 0.1
   ISPIN = 1
   EDIFF = 1.d-5
   EDIFFG = -0.01
   NSW = 0
   NELM = 150
   ENCUT = 500
   ISIF = 2
   IBRION = 2
   LREAL = Auto
   ALGO = Fast
   ICHARG = 11
   LORBIT = 10
   LCHARG = .F.
   LWAVE = .F.

 POTCAR:    PAW_PBE Cu 22Jun2005
 POTCAR:    PAW_PBE V 08Apr2002
 POTCAR:    PAW_PBE C 08Apr2002
 POTCAR:    PAW_PBE O 08Apr2002
 POTCAR:    PAW_PBE H 15Jun2001
|           W    W    AA    RRRRR   N    N  II  N    N   GGGG   !!!           |
|           W    W   A  A   R    R  NN   N  II  NN   N  G    G  !!!           |
|           W    W  A    A  R    R  N N  N  II  N N  N  G       !!!           |
|           W WW W  AAAAAA  RRRRR   N  N N  II  N  N N  G  GGG   !            |
|           WW  WW  A    A  R   R   N   NN  II  N   NN  G    G                |
|           W    W  A    A  R    R  N    N  II  N    N   GGGG   !!!           |
|     For optimal performance we recommend to set                             |
|       NCORE = 2 up to number-of-cores-per-socket                            |
|     This setting can greatly improve the performance of VASP for DFT.       |
|     The default, NCORE=1 might be grossly inefficient on modern             |
|     multi-core architectures or massively parallel machines. Do your        |
|     Unfortunately you need to use the default for GW and RPA                |
|     calculations (for HF NCORE is supported but not extensively tested      |
|     yet).                                                                   |

 POTCAR:    PAW_PBE Cu 22Jun2005
   VRHFIN =Cu: d10 p1

   TITEL  = PAW_PBE Cu 22Jun2005
   POMASS =   63.546; ZVAL   =   11.000    mass and valenz
   ENMAX  =  295.446; ENMIN  =  221.585 eV

 POTCAR:    PAW_PBE V 08Apr2002
   VRHFIN =V: p6 d4 s1

   TITEL  = PAW_PBE V 08Apr2002
   POMASS =   50.941; ZVAL   =    5.000    mass and valenz
   ENMAX  =  192.543; ENMIN  =  144.408 eV

 POTCAR:    PAW_PBE C 08Apr2002
   VRHFIN =C: s2p2

[...]

 POTCAR:    PAW_PBE O 08Apr2002
   VRHFIN =O: s2p4

   TITEL  = PAW_PBE O 08Apr2002
   POMASS =   16.000; ZVAL   =    6.000    mass and valenz
   ENMAX  =  400.000; ENMIN  =  300.000 eV

 POTCAR:    PAW_PBE H 15Jun2001
   VRHFIN =H: ultrasoft test

   TITEL  = PAW_PBE H 15Jun2001
   POMASS =    1.000; ZVAL   =    1.000    mass and valenz
   ENMAX  =  250.000; ENMIN  =  200.000 eV

 Optimization of the real space projectors (new method)

 maximal supplied QI-value         = 16.25
 optimisation between [QCUT,QGAM] = [ 11.38, 22.75] = [ 36.24,144.96] Ry
 Optimized for a Real-space Cutoff    1.52 Angstroem

   l    n(q)    QCUT    max X(q) W(low)/X(q) W(high)/X(q)  e(spline)
   2      9    11.376     4.610    0.21E-03    0.10E-03    0.26E-06
   2      9    11.376     8.522    0.33E-03    0.16E-03    0.37E-06
   0     10    11.376    51.609    0.62E-04    0.20E-04    0.13E-06
   0     10    11.376    27.747    0.54E-04    0.20E-04    0.13E-06
   1     10    11.376    20.408    0.13E-04    0.99E-04    0.19E-06
   1     10    11.376    13.425    0.12E-04    0.87E-04    0.17E-06
 Optimization of the real space projectors (new method)

[...]

   l    n(q)    QCUT    max X(q) W(low)/X(q) W(high)/X(q)  e(spline)
   0      7    11.387    20.381    0.39E-03    0.13E-02    0.15E-06
   0      7    11.387    15.268    0.42E-03    0.14E-02    0.17E-06
   1      6    11.387     5.964    0.41E-03    0.11E-02    0.17E-06
   1      6    11.387     5.382    0.39E-03    0.87E-03    0.15E-06
 Optimization of the real space projectors (new method)

 maximal supplied QI-value         = 34.20
 optimisation between [QCUT,QGAM] = [ 11.29, 22.57] = [ 35.68,142.71] Ry
 Optimized for a Real-space Cutoff    1.16 Angstroem

   l    n(q)    QCUT    max X(q) W(low)/X(q) W(high)/X(q)  e(spline)
   0      8    11.287    19.460    0.40E-03    0.73E-03    0.16E-06
   0      8    11.287    12.209    0.38E-03    0.70E-03    0.15E-06
   1      7    11.287     4.655    0.22E-03    0.25E-04    0.22E-06
  PAW_PBE Cu 22Jun2005                  :
  PAW_PBE V 08Apr2002                   :
  PAW_PBE C 08Apr2002                   :
  PAW_PBE O 08Apr2002                   :
  PAW_PBE H 15Jun2001                   :

 POSCAR: Cu-V-COH
  positions in direct lattice
  velocities in cartesian coordinates
 exchange correlation table for  LEXCH =        8
   RHO(1)=    0.500       N(1)  =     2000
   RHO(2)=  100.500       N(2)  =     4000

 VTST: version 3.2, (02/03/18)

 CHAIN: initializing optimizer

 OPT: Using VASP Conjugate-Gradient optimizer
 CHAIN: Read ICHAIN            0

 POSCAR: Cu-V-COH
  positions in direct lattice
  velocities in cartesian coordinates

 ion  position               nearest neighbor table
   1  0.000  0.000  0.206-   7 2.57   3 2.57   4 2.57   2 2.57   6 2.57   8 2.57  12 2.57  10 2.57
                            16 2.57
   2  0.333  0.000  0.206-   8 2.57   9 2.57   5 2.57   1 2.57   3 2.57  11 2.57   4 2.57  10 2.57
                            17 2.57
   3  0.667  0.000  0.206-   1 2.57   7 2.57   6 2.57   9 2.57   2 2.57  12 2.57   5 2.57  18 2.57
                            11 2.57
   4  0.000  0.333  0.206-   5 2.57   6 2.57   1 2.57   7 2.57   2 2.57  13 2.57   9 2.57  10 2.57
                            15 2.57
   5  0.333  0.333  0.206-   4 2.57   2 2.57   7 2.57  13 2.57   8 2.57   6 2.57   3 2.57  11 2.57
                            14 2.57
   6  0.667  0.333  0.206-   4 2.57   9 2.57  15 2.57   3 2.57   1 2.57   8 2.57  14 2.57   5 2.57
                            12 2.57
   7  0.000  0.667  0.206-   1 2.57   3 2.57  16 2.57  18 2.57   4 2.57   5 2.57   8 2.57   9 2.57
                            13 2.57
   8  0.333  0.667  0.206-   9 2.57   2 2.57  17 2.57   6 2.57   1 2.57   7 2.57   5 2.57  14 2.57
                            16 2.57
   9  0.667  0.667  0.206-   8 2.57   6 2.57   2 2.57  17 2.57   3 2.57   7 2.57   4 2.57  15 2.57
                            18 2.57
  10  0.111  0.111  0.286-  26 2.56  19 2.56  20 2.56  11 2.57  12 2.57  13 2.57   1 2.57   2 2.57
                             4 2.57  15 2.57  16 2.57  17 2.57
  11  0.444  0.111  0.286-  20 2.56  21 2.56  10 2.57  13 2.57   2 2.57  17 2.57  14 2.57  12 2.57
                             5 2.57   3 2.57  18 2.57  27 2.57
  12  0.778  0.111  0.286-  19 2.56  25 2.56  21 2.56  15 2.57  10 2.57  14 2.57  18 2.57   3 2.57
                             1 2.57  16 2.57  11 2.57   6 2.57
  13  0.111  0.444  0.286-  23 2.56  20 2.56  16 2.57  18 2.57  10 2.57  11 2.57  14 2.57   5 2.57
                             4 2.57   7 2.57  15 2.57  22 2.57
  14  0.444  0.444  0.286-  21 2.56  23 2.56  15 2.57  17 2.57  12 2.57  16 2.57  13 2.57  11 2.57
                             6 2.57   8 2.57   5 2.57  24 2.57
  15  0.778  0.444  0.286-  19 2.56  24 2.57  22 2.57  14 2.57  17 2.57  12 2.57   6 2.57  18 2.57
                            10 2.57   9 2.57  13 2.57   4 2.57
  16  0.111  0.778  0.286-  25 2.56  26 2.56  23 2.56  18 2.57  13 2.57   7 2.57  14 2.57  17 2.57
                            12 2.57  10 2.57   8 2.57   1 2.57
  17  0.444  0.778  0.286-  26 2.56  27 2.57  24 2.57  14 2.57  15 2.57   8 2.57   9 2.57  11 2.57
                            16 2.57  18 2.57  10 2.57   2 2.57
  18  0.778  0.778  0.286-  25 2.56  22 2.57  27 2.57  16 2.57  13 2.57   7 2.57  15 2.57  12 2.57
                            17 2.57   9 2.57   3 2.57  11 2.57
  19  0.889  0.222  0.365-  12 2.56  10 2.56  15 2.56  28 2.56  25 2.56  26 2.56  21 2.57  20 2.57
                            22 2.57  24 2.57  32 2.58  31 2.58
  20  0.222  0.222  0.366-  36 2.54  11 2.56  13 2.56  10 2.56  23 2.56  21 2.56  26 2.57  19 2.57
                            27 2.57  22 2.57  29 2.57  31 2.57
  21  0.555  0.222  0.366-  36 2.54  14 2.56  11 2.56  12 2.56  20 2.56  23 2.56  19 2.57  25 2.57
                            24 2.57  27 2.57  32 2.57  30 2.57
  22  0.888  0.556  0.366-  24 2.56  27 2.56  35 2.56  18 2.57  15 2.57  19 2.57  25 2.57  31 2.57
                            33 2.57  13 2.57  23 2.57  20 2.57
  23  0.222  0.555  0.366-  36 2.54  13 2.56  14 2.56  16 2.56  20 2.56  21 2.56  25 2.57  26 2.57
                            22 2.57  24 2.57  33 2.57  34 2.57
  24  0.556  0.556  0.366-  22 2.56  27 2.56  35 2.56  15 2.57  17 2.57  19 2.57  26 2.57  32 2.57
                            34 2.57  14 2.57  21 2.57  23 2.57
  25  0.889  0.889  0.365-  12 2.56  16 2.56  18 2.56  28 2.56  19 2.56  26 2.56  21 2.57  23 2.57
                            22 2.57  27 2.57  33 2.58  30 2.58
  26  0.222  0.889  0.365-  10 2.56  16 2.56  17 2.56  28 2.56  25 2.56  19 2.56  20 2.57  23 2.57
                            27 2.57  24 2.57  29 2.58  34 2.58
  27  0.556  0.888  0.366-  24 2.56  22 2.56  35 2.56  17 2.57  18 2.57  26 2.57  25 2.57  29 2.57
                            30 2.57  11 2.57  20 2.57  21 2.57
  28  0.000  0.000  0.445-  25 2.56  19 2.56  26 2.56  33 2.57  30 2.57  31 2.57  29 2.57  32 2.57
                            34 2.57
  29  0.333  0.000  0.446-  30 2.56  36 2.56  31 2.56  27 2.57  35 2.57  28 2.57  20 2.57  34 2.57
                            26 2.58
  30  0.666  0.000  0.446-  29 2.56  36 2.56  32 2.56  27 2.57  35 2.57  28 2.57  21 2.57  33 2.57
                            25 2.58
  31  0.000  0.333  0.446-  33 2.56  36 2.56  29 2.56  22 2.57  35 2.57  28 2.57  20 2.57  32 2.57
                            19 2.58
  32  0.666  0.333  0.446-  34 2.56  36 2.56  30 2.56  24 2.57  35 2.57  28 2.57  21 2.57  31 2.57
                            19 2.58
  33  0.000  0.666  0.446-  31 2.56  36 2.56  34 2.56  22 2.57  35 2.57  28 2.57  23 2.57  30 2.57
                            25 2.58
  34  0.333  0.666  0.446-  32 2.56  36 2.56  33 2.56  24 2.57  35 2.57  28 2.57  23 2.57  29 2.57
                            26 2.58
  35  0.667  0.667  0.446-  24 2.56  27 2.56  22 2.56  34 2.57  32 2.57  29 2.57  30 2.57  33 2.57
                            31 2.57
  36  0.333  0.333  0.445-  37 1.78  23 2.54  20 2.54  21 2.54  31 2.56  29 2.56  33 2.56  32 2.56
                            34 2.56  30 2.56
  37  0.333  0.333  0.513-  38 1.27  36 1.78
  38  0.333  0.333  0.562-  39 0.96  37 1.27
  39  0.333  0.333  0.598-  38 0.96

  LATTYP: Found a hexagonal cell.
 ALAT       =     7.6967864036
 C/A-ratio  =     3.3950614187

  Lattice vectors:

 A1 = (  -3.8483927580,  -6.6656128093,   0.0000000000)
 A2 = (   7.6967864037,   0.0000000000,   0.0000000000)
 A3 = (   0.0000000000,   0.0000000000,  26.1310625667)

Analysis of symmetry for initial positions (statically):
 Subroutine PRICEL returns:
 Original cell was already a primitive cell.

 Routine SETGRP: Setting up the symmetry group for a
 hexagonal supercell.

 Subroutine GETGRP returns: Found  6 space group operations
 (whereof  6 operations were pure point group operations)
 out of a pool of 24 trial point group operations.

The static configuration has the point symmetry C_3v.

Analysis of symmetry for dynamics (positions and initial velocities):
 Subroutine PRICEL returns:
 Original cell was already a primitive cell.

[...]

[...]
     41      -4.0968      2.00000
     42      -3.9886      2.00000
     43      -3.9768      2.00000
     44      -3.9068      2.00000
     45      -3.9007      2.00000
     46      -3.8954      2.00000
     47      -3.8627      2.00000
     48      -3.8569      2.00000
     49      -3.8511      2.00000
     50      -3.8469      2.00000
     51      -3.6602      2.00000
     52      -3.6532      2.00000
     53      -3.6422      2.00000
     54      -3.6251      2.00000
     55      -3.5838      2.00000
     56      -3.5815      2.00000
     57      -3.5606      2.00000
     58      -3.5533      2.00000
     59      -3.5464      2.00000
     60      -3.5277      2.00000
[...]
    238       5.1907      0.00000
    239       5.2521      0.00000
    240       5.4245      0.00000
    241       5.4392      0.00000
    242       5.5118      0.00000
    243       5.5528      0.00000
    244       5.5929      0.00000
    245       5.7824      0.00000
    246       5.8397      0.00000
    247       5.9119      0.00000
    248       6.0034      0.00000
    249       6.0471      0.00000
    250       6.1510      0.00000
    251       6.8359      0.00000
    252       6.9049      0.00000

 soft charge-density along one line, spin component           1
         0         1         2         3         4         5         6         7         8         9
 total charge-density along one line

------------------------ aborting loop because EDIFF is reached ----------------------------------------

 total charge

# of ion       s       p       d       tot
    1        0.449   0.283   9.190   9.922
    2        0.448   0.286   9.186   9.920
    3        0.448   0.286   9.186   9.920
    4        0.448   0.286   9.186   9.920
    5        0.451   0.286   9.182   9.919
    6        0.448   0.286   9.186   9.920
    7        0.448   0.286   9.186   9.920
    8        0.448   0.286   9.186   9.920
    9        0.448   0.284   9.190   9.922
   10        0.442   0.371   9.176   9.990
   11        0.444   0.366   9.182   9.992
   12        0.442   0.371   9.176   9.990
   13        0.444   0.366   9.182   9.992
   14        0.444   0.366   9.182   9.992
   15        0.438   0.371   9.176   9.986
   16        0.442   0.371   9.176   9.990
   17        0.438   0.371   9.176   9.986
   18        0.438   0.371   9.176   9.986
   19        0.442   0.369   9.178   9.989
   20        0.461   0.389   9.163  10.013
   21        0.461   0.389   9.163  10.013
   22        0.432   0.375   9.179   9.986
   23        0.461   0.389   9.163  10.013
   24        0.432   0.375   9.179   9.986
   25        0.442   0.369   9.178   9.989
   26        0.442   0.369   9.178   9.989
   27        0.432   0.375   9.179   9.986
   28        0.446   0.289   9.187   9.922
   29        0.463   0.302   9.171   9.935
   30        0.463   0.302   9.171   9.935
   31        0.463   0.302   9.171   9.935
   32        0.463   0.302   9.171   9.935
   33        0.463   0.302   9.171   9.935
   34        0.463   0.302   9.171   9.935
   35        0.447   0.290   9.184   9.922
   36        0.554   0.770   3.682   5.006
   37        0.932   1.415   0.000   2.347
   38        1.520   3.762   0.000   5.282
   39        0.570   0.139   0.000   0.708
tot         19.259  17.765 324.922 361.946

  FORCE on cell =-STRESS in cart. coord.  units (eV):
  Direction    XX          YY          ZZ          XY          YZ          ZX
  Alpha Z   728.36789   728.36789   728.36789
  Ewald  266904.58935266904.58899************     0.00038     0.00014     0.00017
  Hartree279765.25298279765.25299************     0.00003     0.00007     0.00006
  E(xc)   -2316.10773 -2316.10732 -2320.80962    -0.00035    -0.00003    -0.00006
  Local  ************************559381.28997     0.01892    -0.00063    -0.00097
  n-local  -788.27616  -775.58768  -794.09634     6.59588    -0.09276     0.25337
  augment  3333.74988  3333.77030  3355.37566    -0.01768     0.00033     0.00053
  Kinetic  3377.56025  3379.24050  3351.05676     2.40971     1.83466    -1.25321
  Fock        0.00000     0.00000     0.00000     0.00000     0.00000     0.00000
  Total      -7.39763    -7.39763    -0.22079     0.00000    -0.00000    -0.00000
  in kB      -8.84090    -8.84090    -0.26387     0.00000    -0.00000    -0.00000

 VOLUME and BASIS-vectors are now :
  energy-cutoff  :      500.00
  volume of cell :     1340.62
      direct lattice vectors                 reciprocal lattice vectors
     7.696786404  0.000000000  0.000000000     0.129924354 -0.075011849  0.000000000
     3.848392758  6.665612809  0.000000000     0.000000000  0.150023716  0.000000000
     0.000000000  0.000000000 26.131062567     0.000000000  0.000000000  0.038268631

  length of vectors
     7.696786404  7.696786404 26.131062567     0.150023716  0.150023716  0.038268631

 FORCES acting on ions
    electron-ion (+dipol)            ewald-force                    non-local-force                 convergence-correction
   -.438E-04 -.111E-05 0.391E+04   0.581E-04 -.431E-05 -.391E+04   -.712E-18 0.898E-18 -.250E+01   -.278E-03 -.128E-03 0.255E+00
   -.747E+00 -.657E+00 0.391E+04   0.559E+00 0.498E+00 -.391E+04   0.107E+00 0.155E+00 -.182E+01   0.897E-01 0.185E-01 0.262E+00
   0.747E+00 -.657E+00 0.391E+04   -.559E+00 0.498E+00 -.391E+04   -.107E+00 0.155E+00 -.182E+01   -.890E-01 0.210E-01 0.263E+00
   -.942E+00 -.319E+00 0.391E+04   0.710E+00 0.235E+00 -.391E+04   0.188E+00 0.150E-01 -.182E+01   0.610E-01 0.684E-01 0.262E+00
   -.698E-04 -.820E-05 0.391E+04   0.116E-03 -.101E-04 -.391E+04   -.136E-17 0.281E-17 -.133E+01   0.121E-01 0.740E-02 0.284E+00
   0.942E+00 -.319E+00 0.391E+04   -.710E+00 0.235E+00 -.391E+04   -.188E+00 0.150E-01 -.182E+01   -.625E-01 0.696E-01 0.263E+00
   -.195E+00 0.975E+00 0.391E+04   0.152E+00 -.733E+00 -.391E+04   0.809E-01 -.170E+00 -.182E+01   -.263E-01 -.876E-01 0.263E+00
   0.195E+00 0.975E+00 0.391E+04   -.152E+00 -.732E+00 -.391E+04   -.809E-01 -.170E+00 -.182E+01   0.297E-01 -.890E-01 0.263E+00
   -.145E-03 -.339E-04 0.391E+04   0.263E-03 0.205E-04 -.391E+04   0.324E-17 -.140E-17 -.229E+01   -.132E-01 -.680E-02 0.309E+00
   -.435E+01 -.251E+01 0.133E+04   0.465E+01 0.268E+01 -.133E+04   -.381E+00 -.220E+00 -.954E+00   0.697E-01 0.403E-01 0.373E+00
   -.894E-04 -.471E+01 0.132E+04   0.189E-03 0.455E+01 -.132E+04   -.149E-07 0.223E+00 -.362E+00   0.115E-01 -.627E-01 0.420E+00
   0.435E+01 -.251E+01 0.133E+04   -.465E+01 0.268E+01 -.133E+04   0.381E+00 -.220E+00 -.954E+00   -.710E-01 0.412E-01 0.372E+00
   -.408E+01 0.236E+01 0.132E+04   0.394E+01 -.227E+01 -.132E+04   0.193E+00 -.112E+00 -.362E+00   -.481E-01 0.421E-01 0.420E+00
   0.408E+01 0.236E+01 0.132E+04   -.394E+01 -.227E+01 -.132E+04   -.193E+00 -.112E+00 -.362E+00   0.716E-01 0.410E-01 0.418E+00
   -.140E-03 -.115E+01 0.133E+04   0.297E-03 0.101E+01 -.133E+04   -.737E-08 0.111E+00 -.990E+00   -.312E-02 0.272E-01 0.336E+00
   -.911E-04 0.502E+01 0.133E+04   0.186E-03 -.536E+01 -.133E+04   -.293E-07 0.440E+00 -.954E+00   -.702E-03 -.833E-01 0.371E+00
   -.996E+00 0.575E+00 0.133E+04   0.877E+00 -.506E+00 -.133E+04   0.958E-01 -.553E-01 -.990E+00   0.227E-01 -.163E-01 0.336E+00
   0.997E+00 0.575E+00 0.133E+04   -.877E+00 -.506E+00 -.133E+04   -.958E-01 -.553E-01 -.990E+00   -.215E-01 -.141E-01 0.337E+00
   -.669E-04 -.633E+01 -.124E+04   0.715E-04 0.617E+01 0.124E+04   -.410E-08 0.615E-01 0.107E+01   0.101E-02 0.112E+00 0.121E+00
   -.467E+02 -.270E+02 -.130E+04   0.474E+02 0.274E+02 0.130E+04   -.985E+00 -.569E+00 -.563E+00   0.124E+00 0.716E-01 0.318E+00
   0.467E+02 -.270E+02 -.130E+04   -.474E+02 0.274E+02 0.130E+04   0.985E+00 -.569E+00 -.563E+00   -.145E+00 0.706E-01 0.317E+00
   -.216E+02 0.125E+02 -.126E+04   0.211E+02 -.122E+02 0.126E+04   0.386E+00 -.223E+00 0.642E+00   0.141E+00 -.823E-01 0.119E+00
   -.812E-04 0.539E+02 -.130E+04   0.150E-03 -.547E+02 0.130E+04   -.757E-07 0.114E+01 -.563E+00   -.124E-01 -.162E+00 0.317E+00
   0.216E+02 0.125E+02 -.126E+04   -.211E+02 -.122E+02 0.126E+04   -.386E+00 -.223E+00 0.642E+00   -.139E+00 -.813E-01 0.119E+00
   0.548E+01 0.316E+01 -.124E+04   -.534E+01 -.309E+01 0.124E+04   -.533E-01 -.308E-01 0.107E+01   -.970E-01 -.560E-01 0.121E+00
   -.548E+01 0.316E+01 -.124E+04   0.534E+01 -.309E+01 0.124E+04   0.533E-01 -.308E-01 0.107E+01   0.982E-01 -.552E-01 0.121E+00
   -.127E-03 -.250E+02 -.126E+04   0.240E-03 0.244E+02 0.126E+04   -.297E-07 0.445E+00 0.642E+00   -.980E-03 0.163E+00 0.119E+00
   -.370E-04 0.163E-04 -.377E+04   0.394E-04 -.331E-04 0.377E+04   0.656E-18 0.559E-18 0.204E+01   -.140E-02 -.756E-03 0.180E+00
   -.227E+02 -.454E+02 -.375E+04   0.230E+02 0.457E+02 0.375E+04   -.511E+00 -.709E+00 0.194E+01   0.223E+00 0.354E+00 0.832E-01
   0.227E+02 -.454E+02 -.375E+04   -.230E+02 0.457E+02 0.375E+04   0.511E+00 -.709E+00 0.194E+01   -.201E+00 0.356E+00 0.836E-01
   -.507E+02 0.298E+01 -.375E+04   0.511E+02 -.290E+01 0.375E+04   -.870E+00 -.877E-01 0.194E+01   0.418E+00 0.157E-01 0.832E-01
   0.507E+02 0.298E+01 -.375E+04   -.511E+02 -.290E+01 0.375E+04   0.870E+00 -.877E-01 0.194E+01   -.397E+00 0.168E-01 0.844E-01
   -.279E+02 0.424E+02 -.375E+04   0.281E+02 -.428E+02 0.375E+04   -.359E+00 0.797E+00 0.194E+01   0.208E+00 -.352E+00 0.836E-01
   0.279E+02 0.424E+02 -.375E+04   -.281E+02 -.428E+02 0.375E+04   0.359E+00 0.797E+00 0.194E+01   -.183E+00 -.352E+00 0.846E-01
   -.128E-03 -.158E-04 -.378E+04   0.252E-03 0.355E-05 0.378E+04   0.728E-17 0.194E-17 0.228E+01   -.143E-01 -.744E-02 0.682E-01
   -.522E-04 -.168E-04 -.159E+04   0.627E-04 0.126E-04 0.160E+04   0.402E-18 -.131E-17 -.124E+01   0.705E-04 0.557E-04 0.961E-01
   -.693E-05 -.715E-04 -.144E+04   0.111E-04 0.527E-05 0.142E+04   -.111E-19 -.354E-19 0.212E+02   0.740E-03 0.452E-03 -.208E+00
   0.227E-03 -.718E-04 -.226E+04   0.224E-05 0.239E-05 0.226E+04   0.451E-20 -.120E-18 -.317E+01   0.326E-02 0.200E-02 -.160E+00
   0.314E-05 -.143E-04 -.409E+03   0.565E-07 0.157E-06 0.418E+03   0.194E-19 0.374E-20 -.873E+01   0.172E-03 0.105E-03 -.221E-01
   -.136E-03 -.210E-03 -.116E+02   -.149E-12 0.454E-12 0.193E-11   -.270E-15 -.222E-15 0.357E+01   0.596E-01 0.315E-01 0.794E+01

 POSITION                                       TOTAL-FORCE (eV/Angst)
      0.00000      0.00000      5.37156         0.000000      0.000000     -0.023710
      2.56560      0.00000      5.37156         0.008243      0.015482      0.057598
      5.13119      0.00000      5.37156        -0.008243      0.015482      0.057598
      1.28280      2.22187      5.37156         0.017529     -0.000602      0.057598
      3.84839      2.22187      5.37156         0.000000     -0.000000      0.046961
      6.41399      2.22187      5.37156        -0.017529     -0.000602      0.057598
      2.56560      4.44374      5.37156         0.009286     -0.014879      0.057598
      5.13119      4.44374      5.37156        -0.009286     -0.014879      0.057598
      7.69679      4.44374      5.37156         0.000000      0.000000      0.016138
      1.28280      0.74062      7.46636        -0.010214     -0.005897     -0.081821
      3.84839      0.74062      7.46636         0.000000     -0.009057     -0.059117
      6.41399      0.74062      7.46636         0.010214     -0.005897     -0.081821
      2.56560      2.96249      7.46636        -0.007844      0.004529     -0.059117
      5.13119      2.96249      7.46636         0.007844      0.004529     -0.059117
      7.69679      2.96249      7.46636         0.000000     -0.000785     -0.022584
      3.84839      5.18437      7.46636        -0.000000      0.011795     -0.081821
      6.41399      5.18437      7.46636        -0.000680      0.000392     -0.022584
      8.97958      5.18437      7.46636         0.000680      0.000392     -0.022584
      7.69679      1.48017      9.54910        -0.000000      0.017548      0.090400
      2.56637      1.48170      9.55121        -0.142775     -0.082431     -0.218016
      5.13041      1.48170      9.55121         0.142775     -0.082431     -0.218016
      8.97729      3.70444      9.56154         0.028714     -0.016578      0.027127
      3.84839      3.70222      9.55121        -0.000000      0.164862     -0.218016
      6.41628      3.70444      9.56154        -0.028714     -0.016578      0.027127
     10.26332      5.92553      9.54910        -0.015197     -0.008774      0.090400
      5.13026      5.92553      9.54910         0.015197     -0.008774      0.090400
      7.69679      5.92234      9.56154        -0.000000      0.033157      0.027127
      0.00000      0.00000     11.64072         0.000000     -0.000000     -0.083056
      2.56831      0.00307     11.65724        -0.010197     -0.019193      0.052220
      5.12847      0.00307     11.65724         0.010197     -0.019193      0.052220
      1.28681      2.22269     11.65724        -0.021720      0.000766      0.052220
      6.40997      2.22269     11.65724         0.021720      0.000766      0.052220
      2.56689      4.43985     11.65724        -0.011523      0.018427      0.052220
      5.12989      4.43985     11.65724         0.011523      0.018427      0.052220
      7.69679      4.44374     11.65596         0.000000     -0.000000     -0.103735
      3.84839      2.22187     11.62023         0.000000      0.000000      0.287423
      3.84839      2.22187     13.40327         0.000000      0.000000      0.012469
      3.84839      2.22187     14.67610         0.000000      0.000000     -0.022039
      3.84839      2.22187     15.63117         0.000000      0.000000      0.002674
    total drift:                                0.059433      0.031241     -0.047491

  FREE ENERGIE OF THE ION-ELECTRON SYSTEM (eV)
  free  energy   TOTEN  =      -147.87564151 eV

  energy  without entropy=     -147.87564151  energy(sigma->0) =     -147.87564151

 stress matrix after NEB project (eV)
     -7.39763      0.00000     -0.00000
      0.00000     -7.39763     -0.00000
      0.00000     -0.00000     -0.22079
  FORCES: max atom, RMS     0.022039    0.004077
  FORCE total and by dimension    0.025462    0.022039
  Stress total and by dimension   10.464160    7.397632
|           W    W    AA    RRRRR   N    N  II  N    N   GGGG   !!!           |
|           W    W   A  A   R    R  NN   N  II  NN   N  G    G  !!!           |
|           W    W  A    A  R    R  N N  N  II  N N  N  G       !!!           |
|           W WW W  AAAAAA  RRRRR   N  N N  II  N  N N  G  GGG   !            |
|           WW  WW  A    A  R   R   N   NN  II  N   NN  G    G                |
|           W    W  A    A  R    R  N    N  II  N    N   GGGG   !!!           |
|     Tetrahedron method does not include variations of the Fermi             |
|     occupations, so forces and stress will be inaccurate. We suggest        |
|     using a different smearing scheme ISMEAR = 1 or 2 for metals in         |
|     relaxations.                                                            |

 total charge

# of ion       s       p       d       tot
    1        0.449   0.283   9.190   9.922
    2        0.448   0.286   9.186   9.920
    3        0.448   0.286   9.186   9.920
    4        0.448   0.286   9.186   9.920
    5        0.451   0.286   9.182   9.919
    6        0.448   0.286   9.186   9.920
    7        0.448   0.286   9.186   9.920
    8        0.448   0.286   9.186   9.920
    9        0.448   0.284   9.190   9.922
   10        0.442   0.371   9.176   9.990
   11        0.444   0.366   9.182   9.992
   12        0.442   0.371   9.176   9.990
   13        0.444   0.366   9.182   9.992
   14        0.444   0.366   9.182   9.992
   15        0.438   0.371   9.176   9.986
   16        0.442   0.371   9.176   9.990
   17        0.438   0.371   9.176   9.986
   18        0.438   0.371   9.176   9.986
   19        0.442   0.369   9.178   9.989
   20        0.461   0.389   9.163  10.013
   21        0.461   0.389   9.163  10.013
   22        0.432   0.375   9.179   9.986
   23        0.461   0.389   9.163  10.013
   24        0.432   0.375   9.179   9.986
   25        0.442   0.369   9.178   9.989
   26        0.442   0.369   9.178   9.989
   27        0.432   0.375   9.179   9.986
   28        0.446   0.289   9.187   9.922
   29        0.463   0.302   9.171   9.935
   30        0.463   0.302   9.171   9.935
   31        0.463   0.302   9.171   9.935
   32        0.463   0.302   9.171   9.935
   33        0.463   0.302   9.171   9.935
   34        0.463   0.302   9.171   9.935
   35        0.447   0.290   9.184   9.922
   36        0.554   0.770   3.682   5.006
   37        0.932   1.415   0.000   2.347
   38        1.520   3.762   0.000   5.282
   39        0.570   0.139   0.000   0.708
tot         19.259  17.765 324.922 361.946

 BZINTS: Fermi energy:   -0.181529;  401.000000 electrons
         Band energy:-0.129444E+04;  BLOECHL correction:   -0.038794