 vasp.6.2.0 18Jan21 (build Jun 12 2021 23:27:24) complex

 executed on             LinuxIFC date 2022.05.28  01:04:38

 INCAR:
   ISMEAR = -5
   SIGMA = 0.1
   ISPIN = 1
   EDIFF = 1.d-5
   EDIFFG = -0.01
   NSW = 0
   NELM = 150
   ENCUT = 500
   ISIF = 2
   IBRION = 2
   LREAL = Auto
   ALGO = Fast
   ICHARG = 11
   LORBIT = 10
   LCHARG = .F.
   LWAVE = .F.

 POTCAR:    PAW_PBE Au 04Oct2007
 POTCAR:    PAW_PBE Pd 04Jan2005
 POTCAR:    PAW_PBE H 15Jun2001
 POTCAR:    PAW_PBE O 08Apr2002
|           W    W    AA    RRRRR   N    N  II  N    N   GGGG   !!!           |
|           W    W   A  A   R    R  NN   N  II  NN   N  G    G  !!!           |
|           W    W  A    A  R    R  N N  N  II  N N  N  G       !!!           |
|           W WW W  AAAAAA  RRRRR   N  N N  II  N  N N  G  GGG   !            |
|           WW  WW  A    A  R   R   N   NN  II  N   NN  G    G                |
|           W    W  A    A  R    R  N    N  II  N    N   GGGG   !!!           |
|     For optimal performance we recommend to set                             |
|       NCORE = 2 up to number-of-cores-per-socket                            |
|     This setting can greatly improve the performance of VASP for DFT.       |
|     The default, NCORE=1 might be grossly inefficient on modern             |
|     multi-core architectures or massively parallel machines. Do your        |
|     Unfortunately you need to use the default for GW and RPA                |
|     calculations (for HF NCORE is supported but not extensively tested      |
|     yet).                                                                   |

 POTCAR:    PAW_PBE Au 04Oct2007
   VRHFIN =Au: s1d10

   TITEL  = PAW_PBE Au 04Oct2007
   POMASS =  196.966; ZVAL   =   11.000    mass and valenz
   ENMAX  =  229.943; ENMIN  =  172.457 eV

 POTCAR:    PAW_PBE Pd 04Jan2005
   VRHFIN =Pd : s1 d9

   TITEL  = PAW_PBE Pd 04Jan2005
   POMASS =  106.420; ZVAL   =   10.000    mass and valenz
   ENMAX  =  250.925; ENMIN  =  188.194 eV

 POTCAR:    PAW_PBE H 15Jun2001
   VRHFIN =H: ultrasoft test

   TITEL  = PAW_PBE H 15Jun2001
   POMASS =    1.000; ZVAL   =    1.000    mass and valenz
   ENMAX  =  250.000; ENMIN  =  200.000 eV

 POTCAR:    PAW_PBE O 08Apr2002
   VRHFIN =O: s2p4

   TITEL  = PAW_PBE O 08Apr2002
   POMASS =   16.000; ZVAL   =    6.000    mass and valenz
   ENMAX  =  400.000; ENMIN  =  300.000 eV

 Optimization of the real space projectors (new method)

 maximal supplied QI-value         = 15.12
 optimisation between [QCUT,QGAM] = [ 11.34, 22.83] = [ 36.00,145.93] Ry
 Optimized for a Real-space Cutoff    1.39 Angstroem

   l    n(q)    QCUT    max X(q) W(low)/X(q) W(high)/X(q)  e(spline)
   2      9    11.338    60.898    0.39E-03    0.42E-03    0.21E-06
   2      9    11.338    58.894    0.40E-03    0.42E-03    0.22E-06
   0      9    11.338   109.617    0.13E-03    0.20E-04    0.13E-06
   0      9    11.338    75.026    0.13E-03    0.20E-04    0.13E-06
   1      9    11.338    16.344    0.33E-04    0.24E-03    0.18E-06
   1      9    11.338    10.160    0.26E-04    0.19E-03    0.15E-06
 Optimization of the real space projectors (new method)

[...]

   l    n(q)    QCUT    max X(q) W(low)/X(q) W(high)/X(q)  e(spline)
   0      8    11.287    19.460    0.40E-03    0.73E-03    0.16E-06
   0      8    11.287    12.209    0.38E-03    0.70E-03    0.15E-06
   1      7    11.287     4.655    0.22E-03    0.25E-04    0.22E-06
 Optimization of the real space projectors (new method)

 maximal supplied QI-value         = 24.76
 optimisation between [QCUT,QGAM] = [ 11.39, 22.77] = [ 36.31,145.25] Ry
 Optimized for a Real-space Cutoff    1.00 Angstroem

   l    n(q)    QCUT    max X(q) W(low)/X(q) W(high)/X(q)  e(spline)
   0      7    11.387    20.381    0.39E-03    0.13E-02    0.15E-06
   0      7    11.387    15.268    0.42E-03    0.14E-02    0.17E-06
   1      6    11.387     5.964    0.41E-03    0.11E-02    0.17E-06
   1      6    11.387     5.382    0.39E-03    0.87E-03    0.15E-06
  PAW_PBE Au 04Oct2007                  :
  PAW_PBE Pd 04Jan2005                  :
  PAW_PBE H 15Jun2001                   :
  PAW_PBE O 08Apr2002                   :

 POSCAR: Au-Pd-H2O
  positions in direct lattice
  velocities in cartesian coordinates
 exchange correlation table for  LEXCH =        8
   RHO(1)=    0.500       N(1)  =     2000
   RHO(2)=  100.500       N(2)  =     4000

 VTST: version 3.2, (02/03/18)

 CHAIN: initializing optimizer

 OPT: Using VASP Conjugate-Gradient optimizer
 CHAIN: Read ICHAIN            0

 POSCAR: Au-Pd-H2O
  positions in direct lattice
  velocities in cartesian coordinates

 ion  position               nearest neighbor table
   1  0.000  0.000  0.213-  16 2.94  12 2.94   6 2.94   8 2.94   7 2.94   3 2.94  10 2.94   4 2.94
                             2 2.94
   2  0.333  0.000  0.213-   9 2.94  11 2.94  17 2.94  10 2.94   8 2.94   4 2.94   5 2.94   1 2.94
                             3 2.94
   3  0.667  0.000  0.213-   7 2.94  18 2.94  12 2.94   1 2.94  11 2.94   5 2.94   6 2.94   9 2.94
                             2 2.94
   4  0.000  0.333  0.213-  10 2.94   6 2.94   5 2.94  13 2.94   2 2.94  15 2.94   9 2.94   1 2.94
                             7 2.94
   5  0.333  0.333  0.213-  13 2.94   7 2.94  11 2.94   4 2.94   2 2.94  14 2.94   3 2.94   8 2.94
                             6 2.94
   6  0.667  0.333  0.213-  15 2.94  14 2.94   1 2.94  12 2.94   4 2.94   9 2.94   8 2.94   3 2.94
                             5 2.94
   7  0.000  0.667  0.213-  18 2.94   3 2.94  16 2.94   5 2.94   1 2.94  13 2.94   8 2.94   4 2.94
                             9 2.94
   8  0.333  0.667  0.213-   9 2.94  17 2.94   1 2.94   2 2.94  14 2.94  16 2.94   6 2.94   7 2.94
                             5 2.94
   9  0.667  0.667  0.213-   2 2.94   8 2.94  17 2.94   6 2.94  15 2.94   4 2.94   3 2.94  18 2.94
                             7 2.94
  10  0.111  0.111  0.310-  26 2.92  19 2.92  20 2.93  11 2.94  17 2.94   2 2.94   4 2.94   1 2.94
                            12 2.94  16 2.94  13 2.94  15 2.94
  11  0.444  0.111  0.310-  27 2.93  20 2.93  21 2.93  13 2.94   2 2.94  10 2.94  17 2.94   5 2.94
                             3 2.94  18 2.94  14 2.94  12 2.94
  12  0.778  0.111  0.310-  25 2.92  19 2.92  21 2.93  16 2.94  18 2.94   1 2.94  14 2.94  15 2.94
                             3 2.94   6 2.94  10 2.94  11 2.94
  13  0.111  0.444  0.310-  22 2.93  23 2.93  20 2.93   5 2.94  18 2.94  11 2.94   7 2.94   4 2.94
                            16 2.94  10 2.94  14 2.94  15 2.94
  14  0.444  0.444  0.310-  24 2.93  21 2.93  23 2.93  15 2.94   6 2.94  12 2.94   8 2.94  17 2.94
                             5 2.94  16 2.94  13 2.94  11 2.94
  15  0.778  0.444  0.310-  19 2.93  24 2.93  22 2.93  14 2.94   6 2.94  17 2.94  12 2.94   9 2.94
                             4 2.94  10 2.94  13 2.94  18 2.94
  16  0.111  0.778  0.310-  25 2.92  26 2.92  23 2.93  18 2.94  12 2.94   7 2.94   1 2.94   8 2.94
                            13 2.94  10 2.94  14 2.94  17 2.94
  17  0.444  0.778  0.310-  26 2.93  27 2.93  24 2.93   9 2.94  15 2.94   2 2.94  10 2.94  11 2.94
                             8 2.94  14 2.94  16 2.94  18 2.94
  18  0.778  0.778  0.310-  25 2.93  22 2.93  27 2.93  16 2.94   7 2.94  13 2.94  12 2.94   3 2.94
                            11 2.94   9 2.94  15 2.94  17 2.94
  19  0.889  0.222  0.407-  10 2.92  12 2.92  15 2.93  26 2.93  25 2.93  21 2.94  20 2.94  24 2.94
                            22 2.94  28 2.96  32 2.97  31 2.97
  20  0.222  0.222  0.407-  36 2.83  10 2.93  11 2.93  13 2.93  26 2.94  19 2.94  27 2.94  22 2.94
                            23 2.94  21 2.94  29 2.95  31 2.95
  21  0.556  0.222  0.407-  36 2.83  12 2.93  14 2.93  11 2.93  25 2.94  19 2.94  24 2.94  27 2.94
                            20 2.94  23 2.94  30 2.95  32 2.95
  22  0.889  0.556  0.407-  18 2.93  15 2.93  13 2.93  24 2.94  27 2.94  23 2.94  20 2.94  25 2.94
                            19 2.94  33 2.96  31 2.96  35 2.96
  23  0.222  0.556  0.407-  36 2.83  16 2.93  13 2.93  14 2.93  25 2.94  26 2.94  22 2.94  24 2.94
                            20 2.94  21 2.94  33 2.95  34 2.95
  24  0.556  0.556  0.407-  15 2.93  17 2.93  14 2.93  27 2.94  22 2.94  21 2.94  23 2.94  26 2.94
                            19 2.94  32 2.96  34 2.96  35 2.96
  25  0.889  0.889  0.407-  16 2.92  12 2.92  18 2.93  19 2.93  26 2.93  23 2.94  21 2.94  22 2.94
                            27 2.94  28 2.96  33 2.97  30 2.97
  26  0.222  0.889  0.407-  10 2.92  16 2.92  17 2.93  19 2.93  25 2.93  20 2.94  23 2.94  27 2.94
                            24 2.94  28 2.96  29 2.97  34 2.97
  27  0.556  0.889  0.407-  17 2.93  18 2.93  11 2.93  24 2.94  22 2.94  20 2.94  21 2.94  26 2.94
                            25 2.94  29 2.96  30 2.96  35 2.96
  28  0.000  0.000  0.505-  34 2.94  32 2.94  33 2.94  30 2.94  31 2.94  29 2.94  25 2.96  19 2.96
                            26 2.96
  29  0.333  0.001  0.505-  30 2.93  31 2.93  36 2.93  35 2.94  28 2.94  20 2.95  34 2.95  27 2.96
                            26 2.97
  30  0.666  0.001  0.505-  29 2.93  32 2.93  36 2.93  35 2.94  28 2.94  21 2.95  33 2.95  27 2.96
                            25 2.97
  31  0.001  0.333  0.505-  33 2.93  29 2.93  36 2.93  35 2.94  28 2.94  20 2.95  32 2.95  22 2.96
                            19 2.97
  32  0.666  0.333  0.505-  34 2.93  30 2.93  36 2.93  35 2.94  28 2.94  21 2.95  31 2.95  24 2.96
                            19 2.97
  33  0.001  0.666  0.505-  31 2.93  34 2.93  36 2.93  35 2.94  28 2.94  23 2.95  30 2.95  22 2.96
                            25 2.97
  34  0.333  0.666  0.505-  32 2.93  33 2.93  36 2.93  35 2.94  28 2.94  23 2.95  29 2.95  24 2.96
                            26 2.97
  35  0.667  0.667  0.505-  29 2.94  34 2.94  32 2.94  31 2.94  30 2.94  33 2.94  24 2.96  27 2.96
                            22 2.96
  36  0.333  0.333  0.499-  39 2.45  20 2.83  23 2.83  21 2.83  33 2.93  31 2.93  29 2.93  30 2.93
                            34 2.93  32 2.93
  37  0.244  0.334  0.621-  39 0.97
  38  0.422  0.334  0.621-  39 0.97
  39  0.333  0.333  0.598-  38 0.97  37 0.97  36 2.45

  LATTYP: Found a hexagonal cell.
 ALAT       =     8.8135128021
 C/A-ratio  =     2.8075332270

  Lattice vectors:

 A1 = (  -4.4067569092,  -7.6327256898,   0.0000000000)
 A2 = (   8.8135128021,   0.0000000000,   0.0000000000)
 A3 = (   0.0000000000,   0.0000000000,  24.7442300386)

Analysis of symmetry for initial positions (statically):
 Subroutine PRICEL returns:
 Original cell was already a primitive cell.

 Routine SETGRP: Setting up the symmetry group for a
 hexagonal supercell.

 Subroutine GETGRP returns: Found  1 space group operations
 (whereof  1 operations were pure point group operations)
 out of a pool of 24 trial point group operations.

The static configuration has the point symmetry C_1 .

Analysis of symmetry for dynamics (positions and initial velocities):
 Subroutine PRICEL returns:
 Original cell was already a primitive cell.

[...]

The dynamic configuration has the point symmetry C_1 .

Analysis of constrained symmetry for selective dynamics:
 Subroutine PRICEL returns:
[...]
     41      -4.7155      2.00000
     42      -4.6552      2.00000
     43      -4.6005      2.00000
     44      -4.5764      2.00000
     45      -4.5310      2.00000
     46      -4.5075      2.00000
     47      -4.4950      2.00000
     48      -4.4747      2.00000
     49      -4.3866      2.00000
     50      -4.3474      2.00000
     51      -4.3269      2.00000
     52      -4.3242      2.00000
     53      -4.3094      2.00000
     54      -4.2984      2.00000
     55      -4.2871      2.00000
     56      -4.2495      2.00000
     57      -4.2090      2.00000
     58      -4.1875      2.00000
     59      -4.1532      2.00000
     60      -4.1475      2.00000
[...]
    238       5.9050      0.00000
    239       5.9523      0.00000
    240       6.1959      0.00000
    241       6.2110      0.00000
    242       6.2488      0.00000
    243       6.3975      0.00000
    244       6.5002      0.00000
    245       6.5382      0.00000
    246       6.5643      0.00000
    247       6.5716      0.00000
    248       6.5903      0.00000
    249       6.6273      0.00000
    250       6.6926      0.00000
    251       6.8887      0.00000
    252       6.9198      0.00000

 soft charge-density along one line, spin component           1
         0         1         2         3         4         5         6         7         8         9
 total charge-density along one line

------------------------ aborting loop because EDIFF is reached ----------------------------------------

 total charge

# of ion       s       p       d       tot
    1        0.542   0.241   8.765   9.549
    2        0.546   0.240   8.765   9.551
    3        0.546   0.240   8.765   9.551
    4        0.546   0.240   8.765   9.551
    5        0.539   0.242   8.765   9.546
    6        0.546   0.240   8.765   9.551
    7        0.546   0.240   8.765   9.551
    8        0.546   0.240   8.765   9.551
    9        0.543   0.240   8.767   9.550
   10        0.518   0.309   8.770   9.597
   11        0.521   0.304   8.777   9.602
   12        0.518   0.309   8.770   9.597
   13        0.521   0.304   8.777   9.602
   14        0.521   0.304   8.777   9.602
   15        0.516   0.307   8.775   9.598
   16        0.518   0.309   8.770   9.596
   17        0.516   0.307   8.775   9.598
   18        0.516   0.307   8.775   9.598
   19        0.519   0.302   8.776   9.598
   20        0.524   0.312   8.765   9.601
   21        0.524   0.312   8.765   9.601
   22        0.514   0.304   8.770   9.588
   23        0.524   0.312   8.766   9.601
   24        0.514   0.304   8.770   9.588
   25        0.518   0.302   8.776   9.597
   26        0.518   0.302   8.776   9.597
   27        0.513   0.304   8.770   9.588
   28        0.543   0.236   8.764   9.543
   29        0.547   0.232   8.768   9.547
   30        0.547   0.232   8.768   9.547
   31        0.551   0.234   8.766   9.550
   32        0.551   0.234   8.766   9.550
   33        0.547   0.232   8.768   9.547
   34        0.547   0.232   8.768   9.547
   35        0.542   0.236   8.764   9.543
   36        0.347   0.301   8.529   9.177
   37        0.617   0.121   0.000   0.738
   38        0.617   0.121   0.000   0.738
   39        1.560   3.620   0.000   5.180
tot         21.750  13.708 315.450 350.909

  FORCE on cell =-STRESS in cart. coord.  units (eV):
  Direction    XX          YY          ZZ          XY          YZ          ZX
  Alpha Z   919.84504   919.84504   919.84504
  Ewald  156787.95453156662.52991************    -0.05308     0.33679    -0.00839
  Hartree165412.85416165389.40597************    -0.00989     0.05874    -0.00211
  E(xc)   -1816.20903 -1816.72019 -1823.14691    -0.00019     0.00198    -0.00005
  Local  ************************334558.90522     0.05038    -0.28037     0.00896
  n-local   -95.86650   -97.05976   -75.75323     0.00055     0.00684    -0.00349
  augment  2447.28702  2449.82894  2462.98021    -0.00055    -0.01358     0.00010
  Kinetic  5618.14130  5653.37553  5682.52437     0.01582    -0.11210     0.00301
  Fock        0.00000     0.00000     0.00000     0.00000     0.00000     0.00000
  Total     -20.43736   -20.60197     0.50902     0.00304    -0.00170    -0.00196
  in kB     -19.67128   -19.82973     0.48994     0.00292    -0.00164    -0.00189

 VOLUME and BASIS-vectors are now :
  energy-cutoff  :      500.00
  volume of cell :     1664.57
      direct lattice vectors                 reciprocal lattice vectors
     8.813512802  0.000000000  0.000000000     0.113462137 -0.065507406  0.000000000
     4.406756909  7.632725690  0.000000000     0.000000000  0.131014796  0.000000000
     0.000000000  0.000000000 24.744230039     0.000000000  0.000000000  0.040413462

  length of vectors
     8.813512802  8.813512802 24.744230039     0.131014796  0.131014796  0.040413462

 FORCES acting on ions
    electron-ion (+dipol)            ewald-force                    non-local-force                 convergence-correction
   0.213E-02 0.139E-01 0.270E+04   0.607E-04 -.195E-02 -.270E+04   -.137E-04 0.286E-02 -.629E+00   -.218E-02 -.131E-01 -.188E+00
   -.841E-01 0.220E+00 0.270E+04   0.620E-01 -.145E+00 -.270E+04   0.615E-02 -.249E-01 -.244E+00   0.658E-02 -.455E-01 -.241E+00
   0.819E-01 0.210E+00 0.270E+04   -.621E-01 -.145E+00 -.270E+04   -.616E-02 -.248E-01 -.244E+00   -.434E-02 -.359E-01 -.238E+00
   0.171E+00 -.182E+00 0.270E+04   -.932E-01 0.125E+00 -.270E+04   -.300E-01 0.172E-01 -.231E+00   -.455E-01 0.312E-01 -.244E+00
   -.134E-01 -.247E-01 0.270E+04   0.804E-04 -.454E-05 -.270E+04   0.323E-04 -.309E-03 -.359E+00   0.135E-01 0.258E-01 -.273E+00
   -.162E+00 -.185E+00 0.270E+04   0.931E-01 0.125E+00 -.270E+04   0.299E-01 0.173E-01 -.231E+00   0.367E-01 0.347E-01 -.240E+00
   0.190E+00 -.390E-01 0.270E+04   -.155E+00 0.199E-01 -.270E+04   -.242E-01 0.951E-02 -.247E+00   -.703E-02 0.123E-01 -.244E+00
   -.198E+00 -.325E-01 0.270E+04   0.155E+00 0.199E-01 -.270E+04   0.242E-01 0.947E-02 -.247E+00   0.151E-01 0.585E-02 -.244E+00
   0.125E-01 0.179E-01 0.270E+04   0.171E-03 0.198E-02 -.270E+04   -.294E-04 -.598E-02 -.346E+00   -.129E-01 -.148E-01 -.233E+00
   0.681E-01 0.504E-01 0.939E+03   0.252E+00 0.130E+00 -.938E+03   -.119E+00 -.684E-01 -.549E+00   -.126E+00 -.710E-01 -.131E+00
   -.123E-01 0.133E+01 0.939E+03   0.579E-04 -.132E+01 -.938E+03   0.339E-04 -.203E-02 -.431E+00   0.124E-01 -.260E-01 -.467E-01
   -.605E-01 0.485E-01 0.939E+03   -.252E+00 0.130E+00 -.938E+03   0.119E+00 -.685E-01 -.549E+00   0.118E+00 -.689E-01 -.134E+00
   0.112E+01 -.682E+00 0.939E+03   -.113E+01 0.663E+00 -.938E+03   0.282E-02 -.819E-03 -.434E+00   -.671E-02 0.307E-01 -.629E-01
   -.113E+01 -.676E+00 0.939E+03   0.113E+01 0.663E+00 -.938E+03   -.289E-02 -.883E-03 -.434E+00   0.228E-01 0.242E-01 -.746E-01
   0.745E-02 -.115E+01 0.937E+03   0.329E-03 0.113E+01 -.936E+03   -.140E-03 0.780E-02 -.355E+00   -.769E-02 0.249E-01 -.588E-01
   0.275E-02 -.735E-01 0.939E+03   0.156E-03 -.286E+00 -.938E+03   0.264E-04 0.148E+00 -.554E+00   -.293E-02 0.130E+00 -.140E+00
   -.991E+00 0.576E+00 0.937E+03   0.971E+00 -.555E+00 -.936E+03   0.854E-02 -.416E-02 -.384E+00   0.200E-01 -.210E-01 -.461E-01
   0.988E+00 0.567E+00 0.937E+03   -.971E+00 -.555E+00 -.936E+03   -.860E-02 -.409E-02 -.384E+00   -.170E-01 -.123E-01 -.377E-01
   -.262E-02 -.134E+01 -.844E+03   0.742E-03 0.114E+01 0.844E+03   0.474E-04 0.669E-01 0.542E+00   0.183E-02 0.135E+00 0.141E+00
   0.111E+02 0.654E+01 -.831E+03   -.108E+02 -.635E+01 0.831E+03   -.349E+00 -.209E+00 -.349E+00   0.856E-01 0.292E-01 0.339E+00
   -.111E+02 0.655E+01 -.831E+03   0.108E+02 -.635E+01 0.831E+03   0.349E+00 -.209E+00 -.349E+00   -.974E-01 0.206E-01 0.336E+00
   0.569E+01 -.344E+01 -.845E+03   -.583E+01 0.348E+01 0.844E+03   0.162E+00 -.741E-01 0.535E+00   -.285E-01 0.394E-01 0.217E+00
   0.145E-01 -.130E+02 -.831E+03   -.397E-03 0.127E+02 0.831E+03   -.229E-04 0.403E+00 -.354E+00   -.143E-01 -.909E-01 0.335E+00
   -.571E+01 -.344E+01 -.845E+03   0.583E+01 0.348E+01 0.844E+03   -.162E+00 -.742E-01 0.535E+00   0.480E-01 0.367E-01 0.217E+00
   0.124E+01 0.762E+00 -.845E+03   -.104E+01 -.645E+00 0.844E+03   -.681E-01 -.428E-01 0.592E+00   -.129E+00 -.749E-01 0.137E+00
   -.124E+01 0.755E+00 -.845E+03   0.104E+01 -.644E+00 0.844E+03   0.681E-01 -.428E-01 0.592E+00   0.123E+00 -.686E-01 0.139E+00
   -.105E-01 0.661E+01 -.845E+03   -.284E-04 -.676E+01 0.844E+03   -.897E-06 0.171E+00 0.536E+00   0.108E-01 -.329E-01 0.224E+00
   -.130E-02 0.562E+00 -.262E+04   0.204E-02 -.564E+00 0.262E+04   -.307E-04 0.120E-01 0.185E+00   -.720E-03 -.988E-02 0.359E+00
   0.166E+02 0.282E+02 -.260E+04   -.166E+02 -.280E+02 0.260E+04   -.164E+00 -.253E+00 0.339E+00   0.921E-01 0.164E-01 0.250E+00
   -.166E+02 0.282E+02 -.260E+04   0.166E+02 -.280E+02 0.260E+04   0.164E+00 -.253E+00 0.338E+00   -.915E-01 0.189E-01 0.246E+00
   0.330E+02 0.842E+00 -.260E+04   -.327E+02 -.863E+00 0.260E+04   -.409E+00 -.285E-01 0.117E+00   0.511E-01 0.578E-01 0.255E+00
   -.330E+02 0.840E+00 -.260E+04   0.327E+02 -.862E+00 0.260E+04   0.409E+00 -.284E-01 0.117E+00   -.523E-01 0.591E-01 0.258E+00
   0.152E+02 -.290E+02 -.260E+04   -.151E+02 0.289E+02 0.260E+04   -.115E+00 0.283E+00 0.340E+00   -.106E-01 -.743E-01 0.257E+00
   -.152E+02 -.290E+02 -.260E+04   0.151E+02 0.289E+02 0.260E+04   0.115E+00 0.283E+00 0.341E+00   0.136E-01 -.753E-01 0.264E+00
   0.675E-02 -.568E+00 -.262E+04   0.122E-02 0.569E+00 0.262E+04   -.412E-04 -.114E-01 0.213E+00   -.811E-02 0.879E-02 0.198E+00
   0.173E-02 -.744E-02 -.220E+04   -.809E-02 0.439E-02 0.219E+04   -.523E-03 -.513E-03 0.258E+01   0.694E-02 0.873E-03 0.258E+00
   0.716E+02 -.309E+00 -.300E+03   -.786E+02 0.341E+00 0.305E+03   0.695E+01 -.299E-01 -.471E+01   0.679E-02 0.999E-04 -.928E-02
   -.717E+02 -.249E+00 -.300E+03   0.786E+02 0.275E+00 0.305E+03   -.695E+01 -.241E-01 -.470E+01   -.674E-02 0.140E-03 -.915E-02
   0.190E-01 0.330E+00 -.158E+04   -.296E-01 -.624E+00 0.154E+04   0.804E-02 0.292E+00 0.425E+02   -.269E-02 0.300E-02 -.966E-01
   -.176E-01 -.244E+00 -.341E+02   0.142E-12 -.254E-12 0.105E-10   0.364E-02 0.237E+00 0.331E+02   0.117E-01 0.105E-01 0.144E+01

 POSITION                                       TOTAL-FORCE (eV/Angst)
      0.00000      0.00000      5.28038         0.000054      0.001609      0.037739
      2.93784      0.00000      5.28038        -0.009244      0.004249     -0.004188
      5.87568      0.00000      5.28038         0.009368      0.004278     -0.004147
      1.46892      2.54424      5.28038         0.001954     -0.008053     -0.001580
      4.40676      2.54424      5.28038         0.000283      0.000653     -0.011088
      7.34459      2.54424      5.28038        -0.001865     -0.008053     -0.001487
      2.93784      5.08848      5.28038         0.003666      0.002675     -0.001940
      5.87568      5.08848      5.28038        -0.003539      0.002654     -0.001892
      8.81351      5.08848      5.28038        -0.000148     -0.000992      0.010564
      1.46892      0.84808      7.67911         0.075650      0.040894      0.070585
      4.40676      0.84808      7.67911         0.000295     -0.021401      0.048916
      7.34459      0.84808      7.67911        -0.075561      0.040886      0.070575
      2.93784      3.39232      7.67911        -0.017409      0.010504      0.050189
      5.87568      3.39232      7.67911         0.017954      0.010484      0.050109
      8.81351      3.39232      7.67911         0.000005      0.011822      0.090041
      4.40676      5.93656      7.67911         0.000058     -0.082214      0.070943
      7.34459      5.93656      7.67911         0.008799     -0.004213      0.087223
     10.28243      5.93656      7.67911        -0.008657     -0.004185      0.087274
      8.81351      1.69299     10.06281         0.000053     -0.001752     -0.003310
      2.93673      1.69552     10.07074         0.013839      0.010558      0.005768
      5.87678      1.69552     10.07074        -0.014121      0.010519      0.005736
     10.28200      4.24065     10.07064        -0.005943      0.002311     -0.000433
      4.40676      4.24168     10.07074        -0.000171     -0.018787      0.006890
      7.34503      4.24065     10.07064         0.006488      0.002280     -0.000395
     11.75410      6.78623     10.06281         0.003818     -0.000130      0.009200
      5.87293      6.78623     10.06281        -0.003712     -0.000131      0.009267
      8.81351      6.78414     10.07064         0.000279     -0.008023      0.006234
      0.00000      0.00000     12.49359         0.000050     -0.000084     -0.071905
      2.94266      0.00661     12.49157        -0.035253     -0.065572     -0.121289
      5.87086      0.00661     12.49157         0.035391     -0.065578     -0.121246
      1.47706      2.54511     12.49157        -0.070624      0.008743     -0.114320
      7.33646      2.54511     12.49157         0.070775      0.008721     -0.114317
      2.94116      5.08100     12.49157        -0.053439      0.057507     -0.122518
      5.87236      5.08100     12.49157         0.053543      0.057506     -0.122555
      8.81351      5.08848     12.49778        -0.000123     -0.001165     -0.072569
      4.40676      2.54424     12.34091         0.000112     -0.002788      0.167179
      3.62059      2.54741     15.36139         0.002904      0.002040      0.006934
      5.19331      2.54675     15.36106        -0.000337      0.001608      0.008755
      4.40687      2.54375     14.79017        -0.005193      0.000621     -0.008943
    total drift:                               -0.002234      0.003814      0.397751

  FREE ENERGIE OF THE ION-ELECTRON SYSTEM (eV)
  free  energy   TOTEN  =      -126.30704253 eV

  energy  without entropy=     -126.30704253  energy(sigma->0) =     -126.30704253

 stress matrix after NEB project (eV)
    -20.43736      0.00304     -0.00196
      0.00304    -20.60197     -0.00170
     -0.00196     -0.00170      0.50902
  FORCES: max atom, RMS     0.010360    0.002518
  FORCE total and by dimension    0.015727    0.008943
  Stress total and by dimension   29.023887   20.601974
|           W    W    AA    RRRRR   N    N  II  N    N   GGGG   !!!           |
|           W    W   A  A   R    R  NN   N  II  NN   N  G    G  !!!           |
|           W    W  A    A  R    R  N N  N  II  N N  N  G       !!!           |
|           W WW W  AAAAAA  RRRRR   N  N N  II  N  N N  G  GGG   !            |
|           WW  WW  A    A  R   R   N   NN  II  N   NN  G    G                |
|           W    W  A    A  R    R  N    N  II  N    N   GGGG   !!!           |
|     Tetrahedron method does not include variations of the Fermi             |
|     occupations, so forces and stress will be inaccurate. We suggest        |
|     using a different smearing scheme ISMEAR = 1 or 2 for metals in         |
|     relaxations.                                                            |

 total charge

# of ion       s       p       d       tot
    1        0.542   0.241   8.765   9.549
    2        0.546   0.240   8.765   9.551
    3        0.546   0.240   8.765   9.551
    4        0.546   0.240   8.765   9.551
    5        0.539   0.242   8.765   9.546
    6        0.546   0.240   8.765   9.551
    7        0.546   0.240   8.765   9.551
    8        0.546   0.240   8.765   9.551
    9        0.543   0.240   8.767   9.550
   10        0.518   0.309   8.770   9.597
   11        0.521   0.304   8.777   9.602
   12        0.518   0.309   8.770   9.597
   13        0.521   0.304   8.777   9.602
   14        0.521   0.304   8.777   9.602
   15        0.516   0.307   8.775   9.598
   16        0.518   0.309   8.770   9.596
   17        0.516   0.307   8.775   9.598
   18        0.516   0.307   8.775   9.598
   19        0.519   0.302   8.776   9.598
   20        0.524   0.312   8.765   9.601
   21        0.524   0.312   8.765   9.601
   22        0.514   0.304   8.770   9.588
   23        0.524   0.312   8.766   9.601
   24        0.514   0.304   8.770   9.588
   25        0.518   0.302   8.776   9.597
   26        0.518   0.302   8.776   9.597
   27        0.513   0.304   8.770   9.588
   28        0.543   0.236   8.764   9.543
   29        0.547   0.232   8.768   9.547
   30        0.547   0.232   8.768   9.547
   31        0.551   0.234   8.766   9.550
   32        0.551   0.234   8.766   9.550
   33        0.547   0.232   8.768   9.547
   34        0.547   0.232   8.768   9.547
   35        0.542   0.236   8.764   9.543
   36        0.347   0.301   8.529   9.177
   37        0.617   0.121   0.000   0.738
   38        0.617   0.121   0.000   0.738
   39        1.560   3.620   0.000   5.180
tot         21.750  13.708 315.450 350.909

 BZINTS: Fermi energy:    0.430707;  403.000000 electrons
         Band energy:-0.134189E+04;  BLOECHL correction:   -0.104366