 vasp.6.2.0 18Jan21 (build Jun 12 2021 23:27:24) complex

 executed on             LinuxIFC date 2022.05.30  15:47:44

 INCAR:
   ISMEAR = -5
   SIGMA = 0.1
   ISPIN = 1
   EDIFF = 1.d-5
   EDIFFG = -0.01
   NSW = 0
   NELM = 150
   ENCUT = 500
   ISIF = 2
   IBRION = 2
   LREAL = Auto
   ALGO = Fast
   ICHARG = 11
   LORBIT = 10
   LCHARG = .F.
   LWAVE = .F.

 POTCAR:    PAW_PBE Au 04Oct2007
 POTCAR:    PAW_PBE Cr 06Sep2000
 POTCAR:    PAW_PBE C 08Apr2002
 POTCAR:    PAW_PBE O 08Apr2002
 POTCAR:    PAW_PBE H 15Jun2001
|           W    W    AA    RRRRR   N    N  II  N    N   GGGG   !!!           |
|           W    W   A  A   R    R  NN   N  II  NN   N  G    G  !!!           |
|           W    W  A    A  R    R  N N  N  II  N N  N  G       !!!           |
|           W WW W  AAAAAA  RRRRR   N  N N  II  N  N N  G  GGG   !            |
|           WW  WW  A    A  R   R   N   NN  II  N   NN  G    G                |
|           W    W  A    A  R    R  N    N  II  N    N   GGGG   !!!           |
|     For optimal performance we recommend to set                             |
|       NCORE = 2 up to number-of-cores-per-socket                            |
|     This setting can greatly improve the performance of VASP for DFT.       |
|     The default, NCORE=1 might be grossly inefficient on modern             |
|     multi-core architectures or massively parallel machines. Do your        |
|     Unfortunately you need to use the default for GW and RPA                |
|     calculations (for HF NCORE is supported but not extensively tested      |
|     yet).                                                                   |

 POTCAR:    PAW_PBE Au 04Oct2007
   VRHFIN =Au: s1d10

   TITEL  = PAW_PBE Au 04Oct2007
   POMASS =  196.966; ZVAL   =   11.000    mass and valenz
   ENMAX  =  229.943; ENMIN  =  172.457 eV

 POTCAR:    PAW_PBE Cr 06Sep2000
   VRHFIN =Cr : d5 s1

   TITEL  = PAW_PBE Cr 06Sep2000
   POMASS =   51.996; ZVAL   =    6.000    mass and valenz
   ENMAX  =  227.080; ENMIN  =  170.310 eV

 POTCAR:    PAW_PBE C 08Apr2002
   VRHFIN =C: s2p2

   TITEL  = PAW_PBE C 08Apr2002
   POMASS =   12.011; ZVAL   =    4.000    mass and valenz
   ENMAX  =  400.000; ENMIN  =  300.000 eV

 POTCAR:    PAW_PBE O 08Apr2002
   VRHFIN =O: s2p4

   TITEL  = PAW_PBE O 08Apr2002
   POMASS =   16.000; ZVAL   =    6.000    mass and valenz
   ENMAX  =  400.000; ENMIN  =  300.000 eV

 POTCAR:    PAW_PBE H 15Jun2001
   VRHFIN =H: ultrasoft test

   TITEL  = PAW_PBE H 15Jun2001
   POMASS =    1.000; ZVAL   =    1.000    mass and valenz
   ENMAX  =  250.000; ENMIN  =  200.000 eV

 Optimization of the real space projectors (new method)

 maximal supplied QI-value         = 15.12
 optimisation between [QCUT,QGAM] = [ 11.34, 22.83] = [ 36.00,145.93] Ry
 Optimized for a Real-space Cutoff    1.39 Angstroem

   l    n(q)    QCUT    max X(q) W(low)/X(q) W(high)/X(q)  e(spline)
   2      9    11.338    60.898    0.39E-03    0.42E-03    0.21E-06
   2      9    11.338    58.894    0.40E-03    0.42E-03    0.22E-06
   0      9    11.338   109.617    0.13E-03    0.20E-04    0.13E-06
   0      9    11.338    75.026    0.13E-03    0.20E-04    0.13E-06
   1      9    11.338    16.344    0.33E-04    0.24E-03    0.18E-06
   1      9    11.338    10.160    0.26E-04    0.19E-03    0.15E-06
 Optimization of the real space projectors (new method)

[...]

   l    n(q)    QCUT    max X(q) W(low)/X(q) W(high)/X(q)  e(spline)
   0      7    11.387    20.381    0.39E-03    0.13E-02    0.15E-06
   0      7    11.387    15.268    0.42E-03    0.14E-02    0.17E-06
   1      6    11.387     5.964    0.41E-03    0.11E-02    0.17E-06
   1      6    11.387     5.382    0.39E-03    0.87E-03    0.15E-06
 Optimization of the real space projectors (new method)

 maximal supplied QI-value         = 34.20
 optimisation between [QCUT,QGAM] = [ 11.29, 22.57] = [ 35.68,142.71] Ry
 Optimized for a Real-space Cutoff    1.16 Angstroem

   l    n(q)    QCUT    max X(q) W(low)/X(q) W(high)/X(q)  e(spline)
   0      8    11.287    19.460    0.40E-03    0.73E-03    0.16E-06
   0      8    11.287    12.209    0.38E-03    0.70E-03    0.15E-06
   1      7    11.287     4.655    0.22E-03    0.25E-04    0.22E-06
  PAW_PBE Au 04Oct2007                  :
  PAW_PBE Cr 06Sep2000                  :
  PAW_PBE C 08Apr2002                   :
  PAW_PBE O 08Apr2002                   :
  PAW_PBE H 15Jun2001                   :

 POSCAR: Au-Cr-COH
  positions in direct lattice
  velocities in cartesian coordinates
 exchange correlation table for  LEXCH =        8
   RHO(1)=    0.500       N(1)  =     2000
   RHO(2)=  100.500       N(2)  =     4000

 VTST: version 3.2, (02/03/18)

 CHAIN: initializing optimizer

 OPT: Using VASP Conjugate-Gradient optimizer
 CHAIN: Read ICHAIN            0

 POSCAR: Au-Cr-COH
  positions in direct lattice
  velocities in cartesian coordinates

 ion  position               nearest neighbor table
   1  0.000  0.000  0.197-  16 2.94  12 2.94   6 2.94   8 2.94   7 2.94   3 2.94  10 2.94   4 2.94
                             2 2.94
   2  0.333  0.000  0.197-   9 2.94  11 2.94  17 2.94  10 2.94   8 2.94   4 2.94   5 2.94   1 2.94
                             3 2.94
   3  0.667  0.000  0.197-   7 2.94  18 2.94  12 2.94   1 2.94  11 2.94   5 2.94   6 2.94   9 2.94
                             2 2.94
   4  0.000  0.333  0.197-  10 2.94   6 2.94   5 2.94  13 2.94   2 2.94  15 2.94   9 2.94   1 2.94
                             7 2.94
   5  0.333  0.333  0.197-  13 2.94   7 2.94  11 2.94   4 2.94   2 2.94  14 2.94   3 2.94   8 2.94
                             6 2.94
   6  0.667  0.333  0.197-  15 2.94  14 2.94   1 2.94  12 2.94   4 2.94   9 2.94   8 2.94   3 2.94
                             5 2.94
   7  0.000  0.667  0.197-  18 2.94   3 2.94  16 2.94   5 2.94   1 2.94  13 2.94   8 2.94   4 2.94
                             9 2.94
   8  0.333  0.667  0.197-   9 2.94  17 2.94   1 2.94   2 2.94  14 2.94  16 2.94   6 2.94   7 2.94
                             5 2.94
   9  0.667  0.667  0.197-   2 2.94   8 2.94  17 2.94   6 2.94  15 2.94   4 2.94   3 2.94  18 2.94
                             7 2.94
  10  0.111  0.111  0.287-  20 2.92  26 2.94  19 2.94  11 2.94  17 2.94   2 2.94   4 2.94   1 2.94
                            12 2.94  16 2.94  13 2.94  15 2.94
  11  0.444  0.111  0.287-  20 2.91  21 2.91  27 2.93  13 2.94   2 2.94  10 2.94  17 2.94   5 2.94
                             3 2.94  18 2.94  14 2.94  12 2.94
  12  0.778  0.111  0.287-  21 2.92  25 2.94  19 2.94  16 2.94  18 2.94   1 2.94  14 2.94  15 2.94
                             3 2.94   6 2.94  10 2.94  11 2.94
  13  0.111  0.444  0.287-  23 2.91  20 2.91  22 2.93   5 2.94  18 2.94  11 2.94   7 2.94   4 2.94
                            16 2.94  10 2.94  14 2.94  15 2.94
  14  0.444  0.444  0.287-  21 2.91  23 2.91  24 2.93  15 2.94   6 2.94  12 2.94   8 2.94  17 2.94
                             5 2.94  16 2.94  13 2.94  11 2.94
  15  0.778  0.444  0.287-  24 2.92  22 2.92  19 2.94  14 2.94   6 2.94  17 2.94  12 2.94   9 2.94
                             4 2.94  10 2.94  13 2.94  18 2.94
  16  0.111  0.778  0.287-  23 2.92  25 2.94  26 2.94  18 2.94  12 2.94   7 2.94   1 2.94   8 2.94
                            13 2.94  10 2.94  14 2.94  17 2.94
  17  0.444  0.778  0.287-  27 2.92  24 2.92  26 2.94   9 2.94  15 2.94   2 2.94  10 2.94  11 2.94
                             8 2.94  14 2.94  16 2.94  18 2.94
  18  0.778  0.778  0.287-  22 2.92  27 2.92  25 2.94  16 2.94   7 2.94  13 2.94  12 2.94   3 2.94
                            11 2.94   9 2.94  15 2.94  17 2.94
  19  0.889  0.222  0.377-  10 2.94  12 2.94  15 2.94  26 2.94  25 2.94  24 2.94  22 2.94  28 2.95
                            21 2.95  20 2.95  32 3.00  31 3.00
  20  0.223  0.223  0.376-  36 2.71  11 2.91  13 2.91  23 2.91  21 2.91  29 2.92  31 2.92  10 2.92
                            26 2.95  19 2.95  27 2.96  22 2.96
  21  0.553  0.223  0.376-  36 2.71  14 2.91  11 2.91  20 2.91  23 2.91  30 2.92  32 2.92  12 2.92
                            25 2.95  19 2.95  27 2.96  24 2.96
  22  0.886  0.557  0.376-  24 2.90  27 2.90  18 2.92  15 2.92  13 2.93  25 2.94  19 2.94  23 2.96
                            20 2.96  35 2.96  33 2.96  31 2.96
  23  0.223  0.553  0.376-  36 2.71  13 2.91  14 2.91  20 2.91  21 2.91  33 2.92  34 2.92  16 2.92
                            25 2.95  26 2.95  22 2.96  24 2.96
  24  0.557  0.557  0.376-  27 2.90  22 2.90  15 2.92  17 2.92  14 2.93  26 2.94  19 2.94  21 2.96
                            23 2.96  35 2.96  32 2.96  34 2.96
  25  0.889  0.889  0.377-  16 2.94  12 2.94  18 2.94  19 2.94  26 2.94  22 2.94  27 2.94  28 2.95
                            23 2.95  21 2.95  33 3.00  30 3.00
  26  0.222  0.889  0.377-  10 2.94  16 2.94  17 2.94  19 2.94  25 2.94  27 2.94  24 2.94  28 2.95
                            20 2.95  23 2.95  29 3.00  34 3.00
  27  0.557  0.886  0.376-  24 2.90  22 2.90  17 2.92  18 2.92  11 2.93  26 2.94  25 2.94  20 2.96
                            21 2.96  35 2.96  29 2.96  30 2.96
  28  0.000  0.000  0.467-  25 2.95  19 2.95  26 2.95  34 2.99  32 2.99  33 2.99  30 2.99  31 2.99
                            29 2.99
  29  0.334  0.011  0.467-  30 2.84  31 2.84  36 2.86  20 2.92  27 2.96  35 2.99  28 2.99  26 3.00
                            34 3.13
  30  0.655  0.011  0.467-  29 2.84  32 2.84  36 2.86  21 2.92  27 2.96  35 2.99  28 2.99  25 3.00
                            33 3.13
  31  0.011  0.334  0.467-  33 2.84  29 2.84  36 2.86  20 2.92  22 2.96  35 2.99  28 2.99  19 3.00
                            32 3.13
  32  0.655  0.334  0.467-  34 2.84  30 2.84  36 2.86  21 2.92  24 2.96  35 2.99  28 2.99  19 3.00
                            31 3.13
  33  0.011  0.655  0.467-  31 2.84  34 2.84  36 2.86  23 2.92  22 2.96  35 2.99  28 2.99  25 3.00
                            30 3.13
  34  0.334  0.655  0.467-  32 2.84  33 2.84  36 2.86  23 2.92  24 2.96  35 2.99  28 2.99  26 3.00
                            29 3.13
  35  0.667  0.667  0.467-  24 2.96  27 2.96  22 2.96  29 2.99  34 2.99  32 2.99  31 2.99  30 2.99
                            33 2.99
  36  0.333  0.333  0.455-  37 1.71  20 2.71  23 2.71  21 2.71  33 2.86  31 2.86  29 2.86  30 2.86
                            34 2.86  32 2.86
  37  0.333  0.333  0.519-  38 1.26  36 1.71
  38  0.333  0.333  0.566-  39 0.96  37 1.26
  39  0.333  0.333  0.602-  38 0.96

  LATTYP: Found a hexagonal cell.
 ALAT       =     8.8135128021
 C/A-ratio  =     3.0356784858

  Lattice vectors:

 A1 = (  -4.4067569092,  -7.6327256898,   0.0000000000)
 A2 = (   8.8135128021,   0.0000000000,   0.0000000000)
 A3 = (   0.0000000000,   0.0000000000,  26.7549911976)

Analysis of symmetry for initial positions (statically):
 Subroutine PRICEL returns:
 Original cell was already a primitive cell.

 Routine SETGRP: Setting up the symmetry group for a
 hexagonal supercell.

 Subroutine GETGRP returns: Found  6 space group operations
 (whereof  6 operations were pure point group operations)
 out of a pool of 24 trial point group operations.

The static configuration has the point symmetry C_3v.

Analysis of symmetry for dynamics (positions and initial velocities):
[...]
     41      -5.0245      2.00000
     42      -4.9833      2.00000
     43      -4.9623      2.00000
     44      -4.9081      2.00000
     45      -4.8516      2.00000
     46      -4.8278      2.00000
     47      -4.7705      2.00000
     48      -4.7515      2.00000
     49      -4.7414      2.00000
     50      -4.7252      2.00000
     51      -4.6290      2.00000
     52      -4.6022      2.00000
     53      -4.5789      2.00000
     54      -4.5546      2.00000
     55      -4.5521      2.00000
     56      -4.5466      2.00000
     57      -4.5241      2.00000
     58      -4.4977      2.00000
     59      -4.4566      2.00000
     60      -4.4291      2.00000
[...]
    238       5.2603      0.00000
    239       5.3000      0.00000
    240       5.4732      0.00000
    241       5.5605      0.00000
    242       5.6658      0.00000
    243       5.9019      0.00000
    244       5.9120      0.00000
    245       5.9479      0.00000
    246       6.0396      0.00000
    247       6.0651      0.00000
    248       6.0970      0.00000
    249       6.1240      0.00000
    250       6.1607      0.00000
    251       6.2922      0.00000
    252       6.3727      0.00000

 soft charge-density along one line, spin component           1
         0         1         2         3         4         5         6         7         8         9
 total charge-density along one line

------------------------ aborting loop because EDIFF is reached ----------------------------------------

 total charge

# of ion       s       p       d       tot
    1        0.545   0.239   8.768   9.552
    2        0.545   0.242   8.764   9.551
    3        0.545   0.242   8.764   9.551
    4        0.545   0.242   8.764   9.551
    5        0.545   0.242   8.760   9.547
    6        0.545   0.242   8.764   9.551
    7        0.545   0.242   8.764   9.551
    8        0.545   0.242   8.764   9.551
    9        0.542   0.240   8.769   9.552
   10        0.522   0.309   8.771   9.602
   11        0.524   0.308   8.779   9.611
   12        0.522   0.309   8.771   9.602
   13        0.524   0.308   8.779   9.611
   14        0.524   0.308   8.779   9.611
   15        0.516   0.312   8.773   9.601
   16        0.522   0.309   8.771   9.602
   17        0.516   0.312   8.773   9.601
   18        0.516   0.312   8.773   9.601
   19        0.518   0.300   8.773   9.591
   20        0.553   0.333   8.749   9.636
   21        0.553   0.333   8.749   9.636
   22        0.510   0.312   8.775   9.597
   23        0.553   0.333   8.749   9.636
   24        0.510   0.312   8.775   9.597
   25        0.518   0.300   8.773   9.591
   26        0.518   0.300   8.773   9.591
   27        0.510   0.312   8.775   9.597
   28        0.541   0.224   8.765   9.529
   29        0.559   0.246   8.751   9.556
   30        0.559   0.246   8.751   9.556
   31        0.559   0.246   8.751   9.556
   32        0.559   0.246   8.751   9.556
   33        0.559   0.246   8.751   9.556
   34        0.559   0.246   8.751   9.556
   35        0.541   0.226   8.760   9.527
   36        0.437   0.603   4.446   5.487
   37        0.934   1.446   0.000   2.380
   38        1.523   3.771   0.000   5.294
   39        0.563   0.137   0.000   0.700
tot         22.225  15.678 311.222 349.125

  FORCE on cell =-STRESS in cart. coord.  units (eV):
  Direction    XX          YY          ZZ          XY          YZ          ZX
  Alpha Z   853.47458   853.47458   853.47458
  Ewald  186113.06214186113.06256************    -0.00031    -0.00009    -0.00012
  Hartree194621.68648194621.68649************     0.00001    -0.00002    -0.00003
  E(xc)   -1801.33659 -1801.33674 -1808.19934     0.00013    -0.00001    -0.00002
  Local  ************************392809.04793     0.00215     0.00000    -0.00003
  n-local  -110.76949   -66.09304   -63.66376    22.79157    -1.61023     1.56387
  augment  2400.49460  2400.49613  2414.69998    -0.00132     0.00001     0.00004
  Kinetic  5608.58041  5617.10853  5604.95570     5.85152     0.19597     0.34793
  Fock        0.00000     0.00000     0.00000     0.00000     0.00000     0.00000
  Total     -22.04005   -22.04005     2.78230    -0.00000     0.00000     0.00000
  in kB     -19.61958   -19.61958     2.47674    -0.00000     0.00000     0.00000

 VOLUME and BASIS-vectors are now :
  energy-cutoff  :      500.00
  volume of cell :     1799.84
      direct lattice vectors                 reciprocal lattice vectors
     8.813512802  0.000000000  0.000000000     0.113462137 -0.065507406  0.000000000
     4.406756909  7.632725690  0.000000000     0.000000000  0.131014796  0.000000000
     0.000000000  0.000000000 26.754991198     0.000000000  0.000000000  0.037376204

  length of vectors
     8.813512802  8.813512802 26.754991198     0.131014796  0.131014796  0.037376204

 FORCES acting on ions
    electron-ion (+dipol)            ewald-force                    non-local-force                 convergence-correction
   -.201E-04 -.165E-04 0.282E+04   0.519E-04 0.433E-04 -.282E+04   0.194E-17 0.544E-17 -.796E+00   -.216E-03 -.138E-03 -.315E+00
   0.493E+00 0.147E+00 0.282E+04   -.568E+00 -.201E+00 -.282E+04   0.362E-01 0.614E-01 -.252E+00   0.444E-01 0.657E-02 -.261E+00
   -.493E+00 0.147E+00 0.282E+04   0.568E+00 -.201E+00 -.282E+04   -.362E-01 0.614E-01 -.252E+00   -.441E-01 0.844E-02 -.261E+00
   0.374E+00 0.353E+00 0.282E+04   -.459E+00 -.391E+00 -.282E+04   0.712E-01 0.650E-03 -.252E+00   0.279E-01 0.351E-01 -.261E+00
   0.107E-04 -.220E-04 0.282E+04   0.951E-04 0.174E-05 -.282E+04   0.541E-19 0.159E-17 -.957E-01   0.422E-02 0.257E-02 -.199E+00
   -.374E+00 0.353E+00 0.282E+04   0.458E+00 -.392E+00 -.282E+04   -.712E-01 0.650E-03 -.252E+00   -.294E-01 0.360E-01 -.261E+00
   -.119E+00 -.501E+00 0.282E+04   0.110E+00 0.593E+00 -.282E+04   0.350E-01 -.620E-01 -.252E+00   -.147E-01 -.424E-01 -.261E+00
   0.119E+00 -.501E+00 0.282E+04   -.110E+00 0.593E+00 -.282E+04   -.350E-01 -.620E-01 -.252E+00   0.165E-01 -.434E-01 -.261E+00
   0.198E-04 -.414E-04 0.282E+04   0.166E-03 -.201E-04 -.282E+04   -.199E-17 -.343E-19 -.553E+00   -.455E-02 -.235E-02 -.313E+00
   0.393E+01 0.227E+01 0.967E+03   -.377E+01 -.218E+01 -.967E+03   -.274E+00 -.158E+00 -.599E+00   0.114E+00 0.659E-01 0.489E+00
   0.152E-04 0.383E+01 0.974E+03   0.147E-03 -.405E+01 -.974E+03   0.453E-08 0.680E-01 -.310E+00   0.388E-02 0.966E-01 0.601E+00
   -.393E+01 0.227E+01 0.967E+03   0.377E+01 -.218E+01 -.967E+03   0.274E+00 -.158E+00 -.599E+00   -.116E+00 0.666E-01 0.488E+00
   0.332E+01 -.192E+01 0.974E+03   -.351E+01 0.203E+01 -.974E+03   0.589E-01 -.340E-01 -.310E+00   0.859E-01 -.447E-01 0.601E+00
   -.332E+01 -.192E+01 0.974E+03   0.351E+01 0.203E+01 -.974E+03   -.589E-01 -.340E-01 -.310E+00   -.787E-01 -.456E-01 0.599E+00
   0.315E-04 0.412E+01 0.971E+03   0.236E-03 -.422E+01 -.971E+03   0.783E-09 0.118E-01 -.512E+00   -.192E-02 0.450E-01 0.517E+00
   -.208E-04 -.454E+01 0.967E+03   0.163E-03 0.435E+01 -.967E+03   0.211E-07 0.317E+00 -.599E+00   -.278E-03 -.133E+00 0.488E+00
   0.357E+01 -.206E+01 0.971E+03   -.365E+01 0.211E+01 -.971E+03   0.102E-01 -.588E-02 -.512E+00   0.383E-01 -.237E-01 0.517E+00
   -.357E+01 -.206E+01 0.971E+03   0.365E+01 0.211E+01 -.971E+03   -.102E-01 -.588E-02 -.512E+00   -.378E-01 -.221E-01 0.518E+00
   -.426E-04 0.926E+00 -.917E+03   0.547E-04 -.115E+01 0.915E+03   0.441E-08 0.663E-01 0.667E+00   0.812E-03 0.158E+00 0.114E+01
   0.114E+02 0.657E+01 -.883E+03   -.111E+02 -.639E+01 0.882E+03   -.107E+01 -.621E+00 -.101E+01   0.648E+00 0.374E+00 0.193E+01
   -.114E+02 0.657E+01 -.883E+03   0.111E+02 -.639E+01 0.882E+03   0.107E+01 -.621E+00 -.101E+01   -.654E+00 0.373E+00 0.193E+01
   -.156E+01 0.903E+00 -.899E+03   0.992E+00 -.573E+00 0.898E+03   0.374E+00 -.216E+00 0.592E+00   0.247E+00 -.142E+00 0.119E+01
   -.981E-05 -.131E+02 -.883E+03   0.140E-03 0.128E+02 0.882E+03   0.826E-07 0.124E+01 -.101E+01   -.372E-02 -.753E+00 0.193E+01
   0.156E+01 0.903E+00 -.899E+03   -.992E+00 -.573E+00 0.898E+03   -.374E+00 -.216E+00 0.592E+00   -.245E+00 -.142E+00 0.119E+01
   -.802E+00 -.463E+00 -.917E+03   0.999E+00 0.577E+00 0.915E+03   -.574E-01 -.331E-01 0.667E+00   -.137E+00 -.794E-01 0.114E+01
   0.802E+00 -.463E+00 -.917E+03   -.999E+00 0.577E+00 0.915E+03   0.574E-01 -.331E-01 0.667E+00   0.138E+00 -.785E-01 0.114E+01
   0.999E-05 -.181E+01 -.899E+03   0.196E-03 0.115E+01 0.898E+03   0.288E-07 0.432E+00 0.592E+00   -.269E-03 0.285E+00 0.119E+01
   -.144E-04 -.139E-04 -.274E+04   0.305E-04 0.347E-04 0.273E+04   0.210E-17 -.651E-18 0.412E+00   0.898E-04 0.339E-04 0.989E+00
   0.326E+02 0.518E+02 -.270E+04   -.324E+02 -.517E+02 0.270E+04   -.750E+00 -.113E+01 0.378E+00   0.501E+00 0.892E+00 0.699E+00
   -.326E+02 0.518E+02 -.270E+04   0.324E+02 -.517E+02 0.270E+04   0.750E+00 -.113E+01 0.378E+00   -.501E+00 0.894E+00 0.700E+00
   0.611E+02 0.234E+01 -.270E+04   -.610E+02 -.223E+01 0.270E+04   -.135E+01 -.869E-01 0.378E+00   0.102E+01 -.127E-01 0.700E+00
   -.611E+02 0.234E+01 -.270E+04   0.610E+02 -.223E+01 0.270E+04   0.135E+01 -.869E-01 0.378E+00   -.102E+01 -.119E-01 0.701E+00
   0.285E+02 -.541E+02 -.270E+04   -.286E+02 0.539E+02 0.270E+04   -.599E+00 0.121E+01 0.378E+00   0.524E+00 -.880E+00 0.700E+00
   -.285E+02 -.541E+02 -.270E+04   0.286E+02 0.539E+02 0.270E+04   0.599E+00 0.121E+01 0.378E+00   -.522E+00 -.881E+00 0.701E+00
   0.360E-04 -.278E-04 -.274E+04   0.140E-03 -.502E-04 0.274E+04   -.194E-17 -.166E-17 0.293E+00   -.425E-02 -.216E-02 0.747E+00
   -.207E-04 -.423E-05 -.127E+04   0.635E-04 0.589E-05 0.127E+04   -.432E-17 0.198E-18 -.969E-01   0.145E-02 0.893E-03 0.564E+00
   -.739E-05 -.781E-04 -.103E+04   0.172E-04 0.112E-05 0.101E+04   -.820E-19 0.847E-19 0.209E+02   0.111E-02 0.675E-03 -.792E+00
   0.243E-03 -.896E-04 -.175E+04   0.584E-05 0.593E-06 0.176E+04   0.223E-18 -.198E-18 -.554E+01   0.382E-02 0.234E-02 -.576E+00
   0.629E-05 -.145E-04 -.337E+03   0.250E-06 0.446E-07 0.346E+03   -.113E-19 -.121E-20 -.872E+01   0.201E-03 0.123E-03 -.713E-01
   -.547E-03 -.953E-03 -.229E+02   0.716E-13 0.131E-12 -.824E-11   0.327E-15 0.665E-15 0.303E+01   0.440E-02 0.330E-02 0.203E+02

 POSITION                                       TOTAL-FORCE (eV/Angst)
      0.00000      0.00000      5.28038        -0.000000     -0.000000     -0.116749
      2.93784      0.00000      5.28038         0.005632      0.014719     -0.058947
      5.87568      0.00000      5.28038        -0.005632      0.014719     -0.058947
      1.46892      2.54424      5.28038         0.015563     -0.002482     -0.058947
      4.40676      2.54424      5.28038        -0.000000     -0.000000     -0.095653
      7.34459      2.54424      5.28038        -0.015563     -0.002482     -0.058947
      2.93784      5.08848      5.28038         0.009932     -0.012237     -0.058947
      5.87568      5.08848      5.28038        -0.009932     -0.012237     -0.058947
      8.81351      5.08848      5.28038        -0.000000     -0.000000     -0.062007
      1.46892      0.84808      7.67911         0.004459      0.002574      0.137939
      4.40676      0.84808      7.67911        -0.000000     -0.057011      0.063511
      7.34459      0.84808      7.67911        -0.004459      0.002574      0.137939
      2.93784      3.39232      7.67911        -0.049373      0.028505      0.063511
      5.87568      3.39232      7.67911         0.049373      0.028505      0.063511
      8.81351      3.39232      7.67911        -0.000000     -0.044673      0.116332
      4.40676      5.93656      7.67911        -0.000000     -0.005148      0.137939
      7.34459      5.93656      7.67911        -0.038688      0.022337      0.116332
     10.28243      5.93656      7.67911         0.038688      0.022337      0.116332
      8.81351      1.69581     10.07501        -0.000000     -0.003195      0.027458
      2.95207      1.70438     10.04871        -0.119345     -0.068904     -0.203952
      5.86144      1.70438     10.04871         0.119345     -0.068904     -0.203952
     10.26527      4.25031     10.05786         0.047703     -0.027542     -0.007153
      4.40676      4.22397     10.04871         0.000000      0.137808     -0.203952
      7.36176      4.25031     10.05786        -0.047703     -0.027542     -0.007153
     11.75166      6.78482     10.07501         0.002767      0.001598      0.027458
      5.87537      6.78482     10.07501        -0.002767      0.001598      0.027458
      8.81351      6.76483     10.05786         0.000000      0.055083     -0.007153
      0.00000      0.00000     12.48798        -0.000000     -0.000000     -0.149326
      2.98892      0.08359     12.48152        -0.080997     -0.166129     -0.070738
      5.82460      0.08359     12.48152         0.080997     -0.166129     -0.070738
      1.56685      2.54668     12.48152        -0.184370      0.012919     -0.070738
      7.24666      2.54668     12.48152         0.184370      0.012919     -0.070738
      2.98469      5.00245     12.48152        -0.103374      0.153210     -0.070738
      5.82882      5.00245     12.48152         0.103374      0.153210     -0.070738
      8.81351      5.08848     12.49580        -0.000000     -0.000000     -0.119922
      4.40676      2.54424     12.17616        -0.000000     -0.000000      0.806575
      4.40676      2.54424     13.88934        -0.000000      0.000000      0.144211
      4.40676      2.54424     15.14568        -0.000000      0.000000     -0.041845
      4.40676      2.54424     16.10240        -0.000000     -0.000000      0.010428
    total drift:                                0.003854      0.002350      0.362628

  FREE ENERGIE OF THE ION-ELECTRON SYSTEM (eV)
  free  energy   TOTEN  =      -132.41800032 eV

  energy  without entropy=     -132.41800032  energy(sigma->0) =     -132.41800032

 stress matrix after NEB project (eV)
    -22.04005     -0.00000      0.00000
     -0.00000    -22.04005      0.00000
      0.00000      0.00000      2.78230
  FORCES: max atom, RMS     0.144211    0.024103
  FORCE total and by dimension    0.150521    0.144211
  Stress total and by dimension   31.293274   22.040053
|           W    W    AA    RRRRR   N    N  II  N    N   GGGG   !!!           |
|           W    W   A  A   R    R  NN   N  II  NN   N  G    G  !!!           |
|           W    W  A    A  R    R  N N  N  II  N N  N  G       !!!           |
|           W WW W  AAAAAA  RRRRR   N  N N  II  N  N N  G  GGG   !            |
|           WW  WW  A    A  R   R   N   NN  II  N   NN  G    G                |
|           W    W  A    A  R    R  N    N  II  N    N   GGGG   !!!           |
|     Tetrahedron method does not include variations of the Fermi             |
|     occupations, so forces and stress will be inaccurate. We suggest        |
|     using a different smearing scheme ISMEAR = 1 or 2 for metals in         |
|     relaxations.                                                            |

 total charge

# of ion       s       p       d       tot
    1        0.545   0.239   8.768   9.552
    2        0.545   0.242   8.764   9.551
    3        0.545   0.242   8.764   9.551
    4        0.545   0.242   8.764   9.551
    5        0.545   0.242   8.760   9.547
    6        0.545   0.242   8.764   9.551
    7        0.545   0.242   8.764   9.551
    8        0.545   0.242   8.764   9.551
    9        0.542   0.240   8.769   9.552
   10        0.522   0.309   8.771   9.602
   11        0.524   0.308   8.779   9.611
   12        0.522   0.309   8.771   9.602
   13        0.524   0.308   8.779   9.611
   14        0.524   0.308   8.779   9.611
   15        0.516   0.312   8.773   9.601
   16        0.522   0.309   8.771   9.602
   17        0.516   0.312   8.773   9.601
   18        0.516   0.312   8.773   9.601
   19        0.518   0.300   8.773   9.591
   20        0.553   0.333   8.749   9.636
   21        0.553   0.333   8.749   9.636
   22        0.510   0.312   8.775   9.597
   23        0.553   0.333   8.749   9.636
   24        0.510   0.312   8.775   9.597
   25        0.518   0.300   8.773   9.591
   26        0.518   0.300   8.773   9.591
   27        0.510   0.312   8.775   9.597
   28        0.541   0.224   8.765   9.529
   29        0.559   0.246   8.751   9.556
   30        0.559   0.246   8.751   9.556
   31        0.559   0.246   8.751   9.556
   32        0.559   0.246   8.751   9.556
   33        0.559   0.246   8.751   9.556
   34        0.559   0.246   8.751   9.556
   35        0.541   0.226   8.760   9.527
   36        0.437   0.603   4.446   5.487
   37        0.934   1.446   0.000   2.380
   38        1.523   3.771   0.000   5.294
   39        0.563   0.137   0.000   0.700
tot         22.225  15.678 311.222 349.125

 BZINTS: Fermi energy:    0.253026;  402.000000 electrons
         Band energy:-0.147392E+04;  BLOECHL correction:   -0.042306