 vasp.6.2.0 18Jan21 (build Jun 12 2021 23:27:24) complex

 executed on             LinuxIFC date 2022.05.28  02:18:54

 INCAR:
   ISMEAR = -5
   SIGMA = 0.1
   ISPIN = 1
   EDIFF = 1.d-5
   EDIFFG = -0.01
   NSW = 0
   NELM = 150
   ENCUT = 500
   ISIF = 2
   IBRION = 2
   LREAL = Auto
   ALGO = Fast
   ICHARG = 11
   LORBIT = 10
   LCHARG = .F.
   LWAVE = .F.

 POTCAR:    PAW_PBE Cu 22Jun2005
 POTCAR:    PAW_PBE Mn 06Sep2000
 POTCAR:    PAW_PBE C 08Apr2002
 POTCAR:    PAW_PBE O 08Apr2002
|           W    W    AA    RRRRR   N    N  II  N    N   GGGG   !!!           |
|           W    W   A  A   R    R  NN   N  II  NN   N  G    G  !!!           |
|           W    W  A    A  R    R  N N  N  II  N N  N  G       !!!           |
|           W WW W  AAAAAA  RRRRR   N  N N  II  N  N N  G  GGG   !            |
|           WW  WW  A    A  R   R   N   NN  II  N   NN  G    G                |
|           W    W  A    A  R    R  N    N  II  N    N   GGGG   !!!           |
|     For optimal performance we recommend to set                             |
|       NCORE = 2 up to number-of-cores-per-socket                            |
|     This setting can greatly improve the performance of VASP for DFT.       |
|     The default, NCORE=1 might be grossly inefficient on modern             |
|     multi-core architectures or massively parallel machines. Do your        |
|     Unfortunately you need to use the default for GW and RPA                |
|     calculations (for HF NCORE is supported but not extensively tested      |
|     yet).                                                                   |

 POTCAR:    PAW_PBE Cu 22Jun2005
   VRHFIN =Cu: d10 p1

   TITEL  = PAW_PBE Cu 22Jun2005
   POMASS =   63.546; ZVAL   =   11.000    mass and valenz
   ENMAX  =  295.446; ENMIN  =  221.585 eV

 POTCAR:    PAW_PBE Mn 06Sep2000
   VRHFIN =Mn: d6 s1

   TITEL  = PAW_PBE Mn 06Sep2000
   POMASS =   54.938; ZVAL   =    7.000    mass and valenz
   ENMAX  =  269.864; ENMIN  =  202.398 eV

 POTCAR:    PAW_PBE C 08Apr2002
   VRHFIN =C: s2p2

   TITEL  = PAW_PBE C 08Apr2002
   POMASS =   12.011; ZVAL   =    4.000    mass and valenz
   ENMAX  =  400.000; ENMIN  =  300.000 eV

 POTCAR:    PAW_PBE O 08Apr2002
   VRHFIN =O: s2p4

   TITEL  = PAW_PBE O 08Apr2002
   POMASS =   16.000; ZVAL   =    6.000    mass and valenz
   ENMAX  =  400.000; ENMIN  =  300.000 eV

 Optimization of the real space projectors (new method)

 maximal supplied QI-value         = 16.25
 optimisation between [QCUT,QGAM] = [ 11.38, 22.75] = [ 36.24,144.96] Ry
 Optimized for a Real-space Cutoff    1.52 Angstroem

   l    n(q)    QCUT    max X(q) W(low)/X(q) W(high)/X(q)  e(spline)
   2      9    11.376     4.610    0.21E-03    0.10E-03    0.26E-06
   2      9    11.376     8.522    0.33E-03    0.16E-03    0.37E-06
   0     10    11.376    51.609    0.62E-04    0.20E-04    0.13E-06
   0     10    11.376    27.747    0.54E-04    0.20E-04    0.13E-06
   1     10    11.376    20.408    0.13E-04    0.99E-04    0.19E-06
   1     10    11.376    13.425    0.12E-04    0.87E-04    0.17E-06
 Optimization of the real space projectors (new method)

[...]

   l    n(q)    QCUT    max X(q) W(low)/X(q) W(high)/X(q)  e(spline)
   0      7    11.310   115.676    0.43E-03    0.13E-02    0.19E-06
   0      7    11.310    87.132    0.43E-03    0.13E-02    0.18E-06
   1      6    11.310     4.429    0.42E-03    0.74E-03    0.11E-06
   1      6    11.310     2.733    0.34E-03    0.55E-03    0.92E-07
 Optimization of the real space projectors (new method)

 maximal supplied QI-value         = 24.76
 optimisation between [QCUT,QGAM] = [ 11.39, 22.77] = [ 36.31,145.25] Ry
 Optimized for a Real-space Cutoff    1.00 Angstroem

   l    n(q)    QCUT    max X(q) W(low)/X(q) W(high)/X(q)  e(spline)
   0      7    11.387    20.381    0.39E-03    0.13E-02    0.15E-06
   0      7    11.387    15.268    0.42E-03    0.14E-02    0.17E-06
   1      6    11.387     5.964    0.41E-03    0.11E-02    0.17E-06
   1      6    11.387     5.382    0.39E-03    0.87E-03    0.15E-06
  PAW_PBE Cu 22Jun2005                  :
  PAW_PBE Mn 06Sep2000                  :
  PAW_PBE C 08Apr2002                   :
  PAW_PBE O 08Apr2002                   :

 POSCAR: Cu-Mn-CO2
  positions in direct lattice
  velocities in cartesian coordinates
 exchange correlation table for  LEXCH =        8
   RHO(1)=    0.500       N(1)  =     2000
   RHO(2)=  100.500       N(2)  =     4000

 VTST: version 3.2, (02/03/18)

 CHAIN: initializing optimizer

 OPT: Using VASP Conjugate-Gradient optimizer
 CHAIN: Read ICHAIN            0

 POSCAR: Cu-Mn-CO2
  positions in direct lattice
  velocities in cartesian coordinates

 ion  position               nearest neighbor table
   1  0.000  0.000  0.229-   7 2.57   3 2.57   4 2.57   2 2.57   6 2.57   8 2.57  12 2.57  10 2.57
                            16 2.57
   2  0.333  0.000  0.229-   8 2.57   9 2.57   5 2.57   1 2.57   3 2.57  11 2.57   4 2.57  10 2.57
                            17 2.57
   3  0.667  0.000  0.229-   1 2.57   7 2.57   6 2.57   9 2.57   2 2.57  12 2.57   5 2.57  18 2.57
                            11 2.57
   4  0.000  0.333  0.229-   5 2.57   6 2.57   1 2.57   7 2.57   2 2.57  13 2.57   9 2.57  10 2.57
                            15 2.57
   5  0.333  0.333  0.229-   4 2.57   2 2.57   7 2.57  13 2.57   8 2.57   6 2.57   3 2.57  11 2.57
                            14 2.57
   6  0.667  0.333  0.229-   4 2.57   9 2.57  15 2.57   3 2.57   1 2.57   8 2.57  14 2.57   5 2.57
                            12 2.57
   7  0.000  0.667  0.229-   1 2.57   3 2.57  16 2.57  18 2.57   4 2.57   5 2.57   8 2.57   9 2.57
                            13 2.57
   8  0.333  0.667  0.229-   9 2.57   2 2.57  17 2.57   6 2.57   1 2.57   7 2.57   5 2.57  14 2.57
                            16 2.57
   9  0.667  0.667  0.229-   8 2.57   6 2.57   2 2.57  17 2.57   3 2.57   7 2.57   4 2.57  15 2.57
                            18 2.57
  10  0.111  0.111  0.318-  20 2.55  26 2.56  19 2.56  11 2.57  12 2.57  13 2.57   1 2.57   2 2.57
                             4 2.57  15 2.57  16 2.57  17 2.57
  11  0.444  0.111  0.318-  20 2.55  21 2.55  27 2.56  10 2.57  13 2.57   2 2.57  17 2.57  14 2.57
                            12 2.57   5 2.57   3 2.57  18 2.57
  12  0.778  0.111  0.318-  21 2.55  19 2.56  25 2.56  15 2.57  10 2.57  14 2.57  18 2.57   3 2.57
                             1 2.57  16 2.57  11 2.57   6 2.57
  13  0.111  0.444  0.318-  23 2.55  20 2.55  22 2.56  16 2.57  18 2.57  10 2.57  11 2.57  14 2.57
                             5 2.57   4 2.57   7 2.57  15 2.57
  14  0.444  0.444  0.318-  21 2.55  23 2.55  24 2.56  15 2.57  17 2.57  12 2.57  16 2.57  13 2.57
                            11 2.57   6 2.57   8 2.57   5 2.57
  15  0.778  0.444  0.318-  19 2.56  24 2.56  22 2.56  14 2.57  17 2.57  12 2.57   6 2.57  18 2.57
                            10 2.57   9 2.57  13 2.57   4 2.57
  16  0.111  0.778  0.318-  23 2.55  25 2.56  26 2.56  18 2.57  13 2.57   7 2.57  14 2.57  17 2.57
                            12 2.57  10 2.57   8 2.57   1 2.57
  17  0.444  0.778  0.318-  26 2.56  27 2.56  24 2.56  14 2.57  15 2.57   8 2.57   9 2.57  11 2.57
                            16 2.57  18 2.57  10 2.57   2 2.57
  18  0.778  0.778  0.318-  25 2.56  22 2.56  27 2.56  16 2.57  13 2.57   7 2.57  15 2.57  12 2.57
                            17 2.57   9 2.57   3 2.57  11 2.57
  19  0.889  0.222  0.407-  28 2.55  15 2.56  12 2.56  10 2.56  22 2.56  24 2.56  21 2.57  20 2.57
                            25 2.57  26 2.57  32 2.57  31 2.57
  20  0.222  0.222  0.407-  36 2.48  11 2.55  13 2.55  10 2.55  29 2.56  31 2.56  23 2.56  21 2.56
                            26 2.57  19 2.57  27 2.57  22 2.57
  21  0.555  0.222  0.407-  36 2.48  14 2.55  11 2.55  12 2.55  32 2.56  30 2.56  20 2.56  23 2.56
                            19 2.57  25 2.57  24 2.57  27 2.57
  22  0.888  0.556  0.407-  35 2.55  24 2.56  27 2.56  31 2.56  33 2.56  18 2.56  15 2.56  13 2.56
                            19 2.56  25 2.56  23 2.57  20 2.57
  23  0.222  0.555  0.407-  36 2.48  13 2.55  14 2.55  16 2.55  33 2.56  34 2.56  20 2.56  21 2.56
                            25 2.57  26 2.57  22 2.57  24 2.57
  24  0.556  0.556  0.407-  35 2.55  22 2.56  27 2.56  32 2.56  34 2.56  15 2.56  17 2.56  14 2.56
                            19 2.56  26 2.56  21 2.57  23 2.57
  25  0.889  0.889  0.407-  28 2.55  18 2.56  16 2.56  12 2.56  22 2.56  27 2.56  21 2.57  23 2.57
                            19 2.57  26 2.57  33 2.57  30 2.57
  26  0.222  0.889  0.407-  28 2.55  17 2.56  10 2.56  16 2.56  27 2.56  24 2.56  20 2.57  23 2.57
                            25 2.57  19 2.57  29 2.57  34 2.57
  27  0.556  0.888  0.407-  35 2.55  24 2.56  22 2.56  29 2.56  30 2.56  17 2.56  18 2.56  11 2.56
                            26 2.56  25 2.56  20 2.57  21 2.57
  28  0.000  0.000  0.496-  25 2.55  19 2.55  26 2.55  33 2.58  30 2.58  31 2.58  29 2.58  32 2.58
                            34 2.58
  29  0.333  0.003  0.496-  31 2.54  36 2.55  30 2.55  20 2.56  27 2.56  26 2.57  28 2.58  35 2.58
                            34 2.61
  30  0.664  0.003  0.496-  32 2.54  36 2.55  29 2.55  21 2.56  27 2.56  25 2.57  28 2.58  35 2.58
                            33 2.61
  31  0.003  0.333  0.496-  29 2.54  36 2.55  33 2.55  20 2.56  22 2.56  19 2.57  28 2.58  35 2.58
                            32 2.61
  32  0.664  0.333  0.496-  30 2.54  36 2.55  34 2.55  21 2.56  24 2.56  19 2.57  28 2.58  35 2.58
                            31 2.61
  33  0.003  0.664  0.496-  34 2.54  36 2.55  31 2.55  23 2.56  22 2.56  25 2.57  28 2.58  35 2.58
                            30 2.61
  34  0.333  0.664  0.496-  33 2.54  36 2.55  32 2.55  23 2.56  24 2.56  26 2.57  28 2.58  35 2.58
                            29 2.61
  35  0.667  0.667  0.496-  24 2.55  27 2.55  22 2.55  34 2.58  32 2.58  29 2.58  30 2.58  33 2.58
                            31 2.58
  36  0.333  0.333  0.491-  37 1.96  23 2.48  20 2.48  21 2.48  31 2.55  29 2.55  33 2.55  34 2.55
                            32 2.55  30 2.55
  37  0.331  0.338  0.575-  38 1.24  39 1.24  36 1.96
  38  0.181  0.333  0.593-  37 1.24
  39  0.486  0.333  0.593-  37 1.24

  LATTYP: Found a hexagonal cell.
 ALAT       =     7.6967864036
 C/A-ratio  =     3.0484540560

  Lattice vectors:

 A1 = (  -3.8483927580,  -6.6656128093,   0.0000000000)
 A2 = (   7.6967864037,   0.0000000000,   0.0000000000)
 A3 = (   0.0000000000,   0.0000000000,  23.4632997305)

Analysis of symmetry for initial positions (statically):
 Subroutine PRICEL returns:
 Original cell was already a primitive cell.

 Routine SETGRP: Setting up the symmetry group for a
 hexagonal supercell.

 Subroutine GETGRP returns: Found  2 space group operations
 (whereof  2 operations were pure point group operations)
 out of a pool of 24 trial point group operations.

The static configuration has the point symmetry C_1h.

Analysis of symmetry for dynamics (positions and initial velocities):
 Subroutine PRICEL returns:
 Original cell was already a primitive cell.

[...]

The dynamic configuration has the point symmetry C_1h.

Analysis of constrained symmetry for selective dynamics:
[...]
     41      -4.4281      2.00000
     42      -4.4080      2.00000
     43      -4.3021      2.00000
     44      -4.2975      2.00000
     45      -4.2213      2.00000
     46      -4.2156      2.00000
     47      -4.2038      2.00000
     48      -4.1794      2.00000
     49      -4.1734      2.00000
     50      -4.1684      2.00000
     51      -4.1506      2.00000
     52      -4.0337      2.00000
     53      -3.9654      2.00000
     54      -3.9506      2.00000
     55      -3.9426      2.00000
     56      -3.9384      2.00000
     57      -3.8851      2.00000
     58      -3.8820      2.00000
     59      -3.8690      2.00000
     60      -3.8565      2.00000
[...]
    238       5.2029      0.00000
    239       5.3421      0.00000
    240       5.4097      0.00000
    241       5.5325      0.00000
    242       5.6438      0.00000
    243       5.7298      0.00000
    244       5.8714      0.00000
    245       5.9261      0.00000
    246       5.9488      0.00000
    247       6.2942      0.00000
    248       6.3850      0.00000
    249       6.4741      0.00000
    250       6.5132      0.00000
    251       6.6873      0.00000
    252       6.7660      0.00000

 soft charge-density along one line, spin component           1
         0         1         2         3         4         5         6         7         8         9
 total charge-density along one line

------------------------ aborting loop because EDIFF is reached ----------------------------------------

 total charge

# of ion       s       p       d       tot
    1        0.449   0.284   9.190   9.923
    2        0.448   0.285   9.187   9.921
    3        0.448   0.285   9.187   9.921
    4        0.448   0.285   9.189   9.922
    5        0.450   0.285   9.187   9.922
    6        0.448   0.285   9.189   9.922
    7        0.449   0.286   9.187   9.922
    8        0.449   0.286   9.187   9.922
    9        0.448   0.285   9.188   9.921
   10        0.443   0.373   9.178   9.993
   11        0.443   0.369   9.184   9.995
   12        0.443   0.373   9.178   9.993
   13        0.442   0.369   9.183   9.994
   14        0.442   0.369   9.183   9.994
   15        0.439   0.371   9.180   9.990
   16        0.443   0.372   9.179   9.993
   17        0.440   0.369   9.182   9.992
   18        0.440   0.369   9.182   9.992
   19        0.437   0.369   9.185   9.991
   20        0.457   0.394   9.165  10.016
   21        0.457   0.394   9.165  10.016
   22        0.433   0.375   9.181   9.989
   23        0.457   0.391   9.167  10.015
   24        0.433   0.375   9.181   9.989
   25        0.440   0.367   9.184   9.992
   26        0.440   0.367   9.184   9.992
   27        0.434   0.373   9.183   9.991
   28        0.449   0.281   9.189   9.920
   29        0.458   0.293   9.182   9.933
   30        0.458   0.293   9.182   9.933
   31        0.440   0.296   9.183   9.918
   32        0.440   0.296   9.183   9.918
   33        0.458   0.294   9.181   9.933
   34        0.458   0.294   9.181   9.933
   35        0.443   0.285   9.190   9.918
   36        0.364   0.313   5.117   5.794
   37        0.889   1.697   0.000   2.586
   38        1.600   3.465   0.000   5.064
   39        1.600   3.465   0.000   5.064
tot         20.055  20.579 326.505 367.140

  FORCE on cell =-STRESS in cart. coord.  units (eV):
  Direction    XX          YY          ZZ          XY          YZ          ZX
  Alpha Z   838.08613   838.08613   838.08613
  Ewald  216734.64048216054.14592************     0.00042    -5.02614     0.00017
  Hartree229529.53657229197.31269************     0.00005    -3.42948     0.00006
  E(xc)   -2352.54353 -2354.73871 -2358.50596    -0.00027    -0.09745    -0.00004
  Local  ************************458567.09071     0.02021     8.47585    -0.00073
  n-local  -830.24053  -826.47535  -841.60189     1.77905     0.51502     0.11816
  augment  3346.35588  3350.29039  3367.86775    -0.01832     0.02580     0.00028
  Kinetic  3490.81767  3540.08698  3556.38817     1.45235    -0.30760    -0.08894
  Fock        0.00000     0.00000     0.00000     0.00000     0.00000     0.00000
  Total      -3.18556    -3.72613     3.60840     0.00000     0.15600    -0.00000
  in kB      -4.23991    -4.95941     4.80272     0.00000     0.20763    -0.00000

 VOLUME and BASIS-vectors are now :
  energy-cutoff  :      500.00
  volume of cell :     1203.76
      direct lattice vectors                 reciprocal lattice vectors
     7.696786404  0.000000000  0.000000000     0.129924354 -0.075011849  0.000000000
     3.848392758  6.665612809  0.000000000     0.000000000  0.150023716  0.000000000
     0.000000000  0.000000000 23.463299730     0.000000000  0.000000000  0.042619751

  length of vectors
     7.696786404  7.696786404 23.463299730     0.150023716  0.150023716  0.042619751

 FORCES acting on ions
    electron-ion (+dipol)            ewald-force                    non-local-force                 convergence-correction
   -.418E-04 0.576E-01 0.375E+04   0.579E-04 -.532E-01 -.375E+04   0.311E-08 -.467E-01 -.233E+01   -.251E-03 0.281E-01 -.350E+00
   0.199E-02 0.844E-01 0.375E+04   0.107E-01 -.116E+00 -.375E+04   -.277E-01 0.142E-01 -.196E+01   0.146E-01 0.100E-01 -.293E+00
   -.197E-02 0.844E-01 0.375E+04   -.108E-01 -.116E+00 -.375E+04   0.277E-01 0.142E-01 -.196E+01   -.139E-01 0.124E-01 -.292E+00
   -.120E+00 0.191E-01 0.375E+04   -.492E-01 0.374E-01 -.375E+04   0.138E+00 -.164E-01 -.211E+01   0.304E-01 -.311E-01 -.274E+00
   -.634E-04 -.114E-01 0.375E+04   0.116E-03 -.293E-02 -.375E+04   -.295E-08 0.443E-01 -.174E+01   0.120E-01 -.349E-01 -.130E+00
   0.120E+00 0.191E-01 0.375E+04   0.491E-01 0.372E-01 -.375E+04   -.138E+00 -.164E-01 -.211E+01   -.318E-01 -.299E-01 -.273E+00
   0.198E-01 -.345E-01 0.375E+04   -.590E-01 0.783E-01 -.375E+04   0.636E-01 -.375E-01 -.182E+01   -.244E-01 0.226E-02 -.192E+00
   -.197E-01 -.345E-01 0.375E+04   0.587E-01 0.783E-01 -.375E+04   -.636E-01 -.375E-01 -.182E+01   0.278E-01 0.947E-03 -.192E+00
   -.144E-03 -.227E+00 0.375E+04   0.263E-03 0.561E-01 -.375E+04   -.750E-08 0.113E+00 -.208E+01   -.131E-01 0.575E-01 -.231E+00
   0.815E+00 0.907E+00 0.133E+04   -.597E+00 -.791E+00 -.133E+04   -.344E+00 -.204E+00 -.995E+00   0.116E+00 0.883E-01 0.111E+01
   -.907E-04 0.130E+01 0.133E+04   0.189E-03 -.147E+01 -.133E+04   -.728E-09 0.109E-01 -.820E+00   0.113E-01 0.155E+00 0.126E+01
   -.815E+00 0.907E+00 0.133E+04   0.597E+00 -.791E+00 -.133E+04   0.344E+00 -.204E+00 -.995E+00   -.117E+00 0.888E-01 0.111E+01
   0.656E+00 -.688E+00 0.133E+04   -.871E+00 0.788E+00 -.133E+04   0.928E-01 -.142E-01 -.594E+00   0.112E+00 -.783E-01 0.135E+01
   -.656E+00 -.688E+00 0.133E+04   0.871E+00 0.788E+00 -.133E+04   -.928E-01 -.142E-01 -.594E+00   -.895E-01 -.796E-01 0.135E+01
   -.140E-03 -.539E+00 0.133E+04   0.299E-03 0.317E+00 -.133E+04   -.975E-08 0.146E+00 -.106E+01   -.272E-02 0.660E-01 0.108E+01
   -.869E-04 -.970E+00 0.133E+04   0.186E-03 0.851E+00 -.133E+04   -.169E-07 0.254E+00 -.800E+00   -.104E-02 -.137E+00 0.109E+01
   -.314E+00 -.126E+00 0.133E+04   0.419E-01 0.154E+00 -.133E+04   0.163E+00 0.664E-02 -.733E+00   0.926E-01 -.392E-01 0.103E+01
   0.314E+00 -.126E+00 0.133E+04   -.421E-01 0.154E+00 -.133E+04   -.163E+00 0.664E-02 -.733E+00   -.913E-01 -.374E-01 0.103E+01
   -.630E-04 0.745E+00 -.110E+04   0.680E-04 -.116E+01 0.110E+04   -.130E-07 0.195E+00 0.118E+01   0.129E-01 0.204E+00 0.173E+01
   -.142E+02 -.567E+01 -.110E+04   0.139E+02 0.547E+01 0.110E+04   -.733E+00 -.535E+00 -.772E+00   0.971E+00 0.665E+00 0.285E+01
   0.142E+02 -.567E+01 -.110E+04   -.139E+02 0.547E+01 0.110E+04   0.733E+00 -.535E+00 -.772E+00   -.994E+00 0.663E+00 0.284E+01
   -.664E+01 0.104E+01 -.110E+04   0.586E+01 -.318E+00 0.110E+04   0.387E+00 -.386E+00 0.716E+00   0.467E+00 -.372E+00 0.183E+01
   -.811E-04 0.131E+02 -.111E+04   0.144E-03 -.125E+02 0.110E+04   -.498E-07 0.748E+00 -.383E+00   -.143E-01 -.126E+01 0.274E+01
   0.664E+01 0.104E+01 -.110E+04   -.586E+01 -.318E+00 0.110E+04   -.387E+00 -.386E+00 0.716E+00   -.443E+00 -.370E+00 0.183E+01
   0.765E+00 0.154E+01 -.111E+04   -.721E+00 -.146E+01 0.110E+04   0.177E-01 -.476E-01 0.938E+00   -.506E-01 -.298E-01 0.166E+01
   -.764E+00 0.154E+01 -.111E+04   0.721E+00 -.146E+01 0.110E+04   -.177E-01 -.476E-01 0.938E+00   0.723E-01 -.271E-01 0.166E+01
   -.122E-03 -.719E+01 -.111E+04   0.242E-03 0.626E+01 0.110E+04   -.288E-07 0.432E+00 0.735E+00   0.925E-02 0.554E+00 0.179E+01
   -.310E-04 0.148E+02 -.352E+04   0.309E-04 -.147E+02 0.352E+04   0.186E-07 -.279E+00 0.234E+01   -.125E-02 0.109E+00 0.118E+01
   0.631E+01 0.371E+02 -.348E+04   -.623E+01 -.388E+02 0.348E+04   -.817E+00 -.929E-01 0.260E+01   0.736E+00 0.155E+01 0.120E+01
   -.631E+01 0.371E+02 -.348E+04   0.623E+01 -.388E+02 0.348E+04   0.817E+00 -.929E-01 0.260E+01   -.714E+00 0.155E+01 0.120E+01
   0.382E+02 0.531E+00 -.344E+04   -.408E+02 -.309E+00 0.344E+04   0.675E+00 -.202E+00 0.400E+01   0.175E+01 -.171E-01 0.118E+01
   -.382E+02 0.531E+00 -.344E+04   0.408E+02 -.309E+00 0.344E+04   -.675E+00 -.202E+00 0.400E+01   -.173E+01 -.158E-01 0.118E+01
   0.734E+01 -.383E+02 -.348E+04   -.747E+01 0.396E+02 0.348E+04   -.496E+00 0.271E+00 0.249E+01   0.628E+00 -.140E+01 0.105E+01
   -.734E+01 -.383E+02 -.348E+04   0.747E+01 0.396E+02 0.348E+04   0.496E+00 0.271E+00 0.249E+01   -.604E+00 -.140E+01 0.105E+01
   -.137E-03 -.153E+02 -.353E+04   0.259E-03 0.152E+02 0.352E+04   -.181E-07 0.272E+00 0.271E+01   -.141E-01 -.163E+00 0.118E+01
   -.491E-04 0.185E+01 -.201E+04   0.915E-04 -.145E+01 0.201E+04   0.137E-07 -.206E+00 0.187E+01   0.104E-02 -.106E+00 0.896E+00
   -.801E-06 -.111E+02 -.140E+04   0.108E-04 0.116E+02 0.139E+04   0.283E-07 -.426E+00 0.610E+01   0.438E-03 -.115E+00 -.873E+00
   0.214E+03 0.463E+01 -.226E+04   -.262E+03 -.589E+01 0.228E+04   0.471E+02 0.131E+01 -.204E+02   0.478E+00 -.603E-01 -.726E+00
   -.214E+03 0.463E+01 -.226E+04   0.262E+03 -.589E+01 0.228E+04   -.471E+02 0.131E+01 -.204E+02   -.479E+00 -.602E-01 -.727E+00
   0.212E-04 -.131E+01 -.352E+01   0.114E-12 -.225E-12 0.864E-11   -.921E-07 0.138E+01 -.315E+02   0.116E+00 -.666E-01 0.349E+02

 POSITION                                       TOTAL-FORCE (eV/Angst)
      0.00000      0.00000      5.37156         0.000000     -0.014639      0.041315
      2.56560      0.00000      5.37156        -0.000744     -0.005981      0.070147
      5.13119      0.00000      5.37156         0.000744     -0.005981      0.070147
      1.28280      2.22187      5.37156         0.000248      0.009257      0.060549
      3.84839      2.22187      5.37156         0.000000     -0.005210      0.029933
      6.41399      2.22187      5.37156        -0.000248      0.009257      0.060549
      2.56560      4.44374      5.37156        -0.001604      0.007681      0.068735
      5.13119      4.44374      5.37156         0.001604      0.007681      0.068735
      7.69679      4.44374      5.37156         0.000000     -0.000592      0.038992
      1.28280      0.74062      7.46636        -0.009186      0.000136     -0.057377
      3.84839      0.74062      7.46636         0.000000     -0.001263     -0.092047
      6.41399      0.74062      7.46636         0.009186      0.000136     -0.057377
      2.56560      2.96249      7.46636        -0.021682      0.006139     -0.082828
      5.13119      2.96249      7.46636         0.021682      0.006139     -0.082828
      7.69679      2.96249      7.46636         0.000000     -0.009971     -0.039492
      3.84839      5.18437      7.46636         0.000000     -0.002355     -0.049770
      6.41399      5.18437      7.46636        -0.017307     -0.003699     -0.015996
      8.97958      5.18437      7.46636         0.017307     -0.003699     -0.015996
      7.69679      1.48275      9.55327         0.000000     -0.010782      0.096505
      2.56715      1.48214      9.54261        -0.117082     -0.073254     -0.066283
      5.12964      1.48214      9.54261         0.117082     -0.073254     -0.066283
      8.97640      3.70496      9.55687         0.058769     -0.030276      0.035219
      3.84839      3.70133      9.54261        -0.000000      0.096991     -0.094134
      6.41717      3.70496      9.55687        -0.058769     -0.030276      0.035219
     10.26108      5.92424      9.55327         0.000031      0.005529      0.021912
      5.13249      5.92424      9.55327        -0.000031      0.005529      0.021912
      7.69679      5.92131      9.55687        -0.000000      0.048678     -0.004889
      0.00000      0.00000     11.63217         0.000000     -0.066860     -0.031881
      2.57513      0.01976     11.64308        -0.015474     -0.242882     -0.170433
      5.12165      0.01976     11.64308         0.015474     -0.242882     -0.170433
      1.30468      2.22025     11.64308        -0.178757      0.003176      0.056926
      6.39211      2.22025     11.64308         0.178757      0.003176      0.056926
      2.57794      4.42560     11.64308        -0.004330      0.212411     -0.123034
      5.11885      4.42560     11.64308         0.004330      0.212411     -0.123034
      7.69679      4.44374     11.63403        -0.000000      0.075463     -0.016089
      3.84839      2.22187     11.52902        -0.000000      0.080610      0.497951
      3.84839      2.25371     13.48685        -0.000000      0.057042      0.115890
      2.67769      2.21951     13.90762        -0.026706     -0.011792     -0.043677
      5.01910      2.21951     13.90762         0.026706     -0.011792     -0.043677
    total drift:                                0.116205      0.010861     -0.115484

  FREE ENERGIE OF THE ION-ELECTRON SYSTEM (eV)
  free  energy   TOTEN  =      -151.54821229 eV

  energy  without entropy=     -151.54821229  energy(sigma->0) =     -151.54821229

 stress matrix after NEB project (eV)
     -3.18556      0.00000     -0.00000
      0.00000     -3.72613      0.15600
     -0.00000      0.15600      3.60840
  FORCES: max atom, RMS     0.129167    0.023861
  FORCE total and by dimension    0.149010    0.115890
  Stress total and by dimension    6.091064    3.726132
|           W    W    AA    RRRRR   N    N  II  N    N   GGGG   !!!           |
|           W    W   A  A   R    R  NN   N  II  NN   N  G    G  !!!           |
|           W    W  A    A  R    R  N N  N  II  N N  N  G       !!!           |
|           W WW W  AAAAAA  RRRRR   N  N N  II  N  N N  G  GGG   !            |
|           WW  WW  A    A  R   R   N   NN  II  N   NN  G    G                |
|           W    W  A    A  R    R  N    N  II  N    N   GGGG   !!!           |
|     Tetrahedron method does not include variations of the Fermi             |
|     occupations, so forces and stress will be inaccurate. We suggest        |
|     using a different smearing scheme ISMEAR = 1 or 2 for metals in         |
|     relaxations.                                                            |

 total charge

# of ion       s       p       d       tot
    1        0.449   0.284   9.190   9.923
    2        0.448   0.285   9.187   9.921
    3        0.448   0.285   9.187   9.921
    4        0.448   0.285   9.189   9.922
    5        0.450   0.285   9.187   9.922
    6        0.448   0.285   9.189   9.922
    7        0.449   0.286   9.187   9.922
    8        0.449   0.286   9.187   9.922
    9        0.448   0.285   9.188   9.921
   10        0.443   0.373   9.178   9.993
   11        0.443   0.369   9.184   9.995
   12        0.443   0.373   9.178   9.993
   13        0.442   0.369   9.183   9.994
   14        0.442   0.369   9.183   9.994
   15        0.439   0.371   9.180   9.990
   16        0.443   0.372   9.179   9.993
   17        0.440   0.369   9.182   9.992
   18        0.440   0.369   9.182   9.992
   19        0.437   0.369   9.185   9.991
   20        0.457   0.394   9.165  10.016
   21        0.457   0.394   9.165  10.016
   22        0.433   0.375   9.181   9.989
   23        0.457   0.391   9.167  10.015
   24        0.433   0.375   9.181   9.989
   25        0.440   0.367   9.184   9.992
   26        0.440   0.367   9.184   9.992
   27        0.434   0.373   9.183   9.991
   28        0.449   0.281   9.189   9.920
   29        0.458   0.293   9.182   9.933
   30        0.458   0.293   9.182   9.933
   31        0.440   0.296   9.183   9.918
   32        0.440   0.296   9.183   9.918
   33        0.458   0.294   9.181   9.933
   34        0.458   0.294   9.181   9.933
   35        0.443   0.285   9.190   9.918
   36        0.364   0.313   5.117   5.794
   37        0.889   1.697   0.000   2.586
   38        1.600   3.465   0.000   5.064
   39        1.600   3.465   0.000   5.064
tot         20.055  20.579 326.505 367.140

 BZINTS: Fermi energy:   -0.499299;  408.000000 electrons
         Band energy:-0.145650E+04;  BLOECHL correction:   -0.033265