 vasp.6.2.0 18Jan21 (build Jun 12 2021 23:27:24) complex

 executed on             LinuxIFC date 2022.05.27  06:06:58

 INCAR:
   ISMEAR = -5
   SIGMA = 0.1
   ISPIN = 1
   EDIFF = 1.d-5
   EDIFFG = -0.01
   NSW = 0
   NELM = 150
   ENCUT = 500
   ISIF = 2
   IBRION = 2
   LREAL = Auto
   ALGO = Fast
   ICHARG = 11
   LORBIT = 10
   LCHARG = .F.
   LWAVE = .F.

 POTCAR:    PAW_PBE Cu 22Jun2005
 POTCAR:    PAW_PBE Zr_sv 04Jan2005
 POTCAR:    PAW_PBE H 15Jun2001
|           W    W    AA    RRRRR   N    N  II  N    N   GGGG   !!!           |
|           W    W   A  A   R    R  NN   N  II  NN   N  G    G  !!!           |
|           W    W  A    A  R    R  N N  N  II  N N  N  G       !!!           |
|           W WW W  AAAAAA  RRRRR   N  N N  II  N  N N  G  GGG   !            |
|           WW  WW  A    A  R   R   N   NN  II  N   NN  G    G                |
|           W    W  A    A  R    R  N    N  II  N    N   GGGG   !!!           |
|     For optimal performance we recommend to set                             |
|       NCORE = 2 up to number-of-cores-per-socket                            |
|     This setting can greatly improve the performance of VASP for DFT.       |
|     The default, NCORE=1 might be grossly inefficient on modern             |
|     multi-core architectures or massively parallel machines. Do your        |
|     Unfortunately you need to use the default for GW and RPA                |
|     calculations (for HF NCORE is supported but not extensively tested      |
|     yet).                                                                   |

 POTCAR:    PAW_PBE Cu 22Jun2005
   VRHFIN =Cu: d10 p1

   TITEL  = PAW_PBE Cu 22Jun2005
   POMASS =   63.546; ZVAL   =   11.000    mass and valenz
   ENMAX  =  295.446; ENMIN  =  221.585 eV

 POTCAR:    PAW_PBE Zr_sv 04Jan2005
   VRHFIN =Zr: 4s4p5s4d

   TITEL  = PAW_PBE Zr_sv 04Jan2005
   POMASS =   91.224; ZVAL   =   12.000    mass and valenz
   ENMAX  =  229.898; ENMIN  =  172.424 eV

 POTCAR:    PAW_PBE H 15Jun2001
   VRHFIN =H: ultrasoft test

   TITEL  = PAW_PBE H 15Jun2001
   POMASS =    1.000; ZVAL   =    1.000    mass and valenz
   ENMAX  =  250.000; ENMIN  =  200.000 eV

 Optimization of the real space projectors (new method)

 maximal supplied QI-value         = 16.25
 optimisation between [QCUT,QGAM] = [ 11.38, 22.75] = [ 36.24,144.96] Ry
 Optimized for a Real-space Cutoff    1.52 Angstroem

   l    n(q)    QCUT    max X(q) W(low)/X(q) W(high)/X(q)  e(spline)
   2      9    11.376     4.610    0.21E-03    0.10E-03    0.26E-06
   2      9    11.376     8.522    0.33E-03    0.16E-03    0.37E-06
   0     10    11.376    51.609    0.62E-04    0.20E-04    0.13E-06
   0     10    11.376    27.747    0.54E-04    0.20E-04    0.13E-06
   1     10    11.376    20.408    0.13E-04    0.99E-04    0.19E-06
   1     10    11.376    13.425    0.12E-04    0.87E-04    0.17E-06
 Optimization of the real space projectors (new method)

[...]

   l    n(q)    QCUT    max X(q) W(low)/X(q) W(high)/X(q)  e(spline)
   0     10    11.338    12.107    0.38E-04    0.13E-04    0.27E-07
   0     10    11.338     9.948    0.69E-04    0.30E-04    0.38E-07
   1     10    11.338     3.563    0.26E-04    0.18E-04    0.40E-07
   1     10    11.338     4.524    0.25E-03    0.39E-04    0.44E-06
   2      9    11.338    87.261    0.26E-03    0.91E-05    0.26E-06
   2      9    11.338    70.950    0.25E-03    0.91E-05    0.25E-06
 Optimization of the real space projectors (new method)

 maximal supplied QI-value         = 34.20
 optimisation between [QCUT,QGAM] = [ 11.29, 22.57] = [ 35.68,142.71] Ry
 Optimized for a Real-space Cutoff    1.16 Angstroem

   l    n(q)    QCUT    max X(q) W(low)/X(q) W(high)/X(q)  e(spline)
   0      8    11.287    19.460    0.40E-03    0.73E-03    0.16E-06
   0      8    11.287    12.209    0.38E-03    0.70E-03    0.15E-06
   1      7    11.287     4.655    0.22E-03    0.25E-04    0.22E-06
  PAW_PBE Cu 22Jun2005                  :
  PAW_PBE Zr_sv 04Jan2005               :
  PAW_PBE H 15Jun2001                   :

 POSCAR: Cu-Zr-H2
  positions in direct lattice
  velocities in cartesian coordinates
 exchange correlation table for  LEXCH =        8
   RHO(1)=    0.500       N(1)  =     2000
   RHO(2)=  100.500       N(2)  =     4000

 VTST: version 3.2, (02/03/18)

 CHAIN: initializing optimizer

 OPT: Using VASP Conjugate-Gradient optimizer
 CHAIN: Read ICHAIN            0

 POSCAR: Cu-Zr-H2
  positions in direct lattice
  velocities in cartesian coordinates

 ion  position               nearest neighbor table
   1  0.000  0.000  0.252-   7 2.57   3 2.57   4 2.57   2 2.57   6 2.57   8 2.57  12 2.57  10 2.57
                            16 2.57
   2  0.333  0.000  0.252-   8 2.57   9 2.57   5 2.57   1 2.57   3 2.57  11 2.57   4 2.57  10 2.57
                            17 2.57
   3  0.667  0.000  0.252-   1 2.57   7 2.57   6 2.57   9 2.57   2 2.57  12 2.57   5 2.57  18 2.57
                            11 2.57
   4  0.000  0.333  0.252-   5 2.57   6 2.57   1 2.57   7 2.57   2 2.57  13 2.57   9 2.57  10 2.57
                            15 2.57
   5  0.333  0.333  0.252-   4 2.57   2 2.57   7 2.57  13 2.57   8 2.57   6 2.57   3 2.57  11 2.57
                            14 2.57
   6  0.667  0.333  0.252-   4 2.57   9 2.57  15 2.57   3 2.57   1 2.57   8 2.57  14 2.57   5 2.57
                            12 2.57
   7  0.000  0.667  0.252-   1 2.57   3 2.57  16 2.57  18 2.57   4 2.57   5 2.57   8 2.57   9 2.57
                            13 2.57
   8  0.333  0.667  0.252-   9 2.57   2 2.57  17 2.57   6 2.57   1 2.57   7 2.57   5 2.57  14 2.57
                            16 2.57
   9  0.667  0.667  0.252-   8 2.57   6 2.57   2 2.57  17 2.57   3 2.57   7 2.57   4 2.57  15 2.57
                            18 2.57
  10  0.111  0.111  0.351-  26 2.54  19 2.54  11 2.57  12 2.57  13 2.57   1 2.57   2 2.57   4 2.57
                            15 2.57  16 2.57  17 2.57  20 2.59
  11  0.444  0.111  0.351-  27 2.56  10 2.57  13 2.57   2 2.57  17 2.57  14 2.57  12 2.57   5 2.57
                             3 2.57  18 2.57  20 2.58  21 2.58
  12  0.778  0.111  0.351-  19 2.54  25 2.54  15 2.57  10 2.57  14 2.57  18 2.57   3 2.57   1 2.57
                            16 2.57  11 2.57   6 2.57  21 2.59
  13  0.111  0.444  0.351-  22 2.56  16 2.57  18 2.57  10 2.57  11 2.57  14 2.57   5 2.57   4 2.57
                             7 2.57  15 2.57  23 2.58  20 2.58
  14  0.444  0.444  0.351-  24 2.56  15 2.57  17 2.57  12 2.57  16 2.57  13 2.57  11 2.57   6 2.57
                             8 2.57   5 2.57  21 2.58  23 2.58
  15  0.778  0.444  0.351-  19 2.54  24 2.56  22 2.56  14 2.57  17 2.57  12 2.57   6 2.57  18 2.57
                            10 2.57   9 2.57  13 2.57   4 2.57
  16  0.111  0.778  0.351-  25 2.54  26 2.54  18 2.57  13 2.57   7 2.57  14 2.57  17 2.57  12 2.57
                            10 2.57   8 2.57   1 2.57  23 2.59
  17  0.444  0.778  0.351-  26 2.54  27 2.56  24 2.56  14 2.57  15 2.57   8 2.57   9 2.57  11 2.57
                            16 2.57  18 2.57  10 2.57   2 2.57
  18  0.778  0.778  0.351-  25 2.54  22 2.56  27 2.56  16 2.57  13 2.57   7 2.57  15 2.57  12 2.57
                            17 2.57   9 2.57   3 2.57  11 2.57
  19  0.889  0.221  0.448-  12 2.54  10 2.54  15 2.54  25 2.55  26 2.55  32 2.56  31 2.56  22 2.57
                            24 2.57  28 2.57  21 2.58  20 2.58
  20  0.223  0.223  0.450-  23 2.55  21 2.55  29 2.57  31 2.57  27 2.57  22 2.57  26 2.58  19 2.58
                            11 2.58  13 2.58  10 2.59  36 2.86
  21  0.554  0.223  0.450-  20 2.55  23 2.55  32 2.57  30 2.57  24 2.57  27 2.57  19 2.58  25 2.58
                            14 2.58  11 2.58  12 2.59  36 2.86
  22  0.889  0.556  0.449-  18 2.56  15 2.56  13 2.56  31 2.56  33 2.56  24 2.57  27 2.57  23 2.57
                            20 2.57  19 2.57  25 2.57  35 2.58
  23  0.223  0.554  0.450-  20 2.55  21 2.55  33 2.57  34 2.57  22 2.57  24 2.57  25 2.58  26 2.58
                            13 2.58  14 2.58  16 2.59  36 2.86
  24  0.556  0.556  0.449-  15 2.56  17 2.56  14 2.56  32 2.56  34 2.56  22 2.57  27 2.57  21 2.57
                            23 2.57  19 2.57  26 2.57  35 2.58
  25  0.889  0.889  0.448-  12 2.54  16 2.54  18 2.54  19 2.55  26 2.55  33 2.56  30 2.56  22 2.57
                            27 2.57  28 2.57  21 2.58  23 2.58
  26  0.221  0.889  0.448-  10 2.54  16 2.54  17 2.54  25 2.55  19 2.55  29 2.56  34 2.56  27 2.57
                            24 2.57  28 2.57  20 2.58  23 2.58
  27  0.556  0.889  0.449-  17 2.56  18 2.56  11 2.56  29 2.56  30 2.56  24 2.57  22 2.57  20 2.57
                            21 2.57  26 2.57  25 2.57  35 2.58
  28  0.000  0.000  0.547-  33 2.55  30 2.55  31 2.55  29 2.55  32 2.55  34 2.55  25 2.57  19 2.57
                            26 2.57
  29  0.334  0.994  0.547-  34 2.47  35 2.54  28 2.55  27 2.56  26 2.56  20 2.57  30 2.60  31 2.62
                            36 2.64
  30  0.672  0.994  0.547-  33 2.47  35 2.54  28 2.55  27 2.56  25 2.56  21 2.57  29 2.60  32 2.62
                            36 2.64
  31  0.994  0.334  0.547-  32 2.47  35 2.54  28 2.55  22 2.56  19 2.56  20 2.57  33 2.60  29 2.62
                            36 2.64
  32  0.672  0.334  0.547-  31 2.47  35 2.54  28 2.55  24 2.56  19 2.56  21 2.57  34 2.60  30 2.62
                            36 2.64
  33  0.994  0.672  0.547-  30 2.47  35 2.54  28 2.55  22 2.56  25 2.56  23 2.57  31 2.60  34 2.62
                            36 2.64
  34  0.334  0.672  0.547-  29 2.47  35 2.54  28 2.55  24 2.56  26 2.56  23 2.57  32 2.60  33 2.62
                            36 2.64
  35  0.667  0.667  0.548-  34 2.54  32 2.54  29 2.54  30 2.54  33 2.54  31 2.54  24 2.58  27 2.58
                            22 2.58
  36  0.333  0.333  0.565-  38 2.32  37 2.32  31 2.64  29 2.64  33 2.64  32 2.64  34 2.64  30 2.64
                            23 2.86  20 2.86  21 2.86
  37  0.282  0.336  0.673-  38 0.77  36 2.32
  38  0.382  0.336  0.673-  37 0.77  36 2.32

  LATTYP: Found a hexagonal cell.
 ALAT       =     7.6967864036
 C/A-ratio  =     2.7653617908

  Lattice vectors:

 A1 = (  -3.8483927580,  -6.6656128093,   0.0000000000)
 A2 = (   7.6967864037,   0.0000000000,   0.0000000000)
 A3 = (   0.0000000000,   0.0000000000,  21.2843990326)

Analysis of symmetry for initial positions (statically):
 Subroutine PRICEL returns:
 Original cell was already a primitive cell.

 Routine SETGRP: Setting up the symmetry group for a
 hexagonal supercell.

 Subroutine GETGRP returns: Found  2 space group operations
 (whereof  2 operations were pure point group operations)
 out of a pool of 24 trial point group operations.

The static configuration has the point symmetry C_1h.

Analysis of symmetry for dynamics (positions and initial velocities):
 Subroutine PRICEL returns:
 Original cell was already a primitive cell.

[...]

The dynamic configuration has the point symmetry C_1h.

Analysis of constrained symmetry for selective dynamics:
 Subroutine PRICEL returns:
 Original cell was already a primitive cell.

 Routine SETGRP: Setting up the symmetry group for a
 hexagonal supercell.

 Subroutine GETGRP returns: Found  2 space group operations
[...]
     33      -3.6889      2.00000
     34      -3.6679      2.00000
     35      -3.6665      2.00000
     36      -3.6573      2.00000
     37      -3.6544      2.00000
     38      -3.6145      2.00000
     39      -3.5608      2.00000
     40      -3.5297      2.00000
     41      -3.5022      2.00000
     42      -3.3611      2.00000
     43      -3.3425      2.00000
     44      -3.3086      2.00000
     45      -3.2871      2.00000
     46      -3.2651      2.00000
     47      -3.2586      2.00000
     48      -3.2508      2.00000
     49      -3.2407      2.00000
     50      -3.2212      2.00000
     51      -3.0937      2.00000
     52      -3.0734      2.00000
     53      -3.0519      2.00000
     54      -3.0330      2.00000
     55      -2.9794      2.00000
     56      -2.9667      2.00000
     57      -2.9532      2.00000
     58      -2.9390      2.00000
     59      -2.9285      2.00000
     60      -2.9270      2.00000
[...]
    238       6.4292      0.00000
    239       6.4828      0.00000
    240       6.6271      0.00000
    241       6.8137      0.00000
    242       6.8928      0.00000
    243       7.0483      0.00000
    244       7.0867      0.00000
    245       7.0982      0.00000
    246       7.1429      0.00000
    247       7.2886      0.00000
    248       7.5093      0.00000
    249       7.5365      0.00000
    250       7.7182      0.00000
    251       7.7957      0.00000
    252       7.9675      0.00000

 soft charge-density along one line, spin component           1
         0         1         2         3         4         5         6         7         8         9
 total charge-density along one line

------------------------ aborting loop because EDIFF is reached ----------------------------------------

 total charge

# of ion       s       p       d       tot
    1        0.449   0.283   9.188   9.920
    2        0.448   0.286   9.185   9.919
    3        0.448   0.286   9.185   9.919
    4        0.447   0.286   9.186   9.919
    5        0.448   0.287   9.181   9.916
    6        0.447   0.286   9.186   9.919
    7        0.448   0.286   9.186   9.919
    8        0.448   0.286   9.186   9.919
    9        0.450   0.284   9.187   9.921
   10        0.443   0.372   9.176   9.990
   11        0.442   0.364   9.181   9.986
   12        0.443   0.372   9.176   9.990
   13        0.441   0.364   9.181   9.987
   14        0.441   0.364   9.181   9.987
   15        0.439   0.373   9.177   9.989
   16        0.442   0.372   9.176   9.989
   17        0.440   0.373   9.175   9.988
   18        0.440   0.373   9.175   9.988
   19        0.446   0.374   9.179   9.998
   20        0.454   0.379   9.162   9.996
   21        0.454   0.379   9.162   9.996
   22        0.435   0.376   9.177   9.988
   23        0.455   0.379   9.162   9.996
   24        0.435   0.376   9.177   9.988
   25        0.446   0.373   9.179   9.998
   26        0.446   0.373   9.179   9.998
   27        0.435   0.376   9.178   9.988
   28        0.441   0.300   9.180   9.921
   29        0.489   0.325   9.157   9.971
   30        0.489   0.325   9.157   9.971
   31        0.488   0.325   9.156   9.970
   32        0.488   0.325   9.156   9.970
   33        0.489   0.325   9.158   9.972
   34        0.489   0.325   9.158   9.972
   35        0.440   0.306   9.180   9.926
   36        2.214   5.965   1.619   9.798
   37        0.588   0.028   0.000   0.617
   38        0.588   0.028   0.000   0.617
tot         19.213  17.858 322.744 359.815

  FORCE on cell =-STRESS in cart. coord.  units (eV):
  Direction    XX          YY          ZZ          XY          YZ          ZX
  Alpha Z   892.49328   892.49328   892.49328
  Ewald  173321.21134173300.44999************     0.00039     0.36224     0.00021
  Hartree186475.90279186471.97543************     0.00004     0.10083     0.00007
  E(xc)   -2303.09250 -2303.34540 -2307.97501    -0.00032     0.00211    -0.00004
  Local  ************************373380.55658     0.01934    -0.48268    -0.00070
  n-local  -772.64563  -772.02883  -774.26071     1.41329    -0.01570    -0.01209
  augment  3311.14687  3311.11623  3330.86372    -0.01783     0.00600     0.00026
  Kinetic  3374.42988  3380.41431  3395.74631     0.52900    -0.00182    -0.20121
  Fock        0.00000     0.00000     0.00000     0.00000     0.00000     0.00000
  Total      -7.26264    -7.19114    -2.80323     0.00000    -0.02901     0.00000
  in kB     -10.65600   -10.55109    -4.11300     0.00000    -0.04256     0.00000

 VOLUME and BASIS-vectors are now :
  energy-cutoff  :      500.00
  volume of cell :     1091.97
      direct lattice vectors                 reciprocal lattice vectors
     7.696786404  0.000000000  0.000000000     0.129924354 -0.075011849  0.000000000
     3.848392758  6.665612809  0.000000000     0.000000000  0.150023716  0.000000000
     0.000000000  0.000000000 21.284399033     0.000000000  0.000000000  0.046982769

  length of vectors
     7.696786404  7.696786404 21.284399033     0.150023716  0.150023716  0.046982769

 FORCES acting on ions
    electron-ion (+dipol)            ewald-force                    non-local-force                 convergence-correction
   -.402E-04 0.136E-01 0.349E+04   0.579E-04 -.546E-03 -.349E+04   0.106E-08 -.160E-01 -.221E+01   -.334E-03 -.323E-02 0.634E-01
   -.973E+00 -.103E+01 0.349E+04   0.916E+00 0.992E+00 -.349E+04   0.448E-01 0.857E-01 -.189E+01   0.246E-01 -.399E-01 0.183E+00
   0.973E+00 -.103E+01 0.349E+04   -.916E+00 0.992E+00 -.349E+04   -.448E-01 0.857E-01 -.189E+01   -.238E-01 -.372E-01 0.184E+00
   -.143E+01 -.304E+00 0.349E+04   0.132E+01 0.297E+00 -.349E+04   0.113E+00 -.680E-02 -.194E+01   0.578E-02 0.184E-01 0.131E+00
   -.607E-04 0.524E-01 0.349E+04   0.116E-03 -.434E-03 -.348E+04   0.202E-08 -.303E-01 -.170E+01   0.122E-01 -.197E-01 0.227E+00
   0.143E+01 -.304E+00 0.349E+04   -.132E+01 0.297E+00 -.349E+04   -.113E+00 -.680E-02 -.194E+01   -.747E-02 0.196E-01 0.132E+00
   -.342E+00 0.134E+01 0.349E+04   0.401E+00 -.129E+01 -.349E+04   0.206E-01 -.779E-01 -.191E+01   -.737E-01 0.108E-01 0.197E+00
   0.342E+00 0.134E+01 0.349E+04   -.401E+00 -.129E+01 -.349E+04   -.206E-01 -.779E-01 -.191E+01   0.772E-01 0.931E-02 0.198E+00
   -.142E-03 -.742E-01 0.349E+04   0.263E-03 0.982E-03 -.349E+04   -.203E-08 0.305E-01 -.195E+01   -.133E-01 0.463E-01 0.172E+00
   -.108E+02 -.614E+01 0.119E+04   0.109E+02 0.632E+01 -.119E+04   -.169E+00 -.126E+00 -.940E+00   0.804E-01 -.296E-01 -.122E+00
   -.902E-04 -.899E+01 0.118E+04   0.189E-03 0.870E+01 -.118E+04   -.183E-07 0.274E+00 -.385E+00   0.118E-01 0.131E-02 -.163E+00
   0.108E+02 -.614E+01 0.119E+04   -.109E+02 0.631E+01 -.119E+04   0.169E+00 -.126E+00 -.940E+00   -.824E-01 -.276E-01 -.121E+00
   -.784E+01 0.442E+01 0.118E+04   0.754E+01 -.435E+01 -.118E+04   0.248E+00 -.127E+00 -.381E+00   0.582E-01 0.618E-01 -.146E+00
   0.785E+01 0.442E+01 0.118E+04   -.754E+01 -.435E+01 -.118E+04   -.248E+00 -.127E+00 -.381E+00   -.338E-01 0.608E-01 -.145E+00
   -.140E-03 -.201E+01 0.119E+04   0.295E-03 0.185E+01 -.119E+04   -.408E-08 0.613E-01 -.998E+00   -.405E-02 0.999E-01 -.178E+00
   -.923E-04 0.125E+02 0.119E+04   0.186E-03 -.126E+02 -.119E+04   -.137E-07 0.205E+00 -.912E+00   -.169E-03 -.987E-01 -.102E+00
   -.171E+01 0.970E+00 0.119E+04   0.161E+01 -.922E+00 -.119E+04   0.695E-01 -.251E-01 -.939E+00   0.465E-01 -.280E-01 -.153E+00
   0.171E+01 0.971E+00 0.119E+04   -.161E+01 -.922E+00 -.119E+04   -.695E-01 -.251E-01 -.939E+00   -.457E-01 -.250E-01 -.152E+00
   -.616E-04 -.521E+01 -.110E+04   0.677E-04 0.535E+01 0.110E+04   0.552E-08 -.830E-01 0.891E+00   -.246E-02 -.641E-01 -.218E+00
   -.289E+02 -.166E+02 -.118E+04   0.300E+02 0.173E+02 0.118E+04   -.115E+01 -.637E+00 -.776E+00   0.112E-01 -.929E-03 -.271E+00
   0.289E+02 -.166E+02 -.118E+04   -.300E+02 0.173E+02 0.118E+04   0.115E+01 -.637E+00 -.776E+00   0.128E-01 0.501E-03 -.271E+00
   -.133E+02 0.759E+01 -.112E+04   0.130E+02 -.745E+01 0.112E+04   0.262E+00 -.141E+00 0.616E+00   0.444E-01 0.225E-02 -.302E+00
   -.429E-04 0.333E+02 -.118E+04   0.150E-03 -.346E+02 0.118E+04   -.867E-07 0.130E+01 -.719E+00   0.120E-01 0.204E-01 -.317E+00
   0.133E+02 0.759E+01 -.112E+04   -.130E+02 -.745E+01 0.112E+04   -.262E+00 -.141E+00 0.616E+00   -.470E-01 0.903E-03 -.302E+00
   0.456E+01 0.262E+01 -.110E+04   -.467E+01 -.269E+01 0.110E+04   0.812E-01 0.526E-01 0.909E+00   0.389E-01 0.274E-01 -.309E+00
   -.456E+01 0.262E+01 -.110E+04   0.467E+01 -.269E+01 0.110E+04   -.812E-01 0.526E-01 0.909E+00   -.383E-01 0.246E-01 -.308E+00
   -.149E-03 -.153E+02 -.112E+04   0.243E-03 0.150E+02 0.112E+04   -.175E-07 0.264E+00 0.657E+00   -.953E-03 0.161E-01 -.318E+00
   -.181E-04 0.112E+00 -.343E+04   0.412E-04 -.159E+00 0.342E+04   -.240E-08 0.360E-01 0.182E+01   -.294E-03 0.130E-01 -.142E+00
   -.604E+01 -.241E+02 -.340E+04   0.640E+01 0.244E+02 0.340E+04   -.365E+00 -.286E+00 0.208E+00   -.171E-01 0.471E-02 -.251E+00
   0.604E+01 -.241E+02 -.340E+04   -.640E+01 0.244E+02 0.340E+04   0.365E+00 -.286E+00 0.208E+00   0.181E-01 0.725E-02 -.251E+00
   -.237E+02 0.713E+01 -.340E+04   0.242E+02 -.692E+01 0.340E+04   -.470E+00 -.179E+00 0.140E+00   -.522E-02 -.325E-01 -.272E+00
   0.237E+02 0.713E+01 -.340E+04   -.242E+02 -.692E+01 0.340E+04   0.470E+00 -.179E+00 0.140E+00   0.358E-02 -.316E-01 -.273E+00
   -.181E+02 0.169E+02 -.340E+04   0.181E+02 -.174E+02 0.340E+04   -.610E-01 0.476E+00 0.200E+00   -.220E-01 0.403E-01 -.302E+00
   0.181E+02 0.169E+02 -.340E+04   -.181E+02 -.174E+02 0.340E+04   0.610E-01 0.476E+00 0.200E+00   0.253E-01 0.388E-01 -.303E+00
   -.129E-03 -.206E+00 -.345E+04   0.257E-03 0.264E+00 0.344E+04   0.401E-08 -.602E-01 0.207E+01   -.133E-01 -.156E-03 -.191E+00
   0.135E-03 0.454E+00 -.390E+04   0.122E-03 -.422E+00 0.390E+04   0.614E-09 -.923E-02 0.419E+01   0.495E-02 -.387E-01 -.261E+00
   0.214E+02 -.849E-01 -.326E+03   -.262E+02 0.967E-01 0.327E+03   0.476E+01 -.697E-02 -.588E+00   -.696E-03 -.215E-02 0.693E-02
   -.214E+02 -.849E-01 -.326E+03   0.262E+02 0.967E-01 0.327E+03   -.476E+01 -.697E-02 -.588E+00   0.739E-03 -.214E-02 0.689E-02
   -.114E-04 -.194E-01 0.185E+02   0.142E-12 0.113E-12 0.620E-11   0.143E-08 -.214E-01 -.138E+02   0.569E-01 0.432E-01 -.465E+01

 POSITION                                       TOTAL-FORCE (eV/Angst)
      0.00000      0.00000      5.37156         0.000000     -0.006190      0.004026
      2.56560      0.00000      5.37156         0.012253      0.005640      0.047685
      5.13119      0.00000      5.37156        -0.012253      0.005640      0.047685
      1.28280      2.22187      5.37156         0.009593      0.005074      0.046780
      3.84839      2.22187      5.37156        -0.000000      0.001908      0.053962
      6.41399      2.22187      5.37156        -0.009593      0.005074      0.046780
      2.56560      4.44374      5.37156         0.004389     -0.011715      0.042094
      5.13119      4.44374      5.37156        -0.004389     -0.011715      0.042094
      7.69679      4.44374      5.37156        -0.000000      0.003571      0.016068
      1.28280      0.74062      7.46636         0.036884      0.022728     -0.107931
      3.84839      0.74062      7.46636         0.000000     -0.006938     -0.014657
      6.41399      0.74062      7.46636        -0.036884      0.022728     -0.107931
      2.56560      2.96249      7.46636        -0.007739      0.005575     -0.016401
      5.13119      2.96249      7.46636         0.007739      0.005575     -0.016401
      7.69679      2.96249      7.46636        -0.000000      0.001303     -0.046929
      3.84839      5.18437      7.46636         0.000000     -0.043045     -0.104151
      6.41399      5.18437      7.46636         0.007472     -0.002715     -0.037972
      8.97958      5.18437      7.46636        -0.007472     -0.002715     -0.037972
      7.69679      1.47435      9.52922         0.000000     -0.001755      0.000100
      2.57570      1.48708      9.58099        -0.014050     -0.001550     -0.038128
      5.12109      1.48708      9.58099         0.014050     -0.001550     -0.038128
      8.97941      3.70322      9.55185        -0.002920     -0.002419      0.010186
      3.84839      3.69145      9.58099        -0.000000      0.018295     -0.039763
      6.41416      3.70322      9.55185         0.002920     -0.002419      0.010186
     10.26835      5.92844      9.52922         0.009594      0.005679      0.002508
      5.12522      5.92844      9.52922        -0.009594      0.005679      0.002508
      7.69679      5.92479      9.55185        -0.000000      0.001928      0.014834
      0.00000      0.00000     11.63765        -0.000000      0.001979      0.040260
      6.39598      6.62341     11.64088        -0.020137     -0.012499     -0.001143
      8.99759      6.62341     11.64088         0.020137     -0.012499     -0.001143
      8.93403      2.22738     11.64088         0.006132     -0.002019      0.047441
      6.45955      2.22738     11.64088        -0.006132     -0.002019      0.047441
     10.23483      4.48044     11.64088        -0.014924      0.009794      0.000955
      5.15874      4.48044     11.64088         0.014924      0.009794      0.000955
      7.69679      4.44374     11.66679         0.000000     -0.002985      0.024875
      3.84839      2.22187     12.03290         0.000000     -0.016592      0.070211
      3.46141      2.23912     14.31655        -0.007131      0.002686     -0.005490
      4.23538      2.23912     14.31655         0.007131      0.002686     -0.005490
    total drift:                                0.056851      0.002333      0.010343

  FREE ENERGIE OF THE ION-ELECTRON SYSTEM (eV)
  free  energy   TOTEN  =      -137.50477618 eV

  energy  without entropy=     -137.50477618  energy(sigma->0) =     -137.50477618

 stress matrix after NEB project (eV)
     -7.26264      0.00000      0.00000
      0.00000     -7.19114     -0.02901
      0.00000     -0.02901     -2.80323
  FORCES: max atom, RMS     0.009392    0.002155
  FORCE total and by dimension    0.013282    0.007131
  Stress total and by dimension   10.598031    7.262643
|           W    W    AA    RRRRR   N    N  II  N    N   GGGG   !!!           |
|           W    W   A  A   R    R  NN   N  II  NN   N  G    G  !!!           |
|           W    W  A    A  R    R  N N  N  II  N N  N  G       !!!           |
|           W WW W  AAAAAA  RRRRR   N  N N  II  N  N N  G  GGG   !            |
|           WW  WW  A    A  R   R   N   NN  II  N   NN  G    G                |
|           W    W  A    A  R    R  N    N  II  N    N   GGGG   !!!           |
|     Tetrahedron method does not include variations of the Fermi             |
|     occupations, so forces and stress will be inaccurate. We suggest        |
|     using a different smearing scheme ISMEAR = 1 or 2 for metals in         |
|     relaxations.                                                            |

 total charge

# of ion       s       p       d       tot
    1        0.449   0.283   9.188   9.920
    2        0.448   0.286   9.185   9.919
    3        0.448   0.286   9.185   9.919
    4        0.447   0.286   9.186   9.919
    5        0.448   0.287   9.181   9.916
    6        0.447   0.286   9.186   9.919
    7        0.448   0.286   9.186   9.919
    8        0.448   0.286   9.186   9.919
    9        0.450   0.284   9.187   9.921
   10        0.443   0.372   9.176   9.990
   11        0.442   0.364   9.181   9.986
   12        0.443   0.372   9.176   9.990
   13        0.441   0.364   9.181   9.987
   14        0.441   0.364   9.181   9.987
   15        0.439   0.373   9.177   9.989
   16        0.442   0.372   9.176   9.989
   17        0.440   0.373   9.175   9.988
   18        0.440   0.373   9.175   9.988
   19        0.446   0.374   9.179   9.998
   20        0.454   0.379   9.162   9.996
   21        0.454   0.379   9.162   9.996
   22        0.435   0.376   9.177   9.988
   23        0.455   0.379   9.162   9.996
   24        0.435   0.376   9.177   9.988
   25        0.446   0.373   9.179   9.998
   26        0.446   0.373   9.179   9.998
   27        0.435   0.376   9.178   9.988
   28        0.441   0.300   9.180   9.921
   29        0.489   0.325   9.157   9.971
   30        0.489   0.325   9.157   9.971
   31        0.488   0.325   9.156   9.970
   32        0.488   0.325   9.156   9.970
   33        0.489   0.325   9.158   9.972
   34        0.489   0.325   9.158   9.972
   35        0.440   0.306   9.180   9.926
   36        2.214   5.965   1.619   9.798
   37        0.588   0.028   0.000   0.617
   38        0.588   0.028   0.000   0.617
tot         19.213  17.858 322.744 359.815

 BZINTS: Fermi energy:    0.500459;  399.000000 electrons
         Band energy:-0.121169E+04;  BLOECHL correction:   -0.035347