 vasp.6.2.0 18Jan21 (build Jun 12 2021 23:27:24) complex

 executed on             LinuxIFC date 2022.05.26  19:55:00

 INCAR:
   ISMEAR = -5
   SIGMA = 0.1
   ISPIN = 1
   EDIFF = 1.d-5
   EDIFFG = -0.01
   NSW = 0
   NELM = 150
   ENCUT = 500
   ISIF = 2
   IBRION = 2
   LREAL = Auto
   ALGO = Fast
   ICHARG = 11
   LORBIT = 10
   LCHARG = .F.
   LWAVE = .F.

 POTCAR:    PAW_PBE Ag 02Apr2005
 POTCAR:    PAW_PBE Ir 06Sep2000
 POTCAR:    PAW_PBE O 08Apr2002
|           W    W    AA    RRRRR   N    N  II  N    N   GGGG   !!!           |
|           W    W   A  A   R    R  NN   N  II  NN   N  G    G  !!!           |
|           W    W  A    A  R    R  N N  N  II  N N  N  G       !!!           |
|           W WW W  AAAAAA  RRRRR   N  N N  II  N  N N  G  GGG   !            |
|           WW  WW  A    A  R   R   N   NN  II  N   NN  G    G                |
|           W    W  A    A  R    R  N    N  II  N    N   GGGG   !!!           |
|     For optimal performance we recommend to set                             |
|       NCORE = 2 up to number-of-cores-per-socket                            |
|     This setting can greatly improve the performance of VASP for DFT.       |
|     The default, NCORE=1 might be grossly inefficient on modern             |
|     multi-core architectures or massively parallel machines. Do your        |
|     Unfortunately you need to use the default for GW and RPA                |
|     calculations (for HF NCORE is supported but not extensively tested      |
|     yet).                                                                   |

 POTCAR:    PAW_PBE Ag 02Apr2005
   VRHFIN =Ag : s1 d10

   TITEL  = PAW_PBE Ag 02Apr2005
   POMASS =  107.868; ZVAL   =   11.000    mass and valenz
   ENMAX  =  249.844; ENMIN  =  187.383 eV

 POTCAR:    PAW_PBE Ir 06Sep2000
   VRHFIN =Ir: s1d8

   TITEL  = PAW_PBE Ir 06Sep2000
   POMASS =  192.220; ZVAL   =    9.000    mass and valenz
   ENMAX  =  210.864; ENMIN  =  158.148 eV

 POTCAR:    PAW_PBE O 08Apr2002
   VRHFIN =O: s2p4

   TITEL  = PAW_PBE O 08Apr2002
   POMASS =   16.000; ZVAL   =    6.000    mass and valenz
   ENMAX  =  400.000; ENMIN  =  300.000 eV

 Optimization of the real space projectors (new method)

 maximal supplied QI-value         = 15.12
 optimisation between [QCUT,QGAM] = [ 11.34, 22.83] = [ 36.00,145.93] Ry
 Optimized for a Real-space Cutoff    1.43 Angstroem

   l    n(q)    QCUT    max X(q) W(low)/X(q) W(high)/X(q)  e(spline)
   2      9    11.338    53.897    0.16E-03    0.20E-03    0.28E-06
   2      9    11.338    52.416    0.16E-03    0.20E-03    0.29E-06
   0     10    11.338   122.045    0.31E-04    0.76E-04    0.15E-06
   0     10    11.338    73.629    0.30E-04    0.72E-04    0.15E-06
   1      9    11.338    15.255    0.20E-03    0.19E-04    0.17E-06
   1      9    11.338     9.562    0.16E-03    0.15E-04    0.14E-06
 Optimization of the real space projectors (new method)

[...]

   l    n(q)    QCUT    max X(q) W(low)/X(q) W(high)/X(q)  e(spline)
   2      9    11.346   134.116    0.47E-03    0.13E-03    0.92E-06
   2      9    11.346   130.192    0.47E-03    0.13E-03    0.92E-06
   0     10    11.346    60.310    0.74E-04    0.13E-03    0.69E-06
   0     10    11.346    39.218    0.68E-04    0.12E-03    0.65E-06
   1     10    11.346    18.439    0.15E-03    0.34E-04    0.20E-06
   1     10    11.346    12.760    0.12E-03    0.31E-04    0.16E-06
 Optimization of the real space projectors (new method)

 maximal supplied QI-value         = 24.76
 optimisation between [QCUT,QGAM] = [ 11.39, 22.77] = [ 36.31,145.25] Ry
 Optimized for a Real-space Cutoff    1.00 Angstroem

   l    n(q)    QCUT    max X(q) W(low)/X(q) W(high)/X(q)  e(spline)
   0      7    11.387    20.381    0.39E-03    0.13E-02    0.15E-06
   0      7    11.387    15.268    0.42E-03    0.14E-02    0.17E-06
   1      6    11.387     5.964    0.41E-03    0.11E-02    0.17E-06
   1      6    11.387     5.382    0.39E-03    0.87E-03    0.15E-06
  PAW_PBE Ag 02Apr2005                  :
  PAW_PBE Ir 06Sep2000                  :
  PAW_PBE O 08Apr2002                   :

 POSCAR: Ag-Ir-O
  positions in direct lattice
  velocities in cartesian coordinates
 exchange correlation table for  LEXCH =        8
   RHO(1)=    0.500       N(1)  =     2000
   RHO(2)=  100.500       N(2)  =     4000

 VTST: version 3.2, (02/03/18)

 CHAIN: initializing optimizer

 OPT: Using VASP Conjugate-Gradient optimizer
 CHAIN: Read ICHAIN            0

 POSCAR: Ag-Ir-O
  positions in direct lattice
  velocities in cartesian coordinates

 ion  position               nearest neighbor table
   1  0.000  0.000  0.238-   2 2.93   8 2.93   7 2.93   6 2.93   4 2.93  12 2.93  16 2.93  10 2.93
                             3 2.93
   2  0.333  0.000  0.238-   1 2.93   8 2.93   9 2.93   3 2.93   4 2.93   5 2.93  10 2.93  17 2.93
                            11 2.93
   3  0.667  0.000  0.238-   9 2.93   2 2.93   5 2.93  11 2.93   7 2.93  18 2.93   1 2.93   6 2.93
                            12 2.93
   4  0.000  0.333  0.238-   5 2.93   6 2.93   2 2.93   1 2.93   7 2.93  13 2.93  15 2.93   9 2.93
                            10 2.93
   5  0.333  0.333  0.238-   4 2.93   3 2.93   7 2.93   2 2.93   8 2.93  14 2.93  13 2.93  11 2.93
                             6 2.93
   6  0.667  0.333  0.238-   4 2.93   9 2.93   1 2.93  15 2.93   8 2.93  12 2.93   3 2.93   5 2.93
                            14 2.93
   7  0.000  0.667  0.238-   8 2.93   1 2.93   5 2.93   3 2.93   4 2.93  16 2.93  18 2.93  13 2.93
                             9 2.93
   8  0.333  0.667  0.238-   7 2.93   1 2.93   2 2.93   9 2.93   5 2.93  16 2.93   6 2.93  17 2.93
                            14 2.93
   9  0.667  0.667  0.238-   3 2.93   2 2.93   8 2.93   6 2.93  17 2.93   4 2.93  15 2.93   7 2.93
                            18 2.93
  10  0.111  0.111  0.346-  20 2.89  12 2.93  16 2.93  15 2.93  17 2.93  13 2.93  11 2.93   2 2.93
                             1 2.93   4 2.93  19 2.93  26 2.93
  11  0.444  0.111  0.346-  21 2.90  20 2.90  27 2.92  14 2.93  17 2.93  18 2.93   3 2.93  12 2.93
                            13 2.93  10 2.93   5 2.93   2 2.93
  12  0.778  0.111  0.346-  21 2.89  10 2.93  16 2.93  18 2.93  15 2.93  11 2.93   1 2.93  14 2.93
                             6 2.93   3 2.93  25 2.93  19 2.93
  13  0.111  0.444  0.346-  20 2.90  23 2.90  22 2.92  15 2.93  14 2.93  18 2.93  10 2.93  11 2.93
                            16 2.93   4 2.93   5 2.93   7 2.93
  14  0.444  0.444  0.346-  23 2.90  21 2.90  24 2.92  13 2.93  11 2.93  16 2.93   5 2.93  12 2.93
                            17 2.93   8 2.93  15 2.93   6 2.93
  15  0.778  0.444  0.346-  24 2.92  22 2.92  19 2.93  13 2.93  10 2.93  12 2.93  17 2.93  18 2.93
                             4 2.93   6 2.93   9 2.93  14 2.93
  16  0.111  0.778  0.346-  23 2.89  18 2.93  12 2.93  10 2.93  14 2.93  17 2.93  13 2.93   7 2.93
                             8 2.93   1 2.93  26 2.93  25 2.93
  17  0.444  0.778  0.346-  27 2.92  24 2.92  26 2.93  11 2.93  10 2.93   9 2.93  18 2.93  15 2.93
                            16 2.93   2 2.93  14 2.93   8 2.93
  18  0.778  0.778  0.346-  22 2.92  27 2.92  25 2.93  16 2.93  12 2.93  13 2.93  11 2.93  17 2.93
                            15 2.93   7 2.93   3 2.93   9 2.93
  19  0.888  0.223  0.454-  28 2.90  24 2.92  22 2.92  15 2.93  20 2.93  21 2.93  10 2.93  12 2.93
                            32 2.94  31 2.94  26 2.94  25 2.94
  20  0.222  0.222  0.452-  36 2.77  10 2.89  13 2.90  11 2.90  31 2.92  29 2.92  19 2.93  26 2.93
                            27 2.93  22 2.93  21 2.94  23 2.94
  21  0.556  0.222  0.452-  36 2.77  12 2.89  11 2.90  14 2.90  30 2.92  32 2.92  25 2.93  19 2.93
                            27 2.93  24 2.93  20 2.94  23 2.94
  22  0.888  0.556  0.453-  35 2.90  18 2.92  15 2.92  13 2.92  24 2.92  27 2.92  25 2.92  19 2.92
                            33 2.93  31 2.93  23 2.93  20 2.93
  23  0.222  0.556  0.452-  36 2.77  16 2.89  14 2.90  13 2.90  34 2.92  33 2.92  26 2.93  25 2.93
                            22 2.93  24 2.93  21 2.94  20 2.94
  24  0.556  0.556  0.453-  35 2.90  15 2.92  17 2.92  14 2.92  27 2.92  22 2.92  19 2.92  26 2.92
                            32 2.93  34 2.93  23 2.93  21 2.93
  25  0.888  0.888  0.454-  28 2.90  22 2.92  27 2.92  18 2.93  23 2.93  21 2.93  16 2.93  12 2.93
                            33 2.94  30 2.94  26 2.94  19 2.94
  26  0.223  0.888  0.454-  28 2.90  27 2.92  24 2.92  17 2.93  23 2.93  20 2.93  16 2.93  10 2.93
                            34 2.94  29 2.94  25 2.94  19 2.94
  27  0.556  0.888  0.453-  35 2.90  17 2.92  18 2.92  11 2.92  24 2.92  22 2.92  26 2.92  25 2.92
                            29 2.93  30 2.93  20 2.93  21 2.93
  28  0.000  0.000  0.560-  26 2.90  25 2.90  19 2.90  29 2.96  34 2.96  33 2.96  32 2.96  31 2.96
                            30 2.96
  29  0.333  0.007  0.561-  31 2.87  30 2.88  36 2.88  20 2.92  27 2.93  26 2.94  28 2.96  35 2.96
                            34 3.04
  30  0.660  0.007  0.561-  32 2.87  29 2.88  36 2.88  21 2.92  27 2.93  25 2.94  28 2.96  35 2.96
                            33 3.04
  31  0.007  0.333  0.561-  29 2.87  33 2.88  36 2.88  20 2.92  22 2.93  19 2.94  28 2.96  35 2.96
                            32 3.04
  32  0.660  0.333  0.561-  30 2.87  34 2.88  36 2.88  21 2.92  24 2.93  19 2.94  28 2.96  35 2.96
                            31 3.04
  33  0.007  0.660  0.561-  34 2.87  31 2.88  36 2.88  23 2.92  22 2.93  25 2.94  28 2.96  35 2.96
                            30 3.04
  34  0.333  0.660  0.561-  33 2.87  32 2.88  36 2.88  23 2.92  24 2.93  26 2.94  28 2.96  35 2.96
                            29 3.04
  35  0.667  0.667  0.560-  24 2.90  27 2.90  22 2.90  30 2.96  32 2.96  29 2.96  34 2.96  31 2.96
                            33 2.96
  36  0.333  0.333  0.551-  37 1.79  21 2.77  20 2.77  23 2.77  31 2.88  30 2.88  33 2.88  29 2.88
                            34 2.88  32 2.88
  37  0.333  0.333  0.632-  36 1.79

  LATTYP: Found a hexagonal cell.
 ALAT       =     8.7913665772
 C/A-ratio  =     2.5227160501

  Lattice vectors:

 A1 = (  -4.3956832886,  -7.6135467898,   0.0000000000)
 A2 = (   8.7913665771,   0.0000000000,   0.0000000000)
 A3 = (   0.0000000000,   0.0000000000,  22.1781215668)

Analysis of symmetry for initial positions (statically):
 Subroutine PRICEL returns:
 Original cell was already a primitive cell.

 Routine SETGRP: Setting up the symmetry group for a
 hexagonal supercell.

 Subroutine GETGRP returns: Found  6 space group operations
 (whereof  6 operations were pure point group operations)
 out of a pool of 24 trial point group operations.

The static configuration has the point symmetry C_3v.

Analysis of symmetry for dynamics (positions and initial velocities):
 Subroutine PRICEL returns:
 Original cell was already a primitive cell.

[...]

The dynamic configuration has the point symmetry C_3v.

Analysis of constrained symmetry for selective dynamics:
 Subroutine PRICEL returns:
 Original cell was already a primitive cell.

 Routine SETGRP: Setting up the symmetry group for a
 hexagonal supercell.

 Subroutine GETGRP returns: Found  6 space group operations
[...]
     24      -4.7038      2.00000
     25      -4.6922      2.00000
     26      -4.6606      2.00000
     27      -4.6464      2.00000
     28      -4.6235      2.00000
     29      -4.6168      2.00000
     30      -4.6119      2.00000
     31      -4.6063      2.00000
     32      -4.5751      2.00000
     33      -4.5683      2.00000
     34      -4.5521      2.00000
     35      -4.5193      2.00000
     36      -4.4930      2.00000
     37      -4.4812      2.00000
     38      -4.4499      2.00000
     39      -4.4445      2.00000
     40      -4.4255      2.00000
     41      -4.3946      2.00000
     42      -4.3769      2.00000
     43      -4.3557      2.00000
     44      -4.3465      2.00000
     45      -4.2601      2.00000
     46      -4.2476      2.00000
     47      -4.2345      2.00000
     48      -4.2236      2.00000
     49      -4.2078      2.00000
     50      -4.2053      2.00000
     51      -4.2000      2.00000
     52      -4.1964      2.00000
     53      -4.1832      2.00000
     54      -4.1434      2.00000
     55      -4.1271      2.00000
     56      -4.1082      2.00000
     57      -4.0858      2.00000
     58      -4.0778      2.00000
     59      -4.0659      2.00000
     60      -4.0492      2.00000
[...]
    238       6.2866      0.00000
    239       6.3517      0.00000
    240       6.4152      0.00000
    241       7.1080      0.00000
    242       7.1896      0.00000
    243       7.2346      0.00000
    244       7.3243      0.00000
    245       7.3591      0.00000
    246       7.3854      0.00000
    247       7.4370      0.00000
    248       7.5224      0.00000
    249       7.6157      0.00000
    250       7.6598      0.00000
    251       7.6670      0.00000
    252       7.7678      0.00000

 soft charge-density along one line, spin component           1
         0         1         2         3         4         5         6         7         8         9
 total charge-density along one line

------------------------ aborting loop because EDIFF is reached ----------------------------------------

 total charge

# of ion       s       p       d       tot
    1        0.418   0.201   9.178   9.798
    2        0.418   0.203   9.177   9.797
    3        0.418   0.203   9.177   9.797
    4        0.418   0.203   9.177   9.797
    5        0.415   0.204   9.176   9.795
    6        0.418   0.203   9.177   9.797
    7        0.418   0.203   9.177   9.797
    8        0.418   0.203   9.177   9.797
    9        0.413   0.202   9.178   9.794
   10        0.408   0.269   9.163   9.840
   11        0.407   0.271   9.166   9.844
   12        0.408   0.269   9.163   9.840
   13        0.407   0.271   9.166   9.844
   14        0.407   0.271   9.166   9.844
   15        0.402   0.268   9.167   9.837
   16        0.408   0.269   9.163   9.840
   17        0.402   0.268   9.167   9.837
   18        0.402   0.268   9.167   9.837
   19        0.402   0.268   9.165   9.835
   20        0.427   0.300   9.148   9.875
   21        0.427   0.300   9.148   9.875
   22        0.398   0.270   9.170   9.838
   23        0.427   0.300   9.148   9.875
   24        0.398   0.270   9.170   9.838
   25        0.402   0.268   9.165   9.835
   26        0.402   0.268   9.165   9.835
   27        0.398   0.270   9.170   9.838
   28        0.417   0.196   9.181   9.795
   29        0.398   0.211   9.185   9.793
   30        0.398   0.211   9.185   9.793
   31        0.398   0.211   9.185   9.793
   32        0.398   0.211   9.185   9.793
   33        0.398   0.211   9.185   9.793
   34        0.398   0.211   9.185   9.793
   35        0.410   0.200   9.180   9.789
   36        0.677   0.577   6.988   8.242
   37        1.604   3.237   0.000   4.841
tot         16.578  12.237 327.989 356.805

  FORCE on cell =-STRESS in cart. coord.  units (eV):
  Direction    XX          YY          ZZ          XY          YZ          ZX
  Alpha Z   769.63695   769.63695   769.63695
  Ewald  121437.65482121437.65489************     0.00004     0.00000     0.00004
  Hartree131726.68294131726.68296************     0.00001     0.00000     0.00002
  E(xc)   -2100.04031 -2100.04032 -2104.79376     0.00001     0.00000     0.00000
  Local  ************************264514.88562     0.00045    -0.00006    -0.00017
  n-local  -363.21029  -342.96542  -352.56889    11.61845    -0.19170     0.46947
  augment  3266.97829  3266.97845  3270.69461    -0.00015     0.00001     0.00003
  Kinetic  5016.49000  5021.71710  5023.24903     4.72050     1.13328    -0.31639
  Fock        0.00000     0.00000     0.00000     0.00000     0.00000     0.00000
  Total      -7.43875    -7.43875     0.35069    -0.00000    -0.00000     0.00000
  in kB      -8.02864    -8.02864     0.37850    -0.00000    -0.00000     0.00000

 VOLUME and BASIS-vectors are now :
  energy-cutoff  :      500.00
  volume of cell :     1484.46
      direct lattice vectors                 reciprocal lattice vectors
     8.791366577  0.000000000  0.000000000     0.113747958 -0.065672414  0.000000000
     4.395683289  7.613546790  0.000000000     0.000000000  0.131344829  0.000000000
     0.000000000  0.000000000 22.178121567     0.000000000  0.000000000  0.045089481

  length of vectors
     8.791366577  8.791366577 22.178121567     0.131344829  0.131344829  0.045089481

 FORCES acting on ions
    electron-ion (+dipol)            ewald-force                    non-local-force                 convergence-correction
   0.459E-04 -.283E-04 0.252E+04   -.954E-04 0.593E-04 -.251E+04   0.187E-17 0.141E-17 -.221E+01   -.127E-03 -.180E-03 0.719E-01
   0.473E+00 0.545E+00 0.252E+04   -.593E+00 -.593E+00 -.252E+04   0.587E-01 0.838E-01 -.154E+01   0.603E-01 -.226E-01 0.955E-01
   -.473E+00 0.545E+00 0.252E+04   0.593E+00 -.593E+00 -.252E+04   -.587E-01 0.838E-01 -.154E+01   -.609E-01 -.206E-01 0.963E-01
   0.708E+00 0.138E+00 0.252E+04   -.810E+00 -.217E+00 -.252E+04   0.102E+00 0.890E-02 -.154E+01   0.108E-01 0.637E-01 0.956E-01
   -.569E-05 -.188E-04 0.252E+04   0.981E-04 -.197E-05 -.252E+04   -.269E-17 0.106E-17 -.149E+01   0.630E-02 0.385E-02 0.392E-01
   -.708E+00 0.138E+00 0.252E+04   0.810E+00 -.217E+00 -.252E+04   -.102E+00 0.890E-02 -.154E+01   -.123E-01 0.646E-01 0.965E-01
   0.235E+00 -.682E+00 0.252E+04   -.217E+00 0.810E+00 -.252E+04   0.433E-01 -.927E-01 -.154E+01   -.478E-01 -.419E-01 0.963E-01
   -.235E+00 -.682E+00 0.252E+04   0.217E+00 0.810E+00 -.252E+04   -.433E-01 -.927E-01 -.154E+01   0.495E-01 -.429E-01 0.965E-01
   0.362E-04 -.130E-04 0.252E+04   0.792E-04 -.643E-04 -.252E+04   0.387E-20 0.110E-17 -.193E+01   -.670E-02 -.346E-02 0.146E+00
   0.720E+01 0.416E+01 0.864E+03   -.672E+01 -.388E+01 -.863E+03   -.453E+00 -.262E+00 -.883E+00   -.180E-01 -.103E-01 0.124E+00
   -.287E-04 0.580E+01 0.872E+03   0.411E-04 -.579E+01 -.872E+03   0.680E-12 0.103E+00 -.286E+00   0.644E-02 -.139E+00 0.625E-01
   -.720E+01 0.416E+01 0.864E+03   0.672E+01 -.388E+01 -.863E+03   0.453E+00 -.262E+00 -.883E+00   0.162E-01 -.885E-02 0.124E+00
   0.502E+01 -.290E+01 0.872E+03   -.502E+01 0.290E+01 -.872E+03   0.896E-01 -.517E-01 -.286E+00   -.117E+00 0.750E-01 0.624E-01
   -.502E+01 -.290E+01 0.872E+03   0.502E+01 0.290E+01 -.872E+03   -.896E-01 -.517E-01 -.286E+00   0.128E+00 0.743E-01 0.626E-01
   0.161E-04 0.133E+01 0.865E+03   -.109E-03 -.152E+01 -.864E+03   0.499E-12 0.759E-01 -.687E+00   -.196E-02 0.907E-01 0.877E-01
   -.779E-05 -.831E+01 0.864E+03   0.205E-04 0.776E+01 -.863E+03   0.344E-11 0.523E+00 -.883E+00   0.386E-03 0.184E-01 0.124E+00
   0.115E+01 -.663E+00 0.865E+03   -.132E+01 0.761E+00 -.864E+03   0.658E-01 -.380E-01 -.687E+00   0.776E-01 -.471E-01 0.877E-01
   -.115E+01 -.663E+00 0.865E+03   0.132E+01 0.762E+00 -.864E+03   -.658E-01 -.380E-01 -.687E+00   -.776E-01 -.448E-01 0.881E-01
   0.404E-04 0.396E+01 -.826E+03   -.130E-03 -.415E+01 0.825E+03   0.748E-12 0.114E+00 0.589E+00   -.640E-02 0.444E-01 0.581E-01
   0.175E+02 0.101E+02 -.777E+03   -.161E+02 -.929E+01 0.778E+03   -.131E+01 -.754E+00 -.937E+00   -.547E-01 -.316E-01 0.131E+00
   -.175E+02 0.101E+02 -.777E+03   0.161E+02 -.929E+01 0.778E+03   0.131E+01 -.754E+00 -.937E+00   0.563E-01 -.304E-01 0.131E+00
   0.600E+01 -.346E+01 -.812E+03   -.632E+01 0.365E+01 0.811E+03   0.355E+00 -.205E+00 0.779E+00   -.284E-01 0.113E-01 0.677E-01
   -.556E-04 -.202E+02 -.777E+03   0.443E-04 0.186E+02 0.778E+03   0.990E-11 0.151E+01 -.937E+00   0.219E-02 0.646E-01 0.131E+00
   -.600E+01 -.346E+01 -.812E+03   0.632E+01 0.365E+01 0.811E+03   -.355E+00 -.205E+00 0.779E+00   0.177E-01 0.103E-01 0.678E-01
   -.343E+01 -.198E+01 -.826E+03   0.359E+01 0.207E+01 0.825E+03   -.987E-01 -.570E-01 0.589E+00   -.442E-01 -.257E-01 0.577E-01
   0.343E+01 -.198E+01 -.826E+03   -.359E+01 0.207E+01 0.825E+03   0.987E-01 -.570E-01 0.589E+00   0.349E-01 -.279E-01 0.581E-01
   0.204E-04 0.693E+01 -.812E+03   0.110E-03 -.730E+01 0.811E+03   0.269E-11 0.410E+00 0.779E+00   -.504E-02 -.303E-01 0.677E-01
   0.544E-04 -.368E-04 -.248E+04   -.116E-03 0.783E-04 0.248E+04   -.263E-18 -.422E-17 0.184E+01   -.659E-04 -.175E-03 -.686E-01
   0.294E+02 0.521E+02 -.247E+04   -.295E+02 -.527E+02 0.247E+04   -.709E-01 0.165E+00 0.212E+01   0.495E-01 0.728E-01 -.789E-01
   -.294E+02 0.521E+02 -.247E+04   0.295E+02 -.527E+02 0.247E+04   0.709E-01 0.165E+00 0.212E+01   -.498E-01 0.747E-01 -.791E-01
   0.599E+02 -.619E+00 -.247E+04   -.604E+02 0.774E+00 0.247E+04   0.107E+00 -.144E+00 0.212E+01   0.880E-01 0.669E-02 -.789E-01
   -.599E+02 -.619E+00 -.247E+04   0.604E+02 0.773E+00 0.247E+04   -.107E+00 -.144E+00 0.212E+01   -.894E-01 0.749E-02 -.797E-01
   0.305E+02 -.515E+02 -.247E+04   -.309E+02 0.519E+02 0.247E+04   0.178E+00 -.209E-01 0.212E+01   0.403E-01 -.799E-01 -.791E-01
   -.305E+02 -.515E+02 -.247E+04   0.309E+02 0.519E+02 0.247E+04   -.178E+00 -.209E-01 0.212E+01   -.386E-01 -.811E-01 -.798E-01
   0.217E-04 -.113E-04 -.248E+04   0.106E-03 -.663E-04 0.248E+04   0.104E-17 -.112E-17 0.196E+01   -.672E-02 -.345E-02 -.552E-01
   -.161E-04 -.265E-04 -.174E+04   0.867E-04 0.108E-04 0.174E+04   -.746E-17 0.461E-17 0.700E+00   0.276E-02 0.167E-02 0.146E+00
   0.181E-03 -.991E-04 -.166E+04   0.276E-04 0.376E-06 0.169E+04   0.413E-17 -.177E-17 -.301E+02   0.366E-02 0.224E-02 -.194E-01
   0.563E-03 -.789E-03 0.302E+02   0.414E-13 0.154E-12 -.159E-11   0.331E-15 0.175E-15 -.320E+02   -.146E-01 -.507E-02 0.195E+01

 POSITION                                       TOTAL-FORCE (eV/Angst)
      0.00000      0.00000      5.28219         0.000000     -0.000000     -0.009415
      2.93046      0.00000      5.28219         0.000221      0.013751      0.026761
      5.86091      0.00000      5.28219        -0.000221      0.013751      0.026761
      1.46523      2.53785      5.28219         0.012019     -0.006684      0.026761
      4.39568      2.53785      5.28219         0.000000      0.000000      0.021254
      7.32614      2.53785      5.28219        -0.012019     -0.006684      0.026761
      2.93046      5.07570      5.28219         0.011798     -0.007067      0.026761
      5.86091      5.07570      5.28219        -0.011798     -0.007067      0.026761
      8.79137      5.07570      5.28219         0.000000      0.000000     -0.003266
      1.46523      0.84595      7.67490         0.008136      0.004698      0.009897
      4.39568      0.84595      7.67490        -0.000000     -0.033594     -0.060516
      7.32614      0.84595      7.67490        -0.008136      0.004698      0.009897
      2.93046      3.38380      7.67490        -0.029093      0.016797     -0.060516
      5.86091      3.38380      7.67490         0.029093      0.016797     -0.060516
      8.79137      3.38380      7.67490        -0.000000     -0.031089     -0.002696
      4.39568      5.92165      7.67490        -0.000000     -0.009395      0.009897
      7.32614      5.92165      7.67490        -0.026924      0.015544     -0.002696
     10.25659      5.92165      7.67490         0.026924      0.015544     -0.002696
      8.79137      1.70006     10.06849        -0.000000     -0.027953     -0.032594
      2.92657      1.68966     10.02287         0.027485      0.015868     -0.150781
      5.86479      1.68966     10.02287        -0.027485      0.015868     -0.150781
     10.25237      4.23218     10.05185         0.012440     -0.007182     -0.041533
      4.39568      4.23423     10.02287        -0.000000     -0.031737     -0.150781
      7.33036      4.23218     10.05185        -0.012440     -0.007182     -0.041533
     11.71475      6.76352     10.06849         0.024208      0.013977     -0.032594
      5.86798      6.76352     10.06849        -0.024208      0.013977     -0.032594
      8.79137      6.76272     10.05185         0.000000      0.014365     -0.041533
      0.00000      0.00000     12.42216         0.000000     -0.000000      0.029838
      2.95716      0.04978     12.43839        -0.157416     -0.306672     -0.089781
      5.83420      0.04978     12.43839         0.157416     -0.306672     -0.089781
      1.52169      2.53609     12.43839        -0.344294      0.017009     -0.089781
      7.26967      2.53609     12.43839         0.344294      0.017009     -0.089781
      2.96021      5.02768     12.43839        -0.186877      0.289662     -0.089781
      5.83115      5.02768     12.43839         0.186877      0.289662     -0.089781
      8.79137      5.07570     12.41166         0.000000     -0.000000      0.051560
      4.39568      2.53785     12.21369         0.000000      0.000000      1.095618
      4.39568      2.53785     14.00712         0.000000      0.000000      0.027195
    total drift:                               -0.014024     -0.005862      0.116299

  FREE ENERGIE OF THE ION-ELECTRON SYSTEM (eV)
  free  energy   TOTEN  =      -102.22532189 eV

  energy  without entropy=     -102.22532189  energy(sigma->0) =     -102.22532189

 stress matrix after NEB project (eV)
     -7.43875     -0.00000      0.00000
     -0.00000     -7.43875      0.00000
      0.00000     -0.00000      0.35069
  FORCES: max atom, RMS     0.027195    0.004471
  FORCE total and by dimension    0.027195    0.027195
  Stress total and by dimension   10.525821    7.438747
|           W    W    AA    RRRRR   N    N  II  N    N   GGGG   !!!           |
|           W    W   A  A   R    R  NN   N  II  NN   N  G    G  !!!           |
|           W    W  A    A  R    R  N N  N  II  N N  N  G       !!!           |
|           W WW W  AAAAAA  RRRRR   N  N N  II  N  N N  G  GGG   !            |
|           WW  WW  A    A  R   R   N   NN  II  N   NN  G    G                |
|           W    W  A    A  R    R  N    N  II  N    N   GGGG   !!!           |
|     Tetrahedron method does not include variations of the Fermi             |
|     occupations, so forces and stress will be inaccurate. We suggest        |
|     using a different smearing scheme ISMEAR = 1 or 2 for metals in         |
|     relaxations.                                                            |

 total charge

# of ion       s       p       d       tot
    1        0.418   0.201   9.178   9.798
    2        0.418   0.203   9.177   9.797
    3        0.418   0.203   9.177   9.797
    4        0.418   0.203   9.177   9.797
    5        0.415   0.204   9.176   9.795
    6        0.418   0.203   9.177   9.797
    7        0.418   0.203   9.177   9.797
    8        0.418   0.203   9.177   9.797
    9        0.413   0.202   9.178   9.794
   10        0.408   0.269   9.163   9.840
   11        0.407   0.271   9.166   9.844
   12        0.408   0.269   9.163   9.840
   13        0.407   0.271   9.166   9.844
   14        0.407   0.271   9.166   9.844
   15        0.402   0.268   9.167   9.837
   16        0.408   0.269   9.163   9.840
   17        0.402   0.268   9.167   9.837
   18        0.402   0.268   9.167   9.837
   19        0.402   0.268   9.165   9.835
   20        0.427   0.300   9.148   9.875
   21        0.427   0.300   9.148   9.875
   22        0.398   0.270   9.170   9.838
   23        0.427   0.300   9.148   9.875
   24        0.398   0.270   9.170   9.838
   25        0.402   0.268   9.165   9.835
   26        0.402   0.268   9.165   9.835
   27        0.398   0.270   9.170   9.838
   28        0.417   0.196   9.181   9.795
   29        0.398   0.211   9.185   9.793
   30        0.398   0.211   9.185   9.793
   31        0.398   0.211   9.185   9.793
   32        0.398   0.211   9.185   9.793
   33        0.398   0.211   9.185   9.793
   34        0.398   0.211   9.185   9.793
   35        0.410   0.200   9.180   9.789
   36        0.677   0.577   6.988   8.242
   37        1.604   3.237   0.000   4.841
tot         16.578  12.237 327.989 356.805

 BZINTS: Fermi energy:    0.783491;  400.000000 electrons
         Band energy:-0.134222E+04;  BLOECHL correction:   -0.035392