 vasp.6.2.0 18Jan21 (build Jun 12 2021 23:27:24) complex

 executed on             LinuxIFC date 2022.05.26  19:24:27

 INCAR:
   ISMEAR = -5
   SIGMA = 0.1
   ISPIN = 1
   EDIFF = 1.d-5
   EDIFFG = -0.01
   NSW = 0
   NELM = 150
   ENCUT = 500
   ISIF = 2
   IBRION = 2
   LREAL = Auto
   ALGO = Fast
   ICHARG = 11
   LORBIT = 10
   LCHARG = .F.
   LWAVE = .F.

 POTCAR:    PAW_PBE Au 04Oct2007
 POTCAR:    PAW_PBE Zr_sv 04Jan2005
 POTCAR:    PAW_PBE O 08Apr2002
|           W    W    AA    RRRRR   N    N  II  N    N   GGGG   !!!           |
|           W    W   A  A   R    R  NN   N  II  NN   N  G    G  !!!           |
|           W    W  A    A  R    R  N N  N  II  N N  N  G       !!!           |
|           W WW W  AAAAAA  RRRRR   N  N N  II  N  N N  G  GGG   !            |
|           WW  WW  A    A  R   R   N   NN  II  N   NN  G    G                |
|           W    W  A    A  R    R  N    N  II  N    N   GGGG   !!!           |
|     For optimal performance we recommend to set                             |
|       NCORE = 2 up to number-of-cores-per-socket                            |
|     This setting can greatly improve the performance of VASP for DFT.       |
|     The default, NCORE=1 might be grossly inefficient on modern             |
|     multi-core architectures or massively parallel machines. Do your        |
|     Unfortunately you need to use the default for GW and RPA                |
|     calculations (for HF NCORE is supported but not extensively tested      |
|     yet).                                                                   |

 POTCAR:    PAW_PBE Au 04Oct2007
   VRHFIN =Au: s1d10

   TITEL  = PAW_PBE Au 04Oct2007
   POMASS =  196.966; ZVAL   =   11.000    mass and valenz
   ENMAX  =  229.943; ENMIN  =  172.457 eV

 POTCAR:    PAW_PBE Zr_sv 04Jan2005
   VRHFIN =Zr: 4s4p5s4d

   TITEL  = PAW_PBE Zr_sv 04Jan2005
   POMASS =   91.224; ZVAL   =   12.000    mass and valenz
   ENMAX  =  229.898; ENMIN  =  172.424 eV

 POTCAR:    PAW_PBE O 08Apr2002
   VRHFIN =O: s2p4

   TITEL  = PAW_PBE O 08Apr2002
   POMASS =   16.000; ZVAL   =    6.000    mass and valenz
   ENMAX  =  400.000; ENMIN  =  300.000 eV

 Optimization of the real space projectors (new method)

 maximal supplied QI-value         = 15.12
 optimisation between [QCUT,QGAM] = [ 11.34, 22.83] = [ 36.00,145.93] Ry
 Optimized for a Real-space Cutoff    1.39 Angstroem

   l    n(q)    QCUT    max X(q) W(low)/X(q) W(high)/X(q)  e(spline)
   2      9    11.338    60.898    0.39E-03    0.42E-03    0.21E-06
   2      9    11.338    58.894    0.40E-03    0.42E-03    0.22E-06
   0      9    11.338   109.617    0.13E-03    0.20E-04    0.13E-06
   0      9    11.338    75.026    0.13E-03    0.20E-04    0.13E-06
   1      9    11.338    16.344    0.33E-04    0.24E-03    0.18E-06
   1      9    11.338    10.160    0.26E-04    0.19E-03    0.15E-06
 Optimization of the real space projectors (new method)

[...]

   l    n(q)    QCUT    max X(q) W(low)/X(q) W(high)/X(q)  e(spline)
   0     10    11.338    12.107    0.38E-04    0.13E-04    0.27E-07
   0     10    11.338     9.948    0.69E-04    0.30E-04    0.38E-07
   1     10    11.338     3.563    0.26E-04    0.18E-04    0.40E-07
   1     10    11.338     4.524    0.25E-03    0.39E-04    0.44E-06
   2      9    11.338    87.261    0.26E-03    0.91E-05    0.26E-06
   2      9    11.338    70.950    0.25E-03    0.91E-05    0.25E-06
 Optimization of the real space projectors (new method)

 maximal supplied QI-value         = 24.76
 optimisation between [QCUT,QGAM] = [ 11.39, 22.77] = [ 36.31,145.25] Ry
 Optimized for a Real-space Cutoff    1.00 Angstroem

   l    n(q)    QCUT    max X(q) W(low)/X(q) W(high)/X(q)  e(spline)
   0      7    11.387    20.381    0.39E-03    0.13E-02    0.15E-06
   0      7    11.387    15.268    0.42E-03    0.14E-02    0.17E-06
   1      6    11.387     5.964    0.41E-03    0.11E-02    0.17E-06
   1      6    11.387     5.382    0.39E-03    0.87E-03    0.15E-06
  PAW_PBE Au 04Oct2007                  :
  PAW_PBE Zr_sv 04Jan2005               :
  PAW_PBE O 08Apr2002                   :

 POSCAR: Au-Zr-O
  positions in direct lattice
  velocities in cartesian coordinates
 exchange correlation table for  LEXCH =        8
   RHO(1)=    0.500       N(1)  =     2000
   RHO(2)=  100.500       N(2)  =     4000

 VTST: version 3.2, (02/03/18)

 CHAIN: initializing optimizer

 OPT: Using VASP Conjugate-Gradient optimizer
 CHAIN: Read ICHAIN            0

 POSCAR: Au-Zr-O
  positions in direct lattice
  velocities in cartesian coordinates

 ion  position               nearest neighbor table
   1  0.000  0.000  0.238-  16 2.94  12 2.94   6 2.94   8 2.94   7 2.94   3 2.94  10 2.94   4 2.94
                             2 2.94
   2  0.333  0.000  0.238-   9 2.94  11 2.94  17 2.94  10 2.94   8 2.94   4 2.94   5 2.94   1 2.94
                             3 2.94
   3  0.667  0.000  0.238-   7 2.94  18 2.94  12 2.94   1 2.94  11 2.94   5 2.94   6 2.94   9 2.94
                             2 2.94
   4  0.000  0.333  0.238-  10 2.94   6 2.94   5 2.94  13 2.94   2 2.94  15 2.94   9 2.94   1 2.94
                             7 2.94
   5  0.333  0.333  0.238-  13 2.94   7 2.94  11 2.94   4 2.94   2 2.94  14 2.94   3 2.94   8 2.94
                             6 2.94
   6  0.667  0.333  0.238-  15 2.94  14 2.94   1 2.94  12 2.94   4 2.94   9 2.94   8 2.94   3 2.94
                             5 2.94
   7  0.000  0.667  0.238-  18 2.94   3 2.94  16 2.94   5 2.94   1 2.94  13 2.94   8 2.94   4 2.94
                             9 2.94
   8  0.333  0.667  0.238-   9 2.94  17 2.94   1 2.94   2 2.94  14 2.94  16 2.94   6 2.94   7 2.94
                             5 2.94
   9  0.667  0.667  0.238-   2 2.94   8 2.94  17 2.94   6 2.94  15 2.94   4 2.94   3 2.94  18 2.94
                             7 2.94
  10  0.111  0.111  0.346-  20 2.93  26 2.93  19 2.93  11 2.94  17 2.94   2 2.94   4 2.94   1 2.94
                            12 2.94  16 2.94  13 2.94  15 2.94
  11  0.444  0.111  0.346-  20 2.92  21 2.92  27 2.94  13 2.94   2 2.94  10 2.94  17 2.94   5 2.94
                             3 2.94  18 2.94  14 2.94  12 2.94
  12  0.778  0.111  0.346-  21 2.93  25 2.93  19 2.93  16 2.94  18 2.94   1 2.94  14 2.94  15 2.94
                             3 2.94   6 2.94  10 2.94  11 2.94
  13  0.111  0.444  0.346-  23 2.92  20 2.92  22 2.94   5 2.94  18 2.94  11 2.94   7 2.94   4 2.94
                            16 2.94  10 2.94  14 2.94  15 2.94
  14  0.444  0.444  0.346-  21 2.92  23 2.92  24 2.94  15 2.94   6 2.94  12 2.94   8 2.94  17 2.94
                             5 2.94  16 2.94  13 2.94  11 2.94
  15  0.778  0.444  0.346-  24 2.93  22 2.93  19 2.93  14 2.94   6 2.94  17 2.94  12 2.94   9 2.94
                             4 2.94  10 2.94  13 2.94  18 2.94
  16  0.111  0.778  0.346-  23 2.93  25 2.93  26 2.93  18 2.94  12 2.94   7 2.94   1 2.94   8 2.94
                            13 2.94  10 2.94  14 2.94  17 2.94
  17  0.444  0.778  0.346-  27 2.93  24 2.93  26 2.93   9 2.94  15 2.94   2 2.94  10 2.94  11 2.94
                             8 2.94  14 2.94  16 2.94  18 2.94
  18  0.778  0.778  0.346-  22 2.93  27 2.93  25 2.93  16 2.94   7 2.94  13 2.94  12 2.94   3 2.94
                            11 2.94   9 2.94  15 2.94  17 2.94
  19  0.889  0.222  0.454-  10 2.93  12 2.93  15 2.93  26 2.94  25 2.94  24 2.94  22 2.94  21 2.95
                            20 2.95  28 2.96  32 3.04  31 3.04
  20  0.223  0.223  0.453-  36 2.86  23 2.92  21 2.92  11 2.92  13 2.92  10 2.93  27 2.94  22 2.94
                            26 2.95  19 2.95  29 3.00  31 3.00
  21  0.554  0.223  0.453-  36 2.86  20 2.92  23 2.92  14 2.92  11 2.92  12 2.93  27 2.94  24 2.94
                            25 2.95  19 2.95  30 3.00  32 3.00
  22  0.888  0.556  0.454-  24 2.92  27 2.92  18 2.93  15 2.93  13 2.94  25 2.94  19 2.94  23 2.94
                            20 2.94  35 2.96  33 3.01  31 3.01
  23  0.223  0.554  0.453-  36 2.86  20 2.92  21 2.92  13 2.92  14 2.92  16 2.93  22 2.94  24 2.94
                            25 2.95  26 2.95  33 3.00  34 3.00
  24  0.556  0.556  0.454-  27 2.92  22 2.92  15 2.93  17 2.93  14 2.94  26 2.94  19 2.94  21 2.94
                            23 2.94  35 2.96  32 3.01  34 3.01
  25  0.889  0.889  0.454-  16 2.93  12 2.93  18 2.93  19 2.94  26 2.94  22 2.94  27 2.94  23 2.95
                            21 2.95  28 2.96  33 3.04  30 3.04
  26  0.222  0.889  0.454-  10 2.93  16 2.93  17 2.93  19 2.94  25 2.94  27 2.94  24 2.94  20 2.95
                            23 2.95  28 2.96  29 3.04  34 3.04
  27  0.556  0.888  0.454-  24 2.92  22 2.92  17 2.93  18 2.93  11 2.94  26 2.94  25 2.94  20 2.94
                            21 2.94  35 2.96  29 3.01  30 3.01
  28  0.000  0.000  0.563-  25 2.96  19 2.96  26 2.96  34 2.97  32 2.97  33 2.97  30 2.97  31 2.97
                            29 2.97
  29  0.334  0.006  0.566-  30 2.88  31 2.89  36 2.89  35 2.96  28 2.97  20 3.00  27 3.01  26 3.04
                            34 3.04
  30  0.661  0.006  0.566-  29 2.88  32 2.89  36 2.89  35 2.96  28 2.97  21 3.00  27 3.01  25 3.04
                            33 3.04
  31  0.006  0.334  0.566-  33 2.88  29 2.89  36 2.89  35 2.96  28 2.97  20 3.00  22 3.01  19 3.04
                            32 3.04
  32  0.661  0.334  0.566-  34 2.88  30 2.89  36 2.89  35 2.96  28 2.97  21 3.00  24 3.01  19 3.04
                            31 3.04
  33  0.006  0.661  0.566-  31 2.88  34 2.89  36 2.89  35 2.96  28 2.97  23 3.00  22 3.01  25 3.04
                            30 3.04
  34  0.334  0.661  0.566-  32 2.88  33 2.89  36 2.89  35 2.96  28 2.97  23 3.00  24 3.01  26 3.04
                            29 3.04
  35  0.667  0.667  0.563-  24 2.96  27 2.96  22 2.96  29 2.96  34 2.96  32 2.96  31 2.96  30 2.96
                            33 2.96
  36  0.333  0.333  0.557-  37 1.79  20 2.86  23 2.86  21 2.86  33 2.89  31 2.89  29 2.89  30 2.89
                            34 2.89  32 2.89
  37  0.333  0.333  0.638-  36 1.79

  LATTYP: Found a hexagonal cell.
 ALAT       =     8.8135128021
 C/A-ratio  =     2.5184286595

  Lattice vectors:

 A1 = (  -4.4067569092,  -7.6327256898,   0.0000000000)
 A2 = (   8.8135128021,   0.0000000000,   0.0000000000)
 A3 = (   0.0000000000,   0.0000000000,  22.1962032318)

Analysis of symmetry for initial positions (statically):
 Subroutine PRICEL returns:
 Original cell was already a primitive cell.

 Routine SETGRP: Setting up the symmetry group for a
 hexagonal supercell.

 Subroutine GETGRP returns: Found  6 space group operations
 (whereof  6 operations were pure point group operations)
 out of a pool of 24 trial point group operations.

The static configuration has the point symmetry C_3v.

Analysis of symmetry for dynamics (positions and initial velocities):
 Subroutine PRICEL returns:
 Original cell was already a primitive cell.

[...]

The dynamic configuration has the point symmetry C_3v.

Analysis of constrained symmetry for selective dynamics:
 Subroutine PRICEL returns:
 Original cell was already a primitive cell.

 Routine SETGRP: Setting up the symmetry group for a
 hexagonal supercell.

 Subroutine GETGRP returns: Found  6 space group operations
[...]
     24      -5.2039      2.00000
     25      -5.2025      2.00000
     26      -5.1835      2.00000
     27      -5.1525      2.00000
     28      -5.1005      2.00000
     29      -5.0714      2.00000
     30      -5.0439      2.00000
     31      -5.0286      2.00000
     32      -4.9649      2.00000
     33      -4.9384      2.00000
     34      -4.8525      2.00000
     35      -4.8284      2.00000
     36      -4.8090      2.00000
     37      -4.7752      2.00000
     38      -4.7631      2.00000
     39      -4.7505      2.00000
     40      -4.7042      2.00000
     41      -4.6845      2.00000
     42      -4.5635      2.00000
     43      -4.5491      2.00000
     44      -4.4915      2.00000
     45      -4.4400      2.00000
     46      -4.4178      2.00000
     47      -4.3872      2.00000
     48      -4.3657      2.00000
     49      -4.3334      2.00000
     50      -4.3045      2.00000
     51      -4.2175      2.00000
     52      -4.2058      2.00000
     53      -4.1762      2.00000
     54      -4.1513      2.00000
     55      -4.1386      2.00000
     56      -4.1300      2.00000
     57      -4.1223      2.00000
     58      -4.0960      2.00000
     59      -4.0500      2.00000
     60      -4.0280      2.00000
[...]
    238       6.0782      0.00000
    239       6.3028      0.00000
    240       6.3751      0.00000
    241       6.4593      0.00000
    242       6.5284      0.00000
    243       6.6595      0.00000
    244       6.6660      0.00000
    245       6.7319      0.00000
    246       6.7923      0.00000
    247       6.9393      0.00000
    248       6.9958      0.00000
    249       7.1299      0.00000
    250       7.2225      0.00000
    251       7.3609      0.00000
    252       7.3876      0.00000

 soft charge-density along one line, spin component           1
         0         1         2         3         4         5         6         7         8         9
 total charge-density along one line

------------------------ aborting loop because EDIFF is reached ----------------------------------------

 total charge

# of ion       s       p       d       tot
    1        0.544   0.239   8.766   9.550
    2        0.543   0.241   8.765   9.549
    3        0.543   0.241   8.765   9.549
    4        0.543   0.241   8.765   9.549
    5        0.541   0.240   8.763   9.545
    6        0.543   0.241   8.765   9.549
    7        0.543   0.241   8.765   9.549
    8        0.543   0.241   8.765   9.549
    9        0.541   0.240   8.768   9.549
   10        0.520   0.307   8.775   9.601
   11        0.519   0.307   8.776   9.602
   12        0.520   0.307   8.775   9.601
   13        0.519   0.307   8.776   9.602
   14        0.519   0.307   8.776   9.602
   15        0.515   0.309   8.773   9.597
   16        0.520   0.307   8.775   9.601
   17        0.515   0.309   8.773   9.597
   18        0.515   0.309   8.773   9.597
   19        0.518   0.295   8.775   9.589
   20        0.553   0.323   8.757   9.633
   21        0.553   0.323   8.757   9.633
   22        0.511   0.304   8.772   9.587
   23        0.553   0.323   8.757   9.633
   24        0.511   0.304   8.772   9.587
   25        0.518   0.295   8.775   9.589
   26        0.518   0.295   8.775   9.589
   27        0.511   0.304   8.772   9.587
   28        0.542   0.233   8.755   9.530
   29        0.583   0.232   8.754   9.570
   30        0.583   0.232   8.754   9.570
   31        0.583   0.232   8.754   9.570
   32        0.583   0.232   8.754   9.570
   33        0.583   0.232   8.754   9.570
   34        0.583   0.232   8.754   9.570
   35        0.541   0.235   8.754   9.530
   36        2.211   6.015   1.781  10.006
   37        1.607   3.319   0.000   4.926
tot         22.694  18.899 308.584 350.177

  FORCE on cell =-STRESS in cart. coord.  units (eV):
  Direction    XX          YY          ZZ          XY          YZ          ZX
  Alpha Z  1036.41713  1036.41713  1036.41713
  Ewald  119462.41270119462.41317************    -0.00032    -0.00008    -0.00011
  Hartree128364.90849128364.90850************     0.00001    -0.00002    -0.00003
  E(xc)   -1809.33938 -1809.33938 -1815.67444     0.00000    -0.00000    -0.00000
  Local  ************************260253.81692     0.00196     0.00001    -0.00002
  n-local   -99.72000   -56.38808   -70.16634    22.89133    -1.81044     1.53087
  augment  2370.61406  2370.61562  2393.30866    -0.00134    -0.00001     0.00002
  Kinetic  5696.48069  5702.20357  5772.79237     4.69993     0.40205     0.23321
  Fock        0.00000     0.00000     0.00000     0.00000     0.00000     0.00000
  Total     -16.23071   -16.23071     3.23641    -0.00000     0.00000     0.00000
  in kB     -17.41569   -17.41569     3.47269    -0.00000     0.00000     0.00000

 VOLUME and BASIS-vectors are now :
  energy-cutoff  :      500.00
  volume of cell :     1493.16
      direct lattice vectors                 reciprocal lattice vectors
     8.813512802  0.000000000  0.000000000     0.113462137 -0.065507406  0.000000000
     4.406756909  7.632725690  0.000000000     0.000000000  0.131014796  0.000000000
     0.000000000  0.000000000 22.196203232     0.000000000  0.000000000  0.045052750

  length of vectors
     8.813512802  8.813512802 22.196203232     0.131014796  0.131014796  0.045052750

 FORCES acting on ions
    electron-ion (+dipol)            ewald-force                    non-local-force                 convergence-correction
   -.196E-04 -.162E-04 0.250E+04   0.519E-04 0.434E-04 -.250E+04   -.391E-17 -.258E-17 -.524E+00   -.146E-03 -.978E-04 -.323E+00
   0.382E+00 0.475E+00 0.250E+04   -.450E+00 -.615E+00 -.250E+04   -.602E-02 0.380E-01 -.348E+00   0.684E-01 0.986E-01 -.280E+00
   -.382E+00 0.475E+00 0.250E+04   0.450E+00 -.616E+00 -.250E+04   0.602E-02 0.380E-01 -.348E+00   -.682E-01 0.101E+00 -.280E+00
   0.602E+00 0.937E-01 0.250E+04   -.758E+00 -.821E-01 -.250E+04   0.299E-01 -.242E-01 -.348E+00   0.120E+00 0.993E-02 -.280E+00
   0.873E-05 -.232E-04 0.250E+04   0.951E-04 0.171E-05 -.250E+04   0.704E-17 -.960E-18 -.439E+00   0.427E-02 0.260E-02 -.282E+00
   -.602E+00 0.938E-01 0.250E+04   0.758E+00 -.822E-01 -.250E+04   -.299E-01 -.242E-01 -.348E+00   -.121E+00 0.109E-01 -.279E+00
   0.220E+00 -.568E+00 0.250E+04   -.308E+00 0.698E+00 -.250E+04   0.359E-01 -.138E-01 -.348E+00   0.530E-01 -.109E+00 -.280E+00
   -.220E+00 -.568E+00 0.250E+04   0.308E+00 0.698E+00 -.250E+04   -.359E-01 -.138E-01 -.348E+00   -.511E-01 -.110E+00 -.279E+00
   0.193E-04 -.415E-04 0.250E+04   0.166E-03 -.201E-04 -.250E+04   -.274E-17 -.269E-17 -.507E+00   -.466E-02 -.242E-02 -.297E+00
   0.400E+01 0.231E+01 0.869E+03   -.398E+01 -.230E+01 -.868E+03   -.156E+00 -.901E-01 -.378E+00   0.106E+00 0.609E-01 -.851E-01
   0.155E-04 0.666E+01 0.878E+03   0.147E-03 -.689E+01 -.877E+03   0.396E-08 0.595E-01 -.334E+00   0.345E-02 0.121E+00 -.541E-01
   -.400E+01 0.231E+01 0.869E+03   0.398E+01 -.230E+01 -.868E+03   0.156E+00 -.901E-01 -.378E+00   -.107E+00 0.623E-01 -.863E-01
   0.577E+01 -.333E+01 0.878E+03   -.597E+01 0.345E+01 -.877E+03   0.516E-01 -.298E-01 -.334E+00   0.107E+00 -.572E-01 -.541E-01
   -.577E+01 -.333E+01 0.878E+03   0.597E+01 0.345E+01 -.877E+03   -.516E-01 -.298E-01 -.334E+00   -.991E-01 -.574E-01 -.543E-01
   0.301E-04 0.369E+00 0.869E+03   0.236E-03 -.442E+00 -.868E+03   0.151E-08 0.227E-01 -.373E+00   -.221E-02 0.344E-01 -.725E-01
   -.214E-04 -.461E+01 0.869E+03   0.163E-03 0.459E+01 -.868E+03   0.120E-07 0.180E+00 -.378E+00   0.403E-03 -.123E+00 -.863E-01
   0.320E+00 -.185E+00 0.869E+03   -.383E+00 0.221E+00 -.868E+03   0.197E-01 -.114E-01 -.373E+00   0.289E-01 -.187E-01 -.724E-01
   -.320E+00 -.185E+00 0.869E+03   0.382E+00 0.221E+00 -.868E+03   -.197E-01 -.114E-01 -.373E+00   -.293E-01 -.171E-01 -.734E-01
   -.428E-04 -.924E+00 -.796E+03   0.518E-04 0.692E+00 0.795E+03   0.687E-08 0.103E+00 0.863E+00   0.347E-02 0.918E-01 0.152E+00
   0.423E+02 0.244E+02 -.737E+03   -.419E+02 -.242E+02 0.737E+03   -.932E+00 -.538E+00 -.519E+00   0.127E+00 0.732E-01 0.137E+00
   -.423E+02 0.244E+02 -.737E+03   0.419E+02 -.242E+02 0.737E+03   0.932E+00 -.538E+00 -.519E+00   -.127E+00 0.759E-01 0.137E+00
   0.126E+02 -.728E+01 -.785E+03   -.130E+02 0.751E+01 0.785E+03   0.349E+00 -.202E+00 0.752E+00   0.107E+00 -.677E-01 0.130E+00
   -.755E-05 -.489E+02 -.737E+03   0.144E-03 0.483E+02 0.737E+03   0.716E-07 0.108E+01 -.519E+00   0.174E-02 -.148E+00 0.137E+00
   -.126E+02 -.728E+01 -.785E+03   0.130E+02 0.751E+01 0.785E+03   -.349E+00 -.202E+00 0.752E+00   -.114E+00 -.658E-01 0.130E+00
   0.800E+00 0.462E+00 -.796E+03   -.599E+00 -.346E+00 0.795E+03   -.893E-01 -.516E-01 0.863E+00   -.729E-01 -.422E-01 0.152E+00
   -.800E+00 0.462E+00 -.796E+03   0.599E+00 -.346E+00 0.795E+03   0.893E-01 -.516E-01 0.863E+00   0.816E-01 -.429E-01 0.152E+00
   0.127E-04 0.146E+02 -.785E+03   0.194E-03 -.150E+02 0.785E+03   0.269E-07 0.404E+00 0.752E+00   -.577E-02 0.126E+00 0.130E+00
   -.164E-04 -.142E-04 -.241E+04   0.302E-04 0.365E-04 0.241E+04   -.188E-17 0.164E-18 0.359E+00   0.381E-03 0.200E-03 0.405E+00
   0.550E+02 0.917E+02 -.242E+04   -.544E+02 -.907E+02 0.242E+04   -.913E+00 -.142E+01 0.536E+00   0.533E-01 0.435E-01 0.252E+00
   -.550E+02 0.917E+02 -.242E+04   0.544E+02 -.907E+02 0.242E+04   0.913E+00 -.142E+01 0.536E+00   -.536E-01 0.458E-01 0.254E+00
   0.107E+03 0.181E+01 -.242E+04   -.106E+03 -.173E+01 0.242E+04   -.168E+01 -.817E-01 0.536E+00   0.644E-01 0.244E-01 0.253E+00
   -.107E+03 0.181E+01 -.242E+04   0.106E+03 -.173E+01 0.242E+04   0.168E+01 -.817E-01 0.536E+00   -.661E-01 0.259E-01 0.253E+00
   0.519E+02 -.935E+02 -.242E+04   -.514E+02 0.924E+02 0.242E+04   -.772E+00 0.150E+01 0.536E+00   0.129E-01 -.694E-01 0.254E+00
   -.519E+02 -.935E+02 -.242E+04   0.514E+02 0.924E+02 0.242E+04   0.772E+00 0.150E+01 0.536E+00   -.106E-01 -.701E-01 0.253E+00
   0.300E-04 -.254E-04 -.242E+04   0.143E-03 -.517E-04 0.242E+04   -.823E-18 -.801E-17 0.349E+00   -.496E-02 -.257E-02 0.354E+00
   0.254E-03 -.140E-03 -.228E+04   0.120E-03 0.103E-04 0.229E+04   -.867E-18 0.197E-18 -.476E+01   0.587E-02 0.359E-02 0.269E+00
   0.196E-03 -.107E-03 -.172E+04   0.212E-04 0.135E-05 0.174E+04   -.233E-18 -.629E-19 -.247E+02   0.376E-02 0.230E-02 0.389E-01
   -.277E-03 -.973E-03 0.289E+02   -.579E-13 0.536E-13 -.500E-11   0.775E-15 0.436E-15 -.291E+02   0.139E-01 0.885E-02 0.623E+00

 POSITION                                       TOTAL-FORCE (eV/Angst)
      0.00000      0.00000      5.28038         0.000000     -0.000000     -0.106672
      2.93784      0.00000      5.28038        -0.005071     -0.003383     -0.043800
      5.87568      0.00000      5.28038         0.005071     -0.003383     -0.043800
      1.46892      2.54424      5.28038        -0.005465     -0.002701     -0.043800
      4.40676      2.54424      5.28038         0.000000     -0.000000     -0.064401
      7.34459      2.54424      5.28038         0.005465     -0.002701     -0.043800
      2.93784      5.08848      5.28038        -0.000394      0.006083     -0.043800
      5.87568      5.08848      5.28038         0.000394      0.006083     -0.043800
      8.81351      5.08848      5.28038         0.000000     -0.000000     -0.046057
      1.46892      0.84808      7.67911        -0.031698     -0.018301      0.050662
      4.40676      0.84808      7.67911        -0.000000     -0.054792      0.045660
      7.34459      0.84808      7.67911         0.031698     -0.018301      0.050662
      2.93784      3.39232      7.67911        -0.047451      0.027396      0.045660
      5.87568      3.39232      7.67911         0.047451      0.027396      0.045660
      8.81351      3.39232      7.67911        -0.000000     -0.015771      0.138845
      4.40676      5.93656      7.67911         0.000000      0.036602      0.050662
      7.34459      5.93656      7.67911        -0.013658      0.007886      0.138845
     10.28243      5.93656      7.67911         0.013658      0.007886      0.138845
      8.81351      1.69571     10.07248        -0.000000     -0.039334      0.034919
      2.94528      1.70046     10.06340        -0.334296     -0.193006     -0.327626
      5.86824      1.70046     10.06340         0.334296     -0.193006     -0.327626
     10.27570      4.24429     10.07162         0.061811     -0.035687      0.064001
      4.40676      4.23182     10.06340         0.000000      0.386012     -0.327626
      7.35132      4.24429     10.07162        -0.061811     -0.035687      0.064001
     11.75174      6.78487     10.07248         0.034064      0.019667      0.034919
      5.87529      6.78487     10.07248        -0.034064      0.019667      0.034919
      8.81351      6.77688     10.07162         0.000000      0.071374      0.064001
      0.00000      0.00000     12.49858         0.000000     -0.000000     -0.051285
      2.96552      0.04535     12.55994        -0.193392     -0.370315     -0.235041
      5.84799      0.04535     12.55994         0.193392     -0.370315     -0.235041
      1.52204      2.54555     12.55994        -0.417398      0.017675     -0.235041
      7.29148      2.54555     12.55994         0.417398      0.017675     -0.235041
      2.96327      5.04183     12.55994        -0.224006      0.352640     -0.235041
      5.85025      5.04183     12.55994         0.224006      0.352640     -0.235041
      8.81351      5.08848     12.50663         0.000000     -0.000000     -0.001295
      4.40676      2.54424     12.37417         0.000000     -0.000000      1.924989
      4.40676      2.54424     14.16624         0.000000     -0.000000     -0.001613
    total drift:                                0.013608      0.007874      0.411402

  FREE ENERGIE OF THE ION-ELECTRON SYSTEM (eV)
  free  energy   TOTEN  =      -123.95913183 eV

  energy  without entropy=     -123.95913183  energy(sigma->0) =     -123.95913183

 stress matrix after NEB project (eV)
    -16.23071     -0.00000      0.00000
     -0.00000    -16.23071      0.00000
      0.00000      0.00000      3.23641
  FORCES: max atom, RMS     0.001613    0.000265
  FORCE total and by dimension    0.001613    0.001613
  Stress total and by dimension   23.180727   16.230709
|           W    W    AA    RRRRR   N    N  II  N    N   GGGG   !!!           |
|           W    W   A  A   R    R  NN   N  II  NN   N  G    G  !!!           |
|           W    W  A    A  R    R  N N  N  II  N N  N  G       !!!           |
|           W WW W  AAAAAA  RRRRR   N  N N  II  N  N N  G  GGG   !            |
|           WW  WW  A    A  R   R   N   NN  II  N   NN  G    G                |
|           W    W  A    A  R    R  N    N  II  N    N   GGGG   !!!           |
|     Tetrahedron method does not include variations of the Fermi             |
|     occupations, so forces and stress will be inaccurate. We suggest        |
|     using a different smearing scheme ISMEAR = 1 or 2 for metals in         |
|     relaxations.                                                            |

 total charge

# of ion       s       p       d       tot
    1        0.544   0.239   8.766   9.550
    2        0.543   0.241   8.765   9.549
    3        0.543   0.241   8.765   9.549
    4        0.543   0.241   8.765   9.549
    5        0.541   0.240   8.763   9.545
    6        0.543   0.241   8.765   9.549
    7        0.543   0.241   8.765   9.549
    8        0.543   0.241   8.765   9.549
    9        0.541   0.240   8.768   9.549
   10        0.520   0.307   8.775   9.601
   11        0.519   0.307   8.776   9.602
   12        0.520   0.307   8.775   9.601
   13        0.519   0.307   8.776   9.602
   14        0.519   0.307   8.776   9.602
   15        0.515   0.309   8.773   9.597
   16        0.520   0.307   8.775   9.601
   17        0.515   0.309   8.773   9.597
   18        0.515   0.309   8.773   9.597
   19        0.518   0.295   8.775   9.589
   20        0.553   0.323   8.757   9.633
   21        0.553   0.323   8.757   9.633
   22        0.511   0.304   8.772   9.587
   23        0.553   0.323   8.757   9.633
   24        0.511   0.304   8.772   9.587
   25        0.518   0.295   8.775   9.589
   26        0.518   0.295   8.775   9.589
   27        0.511   0.304   8.772   9.587
   28        0.542   0.233   8.755   9.530
   29        0.583   0.232   8.754   9.570
   30        0.583   0.232   8.754   9.570
   31        0.583   0.232   8.754   9.570
   32        0.583   0.232   8.754   9.570
   33        0.583   0.232   8.754   9.570
   34        0.583   0.232   8.754   9.570
   35        0.541   0.235   8.754   9.530
   36        2.211   6.015   1.781  10.006
   37        1.607   3.319   0.000   4.926
tot         22.694  18.899 308.584 350.177

 BZINTS: Fermi energy:    0.666799;  403.000000 electrons
         Band energy:-0.149465E+04;  BLOECHL correction:   -0.083152