 vasp.6.2.0 18Jan21 (build Jun 12 2021 23:27:24) complex

 executed on             LinuxIFC date 2022.05.28  01:51:50

 INCAR:
   ISMEAR = -5
   SIGMA = 0.1
   ISPIN = 1
   EDIFF = 1.d-5
   EDIFFG = -0.01
   NSW = 0
   NELM = 150
   ENCUT = 500
   ISIF = 2
   IBRION = 2
   LREAL = Auto
   ALGO = Fast
   ICHARG = 11
   LORBIT = 10
   LCHARG = .F.
   LWAVE = .F.

 POTCAR:    PAW_PBE Ag 02Apr2005
 POTCAR:    PAW_PBE Rh 04Feb2005
 POTCAR:    PAW_PBE H 15Jun2001
 POTCAR:    PAW_PBE O 08Apr2002
|           W    W    AA    RRRRR   N    N  II  N    N   GGGG   !!!           |
|           W    W   A  A   R    R  NN   N  II  NN   N  G    G  !!!           |
|           W    W  A    A  R    R  N N  N  II  N N  N  G       !!!           |
|           W WW W  AAAAAA  RRRRR   N  N N  II  N  N N  G  GGG   !            |
|           WW  WW  A    A  R   R   N   NN  II  N   NN  G    G                |
|           W    W  A    A  R    R  N    N  II  N    N   GGGG   !!!           |
|     For optimal performance we recommend to set                             |
|       NCORE = 2 up to number-of-cores-per-socket                            |
|     This setting can greatly improve the performance of VASP for DFT.       |
|     The default, NCORE=1 might be grossly inefficient on modern             |
|     multi-core architectures or massively parallel machines. Do your        |
|     Unfortunately you need to use the default for GW and RPA                |
|     calculations (for HF NCORE is supported but not extensively tested      |
|     yet).                                                                   |

 POTCAR:    PAW_PBE Ag 02Apr2005
   VRHFIN =Ag : s1 d10

   TITEL  = PAW_PBE Ag 02Apr2005
   POMASS =  107.868; ZVAL   =   11.000    mass and valenz
   ENMAX  =  249.844; ENMIN  =  187.383 eV

 POTCAR:    PAW_PBE Rh 04Feb2005
   VRHFIN =Rh: s1 d8

   TITEL  = PAW_PBE Rh 04Feb2005
   POMASS =  102.906; ZVAL   =    9.000    mass and valenz
   ENMAX  =  228.996; ENMIN  =  171.747 eV

 POTCAR:    PAW_PBE H 15Jun2001
   VRHFIN =H: ultrasoft test

   TITEL  = PAW_PBE H 15Jun2001
   POMASS =    1.000; ZVAL   =    1.000    mass and valenz
   ENMAX  =  250.000; ENMIN  =  200.000 eV

 POTCAR:    PAW_PBE O 08Apr2002
   VRHFIN =O: s2p4

   TITEL  = PAW_PBE O 08Apr2002
   POMASS =   16.000; ZVAL   =    6.000    mass and valenz
   ENMAX  =  400.000; ENMIN  =  300.000 eV

 Optimization of the real space projectors (new method)

 maximal supplied QI-value         = 15.12
 optimisation between [QCUT,QGAM] = [ 11.34, 22.83] = [ 36.00,145.93] Ry
 Optimized for a Real-space Cutoff    1.43 Angstroem

   l    n(q)    QCUT    max X(q) W(low)/X(q) W(high)/X(q)  e(spline)
   2      9    11.338    53.897    0.16E-03    0.20E-03    0.28E-06
   2      9    11.338    52.416    0.16E-03    0.20E-03    0.29E-06
   0     10    11.338   122.045    0.31E-04    0.76E-04    0.15E-06
   0     10    11.338    73.629    0.30E-04    0.72E-04    0.15E-06
   1      9    11.338    15.255    0.20E-03    0.19E-04    0.17E-06
   1      9    11.338     9.562    0.16E-03    0.15E-04    0.14E-06
 Optimization of the real space projectors (new method)

[...]

   l    n(q)    QCUT    max X(q) W(low)/X(q) W(high)/X(q)  e(spline)
   0      8    11.287    19.460    0.40E-03    0.73E-03    0.16E-06
   0      8    11.287    12.209    0.38E-03    0.70E-03    0.15E-06
   1      7    11.287     4.655    0.22E-03    0.25E-04    0.22E-06
 Optimization of the real space projectors (new method)

 maximal supplied QI-value         = 24.76
 optimisation between [QCUT,QGAM] = [ 11.39, 22.77] = [ 36.31,145.25] Ry
 Optimized for a Real-space Cutoff    1.00 Angstroem

   l    n(q)    QCUT    max X(q) W(low)/X(q) W(high)/X(q)  e(spline)
   0      7    11.387    20.381    0.39E-03    0.13E-02    0.15E-06
   0      7    11.387    15.268    0.42E-03    0.14E-02    0.17E-06
   1      6    11.387     5.964    0.41E-03    0.11E-02    0.17E-06
   1      6    11.387     5.382    0.39E-03    0.87E-03    0.15E-06
  PAW_PBE Ag 02Apr2005                  :
  PAW_PBE Rh 04Feb2005                  :
  PAW_PBE H 15Jun2001                   :
  PAW_PBE O 08Apr2002                   :

 POSCAR: Ag-Rh-H2O
  positions in direct lattice
  velocities in cartesian coordinates
 exchange correlation table for  LEXCH =        8
   RHO(1)=    0.500       N(1)  =     2000
   RHO(2)=  100.500       N(2)  =     4000

 VTST: version 3.2, (02/03/18)

 CHAIN: initializing optimizer

 OPT: Using VASP Conjugate-Gradient optimizer
 CHAIN: Read ICHAIN            0

 POSCAR: Ag-Rh-H2O
  positions in direct lattice
  velocities in cartesian coordinates

 ion  position               nearest neighbor table
   1  0.000  0.000  0.212-   2 2.93   8 2.93   7 2.93   6 2.93   4 2.93  12 2.93  16 2.93  10 2.93
                             3 2.93
   2  0.333  0.000  0.212-   1 2.93   8 2.93   9 2.93   3 2.93   4 2.93   5 2.93  10 2.93  17 2.93
                            11 2.93
   3  0.667  0.000  0.212-   9 2.93   2 2.93   5 2.93  11 2.93   7 2.93  18 2.93   1 2.93   6 2.93
                            12 2.93
   4  0.000  0.333  0.212-   5 2.93   6 2.93   2 2.93   1 2.93   7 2.93  13 2.93  15 2.93   9 2.93
                            10 2.93
   5  0.333  0.333  0.212-   4 2.93   3 2.93   7 2.93   2 2.93   8 2.93  14 2.93  13 2.93  11 2.93
                             6 2.93
   6  0.667  0.333  0.212-   4 2.93   9 2.93   1 2.93  15 2.93   8 2.93  12 2.93   3 2.93   5 2.93
                            14 2.93
   7  0.000  0.667  0.212-   8 2.93   1 2.93   5 2.93   3 2.93   4 2.93  16 2.93  18 2.93  13 2.93
                             9 2.93
   8  0.333  0.667  0.212-   7 2.93   1 2.93   2 2.93   9 2.93   5 2.93  16 2.93   6 2.93  17 2.93
                            14 2.93
   9  0.667  0.667  0.212-   3 2.93   2 2.93   8 2.93   6 2.93  17 2.93   4 2.93  15 2.93   7 2.93
                            18 2.93
  10  0.111  0.111  0.308-  20 2.90  19 2.93  26 2.93  12 2.93  16 2.93  15 2.93  17 2.93  13 2.93
                            11 2.93   2 2.93   1 2.93   4 2.93
  11  0.444  0.111  0.308-  21 2.90  20 2.90  27 2.92  14 2.93  17 2.93  18 2.93   3 2.93  12 2.93
                            13 2.93  10 2.93   5 2.93   2 2.93
  12  0.778  0.111  0.308-  21 2.90  25 2.93  19 2.93  10 2.93  16 2.93  18 2.93  15 2.93  11 2.93
                             1 2.93  14 2.93   6 2.93   3 2.93
  13  0.111  0.444  0.308-  20 2.90  23 2.90  22 2.92  15 2.93  14 2.93  18 2.93  10 2.93  11 2.93
                            16 2.93   4 2.93   5 2.93   7 2.93
  14  0.444  0.444  0.308-  23 2.90  21 2.90  24 2.92  13 2.93  11 2.93  16 2.93   5 2.93  12 2.93
                            17 2.93   8 2.93  15 2.93   6 2.93
  15  0.778  0.444  0.308-  24 2.92  22 2.92  19 2.92  13 2.93  10 2.93  12 2.93  17 2.93  18 2.93
                             4 2.93   6 2.93   9 2.93  14 2.93
  16  0.111  0.778  0.308-  23 2.90  26 2.93  25 2.93  18 2.93  12 2.93  10 2.93  14 2.93  17 2.93
                            13 2.93   7 2.93   8 2.93   1 2.93
  17  0.444  0.778  0.308-  27 2.92  24 2.92  26 2.92  11 2.93  10 2.93   9 2.93  18 2.93  15 2.93
                            16 2.93   2 2.93  14 2.93   8 2.93
  18  0.778  0.778  0.308-  22 2.92  27 2.92  25 2.92  16 2.93  12 2.93  13 2.93  11 2.93  17 2.93
                            15 2.93   7 2.93   3 2.93   9 2.93
  19  0.889  0.223  0.403-  28 2.91  15 2.92  10 2.93  12 2.93  24 2.93  22 2.93  32 2.93  31 2.93
                            20 2.93  21 2.93  26 2.94  25 2.94
  20  0.222  0.222  0.402-  36 2.78  13 2.90  11 2.90  10 2.90  31 2.91  29 2.91  21 2.92  23 2.92
                            27 2.93  22 2.93  19 2.93  26 2.93
  21  0.555  0.222  0.402-  36 2.78  11 2.90  14 2.90  12 2.90  30 2.91  32 2.91  20 2.92  23 2.92
                            27 2.93  24 2.93  25 2.93  19 2.93
  22  0.889  0.556  0.403-  35 2.90  18 2.92  15 2.92  13 2.92  33 2.92  31 2.92  25 2.93  19 2.93
                            24 2.93  27 2.93  23 2.93  20 2.93
  23  0.222  0.555  0.402-  36 2.78  14 2.90  13 2.90  16 2.90  34 2.91  33 2.91  21 2.92  20 2.92
                            22 2.93  24 2.93  26 2.93  25 2.93
  24  0.556  0.556  0.403-  35 2.90  15 2.92  17 2.92  14 2.92  32 2.92  34 2.92  19 2.93  26 2.93
                            27 2.93  22 2.93  23 2.93  21 2.93
  25  0.889  0.889  0.403-  28 2.91  18 2.92  16 2.93  12 2.93  22 2.93  27 2.93  33 2.93  30 2.93
                            23 2.93  21 2.93  26 2.94  19 2.94
  26  0.223  0.889  0.403-  28 2.91  17 2.92  16 2.93  10 2.93  27 2.93  24 2.93  34 2.93  29 2.93
                            23 2.93  20 2.93  25 2.94  19 2.94
  27  0.556  0.889  0.403-  35 2.90  17 2.92  18 2.92  11 2.92  29 2.92  30 2.92  26 2.93  25 2.93
                            24 2.93  22 2.93  20 2.93  21 2.93
  28  0.000  0.000  0.498-  26 2.91  25 2.91  19 2.91  29 2.95  34 2.95  33 2.95  32 2.95  31 2.95
                            30 2.95
  29  0.333  0.005  0.498-  31 2.88  30 2.89  36 2.89  20 2.91  27 2.92  26 2.93  28 2.95  35 2.95
                            34 3.02
  30  0.662  0.005  0.498-  32 2.88  29 2.89  36 2.89  21 2.91  27 2.92  25 2.93  28 2.95  35 2.95
                            33 3.02
  31  0.005  0.333  0.498-  29 2.88  33 2.89  36 2.89  20 2.91  22 2.92  19 2.93  28 2.95  35 2.95
                            32 3.02
  32  0.662  0.333  0.498-  30 2.88  34 2.89  36 2.89  21 2.91  24 2.92  19 2.93  28 2.95  35 2.95
                            31 3.02
  33  0.005  0.662  0.498-  34 2.88  31 2.89  36 2.89  23 2.91  22 2.92  25 2.93  28 2.95  35 2.95
                            30 3.02
  34  0.333  0.662  0.498-  33 2.88  32 2.89  36 2.89  23 2.91  24 2.92  26 2.93  28 2.95  35 2.95
                            29 3.02
  35  0.667  0.667  0.497-  24 2.90  27 2.90  22 2.90  30 2.95  32 2.95  29 2.95  34 2.95  31 2.95
                            33 2.95
  36  0.333  0.333  0.490-  39 2.41  21 2.78  20 2.78  23 2.78  31 2.89  30 2.89  33 2.89  29 2.89
                            34 2.89  32 2.89
  37  0.244  0.333  0.610-  39 0.97
  38  0.423  0.333  0.610-  39 0.97
  39  0.333  0.333  0.587-  38 0.97  37 0.97  36 2.41

  LATTYP: Found a hexagonal cell.
 ALAT       =     8.7913665772
 C/A-ratio  =     2.8382349142

  Lattice vectors:

 A1 = (  -4.3956832886,  -7.6135467898,   0.0000000000)
 A2 = (   8.7913665771,   0.0000000000,   0.0000000000)
 A3 = (   0.0000000000,   0.0000000000,  24.9519635625)

Analysis of symmetry for initial positions (statically):
 Subroutine PRICEL returns:
 Original cell was already a primitive cell.

 Routine SETGRP: Setting up the symmetry group for a
 hexagonal supercell.

 Subroutine GETGRP returns: Found  1 space group operations
 (whereof  1 operations were pure point group operations)
 out of a pool of 24 trial point group operations.

The static configuration has the point symmetry C_1 .

Analysis of symmetry for dynamics (positions and initial velocities):
 Subroutine PRICEL returns:
 Original cell was already a primitive cell.

[...]

The dynamic configuration has the point symmetry C_1 .

Analysis of constrained symmetry for selective dynamics:
 Subroutine PRICEL returns:
[...]
     41      -4.5134      2.00000
     42      -4.4999      2.00000
     43      -4.4991      2.00000
     44      -4.4719      2.00000
     45      -4.4589      2.00000
     46      -4.3908      2.00000
     47      -4.3612      2.00000
     48      -4.3581      2.00000
     49      -4.3443      2.00000
     50      -4.3369      2.00000
     51      -4.3316      2.00000
     52      -4.3199      2.00000
     53      -4.3116      2.00000
     54      -4.2908      2.00000
     55      -4.2838      2.00000
     56      -4.2243      2.00000
     57      -4.2155      2.00000
     58      -4.2063      2.00000
     59      -4.2000      2.00000
     60      -4.1889      2.00000
[...]
    238       5.9291      0.00000
    239       5.9457      0.00000
    240       5.9683      0.00000
    241       6.0521      0.00000
    242       6.0917      0.00000
    243       6.2289      0.00000
    244       6.2505      0.00000
    245       6.3798      0.00000
    246       6.4803      0.00000
    247       6.6124      0.00000
    248       6.6548      0.00000
    249       6.9989      0.00000
    250       7.0438      0.00000
    251       7.1309      0.00000
    252       7.2690      0.00000

 soft charge-density along one line, spin component           1
         0         1         2         3         4         5         6         7         8         9
 total charge-density along one line

------------------------ aborting loop because EDIFF is reached ----------------------------------------

 total charge

# of ion       s       p       d       tot
    1        0.415   0.204   9.177   9.796
    2        0.420   0.203   9.177   9.800
    3        0.420   0.203   9.177   9.800
    4        0.420   0.203   9.177   9.800
    5        0.414   0.206   9.177   9.797
    6        0.420   0.203   9.177   9.800
    7        0.420   0.203   9.177   9.800
    8        0.420   0.203   9.177   9.800
    9        0.414   0.203   9.179   9.796
   10        0.406   0.269   9.163   9.839
   11        0.410   0.266   9.168   9.844
   12        0.406   0.269   9.163   9.839
   13        0.410   0.266   9.168   9.844
   14        0.410   0.266   9.168   9.844
   15        0.401   0.269   9.166   9.837
   16        0.406   0.269   9.163   9.839
   17        0.401   0.269   9.166   9.837
   18        0.401   0.269   9.166   9.837
   19        0.406   0.267   9.167   9.839
   20        0.417   0.289   9.154   9.860
   21        0.417   0.289   9.154   9.860
   22        0.400   0.273   9.167   9.840
   23        0.417   0.289   9.154   9.860
   24        0.400   0.273   9.167   9.839
   25        0.405   0.267   9.167   9.839
   26        0.405   0.267   9.167   9.839
   27        0.399   0.273   9.167   9.839
   28        0.416   0.200   9.179   9.796
   29        0.417   0.209   9.176   9.802
   30        0.417   0.209   9.176   9.802
   31        0.421   0.211   9.174   9.806
   32        0.421   0.211   9.174   9.806
   33        0.417   0.209   9.176   9.802
   34        0.417   0.209   9.176   9.802
   35        0.409   0.203   9.181   9.793
   36        0.344   0.260   7.469   8.073
   37        0.617   0.121   0.000   0.738
   38        0.617   0.121   0.000   0.738
   39        1.556   3.622   0.000   5.179
tot         17.550  12.515 328.433 358.497

  FORCE on cell =-STRESS in cart. coord.  units (eV):
  Direction    XX          YY          ZZ          XY          YZ          ZX
  Alpha Z   673.01019   673.01019   673.01019
  Ewald  162323.95006162198.57523************    -0.04659     0.13235     0.01057
  Hartree172458.47159172435.32007************    -0.00907     0.01355    -0.00070
  E(xc)   -2108.11383 -2108.65981 -2113.19440    -0.00030     0.00082     0.00016
  Local  ************************345976.32725     0.04348    -0.08733    -0.00516
  n-local  -351.83711  -352.66184  -359.62428     0.00019    -0.00127    -0.00093
  augment  3285.36616  3288.01934  3293.81558     0.00073    -0.00892    -0.00048
  Kinetic  5014.61776  5050.25567  5050.73666     0.01401    -0.04035    -0.00325
  Fock        0.00000     0.00000     0.00000     0.00000     0.00000     0.00000
  Total      -8.10344    -8.29540     0.16436     0.00245     0.00885     0.00020
  in kB      -7.77378    -7.95793     0.15767     0.00235     0.00849     0.00019

 VOLUME and BASIS-vectors are now :
  energy-cutoff  :      500.00
  volume of cell :     1670.12
      direct lattice vectors                 reciprocal lattice vectors
     8.791366577  0.000000000  0.000000000     0.113747958 -0.065672414  0.000000000
     4.395683289  7.613546790  0.000000000     0.000000000  0.131344829  0.000000000
     0.000000000  0.000000000 24.951963562     0.000000000  0.000000000  0.040077006

  length of vectors
     8.791366577  8.791366577 24.951963562     0.131344829  0.131344829  0.040077006

 FORCES acting on ions
    electron-ion (+dipol)            ewald-force                    non-local-force                 convergence-correction
   0.199E-02 0.319E-02 0.274E+04   -.728E-04 -.218E-02 -.273E+04   -.736E-05 0.355E-02 -.236E+01   -.192E-02 -.425E-02 -.170E+00
   0.381E+00 0.585E+00 0.274E+04   -.404E+00 -.468E+00 -.273E+04   0.369E-01 -.234E-01 -.159E+01   -.117E-01 -.730E-01 -.110E+00
   -.382E+00 0.575E+00 0.274E+04   0.404E+00 -.468E+00 -.273E+04   -.366E-01 -.236E-01 -.159E+01   0.125E-01 -.631E-01 -.106E+00
   0.714E+00 0.547E-01 0.274E+04   -.606E+00 -.116E+00 -.273E+04   -.137E-01 0.377E-01 -.158E+01   -.751E-01 0.179E-01 -.104E+00
   -.138E-01 0.477E-03 0.274E+04   0.554E-04 0.336E-04 -.274E+04   -.225E-02 -.310E-02 -.158E+01   0.162E-01 0.347E-02 -.706E-01
   -.705E+00 0.516E-01 0.274E+04   0.606E+00 -.116E+00 -.273E+04   0.138E-01 0.375E-01 -.158E+01   0.662E-01 0.213E-01 -.995E-01
   0.287E+00 -.639E+00 0.274E+04   -.202E+00 0.585E+00 -.273E+04   -.316E-01 -.135E-01 -.159E+01   -.395E-01 0.538E-01 -.105E+00
   -.295E+00 -.633E+00 0.274E+04   0.202E+00 0.585E+00 -.273E+04   0.314E-01 -.134E-01 -.159E+01   0.471E-01 0.474E-01 -.105E+00
   0.126E-01 -.745E-03 0.274E+04   0.985E-04 0.214E-02 -.273E+04   0.241E-02 -.159E-03 -.201E+01   -.153E-01 -.190E-02 -.163E+00
   0.475E+01 0.275E+01 0.946E+03   -.434E+01 -.252E+01 -.946E+03   -.347E+00 -.199E+00 -.800E+00   -.297E-01 -.880E-02 0.269E-01
   -.147E-01 0.460E+01 0.952E+03   -.204E-03 -.467E+01 -.952E+03   -.237E-02 0.566E-01 -.442E+00   0.174E-01 -.252E-01 0.130E+00
   -.474E+01 0.274E+01 0.946E+03   0.434E+01 -.252E+01 -.946E+03   0.347E+00 -.199E+00 -.800E+00   0.193E-01 -.358E-02 0.304E-01
   0.396E+01 -.231E+01 0.952E+03   -.403E+01 0.234E+01 -.952E+03   0.517E-01 -.321E-01 -.456E+00   -.940E-02 0.242E-01 0.127E+00
   -.398E+01 -.231E+01 0.952E+03   0.403E+01 0.234E+01 -.952E+03   -.559E-01 -.319E-01 -.456E+00   0.325E-01 0.170E-01 0.122E+00
   0.920E-02 0.585E+00 0.947E+03   0.167E-03 -.590E+00 -.946E+03   0.266E-03 0.892E-02 -.618E+00   -.961E-02 -.141E-01 -.256E-01
   0.119E-02 -.547E+01 0.946E+03   -.211E-04 0.502E+01 -.946E+03   0.514E-04 0.400E+00 -.803E+00   -.123E-02 0.162E-01 0.361E-01
   0.509E+00 -.294E+00 0.947E+03   -.521E+00 0.307E+00 -.946E+03   0.535E-02 -.529E-02 -.643E+00   -.374E-02 -.134E-02 -.159E-01
   -.510E+00 -.305E+00 0.947E+03   0.521E+00 0.307E+00 -.946E+03   -.557E-02 -.568E-02 -.643E+00   0.532E-02 0.102E-01 -.898E-02
   0.132E-01 0.235E+01 -.873E+03   0.178E-02 -.242E+01 0.872E+03   0.229E-02 0.411E-01 0.527E+00   -.176E-01 0.242E-01 -.166E-01
   0.139E+02 0.812E+01 -.840E+03   -.131E+02 -.765E+01 0.840E+03   -.103E+01 -.591E+00 -.111E+01   0.230E+00 0.137E+00 0.242E+00
   -.139E+02 0.812E+01 -.840E+03   0.131E+02 -.765E+01 0.840E+03   0.103E+01 -.590E+00 -.111E+01   -.220E+00 0.132E+00 0.238E+00
   0.562E+01 -.337E+01 -.863E+03   -.605E+01 0.362E+01 0.863E+03   0.314E+00 -.166E+00 0.509E+00   0.122E+00 -.806E-01 -.125E-01
   0.764E-02 -.162E+02 -.840E+03   -.163E-02 0.153E+02 0.841E+03   0.213E-02 0.120E+01 -.113E+01   -.836E-02 -.286E+00 0.229E+00
   -.562E+01 -.336E+01 -.863E+03   0.605E+01 0.362E+01 0.863E+03   -.314E+00 -.166E+00 0.509E+00   -.119E+00 -.892E-01 -.105E-01
   -.196E+01 -.109E+01 -.873E+03   0.203E+01 0.112E+01 0.873E+03   -.364E-01 -.238E-01 0.559E+00   -.260E-01 -.304E-02 -.281E-01
   0.198E+01 -.109E+01 -.873E+03   -.203E+01 0.113E+01 0.873E+03   0.407E-01 -.237E-01 0.559E+00   0.513E-02 -.939E-02 -.274E-01
   -.572E-02 0.651E+01 -.864E+03   -.380E-03 -.702E+01 0.863E+03   -.945E-04 0.358E+00 0.498E+00   0.616E-02 0.149E+00 -.202E-01
   0.243E-02 0.572E+00 -.267E+04   0.444E-02 -.603E+00 0.267E+04   0.182E-03 0.163E-01 0.185E+01   -.703E-02 0.161E-01 0.357E+00
   0.212E+02 0.384E+02 -.265E+04   -.209E+02 -.381E+02 0.265E+04   -.482E+00 -.681E+00 0.180E+01   0.127E+00 0.253E+00 0.299E+00
   -.212E+02 0.384E+02 -.265E+04   0.209E+02 -.381E+02 0.265E+04   0.478E+00 -.681E+00 0.180E+01   -.107E+00 0.260E+00 0.294E+00
   0.442E+02 -.244E+00 -.265E+04   -.436E+02 0.375E+00 0.265E+04   -.974E+00 -.111E+00 0.159E+01   0.265E+00 -.159E-01 0.316E+00
   -.442E+02 -.245E+00 -.265E+04   0.436E+02 0.376E+00 0.265E+04   0.969E+00 -.111E+00 0.159E+01   -.253E+00 -.154E-01 0.313E+00
   0.216E+02 -.382E+02 -.265E+04   -.215E+02 0.377E+02 0.265E+04   -.298E+00 0.790E+00 0.181E+01   0.159E+00 -.225E+00 0.293E+00
   -.216E+02 -.382E+02 -.265E+04   0.215E+02 0.377E+02 0.265E+04   0.293E+00 0.790E+00 0.181E+01   -.137E+00 -.230E+00 0.296E+00
   0.105E-01 -.558E+00 -.267E+04   0.377E-02 0.593E+00 0.266E+04   0.246E-02 -.157E-01 0.199E+01   -.168E-01 -.217E-01 0.372E+00
   0.158E-01 -.213E-01 -.199E+04   -.208E-01 0.199E-01 0.199E+04   -.412E-04 0.367E-02 0.368E+01   0.532E-02 -.885E-03 0.171E+00
   0.715E+02 -.122E+00 -.307E+03   -.785E+02 0.134E+00 0.312E+03   0.698E+01 -.111E-01 -.470E+01   0.184E-01 -.212E-03 -.215E-01
   -.715E+02 -.688E-01 -.307E+03   0.785E+02 0.760E-01 0.312E+03   -.698E+01 -.603E-02 -.470E+01   -.182E-01 -.179E-03 -.219E-01
   -.751E-02 0.965E-01 -.162E+04   0.484E-02 -.201E+00 0.158E+04   -.377E-02 0.988E-01 0.412E+02   0.621E-02 0.640E-03 -.279E+00
   -.179E-01 -.134E+00 -.308E+02   -.570E-13 0.458E-12 -.318E-11   -.122E-01 0.120E+00 0.284E+02   0.335E-01 0.116E-01 0.237E+01

 POSITION                                       TOTAL-FORCE (eV/Angst)
      0.00000      0.00000      5.28219        -0.000091      0.000378      0.051750
      2.93046      0.00000      5.28219         0.002775      0.020107      0.035449
      5.86091      0.00000      5.28219        -0.002973      0.020066      0.035448
      1.46523      2.53785      5.28219         0.019846     -0.005879      0.035980
      4.39568      2.53785      5.28219         0.000086      0.000955      0.012444
      7.32614      2.53785      5.28219        -0.019979     -0.005909      0.036018
      2.93046      5.07570      5.28219         0.014046     -0.013885      0.036122
      5.86091      5.07570      5.28219        -0.014265     -0.013869      0.036150
      8.79137      5.07570      5.28219        -0.000273     -0.000583      0.040312
      1.46523      0.84595      7.67490         0.029474      0.015434     -0.016614
      4.39568      0.84595      7.67490         0.000125     -0.037471     -0.097260
      7.32614      0.84595      7.67490        -0.029636      0.015428     -0.016637
      2.93046      3.38380      7.67490        -0.032317      0.018496     -0.096548
      5.86091      3.38380      7.67490         0.032588      0.018518     -0.096531
      8.79137      3.38380      7.67490        -0.000064     -0.010654     -0.001514
      4.39568      5.92165      7.67490        -0.000092     -0.032577     -0.016468
      7.32614      5.92165      7.67490        -0.010925      0.006580     -0.003310
     10.25659      5.92165      7.67490         0.010749      0.006553     -0.003334
      8.79137      1.69615     10.06050        -0.000338     -0.010867     -0.017615
      2.93321      1.69349     10.03240         0.023104      0.013858     -0.039533
      5.85816      1.69349     10.03240        -0.023271      0.013851     -0.039587
     10.25564      4.23030     10.05204         0.000390     -0.000167     -0.008944
      4.39568      4.22657     10.03240        -0.000309     -0.027284     -0.033399
      7.32709      4.23030     10.05204        -0.000593     -0.000163     -0.008937
     11.71814      6.76547     10.06050         0.010348      0.005029     -0.007955
      5.86459      6.76547     10.06050        -0.011014      0.004997     -0.007925
      8.79137      6.76650     10.05204        -0.000120     -0.000569     -0.003013
      0.00000      0.00000     12.42190        -0.000062      0.001746      0.016592
      2.95118      0.03878     12.42853        -0.048803     -0.076492     -0.044840
      5.84018      0.03878     12.42853         0.049031     -0.076547     -0.044793
      1.50917      2.53641     12.42853        -0.092935      0.004704     -0.052684
      7.28219      2.53641     12.42853         0.093283      0.004578     -0.052819
      2.95367      5.03836     12.42853        -0.057731      0.072267     -0.046003
      5.83769      5.03836     12.42853         0.057852      0.072341     -0.046145
      8.79137      5.07570     12.41313        -0.000221     -0.002349      0.021547
      4.39568      2.53785     12.23685         0.000242      0.001539      0.498238
      3.60820      2.53874     15.21143         0.004618      0.001605     -0.011523
      5.18375      2.53816     15.21162        -0.002238      0.001101     -0.009969
      4.39607      2.53737     14.64288        -0.000306     -0.004863     -0.032150
    total drift:                                0.003434     -0.002896     -0.084731

  FREE ENERGIE OF THE ION-ELECTRON SYSTEM (eV)
  free  energy   TOTEN  =      -109.56482340 eV

  energy  without entropy=     -109.56482340  energy(sigma->0) =     -109.56482340

 stress matrix after NEB project (eV)
     -8.10344      0.00245      0.00020
      0.00245     -8.29540      0.00885
      0.00020      0.00885      0.16436
  FORCES: max atom, RMS     0.032517    0.005817
  FORCE total and by dimension    0.036327    0.032150
  Stress total and by dimension   11.597702    8.295403
|           W    W    AA    RRRRR   N    N  II  N    N   GGGG   !!!           |
|           W    W   A  A   R    R  NN   N  II  NN   N  G    G  !!!           |
|           W    W  A    A  R    R  N N  N  II  N N  N  G       !!!           |
|           W WW W  AAAAAA  RRRRR   N  N N  II  N  N N  G  GGG   !            |
|           WW  WW  A    A  R   R   N   NN  II  N   NN  G    G                |
|           W    W  A    A  R    R  N    N  II  N    N   GGGG   !!!           |
|     Tetrahedron method does not include variations of the Fermi             |
|     occupations, so forces and stress will be inaccurate. We suggest        |
|     using a different smearing scheme ISMEAR = 1 or 2 for metals in         |
|     relaxations.                                                            |

 total charge

# of ion       s       p       d       tot
    1        0.415   0.204   9.177   9.796
    2        0.420   0.203   9.177   9.800
    3        0.420   0.203   9.177   9.800
    4        0.420   0.203   9.177   9.800
    5        0.414   0.206   9.177   9.797
    6        0.420   0.203   9.177   9.800
    7        0.420   0.203   9.177   9.800
    8        0.420   0.203   9.177   9.800
    9        0.414   0.203   9.179   9.796
   10        0.406   0.269   9.163   9.839
   11        0.410   0.266   9.168   9.844
   12        0.406   0.269   9.163   9.839
   13        0.410   0.266   9.168   9.844
   14        0.410   0.266   9.168   9.844
   15        0.401   0.269   9.166   9.837
   16        0.406   0.269   9.163   9.839
   17        0.401   0.269   9.166   9.837
   18        0.401   0.269   9.166   9.837
   19        0.406   0.267   9.167   9.839
   20        0.417   0.289   9.154   9.860
   21        0.417   0.289   9.154   9.860
   22        0.400   0.273   9.167   9.840
   23        0.417   0.289   9.154   9.860
   24        0.400   0.273   9.167   9.839
   25        0.405   0.267   9.167   9.839
   26        0.405   0.267   9.167   9.839
   27        0.399   0.273   9.167   9.839
   28        0.416   0.200   9.179   9.796
   29        0.417   0.209   9.176   9.802
   30        0.417   0.209   9.176   9.802
   31        0.421   0.211   9.174   9.806
   32        0.421   0.211   9.174   9.806
   33        0.417   0.209   9.176   9.802
   34        0.417   0.209   9.176   9.802
   35        0.409   0.203   9.181   9.793
   36        0.344   0.260   7.469   8.073
   37        0.617   0.121   0.000   0.738
   38        0.617   0.121   0.000   0.738
   39        1.556   3.622   0.000   5.179
tot         17.550  12.515 328.433 358.497

 BZINTS: Fermi energy:    0.608755;  402.000000 electrons
         Band energy:-0.141533E+04;  BLOECHL correction:   -0.051140