 vasp.6.2.0 18Jan21 (build Jun 12 2021 23:27:24) complex

 executed on             LinuxIFC date 2022.05.27  05:03:03

 INCAR:
   ISMEAR = -5
   SIGMA = 0.1
   ISPIN = 1
   EDIFF = 1.d-5
   EDIFFG = -0.01
   NSW = 0
   NELM = 150
   ENCUT = 500
   ISIF = 2
   IBRION = 2
   LREAL = Auto
   ALGO = Fast
   ICHARG = 11
   LORBIT = 10
   LCHARG = .F.
   LWAVE = .F.

 POTCAR:    PAW_PBE Au 04Oct2007
 POTCAR:    PAW_PBE Fe 06Sep2000
 POTCAR:    PAW_PBE C 08Apr2002
 POTCAR:    PAW_PBE O 08Apr2002
|           W    W    AA    RRRRR   N    N  II  N    N   GGGG   !!!           |
|           W    W   A  A   R    R  NN   N  II  NN   N  G    G  !!!           |
|           W    W  A    A  R    R  N N  N  II  N N  N  G       !!!           |
|           W WW W  AAAAAA  RRRRR   N  N N  II  N  N N  G  GGG   !            |
|           WW  WW  A    A  R   R   N   NN  II  N   NN  G    G                |
|           W    W  A    A  R    R  N    N  II  N    N   GGGG   !!!           |
|     For optimal performance we recommend to set                             |
|       NCORE = 2 up to number-of-cores-per-socket                            |
|     This setting can greatly improve the performance of VASP for DFT.       |
|     The default, NCORE=1 might be grossly inefficient on modern             |
|     multi-core architectures or massively parallel machines. Do your        |
|     Unfortunately you need to use the default for GW and RPA                |
|     calculations (for HF NCORE is supported but not extensively tested      |
|     yet).                                                                   |

 POTCAR:    PAW_PBE Au 04Oct2007
   VRHFIN =Au: s1d10

   TITEL  = PAW_PBE Au 04Oct2007
   POMASS =  196.966; ZVAL   =   11.000    mass and valenz
   ENMAX  =  229.943; ENMIN  =  172.457 eV

 POTCAR:    PAW_PBE Fe 06Sep2000
   VRHFIN =Fe:  d7 s1

   TITEL  = PAW_PBE Fe 06Sep2000
   POMASS =   55.847; ZVAL   =    8.000    mass and valenz
   ENMAX  =  267.882; ENMIN  =  200.911 eV

 POTCAR:    PAW_PBE C 08Apr2002
   VRHFIN =C: s2p2

   TITEL  = PAW_PBE C 08Apr2002
   POMASS =   12.011; ZVAL   =    4.000    mass and valenz
   ENMAX  =  400.000; ENMIN  =  300.000 eV

 POTCAR:    PAW_PBE O 08Apr2002
   VRHFIN =O: s2p4

   TITEL  = PAW_PBE O 08Apr2002
   POMASS =   16.000; ZVAL   =    6.000    mass and valenz
   ENMAX  =  400.000; ENMIN  =  300.000 eV

 Optimization of the real space projectors (new method)

 maximal supplied QI-value         = 15.12
 optimisation between [QCUT,QGAM] = [ 11.34, 22.83] = [ 36.00,145.93] Ry
 Optimized for a Real-space Cutoff    1.39 Angstroem

   l    n(q)    QCUT    max X(q) W(low)/X(q) W(high)/X(q)  e(spline)
   2      9    11.338    60.898    0.39E-03    0.42E-03    0.21E-06
   2      9    11.338    58.894    0.40E-03    0.42E-03    0.22E-06
   0      9    11.338   109.617    0.13E-03    0.20E-04    0.13E-06
   0      9    11.338    75.026    0.13E-03    0.20E-04    0.13E-06
   1      9    11.338    16.344    0.33E-04    0.24E-03    0.18E-06
   1      9    11.338    10.160    0.26E-04    0.19E-03    0.15E-06
 Optimization of the real space projectors (new method)

[...]

   l    n(q)    QCUT    max X(q) W(low)/X(q) W(high)/X(q)  e(spline)
   0      7    11.310   115.676    0.43E-03    0.13E-02    0.19E-06
   0      7    11.310    87.132    0.43E-03    0.13E-02    0.18E-06
   1      6    11.310     4.429    0.42E-03    0.74E-03    0.11E-06
   1      6    11.310     2.733    0.34E-03    0.55E-03    0.92E-07
 Optimization of the real space projectors (new method)

 maximal supplied QI-value         = 24.76
 optimisation between [QCUT,QGAM] = [ 11.39, 22.77] = [ 36.31,145.25] Ry
 Optimized for a Real-space Cutoff    1.00 Angstroem

   l    n(q)    QCUT    max X(q) W(low)/X(q) W(high)/X(q)  e(spline)
   0      7    11.387    20.381    0.39E-03    0.13E-02    0.15E-06
   0      7    11.387    15.268    0.42E-03    0.14E-02    0.17E-06
   1      6    11.387     5.964    0.41E-03    0.11E-02    0.17E-06
   1      6    11.387     5.382    0.39E-03    0.87E-03    0.15E-06
  PAW_PBE Au 04Oct2007                  :
  PAW_PBE Fe 06Sep2000                  :
  PAW_PBE C 08Apr2002                   :
  PAW_PBE O 08Apr2002                   :

 POSCAR: Au-Fe-CO
  positions in direct lattice
  velocities in cartesian coordinates
 exchange correlation table for  LEXCH =        8
   RHO(1)=    0.500       N(1)  =     2000
   RHO(2)=  100.500       N(2)  =     4000

 VTST: version 3.2, (02/03/18)

 CHAIN: initializing optimizer

 OPT: Using VASP Conjugate-Gradient optimizer
 CHAIN: Read ICHAIN            0

 POSCAR: Au-Fe-CO
  positions in direct lattice
  velocities in cartesian coordinates

 ion  position               nearest neighbor table
   1  0.000  0.000  0.238-  16 2.94  12 2.94   6 2.94   8 2.94   7 2.94   3 2.94  10 2.94   4 2.94
                             2 2.94
   2  0.333  0.000  0.238-   9 2.94  11 2.94  17 2.94  10 2.94   8 2.94   4 2.94   5 2.94   1 2.94
                             3 2.94
   3  0.667  0.000  0.238-   7 2.94  18 2.94  12 2.94   1 2.94  11 2.94   5 2.94   6 2.94   9 2.94
                             2 2.94
   4  0.000  0.333  0.238-  10 2.94   6 2.94   5 2.94  13 2.94   2 2.94  15 2.94   9 2.94   1 2.94
                             7 2.94
   5  0.333  0.333  0.238-  13 2.94   7 2.94  11 2.94   4 2.94   2 2.94  14 2.94   3 2.94   8 2.94
                             6 2.94
   6  0.667  0.333  0.238-  15 2.94  14 2.94   1 2.94  12 2.94   4 2.94   9 2.94   8 2.94   3 2.94
                             5 2.94
   7  0.000  0.667  0.238-  18 2.94   3 2.94  16 2.94   5 2.94   1 2.94  13 2.94   8 2.94   4 2.94
                             9 2.94
   8  0.333  0.667  0.238-   9 2.94  17 2.94   1 2.94   2 2.94  14 2.94  16 2.94   6 2.94   7 2.94
                             5 2.94
   9  0.667  0.667  0.238-   2 2.94   8 2.94  17 2.94   6 2.94  15 2.94   4 2.94   3 2.94  18 2.94
                             7 2.94
  10  0.111  0.111  0.346-  20 2.93  26 2.94  19 2.94  11 2.94  17 2.94   2 2.94   4 2.94   1 2.94
                            12 2.94  16 2.94  13 2.94  15 2.94
  11  0.444  0.111  0.346-  20 2.91  21 2.91  27 2.93  13 2.94   2 2.94  10 2.94  17 2.94   5 2.94
                             3 2.94  18 2.94  14 2.94  12 2.94
  12  0.778  0.111  0.346-  21 2.93  25 2.94  19 2.94  16 2.94  18 2.94   1 2.94  14 2.94  15 2.94
                             3 2.94   6 2.94  10 2.94  11 2.94
  13  0.111  0.444  0.346-  23 2.91  20 2.91  22 2.93   5 2.94  18 2.94  11 2.94   7 2.94   4 2.94
                            16 2.94  10 2.94  14 2.94  15 2.94
  14  0.444  0.444  0.346-  21 2.91  23 2.91  24 2.93  15 2.94   6 2.94  12 2.94   8 2.94  17 2.94
                             5 2.94  16 2.94  13 2.94  11 2.94
  15  0.778  0.444  0.346-  24 2.92  22 2.92  19 2.94  14 2.94   6 2.94  17 2.94  12 2.94   9 2.94
                             4 2.94  10 2.94  13 2.94  18 2.94
  16  0.111  0.778  0.346-  23 2.93  25 2.94  26 2.94  18 2.94  12 2.94   7 2.94   1 2.94   8 2.94
                            13 2.94  10 2.94  14 2.94  17 2.94
  17  0.444  0.778  0.346-  27 2.92  24 2.92  26 2.94   9 2.94  15 2.94   2 2.94  10 2.94  11 2.94
                             8 2.94  14 2.94  16 2.94  18 2.94
  18  0.778  0.778  0.346-  22 2.92  27 2.92  25 2.94  16 2.94   7 2.94  13 2.94  12 2.94   3 2.94
                            11 2.94   9 2.94  15 2.94  17 2.94
  19  0.889  0.222  0.454-  10 2.94  12 2.94  15 2.94  26 2.94  25 2.94  24 2.94  22 2.94  28 2.95
                            21 2.95  20 2.95  32 2.98  31 2.98
  20  0.223  0.223  0.453-  36 2.70  23 2.91  21 2.91  11 2.91  13 2.91  29 2.92  31 2.92  10 2.93
                            27 2.95  22 2.95  26 2.95  19 2.95
  21  0.553  0.223  0.453-  36 2.70  20 2.91  23 2.91  14 2.91  11 2.91  30 2.92  32 2.92  12 2.93
                            27 2.95  24 2.95  25 2.95  19 2.95
  22  0.887  0.557  0.453-  24 2.91  27 2.91  18 2.92  15 2.92  13 2.93  25 2.94  19 2.94  33 2.95
                            31 2.95  23 2.95  20 2.95  35 2.95
  23  0.223  0.553  0.453-  36 2.70  20 2.91  21 2.91  13 2.91  14 2.91  33 2.92  34 2.92  16 2.93
                            22 2.95  24 2.95  25 2.95  26 2.95
  24  0.557  0.557  0.453-  27 2.91  22 2.91  15 2.92  17 2.92  14 2.93  26 2.94  19 2.94  32 2.95
                            34 2.95  21 2.95  23 2.95  35 2.95
  25  0.889  0.889  0.454-  16 2.94  12 2.94  18 2.94  19 2.94  26 2.94  22 2.94  27 2.94  28 2.95
                            23 2.95  21 2.95  33 2.98  30 2.98
  26  0.222  0.889  0.454-  10 2.94  16 2.94  17 2.94  19 2.94  25 2.94  27 2.94  24 2.94  28 2.95
                            20 2.95  23 2.95  29 2.98  34 2.98
  27  0.557  0.887  0.453-  24 2.91  22 2.91  17 2.92  18 2.92  11 2.93  26 2.94  25 2.94  29 2.95
                            30 2.95  20 2.95  21 2.95  35 2.95
  28  0.000  0.000  0.563-  25 2.95  19 2.95  26 2.95  34 2.98  32 2.98  33 2.98  30 2.98  31 2.98
                            29 2.98
  29  0.333  0.010  0.562-  30 2.85  31 2.85  36 2.87  20 2.92  27 2.95  26 2.98  35 2.98  28 2.98
                            34 3.11
  30  0.657  0.010  0.562-  29 2.85  32 2.85  36 2.87  21 2.92  27 2.95  25 2.98  35 2.98  28 2.98
                            33 3.11
  31  0.010  0.333  0.562-  33 2.85  29 2.85  36 2.87  20 2.92  22 2.95  19 2.98  35 2.98  28 2.98
                            32 3.11
  32  0.657  0.333  0.562-  34 2.85  30 2.85  36 2.87  21 2.92  24 2.95  19 2.98  35 2.98  28 2.98
                            31 3.11
  33  0.010  0.657  0.562-  31 2.85  34 2.85  36 2.87  23 2.92  22 2.95  25 2.98  35 2.98  28 2.98
                            30 3.11
  34  0.333  0.657  0.562-  32 2.85  33 2.85  36 2.87  23 2.92  24 2.95  26 2.98  35 2.98  28 2.98
                            29 3.11
  35  0.667  0.667  0.563-  24 2.95  27 2.95  22 2.95  29 2.98  34 2.98  32 2.98  31 2.98  30 2.98
                            33 2.98
  36  0.333  0.333  0.548-  37 1.76  20 2.70  23 2.70  21 2.70  33 2.87  31 2.87  29 2.87  30 2.87
                            34 2.87  32 2.87
  37  0.333  0.333  0.627-  38 1.17  36 1.76
  38  0.333  0.333  0.680-  37 1.17

  LATTYP: Found a hexagonal cell.
 ALAT       =     8.8135128021
 C/A-ratio  =     2.5184286595

  Lattice vectors:

 A1 = (  -4.4067569092,  -7.6327256898,   0.0000000000)
 A2 = (   8.8135128021,   0.0000000000,   0.0000000000)
 A3 = (   0.0000000000,   0.0000000000,  22.1962032318)

Analysis of symmetry for initial positions (statically):
 Subroutine PRICEL returns:
 Original cell was already a primitive cell.

 Routine SETGRP: Setting up the symmetry group for a
 hexagonal supercell.

 Subroutine GETGRP returns: Found  6 space group operations
 (whereof  6 operations were pure point group operations)
 out of a pool of 24 trial point group operations.

The static configuration has the point symmetry C_3v.

Analysis of symmetry for dynamics (positions and initial velocities):
 Subroutine PRICEL returns:
 Original cell was already a primitive cell.

[...]

The dynamic configuration has the point symmetry C_3v.

Analysis of constrained symmetry for selective dynamics:
 Subroutine PRICEL returns:
[...]
     33      -4.8407      2.00000
     34      -4.7914      2.00000
     35      -4.7744      2.00000
     36      -4.7595      2.00000
     37      -4.7550      2.00000
     38      -4.7326      2.00000
     39      -4.6173      2.00000
     40      -4.5671      2.00000
     41      -4.5532      2.00000
     42      -4.5389      2.00000
     43      -4.5104      2.00000
     44      -4.4461      2.00000
     45      -4.4110      2.00000
     46      -4.3808      2.00000
     47      -4.3112      2.00000
     48      -4.2984      2.00000
     49      -4.2925      2.00000
     50      -4.2823      2.00000
     51      -4.1809      2.00000
     52      -4.1618      2.00000
     53      -4.1295      2.00000
     54      -4.1183      2.00000
     55      -4.1106      2.00000
     56      -4.1041      2.00000
     57      -4.0870      2.00000
     58      -4.0521      2.00000
     59      -4.0136      2.00000
     60      -3.9789      2.00000
[...]
    238       6.1251      0.00000
    239       6.4224      0.00000
    240       6.4590      0.00000
    241       6.5101      0.00000
    242       6.5375      0.00000
    243       6.5460      0.00000
    244       6.5925      0.00000
    245       6.7964      0.00000
    246       6.8358      0.00000
    247       6.8443      0.00000
    248       6.8945      0.00000
    249       7.1886      0.00000
    250       7.2133      0.00000
    251       7.3054      0.00000
    252       7.5977      0.00000

 soft charge-density along one line, spin component           1
         0         1         2         3         4         5         6         7         8         9
 total charge-density along one line

------------------------ aborting loop because EDIFF is reached ----------------------------------------

 total charge

# of ion       s       p       d       tot
    1        0.545   0.238   8.770   9.553
    2        0.545   0.241   8.766   9.551
    3        0.545   0.241   8.766   9.551
    4        0.545   0.241   8.766   9.551
    5        0.544   0.242   8.761   9.547
    6        0.545   0.241   8.766   9.551
    7        0.545   0.241   8.766   9.551
    8        0.545   0.241   8.766   9.551
    9        0.542   0.239   8.772   9.553
   10        0.521   0.308   8.771   9.600
   11        0.523   0.307   8.780   9.611
   12        0.521   0.308   8.771   9.600
   13        0.523   0.307   8.780   9.611
   14        0.523   0.307   8.780   9.611
   15        0.516   0.310   8.776   9.602
   16        0.521   0.308   8.771   9.600
   17        0.516   0.310   8.776   9.602
   18        0.516   0.310   8.776   9.602
   19        0.517   0.300   8.775   9.592
   20        0.548   0.328   8.754   9.630
   21        0.548   0.328   8.754   9.630
   22        0.511   0.311   8.776   9.598
   23        0.548   0.328   8.754   9.630
   24        0.511   0.311   8.776   9.598
   25        0.517   0.300   8.775   9.592
   26        0.517   0.300   8.775   9.592
   27        0.511   0.311   8.776   9.598
   28        0.540   0.222   8.768   9.530
   29        0.550   0.238   8.760   9.548
   30        0.550   0.238   8.760   9.548
   31        0.550   0.238   8.760   9.548
   32        0.550   0.238   8.760   9.548
   33        0.550   0.238   8.760   9.548
   34        0.550   0.238   8.760   9.548
   35        0.535   0.223   8.770   9.528
   36        0.393   0.461   6.328   7.183
   37        0.964   1.553   0.000   2.517
   38        1.613   3.526   0.000   5.138
tot         21.647  15.174 313.219 350.040

  FORCE on cell =-STRESS in cart. coord.  units (eV):
  Direction    XX          YY          ZZ          XY          YZ          ZX
  Alpha Z  1035.39337  1035.39337  1035.39337
  Ewald  118323.03870118323.03914************    -0.00031    -0.00008    -0.00012
  Hartree127270.65937127270.65938************     0.00001    -0.00002    -0.00003
  E(xc)   -1811.27381 -1811.27389 -1817.21674     0.00007    -0.00001    -0.00002
  Local  ************************257632.02803     0.00210     0.00001    -0.00002
  n-local  -130.05451   -82.60016   -88.07983    23.33542    -1.51021     1.58873
  augment  2410.70962  2410.71122  2423.16138    -0.00139     0.00000     0.00004
  Kinetic  5613.42911  5625.28031  5637.76176     6.78425    -0.07760     0.53939
  Fock        0.00000     0.00000     0.00000     0.00000     0.00000     0.00000
  Total     -22.90534   -22.90533     1.49044    -0.00000     0.00000     0.00000
  in kB     -24.57762   -24.57762     1.59926    -0.00000     0.00000     0.00000

 VOLUME and BASIS-vectors are now :
  energy-cutoff  :      500.00
  volume of cell :     1493.16
      direct lattice vectors                 reciprocal lattice vectors
     8.813512802  0.000000000  0.000000000     0.113462137 -0.065507406  0.000000000
     4.406756909  7.632725690  0.000000000     0.000000000  0.131014796  0.000000000
     0.000000000  0.000000000 22.196203232     0.000000000  0.000000000  0.045052750

  length of vectors
     8.813512802  8.813512802 22.196203232     0.131014796  0.131014796  0.045052750

 FORCES acting on ions
    electron-ion (+dipol)            ewald-force                    non-local-force                 convergence-correction
   -.195E-04 -.162E-04 0.250E+04   0.519E-04 0.434E-04 -.250E+04   0.980E-17 0.548E-18 -.876E+00   -.238E-03 -.151E-03 -.408E+00
   0.593E+00 0.360E+00 0.250E+04   -.675E+00 -.505E+00 -.250E+04   0.478E-01 0.731E-01 -.319E+00   0.366E-01 0.855E-01 -.439E+00
   -.594E+00 0.360E+00 0.250E+04   0.675E+00 -.505E+00 -.250E+04   -.478E-01 0.731E-01 -.319E+00   -.363E-01 0.875E-01 -.438E+00
   0.609E+00 0.334E+00 0.250E+04   -.775E+00 -.332E+00 -.250E+04   0.872E-01 0.484E-02 -.319E+00   0.925E-01 -.111E-01 -.439E+00
   0.919E-05 -.230E-04 0.250E+04   0.951E-04 0.173E-05 -.250E+04   0.425E-17 0.280E-17 -.141E+00   0.428E-02 0.260E-02 -.380E+00
   -.609E+00 0.334E+00 0.250E+04   0.775E+00 -.332E+00 -.250E+04   -.872E-01 0.484E-02 -.319E+00   -.940E-01 -.102E-01 -.438E+00
   0.152E-01 -.694E+00 0.250E+04   -.995E-01 0.837E+00 -.250E+04   0.394E-01 -.779E-01 -.319E+00   0.577E-01 -.752E-01 -.438E+00
   -.152E-01 -.694E+00 0.250E+04   0.994E-01 0.837E+00 -.250E+04   -.394E-01 -.779E-01 -.319E+00   -.558E-01 -.763E-01 -.438E+00
   0.194E-04 -.416E-04 0.250E+04   0.166E-03 -.201E-04 -.250E+04   -.918E-18 -.189E-17 -.607E+00   -.459E-02 -.237E-02 -.503E+00
   0.521E+01 0.301E+01 0.863E+03   -.506E+01 -.292E+01 -.863E+03   -.258E+00 -.149E+00 -.642E+00   0.112E+00 0.648E-01 0.504E+00
   0.153E-04 0.647E+01 0.873E+03   0.147E-03 -.671E+01 -.873E+03   0.492E-08 0.739E-01 -.295E+00   0.405E-02 0.116E+00 0.573E+00
   -.521E+01 0.301E+01 0.863E+03   0.506E+01 -.292E+01 -.863E+03   0.258E+00 -.149E+00 -.642E+00   -.114E+00 0.660E-01 0.504E+00
   0.561E+01 -.324E+01 0.873E+03   -.581E+01 0.335E+01 -.873E+03   0.640E-01 -.369E-01 -.295E+00   0.103E+00 -.544E-01 0.573E+00
   -.561E+01 -.324E+01 0.873E+03   0.581E+01 0.335E+01 -.873E+03   -.640E-01 -.369E-01 -.295E+00   -.954E-01 -.552E-01 0.572E+00
   0.308E-04 0.315E+01 0.866E+03   0.236E-03 -.314E+01 -.865E+03   0.414E-09 0.622E-02 -.533E+00   -.224E-02 -.621E-01 0.446E+00
   -.216E-04 -.601E+01 0.863E+03   0.163E-03 0.584E+01 -.863E+03   0.199E-07 0.298E+00 -.642E+00   -.172E-04 -.132E+00 0.504E+00
   0.273E+01 -.158E+01 0.866E+03   -.272E+01 0.157E+01 -.865E+03   0.539E-02 -.311E-02 -.533E+00   -.547E-01 0.295E-01 0.446E+00
   -.273E+01 -.158E+01 0.866E+03   0.272E+01 0.157E+01 -.865E+03   -.539E-02 -.311E-02 -.533E+00   0.551E-01 0.315E-01 0.446E+00
   -.406E-04 0.313E+01 -.806E+03   0.537E-04 -.317E+01 0.804E+03   0.192E-08 0.289E-01 0.658E+00   -.318E-02 0.185E-01 0.128E+01
   0.306E+02 0.177E+02 -.754E+03   -.303E+02 -.175E+02 0.753E+03   -.106E+01 -.611E+00 -.948E+00   0.743E+00 0.429E+00 0.225E+01
   -.306E+02 0.177E+02 -.754E+03   0.303E+02 -.175E+02 0.753E+03   0.106E+01 -.611E+00 -.948E+00   -.747E+00 0.429E+00 0.225E+01
   0.735E+01 -.424E+01 -.790E+03   -.804E+01 0.464E+01 0.788E+03   0.337E+00 -.195E+00 0.548E+00   0.392E+00 -.229E+00 0.139E+01
   -.104E-04 -.353E+02 -.754E+03   0.143E-03 0.350E+02 0.753E+03   0.813E-07 0.122E+01 -.948E+00   -.218E-02 -.861E+00 0.225E+01
   -.735E+01 -.424E+01 -.790E+03   0.804E+01 0.464E+01 0.788E+03   -.337E+00 -.195E+00 0.548E+00   -.397E+00 -.229E+00 0.139E+01
   -.271E+01 -.156E+01 -.806E+03   0.275E+01 0.159E+01 0.804E+03   -.250E-01 -.144E-01 0.658E+00   -.194E-01 -.113E-01 0.128E+01
   0.271E+01 -.156E+01 -.806E+03   -.275E+01 0.159E+01 0.804E+03   0.250E-01 -.144E-01 0.658E+00   0.147E-01 -.120E-01 0.128E+01
   0.120E-04 0.848E+01 -.790E+03   0.196E-03 -.928E+01 0.788E+03   0.259E-07 0.389E+00 0.548E+00   -.290E-02 0.454E+00 0.139E+01
   -.141E-04 -.144E-04 -.243E+04   0.308E-04 0.356E-04 0.243E+04   -.900E-17 0.242E-17 0.713E+00   -.464E-04 -.455E-04 0.923E+00
   0.413E+02 0.693E+02 -.240E+04   -.415E+02 -.696E+02 0.240E+04   -.544E+00 -.816E+00 0.612E+00   0.612E+00 0.107E+01 0.822E+00
   -.413E+02 0.693E+02 -.240E+04   0.415E+02 -.696E+02 0.240E+04   0.544E+00 -.816E+00 0.612E+00   -.611E+00 0.107E+01 0.822E+00
   0.807E+02 0.118E+01 -.240E+04   -.811E+02 -.110E+01 0.240E+04   -.979E+00 -.632E-01 0.612E+00   0.124E+01 -.690E-02 0.822E+00
   -.807E+02 0.118E+01 -.240E+04   0.811E+02 -.110E+01 0.240E+04   0.979E+00 -.632E-01 0.612E+00   -.124E+01 -.610E-02 0.822E+00
   0.393E+02 -.704E+02 -.240E+04   -.396E+02 0.707E+02 0.240E+04   -.435E+00 0.880E+00 0.612E+00   0.625E+00 -.107E+01 0.822E+00
   -.393E+02 -.704E+02 -.240E+04   0.396E+02 0.707E+02 0.240E+04   0.435E+00 0.880E+00 0.612E+00   -.623E+00 -.107E+01 0.822E+00
   0.352E-04 -.269E-04 -.244E+04   0.140E-03 -.510E-04 0.244E+04   0.223E-17 0.651E-18 0.658E+00   -.443E-02 -.226E-02 0.925E+00
   -.315E-04 -.161E-04 -.149E+04   0.846E-04 0.789E-05 0.149E+04   0.670E-17 -.245E-17 -.113E+01   0.475E-02 0.290E-02 0.893E+00
   -.381E-05 -.823E-04 -.876E+03   0.165E-04 0.107E-05 0.861E+03   0.107E-18 0.380E-18 0.161E+02   0.126E-02 0.766E-03 -.932E+00
   0.241E-03 -.909E-04 -.156E+04   0.631E-05 0.608E-06 0.162E+04   0.203E-18 0.190E-18 -.589E+02   0.375E-02 0.229E-02 -.717E+00
   -.536E-03 -.948E-03 0.252E+02   0.127E-12 0.339E-12 0.318E-11   0.342E-15 0.110E-15 -.460E+02   -.766E-02 -.358E-02 0.214E+02

 POSITION                                       TOTAL-FORCE (eV/Angst)
      0.00000      0.00000      5.28038         0.000000     -0.000000     -0.126921
      2.93784      0.00000      5.28038         0.003267      0.015242     -0.058055
      5.87568      0.00000      5.28038        -0.003267      0.015242     -0.058055
      1.46892      2.54424      5.28038         0.014833     -0.004792     -0.058055
      4.40676      2.54424      5.28038         0.000000     -0.000000     -0.088307
      7.34459      2.54424      5.28038        -0.014833     -0.004792     -0.058055
      2.93784      5.08848      5.28038         0.011566     -0.010450     -0.058055
      5.87568      5.08848      5.28038        -0.011566     -0.010450     -0.058055
      8.81351      5.08848      5.28038        -0.000000     -0.000000     -0.070300
      1.46892      0.84808      7.67911         0.005385      0.003109      0.117940
      4.40676      0.84808      7.67911        -0.000000     -0.043868      0.044794
      7.34459      0.84808      7.67911        -0.005385      0.003109      0.117940
      2.93784      3.39232      7.67911        -0.037991      0.021934      0.044794
      5.87568      3.39232      7.67911         0.037991      0.021934      0.044794
      8.81351      3.39232      7.67911        -0.000000     -0.038557      0.095676
      4.40676      5.93656      7.67911        -0.000000     -0.006218      0.117940
      7.34459      5.93656      7.67911        -0.033391      0.019279      0.095676
     10.28243      5.93656      7.67911         0.033391      0.019279      0.095676
      8.81351      1.69603     10.07519         0.000000      0.005240      0.006792
      2.95264      1.70471     10.05068        -0.024761     -0.014296     -0.164698
      5.86088      1.70471     10.05068         0.024761     -0.014296     -0.164698
     10.26798      4.24875     10.06116         0.038298     -0.022111     -0.001672
      4.40676      4.22331     10.05068         0.000000      0.028592     -0.164698
      7.35905      4.24875     10.06116        -0.038298     -0.022111     -0.001672
     11.75147      6.78471     10.07519        -0.004538     -0.002620      0.006792
      5.87556      6.78471     10.07519         0.004538     -0.002620      0.006792
      8.81351      6.76796     10.06116         0.000000      0.044223     -0.001672
      0.00000      0.00000     12.48698         0.000000     -0.000000     -0.043916
      2.98147      0.07441     12.46921        -0.067763     -0.133495     -0.085597
      5.83205      0.07441     12.46921         0.067763     -0.133495     -0.085597
      1.55518      2.54482     12.46921        -0.149491      0.008063     -0.085597
      7.25833      2.54482     12.46921         0.149491      0.008063     -0.085597
      2.98047      5.01349     12.46921        -0.081728      0.125432     -0.085597
      5.83305      5.01349     12.46921         0.081728      0.125432     -0.085597
      8.81351      5.08848     12.49182        -0.000000     -0.000000     -0.028205
      4.40676      2.54424     12.16047        -0.000000     -0.000000      0.822208
      4.40676      2.54424     13.91890         0.000000     -0.000000      0.141162
      4.40676      2.54424     15.08889         0.000000     -0.000000     -0.040312
    total drift:                               -0.008199     -0.004523      0.593177

  FREE ENERGIE OF THE ION-ELECTRON SYSTEM (eV)
  free  energy   TOTEN  =      -129.67733807 eV

  energy  without entropy=     -129.67733807  energy(sigma->0) =     -129.67733807

 stress matrix after NEB project (eV)
    -22.90534     -0.00000      0.00000
     -0.00000    -22.90533     -0.00000
      0.00000      0.00000      1.49044
  FORCES: max atom, RMS     0.141162    0.023815
  FORCE total and by dimension    0.146805    0.141162
  Stress total and by dimension   32.427305   22.905335
|           W    W    AA    RRRRR   N    N  II  N    N   GGGG   !!!           |
|           W    W   A  A   R    R  NN   N  II  NN   N  G    G  !!!           |
|           W    W  A    A  R    R  N N  N  II  N N  N  G       !!!           |
|           W WW W  AAAAAA  RRRRR   N  N N  II  N  N N  G  GGG   !            |
|           WW  WW  A    A  R   R   N   NN  II  N   NN  G    G                |
|           W    W  A    A  R    R  N    N  II  N    N   GGGG   !!!           |
|     Tetrahedron method does not include variations of the Fermi             |
|     occupations, so forces and stress will be inaccurate. We suggest        |
|     using a different smearing scheme ISMEAR = 1 or 2 for metals in         |
|     relaxations.                                                            |

 total charge

# of ion       s       p       d       tot
    1        0.545   0.238   8.770   9.553
    2        0.545   0.241   8.766   9.551
    3        0.545   0.241   8.766   9.551
    4        0.545   0.241   8.766   9.551
    5        0.544   0.242   8.761   9.547
    6        0.545   0.241   8.766   9.551
    7        0.545   0.241   8.766   9.551
    8        0.545   0.241   8.766   9.551
    9        0.542   0.239   8.772   9.553
   10        0.521   0.308   8.771   9.600
   11        0.523   0.307   8.780   9.611
   12        0.521   0.308   8.771   9.600
   13        0.523   0.307   8.780   9.611
   14        0.523   0.307   8.780   9.611
   15        0.516   0.310   8.776   9.602
   16        0.521   0.308   8.771   9.600
   17        0.516   0.310   8.776   9.602
   18        0.516   0.310   8.776   9.602
   19        0.517   0.300   8.775   9.592
   20        0.548   0.328   8.754   9.630
   21        0.548   0.328   8.754   9.630
   22        0.511   0.311   8.776   9.598
   23        0.548   0.328   8.754   9.630
   24        0.511   0.311   8.776   9.598
   25        0.517   0.300   8.775   9.592
   26        0.517   0.300   8.775   9.592
   27        0.511   0.311   8.776   9.598
   28        0.540   0.222   8.768   9.530
   29        0.550   0.238   8.760   9.548
   30        0.550   0.238   8.760   9.548
   31        0.550   0.238   8.760   9.548
   32        0.550   0.238   8.760   9.548
   33        0.550   0.238   8.760   9.548
   34        0.550   0.238   8.760   9.548
   35        0.535   0.223   8.770   9.528
   36        0.393   0.461   6.328   7.183
   37        0.964   1.553   0.000   2.517
   38        1.613   3.526   0.000   5.138
tot         21.647  15.174 313.219 350.040

 BZINTS: Fermi energy:    0.665251;  403.000000 electrons
         Band energy:-0.127079E+04;  BLOECHL correction:   -0.054542