 vasp.6.2.0 18Jan21 (build Jun 12 2021 23:27:24) complex

 executed on             LinuxIFC date 2022.05.26  19:28:08

 INCAR:
   ISMEAR = -5
   SIGMA = 0.1
   ISPIN = 1
   EDIFF = 1.d-5
   EDIFFG = -0.01
   NSW = 0
   NELM = 150
   ENCUT = 500
   ISIF = 2
   IBRION = 2
   LREAL = Auto
   ALGO = Fast
   ICHARG = 11
   LORBIT = 10
   LCHARG = .F.
   LWAVE = .F.

 POTCAR:    PAW_PBE Au 04Oct2007
 POTCAR:    PAW_PBE Rh 04Feb2005
 POTCAR:    PAW_PBE N 08Apr2002
|           W    W    AA    RRRRR   N    N  II  N    N   GGGG   !!!           |
|           W    W   A  A   R    R  NN   N  II  NN   N  G    G  !!!           |
|           W    W  A    A  R    R  N N  N  II  N N  N  G       !!!           |
|           W WW W  AAAAAA  RRRRR   N  N N  II  N  N N  G  GGG   !            |
|           WW  WW  A    A  R   R   N   NN  II  N   NN  G    G                |
|           W    W  A    A  R    R  N    N  II  N    N   GGGG   !!!           |
|     For optimal performance we recommend to set                             |
|       NCORE = 2 up to number-of-cores-per-socket                            |
|     This setting can greatly improve the performance of VASP for DFT.       |
|     The default, NCORE=1 might be grossly inefficient on modern             |
|     multi-core architectures or massively parallel machines. Do your        |
|     Unfortunately you need to use the default for GW and RPA                |
|     calculations (for HF NCORE is supported but not extensively tested      |
|     yet).                                                                   |

 POTCAR:    PAW_PBE Au 04Oct2007
   VRHFIN =Au: s1d10

   TITEL  = PAW_PBE Au 04Oct2007
   POMASS =  196.966; ZVAL   =   11.000    mass and valenz
   ENMAX  =  229.943; ENMIN  =  172.457 eV

 POTCAR:    PAW_PBE Rh 04Feb2005
   VRHFIN =Rh: s1 d8

   TITEL  = PAW_PBE Rh 04Feb2005
   POMASS =  102.906; ZVAL   =    9.000    mass and valenz
   ENMAX  =  228.996; ENMIN  =  171.747 eV

 POTCAR:    PAW_PBE N 08Apr2002
   VRHFIN =N: s2p3

   TITEL  = PAW_PBE N 08Apr2002
   POMASS =   14.001; ZVAL   =    5.000    mass and valenz
   ENMAX  =  400.000; ENMIN  =  300.000 eV

 Optimization of the real space projectors (new method)

 maximal supplied QI-value         = 15.12
 optimisation between [QCUT,QGAM] = [ 11.34, 22.83] = [ 36.00,145.93] Ry
 Optimized for a Real-space Cutoff    1.39 Angstroem

   l    n(q)    QCUT    max X(q) W(low)/X(q) W(high)/X(q)  e(spline)
   2      9    11.338    60.898    0.39E-03    0.42E-03    0.21E-06
   2      9    11.338    58.894    0.40E-03    0.42E-03    0.22E-06
   0      9    11.338   109.617    0.13E-03    0.20E-04    0.13E-06
   0      9    11.338    75.026    0.13E-03    0.20E-04    0.13E-06
   1      9    11.338    16.344    0.33E-04    0.24E-03    0.18E-06
   1      9    11.338    10.160    0.26E-04    0.19E-03    0.15E-06
 Optimization of the real space projectors (new method)

[...]

   l    n(q)    QCUT    max X(q) W(low)/X(q) W(high)/X(q)  e(spline)
   2      9    11.327    59.645    0.31E-03    0.12E-04    0.28E-06
   2      9    11.327    58.460    0.31E-03    0.12E-04    0.29E-06
   0     10    11.327    97.683    0.32E-04    0.83E-04    0.31E-06
   0     10    11.327    53.223    0.30E-04    0.78E-04    0.29E-06
   1     10    11.327    13.596    0.49E-03    0.95E-03    0.55E-06
   1     10    11.327     7.885    0.36E-03    0.71E-03    0.41E-06
 Optimization of the real space projectors (new method)

 maximal supplied QI-value         = 25.13
 optimisation between [QCUT,QGAM] = [ 11.31, 22.87] = [ 35.82,146.48] Ry
 Optimized for a Real-space Cutoff    1.27 Angstroem

   l    n(q)    QCUT    max X(q) W(low)/X(q) W(high)/X(q)  e(spline)
   0      9    11.310    79.467    0.75E-04    0.16E-03    0.36E-06
   0      9    11.310    66.151    0.74E-04    0.16E-03    0.36E-06
   1      8    11.310    17.416    0.35E-03    0.12E-03    0.95E-06
   1      8    11.310    12.382    0.37E-03    0.13E-03    0.98E-06
  PAW_PBE Au 04Oct2007                  :
  PAW_PBE Rh 04Feb2005                  :
  PAW_PBE N 08Apr2002                   :

 POSCAR: Au-Rh-N
  positions in direct lattice
  velocities in cartesian coordinates
 exchange correlation table for  LEXCH =        8
   RHO(1)=    0.500       N(1)  =     2000
   RHO(2)=  100.500       N(2)  =     4000

 VTST: version 3.2, (02/03/18)

 CHAIN: initializing optimizer

 OPT: Using VASP Conjugate-Gradient optimizer
 CHAIN: Read ICHAIN            0

 POSCAR: Au-Rh-N
  positions in direct lattice
  velocities in cartesian coordinates

 ion  position               nearest neighbor table
   1  0.000  0.000  0.238-  16 2.94  12 2.94   6 2.94   8 2.94   7 2.94   3 2.94  10 2.94   4 2.94
                             2 2.94
   2  0.333  0.000  0.238-   9 2.94  11 2.94  17 2.94  10 2.94   8 2.94   4 2.94   5 2.94   1 2.94
                             3 2.94
   3  0.667  0.000  0.238-   7 2.94  18 2.94  12 2.94   1 2.94  11 2.94   5 2.94   6 2.94   9 2.94
                             2 2.94
   4  0.000  0.333  0.238-  10 2.94   6 2.94   5 2.94  13 2.94   2 2.94  15 2.94   9 2.94   1 2.94
                             7 2.94
   5  0.333  0.333  0.238-  13 2.94   7 2.94  11 2.94   4 2.94   2 2.94  14 2.94   3 2.94   8 2.94
                             6 2.94
   6  0.667  0.333  0.238-  15 2.94  14 2.94   1 2.94  12 2.94   4 2.94   9 2.94   8 2.94   3 2.94
                             5 2.94
   7  0.000  0.667  0.238-  18 2.94   3 2.94  16 2.94   5 2.94   1 2.94  13 2.94   8 2.94   4 2.94
                             9 2.94
   8  0.333  0.667  0.238-   9 2.94  17 2.94   1 2.94   2 2.94  14 2.94  16 2.94   6 2.94   7 2.94
                             5 2.94
   9  0.667  0.667  0.238-   2 2.94   8 2.94  17 2.94   6 2.94  15 2.94   4 2.94   3 2.94  18 2.94
                             7 2.94
  10  0.111  0.111  0.346-  20 2.91  26 2.93  19 2.93  11 2.94  17 2.94   2 2.94   4 2.94   1 2.94
                            12 2.94  16 2.94  13 2.94  15 2.94
  11  0.444  0.111  0.346-  20 2.91  21 2.91  27 2.93  13 2.94   2 2.94  10 2.94  17 2.94   5 2.94
                             3 2.94  18 2.94  14 2.94  12 2.94
  12  0.778  0.111  0.346-  21 2.91  25 2.93  19 2.93  16 2.94  18 2.94   1 2.94  14 2.94  15 2.94
                             3 2.94   6 2.94  10 2.94  11 2.94
  13  0.111  0.444  0.346-  23 2.91  20 2.91  22 2.93   5 2.94  18 2.94  11 2.94   7 2.94   4 2.94
                            16 2.94  10 2.94  14 2.94  15 2.94
  14  0.444  0.444  0.346-  21 2.91  23 2.91  24 2.93  15 2.94   6 2.94  12 2.94   8 2.94  17 2.94
                             5 2.94  16 2.94  13 2.94  11 2.94
  15  0.778  0.444  0.346-  24 2.93  22 2.93  19 2.93  14 2.94   6 2.94  17 2.94  12 2.94   9 2.94
                             4 2.94  10 2.94  13 2.94  18 2.94
  16  0.111  0.778  0.346-  23 2.91  25 2.93  26 2.93  18 2.94  12 2.94   7 2.94   1 2.94   8 2.94
                            13 2.94  10 2.94  14 2.94  17 2.94
  17  0.444  0.778  0.346-  27 2.93  24 2.93  26 2.93   9 2.94  15 2.94   2 2.94  10 2.94  11 2.94
                             8 2.94  14 2.94  16 2.94  18 2.94
  18  0.778  0.778  0.346-  22 2.93  27 2.93  25 2.93  16 2.94   7 2.94  13 2.94  12 2.94   3 2.94
                            11 2.94   9 2.94  15 2.94  17 2.94
  19  0.889  0.222  0.454-  15 2.93  10 2.93  12 2.93  21 2.94  20 2.94  24 2.94  22 2.94  26 2.94
                            25 2.94  28 2.96  32 2.96  31 2.96
  20  0.222  0.222  0.453-  36 2.79  10 2.91  11 2.91  13 2.91  26 2.94  19 2.94  23 2.94  21 2.94
                            27 2.94  22 2.94  29 2.95  31 2.95
  21  0.556  0.222  0.453-  36 2.79  12 2.91  14 2.91  11 2.91  25 2.94  19 2.94  20 2.94  23 2.94
                            27 2.94  24 2.94  30 2.95  32 2.95
  22  0.888  0.556  0.454-  24 2.92  27 2.92  18 2.93  15 2.93  13 2.93  25 2.94  19 2.94  23 2.94
                            20 2.94  33 2.95  31 2.95  35 2.96
  23  0.222  0.556  0.453-  36 2.79  16 2.91  13 2.91  14 2.91  25 2.94  26 2.94  20 2.94  21 2.94
                            22 2.94  24 2.94  33 2.95  34 2.95
  24  0.556  0.556  0.454-  27 2.92  22 2.92  15 2.93  17 2.93  14 2.93  26 2.94  19 2.94  21 2.94
                            23 2.94  32 2.95  34 2.95  35 2.96
  25  0.889  0.889  0.454-  18 2.93  16 2.93  12 2.93  23 2.94  21 2.94  22 2.94  27 2.94  19 2.94
                            26 2.94  28 2.96  33 2.96  30 2.96
  26  0.222  0.889  0.454-  17 2.93  10 2.93  16 2.93  20 2.94  23 2.94  27 2.94  24 2.94  19 2.94
                            25 2.94  28 2.96  29 2.96  34 2.96
  27  0.556  0.888  0.454-  24 2.92  22 2.92  17 2.93  18 2.93  11 2.93  26 2.94  25 2.94  20 2.94
                            21 2.94  29 2.95  30 2.95  35 2.96
  28  0.000  0.000  0.563-  34 2.95  32 2.95  33 2.95  30 2.95  31 2.95  29 2.95  25 2.96  19 2.96
                            26 2.96
  29  0.333  0.004  0.562-  31 2.90  30 2.90  36 2.91  20 2.95  27 2.95  28 2.95  35 2.96  26 2.96
                            34 3.01
  30  0.663  0.004  0.562-  32 2.90  29 2.90  36 2.91  21 2.95  27 2.95  28 2.95  35 2.96  25 2.96
                            33 3.01
  31  0.004  0.333  0.562-  29 2.90  33 2.90  36 2.91  20 2.95  22 2.95  28 2.95  35 2.96  19 2.96
                            32 3.01
  32  0.663  0.333  0.562-  30 2.90  34 2.90  36 2.91  21 2.95  24 2.95  28 2.95  35 2.96  19 2.96
                            31 3.01
  33  0.004  0.663  0.562-  34 2.90  31 2.90  36 2.91  23 2.95  22 2.95  28 2.95  35 2.96  25 2.96
                            30 3.01
  34  0.333  0.663  0.562-  33 2.90  32 2.90  36 2.91  23 2.95  24 2.95  28 2.95  35 2.96  26 2.96
                            29 3.01
  35  0.667  0.667  0.563-  29 2.96  34 2.96  32 2.96  31 2.96  30 2.96  33 2.96  24 2.96  27 2.96
                            22 2.96
  36  0.333  0.333  0.552-  37 1.67  20 2.79  23 2.79  21 2.79  33 2.91  31 2.91  29 2.91  30 2.91
                            34 2.91  32 2.91
  37  0.333  0.333  0.627-  36 1.67

  LATTYP: Found a hexagonal cell.
 ALAT       =     8.8135128021
 C/A-ratio  =     2.5184286595

  Lattice vectors:

 A1 = (  -4.4067569092,  -7.6327256898,   0.0000000000)
 A2 = (   8.8135128021,   0.0000000000,   0.0000000000)
 A3 = (   0.0000000000,   0.0000000000,  22.1962032318)

Analysis of symmetry for initial positions (statically):
 Subroutine PRICEL returns:
 Original cell was already a primitive cell.

 Routine SETGRP: Setting up the symmetry group for a
 hexagonal supercell.

 Subroutine GETGRP returns: Found  6 space group operations
 (whereof  6 operations were pure point group operations)
 out of a pool of 24 trial point group operations.

The static configuration has the point symmetry C_3v.

Analysis of symmetry for dynamics (positions and initial velocities):
 Subroutine PRICEL returns:
 Original cell was already a primitive cell.

[...]

The dynamic configuration has the point symmetry C_3v.

Analysis of constrained symmetry for selective dynamics:
 Subroutine PRICEL returns:
 Original cell was already a primitive cell.

 Routine SETGRP: Setting up the symmetry group for a
 hexagonal supercell.

 Subroutine GETGRP returns: Found  6 space group operations
[...]
     24      -5.0396      2.00000
     25      -5.0141      2.00000
     26      -4.9991      2.00000
     27      -4.9500      2.00000
     28      -4.8851      2.00000
     29      -4.8775      2.00000
     30      -4.7715      2.00000
     31      -4.7538      2.00000
     32      -4.7261      2.00000
     33      -4.7094      2.00000
     34      -4.6957      2.00000
     35      -4.6778      2.00000
     36      -4.6262      2.00000
     37      -4.5977      2.00000
     38      -4.5471      2.00000
     39      -4.5294      2.00000
     40      -4.5123      2.00000
     41      -4.4749      2.00000
     42      -4.4301      2.00000
     43      -4.3639      2.00000
     44      -4.3413      2.00000
     45      -4.2518      2.00000
     46      -4.2273      2.00000
     47      -4.1921      2.00000
     48      -4.1800      2.00000
     49      -4.1359      2.00000
     50      -4.1016      2.00000
     51      -4.0880      2.00000
     52      -4.0676      2.00000
     53      -4.0514      2.00000
     54      -4.0320      2.00000
     55      -4.0230      2.00000
     56      -3.9634      2.00000
     57      -3.9442      2.00000
     58      -3.9301      2.00000
     59      -3.9097      2.00000
     60      -3.8960      2.00000
[...]
    238       6.5143      0.00000
    239       6.5574      0.00000
    240       6.5844      0.00000
    241       6.6785      0.00000
    242       6.8382      0.00000
    243       6.8705      0.00000
    244       6.9026      0.00000
    245       6.9104      0.00000
    246       7.2331      0.00000
    247       7.2730      0.00000
    248       7.3810      0.00000
    249       7.5776      0.00000
    250       7.6768      0.00000
    251       7.8121      0.00000
    252       7.8233      0.00000

 soft charge-density along one line, spin component           1
         0         1         2         3         4         5         6         7         8         9
 total charge-density along one line

------------------------ aborting loop because EDIFF is reached ----------------------------------------

 total charge

# of ion       s       p       d       tot
    1        0.545   0.239   8.767   9.551
    2        0.543   0.241   8.765   9.549
    3        0.543   0.241   8.765   9.549
    4        0.543   0.241   8.765   9.549
    5        0.544   0.240   8.765   9.550
    6        0.543   0.241   8.765   9.549
    7        0.543   0.241   8.765   9.549
    8        0.543   0.241   8.765   9.549
    9        0.540   0.241   8.763   9.545
   10        0.522   0.309   8.772   9.602
   11        0.516   0.312   8.773   9.601
   12        0.522   0.309   8.772   9.602
   13        0.516   0.312   8.773   9.601
   14        0.516   0.312   8.773   9.601
   15        0.515   0.308   8.775   9.598
   16        0.522   0.309   8.772   9.602
   17        0.515   0.308   8.775   9.598
   18        0.515   0.308   8.775   9.598
   19        0.517   0.304   8.773   9.594
   20        0.542   0.328   8.755   9.624
   21        0.542   0.328   8.755   9.624
   22        0.512   0.308   8.773   9.593
   23        0.542   0.328   8.755   9.624
   24        0.512   0.308   8.773   9.593
   25        0.517   0.304   8.773   9.594
   26        0.517   0.304   8.773   9.594
   27        0.512   0.308   8.773   9.593
   28        0.546   0.228   8.769   9.543
   29        0.534   0.239   8.773   9.546
   30        0.534   0.239   8.773   9.546
   31        0.534   0.239   8.773   9.546
   32        0.534   0.239   8.773   9.546
   33        0.534   0.239   8.773   9.546
   34        0.534   0.239   8.773   9.546
   35        0.541   0.229   8.770   9.539
   36        0.512   0.649   7.518   8.678
   37        1.366   2.128   0.000   3.494
tot         20.428  12.439 314.440 347.308

  FORCE on cell =-STRESS in cart. coord.  units (eV):
  Direction    XX          YY          ZZ          XY          YZ          ZX
  Alpha Z  1012.58059  1012.58059  1012.58059
  Ewald  119925.86306119925.86348************    -0.00033    -0.00009    -0.00013
  Hartree128677.15970128677.15971************     0.00000    -0.00002    -0.00003
  E(xc)   -1791.47383 -1791.47382 -1797.99111    -0.00001    -0.00000    -0.00000
  Local  ************************261137.13591     0.00195     0.00002    -0.00001
  n-local   -84.87812   -37.53622   -27.18893    23.66088    -1.39708     1.57357
  augment  2430.59626  2430.59782  2432.34853    -0.00135     0.00000     0.00006
  Kinetic  5557.92331  5563.42400  5580.79776     4.00276     0.59890     0.15995
  Fock        0.00000     0.00000     0.00000     0.00000     0.00000     0.00000
  Total     -18.31970   -18.31970     1.68991    -0.00000     0.00000    -0.00000
  in kB     -19.65719   -19.65719     1.81329    -0.00000     0.00000    -0.00000

 VOLUME and BASIS-vectors are now :
  energy-cutoff  :      500.00
  volume of cell :     1493.16
      direct lattice vectors                 reciprocal lattice vectors
     8.813512802  0.000000000  0.000000000     0.113462137 -0.065507406  0.000000000
     4.406756909  7.632725690  0.000000000     0.000000000  0.131014796  0.000000000
     0.000000000  0.000000000 22.196203232     0.000000000  0.000000000  0.045052750

  length of vectors
     8.813512802  8.813512802 22.196203232     0.131014796  0.131014796  0.045052750

 FORCES acting on ions
    electron-ion (+dipol)            ewald-force                    non-local-force                 convergence-correction
   -.196E-04 -.162E-04 0.249E+04   0.519E-04 0.433E-04 -.249E+04   -.199E-17 -.159E-17 -.660E+00   -.203E-03 -.131E-03 -.301E+00
   0.227E+00 0.461E+00 0.249E+04   -.301E+00 -.413E+00 -.249E+04   0.179E-01 0.453E-01 -.347E+00   0.568E-01 -.868E-01 -.322E+00
   -.227E+00 0.461E+00 0.249E+04   0.301E+00 -.413E+00 -.249E+04   -.179E-01 0.453E-01 -.347E+00   -.565E-01 -.849E-01 -.321E+00
   0.513E+00 -.340E-01 0.249E+04   -.508E+00 -.539E-01 -.249E+04   0.482E-01 -.712E-02 -.347E+00   -.468E-01 0.925E-01 -.322E+00
   0.860E-05 -.232E-04 0.249E+04   0.951E-04 0.171E-05 -.249E+04   0.265E-17 -.737E-18 -.362E+00   0.430E-02 0.262E-02 -.265E+00
   -.513E+00 -.339E-01 0.249E+04   0.508E+00 -.540E-01 -.249E+04   -.482E-01 -.712E-02 -.347E+00   0.452E-01 0.935E-01 -.321E+00
   0.286E+00 -.427E+00 0.249E+04   -.208E+00 0.467E+00 -.249E+04   0.303E-01 -.382E-01 -.347E+00   -.102E+00 -.647E-02 -.321E+00
   -.286E+00 -.427E+00 0.249E+04   0.207E+00 0.467E+00 -.249E+04   -.303E-01 -.382E-01 -.347E+00   0.104E+00 -.757E-02 -.321E+00
   0.192E-04 -.416E-04 0.249E+04   0.166E-03 -.201E-04 -.249E+04   0.918E-17 0.133E-17 -.442E+00   -.464E-02 -.240E-02 -.343E+00
   0.378E+01 0.218E+01 0.850E+03   -.356E+01 -.206E+01 -.849E+03   -.221E+00 -.128E+00 -.571E+00   0.101E-02 0.467E-03 -.115E+00
   0.139E-04 0.424E+01 0.854E+03   0.148E-03 -.436E+01 -.854E+03   0.525E-08 0.789E-01 -.291E+00   0.380E-02 -.831E-02 -.147E+00
   -.378E+01 0.218E+01 0.850E+03   0.356E+01 -.206E+01 -.849E+03   0.221E+00 -.128E+00 -.571E+00   -.232E-02 0.196E-02 -.115E+00
   0.367E+01 -.212E+01 0.854E+03   -.378E+01 0.218E+01 -.854E+03   0.683E-01 -.395E-01 -.291E+00   -.501E-02 0.772E-02 -.147E+00
   -.367E+01 -.212E+01 0.854E+03   0.378E+01 0.218E+01 -.854E+03   -.683E-01 -.395E-01 -.291E+00   0.128E-01 0.727E-02 -.148E+00
   0.308E-04 0.553E+00 0.849E+03   0.236E-03 -.657E+00 -.849E+03   -.568E-09 -.853E-02 -.386E+00   -.240E-02 0.902E-01 -.125E+00
   -.213E-04 -.436E+01 0.850E+03   0.163E-03 0.411E+01 -.849E+03   0.170E-07 0.255E+00 -.571E+00   0.295E-03 -.302E-02 -.115E+00
   0.479E+00 -.276E+00 0.849E+03   -.569E+00 0.329E+00 -.849E+03   -.738E-02 0.426E-02 -.386E+00   0.771E-01 -.467E-01 -.125E+00
   -.479E+00 -.276E+00 0.849E+03   0.569E+00 0.329E+00 -.849E+03   0.738E-02 0.426E-02 -.386E+00   -.772E-01 -.448E-01 -.125E+00
   -.407E-04 0.159E+01 -.824E+03   0.533E-04 -.171E+01 0.823E+03   0.209E-08 0.314E-01 0.554E+00   -.533E-03 0.582E-01 0.145E+00
   0.145E+02 0.838E+01 -.790E+03   -.137E+02 -.789E+01 0.791E+03   -.751E+00 -.434E+00 -.356E+00   -.118E+00 -.682E-01 0.401E-01
   -.145E+02 0.838E+01 -.790E+03   0.137E+02 -.789E+01 0.791E+03   0.751E+00 -.434E+00 -.356E+00   0.119E+00 -.663E-01 0.399E-01
   0.478E+01 -.276E+01 -.817E+03   -.493E+01 0.285E+01 0.816E+03   0.256E+00 -.148E+00 0.660E+00   -.969E-01 0.515E-01 0.128E+00
   -.135E-04 -.168E+02 -.790E+03   0.144E-03 0.158E+02 0.791E+03   0.578E-07 0.868E+00 -.356E+00   0.178E-02 0.136E+00 0.399E-01
   -.478E+01 -.276E+01 -.817E+03   0.493E+01 0.285E+01 0.816E+03   -.256E+00 -.148E+00 0.660E+00   0.900E-01 0.520E-01 0.129E+00
   -.138E+01 -.795E+00 -.824E+03   0.148E+01 0.853E+00 0.823E+03   -.272E-01 -.157E-01 0.554E+00   -.485E-01 -.281E-01 0.145E+00
   0.138E+01 -.795E+00 -.824E+03   -.148E+01 0.853E+00 0.823E+03   0.272E-01 -.157E-01 0.554E+00   0.504E-01 -.295E-01 0.145E+00
   0.742E-05 0.552E+01 -.817E+03   0.200E-03 -.570E+01 0.816E+03   0.197E-07 0.296E+00 0.660E+00   -.438E-02 -.110E+00 0.129E+00
   -.107E-04 -.122E-04 -.247E+04   0.278E-04 0.336E-04 0.247E+04   -.169E-17 -.240E-17 0.484E+00   0.113E-03 0.471E-04 0.290E+00
   0.201E+02 0.345E+02 -.245E+04   -.202E+02 -.346E+02 0.245E+04   -.123E+00 -.133E+00 0.608E+00   -.492E-01 -.173E+00 0.269E+00
   -.201E+02 0.345E+02 -.245E+04   0.202E+02 -.346E+02 0.245E+04   0.123E+00 -.133E+00 0.608E+00   0.493E-01 -.171E+00 0.270E+00
   0.400E+02 0.161E+00 -.245E+04   -.400E+02 -.154E+00 0.245E+04   -.176E+00 -.405E-01 0.608E+00   -.174E+00 0.437E-01 0.269E+00
   -.400E+02 0.161E+00 -.245E+04   0.400E+02 -.154E+00 0.245E+04   0.176E+00 -.405E-01 0.608E+00   0.173E+00 0.448E-01 0.269E+00
   0.199E+02 -.347E+02 -.245E+04   -.199E+02 0.348E+02 0.245E+04   -.531E-01 0.173E+00 0.608E+00   -.123E+00 0.128E+00 0.270E+00
   -.199E+02 -.347E+02 -.245E+04   0.199E+02 0.348E+02 0.245E+04   0.531E-01 0.173E+00 0.608E+00   0.125E+00 0.127E+00 0.269E+00
   0.296E-04 -.290E-04 -.247E+04   0.146E-03 -.488E-04 0.247E+04   0.742E-17 0.520E-17 0.527E+00   -.476E-02 -.246E-02 0.285E+00
   0.165E-04 -.958E-05 -.173E+04   0.917E-04 0.821E-05 0.174E+04   0.167E-16 -.213E-17 -.598E+01   0.342E-02 0.208E-02 0.173E+00
   0.106E-03 -.608E-04 -.141E+04   0.208E-04 0.131E-05 0.143E+04   0.118E-17 -.407E-18 -.228E+02   0.181E-02 0.110E-02 0.134E+00
   -.594E-03 -.807E-03 0.302E+02   -.796E-13 0.219E-12 -.432E-11   -.579E-16 -.528E-16 -.289E+02   0.235E-02 0.204E-02 -.559E+00

 POSITION                                       TOTAL-FORCE (eV/Angst)
      0.00000      0.00000      5.28038         0.000000     -0.000000     -0.093019
      2.93784      0.00000      5.28038         0.001377      0.007421     -0.050208
      5.87568      0.00000      5.28038        -0.001377      0.007421     -0.050208
      1.46892      2.54424      5.28038         0.007116     -0.002518     -0.050208
      4.40676      2.54424      5.28038         0.000000     -0.000000     -0.079464
      7.34459      2.54424      5.28038        -0.007116     -0.002518     -0.050208
      2.93784      5.08848      5.28038         0.005738     -0.004903     -0.050208
      5.87568      5.08848      5.28038        -0.005738     -0.004903     -0.050208
      8.81351      5.08848      5.28038         0.000000     -0.000000     -0.062451
      1.46892      0.84808      7.67911        -0.004696     -0.002711      0.107282
      4.40676      0.84808      7.67911        -0.000000     -0.052427      0.055382
      7.34459      0.84808      7.67911         0.004696     -0.002711      0.107282
      2.93784      3.39232      7.67911        -0.045403      0.026214      0.055382
      5.87568      3.39232      7.67911         0.045403      0.026214      0.055382
      8.81351      3.39232      7.67911        -0.000000     -0.022999      0.104380
      4.40676      5.93656      7.67911         0.000000      0.005422      0.107282
      7.34459      5.93656      7.67911        -0.019918      0.011500      0.104380
     10.28243      5.93656      7.67911         0.019918      0.011500      0.104380
      8.81351      1.69621     10.07295        -0.000000     -0.026575     -0.046067
      2.93663      1.69546     10.04742        -0.007540     -0.004353     -0.149221
      5.87688      1.69546     10.04742         0.007540     -0.004353     -0.149221
     10.27557      4.24437     10.06760         0.012638     -0.007296     -0.029781
      4.40676      4.24180     10.04742         0.000000      0.008707     -0.149221
      7.35146      4.24437     10.06760        -0.012638     -0.007296     -0.029781
     11.75131      6.78462     10.07295         0.023015      0.013288     -0.046067
      5.87571      6.78462     10.07295        -0.023015      0.013288     -0.046067
      8.81351      6.77672     10.06760         0.000000      0.014593     -0.029781
      0.00000      0.00000     12.49471         0.000000     -0.000000     -0.025687
      2.95476      0.03042     12.47845        -0.193527     -0.355870     -0.101735
      5.85875      0.03042     12.47845         0.193527     -0.355870     -0.101735
      1.50372      2.54369     12.47845        -0.404956      0.010336     -0.101735
      7.30979      2.54369     12.47845         0.404956      0.010336     -0.101735
      2.95572      5.05862     12.47845        -0.211429      0.345534     -0.101735
      5.85780      5.05862     12.47845         0.211429      0.345534     -0.101735
      8.81351      5.08848     12.49462         0.000000     -0.000000      0.002774
      4.40676      2.54424     12.26123         0.000000     -0.000000      1.014809
      4.40676      2.54424     13.92659         0.000000     -0.000000      0.028770
    total drift:                                0.001757      0.001229      0.760005

  FREE ENERGIE OF THE ION-ELECTRON SYSTEM (eV)
  free  energy   TOTEN  =      -119.64096671 eV

  energy  without entropy=     -119.64096671  energy(sigma->0) =     -119.64096671

 stress matrix after NEB project (eV)
    -18.31970     -0.00000     -0.00000
     -0.00000    -18.31970      0.00000
      0.00000      0.00000      1.68991
  FORCES: max atom, RMS     0.028770    0.004730
  FORCE total and by dimension    0.028770    0.028770
  Stress total and by dimension   25.963022   18.319699
|           W    W    AA    RRRRR   N    N  II  N    N   GGGG   !!!           |
|           W    W   A  A   R    R  NN   N  II  NN   N  G    G  !!!           |
|           W    W  A    A  R    R  N N  N  II  N N  N  G       !!!           |
|           W WW W  AAAAAA  RRRRR   N  N N  II  N  N N  G  GGG   !            |
|           WW  WW  A    A  R   R   N   NN  II  N   NN  G    G                |
|           W    W  A    A  R    R  N    N  II  N    N   GGGG   !!!           |
|     Tetrahedron method does not include variations of the Fermi             |
|     occupations, so forces and stress will be inaccurate. We suggest        |
|     using a different smearing scheme ISMEAR = 1 or 2 for metals in         |
|     relaxations.                                                            |

 total charge

# of ion       s       p       d       tot
    1        0.545   0.239   8.767   9.551
    2        0.543   0.241   8.765   9.549
    3        0.543   0.241   8.765   9.549
    4        0.543   0.241   8.765   9.549
    5        0.544   0.240   8.765   9.550
    6        0.543   0.241   8.765   9.549
    7        0.543   0.241   8.765   9.549
    8        0.543   0.241   8.765   9.549
    9        0.540   0.241   8.763   9.545
   10        0.522   0.309   8.772   9.602
   11        0.516   0.312   8.773   9.601
   12        0.522   0.309   8.772   9.602
   13        0.516   0.312   8.773   9.601
   14        0.516   0.312   8.773   9.601
   15        0.515   0.308   8.775   9.598
   16        0.522   0.309   8.772   9.602
   17        0.515   0.308   8.775   9.598
   18        0.515   0.308   8.775   9.598
   19        0.517   0.304   8.773   9.594
   20        0.542   0.328   8.755   9.624
   21        0.542   0.328   8.755   9.624
   22        0.512   0.308   8.773   9.593
   23        0.542   0.328   8.755   9.624
   24        0.512   0.308   8.773   9.593
   25        0.517   0.304   8.773   9.594
   26        0.517   0.304   8.773   9.594
   27        0.512   0.308   8.773   9.593
   28        0.546   0.228   8.769   9.543
   29        0.534   0.239   8.773   9.546
   30        0.534   0.239   8.773   9.546
   31        0.534   0.239   8.773   9.546
   32        0.534   0.239   8.773   9.546
   33        0.534   0.239   8.773   9.546
   34        0.534   0.239   8.773   9.546
   35        0.541   0.229   8.770   9.539
   36        0.512   0.649   7.518   8.678
   37        1.366   2.128   0.000   3.494
tot         20.428  12.439 314.440 347.308

 BZINTS: Fermi energy:    0.740046;  399.000000 electrons
         Band energy:-0.120992E+04;  BLOECHL correction:   -0.087151