 vasp.6.2.0 18Jan21 (build Jun 12 2021 23:27:24) complex

 executed on             LinuxIFC date 2022.05.26  20:15:41

 INCAR:
   ISMEAR = -5
   SIGMA = 0.1
   ISPIN = 1
   EDIFF = 1.d-5
   EDIFFG = -0.01
   NSW = 0
   NELM = 150
   ENCUT = 500
   ISIF = 2
   IBRION = 2
   LREAL = Auto
   ALGO = Fast
   ICHARG = 11
   LORBIT = 10
   LCHARG = .F.
   LWAVE = .F.

 POTCAR:    PAW_PBE Au 04Oct2007
 POTCAR:    PAW_PBE Ta 17Jan2003
|           W    W    AA    RRRRR   N    N  II  N    N   GGGG   !!!           |
|           W    W   A  A   R    R  NN   N  II  NN   N  G    G  !!!           |
|           W    W  A    A  R    R  N N  N  II  N N  N  G       !!!           |
|           W WW W  AAAAAA  RRRRR   N  N N  II  N  N N  G  GGG   !            |
|           WW  WW  A    A  R   R   N   NN  II  N   NN  G    G                |
|           W    W  A    A  R    R  N    N  II  N    N   GGGG   !!!           |
|     For optimal performance we recommend to set                             |
|       NCORE = 2 up to number-of-cores-per-socket                            |
|     This setting can greatly improve the performance of VASP for DFT.       |
|     The default, NCORE=1 might be grossly inefficient on modern             |
|     multi-core architectures or massively parallel machines. Do your        |
|     Unfortunately you need to use the default for GW and RPA                |
|     calculations (for HF NCORE is supported but not extensively tested      |
|     yet).                                                                   |

 POTCAR:    PAW_PBE Au 04Oct2007
   VRHFIN =Au: s1d10

   TITEL  = PAW_PBE Au 04Oct2007
   POMASS =  196.966; ZVAL   =   11.000    mass and valenz
   ENMAX  =  229.943; ENMIN  =  172.457 eV

 POTCAR:    PAW_PBE Ta 17Jan2003
   VRHFIN =Ta:  6s5d

   TITEL  = PAW_PBE Ta 17Jan2003
   POMASS =  180.948; ZVAL   =    5.000    mass and valenz
   ENMAX  =  223.667; ENMIN  =  167.750 eV

 Optimization of the real space projectors (new method)

 maximal supplied QI-value         = 15.12
 optimisation between [QCUT,QGAM] = [ 11.34, 22.83] = [ 36.00,145.93] Ry
 Optimized for a Real-space Cutoff    1.39 Angstroem

   l    n(q)    QCUT    max X(q) W(low)/X(q) W(high)/X(q)  e(spline)
   2      9    11.338    60.898    0.39E-03    0.42E-03    0.21E-06
   2      9    11.338    58.894    0.40E-03    0.42E-03    0.22E-06
   0      9    11.338   109.617    0.13E-03    0.20E-04    0.13E-06
   0      9    11.338    75.026    0.13E-03    0.20E-04    0.13E-06
   1      9    11.338    16.344    0.33E-04    0.24E-03    0.18E-06
   1      9    11.338    10.160    0.26E-04    0.19E-03    0.15E-06
 Optimization of the real space projectors (new method)

 maximal supplied QI-value         = 12.85
 optimisation between [QCUT,QGAM] = [ 11.44, 22.87] = [ 36.63,146.51] Ry
 Optimized for a Real-space Cutoff    1.61 Angstroem

   l    n(q)    QCUT    max X(q) W(low)/X(q) W(high)/X(q)  e(spline)
   2     10    11.437    62.315    0.14E-03    0.26E-03    0.80E-06
   2     10    11.437    52.185    0.14E-03    0.26E-03    0.80E-06
   0     11    11.437   103.837    0.25E-04    0.17E-04    0.84E-07
   0     11    11.437    59.728    0.20E-04    0.15E-04    0.73E-07
   1     11    11.437    13.958    0.47E-03    0.12E-03    0.89E-06
   1     11    11.437     8.441    0.33E-03    0.88E-04    0.61E-06
  PAW_PBE Au 04Oct2007                  :
  PAW_PBE Ta 17Jan2003                  :

 POSCAR: Au-Ta
  positions in direct lattice
  velocities in cartesian coordinates
 exchange correlation table for  LEXCH =        8
   RHO(1)=    0.500       N(1)  =     2000
   RHO(2)=  100.500       N(2)  =     4000

 VTST: version 3.2, (02/03/18)

 CHAIN: initializing optimizer

 OPT: Using VASP Conjugate-Gradient optimizer
 CHAIN: Read ICHAIN            0

 POSCAR: Au-Ta
  positions in direct lattice
  velocities in cartesian coordinates

 ion  position               nearest neighbor table
   1  0.000  0.000  0.238-  16 2.94  12 2.94   6 2.94   8 2.94   7 2.94   3 2.94  10 2.94   4 2.94
                             2 2.94
   2  0.333  0.000  0.238-   9 2.94  11 2.94  17 2.94  10 2.94   8 2.94   4 2.94   5 2.94   1 2.94
                             3 2.94
   3  0.667  0.000  0.238-   7 2.94  18 2.94  12 2.94   1 2.94  11 2.94   5 2.94   6 2.94   9 2.94
                             2 2.94
   4  0.000  0.333  0.238-  10 2.94   6 2.94   5 2.94  13 2.94   2 2.94  15 2.94   9 2.94   1 2.94
                             7 2.94
   5  0.333  0.333  0.238-  13 2.94   7 2.94  11 2.94   4 2.94   2 2.94  14 2.94   3 2.94   8 2.94
                             6 2.94
   6  0.667  0.333  0.238-  15 2.94  14 2.94   1 2.94  12 2.94   4 2.94   9 2.94   8 2.94   3 2.94
                             5 2.94
   7  0.000  0.667  0.238-  18 2.94   3 2.94  16 2.94   5 2.94   1 2.94  13 2.94   8 2.94   4 2.94
                             9 2.94
   8  0.333  0.667  0.238-   9 2.94  17 2.94   1 2.94   2 2.94  14 2.94  16 2.94   6 2.94   7 2.94
                             5 2.94
   9  0.667  0.667  0.238-   2 2.94   8 2.94  17 2.94   6 2.94  15 2.94   4 2.94   3 2.94  18 2.94
                             7 2.94
  10  0.111  0.111  0.346-  20 2.91  11 2.94  17 2.94   2 2.94   4 2.94   1 2.94  12 2.94  16 2.94
                            13 2.94  15 2.94  26 2.96  19 2.96
  11  0.444  0.111  0.346-  20 2.91  21 2.91  13 2.94   2 2.94  10 2.94  17 2.94   5 2.94   3 2.94
                            18 2.94  14 2.94  12 2.94  27 2.94
  12  0.778  0.111  0.346-  21 2.91  16 2.94  18 2.94   1 2.94  14 2.94  15 2.94   3 2.94   6 2.94
                            10 2.94  11 2.94  25 2.96  19 2.96
  13  0.111  0.444  0.346-  23 2.91  20 2.91   5 2.94  18 2.94  11 2.94   7 2.94   4 2.94  16 2.94
                            10 2.94  14 2.94  15 2.94  22 2.94
  14  0.444  0.444  0.346-  21 2.91  23 2.91  15 2.94   6 2.94  12 2.94   8 2.94  17 2.94   5 2.94
                            16 2.94  13 2.94  11 2.94  24 2.94
  15  0.778  0.444  0.346-  24 2.92  22 2.92  14 2.94   6 2.94  17 2.94  12 2.94   9 2.94   4 2.94
                            10 2.94  13 2.94  18 2.94  19 2.95
  16  0.111  0.778  0.346-  23 2.91  18 2.94  12 2.94   7 2.94   1 2.94   8 2.94  13 2.94  10 2.94
                            14 2.94  17 2.94  25 2.96  26 2.96
  17  0.444  0.778  0.346-  27 2.92  24 2.92   9 2.94  15 2.94   2 2.94  10 2.94  11 2.94   8 2.94
                            14 2.94  16 2.94  18 2.94  26 2.95
  18  0.778  0.778  0.346-  22 2.92  27 2.92  16 2.94   7 2.94  13 2.94  12 2.94   3 2.94  11 2.94
                             9 2.94  15 2.94  17 2.94  25 2.95
  19  0.888  0.223  0.455-  24 2.93  22 2.93  21 2.93  20 2.93  28 2.95  15 2.95  26 2.95  25 2.95
                            10 2.96  12 2.96  32 3.06  31 3.06
  20  0.222  0.222  0.453-  36 2.74  10 2.91  11 2.91  13 2.91  26 2.93  19 2.93  23 2.95  21 2.95
                            27 2.95  22 2.95  29 2.99  31 2.99
  21  0.556  0.222  0.453-  36 2.74  12 2.91  14 2.91  11 2.91  25 2.93  19 2.93  20 2.95  23 2.95
                            27 2.95  24 2.95  30 2.99  32 2.99
  22  0.886  0.557  0.454-  24 2.91  27 2.91  18 2.92  15 2.92  25 2.93  19 2.93  13 2.94  23 2.95
                            20 2.95  35 2.96  33 3.03  31 3.03
  23  0.222  0.556  0.453-  36 2.74  16 2.91  13 2.91  14 2.91  25 2.93  26 2.93  20 2.95  21 2.95
                            22 2.95  24 2.95  33 2.99  34 2.99
  24  0.557  0.557  0.454-  27 2.91  22 2.91  15 2.92  17 2.92  26 2.93  19 2.93  14 2.94  21 2.95
                            23 2.95  35 2.96  32 3.03  34 3.03
  25  0.888  0.888  0.455-  22 2.93  27 2.93  23 2.93  21 2.93  28 2.95  18 2.95  19 2.95  26 2.95
                            16 2.96  12 2.96  33 3.06  30 3.06
  26  0.223  0.888  0.455-  27 2.93  24 2.93  20 2.93  23 2.93  28 2.95  17 2.95  19 2.95  25 2.95
                            10 2.96  16 2.96  29 3.06  34 3.06
  27  0.557  0.886  0.454-  24 2.91  22 2.91  17 2.92  18 2.92  26 2.93  25 2.93  11 2.94  20 2.95
                            21 2.95  35 2.96  29 3.03  30 3.03
  28  0.000  0.000  0.563-  25 2.95  19 2.95  26 2.95  34 3.00  32 3.00  33 3.00  30 3.00  31 3.00
                            29 3.00
  29  0.334  0.012  0.567-  30 2.82  31 2.84  36 2.85  35 2.99  20 2.99  28 3.00  27 3.03  26 3.06
                            34 3.16
  30  0.654  0.012  0.567-  29 2.82  32 2.84  36 2.85  35 2.99  21 2.99  28 3.00  27 3.03  25 3.06
                            33 3.16
  31  0.012  0.334  0.567-  33 2.82  29 2.84  36 2.85  35 2.99  20 2.99  28 3.00  22 3.03  19 3.06
                            32 3.16
  32  0.654  0.334  0.567-  34 2.82  30 2.84  36 2.85  35 2.99  21 2.99  28 3.00  24 3.03  19 3.06
                            31 3.16
  33  0.012  0.654  0.567-  31 2.82  34 2.84  36 2.85  35 2.99  23 2.99  28 3.00  22 3.03  25 3.06
                            30 3.16
  34  0.334  0.654  0.567-  32 2.82  33 2.84  36 2.85  35 2.99  23 2.99  28 3.00  24 3.03  26 3.06
                            29 3.16
  35  0.667  0.667  0.563-  24 2.96  27 2.96  22 2.96  29 2.99  34 2.99  32 2.99  31 2.99  30 2.99
                            33 2.99
  36  0.333  0.333  0.550-  20 2.74  23 2.74  21 2.74  33 2.85  31 2.85  29 2.85  30 2.85  34 2.85
                            32 2.85

  LATTYP: Found a hexagonal cell.
 ALAT       =     8.8135128021
 C/A-ratio  =     2.5184286595

  Lattice vectors:

 A1 = (  -4.4067569092,  -7.6327256898,   0.0000000000)
 A2 = (   8.8135128021,   0.0000000000,   0.0000000000)
 A3 = (   0.0000000000,   0.0000000000,  22.1962032318)

Analysis of symmetry for initial positions (statically):
 Subroutine PRICEL returns:
 Original cell was already a primitive cell.

 Routine SETGRP: Setting up the symmetry group for a
 hexagonal supercell.

 Subroutine GETGRP returns: Found  6 space group operations
 (whereof  6 operations were pure point group operations)
 out of a pool of 24 trial point group operations.

The static configuration has the point symmetry C_3v.

Analysis of symmetry for dynamics (positions and initial velocities):
 Subroutine PRICEL returns:
 Original cell was already a primitive cell.

[...]

The dynamic configuration has the point symmetry C_3v.

Analysis of constrained symmetry for selective dynamics:
 Subroutine PRICEL returns:
 Original cell was already a primitive cell.

 Routine SETGRP: Setting up the symmetry group for a
 hexagonal supercell.

 Subroutine GETGRP returns: Found  6 space group operations
 (whereof  6 operations were pure point group operations)
 out of a pool of 24 trial point group operations.

The constrained configuration has the point symmetry C_3v.

 Subroutine INISYM returns: Found  6 space group operations
 (whereof  6 operations are pure point group operations),
 and found     1 'primitive' translations

                                     Primitive cell

  volume of cell :    1493.1636

  direct lattice vectors                    reciprocal lattice vectors
     8.813512802  0.000000000  0.000000000     0.113462137 -0.065507406  0.000000000
     4.406756909  7.632725690  0.000000000     0.000000000  0.131014796  0.000000000
[...]
     15      -5.2434      2.00000
     16      -5.1949      2.00000
     17      -5.1909      2.00000
     18      -5.1700      2.00000
     19      -5.1484      2.00000
     20      -5.1379      2.00000
     21      -5.1234      2.00000
     22      -5.1087      2.00000
     23      -5.0373      2.00000
     24      -5.0062      2.00000
     25      -4.9962      2.00000
     26      -4.9601      2.00000
     27      -4.9280      2.00000
     28      -4.8992      2.00000
     29      -4.8501      2.00000
     30      -4.8299      2.00000
     31      -4.8077      2.00000
     32      -4.7146      2.00000
     33      -4.6934      2.00000
     34      -4.6781      2.00000
     35      -4.6740      2.00000
     36      -4.6687      2.00000
     37      -4.5376      2.00000
     38      -4.4730      2.00000
     39      -4.4228      2.00000
     40      -4.3898      2.00000
     41      -4.3577      2.00000
     42      -4.3334      2.00000
     43      -4.3070      2.00000
     44      -4.2837      2.00000
     45      -4.2555      2.00000
     46      -4.1846      2.00000
     47      -4.1640      2.00000
     48      -4.1205      2.00000
     49      -4.1046      2.00000
     50      -4.0951      2.00000
     51      -4.0805      2.00000
     52      -4.0591      2.00000
     53      -4.0439      2.00000
     54      -4.0151      2.00000
     55      -3.9805      2.00000
     56      -3.9690      2.00000
     57      -3.9452      2.00000
     58      -3.9440      2.00000
     59      -3.9238      2.00000
     60      -3.9150      2.00000
[...]
    238       6.7602      0.00000
    239       6.7808      0.00000
    240       6.8340      0.00000
    241       6.9086      0.00000
    242       7.0905      0.00000
    243       7.2046      0.00000
    244       7.2744      0.00000
    245       7.3224      0.00000
    246       7.5824      0.00000
    247       7.6219      0.00000
    248       7.7802      0.00000
    249       7.8003      0.00000
    250       7.9106      0.00000
    251       8.0249      0.00000
    252       8.1007      0.00000

 soft charge-density along one line, spin component           1
         0         1         2         3         4         5         6         7         8         9
 total charge-density along one line

------------------------ aborting loop because EDIFF is reached ----------------------------------------

 total charge

# of ion       s       p       d       tot
    1        0.549   0.236   8.767   9.553
    2        0.540   0.241   8.766   9.547
    3        0.540   0.241   8.766   9.547
    4        0.540   0.241   8.766   9.547
    5        0.547   0.241   8.761   9.549
    6        0.540   0.241   8.766   9.547
    7        0.540   0.241   8.766   9.547
    8        0.540   0.241   8.766   9.547
    9        0.544   0.239   8.766   9.550
   10        0.528   0.306   8.766   9.600
   11        0.520   0.307   8.780   9.607
   12        0.528   0.306   8.766   9.600
   13        0.520   0.307   8.780   9.607
   14        0.520   0.307   8.780   9.607
   15        0.516   0.307   8.774   9.597
   16        0.528   0.306   8.766   9.600
   17        0.516   0.307   8.774   9.597
   18        0.516   0.307   8.774   9.597
   19        0.517   0.296   8.768   9.581
   20        0.582   0.348   8.714   9.644
   21        0.582   0.348   8.714   9.644
   22        0.508   0.304   8.779   9.591
   23        0.582   0.348   8.714   9.644
   24        0.508   0.304   8.779   9.591
   25        0.517   0.296   8.768   9.581
   26        0.517   0.296   8.768   9.581
   27        0.508   0.304   8.779   9.591
   28        0.538   0.226   8.753   9.517
   29        0.595   0.253   8.720   9.569
   30        0.595   0.253   8.720   9.569
   31        0.595   0.253   8.720   9.569
   32        0.595   0.253   8.720   9.569
   33        0.595   0.253   8.720   9.569
   34        0.595   0.253   8.720   9.569
   35        0.537   0.227   8.756   9.520
   36        0.645   0.551   2.863   4.059
tot         19.689  10.293 309.327 339.309

  FORCE on cell =-STRESS in cart. coord.  units (eV):
  Direction    XX          YY          ZZ          XY          YZ          ZX
  Alpha Z   996.98502   996.98502   996.98502
  Ewald  116253.45158116253.45195************    -0.00033    -0.00009    -0.00018
  Hartree124722.04340124722.04339************    -0.00000    -0.00003    -0.00005
  E(xc)   -1748.58754 -1748.58753 -1756.16564    -0.00001     0.00000     0.00000
  Local  ************************253212.29387     0.00170     0.00006     0.00012
  n-local   -69.81000   -23.31353   -17.35624    22.64625    -1.60963     1.47996
  augment  2363.62595  2363.62740  2385.00960    -0.00125     0.00005     0.00006
  Kinetic  5387.88119  5391.71844  5458.48769     3.04675     0.42688    -0.38647
  Fock        0.00000     0.00000     0.00000     0.00000     0.00000     0.00000
  Total     -24.13368   -24.13368     2.39202    -0.00000     0.00000    -0.00000
  in kB     -25.89565   -25.89565     2.56666    -0.00000     0.00000    -0.00000

 VOLUME and BASIS-vectors are now :
  energy-cutoff  :      500.00
  volume of cell :     1493.16
      direct lattice vectors                 reciprocal lattice vectors
     8.813512802  0.000000000  0.000000000     0.113462137 -0.065507406  0.000000000
     4.406756909  7.632725690  0.000000000     0.000000000  0.131014796  0.000000000
     0.000000000  0.000000000 22.196203232     0.000000000  0.000000000  0.045052750

  length of vectors
     8.813512802  8.813512802 22.196203232     0.131014796  0.131014796  0.045052750

 FORCES acting on ions
    electron-ion (+dipol)            ewald-force                    non-local-force                 convergence-correction
   -.197E-04 -.162E-04 0.244E+04   0.519E-04 0.433E-04 -.244E+04   -.118E-16 0.262E-17 -.703E+00   -.188E-03 -.121E-03 -.229E+00
   0.454E+00 -.314E+00 0.245E+04   -.460E+00 0.145E+00 -.244E+04   0.288E-01 0.143E+00 -.349E+00   -.210E-01 0.120E-01 -.222E+00
   -.454E+00 -.314E+00 0.245E+04   0.460E+00 0.145E+00 -.244E+04   -.288E-01 0.143E+00 -.349E+00   0.212E-01 0.139E-01 -.222E+00
   -.449E-01 0.551E+00 0.245E+04   -.104E+00 -.471E+00 -.244E+04   0.138E+00 -.465E-01 -.349E+00   -.131E-04 -.242E-01 -.222E+00
   0.739E-05 -.241E-04 0.244E+04   0.951E-04 0.174E-05 -.245E+04   0.850E-18 -.121E-17 0.197E+00   0.419E-02 0.258E-02 -.125E+00
   0.448E-01 0.551E+00 0.245E+04   0.104E+00 -.471E+00 -.244E+04   -.138E+00 -.465E-01 -.349E+00   -.144E-02 -.233E-01 -.222E+00
   -.499E+00 -.236E+00 0.245E+04   0.356E+00 0.326E+00 -.244E+04   0.109E+00 -.964E-01 -.349E+00   0.227E-01 0.114E-01 -.222E+00
   0.499E+00 -.237E+00 0.245E+04   -.356E+00 0.326E+00 -.244E+04   -.109E+00 -.964E-01 -.349E+00   -.209E-01 0.104E-01 -.222E+00
   0.198E-04 -.416E-04 0.245E+04   0.166E-03 -.200E-04 -.245E+04   0.645E-18 0.292E-18 -.375E+00   -.454E-02 -.238E-02 -.136E+00
   0.438E+01 0.253E+01 0.772E+03   -.400E+01 -.231E+01 -.772E+03   -.392E+00 -.226E+00 -.621E+00   -.220E-01 -.125E-01 -.829E-01
   0.138E-04 -.180E+00 0.774E+03   0.148E-03 0.177E+00 -.774E+03   -.291E-08 -.438E-01 -.598E-01   0.373E-02 -.144E-01 -.648E-01
   -.438E+01 0.253E+01 0.772E+03   0.400E+01 -.231E+01 -.772E+03   0.392E+00 -.226E+00 -.621E+00   0.209E-01 -.120E-01 -.845E-01
   -.156E+00 0.899E-01 0.774E+03   0.153E+00 -.886E-01 -.774E+03   -.379E-01 0.219E-01 -.598E-01   -.105E-01 0.108E-01 -.646E-01
   0.156E+00 0.899E-01 0.774E+03   -.154E+00 -.886E-01 -.774E+03   0.379E-01 0.219E-01 -.598E-01   0.175E-01 0.100E-01 -.664E-01
   0.321E-04 0.532E+01 0.778E+03   0.235E-03 -.546E+01 -.777E+03   0.212E-09 0.318E-02 -.521E+00   -.166E-02 0.560E-01 -.907E-01
   -.209E-04 -.506E+01 0.772E+03   0.162E-03 0.462E+01 -.772E+03   0.301E-07 0.453E+00 -.621E+00   -.240E-03 0.241E-01 -.840E-01
   0.460E+01 -.266E+01 0.778E+03   -.473E+01 0.273E+01 -.777E+03   0.275E-02 -.159E-02 -.521E+00   0.480E-01 -.294E-01 -.913E-01
   -.460E+01 -.266E+01 0.778E+03   0.473E+01 0.273E+01 -.777E+03   -.275E-02 -.159E-02 -.521E+00   -.475E-01 -.279E-01 -.905E-01
   -.429E-04 -.238E+01 -.918E+03   0.563E-04 0.252E+01 0.917E+03   -.416E-08 -.624E-01 0.486E+00   0.511E-02 -.555E-01 0.183E+00
   -.170E+02 -.982E+01 -.909E+03   0.180E+02 0.104E+02 0.910E+03   -.102E+01 -.590E+00 -.142E+01   -.157E-01 -.844E-02 0.107E+00
   0.170E+02 -.982E+01 -.909E+03   -.180E+02 0.104E+02 0.910E+03   0.102E+01 -.590E+00 -.142E+01   0.829E-02 -.871E-02 0.107E+00
   -.192E+02 0.111E+02 -.900E+03   0.188E+02 -.109E+02 0.900E+03   0.400E+00 -.231E+00 0.570E+00   -.169E-01 0.873E-02 0.849E-01
   -.915E-05 0.196E+02 -.909E+03   0.137E-03 -.208E+02 0.910E+03   0.785E-07 0.118E+01 -.142E+01   -.381E-02 0.121E-01 0.107E+00
   0.192E+02 0.111E+02 -.900E+03   -.188E+02 -.109E+02 0.900E+03   -.400E+00 -.231E+00 0.570E+00   0.183E-01 0.986E-02 0.844E-01
   0.206E+01 0.119E+01 -.918E+03   -.218E+01 -.126E+01 0.917E+03   0.541E-01 0.312E-01 0.486E+00   0.531E-01 0.299E-01 0.183E+00
   -.206E+01 0.119E+01 -.918E+03   0.218E+01 -.126E+01 0.917E+03   -.541E-01 0.312E-01 0.486E+00   -.525E-01 0.319E-01 0.184E+00
   0.897E-05 -.221E+02 -.900E+03   0.199E-03 0.217E+02 0.900E+03   0.308E-07 0.462E+00 0.570E+00   -.283E-03 -.193E-01 0.849E-01
   -.961E-05 -.101E-04 -.245E+04   0.272E-04 0.296E-04 0.245E+04   -.802E-18 -.521E-18 0.508E+00   0.157E-02 0.687E-03 0.101E+00
   -.577E+01 -.204E+02 -.247E+04   0.725E+01 0.226E+02 0.247E+04   -.143E+01 -.215E+01 -.586E+00   -.488E-01 0.254E-02 0.963E-01
   0.577E+01 -.204E+02 -.247E+04   -.725E+01 0.226E+02 0.247E+04   0.143E+01 -.215E+01 -.586E+00   0.424E-01 0.335E-02 0.967E-01
   -.206E+02 0.521E+01 -.247E+04   0.232E+02 -.501E+01 0.247E+04   -.258E+01 -.161E+00 -.586E+00   -.224E-01 -.434E-01 0.958E-01
   0.206E+02 0.521E+01 -.247E+04   -.232E+02 -.501E+01 0.247E+04   0.258E+01 -.161E+00 -.586E+00   0.160E-01 -.424E-01 0.970E-01
   -.148E+02 0.152E+02 -.247E+04   0.159E+02 -.176E+02 0.247E+04   -.115E+01 0.231E+01 -.586E+00   0.242E-01 0.349E-01 0.964E-01
   0.148E+02 0.152E+02 -.247E+04   -.159E+02 -.176E+02 0.247E+04   0.115E+01 0.231E+01 -.586E+00   -.290E-01 0.350E-01 0.970E-01
   0.337E-04 -.340E-04 -.245E+04   0.143E-03 -.455E-04 0.245E+04   0.138E-17 -.704E-17 0.635E+00   -.296E-02 -.170E-02 0.961E-01
   -.248E-04 0.234E-05 -.106E+04   0.528E-04 0.493E-05 0.106E+04   0.897E-18 -.948E-18 0.256E+01   0.437E-03 0.328E-03 0.494E-01
   -.828E-03 -.778E-03 0.826E+01   -.433E-13 0.225E-12 -.796E-11   -.664E-15 0.880E-15 -.747E+01   -.148E-01 -.523E-02 -.589E+00

 POSITION                                       TOTAL-FORCE (eV/Angst)
      0.00000      0.00000      5.28038         0.000000     -0.000000     -0.154641
      2.93784      0.00000      5.28038         0.002910     -0.012949     -0.054936
      5.87568      0.00000      5.28038        -0.002910     -0.012949     -0.054936
      1.46892      2.54424      5.28038        -0.009759      0.008995     -0.054936
      4.40676      2.54424      5.28038         0.000000     -0.000000     -0.067538
      7.34459      2.54424      5.28038         0.009759      0.008995     -0.054936
      2.93784      5.08848      5.28038        -0.012669      0.003954     -0.054936
      5.87568      5.08848      5.28038         0.012669      0.003954     -0.054936
      8.81351      5.08848      5.28038         0.000000     -0.000000     -0.075761
      1.46892      0.84808      7.67911        -0.031132     -0.017974      0.120805
      4.40676      0.84808      7.67911        -0.000000     -0.062707     -0.023463
      7.34459      0.84808      7.67911         0.031132     -0.017974      0.120805
      2.93784      3.39232      7.67911        -0.054306      0.031354     -0.023463
      5.87568      3.39232      7.67911         0.054306      0.031354     -0.023463
      8.81351      3.39232      7.67911        -0.000000     -0.083586      0.114895
      4.40676      5.93656      7.67911         0.000000      0.035948      0.120805
      7.34459      5.93656      7.67911        -0.072387      0.041793      0.114895
     10.28243      5.93656      7.67911         0.072387      0.041793      0.114895
      8.81351      1.70341     10.09804         0.000000      0.013348     -0.006857
      2.93277      1.69323     10.04724        -0.002456     -0.001418     -0.011295
      5.88075      1.69323     10.04724         0.002456     -0.001418     -0.011295
     10.26617      4.24979     10.06844         0.007289     -0.004208     -0.001508
      4.40676      4.24626     10.04724         0.000000      0.002836     -0.011295
      7.36086      4.24979     10.06844        -0.007289     -0.004208     -0.001508
     11.74508      6.78102     10.09804        -0.011560     -0.006674     -0.006857
      5.88195      6.78102     10.09804         0.011560     -0.006674     -0.006857
      8.81351      6.76586     10.06844         0.000000      0.008417     -0.001508
      0.00000      0.00000     12.50054         0.000000     -0.000000     -0.004985
      2.99863      0.09131     12.57640         0.006456      0.007398      0.008040
      5.81488      0.09131     12.57640        -0.006456      0.007398      0.008040
      1.57839      2.55123     12.57640         0.009635      0.001892      0.008040
      7.23512      2.55123     12.57640        -0.009635      0.001892      0.008040
      2.98652      4.99018     12.57640         0.003179     -0.009290      0.008040
      5.82700      4.99018     12.57640        -0.003179     -0.009290      0.008040
      8.81351      5.08848     12.50707         0.000000     -0.000000      0.017889
      4.40676      2.54424     12.20058         0.000000     -0.000000     -0.011313
    total drift:                               -0.015655     -0.006008      0.202842

  FREE ENERGIE OF THE ION-ELECTRON SYSTEM (eV)
  free  energy   TOTEN  =      -117.68722141 eV

  energy  without entropy=     -117.68722141  energy(sigma->0) =     -117.68722141

 stress matrix after NEB project (eV)
    -24.13368     -0.00000     -0.00000
     -0.00000    -24.13368      0.00000
     -0.00000      0.00000      2.39202
  FORCES: max atom, RMS     0.017889    0.008726
  FORCE total and by dimension    0.052354    0.017889
  Stress total and by dimension   34.213898   24.133681
|           W    W    AA    RRRRR   N    N  II  N    N   GGGG   !!!           |
|           W    W   A  A   R    R  NN   N  II  NN   N  G    G  !!!           |
|           W    W  A    A  R    R  N N  N  II  N N  N  G       !!!           |
|           W WW W  AAAAAA  RRRRR   N  N N  II  N  N N  G  GGG   !            |
|           WW  WW  A    A  R   R   N   NN  II  N   NN  G    G                |
|           W    W  A    A  R    R  N    N  II  N    N   GGGG   !!!           |
|     Tetrahedron method does not include variations of the Fermi             |
|     occupations, so forces and stress will be inaccurate. We suggest        |
|     using a different smearing scheme ISMEAR = 1 or 2 for metals in         |
|     relaxations.                                                            |

 total charge

# of ion       s       p       d       tot
    1        0.549   0.236   8.767   9.553
    2        0.540   0.241   8.766   9.547
    3        0.540   0.241   8.766   9.547
    4        0.540   0.241   8.766   9.547
    5        0.547   0.241   8.761   9.549
    6        0.540   0.241   8.766   9.547
    7        0.540   0.241   8.766   9.547
    8        0.540   0.241   8.766   9.547
    9        0.544   0.239   8.766   9.550
   10        0.528   0.306   8.766   9.600
   11        0.520   0.307   8.780   9.607
   12        0.528   0.306   8.766   9.600
   13        0.520   0.307   8.780   9.607
   14        0.520   0.307   8.780   9.607
   15        0.516   0.307   8.774   9.597
   16        0.528   0.306   8.766   9.600
   17        0.516   0.307   8.774   9.597
   18        0.516   0.307   8.774   9.597
   19        0.517   0.296   8.768   9.581
   20        0.582   0.348   8.714   9.644
   21        0.582   0.348   8.714   9.644
   22        0.508   0.304   8.779   9.591
   23        0.582   0.348   8.714   9.644
   24        0.508   0.304   8.779   9.591
   25        0.517   0.296   8.768   9.581
   26        0.517   0.296   8.768   9.581
   27        0.508   0.304   8.779   9.591
   28        0.538   0.226   8.753   9.517
   29        0.595   0.253   8.720   9.569
   30        0.595   0.253   8.720   9.569
   31        0.595   0.253   8.720   9.569
   32        0.595   0.253   8.720   9.569
   33        0.595   0.253   8.720   9.569
   34        0.595   0.253   8.720   9.569
   35        0.537   0.227   8.756   9.520
   36        0.645   0.551   2.863   4.059
tot         19.689  10.293 309.327 339.309

 BZINTS: Fermi energy:    0.749665;  390.000000 electrons
         Band energy:-0.118032E+04;  BLOECHL correction:   -0.032251