 vasp.6.2.0 18Jan21 (build Jun 12 2021 23:27:24) complex

 executed on             LinuxIFC date 2022.05.27  06:18:49

 INCAR:
   ISMEAR = -5
   SIGMA = 0.1
   ISPIN = 1
   EDIFF = 1.d-5
   EDIFFG = -0.01
   NSW = 0
   NELM = 150
   ENCUT = 500
   ISIF = 2
   IBRION = 2
   LREAL = Auto
   ALGO = Fast
   ICHARG = 11
   LORBIT = 10
   LCHARG = .F.
   LWAVE = .F.

 POTCAR:    PAW_PBE Cu 22Jun2005
 POTCAR:    PAW_PBE Re 17Jan2003
 POTCAR:    PAW_PBE N 08Apr2002
|           W    W    AA    RRRRR   N    N  II  N    N   GGGG   !!!           |
|           W    W   A  A   R    R  NN   N  II  NN   N  G    G  !!!           |
|           W    W  A    A  R    R  N N  N  II  N N  N  G       !!!           |
|           W WW W  AAAAAA  RRRRR   N  N N  II  N  N N  G  GGG   !            |
|           WW  WW  A    A  R   R   N   NN  II  N   NN  G    G                |
|           W    W  A    A  R    R  N    N  II  N    N   GGGG   !!!           |
|     For optimal performance we recommend to set                             |
|       NCORE = 2 up to number-of-cores-per-socket                            |
|     This setting can greatly improve the performance of VASP for DFT.       |
|     The default, NCORE=1 might be grossly inefficient on modern             |
|     multi-core architectures or massively parallel machines. Do your        |
|     Unfortunately you need to use the default for GW and RPA                |
|     calculations (for HF NCORE is supported but not extensively tested      |
|     yet).                                                                   |

 POTCAR:    PAW_PBE Cu 22Jun2005
   VRHFIN =Cu: d10 p1

   TITEL  = PAW_PBE Cu 22Jun2005
   POMASS =   63.546; ZVAL   =   11.000    mass and valenz
   ENMAX  =  295.446; ENMIN  =  221.585 eV

 POTCAR:    PAW_PBE Re 17Jan2003
   VRHFIN =Re: 5p6s5d

   TITEL  = PAW_PBE Re 17Jan2003
   POMASS =  186.207; ZVAL   =    7.000    mass and valenz
   ENMAX  =  226.216; ENMIN  =  169.662 eV

 POTCAR:    PAW_PBE N 08Apr2002
   VRHFIN =N: s2p3

   TITEL  = PAW_PBE N 08Apr2002
   POMASS =   14.001; ZVAL   =    5.000    mass and valenz
   ENMAX  =  400.000; ENMIN  =  300.000 eV

 Optimization of the real space projectors (new method)

 maximal supplied QI-value         = 16.25
 optimisation between [QCUT,QGAM] = [ 11.38, 22.75] = [ 36.24,144.96] Ry
 Optimized for a Real-space Cutoff    1.52 Angstroem

   l    n(q)    QCUT    max X(q) W(low)/X(q) W(high)/X(q)  e(spline)
   2      9    11.376     4.610    0.21E-03    0.10E-03    0.26E-06
   2      9    11.376     8.522    0.33E-03    0.16E-03    0.37E-06
   0     10    11.376    51.609    0.62E-04    0.20E-04    0.13E-06
   0     10    11.376    27.747    0.54E-04    0.20E-04    0.13E-06
   1     10    11.376    20.408    0.13E-04    0.99E-04    0.19E-06
   1     10    11.376    13.425    0.12E-04    0.87E-04    0.17E-06
 Optimization of the real space projectors (new method)

[...]

   l    n(q)    QCUT    max X(q) W(low)/X(q) W(high)/X(q)  e(spline)
   2     10    11.327   884.633    0.22E-03    0.51E-03    0.88E-06
   2     10    11.327   796.723    0.22E-03    0.51E-03    0.88E-06
   0     11    11.327    65.348    0.44E-04    0.11E-03    0.75E-06
   0     11    11.327    39.642    0.40E-04    0.10E-03    0.69E-06
   1     10    11.327    13.988    0.15E-03    0.10E-03    0.19E-06
   1     10    11.327     8.682    0.11E-03    0.76E-04    0.14E-06
 Optimization of the real space projectors (new method)

 maximal supplied QI-value         = 25.13
 optimisation between [QCUT,QGAM] = [ 11.31, 22.87] = [ 35.82,146.48] Ry
 Optimized for a Real-space Cutoff    1.27 Angstroem

   l    n(q)    QCUT    max X(q) W(low)/X(q) W(high)/X(q)  e(spline)
   0      9    11.310    79.467    0.75E-04    0.16E-03    0.36E-06
   0      9    11.310    66.151    0.74E-04    0.16E-03    0.36E-06
   1      8    11.310    17.416    0.35E-03    0.12E-03    0.95E-06
   1      8    11.310    12.382    0.37E-03    0.13E-03    0.98E-06
  PAW_PBE Cu 22Jun2005                  :
  PAW_PBE Re 17Jan2003                  :
  PAW_PBE N 08Apr2002                   :

 POSCAR: Cu-Re-N2
  positions in direct lattice
  velocities in cartesian coordinates
 exchange correlation table for  LEXCH =        8
   RHO(1)=    0.500       N(1)  =     2000
   RHO(2)=  100.500       N(2)  =     4000

 VTST: version 3.2, (02/03/18)

 CHAIN: initializing optimizer

 OPT: Using VASP Conjugate-Gradient optimizer
 CHAIN: Read ICHAIN            0

 POSCAR: Cu-Re-N2
  positions in direct lattice
  velocities in cartesian coordinates

 ion  position               nearest neighbor table
   1  0.000  0.000  0.252-   7 2.57   3 2.57   4 2.57   2 2.57   6 2.57   8 2.57  12 2.57  10 2.57
                            16 2.57
   2  0.333  0.000  0.252-   8 2.57   9 2.57   5 2.57   1 2.57   3 2.57  11 2.57   4 2.57  10 2.57
                            17 2.57
   3  0.667  0.000  0.252-   1 2.57   7 2.57   6 2.57   9 2.57   2 2.57  12 2.57   5 2.57  18 2.57
                            11 2.57
   4  0.000  0.333  0.252-   5 2.57   6 2.57   1 2.57   7 2.57   2 2.57  13 2.57   9 2.57  10 2.57
                            15 2.57
   5  0.333  0.333  0.252-   4 2.57   2 2.57   7 2.57  13 2.57   8 2.57   6 2.57   3 2.57  11 2.57
                            14 2.57
   6  0.667  0.333  0.252-   4 2.57   9 2.57  15 2.57   3 2.57   1 2.57   8 2.57  14 2.57   5 2.57
                            12 2.57
   7  0.000  0.667  0.252-   1 2.57   3 2.57  16 2.57  18 2.57   4 2.57   5 2.57   8 2.57   9 2.57
                            13 2.57
   8  0.333  0.667  0.252-   9 2.57   2 2.57  17 2.57   6 2.57   1 2.57   7 2.57   5 2.57  14 2.57
                            16 2.57
   9  0.667  0.667  0.252-   8 2.57   6 2.57   2 2.57  17 2.57   3 2.57   7 2.57   4 2.57  15 2.57
                            18 2.57
  10  0.111  0.111  0.351-  20 2.53  11 2.57  12 2.57  13 2.57   1 2.57   2 2.57   4 2.57  15 2.57
                            16 2.57  17 2.57  26 2.57  19 2.57
  11  0.444  0.111  0.351-  20 2.55  21 2.55  10 2.57  13 2.57   2 2.57  17 2.57  14 2.57  12 2.57
                             5 2.57   3 2.57  18 2.57  27 2.58
  12  0.778  0.111  0.351-  21 2.53  15 2.57  10 2.57  14 2.57  18 2.57   3 2.57   1 2.57  16 2.57
                            11 2.57   6 2.57  19 2.57  25 2.57
  13  0.111  0.444  0.351-  23 2.55  20 2.55  16 2.57  18 2.57  10 2.57  11 2.57  14 2.57   5 2.57
                             4 2.57   7 2.57  15 2.57  22 2.58
  14  0.444  0.444  0.351-  21 2.55  23 2.55  15 2.57  17 2.57  12 2.57  16 2.57  13 2.57  11 2.57
                             6 2.57   8 2.57   5 2.57  24 2.58
  15  0.778  0.444  0.351-  19 2.57  14 2.57  17 2.57  12 2.57   6 2.57  18 2.57  10 2.57   9 2.57
                            13 2.57   4 2.57  24 2.57  22 2.57
  16  0.111  0.778  0.351-  23 2.53  18 2.57  13 2.57   7 2.57  14 2.57  17 2.57  12 2.57  10 2.57
                             8 2.57   1 2.57  25 2.57  26 2.57
  17  0.444  0.778  0.351-  26 2.57  14 2.57  15 2.57   8 2.57   9 2.57  11 2.57  16 2.57  18 2.57
                            10 2.57   2 2.57  27 2.57  24 2.57
  18  0.778  0.778  0.351-  25 2.57  16 2.57  13 2.57   7 2.57  15 2.57  12 2.57  17 2.57   9 2.57
                             3 2.57  11 2.57  22 2.57  27 2.57
  19  0.889  0.223  0.449-  21 2.55  20 2.55  22 2.56  24 2.56  28 2.56  15 2.57  12 2.57  10 2.57
                            25 2.57  26 2.57  32 2.59  31 2.59
  20  0.221  0.221  0.448-  36 2.53  10 2.53  11 2.55  13 2.55  26 2.55  19 2.55  27 2.57  22 2.57
                            23 2.59  21 2.59  29 2.61  31 2.61
  21  0.558  0.221  0.448-  36 2.53  12 2.53  14 2.55  11 2.55  19 2.55  25 2.55  24 2.57  27 2.57
                            20 2.59  23 2.59  32 2.61  30 2.61
  22  0.888  0.556  0.450-  24 2.55  27 2.55  35 2.55  19 2.56  25 2.56  18 2.57  15 2.57  23 2.57
                            20 2.57  13 2.58  31 2.59  33 2.59
  23  0.221  0.558  0.448-  36 2.53  16 2.53  13 2.55  14 2.55  25 2.55  26 2.55  22 2.57  24 2.57
                            20 2.59  21 2.59  33 2.61  34 2.61
  24  0.556  0.556  0.450-  22 2.55  27 2.55  35 2.55  19 2.56  26 2.56  15 2.57  17 2.57  21 2.57
                            23 2.57  14 2.58  32 2.59  34 2.59
  25  0.889  0.889  0.449-  21 2.55  23 2.55  22 2.56  27 2.56  28 2.56  18 2.57  16 2.57  12 2.57
                            19 2.57  26 2.57  33 2.59  30 2.59
  26  0.223  0.889  0.449-  20 2.55  23 2.55  27 2.56  24 2.56  28 2.56  17 2.57  10 2.57  16 2.57
                            25 2.57  19 2.57  29 2.59  34 2.59
  27  0.556  0.888  0.450-  24 2.55  22 2.55  35 2.55  26 2.56  25 2.56  17 2.57  18 2.57  20 2.57
                            21 2.57  11 2.58  29 2.59  30 2.59
  28  0.000  0.000  0.548-  33 2.56  30 2.56  31 2.56  29 2.56  32 2.56  34 2.56  25 2.56  19 2.56
                            26 2.56
  29  0.333  0.000  0.549-  31 2.56  28 2.56  36 2.57  34 2.57  35 2.57  30 2.57  26 2.59  27 2.59
                            20 2.61
  30  0.667  0.000  0.549-  32 2.56  28 2.56  36 2.57  33 2.57  35 2.57  29 2.57  25 2.59  27 2.59
                            21 2.61
  31  0.000  0.333  0.549-  29 2.56  28 2.56  36 2.57  32 2.57  35 2.57  33 2.57  19 2.59  22 2.59
                            20 2.61
  32  0.667  0.333  0.549-  30 2.56  28 2.56  36 2.57  31 2.57  35 2.57  34 2.57  19 2.59  24 2.59
                            21 2.61
  33  0.000  0.667  0.549-  34 2.56  28 2.56  36 2.57  30 2.57  35 2.57  31 2.57  25 2.59  22 2.59
                            23 2.61
  34  0.333  0.667  0.549-  33 2.56  28 2.56  36 2.57  29 2.57  35 2.57  32 2.57  26 2.59  24 2.59
                            23 2.61
  35  0.667  0.667  0.548-  24 2.55  27 2.55  22 2.55  34 2.57  32 2.57  29 2.57  30 2.57  33 2.57
                            31 2.57
  36  0.333  0.333  0.544-  37 2.37  38 2.37  23 2.53  20 2.53  21 2.53  31 2.57  29 2.57  33 2.57
                            34 2.57  32 2.57  30 2.57
  37  0.259  0.332  0.652-  38 1.15  36 2.37
  38  0.409  0.332  0.652-  37 1.15  36 2.37

  LATTYP: Found a hexagonal cell.
 ALAT       =     7.6967864036
 C/A-ratio  =     2.7653617908

  Lattice vectors:

 A1 = (  -3.8483927580,  -6.6656128093,   0.0000000000)
 A2 = (   7.6967864037,   0.0000000000,   0.0000000000)
 A3 = (   0.0000000000,   0.0000000000,  21.2843990326)

Analysis of symmetry for initial positions (statically):
 Subroutine PRICEL returns:
 Original cell was already a primitive cell.

 Routine SETGRP: Setting up the symmetry group for a
 hexagonal supercell.

 Subroutine GETGRP returns: Found  2 space group operations
 (whereof  2 operations were pure point group operations)
 out of a pool of 24 trial point group operations.

The static configuration has the point symmetry C_1h.

Analysis of symmetry for dynamics (positions and initial velocities):
 Subroutine PRICEL returns:
 Original cell was already a primitive cell.

[...]

The dynamic configuration has the point symmetry C_1h.

Analysis of constrained symmetry for selective dynamics:
 Subroutine PRICEL returns:
 Original cell was already a primitive cell.

 Routine SETGRP: Setting up the symmetry group for a
 hexagonal supercell.

[...]
     33      -3.9035      2.00000
     34      -3.8889      2.00000
     35      -3.8844      2.00000
     36      -3.8797      2.00000
     37      -3.8647      2.00000
     38      -3.8461      2.00000
     39      -3.8163      2.00000
     40      -3.7612      2.00000
     41      -3.7276      2.00000
     42      -3.5805      2.00000
     43      -3.5697      2.00000
     44      -3.5156      2.00000
     45      -3.4945      2.00000
     46      -3.4927      2.00000
     47      -3.4684      2.00000
     48      -3.4610      2.00000
     49      -3.4498      2.00000
     50      -3.4423      2.00000
     51      -3.2621      2.00000
     52      -3.2465      2.00000
     53      -3.2359      2.00000
     54      -3.2206      2.00000
     55      -3.1749      2.00000
     56      -3.1694      2.00000
     57      -3.1580      2.00000
     58      -3.1482      2.00000
     59      -3.1463      2.00000
     60      -3.1352      2.00000
[...]
    238       6.0523      0.00000
    239       6.1451      0.00000
    240       6.3509      0.00000
    241       6.3699      0.00000
    242       6.6025      0.00000
    243       6.7530      0.00000
    244       6.9271      0.00000
    245       7.0040      0.00000
    246       7.1108      0.00000
    247       7.1442      0.00000
    248       7.3189      0.00000
    249       7.4798      0.00000
    250       7.5051      0.00000
    251       7.5921      0.00000
    252       7.7529      0.00000

 soft charge-density along one line, spin component           1
         0         1         2         3         4         5         6         7         8         9
 total charge-density along one line

------------------------ aborting loop because EDIFF is reached ----------------------------------------

 total charge

# of ion       s       p       d       tot
    1        0.450   0.284   9.188   9.922
    2        0.448   0.285   9.186   9.919
    3        0.448   0.285   9.186   9.919
    4        0.450   0.285   9.186   9.921
    5        0.448   0.286   9.180   9.914
    6        0.450   0.285   9.186   9.921
    7        0.449   0.285   9.186   9.920
    8        0.449   0.285   9.186   9.920
    9        0.447   0.282   9.190   9.919
   10        0.443   0.373   9.175   9.990
   11        0.444   0.364   9.186   9.995
   12        0.443   0.373   9.175   9.990
   13        0.444   0.365   9.185   9.994
   14        0.444   0.365   9.185   9.994
   15        0.437   0.368   9.179   9.984
   16        0.445   0.373   9.173   9.990
   17        0.437   0.369   9.178   9.985
   18        0.437   0.369   9.178   9.985
   19        0.439   0.367   9.181   9.986
   20        0.463   0.408   9.156  10.027
   21        0.463   0.408   9.156  10.027
   22        0.428   0.369   9.184   9.981
   23        0.466   0.409   9.155  10.029
   24        0.428   0.369   9.184   9.981
   25        0.441   0.366   9.183   9.989
   26        0.441   0.366   9.183   9.989
   27        0.429   0.368   9.185   9.982
   28        0.448   0.289   9.183   9.921
   29        0.466   0.314   9.170   9.950
   30        0.466   0.314   9.170   9.950
   31        0.461   0.312   9.172   9.945
   32        0.461   0.312   9.172   9.945
   33        0.466   0.314   9.169   9.949
   34        0.466   0.314   9.169   9.949
   35        0.439   0.293   9.184   9.917
   36        0.570   0.443   4.842   5.855
   37        1.355   2.444   0.000   3.799
   38        1.355   2.444   0.000   3.799
tot         18.965  17.103 326.087 362.155

  FORCE on cell =-STRESS in cart. coord.  units (eV):
  Direction    XX          YY          ZZ          XY          YZ          ZX
  Alpha Z   922.31250   922.31250   922.31250
  Ewald  170270.04065169963.01574************     0.00039     0.60311     0.00017
  Hartree183251.21977183143.67423************     0.00004     0.95430     0.00006
  E(xc)   -2320.36026 -2321.44265 -2325.30192    -0.00027     0.06724    -0.00004
  Local  ************************366287.37774     0.02006    -1.29658    -0.00073
  n-local  -801.96883  -790.38399  -809.57181     1.91849     0.35586     0.06924
  augment  3317.17045  3316.49419  3340.97244    -0.01835    -0.12619     0.00035
  Kinetic  3405.64223  3419.46531  3449.87020     1.38669    -0.55281    -0.18612
  Fock        0.00000     0.00000     0.00000     0.00000     0.00000     0.00000
  Total      -6.15795    -6.34930    -0.16200     0.00000     0.00495    -0.00000
  in kB      -9.03515    -9.31592    -0.23769     0.00000     0.00726    -0.00000

 VOLUME and BASIS-vectors are now :
  energy-cutoff  :      500.00
  volume of cell :     1091.97
      direct lattice vectors                 reciprocal lattice vectors
     7.696786404  0.000000000  0.000000000     0.129924354 -0.075011849  0.000000000
     3.848392758  6.665612809  0.000000000     0.000000000  0.150023716  0.000000000
     0.000000000  0.000000000 21.284399033     0.000000000  0.000000000  0.046982769

  length of vectors
     7.696786404  7.696786404 21.284399033     0.150023716  0.150023716  0.046982769

 FORCES acting on ions
    electron-ion (+dipol)            ewald-force                    non-local-force                 convergence-correction
   -.407E-04 0.114E-01 0.349E+04   0.580E-04 -.128E-01 -.348E+04   -.175E-08 0.263E-01 -.287E+01   -.400E-03 -.232E-01 -.131E+00
   -.608E+00 0.554E-01 0.349E+04   0.206E+00 -.849E-01 -.348E+04   0.165E+00 0.664E-01 -.176E+01   0.229E+00 -.198E-01 -.246E+00
   0.608E+00 0.554E-01 0.349E+04   -.206E+00 -.850E-01 -.348E+04   -.165E+00 0.664E-01 -.176E+01   -.228E+00 -.174E-01 -.245E+00
   -.172E+00 -.471E+00 0.349E+04   0.403E-01 0.216E+00 -.348E+04   0.830E-01 0.592E-01 -.175E+01   0.727E-01 0.185E+00 -.160E+00
   -.621E-04 -.119E-01 0.349E+04   0.116E-03 0.992E-03 -.348E+04   -.262E-08 0.393E-01 -.155E+01   0.121E-01 -.223E-01 -.107E+00
   0.172E+00 -.471E+00 0.349E+04   -.404E-01 0.215E+00 -.348E+04   -.830E-01 0.592E-01 -.175E+01   -.743E-01 0.186E+00 -.159E+00
   0.205E+00 0.392E+00 0.349E+04   -.165E+00 -.131E+00 -.348E+04   0.748E-01 -.136E+00 -.169E+01   -.100E+00 -.133E+00 -.173E+00
   -.205E+00 0.392E+00 0.349E+04   0.165E+00 -.131E+00 -.348E+04   -.748E-01 -.136E+00 -.169E+01   0.104E+00 -.134E+00 -.173E+00
   -.143E-03 0.256E-01 0.349E+04   0.263E-03 0.118E-01 -.348E+04   0.215E-08 -.323E-01 -.244E+01   -.131E-01 -.712E-02 -.281E+00
   0.195E+01 0.117E+01 0.120E+04   -.142E+01 -.914E+00 -.120E+04   -.638E+00 -.314E+00 -.128E+01   0.970E-01 0.605E-01 0.686E-01
   -.921E-04 -.528E-01 0.119E+04   0.190E-03 -.509E+00 -.119E+04   -.230E-07 0.345E+00 -.232E+00   0.123E-01 0.134E+00 0.276E-01
   -.195E+01 0.117E+01 0.120E+04   0.142E+01 -.914E+00 -.120E+04   0.638E+00 -.314E+00 -.128E+01   -.989E-01 0.612E-01 0.688E-01
   -.975E-01 0.567E-01 0.119E+04   -.353E+00 0.276E+00 -.119E+04   0.302E+00 -.241E+00 -.323E+00   0.959E-01 -.565E-01 0.352E-01
   0.976E-01 0.567E-01 0.119E+04   0.353E+00 0.276E+00 -.119E+04   -.302E+00 -.241E+00 -.323E+00   -.726E-01 -.587E-01 0.324E-01
   -.143E-03 -.123E+01 0.119E+04   0.298E-03 0.839E+00 -.119E+04   -.145E-07 0.217E+00 -.932E+00   -.323E-02 0.146E+00 0.636E-01
   -.923E-04 -.234E+01 0.120E+04   0.186E-03 0.166E+01 -.120E+04   -.523E-07 0.786E+00 -.129E+01   -.131E-02 -.102E+00 0.224E-01
   -.922E+00 0.560E+00 0.119E+04   0.668E+00 -.357E+00 -.119E+04   0.157E+00 -.118E+00 -.936E+00   0.809E-01 -.787E-01 -.302E-01
   0.923E+00 0.560E+00 0.119E+04   -.669E+00 -.357E+00 -.119E+04   -.157E+00 -.118E+00 -.936E+00   -.789E-01 -.759E-01 -.272E-01
   -.625E-04 -.285E+01 -.111E+04   0.697E-04 0.255E+01 0.111E+04   -.799E-08 0.120E+00 0.106E+01   -.109E-01 0.159E+00 0.381E+00
   -.324E+02 -.183E+02 -.112E+04   0.337E+02 0.189E+02 0.112E+04   -.149E+01 -.753E+00 -.110E+01   0.148E+00 0.823E-01 0.502E+00
   0.324E+02 -.183E+02 -.112E+04   -.337E+02 0.189E+02 0.112E+04   0.149E+01 -.753E+00 -.110E+01   -.167E+00 0.788E-01 0.501E+00
   -.205E+02 0.113E+02 -.112E+04   0.197E+02 -.107E+02 0.112E+04   0.760E+00 -.554E+00 0.899E+00   0.803E-01 -.103E+00 0.318E+00
   -.916E-04 0.364E+02 -.112E+04   0.146E-03 -.381E+02 0.112E+04   -.127E-06 0.190E+01 -.152E+01   -.139E-01 -.193E+00 0.479E+00
   0.205E+02 0.113E+02 -.112E+04   -.197E+02 -.107E+02 0.112E+04   -.760E+00 -.554E+00 0.899E+00   -.563E-01 -.105E+00 0.318E+00
   0.272E+01 0.180E+01 -.111E+04   -.252E+01 -.177E+01 0.111E+04   -.651E-01 0.326E-01 0.904E+00   -.129E+00 -.531E-01 0.385E+00
   -.272E+01 0.180E+01 -.111E+04   0.252E+01 -.177E+01 0.111E+04   0.651E-01 0.326E-01 0.904E+00   0.106E+00 -.519E-01 0.385E+00
   -.111E-03 -.238E+02 -.112E+04   0.241E-03 0.226E+02 0.112E+04   -.688E-07 0.103E+01 0.828E+00   0.132E-01 0.167E+00 0.310E+00
   -.454E-04 0.329E+01 -.336E+04   0.365E-04 -.330E+01 0.336E+04   -.182E-10 0.273E-03 0.189E+01   -.461E-03 -.237E-01 0.344E+00
   -.138E+02 -.136E+02 -.334E+04   0.145E+02 0.140E+02 0.334E+04   -.820E+00 -.690E+00 0.128E+01   0.770E-01 0.112E+00 0.232E+00
   0.138E+02 -.136E+02 -.334E+04   -.145E+02 0.140E+02 0.334E+04   0.820E+00 -.690E+00 0.128E+01   -.759E-01 0.113E+00 0.231E+00
   -.172E+02 -.220E+01 -.334E+04   0.176E+02 0.230E+01 0.333E+04   -.769E+00 -.198E+00 0.235E+01   0.167E+00 0.103E+00 0.257E+00
   0.172E+02 -.220E+01 -.334E+04   -.176E+02 0.230E+01 0.333E+04   0.769E+00 -.198E+00 0.235E+01   -.167E+00 0.103E+00 0.257E+00
   -.108E+02 0.161E+02 -.334E+04   0.111E+02 -.165E+02 0.334E+04   -.421E+00 0.858E+00 0.132E+01   0.103E+00 -.225E+00 0.332E+00
   0.108E+02 0.161E+02 -.334E+04   -.111E+02 -.165E+02 0.334E+04   0.421E+00 0.858E+00 0.132E+01   -.101E+00 -.225E+00 0.334E+00
   -.155E-03 -.298E+01 -.336E+04   0.254E-03 0.309E+01 0.336E+04   -.366E-08 0.550E-01 0.252E+01   -.121E-01 -.121E+00 0.485E+00
   -.384E-04 -.496E+00 -.197E+04   0.892E-04 0.369E+00 0.197E+04   -.697E-08 0.105E+00 0.332E+01   0.542E-03 0.530E-01 0.158E+00
   0.214E+03 -.156E+00 -.166E+04   -.256E+03 0.144E+00 0.167E+04   0.420E+02 -.345E-01 -.751E+01   0.186E-01 0.378E-01 -.780E-01
   -.214E+03 -.156E+00 -.166E+04   0.256E+03 0.144E+00 0.167E+04   -.420E+02 -.345E-01 -.751E+01   -.184E-01 0.378E-01 -.781E-01
   -.110E-03 -.542E+00 0.157E+02   0.171E-12 0.133E-12 0.955E-11   -.366E-07 0.549E+00 -.204E+02   -.583E-02 -.976E-02 0.464E+01

 POSITION                                       TOTAL-FORCE (eV/Angst)
      0.00000      0.00000      5.37156        -0.000000      0.001862     -0.037329
      2.56560      0.00000      5.37156        -0.007968      0.018364      0.063810
      5.13119      0.00000      5.37156         0.007968      0.018364      0.063810
      1.28280      2.22187      5.37156         0.024849     -0.010900      0.052723
      3.84839      2.22187      5.37156        -0.000000      0.006128      0.012808
      6.41399      2.22187      5.37156        -0.024849     -0.010900      0.052723
      2.56560      4.44374      5.37156         0.012829     -0.007611      0.059448
      5.13119      4.44374      5.37156        -0.012829     -0.007611      0.059448
      7.69679      4.44374      5.37156         0.000000     -0.002019      0.009945
      1.28280      0.74062      7.46636        -0.010535      0.007449     -0.056156
      3.84839      0.74062      7.46636         0.000000     -0.082570     -0.091254
      6.41399      0.74062      7.46636         0.010535      0.007449     -0.056156
      2.56560      2.96249      7.46636        -0.063936      0.034295     -0.081055
      5.13119      2.96249      7.46636         0.063936      0.034295     -0.081055
      7.69679      2.96249      7.46636         0.000000     -0.023803      0.027704
      3.84839      5.18437      7.46636        -0.000000      0.001261     -0.048496
      6.41399      5.18437      7.46636        -0.017128      0.008110      0.031669
      8.97958      5.18437      7.46636         0.017128      0.008110      0.031669
      7.69679      1.48486      9.56345         0.000000     -0.026317      0.036283
      2.55359      1.47432      9.53212         0.002054     -0.019737     -0.123359
      5.14319      1.47432      9.53212        -0.002054     -0.019737     -0.123359
      8.97343      3.70667      9.56919         0.046265     -0.019431      0.007414
      3.84839      3.71698      9.53212        -0.000000      0.027945     -0.121536
      6.42014      3.70667      9.56919        -0.046265     -0.019431      0.007414
     10.25925      5.92318      9.56345         0.014596      0.006310      0.000711
      5.13432      5.92318      9.56345        -0.014596      0.006310      0.000711
      7.69679      5.91789      9.56919        -0.000000      0.048046     -0.010024
      0.00000      0.00000     11.65394         0.000000     -0.030801     -0.057839
      2.56263      0.00314     11.68588        -0.084054     -0.178058     -0.158728
      5.13415      0.00314     11.68588         0.084054     -0.178058     -0.158728
      1.28404      2.21774     11.68588        -0.182452      0.003730     -0.108135
      6.41275      2.21774     11.68588         0.182452      0.003730     -0.108135
      2.56979      4.44474     11.68588        -0.093476      0.172387     -0.171452
      5.12699      4.44474     11.68588         0.093476      0.172387     -0.171452
      7.69679      4.44374     11.65455        -0.000000      0.037395     -0.039178
      3.84839      2.22187     11.57229        -0.000000      0.030133      1.299142
      3.27238      2.21627     13.87366         0.009924     -0.008537     -0.007002
      4.42441      2.21627     13.87366        -0.009924     -0.008537     -0.007002
    total drift:                               -0.005938     -0.002728     -0.029235

  FREE ENERGIE OF THE ION-ELECTRON SYSTEM (eV)
  free  energy   TOTEN  =      -148.71537421 eV

  energy  without entropy=     -148.71537421  energy(sigma->0) =     -148.71537421

 stress matrix after NEB project (eV)
     -6.15795      0.00000     -0.00000
      0.00000     -6.34930      0.00495
     -0.00000      0.00495     -0.16200
  FORCES: max atom, RMS     0.014846    0.003406
  FORCE total and by dimension    0.020995    0.009924
  Stress total and by dimension    8.846481    6.349302
|           W    W    AA    RRRRR   N    N  II  N    N   GGGG   !!!           |
|           W    W   A  A   R    R  NN   N  II  NN   N  G    G  !!!           |
|           W    W  A    A  R    R  N N  N  II  N N  N  G       !!!           |
|           W WW W  AAAAAA  RRRRR   N  N N  II  N  N N  G  GGG   !            |
|           WW  WW  A    A  R   R   N   NN  II  N   NN  G    G                |
|           W    W  A    A  R    R  N    N  II  N    N   GGGG   !!!           |
|     Tetrahedron method does not include variations of the Fermi             |
|     occupations, so forces and stress will be inaccurate. We suggest        |
|     using a different smearing scheme ISMEAR = 1 or 2 for metals in         |
|     relaxations.                                                            |

 total charge

# of ion       s       p       d       tot
    1        0.450   0.284   9.188   9.922
    2        0.448   0.285   9.186   9.919
    3        0.448   0.285   9.186   9.919
    4        0.450   0.285   9.186   9.921
    5        0.448   0.286   9.180   9.914
    6        0.450   0.285   9.186   9.921
    7        0.449   0.285   9.186   9.920
    8        0.449   0.285   9.186   9.920
    9        0.447   0.282   9.190   9.919
   10        0.443   0.373   9.175   9.990
   11        0.444   0.364   9.186   9.995
   12        0.443   0.373   9.175   9.990
   13        0.444   0.365   9.185   9.994
   14        0.444   0.365   9.185   9.994
   15        0.437   0.368   9.179   9.984
   16        0.445   0.373   9.173   9.990
   17        0.437   0.369   9.178   9.985
   18        0.437   0.369   9.178   9.985
   19        0.439   0.367   9.181   9.986
   20        0.463   0.408   9.156  10.027
   21        0.463   0.408   9.156  10.027
   22        0.428   0.369   9.184   9.981
   23        0.466   0.409   9.155  10.029
   24        0.428   0.369   9.184   9.981
   25        0.441   0.366   9.183   9.989
   26        0.441   0.366   9.183   9.989
   27        0.429   0.368   9.185   9.982
   28        0.448   0.289   9.183   9.921
   29        0.466   0.314   9.170   9.950
   30        0.466   0.314   9.170   9.950
   31        0.461   0.312   9.172   9.945
   32        0.461   0.312   9.172   9.945
   33        0.466   0.314   9.169   9.949
   34        0.466   0.314   9.169   9.949
   35        0.439   0.293   9.184   9.917
   36        0.570   0.443   4.842   5.855
   37        1.355   2.444   0.000   3.799
   38        1.355   2.444   0.000   3.799
tot         18.965  17.103 326.087 362.155

 BZINTS: Fermi energy:    0.211021;  402.000000 electrons
         Band energy:-0.112067E+04;  BLOECHL correction:   -0.034588