 vasp.6.2.0 18Jan21 (build Jun 12 2021 23:27:24) complex

 executed on             LinuxIFC date 2022.05.27  05:49:48

 INCAR:
   ISMEAR = -5
   SIGMA = 0.1
   ISPIN = 1
   EDIFF = 1.d-5
   EDIFFG = -0.01
   NSW = 0
   NELM = 150
   ENCUT = 500
   ISIF = 2
   IBRION = 2
   LREAL = Auto
   ALGO = Fast
   ICHARG = 11
   LORBIT = 10
   LCHARG = .F.
   LWAVE = .F.

 POTCAR:    PAW_PBE Ag 02Apr2005
 POTCAR:    PAW_PBE W 08Apr2002
 POTCAR:    PAW_PBE C 08Apr2002
 POTCAR:    PAW_PBE O 08Apr2002
|           W    W    AA    RRRRR   N    N  II  N    N   GGGG   !!!           |
|           W    W   A  A   R    R  NN   N  II  NN   N  G    G  !!!           |
|           W    W  A    A  R    R  N N  N  II  N N  N  G       !!!           |
|           W WW W  AAAAAA  RRRRR   N  N N  II  N  N N  G  GGG   !            |
|           WW  WW  A    A  R   R   N   NN  II  N   NN  G    G                |
|           W    W  A    A  R    R  N    N  II  N    N   GGGG   !!!           |
|     For optimal performance we recommend to set                             |
|       NCORE = 2 up to number-of-cores-per-socket                            |
|     This setting can greatly improve the performance of VASP for DFT.       |
|     The default, NCORE=1 might be grossly inefficient on modern             |
|     multi-core architectures or massively parallel machines. Do your        |
|     Unfortunately you need to use the default for GW and RPA                |
|     calculations (for HF NCORE is supported but not extensively tested      |
|     yet).                                                                   |

 POTCAR:    PAW_PBE Ag 02Apr2005
   VRHFIN =Ag : s1 d10

   TITEL  = PAW_PBE Ag 02Apr2005
   POMASS =  107.868; ZVAL   =   11.000    mass and valenz
   ENMAX  =  249.844; ENMIN  =  187.383 eV

 POTCAR:    PAW_PBE W 08Apr2002
   VRHFIN =W : 6s5d

[...]

 POTCAR:    PAW_PBE C 08Apr2002
   VRHFIN =C: s2p2

[...]

 POTCAR:    PAW_PBE O 08Apr2002
   VRHFIN =O: s2p4

   TITEL  = PAW_PBE O 08Apr2002
   POMASS =   16.000; ZVAL   =    6.000    mass and valenz
   ENMAX  =  400.000; ENMIN  =  300.000 eV

 Optimization of the real space projectors (new method)

 maximal supplied QI-value         = 15.12
 optimisation between [QCUT,QGAM] = [ 11.34, 22.83] = [ 36.00,145.93] Ry
 Optimized for a Real-space Cutoff    1.43 Angstroem

   l    n(q)    QCUT    max X(q) W(low)/X(q) W(high)/X(q)  e(spline)
   2      9    11.338    53.897    0.16E-03    0.20E-03    0.28E-06
   2      9    11.338    52.416    0.16E-03    0.20E-03    0.29E-06
   0     10    11.338   122.045    0.31E-04    0.76E-04    0.15E-06
   0     10    11.338    73.629    0.30E-04    0.72E-04    0.15E-06
   1      9    11.338    15.255    0.20E-03    0.19E-04    0.17E-06
   1      9    11.338     9.562    0.16E-03    0.15E-04    0.14E-06
 Optimization of the real space projectors (new method)

[...]

   l    n(q)    QCUT    max X(q) W(low)/X(q) W(high)/X(q)  e(spline)
   0      7    11.310   115.676    0.43E-03    0.13E-02    0.19E-06
   0      7    11.310    87.132    0.43E-03    0.13E-02    0.18E-06
   1      6    11.310     4.429    0.42E-03    0.74E-03    0.11E-06
   1      6    11.310     2.733    0.34E-03    0.55E-03    0.92E-07
 Optimization of the real space projectors (new method)

 maximal supplied QI-value         = 24.76
 optimisation between [QCUT,QGAM] = [ 11.39, 22.77] = [ 36.31,145.25] Ry
 Optimized for a Real-space Cutoff    1.00 Angstroem

   l    n(q)    QCUT    max X(q) W(low)/X(q) W(high)/X(q)  e(spline)
   0      7    11.387    20.381    0.39E-03    0.13E-02    0.15E-06
   0      7    11.387    15.268    0.42E-03    0.14E-02    0.17E-06
   1      6    11.387     5.964    0.41E-03    0.11E-02    0.17E-06
   1      6    11.387     5.382    0.39E-03    0.87E-03    0.15E-06
  PAW_PBE Ag 02Apr2005                  :
  PAW_PBE W 08Apr2002                   :
  PAW_PBE C 08Apr2002                   :
  PAW_PBE O 08Apr2002                   :

 POSCAR: Ag-W-CO
  positions in direct lattice
  velocities in cartesian coordinates
 exchange correlation table for  LEXCH =        8
   RHO(1)=    0.500       N(1)  =     2000
   RHO(2)=  100.500       N(2)  =     4000

 VTST: version 3.2, (02/03/18)

 CHAIN: initializing optimizer

 OPT: Using VASP Conjugate-Gradient optimizer
 CHAIN: Read ICHAIN            0

 POSCAR: Ag-W-CO
  positions in direct lattice
  velocities in cartesian coordinates

 ion  position               nearest neighbor table
   1  0.000  0.000  0.238-   2 2.93   8 2.93   7 2.93   6 2.93   4 2.93  12 2.93  16 2.93  10 2.93
                             3 2.93
   2  0.333  0.000  0.238-   1 2.93   8 2.93   9 2.93   3 2.93   4 2.93   5 2.93  10 2.93  17 2.93
                            11 2.93
   3  0.667  0.000  0.238-   9 2.93   2 2.93   5 2.93  11 2.93   7 2.93  18 2.93   1 2.93   6 2.93
                            12 2.93
   4  0.000  0.333  0.238-   5 2.93   6 2.93   2 2.93   1 2.93   7 2.93  13 2.93  15 2.93   9 2.93
                            10 2.93
   5  0.333  0.333  0.238-   4 2.93   3 2.93   7 2.93   2 2.93   8 2.93  14 2.93  13 2.93  11 2.93
                             6 2.93
   6  0.667  0.333  0.238-   4 2.93   9 2.93   1 2.93  15 2.93   8 2.93  12 2.93   3 2.93   5 2.93
                            14 2.93
   7  0.000  0.667  0.238-   8 2.93   1 2.93   5 2.93   3 2.93   4 2.93  16 2.93  18 2.93  13 2.93
                             9 2.93
   8  0.333  0.667  0.238-   7 2.93   1 2.93   2 2.93   9 2.93   5 2.93  16 2.93   6 2.93  17 2.93
                            14 2.93
   9  0.667  0.667  0.238-   3 2.93   2 2.93   8 2.93   6 2.93  17 2.93   4 2.93  15 2.93   7 2.93
                            18 2.93
  10  0.111  0.111  0.346-  20 2.89  12 2.93  16 2.93  15 2.93  17 2.93  13 2.93  11 2.93   2 2.93
                             1 2.93   4 2.93  19 2.93  26 2.93
  11  0.444  0.111  0.346-  21 2.90  20 2.90  14 2.93  17 2.93  18 2.93   3 2.93  12 2.93  13 2.93
                            10 2.93   5 2.93   2 2.93  27 2.93
  12  0.778  0.111  0.346-  21 2.89  10 2.93  16 2.93  18 2.93  15 2.93  11 2.93   1 2.93  14 2.93
                             6 2.93   3 2.93  25 2.93  19 2.93
  13  0.111  0.444  0.346-  20 2.90  23 2.90  15 2.93  14 2.93  18 2.93  10 2.93  11 2.93  16 2.93
                             4 2.93   5 2.93   7 2.93  22 2.93
  14  0.444  0.444  0.346-  23 2.90  21 2.90  13 2.93  11 2.93  16 2.93   5 2.93  12 2.93  17 2.93
                             8 2.93  15 2.93   6 2.93  24 2.93
  15  0.778  0.444  0.346-  24 2.93  22 2.93  13 2.93  10 2.93  12 2.93  17 2.93  18 2.93   4 2.93
                             6 2.93   9 2.93  14 2.93  19 2.93
  16  0.111  0.778  0.346-  23 2.89  18 2.93  12 2.93  10 2.93  14 2.93  17 2.93  13 2.93   7 2.93
                             8 2.93   1 2.93  26 2.93  25 2.93
  17  0.444  0.778  0.346-  27 2.93  24 2.93  11 2.93  10 2.93   9 2.93  18 2.93  15 2.93  16 2.93
                             2 2.93  14 2.93   8 2.93  26 2.93
  18  0.778  0.778  0.346-  22 2.93  27 2.93  16 2.93  12 2.93  13 2.93  11 2.93  17 2.93  15 2.93
                             7 2.93   3 2.93   9 2.93  25 2.93
  19  0.889  0.223  0.454-  28 2.92  20 2.93  21 2.93  24 2.93  22 2.93  15 2.93  10 2.93  12 2.93
                            26 2.94  25 2.94  32 2.98  31 2.98
  20  0.222  0.222  0.452-  36 2.76  10 2.89  13 2.90  11 2.90  19 2.93  26 2.93  27 2.94  22 2.94
                            21 2.94  23 2.94  31 2.96  29 2.96
  21  0.556  0.222  0.452-  36 2.76  12 2.89  11 2.90  14 2.90  25 2.93  19 2.93  27 2.94  24 2.94
                            20 2.94  23 2.94  30 2.96  32 2.96
  22  0.888  0.556  0.454-  35 2.92  24 2.92  27 2.92  18 2.93  15 2.93  25 2.93  19 2.93  13 2.93
                            23 2.94  20 2.94  33 2.96  31 2.96
  23  0.222  0.556  0.452-  36 2.76  16 2.89  14 2.90  13 2.90  26 2.93  25 2.93  22 2.94  24 2.94
                            21 2.94  20 2.94  34 2.96  33 2.96
  24  0.556  0.556  0.454-  35 2.92  27 2.92  22 2.92  15 2.93  17 2.93  19 2.93  26 2.93  14 2.93
                            23 2.94  21 2.94  32 2.96  34 2.96
  25  0.889  0.889  0.454-  28 2.92  23 2.93  21 2.93  22 2.93  27 2.93  18 2.93  16 2.93  12 2.93
                            26 2.94  19 2.94  33 2.98  30 2.98
  26  0.223  0.889  0.454-  28 2.92  23 2.93  20 2.93  27 2.93  24 2.93  17 2.93  16 2.93  10 2.93
                            25 2.94  19 2.94  34 2.98  29 2.98
  27  0.556  0.888  0.454-  35 2.92  24 2.92  22 2.92  17 2.93  18 2.93  26 2.93  25 2.93  11 2.93
                            20 2.94  21 2.94  29 2.96  30 2.96
  28  0.000  0.000  0.562-  26 2.92  25 2.92  19 2.92  29 2.96  34 2.96  33 2.96  32 2.96  31 2.96
                            30 2.96
  29  0.333  0.007  0.563-  31 2.86  30 2.87  36 2.88  20 2.96  27 2.96  28 2.96  35 2.96  26 2.98
                            34 3.06
  30  0.659  0.007  0.563-  32 2.86  29 2.87  36 2.88  21 2.96  27 2.96  28 2.96  35 2.96  25 2.98
                            33 3.06
  31  0.007  0.333  0.563-  29 2.86  33 2.87  36 2.88  20 2.96  22 2.96  28 2.96  35 2.96  19 2.98
                            32 3.06
  32  0.659  0.333  0.563-  30 2.86  34 2.87  36 2.88  21 2.96  24 2.96  28 2.96  35 2.96  19 2.98
                            31 3.06
  33  0.007  0.659  0.563-  34 2.86  31 2.87  36 2.88  23 2.96  22 2.96  28 2.96  35 2.96  25 2.98
                            30 3.06
  34  0.333  0.659  0.563-  33 2.86  32 2.87  36 2.88  23 2.96  24 2.96  28 2.96  35 2.96  26 2.98
                            29 3.06
  35  0.667  0.667  0.561-  24 2.92  27 2.92  22 2.92  30 2.96  32 2.96  29 2.96  34 2.96  31 2.96
                            33 2.96
  36  0.333  0.333  0.550-  37 1.96  21 2.76  20 2.76  23 2.76  31 2.88  30 2.88  33 2.88  29 2.88
                            34 2.88  32 2.88
  37  0.333  0.333  0.639-  38 1.18  36 1.96
  38  0.333  0.333  0.692-  37 1.18

  LATTYP: Found a hexagonal cell.
 ALAT       =     8.7913665772
 C/A-ratio  =     2.5227160501

  Lattice vectors:

 A1 = (  -4.3956832886,  -7.6135467898,   0.0000000000)
 A2 = (   8.7913665771,   0.0000000000,   0.0000000000)
 A3 = (   0.0000000000,   0.0000000000,  22.1781215668)

Analysis of symmetry for initial positions (statically):
 Subroutine PRICEL returns:
 Original cell was already a primitive cell.

 Routine SETGRP: Setting up the symmetry group for a
 hexagonal supercell.

 Subroutine GETGRP returns: Found  6 space group operations
 (whereof  6 operations were pure point group operations)
 out of a pool of 24 trial point group operations.

The static configuration has the point symmetry C_3v.

Analysis of symmetry for dynamics (positions and initial velocities):
 Subroutine PRICEL returns:
 Original cell was already a primitive cell.

[...]

The dynamic configuration has the point symmetry C_3v.

Analysis of constrained symmetry for selective dynamics:
 Subroutine PRICEL returns:
 Original cell was already a primitive cell.

 Routine SETGRP: Setting up the symmetry group for a
 hexagonal supercell.

 Subroutine GETGRP returns: Found  6 space group operations
 (whereof  6 operations were pure point group operations)
[...]
     33      -4.6463      2.00000
     34      -4.6218      2.00000
     35      -4.6117      2.00000
     36      -4.5763      2.00000
     37      -4.5647      2.00000
     38      -4.5503      2.00000
     39      -4.5059      2.00000
     40      -4.4948      2.00000
     41      -4.4909      2.00000
     42      -4.4364      2.00000
     43      -4.4282      2.00000
     44      -4.4023      2.00000
     45      -4.3950      2.00000
     46      -4.3866      2.00000
     47      -4.3768      2.00000
     48      -4.2881      2.00000
     49      -4.2680      2.00000
     50      -4.2597      2.00000
     51      -4.2494      2.00000
     52      -4.2446      2.00000
     53      -4.2405      2.00000
     54      -4.2320      2.00000
     55      -4.2252      2.00000
     56      -4.2207      2.00000
     57      -4.2080      2.00000
     58      -4.1400      2.00000
     59      -4.1375      2.00000
     60      -4.1283      2.00000
[...]
    238       6.1081      0.00000
    239       6.1331      0.00000
    240       6.1710      0.00000
    241       6.3006      0.00000
    242       6.3745      0.00000
    243       6.4306      0.00000
    244       7.1603      0.00000
    245       7.2403      0.00000
    246       7.2511      0.00000
    247       7.4112      0.00000
    248       7.4302      0.00000
    249       7.4388      0.00000
    250       7.4538      0.00000
    251       7.5758      0.00000
    252       7.6562      0.00000

 soft charge-density along one line, spin component           1
         0         1         2         3         4         5         6         7         8         9
 total charge-density along one line

------------------------ aborting loop because EDIFF is reached ----------------------------------------

 total charge

# of ion       s       p       d       tot
    1        0.419   0.201   9.179   9.800
    2        0.415   0.203   9.178   9.796
    3        0.415   0.203   9.178   9.796
    4        0.415   0.203   9.178   9.796
    5        0.421   0.200   9.174   9.796
    6        0.415   0.203   9.178   9.796
    7        0.415   0.203   9.178   9.796
    8        0.415   0.203   9.178   9.796
    9        0.417   0.200   9.180   9.797
   10        0.409   0.270   9.161   9.840
   11        0.409   0.266   9.168   9.844
   12        0.409   0.270   9.161   9.840
   13        0.409   0.266   9.168   9.844
   14        0.409   0.266   9.168   9.844
   15        0.404   0.268   9.164   9.836
   16        0.409   0.270   9.161   9.840
   17        0.404   0.268   9.164   9.836
   18        0.404   0.268   9.164   9.836
   19        0.399   0.263   9.167   9.829
   20        0.444   0.306   9.135   9.885
   21        0.444   0.306   9.135   9.885
   22        0.391   0.271   9.168   9.831
   23        0.444   0.306   9.135   9.885
   24        0.391   0.271   9.168   9.831
   25        0.399   0.263   9.167   9.829
   26        0.399   0.263   9.167   9.829
   27        0.391   0.271   9.168   9.831
   28        0.408   0.197   9.178   9.784
   29        0.432   0.219   9.157   9.808
   30        0.432   0.219   9.157   9.808
   31        0.432   0.219   9.157   9.808
   32        0.432   0.219   9.157   9.808
   33        0.432   0.219   9.157   9.808
   34        0.432   0.219   9.157   9.808
   35        0.405   0.197   9.180   9.782
   36        0.607   0.502   4.068   5.176
   37        0.954   1.554   0.000   2.508
   38        1.607   3.529   0.000   5.137
tot         17.691  14.049 324.859 356.599

  FORCE on cell =-STRESS in cart. coord.  units (eV):
  Direction    XX          YY          ZZ          XY          YZ          ZX
  Alpha Z   775.69856   775.69856   775.69856
  Ewald  117033.11206117033.11205************     0.00003    -0.00001     0.00004
  Hartree127322.22820127322.22819************     0.00001     0.00000     0.00001
  E(xc)   -2099.15777 -2099.15784 -2105.62817     0.00006    -0.00000    -0.00000
  Local  ************************255159.55470     0.00052    -0.00005    -0.00017
  n-local  -360.50614  -341.94655  -360.51089    10.70393    -0.53998     0.59878
  augment  3229.36737  3229.36755  3243.67897    -0.00012    -0.00000     0.00002
  Kinetic  5032.30675  5037.52730  5046.47257     4.74307     0.66100     0.20615
  Fock        0.00000     0.00000     0.00000     0.00000     0.00000     0.00000
  Total      -9.52545    -9.52545     0.71107    -0.00000     0.00000     0.00000
  in kB     -10.28082   -10.28082     0.76746    -0.00000     0.00000     0.00000

 VOLUME and BASIS-vectors are now :
  energy-cutoff  :      500.00
  volume of cell :     1484.46
      direct lattice vectors                 reciprocal lattice vectors
     8.791366577  0.000000000  0.000000000     0.113747958 -0.065672414  0.000000000
     4.395683289  7.613546790  0.000000000     0.000000000  0.131344829  0.000000000
     0.000000000  0.000000000 22.178121567     0.000000000  0.000000000  0.045089481

  length of vectors
     8.791366577  8.791366577 22.178121567     0.131344829  0.131344829  0.045089481

 FORCES acting on ions
    electron-ion (+dipol)            ewald-force                    non-local-force                 convergence-correction
   0.459E-04 -.282E-04 0.250E+04   -.953E-04 0.593E-04 -.249E+04   0.537E-17 -.206E-17 -.210E+01   -.203E-03 -.221E-03 0.138E+00
   -.160E+00 0.260E+00 0.250E+04   -.255E+00 -.382E+00 -.249E+04   0.174E+00 0.142E+00 -.152E+01   0.232E+00 -.110E-01 0.196E+00
   0.160E+00 0.260E+00 0.250E+04   0.255E+00 -.382E+00 -.249E+04   -.174E+00 0.142E+00 -.152E+01   -.232E+00 -.911E-02 0.197E+00
   0.145E+00 -.268E+00 0.250E+04   -.458E+00 -.293E-01 -.249E+04   0.210E+00 0.794E-01 -.152E+01   0.107E+00 0.206E+00 0.196E+00
   -.605E-05 -.191E-04 0.250E+04   0.980E-04 -.197E-05 -.250E+04   0.303E-18 -.520E-18 -.105E+01   0.626E-02 0.383E-02 0.317E+00
   -.145E+00 -.268E+00 0.250E+04   0.458E+00 -.294E-01 -.249E+04   -.210E+00 0.794E-01 -.152E+01   -.108E+00 0.207E+00 0.197E+00
   0.305E+00 0.840E-02 0.250E+04   -.204E+00 0.412E+00 -.249E+04   0.363E-01 -.222E+00 -.152E+01   -.124E+00 -.196E+00 0.197E+00
   -.305E+00 0.845E-02 0.250E+04   0.204E+00 0.411E+00 -.249E+04   -.363E-01 -.222E+00 -.152E+01   0.125E+00 -.197E+00 0.197E+00
   0.367E-04 -.129E-04 0.250E+04   0.792E-04 -.643E-04 -.249E+04   0.120E-17 0.133E-17 -.189E+01   -.658E-02 -.339E-02 0.152E+00
   0.422E+01 0.243E+01 0.848E+03   -.402E+01 -.232E+01 -.847E+03   -.428E+00 -.247E+00 -.817E+00   0.199E+00 0.115E+00 0.198E+00
   -.284E-04 0.341E+01 0.850E+03   0.404E-04 -.363E+01 -.850E+03   0.126E-11 0.191E+00 -.178E+00   0.688E-02 -.108E-01 0.220E+00
   -.422E+01 0.243E+01 0.848E+03   0.402E+01 -.232E+01 -.847E+03   0.428E+00 -.247E+00 -.817E+00   -.201E+00 0.116E+00 0.199E+00
   0.296E+01 -.171E+01 0.850E+03   -.314E+01 0.181E+01 -.850E+03   0.166E+00 -.957E-01 -.178E+00   -.603E-02 0.114E-01 0.220E+00
   -.296E+01 -.171E+01 0.850E+03   0.314E+01 0.181E+01 -.850E+03   -.166E+00 -.957E-01 -.178E+00   0.166E-01 0.980E-02 0.219E+00
   0.156E-04 0.516E+00 0.847E+03   -.108E-03 -.757E+00 -.847E+03   0.950E-12 0.145E+00 -.766E+00   -.173E-02 0.736E-01 0.156E+00
   -.796E-05 -.487E+01 0.848E+03   0.205E-04 0.464E+01 -.847E+03   0.324E-11 0.494E+00 -.817E+00   -.372E-03 -.232E+00 0.199E+00
   0.447E+00 -.258E+00 0.847E+03   -.656E+00 0.379E+00 -.847E+03   0.125E+00 -.723E-01 -.766E+00   0.628E-01 -.383E-01 0.156E+00
   -.447E+00 -.258E+00 0.847E+03   0.656E+00 0.379E+00 -.847E+03   -.125E+00 -.723E-01 -.766E+00   -.622E-01 -.360E-01 0.158E+00
   0.378E-04 -.252E+01 -.824E+03   -.127E-03 0.217E+01 0.823E+03   0.119E-11 0.181E+00 0.879E+00   -.652E-02 0.150E+00 0.164E+00
   -.784E+01 -.453E+01 -.806E+03   0.904E+01 0.522E+01 0.807E+03   -.146E+01 -.845E+00 -.134E+01   0.113E+00 0.655E-01 0.258E+00
   0.784E+01 -.453E+01 -.806E+03   -.904E+01 0.522E+01 0.807E+03   0.146E+01 -.845E+00 -.134E+01   -.112E+00 0.636E-01 0.258E+00
   -.614E+01 0.354E+01 -.816E+03   0.547E+01 -.316E+01 0.815E+03   0.459E+00 -.265E+00 0.416E+00   0.229E+00 -.123E+00 0.270E-01
   -.519E-04 0.905E+01 -.806E+03   0.397E-04 -.104E+02 0.807E+03   0.111E-10 0.169E+01 -.134E+01   -.631E-03 -.128E+00 0.258E+00
   0.614E+01 0.354E+01 -.816E+03   -.547E+01 -.316E+01 0.815E+03   -.459E+00 -.265E+00 0.416E+00   -.218E+00 -.126E+00 0.266E-01
   0.218E+01 0.126E+01 -.824E+03   -.188E+01 -.109E+01 0.823E+03   -.157E+00 -.906E-01 0.879E+00   -.139E+00 -.804E-01 0.164E+00
   -.218E+01 0.126E+01 -.824E+03   0.188E+01 -.109E+01 0.823E+03   0.157E+00 -.906E-01 0.879E+00   0.127E+00 -.809E-01 0.164E+00
   0.204E-04 -.709E+01 -.816E+03   0.109E-03 0.631E+01 0.815E+03   0.348E-11 0.530E+00 0.416E+00   0.733E-02 0.260E+00 0.264E-01
   0.536E-04 -.356E-04 -.242E+04   -.114E-03 0.771E-04 0.242E+04   -.222E-17 -.668E-17 0.198E+01   -.499E-03 0.335E-03 0.172E-01
   0.128E+02 0.212E+02 -.241E+04   -.119E+02 -.197E+02 0.241E+04   -.109E+01 -.178E+01 0.147E+01   0.234E+00 0.317E+00 0.618E-01
   -.128E+02 0.212E+02 -.241E+04   0.119E+02 -.197E+02 0.241E+04   0.109E+01 -.178E+01 0.147E+01   -.233E+00 0.318E+00 0.604E-01
   0.247E+02 0.467E+00 -.241E+04   -.231E+02 -.455E+00 0.241E+04   -.209E+01 -.562E-01 0.147E+01   0.392E+00 0.449E-01 0.618E-01
   -.247E+02 0.467E+00 -.241E+04   0.231E+02 -.455E+00 0.241E+04   0.209E+01 -.562E-01 0.147E+01   -.403E+00 0.442E-01 0.615E-01
   0.119E+02 -.216E+02 -.241E+04   -.111E+02 0.202E+02 0.241E+04   -.997E+00 0.184E+01 0.147E+01   0.154E+00 -.370E+00 0.604E-01
   -.119E+02 -.216E+02 -.241E+04   0.111E+02 0.202E+02 0.241E+04   0.997E+00 0.184E+01 0.147E+01   -.163E+00 -.372E+00 0.614E-01
   0.227E-04 -.125E-04 -.242E+04   0.105E-03 -.655E-04 0.242E+04   -.286E-17 -.278E-17 0.214E+01   -.482E-02 -.312E-02 0.135E+00
   -.118E-04 -.436E-05 -.115E+04   0.578E-04 0.738E-05 0.115E+04   -.221E-17 -.117E-17 -.256E+01   0.130E-02 0.114E-02 0.156E+00
   0.178E-05 -.789E-04 -.806E+03   0.168E-04 0.194E-06 0.791E+03   0.378E-18 -.159E-18 0.155E+02   0.131E-02 0.928E-03 -.168E+00
   0.234E-03 -.936E-04 -.147E+04   0.869E-05 0.702E-08 0.153E+04   0.807E-21 -.257E-18 -.573E+02   0.378E-02 0.238E-02 -.199E+00
   0.582E-03 -.858E-03 0.459E+02   -.292E-13 0.147E-12 0.909E-11   0.550E-15 0.440E-15 -.510E+02   -.637E-02 -.575E-02 0.517E+01

 POSITION                                       TOTAL-FORCE (eV/Angst)
      0.00000      0.00000      5.28219        -0.000000     -0.000000     -0.062938
      2.93046      0.00000      5.28219        -0.008223      0.009929      0.018452
      5.86091      0.00000      5.28219         0.008223      0.009929      0.018452
      1.46523      2.53785      5.28219         0.004487     -0.012086      0.018452
      4.39568      2.53785      5.28219        -0.000000     -0.000000     -0.036338
      7.32614      2.53785      5.28219        -0.004487     -0.012086      0.018452
      2.93046      5.07570      5.28219         0.012711      0.002157      0.018452
      5.86091      5.07570      5.28219        -0.012711      0.002157      0.018452
      8.79137      5.07570      5.28219        -0.000000     -0.000000     -0.003492
      1.46523      0.84595      7.67490        -0.026396     -0.015240     -0.022163
      4.39568      0.84595      7.67490        -0.000000     -0.038763     -0.060407
      7.32614      0.84595      7.67490         0.026396     -0.015240     -0.022163
      2.93046      3.38380      7.67490        -0.033570      0.019381     -0.060407
      5.86091      3.38380      7.67490         0.033570      0.019381     -0.060407
      8.79137      3.38380      7.67490        -0.000000     -0.024032      0.015014
      4.39568      5.92165      7.67490         0.000000      0.030479     -0.022163
      7.32614      5.92165      7.67490        -0.020812      0.012016      0.015014
     10.25659      5.92165      7.67490         0.020812      0.012016      0.015014
      8.79137      1.69504     10.07204        -0.000000     -0.007796      0.038369
      2.92602      1.68934     10.02478        -0.147676     -0.085261     -0.169385
      5.86534      1.68934     10.02478         0.147676     -0.085261     -0.169385
     10.25093      4.23302     10.06482         0.012287     -0.007094      0.017184
      4.39568      4.23487     10.02478         0.000000      0.170521     -0.169385
      7.33181      4.23302     10.06482        -0.012287     -0.007094      0.017184
     11.71910      6.76603     10.07204         0.006752      0.003898      0.038369
      5.86363      6.76603     10.07204        -0.006752      0.003898      0.038369
      8.79137      6.76105     10.06482         0.000000      0.014188      0.017184
      0.00000      0.00000     12.45341        -0.000000     -0.000000     -0.039300
      2.96185      0.05622     12.48740        -0.026268     -0.047855     -0.024228
      5.82952      0.05622     12.48740         0.026268     -0.047855     -0.024228
      1.52961      2.53693     12.48740        -0.054578      0.001179     -0.024228
      7.26176      2.53693     12.48740         0.054578      0.001179     -0.024228
      2.96344      5.02040     12.48740        -0.028310      0.046676     -0.024228
      5.82792      5.02040     12.48740         0.028310      0.046676     -0.024228
      8.79137      5.07570     12.44798        -0.000000     -0.000000     -0.033031
      4.39568      2.53785     12.20252        -0.000000     -0.000000      0.712925
      4.39568      2.53785     14.16715        -0.000000     -0.000000      0.055502
      4.39568      2.53785     15.34727        -0.000000     -0.000000     -0.014510
    total drift:                               -0.005791     -0.006608      0.152500

  FREE ENERGIE OF THE ION-ELECTRON SYSTEM (eV)
  free  energy   TOTEN  =      -115.09370272 eV

  energy  without entropy=     -115.09370272  energy(sigma->0) =     -115.09370272

 stress matrix after NEB project (eV)
     -9.52545     -0.00000      0.00000
     -0.00000     -9.52545     -0.00000
      0.00000      0.00000      0.71107
  FORCES: max atom, RMS     0.055502    0.009306
  FORCE total and by dimension    0.057367    0.055502
  Stress total and by dimension   13.489770    9.525447
|           W    W    AA    RRRRR   N    N  II  N    N   GGGG   !!!           |
|           W    W   A  A   R    R  NN   N  II  NN   N  G    G  !!!           |
|           W    W  A    A  R    R  N N  N  II  N N  N  G       !!!           |
|           W WW W  AAAAAA  RRRRR   N  N N  II  N  N N  G  GGG   !            |
|           WW  WW  A    A  R   R   N   NN  II  N   NN  G    G                |
|           W    W  A    A  R    R  N    N  II  N    N   GGGG   !!!           |
|     Tetrahedron method does not include variations of the Fermi             |
|     occupations, so forces and stress will be inaccurate. We suggest        |
|     using a different smearing scheme ISMEAR = 1 or 2 for metals in         |
|     relaxations.                                                            |

 total charge

# of ion       s       p       d       tot
    1        0.419   0.201   9.179   9.800
    2        0.415   0.203   9.178   9.796
    3        0.415   0.203   9.178   9.796
    4        0.415   0.203   9.178   9.796
    5        0.421   0.200   9.174   9.796
    6        0.415   0.203   9.178   9.796
    7        0.415   0.203   9.178   9.796
    8        0.415   0.203   9.178   9.796
    9        0.417   0.200   9.180   9.797
   10        0.409   0.270   9.161   9.840
   11        0.409   0.266   9.168   9.844
   12        0.409   0.270   9.161   9.840
   13        0.409   0.266   9.168   9.844
   14        0.409   0.266   9.168   9.844
   15        0.404   0.268   9.164   9.836
   16        0.409   0.270   9.161   9.840
   17        0.404   0.268   9.164   9.836
   18        0.404   0.268   9.164   9.836
   19        0.399   0.263   9.167   9.829
   20        0.444   0.306   9.135   9.885
   21        0.444   0.306   9.135   9.885
   22        0.391   0.271   9.168   9.831
   23        0.444   0.306   9.135   9.885
   24        0.391   0.271   9.168   9.831
   25        0.399   0.263   9.167   9.829
   26        0.399   0.263   9.167   9.829
   27        0.391   0.271   9.168   9.831
   28        0.408   0.197   9.178   9.784
   29        0.432   0.219   9.157   9.808
   30        0.432   0.219   9.157   9.808
   31        0.432   0.219   9.157   9.808
   32        0.432   0.219   9.157   9.808
   33        0.432   0.219   9.157   9.808
   34        0.432   0.219   9.157   9.808
   35        0.405   0.197   9.180   9.782
   36        0.607   0.502   4.068   5.176
   37        0.954   1.554   0.000   2.508
   38        1.607   3.529   0.000   5.137
tot         17.691  14.049 324.859 356.599

 BZINTS: Fermi energy:    0.743965;  401.000000 electrons
         Band energy:-0.138845E+04;  BLOECHL correction:   -0.022106