 vasp.6.2.0 18Jan21 (build Jun 12 2021 23:27:24) complex

 executed on             LinuxIFC date 2022.05.27  05:16:37

 INCAR:
   ISMEAR = -5
   SIGMA = 0.1
   ISPIN = 1
   EDIFF = 1.d-5
   EDIFFG = -0.01
   NSW = 0
   NELM = 150
   ENCUT = 500
   ISIF = 2
   IBRION = 2
   LREAL = Auto
   ALGO = Fast
   ICHARG = 11
   LORBIT = 10
   LCHARG = .F.
   LWAVE = .F.

 POTCAR:    PAW_PBE Au 04Oct2007
 POTCAR:    PAW_PBE Hf 20Jan2003
 POTCAR:    PAW_PBE O 08Apr2002
 POTCAR:    PAW_PBE H 15Jun2001
|           W    W    AA    RRRRR   N    N  II  N    N   GGGG   !!!           |
|           W    W   A  A   R    R  NN   N  II  NN   N  G    G  !!!           |
|           W    W  A    A  R    R  N N  N  II  N N  N  G       !!!           |
|           W WW W  AAAAAA  RRRRR   N  N N  II  N  N N  G  GGG   !            |
|           WW  WW  A    A  R   R   N   NN  II  N   NN  G    G                |
|           W    W  A    A  R    R  N    N  II  N    N   GGGG   !!!           |
|     For optimal performance we recommend to set                             |
|       NCORE = 2 up to number-of-cores-per-socket                            |
|     This setting can greatly improve the performance of VASP for DFT.       |
|     The default, NCORE=1 might be grossly inefficient on modern             |
|     multi-core architectures or massively parallel machines. Do your        |
|     Unfortunately you need to use the default for GW and RPA                |
|     calculations (for HF NCORE is supported but not extensively tested      |
|     yet).                                                                   |

 POTCAR:    PAW_PBE Au 04Oct2007
   VRHFIN =Au: s1d10

   TITEL  = PAW_PBE Au 04Oct2007
   POMASS =  196.966; ZVAL   =   11.000    mass and valenz
   ENMAX  =  229.943; ENMIN  =  172.457 eV

 POTCAR:    PAW_PBE Hf 20Jan2003
   VRHFIN =Hf: 6s5d

   TITEL  = PAW_PBE Hf 20Jan2003
   POMASS =  178.490; ZVAL   =    4.000    mass and valenz
   ENMAX  =  220.334; ENMIN  =  165.250 eV

 POTCAR:    PAW_PBE O 08Apr2002
   VRHFIN =O: s2p4

   TITEL  = PAW_PBE O 08Apr2002
   POMASS =   16.000; ZVAL   =    6.000    mass and valenz
   ENMAX  =  400.000; ENMIN  =  300.000 eV

 POTCAR:    PAW_PBE H 15Jun2001
   VRHFIN =H: ultrasoft test

   TITEL  = PAW_PBE H 15Jun2001
   POMASS =    1.000; ZVAL   =    1.000    mass and valenz
   ENMAX  =  250.000; ENMIN  =  200.000 eV

 Optimization of the real space projectors (new method)

 maximal supplied QI-value         = 15.12
 optimisation between [QCUT,QGAM] = [ 11.34, 22.83] = [ 36.00,145.93] Ry
 Optimized for a Real-space Cutoff    1.39 Angstroem

   l    n(q)    QCUT    max X(q) W(low)/X(q) W(high)/X(q)  e(spline)
   2      9    11.338    60.898    0.39E-03    0.42E-03    0.21E-06
   2      9    11.338    58.894    0.40E-03    0.42E-03    0.22E-06
   0      9    11.338   109.617    0.13E-03    0.20E-04    0.13E-06
   0      9    11.338    75.026    0.13E-03    0.20E-04    0.13E-06
   1      9    11.338    16.344    0.33E-04    0.24E-03    0.18E-06
   1      9    11.338    10.160    0.26E-04    0.19E-03    0.15E-06
 Optimization of the real space projectors (new method)

[...]

   l    n(q)    QCUT    max X(q) W(low)/X(q) W(high)/X(q)  e(spline)
   0      7    11.387    20.381    0.39E-03    0.13E-02    0.15E-06
   0      7    11.387    15.268    0.42E-03    0.14E-02    0.17E-06
   1      6    11.387     5.964    0.41E-03    0.11E-02    0.17E-06
   1      6    11.387     5.382    0.39E-03    0.87E-03    0.15E-06
 Optimization of the real space projectors (new method)

 maximal supplied QI-value         = 34.20
 optimisation between [QCUT,QGAM] = [ 11.29, 22.57] = [ 35.68,142.71] Ry
 Optimized for a Real-space Cutoff    1.16 Angstroem

   l    n(q)    QCUT    max X(q) W(low)/X(q) W(high)/X(q)  e(spline)
   0      8    11.287    19.460    0.40E-03    0.73E-03    0.16E-06
   0      8    11.287    12.209    0.38E-03    0.70E-03    0.15E-06
   1      7    11.287     4.655    0.22E-03    0.25E-04    0.22E-06
  PAW_PBE Au 04Oct2007                  :
  PAW_PBE Hf 20Jan2003                  :
  PAW_PBE O 08Apr2002                   :
  PAW_PBE H 15Jun2001                   :

 POSCAR: Au-Hf-OH
  positions in direct lattice
  velocities in cartesian coordinates
 exchange correlation table for  LEXCH =        8
   RHO(1)=    0.500       N(1)  =     2000
   RHO(2)=  100.500       N(2)  =     4000

 VTST: version 3.2, (02/03/18)

 CHAIN: initializing optimizer

 OPT: Using VASP Conjugate-Gradient optimizer
 CHAIN: Read ICHAIN            0

 POSCAR: Au-Hf-OH
  positions in direct lattice
  velocities in cartesian coordinates

 ion  position               nearest neighbor table
   1  0.000  0.000  0.238-  16 2.94  12 2.94   6 2.94   8 2.94   7 2.94   3 2.94  10 2.94   4 2.94
                             2 2.94
   2  0.333  0.000  0.238-   9 2.94  11 2.94  17 2.94  10 2.94   8 2.94   4 2.94   5 2.94   1 2.94
                             3 2.94
   3  0.667  0.000  0.238-   7 2.94  18 2.94  12 2.94   1 2.94  11 2.94   5 2.94   6 2.94   9 2.94
                             2 2.94
   4  0.000  0.333  0.238-  10 2.94   6 2.94   5 2.94  13 2.94   2 2.94  15 2.94   9 2.94   1 2.94
                             7 2.94
   5  0.333  0.333  0.238-  13 2.94   7 2.94  11 2.94   4 2.94   2 2.94  14 2.94   3 2.94   8 2.94
                             6 2.94
   6  0.667  0.333  0.238-  15 2.94  14 2.94   1 2.94  12 2.94   4 2.94   9 2.94   8 2.94   3 2.94
                             5 2.94
   7  0.000  0.667  0.238-  18 2.94   3 2.94  16 2.94   5 2.94   1 2.94  13 2.94   8 2.94   4 2.94
                             9 2.94
   8  0.333  0.667  0.238-   9 2.94  17 2.94   1 2.94   2 2.94  14 2.94  16 2.94   6 2.94   7 2.94
                             5 2.94
   9  0.667  0.667  0.238-   2 2.94   8 2.94  17 2.94   6 2.94  15 2.94   4 2.94   3 2.94  18 2.94
                             7 2.94
  10  0.111  0.111  0.346-  20 2.93  26 2.94  19 2.94  11 2.94  17 2.94   2 2.94   4 2.94   1 2.94
                            12 2.94  16 2.94  13 2.94  15 2.94
  11  0.444  0.111  0.346-  20 2.92  21 2.92  13 2.94   2 2.94  10 2.94  17 2.94   5 2.94   3 2.94
                            18 2.94  14 2.94  12 2.94  27 2.94
  12  0.778  0.111  0.346-  21 2.93  25 2.94  19 2.94  16 2.94  18 2.94   1 2.94  14 2.94  15 2.94
                             3 2.94   6 2.94  10 2.94  11 2.94
  13  0.111  0.444  0.346-  23 2.92  20 2.92   5 2.94  18 2.94  11 2.94   7 2.94   4 2.94  16 2.94
                            10 2.94  14 2.94  15 2.94  22 2.94
  14  0.444  0.444  0.346-  21 2.92  23 2.92  15 2.94   6 2.94  12 2.94   8 2.94  17 2.94   5 2.94
                            16 2.94  13 2.94  11 2.94  24 2.94
  15  0.778  0.444  0.346-  24 2.93  22 2.93  19 2.94  14 2.94   6 2.94  17 2.94  12 2.94   9 2.94
                             4 2.94  10 2.94  13 2.94  18 2.94
  16  0.111  0.778  0.346-  23 2.93  25 2.94  26 2.94  18 2.94  12 2.94   7 2.94   1 2.94   8 2.94
                            13 2.94  10 2.94  14 2.94  17 2.94
  17  0.444  0.778  0.346-  27 2.93  24 2.93  26 2.94   9 2.94  15 2.94   2 2.94  10 2.94  11 2.94
                             8 2.94  14 2.94  16 2.94  18 2.94
  18  0.778  0.778  0.346-  22 2.93  27 2.93  25 2.94  16 2.94   7 2.94  13 2.94  12 2.94   3 2.94
                            11 2.94   9 2.94  15 2.94  17 2.94
  19  0.889  0.222  0.454-  15 2.94  10 2.94  12 2.94  24 2.94  22 2.94  26 2.94  25 2.94  21 2.94
                            20 2.94  28 2.96  32 3.04  31 3.04
  20  0.223  0.223  0.453-  36 2.81  11 2.92  13 2.92  23 2.93  21 2.93  10 2.93  26 2.94  19 2.94
                            27 2.95  22 2.95  29 2.99  31 2.99
  21  0.555  0.223  0.453-  36 2.81  14 2.92  11 2.92  20 2.93  23 2.93  12 2.93  25 2.94  19 2.94
                            27 2.95  24 2.95  30 2.99  32 2.99
  22  0.887  0.556  0.454-  24 2.92  27 2.92  18 2.93  15 2.93  25 2.94  19 2.94  13 2.94  23 2.95
                            20 2.95  35 2.96  33 3.01  31 3.01
  23  0.223  0.555  0.453-  36 2.81  13 2.92  14 2.92  20 2.93  21 2.93  16 2.93  25 2.94  26 2.94
                            22 2.95  24 2.95  33 2.99  34 2.99
  24  0.556  0.556  0.454-  27 2.92  22 2.92  15 2.93  17 2.93  26 2.94  19 2.94  14 2.94  21 2.95
                            23 2.95  35 2.96  32 3.01  34 3.01
  25  0.889  0.889  0.454-  18 2.94  16 2.94  12 2.94  22 2.94  27 2.94  19 2.94  26 2.94  23 2.94
                            21 2.94  28 2.96  33 3.04  30 3.04
  26  0.222  0.889  0.454-  17 2.94  10 2.94  16 2.94  27 2.94  24 2.94  19 2.94  25 2.94  20 2.94
                            23 2.94  28 2.96  29 3.04  34 3.04
  27  0.556  0.887  0.454-  24 2.92  22 2.92  17 2.93  18 2.93  26 2.94  25 2.94  11 2.94  20 2.95
                            21 2.95  35 2.96  29 3.01  30 3.01
  28  0.000  0.000  0.563-  25 2.96  19 2.96  26 2.96  34 2.98  32 2.98  33 2.98  30 2.98  31 2.98
                            29 2.98
  29  0.334  0.008  0.566-  30 2.86  31 2.87  36 2.88  35 2.97  28 2.98  20 2.99  27 3.01  26 3.04
                            34 3.08
  30  0.658  0.008  0.566-  29 2.86  32 2.87  36 2.88  35 2.97  28 2.98  21 2.99  27 3.01  25 3.04
                            33 3.08
  31  0.008  0.334  0.566-  33 2.86  29 2.87  36 2.88  35 2.97  28 2.98  20 2.99  22 3.01  19 3.04
                            32 3.08
  32  0.658  0.334  0.566-  34 2.86  30 2.87  36 2.88  35 2.97  28 2.98  21 2.99  24 3.01  19 3.04
                            31 3.08
  33  0.008  0.658  0.566-  31 2.86  34 2.87  36 2.88  35 2.97  28 2.98  23 2.99  22 3.01  25 3.04
                            30 3.08
  34  0.334  0.658  0.566-  32 2.86  33 2.87  36 2.88  35 2.97  28 2.98  23 2.99  24 3.01  26 3.04
                            29 3.08
  35  0.667  0.667  0.564-  24 2.96  27 2.96  22 2.96  29 2.97  34 2.97  32 2.97  31 2.97  30 2.97
                            33 2.97
  36  0.333  0.333  0.555-  37 1.91  20 2.81  23 2.81  21 2.81  33 2.88  31 2.88  29 2.88  30 2.88
                            34 2.88  32 2.88
  37  0.333  0.333  0.641-  38 0.96  36 1.91
  38  0.333  0.333  0.684-  37 0.96

  LATTYP: Found a hexagonal cell.
 ALAT       =     8.8135128021
 C/A-ratio  =     2.5184286595

  Lattice vectors:

 A1 = (  -4.4067569092,  -7.6327256898,   0.0000000000)
 A2 = (   8.8135128021,   0.0000000000,   0.0000000000)
 A3 = (   0.0000000000,   0.0000000000,  22.1962032318)

Analysis of symmetry for initial positions (statically):
 Subroutine PRICEL returns:
 Original cell was already a primitive cell.

 Routine SETGRP: Setting up the symmetry group for a
 hexagonal supercell.

 Subroutine GETGRP returns: Found  6 space group operations
 (whereof  6 operations were pure point group operations)
 out of a pool of 24 trial point group operations.

The static configuration has the point symmetry C_3v.

Analysis of symmetry for dynamics (positions and initial velocities):
 Subroutine PRICEL returns:
 Original cell was already a primitive cell.

[...]

The dynamic configuration has the point symmetry C_3v.

Analysis of constrained symmetry for selective dynamics:
 Subroutine PRICEL returns:
 Original cell was already a primitive cell.

[...]
     33      -4.5770      2.00000
     34      -4.5137      2.00000
     35      -4.4965      2.00000
     36      -4.4810      2.00000
     37      -4.4686      2.00000
     38      -4.4646      2.00000
     39      -4.3112      2.00000
     40      -4.2836      2.00000
     41      -4.2234      2.00000
     42      -4.1993      2.00000
     43      -4.1675      2.00000
     44      -4.1382      2.00000
     45      -4.1233      2.00000
     46      -4.0770      2.00000
     47      -4.0444      2.00000
     48      -3.9638      2.00000
     49      -3.9613      2.00000
     50      -3.9187      2.00000
     51      -3.8941      2.00000
     52      -3.8874      2.00000
     53      -3.8842      2.00000
     54      -3.8576      2.00000
     55      -3.8395      2.00000
     56      -3.8061      2.00000
     57      -3.7787      2.00000
     58      -3.7551      2.00000
     59      -3.7485      2.00000
     60      -3.7401      2.00000
[...]
    238       6.6173      0.00000
    239       6.6314      0.00000
    240       6.6762      0.00000
    241       6.7909      0.00000
    242       6.9815      0.00000
    243       7.0078      0.00000
    244       7.0974      0.00000
    245       7.1247      0.00000
    246       7.2549      0.00000
    247       7.4553      0.00000
    248       7.4816      0.00000
    249       7.5682      0.00000
    250       7.6010      0.00000
    251       7.6845      0.00000
    252       7.7531      0.00000

 soft charge-density along one line, spin component           1
         0         1         2         3         4         5         6         7         8         9
 total charge-density along one line

------------------------ aborting loop because EDIFF is reached ----------------------------------------

 total charge

# of ion       s       p       d       tot
    1        0.549   0.238   8.765   9.552
    2        0.543   0.241   8.765   9.549
    3        0.543   0.241   8.765   9.549
    4        0.543   0.241   8.765   9.549
    5        0.544   0.242   8.763   9.548
    6        0.543   0.241   8.765   9.549
    7        0.543   0.241   8.765   9.549
    8        0.543   0.241   8.765   9.549
    9        0.541   0.240   8.767   9.548
   10        0.523   0.306   8.772   9.602
   11        0.519   0.308   8.778   9.605
   12        0.523   0.306   8.772   9.602
   13        0.519   0.308   8.778   9.605
   14        0.519   0.308   8.778   9.605
   15        0.515   0.309   8.773   9.597
   16        0.523   0.306   8.772   9.602
   17        0.515   0.309   8.773   9.597
   18        0.515   0.309   8.773   9.597
   19        0.521   0.296   8.772   9.588
   20        0.565   0.336   8.742   9.643
   21        0.565   0.336   8.742   9.643
   22        0.512   0.305   8.773   9.590
   23        0.565   0.336   8.742   9.643
   24        0.512   0.305   8.773   9.590
   25        0.521   0.296   8.772   9.588
   26        0.521   0.296   8.772   9.588
   27        0.512   0.305   8.773   9.590
   28        0.542   0.233   8.754   9.529
   29        0.592   0.243   8.742   9.577
   30        0.592   0.243   8.742   9.577
   31        0.592   0.243   8.742   9.577
   32        0.592   0.243   8.742   9.577
   33        0.592   0.243   8.742   9.577
   34        0.592   0.243   8.742   9.577
   35        0.541   0.235   8.753   9.529
   36        0.558   0.663   2.039   3.260
   37        1.559   3.561   0.000   5.120
   38        0.609   0.126   0.000   0.734
tot         21.717  14.018 308.714 344.448

  FORCE on cell =-STRESS in cart. coord.  units (eV):
  Direction    XX          YY          ZZ          XY          YZ          ZX
  Alpha Z  1011.58561  1011.58561  1011.58561
  Ewald  115595.88222115595.88260************    -0.00033    -0.00009    -0.00014
  Hartree124336.37513124336.37512************     0.00001    -0.00002    -0.00004
  E(xc)   -1777.30640 -1777.30642 -1785.55009     0.00002    -0.00000    -0.00001
  Local  ************************252049.76304     0.00205     0.00002     0.00001
  n-local   -88.62170   -43.84359   -33.93519    22.09607    -1.70090     1.33092
  augment  2370.58106  2370.58263  2388.15230    -0.00136    -0.00002    -0.00000
  Kinetic  5524.31853  5530.35401  5553.40424     3.99348     0.51194    -0.15661
  Fock        0.00000     0.00000     0.00000     0.00000     0.00000     0.00000
  Total     -18.35542   -18.35542     3.42057    -0.00000    -0.00000     0.00000
  in kB     -19.69553   -19.69552     3.67031    -0.00000    -0.00000     0.00000

 VOLUME and BASIS-vectors are now :
  energy-cutoff  :      500.00
  volume of cell :     1493.16
      direct lattice vectors                 reciprocal lattice vectors
     8.813512802  0.000000000  0.000000000     0.113462137 -0.065507406  0.000000000
     4.406756909  7.632725690  0.000000000     0.000000000  0.131014796  0.000000000
     0.000000000  0.000000000 22.196203232     0.000000000  0.000000000  0.045052750

  length of vectors
     8.813512802  8.813512802 22.196203232     0.131014796  0.131014796  0.045052750

 FORCES acting on ions
    electron-ion (+dipol)            ewald-force                    non-local-force                 convergence-correction
   -.193E-04 -.160E-04 0.246E+04   0.518E-04 0.432E-04 -.246E+04   0.283E-17 0.400E-17 -.488E+00   -.282E-03 -.176E-03 -.625E-01
   0.692E-02 -.254E+00 0.246E+04   -.331E-01 0.259E+00 -.246E+04   -.108E-01 0.567E-01 -.293E+00   0.298E-01 -.576E-01 -.125E+00
   -.698E-02 -.254E+00 0.246E+04   0.330E-01 0.259E+00 -.246E+04   0.108E-01 0.567E-01 -.293E+00   -.295E-01 -.556E-01 -.125E+00
   -.216E+00 0.133E+00 0.246E+04   0.207E+00 -.158E+00 -.246E+04   0.437E-01 -.377E-01 -.293E+00   -.349E-01 0.546E-01 -.125E+00
   0.896E-05 -.230E-04 0.246E+04   0.951E-04 0.172E-05 -.246E+04   0.378E-17 -.170E-17 -.205E+00   0.439E-02 0.267E-02 -.143E+00
   0.216E+00 0.133E+00 0.246E+04   -.207E+00 -.158E+00 -.246E+04   -.437E-01 -.377E-01 -.293E+00   0.333E-01 0.555E-01 -.124E+00
   -.223E+00 0.121E+00 0.246E+04   0.240E+00 -.101E+00 -.246E+04   0.545E-01 -.190E-01 -.293E+00   -.628E-01 0.228E-02 -.125E+00
   0.223E+00 0.121E+00 0.246E+04   -.241E+00 -.101E+00 -.246E+04   -.545E-01 -.190E-01 -.293E+00   0.647E-01 0.109E-02 -.124E+00
   0.193E-04 -.417E-04 0.246E+04   0.166E-03 -.200E-04 -.246E+04   0.137E-17 0.366E-18 -.428E+00   -.466E-02 -.241E-02 -.154E+00
   -.142E+00 -.818E-01 0.808E+03   0.470E+00 0.272E+00 -.807E+03   -.259E+00 -.150E+00 -.455E+00   -.876E-01 -.507E-01 -.481E-01
   0.137E-04 -.135E+01 0.806E+03   0.148E-03 0.139E+01 -.806E+03   0.145E-08 0.218E-01 -.227E+00   0.426E-02 -.130E+00 -.102E-01
   0.142E+00 -.818E-01 0.808E+03   -.470E+00 0.271E+00 -.807E+03   0.259E+00 -.150E+00 -.455E+00   0.857E-01 -.487E-01 -.469E-01
   -.117E+01 0.675E+00 0.806E+03   0.120E+01 -.695E+00 -.806E+03   0.189E-01 -.109E-01 -.227E+00   -.110E+00 0.688E-01 -.102E-01
   0.117E+01 0.675E+00 0.806E+03   -.120E+01 -.695E+00 -.806E+03   -.189E-01 -.109E-01 -.227E+00   0.118E+00 0.681E-01 -.926E-02
   0.318E-04 0.242E+01 0.811E+03   0.235E-03 -.246E+01 -.810E+03   -.328E-09 -.493E-02 -.364E+00   -.297E-02 0.269E-01 0.119E-02
   -.206E-04 0.163E+00 0.808E+03   0.162E-03 -.543E+00 -.807E+03   0.199E-07 0.300E+00 -.455E+00   0.386E-03 0.985E-01 -.469E-01
   0.209E+01 -.121E+01 0.811E+03   -.213E+01 0.123E+01 -.810E+03   -.427E-02 0.246E-02 -.364E+00   0.220E-01 -.156E-01 0.121E-02
   -.209E+01 -.121E+01 0.811E+03   0.213E+01 0.123E+01 -.810E+03   0.427E-02 0.246E-02 -.364E+00   -.219E-01 -.129E-01 0.143E-02
   -.428E-04 -.541E+01 -.854E+03   0.557E-04 0.526E+01 0.853E+03   0.313E-08 0.470E-01 0.699E+00   -.610E-02 0.650E-01 0.727E-01
   -.203E+02 -.117E+02 -.870E+03   0.214E+02 0.123E+02 0.870E+03   -.114E+01 -.660E+00 -.924E+00   -.789E-01 -.457E-01 0.787E-01
   0.203E+02 -.117E+02 -.870E+03   -.214E+02 0.123E+02 0.870E+03   0.114E+01 -.660E+00 -.924E+00   0.882E-01 -.441E-01 0.777E-01
   -.154E+02 0.891E+01 -.849E+03   0.153E+02 -.882E+01 0.848E+03   0.337E+00 -.195E+00 0.699E+00   -.130E+00 0.721E-01 0.753E-01
   -.792E-05 0.235E+02 -.870E+03   0.137E-03 -.247E+02 0.870E+03   0.879E-07 0.132E+01 -.924E+00   0.564E-02 0.985E-01 0.777E-01
   0.154E+02 0.891E+01 -.849E+03   -.153E+02 -.882E+01 0.848E+03   -.337E+00 -.195E+00 0.699E+00   0.122E+00 0.705E-01 0.756E-01
   0.469E+01 0.271E+01 -.854E+03   -.455E+01 -.263E+01 0.853E+03   -.407E-01 -.235E-01 0.699E+00   -.586E-01 -.339E-01 0.727E-01
   -.469E+01 0.271E+01 -.854E+03   0.455E+01 -.263E+01 0.853E+03   0.407E-01 -.235E-01 0.699E+00   0.536E-01 -.378E-01 0.727E-01
   0.814E-05 -.178E+02 -.849E+03   0.199E-03 0.176E+02 0.848E+03   0.259E-07 0.389E+00 0.699E+00   -.321E-02 -.149E+00 0.753E-01
   -.112E-04 -.113E-04 -.240E+04   0.277E-04 0.318E-04 0.240E+04   -.635E-18 -.306E-18 0.217E+00   -.147E-02 -.868E-03 0.108E+00
   0.495E+01 0.968E+00 -.240E+04   -.404E+01 0.455E+00 0.240E+04   -.112E+01 -.169E+01 -.309E-02   0.496E-01 -.567E-01 0.122E+00
   -.495E+01 0.968E+00 -.240E+04   0.404E+01 0.455E+00 0.240E+04   0.112E+01 -.169E+01 -.309E-02   -.426E-01 -.549E-01 0.122E+00
   0.332E+01 0.381E+01 -.240E+04   -.162E+01 -.372E+01 0.240E+04   -.202E+01 -.124E+00 -.309E-02   -.242E-01 0.712E-01 0.122E+00
   -.332E+01 0.381E+01 -.240E+04   0.162E+01 -.372E+01 0.240E+04   0.202E+01 -.124E+00 -.309E-02   0.294E-01 0.719E-01 0.120E+00
   -.164E+01 -.478E+01 -.240E+04   0.241E+01 0.327E+01 0.240E+04   -.904E+00 0.181E+01 -.309E-02   -.688E-01 -.945E-02 0.122E+00
   0.164E+01 -.478E+01 -.240E+04   -.241E+01 0.327E+01 0.240E+04   0.904E+00 0.181E+01 -.309E-02   0.770E-01 -.105E-01 0.120E+00
   0.313E-04 -.314E-04 -.241E+04   0.144E-03 -.471E-04 0.241E+04   -.768E-17 0.514E-17 0.267E+00   -.592E-02 -.312E-02 0.713E-01
   -.172E-06 0.926E-05 -.758E+03   0.408E-04 0.362E-05 0.761E+03   0.794E-18 0.287E-18 -.134E+01   0.272E-03 0.163E-03 0.599E-01
   0.198E-03 -.938E-04 -.143E+04   0.201E-04 0.133E-05 0.141E+04   -.364E-18 -.411E-18 0.204E+02   0.330E-02 0.203E-02 0.332E-01
   0.843E-05 -.130E-04 -.301E+03   0.107E-05 0.999E-07 0.309E+03   -.584E-20 -.123E-19 -.855E+01   0.187E-03 0.115E-03 0.208E-03
   -.571E-03 -.858E-03 -.650E+01   -.889E-13 0.374E-13 0.762E-11   -.726E-17 -.439E-15 0.641E+01   0.175E-01 0.108E-01 0.402E+00

 POSITION                                       TOTAL-FORCE (eV/Angst)
      0.00000      0.00000      5.28038         0.000000      0.000000     -0.145195
      2.93784      0.00000      5.28038        -0.006665      0.004982     -0.057179
      5.87568      0.00000      5.28038         0.006665      0.004982     -0.057179
      1.46892      2.54424      5.28038         0.000982     -0.008263     -0.057179
      4.40676      2.54424      5.28038         0.000000      0.000000     -0.058483
      7.34459      2.54424      5.28038        -0.000982     -0.008263     -0.057179
      2.93784      5.08848      5.28038         0.007647      0.003281     -0.057179
      5.87568      5.08848      5.28038        -0.007647      0.003281     -0.057179
      8.81351      5.08848      5.28038         0.000000      0.000000     -0.057719
      1.46892      0.84808      7.67911        -0.016933     -0.009776      0.050520
      4.40676      0.84808      7.67911        -0.000000     -0.071296      0.024063
      7.34459      0.84808      7.67911         0.016933     -0.009776      0.050520
      2.93784      3.39232      7.67911        -0.061744      0.035648      0.024063
      5.87568      3.39232      7.67911         0.061744      0.035648      0.024063
      8.81351      3.39232      7.67911        -0.000000     -0.024489      0.136005
      4.40676      5.93656      7.67911         0.000000      0.019552      0.050520
      7.34459      5.93656      7.67911        -0.021208      0.012245      0.136005
     10.28243      5.93656      7.67911         0.021208      0.012245      0.136005
      8.81351      1.69636     10.07469        -0.000000     -0.045240     -0.013000
      2.94338      1.69936     10.06127        -0.179891     -0.103860     -0.209874
      5.87013      1.69936     10.06127         0.179891     -0.103860     -0.209874
     10.27220      4.24631     10.06987         0.051036     -0.029466      0.034790
      4.40676      4.23400     10.06127         0.000000      0.207720     -0.209874
      7.35483      4.24631     10.06987        -0.051036     -0.029466      0.034790
     11.75117      6.78454     10.07469         0.039179      0.022620     -0.013000
      5.87585      6.78454     10.07469        -0.039179      0.022620     -0.013000
      8.81351      6.77283     10.06987         0.000000      0.058931      0.034790
      0.00000      0.00000     12.49672         0.000000      0.000000     -0.011279
      2.97727      0.06002     12.55884        -0.155155     -0.323603     -0.243480
      5.83624      0.06002     12.55884         0.155155     -0.323603     -0.243480
      1.54061      2.54838     12.55884        -0.357826      0.027433     -0.243480
      7.27290      2.54838     12.55884         0.357826      0.027433     -0.243480
      2.97010      5.02433     12.55884        -0.202671      0.296169     -0.243480
      5.84341      5.02433     12.55884         0.202671      0.296169     -0.243480
      8.81351      5.08848     12.50791         0.000000      0.000000      0.038544
      4.40676      2.54424     12.31155         0.000000      0.000000      1.965383
      4.40676      2.54424     14.21739         0.000000      0.000000     -0.002303
      4.40676      2.54424     15.18236         0.000000      0.000000      0.007496
    total drift:                                0.016972      0.009946      0.307917

  FREE ENERGIE OF THE ION-ELECTRON SYSTEM (eV)
  free  energy   TOTEN  =      -129.89298616 eV

  energy  without entropy=     -129.89298616  energy(sigma->0) =     -129.89298616

 stress matrix after NEB project (eV)
    -18.35542     -0.00000      0.00000
     -0.00000    -18.35542      0.00000
     -0.00000     -0.00000      3.42057
  FORCES: max atom, RMS     0.007496    0.001272
  FORCE total and by dimension    0.007841    0.007496
  Stress total and by dimension   26.182883   18.355423
|           W    W    AA    RRRRR   N    N  II  N    N   GGGG   !!!           |
|           W    W   A  A   R    R  NN   N  II  NN   N  G    G  !!!           |
|           W    W  A    A  R    R  N N  N  II  N N  N  G       !!!           |
|           W WW W  AAAAAA  RRRRR   N  N N  II  N  N N  G  GGG   !            |
|           WW  WW  A    A  R   R   N   NN  II  N   NN  G    G                |
|           W    W  A    A  R    R  N    N  II  N    N   GGGG   !!!           |
|     Tetrahedron method does not include variations of the Fermi             |
|     occupations, so forces and stress will be inaccurate. We suggest        |
|     using a different smearing scheme ISMEAR = 1 or 2 for metals in         |
|     relaxations.                                                            |

 total charge

# of ion       s       p       d       tot
    1        0.549   0.238   8.765   9.552
    2        0.543   0.241   8.765   9.549
    3        0.543   0.241   8.765   9.549
    4        0.543   0.241   8.765   9.549
    5        0.544   0.242   8.763   9.548
    6        0.543   0.241   8.765   9.549
    7        0.543   0.241   8.765   9.549
    8        0.543   0.241   8.765   9.549
    9        0.541   0.240   8.767   9.548
   10        0.523   0.306   8.772   9.602
   11        0.519   0.308   8.778   9.605
   12        0.523   0.306   8.772   9.602
   13        0.519   0.308   8.778   9.605
   14        0.519   0.308   8.778   9.605
   15        0.515   0.309   8.773   9.597
   16        0.523   0.306   8.772   9.602
   17        0.515   0.309   8.773   9.597
   18        0.515   0.309   8.773   9.597
   19        0.521   0.296   8.772   9.588
   20        0.565   0.336   8.742   9.643
   21        0.565   0.336   8.742   9.643
   22        0.512   0.305   8.773   9.590
   23        0.565   0.336   8.742   9.643
   24        0.512   0.305   8.773   9.590
   25        0.521   0.296   8.772   9.588
   26        0.521   0.296   8.772   9.588
   27        0.512   0.305   8.773   9.590
   28        0.542   0.233   8.754   9.529
   29        0.592   0.243   8.742   9.577
   30        0.592   0.243   8.742   9.577
   31        0.592   0.243   8.742   9.577
   32        0.592   0.243   8.742   9.577
   33        0.592   0.243   8.742   9.577
   34        0.592   0.243   8.742   9.577
   35        0.541   0.235   8.753   9.529
   36        0.558   0.663   2.039   3.260
   37        1.559   3.561   0.000   5.120
   38        0.609   0.126   0.000   0.734
tot         21.717  14.018 308.714 344.448

 BZINTS: Fermi energy:    0.949274;  396.000000 electrons
         Band energy:-0.116300E+04;  BLOECHL correction:   -0.065688