 vasp.6.2.0 18Jan21 (build Jun 12 2021 23:27:24) complex

 executed on             LinuxIFC date 2022.05.26  20:09:44

 INCAR:
   ISMEAR = -5
   SIGMA = 0.1
   ISPIN = 1
   EDIFF = 1.d-5
   EDIFFG = -0.01
   NSW = 0
   NELM = 150
   ENCUT = 500
   ISIF = 2
   IBRION = 2
   LREAL = Auto
   ALGO = Fast
   ICHARG = 11
   LORBIT = 10
   LCHARG = .F.
   LWAVE = .F.

 POTCAR:    PAW_PBE Cu 22Jun2005
 POTCAR:    PAW_PBE Ir 06Sep2000
 POTCAR:    PAW_PBE N 08Apr2002
|           W    W    AA    RRRRR   N    N  II  N    N   GGGG   !!!           |
|           W    W   A  A   R    R  NN   N  II  NN   N  G    G  !!!           |
|           W    W  A    A  R    R  N N  N  II  N N  N  G       !!!           |
|           W WW W  AAAAAA  RRRRR   N  N N  II  N  N N  G  GGG   !            |
|           WW  WW  A    A  R   R   N   NN  II  N   NN  G    G                |
|           W    W  A    A  R    R  N    N  II  N    N   GGGG   !!!           |
|     For optimal performance we recommend to set                             |
|       NCORE = 2 up to number-of-cores-per-socket                            |
|     This setting can greatly improve the performance of VASP for DFT.       |
|     The default, NCORE=1 might be grossly inefficient on modern             |
|     multi-core architectures or massively parallel machines. Do your        |
|     Unfortunately you need to use the default for GW and RPA                |
|     calculations (for HF NCORE is supported but not extensively tested      |
|     yet).                                                                   |

 POTCAR:    PAW_PBE Cu 22Jun2005
   VRHFIN =Cu: d10 p1

   TITEL  = PAW_PBE Cu 22Jun2005
   POMASS =   63.546; ZVAL   =   11.000    mass and valenz
   ENMAX  =  295.446; ENMIN  =  221.585 eV

 POTCAR:    PAW_PBE Ir 06Sep2000
   VRHFIN =Ir: s1d8

   TITEL  = PAW_PBE Ir 06Sep2000
   POMASS =  192.220; ZVAL   =    9.000    mass and valenz
   ENMAX  =  210.864; ENMIN  =  158.148 eV

 POTCAR:    PAW_PBE N 08Apr2002
   VRHFIN =N: s2p3

   TITEL  = PAW_PBE N 08Apr2002
   POMASS =   14.001; ZVAL   =    5.000    mass and valenz
   ENMAX  =  400.000; ENMIN  =  300.000 eV

 Optimization of the real space projectors (new method)

 maximal supplied QI-value         = 16.25
 optimisation between [QCUT,QGAM] = [ 11.38, 22.75] = [ 36.24,144.96] Ry
 Optimized for a Real-space Cutoff    1.52 Angstroem

   l    n(q)    QCUT    max X(q) W(low)/X(q) W(high)/X(q)  e(spline)
   2      9    11.376     4.610    0.21E-03    0.10E-03    0.26E-06
   2      9    11.376     8.522    0.33E-03    0.16E-03    0.37E-06
   0     10    11.376    51.609    0.62E-04    0.20E-04    0.13E-06
   0     10    11.376    27.747    0.54E-04    0.20E-04    0.13E-06
   1     10    11.376    20.408    0.13E-04    0.99E-04    0.19E-06
   1     10    11.376    13.425    0.12E-04    0.87E-04    0.17E-06
 Optimization of the real space projectors (new method)

[...]

   l    n(q)    QCUT    max X(q) W(low)/X(q) W(high)/X(q)  e(spline)
   2      9    11.346   134.116    0.47E-03    0.13E-03    0.92E-06
   2      9    11.346   130.192    0.47E-03    0.13E-03    0.92E-06
   0     10    11.346    60.310    0.74E-04    0.13E-03    0.69E-06
   0     10    11.346    39.218    0.68E-04    0.12E-03    0.65E-06
   1     10    11.346    18.439    0.15E-03    0.34E-04    0.20E-06
   1     10    11.346    12.760    0.12E-03    0.31E-04    0.16E-06
 Optimization of the real space projectors (new method)

 maximal supplied QI-value         = 25.13
 optimisation between [QCUT,QGAM] = [ 11.31, 22.87] = [ 35.82,146.48] Ry
 Optimized for a Real-space Cutoff    1.27 Angstroem

   l    n(q)    QCUT    max X(q) W(low)/X(q) W(high)/X(q)  e(spline)
   0      9    11.310    79.467    0.75E-04    0.16E-03    0.36E-06
   0      9    11.310    66.151    0.74E-04    0.16E-03    0.36E-06
   1      8    11.310    17.416    0.35E-03    0.12E-03    0.95E-06
   1      8    11.310    12.382    0.37E-03    0.13E-03    0.98E-06
  PAW_PBE Cu 22Jun2005                  :
  PAW_PBE Ir 06Sep2000                  :
  PAW_PBE N 08Apr2002                   :

 POSCAR: Cu-Ir-N
  positions in direct lattice
  velocities in cartesian coordinates
 exchange correlation table for  LEXCH =        8
   RHO(1)=    0.500       N(1)  =     2000
   RHO(2)=  100.500       N(2)  =     4000

 VTST: version 3.2, (02/03/18)

 CHAIN: initializing optimizer

 OPT: Using VASP Conjugate-Gradient optimizer
 CHAIN: Read ICHAIN            0

 POSCAR: Cu-Ir-N
  positions in direct lattice
  velocities in cartesian coordinates

 ion  position               nearest neighbor table
   1  0.000  0.000  0.252-   7 2.57   3 2.57   4 2.57   2 2.57   6 2.57   8 2.57  12 2.57  10 2.57
                            16 2.57
   2  0.333  0.000  0.252-   8 2.57   9 2.57   5 2.57   1 2.57   3 2.57  11 2.57   4 2.57  10 2.57
                            17 2.57
   3  0.667  0.000  0.252-   1 2.57   7 2.57   6 2.57   9 2.57   2 2.57  12 2.57   5 2.57  18 2.57
                            11 2.57
   4  0.000  0.333  0.252-   5 2.57   6 2.57   1 2.57   7 2.57   2 2.57  13 2.57   9 2.57  10 2.57
                            15 2.57
   5  0.333  0.333  0.252-   4 2.57   2 2.57   7 2.57  13 2.57   8 2.57   6 2.57   3 2.57  11 2.57
                            14 2.57
   6  0.667  0.333  0.252-   4 2.57   9 2.57  15 2.57   3 2.57   1 2.57   8 2.57  14 2.57   5 2.57
                            12 2.57
   7  0.000  0.667  0.252-   1 2.57   3 2.57  16 2.57  18 2.57   4 2.57   5 2.57   8 2.57   9 2.57
                            13 2.57
   8  0.333  0.667  0.252-   9 2.57   2 2.57  17 2.57   6 2.57   1 2.57   7 2.57   5 2.57  14 2.57
                            16 2.57
   9  0.667  0.667  0.252-   8 2.57   6 2.57   2 2.57  17 2.57   3 2.57   7 2.57   4 2.57  15 2.57
                            18 2.57
  10  0.111  0.111  0.351-  20 2.53  11 2.57  12 2.57  13 2.57   1 2.57   2 2.57   4 2.57  15 2.57
                            16 2.57  17 2.57  26 2.57  19 2.57
  11  0.444  0.111  0.351-  20 2.55  21 2.55  10 2.57  13 2.57   2 2.57  17 2.57  14 2.57  12 2.57
                             5 2.57   3 2.57  18 2.57  27 2.57
  12  0.778  0.111  0.351-  21 2.53  15 2.57  10 2.57  14 2.57  18 2.57   3 2.57   1 2.57  16 2.57
                            11 2.57   6 2.57  19 2.57  25 2.57
  13  0.111  0.444  0.351-  23 2.55  20 2.55  16 2.57  18 2.57  10 2.57  11 2.57  14 2.57   5 2.57
                             4 2.57   7 2.57  15 2.57  22 2.57
  14  0.444  0.444  0.351-  21 2.55  23 2.55  15 2.57  17 2.57  12 2.57  16 2.57  13 2.57  11 2.57
                             6 2.57   8 2.57   5 2.57  24 2.57
  15  0.778  0.444  0.351-  19 2.56  24 2.56  22 2.56  14 2.57  17 2.57  12 2.57   6 2.57  18 2.57
                            10 2.57   9 2.57  13 2.57   4 2.57
  16  0.111  0.778  0.351-  23 2.53  18 2.57  13 2.57   7 2.57  14 2.57  17 2.57  12 2.57  10 2.57
                             8 2.57   1 2.57  25 2.57  26 2.57
  17  0.444  0.778  0.351-  26 2.56  27 2.56  24 2.56  14 2.57  15 2.57   8 2.57   9 2.57  11 2.57
                            16 2.57  18 2.57  10 2.57   2 2.57
  18  0.778  0.778  0.351-  25 2.56  22 2.56  27 2.56  16 2.57  13 2.57   7 2.57  15 2.57  12 2.57
                            17 2.57   9 2.57   3 2.57  11 2.57
  19  0.888  0.223  0.449-  28 2.55  21 2.55  20 2.55  22 2.56  24 2.56  15 2.56  32 2.56  31 2.56
                            12 2.57  10 2.57  25 2.58  26 2.58
  20  0.221  0.221  0.448-  10 2.53  11 2.55  13 2.55  26 2.55  19 2.55  36 2.55  27 2.57  22 2.57
                            29 2.59  31 2.59  23 2.59  21 2.59
  21  0.558  0.221  0.448-  12 2.53  14 2.55  11 2.55  19 2.55  25 2.55  36 2.55  24 2.57  27 2.57
                            32 2.59  30 2.59  20 2.59  23 2.59
  22  0.888  0.556  0.449-  35 2.54  24 2.56  27 2.56  19 2.56  25 2.56  18 2.56  15 2.56  13 2.57
                            23 2.57  20 2.57  31 2.57  33 2.57
  23  0.221  0.558  0.448-  16 2.53  13 2.55  14 2.55  25 2.55  26 2.55  36 2.55  22 2.57  24 2.57
                            33 2.59  34 2.59  20 2.59  21 2.59
  24  0.556  0.556  0.449-  35 2.54  22 2.56  27 2.56  19 2.56  26 2.56  15 2.56  17 2.56  14 2.57
                            21 2.57  23 2.57  32 2.57  34 2.57
  25  0.888  0.888  0.449-  28 2.55  21 2.55  23 2.55  22 2.56  27 2.56  18 2.56  33 2.56  30 2.56
                            16 2.57  12 2.57  19 2.58  26 2.58
  26  0.223  0.888  0.449-  28 2.55  20 2.55  23 2.55  27 2.56  24 2.56  17 2.56  29 2.56  34 2.56
                            10 2.57  16 2.57  25 2.58  19 2.58
  27  0.556  0.888  0.449-  35 2.54  24 2.56  22 2.56  26 2.56  25 2.56  17 2.56  18 2.56  11 2.57
                            20 2.57  21 2.57  29 2.57  30 2.57
  28  0.000  0.000  0.546-  25 2.55  19 2.55  26 2.55  33 2.56  30 2.56  31 2.56  29 2.56  32 2.56
                            34 2.56
  29  0.333  0.999  0.548-  34 2.55  28 2.56  26 2.56  35 2.57  31 2.57  27 2.57  36 2.57  30 2.58
                            20 2.59
  30  0.668  0.999  0.548-  33 2.55  28 2.56  25 2.56  35 2.57  32 2.57  27 2.57  36 2.57  29 2.58
                            21 2.59
  31  0.999  0.333  0.548-  32 2.55  28 2.56  19 2.56  35 2.57  29 2.57  22 2.57  36 2.57  33 2.58
                            20 2.59
  32  0.668  0.333  0.548-  31 2.55  28 2.56  19 2.56  35 2.57  30 2.57  24 2.57  36 2.57  34 2.58
                            21 2.59
  33  0.999  0.668  0.548-  30 2.55  28 2.56  25 2.56  35 2.57  34 2.57  22 2.57  36 2.57  31 2.58
                            23 2.59
  34  0.333  0.668  0.548-  29 2.55  28 2.56  26 2.56  35 2.57  33 2.57  24 2.57  36 2.57  32 2.58
                            23 2.59
  35  0.667  0.667  0.546-  24 2.54  27 2.54  22 2.54  34 2.57  32 2.57  29 2.57  30 2.57  33 2.57
                            31 2.57
  36  0.333  0.333  0.545-  37 1.73  23 2.55  20 2.55  21 2.55  31 2.57  29 2.57  33 2.57  34 2.57
                            32 2.57  30 2.57
  37  0.333  0.333  0.626-  36 1.73

  LATTYP: Found a hexagonal cell.
 ALAT       =     7.6967864036
 C/A-ratio  =     2.7653617908

  Lattice vectors:

 A1 = (  -3.8483927580,  -6.6656128093,   0.0000000000)
 A2 = (   7.6967864037,   0.0000000000,   0.0000000000)
 A3 = (   0.0000000000,   0.0000000000,  21.2843990326)

Analysis of symmetry for initial positions (statically):
 Subroutine PRICEL returns:
 Original cell was already a primitive cell.

 Routine SETGRP: Setting up the symmetry group for a
 hexagonal supercell.

 Subroutine GETGRP returns: Found  6 space group operations
 (whereof  6 operations were pure point group operations)
 out of a pool of 24 trial point group operations.

The static configuration has the point symmetry C_3v.

Analysis of symmetry for dynamics (positions and initial velocities):
 Subroutine PRICEL returns:
 Original cell was already a primitive cell.

[...]

The dynamic configuration has the point symmetry C_3v.

Analysis of constrained symmetry for selective dynamics:
 Subroutine PRICEL returns:
 Original cell was already a primitive cell.

 Routine SETGRP: Setting up the symmetry group for a
 hexagonal supercell.

 Subroutine GETGRP returns: Found  6 space group operations
[...]
     24      -4.3226      2.00000
     25      -4.3092      2.00000
     26      -4.2650      2.00000
     27      -4.2522      2.00000
     28      -4.1905      2.00000
     29      -4.1739      2.00000
     30      -4.0730      2.00000
     31      -4.0438      2.00000
     32      -4.0181      2.00000
     33      -3.9947      2.00000
     34      -3.9910      2.00000
     35      -3.9760      2.00000
     36      -3.9272      2.00000
     37      -3.9124      2.00000
     38      -3.8878      2.00000
     39      -3.8274      2.00000
     40      -3.8028      2.00000
     41      -3.6804      2.00000
     42      -3.6673      2.00000
     43      -3.6113      2.00000
     44      -3.5919      2.00000
     45      -3.5747      2.00000
     46      -3.5630      2.00000
     47      -3.5326      2.00000
     48      -3.5033      2.00000
     49      -3.4925      2.00000
     50      -3.3982      2.00000
     51      -3.3444      2.00000
     52      -3.3216      2.00000
     53      -3.3116      2.00000
     54      -3.2794      2.00000
     55      -3.2691      2.00000
     56      -3.2546      2.00000
     57      -3.2485      2.00000
     58      -3.2342      2.00000
     59      -3.2186      2.00000
     60      -3.1967      2.00000
[...]
    238       6.2556      0.00000
    239       6.4307      0.00000
    240       6.5198      0.00000
    241       7.0071      0.00000
    242       7.0150      0.00000
    243       7.1313      0.00000
    244       7.1714      0.00000
    245       7.3200      0.00000
    246       7.4006      0.00000
    247       7.4307      0.00000
    248       7.5229      0.00000
    249       7.5895      0.00000
    250       7.8278      0.00000
    251       7.8595      0.00000
    252       8.0118      0.00000

 soft charge-density along one line, spin component           1
         0         1         2         3         4         5         6         7         8         9
 total charge-density along one line

------------------------ aborting loop because EDIFF is reached ----------------------------------------

 total charge

# of ion       s       p       d       tot
    1        0.449   0.282   9.191   9.921
    2        0.449   0.284   9.187   9.921
    3        0.449   0.284   9.187   9.921
    4        0.449   0.284   9.187   9.921
    5        0.450   0.285   9.185   9.921
    6        0.449   0.284   9.187   9.921
    7        0.449   0.284   9.187   9.921
    8        0.449   0.284   9.187   9.921
    9        0.446   0.285   9.187   9.918
   10        0.443   0.370   9.179   9.993
   11        0.441   0.372   9.180   9.993
   12        0.443   0.370   9.179   9.993
   13        0.441   0.372   9.180   9.993
   14        0.441   0.372   9.180   9.993
   15        0.439   0.368   9.182   9.989
   16        0.443   0.370   9.179   9.993
   17        0.439   0.368   9.182   9.989
   18        0.439   0.368   9.182   9.989
   19        0.442   0.370   9.181   9.993
   20        0.459   0.394   9.172  10.024
   21        0.459   0.394   9.172  10.024
   22        0.434   0.370   9.184   9.988
   23        0.459   0.394   9.172  10.024
   24        0.434   0.370   9.184   9.988
   25        0.442   0.370   9.181   9.993
   26        0.442   0.370   9.181   9.993
   27        0.434   0.370   9.184   9.988
   28        0.456   0.287   9.195   9.938
   29        0.439   0.306   9.194   9.939
   30        0.439   0.306   9.194   9.939
   31        0.439   0.306   9.194   9.939
   32        0.439   0.306   9.194   9.939
   33        0.439   0.306   9.194   9.939
   34        0.439   0.306   9.194   9.939
   35        0.450   0.288   9.195   9.933
   36        0.812   0.834   7.091   8.738
   37        1.353   2.154   0.000   3.507
tot         17.713  14.688 328.568 360.969

  FORCE on cell =-STRESS in cart. coord.  units (eV):
  Direction    XX          YY          ZZ          XY          YZ          ZX
  Alpha Z   904.42231   904.42231   904.42231
  Ewald  173599.79440173599.79396************     0.00039     0.00011     0.00018
  Hartree186647.25601186647.25598************     0.00004     0.00006     0.00007
  E(xc)   -2309.47639 -2309.47591 -2313.64459    -0.00042    -0.00003    -0.00006
  Local  ************************373616.50098     0.01863    -0.00058    -0.00097
  n-local  -774.74927  -759.45944  -778.88010     8.34605    -0.03010     0.31231
  augment  3348.03519  3348.05548  3358.19307    -0.01757     0.00022     0.00041
  Kinetic  3344.73036  3345.85338  3349.10021     2.24036     1.89392    -1.25142
  Fock        0.00000     0.00000     0.00000     0.00000     0.00000     0.00000
  Total      -1.40848    -1.40848     2.45341     0.00000    -0.00000     0.00000
  in kB      -2.06657    -2.06657     3.59973     0.00000    -0.00000     0.00000

 VOLUME and BASIS-vectors are now :
  energy-cutoff  :      500.00
  volume of cell :     1091.97
      direct lattice vectors                 reciprocal lattice vectors
     7.696786404  0.000000000  0.000000000     0.129924354 -0.075011849  0.000000000
     3.848392758  6.665612809  0.000000000     0.000000000  0.150023716  0.000000000
     0.000000000  0.000000000 21.284399033     0.000000000  0.000000000  0.046982769

  length of vectors
     7.696786404  7.696786404 21.284399033     0.150023716  0.150023716  0.046982769

 FORCES acting on ions
    electron-ion (+dipol)            ewald-force                    non-local-force                 convergence-correction
   -.417E-04 0.141E-06 0.349E+04   0.580E-04 -.437E-05 -.349E+04   -.699E-17 -.299E-17 -.270E+01   -.335E-03 -.161E-03 -.422E+00
   -.391E-01 0.542E-01 0.349E+04   -.543E-02 -.102E+00 -.349E+04   0.474E-01 0.116E+00 -.190E+01   0.350E-02 -.467E-01 -.389E+00
   0.391E-01 0.542E-01 0.349E+04   0.535E-02 -.102E+00 -.349E+04   -.474E-01 0.116E+00 -.190E+01   -.266E-02 -.440E-01 -.389E+00
   0.274E-01 -.610E-01 0.349E+04   -.907E-01 0.461E-01 -.349E+04   0.124E+00 -.167E-01 -.190E+01   -.386E-01 0.263E-01 -.389E+00
   -.642E-04 -.489E-05 0.349E+04   0.116E-03 -.101E-04 -.349E+04   0.138E-18 0.244E-17 -.177E+01   0.122E-01 0.749E-02 -.347E+00
   -.274E-01 -.609E-01 0.349E+04   0.906E-01 0.460E-01 -.349E+04   -.124E+00 -.167E-01 -.190E+01   0.369E-01 0.275E-01 -.388E+00
   0.665E-01 0.672E-02 0.349E+04   -.853E-01 0.555E-01 -.349E+04   0.764E-01 -.989E-01 -.190E+01   -.394E-01 0.197E-01 -.388E+00
   -.664E-01 0.671E-02 0.349E+04   0.850E-01 0.555E-01 -.349E+04   -.764E-01 -.989E-01 -.190E+01   0.430E-01 0.182E-01 -.388E+00
   -.144E-03 -.330E-04 0.349E+04   0.263E-03 0.206E-04 -.349E+04   -.148E-17 0.402E-17 -.225E+01   -.133E-01 -.685E-02 -.436E+00
   0.346E+01 0.200E+01 0.119E+04   -.295E+01 -.170E+01 -.119E+04   -.467E+00 -.270E+00 -.106E+01   -.613E-01 -.354E-01 0.911E-01
   -.913E-04 0.485E+00 0.119E+04   0.191E-03 -.531E+00 -.119E+04   -.923E-08 0.139E+00 -.365E+00   0.118E-01 -.121E+00 0.896E-01
   -.346E+01 0.200E+01 0.119E+04   0.295E+01 -.170E+01 -.119E+04   0.467E+00 -.270E+00 -.106E+01   0.593E-01 -.333E-01 0.918E-01
   0.420E+00 -.243E+00 0.119E+04   -.460E+00 0.265E+00 -.119E+04   0.120E+00 -.693E-01 -.365E+00   -.987E-01 0.717E-01 0.896E-01
   -.420E+00 -.243E+00 0.119E+04   0.459E+00 0.265E+00 -.119E+04   -.120E+00 -.693E-01 -.365E+00   0.123E+00 0.707E-01 0.897E-01
   -.143E-03 0.797E-01 0.119E+04   0.299E-03 -.156E+00 -.119E+04   -.365E-08 0.548E-01 -.773E+00   -.407E-02 0.160E-02 0.664E-01
   -.916E-04 -.399E+01 0.119E+04   0.186E-03 0.341E+01 -.119E+04   -.359E-07 0.539E+00 -.106E+01   -.147E-03 0.668E-01 0.917E-01
   0.690E-01 -.400E-01 0.119E+04   -.135E+00 0.782E-01 -.119E+04   0.475E-01 -.274E-01 -.773E+00   0.404E-04 -.433E-02 0.663E-01
   -.689E-01 -.400E-01 0.119E+04   0.135E+00 0.781E-01 -.119E+04   -.475E-01 -.274E-01 -.773E+00   0.704E-03 -.129E-02 0.669E-01
   -.544E-04 0.103E+01 -.114E+04   0.682E-04 -.100E+01 0.114E+04   0.234E-08 -.351E-01 0.659E+00   -.253E-02 -.331E-01 0.344E+00
   -.202E+02 -.117E+02 -.113E+04   0.211E+02 0.122E+02 0.113E+04   -.797E+00 -.460E+00 0.342E-01   -.107E+00 -.618E-01 0.389E+00
   0.202E+02 -.117E+02 -.113E+04   -.211E+02 0.122E+02 0.113E+04   0.797E+00 -.460E+00 0.342E-01   0.131E+00 -.604E-01 0.389E+00
   -.141E+02 0.816E+01 -.114E+04   0.136E+02 -.787E+01 0.114E+04   0.567E+00 -.327E+00 0.115E+01   -.373E-01 0.204E-01 0.421E+00
   -.849E-04 0.233E+02 -.113E+04   0.145E-03 -.243E+02 0.113E+04   -.613E-07 0.920E+00 0.342E-01   0.120E-01 0.142E+00 0.389E+00
   0.141E+02 0.816E+01 -.114E+04   -.136E+02 -.787E+01 0.114E+04   -.567E+00 -.327E+00 0.115E+01   0.346E-01 0.191E-01 0.421E+00
   -.890E+00 -.514E+00 -.114E+04   0.866E+00 0.500E+00 0.114E+04   0.304E-01 0.175E-01 0.659E+00   0.302E-01 0.175E-01 0.344E+00
   0.890E+00 -.514E+00 -.114E+04   -.866E+00 0.500E+00 0.114E+04   -.304E-01 0.175E-01 0.659E+00   -.296E-01 0.146E-01 0.344E+00
   -.119E-03 -.163E+02 -.114E+04   0.244E-03 0.157E+02 0.114E+04   -.436E-07 0.655E+00 0.115E+01   -.991E-03 -.425E-01 0.421E+00
   -.425E-04 0.134E-04 -.343E+04   0.374E-04 -.335E-04 0.342E+04   0.372E-17 -.795E-18 0.200E+01   -.303E-03 -.123E-03 0.502E+00
   -.595E+01 -.506E+01 -.343E+04   0.513E+01 0.332E+01 0.342E+04   0.641E+00 0.139E+01 0.253E+01   -.340E-01 -.617E-01 0.486E+00
   0.595E+01 -.506E+01 -.343E+04   -.513E+01 0.332E+01 0.342E+04   -.641E+00 0.139E+01 0.253E+01   0.350E-01 -.591E-01 0.486E+00
   -.736E+01 -.262E+01 -.343E+04   0.544E+01 0.278E+01 0.342E+04   0.152E+01 -.139E+00 0.253E+01   -.703E-01 0.132E-02 0.486E+00
   0.736E+01 -.262E+01 -.343E+04   -.544E+01 0.278E+01 0.342E+04   -.152E+01 -.139E+00 0.253E+01   0.687E-01 0.230E-02 0.485E+00
   -.141E+01 0.768E+01 -.343E+04   0.315E+00 -.610E+01 0.342E+04   0.882E+00 -.125E+01 0.253E+01   -.337E-01 0.599E-01 0.486E+00
   0.141E+01 0.768E+01 -.343E+04   -.315E+00 -.610E+01 0.342E+04   -.882E+00 -.125E+01 0.253E+01   0.371E-01 0.584E-01 0.485E+00
   -.161E-03 -.322E-04 -.343E+04   0.256E-03 0.416E-05 0.343E+04   0.436E-17 0.132E-17 0.225E+01   -.133E-01 -.686E-02 0.439E+00
   -.471E-04 -.315E-04 -.258E+04   0.113E-03 0.218E-04 0.258E+04   0.887E-17 -.441E-17 0.187E+01   0.243E-02 0.145E-02 0.336E+00
   0.106E-03 -.504E-04 -.186E+04   0.157E-04 0.700E-05 0.189E+04   -.580E-18 0.491E-18 -.245E+02   0.156E-02 0.946E-03 0.207E-01
   -.151E-03 -.605E-04 0.175E+02   0.232E-13 0.378E-12 -.819E-11   0.127E-16 -.225E-15 -.224E+02   0.559E-01 0.292E-01 0.488E+01

 POSITION                                       TOTAL-FORCE (eV/Angst)
      0.00000      0.00000      5.37156         0.000000      0.000000      0.002150
      2.56560      0.00000      5.37156         0.006838      0.022707      0.067940
      5.13119      0.00000      5.37156        -0.006838      0.022707      0.067940
      1.28280      2.22187      5.37156         0.023084     -0.005431      0.067940
      3.84839      2.22187      5.37156         0.000000     -0.000000      0.057254
      6.41399      2.22187      5.37156        -0.023084     -0.005431      0.067940
      2.56560      4.44374      5.37156         0.016246     -0.017276      0.067940
      5.13119      4.44374      5.37156        -0.016246     -0.017276      0.067940
      7.69679      4.44374      5.37156         0.000000     -0.000000      0.046882
      1.28280      0.74062      7.46636        -0.020683     -0.011941     -0.056744
      3.84839      0.74062      7.46636         0.000000     -0.034998     -0.065983
      6.41399      0.74062      7.46636         0.020683     -0.011941     -0.056744
      2.56560      2.96249      7.46636        -0.030309      0.017499     -0.065983
      5.13119      2.96249      7.46636         0.030309      0.017499     -0.065983
      7.69679      2.96249      7.46636         0.000000     -0.020015     -0.023220
      3.84839      5.18437      7.46636        -0.000000      0.023883     -0.056744
      6.41399      5.18437      7.46636        -0.017334      0.010008     -0.023220
      8.97958      5.18437      7.46636         0.017334      0.010008     -0.023220
      7.69679      1.48769      9.56171         0.000000     -0.040709     -0.018408
      2.55203      1.47342      9.53141        -0.054990     -0.031749     -0.269062
      5.14476      1.47342      9.53141         0.054990     -0.031749     -0.269062
      8.97489      3.70583      9.56026         0.041280     -0.023833     -0.007416
      3.84839      3.71878      9.53141        -0.000000      0.063497     -0.269062
      6.41868      3.70583      9.56026        -0.041280     -0.023833     -0.007416
     10.25680      5.92177      9.56171         0.035255      0.020355     -0.018408
      5.13677      5.92177      9.56171        -0.035255      0.020355     -0.018408
      7.69679      5.91957      9.56026        -0.000000      0.047666     -0.007416
      0.00000      0.00000     11.63002         0.000000      0.000000     -0.002606
      6.40663      6.66047     11.66109        -0.212813     -0.407365     -0.188317
      8.98694      6.66047     11.66109         0.212813     -0.407365     -0.188317
      8.97145      2.21807     11.66109        -0.459195      0.019381     -0.188317
      6.42212      2.21807     11.66109         0.459195      0.019381     -0.188317
     10.26160      4.45269     11.66109        -0.246382      0.387984     -0.188317
      5.13197      4.45269     11.66109         0.246382      0.387984     -0.188317
      7.69679      4.44374     11.62915         0.000000     -0.000000      0.029600
      3.84839      2.22187     11.60012         0.000000     -0.000000      1.921546
      3.84839      2.22187     13.32823         0.000000      0.000000     -0.010065
    total drift:                                0.055700      0.029150     -0.006667

  FREE ENERGIE OF THE ION-ELECTRON SYSTEM (eV)
  free  energy   TOTEN  =      -137.48977286 eV

  energy  without entropy=     -137.48977286  energy(sigma->0) =     -137.48977286

 stress matrix after NEB project (eV)
     -1.40848      0.00000      0.00000
      0.00000     -1.40848      0.00000
     -0.00000     -0.00000      2.45341
  FORCES: max atom, RMS     0.010065    0.001655
  FORCE total and by dimension    0.010065    0.010065
  Stress total and by dimension    3.160199    2.453413
|           W    W    AA    RRRRR   N    N  II  N    N   GGGG   !!!           |
|           W    W   A  A   R    R  NN   N  II  NN   N  G    G  !!!           |
|           W    W  A    A  R    R  N N  N  II  N N  N  G       !!!           |
|           W WW W  AAAAAA  RRRRR   N  N N  II  N  N N  G  GGG   !            |
|           WW  WW  A    A  R   R   N   NN  II  N   NN  G    G                |
|           W    W  A    A  R    R  N    N  II  N    N   GGGG   !!!           |
|     Tetrahedron method does not include variations of the Fermi             |
|     occupations, so forces and stress will be inaccurate. We suggest        |
|     using a different smearing scheme ISMEAR = 1 or 2 for metals in         |
|     relaxations.                                                            |

 total charge

# of ion       s       p       d       tot
    1        0.449   0.282   9.191   9.921
    2        0.449   0.284   9.187   9.921
    3        0.449   0.284   9.187   9.921
    4        0.449   0.284   9.187   9.921
    5        0.450   0.285   9.185   9.921
    6        0.449   0.284   9.187   9.921
    7        0.449   0.284   9.187   9.921
    8        0.449   0.284   9.187   9.921
    9        0.446   0.285   9.187   9.918
   10        0.443   0.370   9.179   9.993
   11        0.441   0.372   9.180   9.993
   12        0.443   0.370   9.179   9.993
   13        0.441   0.372   9.180   9.993
   14        0.441   0.372   9.180   9.993
   15        0.439   0.368   9.182   9.989
   16        0.443   0.370   9.179   9.993
   17        0.439   0.368   9.182   9.989
   18        0.439   0.368   9.182   9.989
   19        0.442   0.370   9.181   9.993
   20        0.459   0.394   9.172  10.024
   21        0.459   0.394   9.172  10.024
   22        0.434   0.370   9.184   9.988
   23        0.459   0.394   9.172  10.024
   24        0.434   0.370   9.184   9.988
   25        0.442   0.370   9.181   9.993
   26        0.442   0.370   9.181   9.993
   27        0.434   0.370   9.184   9.988
   28        0.456   0.287   9.195   9.938
   29        0.439   0.306   9.194   9.939
   30        0.439   0.306   9.194   9.939
   31        0.439   0.306   9.194   9.939
   32        0.439   0.306   9.194   9.939
   33        0.439   0.306   9.194   9.939
   34        0.439   0.306   9.194   9.939
   35        0.450   0.288   9.195   9.933
   36        0.812   0.834   7.091   8.738
   37        1.353   2.154   0.000   3.507
tot         17.713  14.688 328.568 360.969

 BZINTS: Fermi energy:    0.120692;  399.000000 electrons
         Band energy:-0.111678E+04;  BLOECHL correction:   -0.067516