 vasp.6.2.0 18Jan21 (build Jun 12 2021 23:27:24) complex

 executed on             LinuxIFC date 2022.05.30  17:51:54

 INCAR:
   ISMEAR = -5
   SIGMA = 0.1
   ISPIN = 1
   EDIFF = 1.d-5
   EDIFFG = -0.01
   NSW = 0
   NELM = 150
   ENCUT = 500
   ISIF = 2
   IBRION = 2
   LREAL = Auto
   ALGO = Fast
   ICHARG = 11
   LORBIT = 10
   LCHARG = .F.
   LWAVE = .F.

 POTCAR:    PAW_PBE Cu 22Jun2005
 POTCAR:    PAW_PBE Ti 08Apr2002
 POTCAR:    PAW_PBE O 08Apr2002
|           W    W    AA    RRRRR   N    N  II  N    N   GGGG   !!!           |
|           W    W   A  A   R    R  NN   N  II  NN   N  G    G  !!!           |
|           W    W  A    A  R    R  N N  N  II  N N  N  G       !!!           |
|           W WW W  AAAAAA  RRRRR   N  N N  II  N  N N  G  GGG   !            |
|           WW  WW  A    A  R   R   N   NN  II  N   NN  G    G                |
|           W    W  A    A  R    R  N    N  II  N    N   GGGG   !!!           |
|     For optimal performance we recommend to set                             |
|       NCORE = 2 up to number-of-cores-per-socket                            |
|     This setting can greatly improve the performance of VASP for DFT.       |
|     The default, NCORE=1 might be grossly inefficient on modern             |
|     multi-core architectures or massively parallel machines. Do your        |
|     Unfortunately you need to use the default for GW and RPA                |
|     calculations (for HF NCORE is supported but not extensively tested      |
|     yet).                                                                   |

 POTCAR:    PAW_PBE Cu 22Jun2005
   VRHFIN =Cu: d10 p1

   TITEL  = PAW_PBE Cu 22Jun2005
   POMASS =   63.546; ZVAL   =   11.000    mass and valenz
   ENMAX  =  295.446; ENMIN  =  221.585 eV

 POTCAR:    PAW_PBE Ti 08Apr2002
   VRHFIN =Ti: d3 s1

   TITEL  = PAW_PBE Ti 08Apr2002
   POMASS =   47.880; ZVAL   =    4.000    mass and valenz
   ENMAX  =  178.330; ENMIN  =  133.747 eV

 POTCAR:    PAW_PBE O 08Apr2002
   VRHFIN =O: s2p4

   TITEL  = PAW_PBE O 08Apr2002
   POMASS =   16.000; ZVAL   =    6.000    mass and valenz
   ENMAX  =  400.000; ENMIN  =  300.000 eV

 Optimization of the real space projectors (new method)

 maximal supplied QI-value         = 16.25
 optimisation between [QCUT,QGAM] = [ 11.38, 22.75] = [ 36.24,144.96] Ry
 Optimized for a Real-space Cutoff    1.52 Angstroem

   l    n(q)    QCUT    max X(q) W(low)/X(q) W(high)/X(q)  e(spline)
   2      9    11.376     4.610    0.21E-03    0.10E-03    0.26E-06
   2      9    11.376     8.522    0.33E-03    0.16E-03    0.37E-06
   0     10    11.376    51.609    0.62E-04    0.20E-04    0.13E-06
   0     10    11.376    27.747    0.54E-04    0.20E-04    0.13E-06
   1     10    11.376    20.408    0.13E-04    0.99E-04    0.19E-06
   1     10    11.376    13.425    0.12E-04    0.87E-04    0.17E-06
 Optimization of the real space projectors (new method)

[...]

   l    n(q)    QCUT    max X(q) W(low)/X(q) W(high)/X(q)  e(spline)
   2     10    11.404    49.363    0.27E-03    0.67E-03    0.76E-06
   2     10    11.404    47.669    0.26E-03    0.65E-03    0.73E-06
   0     11    11.404    26.374    0.17E-03    0.20E-03    0.34E-06
   0     11    11.404    11.549    0.14E-03    0.16E-03    0.29E-06
   1     10    11.404     9.492    0.33E-04    0.56E-04    0.16E-06
 Optimization of the real space projectors (new method)

 maximal supplied QI-value         = 24.76
 optimisation between [QCUT,QGAM] = [ 11.39, 22.77] = [ 36.31,145.25] Ry
 Optimized for a Real-space Cutoff    1.00 Angstroem

   l    n(q)    QCUT    max X(q) W(low)/X(q) W(high)/X(q)  e(spline)
   0      7    11.387    20.381    0.39E-03    0.13E-02    0.15E-06
   0      7    11.387    15.268    0.42E-03    0.14E-02    0.17E-06
   1      6    11.387     5.964    0.41E-03    0.11E-02    0.17E-06
   1      6    11.387     5.382    0.39E-03    0.87E-03    0.15E-06
  PAW_PBE Cu 22Jun2005                  :
  PAW_PBE Ti 08Apr2002                  :
  PAW_PBE O 08Apr2002                   :

 POSCAR: Cu-Ti-O2
  positions in direct lattice
  velocities in cartesian coordinates
 exchange correlation table for  LEXCH =        8
   RHO(1)=    0.500       N(1)  =     2000
   RHO(2)=  100.500       N(2)  =     4000

 VTST: version 3.2, (02/03/18)

 CHAIN: initializing optimizer

 OPT: Using VASP Conjugate-Gradient optimizer
 CHAIN: Read ICHAIN            0

 POSCAR: Cu-Ti-O2
  positions in direct lattice
  velocities in cartesian coordinates

 ion  position               nearest neighbor table
   1  0.000  0.000  0.226-   7 2.57   3 2.57   4 2.57   2 2.57   6 2.57   8 2.57  12 2.57  10 2.57
                            16 2.57
   2  0.333  0.000  0.226-   8 2.57   9 2.57   5 2.57   1 2.57   3 2.57  11 2.57   4 2.57  10 2.57
                            17 2.57
   3  0.667  0.000  0.226-   1 2.57   7 2.57   6 2.57   9 2.57   2 2.57  12 2.57   5 2.57  18 2.57
                            11 2.57
   4  0.000  0.333  0.226-   5 2.57   6 2.57   1 2.57   7 2.57   2 2.57  13 2.57   9 2.57  10 2.57
                            15 2.57
   5  0.333  0.333  0.226-   4 2.57   2 2.57   7 2.57  13 2.57   8 2.57   6 2.57   3 2.57  11 2.57
                            14 2.57
   6  0.667  0.333  0.226-   4 2.57   9 2.57  15 2.57   3 2.57   1 2.57   8 2.57  14 2.57   5 2.57
                            12 2.57
   7  0.000  0.667  0.226-   1 2.57   3 2.57  16 2.57  18 2.57   4 2.57   5 2.57   8 2.57   9 2.57
                            13 2.57
   8  0.333  0.667  0.226-   9 2.57   2 2.57  17 2.57   6 2.57   1 2.57   7 2.57   5 2.57  14 2.57
                            16 2.57
   9  0.667  0.667  0.226-   8 2.57   6 2.57   2 2.57  17 2.57   3 2.57   7 2.57   4 2.57  15 2.57
                            18 2.57
  10  0.111  0.111  0.314-  26 2.55  19 2.55  11 2.57  12 2.57  13 2.57   1 2.57   2 2.57   4 2.57
                            15 2.57  16 2.57  17 2.57  20 2.57
  11  0.444  0.111  0.314-  27 2.56  20 2.56  21 2.56  10 2.57  13 2.57   2 2.57  17 2.57  14 2.57
                            12 2.57   5 2.57   3 2.57  18 2.57
  12  0.778  0.111  0.314-  19 2.55  25 2.55  15 2.57  10 2.57  14 2.57  18 2.57   3 2.57   1 2.57
                            16 2.57  11 2.57   6 2.57  21 2.57
  13  0.111  0.444  0.314-  22 2.56  23 2.56  20 2.56  16 2.57  18 2.57  10 2.57  11 2.57  14 2.57
                             5 2.57   4 2.57   7 2.57  15 2.57
  14  0.444  0.444  0.314-  24 2.56  21 2.56  23 2.56  15 2.57  17 2.57  12 2.57  16 2.57  13 2.57
                            11 2.57   6 2.57   8 2.57   5 2.57
  15  0.778  0.444  0.314-  19 2.55  24 2.56  22 2.56  14 2.57  17 2.57  12 2.57   6 2.57  18 2.57
                            10 2.57   9 2.57  13 2.57   4 2.57
  16  0.111  0.778  0.314-  25 2.55  26 2.55  18 2.57  13 2.57   7 2.57  14 2.57  17 2.57  12 2.57
                            10 2.57   8 2.57   1 2.57  23 2.57
  17  0.444  0.778  0.314-  26 2.55  27 2.56  24 2.56  14 2.57  15 2.57   8 2.57   9 2.57  11 2.57
                            16 2.57  18 2.57  10 2.57   2 2.57
  18  0.778  0.778  0.314-  25 2.55  22 2.56  27 2.56  16 2.57  13 2.57   7 2.57  15 2.57  12 2.57
                            17 2.57   9 2.57   3 2.57  11 2.57
  19  0.889  0.222  0.401-  12 2.55  10 2.55  15 2.55  25 2.56  26 2.56  28 2.56  22 2.57  24 2.57
                            21 2.57  20 2.57  32 2.57  31 2.57
  20  0.223  0.223  0.402-  23 2.55  21 2.55  11 2.56  13 2.56  27 2.57  22 2.57  29 2.57  31 2.57
                            10 2.57  26 2.57  19 2.57  36 2.66
  21  0.555  0.223  0.402-  20 2.55  23 2.55  14 2.56  11 2.56  24 2.57  27 2.57  32 2.57  30 2.57
                            12 2.57  19 2.57  25 2.57  36 2.66
  22  0.889  0.556  0.402-  18 2.56  15 2.56  13 2.56  31 2.56  33 2.56  24 2.56  27 2.56  23 2.57
                            20 2.57  19 2.57  25 2.57  35 2.57
  23  0.223  0.555  0.402-  20 2.55  21 2.55  13 2.56  14 2.56  22 2.57  24 2.57  33 2.57  34 2.57
                            16 2.57  25 2.57  26 2.57  36 2.66
  24  0.556  0.556  0.402-  15 2.56  17 2.56  14 2.56  32 2.56  34 2.56  22 2.56  27 2.56  21 2.57
                            23 2.57  19 2.57  26 2.57  35 2.57
  25  0.889  0.889  0.401-  12 2.55  16 2.55  18 2.55  19 2.56  26 2.56  28 2.56  22 2.57  27 2.57
                            21 2.57  23 2.57  33 2.57  30 2.57
  26  0.222  0.889  0.401-  10 2.55  16 2.55  17 2.55  25 2.56  19 2.56  28 2.56  27 2.57  24 2.57
                            20 2.57  23 2.57  29 2.57  34 2.57
  27  0.556  0.889  0.402-  17 2.56  18 2.56  11 2.56  29 2.56  30 2.56  24 2.56  22 2.56  20 2.57
                            21 2.57  26 2.57  25 2.57  35 2.57
  28  0.000  0.000  0.489-  33 2.56  30 2.56  31 2.56  29 2.56  32 2.56  34 2.56  25 2.56  19 2.56
                            26 2.56
  29  0.334  0.998  0.490-  34 2.53  35 2.55  28 2.56  27 2.56  20 2.57  26 2.57  30 2.58  36 2.59
                            31 2.59
  30  0.669  0.998  0.490-  33 2.53  35 2.55  28 2.56  27 2.56  21 2.57  25 2.57  29 2.58  36 2.59
                            32 2.59
  31  0.998  0.334  0.490-  32 2.53  35 2.55  28 2.56  22 2.56  20 2.57  19 2.57  33 2.58  36 2.59
                            29 2.59
  32  0.669  0.334  0.490-  31 2.53  35 2.55  28 2.56  24 2.56  21 2.57  19 2.57  34 2.58  36 2.59
                            30 2.59
  33  0.998  0.669  0.490-  30 2.53  35 2.55  28 2.56  22 2.56  23 2.57  25 2.57  31 2.58  36 2.59
                            34 2.59
  34  0.334  0.669  0.490-  29 2.53  35 2.55  28 2.56  24 2.56  23 2.57  26 2.57  32 2.58  36 2.59
                            33 2.59
  35  0.667  0.667  0.490-  34 2.55  32 2.55  29 2.55  30 2.55  33 2.55  31 2.55  24 2.57  27 2.57
                            22 2.57
  36  0.333  0.333  0.495-  38 1.90  37 1.90  31 2.59  29 2.59  33 2.59  32 2.59  34 2.59  30 2.59
                            23 2.66  20 2.66  21 2.66
  37  0.237  0.335  0.569-  38 1.47  36 1.90
  38  0.428  0.335  0.569-  37 1.47  36 1.90

  LATTYP: Found a hexagonal cell.
 ALAT       =     7.6967864036
 C/A-ratio  =     3.0908716217

  Lattice vectors:

 A1 = (  -3.8483927580,  -6.6656128093,   0.0000000000)
 A2 = (   7.6967864037,   0.0000000000,   0.0000000000)
 A3 = (   0.0000000000,   0.0000000000,  23.7897786731)

Analysis of symmetry for initial positions (statically):
 Subroutine PRICEL returns:
 Original cell was already a primitive cell.

 Routine SETGRP: Setting up the symmetry group for a
 hexagonal supercell.

 Subroutine GETGRP returns: Found  2 space group operations
 (whereof  2 operations were pure point group operations)
 out of a pool of 24 trial point group operations.

The static configuration has the point symmetry C_1h.

Analysis of symmetry for dynamics (positions and initial velocities):
 Subroutine PRICEL returns:
 Original cell was already a primitive cell.

[...]

The dynamic configuration has the point symmetry C_1h.

Analysis of constrained symmetry for selective dynamics:
 Subroutine PRICEL returns:
 Original cell was already a primitive cell.

 Routine SETGRP: Setting up the symmetry group for a
 hexagonal supercell.

 Subroutine GETGRP returns: Found  2 space group operations
[...]
     33      -4.6851      2.00000
     34      -4.6836      2.00000
     35      -4.6753      2.00000
     36      -4.6667      2.00000
     37      -4.6518      2.00000
     38      -4.6131      2.00000
     39      -4.5584      2.00000
     40      -4.5256      2.00000
     41      -4.4939      2.00000
     42      -4.3708      2.00000
     43      -4.3561      2.00000
     44      -4.2918      2.00000
     45      -4.2846      2.00000
     46      -4.2773      2.00000
     47      -4.2583      2.00000
     48      -4.2504      2.00000
     49      -4.2418      2.00000
     50      -4.2323      2.00000
     51      -4.0639      2.00000
     52      -4.0486      2.00000
     53      -4.0353      2.00000
     54      -4.0207      2.00000
     55      -3.9753      2.00000
     56      -3.9652      2.00000
     57      -3.9498      2.00000
     58      -3.9412      2.00000
     59      -3.9320      2.00000
     60      -3.9268      2.00000
[...]
    238       5.2691      0.00000
    239       5.4465      0.00000
    240       5.5586      0.00000
    241       5.6884      0.00000
    242       5.7957      0.00000
    243       5.9195      0.00000
    244       5.9349      0.00000
    245       6.0919      0.00000
    246       6.1706      0.00000
    247       6.3423      0.00000
    248       6.3673      0.00000
    249       6.5507      0.00000
    250       6.6729      0.00000
    251       6.7396      0.00000
    252       6.7652      0.00000

 soft charge-density along one line, spin component           1
         0         1         2         3         4         5         6         7         8         9
 total charge-density along one line

------------------------ aborting loop because EDIFF is reached ----------------------------------------

 total charge

# of ion       s       p       d       tot
    1        0.450   0.284   9.187   9.921
    2        0.448   0.285   9.187   9.920
    3        0.448   0.285   9.187   9.920
    4        0.448   0.285   9.187   9.920
    5        0.449   0.284   9.186   9.919
    6        0.448   0.285   9.187   9.920
    7        0.447   0.285   9.187   9.920
    8        0.447   0.285   9.187   9.920
    9        0.448   0.284   9.188   9.920
   10        0.442   0.370   9.179   9.992
   11        0.440   0.367   9.182   9.989
   12        0.442   0.370   9.179   9.992
   13        0.441   0.367   9.182   9.989
   14        0.441   0.367   9.182   9.989
   15        0.439   0.371   9.178   9.988
   16        0.443   0.371   9.177   9.991
   17        0.439   0.371   9.178   9.989
   18        0.439   0.371   9.178   9.989
   19        0.441   0.370   9.182   9.992
   20        0.456   0.385   9.163  10.004
   21        0.456   0.385   9.163  10.004
   22        0.435   0.375   9.177   9.987
   23        0.457   0.384   9.165  10.006
   24        0.435   0.375   9.177   9.987
   25        0.443   0.369   9.182   9.994
   26        0.443   0.369   9.182   9.994
   27        0.436   0.373   9.179   9.988
   28        0.452   0.289   9.184   9.925
   29        0.468   0.300   9.177   9.945
   30        0.468   0.300   9.177   9.945
   31        0.469   0.289   9.187   9.945
   32        0.469   0.289   9.187   9.945
   33        0.466   0.300   9.179   9.945
   34        0.466   0.300   9.179   9.945
   35        0.452   0.292   9.182   9.926
   36        0.568   0.821   2.708   4.097
   37        1.613   3.242   0.000   4.855
   38        1.613   3.242   0.000   4.855
tot         19.508  18.939 324.029 362.476

  FORCE on cell =-STRESS in cart. coord.  units (eV):
  Direction    XX          YY          ZZ          XY          YZ          ZX
  Alpha Z   808.69104   808.69104   808.69104
  Ewald  220846.58940220506.97050************     0.00038    -2.29329     0.00018
  Hartree233524.57272233361.71847************     0.00003    -2.54334     0.00006
  E(xc)   -2321.64170 -2321.84008 -2327.15203    -0.00030     0.00522    -0.00004
  Local  ************************466958.79326     0.02038     4.86524    -0.00075
  n-local  -795.73423  -800.52884  -815.28217     1.60135    -0.03722     0.03572
  augment  3321.64099  3326.52732  3346.06527    -0.01847    -0.01137     0.00042
  Kinetic  3389.71241  3433.41272  3446.27811     0.49592    -0.00184    -0.23285
  Fock        0.00000     0.00000     0.00000     0.00000     0.00000     0.00000
  Total      -2.73955    -2.75919    -0.31608     0.00000    -0.01660     0.00000
  in kB      -3.59625    -3.62203    -0.41493     0.00000    -0.02179     0.00000

 VOLUME and BASIS-vectors are now :
  energy-cutoff  :      500.00
  volume of cell :     1220.51
      direct lattice vectors                 reciprocal lattice vectors
     7.696786404  0.000000000  0.000000000     0.129924354 -0.075011849  0.000000000
     3.848392758  6.665612809  0.000000000     0.000000000  0.150023716  0.000000000
     0.000000000  0.000000000 23.789778673     0.000000000  0.000000000  0.042034859

  length of vectors
     7.696786404  7.696786404 23.789778673     0.150023716  0.150023716  0.042034859

 FORCES acting on ions
    electron-ion (+dipol)            ewald-force                    non-local-force                 convergence-correction
   -.414E-04 0.287E-01 0.373E+04   0.581E-04 -.303E-01 -.373E+04   -.403E-09 0.605E-02 -.218E+01   -.261E-03 -.751E-02 -.136E+00
   -.944E+00 -.104E+01 0.373E+04   0.869E+00 0.928E+00 -.373E+04   0.299E-01 0.715E-01 -.189E+01   0.409E-01 0.342E-01 -.154E+00
   0.944E+00 -.104E+01 0.373E+04   -.869E+00 0.928E+00 -.373E+04   -.299E-01 0.715E-01 -.189E+01   -.401E-01 0.368E-01 -.153E+00
   -.140E+01 -.297E+00 0.373E+04   0.126E+01 0.269E+00 -.373E+04   0.912E-01 -.222E-01 -.200E+01   0.458E-01 0.430E-01 -.138E+00
   -.635E-04 0.276E-01 0.373E+04   0.116E-03 -.407E-02 -.373E+04   0.203E-08 -.305E-01 -.198E+01   0.122E-01 0.634E-02 -.999E-01
   0.140E+01 -.297E+00 0.373E+04   -.126E+01 0.269E+00 -.373E+04   -.912E-01 -.222E-01 -.200E+01   -.474E-01 0.443E-01 -.137E+00
   -.422E+00 0.130E+01 0.373E+04   0.396E+00 -.120E+01 -.373E+04   0.200E-01 -.411E-01 -.195E+01   0.979E-02 -.516E-01 -.197E+00
   0.422E+00 0.130E+01 0.373E+04   -.396E+00 -.120E+01 -.373E+04   -.200E-01 -.411E-01 -.195E+01   -.628E-02 -.530E-01 -.197E+00
   -.143E-03 0.568E-02 0.373E+04   0.263E-03 0.343E-01 -.373E+04   -.345E-09 0.518E-02 -.211E+01   -.133E-01 -.405E-01 -.144E+00
   -.872E+01 -.486E+01 0.128E+04   0.899E+01 0.493E+01 -.128E+04   -.270E+00 -.880E-01 -.769E+00   -.459E-02 0.263E-01 0.171E+00
   -.825E-04 -.890E+01 0.126E+04   0.189E-03 0.853E+01 -.126E+04   -.147E-07 0.221E+00 -.447E+00   0.116E-01 0.124E+00 0.127E+00
   0.872E+01 -.486E+01 0.128E+04   -.900E+01 0.493E+01 -.128E+04   0.270E+00 -.880E-01 -.769E+00   0.327E-02 0.277E-01 0.170E+00
   -.796E+01 0.443E+01 0.126E+04   0.763E+01 -.425E+01 -.126E+04   0.276E+00 -.137E+00 -.547E+00   0.503E-01 -.390E-01 0.935E-01
   0.796E+01 0.443E+01 0.126E+04   -.763E+01 -.425E+01 -.126E+04   -.276E+00 -.137E+00 -.547E+00   -.266E-01 -.395E-01 0.930E-01
   -.138E-03 -.132E+01 0.128E+04   0.296E-03 0.125E+01 -.128E+04   -.256E-08 0.384E-01 -.915E+00   -.351E-02 0.295E-01 0.133E+00
   -.907E-04 0.100E+02 0.128E+04   0.187E-03 -.103E+02 -.128E+04   -.160E-07 0.240E+00 -.791E+00   -.635E-04 -.787E-02 0.159E+00
   -.991E+00 0.509E+00 0.128E+04   0.962E+00 -.433E+00 -.128E+04   0.556E-01 -.362E-01 -.728E+00   -.204E-01 -.447E-01 0.136E+00
   0.991E+00 0.509E+00 0.128E+04   -.962E+00 -.433E+00 -.128E+04   -.556E-01 -.362E-01 -.728E+00   0.211E-01 -.421E-01 0.136E+00
   -.664E-04 -.715E+01 -.116E+04   0.718E-04 0.694E+01 0.116E+04   -.131E-07 0.197E+00 0.148E+01   0.947E-03 -.790E-02 0.160E+00
   -.600E+02 -.329E+02 -.126E+04   0.608E+02 0.333E+02 0.126E+04   -.865E+00 -.396E+00 0.685E-01   -.937E-01 -.529E-01 0.120E+00
   0.600E+02 -.329E+02 -.126E+04   -.608E+02 0.333E+02 0.126E+04   0.865E+00 -.396E+00 0.685E-01   0.731E-01 -.516E-01 0.119E+00
   -.253E+02 0.130E+02 -.118E+04   0.252E+02 -.128E+02 0.118E+04   0.193E+00 -.232E+00 0.810E+00   -.161E-01 -.470E-01 0.133E+00
   -.586E-04 0.669E+02 -.126E+04   0.154E-03 -.679E+02 0.126E+04   -.721E-07 0.108E+01 -.406E-01   0.117E-01 0.630E-01 0.108E+00
   0.253E+02 0.130E+02 -.118E+04   -.252E+02 -.128E+02 0.118E+04   -.193E+00 -.232E+00 0.810E+00   0.141E-01 -.462E-01 0.133E+00
   0.703E+01 0.466E+01 -.117E+04   -.704E+01 -.459E+01 0.117E+04   -.545E-01 -.949E-01 0.109E+01   0.405E-01 0.323E-01 0.154E+00
   -.703E+01 0.466E+01 -.117E+04   0.704E+01 -.459E+01 0.117E+04   0.545E-01 -.949E-01 0.109E+01   -.393E-01 0.315E-01 0.155E+00
   -.133E-03 -.294E+02 -.119E+04   0.240E-03 0.290E+02 0.119E+04   -.246E-07 0.369E+00 0.106E+01   -.110E-02 0.394E-01 0.142E+00
   -.271E-04 0.713E+01 -.359E+04   0.403E-04 -.729E+01 0.359E+04   -.538E-08 0.807E-01 0.188E+01   0.360E-03 0.492E-01 0.159E+00
   -.302E+02 -.459E+02 -.355E+04   0.304E+02 0.451E+02 0.355E+04   -.356E+00 0.467E+00 0.253E+01   -.189E-01 0.102E+00 0.191E+00
   0.302E+02 -.459E+02 -.355E+04   -.304E+02 0.451E+02 0.355E+04   0.356E+00 0.467E+00 0.253E+01   0.192E-01 0.104E+00 0.192E+00
   -.459E+02 0.576E+01 -.353E+04   0.450E+02 -.568E+01 0.352E+04   0.472E+00 -.886E-01 0.345E+01   0.405E-01 -.165E-01 0.215E+00
   0.459E+02 0.576E+01 -.353E+04   -.450E+02 -.568E+01 0.352E+04   -.472E+00 -.886E-01 0.345E+01   -.404E-01 -.149E-01 0.215E+00
   -.379E+02 0.392E+02 -.355E+04   0.379E+02 -.385E+02 0.355E+04   -.156E+00 -.358E+00 0.270E+01   0.599E-02 -.622E-01 0.224E+00
   0.379E+02 0.392E+02 -.355E+04   -.379E+02 -.385E+02 0.355E+04   0.156E+00 -.358E+00 0.270E+01   -.278E-02 -.627E-01 0.223E+00
   -.130E-03 -.799E+01 -.360E+04   0.254E-03 0.820E+01 0.360E+04   0.460E-08 -.691E-01 0.192E+01   -.131E-01 -.932E-01 0.257E+00
   -.310E-04 0.131E+01 -.118E+04   0.467E-04 -.133E+01 0.118E+04   0.360E-08 -.541E-01 0.130E+01   0.344E-03 -.366E-02 0.109E+00
   0.173E+03 0.718E+00 -.226E+04   -.204E+03 -.641E+00 0.228E+04   0.311E+02 -.646E-01 -.175E+02   0.245E-01 -.287E-02 0.203E-01
   -.173E+03 0.718E+00 -.226E+04   0.204E+03 -.641E+00 0.228E+04   -.311E+02 -.646E-01 -.175E+02   -.244E-01 -.276E-02 0.200E-01
   0.477E-04 -.678E-01 0.271E+02   0.568E-13 -.115E-12 -.455E-11   -.321E-08 0.482E-01 -.302E+02   0.140E-01 0.328E-02 0.291E+01

 POSITION                                       TOTAL-FORCE (eV/Angst)
      0.00000      0.00000      5.37156         0.000000     -0.002621      0.014653
      2.56560      0.00000      5.37156        -0.004056     -0.000848      0.075133
      5.13119      0.00000      5.37156         0.004056     -0.000848      0.075133
      1.28280      2.22187      5.37156         0.003080     -0.005569      0.063930
      3.84839      2.22187      5.37156         0.000000     -0.000207      0.048841
      6.41399      2.22187      5.37156        -0.003080     -0.005569      0.063930
      2.56560      4.44374      5.37156         0.001995      0.007882      0.070631
      5.13119      4.44374      5.37156        -0.001995      0.007882      0.070631
      7.69679      4.44374      5.37156        -0.000000      0.005169      0.034721
      1.28280      0.74062      7.46636         0.004929      0.006902     -0.089672
      3.84839      0.74062      7.46636         0.000000     -0.027309     -0.036546
      6.41399      0.74062      7.46636        -0.004929      0.006902     -0.089672
      2.56560      2.96249      7.46636        -0.019885      0.009397     -0.044870
      5.13119      2.96249      7.46636         0.019885      0.009397     -0.044870
      7.69679      2.96249      7.46636        -0.000000      0.006740     -0.021414
      3.84839      5.18437      7.46636         0.000000     -0.000952     -0.086711
      6.41399      5.18437      7.46636         0.005269     -0.002526     -0.009254
      8.97958      5.18437      7.46636        -0.005269     -0.002526     -0.009254
      7.69679      1.47704      9.53921         0.000000     -0.019179      0.085230
      2.57092      1.48432      9.56248        -0.126856     -0.039817     -0.125824
      5.12587      1.48432      9.56248         0.126857     -0.039817     -0.125824
      8.97870      3.70363      9.55579         0.055240     -0.020143      0.064470
      3.84839      3.69697      9.56248        -0.000000      0.126824     -0.124017
      6.41487      3.70363      9.55579        -0.055240     -0.020143      0.064470
     10.26602      5.92709      9.53921        -0.018455      0.004305      0.061839
      5.12755      5.92709      9.53921         0.018455      0.004305      0.061839
      7.69679      5.92397      9.55579        -0.000000      0.050957      0.075111
      0.00000      0.00000     11.63511         0.000000     -0.023986     -0.039180
      6.40848      6.64966     11.64831        -0.139038     -0.236555     -0.182586
      8.98509      6.64966     11.64831         0.139038     -0.236555     -0.182586
      8.96302      2.22507     11.64831        -0.428964     -0.019928     -0.241288
      6.43055      2.22507     11.64831         0.428964     -0.019928     -0.241288
     10.25132      4.45649     11.64831        -0.118236      0.248645     -0.184267
      5.14225      4.45649     11.64831         0.118236      0.248645     -0.184267
      7.69679      4.44374     11.65790        -0.000000      0.040420     -0.069785
      3.84839      2.22187     11.77538         0.000000     -0.078014      1.200828
      3.11327      2.23603     13.52536         0.010006      0.009334      0.000891
      4.58351      2.23603     13.52536        -0.010006      0.009334      0.000891
    total drift:                                0.014014     -0.016262     -0.220569

  FREE ENERGIE OF THE ION-ELECTRON SYSTEM (eV)
  free  energy   TOTEN  =      -142.27218682 eV

  energy  without entropy=     -142.27218682  energy(sigma->0) =     -142.27218682

 stress matrix after NEB project (eV)
     -2.73955      0.00000      0.00000
      0.00000     -2.75919     -0.01660
      0.00000     -0.01660     -0.31608
  FORCES: max atom, RMS     0.013713    0.003146
  FORCE total and by dimension    0.019393    0.010006
  Stress total and by dimension    3.901119    2.759188
|           W    W    AA    RRRRR   N    N  II  N    N   GGGG   !!!           |
|           W    W   A  A   R    R  NN   N  II  NN   N  G    G  !!!           |
|           W    W  A    A  R    R  N N  N  II  N N  N  G       !!!           |
|           W WW W  AAAAAA  RRRRR   N  N N  II  N  N N  G  GGG   !            |
|           WW  WW  A    A  R   R   N   NN  II  N   NN  G    G                |
|           W    W  A    A  R    R  N    N  II  N    N   GGGG   !!!           |
|     Tetrahedron method does not include variations of the Fermi             |
|     occupations, so forces and stress will be inaccurate. We suggest        |
|     using a different smearing scheme ISMEAR = 1 or 2 for metals in         |
|     relaxations.                                                            |

 total charge

# of ion       s       p       d       tot
    1        0.450   0.284   9.187   9.921
    2        0.448   0.285   9.187   9.920
    3        0.448   0.285   9.187   9.920
    4        0.448   0.285   9.187   9.920
    5        0.449   0.284   9.186   9.919
    6        0.448   0.285   9.187   9.920
    7        0.447   0.285   9.187   9.920
    8        0.447   0.285   9.187   9.920
    9        0.448   0.284   9.188   9.920
   10        0.442   0.370   9.179   9.992
   11        0.440   0.367   9.182   9.989
   12        0.442   0.370   9.179   9.992
   13        0.441   0.367   9.182   9.989
   14        0.441   0.367   9.182   9.989
   15        0.439   0.371   9.178   9.988
   16        0.443   0.371   9.177   9.991
   17        0.439   0.371   9.178   9.989
   18        0.439   0.371   9.178   9.989
   19        0.441   0.370   9.182   9.992
   20        0.456   0.385   9.163  10.004
   21        0.456   0.385   9.163  10.004
   22        0.435   0.375   9.177   9.987
   23        0.457   0.384   9.165  10.006
   24        0.435   0.375   9.177   9.987
   25        0.443   0.369   9.182   9.994
   26        0.443   0.369   9.182   9.994
   27        0.436   0.373   9.179   9.988
   28        0.452   0.289   9.184   9.925
   29        0.468   0.300   9.177   9.945
   30        0.468   0.300   9.177   9.945
   31        0.469   0.289   9.187   9.945
   32        0.469   0.289   9.187   9.945
   33        0.466   0.300   9.179   9.945
   34        0.466   0.300   9.179   9.945
   35        0.452   0.292   9.182   9.926
   36        0.568   0.821   2.708   4.097
   37        1.613   3.242   0.000   4.855
   38        1.613   3.242   0.000   4.855
tot         19.508  18.939 324.029 362.476

 BZINTS: Fermi energy:   -0.553252;  401.000000 electrons
         Band energy:-0.144824E+04;  BLOECHL correction:   -0.059540