 vasp.6.2.0 18Jan21 (build Jun 12 2021 23:27:24) complex

 executed on             LinuxIFC date 2022.05.30  17:28:53

 INCAR:
   ISMEAR = -5
   SIGMA = 0.1
   ISPIN = 1
   EDIFF = 1.d-5
   EDIFFG = -0.01
   NSW = 0
   NELM = 150
   ENCUT = 500
   ISIF = 2
   IBRION = 2
   LREAL = Auto
   ALGO = Fast
   ICHARG = 11
   LORBIT = 10
   LCHARG = .F.
   LWAVE = .F.

 POTCAR:    PAW_PBE Ag 02Apr2005
 POTCAR:    PAW_PBE Hf 20Jan2003
 POTCAR:    PAW_PBE C 08Apr2002
 POTCAR:    PAW_PBE O 08Apr2002
 POTCAR:    PAW_PBE H 15Jun2001
|           W    W    AA    RRRRR   N    N  II  N    N   GGGG   !!!           |
|           W    W   A  A   R    R  NN   N  II  NN   N  G    G  !!!           |
|           W    W  A    A  R    R  N N  N  II  N N  N  G       !!!           |
|           W WW W  AAAAAA  RRRRR   N  N N  II  N  N N  G  GGG   !            |
|           WW  WW  A    A  R   R   N   NN  II  N   NN  G    G                |
|           W    W  A    A  R    R  N    N  II  N    N   GGGG   !!!           |
|     For optimal performance we recommend to set                             |
|       NCORE = 2 up to number-of-cores-per-socket                            |
|     This setting can greatly improve the performance of VASP for DFT.       |
|     The default, NCORE=1 might be grossly inefficient on modern             |
|     multi-core architectures or massively parallel machines. Do your        |
|     Unfortunately you need to use the default for GW and RPA                |
|     calculations (for HF NCORE is supported but not extensively tested      |
|     yet).                                                                   |

 POTCAR:    PAW_PBE Ag 02Apr2005
   VRHFIN =Ag : s1 d10

   TITEL  = PAW_PBE Ag 02Apr2005
   POMASS =  107.868; ZVAL   =   11.000    mass and valenz
   ENMAX  =  249.844; ENMIN  =  187.383 eV

 POTCAR:    PAW_PBE Hf 20Jan2003
   VRHFIN =Hf: 6s5d

   TITEL  = PAW_PBE Hf 20Jan2003
   POMASS =  178.490; ZVAL   =    4.000    mass and valenz
   ENMAX  =  220.334; ENMIN  =  165.250 eV

 POTCAR:    PAW_PBE C 08Apr2002
   VRHFIN =C: s2p2

[...]

 POTCAR:    PAW_PBE O 08Apr2002
   VRHFIN =O: s2p4

   TITEL  = PAW_PBE O 08Apr2002
   POMASS =   16.000; ZVAL   =    6.000    mass and valenz
   ENMAX  =  400.000; ENMIN  =  300.000 eV

 POTCAR:    PAW_PBE H 15Jun2001
   VRHFIN =H: ultrasoft test

   TITEL  = PAW_PBE H 15Jun2001
   POMASS =    1.000; ZVAL   =    1.000    mass and valenz
   ENMAX  =  250.000; ENMIN  =  200.000 eV

 Optimization of the real space projectors (new method)

 maximal supplied QI-value         = 15.12
 optimisation between [QCUT,QGAM] = [ 11.34, 22.83] = [ 36.00,145.93] Ry
 Optimized for a Real-space Cutoff    1.43 Angstroem

   l    n(q)    QCUT    max X(q) W(low)/X(q) W(high)/X(q)  e(spline)
   2      9    11.338    53.897    0.16E-03    0.20E-03    0.28E-06
   2      9    11.338    52.416    0.16E-03    0.20E-03    0.29E-06
   0     10    11.338   122.045    0.31E-04    0.76E-04    0.15E-06
   0     10    11.338    73.629    0.30E-04    0.72E-04    0.15E-06
   1      9    11.338    15.255    0.20E-03    0.19E-04    0.17E-06
   1      9    11.338     9.562    0.16E-03    0.15E-04    0.14E-06
 Optimization of the real space projectors (new method)

[...]

   l    n(q)    QCUT    max X(q) W(low)/X(q) W(high)/X(q)  e(spline)
   0      7    11.387    20.381    0.39E-03    0.13E-02    0.15E-06
   0      7    11.387    15.268    0.42E-03    0.14E-02    0.17E-06
   1      6    11.387     5.964    0.41E-03    0.11E-02    0.17E-06
   1      6    11.387     5.382    0.39E-03    0.87E-03    0.15E-06
 Optimization of the real space projectors (new method)

 maximal supplied QI-value         = 34.20
 optimisation between [QCUT,QGAM] = [ 11.29, 22.57] = [ 35.68,142.71] Ry
 Optimized for a Real-space Cutoff    1.16 Angstroem

   l    n(q)    QCUT    max X(q) W(low)/X(q) W(high)/X(q)  e(spline)
   0      8    11.287    19.460    0.40E-03    0.73E-03    0.16E-06
   0      8    11.287    12.209    0.38E-03    0.70E-03    0.15E-06
   1      7    11.287     4.655    0.22E-03    0.25E-04    0.22E-06
  PAW_PBE Ag 02Apr2005                  :
  PAW_PBE Hf 20Jan2003                  :
  PAW_PBE C 08Apr2002                   :
  PAW_PBE O 08Apr2002                   :
  PAW_PBE H 15Jun2001                   :

 POSCAR: Ag-Hf-COH
  positions in direct lattice
  velocities in cartesian coordinates
 exchange correlation table for  LEXCH =        8
   RHO(1)=    0.500       N(1)  =     2000
   RHO(2)=  100.500       N(2)  =     4000

 VTST: version 3.2, (02/03/18)

 CHAIN: initializing optimizer

 OPT: Using VASP Conjugate-Gradient optimizer
 CHAIN: Read ICHAIN            0

 POSCAR: Ag-Hf-COH
  positions in direct lattice
  velocities in cartesian coordinates

 ion  position               nearest neighbor table
   1  0.000  0.000  0.199-   2 2.93   8 2.93   7 2.93   6 2.93   4 2.93  12 2.93  16 2.93  10 2.93
                             3 2.93
   2  0.333  0.000  0.199-   1 2.93   8 2.93   9 2.93   3 2.93   4 2.93   5 2.93  10 2.93  17 2.93
                            11 2.93
   3  0.667  0.000  0.199-   9 2.93   2 2.93   5 2.93  11 2.93   7 2.93  18 2.93   1 2.93   6 2.93
                            12 2.93
   4  0.000  0.333  0.199-   5 2.93   6 2.93   2 2.93   1 2.93   7 2.93  13 2.93  15 2.93   9 2.93
                            10 2.93
   5  0.333  0.333  0.199-   4 2.93   3 2.93   7 2.93   2 2.93   8 2.93  14 2.93  13 2.93  11 2.93
                             6 2.93
   6  0.667  0.333  0.199-   4 2.93   9 2.93   1 2.93  15 2.93   8 2.93  12 2.93   3 2.93   5 2.93
                            14 2.93
   7  0.000  0.667  0.199-   8 2.93   1 2.93   5 2.93   3 2.93   4 2.93  16 2.93  18 2.93  13 2.93
                             9 2.93
   8  0.333  0.667  0.199-   7 2.93   1 2.93   2 2.93   9 2.93   5 2.93  16 2.93   6 2.93  17 2.93
                            14 2.93
   9  0.667  0.667  0.199-   3 2.93   2 2.93   8 2.93   6 2.93  17 2.93   4 2.93  15 2.93   7 2.93
                            18 2.93
  10  0.111  0.111  0.289-  20 2.90  19 2.92  26 2.92  12 2.93  16 2.93  15 2.93  17 2.93  13 2.93
                            11 2.93   2 2.93   1 2.93   4 2.93
  11  0.444  0.111  0.289-  21 2.90  20 2.90  14 2.93  17 2.93  18 2.93   3 2.93  12 2.93  13 2.93
                            10 2.93   5 2.93   2 2.93  27 2.93
  12  0.778  0.111  0.289-  21 2.90  25 2.92  19 2.92  10 2.93  16 2.93  18 2.93  15 2.93  11 2.93
                             1 2.93  14 2.93   6 2.93   3 2.93
  13  0.111  0.444  0.289-  20 2.90  23 2.90  15 2.93  14 2.93  18 2.93  10 2.93  11 2.93  16 2.93
                             4 2.93   5 2.93   7 2.93  22 2.93
  14  0.444  0.444  0.289-  23 2.90  21 2.90  13 2.93  11 2.93  16 2.93   5 2.93  12 2.93  17 2.93
                             8 2.93  15 2.93   6 2.93  24 2.93
  15  0.778  0.444  0.289-  19 2.92  24 2.93  22 2.93  13 2.93  10 2.93  12 2.93  17 2.93  18 2.93
                             4 2.93   6 2.93   9 2.93  14 2.93
  16  0.111  0.778  0.289-  23 2.90  26 2.92  25 2.92  18 2.93  12 2.93  10 2.93  14 2.93  17 2.93
                            13 2.93   7 2.93   8 2.93   1 2.93
  17  0.444  0.778  0.289-  26 2.92  27 2.93  24 2.93  11 2.93  10 2.93   9 2.93  18 2.93  15 2.93
                            16 2.93   2 2.93  14 2.93   8 2.93
  18  0.778  0.778  0.289-  25 2.92  22 2.93  27 2.93  16 2.93  12 2.93  13 2.93  11 2.93  17 2.93
                            15 2.93   7 2.93   3 2.93   9 2.93
  19  0.889  0.222  0.378-  10 2.92  12 2.92  15 2.92  20 2.93  21 2.93  26 2.93  25 2.93  24 2.93
                            22 2.93  28 2.94  32 2.98  31 2.98
  20  0.222  0.222  0.377-  36 2.86  10 2.90  13 2.90  11 2.90  19 2.93  26 2.93  27 2.93  22 2.93
                            21 2.94  23 2.94  31 2.97  29 2.97
  21  0.556  0.222  0.377-  36 2.86  12 2.90  11 2.90  14 2.90  25 2.93  19 2.93  27 2.93  24 2.93
                            20 2.94  23 2.94  30 2.97  32 2.97
  22  0.889  0.556  0.379-  24 2.93  27 2.93  18 2.93  15 2.93  25 2.93  19 2.93  13 2.93  23 2.93
                            20 2.93  35 2.94  33 2.96  31 2.96
  23  0.222  0.556  0.377-  36 2.86  16 2.90  14 2.90  13 2.90  26 2.93  25 2.93  22 2.93  24 2.93
                            21 2.94  20 2.94  34 2.97  33 2.97
  24  0.556  0.556  0.379-  27 2.93  22 2.93  15 2.93  17 2.93  19 2.93  26 2.93  14 2.93  23 2.93
                            21 2.93  35 2.94  32 2.96  34 2.96
  25  0.889  0.889  0.378-  16 2.92  12 2.92  18 2.92  23 2.93  21 2.93  26 2.93  19 2.93  22 2.93
                            27 2.93  28 2.94  33 2.98  30 2.98
  26  0.222  0.889  0.378-  16 2.92  10 2.92  17 2.92  23 2.93  20 2.93  25 2.93  19 2.93  27 2.93
                            24 2.93  28 2.94  34 2.98  29 2.98
  27  0.556  0.889  0.379-  24 2.93  22 2.93  17 2.93  18 2.93  26 2.93  25 2.93  11 2.93  20 2.93
                            21 2.93  35 2.94  29 2.96  30 2.96
  28  0.000  0.000  0.469-  26 2.94  25 2.94  19 2.94  29 2.94  34 2.94  33 2.94  32 2.94  31 2.94
                            30 2.94
  29  0.333  0.003  0.470-  30 2.90  31 2.91  36 2.91  35 2.94  28 2.94  27 2.96  20 2.97  26 2.98
                            34 2.98
  30  0.664  0.003  0.470-  29 2.90  32 2.91  36 2.91  35 2.94  28 2.94  27 2.96  21 2.97  25 2.98
                            33 2.98
  31  0.003  0.333  0.470-  33 2.90  29 2.91  36 2.91  35 2.94  28 2.94  22 2.96  20 2.97  19 2.98
                            32 2.98
  32  0.664  0.333  0.470-  34 2.90  30 2.91  36 2.91  35 2.94  28 2.94  24 2.96  21 2.97  19 2.98
                            31 2.98
  33  0.003  0.664  0.470-  31 2.90  34 2.91  36 2.91  35 2.94  28 2.94  22 2.96  23 2.97  25 2.98
                            30 2.98
  34  0.333  0.664  0.470-  32 2.90  33 2.91  36 2.91  35 2.94  28 2.94  24 2.96  23 2.97  26 2.98
                            29 2.98
  35  0.667  0.667  0.469-  30 2.94  29 2.94  32 2.94  34 2.94  31 2.94  33 2.94  24 2.94  27 2.94
                            22 2.94
  36  0.333  0.333  0.464-  37 2.03  21 2.86  20 2.86  23 2.86  31 2.91  33 2.91  30 2.91  29 2.91
                            34 2.91  32 2.91
  37  0.333  0.333  0.540-  38 1.27  36 2.03
  38  0.333  0.333  0.588-  39 0.96  37 1.27
  39  0.333  0.333  0.624-  38 0.96

  LATTYP: Found a hexagonal cell.
 ALAT       =     8.7913665772
 C/A-ratio  =     3.0233954145

  Lattice vectors:

 A1 = (  -4.3956832886,  -7.6135467898,   0.0000000000)
 A2 = (   8.7913665771,   0.0000000000,   0.0000000000)
 A3 = (   0.0000000000,   0.0000000000,  26.5797773968)

Analysis of symmetry for initial positions (statically):
 Subroutine PRICEL returns:
 Original cell was already a primitive cell.

 Routine SETGRP: Setting up the symmetry group for a
 hexagonal supercell.

 Subroutine GETGRP returns: Found  6 space group operations
 (whereof  6 operations were pure point group operations)
 out of a pool of 24 trial point group operations.

The static configuration has the point symmetry C_3v.

Analysis of symmetry for dynamics (positions and initial velocities):
 Subroutine PRICEL returns:
 Original cell was already a primitive cell.

[...]

[...]
     41      -4.8657      2.00000
     42      -4.8236      2.00000
     43      -4.7963      2.00000
     44      -4.7918      2.00000
     45      -4.7822      2.00000
     46      -4.7722      2.00000
     47      -4.7592      2.00000
     48      -4.6664      2.00000
     49      -4.6453      2.00000
     50      -4.6326      2.00000
     51      -4.6282      2.00000
     52      -4.6161      2.00000
     53      -4.6128      2.00000
     54      -4.6093      2.00000
     55      -4.6049      2.00000
     56      -4.5933      2.00000
     57      -4.5834      2.00000
     58      -4.5248      2.00000
     59      -4.5172      2.00000
     60      -4.5071      2.00000
[...]
    238       5.4781      0.00000
    239       5.4842      0.00000
    240       5.4994      0.00000
    241       5.6465      0.00000
    242       5.7314      0.00000
    243       5.8102      0.00000
    244       5.8251      0.00000
    245       5.9064      0.00000
    246       5.9129      0.00000
    247       5.9383      0.00000
    248       5.9975      0.00000
    249       6.1528      0.00000
    250       6.2351      0.00000
    251       6.7063      0.00000
    252       6.8208      0.00000

 soft charge-density along one line, spin component           1
         0         1         2         3         4         5         6         7         8         9
 total charge-density along one line

------------------------ aborting loop because EDIFF is reached ----------------------------------------

 total charge

# of ion       s       p       d       tot
    1        0.419   0.201   9.178   9.798
    2        0.414   0.204   9.177   9.796
    3        0.414   0.204   9.177   9.796
    4        0.414   0.204   9.177   9.796
    5        0.423   0.202   9.174   9.799
    6        0.414   0.204   9.177   9.796
    7        0.414   0.204   9.177   9.796
    8        0.414   0.204   9.177   9.796
    9        0.416   0.202   9.178   9.796
   10        0.409   0.270   9.162   9.841
   11        0.409   0.266   9.168   9.843
   12        0.409   0.270   9.162   9.841
   13        0.409   0.266   9.168   9.843
   14        0.409   0.266   9.168   9.843
   15        0.403   0.269   9.163   9.835
   16        0.409   0.270   9.162   9.841
   17        0.403   0.269   9.163   9.835
   18        0.403   0.269   9.163   9.835
   19        0.401   0.266   9.163   9.831
   20        0.442   0.296   9.138   9.875
   21        0.442   0.296   9.138   9.875
   22        0.395   0.270   9.166   9.831
   23        0.442   0.296   9.138   9.875
   24        0.395   0.270   9.166   9.831
   25        0.401   0.266   9.163   9.831
   26        0.401   0.266   9.163   9.831
   27        0.395   0.270   9.166   9.831
   28        0.409   0.203   9.176   9.788
   29        0.441   0.219   9.154   9.814
   30        0.441   0.219   9.154   9.814
   31        0.441   0.219   9.154   9.814
   32        0.441   0.219   9.154   9.814
   33        0.441   0.219   9.154   9.814
   34        0.441   0.219   9.154   9.814
   35        0.409   0.201   9.177   9.788
   36        0.551   0.560   2.130   3.241
   37        0.936   1.397   0.000   2.333
   38        1.522   3.757   0.000   5.279
   39        0.569   0.138   0.000   0.707
tot         18.169  14.308 322.877 355.354

  FORCE on cell =-STRESS in cart. coord.  units (eV):
  Direction    XX          YY          ZZ          XY          YZ          ZX
  Alpha Z   637.42089   637.42089   637.42089
  Ewald  181081.71536181081.71527************     0.00000    -0.00001     0.00003
  Hartree191066.16195191066.16190************    -0.00000    -0.00000     0.00000
  E(xc)   -2092.27265 -2092.27273 -2098.67276     0.00007     0.00000     0.00000
  Local  ************************382829.35175     0.00068    -0.00006    -0.00017
  n-local  -345.46408  -329.43266  -339.92282     9.39993    -0.45189     0.49854
  augment  3226.94803  3226.94826  3238.70051    -0.00020    -0.00001    -0.00003
  Kinetic  5011.65135  5012.58599  4995.15908     3.91482     0.79356    -0.19131
  Fock        0.00000     0.00000     0.00000     0.00000     0.00000     0.00000
  Total      -7.55734    -7.55734     0.44034    -0.00000     0.00000    -0.00000
  in kB      -6.80589    -6.80589     0.39655    -0.00000     0.00000    -0.00000

 VOLUME and BASIS-vectors are now :
  energy-cutoff  :      500.00
  volume of cell :     1779.08
      direct lattice vectors                 reciprocal lattice vectors
     8.791366577  0.000000000  0.000000000     0.113747958 -0.065672414  0.000000000
     4.395683289  7.613546790  0.000000000     0.000000000  0.131344829  0.000000000
     0.000000000  0.000000000 26.579777397     0.000000000  0.000000000  0.037622587

  length of vectors
     8.791366577  8.791366577 26.579777397     0.131344829  0.131344829  0.037622587

 FORCES acting on ions
    electron-ion (+dipol)            ewald-force                    non-local-force                 convergence-correction
   0.456E-04 -.284E-04 0.281E+04   -.953E-04 0.592E-04 -.281E+04   -.168E-17 0.250E-17 -.188E+01   -.833E-04 -.155E-03 0.724E-01
   -.384E+00 -.218E+00 0.281E+04   0.312E+00 0.956E-01 -.281E+04   0.965E-01 0.202E+00 -.152E+01   -.212E-01 -.789E-01 0.127E+00
   0.384E+00 -.218E+00 0.281E+04   -.312E+00 0.956E-01 -.281E+04   -.965E-01 0.202E+00 -.152E+01   0.207E-01 -.770E-01 0.128E+00
   -.381E+00 -.224E+00 0.281E+04   0.239E+00 0.223E+00 -.281E+04   0.223E+00 -.175E-01 -.152E+01   -.787E-01 0.212E-01 0.127E+00
   -.450E-05 -.182E-04 0.281E+04   0.980E-04 -.199E-05 -.281E+04   0.191E-17 -.222E-17 -.903E+00   0.618E-02 0.378E-02 0.273E+00
   0.381E+00 -.224E+00 0.281E+04   -.239E+00 0.223E+00 -.281E+04   -.223E+00 -.175E-01 -.152E+01   0.774E-01 0.222E-01 0.128E+00
   0.344E-02 0.442E+00 0.281E+04   -.735E-01 -.318E+00 -.281E+04   0.127E+00 -.185E+00 -.152E+01   -.559E-01 0.569E-01 0.128E+00
   -.340E-02 0.442E+00 0.281E+04   0.735E-01 -.318E+00 -.281E+04   -.127E+00 -.185E+00 -.152E+01   0.575E-01 0.560E-01 0.128E+00
   0.373E-04 -.126E-04 0.281E+04   0.792E-04 -.642E-04 -.281E+04   -.189E-17 -.644E-18 -.178E+01   -.663E-02 -.341E-02 0.845E-01
   -.878E+00 -.507E+00 0.948E+03   0.114E+01 0.655E+00 -.947E+03   -.261E+00 -.151E+00 -.676E+00   -.407E-01 -.235E-01 0.891E-01
   -.279E-04 -.122E+01 0.941E+03   0.400E-04 0.120E+01 -.941E+03   0.519E-12 0.790E-01 -.159E+00   0.617E-02 -.801E-01 0.627E-01
   0.878E+00 -.507E+00 0.948E+03   -.114E+01 0.656E+00 -.947E+03   0.261E+00 -.151E+00 -.676E+00   0.394E-01 -.228E-01 0.882E-01
   -.106E+01 0.611E+00 0.941E+03   0.104E+01 -.601E+00 -.941E+03   0.684E-01 -.395E-01 -.159E+00   -.664E-01 0.454E-01 0.627E-01
   0.106E+01 0.611E+00 0.941E+03   -.104E+01 -.601E+00 -.941E+03   -.684E-01 -.395E-01 -.159E+00   0.767E-01 0.445E-01 0.610E-01
   0.143E-04 -.115E+01 0.946E+03   -.107E-03 0.105E+01 -.945E+03   0.513E-12 0.781E-01 -.757E+00   -.126E-02 0.985E-02 0.656E-01
   -.722E-05 0.101E+01 0.948E+03   0.206E-04 -.131E+01 -.947E+03   0.198E-11 0.301E+00 -.676E+00   -.961E-04 0.455E-01 0.882E-01
   -.100E+01 0.577E+00 0.946E+03   0.910E+00 -.526E+00 -.945E+03   0.676E-01 -.390E-01 -.757E+00   0.787E-02 -.603E-02 0.656E-01
   0.100E+01 0.577E+00 0.946E+03   -.910E+00 -.526E+00 -.945E+03   -.676E-01 -.390E-01 -.757E+00   -.770E-02 -.447E-02 0.664E-01
   0.379E-04 -.642E+01 -.920E+03   -.125E-03 0.650E+01 0.919E+03   0.290E-12 0.441E-01 0.865E+00   0.109E-02 -.878E-01 -.212E+00
   -.373E+02 -.215E+02 -.950E+03   0.383E+02 0.221E+02 0.951E+03   -.951E+00 -.549E+00 -.749E+00   -.267E+00 -.154E+00 -.369E+00
   0.373E+02 -.215E+02 -.950E+03   -.383E+02 0.221E+02 0.951E+03   0.951E+00 -.549E+00 -.749E+00   0.256E+00 -.155E+00 -.370E+00
   -.163E+02 0.942E+01 -.927E+03   0.163E+02 -.939E+01 0.927E+03   0.141E+00 -.815E-01 0.348E+00   -.598E-01 0.349E-01 -.269E+00
   -.497E-04 0.430E+02 -.950E+03   0.352E-04 -.443E+02 0.951E+03   0.721E-11 0.110E+01 -.749E+00   -.555E-02 0.300E+00 -.370E+00
   0.163E+02 0.942E+01 -.927E+03   -.163E+02 -.939E+01 0.927E+03   -.141E+00 -.815E-01 0.348E+00   0.614E-01 0.356E-01 -.269E+00
   0.556E+01 0.321E+01 -.920E+03   -.563E+01 -.325E+01 0.919E+03   -.382E-01 -.221E-01 0.865E+00   0.759E-01 0.437E-01 -.213E+00
   -.556E+01 0.321E+01 -.920E+03   0.563E+01 -.325E+01 0.919E+03   0.382E-01 -.221E-01 0.865E+00   -.758E-01 0.447E-01 -.212E+00
   0.182E-04 -.188E+02 -.927E+03   0.110E-03 0.188E+02 0.927E+03   0.107E-11 0.163E+00 0.348E+00   -.311E-03 -.693E-01 -.269E+00
   0.541E-04 -.357E-04 -.271E+04   -.115E-03 0.769E-04 0.271E+04   -.110E-18 -.451E-17 0.172E+01   0.258E-03 0.143E-04 -.289E+00
   -.157E+02 -.318E+02 -.270E+04   0.165E+02 0.331E+02 0.270E+04   -.722E+00 -.118E+01 0.115E+01   -.102E+00 -.162E+00 -.329E+00
   0.157E+02 -.318E+02 -.270E+04   -.165E+02 0.331E+02 0.270E+04   0.722E+00 -.118E+01 0.115E+01   0.101E+00 -.161E+00 -.328E+00
   -.354E+02 0.233E+01 -.270E+04   0.369E+02 -.230E+01 0.270E+04   -.138E+01 -.363E-01 0.115E+01   -.191E+00 -.728E-02 -.328E+00
   0.354E+02 0.233E+01 -.270E+04   -.369E+02 -.230E+01 0.270E+04   0.138E+01 -.363E-01 0.115E+01   0.191E+00 -.635E-02 -.327E+00
   -.197E+02 0.295E+02 -.270E+04   0.204E+02 -.308E+02 0.270E+04   -.659E+00 0.121E+01 0.115E+01   -.885E-01 0.169E+00 -.328E+00
   0.197E+02 0.295E+02 -.270E+04   -.204E+02 -.308E+02 0.270E+04   0.659E+00 0.121E+01 0.115E+01   0.898E-01 0.169E+00 -.328E+00
   0.258E-04 -.119E-04 -.272E+04   0.103E-03 -.655E-04 0.272E+04   -.358E-17 -.534E-17 0.180E+01   -.633E-02 -.323E-02 -.259E+00
   -.114E-04 0.226E-05 -.889E+03   0.378E-04 0.404E-05 0.893E+03   0.630E-18 0.312E-18 -.328E+01   0.127E-03 0.804E-04 -.107E+00
   0.623E-06 -.731E-04 -.953E+03   0.143E-04 0.147E-06 0.931E+03   -.176E-17 0.257E-18 0.221E+02   0.968E-03 0.594E-03 0.202E-01
   0.240E-03 -.909E-04 -.162E+04   0.678E-05 0.608E-08 0.163E+04   0.991E-18 0.430E-19 -.287E+01   0.376E-02 0.231E-02 0.124E+00
   0.684E-05 -.142E-04 -.315E+03   0.469E-06 -.154E-08 0.324E+03   -.244E-19 -.479E-21 -.872E+01   0.199E-03 0.122E-03 0.250E-01
   0.600E-03 -.852E-03 0.261E+01   -.184E-12 -.147E-12 0.534E-11   0.440E-15 -.473E-17 0.629E+00   -.115E-02 0.270E-02 -.316E+01

 POSITION                                       TOTAL-FORCE (eV/Angst)
      0.00000      0.00000      5.28219        -0.000000     -0.000000     -0.034748
      2.93046      0.00000      5.28219         0.003969      0.001859      0.019020
      5.86091      0.00000      5.28219        -0.003969      0.001859      0.019020
      1.46523      2.53785      5.28219         0.003595      0.002508      0.019020
      4.39568      2.53785      5.28219        -0.000000     -0.000000     -0.022627
      7.32614      2.53785      5.28219        -0.003595      0.002508      0.019020
      2.93046      5.07570      5.28219        -0.000375     -0.004367      0.019020
      5.86091      5.07570      5.28219         0.000375     -0.004367      0.019020
      8.79137      5.07570      5.28219        -0.000000     -0.000000      0.002678
      1.46523      0.84595      7.67490        -0.043173     -0.024926     -0.058848
      4.39568      0.84595      7.67490        -0.000000     -0.024529     -0.063254
      7.32614      0.84595      7.67490         0.043173     -0.024926     -0.058848
      2.93046      3.38380      7.67490        -0.021243      0.012265     -0.063254
      5.86091      3.38380      7.67490         0.021243      0.012265     -0.063254
      8.79137      3.38380      7.67490        -0.000000     -0.016226      0.008395
      4.39568      5.92165      7.67490         0.000000      0.049852     -0.058848
      7.32614      5.92165      7.67490        -0.014052      0.008113      0.008395
     10.25659      5.92165      7.67490         0.014052      0.008113      0.008395
      8.79137      1.69178     10.05827         0.000000      0.032860      0.091921
      2.92613      1.68940     10.03306        -0.130742     -0.075484     -0.124638
      5.86523      1.68940     10.03306         0.130742     -0.075484     -0.124638
     10.25456      4.23092     10.06776         0.017175     -0.009916      0.062625
      4.39568      4.23474     10.03306         0.000000      0.150967     -0.124638
      7.32817      4.23092     10.06776        -0.017175     -0.009916      0.062625
     11.72193      6.76766     10.05827        -0.028457     -0.016430      0.091921
      5.86080      6.76766     10.05827         0.028457     -0.016430      0.091921
      8.79137      6.76525     10.06776         0.000000      0.019833      0.062625
      0.00000      0.00000     12.45716        -0.000000     -0.000000     -0.046435
      2.94326      0.02074     12.49530        -0.049052     -0.063989      0.034465
      5.84810      0.02074     12.49530         0.049052     -0.063989      0.034465
      1.48959      2.53857     12.49530        -0.079942     -0.010486      0.034465
      7.30177      2.53857     12.49530         0.079942     -0.010486      0.034465
      2.94201      5.05424     12.49530        -0.030890      0.074475      0.034465
      5.84935      5.05424     12.49530         0.030890      0.074475      0.034465
      8.79137      5.07570     12.47846        -0.000000      0.000000     -0.059388
      4.39568      2.53785     12.33403        -0.000000      0.000000      0.151552
      4.39568      2.53785     14.35972        -0.000000     -0.000000     -0.106630
      4.39568      2.53785     15.63146        -0.000000      0.000000      0.057331
      4.39568      2.53785     16.58726        -0.000000     -0.000000     -0.011247
    total drift:                               -0.000547      0.001845      0.080185

  FREE ENERGIE OF THE ION-ELECTRON SYSTEM (eV)
  free  energy   TOTEN  =      -115.46735585 eV

  energy  without entropy=     -115.46735585  energy(sigma->0) =     -115.46735585

 stress matrix after NEB project (eV)
     -7.55734     -0.00000     -0.00000
     -0.00000     -7.55734     -0.00000
     -0.00000      0.00000      0.44034
  FORCES: max atom, RMS     0.106630    0.019469
  FORCE total and by dimension    0.121586    0.106630
  Stress total and by dimension   10.696758    7.557339
|           W    W    AA    RRRRR   N    N  II  N    N   GGGG   !!!           |
|           W    W   A  A   R    R  NN   N  II  NN   N  G    G  !!!           |
|           W    W  A    A  R    R  N N  N  II  N N  N  G       !!!           |
|           W WW W  AAAAAA  RRRRR   N  N N  II  N  N N  G  GGG   !            |
|           WW  WW  A    A  R   R   N   NN  II  N   NN  G    G                |
|           W    W  A    A  R    R  N    N  II  N    N   GGGG   !!!           |
|     Tetrahedron method does not include variations of the Fermi             |
|     occupations, so forces and stress will be inaccurate. We suggest        |
|     using a different smearing scheme ISMEAR = 1 or 2 for metals in         |
|     relaxations.                                                            |

 total charge

# of ion       s       p       d       tot
    1        0.419   0.201   9.178   9.798
    2        0.414   0.204   9.177   9.796
    3        0.414   0.204   9.177   9.796
    4        0.414   0.204   9.177   9.796
    5        0.423   0.202   9.174   9.799
    6        0.414   0.204   9.177   9.796
    7        0.414   0.204   9.177   9.796
    8        0.414   0.204   9.177   9.796
    9        0.416   0.202   9.178   9.796
   10        0.409   0.270   9.162   9.841
   11        0.409   0.266   9.168   9.843
   12        0.409   0.270   9.162   9.841
   13        0.409   0.266   9.168   9.843
   14        0.409   0.266   9.168   9.843
   15        0.403   0.269   9.163   9.835
   16        0.409   0.270   9.162   9.841
   17        0.403   0.269   9.163   9.835
   18        0.403   0.269   9.163   9.835
   19        0.401   0.266   9.163   9.831
   20        0.442   0.296   9.138   9.875
   21        0.442   0.296   9.138   9.875
   22        0.395   0.270   9.166   9.831
   23        0.442   0.296   9.138   9.875
   24        0.395   0.270   9.166   9.831
   25        0.401   0.266   9.163   9.831
   26        0.401   0.266   9.163   9.831
   27        0.395   0.270   9.166   9.831
   28        0.409   0.203   9.176   9.788
   29        0.441   0.219   9.154   9.814
   30        0.441   0.219   9.154   9.814
   31        0.441   0.219   9.154   9.814
   32        0.441   0.219   9.154   9.814
   33        0.441   0.219   9.154   9.814
   34        0.441   0.219   9.154   9.814
   35        0.409   0.201   9.177   9.788
   36        0.551   0.560   2.130   3.241
   37        0.936   1.397   0.000   2.333
   38        1.522   3.757   0.000   5.279
   39        0.569   0.138   0.000   0.707
tot         18.169  14.308 322.877 355.354

 BZINTS: Fermi energy:    0.415233;  400.000000 electrons
         Band energy:-0.155877E+04;  BLOECHL correction:   -0.037216