 vasp.6.2.0 18Jan21 (build Jun 12 2021 23:27:24) complex

 executed on             LinuxIFC date 2022.05.30  16:13:13

 INCAR:
   ISMEAR = -5
   SIGMA = 0.1
   ISPIN = 1
   EDIFF = 1.d-5
   EDIFFG = -0.01
   NSW = 0
   NELM = 150
   ENCUT = 500
   ISIF = 2
   IBRION = 2
   LREAL = Auto
   ALGO = Fast
   ICHARG = 11
   LORBIT = 10
   LCHARG = .F.
   LWAVE = .F.

 POTCAR:    PAW_PBE Au 04Oct2007
 POTCAR:    PAW_PBE Nb_sv 25May2007
 POTCAR:    PAW_PBE C 08Apr2002
|           W    W    AA    RRRRR   N    N  II  N    N   GGGG   !!!           |
|           W    W   A  A   R    R  NN   N  II  NN   N  G    G  !!!           |
|           W    W  A    A  R    R  N N  N  II  N N  N  G       !!!           |
|           W WW W  AAAAAA  RRRRR   N  N N  II  N  N N  G  GGG   !            |
|           WW  WW  A    A  R   R   N   NN  II  N   NN  G    G                |
|           W    W  A    A  R    R  N    N  II  N    N   GGGG   !!!           |
|     For optimal performance we recommend to set                             |
|       NCORE = 2 up to number-of-cores-per-socket                            |
|     This setting can greatly improve the performance of VASP for DFT.       |
|     The default, NCORE=1 might be grossly inefficient on modern             |
|     multi-core architectures or massively parallel machines. Do your        |
|     Unfortunately you need to use the default for GW and RPA                |
|     calculations (for HF NCORE is supported but not extensively tested      |
|     yet).                                                                   |

 POTCAR:    PAW_PBE Au 04Oct2007
   VRHFIN =Au: s1d10

   TITEL  = PAW_PBE Au 04Oct2007
   POMASS =  196.966; ZVAL   =   11.000    mass and valenz
   ENMAX  =  229.943; ENMIN  =  172.457 eV

 POTCAR:    PAW_PBE Nb_sv 25May2007
   VRHFIN =Nb: 4p5s4d

   TITEL  = PAW_PBE Nb_sv 25May2007
   POMASS =   92.910; ZVAL   =   13.000    mass and valenz
   ENMAX  =  293.235; ENMIN  =  219.927 eV

 POTCAR:    PAW_PBE C 08Apr2002
   VRHFIN =C: s2p2

   TITEL  = PAW_PBE C 08Apr2002
   POMASS =   12.011; ZVAL   =    4.000    mass and valenz
   ENMAX  =  400.000; ENMIN  =  300.000 eV

 Optimization of the real space projectors (new method)

 maximal supplied QI-value         = 15.12
 optimisation between [QCUT,QGAM] = [ 11.34, 22.83] = [ 36.00,145.93] Ry
 Optimized for a Real-space Cutoff    1.39 Angstroem

   l    n(q)    QCUT    max X(q) W(low)/X(q) W(high)/X(q)  e(spline)
   2      9    11.338    60.898    0.39E-03    0.42E-03    0.21E-06
   2      9    11.338    58.894    0.40E-03    0.42E-03    0.22E-06
   0      9    11.338   109.617    0.13E-03    0.20E-04    0.13E-06
   0      9    11.338    75.026    0.13E-03    0.20E-04    0.13E-06
   1      9    11.338    16.344    0.33E-04    0.24E-03    0.18E-06
   1      9    11.338    10.160    0.26E-04    0.19E-03    0.15E-06
 Optimization of the real space projectors (new method)

[...]

   l    n(q)    QCUT    max X(q) W(low)/X(q) W(high)/X(q)  e(spline)
   0     11    11.450    10.201    0.21E-04    0.96E-05    0.78E-07
   0     11    11.450     8.174    0.31E-04    0.18E-04    0.14E-06
   1     10    11.450     3.488    0.27E-04    0.12E-04    0.96E-07
   1     10    11.450     4.917    0.11E-03    0.11E-03    0.37E-06
   2     10    11.450   153.744    0.37E-03    0.81E-03    0.10E-05
   2     10    11.450   126.342    0.37E-03    0.81E-03    0.10E-05
 Optimization of the real space projectors (new method)

 maximal supplied QI-value         = 25.13
 optimisation between [QCUT,QGAM] = [ 11.31, 22.87] = [ 35.82,146.48] Ry
 Optimized for a Real-space Cutoff    1.00 Angstroem

   l    n(q)    QCUT    max X(q) W(low)/X(q) W(high)/X(q)  e(spline)
   0      7    11.310   115.676    0.43E-03    0.13E-02    0.19E-06
   0      7    11.310    87.132    0.43E-03    0.13E-02    0.18E-06
   1      6    11.310     4.429    0.42E-03    0.74E-03    0.11E-06
   1      6    11.310     2.733    0.34E-03    0.55E-03    0.92E-07
  PAW_PBE Au 04Oct2007                  :
  PAW_PBE Nb_sv 25May2007               :
  PAW_PBE C 08Apr2002                   :

 POSCAR: Au-Nb-C
  positions in direct lattice
  velocities in cartesian coordinates
 exchange correlation table for  LEXCH =        8
   RHO(1)=    0.500       N(1)  =     2000
   RHO(2)=  100.500       N(2)  =     4000

 VTST: version 3.2, (02/03/18)

 CHAIN: initializing optimizer

 OPT: Using VASP Conjugate-Gradient optimizer
 CHAIN: Read ICHAIN            0

 POSCAR: Au-Nb-C
  positions in direct lattice
  velocities in cartesian coordinates

 ion  position               nearest neighbor table
   1  0.000  0.000  0.217-  16 2.94  12 2.94   6 2.94   8 2.94   7 2.94   3 2.94  10 2.94   4 2.94
                             2 2.94
   2  0.333  0.000  0.217-   9 2.94  11 2.94  17 2.94  10 2.94   8 2.94   4 2.94   5 2.94   1 2.94
                             3 2.94
   3  0.667  0.000  0.217-   7 2.94  18 2.94  12 2.94   1 2.94  11 2.94   5 2.94   6 2.94   9 2.94
                             2 2.94
   4  0.000  0.333  0.217-  10 2.94   6 2.94   5 2.94  13 2.94   2 2.94  15 2.94   9 2.94   1 2.94
                             7 2.94
   5  0.333  0.333  0.217-  13 2.94   7 2.94  11 2.94   4 2.94   2 2.94  14 2.94   3 2.94   8 2.94
                             6 2.94
   6  0.667  0.333  0.217-  15 2.94  14 2.94   1 2.94  12 2.94   4 2.94   9 2.94   8 2.94   3 2.94
                             5 2.94
   7  0.000  0.667  0.217-  18 2.94   3 2.94  16 2.94   5 2.94   1 2.94  13 2.94   8 2.94   4 2.94
                             9 2.94
   8  0.333  0.667  0.217-   9 2.94  17 2.94   1 2.94   2 2.94  14 2.94  16 2.94   6 2.94   7 2.94
                             5 2.94
   9  0.667  0.667  0.217-   2 2.94   8 2.94  17 2.94   6 2.94  15 2.94   4 2.94   3 2.94  18 2.94
                             7 2.94
  10  0.111  0.111  0.316-  20 2.91  11 2.94  17 2.94   2 2.94   4 2.94   1 2.94  12 2.94  16 2.94
                            13 2.94  15 2.94  26 2.95  19 2.95
  11  0.444  0.111  0.316-  20 2.91  21 2.91  13 2.94   2 2.94  10 2.94  17 2.94   5 2.94   3 2.94
                            18 2.94  14 2.94  12 2.94  27 2.94
  12  0.778  0.111  0.316-  21 2.91  16 2.94  18 2.94   1 2.94  14 2.94  15 2.94   3 2.94   6 2.94
                            10 2.94  11 2.94  25 2.95  19 2.95
  13  0.111  0.444  0.316-  23 2.91  20 2.91   5 2.94  18 2.94  11 2.94   7 2.94   4 2.94  16 2.94
                            10 2.94  14 2.94  15 2.94  22 2.94
  14  0.444  0.444  0.316-  21 2.91  23 2.91  15 2.94   6 2.94  12 2.94   8 2.94  17 2.94   5 2.94
                            16 2.94  13 2.94  11 2.94  24 2.94
  15  0.778  0.444  0.316-  24 2.93  22 2.93  14 2.94   6 2.94  17 2.94  12 2.94   9 2.94   4 2.94
                            10 2.94  13 2.94  18 2.94  19 2.94
  16  0.111  0.778  0.316-  23 2.91  18 2.94  12 2.94   7 2.94   1 2.94   8 2.94  13 2.94  10 2.94
                            14 2.94  17 2.94  25 2.95  26 2.95
  17  0.444  0.778  0.316-  27 2.93  24 2.93   9 2.94  15 2.94   2 2.94  10 2.94  11 2.94   8 2.94
                            14 2.94  16 2.94  18 2.94  26 2.94
  18  0.778  0.778  0.316-  22 2.93  27 2.93  16 2.94   7 2.94  13 2.94  12 2.94   3 2.94  11 2.94
                             9 2.94  15 2.94  17 2.94  25 2.94
  19  0.889  0.223  0.415-  24 2.93  22 2.93  21 2.94  20 2.94  15 2.94  26 2.94  25 2.94  10 2.95
                            12 2.95  28 2.95  32 3.04  31 3.04
  20  0.222  0.222  0.413-  36 2.78  10 2.91  11 2.91  13 2.91  26 2.94  19 2.94  23 2.94  21 2.94
                            27 2.95  22 2.95  29 2.99  31 2.99
  21  0.556  0.222  0.413-  36 2.78  12 2.91  14 2.91  11 2.91  25 2.94  19 2.94  20 2.94  23 2.94
                            27 2.95  24 2.95  30 2.99  32 2.99
  22  0.887  0.557  0.414-  24 2.91  27 2.91  18 2.93  15 2.93  25 2.93  19 2.93  13 2.94  23 2.95
                            20 2.95  35 2.96  33 3.02  31 3.02
  23  0.222  0.556  0.413-  36 2.78  16 2.91  13 2.91  14 2.91  25 2.94  26 2.94  20 2.94  21 2.94
                            22 2.95  24 2.95  33 2.99  34 2.99
  24  0.557  0.557  0.414-  27 2.91  22 2.91  15 2.93  17 2.93  26 2.93  19 2.93  14 2.94  21 2.95
                            23 2.95  35 2.96  32 3.02  34 3.02
  25  0.889  0.889  0.415-  22 2.93  27 2.93  23 2.94  21 2.94  18 2.94  19 2.94  26 2.94  16 2.95
                            12 2.95  28 2.95  33 3.04  30 3.04
  26  0.223  0.889  0.415-  27 2.93  24 2.93  20 2.94  23 2.94  17 2.94  19 2.94  25 2.94  10 2.95
                            16 2.95  28 2.95  29 3.04  34 3.04
  27  0.557  0.887  0.414-  24 2.91  22 2.91  17 2.93  18 2.93  26 2.93  25 2.93  11 2.94  20 2.95
                            21 2.95  35 2.96  29 3.02  30 3.02
  28  0.000  0.000  0.514-  25 2.95  19 2.95  26 2.95  34 2.98  32 2.98  33 2.98  30 2.98  31 2.98
                            29 2.98
  29  0.334  0.009  0.516-  30 2.85  31 2.86  36 2.87  35 2.98  28 2.98  20 2.99  27 3.02  26 3.04
                            34 3.10
  30  0.657  0.009  0.516-  29 2.85  32 2.86  36 2.87  35 2.98  28 2.98  21 2.99  27 3.02  25 3.04
                            33 3.10
  31  0.009  0.334  0.516-  33 2.85  29 2.86  36 2.87  35 2.98  28 2.98  20 2.99  22 3.02  19 3.04
                            32 3.10
  32  0.657  0.334  0.516-  34 2.85  30 2.86  36 2.87  35 2.98  28 2.98  21 2.99  24 3.02  19 3.04
                            31 3.10
  33  0.009  0.657  0.516-  31 2.85  34 2.86  36 2.87  35 2.98  28 2.98  23 2.99  22 3.02  25 3.04
                            30 3.10
  34  0.334  0.657  0.516-  32 2.85  33 2.86  36 2.87  35 2.98  28 2.98  23 2.99  24 3.02  26 3.04
                            29 3.10
  35  0.667  0.667  0.514-  24 2.96  27 2.96  22 2.96  29 2.98  34 2.98  32 2.98  31 2.98  30 2.98
                            33 2.98
  36  0.333  0.333  0.504-  37 1.83  20 2.78  23 2.78  21 2.78  33 2.87  31 2.87  29 2.87  30 2.87
                            34 2.87  32 2.87
  37  0.333  0.333  0.579-  36 1.83

  LATTYP: Found a hexagonal cell.
 ALAT       =     8.8135128021
 C/A-ratio  =     2.7586513333

  Lattice vectors:

 A1 = (  -4.4067569092,  -7.6327256898,   0.0000000000)
 A2 = (   8.8135128021,   0.0000000000,   0.0000000000)
 A3 = (   0.0000000000,   0.0000000000,  24.3134088421)

Analysis of symmetry for initial positions (statically):
 Subroutine PRICEL returns:
 Original cell was already a primitive cell.

 Routine SETGRP: Setting up the symmetry group for a
 hexagonal supercell.

 Subroutine GETGRP returns: Found  6 space group operations
 (whereof  6 operations were pure point group operations)
 out of a pool of 24 trial point group operations.

The static configuration has the point symmetry C_3v.

Analysis of symmetry for dynamics (positions and initial velocities):
 Subroutine PRICEL returns:
 Original cell was already a primitive cell.

[...]

The dynamic configuration has the point symmetry C_3v.

Analysis of constrained symmetry for selective dynamics:
 Subroutine PRICEL returns:
 Original cell was already a primitive cell.

 Routine SETGRP: Setting up the symmetry group for a
 hexagonal supercell.

 Subroutine GETGRP returns: Found  6 space group operations
[...]
     24      -5.6917      2.00000
     25      -5.6718      2.00000
     26      -5.6654      2.00000
     27      -5.6247      2.00000
     28      -5.5866      2.00000
     29      -5.5573      2.00000
     30      -5.5246      2.00000
     31      -5.5124      2.00000
     32      -5.4499      2.00000
     33      -5.4208      2.00000
     34      -5.3276      2.00000
     35      -5.3113      2.00000
     36      -5.2958      2.00000
     37      -5.2574      2.00000
     38      -5.2400      2.00000
     39      -5.2327      2.00000
     40      -5.1674      2.00000
     41      -5.1572      2.00000
     42      -5.0387      2.00000
     43      -5.0287      2.00000
     44      -4.9729      2.00000
     45      -4.9221      2.00000
     46      -4.8961      2.00000
     47      -4.8631      2.00000
     48      -4.8410      2.00000
     49      -4.8112      2.00000
     50      -4.7924      2.00000
     51      -4.7025      2.00000
     52      -4.6757      2.00000
     53      -4.6608      2.00000
     54      -4.6254      2.00000
     55      -4.6202      2.00000
     56      -4.6178      2.00000
     57      -4.6015      2.00000
     58      -4.5838      2.00000
     59      -4.5416      2.00000
     60      -4.5109      2.00000
[...]
    238       5.6299      0.00000
    239       5.7962      0.00000
    240       5.8966      0.00000
    241       5.9950      0.00000
    242       6.0305      0.00000
    243       6.1139      0.00000
    244       6.1516      0.00000
    245       6.2490      0.00000
    246       6.3021      0.00000
    247       6.3855      0.00000
    248       6.4540      0.00000
    249       6.6034      0.00000
    250       6.7837      0.00000
    251       6.9059      0.00000
    252       6.9803      0.00000

 soft charge-density along one line, spin component           1
         0         1         2         3         4         5         6         7         8         9
 total charge-density along one line

------------------------ aborting loop because EDIFF is reached ----------------------------------------

 total charge

# of ion       s       p       d       tot
    1        0.543   0.239   8.765   9.547
    2        0.544   0.240   8.764   9.548
    3        0.544   0.240   8.764   9.548
    4        0.544   0.240   8.764   9.548
    5        0.544   0.240   8.762   9.546
    6        0.544   0.240   8.764   9.548
    7        0.544   0.240   8.764   9.548
    8        0.544   0.240   8.764   9.548
    9        0.541   0.240   8.768   9.549
   10        0.520   0.308   8.770   9.598
   11        0.524   0.306   8.777   9.607
   12        0.520   0.308   8.770   9.598
   13        0.524   0.306   8.777   9.607
   14        0.524   0.306   8.777   9.607
   15        0.515   0.309   8.773   9.597
   16        0.520   0.308   8.770   9.598
   17        0.515   0.309   8.773   9.597
   18        0.515   0.309   8.773   9.597
   19        0.515   0.295   8.774   9.585
   20        0.555   0.331   8.752   9.638
   21        0.555   0.331   8.752   9.638
   22        0.505   0.306   8.777   9.588
   23        0.555   0.331   8.752   9.638
   24        0.505   0.306   8.777   9.588
   25        0.515   0.295   8.774   9.585
   26        0.515   0.295   8.774   9.585
   27        0.505   0.306   8.777   9.588
   28        0.542   0.227   8.760   9.529
   29        0.568   0.241   8.749   9.559
   30        0.568   0.241   8.749   9.559
   31        0.568   0.241   8.749   9.559
   32        0.568   0.241   8.749   9.559
   33        0.568   0.241   8.749   9.559
   34        0.568   0.241   8.749   9.559
   35        0.545   0.228   8.756   9.529
   36        2.183   6.011   2.623  10.817
   37        1.010   1.203   0.000   2.213
tot         21.985  16.845 309.377 348.206

  FORCE on cell =-STRESS in cart. coord.  units (eV):
  Direction    XX          YY          ZZ          XY          YZ          ZX
  Alpha Z   944.14117   944.14117   944.14117
  Ewald  152421.80925152421.80973************    -0.00031    -0.00008    -0.00013
  Hartree160999.07736160999.07738************     0.00001    -0.00002    -0.00003
  E(xc)   -1800.97169 -1800.97168 -1807.41156    -0.00001    -0.00000    -0.00000
  Local  ************************326130.44194     0.00172     0.00003     0.00003
  n-local   -72.46229   -26.98769   -42.05883    22.53517    -1.63319     1.65427
  augment  2382.08916  2382.09064  2405.01521    -0.00128     0.00000     0.00005
  Kinetic  5633.03249  5643.24418  5723.74778     5.65939     0.10777     0.47694
  Fock        0.00000     0.00000     0.00000     0.00000     0.00000     0.00000
  Total     -19.84654   -19.84653     2.70976    -0.00000     0.00000     0.00000
  in kB     -19.44110   -19.44109     2.65440    -0.00000     0.00000     0.00000

 VOLUME and BASIS-vectors are now :
  energy-cutoff  :      500.00
  volume of cell :     1635.59
      direct lattice vectors                 reciprocal lattice vectors
     8.813512802  0.000000000  0.000000000     0.113462137 -0.065507406  0.000000000
     4.406756909  7.632725690  0.000000000     0.000000000  0.131014796  0.000000000
     0.000000000  0.000000000 24.313408842     0.000000000  0.000000000  0.041129568

  length of vectors
     8.813512802  8.813512802 24.313408842     0.131014796  0.131014796  0.041129568

 FORCES acting on ions
    electron-ion (+dipol)            ewald-force                    non-local-force                 convergence-correction
   -.199E-04 -.164E-04 0.267E+04   0.520E-04 0.434E-04 -.267E+04   -.130E-17 -.978E-18 -.776E+00   -.240E-03 -.152E-03 -.359E+00
   0.829E+00 0.697E+00 0.268E+04   -.872E+00 -.905E+00 -.267E+04   0.159E-01 0.717E-01 -.308E+00   0.240E-01 0.124E+00 -.365E+00
   -.829E+00 0.697E+00 0.268E+04   0.872E+00 -.905E+00 -.267E+04   -.159E-01 0.717E-01 -.308E+00   -.236E-01 0.126E+00 -.364E+00
   0.102E+01 0.369E+00 0.268E+04   -.122E+01 -.303E+00 -.267E+04   0.701E-01 -.221E-01 -.308E+00   0.120E+00 -.416E-01 -.365E+00
   0.840E-05 -.235E-04 0.268E+04   0.951E-04 0.173E-05 -.268E+04   -.220E-17 -.550E-18 -.233E+00   0.428E-02 0.261E-02 -.347E+00
   -.102E+01 0.369E+00 0.268E+04   0.122E+01 -.303E+00 -.267E+04   -.701E-01 -.221E-01 -.308E+00   -.121E+00 -.406E-01 -.364E+00
   0.190E+00 -.107E+01 0.268E+04   -.348E+00 0.121E+01 -.267E+04   0.542E-01 -.496E-01 -.308E+00   0.977E-01 -.837E-01 -.364E+00
   -.190E+00 -.107E+01 0.268E+04   0.348E+00 0.121E+01 -.267E+04   -.542E-01 -.496E-01 -.308E+00   -.959E-01 -.848E-01 -.364E+00
   0.196E-04 -.415E-04 0.267E+04   0.166E-03 -.201E-04 -.267E+04   -.222E-18 0.315E-17 -.531E+00   -.459E-02 -.237E-02 -.331E+00
   0.883E+01 0.510E+01 0.926E+03   -.863E+01 -.498E+01 -.925E+03   -.274E+00 -.158E+00 -.573E+00   0.423E-01 0.243E-01 -.363E+00
   0.161E-04 0.985E+01 0.940E+03   0.147E-03 -.995E+01 -.939E+03   0.717E-09 0.108E-01 -.466E+00   0.402E-02 0.378E-01 -.371E+00
   -.883E+01 0.510E+01 0.926E+03   0.863E+01 -.498E+01 -.925E+03   0.274E+00 -.158E+00 -.573E+00   -.438E-01 0.255E-01 -.363E+00
   0.853E+01 -.493E+01 0.940E+03   -.861E+01 0.497E+01 -.939E+03   0.932E-02 -.538E-02 -.466E+00   0.350E-01 -.151E-01 -.371E+00
   -.853E+01 -.493E+01 0.940E+03   0.861E+01 0.497E+01 -.939E+03   -.932E-02 -.538E-02 -.466E+00   -.275E-01 -.160E-01 -.372E+00
   0.302E-04 0.256E+01 0.927E+03   0.236E-03 -.254E+01 -.926E+03   0.381E-09 0.572E-02 -.507E+00   -.230E-02 -.534E-01 -.399E+00
   -.219E-04 -.102E+02 0.926E+03   0.163E-03 0.996E+01 -.925E+03   0.211E-07 0.317E+00 -.573E+00   -.668E-04 -.507E-01 -.363E+00
   0.222E+01 -.128E+01 0.927E+03   -.220E+01 0.127E+01 -.926E+03   0.496E-02 -.286E-02 -.507E+00   -.471E-01 0.251E-01 -.399E+00
   -.222E+01 -.128E+01 0.927E+03   0.220E+01 0.127E+01 -.926E+03   -.496E-02 -.286E-02 -.507E+00   0.474E-01 0.271E-01 -.398E+00
   -.424E-04 0.298E+01 -.871E+03   0.514E-04 -.303E+01 0.870E+03   0.562E-08 0.844E-01 0.812E+00   -.670E-03 -.250E-01 -.842E-01
   0.582E+02 0.336E+02 -.772E+03   -.578E+02 -.334E+02 0.772E+03   -.783E+00 -.452E+00 -.101E+01   0.155E-01 0.881E-02 -.114E+00
   -.582E+02 0.336E+02 -.772E+03   0.578E+02 -.334E+02 0.772E+03   0.783E+00 -.452E+00 -.101E+01   -.147E-01 0.933E-02 -.114E+00
   0.150E+02 -.866E+01 -.849E+03   -.155E+02 0.893E+01 0.848E+03   0.444E+00 -.256E+00 0.764E+00   0.845E-01 -.485E-01 -.989E-01
   -.102E-04 -.672E+02 -.772E+03   0.145E-03 0.667E+02 0.772E+03   0.602E-07 0.904E+00 -.101E+01   0.471E-03 -.174E-01 -.114E+00
   -.150E+02 -.866E+01 -.849E+03   0.155E+02 0.893E+01 0.848E+03   -.444E+00 -.256E+00 0.764E+00   -.848E-01 -.489E-01 -.988E-01
   -.258E+01 -.149E+01 -.871E+03   0.262E+01 0.151E+01 0.870E+03   -.731E-01 -.422E-01 0.812E+00   0.221E-01 0.127E-01 -.846E-01
   0.258E+01 -.149E+01 -.871E+03   -.262E+01 0.151E+01 0.870E+03   0.731E-01 -.422E-01 0.812E+00   -.217E-01 0.120E-01 -.842E-01
   0.150E-04 0.173E+02 -.849E+03   0.193E-03 -.179E+02 0.848E+03   0.341E-07 0.512E+00 0.764E+00   -.326E-03 0.974E-01 -.989E-01
   -.171E-04 -.148E-04 -.260E+04   0.310E-04 0.365E-04 0.260E+04   0.179E-18 0.855E-18 0.372E+00   -.112E-03 -.841E-04 0.116E+00
   0.633E+02 0.104E+03 -.263E+04   -.625E+02 -.103E+03 0.263E+04   -.918E+00 -.140E+01 0.693E+00   0.509E-01 0.117E+00 0.150E+00
   -.633E+02 0.104E+03 -.263E+04   0.625E+02 -.103E+03 0.263E+04   0.918E+00 -.140E+01 0.693E+00   -.506E-01 0.119E+00 0.150E+00
   0.122E+03 0.255E+01 -.263E+04   -.121E+03 -.245E+01 0.263E+04   -.167E+01 -.938E-01 0.693E+00   0.127E+00 -.146E-01 0.150E+00
   -.122E+03 0.255E+01 -.263E+04   0.121E+03 -.245E+01 0.263E+04   0.167E+01 -.938E-01 0.693E+00   -.129E+00 -.138E-01 0.150E+00
   0.588E+02 -.107E+03 -.263E+04   -.583E+02 0.106E+03 0.263E+04   -.755E+00 0.150E+01 0.693E+00   0.778E-01 -.103E+00 0.150E+00
   -.588E+02 -.107E+03 -.263E+04   0.583E+02 0.106E+03 0.263E+04   0.755E+00 0.150E+01 0.693E+00   -.762E-01 -.104E+00 0.150E+00
   0.333E-04 -.253E-04 -.261E+04   0.140E-03 -.521E-04 0.261E+04   0.551E-17 0.646E-17 0.404E+00   -.449E-02 -.230E-02 0.194E+00
   0.254E-03 -.158E-03 -.274E+04   0.135E-03 0.122E-04 0.274E+04   0.479E-18 0.879E-18 -.200E+01   0.733E-02 0.448E-02 0.322E+00
   0.567E-04 -.303E-04 -.126E+04   0.154E-04 0.986E-06 0.127E+04   0.123E-17 0.504E-18 -.494E+01   0.875E-03 0.533E-03 -.256E-01
   -.432E-03 -.931E-03 0.145E+02   0.418E-14 0.121E-12 0.100E-10   0.118E-15 -.436E-15 -.835E+01   0.124E-01 0.794E-02 -.601E+01

 POSITION                                       TOTAL-FORCE (eV/Angst)
      0.00000      0.00000      5.28038        -0.000000      0.000000     -0.056748
      2.93784      0.00000      5.28038        -0.002800     -0.010181     -0.042209
      5.87568      0.00000      5.28038         0.002800     -0.010181     -0.042209
      1.46892      2.54424      5.28038        -0.010217      0.002666     -0.042209
      4.40676      2.54424      5.28038        -0.000000      0.000000     -0.085644
      7.34459      2.54424      5.28038         0.010217      0.002666     -0.042209
      2.93784      5.08848      5.28038        -0.007417      0.007515     -0.042209
      5.87568      5.08848      5.28038         0.007417      0.007515     -0.042209
      8.81351      5.08848      5.28038        -0.000000      0.000000     -0.036696
      1.46892      0.84808      7.67911        -0.024523     -0.014159      0.070324
      4.40676      0.84808      7.67911        -0.000000     -0.045954     -0.023105
      7.34459      0.84808      7.67911         0.024523     -0.014159      0.070324
      2.93784      3.39232      7.67911        -0.039797      0.022977     -0.023105
      5.87568      3.39232      7.67911         0.039797      0.022977     -0.023105
      8.81351      3.39232      7.67911        -0.000000     -0.028140      0.097932
      4.40676      5.93656      7.67911         0.000000      0.028317      0.070324
      7.34459      5.93656      7.67911        -0.024370      0.014070      0.097932
     10.28243      5.93656      7.67911         0.024370      0.014070      0.097932
      8.81351      1.70030     10.08698         0.000000      0.010051      0.099226
      2.93503      1.69454     10.04736        -0.330695     -0.190927     -0.305356
      5.87848      1.69454     10.04736         0.330695     -0.190927     -0.305356
     10.26776      4.24887     10.06889         0.056021     -0.032344      0.095253
      4.40676      4.24365     10.04736         0.000000      0.381854     -0.305356
      7.35926      4.24887     10.06889        -0.056021     -0.032344      0.095253
     11.74777      6.78258     10.08698        -0.008705     -0.005026      0.099226
      5.87926      6.78258     10.08698         0.008705     -0.005026      0.099226
      8.81351      6.76771     10.06889         0.000000      0.064688      0.095253
      0.00000      0.00000     12.49943        -0.000000      0.000000     -0.089730
      2.98194      0.07009     12.55649        -0.121691     -0.209731     -0.111513
      5.83157      0.07009     12.55649         0.121691     -0.209731     -0.111513
      1.55167      2.54739     12.55649        -0.242478     -0.000522     -0.111513
      7.26184      2.54739     12.55649         0.242478     -0.000522     -0.111513
      2.97649      5.01524     12.55649        -0.120787      0.210253     -0.111513
      5.83702      5.01524     12.55649         0.120787      0.210253     -0.111513
      8.81351      5.08848     12.50498        -0.000000      0.000000     -0.043289
      4.40676      2.54424     12.24418        -0.000000      0.000000      1.126668
      4.40676      2.54424     14.07481        -0.000000      0.000000      0.004949
    total drift:                                0.011966      0.007005      0.150711

  FREE ENERGIE OF THE ION-ELECTRON SYSTEM (eV)
  free  energy   TOTEN  =      -122.26713109 eV

  energy  without entropy=     -122.26713109  energy(sigma->0) =     -122.26713109

 stress matrix after NEB project (eV)
    -19.84654     -0.00000      0.00000
     -0.00000    -19.84653      0.00000
      0.00000      0.00000      2.70976
  FORCES: max atom, RMS     0.004949    0.000814
  FORCE total and by dimension    0.004949    0.004949
  Stress total and by dimension   28.197744   19.846536
|           W    W    AA    RRRRR   N    N  II  N    N   GGGG   !!!           |
|           W    W   A  A   R    R  NN   N  II  NN   N  G    G  !!!           |
|           W    W  A    A  R    R  N N  N  II  N N  N  G       !!!           |
|           W WW W  AAAAAA  RRRRR   N  N N  II  N  N N  G  GGG   !            |
|           WW  WW  A    A  R   R   N   NN  II  N   NN  G    G                |
|           W    W  A    A  R    R  N    N  II  N    N   GGGG   !!!           |
|     Tetrahedron method does not include variations of the Fermi             |
|     occupations, so forces and stress will be inaccurate. We suggest        |
|     using a different smearing scheme ISMEAR = 1 or 2 for metals in         |
|     relaxations.                                                            |

 total charge

# of ion       s       p       d       tot
    1        0.543   0.239   8.765   9.547
    2        0.544   0.240   8.764   9.548
    3        0.544   0.240   8.764   9.548
    4        0.544   0.240   8.764   9.548
    5        0.544   0.240   8.762   9.546
    6        0.544   0.240   8.764   9.548
    7        0.544   0.240   8.764   9.548
    8        0.544   0.240   8.764   9.548
    9        0.541   0.240   8.768   9.549
   10        0.520   0.308   8.770   9.598
   11        0.524   0.306   8.777   9.607
   12        0.520   0.308   8.770   9.598
   13        0.524   0.306   8.777   9.607
   14        0.524   0.306   8.777   9.607
   15        0.515   0.309   8.773   9.597
   16        0.520   0.308   8.770   9.598
   17        0.515   0.309   8.773   9.597
   18        0.515   0.309   8.773   9.597
   19        0.515   0.295   8.774   9.585
   20        0.555   0.331   8.752   9.638
   21        0.555   0.331   8.752   9.638
   22        0.505   0.306   8.777   9.588
   23        0.555   0.331   8.752   9.638
   24        0.505   0.306   8.777   9.588
   25        0.515   0.295   8.774   9.585
   26        0.515   0.295   8.774   9.585
   27        0.505   0.306   8.777   9.588
   28        0.542   0.227   8.760   9.529
   29        0.568   0.241   8.749   9.559
   30        0.568   0.241   8.749   9.559
   31        0.568   0.241   8.749   9.559
   32        0.568   0.241   8.749   9.559
   33        0.568   0.241   8.749   9.559
   34        0.568   0.241   8.749   9.559
   35        0.545   0.228   8.756   9.529
   36        2.183   6.011   2.623  10.817
   37        1.010   1.203   0.000   2.213
tot         21.985  16.845 309.377 348.206

 BZINTS: Fermi energy:    0.177359;  402.000000 electrons
         Band energy:-0.169979E+04;  BLOECHL correction:   -0.075519