 vasp.6.2.0 18Jan21 (build Jun 12 2021 23:27:24) complex

 executed on             LinuxIFC date 2022.05.28  02:18:33

 INCAR:
   ISMEAR = -5
   SIGMA = 0.1
   ISPIN = 1
   EDIFF = 1.d-5
   EDIFFG = -0.01
   NSW = 0
   NELM = 150
   ENCUT = 500
   ISIF = 2
   IBRION = 2
   LREAL = Auto
   ALGO = Fast
   ICHARG = 11
   LORBIT = 10
   LCHARG = .F.
   LWAVE = .F.

 POTCAR:    PAW_PBE Cu 22Jun2005
 POTCAR:    PAW_PBE Cr 06Sep2000
 POTCAR:    PAW_PBE O 08Apr2002
 POTCAR:    PAW_PBE H 15Jun2001
|           W    W    AA    RRRRR   N    N  II  N    N   GGGG   !!!           |
|           W    W   A  A   R    R  NN   N  II  NN   N  G    G  !!!           |
|           W    W  A    A  R    R  N N  N  II  N N  N  G       !!!           |
|           W WW W  AAAAAA  RRRRR   N  N N  II  N  N N  G  GGG   !            |
|           WW  WW  A    A  R   R   N   NN  II  N   NN  G    G                |
|           W    W  A    A  R    R  N    N  II  N    N   GGGG   !!!           |
|     For optimal performance we recommend to set                             |
|       NCORE = 2 up to number-of-cores-per-socket                            |
|     This setting can greatly improve the performance of VASP for DFT.       |
|     The default, NCORE=1 might be grossly inefficient on modern             |
|     multi-core architectures or massively parallel machines. Do your        |
|     Unfortunately you need to use the default for GW and RPA                |
|     calculations (for HF NCORE is supported but not extensively tested      |
|     yet).                                                                   |

 POTCAR:    PAW_PBE Cu 22Jun2005
   VRHFIN =Cu: d10 p1

   TITEL  = PAW_PBE Cu 22Jun2005
   POMASS =   63.546; ZVAL   =   11.000    mass and valenz
   ENMAX  =  295.446; ENMIN  =  221.585 eV

 POTCAR:    PAW_PBE Cr 06Sep2000
   VRHFIN =Cr : d5 s1

   TITEL  = PAW_PBE Cr 06Sep2000
   POMASS =   51.996; ZVAL   =    6.000    mass and valenz
   ENMAX  =  227.080; ENMIN  =  170.310 eV

 POTCAR:    PAW_PBE O 08Apr2002
   VRHFIN =O: s2p4

   TITEL  = PAW_PBE O 08Apr2002
   POMASS =   16.000; ZVAL   =    6.000    mass and valenz
   ENMAX  =  400.000; ENMIN  =  300.000 eV

 POTCAR:    PAW_PBE H 15Jun2001
   VRHFIN =H: ultrasoft test

   TITEL  = PAW_PBE H 15Jun2001
   POMASS =    1.000; ZVAL   =    1.000    mass and valenz
   ENMAX  =  250.000; ENMIN  =  200.000 eV

 Optimization of the real space projectors (new method)

 maximal supplied QI-value         = 16.25
 optimisation between [QCUT,QGAM] = [ 11.38, 22.75] = [ 36.24,144.96] Ry
 Optimized for a Real-space Cutoff    1.52 Angstroem

   l    n(q)    QCUT    max X(q) W(low)/X(q) W(high)/X(q)  e(spline)
   2      9    11.376     4.610    0.21E-03    0.10E-03    0.26E-06
   2      9    11.376     8.522    0.33E-03    0.16E-03    0.37E-06
   0     10    11.376    51.609    0.62E-04    0.20E-04    0.13E-06
   0     10    11.376    27.747    0.54E-04    0.20E-04    0.13E-06
   1     10    11.376    20.408    0.13E-04    0.99E-04    0.19E-06
   1     10    11.376    13.425    0.12E-04    0.87E-04    0.17E-06
 Optimization of the real space projectors (new method)

[...]

   l    n(q)    QCUT    max X(q) W(low)/X(q) W(high)/X(q)  e(spline)
   0      7    11.387    20.381    0.39E-03    0.13E-02    0.15E-06
   0      7    11.387    15.268    0.42E-03    0.14E-02    0.17E-06
   1      6    11.387     5.964    0.41E-03    0.11E-02    0.17E-06
   1      6    11.387     5.382    0.39E-03    0.87E-03    0.15E-06
 Optimization of the real space projectors (new method)

 maximal supplied QI-value         = 34.20
 optimisation between [QCUT,QGAM] = [ 11.29, 22.57] = [ 35.68,142.71] Ry
 Optimized for a Real-space Cutoff    1.16 Angstroem

   l    n(q)    QCUT    max X(q) W(low)/X(q) W(high)/X(q)  e(spline)
   0      8    11.287    19.460    0.40E-03    0.73E-03    0.16E-06
   0      8    11.287    12.209    0.38E-03    0.70E-03    0.15E-06
   1      7    11.287     4.655    0.22E-03    0.25E-04    0.22E-06
  PAW_PBE Cu 22Jun2005                  :
  PAW_PBE Cr 06Sep2000                  :
  PAW_PBE O 08Apr2002                   :
  PAW_PBE H 15Jun2001                   :

 POSCAR: Cu-Cr-OOH
  positions in direct lattice
  velocities in cartesian coordinates
 exchange correlation table for  LEXCH =        8
   RHO(1)=    0.500       N(1)  =     2000
   RHO(2)=  100.500       N(2)  =     4000

 VTST: version 3.2, (02/03/18)

 CHAIN: initializing optimizer

 OPT: Using VASP Conjugate-Gradient optimizer
 CHAIN: Read ICHAIN            0

 POSCAR: Cu-Cr-OOH
  positions in direct lattice
  velocities in cartesian coordinates

 ion  position               nearest neighbor table
   1  0.000  0.000  0.212-   7 2.57   3 2.57   4 2.57   2 2.57   6 2.57   8 2.57  12 2.57  10 2.57
                            16 2.57
   2  0.333  0.000  0.212-   8 2.57   9 2.57   5 2.57   1 2.57   3 2.57  11 2.57   4 2.57  10 2.57
                            17 2.57
   3  0.667  0.000  0.212-   1 2.57   7 2.57   6 2.57   9 2.57   2 2.57  12 2.57   5 2.57  18 2.57
                            11 2.57
   4  0.000  0.333  0.212-   5 2.57   6 2.57   1 2.57   7 2.57   2 2.57  13 2.57   9 2.57  10 2.57
                            15 2.57
   5  0.333  0.333  0.212-   4 2.57   2 2.57   7 2.57  13 2.57   8 2.57   6 2.57   3 2.57  11 2.57
                            14 2.57
   6  0.667  0.333  0.212-   4 2.57   9 2.57  15 2.57   3 2.57   1 2.57   8 2.57  14 2.57   5 2.57
                            12 2.57
   7  0.000  0.667  0.212-   1 2.57   3 2.57  16 2.57  18 2.57   4 2.57   5 2.57   8 2.57   9 2.57
                            13 2.57
   8  0.333  0.667  0.212-   9 2.57   2 2.57  17 2.57   6 2.57   1 2.57   7 2.57   5 2.57  14 2.57
                            16 2.57
   9  0.667  0.667  0.212-   8 2.57   6 2.57   2 2.57  17 2.57   3 2.57   7 2.57   4 2.57  15 2.57
                            18 2.57
  10  0.111  0.111  0.294-  20 2.55  26 2.56  19 2.56  11 2.57  12 2.57  13 2.57   1 2.57   2 2.57
                             4 2.57  15 2.57  16 2.57  17 2.57
  11  0.444  0.111  0.294-  20 2.55  21 2.55  10 2.57  13 2.57   2 2.57  17 2.57  14 2.57  12 2.57
                             5 2.57   3 2.57  18 2.57  27 2.57
  12  0.778  0.111  0.294-  21 2.55  19 2.56  25 2.56  15 2.57  10 2.57  14 2.57  18 2.57   3 2.57
                             1 2.57  16 2.57  11 2.57   6 2.57
  13  0.111  0.444  0.294-  23 2.55  20 2.55  16 2.57  18 2.57  10 2.57  11 2.57  14 2.57   5 2.57
                             4 2.57   7 2.57  15 2.57  22 2.57
  14  0.444  0.444  0.294-  21 2.55  23 2.55  15 2.57  17 2.57  12 2.57  16 2.57  13 2.57  11 2.57
                             6 2.57   8 2.57   5 2.57  24 2.57
  15  0.778  0.444  0.294-  19 2.56  24 2.56  22 2.56  14 2.57  17 2.57  12 2.57   6 2.57  18 2.57
                            10 2.57   9 2.57  13 2.57   4 2.57
  16  0.111  0.778  0.294-  23 2.55  25 2.56  26 2.56  18 2.57  13 2.57   7 2.57  14 2.57  17 2.57
                            12 2.57  10 2.57   8 2.57   1 2.57
  17  0.444  0.778  0.294-  26 2.56  27 2.56  24 2.56  14 2.57  15 2.57   8 2.57   9 2.57  11 2.57
                            16 2.57  18 2.57  10 2.57   2 2.57
  18  0.778  0.778  0.294-  25 2.56  22 2.56  27 2.56  16 2.57  13 2.57   7 2.57  15 2.57  12 2.57
                            17 2.57   9 2.57   3 2.57  11 2.57
  19  0.889  0.222  0.376-  12 2.56  10 2.56  15 2.56  28 2.56  25 2.57  26 2.57  22 2.57  24 2.57
                            21 2.57  20 2.57  32 2.58  31 2.58
  20  0.222  0.222  0.376-  36 2.50  11 2.55  13 2.55  10 2.55  23 2.56  21 2.56  26 2.57  19 2.57
                            29 2.57  31 2.57  27 2.57  22 2.57
  21  0.555  0.222  0.376-  36 2.50  14 2.55  11 2.55  12 2.55  20 2.56  23 2.56  19 2.57  25 2.57
                            32 2.57  30 2.57  24 2.57  27 2.57
  22  0.888  0.556  0.377-  35 2.56  24 2.56  27 2.56  18 2.56  15 2.56  31 2.56  33 2.56  19 2.57
                            25 2.57  13 2.57  23 2.57  20 2.57
  23  0.222  0.555  0.376-  36 2.50  13 2.55  14 2.55  16 2.55  20 2.56  21 2.56  25 2.57  26 2.57
                            33 2.57  34 2.57  22 2.57  24 2.57
  24  0.556  0.556  0.377-  35 2.56  22 2.56  27 2.56  15 2.56  17 2.56  32 2.56  34 2.56  19 2.57
                            26 2.57  14 2.57  21 2.57  23 2.57
  25  0.889  0.889  0.376-  12 2.56  16 2.56  18 2.56  28 2.56  19 2.57  26 2.57  22 2.57  27 2.57
                            21 2.57  23 2.57  33 2.58  30 2.58
  26  0.222  0.889  0.376-  10 2.56  16 2.56  17 2.56  28 2.56  25 2.57  19 2.57  27 2.57  24 2.57
                            20 2.57  23 2.57  29 2.58  34 2.58
  27  0.556  0.888  0.377-  35 2.56  24 2.56  22 2.56  17 2.56  18 2.56  29 2.56  30 2.56  26 2.57
                            25 2.57  11 2.57  20 2.57  21 2.57
  28  0.000  0.000  0.459-  25 2.56  19 2.56  26 2.56  33 2.57  30 2.57  31 2.57  29 2.57  32 2.57
                            34 2.57
  29  0.333  0.002  0.459-  38 2.03  31 2.55  30 2.55  36 2.55  27 2.56  20 2.57  28 2.57  35 2.57
                            26 2.58  34 2.60
  30  0.665  0.002  0.459-  32 2.55  29 2.55  36 2.55  27 2.56  21 2.57  28 2.57  35 2.57  25 2.58
                            33 2.60
  31  0.002  0.333  0.459-  38 2.02  29 2.55  33 2.55  36 2.55  22 2.56  20 2.57  28 2.57  35 2.57
                            19 2.58  32 2.60
  32  0.665  0.333  0.459-  37 1.97  30 2.55  34 2.55  36 2.55  24 2.56  21 2.57  28 2.57  35 2.57
                            19 2.58  31 2.60
  33  0.002  0.665  0.459-  34 2.55  31 2.55  36 2.55  22 2.56  23 2.57  28 2.57  35 2.57  25 2.58
                            30 2.60
  34  0.333  0.665  0.459-  37 1.97  33 2.55  32 2.55  36 2.55  24 2.56  23 2.57  28 2.57  35 2.57
                            26 2.58  29 2.60
  35  0.667  0.667  0.459-  24 2.56  27 2.56  22 2.56  34 2.57  32 2.57  29 2.57  30 2.57  33 2.57
                            31 2.57
  36  0.333  0.333  0.455-  37 1.74  38 2.01  23 2.50  20 2.50  21 2.50  31 2.55  29 2.55  33 2.55
                            34 2.55  32 2.55  30 2.55
  37  0.426  0.425  0.504-  36 1.74  32 1.97  34 1.97
  38  0.226  0.230  0.512-  39 0.98  36 2.01  31 2.02  29 2.03
  39  0.252  0.263  0.547-  38 0.98

  LATTYP: Found a hexagonal cell.
 ALAT       =     7.6967864036
 C/A-ratio  =     3.2973366172

  Lattice vectors:

 A1 = (  -3.8483927580,  -6.6656128093,   0.0000000000)
 A2 = (   7.6967864037,   0.0000000000,   0.0000000000)
 A3 = (   0.0000000000,   0.0000000000,  25.3788956434)

Analysis of symmetry for initial positions (statically):
 Subroutine PRICEL returns:
 Original cell was already a primitive cell.

 Routine SETGRP: Setting up the symmetry group for a
 hexagonal supercell.

 Subroutine GETGRP returns: Found  1 space group operations
 (whereof  1 operations were pure point group operations)
 out of a pool of 24 trial point group operations.

The static configuration has the point symmetry C_1 .

Analysis of symmetry for dynamics (positions and initial velocities):
 Subroutine PRICEL returns:
 Original cell was already a primitive cell.

[...]

The dynamic configuration has the point symmetry C_1 .

[...]
     41      -4.4210      2.00000
     42      -4.3561      2.00000
     43      -4.3079      2.00000
     44      -4.2624      2.00000
     45      -4.2497      2.00000
     46      -4.2086      2.00000
     47      -4.1733      2.00000
     48      -4.1566      2.00000
     49      -4.1442      2.00000
     50      -4.1271      2.00000
     51      -4.1164      2.00000
     52      -4.0860      2.00000
     53      -4.0252      2.00000
     54      -3.9420      2.00000
     55      -3.9125      2.00000
     56      -3.9092      2.00000
     57      -3.8934      2.00000
     58      -3.8508      2.00000
     59      -3.8419      2.00000
     60      -3.8210      2.00000
[...]
    238       5.2279      0.00000
    239       5.3459      0.00000
    240       5.4053      0.00000
    241       5.4822      0.00000
    242       5.5381      0.00000
    243       5.7428      0.00000
    244       5.8339      0.00000
    245       5.8739      0.00000
    246       5.9300      0.00000
    247       5.9841      0.00000
    248       6.2247      0.00000
    249       6.2838      0.00000
    250       6.3346      0.00000
    251       6.8114      0.00000
    252       6.8788      0.00000

 soft charge-density along one line, spin component           1
         0         1         2         3         4         5         6         7         8         9
 total charge-density along one line

------------------------ aborting loop because EDIFF is reached ----------------------------------------

 total charge

# of ion       s       p       d       tot
    1        0.449   0.282   9.188   9.920
    2        0.448   0.285   9.185   9.918
    3        0.448   0.286   9.185   9.918
    4        0.447   0.285   9.185   9.918
    5        0.449   0.286   9.183   9.917
    6        0.449   0.284   9.186   9.920
    7        0.448   0.286   9.185   9.918
    8        0.449   0.284   9.186   9.919
    9        0.447   0.284   9.187   9.918
   10        0.443   0.369   9.178   9.990
   11        0.442   0.367   9.182   9.991
   12        0.444   0.371   9.176   9.990
   13        0.442   0.367   9.182   9.991
   14        0.441   0.367   9.183   9.991
   15        0.439   0.367   9.180   9.987
   16        0.444   0.371   9.176   9.990
   17        0.439   0.367   9.180   9.987
   18        0.438   0.370   9.178   9.986
   19        0.435   0.378   9.173   9.985
   20        0.469   0.396   9.159  10.024
   21        0.461   0.403   9.158  10.022
   22        0.433   0.375   9.178   9.986
   23        0.461   0.403   9.158  10.022
   24        0.438   0.369   9.185   9.992
   25        0.441   0.364   9.185   9.991
   26        0.435   0.377   9.173   9.985
   27        0.433   0.375   9.178   9.986
   28        0.451   0.278   9.200   9.928
   29        0.425   0.349   9.181   9.954
   30        0.449   0.296   9.195   9.940
   31        0.425   0.354   9.179   9.959
   32        0.431   0.366   9.172   9.969
   33        0.449   0.296   9.196   9.940
   34        0.431   0.366   9.172   9.969
   35        0.447   0.280   9.198   9.925
   36        0.501   0.715   4.509   5.725
   37        1.591   3.346   0.000   4.937
   38        1.552   3.546   0.000   5.098
   39        0.604   0.119   0.000   0.723
tot         19.769  19.629 325.832 365.231

  FORCE on cell =-STRESS in cart. coord.  units (eV):
  Direction    XX          YY          ZZ          XY          YZ          ZX
  Alpha Z   758.51698   758.51698   758.51698
  Ewald  259643.07571259619.43653************    17.39968    17.90738    31.76734
  Hartree272403.09218272400.69245************     0.06462     0.07099     2.39293
  E(xc)   -2336.51834 -2336.67282 -2340.36765     0.12651     0.04252     0.06405
  Local  ************************545255.94609   -12.87756   -12.37884   -25.36440
  n-local  -812.74073  -813.29241  -825.04272     0.40051     0.54277     1.08392
  augment  3349.79738  3351.25720  3364.35256    -1.16161    -0.74502    -1.35656
  Kinetic  3455.44423  3460.20547  3461.18890    -4.26955    -5.20241    -8.06190
  Fock        0.00000     0.00000     0.00000     0.00000     0.00000     0.00000
  Total      -4.07948    -3.77998    -2.11493    -0.31740     0.23739     0.52538
  in kB      -5.01988    -4.65134    -2.60247    -0.39057     0.29211     0.64650

 VOLUME and BASIS-vectors are now :
  energy-cutoff  :      500.00
  volume of cell :     1302.03
      direct lattice vectors                 reciprocal lattice vectors
     7.696786404  0.000000000  0.000000000     0.129924354 -0.075011849  0.000000000
     3.848392758  6.665612809  0.000000000     0.000000000  0.150023716  0.000000000
     0.000000000  0.000000000 25.378895643     0.000000000  0.000000000  0.039402818

  length of vectors
     7.696786404  7.696786404 25.378895643     0.150023716  0.150023716  0.039402818

 FORCES acting on ions
    electron-ion (+dipol)            ewald-force                    non-local-force                 convergence-correction
   0.128E+00 0.779E-01 0.390E+04   -.136E+00 -.791E-01 -.390E+04   -.222E-01 -.144E-01 -.251E+01   0.240E-01 0.123E-01 -.318E+00
   -.268E+00 -.131E+00 0.390E+04   0.269E+00 0.114E-01 -.390E+04   0.154E-01 0.145E+00 -.193E+01   -.618E-02 -.154E-01 -.272E+00
   0.107E+00 0.388E-01 0.390E+04   -.133E+00 -.791E-01 -.390E+04   0.305E-01 0.688E-01 -.184E+01   -.848E-02 -.165E-01 -.311E+00
   -.250E+00 -.159E+00 0.390E+04   0.145E+00 0.223E+00 -.390E+04   0.132E+00 -.602E-01 -.194E+01   -.133E-01 0.651E-03 -.269E+00
   -.991E-01 -.506E-01 0.390E+04   -.147E-01 -.126E-01 -.390E+04   0.117E+00 0.630E-01 -.159E+01   0.147E-02 0.273E-02 -.296E+00
   0.300E+00 -.156E+00 0.390E+04   -.130E+00 0.542E-01 -.390E+04   -.207E+00 0.228E-01 -.177E+01   0.261E-01 0.611E-01 -.314E+00
   0.830E-01 0.628E-01 0.390E+04   -.135E+00 -.714E-01 -.390E+04   0.755E-01 -.229E-02 -.184E+01   -.162E-01 0.145E-02 -.312E+00
   0.987E-02 0.332E+00 0.390E+04   -.148E-01 -.137E+00 -.390E+04   -.825E-01 -.189E+00 -.179E+01   0.671E-01 -.670E-02 -.319E+00
   0.952E-02 -.488E-02 0.390E+04   0.149E+00 0.907E-01 -.390E+04   -.844E-01 -.478E-01 -.222E+01   -.731E-01 -.376E-01 -.299E+00
   -.258E+00 -.131E+00 0.137E+04   0.519E+00 0.272E+00 -.137E+04   -.305E+00 -.172E+00 -.987E+00   0.131E-01 0.114E-01 -.584E+00
   -.503E+00 0.452E+00 0.137E+04   0.728E+00 -.506E+00 -.137E+04   -.922E-01 0.869E-01 -.398E+00   -.133E+00 -.684E-01 -.696E+00
   0.663E+00 0.925E+00 0.137E+04   -.125E+01 -.645E+00 -.137E+04   0.470E+00 -.263E+00 -.101E+01   0.134E+00 0.109E-02 -.659E+00
   0.119E+00 -.640E+00 0.137E+04   -.512E-01 0.863E+00 -.137E+04   0.298E-01 -.127E+00 -.402E+00   -.127E+00 -.779E-01 -.692E+00
   0.467E+00 0.275E+00 0.137E+04   -.463E+00 -.276E+00 -.137E+04   -.938E-01 -.535E-01 -.111E+00   0.105E+00 0.629E-01 -.737E+00
   -.424E+00 -.126E+01 0.137E+04   0.515E+00 0.113E+01 -.137E+04   -.135E+00 0.108E+00 -.893E+00   0.370E-01 0.180E-01 -.597E+00
   0.112E+01 0.951E-01 0.137E+04   -.116E+01 -.736E+00 -.137E+04   0.466E-02 0.540E+00 -.100E+01   0.638E-01 0.110E+00 -.660E+00
   -.131E+01 0.237E+00 0.137E+04   0.124E+01 -.861E-01 -.137E+04   0.261E-01 -.174E+00 -.890E+00   0.347E-01 0.192E-01 -.599E+00
   0.771E-01 0.151E-01 0.137E+04   -.807E-01 -.127E-01 -.137E+04   0.740E-01 0.443E-01 -.740E+00   -.747E-01 -.488E-01 -.648E+00
   0.291E+01 0.324E+00 -.118E+04   -.318E+01 -.291E+00 0.118E+04   0.186E+00 0.883E-01 0.576E+00   0.100E+00 -.158E-01 -.383E+00
   -.255E+02 -.144E+02 -.118E+04   0.262E+02 0.148E+02 0.118E+04   -.463E+00 -.272E+00 -.127E+01   -.385E+00 -.213E+00 -.762E+00
   0.218E+02 -.233E+01 -.119E+04   -.230E+02 0.350E+01 0.119E+04   0.854E+00 -.974E+00 -.120E+01   0.330E+00 -.227E+00 -.846E+00
   -.107E+02 -.218E+01 -.119E+04   0.110E+02 0.231E+01 0.119E+04   0.140E-01 -.197E+00 0.675E+00   -.221E+00 -.373E-01 -.465E+00
   0.866E+01 0.200E+02 -.119E+04   -.824E+01 -.216E+02 0.119E+04   -.419E+00 0.123E+01 -.119E+01   -.400E-01 0.393E+00 -.843E+00
   0.250E+01 0.136E+01 -.118E+04   -.279E+01 -.152E+01 0.117E+04   0.292E-02 -.889E-02 0.645E+00   0.220E+00 0.126E+00 -.399E+00
   0.546E+01 0.305E+01 -.119E+04   -.568E+01 -.317E+01 0.119E+04   0.115E+00 0.642E-01 0.902E+00   0.102E+00 0.571E-01 -.352E+00
   0.151E+01 0.231E+01 -.118E+04   -.163E+01 -.258E+01 0.118E+04   0.188E+00 0.131E+00 0.597E+00   0.350E-01 0.937E-01 -.382E+00
   -.713E+01 -.846E+01 -.119E+04   0.738E+01 0.860E+01 0.119E+04   -.180E+00 0.121E+00 0.708E+00   -.142E+00 -.180E+00 -.468E+00
   0.328E+02 0.191E+02 -.373E+04   -.336E+02 -.196E+02 0.373E+04   0.689E+00 0.409E+00 0.241E+01   -.640E-02 -.334E-02 -.104E+00
   -.187E+02 0.977E+02 -.362E+04   0.193E+02 -.102E+03 0.362E+04   -.305E+00 0.381E+01 0.432E+01   -.310E+00 -.587E+00 -.157E+00
   -.137E+02 0.223E+02 -.372E+04   0.136E+02 -.234E+02 0.372E+04   0.652E-01 0.101E+01 0.277E+01   0.322E+00 -.505E+00 0.180E-01
   0.782E+02 -.645E+02 -.362E+04   -.814E+02 0.670E+02 0.361E+04   0.311E+01 -.207E+01 0.410E+01   -.658E+00 0.303E-01 -.165E+00
   -.901E+02 0.608E+02 -.364E+04   0.934E+02 -.628E+02 0.363E+04   -.310E+01 0.161E+01 0.281E+01   0.584E+00 0.110E+00 0.106E+00
   0.124E+02 -.246E+02 -.372E+04   -.133E+02 0.251E+02 0.372E+04   0.883E+00 -.506E+00 0.280E+01   -.281E+00 0.528E+00 0.104E-01
   0.697E+01 -.109E+03 -.364E+04   -.709E+01 0.113E+03 0.363E+04   -.156E+00 -.351E+01 0.280E+01   0.389E+00 0.449E+00 0.108E+00
   -.271E+02 -.166E+02 -.374E+04   0.278E+02 0.169E+02 0.374E+04   -.340E+00 -.180E+00 0.238E+01   -.128E+00 -.759E-01 0.159E-01
   0.235E+02 0.147E+02 -.182E+04   -.233E+02 -.146E+02 0.182E+04   0.990E-02 0.160E-01 0.542E+00   0.166E-01 0.113E-01 -.240E-01
   0.929E+01 0.587E+01 -.253E+04   -.659E+01 -.432E+01 0.256E+04   -.321E+01 -.184E+01 -.262E+02   0.463E+00 0.266E+00 0.438E+00
   -.664E+00 0.262E+01 -.250E+04   -.132E+02 -.120E+02 0.249E+04   0.142E+02 0.959E+01 0.157E+02   -.364E+00 -.196E+00 0.392E+00
   -.217E+02 -.150E+02 -.473E+03   0.244E+02 0.168E+02 0.480E+03   -.270E+01 -.180E+01 -.752E+01   -.697E-02 -.234E-02 0.710E-01
   -.950E+01 -.675E+01 0.291E+02   -.124E-12 0.426E-13 -.517E-11   0.939E+01 0.671E+01 -.164E+02   0.745E-01 0.524E-01 -.128E+02

 POSITION                                       TOTAL-FORCE (eV/Angst)
      0.00000      0.00000      5.37156        -0.005404     -0.003603     -0.008911
      2.56560      0.00000      5.37156         0.011715      0.010019      0.058898
      5.13119      0.00000      5.37156        -0.003025      0.011600      0.070884
      1.28280      2.22187      5.37156         0.015063      0.004077      0.058498
      3.84839      2.22187      5.37156         0.005516      0.002133      0.059323
      6.41399      2.22187      5.37156        -0.009844     -0.017749      0.055373
      2.56560      4.44374      5.37156         0.008795     -0.009798      0.070981
      5.13119      4.44374      5.37156        -0.019253     -0.001355      0.056126
      7.69679      4.44374      5.37156         0.002282      0.000006      0.026537
      1.28280      0.74062      7.46636        -0.030033     -0.019548     -0.105744
      3.84839      0.74062      7.46636         0.001786     -0.035898     -0.104056
      6.41399      0.74062      7.46636         0.021206      0.016887     -0.064922
      2.56560      2.96249      7.46636        -0.028545      0.018022     -0.105308
      5.13119      2.96249      7.46636         0.017293      0.008512     -0.069625
      7.69679      2.96249      7.46636        -0.006159     -0.003641     -0.062095
      3.84839      5.18437      7.46636         0.025861      0.009422     -0.064654
      6.41399      5.18437      7.46636        -0.005268     -0.003638     -0.060467
      8.97958      5.18437      7.46636        -0.003248     -0.002465      0.021483
      7.69679      1.48113      9.55176         0.017975      0.104968      0.251463
      2.56610      1.48154      9.54462        -0.153200     -0.090247     -0.286321
      5.13069      1.48154      9.54462        -0.033514     -0.026258     -0.093402
      8.97635      3.70498      9.55922         0.034456     -0.102509      0.094376
      3.84839      3.70254      9.54462        -0.037533     -0.019554     -0.088129
      6.41722      3.70498      9.55922        -0.070097     -0.042762     -0.065477
     10.26248      5.92505      9.55176        -0.003603     -0.002436      0.038539
      5.13109      5.92505      9.55176         0.097434     -0.037522      0.249493
      7.69679      5.92126      9.55922        -0.068873      0.081526      0.094633
      0.00000      0.00000     11.63975        -0.137836     -0.083847     -0.192843
      2.57267      0.01383     11.65039        -0.047305     -0.851372     -0.207272
      5.12411      0.01383     11.65039         0.304197     -0.513098     -0.381344
      1.29831      2.22109     11.65039        -0.794328      0.392370     -0.231944
      6.39847      2.22109     11.65039         0.715423     -0.291204     -0.052874
      2.57403      4.43070     11.65039        -0.291402      0.531747     -0.386132
      5.12275      4.43070     11.65039         0.106012      0.765980     -0.052160
      7.69679      4.44374     11.64501         0.182433      0.110586     -0.105889
      3.84839      2.22187     11.55740         0.249835      0.138474      1.626162
      4.91230      2.83588     12.79338        -0.048129     -0.022784     -0.051749
      2.62721      1.53382     13.00058        -0.022355     -0.018211      0.022870
      2.95208      1.75025     13.89445         0.001670     -0.006829     -0.014323
    total drift:                               -0.038553      0.013862     -0.093277

  FREE ENERGIE OF THE ION-ELECTRON SYSTEM (eV)
  free  energy   TOTEN  =      -148.52356142 eV

  energy  without entropy=     -148.52356142  energy(sigma->0) =     -148.52356142

 stress matrix after NEB project (eV)
     -4.07948     -0.31740      0.52538
     -0.31740     -3.77998      0.23739
      0.52538      0.23739     -2.11493
  FORCES: max atom, RMS     0.074253    0.013514
  FORCE total and by dimension    0.084395    0.051749
  Stress total and by dimension    6.022431    4.079485
|           W    W    AA    RRRRR   N    N  II  N    N   GGGG   !!!           |
|           W    W   A  A   R    R  NN   N  II  NN   N  G    G  !!!           |
|           W    W  A    A  R    R  N N  N  II  N N  N  G       !!!           |
|           W WW W  AAAAAA  RRRRR   N  N N  II  N  N N  G  GGG   !            |
|           WW  WW  A    A  R   R   N   NN  II  N   NN  G    G                |
|           W    W  A    A  R    R  N    N  II  N    N   GGGG   !!!           |
|     Tetrahedron method does not include variations of the Fermi             |
|     occupations, so forces and stress will be inaccurate. We suggest        |
|     using a different smearing scheme ISMEAR = 1 or 2 for metals in         |
|     relaxations.                                                            |

 total charge

# of ion       s       p       d       tot
    1        0.449   0.282   9.188   9.920
    2        0.448   0.285   9.185   9.918
    3        0.448   0.286   9.185   9.918
    4        0.447   0.285   9.185   9.918
    5        0.449   0.286   9.183   9.917
    6        0.449   0.284   9.186   9.920
    7        0.448   0.286   9.185   9.918
    8        0.449   0.284   9.186   9.919
    9        0.447   0.284   9.187   9.918
   10        0.443   0.369   9.178   9.990
   11        0.442   0.367   9.182   9.991
   12        0.444   0.371   9.176   9.990
   13        0.442   0.367   9.182   9.991
   14        0.441   0.367   9.183   9.991
   15        0.439   0.367   9.180   9.987
   16        0.444   0.371   9.176   9.990
   17        0.439   0.367   9.180   9.987
   18        0.438   0.370   9.178   9.986
   19        0.435   0.378   9.173   9.985
   20        0.469   0.396   9.159  10.024
   21        0.461   0.403   9.158  10.022
   22        0.433   0.375   9.178   9.986
   23        0.461   0.403   9.158  10.022
   24        0.438   0.369   9.185   9.992
   25        0.441   0.364   9.185   9.991
   26        0.435   0.377   9.173   9.985
   27        0.433   0.375   9.178   9.986
   28        0.451   0.278   9.200   9.928
   29        0.425   0.349   9.181   9.954
   30        0.449   0.296   9.195   9.940
   31        0.425   0.354   9.179   9.959
   32        0.431   0.366   9.172   9.969
   33        0.449   0.296   9.196   9.940
   34        0.431   0.366   9.172   9.969
   35        0.447   0.280   9.198   9.925
   36        0.501   0.715   4.509   5.725
   37        1.591   3.346   0.000   4.937
   38        1.552   3.546   0.000   5.098
   39        0.604   0.119   0.000   0.723
tot         19.769  19.629 325.832 365.231

 BZINTS: Fermi energy:   -0.445113;  404.000000 electrons
         Band energy:-0.142514E+04;  BLOECHL correction:   -0.022774