 vasp.6.2.0 18Jan21 (build Jun 12 2021 23:27:24) complex

 executed on             LinuxIFC date 2022.05.28  02:49:28

 INCAR:
   ISMEAR = -5
   SIGMA = 0.1
   ISPIN = 1
   EDIFF = 1.d-5
   EDIFFG = -0.01
   NSW = 0
   NELM = 150
   ENCUT = 500
   ISIF = 2
   IBRION = 2
   LREAL = Auto
   ALGO = Fast
   ICHARG = 11
   LORBIT = 10
   LCHARG = .F.
   LWAVE = .F.

 POTCAR:    PAW_PBE Cu 22Jun2005
 POTCAR:    PAW_PBE Os 17Jan2003
 POTCAR:    PAW_PBE C 08Apr2002
 POTCAR:    PAW_PBE O 08Apr2002
|           W    W    AA    RRRRR   N    N  II  N    N   GGGG   !!!           |
|           W    W   A  A   R    R  NN   N  II  NN   N  G    G  !!!           |
|           W    W  A    A  R    R  N N  N  II  N N  N  G       !!!           |
|           W WW W  AAAAAA  RRRRR   N  N N  II  N  N N  G  GGG   !            |
|           WW  WW  A    A  R   R   N   NN  II  N   NN  G    G                |
|           W    W  A    A  R    R  N    N  II  N    N   GGGG   !!!           |
|     For optimal performance we recommend to set                             |
|       NCORE = 2 up to number-of-cores-per-socket                            |
|     This setting can greatly improve the performance of VASP for DFT.       |
|     The default, NCORE=1 might be grossly inefficient on modern             |
|     multi-core architectures or massively parallel machines. Do your        |
|     Unfortunately you need to use the default for GW and RPA                |
|     calculations (for HF NCORE is supported but not extensively tested      |
|     yet).                                                                   |

 POTCAR:    PAW_PBE Cu 22Jun2005
   VRHFIN =Cu: d10 p1

   TITEL  = PAW_PBE Cu 22Jun2005
   POMASS =   63.546; ZVAL   =   11.000    mass and valenz
   ENMAX  =  295.446; ENMIN  =  221.585 eV

 POTCAR:    PAW_PBE Os 17Jan2003
   VRHFIN =Os: 6s5d

   TITEL  = PAW_PBE Os 17Jan2003
   POMASS =  190.200; ZVAL   =    8.000    mass and valenz
   ENMAX  =  228.022; ENMIN  =  171.017 eV

 POTCAR:    PAW_PBE C 08Apr2002
   VRHFIN =C: s2p2

   TITEL  = PAW_PBE C 08Apr2002
   POMASS =   12.011; ZVAL   =    4.000    mass and valenz
   ENMAX  =  400.000; ENMIN  =  300.000 eV

 POTCAR:    PAW_PBE O 08Apr2002
   VRHFIN =O: s2p4

   TITEL  = PAW_PBE O 08Apr2002
   POMASS =   16.000; ZVAL   =    6.000    mass and valenz
   ENMAX  =  400.000; ENMIN  =  300.000 eV

 Optimization of the real space projectors (new method)

 maximal supplied QI-value         = 16.25
 optimisation between [QCUT,QGAM] = [ 11.38, 22.75] = [ 36.24,144.96] Ry
 Optimized for a Real-space Cutoff    1.52 Angstroem

   l    n(q)    QCUT    max X(q) W(low)/X(q) W(high)/X(q)  e(spline)
   2      9    11.376     4.610    0.21E-03    0.10E-03    0.26E-06
   2      9    11.376     8.522    0.33E-03    0.16E-03    0.37E-06
   0     10    11.376    51.609    0.62E-04    0.20E-04    0.13E-06
   0     10    11.376    27.747    0.54E-04    0.20E-04    0.13E-06
   1     10    11.376    20.408    0.13E-04    0.99E-04    0.19E-06
   1     10    11.376    13.425    0.12E-04    0.87E-04    0.17E-06
 Optimization of the real space projectors (new method)

[...]

   l    n(q)    QCUT    max X(q) W(low)/X(q) W(high)/X(q)  e(spline)
   0      7    11.310   115.676    0.43E-03    0.13E-02    0.19E-06
   0      7    11.310    87.132    0.43E-03    0.13E-02    0.18E-06
   1      6    11.310     4.429    0.42E-03    0.74E-03    0.11E-06
   1      6    11.310     2.733    0.34E-03    0.55E-03    0.92E-07
 Optimization of the real space projectors (new method)

 maximal supplied QI-value         = 24.76
 optimisation between [QCUT,QGAM] = [ 11.39, 22.77] = [ 36.31,145.25] Ry
 Optimized for a Real-space Cutoff    1.00 Angstroem

   l    n(q)    QCUT    max X(q) W(low)/X(q) W(high)/X(q)  e(spline)
   0      7    11.387    20.381    0.39E-03    0.13E-02    0.15E-06
   0      7    11.387    15.268    0.42E-03    0.14E-02    0.17E-06
   1      6    11.387     5.964    0.41E-03    0.11E-02    0.17E-06
   1      6    11.387     5.382    0.39E-03    0.87E-03    0.15E-06
  PAW_PBE Cu 22Jun2005                  :
  PAW_PBE Os 17Jan2003                  :
  PAW_PBE C 08Apr2002                   :
  PAW_PBE O 08Apr2002                   :

 POSCAR: Cu-Os-CO2
  positions in direct lattice
  velocities in cartesian coordinates
 exchange correlation table for  LEXCH =        8
   RHO(1)=    0.500       N(1)  =     2000
   RHO(2)=  100.500       N(2)  =     4000

 VTST: version 3.2, (02/03/18)

 CHAIN: initializing optimizer

 OPT: Using VASP Conjugate-Gradient optimizer
 CHAIN: Read ICHAIN            0

 POSCAR: Cu-Os-CO2
  positions in direct lattice
  velocities in cartesian coordinates

 ion  position               nearest neighbor table
   1  0.000  0.000  0.229-   7 2.57   3 2.57   4 2.57   2 2.57   6 2.57   8 2.57  12 2.57  10 2.57
                            16 2.57
   2  0.333  0.000  0.229-   8 2.57   9 2.57   5 2.57   1 2.57   3 2.57  11 2.57   4 2.57  10 2.57
                            17 2.57
   3  0.667  0.000  0.229-   1 2.57   7 2.57   6 2.57   9 2.57   2 2.57  12 2.57   5 2.57  18 2.57
                            11 2.57
   4  0.000  0.333  0.229-   5 2.57   6 2.57   1 2.57   7 2.57   2 2.57  13 2.57   9 2.57  10 2.57
                            15 2.57
   5  0.333  0.333  0.229-   4 2.57   2 2.57   7 2.57  13 2.57   8 2.57   6 2.57   3 2.57  11 2.57
                            14 2.57
   6  0.667  0.333  0.229-   4 2.57   9 2.57  15 2.57   3 2.57   1 2.57   8 2.57  14 2.57   5 2.57
                            12 2.57
   7  0.000  0.667  0.229-   1 2.57   3 2.57  16 2.57  18 2.57   4 2.57   5 2.57   8 2.57   9 2.57
                            13 2.57
   8  0.333  0.667  0.229-   9 2.57   2 2.57  17 2.57   6 2.57   1 2.57   7 2.57   5 2.57  14 2.57
                            16 2.57
   9  0.667  0.667  0.229-   8 2.57   6 2.57   2 2.57  17 2.57   3 2.57   7 2.57   4 2.57  15 2.57
                            18 2.57
  10  0.111  0.111  0.318-  20 2.53  11 2.57  12 2.57  13 2.57   1 2.57   2 2.57   4 2.57  15 2.57
                            16 2.57  17 2.57  26 2.57  19 2.57
  11  0.444  0.111  0.318-  20 2.54  21 2.54  10 2.57  13 2.57   2 2.57  17 2.57  14 2.57  12 2.57
                             5 2.57   3 2.57  18 2.57  27 2.57
  12  0.778  0.111  0.318-  21 2.53  15 2.57  10 2.57  14 2.57  18 2.57   3 2.57   1 2.57  16 2.57
                            11 2.57   6 2.57  19 2.57  25 2.57
  13  0.111  0.444  0.318-  23 2.54  20 2.54  16 2.57  18 2.57  10 2.57  11 2.57  14 2.57   5 2.57
                             4 2.57   7 2.57  15 2.57  22 2.57
  14  0.444  0.444  0.318-  21 2.54  23 2.54  15 2.57  17 2.57  12 2.57  16 2.57  13 2.57  11 2.57
                             6 2.57   8 2.57   5 2.57  24 2.57
  15  0.778  0.444  0.318-  19 2.56  14 2.57  17 2.57  12 2.57   6 2.57  18 2.57  10 2.57   9 2.57
                            13 2.57   4 2.57  24 2.57  22 2.57
  16  0.111  0.778  0.318-  23 2.53  18 2.57  13 2.57   7 2.57  14 2.57  17 2.57  12 2.57  10 2.57
                             8 2.57   1 2.57  25 2.57  26 2.57
  17  0.444  0.778  0.318-  26 2.56  14 2.57  15 2.57   8 2.57   9 2.57  11 2.57  16 2.57  18 2.57
                            10 2.57   2 2.57  27 2.57  24 2.57
  18  0.778  0.778  0.318-  25 2.56  16 2.57  13 2.57   7 2.57  15 2.57  12 2.57  17 2.57   9 2.57
                             3 2.57  11 2.57  22 2.57  27 2.57
  19  0.888  0.223  0.408-  21 2.55  20 2.55  28 2.55  22 2.56  24 2.56  15 2.56  12 2.57  10 2.57
                            32 2.57  31 2.57  25 2.57  26 2.57
  20  0.221  0.221  0.406-  10 2.53  36 2.53  11 2.54  13 2.54  26 2.55  19 2.55  27 2.57  22 2.57
                            23 2.59  21 2.59  29 2.60  31 2.60
  21  0.558  0.221  0.406-  12 2.53  36 2.53  14 2.54  11 2.54  19 2.55  25 2.55  24 2.57  27 2.57
                            20 2.59  23 2.59  32 2.60  30 2.60
  22  0.888  0.556  0.408-  35 2.55  24 2.55  27 2.55  19 2.56  25 2.56  18 2.57  15 2.57  23 2.57
                            20 2.57  13 2.57  31 2.58  33 2.58
  23  0.221  0.558  0.406-  16 2.53  36 2.53  13 2.54  14 2.54  25 2.55  26 2.55  22 2.57  24 2.57
                            20 2.59  21 2.59  33 2.60  34 2.60
  24  0.556  0.556  0.408-  35 2.55  22 2.55  27 2.55  19 2.56  26 2.56  15 2.57  17 2.57  21 2.57
                            23 2.57  14 2.57  32 2.58  34 2.58
  25  0.888  0.888  0.408-  21 2.55  23 2.55  28 2.55  22 2.56  27 2.56  18 2.56  16 2.57  12 2.57
                            33 2.57  30 2.57  19 2.57  26 2.57
  26  0.223  0.888  0.408-  20 2.55  23 2.55  28 2.55  27 2.56  24 2.56  17 2.56  10 2.57  16 2.57
                            29 2.57  34 2.57  25 2.57  19 2.57
  27  0.556  0.888  0.408-  35 2.55  24 2.55  22 2.55  26 2.56  25 2.56  17 2.57  18 2.57  20 2.57
                            21 2.57  11 2.57  29 2.58  30 2.58
  28  0.000  0.000  0.496-  25 2.55  19 2.55  26 2.55  33 2.56  30 2.56  31 2.56  29 2.56  32 2.56
                            34 2.56
  29  0.333  0.000  0.497-  31 2.56  28 2.56  34 2.57  36 2.57  35 2.57  30 2.57  26 2.57  27 2.58
                            20 2.60
  30  0.667  0.000  0.497-  32 2.56  28 2.56  33 2.57  36 2.57  35 2.57  29 2.57  25 2.57  27 2.58
                            21 2.60
  31  0.000  0.333  0.497-  29 2.56  28 2.56  32 2.57  36 2.57  35 2.57  33 2.57  19 2.57  22 2.58
                            20 2.60
  32  0.667  0.333  0.497-  30 2.56  28 2.56  31 2.57  36 2.57  35 2.57  34 2.57  19 2.57  24 2.58
                            21 2.60
  33  0.000  0.667  0.497-  34 2.56  28 2.56  30 2.57  36 2.57  35 2.57  31 2.57  25 2.57  22 2.58
                            23 2.60
  34  0.333  0.667  0.497-  33 2.56  28 2.56  29 2.57  36 2.57  35 2.57  32 2.57  26 2.57  24 2.58
                            23 2.60
  35  0.667  0.667  0.496-  24 2.55  27 2.55  22 2.55  34 2.57  32 2.57  29 2.57  30 2.57  33 2.57
                            31 2.57
  36  0.333  0.333  0.493-  37 2.17  23 2.53  20 2.53  21 2.53  31 2.57  29 2.57  33 2.57  34 2.57
                            32 2.57  30 2.57
  37  0.333  0.335  0.586-  38 1.24  39 1.24  36 2.17
  38  0.182  0.333  0.603-  37 1.24
  39  0.485  0.333  0.603-  37 1.24

  LATTYP: Found a hexagonal cell.
 ALAT       =     7.6967864036
 C/A-ratio  =     3.0484540560

  Lattice vectors:

 A1 = (  -3.8483927580,  -6.6656128093,   0.0000000000)
 A2 = (   7.6967864037,   0.0000000000,   0.0000000000)
 A3 = (   0.0000000000,   0.0000000000,  23.4632997305)

Analysis of symmetry for initial positions (statically):
 Subroutine PRICEL returns:
 Original cell was already a primitive cell.

 Routine SETGRP: Setting up the symmetry group for a
 hexagonal supercell.

 Subroutine GETGRP returns: Found  2 space group operations
 (whereof  2 operations were pure point group operations)
 out of a pool of 24 trial point group operations.

The static configuration has the point symmetry C_1h.

Analysis of symmetry for dynamics (positions and initial velocities):
 Subroutine PRICEL returns:
 Original cell was already a primitive cell.

[...]

The dynamic configuration has the point symmetry C_1h.

Analysis of constrained symmetry for selective dynamics:
[...]
     41      -4.5226      2.00000
     42      -4.4801      2.00000
     43      -4.3279      2.00000
     44      -4.3192      2.00000
     45      -4.2689      2.00000
     46      -4.2673      2.00000
     47      -4.2421      2.00000
     48      -4.2310      2.00000
     49      -4.2087      2.00000
     50      -4.2011      2.00000
     51      -4.1983      2.00000
     52      -4.0100      2.00000
     53      -3.9948      2.00000
     54      -3.9915      2.00000
     55      -3.9837      2.00000
     56      -3.9455      2.00000
     57      -3.9195      2.00000
     58      -3.9079      2.00000
     59      -3.9032      2.00000
     60      -3.8980      2.00000
[...]
    238       5.2680      0.00000
    239       5.3131      0.00000
    240       5.4847      0.00000
    241       5.6366      0.00000
    242       5.6406      0.00000
    243       5.7320      0.00000
    244       5.9132      0.00000
    245       6.0023      0.00000
    246       6.0082      0.00000
    247       6.3928      0.00000
    248       6.4766      0.00000
    249       6.5064      0.00000
    250       6.5955      0.00000
    251       6.8014      0.00000
    252       6.8293      0.00000

 soft charge-density along one line, spin component           1
         0         1         2         3         4         5         6         7         8         9
 total charge-density along one line

------------------------ aborting loop because EDIFF is reached ----------------------------------------

 total charge

# of ion       s       p       d       tot
    1        0.448   0.284   9.188   9.920
    2        0.449   0.285   9.186   9.919
    3        0.449   0.285   9.186   9.919
    4        0.448   0.284   9.187   9.920
    5        0.448   0.285   9.185   9.918
    6        0.448   0.284   9.187   9.920
    7        0.449   0.285   9.186   9.919
    8        0.449   0.285   9.186   9.919
    9        0.448   0.283   9.188   9.919
   10        0.442   0.374   9.174   9.991
   11        0.443   0.368   9.183   9.994
   12        0.442   0.374   9.174   9.991
   13        0.443   0.368   9.183   9.994
   14        0.443   0.368   9.183   9.994
   15        0.438   0.369   9.179   9.986
   16        0.442   0.373   9.175   9.989
   17        0.439   0.367   9.181   9.987
   18        0.439   0.367   9.181   9.987
   19        0.438   0.367   9.185   9.989
   20        0.454   0.399   9.171  10.024
   21        0.454   0.399   9.171  10.024
   22        0.430   0.369   9.184   9.983
   23        0.453   0.394   9.175  10.022
   24        0.430   0.369   9.184   9.983
   25        0.439   0.367   9.182   9.989
   26        0.439   0.367   9.182   9.989
   27        0.431   0.369   9.184   9.984
   28        0.450   0.285   9.189   9.923
   29        0.456   0.306   9.175   9.938
   30        0.456   0.306   9.175   9.938
   31        0.445   0.304   9.180   9.929
   32        0.445   0.304   9.180   9.929
   33        0.457   0.307   9.175   9.939
   34        0.457   0.307   9.175   9.939
   35        0.440   0.290   9.189   9.919
   36        0.656   0.462   6.156   7.274
   37        0.887   1.697   0.000   2.584
   38        1.601   3.479   0.000   5.079
   39        1.601   3.479   0.000   5.079
tot         20.323  20.814 327.504 368.641

  FORCE on cell =-STRESS in cart. coord.  units (eV):
  Direction    XX          YY          ZZ          XY          YZ          ZX
  Alpha Z   859.31558   859.31558   859.31558
  Ewald  215415.55575214718.71772************     0.00040    -0.71276     0.00016
  Hartree228156.02406227812.65115************     0.00005    -0.35369     0.00005
  E(xc)   -2357.06116 -2358.92603 -2363.04537    -0.00028    -0.00953    -0.00004
  Local  ************************455877.73505     0.02031     1.03540    -0.00072
  n-local  -835.33395  -830.08864  -846.80084     2.06136     0.22654     0.08721
  augment  3334.45434  3336.46782  3357.77920    -0.01850    -0.03602     0.00042
  Kinetic  3539.40293  3586.66813  3608.80870     1.27998    -0.16537    -0.12414
  Fock        0.00000     0.00000     0.00000     0.00000     0.00000     0.00000
  Total      -4.96130    -4.93873     0.43214     0.00000    -0.01542     0.00000
  in kB      -6.60340    -6.57336     0.57517     0.00000    -0.02052     0.00000

 VOLUME and BASIS-vectors are now :
  energy-cutoff  :      500.00
  volume of cell :     1203.76
      direct lattice vectors                 reciprocal lattice vectors
     7.696786404  0.000000000  0.000000000     0.129924354 -0.075011849  0.000000000
     3.848392758  6.665612809  0.000000000     0.000000000  0.150023716  0.000000000
     0.000000000  0.000000000 23.463299730     0.000000000  0.000000000  0.042619751

  length of vectors
     7.696786404  7.696786404 23.463299730     0.150023716  0.150023716  0.042619751

 FORCES acting on ions
    electron-ion (+dipol)            ewald-force                    non-local-force                 convergence-correction
   -.417E-04 0.113E+00 0.375E+04   0.580E-04 -.428E-01 -.374E+04   0.302E-08 -.453E-01 -.250E+01   -.344E-03 -.329E-01 -.457E+00
   -.611E-01 0.330E+00 0.375E+04   0.103E-01 -.231E+00 -.374E+04   -.167E-01 -.151E-01 -.189E+01   0.662E-01 -.865E-01 -.387E+00
   0.611E-01 0.330E+00 0.375E+04   -.103E-01 -.231E+00 -.374E+04   0.167E-01 -.151E-01 -.189E+01   -.654E-01 -.839E-01 -.386E+00
   0.133E+00 -.170E+00 0.375E+04   -.158E+00 0.102E+00 -.374E+04   0.509E-01 0.101E-01 -.198E+01   -.254E-01 0.616E-01 -.367E+00
   -.632E-04 -.202E-01 0.375E+04   0.116E-03 -.676E-03 -.374E+04   0.120E-09 -.180E-02 -.177E+01   0.122E-01 0.186E-01 -.304E+00
   -.133E+00 -.170E+00 0.375E+04   0.158E+00 0.102E+00 -.374E+04   -.509E-01 0.101E-01 -.198E+01   0.237E-01 0.627E-01 -.365E+00
   0.210E+00 -.129E+00 0.375E+04   -.167E+00 0.129E+00 -.374E+04   0.368E-02 -.353E-02 -.186E+01   -.444E-01 0.754E-02 -.337E+00
   -.210E+00 -.129E+00 0.375E+04   0.167E+00 0.129E+00 -.374E+04   -.368E-02 -.353E-02 -.186E+01   0.479E-01 0.608E-02 -.337E+00
   -.144E-03 -.198E+00 0.375E+04   0.263E-03 0.435E-01 -.374E+04   -.648E-08 0.973E-01 -.218E+01   -.132E-01 0.606E-01 -.375E+00
   0.345E+01 0.243E+01 0.134E+04   -.304E+01 -.211E+01 -.134E+04   -.405E+00 -.274E+00 -.116E+01   0.460E-02 -.465E-01 0.117E+00
   -.919E-04 0.197E+01 0.133E+04   0.190E-03 -.197E+01 -.133E+04   -.203E-08 0.305E-01 -.794E+00   0.121E-01 -.510E-01 0.150E+00
   -.345E+01 0.243E+01 0.134E+04   0.304E+01 -.211E+01 -.134E+04   0.405E+00 -.274E+00 -.116E+01   -.634E-02 -.452E-01 0.117E+00
   0.125E+01 -.116E+01 0.133E+04   -.139E+01 0.103E+01 -.133E+04   0.739E-01 0.329E-01 -.657E+00   0.374E-01 0.103E+00 0.155E+00
   -.125E+01 -.116E+01 0.133E+04   0.139E+01 0.103E+01 -.133E+04   -.739E-01 0.329E-01 -.657E+00   -.136E-01 0.102E+00 0.154E+00
   -.141E-03 -.669E+00 0.133E+04   0.299E-03 0.350E+00 -.133E+04   -.116E-07 0.175E+00 -.969E+00   -.359E-02 0.127E+00 0.125E+00
   -.881E-04 -.389E+01 0.134E+04   0.186E-03 0.363E+01 -.134E+04   -.222E-07 0.334E+00 -.996E+00   -.507E-03 -.756E-01 0.159E+00
   -.407E+00 0.224E-01 0.133E+04   0.112E+00 0.652E-01 -.133E+04   0.184E+00 -.402E-01 -.758E+00   0.960E-01 -.486E-01 0.135E+00
   0.407E+00 0.224E-01 0.133E+04   -.112E+00 0.652E-01 -.133E+04   -.184E+00 -.402E-01 -.758E+00   -.947E-01 -.457E-01 0.137E+00
   -.629E-04 0.133E+01 -.109E+04   0.684E-04 -.145E+01 0.109E+04   -.557E-08 0.837E-01 0.987E+00   -.110E-01 0.138E-01 0.497E+00
   -.231E+02 -.114E+02 -.109E+04   0.237E+02 0.118E+02 0.109E+04   -.692E+00 -.441E+00 -.771E+00   0.141E-01 -.526E-01 0.335E+00
   0.231E+02 -.114E+02 -.109E+04   -.237E+02 0.118E+02 0.109E+04   0.692E+00 -.441E+00 -.771E+00   -.329E-01 -.531E-01 0.334E+00
   -.157E+02 0.670E+01 -.110E+04   0.150E+02 -.621E+01 0.110E+04   0.749E+00 -.546E+00 0.938E+00   0.214E-01 0.313E-01 0.382E+00
   -.977E-04 0.242E+02 -.109E+04   0.145E-03 -.246E+02 0.109E+04   -.341E-07 0.512E+00 -.363E+00   0.141E-04 0.886E-01 0.300E+00
   0.157E+02 0.670E+01 -.110E+04   -.150E+02 -.621E+01 0.110E+04   -.749E+00 -.546E+00 0.938E+00   -.216E-01 0.299E-01 0.382E+00
   0.355E-01 0.101E+01 -.110E+04   -.807E-01 -.942E+00 0.110E+04   0.571E-01 0.371E-02 0.781E+00   -.130E-01 -.622E-01 0.488E+00
   -.354E-01 0.101E+01 -.110E+04   0.804E-01 -.942E+00 0.110E+04   -.571E-01 0.371E-02 0.781E+00   -.822E-02 -.631E-01 0.488E+00
   -.113E-03 -.175E+02 -.110E+04   0.242E-03 0.168E+02 0.110E+04   -.496E-07 0.745E+00 0.887E+00   0.934E-03 0.309E-02 0.394E+00
   -.418E-04 0.126E+02 -.350E+04   0.337E-04 -.124E+02 0.349E+04   0.130E-07 -.195E+00 0.229E+01   -.195E-03 -.462E-01 0.474E+00
   -.471E+01 0.179E+02 -.348E+04   0.540E+01 -.178E+02 0.347E+04   -.686E+00 -.221E+00 0.199E+01   -.206E-01 -.464E-01 0.433E+00
   0.471E+01 0.179E+02 -.348E+04   -.540E+01 -.178E+02 0.347E+04   0.686E+00 -.221E+00 0.199E+01   0.215E-01 -.447E-01 0.432E+00
   0.129E+02 -.232E+01 -.344E+04   -.132E+02 0.259E+01 0.344E+04   0.238E+00 -.245E+00 0.290E+01   -.614E-01 -.117E-01 0.451E+00
   -.129E+02 -.232E+01 -.344E+04   0.132E+02 0.259E+01 0.344E+04   -.238E+00 -.245E+00 0.290E+01   0.609E-01 -.108E-01 0.451E+00
   -.112E+00 -.155E+02 -.348E+04   0.352E+00 0.152E+02 0.347E+04   -.281E+00 0.463E+00 0.187E+01   0.176E-01 0.531E-01 0.423E+00
   0.112E+00 -.155E+02 -.348E+04   -.353E+00 0.152E+02 0.347E+04   0.281E+00 0.463E+00 0.187E+01   -.147E-01 0.521E-01 0.423E+00
   -.161E-03 -.127E+02 -.350E+04   0.258E-03 0.126E+02 0.350E+04   -.117E-07 0.176E+00 0.277E+01   -.127E-01 0.265E-01 0.456E+00
   -.422E-04 0.418E+00 -.232E+04   0.102E-03 -.341E+00 0.232E+04   0.698E-08 -.105E+00 0.131E+01   0.146E-02 0.929E-02 0.418E+00
   -.292E-05 -.326E+01 -.136E+04   0.753E-05 0.337E+01 0.135E+04   0.840E-08 -.126E+00 0.427E+01   0.627E-03 0.843E-02 0.584E-01
   0.225E+03 0.114E+01 -.219E+04   -.274E+03 -.154E+01 0.221E+04   0.492E+02 0.393E+00 -.193E+02   0.360E-01 0.495E-02 0.481E-02
   -.225E+03 0.114E+01 -.219E+04   0.274E+03 -.154E+01 0.221E+04   -.492E+02 0.393E+00 -.193E+02   -.365E-01 0.503E-02 0.410E-02
   0.248E-04 0.103E+00 0.313E+02   0.114E-12 0.511E-13 0.364E-11   0.566E-08 -.850E-01 -.369E+02   -.257E-01 -.315E-01 0.556E+01

 POSITION                                       TOTAL-FORCE (eV/Angst)
      0.00000      0.00000      5.37156         0.000000     -0.007538      0.050105
      2.56560      0.00000      5.37156        -0.001744     -0.000705      0.057319
      5.13119      0.00000      5.37156         0.001744     -0.000705      0.057319
      1.28280      2.22187      5.37156         0.001747      0.004246      0.052094
      3.84839      2.22187      5.37156         0.000000     -0.003639      0.014734
      6.41399      2.22187      5.37156        -0.001747      0.004246      0.052094
      2.56560      4.44374      5.37156         0.000004      0.003657      0.056123
      5.13119      4.44374      5.37156        -0.000004      0.003657      0.056123
      7.69679      4.44374      5.37156        -0.000000      0.003807      0.033880
      1.28280      0.74062      7.46636         0.002541      0.000473     -0.035100
      3.84839      0.74062      7.46636         0.000000     -0.015583     -0.087928
      6.41399      0.74062      7.46636        -0.002541      0.000473     -0.035100
      2.56560      2.96249      7.46636        -0.041037      0.013994     -0.098513
      5.13119      2.96249      7.46636         0.041037      0.013994     -0.098513
      7.69679      2.96249      7.46636         0.000000     -0.017237      0.007234
      3.84839      5.18437      7.46636        -0.000000      0.005006     -0.040821
      6.41399      5.18437      7.46636        -0.015674      0.000669      0.010230
      8.97958      5.18437      7.46636         0.015674      0.000669      0.010230
      7.69679      1.48657      9.56400         0.000000     -0.018980      0.035080
      2.55408      1.47460      9.52990        -0.131577     -0.046353     -0.090909
      5.14271      1.47460      9.52990         0.131577     -0.046353     -0.090909
      8.97350      3.70663      9.56526         0.052406     -0.027101      0.007595
      3.84839      3.71642      9.52990        -0.000000      0.134075     -0.158105
      6.42007      3.70663      9.56526        -0.052406     -0.027101      0.007595
     10.25777      5.92233      9.56400         0.009583      0.005726      0.007160
      5.13580      5.92233      9.56400        -0.009583      0.005726      0.007160
      7.69679      5.91797      9.56526        -0.000000      0.039506     -0.016988
      0.00000      0.00000     11.64184         0.000000     -0.032460     -0.030481
      2.56182      0.00242     11.67254        -0.015906     -0.178735     -0.123090
      5.13496      0.00242     11.67254         0.015906     -0.178735     -0.123090
      1.28301      2.21740     11.67254        -0.159061      0.015001      0.000927
      6.41378      2.21740     11.67254         0.159061      0.015001      0.000927
      2.56958      4.44580     11.67254        -0.024170      0.159964     -0.108325
      5.12721      4.44580     11.67254         0.024170      0.159964     -0.108325
      7.69679      4.44374     11.64035        -0.000000      0.035205     -0.006031
      3.84839      2.22187     11.57579         0.000000     -0.018010      0.712158
      3.84839      2.23088     13.74136         0.000000     -0.012396      0.030415
      2.68327      2.22132     14.15120        -0.008020      0.003285     -0.007138
      5.01352      2.22132     14.15120         0.008020      0.003285     -0.007138
    total drift:                               -0.025669     -0.013725     -0.004264

  FREE ENERGIE OF THE ION-ELECTRON SYSTEM (eV)
  free  energy   TOTEN  =      -153.96896389 eV

  energy  without entropy=     -153.96896389  energy(sigma->0) =     -153.96896389

 stress matrix after NEB project (eV)
     -4.96130      0.00000      0.00000
      0.00000     -4.93873     -0.01542
      0.00000     -0.01542      0.43214
  FORCES: max atom, RMS     0.032844    0.005842
  FORCE total and by dimension    0.036481    0.030415
  Stress total and by dimension    7.013756    4.961299
|           W    W    AA    RRRRR   N    N  II  N    N   GGGG   !!!           |
|           W    W   A  A   R    R  NN   N  II  NN   N  G    G  !!!           |
|           W    W  A    A  R    R  N N  N  II  N N  N  G       !!!           |
|           W WW W  AAAAAA  RRRRR   N  N N  II  N  N N  G  GGG   !            |
|           WW  WW  A    A  R   R   N   NN  II  N   NN  G    G                |
|           W    W  A    A  R    R  N    N  II  N    N   GGGG   !!!           |
|     Tetrahedron method does not include variations of the Fermi             |
|     occupations, so forces and stress will be inaccurate. We suggest        |
|     using a different smearing scheme ISMEAR = 1 or 2 for metals in         |
|     relaxations.                                                            |

 total charge

# of ion       s       p       d       tot
    1        0.448   0.284   9.188   9.920
    2        0.449   0.285   9.186   9.919
    3        0.449   0.285   9.186   9.919
    4        0.448   0.284   9.187   9.920
    5        0.448   0.285   9.185   9.918
    6        0.448   0.284   9.187   9.920
    7        0.449   0.285   9.186   9.919
    8        0.449   0.285   9.186   9.919
    9        0.448   0.283   9.188   9.919
   10        0.442   0.374   9.174   9.991
   11        0.443   0.368   9.183   9.994
   12        0.442   0.374   9.174   9.991
   13        0.443   0.368   9.183   9.994
   14        0.443   0.368   9.183   9.994
   15        0.438   0.369   9.179   9.986
   16        0.442   0.373   9.175   9.989
   17        0.439   0.367   9.181   9.987
   18        0.439   0.367   9.181   9.987
   19        0.438   0.367   9.185   9.989
   20        0.454   0.399   9.171  10.024
   21        0.454   0.399   9.171  10.024
   22        0.430   0.369   9.184   9.983
   23        0.453   0.394   9.175  10.022
   24        0.430   0.369   9.184   9.983
   25        0.439   0.367   9.182   9.989
   26        0.439   0.367   9.182   9.989
   27        0.431   0.369   9.184   9.984
   28        0.450   0.285   9.189   9.923
   29        0.456   0.306   9.175   9.938
   30        0.456   0.306   9.175   9.938
   31        0.445   0.304   9.180   9.929
   32        0.445   0.304   9.180   9.929
   33        0.457   0.307   9.175   9.939
   34        0.457   0.307   9.175   9.939
   35        0.440   0.290   9.189   9.919
   36        0.656   0.462   6.156   7.274
   37        0.887   1.697   0.000   2.584
   38        1.601   3.479   0.000   5.079
   39        1.601   3.479   0.000   5.079
tot         20.323  20.814 327.504 368.641

 BZINTS: Fermi energy:   -0.542324;  409.000000 electrons
         Band energy:-0.147174E+04;  BLOECHL correction:   -0.051183