 vasp.6.2.0 18Jan21 (build Jun 12 2021 23:27:24) complex

 executed on             LinuxIFC date 2022.05.30  17:34:49

 INCAR:
   ISMEAR = -5
   SIGMA = 0.1
   ISPIN = 1
   EDIFF = 1.d-5
   EDIFFG = -0.01
   NSW = 0
   NELM = 150
   ENCUT = 500
   ISIF = 2
   IBRION = 2
   LREAL = Auto
   ALGO = Fast
   ICHARG = 11
   LORBIT = 10
   LCHARG = .F.
   LWAVE = .F.

 POTCAR:    PAW_PBE Ag 02Apr2005
 POTCAR:    PAW_PBE W 08Apr2002
 POTCAR:    PAW_PBE C 08Apr2002
 POTCAR:    PAW_PBE O 08Apr2002
 POTCAR:    PAW_PBE H 15Jun2001
|           W    W    AA    RRRRR   N    N  II  N    N   GGGG   !!!           |
|           W    W   A  A   R    R  NN   N  II  NN   N  G    G  !!!           |
|           W    W  A    A  R    R  N N  N  II  N N  N  G       !!!           |
|           W WW W  AAAAAA  RRRRR   N  N N  II  N  N N  G  GGG   !            |
|           WW  WW  A    A  R   R   N   NN  II  N   NN  G    G                |
|           W    W  A    A  R    R  N    N  II  N    N   GGGG   !!!           |
|     For optimal performance we recommend to set                             |
|       NCORE = 2 up to number-of-cores-per-socket                            |
|     This setting can greatly improve the performance of VASP for DFT.       |
|     The default, NCORE=1 might be grossly inefficient on modern             |
|     multi-core architectures or massively parallel machines. Do your        |
|     Unfortunately you need to use the default for GW and RPA                |
|     calculations (for HF NCORE is supported but not extensively tested      |
|     yet).                                                                   |

 POTCAR:    PAW_PBE Ag 02Apr2005
   VRHFIN =Ag : s1 d10

   TITEL  = PAW_PBE Ag 02Apr2005
   POMASS =  107.868; ZVAL   =   11.000    mass and valenz
   ENMAX  =  249.844; ENMIN  =  187.383 eV

 POTCAR:    PAW_PBE W 08Apr2002
   VRHFIN =W : 6s5d

[...]

 POTCAR:    PAW_PBE C 08Apr2002
   VRHFIN =C: s2p2

[...]

 POTCAR:    PAW_PBE O 08Apr2002
   VRHFIN =O: s2p4

   TITEL  = PAW_PBE O 08Apr2002
   POMASS =   16.000; ZVAL   =    6.000    mass and valenz
   ENMAX  =  400.000; ENMIN  =  300.000 eV

 POTCAR:    PAW_PBE H 15Jun2001
   VRHFIN =H: ultrasoft test

   TITEL  = PAW_PBE H 15Jun2001
   POMASS =    1.000; ZVAL   =    1.000    mass and valenz
   ENMAX  =  250.000; ENMIN  =  200.000 eV

 Optimization of the real space projectors (new method)

 maximal supplied QI-value         = 15.12
 optimisation between [QCUT,QGAM] = [ 11.34, 22.83] = [ 36.00,145.93] Ry
 Optimized for a Real-space Cutoff    1.43 Angstroem

   l    n(q)    QCUT    max X(q) W(low)/X(q) W(high)/X(q)  e(spline)
   2      9    11.338    53.897    0.16E-03    0.20E-03    0.28E-06
   2      9    11.338    52.416    0.16E-03    0.20E-03    0.29E-06
   0     10    11.338   122.045    0.31E-04    0.76E-04    0.15E-06
   0     10    11.338    73.629    0.30E-04    0.72E-04    0.15E-06
   1      9    11.338    15.255    0.20E-03    0.19E-04    0.17E-06
   1      9    11.338     9.562    0.16E-03    0.15E-04    0.14E-06
 Optimization of the real space projectors (new method)

[...]

   l    n(q)    QCUT    max X(q) W(low)/X(q) W(high)/X(q)  e(spline)
   0      7    11.387    20.381    0.39E-03    0.13E-02    0.15E-06
   0      7    11.387    15.268    0.42E-03    0.14E-02    0.17E-06
   1      6    11.387     5.964    0.41E-03    0.11E-02    0.17E-06
   1      6    11.387     5.382    0.39E-03    0.87E-03    0.15E-06
 Optimization of the real space projectors (new method)

 maximal supplied QI-value         = 34.20
 optimisation between [QCUT,QGAM] = [ 11.29, 22.57] = [ 35.68,142.71] Ry
 Optimized for a Real-space Cutoff    1.16 Angstroem

   l    n(q)    QCUT    max X(q) W(low)/X(q) W(high)/X(q)  e(spline)
   0      8    11.287    19.460    0.40E-03    0.73E-03    0.16E-06
   0      8    11.287    12.209    0.38E-03    0.70E-03    0.15E-06
   1      7    11.287     4.655    0.22E-03    0.25E-04    0.22E-06
  PAW_PBE Ag 02Apr2005                  :
  PAW_PBE W 08Apr2002                   :
  PAW_PBE C 08Apr2002                   :
  PAW_PBE O 08Apr2002                   :
  PAW_PBE H 15Jun2001                   :

 POSCAR: Ag-W-COH
  positions in direct lattice
  velocities in cartesian coordinates
 exchange correlation table for  LEXCH =        8
   RHO(1)=    0.500       N(1)  =     2000
   RHO(2)=  100.500       N(2)  =     4000

 VTST: version 3.2, (02/03/18)

 CHAIN: initializing optimizer

 OPT: Using VASP Conjugate-Gradient optimizer
 CHAIN: Read ICHAIN            0

 POSCAR: Ag-W-COH
  positions in direct lattice
  velocities in cartesian coordinates

 ion  position               nearest neighbor table
   1  0.000  0.000  0.199-   2 2.93   8 2.93   7 2.93   6 2.93   4 2.93  12 2.93  16 2.93  10 2.93
                             3 2.93
   2  0.333  0.000  0.199-   1 2.93   8 2.93   9 2.93   3 2.93   4 2.93   5 2.93  10 2.93  17 2.93
                            11 2.93
   3  0.667  0.000  0.199-   9 2.93   2 2.93   5 2.93  11 2.93   7 2.93  18 2.93   1 2.93   6 2.93
                            12 2.93
   4  0.000  0.333  0.199-   5 2.93   6 2.93   2 2.93   1 2.93   7 2.93  13 2.93  15 2.93   9 2.93
                            10 2.93
   5  0.333  0.333  0.199-   4 2.93   3 2.93   7 2.93   2 2.93   8 2.93  14 2.93  13 2.93  11 2.93
                             6 2.93
   6  0.667  0.333  0.199-   4 2.93   9 2.93   1 2.93  15 2.93   8 2.93  12 2.93   3 2.93   5 2.93
                            14 2.93
   7  0.000  0.667  0.199-   8 2.93   1 2.93   5 2.93   3 2.93   4 2.93  16 2.93  18 2.93  13 2.93
                             9 2.93
   8  0.333  0.667  0.199-   7 2.93   1 2.93   2 2.93   9 2.93   5 2.93  16 2.93   6 2.93  17 2.93
                            14 2.93
   9  0.667  0.667  0.199-   3 2.93   2 2.93   8 2.93   6 2.93  17 2.93   4 2.93  15 2.93   7 2.93
                            18 2.93
  10  0.111  0.111  0.289-  20 2.89  12 2.93  16 2.93  15 2.93  17 2.93  13 2.93  11 2.93   2 2.93
                             1 2.93   4 2.93  19 2.93  26 2.93
  11  0.444  0.111  0.289-  21 2.90  20 2.90  14 2.93  17 2.93  18 2.93   3 2.93  12 2.93  13 2.93
                            10 2.93   5 2.93   2 2.93  27 2.93
  12  0.778  0.111  0.289-  21 2.89  10 2.93  16 2.93  18 2.93  15 2.93  11 2.93   1 2.93  14 2.93
                             6 2.93   3 2.93  25 2.93  19 2.93
  13  0.111  0.444  0.289-  20 2.90  23 2.90  15 2.93  14 2.93  18 2.93  10 2.93  11 2.93  16 2.93
                             4 2.93   5 2.93   7 2.93  22 2.93
  14  0.444  0.444  0.289-  23 2.90  21 2.90  13 2.93  11 2.93  16 2.93   5 2.93  12 2.93  17 2.93
                             8 2.93  15 2.93   6 2.93  24 2.93
  15  0.778  0.444  0.289-  24 2.93  22 2.93  13 2.93  10 2.93  12 2.93  17 2.93  18 2.93   4 2.93
                             6 2.93   9 2.93  14 2.93  19 2.93
  16  0.111  0.778  0.289-  23 2.89  18 2.93  12 2.93  10 2.93  14 2.93  17 2.93  13 2.93   7 2.93
                             8 2.93   1 2.93  26 2.93  25 2.93
  17  0.444  0.778  0.289-  27 2.93  24 2.93  11 2.93  10 2.93   9 2.93  18 2.93  15 2.93  16 2.93
                             2 2.93  14 2.93   8 2.93  26 2.93
  18  0.778  0.778  0.289-  22 2.93  27 2.93  16 2.93  12 2.93  13 2.93  11 2.93  17 2.93  15 2.93
                             7 2.93   3 2.93   9 2.93  25 2.93
  19  0.889  0.223  0.379-  28 2.92  20 2.93  21 2.93  24 2.93  22 2.93  15 2.93  10 2.93  12 2.93
                            26 2.94  25 2.94  32 2.98  31 2.98
  20  0.222  0.222  0.377-  36 2.76  10 2.89  13 2.90  11 2.90  19 2.93  26 2.93  27 2.94  22 2.94
                            21 2.94  23 2.94  31 2.96  29 2.96
  21  0.556  0.222  0.377-  36 2.76  12 2.89  11 2.90  14 2.90  25 2.93  19 2.93  27 2.94  24 2.94
                            20 2.94  23 2.94  30 2.96  32 2.96
  22  0.888  0.556  0.379-  35 2.92  24 2.92  27 2.92  18 2.93  15 2.93  25 2.93  19 2.93  13 2.93
                            23 2.94  20 2.94  33 2.96  31 2.96
  23  0.222  0.556  0.377-  36 2.76  16 2.89  14 2.90  13 2.90  26 2.93  25 2.93  22 2.94  24 2.94
                            21 2.94  20 2.94  34 2.96  33 2.96
  24  0.556  0.556  0.379-  35 2.92  27 2.92  22 2.92  15 2.93  17 2.93  19 2.93  26 2.93  14 2.93
                            23 2.94  21 2.94  32 2.96  34 2.96
  25  0.889  0.889  0.379-  28 2.92  23 2.93  21 2.93  22 2.93  27 2.93  18 2.93  16 2.93  12 2.93
                            26 2.94  19 2.94  33 2.98  30 2.98
  26  0.223  0.889  0.379-  28 2.92  23 2.93  20 2.93  27 2.93  24 2.93  17 2.93  16 2.93  10 2.93
                            25 2.94  19 2.94  34 2.98  29 2.98
  27  0.556  0.888  0.379-  35 2.92  24 2.92  22 2.92  17 2.93  18 2.93  26 2.93  25 2.93  11 2.93
                            20 2.94  21 2.94  29 2.96  30 2.96
  28  0.000  0.000  0.469-  26 2.92  25 2.92  19 2.92  29 2.96  34 2.96  33 2.96  32 2.96  31 2.96
                            30 2.96
  29  0.333  0.007  0.470-  31 2.86  30 2.87  36 2.88  20 2.96  27 2.96  28 2.96  35 2.96  26 2.98
                            34 3.06
  30  0.659  0.007  0.470-  32 2.86  29 2.87  36 2.88  21 2.96  27 2.96  28 2.96  35 2.96  25 2.98
                            33 3.06
  31  0.007  0.333  0.470-  29 2.86  33 2.87  36 2.88  20 2.96  22 2.96  28 2.96  35 2.96  19 2.98
                            32 3.06
  32  0.659  0.333  0.470-  30 2.86  34 2.87  36 2.88  21 2.96  24 2.96  28 2.96  35 2.96  19 2.98
                            31 3.06
  33  0.007  0.659  0.470-  34 2.86  31 2.87  36 2.88  23 2.96  22 2.96  28 2.96  35 2.96  25 2.98
                            30 3.06
  34  0.333  0.659  0.470-  33 2.86  32 2.87  36 2.88  23 2.96  24 2.96  28 2.96  35 2.96  26 2.98
                            29 3.06
  35  0.667  0.667  0.468-  24 2.92  27 2.92  22 2.92  30 2.96  32 2.96  29 2.96  34 2.96  31 2.96
                            33 2.96
  36  0.333  0.333  0.459-  37 1.84  21 2.76  20 2.76  23 2.76  31 2.88  30 2.88  33 2.88  29 2.88
                            34 2.88  32 2.88
  37  0.333  0.333  0.528-  38 1.27  36 1.84
  38  0.333  0.333  0.576-  39 0.95  37 1.27
  39  0.333  0.333  0.612-  38 0.95

  LATTYP: Found a hexagonal cell.
 ALAT       =     8.7913665772
 C/A-ratio  =     3.0233954145

  Lattice vectors:

 A1 = (  -4.3956832886,  -7.6135467898,   0.0000000000)
 A2 = (   8.7913665771,   0.0000000000,   0.0000000000)
 A3 = (   0.0000000000,   0.0000000000,  26.5797773968)

Analysis of symmetry for initial positions (statically):
 Subroutine PRICEL returns:
 Original cell was already a primitive cell.

 Routine SETGRP: Setting up the symmetry group for a
 hexagonal supercell.

 Subroutine GETGRP returns: Found  6 space group operations
 (whereof  6 operations were pure point group operations)
 out of a pool of 24 trial point group operations.

The static configuration has the point symmetry C_3v.

Analysis of symmetry for dynamics (positions and initial velocities):
 Subroutine PRICEL returns:
 Original cell was already a primitive cell.

[...]

The dynamic configuration has the point symmetry C_3v.

Analysis of constrained symmetry for selective dynamics:
 Subroutine PRICEL returns:
[...]
     41      -4.8097      2.00000
     42      -4.7719      2.00000
     43      -4.7474      2.00000
     44      -4.7390      2.00000
     45      -4.7261      2.00000
     46      -4.7183      2.00000
     47      -4.7021      2.00000
     48      -4.6148      2.00000
     49      -4.5894      2.00000
     50      -4.5832      2.00000
     51      -4.5677      2.00000
     52      -4.5662      2.00000
     53      -4.5591      2.00000
     54      -4.5576      2.00000
     55      -4.5468      2.00000
     56      -4.5360      2.00000
     57      -4.5293      2.00000
     58      -4.4638      2.00000
     59      -4.4580      2.00000
     60      -4.4491      2.00000
[...]
    238       5.3353      0.00000
    239       5.4086      0.00000
    240       5.4633      0.00000
    241       5.6171      0.00000
    242       5.6958      0.00000
    243       5.7457      0.00000
    244       5.7791      0.00000
    245       5.8833      0.00000
    246       5.8907      0.00000
    247       5.9096      0.00000
    248       5.9163      0.00000
    249       6.1617      0.00000
    250       6.1930      0.00000
    251       6.6794      0.00000
    252       6.8599      0.00000

 soft charge-density along one line, spin component           1
         0         1         2         3         4         5         6         7         8         9
 total charge-density along one line

------------------------ aborting loop because EDIFF is reached ----------------------------------------

 total charge

# of ion       s       p       d       tot
    1        0.419   0.203   9.179   9.801
    2        0.418   0.204   9.177   9.799
    3        0.418   0.204   9.177   9.799
    4        0.418   0.204   9.177   9.799
    5        0.418   0.203   9.176   9.796
    6        0.418   0.204   9.177   9.799
    7        0.418   0.204   9.177   9.799
    8        0.418   0.204   9.177   9.799
    9        0.415   0.203   9.179   9.797
   10        0.409   0.270   9.164   9.842
   11        0.410   0.269   9.167   9.846
   12        0.409   0.270   9.164   9.842
   13        0.410   0.269   9.167   9.846
   14        0.410   0.269   9.167   9.846
   15        0.402   0.270   9.165   9.837
   16        0.409   0.270   9.164   9.842
   17        0.402   0.270   9.165   9.837
   18        0.402   0.270   9.165   9.837
   19        0.400   0.263   9.166   9.829
   20        0.439   0.305   9.138   9.883
   21        0.439   0.305   9.138   9.883
   22        0.392   0.273   9.165   9.830
   23        0.439   0.305   9.138   9.883
   24        0.392   0.273   9.165   9.830
   25        0.400   0.263   9.166   9.829
   26        0.400   0.263   9.166   9.829
   27        0.392   0.273   9.165   9.830
   28        0.413   0.197   9.177   9.787
   29        0.428   0.223   9.158   9.809
   30        0.428   0.223   9.158   9.809
   31        0.428   0.223   9.158   9.809
   32        0.428   0.223   9.158   9.809
   33        0.428   0.223   9.158   9.809
   34        0.428   0.223   9.158   9.809
   35        0.410   0.201   9.174   9.785
   36        0.630   0.559   4.196   5.385
   37        0.917   1.466   0.000   2.384
   38        1.517   3.770   0.000   5.288
   39        0.568   0.139   0.000   0.707
tot         18.134  14.453 324.989 357.576

  FORCE on cell =-STRESS in cart. coord.  units (eV):
  Direction    XX          YY          ZZ          XY          YZ          ZX
  Alpha Z   649.40612   649.40612   649.40612
  Ewald  183986.49306183986.49306************     0.00003    -0.00001     0.00004
  Hartree194050.19461194050.19461************     0.00001     0.00000     0.00001
  E(xc)   -2102.83436 -2102.83451 -2108.96398     0.00013    -0.00001    -0.00001
  Local  ************************388912.21296     0.00062    -0.00007    -0.00019
  n-local  -365.45865  -347.95285  -360.22643    10.34235    -0.52172     0.63591
  augment  3231.91486  3231.91504  3241.66405    -0.00012    -0.00002     0.00001
  Kinetic  5057.35491  5062.01364  5027.55968     4.57066     0.75936    -0.14899
  Fock        0.00000     0.00000     0.00000     0.00000     0.00000     0.00000
  Total      -8.04613    -8.04613     0.81350    -0.00000     0.00000    -0.00000
  in kB      -7.24608    -7.24608     0.73261    -0.00000     0.00000    -0.00000

 VOLUME and BASIS-vectors are now :
  energy-cutoff  :      500.00
  volume of cell :     1779.08
      direct lattice vectors                 reciprocal lattice vectors
     8.791366577  0.000000000  0.000000000     0.113747958 -0.065672414  0.000000000
     4.395683289  7.613546790  0.000000000     0.000000000  0.131344829  0.000000000
     0.000000000  0.000000000 26.579777397     0.000000000  0.000000000  0.037622587

  length of vectors
     8.791366577  8.791366577 26.579777397     0.131344829  0.131344829  0.037622587

 FORCES acting on ions
    electron-ion (+dipol)            ewald-force                    non-local-force                 convergence-correction
   0.457E-04 -.284E-04 0.283E+04   -.953E-04 0.593E-04 -.283E+04   0.629E-17 0.190E-17 -.214E+01   -.203E-03 -.221E-03 -.153E+00
   -.236E-01 0.410E+00 0.283E+04   -.257E+00 -.387E+00 -.283E+04   0.906E-01 0.475E-01 -.151E+01   0.190E+00 -.478E-01 -.848E-01
   0.237E-01 0.410E+00 0.283E+04   0.257E+00 -.387E+00 -.283E+04   -.906E-01 0.475E-01 -.151E+01   -.190E+00 -.460E-01 -.839E-01
   0.343E+00 -.226E+00 0.283E+04   -.464E+00 -.293E-01 -.283E+04   0.864E-01 0.547E-01 -.151E+01   0.537E-01 0.188E+00 -.848E-01
   -.413E-05 -.179E-04 0.283E+04   0.980E-04 -.197E-05 -.283E+04   -.289E-17 0.119E-18 -.124E+01   0.626E-02 0.383E-02 0.837E-01
   -.343E+00 -.226E+00 0.283E+04   0.464E+00 -.294E-01 -.283E+04   -.864E-01 0.547E-01 -.151E+01   -.551E-01 0.189E+00 -.839E-01
   0.367E+00 -.185E+00 0.283E+04   -.207E+00 0.416E+00 -.283E+04   -.420E-02 -.102E+00 -.151E+01   -.134E+00 -.141E+00 -.839E-01
   -.367E+00 -.185E+00 0.283E+04   0.206E+00 0.416E+00 -.283E+04   0.420E-02 -.102E+00 -.151E+01   0.136E+00 -.142E+00 -.839E-01
   0.371E-04 -.125E-04 0.283E+04   0.792E-04 -.643E-04 -.283E+04   0.326E-17 0.527E-17 -.197E+01   -.658E-02 -.339E-02 -.154E+00
   0.439E+01 0.253E+01 0.969E+03   -.412E+01 -.238E+01 -.969E+03   -.437E+00 -.252E+00 -.787E+00   0.152E+00 0.876E-01 0.750E+00
   -.281E-04 0.335E+01 0.971E+03   0.404E-04 -.378E+01 -.972E+03   0.132E-11 0.201E+00 -.411E+00   0.688E-02 0.166E+00 0.662E+00
   -.439E+01 0.253E+01 0.969E+03   0.412E+01 -.238E+01 -.969E+03   0.437E+00 -.252E+00 -.787E+00   -.154E+00 0.884E-01 0.751E+00
   0.290E+01 -.168E+01 0.971E+03   -.328E+01 0.189E+01 -.972E+03   0.174E+00 -.100E+00 -.411E+00   0.147E+00 -.769E-01 0.662E+00
   -.290E+01 -.168E+01 0.971E+03   0.328E+01 0.189E+01 -.972E+03   -.174E+00 -.100E+00 -.411E+00   -.136E+00 -.785E-01 0.661E+00
   0.148E-04 0.605E+00 0.968E+03   -.108E-03 -.732E+00 -.968E+03   0.505E-12 0.769E-01 -.757E+00   -.173E-02 0.370E-01 0.666E+00
   -.739E-05 -.507E+01 0.969E+03   0.205E-04 0.476E+01 -.969E+03   0.331E-11 0.504E+00 -.787E+00   -.372E-03 -.177E+00 0.751E+00
   0.524E+00 -.302E+00 0.968E+03   -.634E+00 0.366E+00 -.968E+03   0.666E-01 -.385E-01 -.757E+00   0.311E-01 -.200E-01 0.666E+00
   -.524E+00 -.302E+00 0.968E+03   0.634E+00 0.366E+00 -.968E+03   -.666E-01 -.385E-01 -.757E+00   -.305E-01 -.177E-01 0.668E+00
   0.377E-04 -.233E+01 -.915E+03   -.127E-03 0.203E+01 0.913E+03   0.986E-12 0.150E+00 0.886E+00   -.652E-02 0.134E+00 0.823E+00
   -.720E+01 -.416E+01 -.891E+03   0.800E+01 0.462E+01 0.891E+03   -.119E+01 -.685E+00 -.990E+00   0.177E+00 0.103E+00 0.912E+00
   0.720E+01 -.416E+01 -.891E+03   -.800E+01 0.462E+01 0.891E+03   0.119E+01 -.685E+00 -.990E+00   -.176E+00 0.101E+00 0.912E+00
   -.536E+01 0.309E+01 -.906E+03   0.480E+01 -.277E+01 0.904E+03   0.438E+00 -.253E+00 0.607E+00   0.162E+00 -.843E-01 0.738E+00
   -.524E-04 0.831E+01 -.891E+03   0.399E-04 -.924E+01 0.891E+03   0.900E-11 0.137E+01 -.990E+00   -.628E-03 -.202E+00 0.912E+00
   0.536E+01 0.309E+01 -.906E+03   -.480E+01 -.277E+01 0.904E+03   -.438E+00 -.253E+00 0.607E+00   -.151E+00 -.871E-01 0.737E+00
   0.201E+01 0.116E+01 -.915E+03   -.176E+01 -.102E+01 0.913E+03   -.130E+00 -.751E-01 0.886E+00   -.125E+00 -.723E-01 0.822E+00
   -.201E+01 0.116E+01 -.915E+03   0.176E+01 -.102E+01 0.913E+03   0.130E+00 -.751E-01 0.886E+00   0.113E+00 -.728E-01 0.823E+00
   0.195E-04 -.619E+01 -.906E+03   0.109E-03 0.554E+01 0.904E+03   0.332E-11 0.506E+00 0.607E+00   0.733E-02 0.182E+00 0.737E+00
   0.528E-04 -.361E-04 -.273E+04   -.114E-03 0.772E-04 0.272E+04   -.118E-17 -.270E-17 0.183E+01   -.503E-03 0.333E-03 0.263E+00
   0.154E+02 0.254E+02 -.271E+04   -.145E+02 -.241E+02 0.271E+04   -.102E+01 -.155E+01 0.174E+01   0.614E-01 0.180E+00 0.192E+00
   -.154E+02 0.254E+02 -.271E+04   0.145E+02 -.241E+02 0.271E+04   0.102E+01 -.155E+01 0.174E+01   -.609E-01 0.181E+00 0.190E+00
   0.297E+02 0.600E+00 -.271E+04   -.281E+02 -.457E+00 0.271E+04   -.185E+01 -.105E+00 0.174E+01   0.187E+00 -.356E-01 0.192E+00
   -.297E+02 0.600E+00 -.271E+04   0.281E+02 -.457E+00 0.271E+04   0.185E+01 -.105E+00 0.174E+01   -.199E+00 -.363E-01 0.192E+00
   0.143E+02 -.260E+02 -.271E+04   -.137E+02 0.246E+02 0.271E+04   -.835E+00 0.166E+01 0.174E+01   0.121E+00 -.153E+00 0.190E+00
   -.143E+02 -.260E+02 -.271E+04   0.137E+02 0.246E+02 0.271E+04   0.835E+00 0.166E+01 0.174E+01   -.131E+00 -.154E+00 0.191E+00
   0.232E-04 -.119E-04 -.273E+04   0.105E-03 -.656E-04 0.272E+04   -.726E-17 0.136E-17 0.190E+01   -.482E-02 -.312E-02 0.285E+00
   -.935E-05 -.437E-05 -.129E+04   0.578E-04 0.738E-05 0.129E+04   -.177E-17 -.335E-18 -.211E+01   0.133E-02 0.115E-02 0.148E+00
   -.461E-06 -.746E-04 -.102E+04   0.186E-04 0.243E-06 0.997E+03   0.210E-17 0.965E-18 0.196E+02   0.132E-02 0.946E-03 -.106E+00
   0.239E-03 -.908E-04 -.171E+04   0.896E-05 0.922E-08 0.171E+04   0.122E-17 -.226E-19 -.409E+01   0.391E-02 0.247E-02 -.195E+00
   0.657E-05 -.144E-04 -.330E+03   0.609E-06 -.285E-08 0.339E+03   0.436E-19 0.226E-20 -.874E+01   0.208E-03 0.132E-03 -.337E-01
   0.601E-03 -.861E-03 -.145E+02   -.254E-12 0.134E-12 -.106E-10   -.228E-15 -.442E-15 0.554E-01   -.604E-02 -.552E-02 0.144E+02

 POSITION                                       TOTAL-FORCE (eV/Angst)
      0.00000      0.00000      5.28219         0.000000     -0.000000     -0.017799
      2.93046      0.00000      5.28219         0.000023      0.023797      0.031768
      5.86091      0.00000      5.28219        -0.000023      0.023797      0.031768
      1.46523      2.53785      5.28219         0.020620     -0.011878      0.031768
      4.39568      2.53785      5.28219         0.000000     -0.000000     -0.018916
      7.32614      2.53785      5.28219        -0.020620     -0.011878      0.031768
      2.93046      5.07570      5.28219         0.020597     -0.011918      0.031768
      5.86091      5.07570      5.28219        -0.020597     -0.011918      0.031768
      8.79137      5.07570      5.28219         0.000000     -0.000000      0.026163
      1.46523      0.84595      7.67490        -0.012654     -0.007306     -0.020690
      4.39568      0.84595      7.67490        -0.000000     -0.065810     -0.057683
      7.32614      0.84595      7.67490         0.012654     -0.007306     -0.020690
      2.93046      3.38380      7.67490        -0.056993      0.032905     -0.057683
      5.86091      3.38380      7.67490         0.056993      0.032905     -0.057683
      8.79137      3.38380      7.67490        -0.000000     -0.014356      0.037934
      4.39568      5.92165      7.67490         0.000000      0.014612     -0.020690
      7.32614      5.92165      7.67490        -0.012433      0.007178      0.037934
     10.25659      5.92165      7.67490         0.012433      0.007178      0.037934
      8.79137      1.69504     10.07204        -0.000000     -0.007471      0.039631
      2.92602      1.68934     10.02478        -0.211937     -0.122362     -0.267142
      5.86534      1.68934     10.02478         0.211937     -0.122362     -0.267142
     10.25093      4.23302     10.06482         0.033327     -0.019241      0.016165
      4.39568      4.23487     10.02478         0.000000      0.244724     -0.267142
      7.33181      4.23302     10.06482        -0.033327     -0.019241      0.016165
     11.71910      6.76603     10.07204         0.006470      0.003735      0.039631
      5.86363      6.76603     10.07204        -0.006470      0.003735      0.039631
      8.79137      6.76105     10.06482         0.000000      0.038483      0.016165
      0.00000      0.00000     12.45341         0.000000     -0.000000     -0.080596
      2.96185      0.05622     12.48740        -0.047210     -0.087148     -0.079554
      5.82952      0.05622     12.48740         0.047210     -0.087148     -0.079554
      1.52961      2.53693     12.48740        -0.099077      0.002689     -0.079554
      7.26176      2.53693     12.48740         0.099077      0.002689     -0.079554
      2.96344      5.02040     12.48740        -0.051867      0.084459     -0.079554
      5.82792      5.02040     12.48740         0.051867      0.084459     -0.079554
      8.79137      5.07570     12.44798         0.000000     -0.000000     -0.050560
      4.39568      2.53785     12.20252         0.000000     -0.000000      1.181480
      4.39568      2.53785     14.04322         0.000000     -0.000000      0.017095
      4.39568      2.53785     15.31490         0.000000     -0.000000     -0.011596
      4.39568      2.53785     16.26955         0.000000     -0.000000     -0.003198
    total drift:                               -0.005436     -0.006385      0.033904

  FREE ENERGIE OF THE ION-ELECTRON SYSTEM (eV)
  free  energy   TOTEN  =      -117.03710918 eV

  energy  without entropy=     -117.03710918  energy(sigma->0) =     -117.03710918

 stress matrix after NEB project (eV)
     -8.04613     -0.00000     -0.00000
     -0.00000     -8.04613      0.00000
      0.00000      0.00000      0.81350
  FORCES: max atom, RMS     0.017095    0.003347
  FORCE total and by dimension    0.020903    0.017095
  Stress total and by dimension   11.407993    8.046133
|           W    W    AA    RRRRR   N    N  II  N    N   GGGG   !!!           |
|           W    W   A  A   R    R  NN   N  II  NN   N  G    G  !!!           |
|           W    W  A    A  R    R  N N  N  II  N N  N  G       !!!           |
|           W WW W  AAAAAA  RRRRR   N  N N  II  N  N N  G  GGG   !            |
|           WW  WW  A    A  R   R   N   NN  II  N   NN  G    G                |
|           W    W  A    A  R    R  N    N  II  N    N   GGGG   !!!           |
|     Tetrahedron method does not include variations of the Fermi             |
|     occupations, so forces and stress will be inaccurate. We suggest        |
|     using a different smearing scheme ISMEAR = 1 or 2 for metals in         |
|     relaxations.                                                            |

 total charge

# of ion       s       p       d       tot
    1        0.419   0.203   9.179   9.801
    2        0.418   0.204   9.177   9.799
    3        0.418   0.204   9.177   9.799
    4        0.418   0.204   9.177   9.799
    5        0.418   0.203   9.176   9.796
    6        0.418   0.204   9.177   9.799
    7        0.418   0.204   9.177   9.799
    8        0.418   0.204   9.177   9.799
    9        0.415   0.203   9.179   9.797
   10        0.409   0.270   9.164   9.842
   11        0.410   0.269   9.167   9.846
   12        0.409   0.270   9.164   9.842
   13        0.410   0.269   9.167   9.846
   14        0.410   0.269   9.167   9.846
   15        0.402   0.270   9.165   9.837
   16        0.409   0.270   9.164   9.842
   17        0.402   0.270   9.165   9.837
   18        0.402   0.270   9.165   9.837
   19        0.400   0.263   9.166   9.829
   20        0.439   0.305   9.138   9.883
   21        0.439   0.305   9.138   9.883
   22        0.392   0.273   9.165   9.830
   23        0.439   0.305   9.138   9.883
   24        0.392   0.273   9.165   9.830
   25        0.400   0.263   9.166   9.829
   26        0.400   0.263   9.166   9.829
   27        0.392   0.273   9.165   9.830
   28        0.413   0.197   9.177   9.787
   29        0.428   0.223   9.158   9.809
   30        0.428   0.223   9.158   9.809
   31        0.428   0.223   9.158   9.809
   32        0.428   0.223   9.158   9.809
   33        0.428   0.223   9.158   9.809
   34        0.428   0.223   9.158   9.809
   35        0.410   0.201   9.174   9.785
   36        0.630   0.559   4.196   5.385
   37        0.917   1.466   0.000   2.384
   38        1.517   3.770   0.000   5.288
   39        0.568   0.139   0.000   0.707
tot         18.134  14.453 324.989 357.576

 BZINTS: Fermi energy:    0.436728;  402.000000 electrons
         Band energy:-0.154282E+04;  BLOECHL correction:   -0.029294