 vasp.6.2.0 18Jan21 (build Jun 12 2021 23:27:24) complex

 executed on             LinuxIFC date 2022.05.28  02:51:28

 INCAR:
   ISMEAR = -5
   SIGMA = 0.1
   ISPIN = 1
   EDIFF = 1.d-5
   EDIFFG = -0.01
   NSW = 0
   NELM = 150
   ENCUT = 500
   ISIF = 2
   IBRION = 2
   LREAL = Auto
   ALGO = Fast
   ICHARG = 11
   LORBIT = 10
   LCHARG = .F.
   LWAVE = .F.

 POTCAR:    PAW_PBE Cu 22Jun2005
 POTCAR:    PAW_PBE Ir 06Sep2000
 POTCAR:    PAW_PBE C 08Apr2002
 POTCAR:    PAW_PBE O 08Apr2002
|           W    W    AA    RRRRR   N    N  II  N    N   GGGG   !!!           |
|           W    W   A  A   R    R  NN   N  II  NN   N  G    G  !!!           |
|           W    W  A    A  R    R  N N  N  II  N N  N  G       !!!           |
|           W WW W  AAAAAA  RRRRR   N  N N  II  N  N N  G  GGG   !            |
|           WW  WW  A    A  R   R   N   NN  II  N   NN  G    G                |
|           W    W  A    A  R    R  N    N  II  N    N   GGGG   !!!           |
|     For optimal performance we recommend to set                             |
|       NCORE = 2 up to number-of-cores-per-socket                            |
|     This setting can greatly improve the performance of VASP for DFT.       |
|     The default, NCORE=1 might be grossly inefficient on modern             |
|     multi-core architectures or massively parallel machines. Do your        |
|     Unfortunately you need to use the default for GW and RPA                |
|     calculations (for HF NCORE is supported but not extensively tested      |
|     yet).                                                                   |

 POTCAR:    PAW_PBE Cu 22Jun2005
   VRHFIN =Cu: d10 p1

   TITEL  = PAW_PBE Cu 22Jun2005
   POMASS =   63.546; ZVAL   =   11.000    mass and valenz
   ENMAX  =  295.446; ENMIN  =  221.585 eV

 POTCAR:    PAW_PBE Ir 06Sep2000
   VRHFIN =Ir: s1d8

   TITEL  = PAW_PBE Ir 06Sep2000
   POMASS =  192.220; ZVAL   =    9.000    mass and valenz
   ENMAX  =  210.864; ENMIN  =  158.148 eV

 POTCAR:    PAW_PBE C 08Apr2002
   VRHFIN =C: s2p2

   TITEL  = PAW_PBE C 08Apr2002
   POMASS =   12.011; ZVAL   =    4.000    mass and valenz
   ENMAX  =  400.000; ENMIN  =  300.000 eV

 POTCAR:    PAW_PBE O 08Apr2002
   VRHFIN =O: s2p4

   TITEL  = PAW_PBE O 08Apr2002
   POMASS =   16.000; ZVAL   =    6.000    mass and valenz
   ENMAX  =  400.000; ENMIN  =  300.000 eV

 Optimization of the real space projectors (new method)

 maximal supplied QI-value         = 16.25
 optimisation between [QCUT,QGAM] = [ 11.38, 22.75] = [ 36.24,144.96] Ry
 Optimized for a Real-space Cutoff    1.52 Angstroem

   l    n(q)    QCUT    max X(q) W(low)/X(q) W(high)/X(q)  e(spline)
   2      9    11.376     4.610    0.21E-03    0.10E-03    0.26E-06
   2      9    11.376     8.522    0.33E-03    0.16E-03    0.37E-06
   0     10    11.376    51.609    0.62E-04    0.20E-04    0.13E-06
   0     10    11.376    27.747    0.54E-04    0.20E-04    0.13E-06
   1     10    11.376    20.408    0.13E-04    0.99E-04    0.19E-06
   1     10    11.376    13.425    0.12E-04    0.87E-04    0.17E-06
 Optimization of the real space projectors (new method)

[...]

   l    n(q)    QCUT    max X(q) W(low)/X(q) W(high)/X(q)  e(spline)
   0      7    11.310   115.676    0.43E-03    0.13E-02    0.19E-06
   0      7    11.310    87.132    0.43E-03    0.13E-02    0.18E-06
   1      6    11.310     4.429    0.42E-03    0.74E-03    0.11E-06
   1      6    11.310     2.733    0.34E-03    0.55E-03    0.92E-07
 Optimization of the real space projectors (new method)

 maximal supplied QI-value         = 24.76
 optimisation between [QCUT,QGAM] = [ 11.39, 22.77] = [ 36.31,145.25] Ry
 Optimized for a Real-space Cutoff    1.00 Angstroem

   l    n(q)    QCUT    max X(q) W(low)/X(q) W(high)/X(q)  e(spline)
   0      7    11.387    20.381    0.39E-03    0.13E-02    0.15E-06
   0      7    11.387    15.268    0.42E-03    0.14E-02    0.17E-06
   1      6    11.387     5.964    0.41E-03    0.11E-02    0.17E-06
   1      6    11.387     5.382    0.39E-03    0.87E-03    0.15E-06
  PAW_PBE Cu 22Jun2005                  :
  PAW_PBE Ir 06Sep2000                  :
  PAW_PBE C 08Apr2002                   :
  PAW_PBE O 08Apr2002                   :

 POSCAR: Cu-Ir-CO2
  positions in direct lattice
  velocities in cartesian coordinates
 exchange correlation table for  LEXCH =        8
   RHO(1)=    0.500       N(1)  =     2000
   RHO(2)=  100.500       N(2)  =     4000

 VTST: version 3.2, (02/03/18)

 CHAIN: initializing optimizer

 OPT: Using VASP Conjugate-Gradient optimizer
 CHAIN: Read ICHAIN            0

 POSCAR: Cu-Ir-CO2
  positions in direct lattice
  velocities in cartesian coordinates

 ion  position               nearest neighbor table
   1  0.000  0.000  0.229-   7 2.57   3 2.57   4 2.57   2 2.57   6 2.57   8 2.57  12 2.57  10 2.57
                            16 2.57
   2  0.333  0.000  0.229-   8 2.57   9 2.57   5 2.57   1 2.57   3 2.57  11 2.57   4 2.57  10 2.57
                            17 2.57
   3  0.667  0.000  0.229-   1 2.57   7 2.57   6 2.57   9 2.57   2 2.57  12 2.57   5 2.57  18 2.57
                            11 2.57
   4  0.000  0.333  0.229-   5 2.57   6 2.57   1 2.57   7 2.57   2 2.57  13 2.57   9 2.57  10 2.57
                            15 2.57
   5  0.333  0.333  0.229-   4 2.57   2 2.57   7 2.57  13 2.57   8 2.57   6 2.57   3 2.57  11 2.57
                            14 2.57
   6  0.667  0.333  0.229-   4 2.57   9 2.57  15 2.57   3 2.57   1 2.57   8 2.57  14 2.57   5 2.57
                            12 2.57
   7  0.000  0.667  0.229-   1 2.57   3 2.57  16 2.57  18 2.57   4 2.57   5 2.57   8 2.57   9 2.57
                            13 2.57
   8  0.333  0.667  0.229-   9 2.57   2 2.57  17 2.57   6 2.57   1 2.57   7 2.57   5 2.57  14 2.57
                            16 2.57
   9  0.667  0.667  0.229-   8 2.57   6 2.57   2 2.57  17 2.57   3 2.57   7 2.57   4 2.57  15 2.57
                            18 2.57
  10  0.111  0.111  0.318-  20 2.53  11 2.57  12 2.57  13 2.57   1 2.57   2 2.57   4 2.57  15 2.57
                            16 2.57  17 2.57  26 2.57  19 2.57
  11  0.444  0.111  0.318-  20 2.55  21 2.55  10 2.57  13 2.57   2 2.57  17 2.57  14 2.57  12 2.57
                             5 2.57   3 2.57  18 2.57  27 2.57
  12  0.778  0.111  0.318-  21 2.53  15 2.57  10 2.57  14 2.57  18 2.57   3 2.57   1 2.57  16 2.57
                            11 2.57   6 2.57  19 2.57  25 2.57
  13  0.111  0.444  0.318-  23 2.55  20 2.55  16 2.57  18 2.57  10 2.57  11 2.57  14 2.57   5 2.57
                             4 2.57   7 2.57  15 2.57  22 2.57
  14  0.444  0.444  0.318-  21 2.55  23 2.55  15 2.57  17 2.57  12 2.57  16 2.57  13 2.57  11 2.57
                             6 2.57   8 2.57   5 2.57  24 2.57
  15  0.778  0.444  0.318-  19 2.56  24 2.56  22 2.56  14 2.57  17 2.57  12 2.57   6 2.57  18 2.57
                            10 2.57   9 2.57  13 2.57   4 2.57
  16  0.111  0.778  0.318-  23 2.53  18 2.57  13 2.57   7 2.57  14 2.57  17 2.57  12 2.57  10 2.57
                             8 2.57   1 2.57  25 2.57  26 2.57
  17  0.444  0.778  0.318-  26 2.56  27 2.56  24 2.56  14 2.57  15 2.57   8 2.57   9 2.57  11 2.57
                            16 2.57  18 2.57  10 2.57   2 2.57
  18  0.778  0.778  0.318-  25 2.56  22 2.56  27 2.56  16 2.57  13 2.57   7 2.57  15 2.57  12 2.57
                            17 2.57   9 2.57   3 2.57  11 2.57
  19  0.888  0.223  0.408-  28 2.55  21 2.55  20 2.55  22 2.56  24 2.56  15 2.56  32 2.56  31 2.56
                            12 2.57  10 2.57  25 2.58  26 2.58
  20  0.221  0.221  0.406-  10 2.53  11 2.55  13 2.55  26 2.55  19 2.55  36 2.55  27 2.57  22 2.57
                            29 2.59  31 2.59  23 2.59  21 2.59
  21  0.558  0.221  0.406-  12 2.53  14 2.55  11 2.55  19 2.55  25 2.55  36 2.55  24 2.57  27 2.57
                            32 2.59  30 2.59  20 2.59  23 2.59
  22  0.888  0.556  0.407-  35 2.54  24 2.56  27 2.56  19 2.56  25 2.56  18 2.56  15 2.56  13 2.57
                            23 2.57  20 2.57  31 2.57  33 2.57
  23  0.221  0.558  0.406-  16 2.53  13 2.55  14 2.55  25 2.55  26 2.55  36 2.55  22 2.57  24 2.57
                            33 2.59  34 2.59  20 2.59  21 2.59
  24  0.556  0.556  0.407-  35 2.54  22 2.56  27 2.56  19 2.56  26 2.56  15 2.56  17 2.56  14 2.57
                            21 2.57  23 2.57  32 2.57  34 2.57
  25  0.888  0.888  0.408-  28 2.55  21 2.55  23 2.55  22 2.56  27 2.56  18 2.56  33 2.56  30 2.56
                            16 2.57  12 2.57  19 2.58  26 2.58
  26  0.223  0.888  0.408-  28 2.55  20 2.55  23 2.55  27 2.56  24 2.56  17 2.56  29 2.56  34 2.56
                            10 2.57  16 2.57  25 2.58  19 2.58
  27  0.556  0.888  0.407-  35 2.54  24 2.56  22 2.56  26 2.56  25 2.56  17 2.56  18 2.56  11 2.57
                            20 2.57  21 2.57  29 2.57  30 2.57
  28  0.000  0.000  0.496-  25 2.55  19 2.55  26 2.55  33 2.56  30 2.56  31 2.56  29 2.56  32 2.56
                            34 2.56
  29  0.333  0.999  0.497-  34 2.55  28 2.56  26 2.56  35 2.57  31 2.57  27 2.57  36 2.57  30 2.58
                            20 2.59
  30  0.668  0.999  0.497-  33 2.55  28 2.56  25 2.56  35 2.57  32 2.57  27 2.57  36 2.57  29 2.58
                            21 2.59
  31  0.999  0.333  0.497-  32 2.55  28 2.56  19 2.56  35 2.57  29 2.57  22 2.57  36 2.57  33 2.58
                            20 2.59
  32  0.668  0.333  0.497-  31 2.55  28 2.56  19 2.56  35 2.57  30 2.57  24 2.57  36 2.57  34 2.58
                            21 2.59
  33  0.999  0.668  0.497-  30 2.55  28 2.56  25 2.56  35 2.57  34 2.57  22 2.57  36 2.57  31 2.58
                            23 2.59
  34  0.333  0.668  0.497-  29 2.55  28 2.56  26 2.56  35 2.57  33 2.57  24 2.57  36 2.57  32 2.58
                            23 2.59
  35  0.667  0.667  0.496-  24 2.54  27 2.54  22 2.54  34 2.57  32 2.57  29 2.57  30 2.57  33 2.57
                            31 2.57
  36  0.333  0.333  0.494-  37 2.22  23 2.55  20 2.55  21 2.55  31 2.57  29 2.57  33 2.57  34 2.57
                            32 2.57  30 2.57
  37  0.333  0.335  0.589-  38 1.23  39 1.23  36 2.22
  38  0.181  0.334  0.605-  37 1.23
  39  0.485  0.334  0.605-  37 1.23

  LATTYP: Found a hexagonal cell.
 ALAT       =     7.6967864036
 C/A-ratio  =     3.0484540560

  Lattice vectors:

 A1 = (  -3.8483927580,  -6.6656128093,   0.0000000000)
 A2 = (   7.6967864037,   0.0000000000,   0.0000000000)
 A3 = (   0.0000000000,   0.0000000000,  23.4632997305)

Analysis of symmetry for initial positions (statically):
 Subroutine PRICEL returns:
 Original cell was already a primitive cell.

 Routine SETGRP: Setting up the symmetry group for a
 hexagonal supercell.

 Subroutine GETGRP returns: Found  2 space group operations
 (whereof  2 operations were pure point group operations)
 out of a pool of 24 trial point group operations.

The static configuration has the point symmetry C_1h.

Analysis of symmetry for dynamics (positions and initial velocities):
 Subroutine PRICEL returns:
 Original cell was already a primitive cell.

[...]

The dynamic configuration has the point symmetry C_1h.

Analysis of constrained symmetry for selective dynamics:
[...]
     41      -4.4760      2.00000
     42      -4.4279      2.00000
     43      -4.2787      2.00000
     44      -4.2677      2.00000
     45      -4.2327      2.00000
     46      -4.2238      2.00000
     47      -4.1918      2.00000
     48      -4.1845      2.00000
     49      -4.1582      2.00000
     50      -4.1498      2.00000
     51      -4.1492      2.00000
     52      -3.9722      2.00000
     53      -3.9509      2.00000
     54      -3.9485      2.00000
     55      -3.9339      2.00000
     56      -3.9049      2.00000
     57      -3.8707      2.00000
     58      -3.8610      2.00000
     59      -3.8518      2.00000
     60      -3.8447      2.00000
[...]
    238       5.2797      0.00000
    239       5.3306      0.00000
    240       5.4670      0.00000
    241       5.6005      0.00000
    242       5.6738      0.00000
    243       5.7494      0.00000
    244       5.9106      0.00000
    245       6.0031      0.00000
    246       6.0312      0.00000
    247       6.3737      0.00000
    248       6.4537      0.00000
    249       6.5140      0.00000
    250       6.5800      0.00000
    251       6.7801      0.00000
    252       6.8291      0.00000

 soft charge-density along one line, spin component           1
         0         1         2         3         4         5         6         7         8         9
 total charge-density along one line

------------------------ aborting loop because EDIFF is reached ----------------------------------------

 total charge

# of ion       s       p       d       tot
    1        0.447   0.286   9.188   9.921
    2        0.449   0.285   9.186   9.919
    3        0.449   0.285   9.186   9.919
    4        0.449   0.284   9.187   9.920
    5        0.448   0.285   9.184   9.917
    6        0.449   0.284   9.187   9.920
    7        0.449   0.285   9.186   9.920
    8        0.449   0.285   9.186   9.920
    9        0.447   0.284   9.188   9.919
   10        0.440   0.374   9.174   9.989
   11        0.443   0.368   9.182   9.993
   12        0.440   0.374   9.174   9.989
   13        0.443   0.368   9.182   9.992
   14        0.443   0.368   9.182   9.992
   15        0.438   0.370   9.177   9.985
   16        0.440   0.373   9.174   9.988
   17        0.439   0.368   9.179   9.986
   18        0.439   0.368   9.179   9.986
   19        0.439   0.371   9.181   9.991
   20        0.446   0.388   9.178  10.012
   21        0.446   0.388   9.178  10.012
   22        0.433   0.370   9.183   9.986
   23        0.446   0.384   9.181  10.012
   24        0.433   0.370   9.183   9.986
   25        0.441   0.370   9.182   9.993
   26        0.441   0.370   9.182   9.993
   27        0.434   0.370   9.183   9.987
   28        0.451   0.287   9.194   9.933
   29        0.451   0.302   9.183   9.937
   30        0.451   0.302   9.183   9.937
   31        0.442   0.299   9.186   9.927
   32        0.442   0.299   9.186   9.927
   33        0.452   0.302   9.183   9.937
   34        0.452   0.302   9.183   9.937
   35        0.443   0.291   9.193   9.927
   36        0.693   0.466   7.192   8.351
   37        0.891   1.702   0.000   2.593
   38        1.601   3.491   0.000   5.093
   39        1.601   3.491   0.000   5.093
tot         20.329  20.813 328.598 369.740

  FORCE on cell =-STRESS in cart. coord.  units (eV):
  Direction    XX          YY          ZZ          XY          YZ          ZX
  Alpha Z   858.48344   858.48344   858.48344
  Ewald  216361.08965215639.12804************     0.00041    -0.05258     0.00017
  Hartree229136.35108228779.90543************     0.00005    -0.10253     0.00006
  E(xc)   -2361.84110 -2363.68873 -2367.67800    -0.00027    -0.00188    -0.00004
  Local  ************************457842.77764     0.02030     0.13385    -0.00073
  n-local  -821.83748  -816.26086  -833.03101     2.09231     0.05849     0.14900
  augment  3356.90418  3358.96402  3378.58751    -0.01853    -0.01341     0.00042
  Kinetic  3538.81952  3588.04284  3609.65096     1.04468    -0.09373    -0.13410
  Fock        0.00000     0.00000     0.00000     0.00000     0.00000     0.00000
  Total      -5.61679    -5.35806    -0.10410     0.00000    -0.07179     0.00000
  in kB      -7.47584    -7.13148    -0.13855     0.00000    -0.09556     0.00000

 VOLUME and BASIS-vectors are now :
  energy-cutoff  :      500.00
  volume of cell :     1203.76
      direct lattice vectors                 reciprocal lattice vectors
     7.696786404  0.000000000  0.000000000     0.129924354 -0.075011849  0.000000000
     3.848392758  6.665612809  0.000000000     0.000000000  0.150023716  0.000000000
     0.000000000  0.000000000 23.463299730     0.000000000  0.000000000  0.042619751

  length of vectors
     7.696786404  7.696786404 23.463299730     0.150023716  0.150023716  0.042619751

 FORCES acting on ions
    electron-ion (+dipol)            ewald-force                    non-local-force                 convergence-correction
   -.417E-04 0.234E-01 0.376E+04   0.580E-04 -.412E-01 -.375E+04   0.281E-08 -.422E-01 -.239E+01   -.335E-03 0.534E-01 -.251E+00
   -.836E-01 0.220E+00 0.376E+04   -.146E-01 -.160E+00 -.375E+04   -.163E-01 -.354E-01 -.195E+01   0.114E+00 -.275E-01 -.211E+00
   0.836E-01 0.220E+00 0.376E+04   0.145E-01 -.160E+00 -.375E+04   0.163E-01 -.354E-01 -.195E+01   -.113E+00 -.249E-01 -.210E+00
   0.987E-01 -.144E+00 0.376E+04   -.111E+00 0.453E-01 -.375E+04   0.152E-01 0.501E-02 -.201E+01   -.178E-02 0.951E-01 -.179E+00
   -.631E-04 0.398E-02 0.376E+04   0.116E-03 -.142E-02 -.375E+04   -.255E-09 0.383E-02 -.188E+01   0.122E-01 -.826E-02 -.122E+00
   -.987E-01 -.144E+00 0.376E+04   0.111E+00 0.452E-01 -.375E+04   -.152E-01 0.501E-02 -.201E+01   0.889E-04 0.964E-01 -.177E+00
   0.224E+00 -.444E-01 0.376E+04   -.955E-01 0.115E+00 -.375E+04   -.147E-01 0.230E-01 -.190E+01   -.112E+00 -.895E-01 -.141E+00
   -.224E+00 -.444E-01 0.376E+04   0.952E-01 0.115E+00 -.375E+04   0.147E-01 0.230E-01 -.190E+01   0.116E+00 -.910E-01 -.141E+00
   -.144E-03 -.972E-01 0.376E+04   0.263E-03 0.426E-01 -.375E+04   -.401E-08 0.602E-01 -.220E+01   -.133E-01 -.191E-02 -.154E+00
   0.318E+01 0.224E+01 0.135E+04   -.307E+01 -.211E+01 -.135E+04   -.227E+00 -.182E+00 -.985E+00   0.106E+00 0.602E-01 0.926E-01
   -.918E-04 0.101E+01 0.135E+04   0.191E-03 -.102E+01 -.135E+04   0.373E-09 -.560E-02 -.865E+00   0.118E-01 0.136E-01 0.651E-01
   -.318E+01 0.224E+01 0.135E+04   0.307E+01 -.211E+01 -.135E+04   0.227E+00 -.182E+00 -.985E+00   -.108E+00 0.623E-01 0.934E-01
   0.509E+00 -.624E+00 0.135E+04   -.582E+00 0.557E+00 -.135E+04   0.442E-01 0.335E-01 -.780E+00   0.143E-01 0.445E-01 0.824E-01
   -.509E+00 -.624E+00 0.135E+04   0.581E+00 0.557E+00 -.135E+04   -.442E-01 0.335E-01 -.780E+00   0.102E-01 0.436E-01 0.825E-01
   -.140E-03 -.446E+00 0.135E+04   0.299E-03 0.972E-01 -.135E+04   -.103E-07 0.155E+00 -.912E+00   -.407E-02 0.168E+00 0.256E-01
   -.880E-04 -.372E+01 0.135E+04   0.186E-03 0.366E+01 -.135E+04   -.145E-07 0.217E+00 -.863E+00   -.148E-03 -.156E+00 0.892E-01
   -.234E+00 -.350E-01 0.135E+04   -.980E-01 0.187E+00 -.135E+04   0.161E+00 -.430E-01 -.723E+00   0.155E+00 -.109E+00 0.312E-01
   0.235E+00 -.350E-01 0.135E+04   0.977E-01 0.187E+00 -.135E+04   -.161E+00 -.430E-01 -.723E+00   -.154E+00 -.106E+00 0.318E-01
   -.599E-04 0.279E+01 -.108E+04   0.678E-04 -.289E+01 0.108E+04   -.548E-09 0.823E-02 0.900E+00   -.250E-02 0.885E-01 -.158E+00
   -.204E+02 -.100E+02 -.107E+04   0.206E+02 0.101E+02 0.107E+04   -.411E+00 -.159E+00 -.234E+00   0.120E+00 0.111E+00 -.725E-02
   0.204E+02 -.100E+02 -.107E+04   -.206E+02 0.101E+02 0.107E+04   0.411E+00 -.159E+00 -.234E+00   -.964E-01 0.113E+00 -.782E-02
   -.132E+02 0.537E+01 -.108E+04   0.124E+02 -.481E+01 0.108E+04   0.631E+00 -.455E+00 0.986E+00   0.128E+00 -.114E+00 -.285E+00
   -.951E-04 0.211E+02 -.107E+04   0.145E-03 -.212E+02 0.107E+04   -.184E-07 0.277E+00 -.233E-01   0.120E-01 -.165E+00 -.549E-01
   0.132E+02 0.537E+01 -.108E+04   -.124E+02 -.481E+01 0.108E+04   -.631E+00 -.455E+00 0.986E+00   -.131E+00 -.115E+00 -.285E+00
   -.121E+01 0.127E+00 -.108E+04   0.119E+01 -.144E+00 0.108E+04   0.707E-01 0.325E-01 0.760E+00   -.438E-01 -.101E-01 -.212E+00
   0.121E+01 0.127E+00 -.108E+04   -.119E+01 -.144E+00 0.108E+04   -.707E-01 0.325E-01 0.760E+00   0.444E-01 -.129E-01 -.212E+00
   -.116E-03 -.146E+02 -.109E+04   0.244E-03 0.139E+02 0.109E+04   -.416E-07 0.625E+00 0.960E+00   -.997E-03 0.129E+00 -.319E+00
   -.379E-04 0.120E+02 -.350E+04   0.338E-04 -.119E+02 0.349E+04   0.805E-08 -.121E+00 0.236E+01   -.252E-03 0.902E-01 0.274E+00
   -.148E+01 0.224E+02 -.348E+04   0.182E+01 -.229E+02 0.348E+04   -.387E+00 0.909E-01 0.219E+01   0.328E-01 0.205E+00 0.147E+00
   0.148E+01 0.224E+02 -.348E+04   -.182E+01 -.229E+02 0.348E+04   0.387E+00 0.909E-01 0.219E+01   -.318E-01 0.208E+00 0.146E+00
   0.183E+02 -.216E+01 -.345E+04   -.191E+02 0.239E+01 0.344E+04   0.526E+00 -.196E+00 0.304E+01   0.148E+00 -.176E-01 0.133E+00
   -.183E+02 -.216E+01 -.345E+04   0.191E+02 0.239E+01 0.344E+04   -.526E+00 -.196E+00 0.304E+01   -.149E+00 -.166E-01 0.131E+00
   0.326E+01 -.203E+02 -.348E+04   -.333E+01 0.206E+02 0.348E+04   -.171E-01 0.789E-01 0.217E+01   0.682E-01 -.204E+00 0.121E+00
   -.326E+01 -.203E+02 -.348E+04   0.333E+01 0.206E+02 0.348E+04   0.171E-01 0.789E-01 0.217E+01   -.649E-01 -.206E+00 0.120E+00
   -.165E-03 -.123E+02 -.350E+04   0.259E-03 0.123E+02 0.350E+04   -.641E-08 0.963E-01 0.270E+01   -.132E-01 -.860E-01 0.301E+00
   -.497E-04 0.681E+00 -.264E+04   0.113E-03 -.660E+00 0.264E+04   0.515E-08 -.774E-01 0.956E+00   0.209E-02 0.103E-01 0.490E-01
   -.228E-05 -.143E+01 -.137E+04   0.656E-05 0.148E+01 0.136E+04   0.303E-08 -.455E-01 0.326E+01   0.193E-03 -.200E-02 0.269E-01
   0.233E+03 0.459E+00 -.219E+04   -.284E+03 -.638E+00 0.220E+04   0.513E+02 0.193E+00 -.178E+02   0.174E-01 -.299E-02 0.251E-01
   -.233E+03 0.459E+00 -.219E+04   0.284E+03 -.638E+00 0.220E+04   -.513E+02 0.193E+00 -.178E+02   -.174E-01 -.291E-02 0.247E-01
   0.324E-04 0.668E-01 0.334E+02   0.114E-12 0.208E-12 -.173E-10   0.507E-08 -.762E-01 -.325E+02   0.545E-01 0.241E-01 -.103E+01

 POSITION                                       TOTAL-FORCE (eV/Angst)
      0.00000      0.00000      5.37156         0.000000     -0.007024      0.077043
      2.56560      0.00000      5.37156        -0.000538     -0.002336      0.067401
      5.13119      0.00000      5.37156         0.000538     -0.002336      0.067401
      1.28280      2.22187      5.37156         0.002358      0.001297      0.057506
      3.84839      2.22187      5.37156         0.000000     -0.002244      0.034404
      6.41399      2.22187      5.37156        -0.002358      0.001297      0.057506
      2.56560      4.44374      5.37156        -0.000578      0.002742      0.062667
      5.13119      4.44374      5.37156         0.000578      0.002742      0.062667
      7.69679      4.44374      5.37156        -0.000000      0.003328      0.042225
      1.28280      0.74062      7.46636        -0.005117      0.002690     -0.030097
      3.84839      0.74062      7.46636         0.000000     -0.007682     -0.086850
      6.41399      0.74062      7.46636         0.005117      0.002690     -0.030097
      2.56560      2.96249      7.46636        -0.026286      0.009935     -0.093448
      5.13119      2.96249      7.46636         0.026286      0.009935     -0.093448
      7.69679      2.96249      7.46636         0.000000     -0.025904     -0.011783
      3.84839      5.18437      7.46636        -0.000000      0.007560     -0.034442
      6.41399      5.18437      7.46636        -0.016570      0.001551     -0.007771
      8.97958      5.18437      7.46636         0.016570      0.001551     -0.007771
      7.69679      1.48769      9.56171         0.000000     -0.008111      0.029902
      2.55203      1.47342      9.53141        -0.058293     -0.021955     -0.099963
      5.14476      1.47342      9.53141         0.058293     -0.021955     -0.099963
      8.97489      3.70583      9.56026         0.020409     -0.010606      0.001649
      3.84839      3.71878      9.53141        -0.000000      0.078872     -0.135226
      6.41868      3.70583      9.56026        -0.020409     -0.010606      0.001649
     10.25680      5.92177      9.56171         0.004119      0.003002      0.004103
      5.13677      5.92177      9.56171        -0.004119      0.003002      0.004103
      7.69679      5.91957      9.56026        -0.000000      0.026533     -0.007752
      0.00000      0.00000     11.63002         0.000000     -0.023479     -0.014785
      6.40663      6.66047     11.66109        -0.017081     -0.153488     -0.087070
      8.98694      6.66047     11.66109         0.017081     -0.153488     -0.087070
      8.97145      2.21807     11.66109        -0.127732      0.011090      0.031453
      6.42212      2.21807     11.66109         0.127732      0.011090      0.031453
     10.26160      4.45269     11.66109        -0.027492      0.134804     -0.077024
      5.13197      4.45269     11.66109         0.027492      0.134804     -0.077024
      7.69679      4.44374     11.62915        -0.000000      0.025311     -0.013373
      3.84839      2.22187     11.60012         0.000000     -0.046031      0.475825
      3.84839      2.23097     13.81529         0.000000     -0.000165     -0.053808
      2.68084      2.22691     14.18705        -0.020559      0.010790      0.019902
      5.01594      2.22691     14.18705         0.020559      0.010790      0.019902
    total drift:                                0.054543      0.014803     -0.141754

  FREE ENERGIE OF THE ION-ELECTRON SYSTEM (eV)
  free  energy   TOTEN  =      -153.06076599 eV

  energy  without entropy=     -153.06076599  energy(sigma->0) =     -153.06076599

 stress matrix after NEB project (eV)
     -5.61679      0.00000      0.00000
      0.00000     -5.35806     -0.07179
      0.00000     -0.07179     -0.10410
  FORCES: max atom, RMS     0.053808    0.011054
  FORCE total and by dimension    0.069034    0.053808
  Stress total and by dimension    7.763909    5.616787
|           W    W    AA    RRRRR   N    N  II  N    N   GGGG   !!!           |
|           W    W   A  A   R    R  NN   N  II  NN   N  G    G  !!!           |
|           W    W  A    A  R    R  N N  N  II  N N  N  G       !!!           |
|           W WW W  AAAAAA  RRRRR   N  N N  II  N  N N  G  GGG   !            |
|           WW  WW  A    A  R   R   N   NN  II  N   NN  G    G                |
|           W    W  A    A  R    R  N    N  II  N    N   GGGG   !!!           |
|     Tetrahedron method does not include variations of the Fermi             |
|     occupations, so forces and stress will be inaccurate. We suggest        |
|     using a different smearing scheme ISMEAR = 1 or 2 for metals in         |
|     relaxations.                                                            |

 total charge

# of ion       s       p       d       tot
    1        0.447   0.286   9.188   9.921
    2        0.449   0.285   9.186   9.919
    3        0.449   0.285   9.186   9.919
    4        0.449   0.284   9.187   9.920
    5        0.448   0.285   9.184   9.917
    6        0.449   0.284   9.187   9.920
    7        0.449   0.285   9.186   9.920
    8        0.449   0.285   9.186   9.920
    9        0.447   0.284   9.188   9.919
   10        0.440   0.374   9.174   9.989
   11        0.443   0.368   9.182   9.993
   12        0.440   0.374   9.174   9.989
   13        0.443   0.368   9.182   9.992
   14        0.443   0.368   9.182   9.992
   15        0.438   0.370   9.177   9.985
   16        0.440   0.373   9.174   9.988
   17        0.439   0.368   9.179   9.986
   18        0.439   0.368   9.179   9.986
   19        0.439   0.371   9.181   9.991
   20        0.446   0.388   9.178  10.012
   21        0.446   0.388   9.178  10.012
   22        0.433   0.370   9.183   9.986
   23        0.446   0.384   9.181  10.012
   24        0.433   0.370   9.183   9.986
   25        0.441   0.370   9.182   9.993
   26        0.441   0.370   9.182   9.993
   27        0.434   0.370   9.183   9.987
   28        0.451   0.287   9.194   9.933
   29        0.451   0.302   9.183   9.937
   30        0.451   0.302   9.183   9.937
   31        0.442   0.299   9.186   9.927
   32        0.442   0.299   9.186   9.927
   33        0.452   0.302   9.183   9.937
   34        0.452   0.302   9.183   9.937
   35        0.443   0.291   9.193   9.927
   36        0.693   0.466   7.192   8.351
   37        0.891   1.702   0.000   2.593
   38        1.601   3.491   0.000   5.093
   39        1.601   3.491   0.000   5.093
tot         20.329  20.813 328.598 369.740

 BZINTS: Fermi energy:   -0.497615;  410.000000 electrons
         Band energy:-0.145555E+04;  BLOECHL correction:   -0.071073