 vasp.6.2.0 18Jan21 (build Jun 12 2021 23:27:24) complex

 executed on             LinuxIFC date 2022.05.26  19:59:42

 INCAR:
   ISMEAR = -5
   SIGMA = 0.1
   ISPIN = 1
   EDIFF = 1.d-5
   EDIFFG = -0.01
   NSW = 0
   NELM = 150
   ENCUT = 500
   ISIF = 2
   IBRION = 2
   LREAL = Auto
   ALGO = Fast
   ICHARG = 11
   LORBIT = 10
   LCHARG = .F.
   LWAVE = .F.

 POTCAR:    PAW_PBE Cu 22Jun2005
 POTCAR:    PAW_PBE Co 02Aug2007
 POTCAR:    PAW_PBE N 08Apr2002
|           W    W    AA    RRRRR   N    N  II  N    N   GGGG   !!!           |
|           W    W   A  A   R    R  NN   N  II  NN   N  G    G  !!!           |
|           W    W  A    A  R    R  N N  N  II  N N  N  G       !!!           |
|           W WW W  AAAAAA  RRRRR   N  N N  II  N  N N  G  GGG   !            |
|           WW  WW  A    A  R   R   N   NN  II  N   NN  G    G                |
|           W    W  A    A  R    R  N    N  II  N    N   GGGG   !!!           |
|     For optimal performance we recommend to set                             |
|       NCORE = 2 up to number-of-cores-per-socket                            |
|     This setting can greatly improve the performance of VASP for DFT.       |
|     The default, NCORE=1 might be grossly inefficient on modern             |
|     multi-core architectures or massively parallel machines. Do your        |
|     Unfortunately you need to use the default for GW and RPA                |
|     calculations (for HF NCORE is supported but not extensively tested      |
|     yet).                                                                   |

 POTCAR:    PAW_PBE Cu 22Jun2005
   VRHFIN =Cu: d10 p1

   TITEL  = PAW_PBE Cu 22Jun2005
   POMASS =   63.546; ZVAL   =   11.000    mass and valenz
   ENMAX  =  295.446; ENMIN  =  221.585 eV

 POTCAR:    PAW_PBE Co 02Aug2007
   VRHFIN =Co: d8 s1

   TITEL  = PAW_PBE Co 02Aug2007
   POMASS =   58.933; ZVAL   =    9.000    mass and valenz
   ENMAX  =  267.968; ENMIN  =  200.976 eV

 POTCAR:    PAW_PBE N 08Apr2002
   VRHFIN =N: s2p3

   TITEL  = PAW_PBE N 08Apr2002
   POMASS =   14.001; ZVAL   =    5.000    mass and valenz
   ENMAX  =  400.000; ENMIN  =  300.000 eV

 Optimization of the real space projectors (new method)

 maximal supplied QI-value         = 16.25
 optimisation between [QCUT,QGAM] = [ 11.38, 22.75] = [ 36.24,144.96] Ry
 Optimized for a Real-space Cutoff    1.52 Angstroem

   l    n(q)    QCUT    max X(q) W(low)/X(q) W(high)/X(q)  e(spline)
   2      9    11.376     4.610    0.21E-03    0.10E-03    0.26E-06
   2      9    11.376     8.522    0.33E-03    0.16E-03    0.37E-06
   0     10    11.376    51.609    0.62E-04    0.20E-04    0.13E-06
   0     10    11.376    27.747    0.54E-04    0.20E-04    0.13E-06
   1     10    11.376    20.408    0.13E-04    0.99E-04    0.19E-06
   1     10    11.376    13.425    0.12E-04    0.87E-04    0.17E-06
 Optimization of the real space projectors (new method)

[...]

   l    n(q)    QCUT    max X(q) W(low)/X(q) W(high)/X(q)  e(spline)
   2      8    11.376    65.824    0.20E-03    0.32E-04    0.13E-06
   2      8    11.376    61.429    0.20E-03    0.33E-04    0.14E-06
   0      9    11.376    56.174    0.76E-04    0.11E-03    0.19E-06
   0      9    11.376    31.263    0.69E-04    0.99E-04    0.17E-06
   1      9    11.376    19.828    0.35E-03    0.11E-03    0.12E-06
   1      9    11.376    15.139    0.29E-03    0.94E-04    0.10E-06
 Optimization of the real space projectors (new method)

 maximal supplied QI-value         = 25.13
 optimisation between [QCUT,QGAM] = [ 11.31, 22.87] = [ 35.82,146.48] Ry
 Optimized for a Real-space Cutoff    1.27 Angstroem

   l    n(q)    QCUT    max X(q) W(low)/X(q) W(high)/X(q)  e(spline)
   0      9    11.310    79.467    0.75E-04    0.16E-03    0.36E-06
   0      9    11.310    66.151    0.74E-04    0.16E-03    0.36E-06
   1      8    11.310    17.416    0.35E-03    0.12E-03    0.95E-06
   1      8    11.310    12.382    0.37E-03    0.13E-03    0.98E-06
  PAW_PBE Cu 22Jun2005                  :
  PAW_PBE Co 02Aug2007                  :
  PAW_PBE N 08Apr2002                   :

 POSCAR: Cu-Co-N
  positions in direct lattice
  velocities in cartesian coordinates
 exchange correlation table for  LEXCH =        8
   RHO(1)=    0.500       N(1)  =     2000
   RHO(2)=  100.500       N(2)  =     4000

 VTST: version 3.2, (02/03/18)

 CHAIN: initializing optimizer

 OPT: Using VASP Conjugate-Gradient optimizer
 CHAIN: Read ICHAIN            0

 POSCAR: Cu-Co-N
  positions in direct lattice
  velocities in cartesian coordinates

 ion  position               nearest neighbor table
   1  0.000  0.000  0.252-   7 2.57   3 2.57   4 2.57   2 2.57   6 2.57   8 2.57  12 2.57  10 2.57
                            16 2.57
   2  0.333  0.000  0.252-   8 2.57   9 2.57   5 2.57   1 2.57   3 2.57  11 2.57   4 2.57  10 2.57
                            17 2.57
   3  0.667  0.000  0.252-   1 2.57   7 2.57   6 2.57   9 2.57   2 2.57  12 2.57   5 2.57  18 2.57
                            11 2.57
   4  0.000  0.333  0.252-   5 2.57   6 2.57   1 2.57   7 2.57   2 2.57  13 2.57   9 2.57  10 2.57
                            15 2.57
   5  0.333  0.333  0.252-   4 2.57   2 2.57   7 2.57  13 2.57   8 2.57   6 2.57   3 2.57  11 2.57
                            14 2.57
   6  0.667  0.333  0.252-   4 2.57   9 2.57  15 2.57   3 2.57   1 2.57   8 2.57  14 2.57   5 2.57
                            12 2.57
   7  0.000  0.667  0.252-   1 2.57   3 2.57  16 2.57  18 2.57   4 2.57   5 2.57   8 2.57   9 2.57
                            13 2.57
   8  0.333  0.667  0.252-   9 2.57   2 2.57  17 2.57   6 2.57   1 2.57   7 2.57   5 2.57  14 2.57
                            16 2.57
   9  0.667  0.667  0.252-   8 2.57   6 2.57   2 2.57  17 2.57   3 2.57   7 2.57   4 2.57  15 2.57
                            18 2.57
  10  0.111  0.111  0.351-  20 2.55  26 2.56  19 2.56  11 2.57  12 2.57  13 2.57   1 2.57   2 2.57
                             4 2.57  15 2.57  16 2.57  17 2.57
  11  0.444  0.111  0.351-  20 2.55  21 2.55  27 2.56  10 2.57  13 2.57   2 2.57  17 2.57  14 2.57
                            12 2.57   5 2.57   3 2.57  18 2.57
  12  0.778  0.111  0.351-  21 2.55  19 2.56  25 2.56  15 2.57  10 2.57  14 2.57  18 2.57   3 2.57
                             1 2.57  16 2.57  11 2.57   6 2.57
  13  0.111  0.444  0.351-  23 2.55  20 2.55  22 2.56  16 2.57  18 2.57  10 2.57  11 2.57  14 2.57
                             5 2.57   4 2.57   7 2.57  15 2.57
  14  0.444  0.444  0.351-  21 2.55  23 2.55  24 2.56  15 2.57  17 2.57  12 2.57  16 2.57  13 2.57
                            11 2.57   6 2.57   8 2.57   5 2.57
  15  0.778  0.444  0.351-  24 2.56  22 2.56  19 2.56  14 2.57  17 2.57  12 2.57   6 2.57  18 2.57
                            10 2.57   9 2.57  13 2.57   4 2.57
  16  0.111  0.778  0.351-  23 2.55  25 2.56  26 2.56  18 2.57  13 2.57   7 2.57  14 2.57  17 2.57
                            12 2.57  10 2.57   8 2.57   1 2.57
  17  0.444  0.778  0.351-  27 2.56  24 2.56  26 2.56  14 2.57  15 2.57   8 2.57   9 2.57  11 2.57
                            16 2.57  18 2.57  10 2.57   2 2.57
  18  0.778  0.778  0.351-  22 2.56  27 2.56  25 2.56  16 2.57  13 2.57   7 2.57  15 2.57  12 2.57
                            17 2.57   9 2.57   3 2.57  11 2.57
  19  0.889  0.223  0.449-  28 2.54  32 2.56  31 2.56  15 2.56  12 2.56  10 2.56  22 2.56  24 2.56
                            21 2.57  20 2.57  25 2.57  26 2.57
  20  0.222  0.222  0.448-  36 2.46  29 2.55  31 2.55  11 2.55  13 2.55  10 2.55  23 2.56  21 2.56
                            26 2.57  19 2.57  27 2.57  22 2.57
  21  0.555  0.222  0.448-  36 2.46  32 2.55  30 2.55  14 2.55  11 2.55  12 2.55  20 2.56  23 2.56
                            19 2.57  25 2.57  24 2.57  27 2.57
  22  0.889  0.556  0.449-  35 2.54  31 2.55  33 2.55  18 2.56  15 2.56  13 2.56  24 2.56  27 2.56
                            19 2.56  25 2.56  23 2.57  20 2.57
  23  0.222  0.555  0.448-  36 2.46  33 2.55  34 2.55  13 2.55  14 2.55  16 2.55  20 2.56  21 2.56
                            25 2.57  26 2.57  22 2.57  24 2.57
  24  0.556  0.556  0.449-  35 2.54  32 2.55  34 2.55  15 2.56  17 2.56  14 2.56  22 2.56  27 2.56
                            19 2.56  26 2.56  21 2.57  23 2.57
  25  0.889  0.889  0.449-  28 2.54  33 2.56  30 2.56  18 2.56  16 2.56  12 2.56  22 2.56  27 2.56
                            21 2.57  23 2.57  19 2.57  26 2.57
  26  0.223  0.889  0.449-  28 2.54  29 2.56  34 2.56  17 2.56  10 2.56  16 2.56  27 2.56  24 2.56
                            20 2.57  23 2.57  25 2.57  19 2.57
  27  0.556  0.889  0.449-  35 2.54  29 2.55  30 2.55  17 2.56  18 2.56  11 2.56  24 2.56  22 2.56
                            26 2.56  25 2.56  20 2.57  21 2.57
  28  0.000  0.000  0.546-  25 2.54  19 2.54  26 2.54  33 2.58  30 2.58  31 2.58  29 2.58  32 2.58
                            34 2.58
  29  0.333  0.003  0.546-  31 2.54  36 2.54  30 2.55  20 2.55  27 2.55  26 2.56  28 2.58  35 2.58
                            34 2.61
  30  0.664  0.003  0.546-  32 2.54  36 2.54  29 2.55  21 2.55  27 2.55  25 2.56  28 2.58  35 2.58
                            33 2.61
  31  0.003  0.333  0.546-  29 2.54  36 2.54  33 2.55  20 2.55  22 2.55  19 2.56  28 2.58  35 2.58
                            32 2.61
  32  0.664  0.333  0.546-  30 2.54  36 2.54  34 2.55  21 2.55  24 2.55  19 2.56  28 2.58  35 2.58
                            31 2.61
  33  0.003  0.664  0.546-  34 2.54  36 2.54  31 2.55  23 2.55  22 2.55  25 2.56  28 2.58  35 2.58
                            30 2.61
  34  0.333  0.664  0.546-  33 2.54  36 2.54  32 2.55  23 2.55  24 2.55  26 2.56  28 2.58  35 2.58
                            29 2.61
  35  0.667  0.667  0.546-  24 2.54  27 2.54  22 2.54  34 2.58  32 2.58  29 2.58  30 2.58  33 2.58
                            31 2.58
  36  0.333  0.333  0.541-  37 1.58  23 2.46  20 2.46  21 2.46  31 2.54  29 2.54  33 2.54  34 2.54
                            32 2.54  30 2.54
  37  0.333  0.333  0.615-  36 1.58

  LATTYP: Found a hexagonal cell.
 ALAT       =     7.6967864036
 C/A-ratio  =     2.7653617908

  Lattice vectors:

 A1 = (  -3.8483927580,  -6.6656128093,   0.0000000000)
 A2 = (   7.6967864037,   0.0000000000,   0.0000000000)
 A3 = (   0.0000000000,   0.0000000000,  21.2843990326)

Analysis of symmetry for initial positions (statically):
 Subroutine PRICEL returns:
 Original cell was already a primitive cell.

 Routine SETGRP: Setting up the symmetry group for a
 hexagonal supercell.

 Subroutine GETGRP returns: Found  6 space group operations
 (whereof  6 operations were pure point group operations)
 out of a pool of 24 trial point group operations.

The static configuration has the point symmetry C_3v.

Analysis of symmetry for dynamics (positions and initial velocities):
 Subroutine PRICEL returns:
 Original cell was already a primitive cell.

[...]

The dynamic configuration has the point symmetry C_3v.

Analysis of constrained symmetry for selective dynamics:
 Subroutine PRICEL returns:
 Original cell was already a primitive cell.

 Routine SETGRP: Setting up the symmetry group for a
 hexagonal supercell.

 Subroutine GETGRP returns: Found  6 space group operations
[...]
     24      -4.3285      2.00000
     25      -4.2363      2.00000
     26      -4.1548      2.00000
     27      -4.1271      2.00000
     28      -4.0936      2.00000
     29      -4.0641      2.00000
     30      -4.0616      2.00000
     31      -4.0482      2.00000
     32      -4.0415      2.00000
     33      -4.0249      2.00000
     34      -3.9756      2.00000
     35      -3.9457      2.00000
     36      -3.9216      2.00000
     37      -3.8784      2.00000
     38      -3.8681      2.00000
     39      -3.8250      2.00000
     40      -3.7993      2.00000
     41      -3.7296      2.00000
     42      -3.7007      2.00000
     43      -3.6437      2.00000
     44      -3.6344      2.00000
     45      -3.6051      2.00000
     46      -3.5961      2.00000
     47      -3.5565      2.00000
     48      -3.5310      2.00000
     49      -3.4976      2.00000
     50      -3.3902      2.00000
     51      -3.3684      2.00000
     52      -3.3644      2.00000
     53      -3.3434      2.00000
     54      -3.3131      2.00000
     55      -3.3089      2.00000
     56      -3.2770      2.00000
     57      -3.2624      2.00000
     58      -3.2508      2.00000
     59      -3.2387      2.00000
     60      -3.2304      2.00000
[...]
    238       6.2221      0.00000
    239       6.3512      0.00000
    240       6.4427      0.00000
    241       6.9580      0.00000
    242       6.9678      0.00000
    243       7.1132      0.00000
    244       7.1574      0.00000
    245       7.2158      0.00000
    246       7.2754      0.00000
    247       7.3917      0.00000
    248       7.5197      0.00000
    249       7.5300      0.00000
    250       7.7447      0.00000
    251       7.8381      0.00000
    252       8.0341      0.00000

 soft charge-density along one line, spin component           1
         0         1         2         3         4         5         6         7         8         9
 total charge-density along one line

------------------------ aborting loop because EDIFF is reached ----------------------------------------

 total charge

# of ion       s       p       d       tot
    1        0.449   0.282   9.189   9.921
    2        0.448   0.284   9.187   9.920
    3        0.448   0.284   9.187   9.920
    4        0.448   0.284   9.187   9.920
    5        0.449   0.285   9.186   9.921
    6        0.448   0.284   9.187   9.920
    7        0.448   0.284   9.187   9.920
    8        0.448   0.284   9.187   9.920
    9        0.447   0.285   9.186   9.918
   10        0.442   0.369   9.179   9.991
   11        0.440   0.372   9.180   9.992
   12        0.442   0.369   9.179   9.991
   13        0.440   0.372   9.180   9.992
   14        0.440   0.372   9.180   9.992
   15        0.440   0.368   9.181   9.989
   16        0.442   0.369   9.179   9.991
   17        0.440   0.368   9.181   9.989
   18        0.440   0.368   9.181   9.989
   19        0.441   0.371   9.179   9.991
   20        0.457   0.387   9.175  10.018
   21        0.457   0.387   9.175  10.018
   22        0.438   0.372   9.182   9.992
   23        0.457   0.387   9.175  10.018
   24        0.438   0.372   9.182   9.992
   25        0.441   0.371   9.179   9.991
   26        0.441   0.371   9.179   9.991
   27        0.438   0.372   9.182   9.992
   28        0.451   0.279   9.197   9.928
   29        0.436   0.292   9.192   9.919
   30        0.436   0.292   9.192   9.919
   31        0.436   0.292   9.192   9.919
   32        0.436   0.292   9.192   9.919
   33        0.436   0.292   9.192   9.919
   34        0.436   0.292   9.192   9.919
   35        0.448   0.281   9.195   9.924
   36        0.564   0.682   7.464   8.710
   37        1.358   2.136   0.000   3.494
tot         17.446  14.402 328.924 360.772

  FORCE on cell =-STRESS in cart. coord.  units (eV):
  Direction    XX          YY          ZZ          XY          YZ          ZX
  Alpha Z   875.32665   875.32665   875.32665
  Ewald  175040.75939175040.75893************     0.00041     0.00011     0.00019
  Hartree188158.33768188158.33763************     0.00005     0.00005     0.00008
  E(xc)   -2313.75587 -2313.75539 -2317.91557    -0.00042    -0.00003    -0.00006
  Local  ************************376457.68527     0.01854    -0.00057    -0.00100
  n-local  -777.78020  -763.77201  -781.28962     7.65675    -0.11084     0.35288
  augment  3467.33626  3467.35617  3466.83425    -0.01724     0.00027     0.00049
  Kinetic  3302.90819  3303.83233  3313.48007     1.90616     1.99806    -1.26784
  Fock        0.00000     0.00000     0.00000     0.00000     0.00000     0.00000
  Total      -6.24443    -6.24443     0.52847     0.00000     0.00000    -0.00000
  in kB      -9.16205    -9.16205     0.77540     0.00000     0.00000    -0.00000

 VOLUME and BASIS-vectors are now :
  energy-cutoff  :      500.00
  volume of cell :     1091.97
      direct lattice vectors                 reciprocal lattice vectors
     7.696786404  0.000000000  0.000000000     0.129924354 -0.075011849  0.000000000
     3.848392758  6.665612809  0.000000000     0.000000000  0.150023716  0.000000000
     0.000000000  0.000000000 21.284399033     0.000000000  0.000000000  0.046982769

  length of vectors
     7.696786404  7.696786404 21.284399033     0.150023716  0.150023716  0.046982769

 FORCES acting on ions
    electron-ion (+dipol)            ewald-force                    non-local-force                 convergence-correction
   -.416E-04 0.166E-06 0.350E+04   0.578E-04 -.443E-05 -.350E+04   0.214E-18 -.278E-18 -.243E+01   -.280E-03 -.129E-03 -.179E+00
   0.229E+00 0.433E+00 0.350E+04   -.264E+00 -.326E+00 -.350E+04   0.549E-01 0.373E-01 -.194E+01   -.178E-01 -.124E+00 -.179E+00
   -.229E+00 0.433E+00 0.350E+04   0.264E+00 -.327E+00 -.350E+04   -.549E-01 0.373E-01 -.194E+01   0.186E-01 -.121E+00 -.179E+00
   0.489E+00 -.176E-01 0.350E+04   -.415E+00 -.657E-01 -.350E+04   0.598E-01 0.289E-01 -.194E+01   -.116E+00 0.465E-01 -.179E+00
   -.647E-04 -.520E-05 0.350E+04   0.116E-03 -.101E-04 -.350E+04   -.849E-18 0.156E-17 -.194E+01   0.121E-01 0.740E-02 -.148E+00
   -.489E+00 -.175E-01 0.350E+04   0.415E+00 -.658E-01 -.350E+04   -.598E-01 0.289E-01 -.194E+01   0.115E+00 0.477E-01 -.178E+00
   0.260E+00 -.415E+00 0.350E+04   -.151E+00 0.392E+00 -.350E+04   0.484E-02 -.662E-01 -.194E+01   -.958E-01 0.767E-01 -.179E+00
   -.260E+00 -.415E+00 0.350E+04   0.150E+00 0.392E+00 -.350E+04   -.484E-02 -.662E-01 -.194E+01   0.992E-01 0.753E-01 -.178E+00
   -.144E-03 -.329E-04 0.350E+04   0.264E-03 0.206E-04 -.350E+04   -.311E-17 0.445E-18 -.207E+01   -.132E-01 -.680E-02 -.158E+00
   0.345E+01 0.199E+01 0.119E+04   -.306E+01 -.177E+01 -.119E+04   -.273E+00 -.158E+00 -.933E+00   -.127E+00 -.735E-01 0.339E-01
   -.903E-04 0.342E+01 0.120E+04   0.189E-03 -.341E+01 -.120E+04   -.992E-08 0.149E+00 -.432E+00   0.115E-01 -.179E+00 0.811E-01
   -.345E+01 0.199E+01 0.119E+04   0.306E+01 -.177E+01 -.119E+04   0.273E+00 -.158E+00 -.933E+00   0.126E+00 -.725E-01 0.328E-01
   0.296E+01 -.171E+01 0.120E+04   -.295E+01 0.171E+01 -.120E+04   0.129E+00 -.745E-01 -.432E+00   -.149E+00 0.100E+00 0.812E-01
   -.296E+01 -.171E+01 0.120E+04   0.295E+01 0.171E+01 -.120E+04   -.129E+00 -.745E-01 -.432E+00   0.172E+00 0.990E-01 0.790E-01
   -.144E-03 0.214E+00 0.119E+04   0.300E-03 -.299E+00 -.119E+04   -.145E-08 0.217E-01 -.713E+00   -.319E-02 0.579E-01 0.866E-01
   -.909E-04 -.398E+01 0.119E+04   0.185E-03 0.353E+01 -.119E+04   -.210E-07 0.315E+00 -.933E+00   -.759E-03 0.144E+00 0.328E-01
   0.185E+00 -.107E+00 0.119E+04   -.259E+00 0.150E+00 -.119E+04   0.188E-01 -.109E-01 -.713E+00   0.492E-01 -.317E-01 0.865E-01
   -.185E+00 -.107E+00 0.119E+04   0.259E+00 0.150E+00 -.119E+04   -.188E-01 -.109E-01 -.713E+00   -.482E-01 -.295E-01 0.875E-01
   -.564E-04 0.188E+01 -.114E+04   0.663E-04 -.193E+01 0.114E+04   -.196E-08 0.294E-01 0.564E+00   0.113E-01 0.220E-01 0.204E+00
   0.910E+01 0.526E+01 -.112E+04   -.807E+01 -.466E+01 0.112E+04   -.853E+00 -.493E+00 -.547E-01   -.232E+00 -.134E+00 0.143E+00
   -.910E+01 0.526E+01 -.112E+04   0.806E+01 -.466E+01 0.112E+04   0.853E+00 -.493E+00 -.547E-01   0.232E+00 -.135E+00 0.143E+00
   0.341E+01 -.197E+01 -.114E+04   -.355E+01 0.205E+01 0.113E+04   0.280E+00 -.161E+00 0.917E+00   -.106E+00 0.720E-01 0.162E+00
   -.763E-04 -.105E+02 -.112E+04   0.141E-03 0.931E+01 0.112E+04   -.656E-07 0.985E+00 -.547E-01   -.194E-02 0.267E+00 0.143E+00
   -.341E+01 -.197E+01 -.114E+04   0.355E+01 0.205E+01 0.113E+04   -.280E+00 -.161E+00 0.917E+00   0.127E+00 0.726E-01 0.162E+00
   -.163E+01 -.939E+00 -.114E+04   0.167E+01 0.966E+00 0.114E+04   -.255E-01 -.147E-01 0.564E+00   -.372E-02 -.213E-02 0.203E+00
   0.163E+01 -.939E+00 -.114E+04   -.167E+01 0.966E+00 0.114E+04   0.255E-01 -.147E-01 0.564E+00   0.250E-01 -.105E-02 0.204E+00
   -.128E-03 0.394E+01 -.114E+04   0.244E-03 -.410E+01 0.113E+04   -.215E-07 0.323E+00 0.917E+00   0.937E-02 -.128E+00 0.162E+00
   -.289E-04 0.192E-04 -.346E+04   0.327E-04 -.351E-04 0.346E+04   0.192E-17 0.365E-17 0.238E+01   0.454E-04 0.765E-04 0.247E+00
   0.192E+02 0.353E+02 -.344E+04   -.196E+02 -.359E+02 0.344E+04   0.333E+00 0.695E+00 0.297E+01   -.109E+00 -.193E+00 0.138E+00
   -.192E+02 0.353E+02 -.344E+04   0.196E+02 -.359E+02 0.344E+04   -.333E+00 0.695E+00 0.297E+01   0.109E+00 -.191E+00 0.138E+00
   0.401E+02 -.967E+00 -.344E+04   -.409E+02 0.103E+01 0.344E+04   0.768E+00 -.597E-01 0.297E+01   -.222E+00 0.228E-02 0.138E+00
   -.401E+02 -.967E+00 -.344E+04   0.409E+02 0.103E+01 0.344E+04   -.768E+00 -.597E-01 0.297E+01   0.221E+00 0.344E-02 0.139E+00
   0.209E+02 -.343E+02 -.344E+04   -.213E+02 0.349E+02 0.344E+04   0.436E+00 -.636E+00 0.297E+01   -.111E+00 0.190E+00 0.138E+00
   -.209E+02 -.343E+02 -.344E+04   0.213E+02 0.349E+02 0.344E+04   -.436E+00 -.636E+00 0.297E+01   0.114E+00 0.190E+00 0.139E+00
   -.132E-03 -.175E-04 -.346E+04   0.258E-03 0.700E-05 0.346E+04   -.657E-17 0.750E-18 0.236E+01   -.129E-01 -.661E-02 0.175E+00
   -.434E-04 -.136E-04 -.254E+04   0.119E-03 0.211E-04 0.254E+04   0.986E-17 -.348E-17 0.268E+01   0.520E-02 0.318E-02 -.507E-01
   0.106E-03 -.468E-04 -.195E+04   0.200E-04 0.849E-05 0.197E+04   -.125E-17 -.528E-18 -.202E+02   0.159E-02 0.964E-03 0.703E-02
   -.163E-03 -.681E-04 0.132E+02   0.649E-13 0.476E-12 -.909E-12   0.113E-15 0.219E-15 -.150E+02   0.892E-01 0.486E-01 0.178E+01

 POSITION                                       TOTAL-FORCE (eV/Angst)
      0.00000      0.00000      5.37156        -0.000000      0.000000      0.007628
      2.56560      0.00000      5.37156         0.002686      0.020555      0.065429
      5.13119      0.00000      5.37156        -0.002686      0.020555      0.065429
      1.28280      2.22187      5.37156         0.019144     -0.007951      0.065429
      3.84839      2.22187      5.37156        -0.000000      0.000000      0.057668
      6.41399      2.22187      5.37156        -0.019144     -0.007951      0.065429
      2.56560      4.44374      5.37156         0.016458     -0.012604      0.065429
      5.13119      4.44374      5.37156        -0.016458     -0.012604      0.065429
      7.69679      4.44374      5.37156        -0.000000      0.000000      0.056449
      1.28280      0.74062      7.46636        -0.005698     -0.003290     -0.044124
      3.84839      0.74062      7.46636         0.000000     -0.026529     -0.058222
      6.41399      0.74062      7.46636         0.005698     -0.003290     -0.044124
      2.56560      2.96249      7.46636        -0.022974      0.013264     -0.058222
      5.13119      2.96249      7.46636         0.022974      0.013264     -0.058222
      7.69679      2.96249      7.46636         0.000000     -0.006090     -0.043911
      3.84839      5.18437      7.46636        -0.000000      0.006579     -0.044124
      6.41399      5.18437      7.46636        -0.005274      0.003045     -0.043911
      8.97958      5.18437      7.46636         0.005274      0.003045     -0.043911
      7.69679      1.48420      9.55496         0.000000     -0.009820      0.023078
      2.56664      1.48185      9.54157        -0.046386     -0.026781     -0.209483
      5.13014      1.48185      9.54157         0.046386     -0.026781     -0.209483
      8.97778      3.70416      9.55304         0.021128     -0.012198      0.002302
      3.84839      3.70191      9.54157        -0.000000      0.053562     -0.209483
      6.41579      3.70416      9.55304        -0.021128     -0.012198      0.002302
     10.25982      5.92351      9.55496         0.008504      0.004910      0.023078
      5.13375      5.92351      9.55496        -0.008504      0.004910      0.023078
      7.69679      5.92291      9.55304        -0.000000      0.024396      0.002302
      0.00000      0.00000     11.62172        -0.000000      0.000000     -0.023151
      2.57582      0.02145     11.62841        -0.106205     -0.186362     -0.017959
      5.12097      0.02145     11.62841         0.106205     -0.186362     -0.017959
      1.30649      2.22000     11.62841        -0.214497      0.001205     -0.017959
      6.39030      2.22000     11.62841         0.214497      0.001205     -0.017959
      2.57906      4.42416     11.62841        -0.108292      0.185157     -0.017959
      5.11773      4.42416     11.62841         0.108292      0.185157     -0.017959
      7.69679      4.44374     11.62071         0.000000      0.000000     -0.015849
      3.84839      2.22187     11.51210        -0.000000      0.000000      0.612396
      3.84839      2.22187     13.08793        -0.000000      0.000000      0.011118
    total drift:                                0.089054      0.048532     -0.027644

  FREE ENERGIE OF THE ION-ELECTRON SYSTEM (eV)
  free  energy   TOTEN  =      -135.43428196 eV

  energy  without entropy=     -135.43428196  energy(sigma->0) =     -135.43428196

 stress matrix after NEB project (eV)
     -6.24443      0.00000     -0.00000
      0.00000     -6.24443      0.00000
     -0.00000      0.00000      0.52847
  FORCES: max atom, RMS     0.011118    0.001828
  FORCE total and by dimension    0.011118    0.011118
  Stress total and by dimension    8.846757    6.244431
|           W    W    AA    RRRRR   N    N  II  N    N   GGGG   !!!           |
|           W    W   A  A   R    R  NN   N  II  NN   N  G    G  !!!           |
|           W    W  A    A  R    R  N N  N  II  N N  N  G       !!!           |
|           W WW W  AAAAAA  RRRRR   N  N N  II  N  N N  G  GGG   !            |
|           WW  WW  A    A  R   R   N   NN  II  N   NN  G    G                |
|           W    W  A    A  R    R  N    N  II  N    N   GGGG   !!!           |
|     Tetrahedron method does not include variations of the Fermi             |
|     occupations, so forces and stress will be inaccurate. We suggest        |
|     using a different smearing scheme ISMEAR = 1 or 2 for metals in         |
|     relaxations.                                                            |

 total charge

# of ion       s       p       d       tot
    1        0.449   0.282   9.189   9.921
    2        0.448   0.284   9.187   9.920
    3        0.448   0.284   9.187   9.920
    4        0.448   0.284   9.187   9.920
    5        0.449   0.285   9.186   9.921
    6        0.448   0.284   9.187   9.920
    7        0.448   0.284   9.187   9.920
    8        0.448   0.284   9.187   9.920
    9        0.447   0.285   9.186   9.918
   10        0.442   0.369   9.179   9.991
   11        0.440   0.372   9.180   9.992
   12        0.442   0.369   9.179   9.991
   13        0.440   0.372   9.180   9.992
   14        0.440   0.372   9.180   9.992
   15        0.440   0.368   9.181   9.989
   16        0.442   0.369   9.179   9.991
   17        0.440   0.368   9.181   9.989
   18        0.440   0.368   9.181   9.989
   19        0.441   0.371   9.179   9.991
   20        0.457   0.387   9.175  10.018
   21        0.457   0.387   9.175  10.018
   22        0.438   0.372   9.182   9.992
   23        0.457   0.387   9.175  10.018
   24        0.438   0.372   9.182   9.992
   25        0.441   0.371   9.179   9.991
   26        0.441   0.371   9.179   9.991
   27        0.438   0.372   9.182   9.992
   28        0.451   0.279   9.197   9.928
   29        0.436   0.292   9.192   9.919
   30        0.436   0.292   9.192   9.919
   31        0.436   0.292   9.192   9.919
   32        0.436   0.292   9.192   9.919
   33        0.436   0.292   9.192   9.919
   34        0.436   0.292   9.192   9.919
   35        0.448   0.281   9.195   9.924
   36        0.564   0.682   7.464   8.710
   37        1.358   2.136   0.000   3.494
tot         17.446  14.402 328.924 360.772

 BZINTS: Fermi energy:    0.050212;  399.000000 electrons
         Band energy:-0.111762E+04;  BLOECHL correction:   -0.063444