 vasp.6.2.0 18Jan21 (build Jun 12 2021 23:27:24) complex

 executed on             LinuxIFC date 2022.05.30  17:19:15

 INCAR:
   ISMEAR = -5
   SIGMA = 0.1
   ISPIN = 1
   EDIFF = 1.d-5
   EDIFFG = -0.01
   NSW = 0
   NELM = 150
   ENCUT = 500
   ISIF = 2
   IBRION = 2
   LREAL = Auto
   ALGO = Fast
   ICHARG = 11
   LORBIT = 10
   LCHARG = .F.
   LWAVE = .F.

 POTCAR:    PAW_PBE Ag 02Apr2005
 POTCAR:    PAW_PBE Ru 04Feb2005
 POTCAR:    PAW_PBE C 08Apr2002
 POTCAR:    PAW_PBE O 08Apr2002
 POTCAR:    PAW_PBE H 15Jun2001
|           W    W    AA    RRRRR   N    N  II  N    N   GGGG   !!!           |
|           W    W   A  A   R    R  NN   N  II  NN   N  G    G  !!!           |
|           W    W  A    A  R    R  N N  N  II  N N  N  G       !!!           |
|           W WW W  AAAAAA  RRRRR   N  N N  II  N  N N  G  GGG   !            |
|           WW  WW  A    A  R   R   N   NN  II  N   NN  G    G                |
|           W    W  A    A  R    R  N    N  II  N    N   GGGG   !!!           |
|     For optimal performance we recommend to set                             |
|       NCORE = 2 up to number-of-cores-per-socket                            |
|     This setting can greatly improve the performance of VASP for DFT.       |
|     The default, NCORE=1 might be grossly inefficient on modern             |
|     multi-core architectures or massively parallel machines. Do your        |
|     Unfortunately you need to use the default for GW and RPA                |
|     calculations (for HF NCORE is supported but not extensively tested      |
|     yet).                                                                   |

 POTCAR:    PAW_PBE Ag 02Apr2005
   VRHFIN =Ag : s1 d10

   TITEL  = PAW_PBE Ag 02Apr2005
   POMASS =  107.868; ZVAL   =   11.000    mass and valenz
   ENMAX  =  249.844; ENMIN  =  187.383 eV

 POTCAR:    PAW_PBE Ru 04Feb2005
   VRHFIN =Ru: s1 d7

   TITEL  = PAW_PBE Ru 04Feb2005
   POMASS =  101.070; ZVAL   =    8.000    mass and valenz
   ENMAX  =  213.271; ENMIN  =  159.953 eV

 POTCAR:    PAW_PBE C 08Apr2002
   VRHFIN =C: s2p2

[...]

 POTCAR:    PAW_PBE O 08Apr2002
   VRHFIN =O: s2p4

   TITEL  = PAW_PBE O 08Apr2002
   POMASS =   16.000; ZVAL   =    6.000    mass and valenz
   ENMAX  =  400.000; ENMIN  =  300.000 eV

 POTCAR:    PAW_PBE H 15Jun2001
   VRHFIN =H: ultrasoft test

   TITEL  = PAW_PBE H 15Jun2001
   POMASS =    1.000; ZVAL   =    1.000    mass and valenz
   ENMAX  =  250.000; ENMIN  =  200.000 eV

 Optimization of the real space projectors (new method)

 maximal supplied QI-value         = 15.12
 optimisation between [QCUT,QGAM] = [ 11.34, 22.83] = [ 36.00,145.93] Ry
 Optimized for a Real-space Cutoff    1.43 Angstroem

   l    n(q)    QCUT    max X(q) W(low)/X(q) W(high)/X(q)  e(spline)
   2      9    11.338    53.897    0.16E-03    0.20E-03    0.28E-06
   2      9    11.338    52.416    0.16E-03    0.20E-03    0.29E-06
   0     10    11.338   122.045    0.31E-04    0.76E-04    0.15E-06
   0     10    11.338    73.629    0.30E-04    0.72E-04    0.15E-06
   1      9    11.338    15.255    0.20E-03    0.19E-04    0.17E-06
   1      9    11.338     9.562    0.16E-03    0.15E-04    0.14E-06
 Optimization of the real space projectors (new method)

[...]

   l    n(q)    QCUT    max X(q) W(low)/X(q) W(high)/X(q)  e(spline)
   0      7    11.387    20.381    0.39E-03    0.13E-02    0.15E-06
   0      7    11.387    15.268    0.42E-03    0.14E-02    0.17E-06
   1      6    11.387     5.964    0.41E-03    0.11E-02    0.17E-06
   1      6    11.387     5.382    0.39E-03    0.87E-03    0.15E-06
 Optimization of the real space projectors (new method)

 maximal supplied QI-value         = 34.20
 optimisation between [QCUT,QGAM] = [ 11.29, 22.57] = [ 35.68,142.71] Ry
 Optimized for a Real-space Cutoff    1.16 Angstroem

   l    n(q)    QCUT    max X(q) W(low)/X(q) W(high)/X(q)  e(spline)
   0      8    11.287    19.460    0.40E-03    0.73E-03    0.16E-06
   0      8    11.287    12.209    0.38E-03    0.70E-03    0.15E-06
   1      7    11.287     4.655    0.22E-03    0.25E-04    0.22E-06
  PAW_PBE Ag 02Apr2005                  :
  PAW_PBE Ru 04Feb2005                  :
  PAW_PBE C 08Apr2002                   :
  PAW_PBE O 08Apr2002                   :
  PAW_PBE H 15Jun2001                   :

 POSCAR: Ag-Ru-COH
  positions in direct lattice
  velocities in cartesian coordinates
 exchange correlation table for  LEXCH =        8
   RHO(1)=    0.500       N(1)  =     2000
   RHO(2)=  100.500       N(2)  =     4000

 VTST: version 3.2, (02/03/18)

 CHAIN: initializing optimizer

 OPT: Using VASP Conjugate-Gradient optimizer
 CHAIN: Read ICHAIN            0

 POSCAR: Ag-Ru-COH
  positions in direct lattice
  velocities in cartesian coordinates

 ion  position               nearest neighbor table
   1  0.000  0.000  0.199-   2 2.93   8 2.93   7 2.93   6 2.93   4 2.93  12 2.93  16 2.93  10 2.93
                             3 2.93
   2  0.333  0.000  0.199-   1 2.93   8 2.93   9 2.93   3 2.93   4 2.93   5 2.93  10 2.93  17 2.93
                            11 2.93
   3  0.667  0.000  0.199-   9 2.93   2 2.93   5 2.93  11 2.93   7 2.93  18 2.93   1 2.93   6 2.93
                            12 2.93
   4  0.000  0.333  0.199-   5 2.93   6 2.93   2 2.93   1 2.93   7 2.93  13 2.93  15 2.93   9 2.93
                            10 2.93
   5  0.333  0.333  0.199-   4 2.93   3 2.93   7 2.93   2 2.93   8 2.93  14 2.93  13 2.93  11 2.93
                             6 2.93
   6  0.667  0.333  0.199-   4 2.93   9 2.93   1 2.93  15 2.93   8 2.93  12 2.93   3 2.93   5 2.93
                            14 2.93
   7  0.000  0.667  0.199-   8 2.93   1 2.93   5 2.93   3 2.93   4 2.93  16 2.93  18 2.93  13 2.93
                             9 2.93
   8  0.333  0.667  0.199-   7 2.93   1 2.93   2 2.93   9 2.93   5 2.93  16 2.93   6 2.93  17 2.93
                            14 2.93
   9  0.667  0.667  0.199-   3 2.93   2 2.93   8 2.93   6 2.93  17 2.93   4 2.93  15 2.93   7 2.93
                            18 2.93
  10  0.111  0.111  0.289-  20 2.90  19 2.93  26 2.93  12 2.93  16 2.93  15 2.93  17 2.93  13 2.93
                            11 2.93   2 2.93   1 2.93   4 2.93
  11  0.444  0.111  0.289-  21 2.90  20 2.90  27 2.92  14 2.93  17 2.93  18 2.93   3 2.93  12 2.93
                            13 2.93  10 2.93   5 2.93   2 2.93
  12  0.778  0.111  0.289-  21 2.90  25 2.93  19 2.93  10 2.93  16 2.93  18 2.93  15 2.93  11 2.93
                             1 2.93  14 2.93   6 2.93   3 2.93
  13  0.111  0.444  0.289-  20 2.90  23 2.90  22 2.92  15 2.93  14 2.93  18 2.93  10 2.93  11 2.93
                            16 2.93   4 2.93   5 2.93   7 2.93
  14  0.444  0.444  0.289-  23 2.90  21 2.90  24 2.92  13 2.93  11 2.93  16 2.93   5 2.93  12 2.93
                            17 2.93   8 2.93  15 2.93   6 2.93
  15  0.778  0.444  0.289-  24 2.92  22 2.92  19 2.93  13 2.93  10 2.93  12 2.93  17 2.93  18 2.93
                             4 2.93   6 2.93   9 2.93  14 2.93
  16  0.111  0.778  0.289-  23 2.90  26 2.93  25 2.93  18 2.93  12 2.93  10 2.93  14 2.93  17 2.93
                            13 2.93   7 2.93   8 2.93   1 2.93
  17  0.444  0.778  0.289-  27 2.92  24 2.92  26 2.93  11 2.93  10 2.93   9 2.93  18 2.93  15 2.93
                            16 2.93   2 2.93  14 2.93   8 2.93
  18  0.778  0.778  0.289-  22 2.92  27 2.92  25 2.93  16 2.93  12 2.93  13 2.93  11 2.93  17 2.93
                            15 2.93   7 2.93   3 2.93   9 2.93
  19  0.889  0.223  0.379-  28 2.91  15 2.93  10 2.93  12 2.93  24 2.93  22 2.93  26 2.93  25 2.93
                            20 2.94  21 2.94  32 2.94  31 2.94
  20  0.223  0.223  0.377-  36 2.77  13 2.90  11 2.90  10 2.90  21 2.92  23 2.92  31 2.92  29 2.92
                            27 2.93  22 2.93  19 2.94  26 2.94
  21  0.555  0.223  0.377-  36 2.77  11 2.90  14 2.90  12 2.90  20 2.92  23 2.92  30 2.92  32 2.92
                            27 2.93  24 2.93  25 2.94  19 2.94
  22  0.888  0.556  0.378-  35 2.91  18 2.92  15 2.92  13 2.92  33 2.92  31 2.92  24 2.92  27 2.92
                            25 2.93  19 2.93  23 2.93  20 2.93
  23  0.223  0.555  0.377-  36 2.77  14 2.90  13 2.90  16 2.90  21 2.92  20 2.92  34 2.92  33 2.92
                            22 2.93  24 2.93  26 2.94  25 2.94
  24  0.556  0.556  0.378-  35 2.91  15 2.92  17 2.92  14 2.92  32 2.92  34 2.92  27 2.92  22 2.92
                            19 2.93  26 2.93  23 2.93  21 2.93
  25  0.889  0.889  0.379-  28 2.91  18 2.93  16 2.93  12 2.93  22 2.93  27 2.93  26 2.93  19 2.93
                            23 2.94  21 2.94  33 2.94  30 2.94
  26  0.223  0.889  0.379-  28 2.91  17 2.93  16 2.93  10 2.93  27 2.93  24 2.93  25 2.93  19 2.93
                            23 2.94  20 2.94  34 2.94  29 2.94
  27  0.556  0.888  0.378-  35 2.91  17 2.92  18 2.92  11 2.92  29 2.92  30 2.92  24 2.92  22 2.92
                            26 2.93  25 2.93  20 2.93  21 2.93
  28  0.000  0.000  0.467-  26 2.91  25 2.91  19 2.91  29 2.95  34 2.95  33 2.95  32 2.95  31 2.95
                            30 2.95
  29  0.333  0.006  0.468-  31 2.88  30 2.88  36 2.89  20 2.92  27 2.92  26 2.94  28 2.95  35 2.96
                            34 3.03
  30  0.661  0.006  0.468-  32 2.88  29 2.88  36 2.89  21 2.92  27 2.92  25 2.94  28 2.95  35 2.96
                            33 3.03
  31  0.006  0.333  0.468-  29 2.88  33 2.88  36 2.89  20 2.92  22 2.92  19 2.94  28 2.95  35 2.96
                            32 3.03
  32  0.661  0.333  0.468-  30 2.88  34 2.88  36 2.89  21 2.92  24 2.92  19 2.94  28 2.95  35 2.96
                            31 3.03
  33  0.006  0.661  0.468-  34 2.88  31 2.88  36 2.89  23 2.92  22 2.92  25 2.94  28 2.95  35 2.96
                            30 3.03
  34  0.333  0.661  0.468-  33 2.88  32 2.88  36 2.89  23 2.92  24 2.92  26 2.94  28 2.95  35 2.96
                            29 3.03
  35  0.667  0.667  0.467-  24 2.91  27 2.91  22 2.91  30 2.96  32 2.96  29 2.96  34 2.96  31 2.96
                            33 2.96
  36  0.333  0.333  0.460-  37 1.74  21 2.77  20 2.77  23 2.77  31 2.89  30 2.89  33 2.89  29 2.89
                            34 2.89  32 2.89
  37  0.333  0.333  0.526-  38 1.26  36 1.74
  38  0.333  0.333  0.573-  39 0.96  37 1.26
  39  0.333  0.333  0.609-  38 0.96

  LATTYP: Found a hexagonal cell.
 ALAT       =     8.7913665772
 C/A-ratio  =     3.0233954145

  Lattice vectors:

 A1 = (  -4.3956832886,  -7.6135467898,   0.0000000000)
 A2 = (   8.7913665771,   0.0000000000,   0.0000000000)
 A3 = (   0.0000000000,   0.0000000000,  26.5797773968)

Analysis of symmetry for initial positions (statically):
 Subroutine PRICEL returns:
 Original cell was already a primitive cell.

 Routine SETGRP: Setting up the symmetry group for a
 hexagonal supercell.

 Subroutine GETGRP returns: Found  6 space group operations
 (whereof  6 operations were pure point group operations)
 out of a pool of 24 trial point group operations.

The static configuration has the point symmetry C_3v.

Analysis of symmetry for dynamics (positions and initial velocities):
 Subroutine PRICEL returns:
 Original cell was already a primitive cell.

[...]

[...]
     41      -4.6641      2.00000
     42      -4.6453      2.00000
     43      -4.6108      2.00000
     44      -4.6064      2.00000
     45      -4.5993      2.00000
     46      -4.5808      2.00000
     47      -4.5654      2.00000
     48      -4.4885      2.00000
     49      -4.4606      2.00000
     50      -4.4518      2.00000
     51      -4.4443      2.00000
     52      -4.4396      2.00000
     53      -4.4369      2.00000
     54      -4.4163      2.00000
     55      -4.4157      2.00000
     56      -4.4038      2.00000
     57      -4.4006      2.00000
     58      -4.3286      2.00000
     59      -4.3178      2.00000
     60      -4.3146      2.00000
[...]
    238       5.3324      0.00000
    239       5.4095      0.00000
    240       5.5251      0.00000
    241       5.5944      0.00000
    242       5.7689      0.00000
    243       5.8110      0.00000
    244       5.8339      0.00000
    245       5.8586      0.00000
    246       5.9080      0.00000
    247       5.9382      0.00000
    248       5.9575      0.00000
    249       6.1030      0.00000
    250       6.1808      0.00000
    251       6.6304      0.00000
    252       6.8802      0.00000

 soft charge-density along one line, spin component           1
         0         1         2         3         4         5         6         7         8         9
 total charge-density along one line

------------------------ aborting loop because EDIFF is reached ----------------------------------------

 total charge

# of ion       s       p       d       tot
    1        0.417   0.202   9.179   9.798
    2        0.419   0.204   9.177   9.799
    3        0.419   0.204   9.177   9.799
    4        0.419   0.204   9.177   9.799
    5        0.420   0.204   9.175   9.800
    6        0.419   0.204   9.177   9.799
    7        0.419   0.204   9.177   9.799
    8        0.419   0.204   9.177   9.799
    9        0.413   0.205   9.178   9.796
   10        0.407   0.268   9.165   9.839
   11        0.409   0.268   9.167   9.845
   12        0.407   0.268   9.165   9.839
   13        0.409   0.268   9.167   9.845
   14        0.409   0.268   9.167   9.845
   15        0.400   0.271   9.165   9.836
   16        0.407   0.268   9.165   9.839
   17        0.400   0.271   9.165   9.836
   18        0.400   0.271   9.165   9.836
   19        0.404   0.266   9.166   9.837
   20        0.432   0.291   9.151   9.874
   21        0.432   0.291   9.151   9.874
   22        0.395   0.277   9.164   9.836
   23        0.432   0.291   9.151   9.874
   24        0.395   0.277   9.164   9.836
   25        0.404   0.266   9.166   9.837
   26        0.404   0.266   9.166   9.837
   27        0.395   0.277   9.164   9.836
   28        0.420   0.196   9.181   9.798
   29        0.410   0.217   9.176   9.802
   30        0.410   0.217   9.176   9.802
   31        0.410   0.217   9.176   9.802
   32        0.410   0.217   9.176   9.802
   33        0.410   0.217   9.176   9.802
   34        0.410   0.217   9.176   9.802
   35        0.415   0.198   9.181   9.795
   36        0.564   0.674   6.873   8.110
   37        0.924   1.454   0.000   2.378
   38        1.527   3.757   0.000   5.284
   39        0.560   0.133   0.000   0.693
tot         17.972  14.471 327.817 360.261

  FORCE on cell =-STRESS in cart. coord.  units (eV):
  Direction    XX          YY          ZZ          XY          YZ          ZX
  Alpha Z   638.07641   638.07641   638.07641
  Ewald  186808.06116186808.06121************     0.00004    -0.00000     0.00005
  Hartree197003.98552197003.98554************     0.00002     0.00000     0.00002
  E(xc)   -2115.42939 -2115.42956 -2119.14483     0.00014    -0.00001    -0.00002
  Local  ************************394778.40043     0.00064    -0.00007    -0.00020
  n-local  -348.15594  -329.18331  -335.91800    11.55044    -0.40691     0.53391
  augment  3276.55312  3276.55335  3273.63929    -0.00020    -0.00002     0.00000
  Kinetic  5083.72048  5088.31584  5030.37373     5.44484     0.94053    -0.33694
  Fock        0.00000     0.00000     0.00000     0.00000     0.00000     0.00000
  Total      -6.68621    -6.68621     0.73853    -0.00000    -0.00000    -0.00000
  in kB      -6.02138    -6.02138     0.66510    -0.00000    -0.00000    -0.00000

 VOLUME and BASIS-vectors are now :
  energy-cutoff  :      500.00
  volume of cell :     1779.08
      direct lattice vectors                 reciprocal lattice vectors
     8.791366577  0.000000000  0.000000000     0.113747958 -0.065672414  0.000000000
     4.395683289  7.613546790  0.000000000     0.000000000  0.131344829  0.000000000
     0.000000000  0.000000000 26.579777397     0.000000000  0.000000000  0.037622587

  length of vectors
     8.791366577  8.791366577 26.579777397     0.131344829  0.131344829  0.037622587

 FORCES acting on ions
    electron-ion (+dipol)            ewald-force                    non-local-force                 convergence-correction
   0.456E-04 -.285E-04 0.285E+04   -.954E-04 0.593E-04 -.285E+04   0.183E-17 -.224E-17 -.232E+01   -.106E-03 -.168E-03 -.393E+00
   0.391E+00 0.487E+00 0.285E+04   -.411E+00 -.518E+00 -.285E+04   0.426E-01 0.937E-01 -.162E+01   -.120E-01 -.433E-01 -.370E+00
   -.391E+00 0.487E+00 0.285E+04   0.411E+00 -.518E+00 -.285E+04   -.426E-01 0.937E-01 -.162E+01   0.115E-01 -.414E-01 -.369E+00
   0.617E+00 0.952E-01 0.285E+04   -.654E+00 -.973E-01 -.285E+04   0.102E+00 -.991E-02 -.162E+01   -.433E-01 0.115E-01 -.370E+00
   -.427E-05 -.180E-04 0.285E+04   0.981E-04 -.198E-05 -.285E+04   0.143E-17 0.521E-18 -.138E+01   0.624E-02 0.381E-02 -.310E+00
   -.617E+00 0.952E-01 0.285E+04   0.654E+00 -.973E-01 -.285E+04   -.102E+00 -.991E-02 -.162E+01   0.419E-01 0.124E-01 -.369E+00
   0.226E+00 -.582E+00 0.285E+04   -.243E+00 0.615E+00 -.285E+04   0.598E-01 -.837E-01 -.162E+01   -.297E-01 0.311E-01 -.369E+00
   -.226E+00 -.582E+00 0.285E+04   0.243E+00 0.615E+00 -.285E+04   -.598E-01 -.837E-01 -.162E+01   0.313E-01 0.301E-01 -.369E+00
   0.369E-04 -.125E-04 0.285E+04   0.792E-04 -.643E-04 -.285E+04   0.185E-17 -.131E-17 -.204E+01   -.666E-02 -.344E-02 -.384E+00
   0.480E+01 0.277E+01 0.993E+03   -.439E+01 -.253E+01 -.992E+03   -.405E+00 -.234E+00 -.783E+00   -.632E-02 -.362E-02 0.255E-01
   -.291E-04 0.532E+01 0.999E+03   0.413E-04 -.542E+01 -.999E+03   0.734E-12 0.112E+00 -.408E+00   0.629E-02 -.509E-01 0.279E-01
   -.480E+01 0.277E+01 0.993E+03   0.439E+01 -.253E+01 -.992E+03   0.405E+00 -.234E+00 -.783E+00   0.474E-02 -.255E-02 0.253E-01
   0.461E+01 -.266E+01 0.999E+03   -.470E+01 0.271E+01 -.999E+03   0.968E-01 -.559E-01 -.408E+00   -.410E-01 0.309E-01 0.279E-01
   -.461E+01 -.266E+01 0.999E+03   0.470E+01 0.271E+01 -.999E+03   -.968E-01 -.559E-01 -.408E+00   0.517E-01 0.301E-01 0.271E-01
   0.158E-04 0.572E+00 0.993E+03   -.108E-03 -.647E+00 -.992E+03   0.618E-13 0.941E-02 -.795E+00   -.165E-02 0.472E-01 -.162E-02
   -.731E-05 -.554E+01 0.993E+03   0.206E-04 0.507E+01 -.992E+03   0.307E-11 0.467E+00 -.783E+00   0.121E-03 0.531E-02 0.253E-01
   0.495E+00 -.286E+00 0.993E+03   -.561E+00 0.324E+00 -.992E+03   0.815E-02 -.470E-02 -.795E+00   0.400E-01 -.250E-01 -.162E-02
   -.496E+00 -.286E+00 0.993E+03   0.561E+00 0.324E+00 -.992E+03   -.815E-02 -.470E-02 -.795E+00   -.400E-01 -.231E-01 -.990E-03
   0.400E-04 0.104E+01 -.890E+03   -.128E-03 -.876E+00 0.889E+03   -.358E-12 -.544E-01 0.667E+00   -.411E-03 -.822E-01 0.947E-01
   0.127E+02 0.734E+01 -.856E+03   -.116E+02 -.671E+01 0.857E+03   -.119E+01 -.689E+00 -.114E+01   -.409E-01 -.236E-01 0.585E-01
   -.127E+02 0.734E+01 -.856E+03   0.116E+02 -.671E+01 0.857E+03   0.119E+01 -.689E+00 -.114E+01   0.409E-01 -.232E-01 0.582E-01
   0.481E+01 -.278E+01 -.881E+03   -.497E+01 0.287E+01 0.880E+03   0.232E+00 -.134E+00 0.557E+00   -.316E-01 0.186E-01 0.457E-01
   -.561E-04 -.147E+02 -.856E+03   0.432E-04 0.134E+02 0.857E+03   0.905E-11 0.138E+01 -.114E+01   0.653E-03 0.476E-01 0.582E-01
   -.481E+01 -.278E+01 -.881E+03   0.497E+01 0.287E+01 0.880E+03   -.232E+00 -.134E+00 0.557E+00   0.317E-01 0.184E-01 0.458E-01
   -.900E+00 -.520E+00 -.890E+03   0.758E+00 0.438E+00 0.889E+03   0.472E-01 0.272E-01 0.667E+00   0.717E-01 0.412E-01 0.944E-01
   0.900E+00 -.520E+00 -.890E+03   -.759E+00 0.438E+00 0.889E+03   -.472E-01 0.272E-01 0.667E+00   -.717E-01 0.406E-01 0.947E-01
   0.200E-04 0.555E+01 -.881E+03   0.110E-03 -.574E+01 0.880E+03   0.176E-11 0.268E+00 0.557E+00   -.395E-03 -.367E-01 0.457E-01
   0.538E-04 -.372E-04 -.274E+04   -.116E-03 0.784E-04 0.274E+04   0.318E-17 0.714E-17 0.187E+01   0.413E-04 -.113E-03 0.322E+00
   0.263E+02 0.458E+02 -.272E+04   -.258E+02 -.452E+02 0.272E+04   -.511E+00 -.691E+00 0.206E+01   -.482E-01 -.366E-01 0.321E+00
   -.263E+02 0.458E+02 -.272E+04   0.258E+02 -.452E+02 0.272E+04   0.511E+00 -.691E+00 0.206E+01   0.476E-01 -.350E-01 0.321E+00
   0.528E+02 -.162E+00 -.272E+04   -.520E+02 0.294E+00 0.272E+04   -.854E+00 -.974E-01 0.206E+01   -.556E-01 -.233E-01 0.321E+00
   -.528E+02 -.162E+00 -.272E+04   0.520E+02 0.294E+00 0.272E+04   0.854E+00 -.974E-01 0.206E+01   0.546E-01 -.224E-01 0.321E+00
   0.265E+02 -.456E+02 -.272E+04   -.263E+02 0.449E+02 0.272E+04   -.343E+00 0.788E+00 0.206E+01   -.606E-02 0.593E-01 0.321E+00
   -.265E+02 -.456E+02 -.272E+04   0.263E+02 0.449E+02 0.272E+04   0.343E+00 0.788E+00 0.206E+01   0.752E-02 0.586E-01 0.321E+00
   0.221E-04 -.109E-04 -.274E+04   0.106E-03 -.664E-04 0.274E+04   0.742E-18 0.175E-18 0.200E+01   -.658E-02 -.337E-02 0.388E+00
   -.132E-05 -.113E-04 -.173E+04   0.767E-04 0.950E-05 0.173E+04   0.240E-17 0.282E-17 -.788E+01   0.211E-02 0.128E-02 0.171E+00
   0.755E-06 -.750E-04 -.107E+04   0.189E-04 0.274E-06 0.105E+04   -.732E-18 -.252E-18 0.187E+02   0.119E-02 0.731E-03 0.105E+00
   0.240E-03 -.909E-04 -.175E+04   0.927E-05 0.155E-07 0.176E+04   0.111E-18 0.973E-19 -.491E+01   0.384E-02 0.236E-02 0.557E-01
   0.661E-05 -.141E-04 -.334E+03   0.630E-06 -.270E-08 0.342E+03   0.514E-21 0.146E-20 -.851E+01   0.202E-03 0.124E-03 0.434E-02
   0.647E-03 -.854E-03 0.713E+01   -.205E-13 0.126E-12 -.421E-11   0.114E-15 -.108E-15 -.747E+01   0.135E-01 0.112E-01 0.419E+00

 POSITION                                       TOTAL-FORCE (eV/Angst)
      0.00000      0.00000      5.28219        -0.000000     -0.000000      0.019293
      2.93046      0.00000      5.28219         0.010933      0.020172      0.053357
      5.86091      0.00000      5.28219        -0.010933      0.020172      0.053357
      1.46523      2.53785      5.28219         0.022936     -0.000617      0.053357
      4.39568      2.53785      5.28219        -0.000000     -0.000000      0.032221
      7.32614      2.53785      5.28219        -0.022936     -0.000617      0.053357
      2.93046      5.07570      5.28219         0.012003     -0.019554      0.053357
      5.86091      5.07570      5.28219        -0.012003     -0.019554      0.053357
      8.79137      5.07570      5.28219        -0.000000     -0.000000      0.047379
      1.46523      0.84595      7.67490         0.000468      0.000270     -0.018058
      4.39568      0.84595      7.67490        -0.000000     -0.046047     -0.085732
      7.32614      0.84595      7.67490        -0.000468      0.000270     -0.018058
      2.93046      3.38380      7.67490        -0.039878      0.023024     -0.085732
      5.86091      3.38380      7.67490         0.039878      0.023024     -0.085732
      8.79137      3.38380      7.67490        -0.000000     -0.019004      0.003554
      4.39568      5.92165      7.67490        -0.000000     -0.000540     -0.018058
      7.32614      5.92165      7.67490        -0.016458      0.009502      0.003554
     10.25659      5.92165      7.67490         0.016458      0.009502      0.003554
      8.79137      1.69450     10.06282         0.000000      0.026734      0.023588
      2.93652      1.69540     10.03056        -0.130083     -0.075103     -0.251310
      5.85484      1.69540     10.03056         0.130083     -0.075103     -0.251310
     10.25378      4.23137     10.05553         0.036557     -0.021106     -0.003844
      4.39568      4.22274     10.03056         0.000000      0.150206     -0.251310
      7.32895      4.23137     10.05553        -0.036557     -0.021106     -0.003844
     11.71957      6.76630     10.06282        -0.023152     -0.013367      0.023588
      5.86316      6.76630     10.06282         0.023152     -0.013367      0.023588
      8.79137      6.76435     10.05553         0.000000      0.042212     -0.003844
      0.00000      0.00000     12.42400        -0.000000     -0.000000      0.000355
      2.95387      0.04433     12.43748        -0.060433     -0.127226     -0.066911
      5.83749      0.04433     12.43748         0.060433     -0.127226     -0.066911
      1.51533      2.53597     12.43748        -0.140398      0.011277     -0.066911
      7.27604      2.53597     12.43748         0.140398      0.011277     -0.066911
      2.95713      5.03325     12.43748        -0.079965      0.115950     -0.066911
      5.83423      5.03325     12.43748         0.079965      0.115950     -0.066911
      8.79137      5.07570     12.42069        -0.000000     -0.000000     -0.007645
      4.39568      2.53785     12.23056        -0.000000     -0.000000      0.998766
      4.39568      2.53785     13.97150        -0.000000     -0.000000     -0.005303
      4.39568      2.53785     15.23611        -0.000000     -0.000000      0.001039
      4.39568      2.53785     16.19729        -0.000000     -0.000000     -0.009377
    total drift:                                0.014163      0.010351      0.082009

  FREE ENERGIE OF THE ION-ELECTRON SYSTEM (eV)
  free  energy   TOTEN  =      -114.70285911 eV

  energy  without entropy=     -114.70285911  energy(sigma->0) =     -114.70285911

 stress matrix after NEB project (eV)
     -6.68621     -0.00000     -0.00000
     -0.00000     -6.68621     -0.00000
     -0.00000     -0.00000      0.73853
  FORCES: max atom, RMS     0.009377    0.001733
  FORCE total and by dimension    0.010823    0.009377
  Stress total and by dimension    9.484524    6.686209
|           W    W    AA    RRRRR   N    N  II  N    N   GGGG   !!!           |
|           W    W   A  A   R    R  NN   N  II  NN   N  G    G  !!!           |
|           W    W  A    A  R    R  N N  N  II  N N  N  G       !!!           |
|           W WW W  AAAAAA  RRRRR   N  N N  II  N  N N  G  GGG   !            |
|           WW  WW  A    A  R   R   N   NN  II  N   NN  G    G                |
|           W    W  A    A  R    R  N    N  II  N    N   GGGG   !!!           |
|     Tetrahedron method does not include variations of the Fermi             |
|     occupations, so forces and stress will be inaccurate. We suggest        |
|     using a different smearing scheme ISMEAR = 1 or 2 for metals in         |
|     relaxations.                                                            |

 total charge

# of ion       s       p       d       tot
    1        0.417   0.202   9.179   9.798
    2        0.419   0.204   9.177   9.799
    3        0.419   0.204   9.177   9.799
    4        0.419   0.204   9.177   9.799
    5        0.420   0.204   9.175   9.800
    6        0.419   0.204   9.177   9.799
    7        0.419   0.204   9.177   9.799
    8        0.419   0.204   9.177   9.799
    9        0.413   0.205   9.178   9.796
   10        0.407   0.268   9.165   9.839
   11        0.409   0.268   9.167   9.845
   12        0.407   0.268   9.165   9.839
   13        0.409   0.268   9.167   9.845
   14        0.409   0.268   9.167   9.845
   15        0.400   0.271   9.165   9.836
   16        0.407   0.268   9.165   9.839
   17        0.400   0.271   9.165   9.836
   18        0.400   0.271   9.165   9.836
   19        0.404   0.266   9.166   9.837
   20        0.432   0.291   9.151   9.874
   21        0.432   0.291   9.151   9.874
   22        0.395   0.277   9.164   9.836
   23        0.432   0.291   9.151   9.874
   24        0.395   0.277   9.164   9.836
   25        0.404   0.266   9.166   9.837
   26        0.404   0.266   9.166   9.837
   27        0.395   0.277   9.164   9.836
   28        0.420   0.196   9.181   9.798
   29        0.410   0.217   9.176   9.802
   30        0.410   0.217   9.176   9.802
   31        0.410   0.217   9.176   9.802
   32        0.410   0.217   9.176   9.802
   33        0.410   0.217   9.176   9.802
   34        0.410   0.217   9.176   9.802
   35        0.415   0.198   9.181   9.795
   36        0.564   0.674   6.873   8.110
   37        0.924   1.454   0.000   2.378
   38        1.527   3.757   0.000   5.284
   39        0.560   0.133   0.000   0.693
tot         17.972  14.471 327.817 360.261

 BZINTS: Fermi energy:    0.534034;  404.000000 electrons
         Band energy:-0.149922E+04;  BLOECHL correction:   -0.051619