 vasp.6.2.0 18Jan21 (build Jun 12 2021 23:27:24) complex

 executed on             LinuxIFC date 2022.05.28  01:56:32

 INCAR:
   ISMEAR = -5
   SIGMA = 0.1
   ISPIN = 1
   EDIFF = 1.d-5
   EDIFFG = -0.01
   NSW = 0
   NELM = 150
   ENCUT = 500
   ISIF = 2
   IBRION = 2
   LREAL = Auto
   ALGO = Fast
   ICHARG = 11
   LORBIT = 10
   LCHARG = .F.
   LWAVE = .F.

 POTCAR:    PAW_PBE Ag 02Apr2005
 POTCAR:    PAW_PBE Hf 20Jan2003
 POTCAR:    PAW_PBE H 15Jun2001
 POTCAR:    PAW_PBE O 08Apr2002
|           W    W    AA    RRRRR   N    N  II  N    N   GGGG   !!!           |
|           W    W   A  A   R    R  NN   N  II  NN   N  G    G  !!!           |
|           W    W  A    A  R    R  N N  N  II  N N  N  G       !!!           |
|           W WW W  AAAAAA  RRRRR   N  N N  II  N  N N  G  GGG   !            |
|           WW  WW  A    A  R   R   N   NN  II  N   NN  G    G                |
|           W    W  A    A  R    R  N    N  II  N    N   GGGG   !!!           |
|     For optimal performance we recommend to set                             |
|       NCORE = 2 up to number-of-cores-per-socket                            |
|     This setting can greatly improve the performance of VASP for DFT.       |
|     The default, NCORE=1 might be grossly inefficient on modern             |
|     multi-core architectures or massively parallel machines. Do your        |
|     Unfortunately you need to use the default for GW and RPA                |
|     calculations (for HF NCORE is supported but not extensively tested      |
|     yet).                                                                   |

 POTCAR:    PAW_PBE Ag 02Apr2005
   VRHFIN =Ag : s1 d10

   TITEL  = PAW_PBE Ag 02Apr2005
   POMASS =  107.868; ZVAL   =   11.000    mass and valenz
   ENMAX  =  249.844; ENMIN  =  187.383 eV

 POTCAR:    PAW_PBE Hf 20Jan2003
   VRHFIN =Hf: 6s5d

   TITEL  = PAW_PBE Hf 20Jan2003
   POMASS =  178.490; ZVAL   =    4.000    mass and valenz
   ENMAX  =  220.334; ENMIN  =  165.250 eV

 POTCAR:    PAW_PBE H 15Jun2001
   VRHFIN =H: ultrasoft test

   TITEL  = PAW_PBE H 15Jun2001
   POMASS =    1.000; ZVAL   =    1.000    mass and valenz
   ENMAX  =  250.000; ENMIN  =  200.000 eV

 POTCAR:    PAW_PBE O 08Apr2002
   VRHFIN =O: s2p4

   TITEL  = PAW_PBE O 08Apr2002
   POMASS =   16.000; ZVAL   =    6.000    mass and valenz
   ENMAX  =  400.000; ENMIN  =  300.000 eV

 Optimization of the real space projectors (new method)

 maximal supplied QI-value         = 15.12
 optimisation between [QCUT,QGAM] = [ 11.34, 22.83] = [ 36.00,145.93] Ry
 Optimized for a Real-space Cutoff    1.43 Angstroem

   l    n(q)    QCUT    max X(q) W(low)/X(q) W(high)/X(q)  e(spline)
   2      9    11.338    53.897    0.16E-03    0.20E-03    0.28E-06
   2      9    11.338    52.416    0.16E-03    0.20E-03    0.29E-06
   0     10    11.338   122.045    0.31E-04    0.76E-04    0.15E-06
   0     10    11.338    73.629    0.30E-04    0.72E-04    0.15E-06
   1      9    11.338    15.255    0.20E-03    0.19E-04    0.17E-06
   1      9    11.338     9.562    0.16E-03    0.15E-04    0.14E-06
 Optimization of the real space projectors (new method)

[...]

   l    n(q)    QCUT    max X(q) W(low)/X(q) W(high)/X(q)  e(spline)
   0      8    11.287    19.460    0.40E-03    0.73E-03    0.16E-06
   0      8    11.287    12.209    0.38E-03    0.70E-03    0.15E-06
   1      7    11.287     4.655    0.22E-03    0.25E-04    0.22E-06
 Optimization of the real space projectors (new method)

 maximal supplied QI-value         = 24.76
 optimisation between [QCUT,QGAM] = [ 11.39, 22.77] = [ 36.31,145.25] Ry
 Optimized for a Real-space Cutoff    1.00 Angstroem

   l    n(q)    QCUT    max X(q) W(low)/X(q) W(high)/X(q)  e(spline)
   0      7    11.387    20.381    0.39E-03    0.13E-02    0.15E-06
   0      7    11.387    15.268    0.42E-03    0.14E-02    0.17E-06
   1      6    11.387     5.964    0.41E-03    0.11E-02    0.17E-06
   1      6    11.387     5.382    0.39E-03    0.87E-03    0.15E-06
  PAW_PBE Ag 02Apr2005                  :
  PAW_PBE Hf 20Jan2003                  :
  PAW_PBE H 15Jun2001                   :
  PAW_PBE O 08Apr2002                   :

 POSCAR: Ag-Hf-H2O
  positions in direct lattice
  velocities in cartesian coordinates
 exchange correlation table for  LEXCH =        8
   RHO(1)=    0.500       N(1)  =     2000
   RHO(2)=  100.500       N(2)  =     4000

 VTST: version 3.2, (02/03/18)

 CHAIN: initializing optimizer

 OPT: Using VASP Conjugate-Gradient optimizer
 CHAIN: Read ICHAIN            0

 POSCAR: Ag-Hf-H2O
  positions in direct lattice
  velocities in cartesian coordinates

 ion  position               nearest neighbor table
   1  0.000  0.000  0.212-   2 2.93   8 2.93   7 2.93   6 2.93   4 2.93  12 2.93  16 2.93  10 2.93
                             3 2.93
   2  0.333  0.000  0.212-   1 2.93   8 2.93   9 2.93   3 2.93   4 2.93   5 2.93  10 2.93  17 2.93
                            11 2.93
   3  0.667  0.000  0.212-   9 2.93   2 2.93   5 2.93  11 2.93   7 2.93  18 2.93   1 2.93   6 2.93
                            12 2.93
   4  0.000  0.333  0.212-   5 2.93   6 2.93   2 2.93   1 2.93   7 2.93  13 2.93  15 2.93   9 2.93
                            10 2.93
   5  0.333  0.333  0.212-   4 2.93   3 2.93   7 2.93   2 2.93   8 2.93  14 2.93  13 2.93  11 2.93
                             6 2.93
   6  0.667  0.333  0.212-   4 2.93   9 2.93   1 2.93  15 2.93   8 2.93  12 2.93   3 2.93   5 2.93
                            14 2.93
   7  0.000  0.667  0.212-   8 2.93   1 2.93   5 2.93   3 2.93   4 2.93  16 2.93  18 2.93  13 2.93
                             9 2.93
   8  0.333  0.667  0.212-   7 2.93   1 2.93   2 2.93   9 2.93   5 2.93  16 2.93   6 2.93  17 2.93
                            14 2.93
   9  0.667  0.667  0.212-   3 2.93   2 2.93   8 2.93   6 2.93  17 2.93   4 2.93  15 2.93   7 2.93
                            18 2.93
  10  0.111  0.111  0.308-  20 2.90  19 2.92  26 2.92  12 2.93  16 2.93  15 2.93  17 2.93  13 2.93
                            11 2.93   2 2.93   1 2.93   4 2.93
  11  0.444  0.111  0.308-  21 2.90  20 2.90  14 2.93  17 2.93  18 2.93   3 2.93  12 2.93  13 2.93
                            10 2.93   5 2.93   2 2.93  27 2.93
  12  0.778  0.111  0.308-  21 2.90  25 2.92  19 2.92  10 2.93  16 2.93  18 2.93  15 2.93  11 2.93
                             1 2.93  14 2.93   6 2.93   3 2.93
  13  0.111  0.444  0.308-  20 2.90  23 2.90  15 2.93  14 2.93  18 2.93  10 2.93  11 2.93  16 2.93
                             4 2.93   5 2.93   7 2.93  22 2.93
  14  0.444  0.444  0.308-  23 2.90  21 2.90  13 2.93  11 2.93  16 2.93   5 2.93  12 2.93  17 2.93
                             8 2.93  15 2.93   6 2.93  24 2.93
  15  0.778  0.444  0.308-  19 2.92  24 2.93  22 2.93  13 2.93  10 2.93  12 2.93  17 2.93  18 2.93
                             4 2.93   6 2.93   9 2.93  14 2.93
  16  0.111  0.778  0.308-  23 2.90  26 2.92  25 2.92  18 2.93  12 2.93  10 2.93  14 2.93  17 2.93
                            13 2.93   7 2.93   8 2.93   1 2.93
  17  0.444  0.778  0.308-  26 2.92  27 2.93  24 2.93  11 2.93  10 2.93   9 2.93  18 2.93  15 2.93
                            16 2.93   2 2.93  14 2.93   8 2.93
  18  0.778  0.778  0.308-  25 2.92  22 2.93  27 2.93  16 2.93  12 2.93  13 2.93  11 2.93  17 2.93
                            15 2.93   7 2.93   3 2.93   9 2.93
  19  0.889  0.222  0.403-  10 2.92  12 2.92  15 2.92  20 2.93  21 2.93  26 2.93  25 2.93  24 2.93
                            22 2.93  28 2.94  32 2.98  31 2.98
  20  0.222  0.222  0.402-  36 2.86  10 2.90  13 2.90  11 2.90  19 2.93  26 2.93  27 2.93  22 2.93
                            21 2.94  23 2.94  31 2.97  29 2.97
  21  0.556  0.222  0.402-  36 2.86  12 2.90  11 2.90  14 2.90  25 2.93  19 2.93  27 2.93  24 2.93
                            20 2.94  23 2.94  30 2.97  32 2.97
  22  0.889  0.556  0.403-  24 2.93  27 2.93  18 2.93  15 2.93  25 2.93  19 2.93  13 2.93  23 2.93
                            20 2.93  35 2.94  33 2.96  31 2.96
  23  0.222  0.556  0.402-  36 2.86  16 2.90  14 2.90  13 2.90  26 2.93  25 2.93  22 2.93  24 2.93
                            21 2.94  20 2.94  34 2.97  33 2.97
  24  0.556  0.556  0.403-  27 2.93  22 2.93  15 2.93  17 2.93  19 2.93  26 2.93  14 2.93  23 2.93
                            21 2.93  35 2.94  32 2.96  34 2.96
  25  0.889  0.889  0.403-  16 2.92  12 2.92  18 2.92  23 2.93  21 2.93  26 2.93  19 2.93  22 2.93
                            27 2.93  28 2.94  33 2.98  30 2.98
  26  0.222  0.889  0.403-  16 2.92  10 2.92  17 2.92  23 2.93  20 2.93  25 2.93  19 2.93  27 2.93
                            24 2.93  28 2.94  34 2.98  29 2.98
  27  0.556  0.889  0.403-  24 2.93  22 2.93  17 2.93  18 2.93  26 2.93  25 2.93  11 2.93  20 2.93
                            21 2.93  35 2.94  29 2.96  30 2.96
  28  0.000  0.000  0.499-  26 2.94  25 2.94  19 2.94  29 2.94  34 2.94  33 2.94  32 2.94  31 2.94
                            30 2.94
  29  0.333  0.003  0.501-  30 2.90  31 2.91  36 2.91  35 2.94  28 2.94  27 2.96  20 2.97  26 2.98
                            34 2.98
  30  0.664  0.003  0.501-  29 2.90  32 2.91  36 2.91  35 2.94  28 2.94  27 2.96  21 2.97  25 2.98
                            33 2.98
  31  0.003  0.333  0.501-  33 2.90  29 2.91  36 2.91  35 2.94  28 2.94  22 2.96  20 2.97  19 2.98
                            32 2.98
  32  0.664  0.333  0.501-  34 2.90  30 2.91  36 2.91  35 2.94  28 2.94  24 2.96  21 2.97  19 2.98
                            31 2.98
  33  0.003  0.664  0.501-  31 2.90  34 2.91  36 2.91  35 2.94  28 2.94  22 2.96  23 2.97  25 2.98
                            30 2.98
  34  0.333  0.664  0.501-  32 2.90  33 2.91  36 2.91  35 2.94  28 2.94  24 2.96  23 2.97  26 2.98
                            29 2.98
  35  0.667  0.667  0.500-  30 2.94  29 2.94  32 2.94  34 2.94  31 2.94  33 2.94  24 2.94  27 2.94
                            22 2.94
  36  0.333  0.333  0.494-  39 2.26  21 2.86  20 2.86  23 2.86  31 2.91  33 2.91  30 2.91  29 2.91
                            34 2.91  32 2.91
  37  0.276  0.265  0.596-  39 0.98
  38  0.459  0.261  0.596-  39 0.98
  39  0.336  0.329  0.585-  38 0.98  37 0.98  36 2.26

  LATTYP: Found a hexagonal cell.
 ALAT       =     8.7913665772
 C/A-ratio  =     2.8382349142

  Lattice vectors:

 A1 = (  -4.3956832886,  -7.6135467898,   0.0000000000)
 A2 = (   8.7913665771,   0.0000000000,   0.0000000000)
 A3 = (   0.0000000000,   0.0000000000,  24.9519635625)

Analysis of symmetry for initial positions (statically):
 Subroutine PRICEL returns:
 Original cell was already a primitive cell.

 Routine SETGRP: Setting up the symmetry group for a
 hexagonal supercell.

 Subroutine GETGRP returns: Found  1 space group operations
 (whereof  1 operations were pure point group operations)
 out of a pool of 24 trial point group operations.

The static configuration has the point symmetry C_1 .

Analysis of symmetry for dynamics (positions and initial velocities):
 Subroutine PRICEL returns:
 Original cell was already a primitive cell.

[...]

The dynamic configuration has the point symmetry C_1 .

Analysis of constrained symmetry for selective dynamics:
 Subroutine PRICEL returns:
[...]
     41      -4.6291      2.00000
     42      -4.6049      2.00000
     43      -4.5977      2.00000
     44      -4.5891      2.00000
     45      -4.5759      2.00000
     46      -4.5639      2.00000
     47      -4.4764      2.00000
     48      -4.4584      2.00000
     49      -4.4564      2.00000
     50      -4.4329      2.00000
     51      -4.4282      2.00000
     52      -4.4219      2.00000
     53      -4.4107      2.00000
     54      -4.4030      2.00000
     55      -4.3918      2.00000
     56      -4.3871      2.00000
     57      -4.3365      2.00000
     58      -4.3255      2.00000
     59      -4.3125      2.00000
     60      -4.2955      2.00000
[...]
    238       5.7387      0.00000
    239       5.8887      0.00000
    240       5.9129      0.00000
    241       6.0840      0.00000
    242       6.1816      0.00000
    243       6.2657      0.00000
    244       6.3517      0.00000
    245       6.3888      0.00000
    246       6.5182      0.00000
    247       6.6006      0.00000
    248       6.7592      0.00000
    249       6.9386      0.00000
    250       6.9913      0.00000
    251       7.0606      0.00000
    252       7.1665      0.00000

 soft charge-density along one line, spin component           1
         0         1         2         3         4         5         6         7         8         9
 total charge-density along one line

------------------------ aborting loop because EDIFF is reached ----------------------------------------

 total charge

# of ion       s       p       d       tot
    1        0.424   0.200   9.178   9.802
    2        0.416   0.204   9.177   9.797
    3        0.416   0.204   9.177   9.797
    4        0.416   0.204   9.178   9.797
    5        0.417   0.203   9.177   9.796
    6        0.416   0.204   9.178   9.797
    7        0.416   0.204   9.178   9.797
    8        0.415   0.204   9.178   9.797
    9        0.418   0.203   9.176   9.797
   10        0.412   0.269   9.163   9.844
   11        0.406   0.268   9.168   9.842
   12        0.412   0.269   9.163   9.844
   13        0.404   0.269   9.168   9.841
   14        0.404   0.269   9.168   9.841
   15        0.404   0.268   9.165   9.837
   16        0.411   0.270   9.163   9.843
   17        0.403   0.268   9.165   9.836
   18        0.403   0.268   9.165   9.836
   19        0.405   0.266   9.164   9.834
   20        0.446   0.301   9.128   9.875
   21        0.446   0.301   9.128   9.875
   22        0.396   0.272   9.164   9.831
   23        0.443   0.303   9.128   9.874
   24        0.395   0.272   9.164   9.831
   25        0.404   0.266   9.165   9.834
   26        0.404   0.266   9.165   9.834
   27        0.396   0.272   9.163   9.831
   28        0.409   0.209   9.168   9.786
   29        0.456   0.231   9.137   9.825
   30        0.457   0.232   9.137   9.825
   31        0.457   0.231   9.137   9.826
   32        0.457   0.231   9.137   9.825
   33        0.454   0.225   9.142   9.821
   34        0.454   0.225   9.143   9.821
   35        0.405   0.210   9.170   9.785
   36        0.573   0.470   1.759   2.802
   37        0.592   0.116   0.000   0.708
   38        0.592   0.116   0.000   0.708
   39        1.566   3.632   0.000   5.197
tot         18.018  12.894 322.381 353.293

  FORCE on cell =-STRESS in cart. coord.  units (eV):
  Direction    XX          YY          ZZ          XY          YZ          ZX
  Alpha Z   669.60973   669.60973   669.60973
  Ewald  157730.44815157656.39227************    -1.57150   -13.08349    -0.45179
  Hartree167657.42145167644.25521************    -0.28754     7.75035     0.06569
  E(xc)   -2080.55844 -2080.78086 -2086.31017    -0.00490    -0.03675    -0.00089
  Local  ************************336332.03132     1.42269    -2.98091     0.18948
  n-local  -333.60619  -334.22964  -336.04958    -0.00265    -0.22571     0.00095
  augment  3225.03089  3226.40195  3239.77058     0.02827     0.49323     0.01085
  Kinetic  4931.71062  4951.96236  4982.60739     0.41934     7.93136     0.18575
  Fock        0.00000     0.00000     0.00000     0.00000     0.00000     0.00000
  Total      -7.91402    -7.99039    -0.14705     0.00371    -0.15192     0.00004
  in kB      -7.59206    -7.66532    -0.14107     0.00356    -0.14574     0.00004

 VOLUME and BASIS-vectors are now :
  energy-cutoff  :      500.00
  volume of cell :     1670.12
      direct lattice vectors                 reciprocal lattice vectors
     8.791366577  0.000000000  0.000000000     0.113747958 -0.065672414  0.000000000
     4.395683289  7.613546790  0.000000000     0.000000000  0.131344829  0.000000000
     0.000000000  0.000000000 24.951963562     0.000000000  0.000000000  0.040077006

  length of vectors
     8.791366577  8.791366577 24.951963562     0.131344829  0.131344829  0.040077006

 FORCES acting on ions
    electron-ion (+dipol)            ewald-force                    non-local-force                 convergence-correction
   0.148E-03 0.810E-02 0.270E+04   -.143E-03 -.976E-02 -.270E+04   0.424E-03 -.683E-02 -.178E+01   -.478E-03 0.131E-01 -.727E-01
   -.426E+00 -.254E+00 0.270E+04   0.309E+00 0.945E-01 -.270E+04   -.632E-02 0.125E+00 -.161E+01   0.127E+00 0.321E-01 0.723E-01
   0.426E+00 -.268E+00 0.270E+04   -.308E+00 0.947E-01 -.270E+04   0.649E-02 0.127E+00 -.161E+01   -.128E+00 0.437E-01 0.743E-01
   -.467E+00 -.279E+00 0.270E+04   0.245E+00 0.232E+00 -.270E+04   0.127E+00 -.514E-01 -.163E+01   0.892E-01 0.981E-01 0.301E-01
   -.152E-01 0.104E-01 0.270E+04   0.342E-03 0.169E-01 -.269E+04   -.151E-02 -.886E-02 -.141E+01   0.163E-01 -.213E-01 0.888E-01
   0.478E+00 -.282E+00 0.270E+04   -.245E+00 0.232E+00 -.270E+04   -.128E+00 -.525E-01 -.163E+01   -.984E-01 0.102E+00 0.335E-01
   0.360E-01 0.512E+00 0.270E+04   -.638E-01 -.326E+00 -.270E+04   0.884E-01 -.624E-01 -.169E+01   -.642E-01 -.121E+00 0.511E-01
   -.451E-01 0.515E+00 0.270E+04   0.639E-01 -.327E+00 -.270E+04   -.886E-01 -.613E-01 -.169E+01   0.731E-01 -.126E+00 0.518E-01
   0.145E-01 0.499E-01 0.270E+04   -.114E-03 -.691E-02 -.270E+04   0.216E-02 -.179E-01 -.163E+01   -.166E-01 -.241E-01 0.112E+00
   -.102E+01 -.572E+00 0.898E+03   0.113E+01 0.662E+00 -.897E+03   -.290E+00 -.181E+00 -.679E+00   0.156E+00 0.776E-01 0.108E+00
   -.122E-01 -.139E+01 0.891E+03   0.963E-03 0.128E+01 -.891E+03   -.146E-02 0.501E-01 -.280E+00   0.129E-01 0.674E-03 0.532E-01
   0.103E+01 -.579E+00 0.898E+03   -.113E+01 0.663E+00 -.897E+03   0.289E+00 -.180E+00 -.679E+00   -.161E+00 0.823E-01 0.103E+00
   -.125E+01 0.654E+00 0.891E+03   0.110E+01 -.535E+00 -.891E+03   0.565E-01 -.457E-01 -.276E+00   0.398E-01 -.414E-01 0.589E-01
   0.123E+01 0.656E+00 0.891E+03   -.110E+01 -.535E+00 -.891E+03   -.606E-01 -.450E-01 -.278E+00   -.196E-01 -.435E-01 0.498E-01
   0.894E-02 -.132E+01 0.896E+03   -.194E-02 0.108E+01 -.895E+03   -.264E-03 0.740E-01 -.686E+00   -.677E-02 0.158E+00 0.399E-01
   -.442E-02 0.123E+01 0.898E+03   0.901E-03 -.142E+01 -.897E+03   0.153E-02 0.354E+00 -.723E+00   0.188E-02 -.144E+00 0.112E+00
   -.106E+01 0.664E+00 0.896E+03   0.849E+00 -.598E+00 -.895E+03   0.366E-01 -.190E-01 -.694E+00   0.160E+00 -.435E-01 0.397E-01
   0.106E+01 0.655E+00 0.896E+03   -.850E+00 -.597E+00 -.895E+03   -.380E-01 -.189E-01 -.694E+00   -.162E+00 -.365E-01 0.434E-01
   0.582E-02 -.674E+01 -.909E+03   -.994E-02 0.668E+01 0.908E+03   -.716E-03 0.277E-01 0.652E+00   0.477E-02 0.232E-01 0.358E+00
   -.376E+02 -.222E+02 -.940E+03   0.385E+02 0.228E+02 0.941E+03   -.966E+00 -.605E+00 -.763E+00   0.236E-02 -.583E-01 0.138E+00
   0.376E+02 -.222E+02 -.940E+03   -.385E+02 0.228E+02 0.941E+03   0.973E+00 -.603E+00 -.764E+00   -.213E-01 -.577E-01 0.132E+00
   -.168E+02 0.940E+01 -.916E+03   0.167E+02 -.943E+01 0.916E+03   0.121E+00 -.369E-01 0.455E+00   -.479E-01 0.454E-01 0.158E+00
   -.772E-02 0.431E+02 -.942E+03   0.126E-01 -.443E+02 0.942E+03   0.364E-02 0.116E+01 -.610E+00   -.891E-02 0.307E-01 0.129E+00
   0.168E+02 0.941E+01 -.916E+03   -.168E+02 -.943E+01 0.916E+03   -.122E+00 -.378E-01 0.460E+00   0.512E-01 0.489E-01 0.158E+00
   0.536E+01 0.392E+01 -.909E+03   -.531E+01 -.385E+01 0.908E+03   0.244E-02 -.487E-01 0.757E+00   -.397E-01 -.141E-01 0.355E+00
   -.537E+01 0.393E+01 -.909E+03   0.531E+01 -.386E+01 0.908E+03   -.132E-02 -.483E-01 0.761E+00   0.423E-01 -.977E-02 0.357E+00
   0.601E-02 -.186E+02 -.915E+03   -.215E-02 0.185E+02 0.915E+03   -.108E-02 0.137E+00 0.426E+00   -.262E-02 -.192E-01 0.155E+00
   0.462E-02 0.215E+01 -.263E+04   -.838E-02 -.218E+01 0.263E+04   -.553E-03 0.542E-01 0.137E+01   0.422E-02 -.164E-01 0.324E-01
   -.140E+02 -.298E+02 -.262E+04   0.150E+02 0.312E+02 0.262E+04   -.961E+00 -.138E+01 0.481E+00   -.482E-01 -.953E-01 0.111E+00
   0.140E+02 -.299E+02 -.262E+04   -.150E+02 0.313E+02 0.262E+04   0.965E+00 -.139E+01 0.461E+00   0.433E-01 -.916E-01 0.110E+00
   -.363E+02 -.481E+00 -.262E+04   0.381E+02 0.704E+00 0.262E+04   -.179E+01 -.182E+00 0.364E+00   -.100E+00 -.411E-01 0.854E-01
   0.365E+02 -.530E+00 -.262E+04   -.383E+02 0.743E+00 0.262E+04   0.178E+01 -.181E+00 0.380E+00   0.101E+00 -.343E-01 0.896E-01
   -.238E+02 0.333E+02 -.263E+04   0.244E+02 -.348E+02 0.263E+04   -.617E+00 0.149E+01 0.882E+00   -.408E-01 0.136E+00 0.111E+00
   0.238E+02 0.334E+02 -.263E+04   -.243E+02 -.349E+02 0.263E+04   0.615E+00 0.148E+01 0.896E+00   0.485E-01 0.139E+00 0.115E+00
   0.554E-01 0.136E+01 -.264E+04   -.454E-01 -.140E+01 0.264E+04   0.470E-02 -.106E-01 0.160E+01   -.148E-01 0.446E-01 0.306E-01
   -.503E-01 -.365E+01 -.871E+03   0.484E-01 0.360E+01 0.871E+03   0.293E-02 0.978E-01 0.156E+01   -.157E-03 -.120E-01 0.436E-01
   0.677E+02 0.377E+02 -.286E+03   -.744E+02 -.416E+02 0.288E+03   0.678E+01 0.385E+01 -.236E+01   0.161E-02 -.175E-02 -.147E-02
   -.661E+02 0.404E+02 -.286E+03   0.728E+02 -.445E+02 0.288E+03   -.662E+01 0.412E+01 -.235E+01   -.156E-02 -.166E-02 -.140E-02
   -.100E+01 -.532E+02 -.157E+04   0.176E+01 0.919E+02 0.156E+04   -.758E+00 -.387E+02 0.110E+02   -.221E-02 -.190E-01 0.241E-01
   0.615E+00 0.308E+02 0.135E+00   -.144E-13 0.398E-12 -.273E-11   -.598E+00 -.308E+02 -.400E+01   -.992E-02 0.287E-02 0.374E+01

 POSITION                                       TOTAL-FORCE (eV/Angst)
      0.00000      0.00000      5.28219        -0.000225      0.003180     -0.017878
      2.93046      0.00000      5.28219         0.003932     -0.004042      0.028921
      5.86091      0.00000      5.28219        -0.004255     -0.004417      0.028881
      1.46523      2.53785      5.28219        -0.005975     -0.001848      0.033764
      4.39568      2.53785      5.28219        -0.000176     -0.004274      0.038008
      7.32614      2.53785      5.28219         0.005794     -0.001806      0.033903
      2.93046      5.07570      5.28219        -0.003716      0.000366      0.035903
      5.86091      5.07570      5.28219         0.003152      0.000280      0.035901
      8.79137      5.07570      5.28219        -0.000226     -0.000356      0.002301
      1.46523      0.84595      7.67490        -0.026439     -0.014671     -0.066615
      4.39568      0.84595      7.67490        -0.000033     -0.063367     -0.077330
      7.32614      0.84595      7.67490         0.026139     -0.014774     -0.066535
      2.93046      3.38380      7.67490        -0.049182      0.031023     -0.074673
      5.86091      3.38380      7.67490         0.049295      0.031105     -0.074559
      8.79137      3.38380      7.67490        -0.000218     -0.007952      0.026244
      4.39568      5.92165      7.67490        -0.000279      0.024658     -0.069205
      7.32614      5.92165      7.67490        -0.009967      0.001370      0.032683
     10.25659      5.92165      7.67490         0.009676      0.001342      0.032406
      8.79137      1.69178     10.05827        -0.000245     -0.010299     -0.011474
      2.92613      1.68940     10.03306        -0.030888     -0.015492     -0.054397
      5.86523      1.68940     10.03306         0.030263     -0.015737     -0.054973
     10.25456      4.23092     10.06776         0.014532     -0.014992      0.011109
      4.39568      4.23474     10.03306        -0.000597      0.036193     -0.032858
      7.32817      4.23092     10.06776        -0.014952     -0.015450      0.011948
     11.72193      6.76766     10.05827         0.010630      0.009234     -0.007932
      5.86080      6.76766     10.05827        -0.011207      0.009481     -0.007864
      8.79137      6.76525     10.06776        -0.000014      0.018840      0.006956
      0.00000      0.00000     12.45716        -0.000272      0.000839      0.014212
      2.94326      0.02074     12.49530        -0.051580     -0.076675     -0.081055
      5.84810      0.02074     12.49530         0.051168     -0.075384     -0.079773
      1.48959      2.53857     12.49530        -0.063411     -0.001935     -0.064536
      7.30177      2.53857     12.49530         0.063688     -0.003337     -0.065496
      2.94201      5.05424     12.49530        -0.071057      0.069825     -0.102737
      5.84935      5.05424     12.49530         0.070686      0.071457     -0.104442
      8.79137      5.07570     12.47846        -0.000244     -0.003182      0.031537
      4.39568      2.53785     12.33403         0.000630      0.035951      0.716934
      3.59263      2.01665     14.88319        -0.001685     -0.002884      0.000390
      5.17875      1.98452     14.88126         0.006963     -0.006456      0.004071
      4.39562      2.50404     14.59249         0.000294      0.014189     -0.011739
    total drift:                                0.006907      0.054344     -0.129124

  FREE ENERGIE OF THE ION-ELECTRON SYSTEM (eV)
  free  energy   TOTEN  =      -113.02838432 eV

  energy  without entropy=     -113.02838432  energy(sigma->0) =     -113.02838432

 stress matrix after NEB project (eV)
     -7.91402      0.00371      0.00004
      0.00371     -7.99039     -0.15192
      0.00004     -0.15192     -0.14705
  FORCES: max atom, RMS     0.018418    0.003424
  FORCE total and by dimension    0.021384    0.014189
  Stress total and by dimension   11.249259    7.990389
|           W    W    AA    RRRRR   N    N  II  N    N   GGGG   !!!           |
|           W    W   A  A   R    R  NN   N  II  NN   N  G    G  !!!           |
|           W    W  A    A  R    R  N N  N  II  N N  N  G       !!!           |
|           W WW W  AAAAAA  RRRRR   N  N N  II  N  N N  G  GGG   !            |
|           WW  WW  A    A  R   R   N   NN  II  N   NN  G    G                |
|           W    W  A    A  R    R  N    N  II  N    N   GGGG   !!!           |
|     Tetrahedron method does not include variations of the Fermi             |
|     occupations, so forces and stress will be inaccurate. We suggest        |
|     using a different smearing scheme ISMEAR = 1 or 2 for metals in         |
|     relaxations.                                                            |

 total charge

# of ion       s       p       d       tot
    1        0.424   0.200   9.178   9.802
    2        0.416   0.204   9.177   9.797
    3        0.416   0.204   9.177   9.797
    4        0.416   0.204   9.178   9.797
    5        0.417   0.203   9.177   9.796
    6        0.416   0.204   9.178   9.797
    7        0.416   0.204   9.178   9.797
    8        0.415   0.204   9.178   9.797
    9        0.418   0.203   9.176   9.797
   10        0.412   0.269   9.163   9.844
   11        0.406   0.268   9.168   9.842
   12        0.412   0.269   9.163   9.844
   13        0.404   0.269   9.168   9.841
   14        0.404   0.269   9.168   9.841
   15        0.404   0.268   9.165   9.837
   16        0.411   0.270   9.163   9.843
   17        0.403   0.268   9.165   9.836
   18        0.403   0.268   9.165   9.836
   19        0.405   0.266   9.164   9.834
   20        0.446   0.301   9.128   9.875
   21        0.446   0.301   9.128   9.875
   22        0.396   0.272   9.164   9.831
   23        0.443   0.303   9.128   9.874
   24        0.395   0.272   9.164   9.831
   25        0.404   0.266   9.165   9.834
   26        0.404   0.266   9.165   9.834
   27        0.396   0.272   9.163   9.831
   28        0.409   0.209   9.168   9.786
   29        0.456   0.231   9.137   9.825
   30        0.457   0.232   9.137   9.825
   31        0.457   0.231   9.137   9.826
   32        0.457   0.231   9.137   9.825
   33        0.454   0.225   9.142   9.821
   34        0.454   0.225   9.143   9.821
   35        0.405   0.210   9.170   9.785
   36        0.573   0.470   1.759   2.802
   37        0.592   0.116   0.000   0.708
   38        0.592   0.116   0.000   0.708
   39        1.566   3.632   0.000   5.197
tot         18.018  12.894 322.381 353.293

 BZINTS: Fermi energy:    0.651748;  397.000000 electrons
         Band energy:-0.146513E+04;  BLOECHL correction:   -0.030639