 vasp.6.2.0 18Jan21 (build Jun 12 2021 23:27:24) complex

 executed on             LinuxIFC date 2022.05.26  19:29:27

 INCAR:
   ISMEAR = -5
   SIGMA = 0.1
   ISPIN = 1
   EDIFF = 1.d-5
   EDIFFG = -0.01
   NSW = 0
   NELM = 150
   ENCUT = 500
   ISIF = 2
   IBRION = 2
   LREAL = Auto
   ALGO = Fast
   ICHARG = 11
   LORBIT = 10
   LCHARG = .F.
   LWAVE = .F.

 POTCAR:    PAW_PBE Au 04Oct2007
 POTCAR:    PAW_PBE Pd 04Jan2005
 POTCAR:    PAW_PBE O 08Apr2002
|           W    W    AA    RRRRR   N    N  II  N    N   GGGG   !!!           |
|           W    W   A  A   R    R  NN   N  II  NN   N  G    G  !!!           |
|           W    W  A    A  R    R  N N  N  II  N N  N  G       !!!           |
|           W WW W  AAAAAA  RRRRR   N  N N  II  N  N N  G  GGG   !            |
|           WW  WW  A    A  R   R   N   NN  II  N   NN  G    G                |
|           W    W  A    A  R    R  N    N  II  N    N   GGGG   !!!           |
|     For optimal performance we recommend to set                             |
|       NCORE = 2 up to number-of-cores-per-socket                            |
|     This setting can greatly improve the performance of VASP for DFT.       |
|     The default, NCORE=1 might be grossly inefficient on modern             |
|     multi-core architectures or massively parallel machines. Do your        |
|     Unfortunately you need to use the default for GW and RPA                |
|     calculations (for HF NCORE is supported but not extensively tested      |
|     yet).                                                                   |

 POTCAR:    PAW_PBE Au 04Oct2007
   VRHFIN =Au: s1d10

   TITEL  = PAW_PBE Au 04Oct2007
   POMASS =  196.966; ZVAL   =   11.000    mass and valenz
   ENMAX  =  229.943; ENMIN  =  172.457 eV

 POTCAR:    PAW_PBE Pd 04Jan2005
   VRHFIN =Pd : s1 d9

   TITEL  = PAW_PBE Pd 04Jan2005
   POMASS =  106.420; ZVAL   =   10.000    mass and valenz
   ENMAX  =  250.925; ENMIN  =  188.194 eV

 POTCAR:    PAW_PBE O 08Apr2002
   VRHFIN =O: s2p4

   TITEL  = PAW_PBE O 08Apr2002
   POMASS =   16.000; ZVAL   =    6.000    mass and valenz
   ENMAX  =  400.000; ENMIN  =  300.000 eV

 Optimization of the real space projectors (new method)

 maximal supplied QI-value         = 15.12
 optimisation between [QCUT,QGAM] = [ 11.34, 22.83] = [ 36.00,145.93] Ry
 Optimized for a Real-space Cutoff    1.39 Angstroem

   l    n(q)    QCUT    max X(q) W(low)/X(q) W(high)/X(q)  e(spline)
   2      9    11.338    60.898    0.39E-03    0.42E-03    0.21E-06
   2      9    11.338    58.894    0.40E-03    0.42E-03    0.22E-06
   0      9    11.338   109.617    0.13E-03    0.20E-04    0.13E-06
   0      9    11.338    75.026    0.13E-03    0.20E-04    0.13E-06
   1      9    11.338    16.344    0.33E-04    0.24E-03    0.18E-06
   1      9    11.338    10.160    0.26E-04    0.19E-03    0.15E-06
 Optimization of the real space projectors (new method)

[...]

   l    n(q)    QCUT    max X(q) W(low)/X(q) W(high)/X(q)  e(spline)
   2      9    11.346    59.108    0.74E-04    0.81E-04    0.26E-06
   2      9    11.346    58.101    0.74E-04    0.83E-04    0.27E-06
   0     10    11.346   102.235    0.26E-04    0.31E-04    0.16E-06
   0     10    11.346    58.388    0.23E-04    0.29E-04    0.15E-06
   1     10    11.346    22.191    0.23E-03    0.26E-03    0.14E-06
   1     10    11.346    15.590    0.19E-03    0.22E-03    0.12E-06
 Optimization of the real space projectors (new method)

 maximal supplied QI-value         = 24.76
 optimisation between [QCUT,QGAM] = [ 11.39, 22.77] = [ 36.31,145.25] Ry
 Optimized for a Real-space Cutoff    1.00 Angstroem

   l    n(q)    QCUT    max X(q) W(low)/X(q) W(high)/X(q)  e(spline)
   0      7    11.387    20.381    0.39E-03    0.13E-02    0.15E-06
   0      7    11.387    15.268    0.42E-03    0.14E-02    0.17E-06
   1      6    11.387     5.964    0.41E-03    0.11E-02    0.17E-06
   1      6    11.387     5.382    0.39E-03    0.87E-03    0.15E-06
  PAW_PBE Au 04Oct2007                  :
  PAW_PBE Pd 04Jan2005                  :
  PAW_PBE O 08Apr2002                   :

 POSCAR: Au-Pd-O
  positions in direct lattice
  velocities in cartesian coordinates
 exchange correlation table for  LEXCH =        8
   RHO(1)=    0.500       N(1)  =     2000
   RHO(2)=  100.500       N(2)  =     4000

 VTST: version 3.2, (02/03/18)

 CHAIN: initializing optimizer

 OPT: Using VASP Conjugate-Gradient optimizer
 CHAIN: Read ICHAIN            0

 POSCAR: Au-Pd-O
  positions in direct lattice
  velocities in cartesian coordinates

 ion  position               nearest neighbor table
   1  0.000  0.000  0.238-  16 2.94  12 2.94   6 2.94   8 2.94   7 2.94   3 2.94  10 2.94   4 2.94
                             2 2.94
   2  0.333  0.000  0.238-   9 2.94  11 2.94  17 2.94  10 2.94   8 2.94   4 2.94   5 2.94   1 2.94
                             3 2.94
   3  0.667  0.000  0.238-   7 2.94  18 2.94  12 2.94   1 2.94  11 2.94   5 2.94   6 2.94   9 2.94
                             2 2.94
   4  0.000  0.333  0.238-  10 2.94   6 2.94   5 2.94  13 2.94   2 2.94  15 2.94   9 2.94   1 2.94
                             7 2.94
   5  0.333  0.333  0.238-  13 2.94   7 2.94  11 2.94   4 2.94   2 2.94  14 2.94   3 2.94   8 2.94
                             6 2.94
   6  0.667  0.333  0.238-  15 2.94  14 2.94   1 2.94  12 2.94   4 2.94   9 2.94   8 2.94   3 2.94
                             5 2.94
   7  0.000  0.667  0.238-  18 2.94   3 2.94  16 2.94   5 2.94   1 2.94  13 2.94   8 2.94   4 2.94
                             9 2.94
   8  0.333  0.667  0.238-   9 2.94  17 2.94   1 2.94   2 2.94  14 2.94  16 2.94   6 2.94   7 2.94
                             5 2.94
   9  0.667  0.667  0.238-   2 2.94   8 2.94  17 2.94   6 2.94  15 2.94   4 2.94   3 2.94  18 2.94
                             7 2.94
  10  0.111  0.111  0.346-  26 2.92  19 2.92  20 2.93  11 2.94  17 2.94   2 2.94   4 2.94   1 2.94
                            12 2.94  16 2.94  13 2.94  15 2.94
  11  0.444  0.111  0.346-  27 2.93  20 2.93  21 2.93  13 2.94   2 2.94  10 2.94  17 2.94   5 2.94
                             3 2.94  18 2.94  14 2.94  12 2.94
  12  0.778  0.111  0.346-  25 2.92  19 2.92  21 2.93  16 2.94  18 2.94   1 2.94  14 2.94  15 2.94
                             3 2.94   6 2.94  10 2.94  11 2.94
  13  0.111  0.444  0.346-  22 2.93  23 2.93  20 2.93   5 2.94  18 2.94  11 2.94   7 2.94   4 2.94
                            16 2.94  10 2.94  14 2.94  15 2.94
  14  0.444  0.444  0.346-  24 2.93  21 2.93  23 2.93  15 2.94   6 2.94  12 2.94   8 2.94  17 2.94
                             5 2.94  16 2.94  13 2.94  11 2.94
  15  0.778  0.444  0.346-  19 2.93  24 2.93  22 2.93  14 2.94   6 2.94  17 2.94  12 2.94   9 2.94
                             4 2.94  10 2.94  13 2.94  18 2.94
  16  0.111  0.778  0.346-  25 2.92  26 2.92  23 2.93  18 2.94  12 2.94   7 2.94   1 2.94   8 2.94
                            13 2.94  10 2.94  14 2.94  17 2.94
  17  0.444  0.778  0.346-  26 2.93  27 2.93  24 2.93   9 2.94  15 2.94   2 2.94  10 2.94  11 2.94
                             8 2.94  14 2.94  16 2.94  18 2.94
  18  0.778  0.778  0.346-  25 2.93  22 2.93  27 2.93  16 2.94   7 2.94  13 2.94  12 2.94   3 2.94
                            11 2.94   9 2.94  15 2.94  17 2.94
  19  0.889  0.222  0.453-  10 2.92  12 2.92  15 2.93  26 2.93  25 2.93  21 2.94  20 2.94  24 2.94
                            22 2.94  28 2.96  32 2.97  31 2.97
  20  0.222  0.222  0.454-  36 2.83  10 2.93  11 2.93  13 2.93  26 2.94  19 2.94  27 2.94  22 2.94
                            23 2.94  21 2.94  29 2.95  31 2.95
  21  0.556  0.222  0.454-  36 2.83  12 2.93  14 2.93  11 2.93  25 2.94  19 2.94  24 2.94  27 2.94
                            20 2.94  23 2.94  30 2.95  32 2.95
  22  0.889  0.556  0.454-  18 2.93  15 2.93  13 2.93  24 2.94  27 2.94  23 2.94  20 2.94  25 2.94
                            19 2.94  33 2.96  31 2.96  35 2.96
  23  0.222  0.556  0.454-  36 2.83  16 2.93  13 2.93  14 2.93  25 2.94  26 2.94  22 2.94  24 2.94
                            20 2.94  21 2.94  33 2.95  34 2.95
  24  0.556  0.556  0.454-  15 2.93  17 2.93  14 2.93  27 2.94  22 2.94  21 2.94  23 2.94  26 2.94
                            19 2.94  32 2.96  34 2.96  35 2.96
  25  0.889  0.889  0.453-  16 2.92  12 2.92  18 2.93  19 2.93  26 2.93  23 2.94  21 2.94  22 2.94
                            27 2.94  28 2.96  33 2.97  30 2.97
  26  0.222  0.889  0.453-  10 2.92  16 2.92  17 2.93  19 2.93  25 2.93  20 2.94  23 2.94  27 2.94
                            24 2.94  28 2.96  29 2.97  34 2.97
  27  0.556  0.889  0.454-  17 2.93  18 2.93  11 2.93  24 2.94  22 2.94  20 2.94  21 2.94  26 2.94
                            25 2.94  29 2.96  30 2.96  35 2.96
  28  0.000  0.000  0.563-  34 2.94  32 2.94  33 2.94  30 2.94  31 2.94  29 2.94  25 2.96  19 2.96
                            26 2.96
  29  0.333  0.001  0.563-  30 2.93  31 2.93  36 2.93  35 2.94  28 2.94  20 2.95  34 2.95  27 2.96
                            26 2.97
  30  0.666  0.001  0.563-  29 2.93  32 2.93  36 2.93  35 2.94  28 2.94  21 2.95  33 2.95  27 2.96
                            25 2.97
  31  0.001  0.333  0.563-  33 2.93  29 2.93  36 2.93  35 2.94  28 2.94  20 2.95  32 2.95  22 2.96
                            19 2.97
  32  0.666  0.333  0.563-  34 2.93  30 2.93  36 2.93  35 2.94  28 2.94  21 2.95  31 2.95  24 2.96
                            19 2.97
  33  0.001  0.666  0.563-  31 2.93  34 2.93  36 2.93  35 2.94  28 2.94  23 2.95  30 2.95  22 2.96
                            25 2.97
  34  0.333  0.666  0.563-  32 2.93  33 2.93  36 2.93  35 2.94  28 2.94  23 2.95  29 2.95  24 2.96
                            26 2.97
  35  0.667  0.667  0.563-  29 2.94  34 2.94  32 2.94  31 2.94  30 2.94  33 2.94  24 2.96  27 2.96
                            22 2.96
  36  0.333  0.333  0.556-  37 1.84  20 2.83  23 2.83  21 2.83  33 2.93  31 2.93  29 2.93  30 2.93
                            34 2.93  32 2.93
  37  0.333  0.333  0.639-  36 1.84

  LATTYP: Found a hexagonal cell.
 ALAT       =     8.8135128021
 C/A-ratio  =     2.5184286595

  Lattice vectors:

 A1 = (  -4.4067569092,  -7.6327256898,   0.0000000000)
 A2 = (   8.8135128021,   0.0000000000,   0.0000000000)
 A3 = (   0.0000000000,   0.0000000000,  22.1962032318)

Analysis of symmetry for initial positions (statically):
 Subroutine PRICEL returns:
 Original cell was already a primitive cell.

 Routine SETGRP: Setting up the symmetry group for a
 hexagonal supercell.

 Subroutine GETGRP returns: Found  6 space group operations
 (whereof  6 operations were pure point group operations)
 out of a pool of 24 trial point group operations.

The static configuration has the point symmetry C_3v.

Analysis of symmetry for dynamics (positions and initial velocities):
 Subroutine PRICEL returns:
 Original cell was already a primitive cell.

[...]

The dynamic configuration has the point symmetry C_3v.

Analysis of constrained symmetry for selective dynamics:
 Subroutine PRICEL returns:
 Original cell was already a primitive cell.

 Routine SETGRP: Setting up the symmetry group for a
 hexagonal supercell.

 Subroutine GETGRP returns: Found  6 space group operations
[...]
     24      -5.1453      2.00000
     25      -5.1310      2.00000
     26      -5.1194      2.00000
     27      -5.0821      2.00000
     28      -5.0162      2.00000
     29      -4.9486      2.00000
     30      -4.8637      2.00000
     31      -4.8595      2.00000
     32      -4.8355      2.00000
     33      -4.8301      2.00000
     34      -4.8224      2.00000
     35      -4.7873      2.00000
     36      -4.6955      2.00000
     37      -4.6784      2.00000
     38      -4.6265      2.00000
     39      -4.6155      2.00000
     40      -4.5676      2.00000
     41      -4.4834      2.00000
     42      -4.4747      2.00000
     43      -4.4380      2.00000
     44      -4.4154      2.00000
     45      -4.3724      2.00000
     46      -4.3668      2.00000
     47      -4.2745      2.00000
     48      -4.2575      2.00000
     49      -4.2165      2.00000
     50      -4.2022      2.00000
     51      -4.1977      2.00000
     52      -4.1877      2.00000
     53      -4.1863      2.00000
     54      -4.1280      2.00000
     55      -4.0935      2.00000
     56      -4.0730      2.00000
     57      -4.0338      2.00000
     58      -4.0269      2.00000
     59      -4.0239      2.00000
     60      -4.0180      2.00000
[...]
    238       6.4038      0.00000
    239       6.4659      0.00000
    240       6.5644      0.00000
    241       6.6561      0.00000
    242       6.6865      0.00000
    243       6.7597      0.00000
    244       6.8053      0.00000
    245       6.9418      0.00000
    246       7.0974      0.00000
    247       7.1420      0.00000
    248       7.2554      0.00000
    249       7.4247      0.00000
    250       7.7061      0.00000
    251       7.8424      0.00000
    252       7.9048      0.00000

 soft charge-density along one line, spin component           1
         0         1         2         3         4         5         6         7         8         9
 total charge-density along one line

------------------------ aborting loop because EDIFF is reached ----------------------------------------

 total charge

# of ion       s       p       d       tot
    1        0.544   0.239   8.772   9.555
    2        0.545   0.241   8.766   9.552
    3        0.545   0.241   8.766   9.552
    4        0.545   0.241   8.766   9.552
    5        0.543   0.242   8.765   9.550
    6        0.545   0.241   8.766   9.552
    7        0.545   0.241   8.766   9.552
    8        0.545   0.241   8.766   9.552
    9        0.543   0.241   8.764   9.548
   10        0.519   0.309   8.773   9.601
   11        0.517   0.307   8.774   9.597
   12        0.519   0.309   8.773   9.601
   13        0.517   0.307   8.774   9.597
   14        0.517   0.307   8.774   9.597
   15        0.516   0.307   8.778   9.601
   16        0.519   0.309   8.773   9.601
   17        0.516   0.307   8.778   9.601
   18        0.516   0.307   8.778   9.601
   19        0.514   0.307   8.770   9.591
   20        0.532   0.314   8.763   9.610
   21        0.532   0.314   8.763   9.610
   22        0.515   0.303   8.776   9.594
   23        0.532   0.314   8.763   9.610
   24        0.515   0.303   8.776   9.594
   25        0.514   0.307   8.770   9.591
   26        0.514   0.307   8.770   9.591
   27        0.515   0.303   8.776   9.594
   28        0.546   0.230   8.772   9.548
   29        0.529   0.230   8.777   9.536
   30        0.529   0.230   8.777   9.536
   31        0.529   0.230   8.777   9.536
   32        0.529   0.230   8.777   9.536
   33        0.529   0.230   8.777   9.536
   34        0.529   0.230   8.777   9.536
   35        0.543   0.234   8.765   9.542
   36        0.473   0.534   8.397   9.404
   37        1.605   3.146   0.000   4.751
tot         20.576  13.229 315.397 349.201

  FORCE on cell =-STRESS in cart. coord.  units (eV):
  Direction    XX          YY          ZZ          XY          YZ          ZX
  Alpha Z  1019.04168  1019.04168  1019.04168
  Ewald  119650.64642119650.64684************    -0.00033    -0.00008    -0.00012
  Hartree128508.56608128508.56609************     0.00000    -0.00002    -0.00003
  E(xc)   -1809.59650 -1809.59652 -1815.53678     0.00002    -0.00000    -0.00000
  Local  ************************260620.12388     0.00207     0.00001    -0.00003
  n-local  -110.37141   -59.26550   -57.52449    23.08910    -1.21270     1.33769
  augment  2450.50755  2450.50912  2457.45797    -0.00137     0.00003     0.00004
  Kinetic  5611.78972  5624.46143  5645.65135     5.15146     0.40214     0.33993
  Fock        0.00000     0.00000     0.00000     0.00000     0.00000     0.00000
  Total     -20.26235   -20.26235     1.77221    -0.00000     0.00000    -0.00000
  in kB     -21.74167   -21.74167     1.90160    -0.00000     0.00000    -0.00000

 VOLUME and BASIS-vectors are now :
  energy-cutoff  :      500.00
  volume of cell :     1493.16
      direct lattice vectors                 reciprocal lattice vectors
     8.813512802  0.000000000  0.000000000     0.113462137 -0.065507406  0.000000000
     4.406756909  7.632725690  0.000000000     0.000000000  0.131014796  0.000000000
     0.000000000  0.000000000 22.196203232     0.000000000  0.000000000  0.045052750

  length of vectors
     8.813512802  8.813512802 22.196203232     0.131014796  0.131014796  0.045052750

 FORCES acting on ions
    electron-ion (+dipol)            ewald-force                    non-local-force                 convergence-correction
   -.195E-04 -.161E-04 0.250E+04   0.518E-04 0.433E-04 -.250E+04   -.278E-17 0.176E-17 -.815E+00   -.254E-03 -.160E-03 -.504E+00
   -.151E+00 0.155E+00 0.250E+04   0.352E-01 -.190E+00 -.250E+04   0.410E-01 0.615E-01 -.368E+00   0.748E-01 -.177E-01 -.441E+00
   0.151E+00 0.155E+00 0.250E+04   -.352E-01 -.190E+00 -.250E+04   -.410E-01 0.615E-01 -.368E+00   -.745E-01 -.158E-01 -.441E+00
   0.591E-01 -.208E+00 0.250E+04   -.147E+00 0.125E+00 -.250E+04   0.737E-01 0.477E-02 -.368E+00   0.222E-01 0.736E-01 -.441E+00
   0.917E-05 -.229E-04 0.250E+04   0.952E-04 0.169E-05 -.250E+04   -.120E-17 0.135E-17 -.248E+00   0.420E-02 0.256E-02 -.321E+00
   -.591E-01 -.208E+00 0.250E+04   0.147E+00 0.125E+00 -.250E+04   -.737E-01 0.477E-02 -.368E+00   -.236E-01 0.744E-01 -.440E+00
   0.210E+00 0.530E-01 0.250E+04   -.182E+00 0.644E-01 -.250E+04   0.327E-01 -.662E-01 -.368E+00   -.509E-01 -.566E-01 -.440E+00
   -.210E+00 0.530E-01 0.250E+04   0.182E+00 0.644E-01 -.250E+04   -.327E-01 -.662E-01 -.368E+00   0.527E-01 -.577E-01 -.441E+00
   0.191E-04 -.417E-04 0.250E+04   0.166E-03 -.200E-04 -.250E+04   0.327E-17 -.175E-17 -.554E+00   -.449E-02 -.232E-02 -.462E+00
   0.742E-01 0.428E-01 0.862E+03   -.158E-01 -.902E-02 -.861E+03   -.167E+00 -.964E-01 -.576E+00   0.138E+00 0.797E-01 0.380E+00
   0.141E-04 0.157E+01 0.862E+03   0.148E-03 -.172E+01 -.862E+03   0.319E-08 0.479E-01 -.179E+00   0.411E-02 0.806E-01 0.362E+00
   -.742E-01 0.428E-01 0.862E+03   0.157E-01 -.905E-02 -.861E+03   0.167E+00 -.964E-01 -.576E+00   -.140E+00 0.801E-01 0.379E+00
   0.136E+01 -.785E+00 0.862E+03   -.149E+01 0.860E+00 -.862E+03   0.415E-01 -.240E-01 -.179E+00   0.721E-01 -.365E-01 0.362E+00
   -.136E+01 -.785E+00 0.862E+03   0.149E+01 0.860E+00 -.862E+03   -.415E-01 -.240E-01 -.179E+00   -.652E-01 -.378E-01 0.360E+00
   0.312E-04 -.117E+01 0.860E+03   0.236E-03 0.118E+01 -.859E+03   0.369E-09 0.554E-02 -.471E+00   -.182E-02 -.151E-01 0.266E+00
   -.211E-04 -.857E-01 0.862E+03   0.162E-03 0.181E-01 -.861E+03   0.128E-07 0.193E+00 -.576E+00   -.635E-03 -.161E+00 0.379E+00
   -.101E+01 0.584E+00 0.860E+03   0.103E+01 -.592E+00 -.859E+03   0.480E-02 -.277E-02 -.471E+00   -.137E-01 0.640E-02 0.266E+00
   0.101E+01 0.584E+00 0.860E+03   -.103E+01 -.592E+00 -.859E+03   -.480E-02 -.277E-02 -.471E+00   0.146E-01 0.815E-02 0.268E+00
   -.405E-04 -.103E+01 -.798E+03   0.528E-04 0.899E+00 0.797E+03   0.851E-08 0.128E+00 0.706E+00   0.692E-03 0.230E-01 0.863E+00
   0.142E+02 0.823E+01 -.780E+03   -.138E+02 -.798E+01 0.779E+03   -.593E+00 -.343E+00 -.315E+00   0.233E+00 0.134E+00 0.113E+01
   -.142E+02 0.823E+01 -.780E+03   0.138E+02 -.798E+01 0.779E+03   0.593E+00 -.343E+00 -.315E+00   -.239E+00 0.133E+00 0.113E+01
   0.722E+01 -.417E+01 -.797E+03   -.746E+01 0.431E+01 0.796E+03   0.690E-01 -.398E-01 0.612E+00   0.184E+00 -.101E+00 0.900E+00
   -.142E-04 -.165E+02 -.780E+03   0.145E-03 0.160E+02 0.779E+03   0.456E-07 0.685E+00 -.315E+00   -.505E-02 -.273E+00 0.113E+01
   -.722E+01 -.417E+01 -.797E+03   0.746E+01 0.431E+01 0.796E+03   -.690E-01 -.398E-01 0.612E+00   -.176E+00 -.102E+00 0.900E+00
   0.895E+00 0.517E+00 -.798E+03   -.779E+00 -.449E+00 0.797E+03   -.111E+00 -.639E-01 0.706E+00   -.215E-01 -.125E-01 0.863E+00
   -.895E+00 0.517E+00 -.798E+03   0.778E+00 -.449E+00 0.797E+03   0.111E+00 -.639E-01 0.706E+00   0.205E-01 -.108E-01 0.863E+00
   0.623E-05 0.834E+01 -.797E+03   0.200E-03 -.861E+01 0.796E+03   0.531E-08 0.797E-01 0.612E+00   0.379E-02 0.210E+00 0.900E+00
   -.107E-04 -.126E-04 -.245E+04   0.275E-04 0.342E-04 0.245E+04   0.987E-17 0.635E-17 0.446E+00   -.127E-03 -.927E-04 0.979E+00
   0.210E+02 0.345E+02 -.243E+04   -.215E+02 -.355E+02 0.243E+04   0.105E+00 0.350E+00 0.925E+00   0.265E+00 0.545E+00 0.105E+01
   -.210E+02 0.345E+02 -.243E+04   0.215E+02 -.355E+02 0.243E+04   -.105E+00 0.350E+00 0.925E+00   -.265E+00 0.546E+00 0.104E+01
   0.404E+02 0.987E+00 -.243E+04   -.415E+02 -.857E+00 0.243E+04   0.355E+00 -.838E-01 0.925E+00   0.605E+00 -.427E-01 0.105E+01
   -.404E+02 0.987E+00 -.243E+04   0.415E+02 -.857E+00 0.243E+04   -.355E+00 -.838E-01 0.925E+00   -.605E+00 -.422E-01 0.105E+01
   0.193E+02 -.355E+02 -.243E+04   -.200E+02 0.364E+02 0.243E+04   0.250E+00 -.266E+00 0.925E+00   0.340E+00 -.503E+00 0.104E+01
   -.193E+02 -.355E+02 -.243E+04   0.200E+02 0.364E+02 0.243E+04   -.250E+00 -.266E+00 0.925E+00   -.339E+00 -.503E+00 0.105E+01
   0.278E-04 -.282E-04 -.245E+04   0.149E-03 -.492E-04 0.245E+04   0.101E-17 0.242E-19 0.452E+00   -.397E-02 -.200E-02 0.962E+00
   0.295E-04 -.157E-04 -.195E+04   0.992E-04 0.867E-05 0.195E+04   0.345E-18 0.118E-17 -.404E+01   0.431E-02 0.265E-02 0.212E+01
   0.182E-03 -.986E-04 -.165E+04   0.198E-04 0.130E-05 0.167E+04   0.433E-17 -.173E-18 -.242E+02   0.358E-02 0.219E-02 -.793E-01
   -.484E-03 -.842E-03 0.920E+01   -.214E-13 -.200E-14 -.432E-11   -.498E-16 -.221E-15 -.263E+02   0.128E-01 0.820E-02 0.180E+02

 POSITION                                       TOTAL-FORCE (eV/Angst)
      0.00000      0.00000      5.28038         0.000000      0.000000     -0.084081
      2.93784      0.00000      5.28038         0.000559      0.010159     -0.057207
      5.87568      0.00000      5.28038        -0.000559      0.010159     -0.057207
      1.46892      2.54424      5.28038         0.009078     -0.004595     -0.057207
      4.40676      2.54424      5.28038         0.000000      0.000000     -0.048191
      7.34459      2.54424      5.28038        -0.009078     -0.004595     -0.057207
      2.93784      5.08848      5.28038         0.008519     -0.005564     -0.057207
      5.87568      5.08848      5.28038        -0.008519     -0.005564     -0.057207
      8.81351      5.08848      5.28038         0.000000      0.000000     -0.078785
      1.46892      0.84808      7.67911         0.030454      0.017582      0.095981
      4.40676      0.84808      7.67911        -0.000000     -0.023621      0.097834
      7.34459      0.84808      7.67911        -0.030454      0.017582      0.095981
      2.93784      3.39232      7.67911        -0.020456      0.011810      0.097834
      5.87568      3.39232      7.67911         0.020456      0.011810      0.097834
      8.81351      3.39232      7.67911         0.000000      0.007245      0.096178
      4.40676      5.93656      7.67911        -0.000000     -0.035165      0.095981
      7.34459      5.93656      7.67911         0.006274     -0.003622      0.096178
     10.28243      5.93656      7.67911        -0.006274     -0.003622      0.096178
      8.81351      1.69299     10.06281         0.000000      0.016864      0.015480
      2.93673      1.69552     10.07074         0.075145      0.043385     -0.105498
      5.87678      1.69552     10.07074        -0.075145      0.043385     -0.105498
     10.28200      4.24065     10.07064         0.011358     -0.006558     -0.016660
      4.40676      4.24168     10.07074        -0.000000     -0.086770     -0.105498
      7.34503      4.24065     10.07064        -0.011358     -0.006558     -0.016660
     11.75410      6.78623     10.06281        -0.014605     -0.008432      0.015480
      5.87293      6.78623     10.06281         0.014605     -0.008432      0.015480
      8.81351      6.78414     10.07064         0.000000      0.013116     -0.016660
      0.00000      0.00000     12.49359         0.000000      0.000000     -0.044360
      2.94266      0.00661     12.49157        -0.092933     -0.168505     -0.063236
      5.87086      0.00661     12.49157         0.092933     -0.168505     -0.063236
      1.47706      2.54511     12.49157        -0.192396      0.003770     -0.063236
      7.33646      2.54511     12.49157         0.192396      0.003770     -0.063236
      2.94116      5.08100     12.49157        -0.099463      0.164735     -0.063236
      5.87236      5.08100     12.49157         0.099463      0.164735     -0.063236
      8.81351      5.08848     12.49778         0.000000      0.000000     -0.021674
      4.40676      2.54424     12.34091         0.000000      0.000000      0.542557
      4.40676      2.54424     14.17776         0.000000      0.000000     -0.092757
    total drift:                                0.012351      0.007360      0.971696

  FREE ENERGIE OF THE ION-ELECTRON SYSTEM (eV)
  free  energy   TOTEN  =      -116.11740274 eV

  energy  without entropy=     -116.11740274  energy(sigma->0) =     -116.11740274

 stress matrix after NEB project (eV)
    -20.26235     -0.00000     -0.00000
     -0.00000    -20.26235      0.00000
      0.00000      0.00000      1.77221
  FORCES: max atom, RMS     0.092757    0.015249
  FORCE total and by dimension    0.092757    0.092757
  Stress total and by dimension   28.710037   20.262349
|           W    W    AA    RRRRR   N    N  II  N    N   GGGG   !!!           |
|           W    W   A  A   R    R  NN   N  II  NN   N  G    G  !!!           |
|           W    W  A    A  R    R  N N  N  II  N N  N  G       !!!           |
|           W WW W  AAAAAA  RRRRR   N  N N  II  N  N N  G  GGG   !            |
|           WW  WW  A    A  R   R   N   NN  II  N   NN  G    G                |
|           W    W  A    A  R    R  N    N  II  N    N   GGGG   !!!           |
|     Tetrahedron method does not include variations of the Fermi             |
|     occupations, so forces and stress will be inaccurate. We suggest        |
|     using a different smearing scheme ISMEAR = 1 or 2 for metals in         |
|     relaxations.                                                            |

 total charge

# of ion       s       p       d       tot
    1        0.544   0.239   8.772   9.555
    2        0.545   0.241   8.766   9.552
    3        0.545   0.241   8.766   9.552
    4        0.545   0.241   8.766   9.552
    5        0.543   0.242   8.765   9.550
    6        0.545   0.241   8.766   9.552
    7        0.545   0.241   8.766   9.552
    8        0.545   0.241   8.766   9.552
    9        0.543   0.241   8.764   9.548
   10        0.519   0.309   8.773   9.601
   11        0.517   0.307   8.774   9.597
   12        0.519   0.309   8.773   9.601
   13        0.517   0.307   8.774   9.597
   14        0.517   0.307   8.774   9.597
   15        0.516   0.307   8.778   9.601
   16        0.519   0.309   8.773   9.601
   17        0.516   0.307   8.778   9.601
   18        0.516   0.307   8.778   9.601
   19        0.514   0.307   8.770   9.591
   20        0.532   0.314   8.763   9.610
   21        0.532   0.314   8.763   9.610
   22        0.515   0.303   8.776   9.594
   23        0.532   0.314   8.763   9.610
   24        0.515   0.303   8.776   9.594
   25        0.514   0.307   8.770   9.591
   26        0.514   0.307   8.770   9.591
   27        0.515   0.303   8.776   9.594
   28        0.546   0.230   8.772   9.548
   29        0.529   0.230   8.777   9.536
   30        0.529   0.230   8.777   9.536
   31        0.529   0.230   8.777   9.536
   32        0.529   0.230   8.777   9.536
   33        0.529   0.230   8.777   9.536
   34        0.529   0.230   8.777   9.536
   35        0.543   0.234   8.765   9.542
   36        0.473   0.534   8.397   9.404
   37        1.605   3.146   0.000   4.751
tot         20.576  13.229 315.397 349.201

 BZINTS: Fermi energy:    0.573943;  401.000000 electrons
         Band energy:-0.126345E+04;  BLOECHL correction:   -0.055509