 vasp.6.2.0 18Jan21 (build Jun 12 2021 23:27:24) complex

 executed on             LinuxIFC date 2022.05.28  01:03:53

 INCAR:
   ISMEAR = -5
   SIGMA = 0.1
   ISPIN = 1
   EDIFF = 1.d-5
   EDIFFG = -0.01
   NSW = 0
   NELM = 150
   ENCUT = 500
   ISIF = 2
   IBRION = 2
   LREAL = Auto
   ALGO = Fast
   ICHARG = 11
   LORBIT = 10
   LCHARG = .F.
   LWAVE = .F.

 POTCAR:    PAW_PBE Au 04Oct2007
 POTCAR:    PAW_PBE Pd 04Jan2005
 POTCAR:    PAW_PBE C 08Apr2002
 POTCAR:    PAW_PBE O 08Apr2002
|           W    W    AA    RRRRR   N    N  II  N    N   GGGG   !!!           |
|           W    W   A  A   R    R  NN   N  II  NN   N  G    G  !!!           |
|           W    W  A    A  R    R  N N  N  II  N N  N  G       !!!           |
|           W WW W  AAAAAA  RRRRR   N  N N  II  N  N N  G  GGG   !            |
|           WW  WW  A    A  R   R   N   NN  II  N   NN  G    G                |
|           W    W  A    A  R    R  N    N  II  N    N   GGGG   !!!           |
|     For optimal performance we recommend to set                             |
|       NCORE = 2 up to number-of-cores-per-socket                            |
|     This setting can greatly improve the performance of VASP for DFT.       |
|     The default, NCORE=1 might be grossly inefficient on modern             |
|     multi-core architectures or massively parallel machines. Do your        |
|     Unfortunately you need to use the default for GW and RPA                |
|     calculations (for HF NCORE is supported but not extensively tested      |
|     yet).                                                                   |

 POTCAR:    PAW_PBE Au 04Oct2007
   VRHFIN =Au: s1d10

   TITEL  = PAW_PBE Au 04Oct2007
   POMASS =  196.966; ZVAL   =   11.000    mass and valenz
   ENMAX  =  229.943; ENMIN  =  172.457 eV

 POTCAR:    PAW_PBE Pd 04Jan2005
   VRHFIN =Pd : s1 d9

   TITEL  = PAW_PBE Pd 04Jan2005
   POMASS =  106.420; ZVAL   =   10.000    mass and valenz
   ENMAX  =  250.925; ENMIN  =  188.194 eV

 POTCAR:    PAW_PBE C 08Apr2002
   VRHFIN =C: s2p2

   TITEL  = PAW_PBE C 08Apr2002
   POMASS =   12.011; ZVAL   =    4.000    mass and valenz
   ENMAX  =  400.000; ENMIN  =  300.000 eV

 POTCAR:    PAW_PBE O 08Apr2002
   VRHFIN =O: s2p4

   TITEL  = PAW_PBE O 08Apr2002
   POMASS =   16.000; ZVAL   =    6.000    mass and valenz
   ENMAX  =  400.000; ENMIN  =  300.000 eV

 Optimization of the real space projectors (new method)

 maximal supplied QI-value         = 15.12
 optimisation between [QCUT,QGAM] = [ 11.34, 22.83] = [ 36.00,145.93] Ry
 Optimized for a Real-space Cutoff    1.39 Angstroem

   l    n(q)    QCUT    max X(q) W(low)/X(q) W(high)/X(q)  e(spline)
   2      9    11.338    60.898    0.39E-03    0.42E-03    0.21E-06
   2      9    11.338    58.894    0.40E-03    0.42E-03    0.22E-06
   0      9    11.338   109.617    0.13E-03    0.20E-04    0.13E-06
   0      9    11.338    75.026    0.13E-03    0.20E-04    0.13E-06
   1      9    11.338    16.344    0.33E-04    0.24E-03    0.18E-06
   1      9    11.338    10.160    0.26E-04    0.19E-03    0.15E-06
 Optimization of the real space projectors (new method)

[...]

   l    n(q)    QCUT    max X(q) W(low)/X(q) W(high)/X(q)  e(spline)
   0      7    11.310   115.676    0.43E-03    0.13E-02    0.19E-06
   0      7    11.310    87.132    0.43E-03    0.13E-02    0.18E-06
   1      6    11.310     4.429    0.42E-03    0.74E-03    0.11E-06
   1      6    11.310     2.733    0.34E-03    0.55E-03    0.92E-07
 Optimization of the real space projectors (new method)

 maximal supplied QI-value         = 24.76
 optimisation between [QCUT,QGAM] = [ 11.39, 22.77] = [ 36.31,145.25] Ry
 Optimized for a Real-space Cutoff    1.00 Angstroem

   l    n(q)    QCUT    max X(q) W(low)/X(q) W(high)/X(q)  e(spline)
   0      7    11.387    20.381    0.39E-03    0.13E-02    0.15E-06
   0      7    11.387    15.268    0.42E-03    0.14E-02    0.17E-06
   1      6    11.387     5.964    0.41E-03    0.11E-02    0.17E-06
   1      6    11.387     5.382    0.39E-03    0.87E-03    0.15E-06
  PAW_PBE Au 04Oct2007                  :
  PAW_PBE Pd 04Jan2005                  :
  PAW_PBE C 08Apr2002                   :
  PAW_PBE O 08Apr2002                   :

 POSCAR: Au-Pd-CO2
  positions in direct lattice
  velocities in cartesian coordinates
 exchange correlation table for  LEXCH =        8
   RHO(1)=    0.500       N(1)  =     2000
   RHO(2)=  100.500       N(2)  =     4000

 VTST: version 3.2, (02/03/18)

 CHAIN: initializing optimizer

 OPT: Using VASP Conjugate-Gradient optimizer
 CHAIN: Read ICHAIN            0

 POSCAR: Au-Pd-CO2
  positions in direct lattice
  velocities in cartesian coordinates

 ion  position               nearest neighbor table
   1  0.000  0.000  0.217-  16 2.94  12 2.94   6 2.94   8 2.94   7 2.94   3 2.94  10 2.94   4 2.94
                             2 2.94
   2  0.333  0.000  0.217-   9 2.94  11 2.94  17 2.94  10 2.94   8 2.94   4 2.94   5 2.94   1 2.94
                             3 2.94
   3  0.667  0.000  0.217-   7 2.94  18 2.94  12 2.94   1 2.94  11 2.94   5 2.94   6 2.94   9 2.94
                             2 2.94
   4  0.000  0.333  0.217-  10 2.94   6 2.94   5 2.94  13 2.94   2 2.94  15 2.94   9 2.94   1 2.94
                             7 2.94
   5  0.333  0.333  0.217-  13 2.94   7 2.94  11 2.94   4 2.94   2 2.94  14 2.94   3 2.94   8 2.94
                             6 2.94
   6  0.667  0.333  0.217-  15 2.94  14 2.94   1 2.94  12 2.94   4 2.94   9 2.94   8 2.94   3 2.94
                             5 2.94
   7  0.000  0.667  0.217-  18 2.94   3 2.94  16 2.94   5 2.94   1 2.94  13 2.94   8 2.94   4 2.94
                             9 2.94
   8  0.333  0.667  0.217-   9 2.94  17 2.94   1 2.94   2 2.94  14 2.94  16 2.94   6 2.94   7 2.94
                             5 2.94
   9  0.667  0.667  0.217-   2 2.94   8 2.94  17 2.94   6 2.94  15 2.94   4 2.94   3 2.94  18 2.94
                             7 2.94
  10  0.111  0.111  0.315-  26 2.92  19 2.92  20 2.93  11 2.94  17 2.94   2 2.94   4 2.94   1 2.94
                            12 2.94  16 2.94  13 2.94  15 2.94
  11  0.444  0.111  0.315-  27 2.93  20 2.93  21 2.93  13 2.94   2 2.94  10 2.94  17 2.94   5 2.94
                             3 2.94  18 2.94  14 2.94  12 2.94
  12  0.778  0.111  0.315-  25 2.92  19 2.92  21 2.93  16 2.94  18 2.94   1 2.94  14 2.94  15 2.94
                             3 2.94   6 2.94  10 2.94  11 2.94
  13  0.111  0.444  0.315-  22 2.93  23 2.93  20 2.93   5 2.94  18 2.94  11 2.94   7 2.94   4 2.94
                            16 2.94  10 2.94  14 2.94  15 2.94
  14  0.444  0.444  0.315-  24 2.93  21 2.93  23 2.93  15 2.94   6 2.94  12 2.94   8 2.94  17 2.94
                             5 2.94  16 2.94  13 2.94  11 2.94
  15  0.778  0.444  0.315-  19 2.93  24 2.93  22 2.93  14 2.94   6 2.94  17 2.94  12 2.94   9 2.94
                             4 2.94  10 2.94  13 2.94  18 2.94
  16  0.111  0.778  0.315-  25 2.92  26 2.92  23 2.93  18 2.94  12 2.94   7 2.94   1 2.94   8 2.94
                            13 2.94  10 2.94  14 2.94  17 2.94
  17  0.444  0.778  0.315-  26 2.93  27 2.93  24 2.93   9 2.94  15 2.94   2 2.94  10 2.94  11 2.94
                             8 2.94  14 2.94  16 2.94  18 2.94
  18  0.778  0.778  0.315-  25 2.93  22 2.93  27 2.93  16 2.94   7 2.94  13 2.94  12 2.94   3 2.94
                            11 2.94   9 2.94  15 2.94  17 2.94
  19  0.889  0.222  0.413-  10 2.92  12 2.92  15 2.93  26 2.93  25 2.93  21 2.94  20 2.94  24 2.94
                            22 2.94  28 2.96  32 2.97  31 2.97
  20  0.222  0.222  0.413-  36 2.83  10 2.93  11 2.93  13 2.93  26 2.94  19 2.94  27 2.94  22 2.94
                            23 2.94  21 2.94  29 2.95  31 2.95
  21  0.556  0.222  0.413-  36 2.83  12 2.93  14 2.93  11 2.93  25 2.94  19 2.94  24 2.94  27 2.94
                            20 2.94  23 2.94  30 2.95  32 2.95
  22  0.889  0.556  0.413-  18 2.93  15 2.93  13 2.93  24 2.94  27 2.94  23 2.94  20 2.94  25 2.94
                            19 2.94  33 2.96  31 2.96  35 2.96
  23  0.222  0.556  0.413-  36 2.83  16 2.93  13 2.93  14 2.93  25 2.94  26 2.94  22 2.94  24 2.94
                            20 2.94  21 2.94  33 2.95  34 2.95
  24  0.556  0.556  0.413-  15 2.93  17 2.93  14 2.93  27 2.94  22 2.94  21 2.94  23 2.94  26 2.94
                            19 2.94  32 2.96  34 2.96  35 2.96
  25  0.889  0.889  0.413-  16 2.92  12 2.92  18 2.93  19 2.93  26 2.93  23 2.94  21 2.94  22 2.94
                            27 2.94  28 2.96  33 2.97  30 2.97
  26  0.222  0.889  0.413-  10 2.92  16 2.92  17 2.93  19 2.93  25 2.93  20 2.94  23 2.94  27 2.94
                            24 2.94  28 2.96  29 2.97  34 2.97
  27  0.556  0.889  0.413-  17 2.93  18 2.93  11 2.93  24 2.94  22 2.94  20 2.94  21 2.94  26 2.94
                            25 2.94  29 2.96  30 2.96  35 2.96
  28  0.000  0.000  0.513-  34 2.94  32 2.94  33 2.94  30 2.94  31 2.94  29 2.94  25 2.96  19 2.96
                            26 2.96
  29  0.333  0.001  0.513-  30 2.93  31 2.93  36 2.93  35 2.94  28 2.94  20 2.95  34 2.95  27 2.96
                            26 2.97
  30  0.666  0.001  0.513-  29 2.93  32 2.93  36 2.93  35 2.94  28 2.94  21 2.95  33 2.95  27 2.96
                            25 2.97
  31  0.001  0.333  0.513-  33 2.93  29 2.93  36 2.93  35 2.94  28 2.94  20 2.95  32 2.95  22 2.96
                            19 2.97
  32  0.666  0.333  0.513-  34 2.93  30 2.93  36 2.93  35 2.94  28 2.94  21 2.95  31 2.95  24 2.96
                            19 2.97
  33  0.001  0.666  0.513-  31 2.93  34 2.93  36 2.93  35 2.94  28 2.94  23 2.95  30 2.95  22 2.96
                            25 2.97
  34  0.333  0.666  0.513-  32 2.93  33 2.93  36 2.93  35 2.94  28 2.94  23 2.95  29 2.95  24 2.96
                            26 2.97
  35  0.667  0.667  0.513-  29 2.94  34 2.94  32 2.94  31 2.94  30 2.94  33 2.94  24 2.96  27 2.96
                            22 2.96
  36  0.333  0.333  0.506-  20 2.83  23 2.83  21 2.83  33 2.93  31 2.93  29 2.93  30 2.93  34 2.93
                            32 2.93
  37  0.329  0.338  0.661-  38 1.18  39 1.18
  38  0.207  0.317  0.662-  37 1.18
  39  0.451  0.358  0.661-  37 1.18

  LATTYP: Found a hexagonal cell.
 ALAT       =     8.8135128021
 C/A-ratio  =     2.7649717827

  Lattice vectors:

 A1 = (  -4.4067569092,  -7.6327256898,   0.0000000000)
 A2 = (   8.8135128021,   0.0000000000,   0.0000000000)
 A3 = (   0.0000000000,   0.0000000000,  24.3691142040)

Analysis of symmetry for initial positions (statically):
 Subroutine PRICEL returns:
 Original cell was already a primitive cell.

 Routine SETGRP: Setting up the symmetry group for a
 hexagonal supercell.

 Subroutine GETGRP returns: Found  1 space group operations
 (whereof  1 operations were pure point group operations)
 out of a pool of 24 trial point group operations.

The static configuration has the point symmetry C_1 .

Analysis of symmetry for dynamics (positions and initial velocities):
 Subroutine PRICEL returns:
 Original cell was already a primitive cell.

[...]

The dynamic configuration has the point symmetry C_1 .

Analysis of constrained symmetry for selective dynamics:
 Subroutine PRICEL returns:
[...]
     41      -4.9402      2.00000
     42      -4.9248      2.00000
     43      -4.9024      2.00000
     44      -4.8698      2.00000
     45      -4.8207      2.00000
     46      -4.7524      2.00000
     47      -4.7219      2.00000
     48      -4.6762      2.00000
     49      -4.6526      2.00000
     50      -4.6456      2.00000
     51      -4.6282      2.00000
     52      -4.5393      2.00000
     53      -4.4992      2.00000
     54      -4.4793      2.00000
     55      -4.4752      2.00000
     56      -4.4605      2.00000
     57      -4.4473      2.00000
     58      -4.4383      2.00000
     59      -4.4006      2.00000
     60      -4.3594      2.00000
[...]
    238       5.0717      0.00000
    239       5.3614      0.00000
    240       5.4228      0.00000
    241       5.5689      0.00000
    242       5.7669      0.00000
    243       5.8492      0.00000
    244       5.9407      0.00000
    245       6.0759      0.00000
    246       6.1015      0.00000
    247       6.1131      0.00000
    248       6.2241      0.00000
    249       6.4061      0.00000
    250       6.4688      0.00000
    251       6.4973      0.00000
    252       6.5749      0.00000

 soft charge-density along one line, spin component           1
         0         1         2         3         4         5         6         7         8         9
 total charge-density along one line

------------------------ aborting loop because EDIFF is reached ----------------------------------------

 total charge

# of ion       s       p       d       tot
    1        0.543   0.241   8.766   9.550
    2        0.545   0.240   8.765   9.550
    3        0.545   0.240   8.765   9.551
    4        0.545   0.240   8.765   9.550
    5        0.540   0.241   8.765   9.546
    6        0.545   0.240   8.765   9.550
    7        0.545   0.240   8.765   9.551
    8        0.545   0.240   8.765   9.550
    9        0.545   0.240   8.765   9.550
   10        0.518   0.308   8.770   9.596
   11        0.520   0.305   8.775   9.600
   12        0.518   0.308   8.770   9.596
   13        0.520   0.305   8.776   9.600
   14        0.520   0.305   8.776   9.600
   15        0.517   0.306   8.775   9.598
   16        0.518   0.308   8.770   9.596
   17        0.517   0.306   8.775   9.598
   18        0.517   0.306   8.775   9.597
   19        0.517   0.302   8.776   9.595
   20        0.524   0.310   8.767   9.601
   21        0.524   0.310   8.767   9.601
   22        0.513   0.304   8.771   9.588
   23        0.524   0.310   8.767   9.600
   24        0.513   0.304   8.771   9.588
   25        0.517   0.302   8.775   9.595
   26        0.517   0.302   8.775   9.595
   27        0.513   0.304   8.771   9.588
   28        0.541   0.233   8.766   9.540
   29        0.548   0.232   8.764   9.543
   30        0.548   0.232   8.764   9.544
   31        0.546   0.231   8.765   9.542
   32        0.546   0.231   8.765   9.542
   33        0.548   0.232   8.764   9.544
   34        0.548   0.232   8.764   9.543
   35        0.541   0.234   8.766   9.540
   36        0.362   0.272   8.569   9.203
   37        0.932   1.799   0.000   2.732
   38        1.607   3.529   0.000   5.136
   39        1.607   3.529   0.000   5.136
tot         23.098  18.653 315.472 357.223

  FORCE on cell =-STRESS in cart. coord.  units (eV):
  Direction    XX          YY          ZZ          XY          YZ          ZX
  Alpha Z   962.27878   962.27878   962.27878
  Ewald  146461.76890145692.64910************   105.41087    -1.77137    -7.93652
  Hartree155028.67418154663.60120************    49.10861    -1.05563    -3.58063
  E(xc)   -1852.99705 -1855.03589 -1862.42692     0.28479    -0.00351    -0.02196
  Local  ************************312874.79478  -144.81726     2.72156    10.76763
  n-local  -122.40681  -116.53552   -93.05897    -0.83290     0.03966     0.05469
  augment  2451.74181  2454.36202  2470.41221    -0.36648     0.00466     0.02854
  Kinetic  5762.23961  5825.26559  5880.86977    -8.79857     0.09398     0.68193
  Fock        0.00000     0.00000     0.00000     0.00000     0.00000     0.00000
  Total     -21.49633   -21.45792     0.04498    -0.01094     0.02934    -0.00632
  in kB     -21.00905   -20.97151     0.04396    -0.01070     0.02868    -0.00617

 VOLUME and BASIS-vectors are now :
  energy-cutoff  :      500.00
  volume of cell :     1639.34
      direct lattice vectors                 reciprocal lattice vectors
     8.813512802  0.000000000  0.000000000     0.113462137 -0.065507406  0.000000000
     4.406756909  7.632725690  0.000000000     0.000000000  0.131014796  0.000000000
     0.000000000  0.000000000 24.369114204     0.000000000  0.000000000  0.041035550

  length of vectors
     8.813512802  8.813512802 24.369114204     0.131014796  0.131014796  0.041035550

 FORCES acting on ions
    electron-ion (+dipol)            ewald-force                    non-local-force                 convergence-correction
   0.622E-02 0.153E-01 0.267E+04   -.407E-02 -.131E-01 -.267E+04   -.586E-03 -.218E-02 -.574E+00   -.180E-02 -.711E-03 0.803E-01
   -.123E+00 0.184E+00 0.267E+04   0.885E-01 -.116E+00 -.267E+04   0.802E-02 -.242E-01 -.334E+00   0.229E-01 -.437E-01 0.380E-01
   0.118E+00 0.180E+00 0.267E+04   -.845E-01 -.117E+00 -.267E+04   -.787E-02 -.245E-01 -.333E+00   -.213E-01 -.370E-01 0.420E-01
   0.865E-01 -.188E+00 0.267E+04   -.467E-01 0.126E+00 -.267E+04   -.150E-01 0.186E-01 -.339E+00   -.262E-01 0.395E-01 0.371E-01
   -.124E-01 -.476E-02 0.267E+04   0.712E-03 -.264E-02 -.267E+04   0.371E-03 0.698E-03 -.403E+00   0.114E-01 0.642E-02 -.125E-01
   -.795E-01 -.187E+00 0.267E+04   0.460E-01 0.122E+00 -.267E+04   0.150E-01 0.193E-01 -.338E+00   0.200E-01 0.426E-01 0.418E-01
   0.206E+00 0.298E-02 0.267E+04   -.135E+00 -.603E-02 -.267E+04   -.254E-01 0.562E-02 -.333E+00   -.430E-01 0.103E-02 0.416E-01
   -.208E+00 0.106E-01 0.267E+04   0.131E+00 -.872E-02 -.267E+04   0.253E-01 0.541E-02 -.334E+00   0.487E-01 -.362E-02 0.416E-01
   0.508E-02 -.168E-01 0.267E+04   0.367E-02 0.158E-01 -.267E+04   0.908E-03 0.326E-02 -.392E+00   -.980E-02 -.199E-02 0.658E-01
   -.308E+00 -.798E-01 0.954E+03   0.531E+00 0.213E+00 -.953E+03   -.759E-01 -.432E-01 -.548E+00   -.929E-01 -.583E-01 0.386E-01
   -.358E-01 0.100E+01 0.953E+03   0.213E-01 -.993E+00 -.953E+03   0.101E-02 0.566E-02 -.436E+00   0.137E-01 -.253E-01 0.426E-01
   0.338E+00 -.554E-01 0.954E+03   -.552E+00 0.193E+00 -.953E+03   0.759E-01 -.441E-01 -.548E+00   0.850E-01 -.622E-01 0.382E-01
   0.762E+00 -.532E+00 0.953E+03   -.766E+00 0.513E+00 -.953E+03   0.497E-02 0.163E-03 -.437E+00   -.102E-01 0.252E-01 0.452E-01
   -.769E+00 -.493E+00 0.953E+03   0.759E+00 0.484E+00 -.953E+03   -.357E-02 -.449E-03 -.437E+00   0.235E-01 0.157E-01 0.348E-01
   -.254E-02 -.116E+01 0.952E+03   0.726E-02 0.112E+01 -.952E+03   -.773E-03 0.218E-01 -.420E+00   -.426E-02 0.314E-01 0.941E-01
   0.352E-01 0.317E+00 0.954E+03   -.273E-01 -.573E+00 -.953E+03   -.681E-04 0.877E-01 -.545E+00   -.762E-02 0.106E+00 0.421E-01
   -.975E+00 0.505E+00 0.952E+03   0.932E+00 -.480E+00 -.952E+03   0.211E-01 -.134E-01 -.410E+00   0.266E-01 -.153E-01 0.957E-01
   0.942E+00 0.492E+00 0.952E+03   -.904E+00 -.472E+00 -.951E+03   -.228E-01 -.144E-01 -.407E+00   -.200E-01 -.892E-02 0.105E+00
   0.970E-01 -.121E+01 -.786E+03   -.974E-01 0.107E+01 0.785E+03   0.794E-04 0.693E-01 0.574E+00   0.545E-03 0.798E-01 -.591E-02
   0.817E+01 0.528E+01 -.777E+03   -.785E+01 -.510E+01 0.777E+03   -.320E+00 -.182E+00 -.222E+00   -.923E-02 -.714E-02 0.838E-01
   -.825E+01 0.550E+01 -.777E+03   0.795E+01 -.530E+01 0.778E+03   0.320E+00 -.182E+00 -.222E+00   -.150E-02 -.209E-01 0.826E-01
   0.387E+01 -.310E+01 -.787E+03   -.398E+01 0.314E+01 0.787E+03   0.127E+00 -.813E-01 0.536E+00   -.311E-01 0.461E-01 0.353E-01
   0.145E+00 -.103E+02 -.778E+03   -.127E+00 0.993E+01 0.778E+03   0.327E-03 0.366E+00 -.219E+00   -.180E-01 0.164E-01 0.847E-01
   -.402E+01 -.293E+01 -.787E+03   0.410E+01 0.298E+01 0.787E+03   -.128E+00 -.807E-01 0.536E+00   0.535E-01 0.384E-01 0.362E-01
   0.163E+01 0.106E+01 -.787E+03   -.151E+01 -.984E+00 0.787E+03   -.503E-01 -.277E-01 0.555E+00   -.803E-01 -.532E-01 -.779E-02
   -.143E+01 0.105E+01 -.787E+03   0.131E+01 -.980E+00 0.786E+03   0.532E-01 -.300E-01 0.560E+00   0.699E-01 -.460E-01 -.525E-02
   -.213E+00 0.464E+01 -.788E+03   0.199E+00 -.475E+01 0.788E+03   -.182E-02 0.149E+00 0.534E+00   0.161E-01 -.542E-01 0.320E-01
   0.125E+01 0.396E+01 -.251E+04   -.124E+01 -.395E+01 0.251E+04   -.455E-03 -.294E-02 0.472E+00   -.365E-02 -.823E-02 0.166E+00
   0.797E+01 0.198E+02 -.250E+04   -.770E+01 -.194E+02 0.250E+04   -.239E+00 -.333E+00 0.383E+00   -.151E-01 -.852E-01 0.785E-01
   -.921E+01 0.195E+02 -.250E+04   0.893E+01 -.191E+02 0.250E+04   0.240E+00 -.339E+00 0.354E+00   0.184E-01 -.841E-01 0.755E-01
   0.203E+02 0.277E+00 -.249E+04   -.198E+02 -.267E+00 0.249E+04   -.385E+00 -.360E-01 0.476E+00   -.748E-01 0.299E-01 0.765E-01
   -.201E+02 0.246E+01 -.249E+04   0.197E+02 -.246E+01 0.249E+04   0.382E+00 -.302E-01 0.479E+00   0.724E-01 0.286E-01 0.788E-01
   0.827E+01 -.212E+02 -.250E+04   -.802E+01 0.208E+02 0.250E+04   -.183E+00 0.373E+00 0.351E+00   -.590E-01 0.567E-01 0.739E-01
   -.723E+01 -.213E+02 -.250E+04   0.697E+01 0.208E+02 0.249E+04   0.181E+00 0.363E+00 0.388E+00   0.590E-01 0.530E-01 0.796E-01
   -.107E+01 -.466E+01 -.252E+04   0.107E+01 0.466E+01 0.251E+04   0.962E-03 0.321E-02 0.461E+00   -.527E-02 0.383E-03 0.578E-01
   -.112E+00 0.905E+00 -.217E+04   0.103E+00 -.911E+00 0.216E+04   0.219E-02 -.178E-03 0.206E+01   0.778E-02 0.792E-02 0.104E+00
   -.904E-01 0.151E+00 -.857E+03   0.973E-01 -.149E+00 0.857E+03   -.919E-02 -.460E-02 -.148E-01   -.405E-05 -.111E-03 -.118E-01
   0.260E+03 0.358E+02 -.129E+04   -.324E+03 -.445E+02 0.129E+04   0.632E+02 0.863E+01 -.576E+00   0.304E-02 0.307E-02 -.213E-01
   -.260E+03 -.357E+02 -.129E+04   0.324E+03 0.444E+02 0.129E+04   -.631E+02 -.866E+01 0.764E+00   0.174E-02 -.334E-02 -.482E-02
   -.342E-01 0.222E-01 -.265E+01   0.000E+00 0.128E-12 -.909E-12   0.204E-01 -.333E-01 0.662E+00   0.191E-01 0.884E-02 0.200E+01

 POSITION                                       TOTAL-FORCE (eV/Angst)
      0.00000      0.00000      5.28038        -0.000374     -0.000649     -0.044365
      2.93784      0.00000      5.28038        -0.004014      0.000700     -0.067052
      5.87568      0.00000      5.28038         0.003880      0.000807     -0.067140
      1.46892      2.54424      5.28038        -0.001535     -0.003791     -0.067513
      4.40676      2.54424      5.28038        -0.000037     -0.000232     -0.074022
      7.34459      2.54424      5.28038         0.001386     -0.003879     -0.067668
      2.93784      5.08848      5.28038         0.002669      0.003659     -0.067692
      5.87568      5.08848      5.28038        -0.002873      0.003784     -0.067710
      8.81351      5.08848      5.28038        -0.000269      0.000325     -0.063960
      1.46892      0.84808      7.67911         0.053505      0.031451      0.050978
      4.40676      0.84808      7.67911         0.000101     -0.010160      0.056950
      7.34459      0.84808      7.67911        -0.053735      0.031576      0.050824
      2.93784      3.39232      7.67911        -0.009575      0.005987      0.056144
      5.87568      3.39232      7.67911         0.010079      0.006076      0.055874
      8.81351      3.39232      7.67911        -0.000440      0.005207      0.071966
      4.40676      5.93656      7.67911         0.000054     -0.062518      0.050932
      7.34459      5.93656      7.67911         0.004347     -0.003657      0.072759
     10.28243      5.93656      7.67911        -0.005112     -0.003784      0.072936
      8.81351      1.69299     10.06281         0.000119      0.009171      0.038731
      2.93673      1.69552     10.07074        -0.011493     -0.006910     -0.000945
      5.87678      1.69552     10.07074         0.010724     -0.006907     -0.001130
     10.28200      4.24065     10.07064        -0.012247      0.007565      0.003547
      4.40676      4.24168     10.07074        -0.000348      0.011560     -0.000938
      7.34503      4.24065     10.07064         0.012072      0.007292      0.004833
     11.75410      6.78623     10.06281        -0.008765     -0.003708      0.032596
      5.87293      6.78623     10.06281         0.008654     -0.003649      0.034154
      8.81351      6.78414     10.07064         0.000114     -0.014503      0.000592
      0.00000      0.00000     12.49359        -0.000446     -0.000689      0.005330
      2.94266      0.00661     12.49157         0.020826      0.025049     -0.003129
      5.87086      0.00661     12.49157        -0.020804      0.026046     -0.002549
      1.47706      2.54511     12.49157         0.030564      0.004488     -0.004586
      7.33646      2.54511     12.49157        -0.030610      0.003045     -0.005426
      2.94116      5.08100     12.49157         0.015590     -0.029846     -0.001958
      5.87236      5.08100     12.49157        -0.015855     -0.028743     -0.003206
      8.81351      5.08848     12.49778        -0.000169      0.000818     -0.025879
      4.40676      2.54424     12.34091         0.000387      0.001748     -0.014276
      4.38974      2.57607     16.11827        -0.002464     -0.003368     -0.005776
      3.22383      2.41674     16.13001         0.005332      0.000716     -0.002920
      5.55569      2.73593     16.10519         0.000761     -0.000077      0.000693
    total drift:                                0.005296     -0.002270      0.017154

  FREE ENERGIE OF THE ION-ELECTRON SYSTEM (eV)
  free  energy   TOTEN  =      -134.91166852 eV

  energy  without entropy=     -134.91166852  energy(sigma->0) =     -134.91166852

 stress matrix after NEB project (eV)
    -21.49633     -0.01094     -0.00632
     -0.01094    -21.45792      0.02934
     -0.00632      0.02934      0.04498
  FORCES: max atom, RMS     0.007126    0.001513
  FORCE total and by dimension    0.009450    0.005776
  Stress total and by dimension   30.373318   21.496326
|           W    W    AA    RRRRR   N    N  II  N    N   GGGG   !!!           |
|           W    W   A  A   R    R  NN   N  II  NN   N  G    G  !!!           |
|           W    W  A    A  R    R  N N  N  II  N N  N  G       !!!           |
|           W WW W  AAAAAA  RRRRR   N  N N  II  N  N N  G  GGG   !            |
|           WW  WW  A    A  R   R   N   NN  II  N   NN  G    G                |
|           W    W  A    A  R    R  N    N  II  N    N   GGGG   !!!           |
|     Tetrahedron method does not include variations of the Fermi             |
|     occupations, so forces and stress will be inaccurate. We suggest        |
|     using a different smearing scheme ISMEAR = 1 or 2 for metals in         |
|     relaxations.                                                            |

 total charge

# of ion       s       p       d       tot
    1        0.543   0.241   8.766   9.550
    2        0.545   0.240   8.765   9.550
    3        0.545   0.240   8.765   9.551
    4        0.545   0.240   8.765   9.550
    5        0.540   0.241   8.765   9.546
    6        0.545   0.240   8.765   9.550
    7        0.545   0.240   8.765   9.551
    8        0.545   0.240   8.765   9.550
    9        0.545   0.240   8.765   9.550
   10        0.518   0.308   8.770   9.596
   11        0.520   0.305   8.775   9.600
   12        0.518   0.308   8.770   9.596
   13        0.520   0.305   8.776   9.600
   14        0.520   0.305   8.776   9.600
   15        0.517   0.306   8.775   9.598
   16        0.518   0.308   8.770   9.596
   17        0.517   0.306   8.775   9.598
   18        0.517   0.306   8.775   9.597
   19        0.517   0.302   8.776   9.595
   20        0.524   0.310   8.767   9.601
   21        0.524   0.310   8.767   9.601
   22        0.513   0.304   8.771   9.588
   23        0.524   0.310   8.767   9.600
   24        0.513   0.304   8.771   9.588
   25        0.517   0.302   8.775   9.595
   26        0.517   0.302   8.775   9.595
   27        0.513   0.304   8.771   9.588
   28        0.541   0.233   8.766   9.540
   29        0.548   0.232   8.764   9.543
   30        0.548   0.232   8.764   9.544
   31        0.546   0.231   8.765   9.542
   32        0.546   0.231   8.765   9.542
   33        0.548   0.232   8.764   9.544
   34        0.548   0.232   8.764   9.543
   35        0.541   0.234   8.766   9.540
   36        0.362   0.272   8.569   9.203
   37        0.932   1.799   0.000   2.732
   38        1.607   3.529   0.000   5.136
   39        1.607   3.529   0.000   5.136
tot         23.098  18.653 315.472 357.223

 BZINTS: Fermi energy:    0.275488;  411.000000 electrons
         Band energy:-0.148841E+04;  BLOECHL correction:   -0.116427