 vasp.6.2.0 18Jan21 (build Jun 12 2021 23:27:24) complex

 executed on             LinuxIFC date 2022.05.30  18:08:14

 INCAR:
   ISMEAR = -5
   SIGMA = 0.1
   ISPIN = 1
   EDIFF = 1.d-5
   EDIFFG = -0.01
   NSW = 0
   NELM = 150
   ENCUT = 500
   ISIF = 2
   IBRION = 2
   LREAL = Auto
   ALGO = Fast
   ICHARG = 11
   LORBIT = 10
   LCHARG = .F.
   LWAVE = .F.

 POTCAR:    PAW_PBE Cu 22Jun2005
 POTCAR:    PAW_PBE Ni 02Aug2007
 POTCAR:    PAW_PBE O 08Apr2002
|           W    W    AA    RRRRR   N    N  II  N    N   GGGG   !!!           |
|           W    W   A  A   R    R  NN   N  II  NN   N  G    G  !!!           |
|           W    W  A    A  R    R  N N  N  II  N N  N  G       !!!           |
|           W WW W  AAAAAA  RRRRR   N  N N  II  N  N N  G  GGG   !            |
|           WW  WW  A    A  R   R   N   NN  II  N   NN  G    G                |
|           W    W  A    A  R    R  N    N  II  N    N   GGGG   !!!           |
|     For optimal performance we recommend to set                             |
|       NCORE = 2 up to number-of-cores-per-socket                            |
|     This setting can greatly improve the performance of VASP for DFT.       |
|     The default, NCORE=1 might be grossly inefficient on modern             |
|     multi-core architectures or massively parallel machines. Do your        |
|     Unfortunately you need to use the default for GW and RPA                |
|     calculations (for HF NCORE is supported but not extensively tested      |
|     yet).                                                                   |

 POTCAR:    PAW_PBE Cu 22Jun2005
   VRHFIN =Cu: d10 p1

   TITEL  = PAW_PBE Cu 22Jun2005
   POMASS =   63.546; ZVAL   =   11.000    mass and valenz
   ENMAX  =  295.446; ENMIN  =  221.585 eV

 POTCAR:    PAW_PBE Ni 02Aug2007
   VRHFIN =Ni:

   TITEL  = PAW_PBE Ni 02Aug2007
   POMASS =   58.690; ZVAL   =   10.000    mass and valenz
   ENMAX  =  269.532; ENMIN  =  202.149 eV

 POTCAR:    PAW_PBE O 08Apr2002
   VRHFIN =O: s2p4

   TITEL  = PAW_PBE O 08Apr2002
   POMASS =   16.000; ZVAL   =    6.000    mass and valenz
   ENMAX  =  400.000; ENMIN  =  300.000 eV

 Optimization of the real space projectors (new method)

 maximal supplied QI-value         = 16.25
 optimisation between [QCUT,QGAM] = [ 11.38, 22.75] = [ 36.24,144.96] Ry
 Optimized for a Real-space Cutoff    1.52 Angstroem

   l    n(q)    QCUT    max X(q) W(low)/X(q) W(high)/X(q)  e(spline)
   2      9    11.376     4.610    0.21E-03    0.10E-03    0.26E-06
   2      9    11.376     8.522    0.33E-03    0.16E-03    0.37E-06
   0     10    11.376    51.609    0.62E-04    0.20E-04    0.13E-06
   0     10    11.376    27.747    0.54E-04    0.20E-04    0.13E-06
   1     10    11.376    20.408    0.13E-04    0.99E-04    0.19E-06
   1     10    11.376    13.425    0.12E-04    0.87E-04    0.17E-06
 Optimization of the real space projectors (new method)

[...]

   l    n(q)    QCUT    max X(q) W(low)/X(q) W(high)/X(q)  e(spline)
   2      8    11.376    60.317    0.19E-03    0.33E-04    0.13E-06
   2      8    11.376    55.921    0.20E-03    0.34E-04    0.14E-06
   0      9    11.376    51.690    0.82E-04    0.12E-03    0.20E-06
   0      9    11.376    30.015    0.74E-04    0.11E-03    0.18E-06
   1      9    11.376    18.849    0.39E-03    0.12E-03    0.13E-06
   1      9    11.376    14.624    0.33E-03    0.10E-03    0.11E-06
 Optimization of the real space projectors (new method)

 maximal supplied QI-value         = 24.76
 optimisation between [QCUT,QGAM] = [ 11.39, 22.77] = [ 36.31,145.25] Ry
 Optimized for a Real-space Cutoff    1.00 Angstroem

   l    n(q)    QCUT    max X(q) W(low)/X(q) W(high)/X(q)  e(spline)
   0      7    11.387    20.381    0.39E-03    0.13E-02    0.15E-06
   0      7    11.387    15.268    0.42E-03    0.14E-02    0.17E-06
   1      6    11.387     5.964    0.41E-03    0.11E-02    0.17E-06
   1      6    11.387     5.382    0.39E-03    0.87E-03    0.15E-06
  PAW_PBE Cu 22Jun2005                  :
  PAW_PBE Ni 02Aug2007                  :
  PAW_PBE O 08Apr2002                   :

 POSCAR: Cu-Ni-O2
  positions in direct lattice
  velocities in cartesian coordinates
 exchange correlation table for  LEXCH =        8
   RHO(1)=    0.500       N(1)  =     2000
   RHO(2)=  100.500       N(2)  =     4000

 VTST: version 3.2, (02/03/18)

 CHAIN: initializing optimizer

 OPT: Using VASP Conjugate-Gradient optimizer
 CHAIN: Read ICHAIN            0

 POSCAR: Cu-Ni-O2
  positions in direct lattice
  velocities in cartesian coordinates

 ion  position               nearest neighbor table
   1  0.000  0.000  0.226-   7 2.57   3 2.57   4 2.57   2 2.57   6 2.57   8 2.57  12 2.57  10 2.57
                            16 2.57
   2  0.333  0.000  0.226-   8 2.57   9 2.57   5 2.57   1 2.57   3 2.57  11 2.57   4 2.57  10 2.57
                            17 2.57
   3  0.667  0.000  0.226-   1 2.57   7 2.57   6 2.57   9 2.57   2 2.57  12 2.57   5 2.57  18 2.57
                            11 2.57
   4  0.000  0.333  0.226-   5 2.57   6 2.57   1 2.57   7 2.57   2 2.57  13 2.57   9 2.57  10 2.57
                            15 2.57
   5  0.333  0.333  0.226-   4 2.57   2 2.57   7 2.57  13 2.57   8 2.57   6 2.57   3 2.57  11 2.57
                            14 2.57
   6  0.667  0.333  0.226-   4 2.57   9 2.57  15 2.57   3 2.57   1 2.57   8 2.57  14 2.57   5 2.57
                            12 2.57
   7  0.000  0.667  0.226-   1 2.57   3 2.57  16 2.57  18 2.57   4 2.57   5 2.57   8 2.57   9 2.57
                            13 2.57
   8  0.333  0.667  0.226-   9 2.57   2 2.57  17 2.57   6 2.57   1 2.57   7 2.57   5 2.57  14 2.57
                            16 2.57
   9  0.667  0.667  0.226-   8 2.57   6 2.57   2 2.57  17 2.57   3 2.57   7 2.57   4 2.57  15 2.57
                            18 2.57
  10  0.111  0.111  0.314-  20 2.55  26 2.56  19 2.56  11 2.57  12 2.57  13 2.57   1 2.57   2 2.57
                             4 2.57  15 2.57  16 2.57  17 2.57
  11  0.444  0.111  0.314-  20 2.55  21 2.55  27 2.56  10 2.57  13 2.57   2 2.57  17 2.57  14 2.57
                            12 2.57   5 2.57   3 2.57  18 2.57
  12  0.778  0.111  0.314-  21 2.55  19 2.56  25 2.56  15 2.57  10 2.57  14 2.57  18 2.57   3 2.57
                             1 2.57  16 2.57  11 2.57   6 2.57
  13  0.111  0.444  0.314-  23 2.55  20 2.55  22 2.56  16 2.57  18 2.57  10 2.57  11 2.57  14 2.57
                             5 2.57   4 2.57   7 2.57  15 2.57
  14  0.444  0.444  0.314-  21 2.55  23 2.55  24 2.56  15 2.57  17 2.57  12 2.57  16 2.57  13 2.57
                            11 2.57   6 2.57   8 2.57   5 2.57
  15  0.778  0.444  0.314-  24 2.55  22 2.55  19 2.56  14 2.57  17 2.57  12 2.57   6 2.57  18 2.57
                            10 2.57   9 2.57  13 2.57   4 2.57
  16  0.111  0.778  0.314-  23 2.55  25 2.56  26 2.56  18 2.57  13 2.57   7 2.57  14 2.57  17 2.57
                            12 2.57  10 2.57   8 2.57   1 2.57
  17  0.444  0.778  0.314-  27 2.55  24 2.55  26 2.56  14 2.57  15 2.57   8 2.57   9 2.57  11 2.57
                            16 2.57  18 2.57  10 2.57   2 2.57
  18  0.778  0.778  0.314-  22 2.55  27 2.55  25 2.56  16 2.57  13 2.57   7 2.57  15 2.57  12 2.57
                            17 2.57   9 2.57   3 2.57  11 2.57
  19  0.889  0.223  0.401-  28 2.54  32 2.55  31 2.55  15 2.56  12 2.56  10 2.56  22 2.56  24 2.56
                            21 2.57  20 2.57  25 2.57  26 2.57
  20  0.222  0.222  0.401-  36 2.48  29 2.54  31 2.54  10 2.55  11 2.55  13 2.55  26 2.57  19 2.57
                            27 2.57  22 2.57  23 2.57  21 2.57
  21  0.556  0.222  0.401-  36 2.48  32 2.54  30 2.54  12 2.55  14 2.55  11 2.55  19 2.57  25 2.57
                            24 2.57  27 2.57  20 2.57  23 2.57
  22  0.889  0.556  0.401-  35 2.54  31 2.55  33 2.55  18 2.55  15 2.55  13 2.56  19 2.56  25 2.56
                            24 2.57  27 2.57  23 2.57  20 2.57
  23  0.222  0.556  0.401-  36 2.48  33 2.54  34 2.54  16 2.55  13 2.55  14 2.55  25 2.57  26 2.57
                            22 2.57  24 2.57  20 2.57  21 2.57
  24  0.556  0.556  0.401-  35 2.54  32 2.55  34 2.55  15 2.55  17 2.55  14 2.56  19 2.56  26 2.56
                            22 2.57  27 2.57  21 2.57  23 2.57
  25  0.889  0.889  0.401-  28 2.54  33 2.55  30 2.55  18 2.56  16 2.56  12 2.56  22 2.56  27 2.56
                            21 2.57  23 2.57  19 2.57  26 2.57
  26  0.223  0.889  0.401-  28 2.54  29 2.55  34 2.55  17 2.56  10 2.56  16 2.56  27 2.56  24 2.56
                            20 2.57  23 2.57  25 2.57  19 2.57
  27  0.556  0.889  0.401-  35 2.54  29 2.55  30 2.55  17 2.55  18 2.55  11 2.56  26 2.56  25 2.56
                            24 2.57  22 2.57  20 2.57  21 2.57
  28  0.000  0.000  0.488-  25 2.54  19 2.54  26 2.54  33 2.57  30 2.57  31 2.57  29 2.57  32 2.57
                            34 2.57
  29  0.333  0.002  0.488-  20 2.54  27 2.55  31 2.55  36 2.55  30 2.55  26 2.55  28 2.57  35 2.57
                            34 2.60
  30  0.665  0.002  0.488-  21 2.54  27 2.55  32 2.55  36 2.55  29 2.55  25 2.55  28 2.57  35 2.57
                            33 2.60
  31  0.002  0.333  0.488-  20 2.54  22 2.55  29 2.55  36 2.55  33 2.55  19 2.55  28 2.57  35 2.57
                            32 2.60
  32  0.665  0.333  0.488-  21 2.54  24 2.55  30 2.55  36 2.55  34 2.55  19 2.55  28 2.57  35 2.57
                            31 2.60
  33  0.002  0.665  0.488-  23 2.54  22 2.55  34 2.55  36 2.55  31 2.55  25 2.55  28 2.57  35 2.57
                            30 2.60
  34  0.333  0.665  0.488-  23 2.54  24 2.55  33 2.55  36 2.55  32 2.55  26 2.55  28 2.57  35 2.57
                            29 2.60
  35  0.667  0.667  0.488-  24 2.54  27 2.54  22 2.54  34 2.57  32 2.57  29 2.57  30 2.57  33 2.57
                            31 2.57
  36  0.333  0.333  0.485-  37 1.92  38 1.92  23 2.48  20 2.48  21 2.48  31 2.55  29 2.55  33 2.55
                            34 2.55  32 2.55  30 2.55
  37  0.241  0.332  0.560-  38 1.43  36 1.92
  38  0.427  0.332  0.560-  37 1.43  36 1.92

  LATTYP: Found a hexagonal cell.
 ALAT       =     7.6967864036
 C/A-ratio  =     3.0908716217

  Lattice vectors:

 A1 = (  -3.8483927580,  -6.6656128093,   0.0000000000)
 A2 = (   7.6967864037,   0.0000000000,   0.0000000000)
 A3 = (   0.0000000000,   0.0000000000,  23.7897786731)

Analysis of symmetry for initial positions (statically):
 Subroutine PRICEL returns:
 Original cell was already a primitive cell.

 Routine SETGRP: Setting up the symmetry group for a
 hexagonal supercell.

 Subroutine GETGRP returns: Found  2 space group operations
 (whereof  2 operations were pure point group operations)
 out of a pool of 24 trial point group operations.

The static configuration has the point symmetry C_1h.

Analysis of symmetry for dynamics (positions and initial velocities):
 Subroutine PRICEL returns:
 Original cell was already a primitive cell.

[...]

The dynamic configuration has the point symmetry C_1h.

Analysis of constrained symmetry for selective dynamics:
 Subroutine PRICEL returns:
 Original cell was already a primitive cell.

 Routine SETGRP: Setting up the symmetry group for a
 hexagonal supercell.

[...]
     33      -4.6205      2.00000
     34      -4.6115      2.00000
     35      -4.5996      2.00000
     36      -4.5712      2.00000
     37      -4.5343      2.00000
     38      -4.5191      2.00000
     39      -4.4670      2.00000
     40      -4.4112      2.00000
     41      -4.3979      2.00000
     42      -4.3018      2.00000
     43      -4.2935      2.00000
     44      -4.2161      2.00000
     45      -4.2140      2.00000
     46      -4.1946      2.00000
     47      -4.1749      2.00000
     48      -4.1696      2.00000
     49      -4.1678      2.00000
     50      -4.1425      2.00000
     51      -3.9663      2.00000
     52      -3.9564      2.00000
     53      -3.9450      2.00000
     54      -3.9359      2.00000
     55      -3.9205      2.00000
     56      -3.8782      2.00000
     57      -3.8773      2.00000
     58      -3.8690      2.00000
     59      -3.8405      2.00000
     60      -3.8352      2.00000
[...]
    238       5.2751      0.00000
    239       5.4196      0.00000
    240       5.6307      0.00000
    241       5.7286      0.00000
    242       5.8415      0.00000
    243       5.9769      0.00000
    244       6.0096      0.00000
    245       6.1020      0.00000
    246       6.1558      0.00000
    247       6.3180      0.00000
    248       6.3653      0.00000
    249       6.5832      0.00000
    250       6.6754      0.00000
    251       6.7233      0.00000
    252       6.7503      0.00000

 soft charge-density along one line, spin component           1
         0         1         2         3         4         5         6         7         8         9
 total charge-density along one line

------------------------ aborting loop because EDIFF is reached ----------------------------------------

 total charge

# of ion       s       p       d       tot
    1        0.446   0.285   9.189   9.919
    2        0.450   0.284   9.188   9.922
    3        0.450   0.284   9.188   9.922
    4        0.449   0.284   9.189   9.923
    5        0.447   0.287   9.188   9.921
    6        0.449   0.284   9.189   9.923
    7        0.448   0.286   9.187   9.921
    8        0.448   0.286   9.187   9.921
    9        0.446   0.285   9.188   9.919
   10        0.441   0.373   9.178   9.992
   11        0.444   0.370   9.183   9.996
   12        0.441   0.373   9.178   9.992
   13        0.443   0.370   9.181   9.995
   14        0.443   0.370   9.181   9.995
   15        0.439   0.373   9.179   9.991
   16        0.442   0.371   9.180   9.993
   17        0.439   0.371   9.182   9.992
   18        0.439   0.371   9.182   9.992
   19        0.440   0.372   9.183   9.996
   20        0.448   0.388   9.172  10.008
   21        0.448   0.388   9.172  10.008
   22        0.439   0.374   9.183   9.996
   23        0.446   0.386   9.177  10.008
   24        0.439   0.374   9.183   9.996
   25        0.440   0.373   9.182   9.996
   26        0.440   0.373   9.182   9.996
   27        0.440   0.376   9.179   9.995
   28        0.450   0.282   9.196   9.927
   29        0.438   0.281   9.202   9.922
   30        0.438   0.281   9.202   9.922
   31        0.430   0.287   9.201   9.919
   32        0.430   0.287   9.201   9.919
   33        0.438   0.280   9.203   9.921
   34        0.438   0.280   9.203   9.921
   35        0.449   0.282   9.195   9.925
   36        0.451   0.524   8.344   9.319
   37        1.605   3.231   0.000   4.836
   38        1.605   3.231   0.000   4.836
tot         19.156  18.557 329.878 367.591

  FORCE on cell =-STRESS in cart. coord.  units (eV):
  Direction    XX          YY          ZZ          XY          YZ          ZX
  Alpha Z   808.41721   808.41721   808.41721
  Ewald  228817.97698228402.55085************     0.00044    -0.30913     0.00021
  Hartree241812.67902241601.56076************     0.00007     0.04290     0.00009
  E(xc)   -2360.89888 -2361.78580 -2365.48769    -0.00032    -0.00516    -0.00004
  Local  ************************483359.80284     0.02075     0.04960    -0.00083
  n-local  -807.56000  -814.37129  -825.32495     1.60942    -0.05804     0.09324
  augment  3491.47748  3504.52481  3505.30226    -0.01879     0.23677     0.00038
  Kinetic  3442.32414  3498.52879  3486.58945     0.84394    -0.06713    -0.08061
  Fock        0.00000     0.00000     0.00000     0.00000     0.00000     0.00000
  Total      -3.56364    -3.53857     2.31403     0.00000    -0.11020     0.00000
  in kB      -4.67804    -4.64513     3.03766     0.00000    -0.14466     0.00000

 VOLUME and BASIS-vectors are now :
  energy-cutoff  :      500.00
  volume of cell :     1220.51
      direct lattice vectors                 reciprocal lattice vectors
     7.696786404  0.000000000  0.000000000     0.129924354 -0.075011849  0.000000000
     3.848392758  6.665612809  0.000000000     0.000000000  0.150023716  0.000000000
     0.000000000  0.000000000 23.789778673     0.000000000  0.000000000  0.042034859

  length of vectors
     7.696786404  7.696786404 23.789778673     0.150023716  0.150023716  0.042034859

 FORCES acting on ions
    electron-ion (+dipol)            ewald-force                    non-local-force                 convergence-correction
   -.414E-04 -.470E-01 0.380E+04   0.578E-04 -.387E-01 -.379E+04   -.787E-08 0.118E+00 -.281E+01   -.307E-03 -.345E-01 -.897E+00
   0.408E+00 0.568E+00 0.380E+04   -.312E+00 -.451E+00 -.379E+04   -.375E-01 0.314E-02 -.199E+01   -.563E-01 -.107E+00 -.721E+00
   -.408E+00 0.568E+00 0.380E+04   0.312E+00 -.451E+00 -.379E+04   0.375E-01 0.314E-02 -.199E+01   0.571E-01 -.104E+00 -.720E+00
   0.693E+00 0.723E-01 0.380E+04   -.514E+00 -.605E-01 -.379E+04   -.743E-01 0.298E-02 -.201E+01   -.913E-01 -.161E-01 -.738E+00
   -.648E-04 0.141E+00 0.380E+04   0.116E-03 0.374E-02 -.380E+04   0.793E-08 -.119E+00 -.193E+01   0.122E-01 -.240E-01 -.550E+00
   -.693E+00 0.724E-01 0.380E+04   0.514E+00 -.606E-01 -.379E+04   0.743E-01 0.298E-02 -.201E+01   0.897E-01 -.149E-01 -.736E+00
   0.343E+00 -.699E+00 0.380E+04   -.201E+00 0.512E+00 -.379E+04   -.803E-01 0.416E-01 -.203E+01   -.401E-01 0.138E+00 -.728E+00
   -.343E+00 -.699E+00 0.380E+04   0.200E+00 0.512E+00 -.379E+04   0.803E-01 0.416E-01 -.203E+01   0.436E-01 0.137E+00 -.728E+00
   -.144E-03 -.118E+00 0.380E+04   0.264E-03 0.351E-01 -.379E+04   -.265E-08 0.397E-01 -.233E+01   -.132E-01 0.502E-01 -.774E+00
   0.384E+01 0.261E+01 0.136E+04   -.344E+01 -.228E+01 -.136E+04   -.349E+00 -.272E+00 -.911E+00   -.321E-01 -.433E-01 0.225E+00
   -.824E-04 0.423E+01 0.136E+04   0.190E-03 -.420E+01 -.136E+04   0.374E-08 -.562E-01 -.734E+00   0.117E-01 0.816E-02 0.393E+00
   -.384E+01 0.261E+01 0.136E+04   0.344E+01 -.228E+01 -.136E+04   0.349E+00 -.272E+00 -.911E+00   0.306E-01 -.417E-01 0.224E+00
   0.339E+01 -.225E+01 0.136E+04   -.337E+01 0.217E+01 -.136E+04   -.760E-01 0.530E-01 -.721E+00   0.351E-01 0.269E-01 0.448E+00
   -.339E+01 -.225E+01 0.136E+04   0.337E+01 0.217E+01 -.136E+04   0.760E-01 0.530E-01 -.721E+00   -.110E-01 0.258E-01 0.447E+00
   -.142E-03 -.384E+00 0.136E+04   0.300E-03 0.272E+00 -.136E+04   -.622E-08 0.934E-01 -.718E+00   -.353E-02 0.190E-01 0.214E+00
   -.885E-04 -.437E+01 0.136E+04   0.185E-03 0.403E+01 -.136E+04   -.195E-07 0.294E+00 -.983E+00   -.355E-03 0.435E-03 0.235E+00
   -.602E-01 -.127E+00 0.136E+04   0.563E-01 0.525E-01 -.136E+04   0.779E-02 0.650E-01 -.654E+00   0.417E-02 0.175E-01 0.202E+00
   0.603E-01 -.127E+00 0.136E+04   -.565E-01 0.524E-01 -.136E+04   -.779E-02 0.650E-01 -.654E+00   -.307E-02 0.201E-01 0.202E+00
   -.542E-04 0.440E+01 -.112E+04   0.639E-04 -.462E+01 0.112E+04   -.133E-07 0.200E+00 0.912E+00   -.108E-01 0.255E-01 0.992E+00
   0.193E+02 0.128E+02 -.108E+04   -.191E+02 -.127E+02 0.108E+04   -.682E+00 -.391E+00 -.812E+00   0.415E+00 0.291E+00 0.144E+01
   -.193E+02 0.128E+02 -.108E+04   0.191E+02 -.127E+02 0.108E+04   0.682E+00 -.391E+00 -.812E+00   -.433E+00 0.291E+00 0.144E+01
   0.119E+02 -.885E+01 -.111E+04   -.123E+02 0.914E+01 0.111E+04   0.256E+00 -.199E+00 0.948E+00   0.174E+00 -.136E+00 0.101E+01
   -.577E-04 -.247E+02 -.108E+04   0.140E-03 0.246E+02 0.108E+04   -.402E-07 0.604E+00 -.586E+00   -.101E-01 -.537E+00 0.146E+01
   -.119E+02 -.885E+01 -.111E+04   0.123E+02 0.914E+01 0.111E+04   -.256E+00 -.199E+00 0.948E+00   -.195E+00 -.136E+00 0.101E+01
   -.306E+01 -.619E+00 -.112E+04   0.310E+01 0.813E+00 0.112E+04   -.293E-01 -.164E+00 0.903E+00   -.696E-02 -.415E-01 0.947E+00
   0.306E+01 -.619E+00 -.112E+04   -.310E+01 0.813E+00 0.112E+04   0.293E-01 -.164E+00 0.903E+00   -.124E-01 -.424E-01 0.947E+00
   -.132E-03 0.144E+02 -.111E+04   0.246E-03 -.146E+02 0.111E+04   -.378E-08 0.567E-01 0.918E+00   -.110E-01 0.150E+00 0.991E+00
   -.223E-04 0.844E+01 -.362E+04   0.265E-04 -.839E+01 0.362E+04   0.682E-08 -.102E+00 0.232E+01   0.139E-04 0.129E-01 0.102E+01
   0.416E+02 0.920E+02 -.358E+04   -.421E+02 -.941E+02 0.358E+04   0.163E+00 0.137E+01 0.381E+01   0.248E+00 0.465E+00 0.948E+00
   -.416E+02 0.920E+02 -.358E+04   0.421E+02 -.941E+02 0.358E+04   -.163E+00 0.137E+01 0.381E+01   -.247E+00 0.468E+00 0.948E+00
   0.111E+03 -.121E+01 -.356E+04   -.113E+03 0.125E+01 0.355E+04   0.180E+01 -.483E-01 0.420E+01   0.589E+00 0.179E-01 0.102E+01
   -.111E+03 -.121E+01 -.356E+04   0.113E+03 0.125E+01 0.355E+04   -.180E+01 -.483E-01 0.420E+01   -.590E+00 0.190E-01 0.102E+01
   0.415E+02 -.900E+02 -.358E+04   -.421E+02 0.921E+02 0.358E+04   0.189E+00 -.132E+01 0.376E+01   0.251E+00 -.491E+00 0.940E+00
   -.415E+02 -.900E+02 -.358E+04   0.421E+02 0.921E+02 0.358E+04   -.189E+00 -.132E+01 0.376E+01   -.248E+00 -.491E+00 0.940E+00
   -.143E-03 -.778E+01 -.362E+04   0.265E-03 0.772E+01 0.362E+04   -.912E-08 0.137E+00 0.231E+01   -.129E-01 -.338E-01 0.108E+01
   -.612E-04 -.244E+01 -.288E+04   0.130E-03 0.241E+01 0.288E+04   0.146E-08 -.219E-01 0.397E+01   0.842E-02 0.292E-01 0.647E+00
   0.222E+03 0.923E-01 -.245E+04   -.255E+03 -.833E-01 0.246E+04   0.325E+02 -.145E-01 -.167E+02   0.283E+00 0.767E-02 -.355E+00
   -.222E+03 0.923E-01 -.245E+04   0.255E+03 -.833E-01 0.246E+04   -.325E+02 -.145E-01 -.167E+02   -.282E+00 0.777E-02 -.355E+00
   0.146E-03 0.594E+00 0.101E+02   -.114E-12 -.975E-13 0.637E-11   0.337E-07 -.506E+00 -.241E+02   -.584E-01 -.670E-01 0.141E+02

 POSITION                                       TOTAL-FORCE (eV/Angst)
      0.00000      0.00000      5.37156         0.000000     -0.002586      0.072302
      2.56560      0.00000      5.37156         0.001987      0.013362      0.069533
      5.13119      0.00000      5.37156        -0.001987      0.013362      0.069533
      1.28280      2.22187      5.37156         0.014824     -0.001198      0.085022
      3.84839      2.22187      5.37156        -0.000000      0.001056      0.053461
      6.41399      2.22187      5.37156        -0.014824     -0.001198      0.085022
      2.56560      4.44374      5.37156         0.020410     -0.008860      0.078725
      5.13119      4.44374      5.37156        -0.020410     -0.008860      0.078725
      7.69679      4.44374      5.37156        -0.000000      0.006508      0.070394
      1.28280      0.74062      7.46636         0.023918      0.015959     -0.053340
      3.84839      0.74062      7.46636         0.000000     -0.018920     -0.120723
      6.41399      0.74062      7.46636        -0.023918      0.015959     -0.053340
      2.56560      2.96249      7.46636        -0.025664      0.004322     -0.136958
      5.13119      2.96249      7.46636         0.025664      0.004322     -0.136958
      7.69679      2.96249      7.46636        -0.000000      0.000055     -0.059058
      3.84839      5.18437      7.46636         0.000000     -0.037009     -0.080437
      6.41399      5.18437      7.46636         0.007540      0.008977     -0.052861
      8.97958      5.18437      7.46636        -0.007540      0.008977     -0.052861
      7.69679      1.48353      9.55071        -0.000000      0.006675      0.028380
      2.56540      1.48114      9.54275         0.022939      0.023592     -0.068592
      5.13138      1.48114      9.54275        -0.022939      0.023592     -0.068592
      8.97935      3.70325      9.54809         0.035731     -0.042758      0.013731
      3.84839      3.70334      9.54275         0.000000     -0.013151     -0.116498
      6.41422      3.70325      9.54809        -0.035731     -0.042758      0.013731
     10.26040      5.92385      9.55071         0.012070     -0.012453      0.034817
      5.13317      5.92385      9.55071        -0.012070     -0.012453      0.034817
      7.69679      5.92472      9.54809        -0.000000      0.054281      0.049253
      0.00000      0.00000     11.61525         0.000000     -0.044870     -0.026847
      2.57297      0.01446     11.62005        -0.146255     -0.246455     -0.038024
      5.12381      0.01446     11.62005         0.146255     -0.246455     -0.038024
      1.29901      2.22103     11.62005        -0.326708      0.008226     -0.078970
      6.39777      2.22103     11.62005         0.326708      0.008226     -0.078970
      2.57443      4.43012     11.62005        -0.165647      0.249903     -0.027299
      5.12235      4.43012     11.62005         0.165647      0.249903     -0.027299
      7.69679      4.44374     11.61370        -0.000000      0.039831      0.002612
      3.84839      2.22187     11.53520         0.000000     -0.020551      0.590552
      3.13516      2.21112     13.32187        -0.006071      0.001723     -0.057479
      4.56163      2.21112     13.32187         0.006071      0.001723     -0.057479
    total drift:                               -0.058301      0.020352      0.045661

  FREE ENERGIE OF THE ION-ELECTRON SYSTEM (eV)
  free  energy   TOTEN  =      -137.78407942 eV

  energy  without entropy=     -137.78407942  energy(sigma->0) =     -137.78407942

 stress matrix after NEB project (eV)
     -3.56364      0.00000      0.00000
      0.00000     -3.53857     -0.11020
      0.00000     -0.11020      2.31403
  FORCES: max atom, RMS     0.057825    0.013266
  FORCE total and by dimension    0.081776    0.057479
  Stress total and by dimension    5.531727    3.563639
|           W    W    AA    RRRRR   N    N  II  N    N   GGGG   !!!           |
|           W    W   A  A   R    R  NN   N  II  NN   N  G    G  !!!           |
|           W    W  A    A  R    R  N N  N  II  N N  N  G       !!!           |
|           W WW W  AAAAAA  RRRRR   N  N N  II  N  N N  G  GGG   !            |
|           WW  WW  A    A  R   R   N   NN  II  N   NN  G    G                |
|           W    W  A    A  R    R  N    N  II  N    N   GGGG   !!!           |
|     Tetrahedron method does not include variations of the Fermi             |
|     occupations, so forces and stress will be inaccurate. We suggest        |
|     using a different smearing scheme ISMEAR = 1 or 2 for metals in         |
|     relaxations.                                                            |

 total charge

# of ion       s       p       d       tot
    1        0.446   0.285   9.189   9.919
    2        0.450   0.284   9.188   9.922
    3        0.450   0.284   9.188   9.922
    4        0.449   0.284   9.189   9.923
    5        0.447   0.287   9.188   9.921
    6        0.449   0.284   9.189   9.923
    7        0.448   0.286   9.187   9.921
    8        0.448   0.286   9.187   9.921
    9        0.446   0.285   9.188   9.919
   10        0.441   0.373   9.178   9.992
   11        0.444   0.370   9.183   9.996
   12        0.441   0.373   9.178   9.992
   13        0.443   0.370   9.181   9.995
   14        0.443   0.370   9.181   9.995
   15        0.439   0.373   9.179   9.991
   16        0.442   0.371   9.180   9.993
   17        0.439   0.371   9.182   9.992
   18        0.439   0.371   9.182   9.992
   19        0.440   0.372   9.183   9.996
   20        0.448   0.388   9.172  10.008
   21        0.448   0.388   9.172  10.008
   22        0.439   0.374   9.183   9.996
   23        0.446   0.386   9.177  10.008
   24        0.439   0.374   9.183   9.996
   25        0.440   0.373   9.182   9.996
   26        0.440   0.373   9.182   9.996
   27        0.440   0.376   9.179   9.995
   28        0.450   0.282   9.196   9.927
   29        0.438   0.281   9.202   9.922
   30        0.438   0.281   9.202   9.922
   31        0.430   0.287   9.201   9.919
   32        0.430   0.287   9.201   9.919
   33        0.438   0.280   9.203   9.921
   34        0.438   0.280   9.203   9.921
   35        0.449   0.282   9.195   9.925
   36        0.451   0.524   8.344   9.319
   37        1.605   3.231   0.000   4.836
   38        1.605   3.231   0.000   4.836
tot         19.156  18.557 329.878 367.591

 BZINTS: Fermi energy:   -0.530899;  407.000000 electrons
         Band energy:-0.142211E+04;  BLOECHL correction:   -0.043092