 vasp.6.2.0 18Jan21 (build Jun 12 2021 23:27:24) complex

 executed on             LinuxIFC date 2022.05.28  02:03:23

 INCAR:
   ISMEAR = -5
   SIGMA = 0.1
   ISPIN = 1
   EDIFF = 1.d-5
   EDIFFG = -0.01
   NSW = 0
   NELM = 150
   ENCUT = 500
   ISIF = 2
   IBRION = 2
   LREAL = Auto
   ALGO = Fast
   ICHARG = 11
   LORBIT = 10
   LCHARG = .F.
   LWAVE = .F.

 POTCAR:    PAW_PBE Ag 02Apr2005
 POTCAR:    PAW_PBE Re 17Jan2003
 POTCAR:    PAW_PBE C 08Apr2002
 POTCAR:    PAW_PBE O 08Apr2002
|           W    W    AA    RRRRR   N    N  II  N    N   GGGG   !!!           |
|           W    W   A  A   R    R  NN   N  II  NN   N  G    G  !!!           |
|           W    W  A    A  R    R  N N  N  II  N N  N  G       !!!           |
|           W WW W  AAAAAA  RRRRR   N  N N  II  N  N N  G  GGG   !            |
|           WW  WW  A    A  R   R   N   NN  II  N   NN  G    G                |
|           W    W  A    A  R    R  N    N  II  N    N   GGGG   !!!           |
|     For optimal performance we recommend to set                             |
|       NCORE = 2 up to number-of-cores-per-socket                            |
|     This setting can greatly improve the performance of VASP for DFT.       |
|     The default, NCORE=1 might be grossly inefficient on modern             |
|     multi-core architectures or massively parallel machines. Do your        |
|     Unfortunately you need to use the default for GW and RPA                |
|     calculations (for HF NCORE is supported but not extensively tested      |
|     yet).                                                                   |

 POTCAR:    PAW_PBE Ag 02Apr2005
   VRHFIN =Ag : s1 d10

   TITEL  = PAW_PBE Ag 02Apr2005
   POMASS =  107.868; ZVAL   =   11.000    mass and valenz
   ENMAX  =  249.844; ENMIN  =  187.383 eV

 POTCAR:    PAW_PBE Re 17Jan2003
   VRHFIN =Re: 5p6s5d

   TITEL  = PAW_PBE Re 17Jan2003
   POMASS =  186.207; ZVAL   =    7.000    mass and valenz
   ENMAX  =  226.216; ENMIN  =  169.662 eV

 POTCAR:    PAW_PBE C 08Apr2002
   VRHFIN =C: s2p2

[...]

 POTCAR:    PAW_PBE O 08Apr2002
   VRHFIN =O: s2p4

   TITEL  = PAW_PBE O 08Apr2002
   POMASS =   16.000; ZVAL   =    6.000    mass and valenz
   ENMAX  =  400.000; ENMIN  =  300.000 eV

 Optimization of the real space projectors (new method)

 maximal supplied QI-value         = 15.12
 optimisation between [QCUT,QGAM] = [ 11.34, 22.83] = [ 36.00,145.93] Ry
 Optimized for a Real-space Cutoff    1.43 Angstroem

   l    n(q)    QCUT    max X(q) W(low)/X(q) W(high)/X(q)  e(spline)
   2      9    11.338    53.897    0.16E-03    0.20E-03    0.28E-06
   2      9    11.338    52.416    0.16E-03    0.20E-03    0.29E-06
   0     10    11.338   122.045    0.31E-04    0.76E-04    0.15E-06
   0     10    11.338    73.629    0.30E-04    0.72E-04    0.15E-06
   1      9    11.338    15.255    0.20E-03    0.19E-04    0.17E-06
   1      9    11.338     9.562    0.16E-03    0.15E-04    0.14E-06
 Optimization of the real space projectors (new method)

[...]

   l    n(q)    QCUT    max X(q) W(low)/X(q) W(high)/X(q)  e(spline)
   0      7    11.310   115.676    0.43E-03    0.13E-02    0.19E-06
   0      7    11.310    87.132    0.43E-03    0.13E-02    0.18E-06
   1      6    11.310     4.429    0.42E-03    0.74E-03    0.11E-06
   1      6    11.310     2.733    0.34E-03    0.55E-03    0.92E-07
 Optimization of the real space projectors (new method)

 maximal supplied QI-value         = 24.76
 optimisation between [QCUT,QGAM] = [ 11.39, 22.77] = [ 36.31,145.25] Ry
 Optimized for a Real-space Cutoff    1.00 Angstroem

   l    n(q)    QCUT    max X(q) W(low)/X(q) W(high)/X(q)  e(spline)
   0      7    11.387    20.381    0.39E-03    0.13E-02    0.15E-06
   0      7    11.387    15.268    0.42E-03    0.14E-02    0.17E-06
   1      6    11.387     5.964    0.41E-03    0.11E-02    0.17E-06
   1      6    11.387     5.382    0.39E-03    0.87E-03    0.15E-06
  PAW_PBE Ag 02Apr2005                  :
  PAW_PBE Re 17Jan2003                  :
  PAW_PBE C 08Apr2002                   :
  PAW_PBE O 08Apr2002                   :

 POSCAR: Ag-Re-CO2
  positions in direct lattice
  velocities in cartesian coordinates
 exchange correlation table for  LEXCH =        8
   RHO(1)=    0.500       N(1)  =     2000
   RHO(2)=  100.500       N(2)  =     4000

 VTST: version 3.2, (02/03/18)

 CHAIN: initializing optimizer

 OPT: Using VASP Conjugate-Gradient optimizer
 CHAIN: Read ICHAIN            0

 POSCAR: Ag-Re-CO2
  positions in direct lattice
  velocities in cartesian coordinates

 ion  position               nearest neighbor table
   1  0.000  0.000  0.217-   2 2.93   8 2.93   7 2.93   6 2.93   4 2.93  12 2.93  16 2.93  10 2.93
                             3 2.93
   2  0.333  0.000  0.217-   1 2.93   8 2.93   9 2.93   3 2.93   4 2.93   5 2.93  10 2.93  17 2.93
                            11 2.93
   3  0.667  0.000  0.217-   9 2.93   2 2.93   5 2.93  11 2.93   7 2.93  18 2.93   1 2.93   6 2.93
                            12 2.93
   4  0.000  0.333  0.217-   5 2.93   6 2.93   2 2.93   1 2.93   7 2.93  13 2.93  15 2.93   9 2.93
                            10 2.93
   5  0.333  0.333  0.217-   4 2.93   3 2.93   7 2.93   2 2.93   8 2.93  14 2.93  13 2.93  11 2.93
                             6 2.93
   6  0.667  0.333  0.217-   4 2.93   9 2.93   1 2.93  15 2.93   8 2.93  12 2.93   3 2.93   5 2.93
                            14 2.93
   7  0.000  0.667  0.217-   8 2.93   1 2.93   5 2.93   3 2.93   4 2.93  16 2.93  18 2.93  13 2.93
                             9 2.93
   8  0.333  0.667  0.217-   7 2.93   1 2.93   2 2.93   9 2.93   5 2.93  16 2.93   6 2.93  17 2.93
                            14 2.93
   9  0.667  0.667  0.217-   3 2.93   2 2.93   8 2.93   6 2.93  17 2.93   4 2.93  15 2.93   7 2.93
                            18 2.93
  10  0.111  0.111  0.315-  20 2.89  12 2.93  16 2.93  15 2.93  17 2.93  13 2.93  11 2.93   2 2.93
                             1 2.93   4 2.93  19 2.93  26 2.93
  11  0.444  0.111  0.315-  21 2.89  20 2.89  27 2.93  14 2.93  17 2.93  18 2.93   3 2.93  12 2.93
                            13 2.93  10 2.93   5 2.93   2 2.93
  12  0.778  0.111  0.315-  21 2.89  10 2.93  16 2.93  18 2.93  15 2.93  11 2.93   1 2.93  14 2.93
                             6 2.93   3 2.93  25 2.93  19 2.93
  13  0.111  0.444  0.315-  20 2.89  23 2.89  22 2.93  15 2.93  14 2.93  18 2.93  10 2.93  11 2.93
                            16 2.93   4 2.93   5 2.93   7 2.93
  14  0.444  0.444  0.315-  23 2.89  21 2.89  24 2.93  13 2.93  11 2.93  16 2.93   5 2.93  12 2.93
                            17 2.93   8 2.93  15 2.93   6 2.93
  15  0.778  0.444  0.315-  24 2.92  22 2.92  19 2.93  13 2.93  10 2.93  12 2.93  17 2.93  18 2.93
                             4 2.93   6 2.93   9 2.93  14 2.93
  16  0.111  0.778  0.315-  23 2.89  18 2.93  12 2.93  10 2.93  14 2.93  17 2.93  13 2.93   7 2.93
                             8 2.93   1 2.93  26 2.93  25 2.93
  17  0.444  0.778  0.315-  27 2.92  24 2.92  26 2.93  11 2.93  10 2.93   9 2.93  18 2.93  15 2.93
                            16 2.93   2 2.93  14 2.93   8 2.93
  18  0.778  0.778  0.315-  22 2.92  27 2.92  25 2.93  16 2.93  12 2.93  13 2.93  11 2.93  17 2.93
                            15 2.93   7 2.93   3 2.93   9 2.93
  19  0.889  0.223  0.413-  28 2.91  24 2.93  22 2.93  15 2.93  20 2.93  21 2.93  10 2.93  12 2.93
                            26 2.94  25 2.94  32 2.97  31 2.97
  20  0.222  0.222  0.411-  36 2.76  10 2.89  13 2.89  11 2.89  19 2.93  26 2.93  21 2.93  23 2.93
                            27 2.94  22 2.94  31 2.94  29 2.94
  21  0.556  0.222  0.411-  36 2.76  12 2.89  11 2.89  14 2.89  25 2.93  19 2.93  20 2.93  23 2.93
                            27 2.94  24 2.94  30 2.94  32 2.94
  22  0.888  0.556  0.413-  35 2.91  24 2.92  27 2.92  18 2.92  15 2.92  13 2.93  25 2.93  19 2.93
                            23 2.94  20 2.94  33 2.95  31 2.95
  23  0.222  0.556  0.411-  36 2.76  16 2.89  14 2.89  13 2.89  26 2.93  25 2.93  21 2.93  20 2.93
                            22 2.94  24 2.94  34 2.94  33 2.94
  24  0.556  0.556  0.413-  35 2.91  27 2.92  22 2.92  15 2.92  17 2.92  14 2.93  19 2.93  26 2.93
                            23 2.94  21 2.94  32 2.95  34 2.95
  25  0.889  0.889  0.413-  28 2.91  22 2.93  27 2.93  18 2.93  23 2.93  21 2.93  16 2.93  12 2.93
                            26 2.94  19 2.94  33 2.97  30 2.97
  26  0.223  0.889  0.413-  28 2.91  27 2.93  24 2.93  17 2.93  23 2.93  20 2.93  16 2.93  10 2.93
                            25 2.94  19 2.94  34 2.97  29 2.97
  27  0.556  0.888  0.413-  35 2.91  24 2.92  22 2.92  17 2.92  18 2.92  11 2.93  26 2.93  25 2.93
                            20 2.94  21 2.94  29 2.95  30 2.95
  28  0.000  0.000  0.510-  26 2.91  25 2.91  19 2.91  29 2.96  34 2.96  33 2.96  32 2.96  31 2.96
                            30 2.96
  29  0.333  0.008  0.512-  31 2.86  30 2.87  36 2.88  20 2.94  27 2.95  28 2.96  26 2.97  35 2.97
                            34 3.06
  30  0.659  0.008  0.512-  32 2.86  29 2.87  36 2.88  21 2.94  27 2.95  28 2.96  25 2.97  35 2.97
                            33 3.06
  31  0.008  0.333  0.512-  29 2.86  33 2.87  36 2.88  20 2.94  22 2.95  28 2.96  19 2.97  35 2.97
                            32 3.06
  32  0.659  0.333  0.512-  30 2.86  34 2.87  36 2.88  21 2.94  24 2.95  28 2.96  19 2.97  35 2.97
                            31 3.06
  33  0.008  0.659  0.512-  34 2.86  31 2.87  36 2.88  23 2.94  22 2.95  28 2.96  25 2.97  35 2.97
                            30 3.06
  34  0.333  0.659  0.512-  33 2.86  32 2.87  36 2.88  23 2.94  24 2.95  28 2.96  26 2.97  35 2.97
                            29 3.06
  35  0.667  0.667  0.510-  24 2.91  27 2.91  22 2.91  30 2.97  32 2.97  29 2.97  34 2.97  31 2.97
                            33 2.97
  36  0.333  0.333  0.501-  37 2.05  21 2.76  20 2.76  23 2.76  31 2.88  30 2.88  33 2.88  29 2.88
                            34 2.88  32 2.88
  37  0.332  0.336  0.585-  38 1.26  39 1.26  36 2.05
  38  0.201  0.333  0.605-  37 1.26
  39  0.466  0.333  0.605-  37 1.26

  LATTYP: Found a hexagonal cell.
 ALAT       =     8.7913665772
 C/A-ratio  =     2.7703738524

  Lattice vectors:

 A1 = (  -4.3956832886,  -7.6135467898,   0.0000000000)
 A2 = (   8.7913665771,   0.0000000000,   0.0000000000)
 A3 = (   0.0000000000,   0.0000000000,  24.3553720923)

Analysis of symmetry for initial positions (statically):
 Subroutine PRICEL returns:
 Original cell was already a primitive cell.

 Routine SETGRP: Setting up the symmetry group for a
 hexagonal supercell.

 Subroutine GETGRP returns: Found  1 space group operations
 (whereof  1 operations were pure point group operations)
 out of a pool of 24 trial point group operations.

The static configuration has the point symmetry C_1 .

Analysis of symmetry for dynamics (positions and initial velocities):
 Subroutine PRICEL returns:
 Original cell was already a primitive cell.

[...]

The dynamic configuration has the point symmetry C_1 .

Analysis of constrained symmetry for selective dynamics:
 Subroutine PRICEL returns:
 Original cell was already a primitive cell.

 Routine SETGRP: Setting up the symmetry group for a
[...]
     41      -5.0544      2.00000
     42      -5.0489      2.00000
     43      -4.9994      2.00000
     44      -4.9824      2.00000
     45      -4.9648      2.00000
     46      -4.9581      2.00000
     47      -4.9521      2.00000
     48      -4.9479      2.00000
     49      -4.8540      2.00000
     50      -4.8285      2.00000
     51      -4.8164      2.00000
     52      -4.8109      2.00000
     53      -4.8040      2.00000
     54      -4.8027      2.00000
     55      -4.7933      2.00000
     56      -4.7856      2.00000
     57      -4.7816      2.00000
     58      -4.7713      2.00000
     59      -4.6978      2.00000
     60      -4.6893      2.00000
[...]
    238       5.3143      0.00000
    239       5.4501      0.00000
    240       5.6488      0.00000
    241       5.7076      0.00000
    242       5.7220      0.00000
    243       5.8286      0.00000
    244       5.8511      0.00000
    245       5.8766      0.00000
    246       6.0920      0.00000
    247       6.6170      0.00000
    248       6.6290      0.00000
    249       6.6618      0.00000
    250       6.6883      0.00000
    251       6.7498      0.00000
    252       6.7782      0.00000

 soft charge-density along one line, spin component           1
         0         1         2         3         4         5         6         7         8         9
 total charge-density along one line

------------------------ aborting loop because EDIFF is reached ----------------------------------------

 total charge

# of ion       s       p       d       tot
    1        0.419   0.201   9.178   9.798
    2        0.416   0.203   9.177   9.796
    3        0.416   0.203   9.177   9.796
    4        0.415   0.203   9.178   9.796
    5        0.419   0.201   9.178   9.798
    6        0.415   0.203   9.178   9.796
    7        0.417   0.204   9.177   9.797
    8        0.417   0.204   9.177   9.797
    9        0.416   0.203   9.177   9.796
   10        0.408   0.271   9.162   9.841
   11        0.406   0.271   9.166   9.843
   12        0.407   0.271   9.162   9.841
   13        0.405   0.271   9.167   9.843
   14        0.405   0.271   9.167   9.843
   15        0.404   0.269   9.165   9.838
   16        0.407   0.270   9.164   9.841
   17        0.405   0.268   9.166   9.839
   18        0.405   0.268   9.166   9.839
   19        0.397   0.264   9.170   9.832
   20        0.432   0.307   9.140   9.879
   21        0.432   0.307   9.140   9.879
   22        0.390   0.274   9.168   9.832
   23        0.428   0.306   9.146   9.880
   24        0.390   0.274   9.168   9.832
   25        0.401   0.264   9.168   9.833
   26        0.401   0.264   9.168   9.833
   27        0.392   0.271   9.170   9.834
   28        0.413   0.195   9.180   9.787
   29        0.422   0.216   9.167   9.804
   30        0.422   0.216   9.167   9.804
   31        0.401   0.220   9.171   9.791
   32        0.400   0.220   9.171   9.791
   33        0.423   0.216   9.167   9.806
   34        0.423   0.216   9.167   9.806
   35        0.404   0.198   9.181   9.782
   36        0.553   0.343   4.808   5.704
   37        0.882   1.688   0.000   2.570
   38        1.597   3.462   0.000   5.060
   39        1.597   3.462   0.000   5.059
tot         19.003  17.437 325.698 362.138

  FORCE on cell =-STRESS in cart. coord.  units (eV):
  Direction    XX          YY          ZZ          XY          YZ          ZX
  Alpha Z   727.93413   727.93413   727.93413
  Ewald  152154.65163151483.97089************    -0.02584    -3.04198    -0.58250
  Hartree162087.56277161751.37386************    -0.01559    -2.32115    -0.27324
  E(xc)   -2134.05681 -2136.51009 -2141.46870     0.00036    -0.08687     0.00100
  Local  ************************324544.51182     0.04708     5.54692     0.81321
  n-local  -394.38178  -391.54031  -396.47969     0.00710     0.44044    -0.01360
  augment  3238.97977  3241.67884  3252.74065    -0.00184    -0.15964     0.00241
  Kinetic  5158.07371  5207.09997  5223.08081    -0.00381    -0.23665     0.04061
  Fock        0.00000     0.00000     0.00000     0.00000     0.00000     0.00000
  Total      -7.81258    -7.85594    -0.32456     0.00746     0.14107    -0.01209
  in kB      -7.67834    -7.72095    -0.31899     0.00733     0.13865    -0.01188

 VOLUME and BASIS-vectors are now :
  energy-cutoff  :      500.00
  volume of cell :     1630.19
      direct lattice vectors                 reciprocal lattice vectors
     8.791366577  0.000000000  0.000000000     0.113747958 -0.065672414  0.000000000
     4.395683289  7.613546790  0.000000000     0.000000000  0.131344829  0.000000000
     0.000000000  0.000000000 24.355372092     0.000000000  0.000000000  0.041058703

  length of vectors
     8.791366577  8.791366577 24.355372092     0.131344829  0.131344829  0.041058703

 FORCES acting on ions
    electron-ion (+dipol)            ewald-force                    non-local-force                 convergence-correction
   0.147E-02 0.632E-02 0.271E+04   -.116E-03 -.414E-01 -.270E+04   -.929E-03 -.274E-02 -.200E+01   -.327E-03 0.289E-01 -.155E+00
   0.417E+00 0.529E+00 0.271E+04   -.451E+00 -.572E+00 -.271E+04   -.310E-02 0.461E-01 -.170E+01   0.353E-01 -.134E-01 -.107E+00
   -.418E+00 0.519E+00 0.271E+04   0.452E+00 -.572E+00 -.271E+04   0.441E-02 0.459E-01 -.170E+01   -.360E-01 -.341E-02 -.106E+00
   0.491E+00 0.128E+00 0.271E+04   -.686E+00 -.127E+00 -.271E+04   0.163E+00 -.662E-02 -.177E+01   0.238E-01 0.129E-01 -.102E+00
   -.124E-01 0.386E-01 0.271E+04   0.147E-03 -.102E-02 -.271E+04   -.355E-02 -.523E-02 -.152E+01   0.159E-01 -.341E-01 -.518E-01
   -.482E+00 0.124E+00 0.271E+04   0.686E+00 -.127E+00 -.271E+04   -.162E+00 -.695E-02 -.177E+01   -.327E-01 0.178E-01 -.986E-01
   0.216E+00 -.603E+00 0.271E+04   -.234E+00 0.699E+00 -.271E+04   0.690E-01 -.721E-01 -.161E+01   -.516E-01 -.141E-01 -.516E-01
   -.224E+00 -.597E+00 0.271E+04   0.233E+00 0.699E+00 -.271E+04   -.686E-01 -.720E-01 -.161E+01   0.600E-01 -.195E-01 -.498E-01
   0.129E-01 -.142E+00 0.271E+04   0.505E-04 0.424E-01 -.271E+04   0.262E-02 0.659E-01 -.174E+01   -.157E-01 0.308E-01 -.460E-01
   0.587E+01 0.367E+01 0.963E+03   -.553E+01 -.353E+01 -.962E+03   -.416E+00 -.207E+00 -.799E+00   0.580E-01 0.538E-01 0.310E+00
   -.991E-02 0.569E+01 0.969E+03   0.264E-03 -.576E+01 -.969E+03   -.138E-02 0.610E-02 -.686E+00   0.111E-01 0.336E-01 0.327E+00
   -.587E+01 0.367E+01 0.963E+03   0.553E+01 -.353E+01 -.962E+03   0.414E+00 -.207E+00 -.797E+00   -.619E-01 0.583E-01 0.302E+00
   0.460E+01 -.291E+01 0.969E+03   -.468E+01 0.293E+01 -.969E+03   0.243E-01 -.951E-02 -.532E+00   0.181E-01 0.915E-03 0.352E+00
   -.462E+01 -.291E+01 0.969E+03   0.468E+01 0.293E+01 -.969E+03   -.268E-01 -.988E-02 -.534E+00   0.230E-02 0.561E-05 0.342E+00
   0.704E-02 0.722E+00 0.963E+03   -.435E-03 -.951E+00 -.963E+03   0.577E-04 0.136E+00 -.830E+00   -.651E-02 0.760E-01 0.279E+00
   -.244E-02 -.667E+01 0.962E+03   0.106E-03 0.649E+01 -.962E+03   0.875E-04 0.289E+00 -.729E+00   0.220E-02 -.108E+00 0.273E+00
   0.770E+00 -.640E+00 0.962E+03   -.100E+01 0.708E+00 -.962E+03   0.134E+00 -.570E-02 -.646E+00   0.710E-01 -.522E-01 0.255E+00
   -.765E+00 -.646E+00 0.962E+03   0.100E+01 0.709E+00 -.962E+03   -.135E+00 -.567E-02 -.647E+00   -.740E-01 -.464E-01 0.255E+00
   -.101E-01 0.178E+01 -.812E+03   -.254E-02 -.210E+01 0.811E+03   -.279E-02 0.210E+00 0.863E+00   0.155E-01 0.101E+00 0.467E+00
   0.544E+01 0.526E+01 -.773E+03   -.490E+01 -.476E+01 0.773E+03   -.987E+00 -.761E+00 -.127E+01   0.276E+00 0.183E+00 0.732E+00
   -.542E+01 0.525E+01 -.773E+03   0.490E+01 -.476E+01 0.773E+03   0.984E+00 -.756E+00 -.126E+01   -.300E+00 0.186E+00 0.729E+00
   0.103E+01 -.277E+01 -.801E+03   -.152E+01 0.318E+01 0.800E+03   0.424E+00 -.327E+00 0.590E+00   0.112E+00 -.119E+00 0.416E+00
   0.249E-02 -.892E+01 -.775E+03   0.180E-02 0.840E+01 0.775E+03   0.351E-02 0.105E+01 -.949E+00   -.886E-02 -.382E+00 0.669E+00
   -.103E+01 -.277E+01 -.801E+03   0.151E+01 0.318E+01 0.800E+03   -.424E+00 -.328E+00 0.590E+00   -.110E+00 -.110E+00 0.417E+00
   -.497E+00 0.589E+00 -.815E+03   0.578E+00 -.528E+00 0.814E+03   -.279E-01 -.530E-01 0.740E+00   -.448E-01 -.504E-02 0.442E+00
   0.480E+00 0.587E+00 -.815E+03   -.578E+00 -.531E+00 0.814E+03   0.233E-01 -.536E-01 0.740E+00   0.670E-01 -.152E-03 0.442E+00
   0.732E-02 0.151E+01 -.804E+03   0.268E-03 -.209E+01 0.803E+03   0.638E-03 0.445E+00 0.601E+00   -.825E-02 0.160E+00 0.422E+00
   0.107E-01 0.105E+02 -.255E+04   -.103E-01 -.104E+02 0.255E+04   0.568E-03 -.212E+00 0.203E+01   -.751E-03 0.418E-01 0.360E+00
   0.279E+02 0.714E+02 -.252E+04   -.270E+02 -.710E+02 0.252E+04   -.114E+01 -.988E+00 0.198E+01   0.187E+00 0.396E+00 0.367E+00
   -.279E+02 0.713E+02 -.252E+04   0.270E+02 -.710E+02 0.252E+04   0.114E+01 -.987E+00 0.198E+01   -.175E+00 0.400E+00 0.372E+00
   0.829E+02 -.235E+00 -.249E+04   -.829E+02 0.427E+00 0.248E+04   -.690E+00 -.161E+00 0.263E+01   0.471E+00 -.126E-01 0.349E+00
   -.829E+02 -.244E+00 -.249E+04   0.829E+02 0.430E+00 0.248E+04   0.682E+00 -.162E+00 0.264E+01   -.453E+00 -.551E-02 0.354E+00
   0.290E+02 -.714E+02 -.252E+04   -.283E+02 0.707E+02 0.252E+04   -.864E+00 0.118E+01 0.188E+01   0.131E+00 -.333E+00 0.319E+00
   -.291E+02 -.714E+02 -.252E+04   0.283E+02 0.707E+02 0.252E+04   0.860E+00 0.117E+01 0.189E+01   -.106E+00 -.332E+00 0.320E+00
   0.278E-01 -.106E+02 -.255E+04   -.119E-01 0.105E+02 0.255E+04   0.285E-02 0.235E+00 0.224E+01   -.187E-01 -.448E-01 0.352E+00
   -.111E-01 0.829E+00 -.137E+04   0.394E-02 -.614E+00 0.137E+04   0.128E-01 -.103E+00 0.820E+00   -.929E-03 -.446E-01 0.282E+00
   0.651E-01 -.717E+01 -.975E+03   -.885E-01 0.753E+01 0.969E+03   0.187E-01 -.295E+00 0.625E+01   0.660E-03 -.488E-01 -.206E+00
   0.218E+03 0.288E+01 -.167E+04   -.263E+03 -.367E+01 0.169E+04   0.447E+02 0.815E+00 -.216E+02   0.167E+00 -.331E-01 -.224E+00
   -.218E+03 0.290E+01 -.167E+04   0.263E+03 -.368E+01 0.169E+04   -.447E+02 0.818E+00 -.215E+02   -.171E+00 -.282E-01 -.242E+00
   -.453E-01 -.682E+00 0.305E+02   -.114E-12 0.219E-12 0.387E-11   -.556E-02 0.717E+00 -.397E+02   0.487E-01 -.719E-02 0.907E+01

 POSITION                                       TOTAL-FORCE (eV/Angst)
      0.00000      0.00000      5.28219         0.000152     -0.009647     -0.000416
      2.93046      0.00000      5.28219        -0.002214     -0.011636      0.030955
      5.86091      0.00000      5.28219         0.002218     -0.011675      0.030973
      1.46523      2.53785      5.28219        -0.008584      0.007111      0.030570
      4.39568      2.53785      5.28219         0.000185     -0.002441     -0.015797
      7.32614      2.53785      5.28219         0.008717      0.007111      0.030561
      2.93046      5.07570      5.28219        -0.000406      0.009427      0.025112
      5.86091      5.07570      5.28219         0.000466      0.009502      0.025042
      8.79137      5.07570      5.28219        -0.000055     -0.003606      0.007467
      1.46523      0.84595      7.67490        -0.011845     -0.010384     -0.004115
      4.39568      0.84595      7.67490         0.000127     -0.022047     -0.081180
      7.32614      0.84595      7.67490         0.012008     -0.010470     -0.004068
      2.93046      3.38380      7.67490        -0.034884      0.010143     -0.078173
      5.86091      3.38380      7.67490         0.035536      0.010334     -0.078162
      8.79137      3.38380      7.67490         0.000204     -0.017615      0.008202
      4.39568      5.92165      7.67490         0.000007      0.006140     -0.001049
      7.32614      5.92165      7.67490        -0.029623      0.009711      0.016237
     10.25659      5.92165      7.67490         0.029743      0.009562      0.016171
      8.79137      1.69725     10.06774         0.000110     -0.013507      0.079546
      2.92950      1.69135     10.02116        -0.167843     -0.075520     -0.039471
      5.86187      1.69135     10.02116         0.168683     -0.076648     -0.040990
     10.25061      4.23320     10.05696         0.054432     -0.030493      0.045095
      4.39568      4.23086     10.02116        -0.001007      0.149686     -0.120180
      7.33212      4.23320     10.05696        -0.054174     -0.030387      0.045072
     11.71719      6.76492     10.06774         0.008997      0.001610      0.030825
      5.86555      6.76492     10.06774        -0.008474      0.001399      0.030715
      8.79137      6.76069     10.05696         0.000033      0.023096      0.009026
      0.00000      0.00000     12.43040         0.000261     -0.031288      0.010260
      2.96174      0.05879     12.46433        -0.033306     -0.230295     -0.140835
      5.82963      0.05879     12.46433         0.033884     -0.230767     -0.141086
      1.53179      2.53554     12.46433        -0.208342      0.017575     -0.021341
      7.25958      2.53554     12.46433         0.209431      0.017472     -0.022526
      2.96573      5.01921     12.46433        -0.046798      0.210503     -0.112945
      5.82563      5.01921     12.46433         0.047302      0.210881     -0.113397
      8.79137      5.07570     12.42552         0.000050      0.027172      0.026420
      4.39568      2.53785     12.19879         0.004796      0.066982      0.536476
      4.39430      2.55629     14.25224        -0.003952      0.010593      0.045556
      3.23159      2.53390     14.72631        -0.009931      0.000852     -0.034398
      5.55815      2.53381     14.72401         0.004096      0.001564     -0.030150
    total drift:                               -0.002178      0.027692     -0.151795

  FREE ENERGIE OF THE ION-ELECTRON SYSTEM (eV)
  free  energy   TOTEN  =      -120.07832371 eV

  energy  without entropy=     -120.07832371  energy(sigma->0) =     -120.07832371

 stress matrix after NEB project (eV)
     -7.81258      0.00746     -0.01209
      0.00746     -7.85594      0.14107
     -0.01209      0.14107     -0.32456
  FORCES: max atom, RMS     0.046938    0.010639
  FORCE total and by dimension    0.066438    0.045556
  Stress total and by dimension   11.085931    7.855943
|           W    W    AA    RRRRR   N    N  II  N    N   GGGG   !!!           |
|           W    W   A  A   R    R  NN   N  II  NN   N  G    G  !!!           |
|           W    W  A    A  R    R  N N  N  II  N N  N  G       !!!           |
|           W WW W  AAAAAA  RRRRR   N  N N  II  N  N N  G  GGG   !            |
|           WW  WW  A    A  R   R   N   NN  II  N   NN  G    G                |
|           W    W  A    A  R    R  N    N  II  N    N   GGGG   !!!           |
|     Tetrahedron method does not include variations of the Fermi             |
|     occupations, so forces and stress will be inaccurate. We suggest        |
|     using a different smearing scheme ISMEAR = 1 or 2 for metals in         |
|     relaxations.                                                            |

 total charge

# of ion       s       p       d       tot
    1        0.419   0.201   9.178   9.798
    2        0.416   0.203   9.177   9.796
    3        0.416   0.203   9.177   9.796
    4        0.415   0.203   9.178   9.796
    5        0.419   0.201   9.178   9.798
    6        0.415   0.203   9.178   9.796
    7        0.417   0.204   9.177   9.797
    8        0.417   0.204   9.177   9.797
    9        0.416   0.203   9.177   9.796
   10        0.408   0.271   9.162   9.841
   11        0.406   0.271   9.166   9.843
   12        0.407   0.271   9.162   9.841
   13        0.405   0.271   9.167   9.843
   14        0.405   0.271   9.167   9.843
   15        0.404   0.269   9.165   9.838
   16        0.407   0.270   9.164   9.841
   17        0.405   0.268   9.166   9.839
   18        0.405   0.268   9.166   9.839
   19        0.397   0.264   9.170   9.832
   20        0.432   0.307   9.140   9.879
   21        0.432   0.307   9.140   9.879
   22        0.390   0.274   9.168   9.832
   23        0.428   0.306   9.146   9.880
   24        0.390   0.274   9.168   9.832
   25        0.401   0.264   9.168   9.833
   26        0.401   0.264   9.168   9.833
   27        0.392   0.271   9.170   9.834
   28        0.413   0.195   9.180   9.787
   29        0.422   0.216   9.167   9.804
   30        0.422   0.216   9.167   9.804
   31        0.401   0.220   9.171   9.791
   32        0.400   0.220   9.171   9.791
   33        0.423   0.216   9.167   9.806
   34        0.423   0.216   9.167   9.806
   35        0.404   0.198   9.181   9.782
   36        0.553   0.343   4.808   5.704
   37        0.882   1.688   0.000   2.570
   38        1.597   3.462   0.000   5.060
   39        1.597   3.462   0.000   5.059
tot         19.003  17.437 325.698 362.138

 BZINTS: Fermi energy:    0.176622;  408.000000 electrons
         Band energy:-0.166415E+04;  BLOECHL correction:   -0.037328