 vasp.6.2.0 18Jan21 (build Jun 12 2021 23:27:24) complex

 executed on             LinuxIFC date 2022.05.26  19:37:17

 INCAR:
   ISMEAR = -5
   SIGMA = 0.1
   ISPIN = 1
   EDIFF = 1.d-5
   EDIFFG = -0.01
   NSW = 0
   NELM = 150
   ENCUT = 500
   ISIF = 2
   IBRION = 2
   LREAL = Auto
   ALGO = Fast
   ICHARG = 11
   LORBIT = 10
   LCHARG = .F.
   LWAVE = .F.

 POTCAR:    PAW_PBE Ag 02Apr2005
 POTCAR:    PAW_PBE Ti 08Apr2002
 POTCAR:    PAW_PBE N 08Apr2002
|           W    W    AA    RRRRR   N    N  II  N    N   GGGG   !!!           |
|           W    W   A  A   R    R  NN   N  II  NN   N  G    G  !!!           |
|           W    W  A    A  R    R  N N  N  II  N N  N  G       !!!           |
|           W WW W  AAAAAA  RRRRR   N  N N  II  N  N N  G  GGG   !            |
|           WW  WW  A    A  R   R   N   NN  II  N   NN  G    G                |
|           W    W  A    A  R    R  N    N  II  N    N   GGGG   !!!           |
|     For optimal performance we recommend to set                             |
|       NCORE = 2 up to number-of-cores-per-socket                            |
|     This setting can greatly improve the performance of VASP for DFT.       |
|     The default, NCORE=1 might be grossly inefficient on modern             |
|     multi-core architectures or massively parallel machines. Do your        |
|     Unfortunately you need to use the default for GW and RPA                |
|     calculations (for HF NCORE is supported but not extensively tested      |
|     yet).                                                                   |

 POTCAR:    PAW_PBE Ag 02Apr2005
   VRHFIN =Ag : s1 d10

   TITEL  = PAW_PBE Ag 02Apr2005
   POMASS =  107.868; ZVAL   =   11.000    mass and valenz
   ENMAX  =  249.844; ENMIN  =  187.383 eV

 POTCAR:    PAW_PBE Ti 08Apr2002
   VRHFIN =Ti: d3 s1

[...]

 POTCAR:    PAW_PBE N 08Apr2002
   VRHFIN =N: s2p3

   TITEL  = PAW_PBE N 08Apr2002
   POMASS =   14.001; ZVAL   =    5.000    mass and valenz
   ENMAX  =  400.000; ENMIN  =  300.000 eV

 Optimization of the real space projectors (new method)

 maximal supplied QI-value         = 15.12
 optimisation between [QCUT,QGAM] = [ 11.34, 22.83] = [ 36.00,145.93] Ry
 Optimized for a Real-space Cutoff    1.43 Angstroem

   l    n(q)    QCUT    max X(q) W(low)/X(q) W(high)/X(q)  e(spline)
   2      9    11.338    53.897    0.16E-03    0.20E-03    0.28E-06
   2      9    11.338    52.416    0.16E-03    0.20E-03    0.29E-06
   0     10    11.338   122.045    0.31E-04    0.76E-04    0.15E-06
   0     10    11.338    73.629    0.30E-04    0.72E-04    0.15E-06
   1      9    11.338    15.255    0.20E-03    0.19E-04    0.17E-06
   1      9    11.338     9.562    0.16E-03    0.15E-04    0.14E-06
 Optimization of the real space projectors (new method)

[...]

   l    n(q)    QCUT    max X(q) W(low)/X(q) W(high)/X(q)  e(spline)
   2     10    11.404    49.363    0.27E-03    0.67E-03    0.76E-06
   2     10    11.404    47.669    0.26E-03    0.65E-03    0.73E-06
   0     11    11.404    26.374    0.17E-03    0.20E-03    0.34E-06
   0     11    11.404    11.549    0.14E-03    0.16E-03    0.29E-06
   1     10    11.404     9.492    0.33E-04    0.56E-04    0.16E-06
 Optimization of the real space projectors (new method)

 maximal supplied QI-value         = 25.13
 optimisation between [QCUT,QGAM] = [ 11.31, 22.87] = [ 35.82,146.48] Ry
 Optimized for a Real-space Cutoff    1.27 Angstroem

   l    n(q)    QCUT    max X(q) W(low)/X(q) W(high)/X(q)  e(spline)
   0      9    11.310    79.467    0.75E-04    0.16E-03    0.36E-06
   0      9    11.310    66.151    0.74E-04    0.16E-03    0.36E-06
   1      8    11.310    17.416    0.35E-03    0.12E-03    0.95E-06
   1      8    11.310    12.382    0.37E-03    0.13E-03    0.98E-06
  PAW_PBE Ag 02Apr2005                  :
  PAW_PBE Ti 08Apr2002                  :
  PAW_PBE N 08Apr2002                   :

 POSCAR: Ag-Ti-N
  positions in direct lattice
  velocities in cartesian coordinates
 exchange correlation table for  LEXCH =        8
   RHO(1)=    0.500       N(1)  =     2000
   RHO(2)=  100.500       N(2)  =     4000

 VTST: version 3.2, (02/03/18)

 CHAIN: initializing optimizer

 OPT: Using VASP Conjugate-Gradient optimizer
 CHAIN: Read ICHAIN            0

 POSCAR: Ag-Ti-N
  positions in direct lattice
  velocities in cartesian coordinates

 ion  position               nearest neighbor table
   1  0.000  0.000  0.238-   2 2.93   8 2.93   7 2.93   6 2.93   4 2.93  12 2.93  16 2.93  10 2.93
                             3 2.93
   2  0.333  0.000  0.238-   1 2.93   8 2.93   9 2.93   3 2.93   4 2.93   5 2.93  10 2.93  17 2.93
                            11 2.93
   3  0.667  0.000  0.238-   9 2.93   2 2.93   5 2.93  11 2.93   7 2.93  18 2.93   1 2.93   6 2.93
                            12 2.93
   4  0.000  0.333  0.238-   5 2.93   6 2.93   2 2.93   1 2.93   7 2.93  13 2.93  15 2.93   9 2.93
                            10 2.93
   5  0.333  0.333  0.238-   4 2.93   3 2.93   7 2.93   2 2.93   8 2.93  14 2.93  13 2.93  11 2.93
                             6 2.93
   6  0.667  0.333  0.238-   4 2.93   9 2.93   1 2.93  15 2.93   8 2.93  12 2.93   3 2.93   5 2.93
                            14 2.93
   7  0.000  0.667  0.238-   8 2.93   1 2.93   5 2.93   3 2.93   4 2.93  16 2.93  18 2.93  13 2.93
                             9 2.93
   8  0.333  0.667  0.238-   7 2.93   1 2.93   2 2.93   9 2.93   5 2.93  16 2.93   6 2.93  17 2.93
                            14 2.93
   9  0.667  0.667  0.238-   3 2.93   2 2.93   8 2.93   6 2.93  17 2.93   4 2.93  15 2.93   7 2.93
                            18 2.93
  10  0.111  0.111  0.346-  20 2.91  19 2.92  26 2.92  12 2.93  16 2.93  15 2.93  17 2.93  13 2.93
                            11 2.93   2 2.93   1 2.93   4 2.93
  11  0.444  0.111  0.346-  21 2.91  20 2.91  27 2.92  14 2.93  17 2.93  18 2.93   3 2.93  12 2.93
                            13 2.93  10 2.93   5 2.93   2 2.93
  12  0.778  0.111  0.346-  21 2.91  25 2.92  19 2.92  10 2.93  16 2.93  18 2.93  15 2.93  11 2.93
                             1 2.93  14 2.93   6 2.93   3 2.93
  13  0.111  0.444  0.346-  20 2.91  23 2.91  22 2.92  15 2.93  14 2.93  18 2.93  10 2.93  11 2.93
                            16 2.93   4 2.93   5 2.93   7 2.93
  14  0.444  0.444  0.346-  23 2.91  21 2.91  24 2.92  13 2.93  11 2.93  16 2.93   5 2.93  12 2.93
                            17 2.93   8 2.93  15 2.93   6 2.93
  15  0.778  0.444  0.346-  19 2.92  24 2.92  22 2.92  13 2.93  10 2.93  12 2.93  17 2.93  18 2.93
                             4 2.93   6 2.93   9 2.93  14 2.93
  16  0.111  0.778  0.346-  23 2.91  26 2.92  25 2.92  18 2.93  12 2.93  10 2.93  14 2.93  17 2.93
                            13 2.93   7 2.93   8 2.93   1 2.93
  17  0.444  0.778  0.346-  26 2.92  27 2.92  24 2.92  11 2.93  10 2.93   9 2.93  18 2.93  15 2.93
                            16 2.93   2 2.93  14 2.93   8 2.93
  18  0.778  0.778  0.346-  25 2.92  22 2.92  27 2.92  16 2.93  12 2.93  13 2.93  11 2.93  17 2.93
                            15 2.93   7 2.93   3 2.93   9 2.93
  19  0.889  0.222  0.453-  10 2.92  12 2.92  15 2.92  28 2.92  26 2.93  25 2.93  24 2.93  22 2.93
                            20 2.94  21 2.94  32 2.96  31 2.96
  20  0.223  0.223  0.453-  36 2.82  13 2.91  11 2.91  10 2.91  21 2.92  23 2.92  27 2.93  22 2.93
                            19 2.94  26 2.94  31 2.94  29 2.94
  21  0.555  0.223  0.453-  36 2.82  11 2.91  14 2.91  12 2.91  20 2.92  23 2.92  27 2.93  24 2.93
                            25 2.94  19 2.94  30 2.94  32 2.94
  22  0.889  0.556  0.453-  18 2.92  15 2.92  13 2.92  24 2.93  27 2.93  25 2.93  19 2.93  35 2.93
                            23 2.93  20 2.93  33 2.94  31 2.94
  23  0.223  0.555  0.453-  36 2.82  14 2.91  13 2.91  16 2.91  21 2.92  20 2.92  22 2.93  24 2.93
                            26 2.94  25 2.94  34 2.94  33 2.94
  24  0.556  0.556  0.453-  15 2.92  17 2.92  14 2.92  27 2.93  22 2.93  19 2.93  26 2.93  35 2.93
                            23 2.93  21 2.93  32 2.94  34 2.94
  25  0.889  0.889  0.453-  16 2.92  12 2.92  18 2.92  28 2.92  26 2.93  19 2.93  22 2.93  27 2.93
                            23 2.94  21 2.94  33 2.96  30 2.96
  26  0.222  0.889  0.453-  16 2.92  10 2.92  17 2.92  28 2.92  25 2.93  19 2.93  27 2.93  24 2.93
                            23 2.94  20 2.94  34 2.96  29 2.96
  27  0.556  0.889  0.453-  17 2.92  18 2.92  11 2.92  24 2.93  22 2.93  26 2.93  25 2.93  35 2.93
                            20 2.93  21 2.93  29 2.94  30 2.94
  28  0.000  0.000  0.561-  26 2.92  25 2.92  19 2.92  29 2.95  34 2.95  33 2.95  32 2.95  31 2.95
                            30 2.95
  29  0.334  0.004  0.562-  30 2.89  31 2.90  36 2.90  20 2.94  27 2.94  35 2.95  28 2.95  26 2.96
                            34 3.00
  30  0.662  0.004  0.562-  29 2.89  32 2.90  36 2.90  21 2.94  27 2.94  35 2.95  28 2.95  25 2.96
                            33 3.00
  31  0.004  0.334  0.562-  33 2.89  29 2.90  36 2.90  20 2.94  22 2.94  35 2.95  28 2.95  19 2.96
                            32 3.00
  32  0.662  0.334  0.562-  34 2.89  30 2.90  36 2.90  21 2.94  24 2.94  35 2.95  28 2.95  19 2.96
                            31 3.00
  33  0.004  0.662  0.562-  31 2.89  34 2.90  36 2.90  23 2.94  22 2.94  35 2.95  28 2.95  25 2.96
                            30 3.00
  34  0.334  0.662  0.562-  32 2.89  33 2.90  36 2.90  23 2.94  24 2.94  35 2.95  28 2.95  26 2.96
                            29 3.00
  35  0.667  0.667  0.562-  24 2.93  27 2.93  22 2.93  30 2.95  32 2.95  29 2.95  34 2.95  31 2.95
                            33 2.95
  36  0.333  0.333  0.555-  37 1.70  21 2.82  20 2.82  23 2.82  31 2.90  33 2.90  30 2.90  29 2.90
                            34 2.90  32 2.90
  37  0.333  0.333  0.631-  36 1.70

  LATTYP: Found a hexagonal cell.
 ALAT       =     8.7913665772
 C/A-ratio  =     2.5227160501

  Lattice vectors:

 A1 = (  -4.3956832886,  -7.6135467898,   0.0000000000)
 A2 = (   8.7913665771,   0.0000000000,   0.0000000000)
 A3 = (   0.0000000000,   0.0000000000,  22.1781215668)

Analysis of symmetry for initial positions (statically):
 Subroutine PRICEL returns:
 Original cell was already a primitive cell.

 Routine SETGRP: Setting up the symmetry group for a
 hexagonal supercell.

 Subroutine GETGRP returns: Found  6 space group operations
 (whereof  6 operations were pure point group operations)
 out of a pool of 24 trial point group operations.

The static configuration has the point symmetry C_3v.

Analysis of symmetry for dynamics (positions and initial velocities):
 Subroutine PRICEL returns:
 Original cell was already a primitive cell.

[...]

The dynamic configuration has the point symmetry C_3v.

Analysis of constrained symmetry for selective dynamics:
 Subroutine PRICEL returns:
 Original cell was already a primitive cell.

 Routine SETGRP: Setting up the symmetry group for a
 hexagonal supercell.

 Subroutine GETGRP returns: Found  6 space group operations
 (whereof  6 operations were pure point group operations)
 out of a pool of 24 trial point group operations.

The constrained configuration has the point symmetry C_3v.

[...]
     24      -4.8416      2.00000
     25      -4.8178      2.00000
     26      -4.8017      2.00000
     27      -4.7866      2.00000
     28      -4.7677      2.00000
     29      -4.7663      2.00000
     30      -4.7464      2.00000
     31      -4.7330      2.00000
     32      -4.7299      2.00000
     33      -4.7005      2.00000
     34      -4.6603      2.00000
     35      -4.6425      2.00000
     36      -4.6155      2.00000
     37      -4.6061      2.00000
     38      -4.5708      2.00000
     39      -4.5395      2.00000
     40      -4.5358      2.00000
     41      -4.5259      2.00000
     42      -4.5237      2.00000
     43      -4.5069      2.00000
     44      -4.4138      2.00000
     45      -4.3902      2.00000
     46      -4.3797      2.00000
     47      -4.3761      2.00000
     48      -4.3678      2.00000
     49      -4.3634      2.00000
     50      -4.3566      2.00000
     51      -4.3482      2.00000
     52      -4.3402      2.00000
     53      -4.3240      2.00000
     54      -4.2656      2.00000
     55      -4.2563      2.00000
     56      -4.2499      2.00000
     57      -4.2381      2.00000
     58      -4.2252      2.00000
     59      -4.2100      2.00000
     60      -4.1768      2.00000
[...]
    238       6.2361      0.00000
    239       6.2450      0.00000
    240       6.5096      0.00000
    241       7.0353      0.00000
    242       7.0735      0.00000
    243       7.1285      0.00000
    244       7.2918      0.00000
    245       7.3306      0.00000
    246       7.3471      0.00000
    247       7.3781      0.00000
    248       7.4281      0.00000
    249       7.4922      0.00000
    250       7.6077      0.00000
    251       7.6172      0.00000
    252       7.7272      0.00000

 soft charge-density along one line, spin component           1
         0         1         2         3         4         5         6         7         8         9
 total charge-density along one line

------------------------ aborting loop because EDIFF is reached ----------------------------------------

 total charge

# of ion       s       p       d       tot
    1        0.416   0.203   9.177   9.796
    2        0.415   0.204   9.177   9.795
    3        0.415   0.204   9.177   9.795
    4        0.415   0.204   9.177   9.795
    5        0.419   0.201   9.177   9.797
    6        0.415   0.204   9.177   9.795
    7        0.415   0.204   9.177   9.795
    8        0.415   0.204   9.177   9.795
    9        0.415   0.203   9.177   9.795
   10        0.405   0.271   9.164   9.840
   11        0.406   0.270   9.165   9.841
   12        0.405   0.271   9.164   9.840
   13        0.406   0.270   9.165   9.841
   14        0.406   0.270   9.165   9.841
   15        0.403   0.271   9.163   9.837
   16        0.405   0.271   9.164   9.840
   17        0.403   0.271   9.163   9.837
   18        0.403   0.271   9.163   9.837
   19        0.401   0.267   9.167   9.835
   20        0.424   0.289   9.148   9.862
   21        0.424   0.289   9.148   9.862
   22        0.397   0.274   9.164   9.835
   23        0.424   0.289   9.148   9.862
   24        0.397   0.274   9.164   9.835
   25        0.401   0.267   9.167   9.835
   26        0.401   0.267   9.167   9.835
   27        0.397   0.274   9.164   9.835
   28        0.413   0.200   9.177   9.790
   29        0.426   0.204   9.169   9.800
   30        0.426   0.204   9.169   9.800
   31        0.426   0.204   9.169   9.800
   32        0.426   0.204   9.169   9.800
   33        0.426   0.204   9.169   9.800
   34        0.426   0.204   9.169   9.800
   35        0.415   0.199   9.176   9.790
   36        0.519   0.650   2.869   4.038
   37        1.335   2.192   0.000   3.527
tot         16.289  11.223 323.741 351.253

  FORCE on cell =-STRESS in cart. coord.  units (eV):
  Direction    XX          YY          ZZ          XY          YZ          ZX
  Alpha Z   747.42376   747.42376   747.42376
  Ewald  118459.61651118459.61642************    -0.00000    -0.00001     0.00002
  Hartree128511.85112128511.85108************    -0.00000    -0.00000     0.00000
  E(xc)   -2064.46364 -2064.46364 -2073.39507     0.00000     0.00000     0.00000
  Local  ************************258105.35984     0.00045    -0.00004    -0.00012
  n-local  -335.18322  -320.40126  -338.82783     9.55013    -0.43194     0.45083
  augment  3224.39569  3224.39588  3239.25473    -0.00017    -0.00001    -0.00001
  Kinetic  4881.08411  4882.10390  4915.20833     3.67771     0.97568    -0.38598
  Fock        0.00000     0.00000     0.00000     0.00000     0.00000     0.00000
  Total      -7.27689    -7.27689    -0.68067    -0.00000    -0.00000    -0.00000
  in kB      -7.85395    -7.85395    -0.73464    -0.00000    -0.00000    -0.00000

 VOLUME and BASIS-vectors are now :
  energy-cutoff  :      500.00
  volume of cell :     1484.46
      direct lattice vectors                 reciprocal lattice vectors
     8.791366577  0.000000000  0.000000000     0.113747958 -0.065672414  0.000000000
     4.395683289  7.613546790  0.000000000     0.000000000  0.131344829  0.000000000
     0.000000000  0.000000000 22.178121567     0.000000000  0.000000000  0.045089481

  length of vectors
     8.791366577  8.791366577 22.178121567     0.131344829  0.131344829  0.045089481

 FORCES acting on ions
    electron-ion (+dipol)            ewald-force                    non-local-force                 convergence-correction
   0.462E-04 -.280E-04 0.248E+04   -.953E-04 0.593E-04 -.248E+04   -.116E-17 -.273E-17 -.182E+01   -.834E-04 -.155E-03 -.629E-01
   -.337E+00 -.347E+00 0.248E+04   0.217E+00 0.203E+00 -.248E+04   0.506E-01 0.902E-01 -.164E+01   0.628E-01 0.457E-01 -.419E-01
   0.337E+00 -.347E+00 0.248E+04   -.216E+00 0.203E+00 -.248E+04   -.506E-01 0.902E-01 -.164E+01   -.634E-01 0.475E-01 -.413E-01
   -.469E+00 -.118E+00 0.248E+04   0.284E+00 0.859E-01 -.248E+04   0.103E+00 -.129E-02 -.164E+01   0.712E-01 0.317E-01 -.419E-01
   -.626E-05 -.190E-04 0.248E+04   0.981E-04 -.200E-05 -.248E+04   -.137E-17 -.185E-17 -.152E+01   0.618E-02 0.378E-02 -.531E-02
   0.469E+00 -.118E+00 0.248E+04   -.285E+00 0.858E-01 -.248E+04   -.103E+00 -.129E-02 -.164E+01   -.725E-01 0.327E-01 -.412E-01
   -.132E+00 0.465E+00 0.248E+04   0.678E-01 -.289E+00 -.248E+04   0.528E-01 -.889E-01 -.164E+01   0.992E-02 -.781E-01 -.413E-01
   0.132E+00 0.465E+00 0.248E+04   -.679E-01 -.289E+00 -.248E+04   -.528E-01 -.889E-01 -.164E+01   -.832E-02 -.791E-01 -.412E-01
   0.366E-04 -.130E-04 0.248E+04   0.791E-04 -.642E-04 -.248E+04   -.214E-17 0.421E-19 -.176E+01   -.663E-02 -.341E-02 0.281E-01
   -.170E+01 -.981E+00 0.815E+03   0.180E+01 0.104E+01 -.814E+03   -.148E+00 -.855E-01 -.550E+00   0.316E-01 0.183E-01 0.105E+00
   -.286E-04 -.176E+01 0.810E+03   0.406E-04 0.168E+01 -.810E+03   0.577E-12 0.879E-01 -.531E+00   0.612E-02 -.185E-01 0.982E-01
   0.170E+01 -.981E+00 0.815E+03   -.180E+01 0.104E+01 -.814E+03   0.148E+00 -.855E-01 -.550E+00   -.329E-01 0.189E-01 0.104E+00
   -.153E+01 0.881E+00 0.810E+03   0.145E+01 -.840E+00 -.810E+03   0.762E-01 -.440E-01 -.531E+00   -.130E-01 0.146E-01 0.982E-01
   0.153E+01 0.881E+00 0.810E+03   -.145E+01 -.840E+00 -.810E+03   -.762E-01 -.440E-01 -.531E+00   0.232E-01 0.137E-01 0.965E-01
   0.152E-04 -.105E+00 0.815E+03   -.107E-03 0.262E-01 -.814E+03   0.306E-12 0.466E-01 -.654E+00   -.132E-02 0.290E-01 0.821E-01
   -.814E-05 0.196E+01 0.815E+03   0.207E-04 -.207E+01 -.814E+03   0.112E-11 0.171E+00 -.550E+00   -.142E-03 -.381E-01 0.104E+00
   -.911E-01 0.526E-01 0.815E+03   0.226E-01 -.132E-01 -.814E+03   0.403E-01 -.233E-01 -.654E+00   0.244E-01 -.156E-01 0.821E-01
   0.910E-01 0.525E-01 0.815E+03   -.227E-01 -.131E-01 -.814E+03   -.403E-01 -.233E-01 -.654E+00   -.243E-01 -.141E-01 0.829E-01
   0.384E-04 -.568E+01 -.863E+03   -.125E-03 0.546E+01 0.862E+03   0.112E-11 0.171E+00 0.970E+00   0.564E-02 0.612E-01 0.783E-01
   -.313E+02 -.181E+02 -.897E+03   0.316E+02 0.182E+02 0.897E+03   -.477E+00 -.276E+00 -.157E+00   0.184E-01 0.107E-01 0.125E+00
   0.313E+02 -.181E+02 -.897E+03   -.316E+02 0.182E+02 0.897E+03   0.477E+00 -.276E+00 -.157E+00   -.202E-01 0.101E-01 0.124E+00
   -.136E+02 0.783E+01 -.866E+03   0.134E+02 -.774E+01 0.865E+03   0.158E+00 -.910E-01 0.507E+00   0.281E-01 -.106E-01 0.495E-01
   -.511E-04 0.361E+02 -.897E+03   0.357E-04 -.364E+02 0.897E+03   0.362E-11 0.551E+00 -.157E+00   -.980E-03 -.219E-01 0.124E+00
   0.136E+02 0.783E+01 -.866E+03   -.134E+02 -.774E+01 0.865E+03   -.158E+00 -.910E-01 0.507E+00   -.173E-01 -.991E-02 0.496E-01
   0.492E+01 0.284E+01 -.863E+03   -.473E+01 -.273E+01 0.862E+03   -.148E+00 -.853E-01 0.970E+00   -.462E-01 -.268E-01 0.780E-01
   -.492E+01 0.284E+01 -.863E+03   0.473E+01 -.273E+01 0.862E+03   0.148E+00 -.853E-01 0.970E+00   0.555E-01 -.258E-01 0.783E-01
   0.194E-04 -.157E+02 -.866E+03   0.110E-03 0.155E+02 0.865E+03   0.120E-11 0.182E+00 0.507E+00   0.424E-02 0.296E-01 0.496E-01
   0.540E-04 -.362E-04 -.247E+04   -.114E-03 0.769E-04 0.247E+04   0.696E-17 0.271E-17 0.180E+01   0.224E-03 -.537E-05 0.369E-01
   -.133E+02 -.290E+02 -.246E+04   0.135E+02 0.294E+02 0.246E+04   -.391E+00 -.631E+00 0.234E+01   0.103E+00 0.549E-01 -.162E-01
   0.133E+02 -.290E+02 -.246E+04   -.135E+02 0.294E+02 0.246E+04   0.391E+00 -.631E+00 0.234E+01   -.104E+00 0.558E-01 -.160E-01
   -.317E+02 0.297E+01 -.246E+04   0.322E+02 -.303E+01 0.246E+04   -.742E+00 -.228E-01 0.234E+01   0.992E-01 0.618E-01 -.162E-01
   0.317E+02 0.297E+01 -.246E+04   -.322E+02 -.303E+01 0.246E+04   0.742E+00 -.228E-01 0.234E+01   -.993E-01 0.627E-01 -.152E-01
   -.184E+02 0.260E+02 -.246E+04   0.187E+02 -.264E+02 0.246E+04   -.351E+00 0.654E+00 0.234E+01   -.311E-02 -.117E+00 -.160E-01
   0.184E+02 0.260E+02 -.246E+04   -.187E+02 -.264E+02 0.246E+04   0.351E+00 0.654E+00 0.234E+01   0.431E-02 -.117E+00 -.152E-01
   0.256E-04 -.131E-04 -.248E+04   0.104E-03 -.654E-04 0.247E+04   -.227E-17 0.922E-18 0.177E+01   -.636E-02 -.324E-02 0.482E-01
   -.334E-05 0.510E-05 -.792E+03   0.380E-04 0.429E-05 0.790E+03   -.179E-17 -.277E-18 0.134E+01   0.328E-03 0.203E-03 0.156E-02
   0.102E-03 -.559E-04 -.129E+04   0.232E-04 0.334E-06 0.130E+04   -.220E-18 0.174E-18 -.135E+02   0.144E-02 0.886E-03 -.182E+00
   0.456E-03 -.734E-03 0.974E+01   0.242E-13 0.194E-13 0.159E-11   -.115E-15 0.819E-18 -.108E+02   0.357E-01 0.238E-01 0.113E+01

 POSITION                                       TOTAL-FORCE (eV/Angst)
      0.00000      0.00000      5.28219         0.000000     -0.000000      0.002474
      2.93046      0.00000      5.28219        -0.006210     -0.006840      0.028573
      5.86091      0.00000      5.28219         0.006210     -0.006840      0.028573
      1.46523      2.53785      5.28219        -0.009029     -0.001957      0.028573
      4.39568      2.53785      5.28219         0.000000     -0.000000     -0.009398
      7.32614      2.53785      5.28219         0.009029     -0.001957      0.028573
      2.93046      5.07570      5.28219        -0.002819      0.008798      0.028573
      5.86091      5.07570      5.28219         0.002819      0.008798      0.028573
      8.79137      5.07570      5.28219         0.000000     -0.000000      0.019961
      1.46523      0.84595      7.67490        -0.019519     -0.011269     -0.038012
      4.39568      0.84595      7.67490        -0.000000     -0.017066     -0.052414
      7.32614      0.84595      7.67490         0.019519     -0.011269     -0.038012
      2.93046      3.38380      7.67490        -0.014780      0.008533     -0.052414
      5.86091      3.38380      7.67490         0.014780      0.008533     -0.052414
      8.79137      3.38380      7.67490        -0.000000     -0.003741      0.007750
      4.39568      5.92165      7.67490         0.000000      0.022538     -0.038012
      7.32614      5.92165      7.67490        -0.003240      0.001871      0.007750
     10.25659      5.92165      7.67490         0.003240      0.001871      0.007750
      8.79137      1.69074     10.05145         0.000000      0.010773      0.078380
      2.93556      1.69484     10.04095        -0.187612     -0.108318     -0.119221
      5.85581      1.69484     10.04095         0.187612     -0.108318     -0.119221
     10.25435      4.23104     10.05745         0.029400     -0.016974      0.046093
      4.39568      4.22386     10.04095         0.000000      0.216636     -0.119221
      7.32838      4.23104     10.05745        -0.029400     -0.016974      0.046093
     11.72283      6.76818     10.05145        -0.009329     -0.005386      0.078380
      5.85990      6.76818     10.05145         0.009329     -0.005386      0.078380
      8.79137      6.76501     10.05745         0.000000      0.033948      0.046093
      0.00000      0.00000     12.43413         0.000000     -0.000000     -0.047290
      2.95009      0.02948     12.45917        -0.086121     -0.111990     -0.015939
      5.84128      0.02948     12.45917         0.086121     -0.111990     -0.015939
      1.50057      2.54011     12.45917        -0.140047     -0.018588     -0.015939
      7.29079      2.54011     12.45917         0.140047     -0.018588     -0.015939
      2.94617      5.04396     12.45917        -0.053926      0.130578     -0.015939
      5.84520      5.04396     12.45917         0.053926      0.130578     -0.015939
      8.79137      5.07570     12.45428         0.000000     -0.000000     -0.058251
      4.39568      2.53785     12.30230         0.000000     -0.000000      0.246720
      4.39568      2.53785     14.00498         0.000000     -0.000000      0.002250
    total drift:                                0.036111      0.023089      0.112164

  FREE ENERGIE OF THE ION-ELECTRON SYSTEM (eV)
  free  energy   TOTEN  =      -103.53550261 eV

  energy  without entropy=     -103.53550261  energy(sigma->0) =     -103.53550261

 stress matrix after NEB project (eV)
     -7.27689     -0.00000     -0.00000
     -0.00000     -7.27689      0.00000
      0.00000     -0.00000     -0.68067
  FORCES: max atom, RMS     0.002250    0.000370
  FORCE total and by dimension    0.002250    0.002250
  Stress total and by dimension   10.313560    7.276889
|           W    W    AA    RRRRR   N    N  II  N    N   GGGG   !!!           |
|           W    W   A  A   R    R  NN   N  II  NN   N  G    G  !!!           |
|           W    W  A    A  R    R  N N  N  II  N N  N  G       !!!           |
|           W WW W  AAAAAA  RRRRR   N  N N  II  N  N N  G  GGG   !            |
|           WW  WW  A    A  R   R   N   NN  II  N   NN  G    G                |
|           W    W  A    A  R    R  N    N  II  N    N   GGGG   !!!           |
|     Tetrahedron method does not include variations of the Fermi             |
|     occupations, so forces and stress will be inaccurate. We suggest        |
|     using a different smearing scheme ISMEAR = 1 or 2 for metals in         |
|     relaxations.                                                            |

 total charge

# of ion       s       p       d       tot
    1        0.416   0.203   9.177   9.796
    2        0.415   0.204   9.177   9.795
    3        0.415   0.204   9.177   9.795
    4        0.415   0.204   9.177   9.795
    5        0.419   0.201   9.177   9.797
    6        0.415   0.204   9.177   9.795
    7        0.415   0.204   9.177   9.795
    8        0.415   0.204   9.177   9.795
    9        0.415   0.203   9.177   9.795
   10        0.405   0.271   9.164   9.840
   11        0.406   0.270   9.165   9.841
   12        0.405   0.271   9.164   9.840
   13        0.406   0.270   9.165   9.841
   14        0.406   0.270   9.165   9.841
   15        0.403   0.271   9.163   9.837
   16        0.405   0.271   9.164   9.840
   17        0.403   0.271   9.163   9.837
   18        0.403   0.271   9.163   9.837
   19        0.401   0.267   9.167   9.835
   20        0.424   0.289   9.148   9.862
   21        0.424   0.289   9.148   9.862
   22        0.397   0.274   9.164   9.835
   23        0.424   0.289   9.148   9.862
   24        0.397   0.274   9.164   9.835
   25        0.401   0.267   9.167   9.835
   26        0.401   0.267   9.167   9.835
   27        0.397   0.274   9.164   9.835
   28        0.413   0.200   9.177   9.790
   29        0.426   0.204   9.169   9.800
   30        0.426   0.204   9.169   9.800
   31        0.426   0.204   9.169   9.800
   32        0.426   0.204   9.169   9.800
   33        0.426   0.204   9.169   9.800
   34        0.426   0.204   9.169   9.800
   35        0.415   0.199   9.176   9.790
   36        0.519   0.650   2.869   4.038
   37        1.335   2.192   0.000   3.527
tot         16.289  11.223 323.741 351.253

 BZINTS: Fermi energy:    0.667491;  394.000000 electrons
         Band energy:-0.137059E+04;  BLOECHL correction:   -0.078075