 vasp.6.2.0 18Jan21 (build Jun 12 2021 23:27:24) complex

 executed on             LinuxIFC date 2022.05.30  17:30:25

 INCAR:
   ISMEAR = -5
   SIGMA = 0.1
   ISPIN = 1
   EDIFF = 1.d-5
   EDIFFG = -0.01
   NSW = 0
   NELM = 150
   ENCUT = 500
   ISIF = 2
   IBRION = 2
   LREAL = Auto
   ALGO = Fast
   ICHARG = 11
   LORBIT = 10
   LCHARG = .F.
   LWAVE = .F.

 POTCAR:    PAW_PBE Ag 02Apr2005
 POTCAR:    PAW_PBE Hf 20Jan2003
 POTCAR:    PAW_PBE C 08Apr2002
|           W    W    AA    RRRRR   N    N  II  N    N   GGGG   !!!           |
|           W    W   A  A   R    R  NN   N  II  NN   N  G    G  !!!           |
|           W    W  A    A  R    R  N N  N  II  N N  N  G       !!!           |
|           W WW W  AAAAAA  RRRRR   N  N N  II  N  N N  G  GGG   !            |
|           WW  WW  A    A  R   R   N   NN  II  N   NN  G    G                |
|           W    W  A    A  R    R  N    N  II  N    N   GGGG   !!!           |
|     For optimal performance we recommend to set                             |
|       NCORE = 2 up to number-of-cores-per-socket                            |
|     This setting can greatly improve the performance of VASP for DFT.       |
|     The default, NCORE=1 might be grossly inefficient on modern             |
|     multi-core architectures or massively parallel machines. Do your        |
|     Unfortunately you need to use the default for GW and RPA                |
|     calculations (for HF NCORE is supported but not extensively tested      |
|     yet).                                                                   |

 POTCAR:    PAW_PBE Ag 02Apr2005
   VRHFIN =Ag : s1 d10

   TITEL  = PAW_PBE Ag 02Apr2005
   POMASS =  107.868; ZVAL   =   11.000    mass and valenz
   ENMAX  =  249.844; ENMIN  =  187.383 eV

 POTCAR:    PAW_PBE Hf 20Jan2003
   VRHFIN =Hf: 6s5d

   TITEL  = PAW_PBE Hf 20Jan2003
   POMASS =  178.490; ZVAL   =    4.000    mass and valenz
   ENMAX  =  220.334; ENMIN  =  165.250 eV

 POTCAR:    PAW_PBE C 08Apr2002
   VRHFIN =C: s2p2

   TITEL  = PAW_PBE C 08Apr2002
   POMASS =   12.011; ZVAL   =    4.000    mass and valenz
   ENMAX  =  400.000; ENMIN  =  300.000 eV

 Optimization of the real space projectors (new method)

 maximal supplied QI-value         = 15.12
 optimisation between [QCUT,QGAM] = [ 11.34, 22.83] = [ 36.00,145.93] Ry
 Optimized for a Real-space Cutoff    1.43 Angstroem

   l    n(q)    QCUT    max X(q) W(low)/X(q) W(high)/X(q)  e(spline)
   2      9    11.338    53.897    0.16E-03    0.20E-03    0.28E-06
   2      9    11.338    52.416    0.16E-03    0.20E-03    0.29E-06
   0     10    11.338   122.045    0.31E-04    0.76E-04    0.15E-06
   0     10    11.338    73.629    0.30E-04    0.72E-04    0.15E-06
   1      9    11.338    15.255    0.20E-03    0.19E-04    0.17E-06
   1      9    11.338     9.562    0.16E-03    0.15E-04    0.14E-06
 Optimization of the real space projectors (new method)

[...]

   l    n(q)    QCUT    max X(q) W(low)/X(q) W(high)/X(q)  e(spline)
   2     10    11.350    48.111    0.20E-03    0.11E-03    0.41E-06
   2     10    11.350    40.545    0.19E-03    0.10E-03    0.39E-06
   0     11    11.350   121.658    0.22E-04    0.19E-04    0.24E-06
   0     11    11.350    71.177    0.17E-04    0.17E-04    0.23E-06
   1     11    11.350    14.183    0.25E-03    0.43E-03    0.12E-05
   1     11    11.350     8.257    0.17E-03    0.29E-03    0.81E-06
 Optimization of the real space projectors (new method)

 maximal supplied QI-value         = 25.13
 optimisation between [QCUT,QGAM] = [ 11.31, 22.87] = [ 35.82,146.48] Ry
 Optimized for a Real-space Cutoff    1.00 Angstroem

   l    n(q)    QCUT    max X(q) W(low)/X(q) W(high)/X(q)  e(spline)
   0      7    11.310   115.676    0.43E-03    0.13E-02    0.19E-06
   0      7    11.310    87.132    0.43E-03    0.13E-02    0.18E-06
   1      6    11.310     4.429    0.42E-03    0.74E-03    0.11E-06
   1      6    11.310     2.733    0.34E-03    0.55E-03    0.92E-07
  PAW_PBE Ag 02Apr2005                  :
  PAW_PBE Hf 20Jan2003                  :
  PAW_PBE C 08Apr2002                   :

 POSCAR: Ag-Hf-C
  positions in direct lattice
  velocities in cartesian coordinates
 exchange correlation table for  LEXCH =        8
   RHO(1)=    0.500       N(1)  =     2000
   RHO(2)=  100.500       N(2)  =     4000

 VTST: version 3.2, (02/03/18)

 CHAIN: initializing optimizer

 OPT: Using VASP Conjugate-Gradient optimizer
 CHAIN: Read ICHAIN            0

 POSCAR: Ag-Hf-C
  positions in direct lattice
  velocities in cartesian coordinates

 ion  position               nearest neighbor table
   1  0.000  0.000  0.217-   2 2.93   8 2.93   7 2.93   6 2.93   4 2.93  12 2.93  16 2.93  10 2.93
                             3 2.93
   2  0.333  0.000  0.217-   1 2.93   8 2.93   9 2.93   3 2.93   4 2.93   5 2.93  10 2.93  17 2.93
                            11 2.93
   3  0.667  0.000  0.217-   9 2.93   2 2.93   5 2.93  11 2.93   7 2.93  18 2.93   1 2.93   6 2.93
                            12 2.93
   4  0.000  0.333  0.217-   5 2.93   6 2.93   2 2.93   1 2.93   7 2.93  13 2.93  15 2.93   9 2.93
                            10 2.93
   5  0.333  0.333  0.217-   4 2.93   3 2.93   7 2.93   2 2.93   8 2.93  14 2.93  13 2.93  11 2.93
                             6 2.93
   6  0.667  0.333  0.217-   4 2.93   9 2.93   1 2.93  15 2.93   8 2.93  12 2.93   3 2.93   5 2.93
                            14 2.93
   7  0.000  0.667  0.217-   8 2.93   1 2.93   5 2.93   3 2.93   4 2.93  16 2.93  18 2.93  13 2.93
                             9 2.93
   8  0.333  0.667  0.217-   7 2.93   1 2.93   2 2.93   9 2.93   5 2.93  16 2.93   6 2.93  17 2.93
                            14 2.93
   9  0.667  0.667  0.217-   3 2.93   2 2.93   8 2.93   6 2.93  17 2.93   4 2.93  15 2.93   7 2.93
                            18 2.93
  10  0.111  0.111  0.315-  20 2.90  19 2.92  26 2.92  12 2.93  16 2.93  15 2.93  17 2.93  13 2.93
                            11 2.93   2 2.93   1 2.93   4 2.93
  11  0.444  0.111  0.315-  21 2.90  20 2.90  14 2.93  17 2.93  18 2.93   3 2.93  12 2.93  13 2.93
                            10 2.93   5 2.93   2 2.93  27 2.93
  12  0.778  0.111  0.315-  21 2.90  25 2.92  19 2.92  10 2.93  16 2.93  18 2.93  15 2.93  11 2.93
                             1 2.93  14 2.93   6 2.93   3 2.93
  13  0.111  0.444  0.315-  20 2.90  23 2.90  15 2.93  14 2.93  18 2.93  10 2.93  11 2.93  16 2.93
                             4 2.93   5 2.93   7 2.93  22 2.93
  14  0.444  0.444  0.315-  23 2.90  21 2.90  13 2.93  11 2.93  16 2.93   5 2.93  12 2.93  17 2.93
                             8 2.93  15 2.93   6 2.93  24 2.93
  15  0.778  0.444  0.315-  19 2.92  24 2.93  22 2.93  13 2.93  10 2.93  12 2.93  17 2.93  18 2.93
                             4 2.93   6 2.93   9 2.93  14 2.93
  16  0.111  0.778  0.315-  23 2.90  26 2.92  25 2.92  18 2.93  12 2.93  10 2.93  14 2.93  17 2.93
                            13 2.93   7 2.93   8 2.93   1 2.93
  17  0.444  0.778  0.315-  26 2.92  27 2.93  24 2.93  11 2.93  10 2.93   9 2.93  18 2.93  15 2.93
                            16 2.93   2 2.93  14 2.93   8 2.93
  18  0.778  0.778  0.315-  25 2.92  22 2.93  27 2.93  16 2.93  12 2.93  13 2.93  11 2.93  17 2.93
                            15 2.93   7 2.93   3 2.93   9 2.93
  19  0.889  0.222  0.413-  10 2.92  12 2.92  15 2.92  20 2.93  21 2.93  26 2.93  25 2.93  24 2.93
                            22 2.93  28 2.94  32 2.98  31 2.98
  20  0.222  0.222  0.412-  36 2.86  10 2.90  13 2.90  11 2.90  19 2.93  26 2.93  27 2.93  22 2.93
                            21 2.94  23 2.94  31 2.97  29 2.97
  21  0.556  0.222  0.412-  36 2.86  12 2.90  11 2.90  14 2.90  25 2.93  19 2.93  27 2.93  24 2.93
                            20 2.94  23 2.94  30 2.97  32 2.97
  22  0.889  0.556  0.413-  24 2.93  27 2.93  18 2.93  15 2.93  25 2.93  19 2.93  13 2.93  23 2.93
                            20 2.93  35 2.94  33 2.96  31 2.96
  23  0.222  0.556  0.412-  36 2.86  16 2.90  14 2.90  13 2.90  26 2.93  25 2.93  22 2.93  24 2.93
                            21 2.94  20 2.94  34 2.97  33 2.97
  24  0.556  0.556  0.413-  27 2.93  22 2.93  15 2.93  17 2.93  19 2.93  26 2.93  14 2.93  23 2.93
                            21 2.93  35 2.94  32 2.96  34 2.96
  25  0.889  0.889  0.413-  16 2.92  12 2.92  18 2.92  23 2.93  21 2.93  26 2.93  19 2.93  22 2.93
                            27 2.93  28 2.94  33 2.98  30 2.98
  26  0.222  0.889  0.413-  16 2.92  10 2.92  17 2.92  23 2.93  20 2.93  25 2.93  19 2.93  27 2.93
                            24 2.93  28 2.94  34 2.98  29 2.98
  27  0.556  0.889  0.413-  24 2.93  22 2.93  17 2.93  18 2.93  26 2.93  25 2.93  11 2.93  20 2.93
                            21 2.93  35 2.94  29 2.96  30 2.96
  28  0.000  0.000  0.511-  26 2.94  25 2.94  19 2.94  29 2.94  34 2.94  33 2.94  32 2.94  31 2.94
                            30 2.94
  29  0.333  0.003  0.513-  30 2.90  31 2.91  36 2.91  35 2.94  28 2.94  27 2.96  20 2.97  26 2.98
                            34 2.98
  30  0.664  0.003  0.513-  29 2.90  32 2.91  36 2.91  35 2.94  28 2.94  27 2.96  21 2.97  25 2.98
                            33 2.98
  31  0.003  0.333  0.513-  33 2.90  29 2.91  36 2.91  35 2.94  28 2.94  22 2.96  20 2.97  19 2.98
                            32 2.98
  32  0.664  0.333  0.513-  34 2.90  30 2.91  36 2.91  35 2.94  28 2.94  24 2.96  21 2.97  19 2.98
                            31 2.98
  33  0.003  0.664  0.513-  31 2.90  34 2.91  36 2.91  35 2.94  28 2.94  22 2.96  23 2.97  25 2.98
                            30 2.98
  34  0.333  0.664  0.513-  32 2.90  33 2.91  36 2.91  35 2.94  28 2.94  24 2.96  23 2.97  26 2.98
                            29 2.98
  35  0.667  0.667  0.512-  30 2.94  29 2.94  32 2.94  34 2.94  31 2.94  33 2.94  24 2.94  27 2.94
                            22 2.94
  36  0.333  0.333  0.506-  37 1.94  21 2.86  20 2.86  23 2.86  31 2.91  33 2.91  30 2.91  29 2.91
                            34 2.91  32 2.91
  37  0.333  0.333  0.586-  36 1.94

  LATTYP: Found a hexagonal cell.
 ALAT       =     8.7913665772
 C/A-ratio  =     2.7711238095

  Lattice vectors:

 A1 = (  -4.3956832886,  -7.6135467898,   0.0000000000)
 A2 = (   8.7913665771,   0.0000000000,   0.0000000000)
 A3 = (   0.0000000000,   0.0000000000,  24.3619652401)

Analysis of symmetry for initial positions (statically):
 Subroutine PRICEL returns:
 Original cell was already a primitive cell.

 Routine SETGRP: Setting up the symmetry group for a
 hexagonal supercell.

 Subroutine GETGRP returns: Found  6 space group operations
 (whereof  6 operations were pure point group operations)
 out of a pool of 24 trial point group operations.

The static configuration has the point symmetry C_3v.

Analysis of symmetry for dynamics (positions and initial velocities):
 Subroutine PRICEL returns:
 Original cell was already a primitive cell.

[...]

The dynamic configuration has the point symmetry C_3v.

Analysis of constrained symmetry for selective dynamics:
 Subroutine PRICEL returns:
 Original cell was already a primitive cell.

 Routine SETGRP: Setting up the symmetry group for a
 hexagonal supercell.

 Subroutine GETGRP returns: Found  6 space group operations
[...]
     24      -5.3044      2.00000
     25      -5.2919      2.00000
     26      -5.2772      2.00000
     27      -5.2662      2.00000
     28      -5.2352      2.00000
     29      -5.2291      2.00000
     30      -5.2283      2.00000
     31      -5.1982      2.00000
     32      -5.1892      2.00000
     33      -5.1616      2.00000
     34      -5.1547      2.00000
     35      -5.1230      2.00000
     36      -5.1052      2.00000
     37      -5.0779      2.00000
     38      -5.0367      2.00000
     39      -5.0085      2.00000
     40      -5.0043      2.00000
     41      -4.9959      2.00000
     42      -4.9833      2.00000
     43      -4.9709      2.00000
     44      -4.8771      2.00000
     45      -4.8573      2.00000
     46      -4.8471      2.00000
     47      -4.8408      2.00000
     48      -4.8287      2.00000
     49      -4.8252      2.00000
     50      -4.8217      2.00000
     51      -4.8168      2.00000
     52      -4.8060      2.00000
     53      -4.7930      2.00000
     54      -4.7347      2.00000
     55      -4.7270      2.00000
     56      -4.7187      2.00000
     57      -4.7024      2.00000
     58      -4.6936      2.00000
     59      -4.6723      2.00000
     60      -4.6529      2.00000
[...]
    238       5.8478      0.00000
    239       5.8977      0.00000
    240       6.0923      0.00000
    241       6.5218      0.00000
    242       6.5327      0.00000
    243       6.6061      0.00000
    244       6.6229      0.00000
    245       6.6534      0.00000
    246       6.6905      0.00000
    247       6.7904      0.00000
    248       6.8808      0.00000
    249       6.9467      0.00000
    250       7.0171      0.00000
    251       7.1935      0.00000
    252       7.2055      0.00000

 soft charge-density along one line, spin component           1
         0         1         2         3         4         5         6         7         8         9
 total charge-density along one line

------------------------ aborting loop because EDIFF is reached ----------------------------------------

 total charge

# of ion       s       p       d       tot
    1        0.417   0.202   9.177   9.797
    2        0.415   0.203   9.177   9.795
    3        0.415   0.203   9.177   9.795
    4        0.415   0.203   9.177   9.795
    5        0.421   0.200   9.176   9.798
    6        0.415   0.203   9.177   9.795
    7        0.415   0.203   9.177   9.795
    8        0.415   0.203   9.177   9.795
    9        0.415   0.203   9.178   9.796
   10        0.406   0.272   9.162   9.840
   11        0.407   0.267   9.166   9.841
   12        0.406   0.272   9.162   9.840
   13        0.407   0.267   9.166   9.841
   14        0.407   0.267   9.166   9.841
   15        0.403   0.269   9.163   9.835
   16        0.406   0.272   9.162   9.840
   17        0.403   0.269   9.163   9.835
   18        0.403   0.269   9.163   9.835
   19        0.399   0.267   9.164   9.831
   20        0.429   0.295   9.146   9.870
   21        0.429   0.295   9.146   9.870
   22        0.394   0.270   9.165   9.830
   23        0.429   0.295   9.146   9.870
   24        0.394   0.270   9.165   9.830
   25        0.399   0.267   9.164   9.831
   26        0.399   0.267   9.164   9.831
   27        0.394   0.270   9.165   9.830
   28        0.413   0.198   9.179   9.789
   29        0.435   0.213   9.159   9.807
   30        0.435   0.213   9.159   9.807
   31        0.435   0.213   9.159   9.807
   32        0.435   0.213   9.159   9.807
   33        0.435   0.213   9.159   9.807
   34        0.435   0.213   9.159   9.807
   35        0.410   0.197   9.179   9.786
   36        0.601   0.502   2.367   3.469
   37        0.998   1.180   0.000   2.178
tot         16.088  10.101 323.172 349.361

  FORCE on cell =-STRESS in cart. coord.  units (eV):
  Direction    XX          YY          ZZ          XY          YZ          ZX
  Alpha Z   677.10995   677.10995   677.10995
  Ewald  149276.68894149276.68881************    -0.00002    -0.00001     0.00000
  Hartree158987.02919158987.02914************    -0.00001    -0.00000    -0.00000
  E(xc)   -2057.95834 -2057.95833 -2066.79739    -0.00001     0.00000     0.00000
  Local  ************************319412.12157     0.00034    -0.00003    -0.00008
  n-local  -318.91690  -303.08575  -317.98159     9.70626    -0.36705     0.54787
  augment  3219.13534  3219.13552  3233.45753    -0.00015     0.00001     0.00001
  Kinetic  4852.66934  4853.74024  4891.79381     3.96019     0.47871    -0.19663
  Fock        0.00000     0.00000     0.00000     0.00000     0.00000     0.00000
  Total      -6.82083    -6.82083    -1.29068    -0.00000     0.00000    -0.00000
  in kB      -6.70181    -6.70181    -1.26815    -0.00000     0.00000    -0.00000

 VOLUME and BASIS-vectors are now :
  energy-cutoff  :      500.00
  volume of cell :     1630.63
      direct lattice vectors                 reciprocal lattice vectors
     8.791366577  0.000000000  0.000000000     0.113747958 -0.065672414  0.000000000
     4.395683289  7.613546790  0.000000000     0.000000000  0.131344829  0.000000000
     0.000000000  0.000000000 24.361965240     0.000000000  0.000000000  0.041047592

  length of vectors
     8.791366577  8.791366577 24.361965240     0.131344829  0.131344829  0.041047592

 FORCES acting on ions
    electron-ion (+dipol)            ewald-force                    non-local-force                 convergence-correction
   0.465E-04 -.279E-04 0.264E+04   -.953E-04 0.592E-04 -.264E+04   -.221E-17 -.954E-18 -.196E+01   -.833E-04 -.155E-03 0.207E-01
   -.486E+00 -.336E+00 0.264E+04   0.337E+00 0.138E+00 -.264E+04   0.799E-01 0.161E+00 -.168E+01   0.629E-01 0.246E-01 0.765E-01
   0.486E+00 -.336E+00 0.264E+04   -.337E+00 0.138E+00 -.264E+04   -.799E-01 0.161E+00 -.168E+01   -.635E-01 0.264E-01 0.772E-01
   -.535E+00 -.253E+00 0.264E+04   0.288E+00 0.223E+00 -.264E+04   0.179E+00 -.112E-01 -.168E+01   0.529E-01 0.424E-01 0.765E-01
   -.687E-05 -.195E-04 0.264E+04   0.980E-04 -.199E-05 -.264E+04   -.571E-18 0.412E-18 -.127E+01   0.618E-02 0.378E-02 0.144E+00
   0.534E+00 -.253E+00 0.264E+04   -.288E+00 0.223E+00 -.264E+04   -.179E+00 -.112E-01 -.168E+01   -.543E-01 0.433E-01 0.772E-01
   -.481E-01 0.589E+00 0.264E+04   -.490E-01 -.361E+00 -.264E+04   0.993E-01 -.150E+00 -.168E+01   -.840E-02 -.676E-01 0.772E-01
   0.482E-01 0.589E+00 0.264E+04   0.490E-01 -.361E+00 -.264E+04   -.993E-01 -.150E+00 -.168E+01   0.100E-01 -.686E-01 0.773E-01
   0.363E-04 -.131E-04 0.264E+04   0.792E-04 -.642E-04 -.264E+04   -.836E-18 0.102E-17 -.182E+01   -.663E-02 -.341E-02 0.800E-01
   -.133E+01 -.765E+00 0.860E+03   0.140E+01 0.810E+00 -.860E+03   -.172E+00 -.996E-01 -.645E+00   0.591E-01 0.341E-01 -.505E-01
   -.278E-04 -.156E+01 0.853E+03   0.400E-04 0.158E+01 -.853E+03   -.143E-12 -.218E-01 -.425E+00   0.617E-02 -.223E-01 -.102E+00
   0.133E+01 -.766E+00 0.860E+03   -.140E+01 0.810E+00 -.860E+03   0.172E+00 -.996E-01 -.645E+00   -.603E-01 0.348E-01 -.514E-01
   -.135E+01 0.778E+00 0.853E+03   0.137E+01 -.792E+00 -.853E+03   -.189E-01 0.109E-01 -.425E+00   -.163E-01 0.165E-01 -.102E+00
   0.135E+01 0.778E+00 0.853E+03   -.137E+01 -.792E+00 -.853E+03   0.189E-01 0.109E-01 -.425E+00   0.266E-01 0.156E-01 -.104E+00
   0.153E-04 -.105E+01 0.858E+03   -.107E-03 0.982E+00 -.858E+03   0.300E-12 0.456E-01 -.724E+00   -.126E-02 0.168E-01 -.558E-01
   -.813E-05 0.153E+01 0.860E+03   0.205E-04 -.162E+01 -.860E+03   0.131E-11 0.199E+00 -.645E+00   -.964E-04 -.697E-01 -.514E-01
   -.905E+00 0.523E+00 0.858E+03   0.850E+00 -.491E+00 -.858E+03   0.395E-01 -.228E-01 -.724E+00   0.139E-01 -.948E-02 -.558E-01
   0.905E+00 0.523E+00 0.858E+03   -.850E+00 -.491E+00 -.858E+03   -.395E-01 -.228E-01 -.724E+00   -.137E-01 -.793E-02 -.550E-01
   0.379E-04 -.703E+01 -.929E+03   -.125E-03 0.696E+01 0.928E+03   0.463E-12 0.704E-01 0.945E+00   0.110E-02 0.389E-01 -.355E+00
   -.403E+02 -.233E+02 -.965E+03   0.407E+02 0.235E+02 0.966E+03   -.437E+00 -.253E+00 -.345E+00   -.978E-01 -.564E-01 -.471E+00
   0.403E+02 -.233E+02 -.965E+03   -.407E+02 0.235E+02 0.966E+03   0.437E+00 -.253E+00 -.345E+00   0.869E-01 -.570E-01 -.472E+00
   -.183E+02 0.106E+02 -.936E+03   0.182E+02 -.105E+02 0.936E+03   0.154E+00 -.887E-01 0.445E+00   -.600E-02 0.387E-02 -.369E+00
   -.491E-04 0.466E+02 -.965E+03   0.348E-04 -.470E+02 0.966E+03   0.332E-11 0.505E+00 -.345E+00   -.556E-02 0.104E+00 -.472E+00
   0.183E+02 0.106E+02 -.936E+03   -.182E+02 -.105E+02 0.936E+03   -.154E+00 -.887E-01 0.445E+00   0.764E-02 0.451E-02 -.369E+00
   0.609E+01 0.351E+01 -.929E+03   -.603E+01 -.348E+01 0.928E+03   -.610E-01 -.352E-01 0.945E+00   -.338E-01 -.196E-01 -.355E+00
   -.609E+01 0.351E+01 -.929E+03   0.603E+01 -.348E+01 0.928E+03   0.610E-01 -.352E-01 0.945E+00   0.339E-01 -.186E-01 -.355E+00
   0.188E-04 -.211E+02 -.936E+03   0.110E-03 0.210E+02 0.936E+03   0.116E-11 0.177E+00 0.445E+00   -.312E-03 -.715E-02 -.369E+00
   0.542E-04 -.356E-04 -.263E+04   -.114E-03 0.765E-04 0.263E+04   -.897E-17 0.288E-17 0.189E+01   0.282E-03 0.291E-04 -.287E+00
   -.251E+02 -.480E+02 -.263E+04   0.258E+02 0.492E+02 0.263E+04   -.658E+00 -.104E+01 0.174E+01   -.892E-01 -.235E+00 -.447E+00
   0.251E+02 -.480E+02 -.263E+04   -.258E+02 0.492E+02 0.263E+04   0.658E+00 -.104E+01 0.174E+01   0.883E-01 -.235E+00 -.446E+00
   -.541E+02 0.230E+01 -.263E+04   0.555E+02 -.230E+01 0.263E+04   -.123E+01 -.509E-01 0.174E+01   -.248E+00 0.407E-01 -.447E+00
   0.541E+02 0.230E+01 -.263E+04   -.555E+02 -.230E+01 0.263E+04   0.123E+01 -.509E-01 0.174E+01   0.248E+00 0.416E-01 -.446E+00
   -.291E+02 0.457E+02 -.263E+04   0.298E+02 -.469E+02 0.263E+04   -.570E+00 0.109E+01 0.174E+01   -.159E+00 0.194E+00 -.446E+00
   0.291E+02 0.457E+02 -.263E+04   -.298E+02 -.469E+02 0.263E+04   0.570E+00 0.109E+01 0.174E+01   0.160E+00 0.194E+00 -.446E+00
   0.269E-04 -.130E-04 -.264E+04   0.103E-03 -.650E-04 0.264E+04   -.224E-17 -.734E-18 0.202E+01   -.631E-02 -.321E-02 -.318E+00
   -.156E-04 -.359E-06 -.879E+03   0.378E-04 0.404E-05 0.882E+03   0.108E-17 -.360E-17 -.304E+01   0.100E-03 0.637E-04 -.320E+00
   0.457E-04 -.257E-04 -.109E+04   0.154E-04 0.173E-06 0.109E+04   0.872E-18 0.876E-18 -.238E+01   0.521E-03 0.320E-03 -.159E+00
   0.356E-03 -.722E-03 0.157E+02   0.464E-13 -.735E-13 0.318E-11   -.290E-18 0.441E-15 -.849E+01   -.550E-02 0.285E-04 -.727E+01

 POSITION                                       TOTAL-FORCE (eV/Angst)
      0.00000      0.00000      5.28219        -0.000000     -0.000000     -0.001144
      2.93046      0.00000      5.28219        -0.005916     -0.012012      0.016754
      5.86091      0.00000      5.28219         0.005916     -0.012012      0.016754
      1.46523      2.53785      5.28219        -0.013361      0.000882      0.016754
      4.39568      2.53785      5.28219        -0.000000     -0.000000     -0.017081
      7.32614      2.53785      5.28219         0.013361      0.000882      0.016754
      2.93046      5.07570      5.28219        -0.007444      0.011130      0.016754
      5.86091      5.07570      5.28219         0.007444      0.011130      0.016754
      8.79137      5.07570      5.28219        -0.000000     -0.000000      0.015914
      1.46523      0.84595      7.67490        -0.035452     -0.020468     -0.037556
      4.39568      0.84595      7.67490        -0.000000     -0.018255     -0.074178
      7.32614      0.84595      7.67490         0.035452     -0.020468     -0.037556
      2.93046      3.38380      7.67490        -0.015809      0.009127     -0.074178
      5.86091      3.38380      7.67490         0.015809      0.009127     -0.074178
      8.79137      3.38380      7.67490        -0.000000     -0.001311      0.014949
      4.39568      5.92165      7.67490         0.000000      0.040937     -0.037556
      7.32614      5.92165      7.67490        -0.001135      0.000655      0.014949
     10.25659      5.92165      7.67490         0.001135      0.000655      0.014949
      8.79137      1.69178     10.05827         0.000000      0.039924      0.124986
      2.92613      1.68940     10.03306        -0.181808     -0.104967     -0.143089
      5.86523      1.68940     10.03306         0.181808     -0.104967     -0.143089
     10.25456      4.23092     10.06776         0.004441     -0.002564      0.078385
      4.39568      4.23474     10.03306         0.000000      0.209934     -0.143089
      7.32817      4.23092     10.06776        -0.004441     -0.002564      0.078385
     11.72193      6.76766     10.05827        -0.034575     -0.019962      0.124986
      5.86080      6.76766     10.05827         0.034575     -0.019962      0.124986
      8.79137      6.76525     10.06776         0.000000      0.005128      0.078385
      0.00000      0.00000     12.45716        -0.000000     -0.000000     -0.085005
      2.94326      0.02074     12.49530        -0.058496     -0.066014      0.070480
      5.84810      0.02074     12.49530         0.058496     -0.066014      0.070480
      1.48959      2.53857     12.49530        -0.086418     -0.017652      0.070480
      7.30177      2.53857     12.49530         0.086418     -0.017652      0.070480
      2.94201      5.05424     12.49530        -0.027921      0.083666      0.070480
      5.84935      5.05424     12.49530         0.027921      0.083666      0.070480
      8.79137      5.07570     12.47846        -0.000000     -0.000000     -0.108159
      4.39568      2.53785     12.33403        -0.000000     -0.000000     -0.131261
      4.39568      2.53785     14.27160        -0.000000     -0.000000     -0.087156
    total drift:                               -0.005142     -0.000694     -0.023012

  FREE ENERGIE OF THE ION-ELECTRON SYSTEM (eV)
  free  energy   TOTEN  =      -103.19561989 eV

  energy  without entropy=     -103.19561989  energy(sigma->0) =     -103.19561989

 stress matrix after NEB project (eV)
     -6.82083     -0.00000     -0.00000
     -0.00000     -6.82083     -0.00000
      0.00000      0.00000     -1.29068
  FORCES: max atom, RMS     0.087156    0.014328
  FORCE total and by dimension    0.087156    0.087156
  Stress total and by dimension    9.732081    6.820834
|           W    W    AA    RRRRR   N    N  II  N    N   GGGG   !!!           |
|           W    W   A  A   R    R  NN   N  II  NN   N  G    G  !!!           |
|           W    W  A    A  R    R  N N  N  II  N N  N  G       !!!           |
|           W WW W  AAAAAA  RRRRR   N  N N  II  N  N N  G  GGG   !            |
|           WW  WW  A    A  R   R   N   NN  II  N   NN  G    G                |
|           W    W  A    A  R    R  N    N  II  N    N   GGGG   !!!           |
|     Tetrahedron method does not include variations of the Fermi             |
|     occupations, so forces and stress will be inaccurate. We suggest        |
|     using a different smearing scheme ISMEAR = 1 or 2 for metals in         |
|     relaxations.                                                            |

 total charge

# of ion       s       p       d       tot
    1        0.417   0.202   9.177   9.797
    2        0.415   0.203   9.177   9.795
    3        0.415   0.203   9.177   9.795
    4        0.415   0.203   9.177   9.795
    5        0.421   0.200   9.176   9.798
    6        0.415   0.203   9.177   9.795
    7        0.415   0.203   9.177   9.795
    8        0.415   0.203   9.177   9.795
    9        0.415   0.203   9.178   9.796
   10        0.406   0.272   9.162   9.840
   11        0.407   0.267   9.166   9.841
   12        0.406   0.272   9.162   9.840
   13        0.407   0.267   9.166   9.841
   14        0.407   0.267   9.166   9.841
   15        0.403   0.269   9.163   9.835
   16        0.406   0.272   9.162   9.840
   17        0.403   0.269   9.163   9.835
   18        0.403   0.269   9.163   9.835
   19        0.399   0.267   9.164   9.831
   20        0.429   0.295   9.146   9.870
   21        0.429   0.295   9.146   9.870
   22        0.394   0.270   9.165   9.830
   23        0.429   0.295   9.146   9.870
   24        0.394   0.270   9.165   9.830
   25        0.399   0.267   9.164   9.831
   26        0.399   0.267   9.164   9.831
   27        0.394   0.270   9.165   9.830
   28        0.413   0.198   9.179   9.789
   29        0.435   0.213   9.159   9.807
   30        0.435   0.213   9.159   9.807
   31        0.435   0.213   9.159   9.807
   32        0.435   0.213   9.159   9.807
   33        0.435   0.213   9.159   9.807
   34        0.435   0.213   9.159   9.807
   35        0.410   0.197   9.179   9.786
   36        0.601   0.502   2.367   3.469
   37        0.998   1.180   0.000   2.178
tot         16.088  10.101 323.172 349.361

 BZINTS: Fermi energy:    0.215503;  393.000000 electrons
         Band energy:-0.154494E+04;  BLOECHL correction:   -0.042811