 vasp.6.2.0 18Jan21 (build Jun 12 2021 23:27:24) complex

 executed on             LinuxIFC date 2022.05.26  19:18:44

 INCAR:
   ISMEAR = -5
   SIGMA = 0.1
   ISPIN = 1
   EDIFF = 1.d-5
   EDIFFG = -0.01
   NSW = 0
   NELM = 150
   ENCUT = 500
   ISIF = 2
   IBRION = 2
   LREAL = Auto
   ALGO = Fast
   ICHARG = 11
   LORBIT = 10
   LCHARG = .F.
   LWAVE = .F.

 POTCAR:    PAW_PBE Au 04Oct2007
 POTCAR:    PAW_PBE V 08Apr2002
 POTCAR:    PAW_PBE O 08Apr2002
|           W    W    AA    RRRRR   N    N  II  N    N   GGGG   !!!           |
|           W    W   A  A   R    R  NN   N  II  NN   N  G    G  !!!           |
|           W    W  A    A  R    R  N N  N  II  N N  N  G       !!!           |
|           W WW W  AAAAAA  RRRRR   N  N N  II  N  N N  G  GGG   !            |
|           WW  WW  A    A  R   R   N   NN  II  N   NN  G    G                |
|           W    W  A    A  R    R  N    N  II  N    N   GGGG   !!!           |
|     For optimal performance we recommend to set                             |
|       NCORE = 2 up to number-of-cores-per-socket                            |
|     This setting can greatly improve the performance of VASP for DFT.       |
|     The default, NCORE=1 might be grossly inefficient on modern             |
|     multi-core architectures or massively parallel machines. Do your        |
|     Unfortunately you need to use the default for GW and RPA                |
|     calculations (for HF NCORE is supported but not extensively tested      |
|     yet).                                                                   |

 POTCAR:    PAW_PBE Au 04Oct2007
   VRHFIN =Au: s1d10

   TITEL  = PAW_PBE Au 04Oct2007
   POMASS =  196.966; ZVAL   =   11.000    mass and valenz
   ENMAX  =  229.943; ENMIN  =  172.457 eV

 POTCAR:    PAW_PBE V 08Apr2002
   VRHFIN =V: p6 d4 s1

   TITEL  = PAW_PBE V 08Apr2002
   POMASS =   50.941; ZVAL   =    5.000    mass and valenz
   ENMAX  =  192.543; ENMIN  =  144.408 eV

 POTCAR:    PAW_PBE O 08Apr2002
   VRHFIN =O: s2p4

   TITEL  = PAW_PBE O 08Apr2002
   POMASS =   16.000; ZVAL   =    6.000    mass and valenz
   ENMAX  =  400.000; ENMIN  =  300.000 eV

 Optimization of the real space projectors (new method)

 maximal supplied QI-value         = 15.12
 optimisation between [QCUT,QGAM] = [ 11.34, 22.83] = [ 36.00,145.93] Ry
 Optimized for a Real-space Cutoff    1.39 Angstroem

   l    n(q)    QCUT    max X(q) W(low)/X(q) W(high)/X(q)  e(spline)
   2      9    11.338    60.898    0.39E-03    0.42E-03    0.21E-06
   2      9    11.338    58.894    0.40E-03    0.42E-03    0.22E-06
   0      9    11.338   109.617    0.13E-03    0.20E-04    0.13E-06
   0      9    11.338    75.026    0.13E-03    0.20E-04    0.13E-06
   1      9    11.338    16.344    0.33E-04    0.24E-03    0.18E-06
   1      9    11.338    10.160    0.26E-04    0.19E-03    0.15E-06
 Optimization of the real space projectors (new method)

[...]

   l    n(q)    QCUT    max X(q) W(low)/X(q) W(high)/X(q)  e(spline)
   2     10    11.327    96.114    0.36E-03    0.35E-03    0.42E-06
   2     10    11.327    88.986    0.37E-03    0.35E-03    0.42E-06
   0     11    11.327    20.919    0.40E-04    0.56E-04    0.79E-06
   0     11    11.327     9.593    0.30E-04    0.41E-04    0.60E-06
   1     10    11.327    11.615    0.15E-03    0.10E-03    0.19E-06
   1     10    11.327     7.031    0.11E-03    0.73E-04    0.14E-06
 Optimization of the real space projectors (new method)

 maximal supplied QI-value         = 24.76
 optimisation between [QCUT,QGAM] = [ 11.39, 22.77] = [ 36.31,145.25] Ry
 Optimized for a Real-space Cutoff    1.00 Angstroem

   l    n(q)    QCUT    max X(q) W(low)/X(q) W(high)/X(q)  e(spline)
   0      7    11.387    20.381    0.39E-03    0.13E-02    0.15E-06
   0      7    11.387    15.268    0.42E-03    0.14E-02    0.17E-06
   1      6    11.387     5.964    0.41E-03    0.11E-02    0.17E-06
   1      6    11.387     5.382    0.39E-03    0.87E-03    0.15E-06
  PAW_PBE Au 04Oct2007                  :
  PAW_PBE V 08Apr2002                   :
  PAW_PBE O 08Apr2002                   :

 POSCAR: Au-V-O
  positions in direct lattice
  velocities in cartesian coordinates
 exchange correlation table for  LEXCH =        8
   RHO(1)=    0.500       N(1)  =     2000
   RHO(2)=  100.500       N(2)  =     4000

 VTST: version 3.2, (02/03/18)

 CHAIN: initializing optimizer

 OPT: Using VASP Conjugate-Gradient optimizer
 CHAIN: Read ICHAIN            0

 POSCAR: Au-V-O
  positions in direct lattice
  velocities in cartesian coordinates

 ion  position               nearest neighbor table
   1  0.000  0.000  0.238-  16 2.94  12 2.94   6 2.94   8 2.94   7 2.94   3 2.94  10 2.94   4 2.94
                             2 2.94
   2  0.333  0.000  0.238-   9 2.94  11 2.94  17 2.94  10 2.94   8 2.94   4 2.94   5 2.94   1 2.94
                             3 2.94
   3  0.667  0.000  0.238-   7 2.94  18 2.94  12 2.94   1 2.94  11 2.94   5 2.94   6 2.94   9 2.94
                             2 2.94
   4  0.000  0.333  0.238-  10 2.94   6 2.94   5 2.94  13 2.94   2 2.94  15 2.94   9 2.94   1 2.94
                             7 2.94
   5  0.333  0.333  0.238-  13 2.94   7 2.94  11 2.94   4 2.94   2 2.94  14 2.94   3 2.94   8 2.94
                             6 2.94
   6  0.667  0.333  0.238-  15 2.94  14 2.94   1 2.94  12 2.94   4 2.94   9 2.94   8 2.94   3 2.94
                             5 2.94
   7  0.000  0.667  0.238-  18 2.94   3 2.94  16 2.94   5 2.94   1 2.94  13 2.94   8 2.94   4 2.94
                             9 2.94
   8  0.333  0.667  0.238-   9 2.94  17 2.94   1 2.94   2 2.94  14 2.94  16 2.94   6 2.94   7 2.94
                             5 2.94
   9  0.667  0.667  0.238-   2 2.94   8 2.94  17 2.94   6 2.94  15 2.94   4 2.94   3 2.94  18 2.94
                             7 2.94
  10  0.111  0.111  0.346-  20 2.93  26 2.94  19 2.94  11 2.94  17 2.94   2 2.94   4 2.94   1 2.94
                            12 2.94  16 2.94  13 2.94  15 2.94
  11  0.444  0.111  0.346-  20 2.92  21 2.92  27 2.94  13 2.94   2 2.94  10 2.94  17 2.94   5 2.94
                             3 2.94  18 2.94  14 2.94  12 2.94
  12  0.778  0.111  0.346-  21 2.93  25 2.94  19 2.94  16 2.94  18 2.94   1 2.94  14 2.94  15 2.94
                             3 2.94   6 2.94  10 2.94  11 2.94
  13  0.111  0.444  0.346-  23 2.92  20 2.92  22 2.94   5 2.94  18 2.94  11 2.94   7 2.94   4 2.94
                            16 2.94  10 2.94  14 2.94  15 2.94
  14  0.444  0.444  0.346-  21 2.92  23 2.92  24 2.94  15 2.94   6 2.94  12 2.94   8 2.94  17 2.94
                             5 2.94  16 2.94  13 2.94  11 2.94
  15  0.778  0.444  0.346-  24 2.92  22 2.92  19 2.93  14 2.94   6 2.94  17 2.94  12 2.94   9 2.94
                             4 2.94  10 2.94  13 2.94  18 2.94
  16  0.111  0.778  0.346-  23 2.93  25 2.94  26 2.94  18 2.94  12 2.94   7 2.94   1 2.94   8 2.94
                            13 2.94  10 2.94  14 2.94  17 2.94
  17  0.444  0.778  0.346-  27 2.92  24 2.92  26 2.93   9 2.94  15 2.94   2 2.94  10 2.94  11 2.94
                             8 2.94  14 2.94  16 2.94  18 2.94
  18  0.778  0.778  0.346-  22 2.92  27 2.92  25 2.93  16 2.94   7 2.94  13 2.94  12 2.94   3 2.94
                            11 2.94   9 2.94  15 2.94  17 2.94
  19  0.889  0.222  0.454-  15 2.93  10 2.94  12 2.94  24 2.94  22 2.94  28 2.94  26 2.94  25 2.94
                            21 2.95  20 2.95  32 3.03  31 3.03
  20  0.223  0.223  0.453-  36 2.72  23 2.92  21 2.92  11 2.92  13 2.92  10 2.93  29 2.95  31 2.95
                            26 2.95  19 2.95  27 2.95  22 2.95
  21  0.554  0.223  0.453-  36 2.72  20 2.92  23 2.92  14 2.92  11 2.92  12 2.93  30 2.95  32 2.95
                            25 2.95  19 2.95  27 2.95  24 2.95
  22  0.887  0.557  0.453-  24 2.91  27 2.91  18 2.92  15 2.92  25 2.94  19 2.94  13 2.94  23 2.95
                            20 2.95  35 2.96  33 2.99  31 2.99
  23  0.223  0.554  0.453-  36 2.72  20 2.92  21 2.92  13 2.92  14 2.92  16 2.93  33 2.95  34 2.95
                            25 2.95  26 2.95  22 2.95  24 2.95
  24  0.557  0.557  0.453-  27 2.91  22 2.91  15 2.92  17 2.92  26 2.94  19 2.94  14 2.94  21 2.95
                            23 2.95  35 2.96  32 2.99  34 2.99
  25  0.889  0.889  0.454-  18 2.93  16 2.94  12 2.94  22 2.94  27 2.94  28 2.94  19 2.94  26 2.94
                            23 2.95  21 2.95  33 3.03  30 3.03
  26  0.222  0.889  0.454-  17 2.93  10 2.94  16 2.94  27 2.94  24 2.94  28 2.94  19 2.94  25 2.94
                            20 2.95  23 2.95  29 3.03  34 3.03
  27  0.557  0.887  0.453-  24 2.91  22 2.91  17 2.92  18 2.92  26 2.94  25 2.94  11 2.94  20 2.95
                            21 2.95  35 2.96  29 2.99  30 2.99
  28  0.000  0.000  0.562-  25 2.94  19 2.94  26 2.94  34 2.99  32 2.99  33 2.99  30 2.99  31 2.99
                            29 2.99
  29  0.334  0.011  0.564-  30 2.83  31 2.85  36 2.86  20 2.95  35 2.98  27 2.99  28 2.99  26 3.03
                            34 3.13
  30  0.655  0.011  0.564-  29 2.83  32 2.85  36 2.86  21 2.95  35 2.98  27 2.99  28 2.99  25 3.03
                            33 3.13
  31  0.011  0.334  0.564-  33 2.83  29 2.85  36 2.86  20 2.95  35 2.98  22 2.99  28 2.99  19 3.03
                            32 3.13
  32  0.655  0.334  0.564-  34 2.83  30 2.85  36 2.86  21 2.95  35 2.98  24 2.99  28 2.99  19 3.03
                            31 3.13
  33  0.011  0.655  0.564-  31 2.83  34 2.85  36 2.86  23 2.95  35 2.98  22 2.99  28 2.99  25 3.03
                            30 3.13
  34  0.334  0.655  0.564-  32 2.83  33 2.85  36 2.86  23 2.95  35 2.98  24 2.99  28 2.99  26 3.03
                            29 3.13
  35  0.667  0.667  0.563-  24 2.96  27 2.96  22 2.96  29 2.98  34 2.98  32 2.98  31 2.98  30 2.98
                            33 2.98
  36  0.333  0.333  0.550-  37 1.63  20 2.72  23 2.72  21 2.72  33 2.86  31 2.86  29 2.86  30 2.86
                            34 2.86  32 2.86
  37  0.333  0.333  0.623-  36 1.63

  LATTYP: Found a hexagonal cell.
 ALAT       =     8.8135128021
 C/A-ratio  =     2.5184286595

  Lattice vectors:

 A1 = (  -4.4067569092,  -7.6327256898,   0.0000000000)
 A2 = (   8.8135128021,   0.0000000000,   0.0000000000)
 A3 = (   0.0000000000,   0.0000000000,  22.1962032318)

Analysis of symmetry for initial positions (statically):
 Subroutine PRICEL returns:
 Original cell was already a primitive cell.

 Routine SETGRP: Setting up the symmetry group for a
 hexagonal supercell.

 Subroutine GETGRP returns: Found  6 space group operations
 (whereof  6 operations were pure point group operations)
 out of a pool of 24 trial point group operations.

The static configuration has the point symmetry C_3v.

Analysis of symmetry for dynamics (positions and initial velocities):
 Subroutine PRICEL returns:
 Original cell was already a primitive cell.

[...]

The dynamic configuration has the point symmetry C_3v.

Analysis of constrained symmetry for selective dynamics:
 Subroutine PRICEL returns:
 Original cell was already a primitive cell.

 Routine SETGRP: Setting up the symmetry group for a
 hexagonal supercell.

 Subroutine GETGRP returns: Found  6 space group operations
[...]
     24      -5.1138      2.00000
     25      -5.0753      2.00000
     26      -5.0627      2.00000
     27      -5.0287      2.00000
     28      -4.9571      2.00000
     29      -4.9414      2.00000
     30      -4.8191      2.00000
     31      -4.8177      2.00000
     32      -4.7920      2.00000
     33      -4.7717      2.00000
     34      -4.7574      2.00000
     35      -4.7379      2.00000
     36      -4.6484      2.00000
     37      -4.6403      2.00000
     38      -4.6026      2.00000
     39      -4.5587      2.00000
     40      -4.5055      2.00000
     41      -4.4578      2.00000
     42      -4.4240      2.00000
     43      -4.4005      2.00000
     44      -4.3649      2.00000
     45      -4.3414      2.00000
     46      -4.3013      2.00000
     47      -4.2184      2.00000
     48      -4.2155      2.00000
     49      -4.1788      2.00000
     50      -4.1612      2.00000
     51      -4.1493      2.00000
     52      -4.1334      2.00000
     53      -4.1174      2.00000
     54      -4.1028      2.00000
     55      -4.0804      2.00000
     56      -4.0339      2.00000
     57      -4.0212      2.00000
     58      -3.9959      2.00000
     59      -3.9866      2.00000
     60      -3.9727      2.00000
[...]
    238       6.4544      0.00000
    239       6.4893      0.00000
    240       6.4975      0.00000
    241       6.6018      0.00000
    242       6.7257      0.00000
    243       6.7633      0.00000
    244       6.8020      0.00000
    245       6.8651      0.00000
    246       7.1415      0.00000
    247       7.1691      0.00000
    248       7.3044      0.00000
    249       7.4935      0.00000
    250       7.6241      0.00000
    251       7.7171      0.00000
    252       7.7976      0.00000

 soft charge-density along one line, spin component           1
         0         1         2         3         4         5         6         7         8         9
 total charge-density along one line

------------------------ aborting loop because EDIFF is reached ----------------------------------------

 total charge

# of ion       s       p       d       tot
    1        0.549   0.239   8.765   9.553
    2        0.543   0.242   8.765   9.549
    3        0.543   0.242   8.765   9.549
    4        0.543   0.242   8.765   9.549
    5        0.542   0.241   8.763   9.547
    6        0.543   0.242   8.765   9.549
    7        0.543   0.242   8.765   9.549
    8        0.543   0.242   8.765   9.549
    9        0.542   0.241   8.766   9.549
   10        0.521   0.308   8.772   9.601
   11        0.518   0.309   8.777   9.604
   12        0.521   0.308   8.772   9.601
   13        0.518   0.309   8.777   9.604
   14        0.518   0.309   8.777   9.604
   15        0.515   0.310   8.772   9.598
   16        0.521   0.308   8.772   9.601
   17        0.515   0.310   8.772   9.598
   18        0.515   0.310   8.772   9.598
   19        0.518   0.297   8.776   9.591
   20        0.554   0.333   8.742   9.629
   21        0.554   0.333   8.742   9.629
   22        0.511   0.309   8.772   9.591
   23        0.554   0.333   8.742   9.629
   24        0.511   0.309   8.772   9.591
   25        0.518   0.297   8.776   9.591
   26        0.518   0.297   8.776   9.591
   27        0.511   0.309   8.772   9.591
   28        0.543   0.227   8.757   9.527
   29        0.562   0.235   8.756   9.553
   30        0.562   0.235   8.756   9.553
   31        0.562   0.235   8.756   9.553
   32        0.562   0.235   8.756   9.553
   33        0.562   0.235   8.756   9.553
   34        0.562   0.235   8.756   9.553
   35        0.540   0.228   8.756   9.524
   36        0.518   0.758   3.658   4.934
   37        1.613   3.273   0.000   4.886
tot         20.884  13.666 310.424 344.974

  FORCE on cell =-STRESS in cart. coord.  units (eV):
  Direction    XX          YY          ZZ          XY          YZ          ZX
  Alpha Z  1005.49173  1005.49173  1005.49173
  Ewald  117672.54708117672.54749************    -0.00032    -0.00009    -0.00013
  Hartree126332.82678126332.82678************     0.00001    -0.00002    -0.00003
  E(xc)   -1778.82594 -1778.82594 -1787.29771    -0.00000     0.00000     0.00001
  Local  ************************256323.88387     0.00197     0.00002     0.00001
  n-local   -96.20139   -50.84660   -46.93595    22.92729    -1.65963     1.53978
  augment  2390.75611  2390.75763  2405.70505    -0.00131     0.00001     0.00004
  Kinetic  5508.62208  5515.98893  5555.54212     4.88939     0.41665     0.11276
  Fock        0.00000     0.00000     0.00000     0.00000     0.00000     0.00000
  Total     -20.61300   -20.61300     0.92323    -0.00000     0.00000    -0.00000
  in kB     -22.11793   -22.11793     0.99064    -0.00000     0.00000    -0.00000

 VOLUME and BASIS-vectors are now :
  energy-cutoff  :      500.00
  volume of cell :     1493.16
      direct lattice vectors                 reciprocal lattice vectors
     8.813512802  0.000000000  0.000000000     0.113462137 -0.065507406  0.000000000
     4.406756909  7.632725690  0.000000000     0.000000000  0.131014796  0.000000000
     0.000000000  0.000000000 22.196203232     0.000000000  0.000000000  0.045052750

  length of vectors
     8.813512802  8.813512802 22.196203232     0.131014796  0.131014796  0.045052750

 FORCES acting on ions
    electron-ion (+dipol)            ewald-force                    non-local-force                 convergence-correction
   -.194E-04 -.161E-04 0.247E+04   0.519E-04 0.433E-04 -.247E+04   -.790E-17 -.860E-17 -.547E+00   -.238E-03 -.151E-03 -.265E+00
   0.244E+00 -.989E-01 0.247E+04   -.316E+00 0.549E-01 -.247E+04   -.250E-01 0.355E-01 -.336E+00   0.937E-01 0.625E-02 -.295E+00
   -.244E+00 -.989E-01 0.247E+04   0.316E+00 0.549E-01 -.247E+04   0.250E-01 0.355E-01 -.336E+00   -.933E-01 0.818E-02 -.295E+00
   0.363E-01 0.260E+00 0.247E+04   -.110E+00 -.301E+00 -.247E+04   0.182E-01 -.394E-01 -.336E+00   0.523E-01 0.779E-01 -.295E+00
   0.919E-05 -.228E-04 0.247E+04   0.951E-04 0.173E-05 -.247E+04   -.220E-18 0.388E-18 -.356E+00   0.428E-02 0.260E-02 -.310E+00
   -.363E-01 0.260E+00 0.247E+04   0.110E+00 -.301E+00 -.247E+04   -.182E-01 -.394E-01 -.336E+00   -.538E-01 0.788E-01 -.294E+00
   -.207E+00 -.162E+00 0.247E+04   0.205E+00 0.246E+00 -.247E+04   0.432E-01 0.392E-02 -.336E+00   -.395E-01 -.849E-01 -.294E+00
   0.207E+00 -.162E+00 0.247E+04   -.205E+00 0.246E+00 -.247E+04   -.432E-01 0.392E-02 -.336E+00   0.414E-01 -.860E-01 -.294E+00
   0.194E-04 -.417E-04 0.247E+04   0.166E-03 -.200E-04 -.247E+04   -.148E-17 0.773E-18 -.457E+00   -.458E-02 -.237E-02 -.209E+00
   0.168E+01 0.971E+00 0.817E+03   -.157E+01 -.904E+00 -.817E+03   -.236E+00 -.136E+00 -.453E+00   0.122E+00 0.701E-01 0.220E+00
   0.143E-04 0.990E+00 0.820E+03   0.148E-03 -.117E+01 -.820E+03   0.400E-08 0.601E-01 -.333E+00   0.400E-02 0.675E-01 0.349E+00
   -.168E+01 0.971E+00 0.817E+03   0.157E+01 -.905E+00 -.817E+03   0.236E+00 -.136E+00 -.453E+00   -.123E+00 0.713E-01 0.220E+00
   0.857E+00 -.495E+00 0.820E+03   -.102E+01 0.587E+00 -.820E+03   0.521E-01 -.301E-01 -.333E+00   0.607E-01 -.300E-01 0.349E+00
   -.857E+00 -.495E+00 0.820E+03   0.102E+01 0.587E+00 -.820E+03   -.521E-01 -.301E-01 -.333E+00   -.532E-01 -.308E-01 0.348E+00
   0.316E-04 0.315E+01 0.821E+03   0.235E-03 -.342E+01 -.821E+03   0.329E-08 0.494E-01 -.405E+00   -.228E-02 0.180E+00 0.260E+00
   -.208E-04 -.194E+01 0.817E+03   0.162E-03 0.181E+01 -.817E+03   0.181E-07 0.272E+00 -.453E+00   -.713E-04 -.142E+00 0.220E+00
   0.272E+01 -.157E+01 0.821E+03   -.296E+01 0.171E+01 -.821E+03   0.428E-01 -.247E-01 -.405E+00   0.155E+00 -.915E-01 0.260E+00
   -.272E+01 -.157E+01 0.821E+03   0.296E+01 0.171E+01 -.821E+03   -.428E-01 -.247E-01 -.405E+00   -.155E+00 -.895E-01 0.261E+00
   -.425E-04 -.295E+01 -.856E+03   0.555E-04 0.246E+01 0.855E+03   0.682E-08 0.102E+00 0.753E+00   -.564E-03 0.336E+00 0.673E+00
   -.455E+00 -.263E+00 -.844E+03   0.771E+00 0.445E+00 0.844E+03   -.102E+01 -.587E+00 -.685E+00   0.548E+00 0.317E+00 0.123E+01
   0.455E+00 -.263E+00 -.844E+03   -.771E+00 0.445E+00 0.844E+03   0.102E+01 -.587E+00 -.685E+00   -.548E+00 0.317E+00 0.123E+01
   -.688E+01 0.397E+01 -.845E+03   0.637E+01 -.368E+01 0.844E+03   0.394E+00 -.227E+00 0.718E+00   0.164E+00 -.943E-01 0.709E+00
   -.876E-05 0.526E+00 -.844E+03   0.139E-03 -.891E+00 0.844E+03   0.782E-07 0.117E+01 -.685E+00   0.291E-03 -.633E+00 0.123E+01
   0.688E+01 0.397E+01 -.845E+03   -.637E+01 -.368E+01 0.844E+03   -.394E+00 -.227E+00 0.718E+00   -.164E+00 -.946E-01 0.709E+00
   0.256E+01 0.148E+01 -.856E+03   -.213E+01 -.123E+01 0.855E+03   -.887E-01 -.512E-01 0.753E+00   -.291E+00 -.168E+00 0.673E+00
   -.256E+01 0.148E+01 -.856E+03   0.213E+01 -.123E+01 0.855E+03   0.887E-01 -.512E-01 0.753E+00   0.291E+00 -.169E+00 0.673E+00
   0.103E-04 -.795E+01 -.845E+03   0.197E-03 0.736E+01 0.844E+03   0.303E-07 0.455E+00 0.718E+00   -.354E-03 0.189E+00 0.709E+00
   -.125E-04 -.125E-04 -.243E+04   0.293E-04 0.330E-04 0.243E+04   -.295E-18 -.940E-18 0.445E+00   -.432E-04 -.419E-04 0.540E+00
   0.238E+02 0.324E+02 -.243E+04   -.236E+02 -.322E+02 0.243E+04   -.835E+00 -.113E+01 0.599E+00   0.441E+00 0.654E+00 0.318E+00
   -.238E+02 0.324E+02 -.243E+04   0.236E+02 -.322E+02 0.243E+04   0.835E+00 -.113E+01 0.599E+00   -.441E+00 0.656E+00 0.318E+00
   0.399E+02 0.441E+01 -.243E+04   -.397E+02 -.429E+01 0.243E+04   -.139E+01 -.159E+00 0.599E+00   0.787E+00 0.548E-01 0.318E+00
   -.399E+02 0.441E+01 -.243E+04   0.397E+02 -.429E+01 0.243E+04   0.139E+01 -.159E+00 0.599E+00   -.788E+00 0.556E-01 0.318E+00
   0.161E+02 -.368E+02 -.243E+04   -.161E+02 0.365E+02 0.243E+04   -.559E+00 0.129E+01 0.599E+00   0.347E+00 -.710E+00 0.318E+00
   -.161E+02 -.368E+02 -.243E+04   0.161E+02 0.365E+02 0.243E+04   0.559E+00 0.129E+01 0.599E+00   -.346E+00 -.710E+00 0.318E+00
   0.341E-04 -.301E-04 -.245E+04   0.141E-03 -.486E-04 0.244E+04   0.459E-17 -.532E-17 0.514E+00   -.442E-02 -.225E-02 0.376E+00
   -.161E-04 -.317E-05 -.912E+03   0.527E-04 0.489E-05 0.913E+03   -.296E-17 -.293E-17 -.100E+00   0.101E-02 0.617E-03 0.202E+00
   0.178E-03 -.967E-04 -.158E+04   0.283E-04 0.184E-05 0.161E+04   -.565E-18 0.656E-18 -.276E+02   0.345E-02 0.211E-02 -.114E+01
   -.613E-03 -.868E-03 0.185E+02   -.733E-15 0.265E-12 0.341E-11   0.223E-15 -.230E-15 -.277E+02   0.955E-02 0.620E-02 0.967E+01

 POSITION                                       TOTAL-FORCE (eV/Angst)
      0.00000      0.00000      5.28038         0.000000     -0.000000     -0.130662
      2.93784      0.00000      5.28038        -0.002925     -0.001207     -0.051874
      5.87568      0.00000      5.28038         0.002925     -0.001207     -0.051874
      1.46892      2.54424      5.28038        -0.002508     -0.001929     -0.051874
      4.40676      2.54424      5.28038         0.000000     -0.000000     -0.074119
      7.34459      2.54424      5.28038         0.002508     -0.001929     -0.051874
      2.93784      5.08848      5.28038         0.000417      0.003136     -0.051874
      5.87568      5.08848      5.28038        -0.000417      0.003136     -0.051874
      8.81351      5.08848      5.28038         0.000000      0.000000     -0.073340
      1.46892      0.84808      7.67911         0.002135      0.001233      0.100950
      4.40676      0.84808      7.67911        -0.000000     -0.059061      0.062005
      7.34459      0.84808      7.67911        -0.002135      0.001233      0.100950
      2.93784      3.39232      7.67911        -0.051148      0.029531      0.062005
      5.87568      3.39232      7.67911         0.051148      0.029531      0.062005
      8.81351      3.39232      7.67911        -0.000000     -0.042688      0.125094
      4.40676      5.93656      7.67911        -0.000000     -0.002466      0.100950
      7.34459      5.93656      7.67911        -0.036969      0.021344      0.125094
     10.28243      5.93656      7.67911         0.036969      0.021344      0.125094
      8.81351      1.69782     10.07545        -0.000000     -0.050455     -0.017612
      2.94790      1.70197     10.06171        -0.152676     -0.088148     -0.132589
      5.86562      1.70197     10.06171         0.152676     -0.088148     -0.132589
     10.26824      4.24860     10.06503         0.048425     -0.027958      0.012742
      4.40676      4.22879     10.06171         0.000000      0.176295     -0.132589
      7.35878      4.24860     10.06503        -0.048425     -0.027958      0.012742
     11.74991      6.78381     10.07545         0.043696      0.025228     -0.017612
      5.87712      6.78381     10.07545        -0.043696      0.025228     -0.017612
      8.81351      6.76826     10.06503         0.000000      0.055916      0.012742
      0.00000      0.00000     12.47281         0.000000     -0.000000     -0.031377
      2.99055      0.08121     12.52138        -0.177952     -0.330340     -0.261661
      5.82296      0.08121     12.52138         0.177952     -0.330340     -0.261661
      1.56560      2.54929     12.52138        -0.375059      0.011059     -0.261661
      7.24791      2.54929     12.52138         0.375059      0.011059     -0.261661
      2.98181      5.00223     12.52138        -0.197107      0.319281     -0.261661
      5.83171      5.00223     12.52138         0.197107      0.319281     -0.261661
      8.81351      5.08848     12.50032         0.000000     -0.000000      0.034178
      4.40676      2.54424     12.20130         0.000000     -0.000000      1.668311
      4.40676      2.54424     13.83101         0.000000      0.000000      0.036457
    total drift:                                0.008941      0.005331      0.462904

  FREE ENERGIE OF THE ION-ELECTRON SYSTEM (eV)
  free  energy   TOTEN  =      -122.46181108 eV

  energy  without entropy=     -122.46181108  energy(sigma->0) =     -122.46181108

 stress matrix after NEB project (eV)
    -20.61300     -0.00000     -0.00000
     -0.00000    -20.61300      0.00000
      0.00000      0.00000      0.92323
  FORCES: max atom, RMS     0.036457    0.005994
  FORCE total and by dimension    0.036457    0.036457
  Stress total and by dimension   29.165806   20.613005
|           W    W    AA    RRRRR   N    N  II  N    N   GGGG   !!!           |
|           W    W   A  A   R    R  NN   N  II  NN   N  G    G  !!!           |
|           W    W  A    A  R    R  N N  N  II  N N  N  G       !!!           |
|           W WW W  AAAAAA  RRRRR   N  N N  II  N  N N  G  GGG   !            |
|           WW  WW  A    A  R   R   N   NN  II  N   NN  G    G                |
|           W    W  A    A  R    R  N    N  II  N    N   GGGG   !!!           |
|     Tetrahedron method does not include variations of the Fermi             |
|     occupations, so forces and stress will be inaccurate. We suggest        |
|     using a different smearing scheme ISMEAR = 1 or 2 for metals in         |
|     relaxations.                                                            |

 total charge

# of ion       s       p       d       tot
    1        0.549   0.239   8.765   9.553
    2        0.543   0.242   8.765   9.549
    3        0.543   0.242   8.765   9.549
    4        0.543   0.242   8.765   9.549
    5        0.542   0.241   8.763   9.547
    6        0.543   0.242   8.765   9.549
    7        0.543   0.242   8.765   9.549
    8        0.543   0.242   8.765   9.549
    9        0.542   0.241   8.766   9.549
   10        0.521   0.308   8.772   9.601
   11        0.518   0.309   8.777   9.604
   12        0.521   0.308   8.772   9.601
   13        0.518   0.309   8.777   9.604
   14        0.518   0.309   8.777   9.604
   15        0.515   0.310   8.772   9.598
   16        0.521   0.308   8.772   9.601
   17        0.515   0.310   8.772   9.598
   18        0.515   0.310   8.772   9.598
   19        0.518   0.297   8.776   9.591
   20        0.554   0.333   8.742   9.629
   21        0.554   0.333   8.742   9.629
   22        0.511   0.309   8.772   9.591
   23        0.554   0.333   8.742   9.629
   24        0.511   0.309   8.772   9.591
   25        0.518   0.297   8.776   9.591
   26        0.518   0.297   8.776   9.591
   27        0.511   0.309   8.772   9.591
   28        0.543   0.227   8.757   9.527
   29        0.562   0.235   8.756   9.553
   30        0.562   0.235   8.756   9.553
   31        0.562   0.235   8.756   9.553
   32        0.562   0.235   8.756   9.553
   33        0.562   0.235   8.756   9.553
   34        0.562   0.235   8.756   9.553
   35        0.540   0.228   8.756   9.524
   36        0.518   0.758   3.658   4.934
   37        1.613   3.273   0.000   4.886
tot         20.884  13.666 310.424 344.974

 BZINTS: Fermi energy:    0.661228;  396.000000 electrons
         Band energy:-0.124651E+04;  BLOECHL correction:   -0.041833