 vasp.6.2.0 18Jan21 (build Jun 12 2021 23:27:24) complex

 executed on             LinuxIFC date 2022.05.26  19:47:13

 INCAR:
   ISMEAR = -5
   SIGMA = 0.1
   ISPIN = 1
   EDIFF = 1.d-5
   EDIFFG = -0.01
   NSW = 0
   NELM = 150
   ENCUT = 500
   ISIF = 2
   IBRION = 2
   LREAL = Auto
   ALGO = Fast
   ICHARG = 11
   LORBIT = 10
   LCHARG = .F.
   LWAVE = .F.

 POTCAR:    PAW_PBE Ag 02Apr2005
 POTCAR:    PAW_PBE Ru 04Feb2005
 POTCAR:    PAW_PBE H 15Jun2001
|           W    W    AA    RRRRR   N    N  II  N    N   GGGG   !!!           |
|           W    W   A  A   R    R  NN   N  II  NN   N  G    G  !!!           |
|           W    W  A    A  R    R  N N  N  II  N N  N  G       !!!           |
|           W WW W  AAAAAA  RRRRR   N  N N  II  N  N N  G  GGG   !            |
|           WW  WW  A    A  R   R   N   NN  II  N   NN  G    G                |
|           W    W  A    A  R    R  N    N  II  N    N   GGGG   !!!           |
|     For optimal performance we recommend to set                             |
|       NCORE = 2 up to number-of-cores-per-socket                            |
|     This setting can greatly improve the performance of VASP for DFT.       |
|     The default, NCORE=1 might be grossly inefficient on modern             |
|     multi-core architectures or massively parallel machines. Do your        |
|     Unfortunately you need to use the default for GW and RPA                |
|     calculations (for HF NCORE is supported but not extensively tested      |
|     yet).                                                                   |

 POTCAR:    PAW_PBE Ag 02Apr2005
   VRHFIN =Ag : s1 d10

   TITEL  = PAW_PBE Ag 02Apr2005
   POMASS =  107.868; ZVAL   =   11.000    mass and valenz
   ENMAX  =  249.844; ENMIN  =  187.383 eV

 POTCAR:    PAW_PBE Ru 04Feb2005
   VRHFIN =Ru: s1 d7

   TITEL  = PAW_PBE Ru 04Feb2005
   POMASS =  101.070; ZVAL   =    8.000    mass and valenz
   ENMAX  =  213.271; ENMIN  =  159.953 eV

 POTCAR:    PAW_PBE H 15Jun2001
   VRHFIN =H: ultrasoft test

   TITEL  = PAW_PBE H 15Jun2001
   POMASS =    1.000; ZVAL   =    1.000    mass and valenz
   ENMAX  =  250.000; ENMIN  =  200.000 eV

 Optimization of the real space projectors (new method)

 maximal supplied QI-value         = 15.12
 optimisation between [QCUT,QGAM] = [ 11.34, 22.83] = [ 36.00,145.93] Ry
 Optimized for a Real-space Cutoff    1.43 Angstroem

   l    n(q)    QCUT    max X(q) W(low)/X(q) W(high)/X(q)  e(spline)
   2      9    11.338    53.897    0.16E-03    0.20E-03    0.28E-06
   2      9    11.338    52.416    0.16E-03    0.20E-03    0.29E-06
   0     10    11.338   122.045    0.31E-04    0.76E-04    0.15E-06
   0     10    11.338    73.629    0.30E-04    0.72E-04    0.15E-06
   1      9    11.338    15.255    0.20E-03    0.19E-04    0.17E-06
   1      9    11.338     9.562    0.16E-03    0.15E-04    0.14E-06
 Optimization of the real space projectors (new method)

[...]

   l    n(q)    QCUT    max X(q) W(low)/X(q) W(high)/X(q)  e(spline)
   2      9    11.327    61.733    0.26E-03    0.14E-03    0.16E-06
   2      9    11.327    59.886    0.26E-03    0.14E-03    0.17E-06
   0     10    11.327    23.358    0.19E-03    0.14E-04    0.46E-06
   0     10    11.327    11.320    0.15E-03    0.11E-04    0.37E-06
   1     10    11.327    14.765    0.49E-04    0.26E-03    0.24E-06
   1     10    11.327     8.283    0.37E-04    0.20E-03    0.18E-06
 Optimization of the real space projectors (new method)

 maximal supplied QI-value         = 34.20
 optimisation between [QCUT,QGAM] = [ 11.29, 22.57] = [ 35.68,142.71] Ry
 Optimized for a Real-space Cutoff    1.16 Angstroem

   l    n(q)    QCUT    max X(q) W(low)/X(q) W(high)/X(q)  e(spline)
   0      8    11.287    19.460    0.40E-03    0.73E-03    0.16E-06
   0      8    11.287    12.209    0.38E-03    0.70E-03    0.15E-06
   1      7    11.287     4.655    0.22E-03    0.25E-04    0.22E-06
  PAW_PBE Ag 02Apr2005                  :
  PAW_PBE Ru 04Feb2005                  :
  PAW_PBE H 15Jun2001                   :

 POSCAR: Ag-Ru-H
  positions in direct lattice
  velocities in cartesian coordinates
 exchange correlation table for  LEXCH =        8
   RHO(1)=    0.500       N(1)  =     2000
   RHO(2)=  100.500       N(2)  =     4000

 VTST: version 3.2, (02/03/18)

 CHAIN: initializing optimizer

 OPT: Using VASP Conjugate-Gradient optimizer
 CHAIN: Read ICHAIN            0

 POSCAR: Ag-Ru-H
  positions in direct lattice
  velocities in cartesian coordinates

 ion  position               nearest neighbor table
   1  0.000  0.000  0.238-   2 2.93   8 2.93   7 2.93   6 2.93   4 2.93  12 2.93  16 2.93  10 2.93
                             3 2.93
   2  0.333  0.000  0.238-   1 2.93   8 2.93   9 2.93   3 2.93   4 2.93   5 2.93  10 2.93  17 2.93
                            11 2.93
   3  0.667  0.000  0.238-   9 2.93   2 2.93   5 2.93  11 2.93   7 2.93  18 2.93   1 2.93   6 2.93
                            12 2.93
   4  0.000  0.333  0.238-   5 2.93   6 2.93   2 2.93   1 2.93   7 2.93  13 2.93  15 2.93   9 2.93
                            10 2.93
   5  0.333  0.333  0.238-   4 2.93   3 2.93   7 2.93   2 2.93   8 2.93  14 2.93  13 2.93  11 2.93
                             6 2.93
   6  0.667  0.333  0.238-   4 2.93   9 2.93   1 2.93  15 2.93   8 2.93  12 2.93   3 2.93   5 2.93
                            14 2.93
   7  0.000  0.667  0.238-   8 2.93   1 2.93   5 2.93   3 2.93   4 2.93  16 2.93  18 2.93  13 2.93
                             9 2.93
   8  0.333  0.667  0.238-   7 2.93   1 2.93   2 2.93   9 2.93   5 2.93  16 2.93   6 2.93  17 2.93
                            14 2.93
   9  0.667  0.667  0.238-   3 2.93   2 2.93   8 2.93   6 2.93  17 2.93   4 2.93  15 2.93   7 2.93
                            18 2.93
  10  0.111  0.111  0.346-  20 2.90  19 2.93  26 2.93  12 2.93  16 2.93  15 2.93  17 2.93  13 2.93
                            11 2.93   2 2.93   1 2.93   4 2.93
  11  0.444  0.111  0.346-  21 2.90  20 2.90  27 2.92  14 2.93  17 2.93  18 2.93   3 2.93  12 2.93
                            13 2.93  10 2.93   5 2.93   2 2.93
  12  0.778  0.111  0.346-  21 2.90  25 2.93  19 2.93  10 2.93  16 2.93  18 2.93  15 2.93  11 2.93
                             1 2.93  14 2.93   6 2.93   3 2.93
  13  0.111  0.444  0.346-  20 2.90  23 2.90  22 2.92  15 2.93  14 2.93  18 2.93  10 2.93  11 2.93
                            16 2.93   4 2.93   5 2.93   7 2.93
  14  0.444  0.444  0.346-  23 2.90  21 2.90  24 2.92  13 2.93  11 2.93  16 2.93   5 2.93  12 2.93
                            17 2.93   8 2.93  15 2.93   6 2.93
  15  0.778  0.444  0.346-  24 2.92  22 2.92  19 2.93  13 2.93  10 2.93  12 2.93  17 2.93  18 2.93
                             4 2.93   6 2.93   9 2.93  14 2.93
  16  0.111  0.778  0.346-  23 2.90  26 2.93  25 2.93  18 2.93  12 2.93  10 2.93  14 2.93  17 2.93
                            13 2.93   7 2.93   8 2.93   1 2.93
  17  0.444  0.778  0.346-  27 2.92  24 2.92  26 2.93  11 2.93  10 2.93   9 2.93  18 2.93  15 2.93
                            16 2.93   2 2.93  14 2.93   8 2.93
  18  0.778  0.778  0.346-  22 2.92  27 2.92  25 2.93  16 2.93  12 2.93  13 2.93  11 2.93  17 2.93
                            15 2.93   7 2.93   3 2.93   9 2.93
  19  0.889  0.223  0.454-  28 2.91  15 2.93  10 2.93  12 2.93  24 2.93  22 2.93  26 2.93  25 2.93
                            20 2.94  21 2.94  32 2.94  31 2.94
  20  0.223  0.223  0.452-  36 2.77  13 2.90  11 2.90  10 2.90  21 2.92  23 2.92  31 2.92  29 2.92
                            27 2.93  22 2.93  19 2.94  26 2.94
  21  0.555  0.223  0.452-  36 2.77  11 2.90  14 2.90  12 2.90  20 2.92  23 2.92  30 2.92  32 2.92
                            27 2.93  24 2.93  25 2.94  19 2.94
  22  0.888  0.556  0.453-  35 2.91  18 2.92  15 2.92  13 2.92  33 2.92  31 2.92  24 2.92  27 2.92
                            25 2.93  19 2.93  23 2.93  20 2.93
  23  0.223  0.555  0.452-  36 2.77  14 2.90  13 2.90  16 2.90  21 2.92  20 2.92  34 2.92  33 2.92
                            22 2.93  24 2.93  26 2.94  25 2.94
  24  0.556  0.556  0.453-  35 2.91  15 2.92  17 2.92  14 2.92  32 2.92  34 2.92  27 2.92  22 2.92
                            19 2.93  26 2.93  23 2.93  21 2.93
  25  0.889  0.889  0.454-  28 2.91  18 2.93  16 2.93  12 2.93  22 2.93  27 2.93  26 2.93  19 2.93
                            23 2.94  21 2.94  33 2.94  30 2.94
  26  0.223  0.889  0.454-  28 2.91  17 2.93  16 2.93  10 2.93  27 2.93  24 2.93  25 2.93  19 2.93
                            23 2.94  20 2.94  34 2.94  29 2.94
  27  0.556  0.888  0.453-  35 2.91  17 2.92  18 2.92  11 2.92  29 2.92  30 2.92  24 2.92  22 2.92
                            26 2.93  25 2.93  20 2.93  21 2.93
  28  0.000  0.000  0.560-  26 2.91  25 2.91  19 2.91  29 2.95  34 2.95  33 2.95  32 2.95  31 2.95
                            30 2.95
  29  0.333  0.006  0.561-  31 2.88  30 2.88  36 2.89  20 2.92  27 2.92  26 2.94  28 2.95  35 2.96
                            34 3.03
  30  0.661  0.006  0.561-  32 2.88  29 2.88  36 2.89  21 2.92  27 2.92  25 2.94  28 2.95  35 2.96
                            33 3.03
  31  0.006  0.333  0.561-  29 2.88  33 2.88  36 2.89  20 2.92  22 2.92  19 2.94  28 2.95  35 2.96
                            32 3.03
  32  0.661  0.333  0.561-  30 2.88  34 2.88  36 2.89  21 2.92  24 2.92  19 2.94  28 2.95  35 2.96
                            31 3.03
  33  0.006  0.661  0.561-  34 2.88  31 2.88  36 2.89  23 2.92  22 2.92  25 2.94  28 2.95  35 2.96
                            30 3.03
  34  0.333  0.661  0.561-  33 2.88  32 2.88  36 2.89  23 2.92  24 2.92  26 2.94  28 2.95  35 2.96
                            29 3.03
  35  0.667  0.667  0.560-  24 2.91  27 2.91  22 2.91  30 2.96  32 2.96  29 2.96  34 2.96  31 2.96
                            33 2.96
  36  0.333  0.333  0.551-  37 1.60  21 2.77  20 2.77  23 2.77  31 2.89  30 2.89  33 2.89  29 2.89
                            34 2.89  32 2.89
  37  0.333  0.333  0.624-  36 1.60

  LATTYP: Found a hexagonal cell.
 ALAT       =     8.7913665772
 C/A-ratio  =     2.5227160501

  Lattice vectors:

 A1 = (  -4.3956832886,  -7.6135467898,   0.0000000000)
 A2 = (   8.7913665771,   0.0000000000,   0.0000000000)
 A3 = (   0.0000000000,   0.0000000000,  22.1781215668)

Analysis of symmetry for initial positions (statically):
 Subroutine PRICEL returns:
 Original cell was already a primitive cell.

 Routine SETGRP: Setting up the symmetry group for a
 hexagonal supercell.

 Subroutine GETGRP returns: Found  6 space group operations
 (whereof  6 operations were pure point group operations)
 out of a pool of 24 trial point group operations.

The static configuration has the point symmetry C_3v.

Analysis of symmetry for dynamics (positions and initial velocities):
 Subroutine PRICEL returns:
 Original cell was already a primitive cell.

[...]

The dynamic configuration has the point symmetry C_3v.

Analysis of constrained symmetry for selective dynamics:
 Subroutine PRICEL returns:
 Original cell was already a primitive cell.

 Routine SETGRP: Setting up the symmetry group for a
 hexagonal supercell.

 Subroutine GETGRP returns: Found  6 space group operations
 (whereof  6 operations were pure point group operations)
[...]
     24      -4.6667      2.00000
     25      -4.6384      2.00000
     26      -4.6233      2.00000
     27      -4.6024      2.00000
     28      -4.5969      2.00000
     29      -4.5763      2.00000
     30      -4.5681      2.00000
     31      -4.5569      2.00000
     32      -4.5160      2.00000
     33      -4.4757      2.00000
     34      -4.4566      2.00000
     35      -4.4312      2.00000
     36      -4.4203      2.00000
     37      -4.3891      2.00000
     38      -4.3682      2.00000
     39      -4.3605      2.00000
     40      -4.3421      2.00000
     41      -4.3341      2.00000
     42      -4.3070      2.00000
     43      -4.2490      2.00000
     44      -4.2239      2.00000
     45      -4.2180      2.00000
     46      -4.2104      2.00000
     47      -4.1950      2.00000
     48      -4.1906      2.00000
     49      -4.1783      2.00000
     50      -4.1660      2.00000
     51      -4.1646      2.00000
     52      -4.1463      2.00000
     53      -4.0864      2.00000
     54      -4.0774      2.00000
     55      -4.0718      2.00000
     56      -4.0613      2.00000
     57      -4.0447      2.00000
     58      -4.0275      2.00000
     59      -3.9934      2.00000
     60      -3.9825      2.00000
[...]
    238       7.1874      0.00000
    239       7.2237      0.00000
    240       7.2778      0.00000
    241       7.2889      0.00000
    242       7.3183      0.00000
    243       7.3492      0.00000
    244       7.3994      0.00000
    245       7.5501      0.00000
    246       7.5895      0.00000
    247       7.6051      0.00000
    248       7.6616      0.00000
    249       7.6906      0.00000
    250       7.9259      0.00000
    251       7.9604      0.00000
    252       8.1600      0.00000

 soft charge-density along one line, spin component           1
         0         1         2         3         4         5         6         7         8         9
 total charge-density along one line

------------------------ aborting loop because EDIFF is reached ----------------------------------------

 total charge

# of ion       s       p       d       tot
    1        0.418   0.201   9.180   9.798
    2        0.416   0.203   9.177   9.797
    3        0.416   0.203   9.177   9.797
    4        0.416   0.203   9.177   9.797
    5        0.419   0.202   9.176   9.796
    6        0.416   0.203   9.177   9.797
    7        0.416   0.203   9.177   9.797
    8        0.416   0.203   9.177   9.797
    9        0.414   0.201   9.180   9.795
   10        0.408   0.269   9.163   9.840
   11        0.409   0.268   9.168   9.844
   12        0.408   0.269   9.163   9.840
   13        0.409   0.268   9.168   9.844
   14        0.409   0.268   9.168   9.844
   15        0.405   0.269   9.165   9.838
   16        0.408   0.269   9.163   9.840
   17        0.405   0.269   9.165   9.838
   18        0.405   0.269   9.165   9.838
   19        0.401   0.266   9.167   9.833
   20        0.431   0.288   9.152   9.870
   21        0.431   0.288   9.152   9.870
   22        0.395   0.272   9.168   9.835
   23        0.431   0.288   9.152   9.870
   24        0.395   0.272   9.168   9.835
   25        0.401   0.266   9.167   9.833
   26        0.401   0.266   9.167   9.833
   27        0.395   0.272   9.168   9.835
   28        0.411   0.196   9.182   9.789
   29        0.418   0.209   9.169   9.796
   30        0.418   0.209   9.169   9.796
   31        0.418   0.209   9.169   9.796
   32        0.418   0.209   9.169   9.796
   33        0.418   0.209   9.169   9.796
   34        0.418   0.209   9.169   9.796
   35        0.402   0.199   9.183   9.784
   36        0.507   0.421   6.656   7.583
   37        0.516   0.018   0.000   0.534
tot         15.434   8.802 327.585 351.821

  FORCE on cell =-STRESS in cart. coord.  units (eV):
  Direction    XX          YY          ZZ          XY          YZ          ZX
  Alpha Z   734.18825   734.18825   734.18825
  Ewald  120815.21489120815.21486************     0.00000    -0.00000    -0.00001
  Hartree130899.31644130899.31643************     0.00000    -0.00000    -0.00000
  E(xc)   -2069.33401 -2069.33399 -2075.44177    -0.00001     0.00000     0.00000
  Local  ************************263139.89556     0.00023    -0.00003    -0.00006
  n-local  -330.69676  -307.43127  -316.21665    12.53864    -0.50308     0.72232
  augment  3265.81670  3265.81687  3275.97709    -0.00015     0.00000     0.00003
  Kinetic  4864.23757  4872.89914  4896.72666     5.99175     0.73951     0.04631
  Fock        0.00000     0.00000     0.00000     0.00000     0.00000     0.00000
  Total      -9.42170    -9.42170     0.47182    -0.00000    -0.00000    -0.00000
  in kB     -10.16884   -10.16884     0.50923    -0.00000    -0.00000    -0.00000

 VOLUME and BASIS-vectors are now :
  energy-cutoff  :      500.00
  volume of cell :     1484.46
      direct lattice vectors                 reciprocal lattice vectors
     8.791366577  0.000000000  0.000000000     0.113747958 -0.065672414  0.000000000
     4.395683289  7.613546790  0.000000000     0.000000000  0.131344829  0.000000000
     0.000000000  0.000000000 22.178121567     0.000000000  0.000000000  0.045089481

  length of vectors
     8.791366577  8.791366577 22.178121567     0.131344829  0.131344829  0.045089481

 FORCES acting on ions
    electron-ion (+dipol)            ewald-force                    non-local-force                 convergence-correction
   0.460E-04 -.282E-04 0.250E+04   -.954E-04 0.593E-04 -.249E+04   -.166E-17 0.778E-18 -.202E+01   -.106E-03 -.168E-03 0.637E-01
   0.198E+00 0.331E+00 0.250E+04   -.323E+00 -.365E+00 -.249E+04   0.685E-01 0.955E-01 -.155E+01   0.612E-01 -.478E-01 0.111E+00
   -.198E+00 0.331E+00 0.250E+04   0.323E+00 -.365E+00 -.249E+04   -.685E-01 0.955E-01 -.155E+01   -.618E-01 -.459E-01 0.112E+00
   0.385E+00 0.602E-02 0.250E+04   -.477E+00 -.973E-01 -.249E+04   0.117E+00 0.116E-01 -.155E+01   -.106E-01 0.771E-01 0.111E+00
   -.798E-05 -.201E-04 0.250E+04   0.981E-04 -.198E-05 -.250E+04   -.354E-17 -.161E-17 -.124E+01   0.624E-02 0.381E-02 0.294E+00
   -.385E+00 0.606E-02 0.250E+04   0.477E+00 -.973E-01 -.249E+04   -.117E+00 0.116E-01 -.155E+01   0.917E-02 0.780E-01 0.112E+00
   0.187E+00 -.337E+00 0.250E+04   -.154E+00 0.462E+00 -.249E+04   0.484E-01 -.107E+00 -.155E+01   -.701E-01 -.300E-01 0.112E+00
   -.187E+00 -.337E+00 0.250E+04   0.154E+00 0.462E+00 -.249E+04   -.484E-01 -.107E+00 -.155E+01   0.718E-01 -.310E-01 0.112E+00
   0.363E-04 -.131E-04 0.250E+04   0.792E-04 -.643E-04 -.249E+04   -.553E-18 -.380E-17 -.188E+01   -.666E-02 -.344E-02 0.431E-01
   0.373E+01 0.215E+01 0.824E+03   -.343E+01 -.198E+01 -.824E+03   -.332E+00 -.192E+00 -.754E+00   0.328E-01 0.189E-01 0.332E+00
   -.287E-04 0.371E+01 0.829E+03   0.411E-04 -.402E+01 -.829E+03   0.133E-11 0.202E+00 -.319E+00   0.628E-02 0.738E-01 0.270E+00
   -.373E+01 0.215E+01 0.824E+03   0.343E+01 -.198E+01 -.824E+03   0.332E+00 -.192E+00 -.754E+00   -.343E-01 0.200E-01 0.332E+00
   0.321E+01 -.185E+01 0.829E+03   -.348E+01 0.201E+01 -.829E+03   0.175E+00 -.101E+00 -.319E+00   0.669E-01 -.314E-01 0.270E+00
   -.321E+01 -.185E+01 0.829E+03   0.348E+01 0.201E+01 -.829E+03   -.175E+00 -.101E+00 -.319E+00   -.563E-01 -.322E-01 0.269E+00
   0.160E-04 0.681E+00 0.825E+03   -.108E-03 -.887E+00 -.824E+03   0.849E-12 0.129E+00 -.781E+00   -.164E-02 0.505E-01 0.266E+00
   -.809E-05 -.430E+01 0.824E+03   0.206E-04 0.397E+01 -.824E+03   0.252E-11 0.384E+00 -.754E+00   0.120E-03 -.398E-01 0.332E+00
   0.590E+00 -.341E+00 0.825E+03   -.768E+00 0.443E+00 -.824E+03   0.112E+00 -.646E-01 -.781E+00   0.429E-01 -.267E-01 0.266E+00
   -.590E+00 -.341E+00 0.825E+03   0.768E+00 0.443E+00 -.824E+03   -.112E+00 -.646E-01 -.781E+00   -.429E-01 -.248E-01 0.267E+00
   0.406E-04 -.689E+00 -.871E+03   -.127E-03 0.575E+00 0.870E+03   0.723E-12 0.110E+00 0.657E+00   -.384E-03 0.533E-02 0.321E+00
   0.375E+01 0.216E+01 -.856E+03   -.257E+01 -.148E+01 0.856E+03   -.125E+01 -.722E+00 -.107E+01   -.238E-01 -.137E-01 0.296E+00
   -.375E+01 0.216E+01 -.856E+03   0.257E+01 -.148E+01 0.856E+03   0.125E+01 -.722E+00 -.107E+01   0.237E-01 -.133E-01 0.296E+00
   -.168E+01 0.970E+00 -.865E+03   0.139E+01 -.802E+00 0.864E+03   0.293E+00 -.169E+00 0.390E+00   0.222E-01 -.125E-01 0.303E+00
   -.551E-04 -.433E+01 -.856E+03   0.416E-04 0.297E+01 0.856E+03   0.948E-11 0.144E+01 -.107E+01   0.627E-03 0.278E-01 0.296E+00
   0.168E+01 0.970E+00 -.865E+03   -.139E+01 -.802E+00 0.864E+03   -.293E+00 -.169E+00 0.390E+00   -.222E-01 -.127E-01 0.303E+00
   0.597E+00 0.345E+00 -.871E+03   -.498E+00 -.287E+00 0.870E+03   -.953E-01 -.550E-01 0.657E+00   -.413E-02 -.254E-02 0.321E+00
   -.597E+00 0.345E+00 -.871E+03   0.498E+00 -.288E+00 0.870E+03   0.953E-01 -.550E-01 0.657E+00   0.411E-02 -.312E-02 0.321E+00
   0.201E-04 -.194E+01 -.865E+03   0.110E-03 0.160E+01 0.864E+03   0.222E-11 0.338E+00 0.390E+00   -.401E-03 0.255E-01 0.303E+00
   0.540E-04 -.370E-04 -.251E+04   -.114E-03 0.774E-04 0.251E+04   0.569E-17 -.864E-18 0.211E+01   0.979E-04 -.787E-04 -.561E-01
   -.603E+00 -.614E+00 -.251E+04   0.129E+01 0.157E+01 0.251E+04   -.719E+00 -.100E+01 0.167E+01   0.539E-01 0.772E-01 -.108E+00
   0.603E+00 -.614E+00 -.251E+04   -.129E+01 0.157E+01 0.251E+04   0.719E+00 -.100E+01 0.167E+01   -.545E-01 0.786E-01 -.108E+00
   -.833E+00 -.215E+00 -.251E+04   0.200E+01 0.333E+00 0.251E+04   -.123E+01 -.121E+00 0.167E+01   0.941E-01 0.821E-02 -.108E+00
   0.833E+00 -.215E+00 -.251E+04   -.200E+01 0.332E+00 0.251E+04   0.123E+01 -.121E+00 0.167E+01   -.947E-01 0.908E-02 -.108E+00
   -.230E+00 0.829E+00 -.251E+04   0.711E+00 -.190E+01 0.251E+04   -.509E+00 0.112E+01 0.167E+01   0.413E-01 -.860E-01 -.108E+00
   0.230E+00 0.829E+00 -.251E+04   -.712E+00 -.190E+01 0.251E+04   0.509E+00 0.112E+01 0.167E+01   -.399E-01 -.865E-01 -.108E+00
   0.247E-04 -.131E-04 -.251E+04   0.105E-03 -.654E-04 0.251E+04   -.349E-18 0.209E-18 0.224E+01   -.652E-02 -.333E-02 -.214E-01
   -.200E-04 -.120E-04 -.173E+04   0.767E-04 0.950E-05 0.173E+04   0.554E-17 0.558E-17 -.483E+01   0.183E-02 0.111E-02 -.877E-01
   0.527E-05 -.423E-05 -.286E+03   0.525E-05 0.876E-07 0.288E+03   -.209E-19 -.761E-19 -.239E+01   0.105E-03 0.640E-04 -.200E-01
   0.324E-03 -.714E-03 0.735E+01   -.998E-15 0.150E-13 -.347E-11   0.893E-15 0.228E-15 -.129E+02   0.843E-02 0.809E-02 0.560E+01

 POSITION                                       TOTAL-FORCE (eV/Angst)
      0.00000      0.00000      5.28219         0.000000      0.000000     -0.029039
      2.93046      0.00000      5.28219         0.005359      0.014628      0.025400
      5.86091      0.00000      5.28219        -0.005359      0.014628      0.025400
      1.46523      2.53785      5.28219         0.015348     -0.002673      0.025400
      4.39568      2.53785      5.28219         0.000000      0.000000     -0.026538
      7.32614      2.53785      5.28219        -0.015348     -0.002673      0.025400
      2.93046      5.07570      5.28219         0.009989     -0.011955      0.025400
      5.86091      5.07570      5.28219        -0.009989     -0.011955      0.025400
      8.79137      5.07570      5.28219        -0.000000      0.000000     -0.002748
      1.46523      0.84595      7.67490        -0.006412     -0.003702     -0.008399
      4.39568      0.84595      7.67490        -0.000000     -0.038053     -0.038854
      7.32614      0.84595      7.67490         0.006412     -0.003702     -0.008399
      2.93046      3.38380      7.67490        -0.032955      0.019027     -0.038854
      5.86091      3.38380      7.67490         0.032955      0.019027     -0.038854
      8.79137      3.38380      7.67490        -0.000000     -0.026047     -0.001159
      4.39568      5.92165      7.67490         0.000000      0.007403     -0.008399
      7.32614      5.92165      7.67490        -0.022558      0.013024     -0.001159
     10.25659      5.92165      7.67490         0.022558      0.013024     -0.001159
      8.79137      1.69450     10.06282         0.000000      0.000908      0.006428
      2.93652      1.69540     10.03056        -0.092236     -0.053252     -0.112506
      5.85484      1.69540     10.03056         0.092236     -0.053252     -0.112506
     10.25378      4.23137     10.05553         0.022840     -0.013186     -0.016077
      4.39568      4.22274     10.03056         0.000000      0.106505     -0.112506
      7.32895      4.23137     10.05553        -0.022840     -0.013186     -0.016077
     11.71957      6.76630     10.06282        -0.000786     -0.000454      0.006428
      5.86316      6.76630     10.06282         0.000786     -0.000454      0.006428
      8.79137      6.76435     10.05553         0.000000      0.026373     -0.016077
      0.00000      0.00000     12.42400         0.000000      0.000000      0.021250
      2.95387      0.04433     12.43748         0.020353      0.026204      0.051440
      5.83749      0.04433     12.43748        -0.020353      0.026204      0.051440
      1.51533      2.53597     12.43748         0.032870      0.004525      0.051440
      7.27604      2.53597     12.43748        -0.032870      0.004525      0.051440
      2.95713      5.03325     12.43748         0.012517     -0.030729      0.051440
      5.83423      5.03325     12.43748        -0.012517     -0.030729      0.051440
      8.79137      5.07570     12.42069         0.000000      0.000000      0.028255
      4.39568      2.53785     12.23056         0.000000      0.000000      0.060744
      4.39568      2.53785     13.83307         0.000000      0.000000     -0.001261
    total drift:                                0.008757      0.007375      0.060877

  FREE ENERGIE OF THE ION-ELECTRON SYSTEM (eV)
  free  energy   TOTEN  =       -99.45999873 eV

  energy  without entropy=      -99.45999873  energy(sigma->0) =      -99.45999873

 stress matrix after NEB project (eV)
     -9.42170     -0.00000     -0.00000
     -0.00000     -9.42170     -0.00000
     -0.00000     -0.00000      0.47182
  FORCES: max atom, RMS     0.001261    0.000207
  FORCE total and by dimension    0.001261    0.001261
  Stress total and by dimension   13.332644    9.421698
|           W    W    AA    RRRRR   N    N  II  N    N   GGGG   !!!           |
|           W    W   A  A   R    R  NN   N  II  NN   N  G    G  !!!           |
|           W    W  A    A  R    R  N N  N  II  N N  N  G       !!!           |
|           W WW W  AAAAAA  RRRRR   N  N N  II  N  N N  G  GGG   !            |
|           WW  WW  A    A  R   R   N   NN  II  N   NN  G    G                |
|           W    W  A    A  R    R  N    N  II  N    N   GGGG   !!!           |
|     Tetrahedron method does not include variations of the Fermi             |
|     occupations, so forces and stress will be inaccurate. We suggest        |
|     using a different smearing scheme ISMEAR = 1 or 2 for metals in         |
|     relaxations.                                                            |

 total charge

# of ion       s       p       d       tot
    1        0.418   0.201   9.180   9.798
    2        0.416   0.203   9.177   9.797
    3        0.416   0.203   9.177   9.797
    4        0.416   0.203   9.177   9.797
    5        0.419   0.202   9.176   9.796
    6        0.416   0.203   9.177   9.797
    7        0.416   0.203   9.177   9.797
    8        0.416   0.203   9.177   9.797
    9        0.414   0.201   9.180   9.795
   10        0.408   0.269   9.163   9.840
   11        0.409   0.268   9.168   9.844
   12        0.408   0.269   9.163   9.840
   13        0.409   0.268   9.168   9.844
   14        0.409   0.268   9.168   9.844
   15        0.405   0.269   9.165   9.838
   16        0.408   0.269   9.163   9.840
   17        0.405   0.269   9.165   9.838
   18        0.405   0.269   9.165   9.838
   19        0.401   0.266   9.167   9.833
   20        0.431   0.288   9.152   9.870
   21        0.431   0.288   9.152   9.870
   22        0.395   0.272   9.168   9.835
   23        0.431   0.288   9.152   9.870
   24        0.395   0.272   9.168   9.835
   25        0.401   0.266   9.167   9.833
   26        0.401   0.266   9.167   9.833
   27        0.395   0.272   9.168   9.835
   28        0.411   0.196   9.182   9.789
   29        0.418   0.209   9.169   9.796
   30        0.418   0.209   9.169   9.796
   31        0.418   0.209   9.169   9.796
   32        0.418   0.209   9.169   9.796
   33        0.418   0.209   9.169   9.796
   34        0.418   0.209   9.169   9.796
   35        0.402   0.199   9.183   9.784
   36        0.507   0.421   6.656   7.583
   37        0.516   0.018   0.000   0.534
tot         15.434   8.802 327.585 351.821

 BZINTS: Fermi energy:    0.741553;  394.000000 electrons
         Band energy:-0.127863E+04;  BLOECHL correction:   -0.043625