 vasp.6.2.0 18Jan21 (build Jun 12 2021 23:27:24) complex

 executed on             LinuxIFC date 2022.05.27  06:14:27

 INCAR:
   ISMEAR = -5
   SIGMA = 0.1
   ISPIN = 1
   EDIFF = 1.d-5
   EDIFFG = -0.01
   NSW = 0
   NELM = 150
   ENCUT = 500
   ISIF = 2
   IBRION = 2
   LREAL = Auto
   ALGO = Fast
   ICHARG = 11
   LORBIT = 10
   LCHARG = .F.
   LWAVE = .F.

 POTCAR:    PAW_PBE Cu 22Jun2005
 POTCAR:    PAW_PBE Hf 20Jan2003
 POTCAR:    PAW_PBE C 08Apr2002
 POTCAR:    PAW_PBE O 08Apr2002
|           W    W    AA    RRRRR   N    N  II  N    N   GGGG   !!!           |
|           W    W   A  A   R    R  NN   N  II  NN   N  G    G  !!!           |
|           W    W  A    A  R    R  N N  N  II  N N  N  G       !!!           |
|           W WW W  AAAAAA  RRRRR   N  N N  II  N  N N  G  GGG   !            |
|           WW  WW  A    A  R   R   N   NN  II  N   NN  G    G                |
|           W    W  A    A  R    R  N    N  II  N    N   GGGG   !!!           |
|     For optimal performance we recommend to set                             |
|       NCORE = 2 up to number-of-cores-per-socket                            |
|     This setting can greatly improve the performance of VASP for DFT.       |
|     The default, NCORE=1 might be grossly inefficient on modern             |
|     multi-core architectures or massively parallel machines. Do your        |
|     Unfortunately you need to use the default for GW and RPA                |
|     calculations (for HF NCORE is supported but not extensively tested      |
|     yet).                                                                   |

 POTCAR:    PAW_PBE Cu 22Jun2005
   VRHFIN =Cu: d10 p1

   TITEL  = PAW_PBE Cu 22Jun2005
   POMASS =   63.546; ZVAL   =   11.000    mass and valenz
   ENMAX  =  295.446; ENMIN  =  221.585 eV

 POTCAR:    PAW_PBE Hf 20Jan2003
   VRHFIN =Hf: 6s5d

   TITEL  = PAW_PBE Hf 20Jan2003
   POMASS =  178.490; ZVAL   =    4.000    mass and valenz
   ENMAX  =  220.334; ENMIN  =  165.250 eV

 POTCAR:    PAW_PBE C 08Apr2002
   VRHFIN =C: s2p2

   TITEL  = PAW_PBE C 08Apr2002
   POMASS =   12.011; ZVAL   =    4.000    mass and valenz
   ENMAX  =  400.000; ENMIN  =  300.000 eV

 POTCAR:    PAW_PBE O 08Apr2002
   VRHFIN =O: s2p4

   TITEL  = PAW_PBE O 08Apr2002
   POMASS =   16.000; ZVAL   =    6.000    mass and valenz
   ENMAX  =  400.000; ENMIN  =  300.000 eV

 Optimization of the real space projectors (new method)

 maximal supplied QI-value         = 16.25
 optimisation between [QCUT,QGAM] = [ 11.38, 22.75] = [ 36.24,144.96] Ry
 Optimized for a Real-space Cutoff    1.52 Angstroem

   l    n(q)    QCUT    max X(q) W(low)/X(q) W(high)/X(q)  e(spline)
   2      9    11.376     4.610    0.21E-03    0.10E-03    0.26E-06
   2      9    11.376     8.522    0.33E-03    0.16E-03    0.37E-06
   0     10    11.376    51.609    0.62E-04    0.20E-04    0.13E-06
   0     10    11.376    27.747    0.54E-04    0.20E-04    0.13E-06
   1     10    11.376    20.408    0.13E-04    0.99E-04    0.19E-06
   1     10    11.376    13.425    0.12E-04    0.87E-04    0.17E-06
 Optimization of the real space projectors (new method)

[...]

   l    n(q)    QCUT    max X(q) W(low)/X(q) W(high)/X(q)  e(spline)
   0      7    11.310   115.676    0.43E-03    0.13E-02    0.19E-06
   0      7    11.310    87.132    0.43E-03    0.13E-02    0.18E-06
   1      6    11.310     4.429    0.42E-03    0.74E-03    0.11E-06
   1      6    11.310     2.733    0.34E-03    0.55E-03    0.92E-07
 Optimization of the real space projectors (new method)

 maximal supplied QI-value         = 24.76
 optimisation between [QCUT,QGAM] = [ 11.39, 22.77] = [ 36.31,145.25] Ry
 Optimized for a Real-space Cutoff    1.00 Angstroem

   l    n(q)    QCUT    max X(q) W(low)/X(q) W(high)/X(q)  e(spline)
   0      7    11.387    20.381    0.39E-03    0.13E-02    0.15E-06
   0      7    11.387    15.268    0.42E-03    0.14E-02    0.17E-06
   1      6    11.387     5.964    0.41E-03    0.11E-02    0.17E-06
   1      6    11.387     5.382    0.39E-03    0.87E-03    0.15E-06
  PAW_PBE Cu 22Jun2005                  :
  PAW_PBE Hf 20Jan2003                  :
  PAW_PBE C 08Apr2002                   :
  PAW_PBE O 08Apr2002                   :

 POSCAR: Cu-Hf-CO
  positions in direct lattice
  velocities in cartesian coordinates
 exchange correlation table for  LEXCH =        8
   RHO(1)=    0.500       N(1)  =     2000
   RHO(2)=  100.500       N(2)  =     4000

 VTST: version 3.2, (02/03/18)

 CHAIN: initializing optimizer

 OPT: Using VASP Conjugate-Gradient optimizer
 CHAIN: Read ICHAIN            0

 POSCAR: Cu-Hf-CO
  positions in direct lattice
  velocities in cartesian coordinates

 ion  position               nearest neighbor table
   1  0.000  0.000  0.252-   7 2.57   3 2.57   4 2.57   2 2.57   6 2.57   8 2.57  12 2.57  10 2.57
                            16 2.57
   2  0.333  0.000  0.252-   8 2.57   9 2.57   5 2.57   1 2.57   3 2.57  11 2.57   4 2.57  10 2.57
                            17 2.57
   3  0.667  0.000  0.252-   1 2.57   7 2.57   6 2.57   9 2.57   2 2.57  12 2.57   5 2.57  18 2.57
                            11 2.57
   4  0.000  0.333  0.252-   5 2.57   6 2.57   1 2.57   7 2.57   2 2.57  13 2.57   9 2.57  10 2.57
                            15 2.57
   5  0.333  0.333  0.252-   4 2.57   2 2.57   7 2.57  13 2.57   8 2.57   6 2.57   3 2.57  11 2.57
                            14 2.57
   6  0.667  0.333  0.252-   4 2.57   9 2.57  15 2.57   3 2.57   1 2.57   8 2.57  14 2.57   5 2.57
                            12 2.57
   7  0.000  0.667  0.252-   1 2.57   3 2.57  16 2.57  18 2.57   4 2.57   5 2.57   8 2.57   9 2.57
                            13 2.57
   8  0.333  0.667  0.252-   9 2.57   2 2.57  17 2.57   6 2.57   1 2.57   7 2.57   5 2.57  14 2.57
                            16 2.57
   9  0.667  0.667  0.252-   8 2.57   6 2.57   2 2.57  17 2.57   3 2.57   7 2.57   4 2.57  15 2.57
                            18 2.57
  10  0.111  0.111  0.351-  26 2.54  19 2.54  11 2.57  12 2.57  13 2.57   1 2.57   2 2.57   4 2.57
                            15 2.57  16 2.57  17 2.57  20 2.58
  11  0.444  0.111  0.351-  27 2.56  10 2.57  13 2.57   2 2.57  17 2.57  14 2.57  12 2.57   5 2.57
                             3 2.57  18 2.57  20 2.57  21 2.57
  12  0.778  0.111  0.351-  19 2.54  25 2.54  15 2.57  10 2.57  14 2.57  18 2.57   3 2.57   1 2.57
                            16 2.57  11 2.57   6 2.57  21 2.58
  13  0.111  0.444  0.351-  22 2.56  16 2.57  18 2.57  10 2.57  11 2.57  14 2.57   5 2.57   4 2.57
                             7 2.57  15 2.57  23 2.57  20 2.57
  14  0.444  0.444  0.351-  24 2.56  15 2.57  17 2.57  12 2.57  16 2.57  13 2.57  11 2.57   6 2.57
                             8 2.57   5 2.57  21 2.57  23 2.57
  15  0.778  0.444  0.351-  19 2.55  24 2.56  22 2.56  14 2.57  17 2.57  12 2.57   6 2.57  18 2.57
                            10 2.57   9 2.57  13 2.57   4 2.57
  16  0.111  0.778  0.351-  25 2.54  26 2.54  18 2.57  13 2.57   7 2.57  14 2.57  17 2.57  12 2.57
                            10 2.57   8 2.57   1 2.57  23 2.58
  17  0.444  0.778  0.351-  26 2.55  27 2.56  24 2.56  14 2.57  15 2.57   8 2.57   9 2.57  11 2.57
                            16 2.57  18 2.57  10 2.57   2 2.57
  18  0.778  0.778  0.351-  25 2.55  22 2.56  27 2.56  16 2.57  13 2.57   7 2.57  15 2.57  12 2.57
                            17 2.57   9 2.57   3 2.57  11 2.57
  19  0.889  0.221  0.448-  12 2.54  10 2.54  15 2.55  25 2.56  26 2.56  32 2.57  31 2.57  22 2.57
                            24 2.57  21 2.57  20 2.57  28 2.57
  20  0.223  0.223  0.450-  23 2.55  21 2.55  27 2.57  22 2.57  26 2.57  19 2.57  11 2.57  13 2.57
                            10 2.58  29 2.58  31 2.58  36 2.77
  21  0.555  0.223  0.450-  20 2.55  23 2.55  24 2.57  27 2.57  19 2.57  25 2.57  14 2.57  11 2.57
                            12 2.58  32 2.58  30 2.58  36 2.77
  22  0.889  0.556  0.449-  18 2.56  15 2.56  13 2.56  24 2.56  27 2.56  23 2.57  20 2.57  31 2.57
                            33 2.57  19 2.57  25 2.57  35 2.58
  23  0.223  0.555  0.450-  20 2.55  21 2.55  22 2.57  24 2.57  25 2.57  26 2.57  13 2.57  14 2.57
                            16 2.58  33 2.58  34 2.58  36 2.77
  24  0.556  0.556  0.449-  15 2.56  17 2.56  14 2.56  22 2.56  27 2.56  21 2.57  23 2.57  32 2.57
                            34 2.57  19 2.57  26 2.57  35 2.58
  25  0.889  0.889  0.448-  12 2.54  16 2.54  18 2.55  19 2.56  26 2.56  33 2.57  30 2.57  22 2.57
                            27 2.57  21 2.57  23 2.57  28 2.57
  26  0.221  0.889  0.448-  10 2.54  16 2.54  17 2.55  25 2.56  19 2.56  29 2.57  34 2.57  27 2.57
                            24 2.57  20 2.57  23 2.57  28 2.57
  27  0.556  0.889  0.449-  17 2.56  18 2.56  11 2.56  24 2.56  22 2.56  20 2.57  21 2.57  29 2.57
                            30 2.57  26 2.57  25 2.57  35 2.58
  28  0.000  0.000  0.547-  33 2.55  30 2.55  31 2.55  29 2.55  32 2.55  34 2.55  25 2.57  19 2.57
                            26 2.57
  29  0.334  0.994  0.548-  34 2.48  35 2.54  28 2.55  26 2.57  27 2.57  20 2.58  30 2.60  31 2.61
                            36 2.62
  30  0.672  0.994  0.548-  33 2.48  35 2.54  28 2.55  25 2.57  27 2.57  21 2.58  29 2.60  32 2.61
                            36 2.62
  31  0.994  0.334  0.548-  32 2.48  35 2.54  28 2.55  19 2.57  22 2.57  20 2.58  33 2.60  29 2.61
                            36 2.62
  32  0.672  0.334  0.548-  31 2.48  35 2.54  28 2.55  19 2.57  24 2.57  21 2.58  34 2.60  30 2.61
                            36 2.62
  33  0.994  0.672  0.548-  30 2.48  35 2.54  28 2.55  25 2.57  22 2.57  23 2.58  31 2.60  34 2.61
                            36 2.62
  34  0.334  0.672  0.548-  29 2.48  35 2.54  28 2.55  26 2.57  24 2.57  23 2.58  32 2.60  33 2.61
                            36 2.62
  35  0.667  0.667  0.548-  34 2.54  32 2.54  29 2.54  30 2.54  33 2.54  31 2.54  24 2.58  27 2.58
                            22 2.58
  36  0.333  0.333  0.560-  38 2.39  31 2.62  29 2.62  33 2.62  32 2.62  34 2.62  30 2.62  23 2.77
                            20 2.77  21 2.77
  37  0.333  0.333  0.727-  38 1.16
  38  0.333  0.333  0.672-  37 1.16  36 2.39

  LATTYP: Found a hexagonal cell.
 ALAT       =     7.6967864036
 C/A-ratio  =     2.7653617908

  Lattice vectors:

 A1 = (  -3.8483927580,  -6.6656128093,   0.0000000000)
 A2 = (   7.6967864037,   0.0000000000,   0.0000000000)
 A3 = (   0.0000000000,   0.0000000000,  21.2843990326)

Analysis of symmetry for initial positions (statically):
 Subroutine PRICEL returns:
 Original cell was already a primitive cell.

 Routine SETGRP: Setting up the symmetry group for a
 hexagonal supercell.

 Subroutine GETGRP returns: Found  6 space group operations
 (whereof  6 operations were pure point group operations)
 out of a pool of 24 trial point group operations.

The static configuration has the point symmetry C_3v.

Analysis of symmetry for dynamics (positions and initial velocities):
 Subroutine PRICEL returns:
 Original cell was already a primitive cell.

[...]

The dynamic configuration has the point symmetry C_3v.

Analysis of constrained symmetry for selective dynamics:
 Subroutine PRICEL returns:
[...]
     33      -3.6683      2.00000
     34      -3.6503      2.00000
     35      -3.6438      2.00000
     36      -3.6371      2.00000
     37      -3.6299      2.00000
     38      -3.6148      2.00000
     39      -3.5846      2.00000
     40      -3.5045      2.00000
     41      -3.4879      2.00000
     42      -3.3391      2.00000
     43      -3.3264      2.00000
     44      -3.2833      2.00000
     45      -3.2691      2.00000
     46      -3.2435      2.00000
     47      -3.2331      2.00000
     48      -3.2267      2.00000
     49      -3.2177      2.00000
     50      -3.2121      2.00000
     51      -3.0755      2.00000
     52      -3.0503      2.00000
     53      -3.0334      2.00000
     54      -3.0096      2.00000
     55      -2.9594      2.00000
     56      -2.9410      2.00000
     57      -2.9386      2.00000
     58      -2.9212      2.00000
     59      -2.9080      2.00000
     60      -2.9043      2.00000
[...]
    238       6.2536      0.00000
    239       6.4240      0.00000
    240       6.5419      0.00000
    241       6.5636      0.00000
    242       6.7528      0.00000
    243       6.8611      0.00000
    244       7.0973      0.00000
    245       7.1091      0.00000
    246       7.1424      0.00000
    247       7.1584      0.00000
    248       7.2499      0.00000
    249       7.2740      0.00000
    250       7.5292      0.00000
    251       7.6946      0.00000
    252       7.8228      0.00000

 soft charge-density along one line, spin component           1
         0         1         2         3         4         5         6         7         8         9
 total charge-density along one line

------------------------ aborting loop because EDIFF is reached ----------------------------------------

 total charge

# of ion       s       p       d       tot
    1        0.450   0.283   9.188   9.921
    2        0.447   0.286   9.186   9.919
    3        0.447   0.286   9.186   9.919
    4        0.447   0.286   9.186   9.919
    5        0.449   0.286   9.182   9.917
    6        0.447   0.286   9.186   9.919
    7        0.447   0.286   9.186   9.919
    8        0.447   0.286   9.186   9.919
    9        0.450   0.284   9.187   9.921
   10        0.443   0.372   9.176   9.991
   11        0.441   0.365   9.181   9.987
   12        0.443   0.372   9.176   9.991
   13        0.441   0.365   9.181   9.987
   14        0.441   0.365   9.181   9.987
   15        0.440   0.372   9.177   9.988
   16        0.443   0.372   9.176   9.991
   17        0.440   0.372   9.177   9.988
   18        0.440   0.372   9.177   9.988
   19        0.444   0.373   9.178   9.995
   20        0.458   0.386   9.158  10.003
   21        0.458   0.386   9.158  10.003
   22        0.435   0.374   9.178   9.986
   23        0.458   0.386   9.158  10.003
   24        0.435   0.374   9.178   9.986
   25        0.444   0.373   9.178   9.995
   26        0.444   0.373   9.178   9.995
   27        0.435   0.374   9.178   9.986
   28        0.443   0.301   9.177   9.921
   29        0.488   0.326   9.156   9.970
   30        0.488   0.326   9.156   9.970
   31        0.488   0.326   9.156   9.970
   32        0.488   0.326   9.156   9.970
   33        0.488   0.326   9.156   9.970
   34        0.488   0.326   9.156   9.970
   35        0.442   0.305   9.178   9.924
   36        0.616   0.498   1.959   3.074
   37        1.041   1.382   0.000   2.423
   38        1.614   3.579   0.000   5.193
tot         19.097  17.317 323.070 359.484

  FORCE on cell =-STRESS in cart. coord.  units (eV):
  Direction    XX          YY          ZZ          XY          YZ          ZX
  Alpha Z   896.37992   896.37992   896.37992
  Ewald  165407.32087165407.32056************     0.00035     0.00014     0.00016
  Hartree178613.29374178613.29379************     0.00001     0.00007     0.00005
  E(xc)   -2307.04789 -2307.04751 -2308.93391    -0.00033    -0.00004    -0.00007
  Local  ************************356368.33374     0.01864    -0.00061    -0.00092
  n-local  -771.20545  -757.91805  -788.79319     7.00070    -0.22048     0.21619
  augment  3315.32070  3315.34050  3337.48423    -0.01716     0.00022     0.00042
  Kinetic  3354.44027  3354.16256  3362.10380     0.69896     2.02787    -1.53824
  Fock        0.00000     0.00000     0.00000     0.00000     0.00000     0.00000
  Total      -7.50950    -7.50950    -2.83159     0.00000     0.00000    -0.00000
  in kB     -11.01819   -11.01820    -4.15461     0.00000     0.00000    -0.00000

 VOLUME and BASIS-vectors are now :
  energy-cutoff  :      500.00
  volume of cell :     1091.97
      direct lattice vectors                 reciprocal lattice vectors
     7.696786404  0.000000000  0.000000000     0.129924354 -0.075011849  0.000000000
     3.848392758  6.665612809  0.000000000     0.000000000  0.150023716  0.000000000
     0.000000000  0.000000000 21.284399033     0.000000000  0.000000000  0.046982769

  length of vectors
     7.696786404  7.696786404 21.284399033     0.150023716  0.150023716  0.046982769

 FORCES acting on ions
    electron-ion (+dipol)            ewald-force                    non-local-force                 convergence-correction
   -.413E-04 0.313E-06 0.345E+04   0.581E-04 -.423E-05 -.345E+04   0.518E-17 -.367E-17 -.211E+01   -.222E-03 -.147E-03 0.871E-01
   -.118E+01 -.156E+01 0.345E+04   0.116E+01 0.146E+01 -.344E+04   0.308E-01 0.894E-01 -.192E+01   0.383E-03 0.101E-01 0.236E+00
   0.118E+01 -.156E+01 0.345E+04   -.116E+01 0.146E+01 -.344E+04   -.308E-01 0.894E-01 -.192E+01   0.340E-03 0.127E-01 0.237E+00
   -.194E+01 -.244E+00 0.345E+04   0.185E+01 0.273E+00 -.344E+04   0.928E-01 -.180E-01 -.192E+01   0.904E-02 -.478E-02 0.236E+00
   -.637E-04 -.450E-05 0.344E+04   0.116E-03 -.101E-04 -.344E+04   0.697E-17 -.491E-17 -.165E+01   0.122E-01 0.744E-02 0.291E+00
   0.194E+01 -.244E+00 0.345E+04   -.185E+01 0.273E+00 -.344E+04   -.928E-01 -.180E-01 -.192E+01   -.106E-01 -.346E-02 0.237E+00
   -.758E+00 0.180E+01 0.345E+04   0.686E+00 -.173E+01 -.344E+04   0.620E-01 -.714E-01 -.192E+01   0.112E-01 -.606E-02 0.237E+00
   0.758E+00 0.180E+01 0.345E+04   -.687E+00 -.173E+01 -.344E+04   -.620E-01 -.714E-01 -.192E+01   -.766E-02 -.744E-02 0.237E+00
   -.143E-03 -.327E-04 0.345E+04   0.263E-03 0.204E-04 -.345E+04   0.185E-17 0.109E-17 -.190E+01   -.133E-01 -.683E-02 0.234E+00
   -.126E+02 -.725E+01 0.115E+04   0.127E+02 0.734E+01 -.115E+04   -.197E+00 -.113E+00 -.909E+00   0.646E-01 0.370E-01 0.107E+00
   -.906E-04 -.137E+02 0.113E+04   0.189E-03 0.135E+02 -.113E+04   -.159E-07 0.239E+00 -.321E+00   0.113E-01 -.940E-02 0.167E+00
   0.126E+02 -.725E+01 0.115E+04   -.127E+02 0.734E+01 -.115E+04   0.197E+00 -.113E+00 -.909E+00   -.656E-01 0.386E-01 0.105E+00
   -.119E+02 0.686E+01 0.113E+04   0.117E+02 -.674E+01 -.113E+04   0.207E+00 -.120E+00 -.321E+00   -.200E-02 0.153E-01 0.167E+00
   0.119E+02 0.686E+01 0.113E+04   -.117E+02 -.674E+01 -.113E+04   -.207E+00 -.120E+00 -.321E+00   0.260E-01 0.150E-01 0.166E+00
   -.138E-03 -.764E+00 0.115E+04   0.295E-03 0.654E+00 -.115E+04   -.346E-08 0.520E-01 -.925E+00   -.345E-02 0.636E-01 0.139E+00
   -.930E-04 0.145E+02 0.115E+04   0.187E-03 -.147E+02 -.115E+04   -.151E-07 0.227E+00 -.909E+00   0.847E-04 -.776E-01 0.106E+00
   -.661E+00 0.382E+00 0.115E+04   0.567E+00 -.327E+00 -.115E+04   0.450E-01 -.260E-01 -.925E+00   0.538E-01 -.347E-01 0.139E+00
   0.661E+00 0.382E+00 0.115E+04   -.567E+00 -.327E+00 -.115E+04   -.450E-01 -.260E-01 -.925E+00   -.533E-01 -.324E-01 0.139E+00
   -.713E-04 -.979E+01 -.113E+04   0.739E-04 0.985E+01 0.112E+04   0.593E-08 -.890E-01 0.877E+00   0.104E-02 0.174E-01 0.569E-01
   -.772E+02 -.446E+02 -.126E+04   0.781E+02 0.451E+02 0.126E+04   -.102E+01 -.588E+00 -.523E+00   0.623E-01 0.349E-01 0.228E-01
   0.772E+02 -.446E+02 -.126E+04   -.781E+02 0.451E+02 0.126E+04   0.102E+01 -.588E+00 -.523E+00   -.827E-01 0.368E-01 0.212E-01
   -.377E+02 0.217E+02 -.115E+04   0.374E+02 -.216E+02 0.115E+04   0.244E+00 -.141E+00 0.653E+00   0.231E-01 -.283E-01 -.545E-01
   -.696E-04 0.892E+02 -.126E+04   0.157E-03 -.902E+02 0.126E+04   -.783E-07 0.118E+01 -.523E+00   0.131E-02 -.714E-01 0.211E-01
   0.377E+02 0.217E+02 -.115E+04   -.374E+02 -.216E+02 0.115E+04   -.244E+00 -.141E+00 0.653E+00   -.456E-01 -.262E-01 -.542E-01
   0.848E+01 0.490E+01 -.113E+04   -.853E+01 -.493E+01 0.112E+04   0.771E-01 0.445E-01 0.877E+00   -.122E-01 -.802E-02 0.571E-01
   -.848E+01 0.490E+01 -.113E+04   0.853E+01 -.493E+01 0.112E+04   -.771E-01 0.445E-01 0.877E+00   0.155E-01 -.905E-02 0.570E-01
   -.138E-03 -.435E+02 -.115E+04   0.239E-03 0.432E+02 0.115E+04   -.188E-07 0.282E+00 0.653E+00   -.132E-01 0.348E-01 -.544E-01
   -.286E-04 0.231E-04 -.335E+04   0.488E-04 -.308E-04 0.335E+04   0.338E-17 0.189E-18 0.161E+01   -.106E-02 -.935E-03 -.365E-01
   -.619E+02 -.117E+03 -.333E+04   0.622E+02 0.117E+03 0.333E+04   -.361E+00 -.313E+00 0.161E+00   0.276E-01 0.311E-01 -.119E+00
   0.619E+02 -.117E+03 -.333E+04   -.622E+02 0.117E+03 0.333E+04   0.361E+00 -.313E+00 0.161E+00   -.554E-02 0.330E-01 -.117E+00
   -.132E+03 0.468E+01 -.333E+04   0.132E+03 -.453E+01 0.333E+04   -.452E+00 -.156E+00 0.161E+00   0.409E-01 0.816E-02 -.118E+00
   0.132E+03 0.468E+01 -.333E+04   -.132E+03 -.453E+01 0.333E+04   0.452E+00 -.156E+00 0.161E+00   -.192E-01 0.996E-02 -.118E+00
   -.700E+02 0.112E+03 -.333E+04   0.701E+02 -.112E+03 0.333E+04   -.908E-01 0.469E+00 0.161E+00   0.262E-01 -.210E-01 -.117E+00
   0.700E+02 0.112E+03 -.333E+04   -.701E+02 -.112E+03 0.333E+04   0.908E-01 0.469E+00 0.161E+00   -.599E-03 -.214E-01 -.118E+00
   -.125E-03 -.122E-04 -.337E+04   0.248E-03 -.195E-05 0.337E+04   -.262E-17 0.178E-17 0.188E+01   -.149E-01 -.760E-02 -.118E+00
   -.258E-04 -.372E-05 -.121E+04   0.434E-04 0.109E-04 0.121E+04   -.107E-17 -.443E-18 0.392E+01   -.970E-04 -.927E-04 -.503E-01
   0.147E-03 0.105E-04 -.116E+04   0.483E-06 0.745E-06 0.119E+04   0.403E-19 0.857E-19 -.295E+02   0.822E-03 0.503E-03 -.178E-01
   0.154E-03 -.115E-03 -.160E+04   0.472E-05 0.339E-05 0.155E+04   -.274E-20 0.772E-19 0.485E+02   0.316E-02 0.194E-02 -.348E-01
   0.176E-04 -.109E-03 -.904E+01   0.115E-12 0.261E-12 -.909E-12   -.517E-15 0.279E-15 0.673E+01   0.392E-01 0.314E-01 0.237E+01

 POSITION                                       TOTAL-FORCE (eV/Angst)
      0.00000      0.00000      5.37156        -0.000000     -0.000000     -0.000880
      2.56560      0.00000      5.37156         0.009979      0.005748      0.041664
      5.13119      0.00000      5.37156        -0.009979      0.005748      0.041664
      1.28280      2.22187      5.37156         0.009968      0.005768      0.041664
      3.84839      2.22187      5.37156         0.000000      0.000000      0.053137
      6.41399      2.22187      5.37156        -0.009968      0.005768      0.041664
      2.56560      4.44374      5.37156        -0.000012     -0.011516      0.041664
      5.13119      4.44374      5.37156         0.000012     -0.011516      0.041664
      7.69679      4.44374      5.37156        -0.000000      0.000000      0.016887
      1.28280      0.74062      7.46636         0.015587      0.008999     -0.103110
      3.84839      0.74062      7.46636         0.000000     -0.016151     -0.034275
      6.41399      0.74062      7.46636        -0.015587      0.008999     -0.103110
      2.56560      2.96249      7.46636        -0.013987      0.008076     -0.034275
      5.13119      2.96249      7.46636         0.013987      0.008076     -0.034275
      7.69679      2.96249      7.46636        -0.000000      0.006091     -0.035946
      3.84839      5.18437      7.46636         0.000000     -0.017999     -0.103110
      6.41399      5.18437      7.46636         0.005275     -0.003045     -0.035946
      8.97958      5.18437      7.46636        -0.005275     -0.003045     -0.035946
      7.69679      1.47625      9.53578         0.000000     -0.012948     -0.000703
      2.57143      1.48462      9.57247        -0.010398     -0.006003     -0.043104
      5.12535      1.48462      9.57247         0.010398     -0.006003     -0.043104
      8.97869      3.70363      9.55450         0.000942     -0.000544      0.013019
      3.84839      3.69638      9.57247        -0.000000      0.012006     -0.043104
      6.41488      3.70363      9.55450        -0.000942     -0.000544      0.013019
     10.26671      5.92749      9.53578         0.011213      0.006474     -0.000703
      5.12686      5.92749      9.53578        -0.011213      0.006474     -0.000703
      7.69679      5.92396      9.55450        -0.000000      0.001088      0.013019
      0.00000      0.00000     11.64309        -0.000000     -0.000000      0.025774
      6.39641      6.62889     11.65568        -0.014318     -0.026091     -0.036064
      8.99717      6.62889     11.65568         0.014318     -0.026091     -0.036064
      8.93899      2.22500     11.65568        -0.029754      0.000645     -0.036064
      6.45458      2.22500     11.65568         0.029754      0.000645     -0.036064
     10.23937      4.47733     11.65568        -0.015436      0.025445     -0.036064
      5.15420      4.47733     11.65568         0.015436      0.025445     -0.036064
      7.69679      4.44374     11.66757        -0.000000      0.000000      0.018995
      3.84839      2.22187     11.91603        -0.000000     -0.000000      0.480302
      3.84839      2.22187     15.46526        -0.000000     -0.000000      0.016674
      3.84839      2.22187     14.30999         0.000000     -0.000000     -0.032129
    total drift:                                0.039248      0.031280      0.065619

  FREE ENERGIE OF THE ION-ELECTRON SYSTEM (eV)
  free  energy   TOTEN  =      -146.93674589 eV

  energy  without entropy=     -146.93674589  energy(sigma->0) =     -146.93674589

 stress matrix after NEB project (eV)
     -7.50950      0.00000     -0.00000
      0.00000     -7.50950      0.00000
     -0.00000      0.00000     -2.83159
  FORCES: max atom, RMS     0.032129    0.005872
  FORCE total and by dimension    0.036198    0.032129
  Stress total and by dimension   10.991041    7.509496
|           W    W    AA    RRRRR   N    N  II  N    N   GGGG   !!!           |
|           W    W   A  A   R    R  NN   N  II  NN   N  G    G  !!!           |
|           W    W  A    A  R    R  N N  N  II  N N  N  G       !!!           |
|           W WW W  AAAAAA  RRRRR   N  N N  II  N  N N  G  GGG   !            |
|           WW  WW  A    A  R   R   N   NN  II  N   NN  G    G                |
|           W    W  A    A  R    R  N    N  II  N    N   GGGG   !!!           |
|     Tetrahedron method does not include variations of the Fermi             |
|     occupations, so forces and stress will be inaccurate. We suggest        |
|     using a different smearing scheme ISMEAR = 1 or 2 for metals in         |
|     relaxations.                                                            |

 total charge

# of ion       s       p       d       tot
    1        0.450   0.283   9.188   9.921
    2        0.447   0.286   9.186   9.919
    3        0.447   0.286   9.186   9.919
    4        0.447   0.286   9.186   9.919
    5        0.449   0.286   9.182   9.917
    6        0.447   0.286   9.186   9.919
    7        0.447   0.286   9.186   9.919
    8        0.447   0.286   9.186   9.919
    9        0.450   0.284   9.187   9.921
   10        0.443   0.372   9.176   9.991
   11        0.441   0.365   9.181   9.987
   12        0.443   0.372   9.176   9.991
   13        0.441   0.365   9.181   9.987
   14        0.441   0.365   9.181   9.987
   15        0.440   0.372   9.177   9.988
   16        0.443   0.372   9.176   9.991
   17        0.440   0.372   9.177   9.988
   18        0.440   0.372   9.177   9.988
   19        0.444   0.373   9.178   9.995
   20        0.458   0.386   9.158  10.003
   21        0.458   0.386   9.158  10.003
   22        0.435   0.374   9.178   9.986
   23        0.458   0.386   9.158  10.003
   24        0.435   0.374   9.178   9.986
   25        0.444   0.373   9.178   9.995
   26        0.444   0.373   9.178   9.995
   27        0.435   0.374   9.178   9.986
   28        0.443   0.301   9.177   9.921
   29        0.488   0.326   9.156   9.970
   30        0.488   0.326   9.156   9.970
   31        0.488   0.326   9.156   9.970
   32        0.488   0.326   9.156   9.970
   33        0.488   0.326   9.156   9.970
   34        0.488   0.326   9.156   9.970
   35        0.442   0.305   9.178   9.924
   36        0.616   0.498   1.959   3.074
   37        1.041   1.382   0.000   2.423
   38        1.614   3.579   0.000   5.193
tot         19.097  17.317 323.070 359.484

 BZINTS: Fermi energy:    0.546816;  399.000000 electrons
         Band energy:-0.104504E+04;  BLOECHL correction:   -0.042642