 vasp.6.2.0 18Jan21 (build Jun 12 2021 23:27:24) complex

 executed on             LinuxIFC date 2022.05.26  19:29:11

 INCAR:
   ISMEAR = -5
   SIGMA = 0.1
   ISPIN = 1
   EDIFF = 1.d-5
   EDIFFG = -0.01
   NSW = 0
   NELM = 150
   ENCUT = 500
   ISIF = 2
   IBRION = 2
   LREAL = Auto
   ALGO = Fast
   ICHARG = 11
   LORBIT = 10
   LCHARG = .F.
   LWAVE = .F.

 POTCAR:    PAW_PBE Au 04Oct2007
 POTCAR:    PAW_PBE Pd 04Jan2005
 POTCAR:    PAW_PBE N 08Apr2002
|           W    W    AA    RRRRR   N    N  II  N    N   GGGG   !!!           |
|           W    W   A  A   R    R  NN   N  II  NN   N  G    G  !!!           |
|           W    W  A    A  R    R  N N  N  II  N N  N  G       !!!           |
|           W WW W  AAAAAA  RRRRR   N  N N  II  N  N N  G  GGG   !            |
|           WW  WW  A    A  R   R   N   NN  II  N   NN  G    G                |
|           W    W  A    A  R    R  N    N  II  N    N   GGGG   !!!           |
|     For optimal performance we recommend to set                             |
|       NCORE = 2 up to number-of-cores-per-socket                            |
|     This setting can greatly improve the performance of VASP for DFT.       |
|     The default, NCORE=1 might be grossly inefficient on modern             |
|     multi-core architectures or massively parallel machines. Do your        |
|     Unfortunately you need to use the default for GW and RPA                |
|     calculations (for HF NCORE is supported but not extensively tested      |
|     yet).                                                                   |

 POTCAR:    PAW_PBE Au 04Oct2007
   VRHFIN =Au: s1d10

   TITEL  = PAW_PBE Au 04Oct2007
   POMASS =  196.966; ZVAL   =   11.000    mass and valenz
   ENMAX  =  229.943; ENMIN  =  172.457 eV

 POTCAR:    PAW_PBE Pd 04Jan2005
   VRHFIN =Pd : s1 d9

   TITEL  = PAW_PBE Pd 04Jan2005
   POMASS =  106.420; ZVAL   =   10.000    mass and valenz
   ENMAX  =  250.925; ENMIN  =  188.194 eV

 POTCAR:    PAW_PBE N 08Apr2002
   VRHFIN =N: s2p3

   TITEL  = PAW_PBE N 08Apr2002
   POMASS =   14.001; ZVAL   =    5.000    mass and valenz
   ENMAX  =  400.000; ENMIN  =  300.000 eV

 Optimization of the real space projectors (new method)

 maximal supplied QI-value         = 15.12
 optimisation between [QCUT,QGAM] = [ 11.34, 22.83] = [ 36.00,145.93] Ry
 Optimized for a Real-space Cutoff    1.39 Angstroem

   l    n(q)    QCUT    max X(q) W(low)/X(q) W(high)/X(q)  e(spline)
   2      9    11.338    60.898    0.39E-03    0.42E-03    0.21E-06
   2      9    11.338    58.894    0.40E-03    0.42E-03    0.22E-06
   0      9    11.338   109.617    0.13E-03    0.20E-04    0.13E-06
   0      9    11.338    75.026    0.13E-03    0.20E-04    0.13E-06
   1      9    11.338    16.344    0.33E-04    0.24E-03    0.18E-06
   1      9    11.338    10.160    0.26E-04    0.19E-03    0.15E-06
 Optimization of the real space projectors (new method)

[...]

   l    n(q)    QCUT    max X(q) W(low)/X(q) W(high)/X(q)  e(spline)
   2      9    11.346    59.108    0.74E-04    0.81E-04    0.26E-06
   2      9    11.346    58.101    0.74E-04    0.83E-04    0.27E-06
   0     10    11.346   102.235    0.26E-04    0.31E-04    0.16E-06
   0     10    11.346    58.388    0.23E-04    0.29E-04    0.15E-06
   1     10    11.346    22.191    0.23E-03    0.26E-03    0.14E-06
   1     10    11.346    15.590    0.19E-03    0.22E-03    0.12E-06
 Optimization of the real space projectors (new method)

 maximal supplied QI-value         = 25.13
 optimisation between [QCUT,QGAM] = [ 11.31, 22.87] = [ 35.82,146.48] Ry
 Optimized for a Real-space Cutoff    1.27 Angstroem

   l    n(q)    QCUT    max X(q) W(low)/X(q) W(high)/X(q)  e(spline)
   0      9    11.310    79.467    0.75E-04    0.16E-03    0.36E-06
   0      9    11.310    66.151    0.74E-04    0.16E-03    0.36E-06
   1      8    11.310    17.416    0.35E-03    0.12E-03    0.95E-06
   1      8    11.310    12.382    0.37E-03    0.13E-03    0.98E-06
  PAW_PBE Au 04Oct2007                  :
  PAW_PBE Pd 04Jan2005                  :
  PAW_PBE N 08Apr2002                   :

 POSCAR: Au-Pd-N
  positions in direct lattice
  velocities in cartesian coordinates
 exchange correlation table for  LEXCH =        8
   RHO(1)=    0.500       N(1)  =     2000
   RHO(2)=  100.500       N(2)  =     4000

 VTST: version 3.2, (02/03/18)

 CHAIN: initializing optimizer

 OPT: Using VASP Conjugate-Gradient optimizer
 CHAIN: Read ICHAIN            0

 POSCAR: Au-Pd-N
  positions in direct lattice
  velocities in cartesian coordinates

 ion  position               nearest neighbor table
   1  0.000  0.000  0.238-  16 2.94  12 2.94   6 2.94   8 2.94   7 2.94   3 2.94  10 2.94   4 2.94
                             2 2.94
   2  0.333  0.000  0.238-   9 2.94  11 2.94  17 2.94  10 2.94   8 2.94   4 2.94   5 2.94   1 2.94
                             3 2.94
   3  0.667  0.000  0.238-   7 2.94  18 2.94  12 2.94   1 2.94  11 2.94   5 2.94   6 2.94   9 2.94
                             2 2.94
   4  0.000  0.333  0.238-  10 2.94   6 2.94   5 2.94  13 2.94   2 2.94  15 2.94   9 2.94   1 2.94
                             7 2.94
   5  0.333  0.333  0.238-  13 2.94   7 2.94  11 2.94   4 2.94   2 2.94  14 2.94   3 2.94   8 2.94
                             6 2.94
   6  0.667  0.333  0.238-  15 2.94  14 2.94   1 2.94  12 2.94   4 2.94   9 2.94   8 2.94   3 2.94
                             5 2.94
   7  0.000  0.667  0.238-  18 2.94   3 2.94  16 2.94   5 2.94   1 2.94  13 2.94   8 2.94   4 2.94
                             9 2.94
   8  0.333  0.667  0.238-   9 2.94  17 2.94   1 2.94   2 2.94  14 2.94  16 2.94   6 2.94   7 2.94
                             5 2.94
   9  0.667  0.667  0.238-   2 2.94   8 2.94  17 2.94   6 2.94  15 2.94   4 2.94   3 2.94  18 2.94
                             7 2.94
  10  0.111  0.111  0.346-  26 2.92  19 2.92  20 2.93  11 2.94  17 2.94   2 2.94   4 2.94   1 2.94
                            12 2.94  16 2.94  13 2.94  15 2.94
  11  0.444  0.111  0.346-  27 2.93  20 2.93  21 2.93  13 2.94   2 2.94  10 2.94  17 2.94   5 2.94
                             3 2.94  18 2.94  14 2.94  12 2.94
  12  0.778  0.111  0.346-  25 2.92  19 2.92  21 2.93  16 2.94  18 2.94   1 2.94  14 2.94  15 2.94
                             3 2.94   6 2.94  10 2.94  11 2.94
  13  0.111  0.444  0.346-  22 2.93  23 2.93  20 2.93   5 2.94  18 2.94  11 2.94   7 2.94   4 2.94
                            16 2.94  10 2.94  14 2.94  15 2.94
  14  0.444  0.444  0.346-  24 2.93  21 2.93  23 2.93  15 2.94   6 2.94  12 2.94   8 2.94  17 2.94
                             5 2.94  16 2.94  13 2.94  11 2.94
  15  0.778  0.444  0.346-  19 2.93  24 2.93  22 2.93  14 2.94   6 2.94  17 2.94  12 2.94   9 2.94
                             4 2.94  10 2.94  13 2.94  18 2.94
  16  0.111  0.778  0.346-  25 2.92  26 2.92  23 2.93  18 2.94  12 2.94   7 2.94   1 2.94   8 2.94
                            13 2.94  10 2.94  14 2.94  17 2.94
  17  0.444  0.778  0.346-  26 2.93  27 2.93  24 2.93   9 2.94  15 2.94   2 2.94  10 2.94  11 2.94
                             8 2.94  14 2.94  16 2.94  18 2.94
  18  0.778  0.778  0.346-  25 2.93  22 2.93  27 2.93  16 2.94   7 2.94  13 2.94  12 2.94   3 2.94
                            11 2.94   9 2.94  15 2.94  17 2.94
  19  0.889  0.222  0.453-  10 2.92  12 2.92  15 2.93  26 2.93  25 2.93  21 2.94  20 2.94  24 2.94
                            22 2.94  28 2.96  32 2.97  31 2.97
  20  0.222  0.222  0.454-  36 2.83  10 2.93  11 2.93  13 2.93  26 2.94  19 2.94  27 2.94  22 2.94
                            23 2.94  21 2.94  29 2.95  31 2.95
  21  0.556  0.222  0.454-  36 2.83  12 2.93  14 2.93  11 2.93  25 2.94  19 2.94  24 2.94  27 2.94
                            20 2.94  23 2.94  30 2.95  32 2.95
  22  0.889  0.556  0.454-  18 2.93  15 2.93  13 2.93  24 2.94  27 2.94  23 2.94  20 2.94  25 2.94
                            19 2.94  33 2.96  31 2.96  35 2.96
  23  0.222  0.556  0.454-  36 2.83  16 2.93  13 2.93  14 2.93  25 2.94  26 2.94  22 2.94  24 2.94
                            20 2.94  21 2.94  33 2.95  34 2.95
  24  0.556  0.556  0.454-  15 2.93  17 2.93  14 2.93  27 2.94  22 2.94  21 2.94  23 2.94  26 2.94
                            19 2.94  32 2.96  34 2.96  35 2.96
  25  0.889  0.889  0.453-  16 2.92  12 2.92  18 2.93  19 2.93  26 2.93  23 2.94  21 2.94  22 2.94
                            27 2.94  28 2.96  33 2.97  30 2.97
  26  0.222  0.889  0.453-  10 2.92  16 2.92  17 2.93  19 2.93  25 2.93  20 2.94  23 2.94  27 2.94
                            24 2.94  28 2.96  29 2.97  34 2.97
  27  0.556  0.889  0.454-  17 2.93  18 2.93  11 2.93  24 2.94  22 2.94  20 2.94  21 2.94  26 2.94
                            25 2.94  29 2.96  30 2.96  35 2.96
  28  0.000  0.000  0.563-  34 2.94  32 2.94  33 2.94  30 2.94  31 2.94  29 2.94  25 2.96  19 2.96
                            26 2.96
  29  0.333  0.001  0.563-  30 2.93  31 2.93  36 2.93  35 2.94  28 2.94  20 2.95  34 2.95  27 2.96
                            26 2.97
  30  0.666  0.001  0.563-  29 2.93  32 2.93  36 2.93  35 2.94  28 2.94  21 2.95  33 2.95  27 2.96
                            25 2.97
  31  0.001  0.333  0.563-  33 2.93  29 2.93  36 2.93  35 2.94  28 2.94  20 2.95  32 2.95  22 2.96
                            19 2.97
  32  0.666  0.333  0.563-  34 2.93  30 2.93  36 2.93  35 2.94  28 2.94  21 2.95  31 2.95  24 2.96
                            19 2.97
  33  0.001  0.666  0.563-  31 2.93  34 2.93  36 2.93  35 2.94  28 2.94  23 2.95  30 2.95  22 2.96
                            25 2.97
  34  0.333  0.666  0.563-  32 2.93  33 2.93  36 2.93  35 2.94  28 2.94  23 2.95  29 2.95  24 2.96
                            26 2.97
  35  0.667  0.667  0.563-  29 2.94  34 2.94  32 2.94  31 2.94  30 2.94  33 2.94  24 2.96  27 2.96
                            22 2.96
  36  0.333  0.333  0.556-  37 1.75  20 2.83  23 2.83  21 2.83  33 2.93  31 2.93  29 2.93  30 2.93
                            34 2.93  32 2.93
  37  0.333  0.333  0.635-  36 1.75

  LATTYP: Found a hexagonal cell.
 ALAT       =     8.8135128021
 C/A-ratio  =     2.5184286595

  Lattice vectors:

 A1 = (  -4.4067569092,  -7.6327256898,   0.0000000000)
 A2 = (   8.8135128021,   0.0000000000,   0.0000000000)
 A3 = (   0.0000000000,   0.0000000000,  22.1962032318)

Analysis of symmetry for initial positions (statically):
 Subroutine PRICEL returns:
 Original cell was already a primitive cell.

 Routine SETGRP: Setting up the symmetry group for a
 hexagonal supercell.

 Subroutine GETGRP returns: Found  6 space group operations
 (whereof  6 operations were pure point group operations)
 out of a pool of 24 trial point group operations.

The static configuration has the point symmetry C_3v.

Analysis of symmetry for dynamics (positions and initial velocities):
 Subroutine PRICEL returns:
 Original cell was already a primitive cell.

[...]

The dynamic configuration has the point symmetry C_3v.

Analysis of constrained symmetry for selective dynamics:
 Subroutine PRICEL returns:
 Original cell was already a primitive cell.

 Routine SETGRP: Setting up the symmetry group for a
 hexagonal supercell.

 Subroutine GETGRP returns: Found  6 space group operations
[...]
     24      -5.0773      2.00000
     25      -5.0528      2.00000
     26      -5.0424      2.00000
     27      -4.9948      2.00000
     28      -4.9357      2.00000
     29      -4.9041      2.00000
     30      -4.8031      2.00000
     31      -4.7922      2.00000
     32      -4.7831      2.00000
     33      -4.7593      2.00000
     34      -4.7400      2.00000
     35      -4.7196      2.00000
     36      -4.6546      2.00000
     37      -4.6396      2.00000
     38      -4.5565      2.00000
     39      -4.5329      2.00000
     40      -4.5092      2.00000
     41      -4.4814      2.00000
     42      -4.4612      2.00000
     43      -4.4011      2.00000
     44      -4.3888      2.00000
     45      -4.2979      2.00000
     46      -4.2821      2.00000
     47      -4.2276      2.00000
     48      -4.1922      2.00000
     49      -4.1691      2.00000
     50      -4.1451      2.00000
     51      -4.1307      2.00000
     52      -4.1107      2.00000
     53      -4.1075      2.00000
     54      -4.0621      2.00000
     55      -4.0594      2.00000
     56      -4.0066      2.00000
     57      -3.9848      2.00000
     58      -3.9791      2.00000
     59      -3.9475      2.00000
     60      -3.9428      2.00000
[...]
    238       6.4828      0.00000
    239       6.5342      0.00000
    240       6.5571      0.00000
    241       6.6448      0.00000
    242       6.7668      0.00000
    243       6.8265      0.00000
    244       6.8606      0.00000
    245       6.9168      0.00000
    246       7.1733      0.00000
    247       7.2105      0.00000
    248       7.3296      0.00000
    249       7.4904      0.00000
    250       7.6824      0.00000
    251       7.7940      0.00000
    252       7.8719      0.00000

 soft charge-density along one line, spin component           1
         0         1         2         3         4         5         6         7         8         9
 total charge-density along one line

------------------------ aborting loop because EDIFF is reached ----------------------------------------

 total charge

# of ion       s       p       d       tot
    1        0.544   0.239   8.769   9.552
    2        0.543   0.240   8.765   9.549
    3        0.543   0.240   8.765   9.549
    4        0.543   0.240   8.765   9.549
    5        0.543   0.241   8.763   9.547
    6        0.543   0.240   8.765   9.549
    7        0.543   0.240   8.765   9.549
    8        0.543   0.240   8.765   9.549
    9        0.542   0.241   8.763   9.546
   10        0.520   0.309   8.775   9.604
   11        0.516   0.308   8.775   9.599
   12        0.520   0.309   8.775   9.604
   13        0.516   0.308   8.775   9.599
   14        0.516   0.308   8.775   9.599
   15        0.517   0.307   8.778   9.603
   16        0.520   0.309   8.775   9.604
   17        0.517   0.307   8.778   9.603
   18        0.517   0.307   8.778   9.603
   19        0.517   0.307   8.770   9.594
   20        0.533   0.316   8.763   9.612
   21        0.533   0.316   8.763   9.612
   22        0.515   0.304   8.776   9.594
   23        0.533   0.316   8.763   9.612
   24        0.515   0.304   8.776   9.594
   25        0.517   0.307   8.770   9.594
   26        0.517   0.307   8.770   9.594
   27        0.515   0.304   8.776   9.594
   28        0.546   0.231   8.773   9.550
   29        0.529   0.235   8.774   9.539
   30        0.529   0.235   8.774   9.539
   31        0.529   0.235   8.774   9.539
   32        0.529   0.235   8.774   9.539
   33        0.529   0.235   8.774   9.539
   34        0.529   0.235   8.774   9.539
   35        0.543   0.233   8.767   9.544
   36        0.533   0.638   8.432   9.603
   37        1.359   2.043   0.000   3.402
tot         20.399  12.274 315.413 348.086

  FORCE on cell =-STRESS in cart. coord.  units (eV):
  Direction    XX          YY          ZZ          XY          YZ          ZX
  Alpha Z  1016.06917  1016.06917  1016.06917
  Ewald  119765.21825119765.21867************    -0.00034    -0.00008    -0.00012
  Hartree128592.00849128592.00850************     0.00000    -0.00002    -0.00003
  E(xc)   -1800.69324 -1800.69323 -1806.85569    -0.00001    -0.00000    -0.00000
  Local  ************************260898.27165     0.00198     0.00002    -0.00001
  n-local   -90.27909   -42.94444   -37.02655    23.69481    -1.30070     1.39375
  augment  2445.32491  2445.32650  2450.63025    -0.00137     0.00002     0.00005
  Kinetic  5577.01293  5581.67892  5608.98496     2.91288     0.67264     0.10409
  Fock        0.00000     0.00000     0.00000     0.00000     0.00000     0.00000
  Total     -19.54561   -19.54561     2.44749    -0.00000     0.00000     0.00000
  in kB     -20.97261   -20.97261     2.62618    -0.00000     0.00000     0.00000

 VOLUME and BASIS-vectors are now :
  energy-cutoff  :      500.00
  volume of cell :     1493.16
      direct lattice vectors                 reciprocal lattice vectors
     8.813512802  0.000000000  0.000000000     0.113462137 -0.065507406  0.000000000
     4.406756909  7.632725690  0.000000000     0.000000000  0.131014796  0.000000000
     0.000000000  0.000000000 22.196203232     0.000000000  0.000000000  0.045052750

  length of vectors
     8.813512802  8.813512802 22.196203232     0.131014796  0.131014796  0.045052750

 FORCES acting on ions
    electron-ion (+dipol)            ewald-force                    non-local-force                 convergence-correction
   -.195E-04 -.162E-04 0.250E+04   0.518E-04 0.433E-04 -.249E+04   0.107E-16 -.452E-17 -.639E+00   -.254E-03 -.160E-03 -.720E+00
   -.207E+00 0.146E+00 0.250E+04   0.452E-01 -.172E+00 -.249E+04   0.496E-01 0.168E-01 -.361E+00   0.107E+00 0.207E-01 -.658E+00
   0.206E+00 0.146E+00 0.250E+04   -.453E-01 -.172E+00 -.249E+04   -.496E-01 0.168E-01 -.361E+00   -.107E+00 0.225E-01 -.657E+00
   0.232E-01 -.252E+00 0.250E+04   -.127E+00 0.125E+00 -.249E+04   0.394E-01 0.346E-01 -.361E+00   0.715E-01 0.823E-01 -.658E+00
   0.861E-05 -.232E-04 0.250E+04   0.952E-04 0.169E-05 -.249E+04   0.803E-18 0.638E-18 -.334E+00   0.420E-02 0.256E-02 -.544E+00
   -.232E-01 -.252E+00 0.250E+04   0.127E+00 0.125E+00 -.249E+04   -.394E-01 0.346E-01 -.361E+00   -.729E-01 0.832E-01 -.657E+00
   0.230E+00 0.106E+00 0.250E+04   -.172E+00 0.470E-01 -.249E+04   -.103E-01 -.514E-01 -.361E+00   -.338E-01 -.104E+00 -.657E+00
   -.230E+00 0.106E+00 0.250E+04   0.172E+00 0.470E-01 -.249E+04   0.103E-01 -.514E-01 -.361E+00   0.356E-01 -.105E+00 -.657E+00
   0.192E-04 -.417E-04 0.249E+04   0.166E-03 -.200E-04 -.249E+04   -.714E-17 0.581E-18 -.384E+00   -.449E-02 -.232E-02 -.653E+00
   -.122E+00 -.703E-01 0.856E+03   0.880E-01 0.509E-01 -.856E+03   -.115E+00 -.664E-01 -.556E+00   0.165E+00 0.952E-01 -.120E-01
   0.139E-04 0.129E+01 0.857E+03   0.148E-03 -.157E+01 -.856E+03   0.485E-08 0.728E-01 -.204E+00   0.410E-02 0.170E+00 -.297E-01
   0.122E+00 -.702E-01 0.856E+03   -.882E-01 0.509E-01 -.856E+03   0.115E+00 -.664E-01 -.556E+00   -.166E+00 0.956E-01 -.126E-01
   0.112E+01 -.646E+00 0.857E+03   -.136E+01 0.784E+00 -.856E+03   0.631E-01 -.364E-01 -.204E+00   0.150E+00 -.812E-01 -.297E-01
   -.112E+01 -.646E+00 0.857E+03   0.136E+01 0.784E+00 -.856E+03   -.631E-01 -.364E-01 -.204E+00   -.143E+00 -.825E-01 -.321E-01
   0.313E-04 -.116E+01 0.854E+03   0.236E-03 0.116E+01 -.854E+03   -.726E-09 -.109E-01 -.395E+00   -.182E-02 0.150E-01 -.711E-01
   -.212E-04 0.140E+00 0.856E+03   0.162E-03 -.102E+00 -.856E+03   0.884E-08 0.133E+00 -.556E+00   -.636E-03 -.192E+00 -.126E-01
   -.100E+01 0.578E+00 0.854E+03   0.100E+01 -.579E+00 -.854E+03   -.945E-02 0.545E-02 -.395E+00   0.123E-01 -.864E-02 -.711E-01
   0.100E+01 0.578E+00 0.854E+03   -.100E+01 -.579E+00 -.854E+03   0.945E-02 0.545E-02 -.395E+00   -.115E-01 -.689E-02 -.695E-01
   -.403E-04 -.118E+01 -.806E+03   0.529E-04 0.106E+01 0.805E+03   0.446E-08 0.670E-01 0.598E+00   0.695E-03 0.707E-01 0.832E+00
   0.132E+02 0.760E+01 -.790E+03   -.128E+02 -.741E+01 0.789E+03   -.556E+00 -.321E+00 -.160E+00   0.278E+00 0.160E+00 0.107E+01
   -.132E+02 0.760E+01 -.790E+03   0.128E+02 -.741E+01 0.789E+03   0.556E+00 -.321E+00 -.160E+00   -.284E+00 0.158E+00 0.107E+01
   0.653E+01 -.377E+01 -.806E+03   -.675E+01 0.390E+01 0.804E+03   0.652E-01 -.376E-01 0.632E+00   0.155E+00 -.845E-01 0.876E+00
   -.140E-04 -.152E+02 -.790E+03   0.145E-03 0.148E+02 0.789E+03   0.427E-07 0.642E+00 -.160E+00   -.505E-02 -.325E+00 0.107E+01
   -.653E+01 -.377E+01 -.806E+03   0.675E+01 0.390E+01 0.804E+03   -.652E-01 -.376E-01 0.632E+00   -.147E+00 -.849E-01 0.876E+00
   0.103E+01 0.592E+00 -.806E+03   -.920E+00 -.531E+00 0.805E+03   -.581E-01 -.335E-01 0.598E+00   -.628E-01 -.363E-01 0.832E+00
   -.103E+01 0.592E+00 -.806E+03   0.920E+00 -.531E+00 0.805E+03   0.581E-01 -.335E-01 0.598E+00   0.619E-01 -.347E-01 0.832E+00
   0.611E-05 0.754E+01 -.806E+03   0.200E-03 -.779E+01 0.804E+03   0.501E-08 0.753E-01 0.632E+00   0.379E-02 0.177E+00 0.876E+00
   -.104E-04 -.123E-04 -.246E+04   0.272E-04 0.338E-04 0.245E+04   -.215E-17 -.487E-17 0.391E+00   -.120E-03 -.883E-04 0.936E+00
   0.178E+02 0.291E+02 -.244E+04   -.183E+02 -.300E+02 0.244E+04   0.114E+00 0.299E+00 0.726E+00   0.283E+00 0.426E+00 0.968E+00
   -.178E+02 0.291E+02 -.244E+04   0.183E+02 -.300E+02 0.244E+04   -.114E+00 0.299E+00 0.726E+00   -.283E+00 0.427E+00 0.967E+00
   0.341E+02 0.866E+00 -.244E+04   -.352E+02 -.859E+00 0.244E+04   0.316E+00 -.502E-01 0.726E+00   0.511E+00 0.316E-01 0.968E+00
   -.341E+02 0.866E+00 -.244E+04   0.352E+02 -.859E+00 0.244E+04   -.316E+00 -.502E-01 0.726E+00   -.511E+00 0.321E-01 0.969E+00
   0.163E+02 -.300E+02 -.244E+04   -.168E+02 0.309E+02 0.244E+04   0.201E+00 -.248E+00 0.726E+00   0.229E+00 -.458E+00 0.967E+00
   -.163E+02 -.300E+02 -.244E+04   0.168E+02 0.309E+02 0.244E+04   -.201E+00 -.248E+00 0.726E+00   -.228E+00 -.459E+00 0.969E+00
   0.277E-04 -.286E-04 -.246E+04   0.149E-03 -.488E-04 0.246E+04   -.123E-17 -.182E-17 0.363E+00   -.397E-02 -.200E-02 0.887E+00
   0.229E-04 -.199E-04 -.197E+04   0.992E-04 0.867E-05 0.197E+04   -.672E-17 -.344E-17 -.492E+01   0.426E-02 0.262E-02 0.185E+01
   0.106E-03 -.594E-04 -.140E+04   0.179E-04 0.116E-05 0.142E+04   0.234E-17 0.101E-18 -.200E+02   0.172E-02 0.106E-02 -.540E-01
   -.583E-03 -.816E-03 0.130E+02   -.211E-13 0.504E-14 -.796E-11   0.216E-15 -.329E-16 -.236E+02   0.110E-01 0.706E-02 0.116E+02

 POSITION                                       TOTAL-FORCE (eV/Angst)
      0.00000      0.00000      5.28038        -0.000000     -0.000000     -0.089398
      2.93784      0.00000      5.28038        -0.004164      0.011894     -0.066317
      5.87568      0.00000      5.28038         0.004164      0.011894     -0.066317
      1.46892      2.54424      5.28038         0.008219     -0.009553     -0.066317
      4.40676      2.54424      5.28038        -0.000000     -0.000000     -0.064527
      7.34459      2.54424      5.28038        -0.008219     -0.009553     -0.066317
      2.93784      5.08848      5.28038         0.012383     -0.002341     -0.066317
      5.87568      5.08848      5.28038        -0.012383     -0.002341     -0.066317
      8.81351      5.08848      5.28038        -0.000000     -0.000000     -0.076219
      1.46892      0.84808      7.67911         0.017327      0.010004      0.109060
      4.40676      0.84808      7.67911        -0.000000     -0.034397      0.111762
      7.34459      0.84808      7.67911        -0.017327      0.010004      0.109060
      2.93784      3.39232      7.67911        -0.029789      0.017198      0.111762
      5.87568      3.39232      7.67911         0.029789      0.017198      0.111762
      8.81351      3.39232      7.67911         0.000000      0.006318      0.105810
      4.40676      5.93656      7.67911        -0.000000     -0.020007      0.109060
      7.34459      5.93656      7.67911         0.005471     -0.003159      0.105810
     10.28243      5.93656      7.67911        -0.005471     -0.003159      0.105810
      8.81351      1.69299     10.06281         0.000000      0.016311     -0.007188
      2.93673      1.69552     10.07074         0.056395      0.032560     -0.164261
      5.87678      1.69552     10.07074        -0.056395      0.032560     -0.164261
     10.28200      4.24065     10.07064        -0.002560      0.001478     -0.038470
      4.40676      4.24168     10.07074        -0.000000     -0.065119     -0.164261
      7.34503      4.24065     10.07064         0.002560      0.001478     -0.038470
     11.75410      6.78623     10.06281        -0.014126     -0.008156     -0.007188
      5.87293      6.78623     10.06281         0.014126     -0.008156     -0.007188
      8.81351      6.78414     10.07064        -0.000000     -0.002956     -0.038470
      0.00000      0.00000     12.49359        -0.000000     -0.000000     -0.030771
      2.94266      0.00661     12.49157        -0.127507     -0.197535     -0.028253
      5.87086      0.00661     12.49157         0.127507     -0.197535     -0.028253
      1.47706      2.54511     12.49157        -0.234824     -0.011657     -0.028253
      7.33646      2.54511     12.49157         0.234824     -0.011657     -0.028253
      2.94116      5.08100     12.49157        -0.107317      0.209191     -0.028253
      5.87236      5.08100     12.49157         0.107317      0.209191     -0.028253
      8.81351      5.08848     12.49778        -0.000000     -0.000000     -0.030056
      4.40676      2.54424     12.34091        -0.000000     -0.000000      0.518988
      4.40676      2.54424     14.09585        -0.000000     -0.000000     -0.010738
    total drift:                                0.010388      0.006244      0.961840

  FREE ENERGIE OF THE ION-ELECTRON SYSTEM (eV)
  free  energy   TOTEN  =      -116.60176867 eV

  energy  without entropy=     -116.60176867  energy(sigma->0) =     -116.60176867

 stress matrix after NEB project (eV)
    -19.54561     -0.00000      0.00000
     -0.00000    -19.54561      0.00000
      0.00000      0.00000      2.44749
  FORCES: max atom, RMS     0.010738    0.001765
  FORCE total and by dimension    0.010738    0.010738
  Stress total and by dimension   27.749815   19.545614
|           W    W    AA    RRRRR   N    N  II  N    N   GGGG   !!!           |
|           W    W   A  A   R    R  NN   N  II  NN   N  G    G  !!!           |
|           W    W  A    A  R    R  N N  N  II  N N  N  G       !!!           |
|           W WW W  AAAAAA  RRRRR   N  N N  II  N  N N  G  GGG   !            |
|           WW  WW  A    A  R   R   N   NN  II  N   NN  G    G                |
|           W    W  A    A  R    R  N    N  II  N    N   GGGG   !!!           |
|     Tetrahedron method does not include variations of the Fermi             |
|     occupations, so forces and stress will be inaccurate. We suggest        |
|     using a different smearing scheme ISMEAR = 1 or 2 for metals in         |
|     relaxations.                                                            |

 total charge

# of ion       s       p       d       tot
    1        0.544   0.239   8.769   9.552
    2        0.543   0.240   8.765   9.549
    3        0.543   0.240   8.765   9.549
    4        0.543   0.240   8.765   9.549
    5        0.543   0.241   8.763   9.547
    6        0.543   0.240   8.765   9.549
    7        0.543   0.240   8.765   9.549
    8        0.543   0.240   8.765   9.549
    9        0.542   0.241   8.763   9.546
   10        0.520   0.309   8.775   9.604
   11        0.516   0.308   8.775   9.599
   12        0.520   0.309   8.775   9.604
   13        0.516   0.308   8.775   9.599
   14        0.516   0.308   8.775   9.599
   15        0.517   0.307   8.778   9.603
   16        0.520   0.309   8.775   9.604
   17        0.517   0.307   8.778   9.603
   18        0.517   0.307   8.778   9.603
   19        0.517   0.307   8.770   9.594
   20        0.533   0.316   8.763   9.612
   21        0.533   0.316   8.763   9.612
   22        0.515   0.304   8.776   9.594
   23        0.533   0.316   8.763   9.612
   24        0.515   0.304   8.776   9.594
   25        0.517   0.307   8.770   9.594
   26        0.517   0.307   8.770   9.594
   27        0.515   0.304   8.776   9.594
   28        0.546   0.231   8.773   9.550
   29        0.529   0.235   8.774   9.539
   30        0.529   0.235   8.774   9.539
   31        0.529   0.235   8.774   9.539
   32        0.529   0.235   8.774   9.539
   33        0.529   0.235   8.774   9.539
   34        0.529   0.235   8.774   9.539
   35        0.543   0.233   8.767   9.544
   36        0.533   0.638   8.432   9.603
   37        1.359   2.043   0.000   3.402
tot         20.399  12.274 315.413 348.086

 BZINTS: Fermi energy:    0.677348;  400.000000 electrons
         Band energy:-0.123064E+04;  BLOECHL correction:   -0.053617