 vasp.6.2.0 18Jan21 (build Jun 12 2021 23:27:24) complex

 executed on             LinuxIFC date 2022.05.27  05:33:43

 INCAR:
   ISMEAR = -5
   SIGMA = 0.1
   ISPIN = 1
   EDIFF = 1.d-5
   EDIFFG = -0.01
   NSW = 0
   NELM = 150
   ENCUT = 500
   ISIF = 2
   IBRION = 2
   LREAL = Auto
   ALGO = Fast
   ICHARG = 11
   LORBIT = 10
   LCHARG = .F.
   LWAVE = .F.

 POTCAR:    PAW_PBE Ag 02Apr2005
 POTCAR:    PAW_PBE V 08Apr2002
 POTCAR:    PAW_PBE N 08Apr2002
|           W    W    AA    RRRRR   N    N  II  N    N   GGGG   !!!           |
|           W    W   A  A   R    R  NN   N  II  NN   N  G    G  !!!           |
|           W    W  A    A  R    R  N N  N  II  N N  N  G       !!!           |
|           W WW W  AAAAAA  RRRRR   N  N N  II  N  N N  G  GGG   !            |
|           WW  WW  A    A  R   R   N   NN  II  N   NN  G    G                |
|           W    W  A    A  R    R  N    N  II  N    N   GGGG   !!!           |
|     For optimal performance we recommend to set                             |
|       NCORE = 2 up to number-of-cores-per-socket                            |
|     This setting can greatly improve the performance of VASP for DFT.       |
|     The default, NCORE=1 might be grossly inefficient on modern             |
|     multi-core architectures or massively parallel machines. Do your        |
|     Unfortunately you need to use the default for GW and RPA                |
|     calculations (for HF NCORE is supported but not extensively tested      |
|     yet).                                                                   |

 POTCAR:    PAW_PBE Ag 02Apr2005
   VRHFIN =Ag : s1 d10

   TITEL  = PAW_PBE Ag 02Apr2005
   POMASS =  107.868; ZVAL   =   11.000    mass and valenz
   ENMAX  =  249.844; ENMIN  =  187.383 eV

 POTCAR:    PAW_PBE V 08Apr2002
   VRHFIN =V: p6 d4 s1

[...]

 POTCAR:    PAW_PBE N 08Apr2002
   VRHFIN =N: s2p3

   TITEL  = PAW_PBE N 08Apr2002
   POMASS =   14.001; ZVAL   =    5.000    mass and valenz
   ENMAX  =  400.000; ENMIN  =  300.000 eV

 Optimization of the real space projectors (new method)

 maximal supplied QI-value         = 15.12
 optimisation between [QCUT,QGAM] = [ 11.34, 22.83] = [ 36.00,145.93] Ry
 Optimized for a Real-space Cutoff    1.43 Angstroem

   l    n(q)    QCUT    max X(q) W(low)/X(q) W(high)/X(q)  e(spline)
   2      9    11.338    53.897    0.16E-03    0.20E-03    0.28E-06
   2      9    11.338    52.416    0.16E-03    0.20E-03    0.29E-06
   0     10    11.338   122.045    0.31E-04    0.76E-04    0.15E-06
   0     10    11.338    73.629    0.30E-04    0.72E-04    0.15E-06
   1      9    11.338    15.255    0.20E-03    0.19E-04    0.17E-06
   1      9    11.338     9.562    0.16E-03    0.15E-04    0.14E-06
 Optimization of the real space projectors (new method)

[...]

   l    n(q)    QCUT    max X(q) W(low)/X(q) W(high)/X(q)  e(spline)
   2     10    11.327    96.114    0.36E-03    0.35E-03    0.42E-06
   2     10    11.327    88.986    0.37E-03    0.35E-03    0.42E-06
   0     11    11.327    20.919    0.40E-04    0.56E-04    0.79E-06
   0     11    11.327     9.593    0.30E-04    0.41E-04    0.60E-06
   1     10    11.327    11.615    0.15E-03    0.10E-03    0.19E-06
   1     10    11.327     7.031    0.11E-03    0.73E-04    0.14E-06
 Optimization of the real space projectors (new method)

 maximal supplied QI-value         = 25.13
 optimisation between [QCUT,QGAM] = [ 11.31, 22.87] = [ 35.82,146.48] Ry
 Optimized for a Real-space Cutoff    1.27 Angstroem

   l    n(q)    QCUT    max X(q) W(low)/X(q) W(high)/X(q)  e(spline)
   0      9    11.310    79.467    0.75E-04    0.16E-03    0.36E-06
   0      9    11.310    66.151    0.74E-04    0.16E-03    0.36E-06
   1      8    11.310    17.416    0.35E-03    0.12E-03    0.95E-06
   1      8    11.310    12.382    0.37E-03    0.13E-03    0.98E-06
  PAW_PBE Ag 02Apr2005                  :
  PAW_PBE V 08Apr2002                   :
  PAW_PBE N 08Apr2002                   :

 POSCAR: Ag-V-N2
  positions in direct lattice
  velocities in cartesian coordinates
 exchange correlation table for  LEXCH =        8
   RHO(1)=    0.500       N(1)  =     2000
   RHO(2)=  100.500       N(2)  =     4000

 VTST: version 3.2, (02/03/18)

 CHAIN: initializing optimizer

 OPT: Using VASP Conjugate-Gradient optimizer
 CHAIN: Read ICHAIN            0

 POSCAR: Ag-V-N2
  positions in direct lattice
  velocities in cartesian coordinates

 ion  position               nearest neighbor table
   1  0.000  0.000  0.222-   2 2.93   8 2.93   7 2.93   6 2.93   4 2.93  12 2.93  16 2.93  10 2.93
                             3 2.93
   2  0.333  0.000  0.222-   1 2.93   8 2.93   9 2.93   3 2.93   4 2.93   5 2.93  10 2.93  17 2.93
                            11 2.93
   3  0.667  0.000  0.222-   9 2.93   2 2.93   5 2.93  11 2.93   7 2.93  18 2.93   1 2.93   6 2.93
                            12 2.93
   4  0.000  0.333  0.222-   5 2.93   6 2.93   2 2.93   1 2.93   7 2.93  13 2.93  15 2.93   9 2.93
                            10 2.93
   5  0.333  0.333  0.222-   4 2.93   3 2.93   7 2.93   2 2.93   8 2.93  14 2.93  13 2.93  11 2.93
                             6 2.93
   6  0.667  0.333  0.222-   4 2.93   9 2.93   1 2.93  15 2.93   8 2.93  12 2.93   3 2.93   5 2.93
                            14 2.93
   7  0.000  0.667  0.222-   8 2.93   1 2.93   5 2.93   3 2.93   4 2.93  16 2.93  18 2.93  13 2.93
                             9 2.93
   8  0.333  0.667  0.222-   7 2.93   1 2.93   2 2.93   9 2.93   5 2.93  16 2.93   6 2.93  17 2.93
                            14 2.93
   9  0.667  0.667  0.222-   3 2.93   2 2.93   8 2.93   6 2.93  17 2.93   4 2.93  15 2.93   7 2.93
                            18 2.93
  10  0.111  0.111  0.322-  20 2.91  19 2.92  26 2.92  12 2.93  16 2.93  15 2.93  17 2.93  13 2.93
                            11 2.93   2 2.93   1 2.93   4 2.93
  11  0.444  0.111  0.322-  21 2.90  20 2.90  27 2.92  14 2.93  17 2.93  18 2.93   3 2.93  12 2.93
                            13 2.93  10 2.93   5 2.93   2 2.93
  12  0.778  0.111  0.322-  21 2.91  25 2.92  19 2.92  10 2.93  16 2.93  18 2.93  15 2.93  11 2.93
                             1 2.93  14 2.93   6 2.93   3 2.93
  13  0.111  0.444  0.322-  20 2.90  23 2.90  22 2.92  15 2.93  14 2.93  18 2.93  10 2.93  11 2.93
                            16 2.93   4 2.93   5 2.93   7 2.93
  14  0.444  0.444  0.322-  23 2.90  21 2.90  24 2.92  13 2.93  11 2.93  16 2.93   5 2.93  12 2.93
                            17 2.93   8 2.93  15 2.93   6 2.93
  15  0.778  0.444  0.322-  24 2.92  22 2.92  19 2.92  13 2.93  10 2.93  12 2.93  17 2.93  18 2.93
                             4 2.93   6 2.93   9 2.93  14 2.93
  16  0.111  0.778  0.322-  23 2.91  26 2.92  25 2.92  18 2.93  12 2.93  10 2.93  14 2.93  17 2.93
                            13 2.93   7 2.93   8 2.93   1 2.93
  17  0.444  0.778  0.322-  27 2.92  24 2.92  26 2.92  11 2.93  10 2.93   9 2.93  18 2.93  15 2.93
                            16 2.93   2 2.93  14 2.93   8 2.93
  18  0.778  0.778  0.322-  22 2.92  27 2.92  25 2.92  16 2.93  12 2.93  13 2.93  11 2.93  17 2.93
                            15 2.93   7 2.93   3 2.93   9 2.93
  19  0.889  0.222  0.423-  28 2.91  15 2.92  10 2.92  12 2.92  24 2.93  22 2.93  26 2.93  25 2.93
                            20 2.94  21 2.94  32 2.96  31 2.96
  20  0.223  0.223  0.422-  36 2.75  13 2.90  11 2.90  10 2.91  21 2.92  23 2.92  31 2.92  29 2.92
                            27 2.93  22 2.93  19 2.94  26 2.94
  21  0.555  0.223  0.422-  36 2.75  11 2.90  14 2.90  12 2.91  20 2.92  23 2.92  30 2.92  32 2.92
                            27 2.93  24 2.93  25 2.94  19 2.94
  22  0.889  0.556  0.423-  18 2.92  15 2.92  35 2.92  13 2.92  24 2.93  27 2.93  25 2.93  19 2.93
                            23 2.93  20 2.93  33 2.94  31 2.94
  23  0.223  0.555  0.422-  36 2.75  14 2.90  13 2.90  16 2.91  21 2.92  20 2.92  34 2.92  33 2.92
                            22 2.93  24 2.93  26 2.94  25 2.94
  24  0.556  0.556  0.423-  15 2.92  17 2.92  35 2.92  14 2.92  27 2.93  22 2.93  19 2.93  26 2.93
                            23 2.93  21 2.93  32 2.94  34 2.94
  25  0.889  0.889  0.423-  28 2.91  18 2.92  16 2.92  12 2.92  22 2.93  27 2.93  26 2.93  19 2.93
                            23 2.94  21 2.94  33 2.96  30 2.96
  26  0.222  0.889  0.423-  28 2.91  17 2.92  16 2.92  10 2.92  27 2.93  24 2.93  25 2.93  19 2.93
                            23 2.94  20 2.94  34 2.96  29 2.96
  27  0.556  0.889  0.423-  17 2.92  18 2.92  35 2.92  11 2.92  24 2.93  22 2.93  26 2.93  25 2.93
                            20 2.93  21 2.93  29 2.94  30 2.94
  28  0.000  0.000  0.522-  26 2.91  25 2.91  19 2.91  29 2.96  34 2.96  33 2.96  32 2.96  31 2.96
                            30 2.96
  29  0.334  0.006  0.523-  30 2.87  31 2.88  36 2.89  20 2.92  27 2.94  35 2.96  28 2.96  26 2.96
                            34 3.04
  30  0.660  0.006  0.523-  29 2.87  32 2.88  36 2.89  21 2.92  27 2.94  35 2.96  28 2.96  25 2.96
                            33 3.04
  31  0.006  0.334  0.523-  33 2.87  29 2.88  36 2.89  20 2.92  22 2.94  35 2.96  28 2.96  19 2.96
                            32 3.04
  32  0.660  0.334  0.523-  34 2.87  30 2.88  36 2.89  21 2.92  24 2.94  35 2.96  28 2.96  19 2.96
                            31 3.04
  33  0.006  0.660  0.523-  31 2.87  34 2.88  36 2.89  23 2.92  22 2.94  35 2.96  28 2.96  25 2.96
                            30 3.04
  34  0.334  0.660  0.523-  32 2.87  33 2.88  36 2.89  23 2.92  24 2.94  35 2.96  28 2.96  26 2.96
                            29 3.04
  35  0.667  0.667  0.523-  24 2.92  27 2.92  22 2.92  30 2.96  32 2.96  29 2.96  34 2.96  31 2.96
                            33 2.96
  36  0.333  0.333  0.513-  37 1.97  38 1.97  21 2.75  20 2.75  23 2.75  31 2.89  33 2.89  30 2.89
                            29 2.89  34 2.89  32 2.89
  37  0.260  0.341  0.592-  38 1.22  36 1.97
  38  0.399  0.341  0.592-  37 1.22  36 1.97

  LATTYP: Found a hexagonal cell.
 ALAT       =     8.7913665772
 C/A-ratio  =     2.7070389291

  Lattice vectors:

 A1 = (  -4.3956832886,  -7.6135467898,   0.0000000000)
 A2 = (   8.7913665771,   0.0000000000,   0.0000000000)
 A3 = (   0.0000000000,   0.0000000000,  23.7985715640)

Analysis of symmetry for initial positions (statically):
 Subroutine PRICEL returns:
 Original cell was already a primitive cell.

 Routine SETGRP: Setting up the symmetry group for a
 hexagonal supercell.

 Subroutine GETGRP returns: Found  2 space group operations
 (whereof  2 operations were pure point group operations)
 out of a pool of 24 trial point group operations.

The static configuration has the point symmetry C_1h.

Analysis of symmetry for dynamics (positions and initial velocities):
 Subroutine PRICEL returns:
 Original cell was already a primitive cell.

[...]

The dynamic configuration has the point symmetry C_1h.

Analysis of constrained symmetry for selective dynamics:
 Subroutine PRICEL returns:
 Original cell was already a primitive cell.

 Routine SETGRP: Setting up the symmetry group for a
 hexagonal supercell.

 Subroutine GETGRP returns: Found  2 space group operations
 (whereof  2 operations were pure point group operations)
[...]
     33      -4.9187      2.00000
     34      -4.8951      2.00000
     35      -4.8855      2.00000
     36      -4.8764      2.00000
     37      -4.8437      2.00000
     38      -4.7937      2.00000
     39      -4.7613      2.00000
     40      -4.7540      2.00000
     41      -4.7391      2.00000
     42      -4.7078      2.00000
     43      -4.6903      2.00000
     44      -4.6817      2.00000
     45      -4.6686      2.00000
     46      -4.6636      2.00000
     47      -4.6316      2.00000
     48      -4.5676      2.00000
     49      -4.5416      2.00000
     50      -4.5330      2.00000
     51      -4.5293      2.00000
     52      -4.5247      2.00000
     53      -4.5225      2.00000
     54      -4.5092      2.00000
     55      -4.5012      2.00000
     56      -4.4929      2.00000
     57      -4.4739      2.00000
     58      -4.4197      2.00000
     59      -4.4119      2.00000
     60      -4.3970      2.00000
[...]
    226       4.3921      0.00000
    227       4.4505      0.00000
    228       4.5476      0.00000
    229       4.7310      0.00000
    230       5.1624      0.00000
    231       5.2546      0.00000
    232       5.3060      0.00000
    233       5.3659      0.00000
    234       5.4422      0.00000
    235       5.4818      0.00000
    236       5.5983      0.00000
    237       5.6203      0.00000
    238       5.7227      0.00000
    239       5.8900      0.00000
    240       5.9874      0.00000

 soft charge-density along one line, spin component           1
         0         1         2         3         4         5         6         7         8         9
 total charge-density along one line

------------------------ aborting loop because EDIFF is reached ----------------------------------------

 total charge

# of ion       s       p       d       tot
    1        0.419   0.202   9.177   9.797
    2        0.416   0.204   9.175   9.796
    3        0.416   0.204   9.175   9.796
    4        0.416   0.204   9.177   9.797
    5        0.418   0.202   9.176   9.797
    6        0.416   0.204   9.177   9.797
    7        0.416   0.203   9.177   9.796
    8        0.416   0.203   9.177   9.796
    9        0.413   0.204   9.178   9.794
   10        0.406   0.269   9.164   9.840
   11        0.406   0.270   9.166   9.841
   12        0.406   0.269   9.164   9.840
   13        0.405   0.269   9.168   9.842
   14        0.405   0.269   9.168   9.842
   15        0.402   0.270   9.164   9.837
   16        0.407   0.269   9.163   9.839
   17        0.402   0.271   9.164   9.837
   18        0.402   0.271   9.164   9.837
   19        0.395   0.268   9.167   9.831
   20        0.432   0.299   9.138   9.869
   21        0.432   0.299   9.138   9.869
   22        0.395   0.275   9.164   9.834
   23        0.433   0.292   9.144   9.870
   24        0.395   0.275   9.164   9.834
   25        0.405   0.263   9.168   9.836
   26        0.405   0.263   9.168   9.836
   27        0.397   0.276   9.163   9.835
   28        0.416   0.198   9.177   9.790
   29        0.426   0.213   9.169   9.807
   30        0.426   0.213   9.169   9.807
   31        0.418   0.199   9.181   9.798
   32        0.418   0.199   9.181   9.798
   33        0.424   0.212   9.171   9.806
   34        0.424   0.212   9.171   9.806
   35        0.412   0.201   9.175   9.789
   36        0.450   0.573   3.544   4.567
   37        1.329   2.426   0.000   3.754
   38        1.329   2.426   0.000   3.754
tot         17.546  13.842 324.424 355.813

  FORCE on cell =-STRESS in cart. coord.  units (eV):
  Direction    XX          YY          ZZ          XY          YZ          ZX
  Alpha Z   705.99275   705.99275   705.99275
  Ewald  143612.98590143316.21782************     0.00004    -4.05426     0.00006
  Hartree153528.68445153417.40582************     0.00001    -4.47435     0.00002
  E(xc)   -2092.99659 -2093.42421 -2099.21152    -0.00001     0.02760     0.00000
  Local  ************************308082.60211     0.00078     8.32390    -0.00016
  n-local  -345.06581  -332.21236  -342.47737     2.24464    -0.31981     0.08247
  augment  3242.70603  3240.01874  3251.49263    -0.00015     0.00379     0.00002
  Kinetic  4983.75102  4992.91965  5025.31255     0.91611     0.36470    -0.07905
  Fock        0.00000     0.00000     0.00000     0.00000     0.00000     0.00000
  Total      -6.50613    -6.05254     0.04538    -0.00000    -0.12845    -0.00000
  in kB      -6.54394    -6.08771     0.04564    -0.00000    -0.12920    -0.00000

 VOLUME and BASIS-vectors are now :
  energy-cutoff  :      500.00
  volume of cell :     1592.92
      direct lattice vectors                 reciprocal lattice vectors
     8.791366577  0.000000000  0.000000000     0.113747958 -0.065672414  0.000000000
     4.395683289  7.613546790  0.000000000     0.000000000  0.131344829  0.000000000
     0.000000000  0.000000000 23.798571564     0.000000000  0.000000000  0.042019329

  length of vectors
     8.791366577  8.791366577 23.798571564     0.131344829  0.131344829  0.042019329

 FORCES acting on ions
    electron-ion (+dipol)            ewald-force                    non-local-force                 convergence-correction
   0.460E-04 0.178E+00 0.264E+04   -.953E-04 -.986E-02 -.264E+04   -.302E-12 -.461E-01 -.193E+01   -.141E-03 -.121E+00 -.858E-01
   -.693E-01 0.206E+00 0.264E+04   -.922E-01 -.129E+00 -.264E+04   0.895E-01 0.623E-01 -.158E+01   0.689E-01 -.130E+00 -.103E+00
   0.694E-01 0.206E+00 0.264E+04   0.923E-01 -.129E+00 -.264E+04   -.895E-01 0.623E-01 -.158E+01   -.694E-01 -.128E+00 -.102E+00
   0.841E-01 -.225E-01 0.264E+04   -.150E+00 -.341E-01 -.264E+04   0.965E-01 -.176E-01 -.160E+01   -.181E-01 0.643E-01 -.377E-01
   -.754E-05 -.546E-01 0.264E+04   0.981E-04 -.141E-01 -.264E+04   0.154E-12 0.234E-01 -.153E+01   0.622E-02 0.388E-01 0.246E-02
   -.841E-01 -.225E-01 0.264E+04   0.150E+00 -.342E-01 -.264E+04   -.965E-01 -.176E-01 -.160E+01   0.167E-01 0.652E-01 -.369E-01
   -.535E-02 -.192E+00 0.264E+04   -.573E-01 0.164E+00 -.264E+04   0.695E-01 -.374E-01 -.168E+01   -.801E-02 0.673E-01 -.152E+00
   0.538E-02 -.192E+00 0.264E+04   0.572E-01 0.164E+00 -.264E+04   -.695E-01 -.374E-01 -.168E+01   0.958E-02 0.663E-01 -.152E+00
   0.362E-04 -.990E-01 0.264E+04   0.792E-04 0.237E-01 -.264E+04   -.156E-13 -.238E-02 -.184E+01   -.661E-02 0.783E-01 -.164E+00
   0.146E+01 0.983E+00 0.900E+03   -.110E+01 -.788E+00 -.899E+03   -.346E+00 -.184E+00 -.685E+00   -.173E-01 -.904E-02 -.139E+00
   -.282E-04 0.140E+01 0.901E+03   0.410E-04 -.161E+01 -.900E+03   0.110E-11 0.167E+00 -.435E+00   0.653E-02 -.141E-01 -.151E+00
   -.146E+01 0.983E+00 0.900E+03   0.110E+01 -.788E+00 -.899E+03   0.346E+00 -.184E+00 -.685E+00   0.157E-01 -.831E-02 -.139E+00
   0.956E+00 -.708E+00 0.901E+03   -.125E+01 0.741E+00 -.901E+03   0.234E+00 -.732E-01 -.489E+00   0.239E-01 0.652E-01 -.149E+00
   -.956E+00 -.708E+00 0.901E+03   0.125E+01 0.741E+00 -.901E+03   -.234E+00 -.732E-01 -.489E+00   -.134E-01 0.640E-01 -.150E+00
   0.155E-04 0.337E+00 0.900E+03   -.108E-03 -.405E+00 -.900E+03   0.236E-12 0.359E-01 -.712E+00   -.147E-02 0.211E-01 -.899E-01
   -.823E-05 -.173E+01 0.900E+03   0.207E-04 0.141E+01 -.899E+03   0.253E-11 0.385E+00 -.597E+00   -.197E-03 -.439E-01 -.118E+00
   0.316E+00 -.295E+00 0.900E+03   -.360E+00 0.349E+00 -.899E+03   0.333E-01 -.259E-01 -.638E+00   -.158E-02 -.281E-01 -.141E+00
   -.316E+00 -.295E+00 0.900E+03   0.359E+00 0.349E+00 -.899E+03   -.333E-01 -.259E-01 -.638E+00   0.203E-02 -.262E-01 -.140E+00
   0.390E-04 -.198E+01 -.858E+03   -.127E-03 0.176E+01 0.857E+03   0.143E-11 0.218E+00 0.116E+01   -.498E-02 0.174E-01 -.744E-01
   -.988E+01 -.422E+01 -.856E+03   0.110E+02 0.485E+01 0.857E+03   -.107E+01 -.553E+00 -.706E+00   -.151E+00 -.103E+00 -.307E+00
   0.988E+01 -.422E+01 -.856E+03   -.110E+02 0.485E+01 0.857E+03   0.107E+01 -.553E+00 -.706E+00   0.142E+00 -.104E+00 -.308E+00
   -.275E+01 0.885E+00 -.852E+03   0.269E+01 -.789E+00 0.852E+03   0.210E+00 -.165E+00 0.591E+00   -.961E-01 0.471E-01 -.148E+00
   -.559E-04 0.101E+02 -.856E+03   0.392E-04 -.114E+02 0.857E+03   0.848E-11 0.129E+01 -.583E+00   -.544E-02 0.190E+00 -.279E+00
   0.275E+01 0.885E+00 -.852E+03   -.269E+01 -.789E+00 0.852E+03   -.210E+00 -.165E+00 0.591E+00   0.979E-01 0.462E-01 -.147E+00
   0.236E+01 0.123E+01 -.859E+03   -.236E+01 -.114E+01 0.858E+03   -.351E-01 -.522E-01 0.879E+00   0.222E-01 -.297E-01 -.125E+00
   -.236E+01 0.123E+01 -.859E+03   0.236E+01 -.114E+01 0.858E+03   0.351E-01 -.522E-01 0.879E+00   -.329E-01 -.295E-01 -.125E+00
   0.195E-04 -.393E+01 -.854E+03   0.110E-03 0.381E+01 0.854E+03   0.171E-11 0.261E+00 0.644E+00   0.110E-02 -.102E+00 -.191E+00
   0.537E-04 0.193E+01 -.257E+04   -.115E-03 -.220E+01 0.257E+04   0.133E-11 0.203E+00 0.171E+01   -.276E-05 0.471E-01 0.134E+00
   0.132E+02 0.285E+02 -.255E+04   -.124E+02 -.278E+02 0.255E+04   -.755E+00 -.731E+00 0.205E+01   -.188E+00 -.180E+00 0.134E+00
   -.132E+02 0.285E+02 -.255E+04   0.124E+02 -.278E+02 0.255E+04   0.755E+00 -.731E+00 0.205E+01   0.188E+00 -.179E+00 0.133E+00
   0.411E+02 0.455E+01 -.254E+04   -.412E+02 -.456E+01 0.253E+04   -.782E-01 -.298E-01 0.315E+01   -.144E+00 0.305E-01 0.170E+00
   -.411E+02 0.455E+01 -.254E+04   0.412E+02 -.456E+01 0.253E+04   0.782E-01 -.298E-01 0.315E+01   0.144E+00 0.310E-01 0.170E+00
   0.130E+02 -.360E+02 -.254E+04   -.126E+02 0.354E+02 0.254E+04   -.418E+00 0.712E+00 0.230E+01   -.111E+00 0.149E+00 0.143E+00
   -.130E+02 -.360E+02 -.254E+04   0.126E+02 0.354E+02 0.254E+04   0.418E+00 0.712E+00 0.230E+01   0.112E+00 0.149E+00 0.144E+00
   0.220E-04 -.406E+01 -.257E+04   0.106E-03 0.439E+01 0.257E+04   -.112E-11 -.171E+00 0.178E+01   -.612E-02 -.122E+00 0.124E+00
   -.228E-04 0.485E+01 -.974E+03   0.479E-04 -.500E+01 0.975E+03   -.777E-13 -.118E-01 0.795E+00   0.665E-03 0.332E-01 0.109E+00
   0.183E+03 0.180E+01 -.137E+04   -.219E+03 -.164E+01 0.139E+04   0.365E+02 -.178E+00 -.113E+02   0.359E-02 0.248E-01 0.351E+00
   -.183E+03 0.180E+01 -.137E+04   0.219E+03 -.164E+01 0.139E+04   -.365E+02 -.178E+00 -.113E+02   -.338E-02 0.248E-01 0.351E+00
   0.405E-03 0.225E+00 0.227E+02   0.284E-13 -.205E-12 0.134E-10   -.128E-11 -.193E+00 -.209E+02   -.187E-01 -.356E-01 -.179E+01

 POSITION                                       TOTAL-FORCE (eV/Angst)
      0.00000      0.00000      5.28219         0.000000      0.002068     -0.013387
      2.93046      0.00000      5.28219        -0.002945      0.010482      0.051981
      5.86091      0.00000      5.28219         0.002945      0.010482      0.051981
      1.46523      2.53785      5.28219         0.013145     -0.009455      0.034772
      4.39568      2.53785      5.28219        -0.000000     -0.006385      0.007528
      7.32614      2.53785      5.28219        -0.013145     -0.009455      0.034772
      2.93046      5.07570      5.28219        -0.001902      0.001449      0.052197
      5.86091      5.07570      5.28219         0.001902      0.001449      0.052197
      8.79137      5.07570      5.28219         0.000000      0.000663      0.035658
      1.46523      0.84595      7.67490        -0.003322      0.002259     -0.031096
      4.39568      0.84595      7.67490        -0.000000     -0.050333     -0.054240
      7.32614      0.84595      7.67490         0.003322      0.002259     -0.031096
      2.93046      3.38380      7.67490        -0.044530      0.024341     -0.068410
      5.86091      3.38380      7.67490         0.044530      0.024341     -0.068410
      8.79137      3.38380      7.67490        -0.000000     -0.011057     -0.000804
      4.39568      5.92165      7.67490         0.000000      0.012558     -0.038107
      7.32614      5.92165      7.67490        -0.012021      0.001155      0.016221
     10.25659      5.92165      7.67490         0.012021      0.001155      0.016221
      8.79137      1.69254     10.05636         0.000000      0.007645      0.073668
      2.93602      1.69511     10.03837        -0.091575     -0.017555     -0.109296
      5.85534      1.69511     10.03837         0.091575     -0.017555     -0.109296
     10.25423      4.23112     10.05516         0.058503     -0.023215      0.039321
      4.39568      4.22332     10.03837         0.000000      0.090155     -0.101117
      7.32851      4.23112     10.05516        -0.058503     -0.023215      0.039321
     11.72126      6.76728     10.05636        -0.006656      0.003955      0.017054
      5.86147      6.76728     10.05636         0.006656      0.003955      0.017054
      8.79137      6.76486     10.05516         0.000000      0.038082      0.026039
      0.00000      0.00000     12.42937        -0.000000     -0.016956      0.005098
      2.95945      0.04653     12.45339        -0.138601     -0.216764     -0.202992
      5.83191      0.04653     12.45339         0.138601     -0.216764     -0.202992
      1.52003      2.53970     12.45339        -0.348799     -0.016258     -0.165632
      7.27134      2.53970     12.45339         0.348799     -0.016258     -0.165632
      2.95626      5.02732     12.45339        -0.155223      0.242519     -0.221460
      5.83511      5.02732     12.45339         0.155223      0.242519     -0.221460
      8.79137      5.07570     12.43676         0.000000      0.042373     -0.002315
      4.39568      2.53785     12.21669        -0.000000     -0.122065      1.272151
      3.78504      2.59356     14.08369         0.064045      0.003714     -0.017748
      5.00632      2.59356     14.08369        -0.064045      0.003714     -0.017748
    total drift:                               -0.018314     -0.003986     -0.005209

  FREE ENERGIE OF THE ION-ELECTRON SYSTEM (eV)
  free  energy   TOTEN  =      -112.23927260 eV

  energy  without entropy=     -112.23927260  energy(sigma->0) =     -112.23927260

 stress matrix after NEB project (eV)
     -6.50613     -0.00000     -0.00000
     -0.00000     -6.05254     -0.12845
     -0.00000     -0.12845      0.04538
  FORCES: max atom, RMS     0.066562    0.015270
  FORCE total and by dimension    0.094134    0.064045
  Stress total and by dimension    8.888081    6.506131
|           W    W    AA    RRRRR   N    N  II  N    N   GGGG   !!!           |
|           W    W   A  A   R    R  NN   N  II  NN   N  G    G  !!!           |
|           W    W  A    A  R    R  N N  N  II  N N  N  G       !!!           |
|           W WW W  AAAAAA  RRRRR   N  N N  II  N  N N  G  GGG   !            |
|           WW  WW  A    A  R   R   N   NN  II  N   NN  G    G                |
|           W    W  A    A  R    R  N    N  II  N    N   GGGG   !!!           |
|     Tetrahedron method does not include variations of the Fermi             |
|     occupations, so forces and stress will be inaccurate. We suggest        |
|     using a different smearing scheme ISMEAR = 1 or 2 for metals in         |
|     relaxations.                                                            |

 total charge

# of ion       s       p       d       tot
    1        0.419   0.202   9.177   9.797
    2        0.416   0.204   9.175   9.796
    3        0.416   0.204   9.175   9.796
    4        0.416   0.204   9.177   9.797
    5        0.418   0.202   9.176   9.797
    6        0.416   0.204   9.177   9.797
    7        0.416   0.203   9.177   9.796
    8        0.416   0.203   9.177   9.796
    9        0.413   0.204   9.178   9.794
   10        0.406   0.269   9.164   9.840
   11        0.406   0.270   9.166   9.841
   12        0.406   0.269   9.164   9.840
   13        0.405   0.269   9.168   9.842
   14        0.405   0.269   9.168   9.842
   15        0.402   0.270   9.164   9.837
   16        0.407   0.269   9.163   9.839
   17        0.402   0.271   9.164   9.837
   18        0.402   0.271   9.164   9.837
   19        0.395   0.268   9.167   9.831
   20        0.432   0.299   9.138   9.869
   21        0.432   0.299   9.138   9.869
   22        0.395   0.275   9.164   9.834
   23        0.433   0.292   9.144   9.870
   24        0.395   0.275   9.164   9.834
   25        0.405   0.263   9.168   9.836
   26        0.405   0.263   9.168   9.836
   27        0.397   0.276   9.163   9.835
   28        0.416   0.198   9.177   9.790
   29        0.426   0.213   9.169   9.807
   30        0.426   0.213   9.169   9.807
   31        0.418   0.199   9.181   9.798
   32        0.418   0.199   9.181   9.798
   33        0.424   0.212   9.171   9.806
   34        0.424   0.212   9.171   9.806
   35        0.412   0.201   9.175   9.789
   36        0.450   0.573   3.544   4.567
   37        1.329   2.426   0.000   3.754
   38        1.329   2.426   0.000   3.754
tot         17.546  13.842 324.424 355.813

 BZINTS: Fermi energy:    0.476048;  400.000000 electrons
         Band energy:-0.149800E+04;  BLOECHL correction:   -0.029905