 vasp.6.2.0 18Jan21 (build Jun 12 2021 23:27:24) complex

 executed on             LinuxIFC date 2022.05.30  16:44:38

 INCAR:
   ISMEAR = -5
   SIGMA = 0.1
   ISPIN = 1
   EDIFF = 1.d-5
   EDIFFG = -0.01
   NSW = 0
   NELM = 150
   ENCUT = 500
   ISIF = 2
   IBRION = 2
   LREAL = Auto
   ALGO = Fast
   ICHARG = 11
   LORBIT = 10
   LCHARG = .F.
   LWAVE = .F.

 POTCAR:    PAW_PBE Au 04Oct2007
 POTCAR:    PAW_PBE Pt 04Feb2005
 POTCAR:    PAW_PBE C 08Apr2002
|           W    W    AA    RRRRR   N    N  II  N    N   GGGG   !!!           |
|           W    W   A  A   R    R  NN   N  II  NN   N  G    G  !!!           |
|           W    W  A    A  R    R  N N  N  II  N N  N  G       !!!           |
|           W WW W  AAAAAA  RRRRR   N  N N  II  N  N N  G  GGG   !            |
|           WW  WW  A    A  R   R   N   NN  II  N   NN  G    G                |
|           W    W  A    A  R    R  N    N  II  N    N   GGGG   !!!           |
|     For optimal performance we recommend to set                             |
|       NCORE = 2 up to number-of-cores-per-socket                            |
|     This setting can greatly improve the performance of VASP for DFT.       |
|     The default, NCORE=1 might be grossly inefficient on modern             |
|     multi-core architectures or massively parallel machines. Do your        |
|     Unfortunately you need to use the default for GW and RPA                |
|     calculations (for HF NCORE is supported but not extensively tested      |
|     yet).                                                                   |

 POTCAR:    PAW_PBE Au 04Oct2007
   VRHFIN =Au: s1d10

   TITEL  = PAW_PBE Au 04Oct2007
   POMASS =  196.966; ZVAL   =   11.000    mass and valenz
   ENMAX  =  229.943; ENMIN  =  172.457 eV

 POTCAR:    PAW_PBE Pt 04Feb2005
   VRHFIN =Pt: s1d9

   TITEL  = PAW_PBE Pt 04Feb2005
   POMASS =  195.080; ZVAL   =   10.000    mass and valenz
   ENMAX  =  230.283; ENMIN  =  172.712 eV

 POTCAR:    PAW_PBE C 08Apr2002
   VRHFIN =C: s2p2

   TITEL  = PAW_PBE C 08Apr2002
   POMASS =   12.011; ZVAL   =    4.000    mass and valenz
   ENMAX  =  400.000; ENMIN  =  300.000 eV

 Optimization of the real space projectors (new method)

 maximal supplied QI-value         = 15.12
 optimisation between [QCUT,QGAM] = [ 11.34, 22.83] = [ 36.00,145.93] Ry
 Optimized for a Real-space Cutoff    1.39 Angstroem

   l    n(q)    QCUT    max X(q) W(low)/X(q) W(high)/X(q)  e(spline)
   2      9    11.338    60.898    0.39E-03    0.42E-03    0.21E-06
   2      9    11.338    58.894    0.40E-03    0.42E-03    0.22E-06
   0      9    11.338   109.617    0.13E-03    0.20E-04    0.13E-06
   0      9    11.338    75.026    0.13E-03    0.20E-04    0.13E-06
   1      9    11.338    16.344    0.33E-04    0.24E-03    0.18E-06
   1      9    11.338    10.160    0.26E-04    0.19E-03    0.15E-06
 Optimization of the real space projectors (new method)

[...]

   l    n(q)    QCUT    max X(q) W(low)/X(q) W(high)/X(q)  e(spline)
   2      9    11.346    66.195    0.31E-03    0.12E-04    0.29E-06
   2      9    11.346    64.643    0.32E-03    0.12E-04    0.29E-06
   0     10    11.346    95.520    0.90E-04    0.16E-04    0.19E-06
   0     10    11.346    63.403    0.87E-04    0.15E-04    0.19E-06
   1     10    11.346    19.961    0.17E-03    0.21E-03    0.11E-06
   1     10    11.346    13.289    0.14E-03    0.18E-03    0.89E-07
 Optimization of the real space projectors (new method)

 maximal supplied QI-value         = 25.13
 optimisation between [QCUT,QGAM] = [ 11.31, 22.87] = [ 35.82,146.48] Ry
 Optimized for a Real-space Cutoff    1.00 Angstroem

   l    n(q)    QCUT    max X(q) W(low)/X(q) W(high)/X(q)  e(spline)
   0      7    11.310   115.676    0.43E-03    0.13E-02    0.19E-06
   0      7    11.310    87.132    0.43E-03    0.13E-02    0.18E-06
   1      6    11.310     4.429    0.42E-03    0.74E-03    0.11E-06
   1      6    11.310     2.733    0.34E-03    0.55E-03    0.92E-07
  PAW_PBE Au 04Oct2007                  :
  PAW_PBE Pt 04Feb2005                  :
  PAW_PBE C 08Apr2002                   :

 POSCAR: Au-Pt-C
  positions in direct lattice
  velocities in cartesian coordinates
 exchange correlation table for  LEXCH =        8
   RHO(1)=    0.500       N(1)  =     2000
   RHO(2)=  100.500       N(2)  =     4000

 VTST: version 3.2, (02/03/18)

 CHAIN: initializing optimizer

 OPT: Using VASP Conjugate-Gradient optimizer
 CHAIN: Read ICHAIN            0

 POSCAR: Au-Pt-C
  positions in direct lattice
  velocities in cartesian coordinates

 ion  position               nearest neighbor table
   1  0.000  0.000  0.217-  16 2.94  12 2.94   6 2.94   8 2.94   7 2.94   3 2.94  10 2.94   4 2.94
                             2 2.94
   2  0.333  0.000  0.217-   9 2.94  11 2.94  17 2.94  10 2.94   8 2.94   4 2.94   5 2.94   1 2.94
                             3 2.94
   3  0.667  0.000  0.217-   7 2.94  18 2.94  12 2.94   1 2.94  11 2.94   5 2.94   6 2.94   9 2.94
                             2 2.94
   4  0.000  0.333  0.217-  10 2.94   6 2.94   5 2.94  13 2.94   2 2.94  15 2.94   9 2.94   1 2.94
                             7 2.94
   5  0.333  0.333  0.217-  13 2.94   7 2.94  11 2.94   4 2.94   2 2.94  14 2.94   3 2.94   8 2.94
                             6 2.94
   6  0.667  0.333  0.217-  15 2.94  14 2.94   1 2.94  12 2.94   4 2.94   9 2.94   8 2.94   3 2.94
                             5 2.94
   7  0.000  0.667  0.217-  18 2.94   3 2.94  16 2.94   5 2.94   1 2.94  13 2.94   8 2.94   4 2.94
                             9 2.94
   8  0.333  0.667  0.217-   9 2.94  17 2.94   1 2.94   2 2.94  14 2.94  16 2.94   6 2.94   7 2.94
                             5 2.94
   9  0.667  0.667  0.217-   2 2.94   8 2.94  17 2.94   6 2.94  15 2.94   4 2.94   3 2.94  18 2.94
                             7 2.94
  10  0.111  0.111  0.316-  20 2.91  26 2.93  19 2.93  11 2.94  17 2.94   2 2.94   4 2.94   1 2.94
                            12 2.94  16 2.94  13 2.94  15 2.94
  11  0.444  0.111  0.316-  20 2.92  21 2.92  27 2.93  13 2.94   2 2.94  10 2.94  17 2.94   5 2.94
                             3 2.94  18 2.94  14 2.94  12 2.94
  12  0.778  0.111  0.316-  21 2.91  25 2.93  19 2.93  16 2.94  18 2.94   1 2.94  14 2.94  15 2.94
                             3 2.94   6 2.94  10 2.94  11 2.94
  13  0.111  0.444  0.316-  23 2.92  20 2.92  22 2.93   5 2.94  18 2.94  11 2.94   7 2.94   4 2.94
                            16 2.94  10 2.94  14 2.94  15 2.94
  14  0.444  0.444  0.316-  21 2.92  23 2.92  24 2.93  15 2.94   6 2.94  12 2.94   8 2.94  17 2.94
                             5 2.94  16 2.94  13 2.94  11 2.94
  15  0.778  0.444  0.316-  24 2.93  22 2.93  19 2.93  14 2.94   6 2.94  17 2.94  12 2.94   9 2.94
                             4 2.94  10 2.94  13 2.94  18 2.94
  16  0.111  0.778  0.316-  23 2.91  25 2.93  26 2.93  18 2.94  12 2.94   7 2.94   1 2.94   8 2.94
                            13 2.94  10 2.94  14 2.94  17 2.94
  17  0.444  0.778  0.316-  27 2.93  24 2.93  26 2.93   9 2.94  15 2.94   2 2.94  10 2.94  11 2.94
                             8 2.94  14 2.94  16 2.94  18 2.94
  18  0.778  0.778  0.316-  22 2.93  27 2.93  25 2.93  16 2.94   7 2.94  13 2.94  12 2.94   3 2.94
                            11 2.94   9 2.94  15 2.94  17 2.94
  19  0.889  0.222  0.414-  21 2.93  20 2.93  15 2.93  10 2.93  12 2.93  24 2.94  22 2.94  26 2.94
                            25 2.94  28 2.96  32 2.96  31 2.96
  20  0.221  0.221  0.413-  36 2.82  10 2.91  11 2.92  13 2.92  26 2.93  19 2.93  27 2.94  22 2.94
                            23 2.96  21 2.96  29 2.96  31 2.96
  21  0.557  0.221  0.413-  36 2.82  12 2.91  14 2.92  11 2.92  25 2.93  19 2.93  24 2.94  27 2.94
                            20 2.96  23 2.96  30 2.96  32 2.96
  22  0.888  0.556  0.414-  18 2.93  15 2.93  24 2.93  27 2.93  13 2.93  25 2.94  19 2.94  23 2.94
                            20 2.94  35 2.96  33 2.96  31 2.96
  23  0.221  0.557  0.413-  36 2.82  16 2.91  13 2.92  14 2.92  25 2.93  26 2.93  22 2.94  24 2.94
                            20 2.96  21 2.96  33 2.96  34 2.96
  24  0.556  0.556  0.414-  15 2.93  17 2.93  27 2.93  22 2.93  14 2.93  26 2.94  19 2.94  21 2.94
                            23 2.94  35 2.96  32 2.96  34 2.96
  25  0.889  0.889  0.414-  23 2.93  21 2.93  18 2.93  16 2.93  12 2.93  22 2.94  27 2.94  19 2.94
                            26 2.94  28 2.96  33 2.96  30 2.96
  26  0.222  0.889  0.414-  20 2.93  23 2.93  17 2.93  10 2.93  16 2.93  27 2.94  24 2.94  19 2.94
                            25 2.94  28 2.96  29 2.96  34 2.96
  27  0.556  0.888  0.414-  17 2.93  18 2.93  24 2.93  22 2.93  11 2.93  26 2.94  25 2.94  20 2.94
                            21 2.94  35 2.96  29 2.96  30 2.96
  28  0.000  0.000  0.514-  34 2.95  32 2.95  33 2.95  30 2.95  31 2.95  29 2.95  25 2.96  19 2.96
                            26 2.96
  29  0.333  0.002  0.514-  30 2.92  31 2.92  36 2.93  35 2.95  28 2.95  27 2.96  20 2.96  26 2.96
                            34 2.98
  30  0.664  0.002  0.514-  29 2.92  32 2.92  36 2.93  35 2.95  28 2.95  27 2.96  21 2.96  25 2.96
                            33 2.98
  31  0.002  0.333  0.514-  33 2.92  29 2.92  36 2.93  35 2.95  28 2.95  22 2.96  20 2.96  19 2.96
                            32 2.98
  32  0.664  0.333  0.514-  34 2.92  30 2.92  36 2.93  35 2.95  28 2.95  24 2.96  21 2.96  19 2.96
                            31 2.98
  33  0.002  0.664  0.514-  31 2.92  34 2.92  36 2.93  35 2.95  28 2.95  22 2.96  23 2.96  25 2.96
                            30 2.98
  34  0.333  0.664  0.514-  32 2.92  33 2.92  36 2.93  35 2.95  28 2.95  24 2.96  23 2.96  26 2.96
                            29 2.98
  35  0.667  0.667  0.514-  29 2.95  34 2.95  32 2.95  31 2.95  30 2.95  33 2.95  24 2.96  27 2.96
                            22 2.96
  36  0.333  0.333  0.506-  37 1.76  20 2.82  23 2.82  21 2.82  33 2.93  31 2.93  29 2.93  30 2.93
                            34 2.93  32 2.93
  37  0.333  0.333  0.578-  36 1.76

  LATTYP: Found a hexagonal cell.
 ALAT       =     8.8135128021
 C/A-ratio  =     2.7586513333

  Lattice vectors:

 A1 = (  -4.4067569092,  -7.6327256898,   0.0000000000)
 A2 = (   8.8135128021,   0.0000000000,   0.0000000000)
 A3 = (   0.0000000000,   0.0000000000,  24.3134088421)

Analysis of symmetry for initial positions (statically):
 Subroutine PRICEL returns:
 Original cell was already a primitive cell.

 Routine SETGRP: Setting up the symmetry group for a
 hexagonal supercell.

 Subroutine GETGRP returns: Found  6 space group operations
 (whereof  6 operations were pure point group operations)
 out of a pool of 24 trial point group operations.

The static configuration has the point symmetry C_3v.

Analysis of symmetry for dynamics (positions and initial velocities):
 Subroutine PRICEL returns:
 Original cell was already a primitive cell.

[...]

The dynamic configuration has the point symmetry C_3v.

Analysis of constrained symmetry for selective dynamics:
 Subroutine PRICEL returns:
 Original cell was already a primitive cell.

 Routine SETGRP: Setting up the symmetry group for a
 hexagonal supercell.

 Subroutine GETGRP returns: Found  6 space group operations
[...]
     24      -5.5505      2.00000
     25      -5.5176      2.00000
     26      -5.5059      2.00000
     27      -5.4542      2.00000
     28      -5.3940      2.00000
     29      -5.3919      2.00000
     30      -5.3282      2.00000
     31      -5.2917      2.00000
     32      -5.2592      2.00000
     33      -5.2223      2.00000
     34      -5.2156      2.00000
     35      -5.1791      2.00000
     36      -5.1675      2.00000
     37      -5.1458      2.00000
     38      -5.0879      2.00000
     39      -5.0457      2.00000
     40      -4.9970      2.00000
     41      -4.9602      2.00000
     42      -4.9084      2.00000
     43      -4.8396      2.00000
     44      -4.8248      2.00000
     45      -4.7439      2.00000
     46      -4.7263      2.00000
     47      -4.6724      2.00000
     48      -4.6452      2.00000
     49      -4.6254      2.00000
     50      -4.5869      2.00000
     51      -4.5809      2.00000
     52      -4.5586      2.00000
     53      -4.5490      2.00000
     54      -4.5435      2.00000
     55      -4.5156      2.00000
     56      -4.4596      2.00000
     57      -4.4361      2.00000
     58      -4.4212      2.00000
     59      -4.3968      2.00000
     60      -4.3917      2.00000
[...]
    238       6.0248      0.00000
    239       6.0612      0.00000
    240       6.0887      0.00000
    241       6.2025      0.00000
    242       6.3227      0.00000
    243       6.3621      0.00000
    244       6.3901      0.00000
    245       6.4088      0.00000
    246       6.7113      0.00000
    247       6.7546      0.00000
    248       6.8264      0.00000
    249       6.8657      0.00000
    250       6.9427      0.00000
    251       7.0067      0.00000
    252       7.1048      0.00000

 soft charge-density along one line, spin component           1
         0         1         2         3         4         5         6         7         8         9
 total charge-density along one line

------------------------ aborting loop because EDIFF is reached ----------------------------------------

 total charge

# of ion       s       p       d       tot
    1        0.543   0.240   8.765   9.548
    2        0.543   0.241   8.765   9.549
    3        0.543   0.241   8.765   9.549
    4        0.543   0.241   8.765   9.549
    5        0.543   0.240   8.766   9.550
    6        0.543   0.241   8.765   9.549
    7        0.543   0.241   8.765   9.549
    8        0.543   0.241   8.765   9.549
    9        0.540   0.241   8.764   9.546
   10        0.521   0.308   8.772   9.602
   11        0.516   0.311   8.774   9.600
   12        0.521   0.308   8.772   9.602
   13        0.516   0.311   8.774   9.600
   14        0.516   0.311   8.774   9.600
   15        0.515   0.309   8.774   9.598
   16        0.521   0.308   8.772   9.602
   17        0.515   0.309   8.774   9.598
   18        0.515   0.309   8.774   9.598
   19        0.518   0.304   8.772   9.594
   20        0.535   0.324   8.759   9.618
   21        0.535   0.324   8.759   9.618
   22        0.514   0.306   8.774   9.594
   23        0.535   0.324   8.759   9.618
   24        0.514   0.306   8.774   9.594
   25        0.518   0.304   8.772   9.594
   26        0.518   0.304   8.772   9.594
   27        0.514   0.306   8.774   9.594
   28        0.543   0.231   8.769   9.543
   29        0.532   0.242   8.772   9.545
   30        0.532   0.242   8.772   9.545
   31        0.532   0.242   8.772   9.545
   32        0.532   0.242   8.772   9.545
   33        0.532   0.242   8.772   9.545
   34        0.532   0.242   8.772   9.545
   35        0.541   0.232   8.771   9.544
   36        0.743   0.673   8.078   9.494
   37        1.037   1.132   0.000   2.169
tot         20.293  11.467 315.015 346.775

  FORCE on cell =-STRESS in cart. coord.  units (eV):
  Direction    XX          YY          ZZ          XY          YZ          ZX
  Alpha Z   932.31406   932.31406   932.31406
  Ewald  151482.83984151482.84026************    -0.00034    -0.00009    -0.00014
  Hartree159917.64862159917.64863************     0.00000    -0.00002    -0.00003
  E(xc)   -1786.09067 -1786.09065 -1792.79168    -0.00001    -0.00000    -0.00000
  Local  ************************324132.79828     0.00184     0.00003     0.00003
  n-local   -66.49753   -20.98756   -17.93220    23.41360    -1.42921     1.49538
  augment  2422.15216  2422.15372  2427.63713    -0.00135     0.00003     0.00011
  Kinetic  5548.87976  5553.85719  5579.54803     4.12829     0.56730     0.16705
  Fock        0.00000     0.00000     0.00000     0.00000     0.00000     0.00000
  Total     -17.94933   -17.94933     0.72234    -0.00000     0.00000     0.00000
  in kB     -17.58265   -17.58265     0.70759    -0.00000     0.00000     0.00000

 VOLUME and BASIS-vectors are now :
  energy-cutoff  :      500.00
  volume of cell :     1635.59
      direct lattice vectors                 reciprocal lattice vectors
     8.813512802  0.000000000  0.000000000     0.113462137 -0.065507406  0.000000000
     4.406756909  7.632725690  0.000000000     0.000000000  0.131014796  0.000000000
     0.000000000  0.000000000 24.313408842     0.000000000  0.000000000  0.041129568

  length of vectors
     8.813512802  8.813512802 24.313408842     0.131014796  0.131014796  0.041129568

 FORCES acting on ions
    electron-ion (+dipol)            ewald-force                    non-local-force                 convergence-correction
   -.198E-04 -.163E-04 0.266E+04   0.519E-04 0.433E-04 -.266E+04   -.784E-18 -.350E-17 -.589E+00   -.202E-03 -.130E-03 -.160E+00
   0.172E+00 0.397E+00 0.266E+04   -.211E+00 -.318E+00 -.266E+04   0.265E-01 0.231E-01 -.327E+00   0.135E-01 -.970E-01 -.179E+00
   -.172E+00 0.397E+00 0.266E+04   0.211E+00 -.318E+00 -.266E+04   -.265E-01 0.231E-01 -.327E+00   -.132E-01 -.951E-01 -.179E+00
   0.430E+00 -.496E-01 0.266E+04   -.381E+00 -.239E-01 -.266E+04   0.333E-01 0.114E-01 -.327E+00   -.772E-01 0.601E-01 -.179E+00
   0.747E-05 -.238E-04 0.266E+04   0.952E-04 0.171E-05 -.266E+04   -.521E-18 -.304E-17 -.434E+00   0.430E-02 0.262E-02 -.171E+00
   -.430E+00 -.496E-01 0.266E+04   0.381E+00 -.239E-01 -.266E+04   -.333E-01 0.114E-01 -.327E+00   0.757E-01 0.611E-01 -.178E+00
   0.258E+00 -.348E+00 0.266E+04   -.170E+00 0.342E+00 -.266E+04   0.680E-02 -.345E-01 -.327E+00   -.889E-01 0.361E-01 -.179E+00
   -.258E+00 -.348E+00 0.266E+04   0.170E+00 0.342E+00 -.266E+04   -.680E-02 -.345E-01 -.327E+00   0.908E-01 0.350E-01 -.178E+00
   0.195E-04 -.415E-04 0.266E+04   0.166E-03 -.200E-04 -.266E+04   -.261E-17 0.138E-18 -.407E+00   -.464E-02 -.240E-02 -.252E+00
   0.345E+01 0.199E+01 0.908E+03   -.326E+01 -.188E+01 -.907E+03   -.162E+00 -.936E-01 -.586E+00   -.425E-01 -.246E-01 -.190E+00
   0.138E-04 0.281E+01 0.910E+03   0.149E-03 -.292E+01 -.910E+03   0.561E-08 0.843E-01 -.338E+00   0.381E-02 -.205E-01 -.288E+00
   -.345E+01 0.199E+01 0.908E+03   0.326E+01 -.188E+01 -.907E+03   0.162E+00 -.936E-01 -.586E+00   0.412E-01 -.231E-01 -.191E+00
   0.243E+01 -.140E+01 0.910E+03   -.253E+01 0.146E+01 -.910E+03   0.730E-01 -.421E-01 -.338E+00   -.155E-01 0.138E-01 -.288E+00
   -.243E+01 -.140E+01 0.910E+03   0.253E+01 0.146E+01 -.910E+03   -.730E-01 -.421E-01 -.338E+00   0.234E-01 0.133E-01 -.288E+00
   0.310E-04 0.500E+00 0.907E+03   0.236E-03 -.458E+00 -.906E+03   -.288E-08 -.433E-01 -.385E+00   -.240E-02 -.194E-01 -.240E+00
   -.213E-04 -.399E+01 0.908E+03   0.163E-03 0.377E+01 -.907E+03   0.125E-07 0.187E+00 -.586E+00   0.299E-03 0.472E-01 -.191E+00
   0.433E+00 -.250E+00 0.907E+03   -.397E+00 0.229E+00 -.906E+03   -.375E-01 0.217E-01 -.385E+00   -.178E-01 0.806E-02 -.240E+00
   -.433E+00 -.250E+00 0.907E+03   0.396E+00 0.229E+00 -.906E+03   0.375E-01 0.217E-01 -.385E+00   0.177E-01 0.998E-02 -.240E+00
   -.410E-04 0.162E+01 -.877E+03   0.530E-04 -.141E+01 0.876E+03   -.300E-08 -.451E-01 0.540E+00   -.351E-03 -.161E+00 -.584E-01
   0.107E+02 0.620E+01 -.844E+03   -.101E+02 -.580E+01 0.844E+03   -.476E+00 -.275E+00 0.132E-01   -.190E+00 -.110E+00 -.176E+00
   -.107E+02 0.620E+01 -.844E+03   0.101E+02 -.580E+01 0.844E+03   0.476E+00 -.275E+00 0.132E-01   0.190E+00 -.107E+00 -.176E+00
   0.335E+01 -.193E+01 -.870E+03   -.346E+01 0.200E+01 0.869E+03   0.171E+00 -.986E-01 0.652E+00   -.740E-01 0.385E-01 -.441E-01
   -.146E-04 -.124E+02 -.844E+03   0.144E-03 0.116E+02 0.844E+03   0.366E-07 0.550E+00 0.132E-01   0.195E-02 0.219E+00 -.176E+00
   -.335E+01 -.193E+01 -.870E+03   0.346E+01 0.200E+01 0.869E+03   -.171E+00 -.986E-01 0.652E+00   0.670E-01 0.387E-01 -.446E-01
   -.140E+01 -.810E+00 -.877E+03   0.122E+01 0.706E+00 0.876E+03   0.391E-01 0.226E-01 0.540E+00   0.141E+00 0.814E-01 -.591E-01
   0.140E+01 -.810E+00 -.877E+03   -.122E+01 0.706E+00 0.876E+03   -.391E-01 0.226E-01 0.540E+00   -.139E+00 0.802E-01 -.584E-01
   0.648E-05 0.387E+01 -.870E+03   0.201E-03 -.400E+01 0.869E+03   0.131E-07 0.197E+00 0.652E+00   -.421E-02 -.834E-01 -.441E-01
   -.107E-04 -.119E-04 -.263E+04   0.271E-04 0.332E-04 0.263E+04   0.103E-17 0.151E-17 0.351E+00   0.130E-02 0.731E-03 -.534E-01
   0.155E+02 0.257E+02 -.262E+04   -.157E+02 -.259E+02 0.262E+04   0.835E-01 0.202E+00 0.449E+00   -.104E+00 -.193E+00 0.335E-01
   -.155E+02 0.257E+02 -.262E+04   0.157E+02 -.259E+02 0.262E+04   -.835E-01 0.202E+00 0.449E+00   0.979E-01 -.191E+00 0.342E-01
   0.300E+02 0.616E+00 -.262E+04   -.303E+02 -.602E+00 0.262E+04   0.217E+00 -.286E-01 0.449E+00   -.219E+00 0.619E-02 0.336E-01
   -.300E+02 0.616E+00 -.262E+04   0.303E+02 -.602E+00 0.262E+04   -.217E+00 -.286E-01 0.449E+00   0.211E+00 0.731E-02 0.333E-01
   0.145E+02 -.263E+02 -.262E+04   -.146E+02 0.265E+02 0.262E+04   0.133E+00 -.173E+00 0.449E+00   -.116E+00 0.180E+00 0.342E-01
   -.145E+02 -.263E+02 -.262E+04   0.146E+02 0.265E+02 0.262E+04   -.133E+00 -.173E+00 0.449E+00   0.112E+00 0.179E+00 0.333E-01
   0.278E-04 -.291E-04 -.263E+04   0.148E-03 -.484E-04 0.263E+04   0.229E-17 0.994E-18 0.392E+00   -.358E-02 -.177E-02 0.805E-01
   0.120E-04 -.276E-04 -.214E+04   0.101E-03 0.891E-05 0.215E+04   0.919E-18 -.766E-18 -.501E+01   0.443E-02 0.266E-02 -.898E-02
   0.463E-04 -.308E-04 -.121E+04   0.149E-04 0.954E-06 0.122E+04   0.367E-18 0.246E-18 -.147E+02   0.102E-02 0.611E-03 0.959E-01
   -.684E-03 -.807E-03 0.244E+02   -.603E-13 0.611E-13 -.100E-10   -.797E-16 0.837E-16 -.199E+02   -.137E-01 -.725E-02 -.433E+01

 POSITION                                       TOTAL-FORCE (eV/Angst)
      0.00000      0.00000      5.28038        -0.000000      0.000000     -0.034874
      2.93784      0.00000      5.28038         0.001542      0.006741     -0.011754
      5.87568      0.00000      5.28038        -0.001542      0.006741     -0.011754
      1.46892      2.54424      5.28038         0.006609     -0.002036     -0.011754
      4.40676      2.54424      5.28038         0.000000     -0.000000     -0.024817
      7.34459      2.54424      5.28038        -0.006609     -0.002036     -0.011754
      2.93784      5.08848      5.28038         0.005067     -0.004706     -0.011754
      5.87568      5.08848      5.28038        -0.005067     -0.004706     -0.011754
      8.81351      5.08848      5.28038        -0.000000      0.000000     -0.009671
      1.46892      0.84808      7.67911        -0.014241     -0.008222      0.066338
      4.40676      0.84808      7.67911        -0.000000     -0.046325      0.035013
      7.34459      0.84808      7.67911         0.014241     -0.008222      0.066338
      2.93784      3.39232      7.67911        -0.040119      0.023163      0.035013
      5.87568      3.39232      7.67911         0.040119      0.023163      0.035013
      8.81351      3.39232      7.67911        -0.000000     -0.020767      0.070137
      4.40676      5.93656      7.67911         0.000000      0.016444      0.066338
      7.34459      5.93656      7.67911        -0.017985      0.010383      0.070137
     10.28243      5.93656      7.67911         0.017985      0.010383      0.070137
      8.81351      1.69709     10.07334         0.000000      0.001572     -0.009473
      2.92757      1.69024     10.04824         0.019148      0.011055     -0.139400
      5.88594      1.69024     10.04824        -0.019148      0.011055     -0.139400
     10.27700      4.24354     10.06671        -0.012669      0.007315     -0.025345
      4.40676      4.25225     10.04824        -0.000000     -0.022110     -0.139400
      7.35003      4.24354     10.06671         0.012669      0.007315     -0.025345
     11.75055      6.78418     10.07334        -0.001361     -0.000786     -0.009473
      5.87648      6.78418     10.07334         0.001361     -0.000786     -0.009473
      8.81351      6.77837     10.06671        -0.000000     -0.014629     -0.025345
      0.00000      0.00000     12.49905        -0.000000     -0.000000     -0.066003
      2.94801      0.01573     12.49317        -0.164379     -0.270989     -0.113987
      5.86551      0.01573     12.49317         0.164379     -0.270989     -0.113987
      1.48763      2.54518     12.49317        -0.316873     -0.006862     -0.113987
      7.32589      2.54518     12.49317         0.316873     -0.006862     -0.113987
      2.94638      5.07181     12.49317        -0.152493      0.277851     -0.113987
      5.86714      5.07181     12.49317         0.152493      0.277851     -0.113987
      8.81351      5.08848     12.49660         0.000000     -0.000000     -0.052459
      4.40676      2.54424     12.29817         0.000000     -0.000000      0.943756
      4.40676      2.54424     14.05813        -0.000000      0.000000      0.006703
    total drift:                               -0.014349     -0.008057      0.182966

  FREE ENERGIE OF THE ION-ELECTRON SYSTEM (eV)
  free  energy   TOTEN  =      -118.22264717 eV

  energy  without entropy=     -118.22264717  energy(sigma->0) =     -118.22264717

 stress matrix after NEB project (eV)
    -17.94933     -0.00000      0.00000
     -0.00000    -17.94933      0.00000
     -0.00000      0.00000      0.72234
  FORCES: max atom, RMS     0.006703    0.001102
  FORCE total and by dimension    0.006703    0.006703
  Stress total and by dimension   25.394460   17.949329
|           W    W    AA    RRRRR   N    N  II  N    N   GGGG   !!!           |
|           W    W   A  A   R    R  NN   N  II  NN   N  G    G  !!!           |
|           W    W  A    A  R    R  N N  N  II  N N  N  G       !!!           |
|           W WW W  AAAAAA  RRRRR   N  N N  II  N  N N  G  GGG   !            |
|           WW  WW  A    A  R   R   N   NN  II  N   NN  G    G                |
|           W    W  A    A  R    R  N    N  II  N    N   GGGG   !!!           |
|     Tetrahedron method does not include variations of the Fermi             |
|     occupations, so forces and stress will be inaccurate. We suggest        |
|     using a different smearing scheme ISMEAR = 1 or 2 for metals in         |
|     relaxations.                                                            |

 total charge

# of ion       s       p       d       tot
    1        0.543   0.240   8.765   9.548
    2        0.543   0.241   8.765   9.549
    3        0.543   0.241   8.765   9.549
    4        0.543   0.241   8.765   9.549
    5        0.543   0.240   8.766   9.550
    6        0.543   0.241   8.765   9.549
    7        0.543   0.241   8.765   9.549
    8        0.543   0.241   8.765   9.549
    9        0.540   0.241   8.764   9.546
   10        0.521   0.308   8.772   9.602
   11        0.516   0.311   8.774   9.600
   12        0.521   0.308   8.772   9.602
   13        0.516   0.311   8.774   9.600
   14        0.516   0.311   8.774   9.600
   15        0.515   0.309   8.774   9.598
   16        0.521   0.308   8.772   9.602
   17        0.515   0.309   8.774   9.598
   18        0.515   0.309   8.774   9.598
   19        0.518   0.304   8.772   9.594
   20        0.535   0.324   8.759   9.618
   21        0.535   0.324   8.759   9.618
   22        0.514   0.306   8.774   9.594
   23        0.535   0.324   8.759   9.618
   24        0.514   0.306   8.774   9.594
   25        0.518   0.304   8.772   9.594
   26        0.518   0.304   8.772   9.594
   27        0.514   0.306   8.774   9.594
   28        0.543   0.231   8.769   9.543
   29        0.532   0.242   8.772   9.545
   30        0.532   0.242   8.772   9.545
   31        0.532   0.242   8.772   9.545
   32        0.532   0.242   8.772   9.545
   33        0.532   0.242   8.772   9.545
   34        0.532   0.242   8.772   9.545
   35        0.541   0.232   8.771   9.544
   36        0.743   0.673   8.078   9.494
   37        1.037   1.132   0.000   2.169
tot         20.293  11.467 315.015 346.775

 BZINTS: Fermi energy:    0.240355;  399.000000 electrons
         Band energy:-0.140413E+04;  BLOECHL correction:   -0.088877