 vasp.6.2.0 18Jan21 (build Jun 12 2021 23:27:24) complex

 executed on             LinuxIFC date 2022.05.28  00:53:27

 INCAR:
   ISMEAR = -5
   SIGMA = 0.1
   ISPIN = 1
   EDIFF = 1.d-5
   EDIFFG = -0.01
   NSW = 0
   NELM = 150
   ENCUT = 500
   ISIF = 2
   IBRION = 2
   LREAL = Auto
   ALGO = Fast
   ICHARG = 11
   LORBIT = 10
   LCHARG = .F.
   LWAVE = .F.

 POTCAR:    PAW_PBE Au 04Oct2007
 POTCAR:    PAW_PBE Zr_sv 04Jan2005
 POTCAR:    PAW_PBE O 08Apr2002
 POTCAR:    PAW_PBE H 15Jun2001
|           W    W    AA    RRRRR   N    N  II  N    N   GGGG   !!!           |
|           W    W   A  A   R    R  NN   N  II  NN   N  G    G  !!!           |
|           W    W  A    A  R    R  N N  N  II  N N  N  G       !!!           |
|           W WW W  AAAAAA  RRRRR   N  N N  II  N  N N  G  GGG   !            |
|           WW  WW  A    A  R   R   N   NN  II  N   NN  G    G                |
|           W    W  A    A  R    R  N    N  II  N    N   GGGG   !!!           |
|     For optimal performance we recommend to set                             |
|       NCORE = 2 up to number-of-cores-per-socket                            |
|     This setting can greatly improve the performance of VASP for DFT.       |
|     The default, NCORE=1 might be grossly inefficient on modern             |
|     multi-core architectures or massively parallel machines. Do your        |
|     Unfortunately you need to use the default for GW and RPA                |
|     calculations (for HF NCORE is supported but not extensively tested      |
|     yet).                                                                   |

 POTCAR:    PAW_PBE Au 04Oct2007
   VRHFIN =Au: s1d10

   TITEL  = PAW_PBE Au 04Oct2007
   POMASS =  196.966; ZVAL   =   11.000    mass and valenz
   ENMAX  =  229.943; ENMIN  =  172.457 eV

 POTCAR:    PAW_PBE Zr_sv 04Jan2005
   VRHFIN =Zr: 4s4p5s4d

   TITEL  = PAW_PBE Zr_sv 04Jan2005
   POMASS =   91.224; ZVAL   =   12.000    mass and valenz
   ENMAX  =  229.898; ENMIN  =  172.424 eV

 POTCAR:    PAW_PBE O 08Apr2002
   VRHFIN =O: s2p4

   TITEL  = PAW_PBE O 08Apr2002
   POMASS =   16.000; ZVAL   =    6.000    mass and valenz
   ENMAX  =  400.000; ENMIN  =  300.000 eV

 POTCAR:    PAW_PBE H 15Jun2001
   VRHFIN =H: ultrasoft test

   TITEL  = PAW_PBE H 15Jun2001
   POMASS =    1.000; ZVAL   =    1.000    mass and valenz
   ENMAX  =  250.000; ENMIN  =  200.000 eV

 Optimization of the real space projectors (new method)

 maximal supplied QI-value         = 15.12
 optimisation between [QCUT,QGAM] = [ 11.34, 22.83] = [ 36.00,145.93] Ry
 Optimized for a Real-space Cutoff    1.39 Angstroem

   l    n(q)    QCUT    max X(q) W(low)/X(q) W(high)/X(q)  e(spline)
   2      9    11.338    60.898    0.39E-03    0.42E-03    0.21E-06
   2      9    11.338    58.894    0.40E-03    0.42E-03    0.22E-06
   0      9    11.338   109.617    0.13E-03    0.20E-04    0.13E-06
   0      9    11.338    75.026    0.13E-03    0.20E-04    0.13E-06
   1      9    11.338    16.344    0.33E-04    0.24E-03    0.18E-06
   1      9    11.338    10.160    0.26E-04    0.19E-03    0.15E-06
 Optimization of the real space projectors (new method)

[...]

   l    n(q)    QCUT    max X(q) W(low)/X(q) W(high)/X(q)  e(spline)
   0      7    11.387    20.381    0.39E-03    0.13E-02    0.15E-06
   0      7    11.387    15.268    0.42E-03    0.14E-02    0.17E-06
   1      6    11.387     5.964    0.41E-03    0.11E-02    0.17E-06
   1      6    11.387     5.382    0.39E-03    0.87E-03    0.15E-06
 Optimization of the real space projectors (new method)

 maximal supplied QI-value         = 34.20
 optimisation between [QCUT,QGAM] = [ 11.29, 22.57] = [ 35.68,142.71] Ry
 Optimized for a Real-space Cutoff    1.16 Angstroem

   l    n(q)    QCUT    max X(q) W(low)/X(q) W(high)/X(q)  e(spline)
   0      8    11.287    19.460    0.40E-03    0.73E-03    0.16E-06
   0      8    11.287    12.209    0.38E-03    0.70E-03    0.15E-06
   1      7    11.287     4.655    0.22E-03    0.25E-04    0.22E-06
  PAW_PBE Au 04Oct2007                  :
  PAW_PBE Zr_sv 04Jan2005               :
  PAW_PBE O 08Apr2002                   :
  PAW_PBE H 15Jun2001                   :

 POSCAR: Au-Zr-OOH
  positions in direct lattice
  velocities in cartesian coordinates
 exchange correlation table for  LEXCH =        8
   RHO(1)=    0.500       N(1)  =     2000
   RHO(2)=  100.500       N(2)  =     4000

 VTST: version 3.2, (02/03/18)

 CHAIN: initializing optimizer

 OPT: Using VASP Conjugate-Gradient optimizer
 CHAIN: Read ICHAIN            0

 POSCAR: Au-Zr-OOH
  positions in direct lattice
  velocities in cartesian coordinates

 ion  position               nearest neighbor table
   1  0.000  0.000  0.204-  16 2.94  12 2.94   6 2.94   8 2.94   7 2.94   3 2.94  10 2.94   4 2.94
                             2 2.94
   2  0.333  0.000  0.204-   9 2.94  11 2.94  17 2.94  10 2.94   8 2.94   4 2.94   5 2.94   1 2.94
                             3 2.94
   3  0.667  0.000  0.204-   7 2.94  18 2.94  12 2.94   1 2.94  11 2.94   5 2.94   6 2.94   9 2.94
                             2 2.94
   4  0.000  0.333  0.204-  10 2.94   6 2.94   5 2.94  13 2.94   2 2.94  15 2.94   9 2.94   1 2.94
                             7 2.94
   5  0.333  0.333  0.204-  13 2.94   7 2.94  11 2.94   4 2.94   2 2.94  14 2.94   3 2.94   8 2.94
                             6 2.94
   6  0.667  0.333  0.204-  15 2.94  14 2.94   1 2.94  12 2.94   4 2.94   9 2.94   8 2.94   3 2.94
                             5 2.94
   7  0.000  0.667  0.204-  18 2.94   3 2.94  16 2.94   5 2.94   1 2.94  13 2.94   8 2.94   4 2.94
                             9 2.94
   8  0.333  0.667  0.204-   9 2.94  17 2.94   1 2.94   2 2.94  14 2.94  16 2.94   6 2.94   7 2.94
                             5 2.94
   9  0.667  0.667  0.204-   2 2.94   8 2.94  17 2.94   6 2.94  15 2.94   4 2.94   3 2.94  18 2.94
                             7 2.94
  10  0.111  0.111  0.296-  20 2.93  26 2.93  19 2.93  11 2.94  17 2.94   2 2.94   4 2.94   1 2.94
                            12 2.94  16 2.94  13 2.94  15 2.94
  11  0.444  0.111  0.296-  20 2.92  21 2.92  27 2.94  13 2.94   2 2.94  10 2.94  17 2.94   5 2.94
                             3 2.94  18 2.94  14 2.94  12 2.94
  12  0.778  0.111  0.296-  21 2.93  25 2.93  19 2.93  16 2.94  18 2.94   1 2.94  14 2.94  15 2.94
                             3 2.94   6 2.94  10 2.94  11 2.94
  13  0.111  0.444  0.296-  23 2.92  20 2.92  22 2.94   5 2.94  18 2.94  11 2.94   7 2.94   4 2.94
                            16 2.94  10 2.94  14 2.94  15 2.94
  14  0.444  0.444  0.296-  21 2.92  23 2.92  24 2.94  15 2.94   6 2.94  12 2.94   8 2.94  17 2.94
                             5 2.94  16 2.94  13 2.94  11 2.94
  15  0.778  0.444  0.296-  24 2.93  22 2.93  19 2.93  14 2.94   6 2.94  17 2.94  12 2.94   9 2.94
                             4 2.94  10 2.94  13 2.94  18 2.94
  16  0.111  0.778  0.296-  23 2.93  25 2.93  26 2.93  18 2.94  12 2.94   7 2.94   1 2.94   8 2.94
                            13 2.94  10 2.94  14 2.94  17 2.94
  17  0.444  0.778  0.296-  27 2.93  24 2.93  26 2.93   9 2.94  15 2.94   2 2.94  10 2.94  11 2.94
                             8 2.94  14 2.94  16 2.94  18 2.94
  18  0.778  0.778  0.296-  22 2.93  27 2.93  25 2.93  16 2.94   7 2.94  13 2.94  12 2.94   3 2.94
                            11 2.94   9 2.94  15 2.94  17 2.94
  19  0.889  0.222  0.389-  10 2.93  12 2.93  15 2.93  26 2.94  25 2.94  24 2.94  22 2.94  21 2.95
                            20 2.95  28 2.96  32 3.04  31 3.04
  20  0.223  0.223  0.388-  36 2.86  23 2.92  21 2.92  11 2.92  13 2.92  10 2.93  27 2.94  22 2.94
                            26 2.95  19 2.95  29 3.00  31 3.00
  21  0.554  0.223  0.388-  36 2.86  20 2.92  23 2.92  14 2.92  11 2.92  12 2.93  27 2.94  24 2.94
                            25 2.95  19 2.95  30 3.00  32 3.00
  22  0.888  0.556  0.389-  24 2.92  27 2.92  18 2.93  15 2.93  13 2.94  25 2.94  19 2.94  23 2.94
                            20 2.94  35 2.96  33 3.01  31 3.01
  23  0.223  0.554  0.388-  36 2.86  20 2.92  21 2.92  13 2.92  14 2.92  16 2.93  22 2.94  24 2.94
                            25 2.95  26 2.95  33 3.00  34 3.00
  24  0.556  0.556  0.389-  27 2.92  22 2.92  15 2.93  17 2.93  14 2.94  26 2.94  19 2.94  21 2.94
                            23 2.94  35 2.96  32 3.01  34 3.01
  25  0.889  0.889  0.389-  16 2.93  12 2.93  18 2.93  19 2.94  26 2.94  22 2.94  27 2.94  23 2.95
                            21 2.95  28 2.96  33 3.04  30 3.04
  26  0.222  0.889  0.389-  10 2.93  16 2.93  17 2.93  19 2.94  25 2.94  27 2.94  24 2.94  20 2.95
                            23 2.95  28 2.96  29 3.04  34 3.04
  27  0.556  0.888  0.389-  24 2.92  22 2.92  17 2.93  18 2.93  11 2.94  26 2.94  25 2.94  20 2.94
                            21 2.94  35 2.96  29 3.01  30 3.01
  28  0.000  0.000  0.482-  25 2.96  19 2.96  26 2.96  34 2.97  32 2.97  33 2.97  30 2.97  31 2.97
                            29 2.97
  29  0.334  0.006  0.485-  30 2.88  31 2.89  36 2.89  35 2.96  28 2.97  20 3.00  27 3.01  26 3.04
                            34 3.04
  30  0.661  0.006  0.485-  29 2.88  32 2.89  36 2.89  35 2.96  28 2.97  21 3.00  27 3.01  25 3.04
                            33 3.04
  31  0.006  0.334  0.485-  33 2.88  29 2.89  36 2.89  35 2.96  28 2.97  20 3.00  22 3.01  19 3.04
                            32 3.04
  32  0.661  0.334  0.485-  34 2.88  30 2.89  36 2.89  35 2.96  28 2.97  21 3.00  24 3.01  19 3.04
                            31 3.04
  33  0.006  0.661  0.485-  31 2.88  34 2.89  36 2.89  35 2.96  28 2.97  23 3.00  22 3.01  25 3.04
                            30 3.04
  34  0.334  0.661  0.485-  32 2.88  33 2.89  36 2.89  35 2.96  28 2.97  23 3.00  24 3.01  26 3.04
                            29 3.04
  35  0.667  0.667  0.482-  24 2.96  27 2.96  22 2.96  29 2.96  34 2.96  32 2.96  31 2.96  30 2.96
                            33 2.96
  36  0.333  0.333  0.477-  37 1.91  20 2.86  23 2.86  21 2.86  33 2.89  31 2.89  29 2.89  30 2.89
                            34 2.89  32 2.89
  37  0.336  0.333  0.551-  38 1.41  36 1.91
  38  0.332  0.333  0.605-  39 0.98  37 1.41
  39  0.441  0.334  0.614-  38 0.98

  LATTYP: Found a hexagonal cell.
 ALAT       =     8.8135128021
 C/A-ratio  =     2.9412617888

  Lattice vectors:

 A1 = (  -4.4067569092,  -7.6327256898,   0.0000000000)
 A2 = (   8.8135128021,   0.0000000000,   0.0000000000)
 A3 = (   0.0000000000,   0.0000000000,  25.9228484302)

Analysis of symmetry for initial positions (statically):
 Subroutine PRICEL returns:
 Original cell was already a primitive cell.

 Routine SETGRP: Setting up the symmetry group for a
 hexagonal supercell.

 Subroutine GETGRP returns: Found  1 space group operations
 (whereof  1 operations were pure point group operations)
 out of a pool of 24 trial point group operations.

The static configuration has the point symmetry C_1 .

Analysis of symmetry for dynamics (positions and initial velocities):
 Subroutine PRICEL returns:
 Original cell was already a primitive cell.

[...]

The dynamic configuration has the point symmetry C_1 .

Analysis of constrained symmetry for selective dynamics:
 Subroutine PRICEL returns:
[...]
     41      -5.3091      2.00000
     42      -5.2985      2.00000
     43      -5.2806      2.00000
     44      -5.2627      2.00000
     45      -5.2434      2.00000
     46      -5.0919      2.00000
     47      -5.0790      2.00000
     48      -5.0188      2.00000
     49      -4.9677      2.00000
     50      -4.9434      2.00000
     51      -4.9226      2.00000
     52      -4.8942      2.00000
     53      -4.8660      2.00000
     54      -4.8407      2.00000
     55      -4.7537      2.00000
     56      -4.7493      2.00000
     57      -4.7081      2.00000
     58      -4.6859      2.00000
     59      -4.6733      2.00000
     60      -4.6707      2.00000
[...]
    238       4.7919      0.00000
    239       4.8735      0.00000
    240       5.0508      0.00000
    241       5.0612      0.00000
    242       5.2940      0.00000
    243       5.5161      0.00000
    244       5.6469      0.00000
    245       5.6613      0.00000
    246       5.8148      0.00000
    247       5.8854      0.00000
    248       5.9515      0.00000
    249       5.9732      0.00000
    250       6.2085      0.00000
    251       6.2246      0.00000
    252       6.3598      0.00000

 soft charge-density along one line, spin component           1
         0         1         2         3         4         5         6         7         8         9
 total charge-density along one line

------------------------ aborting loop because EDIFF is reached ----------------------------------------

 total charge

# of ion       s       p       d       tot
    1        0.548   0.238   8.765   9.551
    2        0.543   0.241   8.765   9.548
    3        0.543   0.241   8.765   9.548
    4        0.543   0.241   8.765   9.548
    5        0.543   0.241   8.762   9.547
    6        0.543   0.241   8.765   9.548
    7        0.543   0.241   8.765   9.548
    8        0.543   0.241   8.765   9.548
    9        0.541   0.240   8.767   9.548
   10        0.523   0.306   8.772   9.601
   11        0.519   0.307   8.779   9.605
   12        0.523   0.306   8.772   9.602
   13        0.519   0.307   8.779   9.605
   14        0.520   0.307   8.779   9.605
   15        0.515   0.308   8.773   9.596
   16        0.523   0.306   8.773   9.602
   17        0.515   0.308   8.773   9.596
   18        0.515   0.308   8.773   9.596
   19        0.523   0.295   8.772   9.590
   20        0.563   0.329   8.744   9.636
   21        0.563   0.329   8.744   9.636
   22        0.511   0.304   8.773   9.588
   23        0.562   0.330   8.744   9.636
   24        0.512   0.304   8.772   9.588
   25        0.522   0.296   8.772   9.590
   26        0.522   0.296   8.772   9.590
   27        0.511   0.304   8.772   9.588
   28        0.544   0.236   8.753   9.532
   29        0.592   0.241   8.742   9.575
   30        0.593   0.242   8.742   9.576
   31        0.593   0.241   8.742   9.575
   32        0.595   0.243   8.740   9.579
   33        0.592   0.241   8.742   9.575
   34        0.593   0.242   8.742   9.576
   35        0.541   0.237   8.752   9.531
   36        2.194   6.011   1.521   9.727
   37        1.575   3.387   0.000   4.963
   38        1.588   3.399   0.000   4.987
   39        0.613   0.112   0.000   0.725
tot         24.962  22.547 308.198 355.706

  FORCE on cell =-STRESS in cart. coord.  units (eV):
  Direction    XX          YY          ZZ          XY          YZ          ZX
  Alpha Z   908.85475   908.85475   908.85475
  Ewald  174990.13596174894.72408************     0.58748    -0.27967    32.08949
  Hartree183697.51160183677.77735************     0.14411    -0.20191     8.14387
  E(xc)   -1841.55513 -1841.95526 -1848.00474     0.00233    -0.00074     0.09190
  Local  ************************370484.19850    -0.57833     0.44960   -34.45668
  n-local  -107.81891  -107.76585   -72.81955     0.00205     0.03127     0.15677
  augment  2378.19417  2380.05170  2394.09708    -0.01257    -0.00388    -0.31178
  Kinetic  5843.35965  5868.65263  5865.15785    -0.13642     0.02324    -5.71220
  Fock        0.00000     0.00000     0.00000     0.00000     0.00000     0.00000
  Total     -18.91154   -18.94852     2.42072     0.00864     0.01791     0.00137
  in kB     -17.37505   -17.40903     2.22405     0.00793     0.01646     0.00126

 VOLUME and BASIS-vectors are now :
  energy-cutoff  :      500.00
  volume of cell :     1743.86
      direct lattice vectors                 reciprocal lattice vectors
     8.813512802  0.000000000  0.000000000     0.113462137 -0.065507406  0.000000000
     4.406756909  7.632725690  0.000000000     0.000000000  0.131014796  0.000000000
     0.000000000  0.000000000 25.922848430     0.000000000  0.000000000  0.038576008

  length of vectors
     8.813512802  8.813512802 25.922848430     0.131014796  0.131014796  0.038576008

 FORCES acting on ions
    electron-ion (+dipol)            ewald-force                    non-local-force                 convergence-correction
   0.154E-03 -.726E-02 0.280E+04   0.380E-02 -.973E-03 -.280E+04   -.163E-02 0.445E-02 -.546E+00   -.300E-02 0.452E-02 -.898E-01
   0.431E+00 0.623E+00 0.281E+04   -.470E+00 -.644E+00 -.281E+04   -.618E-02 0.609E-01 -.323E+00   0.387E-01 -.340E-01 -.155E+00
   -.430E+00 0.621E+00 0.281E+04   0.466E+00 -.651E+00 -.281E+04   0.684E-02 0.620E-01 -.308E+00   -.363E-01 -.249E-01 -.155E+00
   0.754E+00 0.518E-01 0.281E+04   -.790E+00 -.820E-01 -.281E+04   0.493E-01 -.304E-01 -.306E+00   -.131E-01 0.512E-01 -.155E+00
   -.713E-02 -.513E-02 0.281E+04   -.751E-02 0.183E-03 -.281E+04   0.251E-02 0.260E-03 -.231E+00   0.135E-01 0.486E-02 -.192E+00
   -.751E+00 0.501E-01 0.281E+04   0.798E+00 -.821E-01 -.281E+04   -.516E-01 -.312E-01 -.292E+00   0.456E-02 0.539E-01 -.150E+00
   0.335E+00 -.675E+00 0.281E+04   -.328E+00 0.726E+00 -.281E+04   0.486E-01 -.283E-01 -.314E+00   -.456E-01 -.194E-01 -.154E+00
   -.338E+00 -.675E+00 0.281E+04   0.324E+00 0.733E+00 -.281E+04   -.485E-01 -.296E-01 -.306E+00   0.527E-01 -.254E-01 -.150E+00
   0.764E-02 0.993E-02 0.281E+04   0.392E-02 0.818E-03 -.280E+04   0.157E-03 -.320E-02 -.462E+00   -.127E-01 -.811E-02 -.172E+00
   0.448E+01 0.259E+01 0.101E+04   -.418E+01 -.241E+01 -.101E+04   -.260E+00 -.154E+00 -.496E+00   -.553E-01 -.308E-01 -.323E+00
   0.359E-01 0.721E+01 0.102E+04   -.415E-01 -.721E+01 -.102E+04   -.398E-02 0.326E-01 -.244E+00   0.947E-02 -.112E+00 -.281E+00
   -.453E+01 0.262E+01 0.101E+04   0.422E+01 -.245E+01 -.101E+04   0.264E+00 -.156E+00 -.483E+00   0.509E-01 -.227E-01 -.333E+00
   0.626E+01 -.360E+01 0.102E+04   -.626E+01 0.360E+01 -.102E+04   0.271E-01 -.187E-01 -.238E+00   -.935E-01 0.603E-01 -.280E+00
   -.624E+01 -.362E+01 0.102E+04   0.621E+01 0.362E+01 -.102E+04   -.248E-01 -.173E-01 -.227E+00   0.115E+00 0.600E-01 -.283E+00
   -.363E-01 0.339E+00 0.101E+04   0.501E-01 -.380E+00 -.101E+04   -.125E-02 -.216E-02 -.381E+00   -.124E-01 0.276E-01 -.272E+00
   0.737E-02 -.521E+01 0.101E+04   -.947E-02 0.485E+01 -.101E+04   -.173E-02 0.306E+00 -.503E+00   0.444E-02 0.598E-01 -.332E+00
   0.301E+00 -.198E+00 0.101E+04   -.329E+00 0.220E+00 -.101E+04   -.780E-02 0.750E-02 -.394E+00   0.214E-01 -.204E-01 -.271E+00
   -.302E+00 -.153E+00 0.101E+04   0.338E+00 0.168E+00 -.101E+04   0.488E-02 0.442E-02 -.391E+00   -.280E-01 -.119E-01 -.279E+00
   -.363E+00 -.419E+00 -.824E+03   0.340E+00 0.254E+00 0.824E+03   0.158E-01 0.311E-01 0.669E+00   0.698E-02 0.962E-01 -.112E+00
   0.449E+02 0.258E+02 -.760E+03   -.439E+02 -.252E+02 0.761E+03   -.115E+01 -.675E+00 -.917E+00   -.683E-01 -.374E-01 -.928E-01
   -.446E+02 0.260E+02 -.760E+03   0.435E+02 -.254E+02 0.761E+03   0.113E+01 -.679E+00 -.950E+00   0.674E-01 -.202E-01 -.929E-01
   0.143E+02 -.824E+01 -.813E+03   -.144E+02 0.834E+01 0.813E+03   0.281E+00 -.160E+00 0.694E+00   -.118E+00 0.404E-01 -.112E+00
   0.301E+00 -.517E+02 -.760E+03   -.310E+00 0.505E+02 0.761E+03   -.276E-02 0.132E+01 -.919E+00   0.135E-01 0.666E-01 -.921E-01
   -.146E+02 -.852E+01 -.813E+03   0.147E+02 0.861E+01 0.812E+03   -.282E+00 -.151E+00 0.672E+00   0.935E-01 0.493E-01 -.112E+00
   0.326E+00 0.421E+00 -.824E+03   -.207E+00 -.342E+00 0.824E+03   -.283E-01 -.270E-01 0.696E+00   -.571E-01 -.330E-01 -.115E+00
   -.431E+00 0.707E-01 -.825E+03   0.277E+00 0.713E-02 0.824E+03   0.348E-01 -.189E-01 0.700E+00   0.857E-01 -.408E-01 -.114E+00
   0.946E-01 0.167E+02 -.813E+03   -.689E-01 -.169E+02 0.813E+03   -.390E-02 0.324E+00 0.698E+00   -.215E-01 -.121E+00 -.115E+00
   -.888E+00 0.298E+00 -.262E+04   0.886E+00 -.307E+00 0.262E+04   -.363E-02 0.576E-02 0.157E+00   0.615E-02 0.371E-02 0.125E+00
   0.645E+02 0.106E+03 -.262E+04   -.636E+02 -.105E+03 0.262E+04   -.105E+01 -.165E+01 -.280E-01   0.676E-01 -.362E-01 0.113E+00
   -.636E+02 0.109E+03 -.262E+04   0.627E+02 -.108E+03 0.262E+04   0.104E+01 -.164E+01 -.104E+00   -.733E-01 -.232E-01 0.121E+00
   0.123E+03 0.174E+01 -.262E+04   -.122E+03 -.170E+01 0.262E+04   -.197E+01 -.897E-01 -.663E-01   0.364E-02 0.790E-01 0.113E+00
   -.127E+03 0.173E+01 -.262E+04   0.126E+03 -.170E+01 0.262E+04   0.198E+01 -.906E-01 -.286E+00   -.110E-01 0.903E-01 0.116E+00
   0.613E+02 -.108E+03 -.262E+04   -.606E+02 0.107E+03 0.262E+04   -.898E+00 0.174E+01 -.324E-01   -.577E-01 -.568E-01 0.121E+00
   -.604E+02 -.111E+03 -.262E+04   0.597E+02 0.109E+03 0.262E+04   0.896E+00 0.173E+01 -.106E+00   0.722E-01 -.572E-01 0.116E+00
   -.873E+00 -.249E+00 -.263E+04   0.894E+00 0.272E+00 0.263E+04   -.342E-02 -.131E-01 0.326E+00   -.175E-01 -.124E-01 0.925E-01
   0.524E+01 -.161E+00 -.248E+04   -.525E+01 0.155E+00 0.248E+04   -.173E-01 -.745E-03 -.135E+01   0.149E-01 0.116E-01 0.155E+00
   0.371E+01 -.121E+00 -.165E+04   -.436E+01 0.144E+00 0.163E+04   0.635E+00 -.293E-01 0.217E+02   0.755E-02 0.684E-02 0.513E-01
   0.519E+02 0.473E+00 -.175E+04   -.927E+02 -.745E+00 0.178E+04   0.408E+02 0.265E+00 -.291E+02   0.220E-02 0.364E-02 0.476E-01
   -.904E+02 -.501E+00 -.286E+03   0.984E+02 0.548E+00 0.288E+03   -.798E+01 -.455E-01 -.194E+01   0.126E-02 0.516E-03 0.624E-02
   -.334E+02 -.177E+00 0.198E+02   -.128E-12 0.533E-14 -.966E-12   0.334E+02 0.151E+00 -.159E+02   0.289E-01 0.225E-01 -.381E+01

 POSITION                                       TOTAL-FORCE (eV/Angst)
      0.00000      0.00000      5.28038        -0.000808      0.000803     -0.138154
      2.93784      0.00000      5.28038        -0.006208      0.006226     -0.052581
      5.87568      0.00000      5.28038         0.006586      0.007168     -0.052108
      1.46892      2.54424      5.28038        -0.000486     -0.009329     -0.049714
      4.40676      2.54424      5.28038         0.001272      0.000239     -0.048211
      7.34459      2.54424      5.28038        -0.000877     -0.009206     -0.050308
      2.93784      5.08848      5.28038         0.010398      0.003631     -0.051610
      5.87568      5.08848      5.28038        -0.009931      0.002581     -0.051809
      8.81351      5.08848      5.28038        -0.001106     -0.000491     -0.053614
      1.46892      0.84808      7.67911        -0.007258     -0.004269      0.047305
      4.40676      0.84808      7.67911        -0.000269     -0.073968      0.015576
      7.34459      0.84808      7.67911         0.007023     -0.003922      0.048979
      2.93784      3.39232      7.67911        -0.063656      0.036821      0.017440
      5.87568      3.39232      7.67911         0.063641      0.037157      0.016901
      8.81351      3.39232      7.67911         0.000112     -0.015550      0.135037
      4.40676      5.93656      7.67911         0.000483      0.006467      0.049337
      7.34459      5.93656      7.67911        -0.014548      0.008912      0.134776
     10.28243      5.93656      7.67911         0.013158      0.008111      0.135331
      8.81351      1.69571     10.07248        -0.000532     -0.037744     -0.015111
      2.94528      1.70046     10.06340        -0.166347     -0.095518     -0.190310
      5.86824      1.70046     10.06340         0.163687     -0.094548     -0.193553
     10.27570      4.24429     10.07162         0.030476     -0.018565      0.027764
      4.40676      4.23182     10.06340         0.000883      0.188124     -0.194533
      7.35132      4.24429     10.07162        -0.030648     -0.018490      0.021434
     11.75174      6.78487     10.07248         0.032830      0.019258     -0.008554
      5.87529      6.78487     10.07248        -0.033069      0.018108     -0.006658
      8.81351      6.77688     10.07162         0.000162      0.034536      0.028749
      0.00000      0.00000     12.49858         0.000446      0.001394     -0.041833
      2.96552      0.04535     12.55994        -0.127619     -0.288450     -0.218762
      5.84799      0.04535     12.55994         0.131140     -0.296543     -0.220440
      1.52204      2.54555     12.55994        -0.310968      0.035475     -0.220390
      7.29148      2.54555     12.55994         0.327710      0.035786     -0.221006
      2.96327      5.04183     12.55994        -0.188491      0.253272     -0.215484
      5.85025      5.04183     12.55994         0.191635      0.260204     -0.217618
      8.81351      5.08848     12.50663         0.000102     -0.001835      0.060116
      4.40676      2.54424     12.37417        -0.016559      0.005415      1.767843
      4.42837      2.54343     14.28531         0.001037      0.000721     -0.000471
      4.39466      2.54209     15.69178         0.001065     -0.003447      0.004195
      5.35504      2.54762     15.90454        -0.004465      0.001468      0.002051
    total drift:                                0.005060     -0.002815      0.059084

  FREE ENERGIE OF THE ION-ELECTRON SYSTEM (eV)
  free  energy   TOTEN  =      -132.28201533 eV

  energy  without entropy=     -132.28201533  energy(sigma->0) =     -132.28201533

 stress matrix after NEB project (eV)
    -18.91154      0.00864      0.00137
      0.00864    -18.94852      0.01791
      0.00137      0.01791      2.42072
  FORCES: max atom, RMS     0.005533    0.001227
  FORCE total and by dimension    0.007663    0.004465
  Stress total and by dimension   26.880355   18.948523
|           W    W    AA    RRRRR   N    N  II  N    N   GGGG   !!!           |
|           W    W   A  A   R    R  NN   N  II  NN   N  G    G  !!!           |
|           W    W  A    A  R    R  N N  N  II  N N  N  G       !!!           |
|           W WW W  AAAAAA  RRRRR   N  N N  II  N  N N  G  GGG   !            |
|           WW  WW  A    A  R   R   N   NN  II  N   NN  G    G                |
|           W    W  A    A  R    R  N    N  II  N    N   GGGG   !!!           |
|     Tetrahedron method does not include variations of the Fermi             |
|     occupations, so forces and stress will be inaccurate. We suggest        |
|     using a different smearing scheme ISMEAR = 1 or 2 for metals in         |
|     relaxations.                                                            |

 total charge

# of ion       s       p       d       tot
    1        0.548   0.238   8.765   9.551
    2        0.543   0.241   8.765   9.548
    3        0.543   0.241   8.765   9.548
    4        0.543   0.241   8.765   9.548
    5        0.543   0.241   8.762   9.547
    6        0.543   0.241   8.765   9.548
    7        0.543   0.241   8.765   9.548
    8        0.543   0.241   8.765   9.548
    9        0.541   0.240   8.767   9.548
   10        0.523   0.306   8.772   9.601
   11        0.519   0.307   8.779   9.605
   12        0.523   0.306   8.772   9.602
   13        0.519   0.307   8.779   9.605
   14        0.520   0.307   8.779   9.605
   15        0.515   0.308   8.773   9.596
   16        0.523   0.306   8.773   9.602
   17        0.515   0.308   8.773   9.596
   18        0.515   0.308   8.773   9.596
   19        0.523   0.295   8.772   9.590
   20        0.563   0.329   8.744   9.636
   21        0.563   0.329   8.744   9.636
   22        0.511   0.304   8.773   9.588
   23        0.562   0.330   8.744   9.636
   24        0.512   0.304   8.772   9.588
   25        0.522   0.296   8.772   9.590
   26        0.522   0.296   8.772   9.590
   27        0.511   0.304   8.772   9.588
   28        0.544   0.236   8.753   9.532
   29        0.592   0.241   8.742   9.575
   30        0.593   0.242   8.742   9.576
   31        0.593   0.241   8.742   9.575
   32        0.595   0.243   8.740   9.579
   33        0.592   0.241   8.742   9.575
   34        0.593   0.242   8.742   9.576
   35        0.541   0.237   8.752   9.531
   36        2.194   6.011   1.521   9.727
   37        1.575   3.387   0.000   4.963
   38        1.588   3.399   0.000   4.987
   39        0.613   0.112   0.000   0.725
tot         24.962  22.547 308.198 355.706

 BZINTS: Fermi energy:    0.138465;  410.000000 electrons
         Band energy:-0.180959E+04;  BLOECHL correction:   -0.061911