 vasp.6.2.0 18Jan21 (build Jun 12 2021 23:27:24) complex

 executed on             LinuxIFC date 2022.05.28  02:10:00

 INCAR:
   ISMEAR = -5
   SIGMA = 0.1
   ISPIN = 1
   EDIFF = 1.d-5
   EDIFFG = -0.01
   NSW = 0
   NELM = 150
   ENCUT = 500
   ISIF = 2
   IBRION = 2
   LREAL = Auto
   ALGO = Fast
   ICHARG = 11
   LORBIT = 10
   LCHARG = .F.
   LWAVE = .F.

 POTCAR:    PAW_PBE Ag 02Apr2005
 POTCAR:    PAW_PBE Ir 06Sep2000
 POTCAR:    PAW_PBE O 08Apr2002
 POTCAR:    PAW_PBE H 15Jun2001
|           W    W    AA    RRRRR   N    N  II  N    N   GGGG   !!!           |
|           W    W   A  A   R    R  NN   N  II  NN   N  G    G  !!!           |
|           W    W  A    A  R    R  N N  N  II  N N  N  G       !!!           |
|           W WW W  AAAAAA  RRRRR   N  N N  II  N  N N  G  GGG   !            |
|           WW  WW  A    A  R   R   N   NN  II  N   NN  G    G                |
|           W    W  A    A  R    R  N    N  II  N    N   GGGG   !!!           |
|     For optimal performance we recommend to set                             |
|       NCORE = 2 up to number-of-cores-per-socket                            |
|     This setting can greatly improve the performance of VASP for DFT.       |
|     The default, NCORE=1 might be grossly inefficient on modern             |
|     multi-core architectures or massively parallel machines. Do your        |
|     Unfortunately you need to use the default for GW and RPA                |
|     calculations (for HF NCORE is supported but not extensively tested      |
|     yet).                                                                   |

 POTCAR:    PAW_PBE Ag 02Apr2005
   VRHFIN =Ag : s1 d10

   TITEL  = PAW_PBE Ag 02Apr2005
   POMASS =  107.868; ZVAL   =   11.000    mass and valenz
   ENMAX  =  249.844; ENMIN  =  187.383 eV

 POTCAR:    PAW_PBE Ir 06Sep2000
   VRHFIN =Ir: s1d8

   TITEL  = PAW_PBE Ir 06Sep2000
   POMASS =  192.220; ZVAL   =    9.000    mass and valenz
   ENMAX  =  210.864; ENMIN  =  158.148 eV

 POTCAR:    PAW_PBE O 08Apr2002
   VRHFIN =O: s2p4

   TITEL  = PAW_PBE O 08Apr2002
   POMASS =   16.000; ZVAL   =    6.000    mass and valenz
   ENMAX  =  400.000; ENMIN  =  300.000 eV

 POTCAR:    PAW_PBE H 15Jun2001
   VRHFIN =H: ultrasoft test

   TITEL  = PAW_PBE H 15Jun2001
   POMASS =    1.000; ZVAL   =    1.000    mass and valenz
   ENMAX  =  250.000; ENMIN  =  200.000 eV

 Optimization of the real space projectors (new method)

 maximal supplied QI-value         = 15.12
 optimisation between [QCUT,QGAM] = [ 11.34, 22.83] = [ 36.00,145.93] Ry
 Optimized for a Real-space Cutoff    1.43 Angstroem

   l    n(q)    QCUT    max X(q) W(low)/X(q) W(high)/X(q)  e(spline)
   2      9    11.338    53.897    0.16E-03    0.20E-03    0.28E-06
   2      9    11.338    52.416    0.16E-03    0.20E-03    0.29E-06
   0     10    11.338   122.045    0.31E-04    0.76E-04    0.15E-06
   0     10    11.338    73.629    0.30E-04    0.72E-04    0.15E-06
   1      9    11.338    15.255    0.20E-03    0.19E-04    0.17E-06
   1      9    11.338     9.562    0.16E-03    0.15E-04    0.14E-06
 Optimization of the real space projectors (new method)

[...]

   l    n(q)    QCUT    max X(q) W(low)/X(q) W(high)/X(q)  e(spline)
   0      7    11.387    20.381    0.39E-03    0.13E-02    0.15E-06
   0      7    11.387    15.268    0.42E-03    0.14E-02    0.17E-06
   1      6    11.387     5.964    0.41E-03    0.11E-02    0.17E-06
   1      6    11.387     5.382    0.39E-03    0.87E-03    0.15E-06
 Optimization of the real space projectors (new method)

 maximal supplied QI-value         = 34.20
 optimisation between [QCUT,QGAM] = [ 11.29, 22.57] = [ 35.68,142.71] Ry
 Optimized for a Real-space Cutoff    1.16 Angstroem

   l    n(q)    QCUT    max X(q) W(low)/X(q) W(high)/X(q)  e(spline)
   0      8    11.287    19.460    0.40E-03    0.73E-03    0.16E-06
   0      8    11.287    12.209    0.38E-03    0.70E-03    0.15E-06
   1      7    11.287     4.655    0.22E-03    0.25E-04    0.22E-06
  PAW_PBE Ag 02Apr2005                  :
  PAW_PBE Ir 06Sep2000                  :
  PAW_PBE O 08Apr2002                   :
  PAW_PBE H 15Jun2001                   :

 POSCAR: Ag-Ir-OOH
  positions in direct lattice
  velocities in cartesian coordinates
 exchange correlation table for  LEXCH =        8
   RHO(1)=    0.500       N(1)  =     2000
   RHO(2)=  100.500       N(2)  =     4000

 VTST: version 3.2, (02/03/18)

 CHAIN: initializing optimizer

 OPT: Using VASP Conjugate-Gradient optimizer
 CHAIN: Read ICHAIN            0

 POSCAR: Ag-Ir-OOH
  positions in direct lattice
  velocities in cartesian coordinates

 ion  position               nearest neighbor table
   1  0.000  0.000  0.204-   2 2.93   8 2.93   7 2.93   6 2.93   4 2.93  12 2.93  16 2.93  10 2.93
                             3 2.93
   2  0.333  0.000  0.204-   1 2.93   8 2.93   9 2.93   3 2.93   4 2.93   5 2.93  10 2.93  17 2.93
                            11 2.93
   3  0.667  0.000  0.204-   9 2.93   2 2.93   5 2.93  11 2.93   7 2.93  18 2.93   1 2.93   6 2.93
                            12 2.93
   4  0.000  0.333  0.204-   5 2.93   6 2.93   2 2.93   1 2.93   7 2.93  13 2.93  15 2.93   9 2.93
                            10 2.93
   5  0.333  0.333  0.204-   4 2.93   3 2.93   7 2.93   2 2.93   8 2.93  14 2.93  13 2.93  11 2.93
                             6 2.93
   6  0.667  0.333  0.204-   4 2.93   9 2.93   1 2.93  15 2.93   8 2.93  12 2.93   3 2.93   5 2.93
                            14 2.93
   7  0.000  0.667  0.204-   8 2.93   1 2.93   5 2.93   3 2.93   4 2.93  16 2.93  18 2.93  13 2.93
                             9 2.93
   8  0.333  0.667  0.204-   7 2.93   1 2.93   2 2.93   9 2.93   5 2.93  16 2.93   6 2.93  17 2.93
                            14 2.93
   9  0.667  0.667  0.204-   3 2.93   2 2.93   8 2.93   6 2.93  17 2.93   4 2.93  15 2.93   7 2.93
                            18 2.93
  10  0.111  0.111  0.296-  20 2.89  12 2.93  16 2.93  15 2.93  17 2.93  13 2.93  11 2.93   2 2.93
                             1 2.93   4 2.93  19 2.93  26 2.93
  11  0.444  0.111  0.296-  21 2.90  20 2.90  27 2.92  14 2.93  17 2.93  18 2.93   3 2.93  12 2.93
                            13 2.93  10 2.93   5 2.93   2 2.93
  12  0.778  0.111  0.296-  21 2.89  10 2.93  16 2.93  18 2.93  15 2.93  11 2.93   1 2.93  14 2.93
                             6 2.93   3 2.93  25 2.93  19 2.93
  13  0.111  0.444  0.296-  20 2.90  23 2.90  22 2.92  15 2.93  14 2.93  18 2.93  10 2.93  11 2.93
                            16 2.93   4 2.93   5 2.93   7 2.93
  14  0.444  0.444  0.296-  23 2.90  21 2.90  24 2.92  13 2.93  11 2.93  16 2.93   5 2.93  12 2.93
                            17 2.93   8 2.93  15 2.93   6 2.93
  15  0.778  0.444  0.296-  24 2.92  22 2.92  19 2.93  13 2.93  10 2.93  12 2.93  17 2.93  18 2.93
                             4 2.93   6 2.93   9 2.93  14 2.93
  16  0.111  0.778  0.296-  23 2.89  18 2.93  12 2.93  10 2.93  14 2.93  17 2.93  13 2.93   7 2.93
                             8 2.93   1 2.93  26 2.93  25 2.93
  17  0.444  0.778  0.296-  27 2.92  24 2.92  26 2.93  11 2.93  10 2.93   9 2.93  18 2.93  15 2.93
                            16 2.93   2 2.93  14 2.93   8 2.93
  18  0.778  0.778  0.296-  22 2.92  27 2.92  25 2.93  16 2.93  12 2.93  13 2.93  11 2.93  17 2.93
                            15 2.93   7 2.93   3 2.93   9 2.93
  19  0.888  0.223  0.389-  28 2.90  24 2.92  22 2.92  15 2.93  20 2.93  21 2.93  10 2.93  12 2.93
                            32 2.94  31 2.94  26 2.94  25 2.94
  20  0.222  0.222  0.387-  36 2.77  10 2.89  13 2.90  11 2.90  31 2.92  29 2.92  19 2.93  26 2.93
                            27 2.93  22 2.93  21 2.94  23 2.94
  21  0.556  0.222  0.387-  36 2.77  12 2.89  11 2.90  14 2.90  30 2.92  32 2.92  25 2.93  19 2.93
                            27 2.93  24 2.93  20 2.94  23 2.94
  22  0.888  0.556  0.388-  35 2.90  18 2.92  15 2.92  13 2.92  24 2.92  27 2.92  25 2.92  19 2.92
                            33 2.93  31 2.93  23 2.93  20 2.93
  23  0.222  0.556  0.387-  36 2.77  16 2.89  14 2.90  13 2.90  34 2.92  33 2.92  26 2.93  25 2.93
                            22 2.93  24 2.93  21 2.94  20 2.94
  24  0.556  0.556  0.388-  35 2.90  15 2.92  17 2.92  14 2.92  27 2.92  22 2.92  19 2.92  26 2.92
                            32 2.93  34 2.93  23 2.93  21 2.93
  25  0.888  0.888  0.389-  28 2.90  22 2.92  27 2.92  18 2.93  23 2.93  21 2.93  16 2.93  12 2.93
                            33 2.94  30 2.94  26 2.94  19 2.94
  26  0.223  0.888  0.389-  28 2.90  27 2.92  24 2.92  17 2.93  23 2.93  20 2.93  16 2.93  10 2.93
                            34 2.94  29 2.94  25 2.94  19 2.94
  27  0.556  0.888  0.388-  35 2.90  17 2.92  18 2.92  11 2.92  24 2.92  22 2.92  26 2.92  25 2.92
                            29 2.93  30 2.93  20 2.93  21 2.93
  28  0.000  0.000  0.479-  38 2.29  26 2.90  25 2.90  19 2.90  29 2.96  34 2.96  33 2.96  32 2.96
                            31 2.96  30 2.96
  29  0.333  0.007  0.480-  37 2.30  31 2.87  30 2.88  36 2.88  20 2.92  27 2.93  26 2.94  28 2.96
                            35 2.96  34 3.04
  30  0.660  0.007  0.480-  37 2.36  32 2.87  29 2.88  36 2.88  21 2.92  27 2.93  25 2.94  28 2.96
                            35 2.96  33 3.04
  31  0.007  0.333  0.480-  38 2.29  29 2.87  33 2.88  36 2.88  20 2.92  22 2.93  19 2.94  28 2.96
                            35 2.96  32 3.04
  32  0.660  0.333  0.480-  38 2.30  30 2.87  34 2.88  36 2.88  21 2.92  24 2.93  19 2.94  28 2.96
                            35 2.96  31 3.04
  33  0.007  0.660  0.480-  34 2.87  31 2.88  36 2.88  23 2.92  22 2.93  25 2.94  28 2.96  35 2.96
                            30 3.04
  34  0.333  0.660  0.480-  33 2.87  32 2.88  36 2.88  23 2.92  24 2.93  26 2.94  28 2.96  35 2.96
                            29 3.04
  35  0.667  0.667  0.479-  24 2.90  27 2.90  22 2.90  30 2.96  32 2.96  29 2.96  34 2.96  31 2.96
                            33 2.96
  36  0.333  0.333  0.471-  37 1.86  21 2.77  20 2.77  23 2.77  31 2.88  30 2.88  33 2.88  29 2.88
                            34 2.88  32 2.88
  37  0.403  0.184  0.528-  36 1.86  29 2.30  30 2.36
  38  0.889  0.225  0.538-  39 0.97  31 2.29  28 2.29  32 2.30
  39  0.895  0.217  0.576-  38 0.97

  LATTYP: Found a hexagonal cell.
 ALAT       =     8.7913665772
 C/A-ratio  =     2.9469639759

  Lattice vectors:

 A1 = (  -4.3956832886,  -7.6135467898,   0.0000000000)
 A2 = (   8.7913665771,   0.0000000000,   0.0000000000)
 A3 = (   0.0000000000,   0.0000000000,  25.9078406020)

Analysis of symmetry for initial positions (statically):
 Subroutine PRICEL returns:
 Original cell was already a primitive cell.

 Routine SETGRP: Setting up the symmetry group for a
 hexagonal supercell.

 Subroutine GETGRP returns: Found  1 space group operations
 (whereof  1 operations were pure point group operations)
 out of a pool of 24 trial point group operations.

The static configuration has the point symmetry C_1 .

Analysis of symmetry for dynamics (positions and initial velocities):
 Subroutine PRICEL returns:
 Original cell was already a primitive cell.

[...]

The dynamic configuration has the point symmetry C_1 .

[...]
     41      -5.0736      2.00000
     42      -5.0440      2.00000
     43      -5.0327      2.00000
     44      -5.0203      2.00000
     45      -5.0058      2.00000
     46      -4.9974      2.00000
     47      -4.9470      2.00000
     48      -4.9264      2.00000
     49      -4.8946      2.00000
     50      -4.8846      2.00000
     51      -4.8671      2.00000
     52      -4.8635      2.00000
     53      -4.8526      2.00000
     54      -4.8467      2.00000
     55      -4.8364      2.00000
     56      -4.8257      2.00000
     57      -4.8088      2.00000
     58      -4.7615      2.00000
     59      -4.7444      2.00000
     60      -4.7390      2.00000
[...]
    238       5.2416      0.00000
    239       5.2940      0.00000
    240       5.5383      0.00000
    241       5.7443      0.00000
    242       5.8284      0.00000
    243       5.9060      0.00000
    244       5.9698      0.00000
    245       5.9980      0.00000
    246       6.0933      0.00000
    247       6.2333      0.00000
    248       6.2496      0.00000
    249       6.2999      0.00000
    250       6.4669      0.00000
    251       6.5620      0.00000
    252       6.5839      0.00000

 soft charge-density along one line, spin component           1
         0         1         2         3         4         5         6         7         8         9
 total charge-density along one line

------------------------ aborting loop because EDIFF is reached ----------------------------------------

 total charge

# of ion       s       p       d       tot
    1        0.418   0.203   9.178   9.799
    2        0.417   0.203   9.177   9.797
    3        0.417   0.203   9.177   9.797
    4        0.418   0.202   9.177   9.798
    5        0.415   0.205   9.176   9.795
    6        0.418   0.203   9.177   9.798
    7        0.416   0.204   9.177   9.797
    8        0.416   0.204   9.177   9.797
    9        0.415   0.202   9.178   9.795
   10        0.406   0.270   9.163   9.839
   11        0.407   0.270   9.166   9.842
   12        0.406   0.269   9.164   9.839
   13        0.404   0.271   9.167   9.842
   14        0.403   0.271   9.167   9.841
   15        0.407   0.266   9.167   9.841
   16        0.416   0.267   9.160   9.843
   17        0.403   0.269   9.165   9.837
   18        0.403   0.269   9.165   9.837
   19        0.408   0.265   9.166   9.839
   20        0.409   0.306   9.151   9.866
   21        0.409   0.306   9.151   9.866
   22        0.395   0.275   9.166   9.836
   23        0.443   0.286   9.149   9.877
   24        0.395   0.275   9.166   9.836
   25        0.399   0.274   9.159   9.833
   26        0.400   0.274   9.159   9.833
   27        0.401   0.268   9.171   9.840
   28        0.374   0.229   9.193   9.796
   29        0.377   0.237   9.183   9.797
   30        0.375   0.230   9.187   9.792
   31        0.363   0.239   9.199   9.800
   32        0.362   0.237   9.199   9.798
   33        0.404   0.220   9.172   9.796
   34        0.404   0.220   9.172   9.796
   35        0.411   0.190   9.191   9.793
   36        0.651   0.499   7.014   8.164
   37        1.595   3.271   0.000   4.866
   38        1.556   3.493   0.000   5.048
   39        0.617   0.120   0.000   0.737
tot         18.551  15.963 328.028 362.542

  FORCE on cell =-STRESS in cart. coord.  units (eV):
  Direction    XX          YY          ZZ          XY          YZ          ZX
  Alpha Z   676.37622   676.37622   676.37622
  Ewald  180940.17020180822.43824************     6.09393   -25.42701     0.87003
  Hartree191001.48674190853.67034************     1.61994    17.88675     0.63352
  E(xc)   -2133.85187 -2133.52655 -2137.78731     0.03504    -0.27244    -0.00272
  Local  ************************383167.83307    -7.02913    -4.76782    -1.33286
  n-local  -382.90976  -379.84896  -386.47365     0.05630    -1.87634    -0.06744
  augment  3275.66321  3272.45982  3279.46871    -0.14270     3.14063     0.07452
  Kinetic  5169.40952  5160.76577  5160.00474    -0.52307    10.69235    -0.14446
  Fock        0.00000     0.00000     0.00000     0.00000     0.00000     0.00000
  Total      -5.44818    -4.87195    -0.09761     0.11030    -0.62387     0.03059
  in kB      -5.03370    -4.50131    -0.09018     0.10191    -0.57641     0.02826

 VOLUME and BASIS-vectors are now :
  energy-cutoff  :      500.00
  volume of cell :     1734.10
      direct lattice vectors                 reciprocal lattice vectors
     8.791366577  0.000000000  0.000000000     0.113747958 -0.065672414  0.000000000
     4.395683289  7.613546790  0.000000000     0.000000000  0.131344829  0.000000000
     0.000000000  0.000000000 25.907840602     0.000000000  0.000000000  0.038598354

  length of vectors
     8.791366577  8.791366577 25.907840602     0.131344829  0.131344829  0.038598354

 FORCES acting on ions
    electron-ion (+dipol)            ewald-force                    non-local-force                 convergence-correction
   0.781E-02 0.233E-01 0.283E+04   -.985E-02 -.311E+00 -.283E+04   0.130E-02 0.187E+00 -.191E+01   0.834E-03 0.772E-01 -.412E-01
   0.468E+00 0.803E+00 0.283E+04   -.534E+00 -.729E+00 -.283E+04   0.861E-02 -.434E-01 -.187E+01   0.597E-01 -.842E-02 -.105E+00
   -.480E+00 0.784E+00 0.283E+04   0.544E+00 -.722E+00 -.283E+04   -.738E-02 -.361E-01 -.187E+01   -.581E-01 -.326E-02 -.103E+00
   0.636E+00 -.688E-01 0.283E+04   -.630E+00 0.813E-02 -.283E+04   -.351E-01 -.937E-02 -.147E+01   0.262E-01 0.691E-01 -.911E-01
   -.174E-01 -.401E+00 0.284E+04   0.109E-01 0.266E+00 -.283E+04   -.507E-03 0.148E+00 -.170E+01   0.722E-02 -.225E-01 -.938E-01
   -.618E+00 -.750E-01 0.283E+04   0.619E+00 0.279E-02 -.283E+04   0.306E-01 -.103E-01 -.147E+01   -.285E-01 0.817E-01 -.863E-01
   0.365E+00 -.458E+00 0.283E+04   -.902E-01 0.725E+00 -.283E+04   -.985E-01 -.178E+00 -.155E+01   -.142E+00 -.854E-01 -.104E+00
   -.376E+00 -.437E+00 0.283E+04   0.910E-01 0.713E+00 -.283E+04   0.953E-01 -.178E+00 -.154E+01   0.154E+00 -.946E-01 -.944E-01
   0.156E-01 -.166E+00 0.283E+04   -.756E-03 0.479E-01 -.283E+04   0.510E-02 0.120E+00 -.185E+01   -.201E-01 -.193E-01 -.115E+00
   0.612E+01 0.487E+01 0.102E+04   -.594E+01 -.460E+01 -.102E+04   -.210E+00 -.301E+00 -.754E+00   0.449E-01 0.179E-01 0.130E+00
   -.102E+00 0.539E+01 0.102E+04   0.868E-01 -.539E+01 -.102E+04   0.557E-02 0.525E-02 -.729E+00   0.970E-02 -.252E-01 0.877E-01
   -.602E+01 0.484E+01 0.102E+04   0.585E+01 -.457E+01 -.102E+04   0.199E+00 -.308E+00 -.758E+00   -.503E-01 0.273E-01 0.136E+00
   0.346E+01 -.453E+01 0.102E+04   -.367E+01 0.456E+01 -.102E+04   0.156E+00 0.125E-01 -.277E+00   -.580E-02 -.101E-01 0.573E-01
   -.354E+01 -.449E+01 0.102E+04   0.373E+01 0.449E+01 -.102E+04   -.161E+00 0.152E-01 -.257E+00   0.323E-01 0.749E-02 0.588E-01
   0.632E-01 -.289E+00 0.102E+04   -.573E-01 0.329E+00 -.102E+04   0.654E-02 -.679E-01 -.615E+00   -.126E-01 0.184E-01 0.766E-01
   0.113E-01 -.572E+01 0.101E+04   -.211E-01 0.560E+01 -.101E+04   -.337E-02 0.163E+00 -.110E+01   0.124E-01 -.235E-01 0.135E+00
   0.152E+01 0.124E-01 0.101E+04   -.183E+01 -.252E+00 -.101E+04   0.244E+00 0.236E+00 -.693E+00   0.398E-01 -.574E-02 0.100E+00
   -.152E+01 -.756E-01 0.101E+04   0.185E+01 -.172E+00 -.101E+04   -.245E+00 0.227E+00 -.698E+00   -.508E-01 0.967E-02 0.993E-01
   0.601E+00 0.212E+01 -.815E+03   -.564E+00 -.195E+01 0.815E+03   -.149E-01 -.161E+00 -.204E+00   -.198E-01 -.212E-01 0.113E+00
   0.103E+02 0.951E+00 -.783E+03   -.979E+01 -.259E+00 0.784E+03   -.579E+00 -.560E+00 -.552E+00   -.162E-01 -.660E-01 0.898E-01
   -.109E+02 0.108E+01 -.785E+03   0.103E+02 -.372E+00 0.785E+03   0.602E+00 -.592E+00 -.552E+00   0.262E-01 -.510E-01 0.933E-01
   -.247E+01 -.119E+02 -.831E+03   0.207E+01 0.117E+02 0.831E+03   0.406E+00 0.968E-01 0.470E+00   -.434E-02 0.247E-01 0.721E-01
   -.216E+00 -.214E+02 -.810E+03   0.236E+00 0.200E+02 0.811E+03   -.290E-01 0.141E+01 -.129E+01   0.103E-01 0.547E-01 0.596E-01
   0.269E+01 -.114E+02 -.831E+03   -.231E+01 0.112E+02 0.831E+03   -.376E+00 0.103E+00 0.481E+00   -.191E-01 0.215E-01 0.698E-01
   -.329E+01 0.130E+02 -.842E+03   0.321E+01 -.125E+02 0.842E+03   0.158E+00 -.391E+00 0.349E-01   -.414E-01 0.137E-01 0.805E-01
   0.367E+01 0.135E+02 -.842E+03   -.357E+01 -.130E+02 0.842E+03   -.170E+00 -.420E+00 0.122E-02   0.372E-01 0.228E-02 0.802E-01
   -.360E+00 0.152E+02 -.825E+03   0.364E+00 -.155E+02 0.824E+03   0.904E-02 0.308E+00 0.829E+00   -.154E-01 0.221E-01 0.831E-01
   0.203E+01 0.137E+03 -.260E+04   -.204E+01 -.139E+03 0.260E+04   0.781E-02 0.947E+00 0.193E+01   -.163E-02 0.777E-01 0.477E-01
   0.616E+02 0.119E+03 -.264E+04   -.624E+02 -.120E+03 0.264E+04   0.450E+00 0.720E+00 0.219E+01   -.438E-02 -.233E-01 0.595E-01
   -.603E+02 0.111E+03 -.265E+04   0.613E+02 -.112E+03 0.264E+04   -.631E+00 0.773E+00 0.243E+01   0.914E-02 -.152E-01 0.563E-01
   -.568E+02 -.857E+02 -.260E+04   0.581E+02 0.868E+02 0.260E+04   -.111E+01 -.776E+00 0.180E+01   -.459E-01 -.432E-01 0.777E-01
   0.598E+02 -.826E+02 -.261E+04   -.613E+02 0.837E+02 0.261E+04   0.129E+01 -.768E+00 0.188E+01   0.339E-01 -.306E-01 0.722E-01
   0.210E+01 -.226E+02 -.272E+04   -.173E+01 0.218E+02 0.272E+04   -.368E+00 0.820E+00 0.184E+01   -.236E-01 0.208E-01 0.106E+00
   -.222E+01 -.206E+02 -.272E+04   0.182E+01 0.198E+02 0.272E+04   0.391E+00 0.857E+00 0.186E+01   0.400E-01 0.610E-02 0.107E+00
   0.100E+00 -.183E+02 -.270E+04   -.544E-01 0.188E+02 0.269E+04   -.193E-01 -.466E+00 0.243E+01   -.236E-01 0.297E-01 0.335E-01
   -.562E+01 -.135E+03 -.197E+04   0.562E+01 0.136E+03 0.197E+04   0.242E-01 -.502E+00 0.615E+00   0.148E-01 -.327E-01 0.780E-01
   -.308E+01 -.712E+01 -.188E+04   0.298E+01 -.441E+00 0.191E+04   0.100E+00 0.760E+01 -.267E+02   -.226E-02 -.605E-01 0.717E-01
   0.290E+01 -.801E+01 -.182E+04   -.383E+01 0.111E+02 0.180E+04   0.929E+00 -.302E+01 0.262E+02   -.778E-02 -.286E-01 -.269E-01
   -.147E+01 0.489E+01 -.369E+03   0.163E+01 -.540E+01 0.377E+03   -.171E+00 0.513E+00 -.812E+01   -.534E-03 -.504E-03 -.393E-02
   -.912E+00 -.635E+01 0.120E+02   0.311E-13 0.101E-12 0.568E-13   0.893E+00 0.647E+01 -.135E+02   -.347E-01 -.887E-01 0.147E+01

 POSITION                                       TOTAL-FORCE (eV/Angst)
      0.00000      0.00000      5.28219         0.001450     -0.024729      0.006295
      2.93046      0.00000      5.28219         0.002957      0.021943      0.012990
      5.86091      0.00000      5.28219         0.000023      0.022212      0.013008
      1.46523      2.53785      5.28219        -0.001838     -0.001645      0.018980
      4.39568      2.53785      5.28219         0.001539     -0.009943      0.018409
      7.32614      2.53785      5.28219         0.003996     -0.001403      0.021037
      2.93046      5.07570      5.28219         0.036337      0.002616      0.026629
      5.86091      5.07570      5.28219        -0.033553      0.001902      0.026328
      8.79137      5.07570      5.28219         0.001155     -0.018114      0.024488
      1.46523      0.84595      7.67490         0.015939     -0.008408     -0.001093
      4.39568      0.84595      7.67490         0.001870     -0.017037     -0.106498
      7.32614      0.84595      7.67490        -0.013669     -0.008599     -0.002454
      2.93046      3.38380      7.67490        -0.057822      0.025506     -0.074978
      5.86091      3.38380      7.67490         0.061237      0.025720     -0.071396
      8.79137      3.38380      7.67490         0.001257     -0.009698     -0.024252
      4.39568      5.92165      7.67490         0.000590      0.020193     -0.050300
      7.32614      5.92165      7.67490        -0.028184     -0.010100      0.005138
     10.25659      5.92165      7.67490         0.031901     -0.011229      0.008511
      8.79137      1.70006     10.06849         0.003519     -0.007319     -0.102182
      2.92657      1.68966     10.02287        -0.033233      0.065084     -0.024501
      5.86479      1.68966     10.02287         0.036784      0.067879     -0.016769
     10.25237      4.23218     10.05185         0.002369     -0.080943      0.035038
      4.39568      4.23423     10.02287         0.002485      0.086745     -0.168692
      7.33036      4.23218     10.05185        -0.007157     -0.079802      0.034677
     11.71475      6.76352     10.06849         0.038740      0.057969      0.110219
      5.86798      6.76352     10.06849        -0.031854      0.056041      0.117120
      8.79137      6.76272     10.05185        -0.000226     -0.007968     -0.051729
      0.00000      0.00000     12.42216        -0.004429     -0.467094      0.017406
      2.95716      0.04978     12.43839        -0.426508     -0.623936     -0.068274
      5.83420      0.04978     12.43839         0.373069     -0.555725     -0.033582
      1.52169      2.53609     12.43839         0.165669      0.324652     -0.000729
      7.26967      2.53609     12.43839        -0.178869      0.309143      0.015781
      2.96021      5.02768     12.43839        -0.027145      0.073250     -0.166627
      5.83115      5.02768     12.43839         0.030765      0.067910     -0.170022
      8.79137      5.07570     12.41166         0.003996      0.086974     -0.042971
      4.39568      2.53785     12.21369         0.040302      0.652755      0.652559
      4.34948      1.40184     13.67975         0.000517     -0.025982      0.015558
      8.80025      1.71159     13.94078        -0.009323     -0.002416     -0.009475
      8.82076      1.64904     14.91136        -0.004657      0.003596      0.006351
    total drift:                               -0.053057      0.023971      0.035503

  FREE ENERGIE OF THE ION-ELECTRON SYSTEM (eV)
  free  energy   TOTEN  =      -112.62080772 eV

  energy  without entropy=     -112.62080772  energy(sigma->0) =     -112.62080772

 stress matrix after NEB project (eV)
     -5.44818      0.11030      0.03059
      0.11030     -4.87195     -0.62387
      0.03059     -0.62387     -0.09761
  FORCES: max atom, RMS     0.030288    0.005489
  FORCE total and by dimension    0.034276    0.025982
  Stress total and by dimension    7.364286    5.448176
|           W    W    AA    RRRRR   N    N  II  N    N   GGGG   !!!           |
|           W    W   A  A   R    R  NN   N  II  NN   N  G    G  !!!           |
|           W    W  A    A  R    R  N N  N  II  N N  N  G       !!!           |
|           W WW W  AAAAAA  RRRRR   N  N N  II  N  N N  G  GGG   !            |
|           WW  WW  A    A  R   R   N   NN  II  N   NN  G    G                |
|           W    W  A    A  R    R  N    N  II  N    N   GGGG   !!!           |
|     Tetrahedron method does not include variations of the Fermi             |
|     occupations, so forces and stress will be inaccurate. We suggest        |
|     using a different smearing scheme ISMEAR = 1 or 2 for metals in         |
|     relaxations.                                                            |

 total charge

# of ion       s       p       d       tot
    1        0.418   0.203   9.178   9.799
    2        0.417   0.203   9.177   9.797
    3        0.417   0.203   9.177   9.797
    4        0.418   0.202   9.177   9.798
    5        0.415   0.205   9.176   9.795
    6        0.418   0.203   9.177   9.798
    7        0.416   0.204   9.177   9.797
    8        0.416   0.204   9.177   9.797
    9        0.415   0.202   9.178   9.795
   10        0.406   0.270   9.163   9.839
   11        0.407   0.270   9.166   9.842
   12        0.406   0.269   9.164   9.839
   13        0.404   0.271   9.167   9.842
   14        0.403   0.271   9.167   9.841
   15        0.407   0.266   9.167   9.841
   16        0.416   0.267   9.160   9.843
   17        0.403   0.269   9.165   9.837
   18        0.403   0.269   9.165   9.837
   19        0.408   0.265   9.166   9.839
   20        0.409   0.306   9.151   9.866
   21        0.409   0.306   9.151   9.866
   22        0.395   0.275   9.166   9.836
   23        0.443   0.286   9.149   9.877
   24        0.395   0.275   9.166   9.836
   25        0.399   0.274   9.159   9.833
   26        0.400   0.274   9.159   9.833
   27        0.401   0.268   9.171   9.840
   28        0.374   0.229   9.193   9.796
   29        0.377   0.237   9.183   9.797
   30        0.375   0.230   9.187   9.792
   31        0.363   0.239   9.199   9.800
   32        0.362   0.237   9.199   9.798
   33        0.404   0.220   9.172   9.796
   34        0.404   0.220   9.172   9.796
   35        0.411   0.190   9.191   9.793
   36        0.651   0.499   7.014   8.164
   37        1.595   3.271   0.000   4.866
   38        1.556   3.493   0.000   5.048
   39        0.617   0.120   0.000   0.737
tot         18.551  15.963 328.028 362.542

 BZINTS: Fermi energy:    0.124248;  407.000000 electrons
         Band energy:-0.166209E+04;  BLOECHL correction:   -0.036851