 vasp.6.2.0 18Jan21 (build Jun 12 2021 23:27:24) complex

 executed on             LinuxIFC date 2022.05.28  02:38:09

 INCAR:
   ISMEAR = -5
   SIGMA = 0.1
   ISPIN = 1
   EDIFF = 1.d-5
   EDIFFG = -0.01
   NSW = 0
   NELM = 150
   ENCUT = 500
   ISIF = 2
   IBRION = 2
   LREAL = Auto
   ALGO = Fast
   ICHARG = 11
   LORBIT = 10
   LCHARG = .F.
   LWAVE = .F.

 POTCAR:    PAW_PBE Cu 22Jun2005
 POTCAR:    PAW_PBE Rh 04Feb2005
 POTCAR:    PAW_PBE H 15Jun2001
 POTCAR:    PAW_PBE O 08Apr2002
|           W    W    AA    RRRRR   N    N  II  N    N   GGGG   !!!           |
|           W    W   A  A   R    R  NN   N  II  NN   N  G    G  !!!           |
|           W    W  A    A  R    R  N N  N  II  N N  N  G       !!!           |
|           W WW W  AAAAAA  RRRRR   N  N N  II  N  N N  G  GGG   !            |
|           WW  WW  A    A  R   R   N   NN  II  N   NN  G    G                |
|           W    W  A    A  R    R  N    N  II  N    N   GGGG   !!!           |
|     For optimal performance we recommend to set                             |
|       NCORE = 2 up to number-of-cores-per-socket                            |
|     This setting can greatly improve the performance of VASP for DFT.       |
|     The default, NCORE=1 might be grossly inefficient on modern             |
|     multi-core architectures or massively parallel machines. Do your        |
|     Unfortunately you need to use the default for GW and RPA                |
|     calculations (for HF NCORE is supported but not extensively tested      |
|     yet).                                                                   |

 POTCAR:    PAW_PBE Cu 22Jun2005
   VRHFIN =Cu: d10 p1

   TITEL  = PAW_PBE Cu 22Jun2005
   POMASS =   63.546; ZVAL   =   11.000    mass and valenz
   ENMAX  =  295.446; ENMIN  =  221.585 eV

 POTCAR:    PAW_PBE Rh 04Feb2005
   VRHFIN =Rh: s1 d8

   TITEL  = PAW_PBE Rh 04Feb2005
   POMASS =  102.906; ZVAL   =    9.000    mass and valenz
   ENMAX  =  228.996; ENMIN  =  171.747 eV

 POTCAR:    PAW_PBE H 15Jun2001
   VRHFIN =H: ultrasoft test

   TITEL  = PAW_PBE H 15Jun2001
   POMASS =    1.000; ZVAL   =    1.000    mass and valenz
   ENMAX  =  250.000; ENMIN  =  200.000 eV

 POTCAR:    PAW_PBE O 08Apr2002
   VRHFIN =O: s2p4

   TITEL  = PAW_PBE O 08Apr2002
   POMASS =   16.000; ZVAL   =    6.000    mass and valenz
   ENMAX  =  400.000; ENMIN  =  300.000 eV

 Optimization of the real space projectors (new method)

 maximal supplied QI-value         = 16.25
 optimisation between [QCUT,QGAM] = [ 11.38, 22.75] = [ 36.24,144.96] Ry
 Optimized for a Real-space Cutoff    1.52 Angstroem

   l    n(q)    QCUT    max X(q) W(low)/X(q) W(high)/X(q)  e(spline)
   2      9    11.376     4.610    0.21E-03    0.10E-03    0.26E-06
   2      9    11.376     8.522    0.33E-03    0.16E-03    0.37E-06
   0     10    11.376    51.609    0.62E-04    0.20E-04    0.13E-06
   0     10    11.376    27.747    0.54E-04    0.20E-04    0.13E-06
   1     10    11.376    20.408    0.13E-04    0.99E-04    0.19E-06
   1     10    11.376    13.425    0.12E-04    0.87E-04    0.17E-06
 Optimization of the real space projectors (new method)

[...]

   l    n(q)    QCUT    max X(q) W(low)/X(q) W(high)/X(q)  e(spline)
   0      8    11.287    19.460    0.40E-03    0.73E-03    0.16E-06
   0      8    11.287    12.209    0.38E-03    0.70E-03    0.15E-06
   1      7    11.287     4.655    0.22E-03    0.25E-04    0.22E-06
 Optimization of the real space projectors (new method)

 maximal supplied QI-value         = 24.76
 optimisation between [QCUT,QGAM] = [ 11.39, 22.77] = [ 36.31,145.25] Ry
 Optimized for a Real-space Cutoff    1.00 Angstroem

   l    n(q)    QCUT    max X(q) W(low)/X(q) W(high)/X(q)  e(spline)
   0      7    11.387    20.381    0.39E-03    0.13E-02    0.15E-06
   0      7    11.387    15.268    0.42E-03    0.14E-02    0.17E-06
   1      6    11.387     5.964    0.41E-03    0.11E-02    0.17E-06
   1      6    11.387     5.382    0.39E-03    0.87E-03    0.15E-06
  PAW_PBE Cu 22Jun2005                  :
  PAW_PBE Rh 04Feb2005                  :
  PAW_PBE H 15Jun2001                   :
  PAW_PBE O 08Apr2002                   :

 POSCAR: Cu-Rh-H2O
  positions in direct lattice
  velocities in cartesian coordinates
 exchange correlation table for  LEXCH =        8
   RHO(1)=    0.500       N(1)  =     2000
   RHO(2)=  100.500       N(2)  =     4000

 VTST: version 3.2, (02/03/18)

 CHAIN: initializing optimizer

 OPT: Using VASP Conjugate-Gradient optimizer
 CHAIN: Read ICHAIN            0

 POSCAR: Cu-Rh-H2O
  positions in direct lattice
  velocities in cartesian coordinates

 ion  position               nearest neighbor table
   1  0.000  0.000  0.221-   7 2.57   3 2.57   4 2.57   2 2.57   6 2.57   8 2.57  12 2.57  10 2.57
                            16 2.57
   2  0.333  0.000  0.221-   8 2.57   9 2.57   5 2.57   1 2.57   3 2.57  11 2.57   4 2.57  10 2.57
                            17 2.57
   3  0.667  0.000  0.221-   1 2.57   7 2.57   6 2.57   9 2.57   2 2.57  12 2.57   5 2.57  18 2.57
                            11 2.57
   4  0.000  0.333  0.221-   5 2.57   6 2.57   1 2.57   7 2.57   2 2.57  13 2.57   9 2.57  10 2.57
                            15 2.57
   5  0.333  0.333  0.221-   4 2.57   2 2.57   7 2.57  13 2.57   8 2.57   6 2.57   3 2.57  11 2.57
                            14 2.57
   6  0.667  0.333  0.221-   4 2.57   9 2.57  15 2.57   3 2.57   1 2.57   8 2.57  14 2.57   5 2.57
                            12 2.57
   7  0.000  0.667  0.221-   1 2.57   3 2.57  16 2.57  18 2.57   4 2.57   5 2.57   8 2.57   9 2.57
                            13 2.57
   8  0.333  0.667  0.221-   9 2.57   2 2.57  17 2.57   6 2.57   1 2.57   7 2.57   5 2.57  14 2.57
                            16 2.57
   9  0.667  0.667  0.221-   8 2.57   6 2.57   2 2.57  17 2.57   3 2.57   7 2.57   4 2.57  15 2.57
                            18 2.57
  10  0.111  0.111  0.308-  20 2.55  26 2.56  19 2.56  11 2.57  12 2.57  13 2.57   1 2.57   2 2.57
                             4 2.57  15 2.57  16 2.57  17 2.57
  11  0.444  0.111  0.308-  20 2.55  21 2.55  27 2.56  10 2.57  13 2.57   2 2.57  17 2.57  14 2.57
                            12 2.57   5 2.57   3 2.57  18 2.57
  12  0.778  0.111  0.308-  21 2.55  19 2.56  25 2.56  15 2.57  10 2.57  14 2.57  18 2.57   3 2.57
                             1 2.57  16 2.57  11 2.57   6 2.57
  13  0.111  0.444  0.308-  23 2.55  20 2.55  22 2.56  16 2.57  18 2.57  10 2.57  11 2.57  14 2.57
                             5 2.57   4 2.57   7 2.57  15 2.57
  14  0.444  0.444  0.308-  21 2.55  23 2.55  24 2.56  15 2.57  17 2.57  12 2.57  16 2.57  13 2.57
                            11 2.57   6 2.57   8 2.57   5 2.57
  15  0.778  0.444  0.308-  19 2.56  24 2.56  22 2.56  14 2.57  17 2.57  12 2.57   6 2.57  18 2.57
                            10 2.57   9 2.57  13 2.57   4 2.57
  16  0.111  0.778  0.308-  23 2.55  25 2.56  26 2.56  18 2.57  13 2.57   7 2.57  14 2.57  17 2.57
                            12 2.57  10 2.57   8 2.57   1 2.57
  17  0.444  0.778  0.308-  26 2.56  27 2.56  24 2.56  14 2.57  15 2.57   8 2.57   9 2.57  11 2.57
                            16 2.57  18 2.57  10 2.57   2 2.57
  18  0.778  0.778  0.308-  25 2.56  22 2.56  27 2.56  16 2.57  13 2.57   7 2.57  15 2.57  12 2.57
                            17 2.57   9 2.57   3 2.57  11 2.57
  19  0.889  0.223  0.394-  28 2.55  32 2.55  31 2.55  15 2.56  12 2.56  10 2.56  21 2.56  20 2.56
                            22 2.56  24 2.56  25 2.57  26 2.57
  20  0.222  0.222  0.393-  10 2.55  11 2.55  13 2.55  26 2.56  19 2.56  27 2.57  22 2.57  36 2.57
                            29 2.58  31 2.58  23 2.58  21 2.58
  21  0.557  0.222  0.393-  12 2.55  14 2.55  11 2.55  19 2.56  25 2.56  24 2.57  27 2.57  36 2.57
                            32 2.58  30 2.58  20 2.58  23 2.58
  22  0.889  0.556  0.394-  35 2.54  31 2.56  33 2.56  18 2.56  15 2.56  19 2.56  25 2.56  13 2.56
                            24 2.56  27 2.56  23 2.57  20 2.57
  23  0.222  0.557  0.393-  16 2.55  13 2.55  14 2.55  25 2.56  26 2.56  22 2.57  24 2.57  36 2.57
                            33 2.58  34 2.58  20 2.58  21 2.58
  24  0.556  0.556  0.394-  35 2.54  32 2.56  34 2.56  15 2.56  17 2.56  19 2.56  26 2.56  14 2.56
                            22 2.56  27 2.56  21 2.57  23 2.57
  25  0.889  0.889  0.394-  28 2.55  33 2.55  30 2.55  18 2.56  16 2.56  12 2.56  21 2.56  23 2.56
                            22 2.56  27 2.56  19 2.57  26 2.57
  26  0.223  0.889  0.394-  28 2.55  29 2.55  34 2.55  17 2.56  10 2.56  16 2.56  20 2.56  23 2.56
                            27 2.56  24 2.56  25 2.57  19 2.57
  27  0.556  0.889  0.394-  35 2.54  29 2.56  30 2.56  17 2.56  18 2.56  26 2.56  25 2.56  11 2.56
                            24 2.56  22 2.56  20 2.57  21 2.57
  28  0.000  0.000  0.479-  25 2.55  19 2.55  26 2.55  33 2.56  30 2.56  31 2.56  29 2.56  32 2.56
                            34 2.56
  29  0.333  0.998  0.480-  34 2.54  26 2.55  28 2.56  27 2.56  35 2.56  31 2.58  20 2.58  36 2.58
                            30 2.59
  30  0.669  0.998  0.480-  33 2.54  25 2.55  28 2.56  27 2.56  35 2.56  32 2.58  21 2.58  36 2.58
                            29 2.59
  31  0.998  0.333  0.480-  32 2.54  19 2.55  28 2.56  22 2.56  35 2.56  29 2.58  20 2.58  36 2.58
                            33 2.59
  32  0.669  0.333  0.480-  31 2.54  19 2.55  28 2.56  24 2.56  35 2.56  30 2.58  21 2.58  36 2.58
                            34 2.59
  33  0.998  0.669  0.480-  30 2.54  25 2.55  28 2.56  22 2.56  35 2.56  34 2.58  23 2.58  36 2.58
                            31 2.59
  34  0.333  0.669  0.480-  29 2.54  26 2.55  28 2.56  24 2.56  35 2.56  33 2.58  23 2.58  36 2.58
                            32 2.59
  35  0.667  0.667  0.479-  24 2.54  27 2.54  22 2.54  34 2.56  32 2.56  29 2.56  30 2.56  33 2.56
                            31 2.56
  36  0.333  0.333  0.479-  39 2.41  23 2.57  20 2.57  21 2.57  31 2.58  29 2.58  33 2.58  34 2.58
                            32 2.58  30 2.58
  37  0.231  0.334  0.602-  39 0.97
  38  0.436  0.334  0.602-  39 0.97
  39  0.334  0.333  0.579-  37 0.97  38 0.97  36 2.41

  LATTYP: Found a hexagonal cell.
 ALAT       =     7.6967864036
 C/A-ratio  =     3.1535378041

  Lattice vectors:

 A1 = (  -3.8483927580,  -6.6656128093,   0.0000000000)
 A2 = (   7.6967864037,   0.0000000000,   0.0000000000)
 A3 = (   0.0000000000,   0.0000000000,  24.2721068937)

Analysis of symmetry for initial positions (statically):
 Subroutine PRICEL returns:
 Original cell was already a primitive cell.

 Routine SETGRP: Setting up the symmetry group for a
 hexagonal supercell.

 Subroutine GETGRP returns: Found  1 space group operations
 (whereof  1 operations were pure point group operations)
 out of a pool of 24 trial point group operations.

The static configuration has the point symmetry C_1 .

Analysis of symmetry for dynamics (positions and initial velocities):
 Subroutine PRICEL returns:
 Original cell was already a primitive cell.

[...]

The dynamic configuration has the point symmetry C_1 .

Analysis of constrained symmetry for selective dynamics:
 Subroutine PRICEL returns:
[...]
     41      -3.7282      2.00000
     42      -3.7231      2.00000
     43      -3.6534      2.00000
     44      -3.6492      2.00000
     45      -3.6378      2.00000
     46      -3.6166      2.00000
     47      -3.6080      2.00000
     48      -3.6011      2.00000
     49      -3.5951      2.00000
     50      -3.3986      2.00000
     51      -3.3898      2.00000
     52      -3.3853      2.00000
     53      -3.3807      2.00000
     54      -3.3173      2.00000
     55      -3.3102      2.00000
     56      -3.3054      2.00000
     57      -3.2943      2.00000
     58      -3.2882      2.00000
     59      -3.2707      2.00000
     60      -3.2381      2.00000
[...]
    238       5.7457      0.00000
    239       5.8615      0.00000
    240       5.9311      0.00000
    241       5.9757      0.00000
    242       6.0636      0.00000
    243       6.0815      0.00000
    244       6.2784      0.00000
    245       6.3813      0.00000
    246       6.3871      0.00000
    247       6.5199      0.00000
    248       6.8398      0.00000
    249       7.1851      0.00000
    250       7.2443      0.00000
    251       7.4338      0.00000
    252       7.5101      0.00000

 soft charge-density along one line, spin component           1
         0         1         2         3         4         5         6         7         8         9
 total charge-density along one line

------------------------ aborting loop because EDIFF is reached ----------------------------------------

 total charge

# of ion       s       p       d       tot
    1        0.446   0.287   9.186   9.919
    2        0.450   0.285   9.186   9.921
    3        0.450   0.285   9.186   9.921
    4        0.450   0.285   9.186   9.921
    5        0.444   0.290   9.182   9.916
    6        0.450   0.285   9.186   9.921
    7        0.450   0.285   9.186   9.921
    8        0.450   0.285   9.186   9.921
    9        0.447   0.284   9.188   9.919
   10        0.441   0.374   9.174   9.989
   11        0.444   0.366   9.184   9.994
   12        0.441   0.374   9.174   9.989
   13        0.444   0.366   9.184   9.994
   14        0.444   0.366   9.184   9.994
   15        0.438   0.370   9.180   9.988
   16        0.441   0.374   9.174   9.989
   17        0.438   0.371   9.180   9.989
   18        0.438   0.371   9.180   9.989
   19        0.444   0.372   9.181   9.997
   20        0.445   0.385   9.172  10.002
   21        0.445   0.385   9.172  10.002
   22        0.436   0.373   9.182   9.991
   23        0.446   0.385   9.172  10.002
   24        0.436   0.373   9.182   9.991
   25        0.444   0.372   9.182   9.998
   26        0.444   0.372   9.182   9.998
   27        0.436   0.373   9.182   9.991
   28        0.451   0.294   9.190   9.935
   29        0.454   0.299   9.185   9.937
   30        0.454   0.299   9.185   9.937
   31        0.455   0.301   9.183   9.939
   32        0.455   0.301   9.183   9.939
   33        0.454   0.299   9.185   9.937
   34        0.454   0.299   9.185   9.937
   35        0.446   0.297   9.190   9.933
   36        0.434   0.383   7.483   8.299
   37        0.617   0.121   0.000   0.738
   38        0.617   0.121   0.000   0.738
   39        1.557   3.623   0.000   5.181
tot         18.827  15.929 328.862 363.617

  FORCE on cell =-STRESS in cart. coord.  units (eV):
  Direction    XX          YY          ZZ          XY          YZ          ZX
  Alpha Z   780.14564   780.14564   780.14564
  Ewald  233035.97357232910.49030************    -0.08172     0.56748     0.00749
  Hartree245996.95956245974.01901************    -0.01774     0.16615     0.00500
  E(xc)   -2325.80394 -2326.34550 -2330.16017    -0.00047     0.00260     0.00003
  Local  ************************492195.03762     0.10086    -0.56347    -0.01193
  n-local  -784.18821  -785.11810  -801.74917     0.00147    -0.01117     0.00057
  augment  3372.12710  3374.69993  3391.33511    -0.01828    -0.01294    -0.00006
  Kinetic  3375.16955  3410.76185  3415.35977     0.02455    -0.13992    -0.00236
  Fock        0.00000     0.00000     0.00000     0.00000     0.00000     0.00000
  Total      -5.24752    -5.51923     1.23389     0.00867     0.00873    -0.00127
  in kB      -6.75161    -7.10120     1.58756     0.01116     0.01123    -0.00164

 VOLUME and BASIS-vectors are now :
  energy-cutoff  :      500.00
  volume of cell :     1245.25
      direct lattice vectors                 reciprocal lattice vectors
     7.696786404  0.000000000  0.000000000     0.129924354 -0.075011849  0.000000000
     3.848392758  6.665612809  0.000000000     0.000000000  0.150023716  0.000000000
     0.000000000  0.000000000 24.272106894     0.000000000  0.000000000  0.041199555

  length of vectors
     7.696786404  7.696786404 24.272106894     0.150023716  0.150023716  0.041199555

 FORCES acting on ions
    electron-ion (+dipol)            ewald-force                    non-local-force                 convergence-correction
   0.348E-02 -.705E-02 0.379E+04   0.559E-04 -.238E-02 -.379E+04   0.176E-03 0.196E-02 -.285E+01   -.371E-02 0.708E-02 -.572E+00
   -.130E+00 0.121E+00 0.379E+04   0.225E+00 0.841E-01 -.379E+04   -.121E-01 -.113E+00 -.183E+01   -.772E-01 -.767E-01 -.449E+00
   0.127E+00 0.108E+00 0.379E+04   -.225E+00 0.840E-01 -.379E+04   0.114E-01 -.114E+00 -.183E+01   0.814E-01 -.620E-01 -.443E+00
   0.346E-01 -.173E+00 0.379E+04   0.187E+00 0.152E+00 -.379E+04   -.107E+00 0.415E-01 -.181E+01   -.990E-01 -.222E-01 -.426E+00
   -.181E-01 -.724E-02 0.379E+04   0.126E-03 0.277E-03 -.379E+04   -.878E-02 -.128E-02 -.199E+01   0.271E-01 0.999E-02 -.371E+00
   -.216E-01 -.177E+00 0.379E+04   -.187E+00 0.152E+00 -.379E+04   0.108E+00 0.410E-01 -.181E+01   0.856E-01 -.174E-01 -.417E+00
   0.170E+00 0.593E-01 0.379E+04   -.377E-01 -.236E+00 -.379E+04   -.855E-01 0.688E-01 -.182E+01   -.351E-01 0.945E-01 -.421E+00
   -.181E+00 0.689E-01 0.379E+04   0.374E-01 -.236E+00 -.379E+04   0.835E-01 0.696E-01 -.182E+01   0.483E-01 0.843E-01 -.418E+00
   0.157E-01 0.956E-02 0.379E+04   0.256E-03 0.211E-02 -.379E+04   0.956E-02 0.302E-02 -.238E+01   -.259E-01 -.167E-01 -.510E+00
   -.504E-01 -.608E-01 0.131E+04   0.438E+00 0.235E+00 -.131E+04   -.330E+00 -.184E+00 -.100E+01   -.157E-01 0.330E-01 -.208E+00
   -.197E-01 -.117E+01 0.130E+04   0.230E-03 0.108E+01 -.130E+04   -.880E-02 0.477E-01 -.635E+00   0.287E-01 0.219E-02 -.662E-01
   0.660E-01 -.727E-01 0.131E+04   -.438E+00 0.235E+00 -.131E+04   0.331E+00 -.185E+00 -.100E+01   -.675E-03 0.460E-01 -.200E+00
   -.991E+00 0.584E+00 0.130E+04   0.953E+00 -.537E+00 -.130E+04   0.397E-01 -.400E-01 -.636E+00   -.290E-01 0.970E-02 -.694E-01
   0.963E+00 0.592E+00 0.130E+04   -.953E+00 -.537E+00 -.130E+04   -.579E-01 -.393E-01 -.636E+00   0.765E-01 0.140E-02 -.664E-01
   0.186E-01 -.117E+01 0.131E+04   0.224E-03 0.106E+01 -.131E+04   0.247E-02 0.135E+00 -.648E+00   -.212E-01 -.378E-01 -.283E+00
   -.174E-02 0.745E-01 0.131E+04   0.221E-03 -.501E+00 -.131E+04   0.259E-03 0.383E+00 -.101E+01   0.126E-02 -.532E-02 -.213E+00
   -.996E+00 0.615E+00 0.131E+04   0.910E+00 -.521E+00 -.131E+04   0.104E+00 -.653E-01 -.683E+00   -.234E-01 -.243E-01 -.294E+00
   0.997E+00 0.596E+00 0.131E+04   -.911E+00 -.521E+00 -.131E+04   -.105E+00 -.672E-01 -.684E+00   0.233E-01 -.311E-02 -.288E+00
   0.275E-01 -.714E+00 -.119E+04   -.322E-03 0.735E+00 0.119E+04   0.101E-01 -.334E-01 0.618E+00   -.375E-01 0.480E-02 0.310E+00
   -.221E+02 -.127E+02 -.120E+04   0.226E+02 0.130E+02 0.120E+04   -.792E+00 -.466E+00 -.819E+00   0.270E+00 0.183E+00 0.698E+00
   0.220E+02 -.127E+02 -.120E+04   -.226E+02 0.130E+02 0.120E+04   0.773E+00 -.466E+00 -.819E+00   -.218E+00 0.187E+00 0.695E+00
   -.126E+02 0.722E+01 -.120E+04   0.118E+02 -.669E+01 0.120E+04   0.561E+00 -.305E+00 0.772E+00   0.264E+00 -.217E+00 0.400E+00
   -.197E-01 0.254E+02 -.121E+04   0.667E-03 -.260E+02 0.121E+04   -.861E-02 0.914E+00 -.835E+00   0.281E-01 -.354E+00 0.697E+00
   0.127E+02 0.724E+01 -.120E+04   -.118E+02 -.669E+01 0.120E+04   -.560E+00 -.304E+00 0.772E+00   -.279E+00 -.235E+00 0.399E+00
   0.677E+00 0.399E+00 -.119E+04   -.696E+00 -.462E+00 0.119E+04   0.265E-01 0.144E-01 0.672E+00   -.624E-03 0.492E-01 0.299E+00
   -.660E+00 0.421E+00 -.119E+04   0.695E+00 -.462E+00 0.119E+04   -.102E-01 0.163E-01 0.672E+00   -.335E-01 0.265E-01 0.302E+00
   -.638E-02 -.146E+02 -.120E+04   0.179E-03 0.136E+02 0.120E+04   -.308E-03 0.655E+00 0.772E+00   0.640E-02 0.349E+00 0.397E+00
   0.558E-02 0.630E+00 -.366E+04   -.238E-03 -.704E+00 0.366E+04   0.340E-03 0.240E-01 0.186E+01   -.565E-02 0.530E-01 0.639E+00
   -.107E+02 -.146E+02 -.366E+04   0.106E+02 0.140E+02 0.365E+04   -.174E+00 0.141E-01 0.192E+01   0.171E+00 0.509E+00 0.425E+00
   0.107E+02 -.146E+02 -.366E+04   -.106E+02 0.140E+02 0.365E+04   0.173E+00 0.131E-01 0.192E+01   -.164E+00 0.524E+00 0.417E+00
   -.180E+02 -.144E+01 -.365E+04   0.176E+02 0.171E+01 0.365E+04   -.223E+00 -.184E+00 0.165E+01   0.491E+00 -.868E-01 0.438E+00
   0.180E+02 -.144E+01 -.365E+04   -.176E+02 0.172E+01 0.365E+04   0.223E+00 -.184E+00 0.165E+01   -.505E+00 -.847E-01 0.426E+00
   -.832E+01 0.161E+02 -.366E+04   0.781E+01 -.158E+02 0.365E+04   0.138E+00 0.174E+00 0.192E+01   0.314E+00 -.429E+00 0.419E+00
   0.831E+01 0.161E+02 -.366E+04   -.781E+01 -.158E+02 0.365E+04   -.139E+00 0.175E+00 0.192E+01   -.303E+00 -.441E+00 0.415E+00
   0.171E-01 -.581E+00 -.367E+04   -.175E-02 0.644E+00 0.367E+04   0.942E-02 -.163E-01 0.225E+01   -.252E-01 -.514E-01 0.479E+00
   -.175E-01 -.157E+00 -.288E+04   0.491E-02 0.152E+00 0.288E+04   -.321E-03 0.689E-02 0.460E+01   0.130E-01 0.182E-02 0.324E+00
   0.715E+02 -.476E+00 -.392E+03   -.785E+02 0.525E+00 0.397E+03   0.699E+01 -.451E-01 -.468E+01   0.134E-01 -.718E-03 -.210E-01
   -.715E+02 -.382E+00 -.392E+03   0.785E+02 0.422E+00 0.397E+03   -.699E+01 -.361E-01 -.469E+01   -.131E-01 -.676E-03 -.212E-01
   -.119E-01 0.475E+00 -.218E+04   0.175E-01 -.936E+00 0.214E+04   -.619E-02 0.458E+00 0.412E+02   0.155E-02 -.267E-02 -.276E+00
   -.610E-02 -.412E+00 -.303E+02   -.712E-13 -.367E-13 0.118E-10   -.228E-01 0.408E+00 0.282E+02   0.297E-01 0.685E-02 0.214E+01

 POSITION                                       TOTAL-FORCE (eV/Angst)
      0.00000      0.00000      5.37156        -0.000025     -0.000447      0.076855
      2.56560      0.00000      5.37156         0.005518      0.015646      0.068764
      5.13119      0.00000      5.37156        -0.005580      0.015533      0.068729
      1.28280      2.22187      5.37156         0.015422     -0.002130      0.067831
      3.84839      2.22187      5.37156         0.000331      0.001682      0.039453
      6.41399      2.22187      5.37156        -0.015336     -0.002187      0.067842
      2.56560      4.44374      5.37156         0.011459     -0.013271      0.068240
      5.13119      4.44374      5.37156        -0.011547     -0.013180      0.068297
      7.69679      4.44374      5.37156        -0.000399     -0.002074      0.045181
      1.28280      0.74062      7.46636         0.041775      0.023282     -0.063542
      3.84839      0.74062      7.46636         0.000394     -0.036399     -0.114369
      6.41399      0.74062      7.46636        -0.041668      0.023214     -0.063668
      2.56560      2.96249      7.46636        -0.027234      0.017178     -0.110209
      5.13119      2.96249      7.46636         0.028176      0.017237     -0.110251
      7.69679      2.96249      7.46636         0.000057     -0.004215     -0.009726
      3.84839      5.18437      7.46636        -0.000019     -0.049222     -0.060693
      6.41399      5.18437      7.46636        -0.005008      0.004777     -0.010557
      8.97958      5.18437      7.46636         0.005016      0.004649     -0.010644
      7.69679      1.48472      9.55134        -0.000357     -0.007343     -0.029222
      2.55991      1.47796      9.54139         0.043265      0.024520     -0.045967
      5.13688      1.47796      9.54139        -0.042489      0.024604     -0.045894
      8.97851      3.70374      9.55759        -0.001421      0.001852     -0.015916
      3.84839      3.70969      9.54139         0.000423     -0.049834     -0.038152
      6.41506      3.70374      9.55759         0.001444      0.001991     -0.015870
     10.25938      5.92325      9.55134         0.006928      0.000912     -0.020589
      5.13420      5.92325      9.55134        -0.007909      0.001053     -0.020541
      7.69679      5.92375      9.55759        -0.000128     -0.003210     -0.011443
      0.00000      0.00000     11.61948         0.000012      0.003335      0.034479
      6.40389      6.65412     11.64269        -0.044606     -0.076278     -0.037180
      8.98968      6.65412     11.64269         0.044487     -0.076219     -0.036940
      8.96459      2.21887     11.64269        -0.092596      0.008024     -0.045185
      6.42899      2.21887     11.64269         0.092634      0.008004     -0.045056
     10.25748      4.45823     11.64269        -0.059110      0.068898     -0.038355
      5.13610      4.45823     11.64269         0.059132      0.069064     -0.038487
      7.69679      4.44374     11.62337        -0.000447     -0.004789      0.031026
      3.84839      2.22187     11.63466         0.000014      0.003522      0.428611
      3.05968      2.22407     14.60946        -0.006857      0.004049      0.002359
      4.63687      2.22303     14.60966         0.005320      0.003488      0.001206
      3.84832      2.21849     14.04250         0.000930     -0.005717     -0.030418
    total drift:                                0.000821      0.002396      0.046218

  FREE ENERGIE OF THE ION-ELECTRON SYSTEM (eV)
  free  energy   TOTEN  =      -143.63933015 eV

  energy  without entropy=     -143.63933015  energy(sigma->0) =     -143.63933015

 stress matrix after NEB project (eV)
     -5.24752      0.00867     -0.00127
      0.00867     -5.51923      0.00873
     -0.00127      0.00873      1.23389
  FORCES: max atom, RMS     0.030964    0.005237
  FORCE total and by dimension    0.032706    0.030418
  Stress total and by dimension    7.714990    5.519227
|           W    W    AA    RRRRR   N    N  II  N    N   GGGG   !!!           |
|           W    W   A  A   R    R  NN   N  II  NN   N  G    G  !!!           |
|           W    W  A    A  R    R  N N  N  II  N N  N  G       !!!           |
|           W WW W  AAAAAA  RRRRR   N  N N  II  N  N N  G  GGG   !            |
|           WW  WW  A    A  R   R   N   NN  II  N   NN  G    G                |
|           W    W  A    A  R    R  N    N  II  N    N   GGGG   !!!           |
|     Tetrahedron method does not include variations of the Fermi             |
|     occupations, so forces and stress will be inaccurate. We suggest        |
|     using a different smearing scheme ISMEAR = 1 or 2 for metals in         |
|     relaxations.                                                            |

 total charge

# of ion       s       p       d       tot
    1        0.446   0.287   9.186   9.919
    2        0.450   0.285   9.186   9.921
    3        0.450   0.285   9.186   9.921
    4        0.450   0.285   9.186   9.921
    5        0.444   0.290   9.182   9.916
    6        0.450   0.285   9.186   9.921
    7        0.450   0.285   9.186   9.921
    8        0.450   0.285   9.186   9.921
    9        0.447   0.284   9.188   9.919
   10        0.441   0.374   9.174   9.989
   11        0.444   0.366   9.184   9.994
   12        0.441   0.374   9.174   9.989
   13        0.444   0.366   9.184   9.994
   14        0.444   0.366   9.184   9.994
   15        0.438   0.370   9.180   9.988
   16        0.441   0.374   9.174   9.989
   17        0.438   0.371   9.180   9.989
   18        0.438   0.371   9.180   9.989
   19        0.444   0.372   9.181   9.997
   20        0.445   0.385   9.172  10.002
   21        0.445   0.385   9.172  10.002
   22        0.436   0.373   9.182   9.991
   23        0.446   0.385   9.172  10.002
   24        0.436   0.373   9.182   9.991
   25        0.444   0.372   9.182   9.998
   26        0.444   0.372   9.182   9.998
   27        0.436   0.373   9.182   9.991
   28        0.451   0.294   9.190   9.935
   29        0.454   0.299   9.185   9.937
   30        0.454   0.299   9.185   9.937
   31        0.455   0.301   9.183   9.939
   32        0.455   0.301   9.183   9.939
   33        0.454   0.299   9.185   9.937
   34        0.454   0.299   9.185   9.937
   35        0.446   0.297   9.190   9.933
   36        0.434   0.383   7.483   8.299
   37        0.617   0.121   0.000   0.738
   38        0.617   0.121   0.000   0.738
   39        1.557   3.623   0.000   5.181
tot         18.827  15.929 328.862 363.617

 BZINTS: Fermi energy:    0.032897;  402.000000 electrons
         Band energy:-0.116417E+04;  BLOECHL correction:   -0.062639