 vasp.6.2.0 18Jan21 (build Jun 12 2021 23:27:24) complex

 executed on             LinuxIFC date 2022.05.28  01:04:54

 INCAR:
   ISMEAR = -5
   SIGMA = 0.1
   ISPIN = 1
   EDIFF = 1.d-5
   EDIFFG = -0.01
   NSW = 0
   NELM = 150
   ENCUT = 500
   ISIF = 2
   IBRION = 2
   LREAL = Auto
   ALGO = Fast
   ICHARG = 11
   LORBIT = 10
   LCHARG = .F.
   LWAVE = .F.

 POTCAR:    PAW_PBE Au 04Oct2007
 POTCAR:    PAW_PBE Pd 04Jan2005
 POTCAR:    PAW_PBE O 08Apr2002
 POTCAR:    PAW_PBE H 15Jun2001
|           W    W    AA    RRRRR   N    N  II  N    N   GGGG   !!!           |
|           W    W   A  A   R    R  NN   N  II  NN   N  G    G  !!!           |
|           W    W  A    A  R    R  N N  N  II  N N  N  G       !!!           |
|           W WW W  AAAAAA  RRRRR   N  N N  II  N  N N  G  GGG   !            |
|           WW  WW  A    A  R   R   N   NN  II  N   NN  G    G                |
|           W    W  A    A  R    R  N    N  II  N    N   GGGG   !!!           |
|     For optimal performance we recommend to set                             |
|       NCORE = 2 up to number-of-cores-per-socket                            |
|     This setting can greatly improve the performance of VASP for DFT.       |
|     The default, NCORE=1 might be grossly inefficient on modern             |
|     multi-core architectures or massively parallel machines. Do your        |
|     Unfortunately you need to use the default for GW and RPA                |
|     calculations (for HF NCORE is supported but not extensively tested      |
|     yet).                                                                   |

 POTCAR:    PAW_PBE Au 04Oct2007
   VRHFIN =Au: s1d10

   TITEL  = PAW_PBE Au 04Oct2007
   POMASS =  196.966; ZVAL   =   11.000    mass and valenz
   ENMAX  =  229.943; ENMIN  =  172.457 eV

 POTCAR:    PAW_PBE Pd 04Jan2005
   VRHFIN =Pd : s1 d9

   TITEL  = PAW_PBE Pd 04Jan2005
   POMASS =  106.420; ZVAL   =   10.000    mass and valenz
   ENMAX  =  250.925; ENMIN  =  188.194 eV

 POTCAR:    PAW_PBE O 08Apr2002
   VRHFIN =O: s2p4

   TITEL  = PAW_PBE O 08Apr2002
   POMASS =   16.000; ZVAL   =    6.000    mass and valenz
   ENMAX  =  400.000; ENMIN  =  300.000 eV

 POTCAR:    PAW_PBE H 15Jun2001
   VRHFIN =H: ultrasoft test

   TITEL  = PAW_PBE H 15Jun2001
   POMASS =    1.000; ZVAL   =    1.000    mass and valenz
   ENMAX  =  250.000; ENMIN  =  200.000 eV

 Optimization of the real space projectors (new method)

 maximal supplied QI-value         = 15.12
 optimisation between [QCUT,QGAM] = [ 11.34, 22.83] = [ 36.00,145.93] Ry
 Optimized for a Real-space Cutoff    1.39 Angstroem

   l    n(q)    QCUT    max X(q) W(low)/X(q) W(high)/X(q)  e(spline)
   2      9    11.338    60.898    0.39E-03    0.42E-03    0.21E-06
   2      9    11.338    58.894    0.40E-03    0.42E-03    0.22E-06
   0      9    11.338   109.617    0.13E-03    0.20E-04    0.13E-06
   0      9    11.338    75.026    0.13E-03    0.20E-04    0.13E-06
   1      9    11.338    16.344    0.33E-04    0.24E-03    0.18E-06
   1      9    11.338    10.160    0.26E-04    0.19E-03    0.15E-06
 Optimization of the real space projectors (new method)

[...]

   l    n(q)    QCUT    max X(q) W(low)/X(q) W(high)/X(q)  e(spline)
   0      7    11.387    20.381    0.39E-03    0.13E-02    0.15E-06
   0      7    11.387    15.268    0.42E-03    0.14E-02    0.17E-06
   1      6    11.387     5.964    0.41E-03    0.11E-02    0.17E-06
   1      6    11.387     5.382    0.39E-03    0.87E-03    0.15E-06
 Optimization of the real space projectors (new method)

 maximal supplied QI-value         = 34.20
 optimisation between [QCUT,QGAM] = [ 11.29, 22.57] = [ 35.68,142.71] Ry
 Optimized for a Real-space Cutoff    1.16 Angstroem

   l    n(q)    QCUT    max X(q) W(low)/X(q) W(high)/X(q)  e(spline)
   0      8    11.287    19.460    0.40E-03    0.73E-03    0.16E-06
   0      8    11.287    12.209    0.38E-03    0.70E-03    0.15E-06
   1      7    11.287     4.655    0.22E-03    0.25E-04    0.22E-06
  PAW_PBE Au 04Oct2007                  :
  PAW_PBE Pd 04Jan2005                  :
  PAW_PBE O 08Apr2002                   :
  PAW_PBE H 15Jun2001                   :

 POSCAR: Au-Pd-OOH
  positions in direct lattice
  velocities in cartesian coordinates
 exchange correlation table for  LEXCH =        8
   RHO(1)=    0.500       N(1)  =     2000
   RHO(2)=  100.500       N(2)  =     4000

 VTST: version 3.2, (02/03/18)

 CHAIN: initializing optimizer

 OPT: Using VASP Conjugate-Gradient optimizer
 CHAIN: Read ICHAIN            0

 POSCAR: Au-Pd-OOH
  positions in direct lattice
  velocities in cartesian coordinates

 ion  position               nearest neighbor table
   1  0.000  0.000  0.204-  16 2.94  12 2.94   6 2.94   8 2.94   7 2.94   3 2.94  10 2.94   4 2.94
                             2 2.94
   2  0.333  0.000  0.204-   9 2.94  11 2.94  17 2.94  10 2.94   8 2.94   4 2.94   5 2.94   1 2.94
                             3 2.94
   3  0.667  0.000  0.204-   7 2.94  18 2.94  12 2.94   1 2.94  11 2.94   5 2.94   6 2.94   9 2.94
                             2 2.94
   4  0.000  0.333  0.204-  10 2.94   6 2.94   5 2.94  13 2.94   2 2.94  15 2.94   9 2.94   1 2.94
                             7 2.94
   5  0.333  0.333  0.204-  13 2.94   7 2.94  11 2.94   4 2.94   2 2.94  14 2.94   3 2.94   8 2.94
                             6 2.94
   6  0.667  0.333  0.204-  15 2.94  14 2.94   1 2.94  12 2.94   4 2.94   9 2.94   8 2.94   3 2.94
                             5 2.94
   7  0.000  0.667  0.204-  18 2.94   3 2.94  16 2.94   5 2.94   1 2.94  13 2.94   8 2.94   4 2.94
                             9 2.94
   8  0.333  0.667  0.204-   9 2.94  17 2.94   1 2.94   2 2.94  14 2.94  16 2.94   6 2.94   7 2.94
                             5 2.94
   9  0.667  0.667  0.204-   2 2.94   8 2.94  17 2.94   6 2.94  15 2.94   4 2.94   3 2.94  18 2.94
                             7 2.94
  10  0.111  0.111  0.296-  26 2.92  19 2.92  20 2.93  11 2.94  17 2.94   2 2.94   4 2.94   1 2.94
                            12 2.94  16 2.94  13 2.94  15 2.94
  11  0.444  0.111  0.296-  27 2.93  20 2.93  21 2.93  13 2.94   2 2.94  10 2.94  17 2.94   5 2.94
                             3 2.94  18 2.94  14 2.94  12 2.94
  12  0.778  0.111  0.296-  25 2.92  19 2.92  21 2.93  16 2.94  18 2.94   1 2.94  14 2.94  15 2.94
                             3 2.94   6 2.94  10 2.94  11 2.94
  13  0.111  0.444  0.296-  22 2.93  23 2.93  20 2.93   5 2.94  18 2.94  11 2.94   7 2.94   4 2.94
                            16 2.94  10 2.94  14 2.94  15 2.94
  14  0.444  0.444  0.296-  24 2.93  21 2.93  23 2.93  15 2.94   6 2.94  12 2.94   8 2.94  17 2.94
                             5 2.94  16 2.94  13 2.94  11 2.94
  15  0.778  0.444  0.296-  19 2.93  24 2.93  22 2.93  14 2.94   6 2.94  17 2.94  12 2.94   9 2.94
                             4 2.94  10 2.94  13 2.94  18 2.94
  16  0.111  0.778  0.296-  25 2.92  26 2.92  23 2.93  18 2.94  12 2.94   7 2.94   1 2.94   8 2.94
                            13 2.94  10 2.94  14 2.94  17 2.94
  17  0.444  0.778  0.296-  26 2.93  27 2.93  24 2.93   9 2.94  15 2.94   2 2.94  10 2.94  11 2.94
                             8 2.94  14 2.94  16 2.94  18 2.94
  18  0.778  0.778  0.296-  25 2.93  22 2.93  27 2.93  16 2.94   7 2.94  13 2.94  12 2.94   3 2.94
                            11 2.94   9 2.94  15 2.94  17 2.94
  19  0.889  0.222  0.388-  10 2.92  12 2.92  15 2.93  26 2.93  25 2.93  21 2.94  20 2.94  24 2.94
                            22 2.94  28 2.96  32 2.97  31 2.97
  20  0.222  0.222  0.388-  36 2.83  10 2.93  11 2.93  13 2.93  26 2.94  19 2.94  27 2.94  22 2.94
                            23 2.94  21 2.94  29 2.95  31 2.95
  21  0.556  0.222  0.388-  36 2.83  12 2.93  14 2.93  11 2.93  25 2.94  19 2.94  24 2.94  27 2.94
                            20 2.94  23 2.94  30 2.95  32 2.95
  22  0.889  0.556  0.388-  18 2.93  15 2.93  13 2.93  24 2.94  27 2.94  23 2.94  20 2.94  25 2.94
                            19 2.94  33 2.96  31 2.96  35 2.96
  23  0.222  0.556  0.388-  36 2.83  16 2.93  13 2.93  14 2.93  25 2.94  26 2.94  22 2.94  24 2.94
                            20 2.94  21 2.94  33 2.95  34 2.95
  24  0.556  0.556  0.388-  15 2.93  17 2.93  14 2.93  27 2.94  22 2.94  21 2.94  23 2.94  26 2.94
                            19 2.94  32 2.96  34 2.96  35 2.96
  25  0.889  0.889  0.388-  16 2.92  12 2.92  18 2.93  19 2.93  26 2.93  23 2.94  21 2.94  22 2.94
                            27 2.94  28 2.96  33 2.97  30 2.97
  26  0.222  0.889  0.388-  10 2.92  16 2.92  17 2.93  19 2.93  25 2.93  20 2.94  23 2.94  27 2.94
                            24 2.94  28 2.96  29 2.97  34 2.97
  27  0.556  0.889  0.388-  17 2.93  18 2.93  11 2.93  24 2.94  22 2.94  20 2.94  21 2.94  26 2.94
                            25 2.94  29 2.96  30 2.96  35 2.96
  28  0.000  0.000  0.482-  34 2.94  32 2.94  33 2.94  30 2.94  31 2.94  29 2.94  25 2.96  19 2.96
                            26 2.96
  29  0.333  0.001  0.482-  30 2.93  31 2.93  36 2.93  35 2.94  28 2.94  20 2.95  34 2.95  27 2.96
                            26 2.97
  30  0.666  0.001  0.482-  29 2.93  32 2.93  36 2.93  35 2.94  28 2.94  21 2.95  33 2.95  27 2.96
                            25 2.97
  31  0.001  0.333  0.482-  33 2.93  29 2.93  36 2.93  35 2.94  28 2.94  20 2.95  32 2.95  22 2.96
                            19 2.97
  32  0.666  0.333  0.482-  34 2.93  30 2.93  36 2.93  35 2.94  28 2.94  21 2.95  31 2.95  24 2.96
                            19 2.97
  33  0.001  0.666  0.482-  31 2.93  34 2.93  36 2.93  35 2.94  28 2.94  23 2.95  30 2.95  22 2.96
                            25 2.97
  34  0.333  0.666  0.482-  32 2.93  33 2.93  36 2.93  35 2.94  28 2.94  23 2.95  29 2.95  24 2.96
                            26 2.97
  35  0.667  0.667  0.482-  29 2.94  34 2.94  32 2.94  31 2.94  30 2.94  33 2.94  24 2.96  27 2.96
                            22 2.96
  36  0.333  0.333  0.476-  37 2.05  20 2.83  23 2.83  21 2.83  33 2.93  31 2.93  29 2.93  30 2.93
                            34 2.93  32 2.93
  37  0.300  0.352  0.554-  38 1.43  36 2.05
  38  0.439  0.209  0.582-  39 0.98  37 1.43
  39  0.517  0.256  0.589-  38 0.98

  LATTYP: Found a hexagonal cell.
 ALAT       =     8.8135128021
 C/A-ratio  =     2.9412617888

  Lattice vectors:

 A1 = (  -4.4067569092,  -7.6327256898,   0.0000000000)
 A2 = (   8.8135128021,   0.0000000000,   0.0000000000)
 A3 = (   0.0000000000,   0.0000000000,  25.9228484302)

Analysis of symmetry for initial positions (statically):
 Subroutine PRICEL returns:
 Original cell was already a primitive cell.

 Routine SETGRP: Setting up the symmetry group for a
 hexagonal supercell.

 Subroutine GETGRP returns: Found  1 space group operations
 (whereof  1 operations were pure point group operations)
 out of a pool of 24 trial point group operations.

The static configuration has the point symmetry C_1 .

Analysis of symmetry for dynamics (positions and initial velocities):
 Subroutine PRICEL returns:
 Original cell was already a primitive cell.

[...]

The dynamic configuration has the point symmetry C_1 .

Analysis of constrained symmetry for selective dynamics:
 Subroutine PRICEL returns:
[...]
     41      -5.3227      2.00000
     42      -5.2950      2.00000
     43      -5.2558      2.00000
     44      -5.1884      2.00000
     45      -5.1461      2.00000
     46      -5.1070      2.00000
     47      -5.0721      2.00000
     48      -5.0490      2.00000
     49      -5.0381      2.00000
     50      -5.0210      2.00000
     51      -4.9291      2.00000
     52      -4.8900      2.00000
     53      -4.8687      2.00000
     54      -4.8652      2.00000
     55      -4.8552      2.00000
     56      -4.8463      2.00000
     57      -4.8298      2.00000
     58      -4.7948      2.00000
     59      -4.7537      2.00000
     60      -4.7268      2.00000
[...]
    238       5.2688      0.00000
    239       5.3862      0.00000
    240       5.5105      0.00000
    241       5.6561      0.00000
    242       5.6803      0.00000
    243       5.7018      0.00000
    244       5.7517      0.00000
    245       5.7685      0.00000
    246       5.9626      0.00000
    247       6.0096      0.00000
    248       6.0622      0.00000
    249       6.1326      0.00000
    250       6.3016      0.00000
    251       6.3916      0.00000
    252       6.4574      0.00000

 soft charge-density along one line, spin component           1
         0         1         2         3         4         5         6         7         8         9
 total charge-density along one line

------------------------ aborting loop because EDIFF is reached ----------------------------------------

 total charge

# of ion       s       p       d       tot
    1        0.543   0.240   8.769   9.552
    2        0.545   0.240   8.766   9.551
    3        0.545   0.240   8.765   9.550
    4        0.544   0.240   8.765   9.550
    5        0.543   0.241   8.762   9.546
    6        0.545   0.241   8.765   9.550
    7        0.545   0.241   8.765   9.550
    8        0.545   0.241   8.764   9.550
    9        0.542   0.240   8.767   9.549
   10        0.518   0.308   8.770   9.596
   11        0.519   0.305   8.777   9.601
   12        0.518   0.309   8.770   9.596
   13        0.519   0.305   8.777   9.601
   14        0.518   0.305   8.777   9.600
   15        0.515   0.307   8.775   9.598
   16        0.519   0.308   8.770   9.597
   17        0.515   0.307   8.775   9.597
   18        0.515   0.307   8.775   9.598
   19        0.517   0.303   8.774   9.594
   20        0.528   0.313   8.763   9.604
   21        0.530   0.314   8.760   9.604
   22        0.513   0.304   8.771   9.588
   23        0.529   0.312   8.764   9.606
   24        0.514   0.303   8.774   9.591
   25        0.516   0.303   8.775   9.594
   26        0.516   0.304   8.773   9.593
   27        0.512   0.305   8.772   9.588
   28        0.544   0.233   8.768   9.545
   29        0.541   0.227   8.775   9.543
   30        0.541   0.231   8.771   9.542
   31        0.538   0.229   8.774   9.540
   32        0.550   0.233   8.769   9.552
   33        0.543   0.229   8.773   9.544
   34        0.541   0.230   8.771   9.543
   35        0.542   0.234   8.767   9.543
   36        0.411   0.403   8.437   9.250
   37        1.600   3.239   0.000   4.838
   38        1.589   3.396   0.000   4.985
   39        0.617   0.111   0.000   0.729
tot         22.785  16.683 315.384 354.851

  FORCE on cell =-STRESS in cart. coord.  units (eV):
  Direction    XX          YY          ZZ          XY          YZ          ZX
  Alpha Z   893.76500   893.76500   893.76500
  Ewald  175785.12141175846.74447************  -101.21845  -120.19700    88.67955
  Hartree184344.39557184400.05938************   -63.59749   -66.43502    42.11713
  E(xc)   -1842.47365 -1842.52531 -1848.79563    -0.09030    -0.20579     0.15776
  Local  ************************372314.71772   156.02435   172.74051  -118.35697
  n-local  -116.15939  -112.88703   -88.53125    -3.66449    -2.06911     0.95009
  augment  2455.94384  2454.92477  2465.87871     1.58071     1.45503    -0.80588
  Kinetic  5755.00928  5752.88835  5801.66468    10.77381    14.64930   -12.57667
  Fock        0.00000     0.00000     0.00000     0.00000     0.00000     0.00000
  Total     -20.96591   -20.78665    -0.23748    -0.19186    -0.06208     0.16501
  in kB     -19.26251   -19.09781    -0.21819    -0.17627    -0.05704     0.15160

 VOLUME and BASIS-vectors are now :
  energy-cutoff  :      500.00
  volume of cell :     1743.86
      direct lattice vectors                 reciprocal lattice vectors
     8.813512802  0.000000000  0.000000000     0.113462137 -0.065507406  0.000000000
     4.406756909  7.632725690  0.000000000     0.000000000  0.131014796  0.000000000
     0.000000000  0.000000000 25.922848430     0.000000000  0.000000000  0.038576008

  length of vectors
     8.813512802  8.813512802 25.922848430     0.131014796  0.131014796  0.038576008

 FORCES acting on ions
    electron-ion (+dipol)            ewald-force                    non-local-force                 convergence-correction
   -.678E-01 0.904E-02 0.280E+04   0.162E-01 -.174E-01 -.280E+04   0.288E-01 0.133E-02 -.784E+00   0.217E-01 0.792E-02 -.734E-01
   -.464E-01 0.198E+00 0.280E+04   -.184E-01 -.239E+00 -.280E+04   0.193E-01 0.268E-01 -.341E+00   0.385E-01 0.199E-01 -.997E-01
   0.883E-01 0.185E+00 0.280E+04   0.219E-02 -.239E+00 -.280E+04   -.338E-01 0.432E-01 -.361E+00   -.468E-01 0.215E-01 -.118E+00
   0.131E+00 -.168E+00 0.280E+04   -.193E+00 0.142E+00 -.280E+04   0.318E-01 0.228E-03 -.339E+00   0.350E-01 0.216E-01 -.111E+00
   0.858E-03 -.302E-01 0.280E+04   -.775E-02 0.474E-01 -.280E+04   0.930E-02 -.848E-02 -.336E+00   -.660E-02 -.499E-02 -.754E-01
   -.114E+00 -.231E+00 0.280E+04   0.200E+00 0.156E+00 -.280E+04   -.565E-01 0.289E-01 -.290E+00   -.346E-01 0.368E-01 -.113E+00
   0.168E+00 0.696E-02 0.280E+04   -.182E+00 0.828E-01 -.280E+04   0.296E-01 -.440E-01 -.330E+00   -.122E-02 -.508E-01 -.119E+00
   -.207E+00 -.320E-02 0.280E+04   0.190E+00 0.965E-01 -.280E+04   -.922E-02 -.497E-01 -.282E+00   0.134E-01 -.444E-01 -.114E+00
   0.364E-01 0.371E-01 0.280E+04   -.794E-02 -.296E-01 -.280E+04   -.147E-01 -.533E-02 -.535E+00   -.163E-01 -.634E-02 -.114E+00
   0.617E+00 0.289E+00 0.100E+04   -.368E+00 -.155E+00 -.100E+04   -.190E+00 -.108E+00 -.535E+00   -.158E-01 -.671E-02 -.115E-01
   0.173E+00 0.192E+01 0.100E+04   -.109E+00 -.196E+01 -.100E+04   -.454E-01 0.749E-01 -.317E+00   -.209E-01 -.546E-01 -.416E-01
   -.710E+00 0.274E+00 0.100E+04   0.477E+00 -.115E+00 -.100E+04   0.176E+00 -.129E+00 -.586E+00   0.635E-02 0.882E-03 -.260E-01
   0.177E+01 -.116E+01 0.100E+04   -.180E+01 0.120E+01 -.100E+04   0.662E-01 -.542E-01 -.290E+00   -.617E-01 0.196E-01 -.480E-01
   -.176E+01 -.132E+01 0.100E+04   0.178E+01 0.132E+01 -.100E+04   -.448E-01 -.203E-01 -.220E+00   0.529E-01 0.285E-01 -.636E-01
   -.775E-01 -.134E+01 0.100E+04   0.184E-01 0.129E+01 -.999E+03   0.257E-01 0.169E-01 -.389E+00   0.334E-01 0.314E-01 -.170E-01
   -.815E-01 -.397E+00 0.100E+04   0.878E-01 0.151E+00 -.100E+04   -.119E-01 0.187E+00 -.524E+00   0.103E-01 0.516E-02 -.199E-01
   -.973E+00 0.810E+00 0.100E+04   0.883E+00 -.832E+00 -.999E+03   0.490E-01 0.150E-01 -.404E+00   0.438E-01 0.849E-02 -.120E-01
   0.101E+01 0.924E+00 0.100E+04   -.971E+00 -.905E+00 -.999E+03   -.320E-02 0.352E-02 -.440E+00   -.343E-01 -.254E-01 -.159E-01
   -.729E+00 -.108E+01 -.823E+03   0.672E+00 0.964E+00 0.823E+03   0.244E-01 0.820E-01 0.671E+00   0.436E-01 0.437E-01 0.412E-01
   0.176E+02 0.817E+01 -.800E+03   -.171E+02 -.789E+01 0.800E+03   -.530E+00 -.301E+00 -.280E+00   0.107E+00 0.499E-01 0.285E+00
   -.169E+02 0.748E+01 -.798E+03   0.164E+02 -.711E+01 0.798E+03   0.582E+00 -.395E+00 -.414E+00   -.137E+00 0.525E-01 0.297E+00
   0.881E+01 -.481E+01 -.823E+03   -.892E+01 0.485E+01 0.822E+03   0.121E+00 -.618E-01 0.541E+00   0.243E-02 -.513E-02 0.975E-01
   -.214E+00 -.198E+02 -.803E+03   0.266E+00 0.193E+02 0.803E+03   -.198E-01 0.647E+00 -.326E+00   -.229E-01 -.129E+00 0.291E+00
   -.859E+01 -.548E+01 -.823E+03   0.868E+01 0.554E+01 0.823E+03   -.129E+00 -.723E-01 0.537E+00   0.281E-01 0.159E-01 0.918E-01
   -.104E+01 0.188E+01 -.823E+03   0.122E+01 -.176E+01 0.822E+03   -.130E+00 -.737E-01 0.705E+00   -.617E-01 -.442E-01 0.588E-01
   0.329E+00 0.136E+01 -.824E+03   -.459E+00 -.137E+01 0.823E+03   0.828E-01 -.221E-01 0.687E+00   0.515E-01 0.106E-01 0.338E-01
   0.792E+00 0.123E+02 -.820E+03   -.766E+00 -.125E+02 0.819E+03   -.155E-01 0.150E+00 0.572E+00   -.142E-01 0.637E-02 0.896E-01
   -.522E+01 0.446E+01 -.266E+04   0.521E+01 -.447E+01 0.266E+04   -.537E-02 0.892E-02 0.245E+00   0.136E-01 0.266E-02 0.124E+00
   0.448E+02 0.571E+02 -.262E+04   -.450E+02 -.575E+02 0.261E+04   -.298E-01 0.642E-02 0.781E+00   0.138E+00 0.166E+00 0.101E+00
   -.405E+02 0.640E+02 -.260E+04   0.407E+02 -.643E+02 0.260E+04   -.374E-02 -.150E-01 0.875E+00   -.143E+00 0.156E+00 0.117E+00
   0.619E+02 -.300E+01 -.263E+04   -.623E+02 0.301E+01 0.263E+04   0.478E-01 -.446E-01 0.848E+00   0.204E+00 0.476E-01 0.114E+00
   -.642E+02 -.107E+02 -.262E+04   0.643E+02 0.107E+02 0.262E+04   0.220E+00 0.440E-02 0.196E+00   -.194E+00 0.358E-01 0.127E+00
   0.237E+02 -.479E+02 -.263E+04   -.238E+02 0.482E+02 0.263E+04   -.246E-01 0.111E+00 0.670E+00   0.587E-01 -.205E+00 0.124E+00
   -.243E+02 -.480E+02 -.264E+04   0.244E+02 0.482E+02 0.264E+04   0.424E-03 0.916E-01 0.611E+00   -.769E-01 -.185E+00 0.128E+00
   0.148E+01 0.787E+01 -.266E+04   -.145E+01 -.785E+01 0.266E+04   -.381E-01 -.655E-02 0.337E+00   0.679E-02 -.129E-01 0.701E-01
   -.543E+01 -.160E+02 -.211E+04   0.530E+01 0.161E+02 0.211E+04   0.122E+00 -.102E+00 -.986E+00   -.776E-02 -.506E-02 0.126E+00
   0.106E+03 -.170E+03 -.169E+04   -.126E+03 0.199E+03 0.169E+04   0.196E+02 -.292E+02 -.141E+00   0.644E-01 -.340E-01 -.300E+00
   -.437E+02 0.175E+03 -.175E+04   0.205E+02 -.214E+03 0.176E+04   0.233E+02 0.393E+02 -.991E+01   -.414E-01 0.925E-01 -.138E+00
   -.903E+02 -.206E+02 -.295E+03   0.977E+02 0.234E+02 0.297E+03   -.746E+01 -.284E+01 -.166E+01   -.485E-02 0.723E-02 -.113E-01
   -.359E+02 -.727E+01 0.120E+02   -.284E-13 0.639E-13 0.415E-11   0.358E+02 0.723E+01 -.127E+02   0.316E-01 0.746E-01 0.676E+00

 POSITION                                       TOTAL-FORCE (eV/Angst)
      0.00000      0.00000      5.28038         0.000368      0.000139     -0.058208
      2.93784      0.00000      5.28038        -0.005365      0.005476     -0.041587
      5.87568      0.00000      5.28038         0.011561      0.010681     -0.036825
      1.46892      2.54424      5.28038         0.006385     -0.004781     -0.034104
      4.40676      2.54424      5.28038        -0.002656      0.003021     -0.048559
      7.34459      2.54424      5.28038        -0.003429     -0.010488     -0.034083
      2.93784      5.08848      5.28038         0.015430     -0.005783     -0.033992
      5.87568      5.08848      5.28038        -0.011172     -0.001653     -0.030574
      8.81351      5.08848      5.28038        -0.001024     -0.004870     -0.046159
      1.46892      0.84808      7.67911         0.045889      0.019127      0.093602
      4.40676      0.84808      7.67911        -0.000489     -0.018578      0.088470
      7.34459      0.84808      7.67911        -0.049694      0.030550      0.098666
      2.93784      3.39232      7.67911        -0.016444      0.009556      0.097980
      5.87568      3.39232      7.67911         0.022921      0.007599      0.098555
      8.81351      3.39232      7.67911         0.001537      0.003256      0.107214
      4.40676      5.93656      7.67911         0.006234     -0.054222      0.095137
      7.34459      5.93656      7.67911         0.004781      0.001094      0.106988
     10.28243      5.93656      7.67911        -0.001589     -0.004321      0.105719
      8.81351      1.69299     10.06281         0.012825      0.013506     -0.003093
      2.93673      1.69552     10.07074         0.057631      0.023244     -0.058088
      5.87678      1.69552     10.07074        -0.070671      0.034892     -0.044897
     10.28200      4.24065     10.07064         0.012213     -0.018709      0.009967
      4.40676      4.24168     10.07074         0.010314     -0.049253     -0.086926
      7.34503      4.24065     10.07064        -0.009636     -0.001012     -0.012078
     11.75410      6.78623     10.06281        -0.009420     -0.003490      0.000270
      5.87293      6.78623     10.06281         0.006093     -0.013910      0.011036
      8.81351      6.78414     10.07064        -0.002058      0.018521      0.015902
      0.00000      0.00000     12.49359        -0.001216      0.003529     -0.078306
      2.94266      0.00661     12.49157        -0.073299     -0.151919     -0.168451
      5.87086      0.00661     12.49157         0.077764     -0.120857     -0.133584
      1.47706      2.54511     12.49157        -0.147549      0.012588     -0.139812
      7.33646      2.54511     12.49157         0.152032      0.001516     -0.124225
      2.94116      5.08100     12.49157        -0.075195      0.139517     -0.175226
      5.87236      5.08100     12.49157         0.069603      0.104794     -0.117526
      8.81351      5.08848     12.49778        -0.002392     -0.003981     -0.048938
      4.40676      2.54424     12.34091        -0.017960      0.017646      0.661829
      4.18990      2.68388     14.37047        -0.006394      0.006730     -0.040694
      4.78855      1.59790     15.08655        -0.001248      0.002869     -0.000041
      5.68710      1.95084     15.27779        -0.004683     -0.002026      0.004642
    total drift:                               -0.059967      0.028582     -0.036321

  FREE ENERGIE OF THE ION-ELECTRON SYSTEM (eV)
  free  energy   TOTEN  =      -125.94140694 eV

  energy  without entropy=     -125.94140694  energy(sigma->0) =     -125.94140694

 stress matrix after NEB project (eV)
    -20.96591     -0.19186      0.16501
     -0.19186    -20.78665     -0.06208
      0.16501     -0.06208     -0.23748
  FORCES: max atom, RMS     0.041740    0.006793
  FORCE total and by dimension    0.042422    0.040694
  Stress total and by dimension   29.527043   20.965909
|           W    W    AA    RRRRR   N    N  II  N    N   GGGG   !!!           |
|           W    W   A  A   R    R  NN   N  II  NN   N  G    G  !!!           |
|           W    W  A    A  R    R  N N  N  II  N N  N  G       !!!           |
|           W WW W  AAAAAA  RRRRR   N  N N  II  N  N N  G  GGG   !            |
|           WW  WW  A    A  R   R   N   NN  II  N   NN  G    G                |
|           W    W  A    A  R    R  N    N  II  N    N   GGGG   !!!           |
|     Tetrahedron method does not include variations of the Fermi             |
|     occupations, so forces and stress will be inaccurate. We suggest        |
|     using a different smearing scheme ISMEAR = 1 or 2 for metals in         |
|     relaxations.                                                            |

 total charge

# of ion       s       p       d       tot
    1        0.543   0.240   8.769   9.552
    2        0.545   0.240   8.766   9.551
    3        0.545   0.240   8.765   9.550
    4        0.544   0.240   8.765   9.550
    5        0.543   0.241   8.762   9.546
    6        0.545   0.241   8.765   9.550
    7        0.545   0.241   8.765   9.550
    8        0.545   0.241   8.764   9.550
    9        0.542   0.240   8.767   9.549
   10        0.518   0.308   8.770   9.596
   11        0.519   0.305   8.777   9.601
   12        0.518   0.309   8.770   9.596
   13        0.519   0.305   8.777   9.601
   14        0.518   0.305   8.777   9.600
   15        0.515   0.307   8.775   9.598
   16        0.519   0.308   8.770   9.597
   17        0.515   0.307   8.775   9.597
   18        0.515   0.307   8.775   9.598
   19        0.517   0.303   8.774   9.594
   20        0.528   0.313   8.763   9.604
   21        0.530   0.314   8.760   9.604
   22        0.513   0.304   8.771   9.588
   23        0.529   0.312   8.764   9.606
   24        0.514   0.303   8.774   9.591
   25        0.516   0.303   8.775   9.594
   26        0.516   0.304   8.773   9.593
   27        0.512   0.305   8.772   9.588
   28        0.544   0.233   8.768   9.545
   29        0.541   0.227   8.775   9.543
   30        0.541   0.231   8.771   9.542
   31        0.538   0.229   8.774   9.540
   32        0.550   0.233   8.769   9.552
   33        0.543   0.229   8.773   9.544
   34        0.541   0.230   8.771   9.543
   35        0.542   0.234   8.767   9.543
   36        0.411   0.403   8.437   9.250
   37        1.600   3.239   0.000   4.838
   38        1.589   3.396   0.000   4.985
   39        0.617   0.111   0.000   0.729
tot         22.785  16.683 315.384 354.851

 BZINTS: Fermi energy:   -0.118826;  408.000000 electrons
         Band energy:-0.160473E+04;  BLOECHL correction:   -0.093151