 vasp.6.2.0 18Jan21 (build Jun 12 2021 23:27:24) complex

 executed on             LinuxIFC date 2022.05.27  05:48:33

 INCAR:
   ISMEAR = -5
   SIGMA = 0.1
   ISPIN = 1
   EDIFF = 1.d-5
   EDIFFG = -0.01
   NSW = 0
   NELM = 150
   ENCUT = 500
   ISIF = 2
   IBRION = 2
   LREAL = Auto
   ALGO = Fast
   ICHARG = 11
   LORBIT = 10
   LCHARG = .F.
   LWAVE = .F.

 POTCAR:    PAW_PBE Ag 02Apr2005
 POTCAR:    PAW_PBE Ta 17Jan2003
 POTCAR:    PAW_PBE O 08Apr2002
 POTCAR:    PAW_PBE H 15Jun2001
|           W    W    AA    RRRRR   N    N  II  N    N   GGGG   !!!           |
|           W    W   A  A   R    R  NN   N  II  NN   N  G    G  !!!           |
|           W    W  A    A  R    R  N N  N  II  N N  N  G       !!!           |
|           W WW W  AAAAAA  RRRRR   N  N N  II  N  N N  G  GGG   !            |
|           WW  WW  A    A  R   R   N   NN  II  N   NN  G    G                |
|           W    W  A    A  R    R  N    N  II  N    N   GGGG   !!!           |
|     For optimal performance we recommend to set                             |
|       NCORE = 2 up to number-of-cores-per-socket                            |
|     This setting can greatly improve the performance of VASP for DFT.       |
|     The default, NCORE=1 might be grossly inefficient on modern             |
|     multi-core architectures or massively parallel machines. Do your        |
|     Unfortunately you need to use the default for GW and RPA                |
|     calculations (for HF NCORE is supported but not extensively tested      |
|     yet).                                                                   |

 POTCAR:    PAW_PBE Ag 02Apr2005
   VRHFIN =Ag : s1 d10

   TITEL  = PAW_PBE Ag 02Apr2005
   POMASS =  107.868; ZVAL   =   11.000    mass and valenz
   ENMAX  =  249.844; ENMIN  =  187.383 eV

 POTCAR:    PAW_PBE Ta 17Jan2003
   VRHFIN =Ta:  6s5d

   TITEL  = PAW_PBE Ta 17Jan2003
   POMASS =  180.948; ZVAL   =    5.000    mass and valenz
   ENMAX  =  223.667; ENMIN  =  167.750 eV

 POTCAR:    PAW_PBE O 08Apr2002
   VRHFIN =O: s2p4

   TITEL  = PAW_PBE O 08Apr2002
   POMASS =   16.000; ZVAL   =    6.000    mass and valenz
   ENMAX  =  400.000; ENMIN  =  300.000 eV

 POTCAR:    PAW_PBE H 15Jun2001
   VRHFIN =H: ultrasoft test

   TITEL  = PAW_PBE H 15Jun2001
   POMASS =    1.000; ZVAL   =    1.000    mass and valenz
   ENMAX  =  250.000; ENMIN  =  200.000 eV

 Optimization of the real space projectors (new method)

 maximal supplied QI-value         = 15.12
 optimisation between [QCUT,QGAM] = [ 11.34, 22.83] = [ 36.00,145.93] Ry
 Optimized for a Real-space Cutoff    1.43 Angstroem

   l    n(q)    QCUT    max X(q) W(low)/X(q) W(high)/X(q)  e(spline)
   2      9    11.338    53.897    0.16E-03    0.20E-03    0.28E-06
   2      9    11.338    52.416    0.16E-03    0.20E-03    0.29E-06
   0     10    11.338   122.045    0.31E-04    0.76E-04    0.15E-06
   0     10    11.338    73.629    0.30E-04    0.72E-04    0.15E-06
   1      9    11.338    15.255    0.20E-03    0.19E-04    0.17E-06
   1      9    11.338     9.562    0.16E-03    0.15E-04    0.14E-06
 Optimization of the real space projectors (new method)

[...]

   l    n(q)    QCUT    max X(q) W(low)/X(q) W(high)/X(q)  e(spline)
   0      7    11.387    20.381    0.39E-03    0.13E-02    0.15E-06
   0      7    11.387    15.268    0.42E-03    0.14E-02    0.17E-06
   1      6    11.387     5.964    0.41E-03    0.11E-02    0.17E-06
   1      6    11.387     5.382    0.39E-03    0.87E-03    0.15E-06
 Optimization of the real space projectors (new method)

 maximal supplied QI-value         = 34.20
 optimisation between [QCUT,QGAM] = [ 11.29, 22.57] = [ 35.68,142.71] Ry
 Optimized for a Real-space Cutoff    1.16 Angstroem

   l    n(q)    QCUT    max X(q) W(low)/X(q) W(high)/X(q)  e(spline)
   0      8    11.287    19.460    0.40E-03    0.73E-03    0.16E-06
   0      8    11.287    12.209    0.38E-03    0.70E-03    0.15E-06
   1      7    11.287     4.655    0.22E-03    0.25E-04    0.22E-06
  PAW_PBE Ag 02Apr2005                  :
  PAW_PBE Ta 17Jan2003                  :
  PAW_PBE O 08Apr2002                   :
  PAW_PBE H 15Jun2001                   :

 POSCAR: Ag-Ta-OH
  positions in direct lattice
  velocities in cartesian coordinates
 exchange correlation table for  LEXCH =        8
   RHO(1)=    0.500       N(1)  =     2000
   RHO(2)=  100.500       N(2)  =     4000

 VTST: version 3.2, (02/03/18)

 CHAIN: initializing optimizer

 OPT: Using VASP Conjugate-Gradient optimizer
 CHAIN: Read ICHAIN            0

 POSCAR: Ag-Ta-OH
  positions in direct lattice
  velocities in cartesian coordinates

 ion  position               nearest neighbor table
   1  0.000  0.000  0.209-   2 2.93   8 2.93   7 2.93   6 2.93   4 2.93  12 2.93  16 2.93  10 2.93
                             3 2.93
   2  0.333  0.000  0.209-   1 2.93   8 2.93   9 2.93   3 2.93   4 2.93   5 2.93  10 2.93  17 2.93
                            11 2.93
   3  0.667  0.000  0.209-   9 2.93   2 2.93   5 2.93  11 2.93   7 2.93  18 2.93   1 2.93   6 2.93
                            12 2.93
   4  0.000  0.333  0.209-   5 2.93   6 2.93   2 2.93   1 2.93   7 2.93  13 2.93  15 2.93   9 2.93
                            10 2.93
   5  0.333  0.333  0.209-   4 2.93   3 2.93   7 2.93   2 2.93   8 2.93  14 2.93  13 2.93  11 2.93
                             6 2.93
   6  0.667  0.333  0.209-   4 2.93   9 2.93   1 2.93  15 2.93   8 2.93  12 2.93   3 2.93   5 2.93
                            14 2.93
   7  0.000  0.667  0.209-   8 2.93   1 2.93   5 2.93   3 2.93   4 2.93  16 2.93  18 2.93  13 2.93
                             9 2.93
   8  0.333  0.667  0.209-   7 2.93   1 2.93   2 2.93   9 2.93   5 2.93  16 2.93   6 2.93  17 2.93
                            14 2.93
   9  0.667  0.667  0.209-   3 2.93   2 2.93   8 2.93   6 2.93  17 2.93   4 2.93  15 2.93   7 2.93
                            18 2.93
  10  0.111  0.111  0.304-  20 2.89  12 2.93  16 2.93  15 2.93  17 2.93  13 2.93  11 2.93   2 2.93
                             1 2.93   4 2.93  19 2.93  26 2.93
  11  0.444  0.111  0.304-  21 2.90  20 2.90  14 2.93  17 2.93  18 2.93   3 2.93  12 2.93  13 2.93
                            10 2.93   5 2.93   2 2.93  27 2.93
  12  0.778  0.111  0.304-  21 2.89  10 2.93  16 2.93  18 2.93  15 2.93  11 2.93   1 2.93  14 2.93
                             6 2.93   3 2.93  25 2.93  19 2.93
  13  0.111  0.444  0.304-  20 2.90  23 2.90  15 2.93  14 2.93  18 2.93  10 2.93  11 2.93  16 2.93
                             4 2.93   5 2.93   7 2.93  22 2.93
  14  0.444  0.444  0.304-  23 2.90  21 2.90  13 2.93  11 2.93  16 2.93   5 2.93  12 2.93  17 2.93
                             8 2.93  15 2.93   6 2.93  24 2.93
  15  0.778  0.444  0.304-  19 2.93  24 2.93  22 2.93  13 2.93  10 2.93  12 2.93  17 2.93  18 2.93
                             4 2.93   6 2.93   9 2.93  14 2.93
  16  0.111  0.778  0.304-  23 2.89  18 2.93  12 2.93  10 2.93  14 2.93  17 2.93  13 2.93   7 2.93
                             8 2.93   1 2.93  26 2.93  25 2.93
  17  0.444  0.778  0.304-  26 2.93  27 2.93  24 2.93  11 2.93  10 2.93   9 2.93  18 2.93  15 2.93
                            16 2.93   2 2.93  14 2.93   8 2.93
  18  0.778  0.778  0.304-  25 2.93  22 2.93  27 2.93  16 2.93  12 2.93  13 2.93  11 2.93  17 2.93
                            15 2.93   7 2.93   3 2.93   9 2.93
  19  0.889  0.223  0.399-  20 2.92  21 2.92  24 2.93  22 2.93  28 2.93  15 2.93  10 2.93  12 2.93
                            26 2.94  25 2.94  32 2.99  31 2.99
  20  0.222  0.222  0.397-  36 2.78  10 2.89  13 2.90  11 2.90  19 2.92  26 2.92  27 2.93  22 2.93
                            21 2.95  23 2.95  31 2.97  29 2.97
  21  0.557  0.222  0.397-  36 2.78  12 2.89  11 2.90  14 2.90  25 2.92  19 2.92  27 2.93  24 2.93
                            20 2.95  23 2.95  30 2.97  32 2.97
  22  0.888  0.556  0.399-  24 2.92  27 2.92  25 2.93  19 2.93  18 2.93  15 2.93  13 2.93  23 2.93
                            20 2.93  35 2.94  33 2.96  31 2.96
  23  0.222  0.557  0.397-  36 2.78  16 2.89  14 2.90  13 2.90  26 2.92  25 2.92  22 2.93  24 2.93
                            21 2.95  20 2.95  34 2.97  33 2.97
  24  0.556  0.556  0.399-  27 2.92  22 2.92  19 2.93  26 2.93  15 2.93  17 2.93  14 2.93  23 2.93
                            21 2.93  35 2.94  32 2.96  34 2.96
  25  0.889  0.889  0.399-  23 2.92  21 2.92  22 2.93  27 2.93  28 2.93  18 2.93  16 2.93  12 2.93
                            26 2.94  19 2.94  33 2.99  30 2.99
  26  0.223  0.889  0.399-  23 2.92  20 2.92  27 2.93  24 2.93  28 2.93  17 2.93  16 2.93  10 2.93
                            25 2.94  19 2.94  34 2.99  29 2.99
  27  0.556  0.888  0.399-  24 2.92  22 2.92  26 2.93  25 2.93  17 2.93  18 2.93  11 2.93  20 2.93
                            21 2.93  35 2.94  29 2.96  30 2.96
  28  0.000  0.000  0.493-  26 2.93  25 2.93  19 2.93  29 2.96  34 2.96  33 2.96  32 2.96  31 2.96
                            30 2.96
  29  0.334  0.006  0.495-  30 2.88  31 2.88  36 2.89  35 2.96  28 2.96  27 2.96  20 2.97  26 2.99
                            34 3.03
  30  0.661  0.006  0.495-  29 2.88  32 2.88  36 2.89  35 2.96  28 2.96  27 2.96  21 2.97  25 2.99
                            33 3.03
  31  0.006  0.334  0.495-  33 2.88  29 2.88  36 2.89  35 2.96  28 2.96  22 2.96  20 2.97  19 2.99
                            32 3.03
  32  0.661  0.334  0.495-  34 2.88  30 2.88  36 2.89  35 2.96  28 2.96  24 2.96  21 2.97  19 2.99
                            31 3.03
  33  0.006  0.661  0.495-  31 2.88  34 2.88  36 2.89  35 2.96  28 2.96  22 2.96  23 2.97  25 2.99
                            30 3.03
  34  0.334  0.661  0.495-  32 2.88  33 2.88  36 2.89  35 2.96  28 2.96  24 2.96  23 2.97  26 2.99
                            29 3.03
  35  0.667  0.667  0.494-  24 2.94  27 2.94  22 2.94  30 2.96  32 2.96  29 2.96  34 2.96  31 2.96
                            33 2.96
  36  0.333  0.333  0.484-  37 1.87  21 2.78  20 2.78  23 2.78  31 2.89  33 2.89  30 2.89  29 2.89
                            34 2.89  32 2.89
  37  0.333  0.333  0.558-  38 0.97  36 1.87
  38  0.333  0.333  0.596-  37 0.97

  LATTYP: Found a hexagonal cell.
 ALAT       =     8.7913665772
 C/A-ratio  =     2.8719070141

  Lattice vectors:

 A1 = (  -4.3956832886,  -7.6135467898,   0.0000000000)
 A2 = (   8.7913665771,   0.0000000000,   0.0000000000)
 A3 = (   0.0000000000,   0.0000000000,  25.2479873362)

Analysis of symmetry for initial positions (statically):
 Subroutine PRICEL returns:
 Original cell was already a primitive cell.

 Routine SETGRP: Setting up the symmetry group for a
 hexagonal supercell.

 Subroutine GETGRP returns: Found  6 space group operations
 (whereof  6 operations were pure point group operations)
 out of a pool of 24 trial point group operations.

The static configuration has the point symmetry C_3v.

Analysis of symmetry for dynamics (positions and initial velocities):
 Subroutine PRICEL returns:
 Original cell was already a primitive cell.

[...]

The dynamic configuration has the point symmetry C_3v.

Analysis of constrained symmetry for selective dynamics:
 Subroutine PRICEL returns:
 Original cell was already a primitive cell.

[...]
     33      -4.9215      2.00000
     34      -4.8922      2.00000
     35      -4.8845      2.00000
     36      -4.8538      2.00000
     37      -4.8452      2.00000
     38      -4.8261      2.00000
     39      -4.7984      2.00000
     40      -4.7743      2.00000
     41      -4.7317      2.00000
     42      -4.7200      2.00000
     43      -4.6937      2.00000
     44      -4.6748      2.00000
     45      -4.6461      2.00000
     46      -4.6126      2.00000
     47      -4.5945      2.00000
     48      -4.5774      2.00000
     49      -4.5496      2.00000
     50      -4.5478      2.00000
     51      -4.5399      2.00000
     52      -4.5303      2.00000
     53      -4.5241      2.00000
     54      -4.5083      2.00000
     55      -4.5033      2.00000
     56      -4.4995      2.00000
     57      -4.4511      2.00000
     58      -4.4399      2.00000
     59      -4.4299      2.00000
     60      -4.3978      2.00000
[...]
    226       4.5886      0.00000
    227       4.8533      0.00000
    228       4.8675      0.00000
    229       5.0440      0.00000
    230       5.1373      0.00000
    231       5.2056      0.00000
    232       5.2268      0.00000
    233       5.2612      0.00000
    234       5.3623      0.00000
    235       5.4447      0.00000
    236       5.5082      0.00000
    237       5.7410      0.00000
    238       5.7969      0.00000
    239       5.8257      0.00000
    240       5.9269      0.00000

 soft charge-density along one line, spin component           1
         0         1         2         3         4         5         6         7         8         9
 total charge-density along one line

------------------------ aborting loop because EDIFF is reached ----------------------------------------

 total charge

# of ion       s       p       d       tot
    1        0.423   0.199   9.177   9.799
    2        0.416   0.204   9.177   9.796
    3        0.416   0.204   9.177   9.796
    4        0.416   0.204   9.177   9.796
    5        0.417   0.202   9.177   9.796
    6        0.416   0.204   9.177   9.796
    7        0.416   0.204   9.177   9.796
    8        0.416   0.204   9.177   9.796
    9        0.415   0.204   9.177   9.795
   10        0.411   0.268   9.163   9.842
   11        0.404   0.271   9.168   9.842
   12        0.411   0.268   9.163   9.842
   13        0.404   0.271   9.168   9.842
   14        0.404   0.271   9.168   9.842
   15        0.402   0.268   9.165   9.835
   16        0.411   0.268   9.163   9.842
   17        0.402   0.268   9.165   9.835
   18        0.402   0.268   9.165   9.835
   19        0.403   0.262   9.167   9.832
   20        0.448   0.311   9.126   9.885
   21        0.448   0.311   9.126   9.885
   22        0.392   0.272   9.164   9.828
   23        0.448   0.311   9.126   9.885
   24        0.392   0.272   9.164   9.828
   25        0.403   0.262   9.167   9.832
   26        0.403   0.262   9.167   9.832
   27        0.392   0.272   9.164   9.828
   28        0.416   0.201   9.170   9.787
   29        0.438   0.224   9.155   9.817
   30        0.438   0.224   9.155   9.817
   31        0.438   0.224   9.155   9.817
   32        0.438   0.224   9.155   9.817
   33        0.438   0.224   9.155   9.817
   34        0.438   0.224   9.155   9.817
   35        0.408   0.205   9.171   9.784
   36        0.701   0.710   3.099   4.510
   37        1.558   3.564   0.000   5.122
   38        0.603   0.126   0.000   0.729
tot         17.444  12.934 323.820 354.198

  FORCE on cell =-STRESS in cart. coord.  units (eV):
  Direction    XX          YY          ZZ          XY          YZ          ZX
  Alpha Z   667.85273   667.85273   667.85273
  Ewald  163697.83243163697.83239************     0.00001    -0.00001     0.00003
  Hartree173657.98351173657.98349************     0.00000    -0.00000     0.00001
  E(xc)   -2084.01306 -2084.01308 -2089.47291     0.00001     0.00000     0.00000
  Local  ************************348516.47394     0.00052    -0.00005    -0.00016
  n-local  -352.19815  -335.06744  -340.95561    10.51795    -0.55501     0.57381
  augment  3228.68338  3228.68352  3238.81353    -0.00014     0.00004     0.00002
  Kinetic  4971.24578  4972.74442  4957.84429     3.36678     0.98341    -0.51900
  Fock        0.00000     0.00000     0.00000     0.00000     0.00000     0.00000
  Total      -6.85186    -6.85186    -0.25925    -0.00000    -0.00000    -0.00000
  in kB      -6.49604    -6.49604    -0.24578    -0.00000    -0.00000    -0.00000

 VOLUME and BASIS-vectors are now :
  energy-cutoff  :      500.00
  volume of cell :     1689.94
      direct lattice vectors                 reciprocal lattice vectors
     8.791366577  0.000000000  0.000000000     0.113747958 -0.065672414  0.000000000
     4.395683289  7.613546790  0.000000000     0.000000000  0.131344829  0.000000000
     0.000000000  0.000000000 25.247987336     0.000000000  0.000000000  0.039607117

  length of vectors
     8.791366577  8.791366577 25.247987336     0.131344829  0.131344829  0.039607117

 FORCES acting on ions
    electron-ion (+dipol)            ewald-force                    non-local-force                 convergence-correction
   0.462E-04 -.280E-04 0.272E+04   -.953E-04 0.593E-04 -.272E+04   -.526E-17 0.637E-17 -.187E+01   -.115E-03 -.127E-03 -.386E-01
   0.191E-01 0.181E+00 0.272E+04   -.193E-01 -.258E+00 -.272E+04   -.867E-03 0.119E+00 -.161E+01   0.149E-02 -.358E-01 -.586E-01
   -.190E-01 0.181E+00 0.272E+04   0.194E-01 -.258E+00 -.272E+04   0.867E-03 0.119E+00 -.161E+01   -.203E-02 -.339E-01 -.579E-01
   0.166E+00 -.741E-01 0.272E+04   -.233E+00 0.112E+00 -.272E+04   0.102E+00 -.601E-01 -.161E+01   -.301E-01 0.194E-01 -.586E-01
   -.491E-05 -.183E-04 0.272E+04   0.980E-04 -.197E-05 -.272E+04   0.245E-17 0.131E-17 -.142E+01   0.622E-02 0.379E-02 0.538E-01
   -.166E+00 -.741E-01 0.272E+04   0.233E+00 0.112E+00 -.272E+04   -.102E+00 -.601E-01 -.161E+01   0.287E-01 0.203E-01 -.578E-01
   0.147E+00 -.107E+00 0.272E+04   -.214E+00 0.146E+00 -.272E+04   0.103E+00 -.586E-01 -.161E+01   -.300E-01 0.157E-01 -.579E-01
   -.147E+00 -.107E+00 0.272E+04   0.214E+00 0.146E+00 -.272E+04   -.103E+00 -.586E-01 -.161E+01   0.316E-01 0.147E-01 -.578E-01
   0.370E-04 -.126E-04 0.272E+04   0.792E-04 -.643E-04 -.272E+04   -.587E-17 -.145E-17 -.176E+01   -.664E-02 -.344E-02 -.630E-01
   0.313E+01 0.181E+01 0.910E+03   -.260E+01 -.150E+01 -.909E+03   -.503E+00 -.291E+00 -.693E+00   -.486E-01 -.279E-01 -.114E+00
   -.279E-04 0.188E+01 0.908E+03   0.400E-04 -.210E+01 -.908E+03   0.871E-12 0.133E+00 -.344E+00   0.620E-02 0.198E-02 -.164E+00
   -.313E+01 0.181E+01 0.910E+03   0.260E+01 -.150E+01 -.909E+03   0.503E+00 -.291E+00 -.693E+00   0.469E-01 -.269E-01 -.114E+00
   0.163E+01 -.942E+00 0.908E+03   -.181E+01 0.105E+01 -.908E+03   0.115E+00 -.663E-01 -.344E+00   0.470E-02 0.434E-02 -.163E+00
   -.163E+01 -.942E+00 0.908E+03   0.181E+01 0.105E+01 -.908E+03   -.115E+00 -.663E-01 -.344E+00   0.583E-02 0.327E-02 -.165E+00
   0.157E-04 -.413E+00 0.908E+03   -.108E-03 0.335E+00 -.907E+03   0.290E-12 0.442E-01 -.676E+00   -.156E-02 0.173E-01 -.108E+00
   -.744E-05 -.362E+01 0.910E+03   0.205E-04 0.300E+01 -.909E+03   0.382E-11 0.581E+00 -.693E+00   -.174E-03 0.543E-01 -.115E+00
   -.357E+00 0.206E+00 0.908E+03   0.291E+00 -.168E+00 -.907E+03   0.382E-01 -.221E-01 -.676E+00   0.145E-01 -.100E-01 -.108E+00
   0.357E+00 0.206E+00 0.908E+03   -.291E+00 -.168E+00 -.907E+03   -.382E-01 -.221E-01 -.676E+00   -.144E-01 -.829E-02 -.107E+00
   0.379E-04 -.408E+01 -.924E+03   -.127E-03 0.403E+01 0.923E+03   0.369E-12 0.562E-01 0.907E+00   0.428E-02 -.217E-01 -.166E+00
   -.207E+02 -.120E+02 -.918E+03   0.219E+02 0.127E+02 0.920E+03   -.118E+01 -.680E+00 -.858E+00   -.140E+00 -.807E-01 -.405E+00
   0.207E+02 -.120E+02 -.918E+03   -.219E+02 0.127E+02 0.920E+03   0.118E+01 -.680E+00 -.858E+00   0.150E+00 -.810E-01 -.405E+00
   -.917E+01 0.529E+01 -.921E+03   0.916E+01 -.529E+01 0.921E+03   0.231E+00 -.134E+00 0.655E+00   -.169E+00 0.103E+00 -.182E+00
   -.514E-04 0.239E+02 -.918E+03   0.379E-04 -.253E+02 0.920E+03   0.893E-11 0.136E+01 -.858E+00   -.730E-03 0.161E+00 -.406E+00
   0.917E+01 0.529E+01 -.921E+03   -.916E+01 -.529E+01 0.921E+03   -.231E+00 -.134E+00 0.655E+00   0.179E+00 0.103E+00 -.182E+00
   0.354E+01 0.204E+01 -.924E+03   -.349E+01 -.201E+01 0.923E+03   -.486E-01 -.281E-01 0.907E+00   0.252E-01 0.156E-01 -.167E+00
   -.354E+01 0.204E+01 -.924E+03   0.349E+01 -.202E+01 0.923E+03   0.486E-01 -.281E-01 0.907E+00   -.162E-01 0.157E-01 -.166E+00
   0.192E-04 -.106E+02 -.921E+03   0.109E-03 0.106E+02 0.921E+03   0.175E-11 0.267E+00 0.655E+00   0.432E-02 -.198E+00 -.181E+00
   0.538E-04 -.355E-04 -.267E+04   -.114E-03 0.768E-04 0.267E+04   0.447E-18 0.403E-17 0.137E+01   -.145E-04 0.155E-02 -.111E+00
   0.339E+01 0.399E+00 -.267E+04   -.243E+01 0.760E+00 0.266E+04   -.938E+00 -.112E+01 0.161E+01   -.157E+00 -.285E+00 -.663E-01
   -.339E+01 0.399E+00 -.267E+04   0.243E+01 0.760E+00 0.266E+04   0.938E+00 -.112E+01 0.161E+01   0.157E+00 -.283E+00 -.662E-01
   0.204E+01 0.273E+01 -.267E+04   -.554E+00 -.248E+01 0.266E+04   -.143E+01 -.254E+00 0.161E+01   -.331E+00 -.344E-02 -.665E-01
   -.204E+01 0.273E+01 -.267E+04   0.554E+00 -.248E+01 0.266E+04   0.143E+01 -.254E+00 0.161E+01   0.320E+00 -.274E-02 -.661E-01
   -.135E+01 -.313E+01 -.267E+04   0.187E+01 0.172E+01 0.266E+04   -.497E+00 0.137E+01 0.161E+01   -.168E+00 0.279E+00 -.662E-01
   0.135E+01 -.313E+01 -.267E+04   -.187E+01 0.172E+01 0.266E+04   0.497E+00 0.137E+01 0.161E+01   0.169E+00 0.278E+00 -.655E-01
   0.246E-04 -.123E-04 -.268E+04   0.104E-03 -.654E-04 0.268E+04   0.369E-17 -.469E-17 0.165E+01   -.644E-02 -.200E-02 -.120E+00
   -.134E-04 -.228E-05 -.105E+04   0.479E-04 0.590E-05 0.105E+04   0.142E-18 -.564E-19 0.233E+00   0.818E-03 -.673E-04 -.372E-01
   0.197E-03 -.928E-04 -.166E+04   0.270E-04 0.336E-06 0.164E+04   -.134E-18 -.480E-18 0.182E+02   0.387E-02 0.184E-02 0.259E+00
   0.812E-05 -.128E-04 -.344E+03   0.192E-05 0.651E-08 0.352E+03   0.708E-19 0.111E-19 -.856E+01   0.218E-03 0.898E-04 0.265E-01
   0.565E-03 -.780E-03 -.498E+00   0.163E-12 0.103E-12 0.239E-11   0.170E-15 0.439E-15 0.483E+01   0.371E-01 0.952E-02 -.419E+01

 POSITION                                       TOTAL-FORCE (eV/Angst)
      0.00000      0.00000      5.28219         0.000000     -0.000000     -0.036511
      2.93046      0.00000      5.28219         0.000988      0.007066      0.034040
      5.86091      0.00000      5.28219        -0.000988      0.007066      0.034040
      1.46523      2.53785      5.28219         0.006614     -0.002677      0.034040
      4.39568      2.53785      5.28219         0.000000      0.000000      0.021227
      7.32614      2.53785      5.28219        -0.006614     -0.002677      0.034040
      2.93046      5.07570      5.28219         0.005625     -0.004389      0.034040
      5.86091      5.07570      5.28219        -0.005625     -0.004389      0.034040
      8.79137      5.07570      5.28219         0.000000     -0.000000      0.014472
      1.46523      0.84595      7.67490        -0.015709     -0.009070     -0.040843
      4.39568      0.84595      7.67490        -0.000000     -0.078902     -0.070634
      7.32614      0.84595      7.67490         0.015709     -0.009070     -0.040843
      2.93046      3.38380      7.67490        -0.068331      0.039451     -0.070634
      5.86091      3.38380      7.67490         0.068331      0.039451     -0.070634
      8.79137      3.38380      7.67490        -0.000000     -0.015831      0.053483
      4.39568      5.92165      7.67490         0.000000      0.018139     -0.040843
      7.32614      5.92165      7.67490        -0.013710      0.007916      0.053483
     10.25659      5.92165      7.67490         0.013710      0.007916      0.053483
      8.79137      1.69476     10.06939        -0.000000     -0.020283     -0.006812
      2.92162      1.68680     10.02387        -0.099234     -0.057293     -0.128342
      5.86975      1.68680     10.02387         0.099234     -0.057293     -0.128342
     10.25272      4.23198     10.06895         0.047343     -0.027334      0.019265
      4.39568      4.23995     10.02387         0.000000      0.114586     -0.128342
      7.33001      4.23198     10.06895        -0.047343     -0.027334      0.019265
     11.71935      6.76617     10.06939         0.017566      0.010142     -0.006812
      5.86339      6.76617     10.06939        -0.017566      0.010142     -0.006812
      8.79137      6.76312     10.06895         0.000000      0.054667      0.019265
      0.00000      0.00000     12.45783         0.000000      0.000000     -0.002840
      2.95723      0.04373     12.49962        -0.134863     -0.239264     -0.242125
      5.83413      0.04373     12.49962         0.134863     -0.239264     -0.242125
      1.51649      2.53918     12.49962        -0.274640      0.002838     -0.242125
      7.27488      2.53918     12.49962         0.274640      0.002838     -0.242125
      2.95494      5.03064     12.49962        -0.139778      0.236427     -0.242125
      5.83643      5.03064     12.49962         0.139778      0.236427     -0.242125
      8.79137      5.07570     12.47105         0.000000      0.000000      0.027086
      4.39568      2.53785     12.22632         0.000000      0.000000      1.742551
      4.39568      2.53785     14.09277         0.000000      0.000000      0.012790
      4.39568      2.53785     15.05849         0.000000     -0.000000     -0.008614
    total drift:                                0.037671      0.008737      0.136203

  FREE ENERGIE OF THE ION-ELECTRON SYSTEM (eV)
  free  energy   TOTEN  =      -110.31552394 eV

  energy  without entropy=     -110.31552394  energy(sigma->0) =     -110.31552394

 stress matrix after NEB project (eV)
     -6.85186     -0.00000     -0.00000
     -0.00000     -6.85186      0.00000
     -0.00000     -0.00000     -0.25925
  FORCES: max atom, RMS     0.012790    0.002502
  FORCE total and by dimension    0.015420    0.012790
  Stress total and by dimension    9.693455    6.851856
|           W    W    AA    RRRRR   N    N  II  N    N   GGGG   !!!           |
|           W    W   A  A   R    R  NN   N  II  NN   N  G    G  !!!           |
|           W    W  A    A  R    R  N N  N  II  N N  N  G       !!!           |
|           W WW W  AAAAAA  RRRRR   N  N N  II  N  N N  G  GGG   !            |
|           WW  WW  A    A  R   R   N   NN  II  N   NN  G    G                |
|           W    W  A    A  R    R  N    N  II  N    N   GGGG   !!!           |
|     Tetrahedron method does not include variations of the Fermi             |
|     occupations, so forces and stress will be inaccurate. We suggest        |
|     using a different smearing scheme ISMEAR = 1 or 2 for metals in         |
|     relaxations.                                                            |

 total charge

# of ion       s       p       d       tot
    1        0.423   0.199   9.177   9.799
    2        0.416   0.204   9.177   9.796
    3        0.416   0.204   9.177   9.796
    4        0.416   0.204   9.177   9.796
    5        0.417   0.202   9.177   9.796
    6        0.416   0.204   9.177   9.796
    7        0.416   0.204   9.177   9.796
    8        0.416   0.204   9.177   9.796
    9        0.415   0.204   9.177   9.795
   10        0.411   0.268   9.163   9.842
   11        0.404   0.271   9.168   9.842
   12        0.411   0.268   9.163   9.842
   13        0.404   0.271   9.168   9.842
   14        0.404   0.271   9.168   9.842
   15        0.402   0.268   9.165   9.835
   16        0.411   0.268   9.163   9.842
   17        0.402   0.268   9.165   9.835
   18        0.402   0.268   9.165   9.835
   19        0.403   0.262   9.167   9.832
   20        0.448   0.311   9.126   9.885
   21        0.448   0.311   9.126   9.885
   22        0.392   0.272   9.164   9.828
   23        0.448   0.311   9.126   9.885
   24        0.392   0.272   9.164   9.828
   25        0.403   0.262   9.167   9.832
   26        0.403   0.262   9.167   9.832
   27        0.392   0.272   9.164   9.828
   28        0.416   0.201   9.170   9.787
   29        0.438   0.224   9.155   9.817
   30        0.438   0.224   9.155   9.817
   31        0.438   0.224   9.155   9.817
   32        0.438   0.224   9.155   9.817
   33        0.438   0.224   9.155   9.817
   34        0.438   0.224   9.155   9.817
   35        0.408   0.205   9.171   9.784
   36        0.701   0.710   3.099   4.510
   37        1.558   3.564   0.000   5.122
   38        0.603   0.126   0.000   0.729
tot         17.444  12.934 323.820 354.198

 BZINTS: Fermi energy:    0.482092;  397.000000 electrons
         Band energy:-0.149481E+04;  BLOECHL correction:   -0.028062