 vasp.6.2.0 18Jan21 (build Jun 12 2021 23:27:24) complex

 executed on             LinuxIFC date 2022.05.30  16:54:08

 INCAR:
   ISMEAR = -5
   SIGMA = 0.1
   ISPIN = 1
   EDIFF = 1.d-5
   EDIFFG = -0.01
   NSW = 0
   NELM = 150
   ENCUT = 500
   ISIF = 2
   IBRION = 2
   LREAL = Auto
   ALGO = Fast
   ICHARG = 11
   LORBIT = 10
   LCHARG = .F.
   LWAVE = .F.

 POTCAR:    PAW_PBE Ag 02Apr2005
 POTCAR:    PAW_PBE Cr 06Sep2000
 POTCAR:    PAW_PBE C 08Apr2002
|           W    W    AA    RRRRR   N    N  II  N    N   GGGG   !!!           |
|           W    W   A  A   R    R  NN   N  II  NN   N  G    G  !!!           |
|           W    W  A    A  R    R  N N  N  II  N N  N  G       !!!           |
|           W WW W  AAAAAA  RRRRR   N  N N  II  N  N N  G  GGG   !            |
|           WW  WW  A    A  R   R   N   NN  II  N   NN  G    G                |
|           W    W  A    A  R    R  N    N  II  N    N   GGGG   !!!           |
|     For optimal performance we recommend to set                             |
|       NCORE = 2 up to number-of-cores-per-socket                            |
|     This setting can greatly improve the performance of VASP for DFT.       |
|     The default, NCORE=1 might be grossly inefficient on modern             |
|     multi-core architectures or massively parallel machines. Do your        |
|     Unfortunately you need to use the default for GW and RPA                |
|     calculations (for HF NCORE is supported but not extensively tested      |
|     yet).                                                                   |

 POTCAR:    PAW_PBE Ag 02Apr2005
   VRHFIN =Ag : s1 d10

   TITEL  = PAW_PBE Ag 02Apr2005
   POMASS =  107.868; ZVAL   =   11.000    mass and valenz
   ENMAX  =  249.844; ENMIN  =  187.383 eV

 POTCAR:    PAW_PBE Cr 06Sep2000
   VRHFIN =Cr : d5 s1

   TITEL  = PAW_PBE Cr 06Sep2000
   POMASS =   51.996; ZVAL   =    6.000    mass and valenz
   ENMAX  =  227.080; ENMIN  =  170.310 eV

 POTCAR:    PAW_PBE C 08Apr2002
   VRHFIN =C: s2p2

   TITEL  = PAW_PBE C 08Apr2002
   POMASS =   12.011; ZVAL   =    4.000    mass and valenz
   ENMAX  =  400.000; ENMIN  =  300.000 eV

 Optimization of the real space projectors (new method)

 maximal supplied QI-value         = 15.12
 optimisation between [QCUT,QGAM] = [ 11.34, 22.83] = [ 36.00,145.93] Ry
 Optimized for a Real-space Cutoff    1.43 Angstroem

   l    n(q)    QCUT    max X(q) W(low)/X(q) W(high)/X(q)  e(spline)
   2      9    11.338    53.897    0.16E-03    0.20E-03    0.28E-06
   2      9    11.338    52.416    0.16E-03    0.20E-03    0.29E-06
   0     10    11.338   122.045    0.31E-04    0.76E-04    0.15E-06
   0     10    11.338    73.629    0.30E-04    0.72E-04    0.15E-06
   1      9    11.338    15.255    0.20E-03    0.19E-04    0.17E-06
   1      9    11.338     9.562    0.16E-03    0.15E-04    0.14E-06
 Optimization of the real space projectors (new method)

[...]

   l    n(q)    QCUT    max X(q) W(low)/X(q) W(high)/X(q)  e(spline)
   2      9    11.338    94.395    0.18E-03    0.10E-02    0.64E-06
   2      9    11.338    88.078    0.18E-03    0.10E-02    0.65E-06
   0     10    11.338    50.173    0.13E-03    0.16E-03    0.96E-07
   0     10    11.338    24.906    0.12E-03    0.14E-03    0.88E-07
   1      9    11.338    12.133    0.13E-03    0.15E-03    0.24E-06
   1      9    11.338     7.290    0.10E-03    0.10E-03    0.18E-06
 Optimization of the real space projectors (new method)

 maximal supplied QI-value         = 25.13
 optimisation between [QCUT,QGAM] = [ 11.31, 22.87] = [ 35.82,146.48] Ry
 Optimized for a Real-space Cutoff    1.00 Angstroem

   l    n(q)    QCUT    max X(q) W(low)/X(q) W(high)/X(q)  e(spline)
   0      7    11.310   115.676    0.43E-03    0.13E-02    0.19E-06
   0      7    11.310    87.132    0.43E-03    0.13E-02    0.18E-06
   1      6    11.310     4.429    0.42E-03    0.74E-03    0.11E-06
   1      6    11.310     2.733    0.34E-03    0.55E-03    0.92E-07
  PAW_PBE Ag 02Apr2005                  :
  PAW_PBE Cr 06Sep2000                  :
  PAW_PBE C 08Apr2002                   :

 POSCAR: Ag-Cr-C
  positions in direct lattice
  velocities in cartesian coordinates
 exchange correlation table for  LEXCH =        8
   RHO(1)=    0.500       N(1)  =     2000
   RHO(2)=  100.500       N(2)  =     4000

 VTST: version 3.2, (02/03/18)

 CHAIN: initializing optimizer

 OPT: Using VASP Conjugate-Gradient optimizer
 CHAIN: Read ICHAIN            0

 POSCAR: Ag-Cr-C
  positions in direct lattice
  velocities in cartesian coordinates

 ion  position               nearest neighbor table
   1  0.000  0.000  0.217-   2 2.93   8 2.93   7 2.93   6 2.93   4 2.93  12 2.93  16 2.93  10 2.93
                             3 2.93
   2  0.333  0.000  0.217-   1 2.93   8 2.93   9 2.93   3 2.93   4 2.93   5 2.93  10 2.93  17 2.93
                            11 2.93
   3  0.667  0.000  0.217-   9 2.93   2 2.93   5 2.93  11 2.93   7 2.93  18 2.93   1 2.93   6 2.93
                            12 2.93
   4  0.000  0.333  0.217-   5 2.93   6 2.93   2 2.93   1 2.93   7 2.93  13 2.93  15 2.93   9 2.93
                            10 2.93
   5  0.333  0.333  0.217-   4 2.93   3 2.93   7 2.93   2 2.93   8 2.93  14 2.93  13 2.93  11 2.93
                             6 2.93
   6  0.667  0.333  0.217-   4 2.93   9 2.93   1 2.93  15 2.93   8 2.93  12 2.93   3 2.93   5 2.93
                            14 2.93
   7  0.000  0.667  0.217-   8 2.93   1 2.93   5 2.93   3 2.93   4 2.93  16 2.93  18 2.93  13 2.93
                             9 2.93
   8  0.333  0.667  0.217-   7 2.93   1 2.93   2 2.93   9 2.93   5 2.93  16 2.93   6 2.93  17 2.93
                            14 2.93
   9  0.667  0.667  0.217-   3 2.93   2 2.93   8 2.93   6 2.93  17 2.93   4 2.93  15 2.93   7 2.93
                            18 2.93
  10  0.111  0.111  0.315-  20 2.91  19 2.92  26 2.92  12 2.93  16 2.93  15 2.93  17 2.93  13 2.93
                            11 2.93   2 2.93   1 2.93   4 2.93
  11  0.444  0.111  0.315-  21 2.90  20 2.90  27 2.92  14 2.93  17 2.93  18 2.93   3 2.93  12 2.93
                            13 2.93  10 2.93   5 2.93   2 2.93
  12  0.778  0.111  0.315-  21 2.91  25 2.92  19 2.92  10 2.93  16 2.93  18 2.93  15 2.93  11 2.93
                             1 2.93  14 2.93   6 2.93   3 2.93
  13  0.111  0.444  0.315-  20 2.90  23 2.90  22 2.92  15 2.93  14 2.93  18 2.93  10 2.93  11 2.93
                            16 2.93   4 2.93   5 2.93   7 2.93
  14  0.444  0.444  0.315-  23 2.90  21 2.90  24 2.92  13 2.93  11 2.93  16 2.93   5 2.93  12 2.93
                            17 2.93   8 2.93  15 2.93   6 2.93
  15  0.778  0.444  0.315-  24 2.92  22 2.92  19 2.92  13 2.93  10 2.93  12 2.93  17 2.93  18 2.93
                             4 2.93   6 2.93   9 2.93  14 2.93
  16  0.111  0.778  0.315-  23 2.91  26 2.92  25 2.92  18 2.93  12 2.93  10 2.93  14 2.93  17 2.93
                            13 2.93   7 2.93   8 2.93   1 2.93
  17  0.444  0.778  0.315-  27 2.92  24 2.92  26 2.92  11 2.93  10 2.93   9 2.93  18 2.93  15 2.93
                            16 2.93   2 2.93  14 2.93   8 2.93
  18  0.778  0.778  0.315-  22 2.92  27 2.92  25 2.92  16 2.93  12 2.93  13 2.93  11 2.93  17 2.93
                            15 2.93   7 2.93   3 2.93   9 2.93
  19  0.889  0.222  0.413-  28 2.91  15 2.92  10 2.92  12 2.92  24 2.93  22 2.93  26 2.93  25 2.93
                            20 2.94  21 2.94  32 2.96  31 2.96
  20  0.223  0.223  0.412-  36 2.73  13 2.90  11 2.90  21 2.91  23 2.91  10 2.91  31 2.91  29 2.91
                            27 2.93  22 2.93  19 2.94  26 2.94
  21  0.554  0.223  0.412-  36 2.73  11 2.90  14 2.90  20 2.91  23 2.91  12 2.91  30 2.91  32 2.91
                            27 2.93  24 2.93  25 2.94  19 2.94
  22  0.888  0.556  0.413-  35 2.91  18 2.92  15 2.92  13 2.92  24 2.92  27 2.92  25 2.93  19 2.93
                            33 2.93  31 2.93  23 2.93  20 2.93
  23  0.223  0.554  0.412-  36 2.73  14 2.90  13 2.90  21 2.91  20 2.91  16 2.91  34 2.91  33 2.91
                            22 2.93  24 2.93  26 2.94  25 2.94
  24  0.556  0.556  0.413-  35 2.91  15 2.92  17 2.92  14 2.92  27 2.92  22 2.92  19 2.93  26 2.93
                            32 2.93  34 2.93  23 2.93  21 2.93
  25  0.889  0.889  0.413-  28 2.91  18 2.92  16 2.92  12 2.92  22 2.93  27 2.93  26 2.93  19 2.93
                            23 2.94  21 2.94  33 2.96  30 2.96
  26  0.222  0.889  0.413-  28 2.91  17 2.92  16 2.92  10 2.92  27 2.93  24 2.93  25 2.93  19 2.93
                            23 2.94  20 2.94  34 2.96  29 2.96
  27  0.556  0.888  0.413-  35 2.91  17 2.92  18 2.92  11 2.92  24 2.92  22 2.92  26 2.93  25 2.93
                            29 2.93  30 2.93  20 2.93  21 2.93
  28  0.000  0.000  0.510-  26 2.91  25 2.91  19 2.91  29 2.96  34 2.96  33 2.96  32 2.96  31 2.96
                            30 2.96
  29  0.333  0.007  0.511-  30 2.87  31 2.87  36 2.88  20 2.91  27 2.93  26 2.96  35 2.96  28 2.96
                            34 3.06
  30  0.659  0.007  0.511-  29 2.87  32 2.87  36 2.88  21 2.91  27 2.93  25 2.96  35 2.96  28 2.96
                            33 3.06
  31  0.007  0.333  0.511-  33 2.87  29 2.87  36 2.88  20 2.91  22 2.93  19 2.96  35 2.96  28 2.96
                            32 3.06
  32  0.659  0.333  0.511-  34 2.87  30 2.87  36 2.88  21 2.91  24 2.93  19 2.96  35 2.96  28 2.96
                            31 3.06
  33  0.007  0.659  0.511-  31 2.87  34 2.87  36 2.88  23 2.91  22 2.93  25 2.96  35 2.96  28 2.96
                            30 3.06
  34  0.333  0.659  0.511-  32 2.87  33 2.87  36 2.88  23 2.91  24 2.93  26 2.96  35 2.96  28 2.96
                            29 3.06
  35  0.667  0.667  0.510-  24 2.91  27 2.91  22 2.91  30 2.96  32 2.96  29 2.96  34 2.96  31 2.96
                            33 2.96
  36  0.333  0.333  0.500-  37 1.64  21 2.73  20 2.73  23 2.73  31 2.88  33 2.88  30 2.88  29 2.88
                            34 2.88  32 2.88
  37  0.333  0.333  0.567-  36 1.64

  LATTYP: Found a hexagonal cell.
 ALAT       =     8.7913665772
 C/A-ratio  =     2.7711238095

  Lattice vectors:

 A1 = (  -4.3956832886,  -7.6135467898,   0.0000000000)
 A2 = (   8.7913665771,   0.0000000000,   0.0000000000)
 A3 = (   0.0000000000,   0.0000000000,  24.3619652401)

Analysis of symmetry for initial positions (statically):
 Subroutine PRICEL returns:
 Original cell was already a primitive cell.

 Routine SETGRP: Setting up the symmetry group for a
 hexagonal supercell.

 Subroutine GETGRP returns: Found  6 space group operations
 (whereof  6 operations were pure point group operations)
 out of a pool of 24 trial point group operations.

The static configuration has the point symmetry C_3v.

Analysis of symmetry for dynamics (positions and initial velocities):
 Subroutine PRICEL returns:
 Original cell was already a primitive cell.

[...]

The dynamic configuration has the point symmetry C_3v.

Analysis of constrained symmetry for selective dynamics:
 Subroutine PRICEL returns:
 Original cell was already a primitive cell.

 Routine SETGRP: Setting up the symmetry group for a
 hexagonal supercell.

 Subroutine GETGRP returns: Found  6 space group operations
[...]
     24      -5.2039      2.00000
     25      -5.1825      2.00000
     26      -5.1652      2.00000
     27      -5.1485      2.00000
     28      -5.1338      2.00000
     29      -5.1289      2.00000
     30      -5.1034      2.00000
     31      -5.0954      2.00000
     32      -5.0938      2.00000
     33      -5.0612      2.00000
     34      -5.0013      2.00000
     35      -4.9961      2.00000
     36      -4.9618      2.00000
     37      -4.9579      2.00000
     38      -4.9336      2.00000
     39      -4.9032      2.00000
     40      -4.8931      2.00000
     41      -4.8895      2.00000
     42      -4.8763      2.00000
     43      -4.8646      2.00000
     44      -4.7828      2.00000
     45      -4.7524      2.00000
     46      -4.7457      2.00000
     47      -4.7389      2.00000
     48      -4.7361      2.00000
     49      -4.7291      2.00000
     50      -4.7117      2.00000
     51      -4.7079      2.00000
     52      -4.6965      2.00000
     53      -4.6888      2.00000
     54      -4.6256      2.00000
     55      -4.6170      2.00000
     56      -4.6068      2.00000
     57      -4.5996      2.00000
     58      -4.5847      2.00000
     59      -4.5685      2.00000
     60      -4.5349      2.00000
[...]
    238       5.7792      0.00000
    239       5.8775      0.00000
    240       5.9408      0.00000
    241       6.3741      0.00000
    242       6.4094      0.00000
    243       6.5793      0.00000
    244       6.6050      0.00000
    245       6.6440      0.00000
    246       6.6631      0.00000
    247       6.7365      0.00000
    248       6.8229      0.00000
    249       6.9072      0.00000
    250       7.0535      0.00000
    251       7.1258      0.00000
    252       7.1797      0.00000

 soft charge-density along one line, spin component           1
         0         1         2         3         4         5         6         7         8         9
 total charge-density along one line

------------------------ aborting loop because EDIFF is reached ----------------------------------------

 total charge

# of ion       s       p       d       tot
    1        0.415   0.204   9.177   9.796
    2        0.418   0.203   9.176   9.798
    3        0.418   0.203   9.176   9.798
    4        0.418   0.203   9.176   9.798
    5        0.417   0.203   9.178   9.797
    6        0.418   0.203   9.176   9.798
    7        0.418   0.203   9.176   9.798
    8        0.418   0.203   9.176   9.798
    9        0.413   0.204   9.177   9.794
   10        0.405   0.271   9.164   9.839
   11        0.407   0.270   9.166   9.843
   12        0.405   0.271   9.164   9.839
   13        0.407   0.270   9.166   9.843
   14        0.407   0.270   9.166   9.843
   15        0.402   0.271   9.164   9.838
   16        0.405   0.271   9.164   9.839
   17        0.402   0.271   9.164   9.838
   18        0.402   0.271   9.164   9.838
   19        0.400   0.264   9.168   9.833
   20        0.423   0.295   9.148   9.865
   21        0.423   0.295   9.148   9.865
   22        0.396   0.277   9.164   9.836
   23        0.423   0.295   9.148   9.865
   24        0.396   0.277   9.164   9.836
   25        0.400   0.264   9.168   9.833
   26        0.400   0.264   9.168   9.833
   27        0.396   0.277   9.164   9.836
   28        0.415   0.195   9.178   9.788
   29        0.415   0.207   9.172   9.794
   30        0.415   0.207   9.172   9.794
   31        0.415   0.207   9.172   9.794
   32        0.415   0.207   9.172   9.794
   33        0.415   0.207   9.172   9.794
   34        0.415   0.207   9.172   9.794
   35        0.415   0.197   9.177   9.789
   36        0.465   0.516   4.692   5.673
   37        1.001   1.248   0.000   2.249
tot         15.839  10.170 325.590 351.599

  FORCE on cell =-STRESS in cart. coord.  units (eV):
  Direction    XX          YY          ZZ          XY          YZ          ZX
  Alpha Z   677.24882   677.24882   677.24882
  Ewald  152217.15727152217.15724************     0.00001    -0.00001     0.00002
  Hartree162063.42431162063.42430************     0.00001    -0.00000     0.00001
  E(xc)   -2068.31928 -2068.31926 -2075.60785    -0.00002     0.00000     0.00000
  Local  ************************325652.66172     0.00028    -0.00003    -0.00010
  n-local  -335.91336  -320.02026  -334.54889     9.36591    -0.43416     0.45647
  augment  3246.59959  3246.59975  3258.67372    -0.00014    -0.00000     0.00002
  Kinetic  4869.87578  4873.28405  4896.61236     4.06380     0.69891    -0.12910
  Fock        0.00000     0.00000     0.00000     0.00000     0.00000     0.00000
  Total      -9.13084    -9.13084    -0.67699    -0.00000    -0.00000     0.00000
  in kB      -8.97151    -8.97151    -0.66518    -0.00000    -0.00000     0.00000

 VOLUME and BASIS-vectors are now :
  energy-cutoff  :      500.00
  volume of cell :     1630.63
      direct lattice vectors                 reciprocal lattice vectors
     8.791366577  0.000000000  0.000000000     0.113747958 -0.065672414  0.000000000
     4.395683289  7.613546790  0.000000000     0.000000000  0.131344829  0.000000000
     0.000000000  0.000000000 24.361965240     0.000000000  0.000000000  0.041047592

  length of vectors
     8.791366577  8.791366577 24.361965240     0.131344829  0.131344829  0.041047592

 FORCES acting on ions
    electron-ion (+dipol)            ewald-force                    non-local-force                 convergence-correction
   0.464E-04 -.280E-04 0.266E+04   -.953E-04 0.593E-04 -.266E+04   0.164E-17 0.378E-17 -.198E+01   -.120E-03 -.176E-03 -.912E-01
   0.132E+00 0.388E+00 0.266E+04   -.218E+00 -.175E+00 -.266E+04   0.259E-01 -.332E-01 -.165E+01   0.553E-01 -.171E+00 -.175E-01
   -.132E+00 0.388E+00 0.266E+04   0.218E+00 -.175E+00 -.266E+04   -.259E-01 -.332E-01 -.165E+01   -.558E-01 -.169E+00 -.168E-01
   0.402E+00 -.801E-01 0.266E+04   -.261E+00 -.101E+00 -.266E+04   -.158E-01 0.390E-01 -.165E+01   -.120E+00 0.133E+00 -.175E-01
   -.705E-05 -.194E-04 0.266E+04   0.981E-04 -.200E-05 -.266E+04   0.456E-18 -.144E-17 -.164E+01   0.616E-02 0.377E-02 0.976E-01
   -.402E+00 -.801E-01 0.266E+04   0.261E+00 -.101E+00 -.266E+04   0.158E-01 0.390E-01 -.165E+01   0.119E+00 0.134E+00 -.169E-01
   0.270E+00 -.308E+00 0.266E+04   -.432E-01 0.276E+00 -.266E+04   -.417E-01 -.584E-02 -.165E+01   -.174E+00 0.366E-01 -.168E-01
   -.270E+00 -.308E+00 0.266E+04   0.431E-01 0.276E+00 -.266E+04   0.417E-01 -.584E-02 -.165E+01   0.175E+00 0.357E-01 -.168E-01
   0.363E-04 -.130E-04 0.266E+04   0.792E-04 -.642E-04 -.266E+04   0.398E-17 0.194E-17 -.188E+01   -.657E-02 -.338E-02 -.161E+00
   0.203E+01 0.117E+01 0.883E+03   -.185E+01 -.107E+01 -.882E+03   -.195E+00 -.112E+00 -.622E+00   0.193E-01 0.112E-01 0.238E+00
   -.287E-04 0.215E+01 0.886E+03   0.412E-04 -.231E+01 -.885E+03   0.392E-12 0.597E-01 -.738E+00   0.638E-02 0.671E-01 0.244E+00
   -.203E+01 0.117E+01 0.883E+03   0.185E+01 -.107E+01 -.882E+03   0.195E+00 -.112E+00 -.622E+00   -.207E-01 0.115E-01 0.237E+00
   0.186E+01 -.108E+01 0.886E+03   -.200E+01 0.116E+01 -.885E+03   0.517E-01 -.299E-01 -.738E+00   0.611E-01 -.280E-01 0.244E+00
   -.186E+01 -.108E+01 0.886E+03   0.200E+01 0.116E+01 -.885E+03   -.517E-01 -.299E-01 -.738E+00   -.511E-01 -.293E-01 0.241E+00
   0.160E-04 0.914E+00 0.884E+03   -.108E-03 -.968E+00 -.883E+03   0.237E-12 0.361E-01 -.630E+00   -.116E-02 0.101E-01 0.168E+00
   -.787E-05 -.235E+01 0.883E+03   0.207E-04 0.214E+01 -.882E+03   0.148E-11 0.225E+00 -.622E+00   -.455E-03 -.237E-01 0.237E+00
   0.791E+00 -.457E+00 0.884E+03   -.838E+00 0.484E+00 -.883E+03   0.313E-01 -.180E-01 -.630E+00   0.811E-02 -.606E-02 0.168E+00
   -.791E+00 -.457E+00 0.884E+03   0.838E+00 0.484E+00 -.883E+03   -.313E-01 -.180E-01 -.630E+00   -.760E-02 -.441E-02 0.170E+00
   0.391E-04 -.173E+01 -.919E+03   -.126E-03 0.166E+01 0.918E+03   0.598E-12 0.911E-01 0.911E+00   0.954E-03 -.189E-01 0.415E+00
   -.305E+01 -.176E+01 -.913E+03   0.329E+01 0.190E+01 0.913E+03   -.586E+00 -.338E+00 -.538E+00   0.159E+00 0.920E-01 0.545E+00
   0.305E+01 -.176E+01 -.913E+03   -.329E+01 0.190E+01 0.913E+03   0.586E+00 -.338E+00 -.538E+00   -.170E+00 0.900E-01 0.544E+00
   -.282E+01 0.163E+01 -.912E+03   0.245E+01 -.142E+01 0.911E+03   0.289E+00 -.167E+00 0.648E+00   0.120E+00 -.619E-01 0.311E+00
   -.545E-04 0.352E+01 -.913E+03   0.402E-04 -.380E+01 0.913E+03   0.444E-11 0.677E+00 -.538E+00   -.689E-02 -.192E+00 0.544E+00
   0.282E+01 0.163E+01 -.912E+03   -.245E+01 -.142E+01 0.911E+03   -.289E+00 -.167E+00 0.648E+00   -.108E+00 -.621E-01 0.311E+00
   0.149E+01 0.863E+00 -.919E+03   -.143E+01 -.828E+00 0.918E+03   -.789E-01 -.456E-01 0.911E+00   0.149E-01 0.842E-02 0.414E+00
   -.149E+01 0.863E+00 -.919E+03   0.143E+01 -.828E+00 0.918E+03   0.789E-01 -.456E-01 0.911E+00   -.162E-01 0.102E-01 0.415E+00
   0.202E-04 -.326E+01 -.912E+03   0.110E-03 0.283E+01 0.911E+03   0.219E-11 0.334E+00 0.648E+00   0.575E-02 0.135E+00 0.311E+00
   0.539E-04 -.365E-04 -.266E+04   -.114E-03 0.772E-04 0.265E+04   -.585E-17 -.934E-18 0.194E+01   0.599E-04 -.100E-03 0.113E+00
   0.631E+01 0.811E+01 -.265E+04   -.574E+01 -.748E+01 0.265E+04   -.572E+00 -.862E+00 0.242E+01   -.115E-01 0.210E+00 -.774E-02
   -.631E+01 0.811E+01 -.265E+04   0.574E+01 -.748E+01 0.265E+04   0.572E+00 -.862E+00 0.242E+01   0.107E-01 0.211E+00 -.822E-02
   0.102E+02 0.141E+01 -.265E+04   -.934E+01 -.123E+01 0.265E+04   -.103E+01 -.640E-01 0.242E+01   0.177E+00 -.115E+00 -.772E-02
   -.102E+02 0.141E+01 -.265E+04   0.934E+01 -.123E+01 0.265E+04   0.103E+01 -.640E-01 0.242E+01   -.177E+00 -.114E+00 -.663E-02
   0.387E+01 -.952E+01 -.265E+04   -.361E+01 0.871E+01 0.265E+04   -.461E+00 0.926E+00 0.242E+01   0.189E+00 -.956E-01 -.826E-02
   -.387E+01 -.952E+01 -.265E+04   0.361E+01 0.871E+01 0.265E+04   0.461E+00 0.926E+00 0.242E+01   -.188E+00 -.957E-01 -.668E-02
   0.244E-04 -.134E-04 -.266E+04   0.105E-03 -.654E-04 0.266E+04   -.784E-17 -.275E-17 0.199E+01   -.602E-02 -.304E-02 0.104E+00
   -.197E-04 -.630E-05 -.128E+04   0.576E-04 0.774E-05 0.128E+04   -.889E-18 0.624E-18 0.233E+01   0.129E-02 0.797E-03 0.103E-02
   0.442E-04 -.260E-04 -.118E+04   0.213E-04 0.357E-06 0.119E+04   -.201E-18 -.412E-18 -.572E+01   0.638E-03 0.393E-03 -.235E+00
   0.376E-03 -.724E-03 -.229E+01   -.210E-13 -.117E-12 0.864E-11   0.466E-16 -.254E-17 -.324E+01   0.888E-02 0.836E-02 0.544E+01

 POSITION                                       TOTAL-FORCE (eV/Angst)
      0.00000      0.00000      5.28219        -0.000000     -0.000000      0.021245
      2.93046      0.00000      5.28219        -0.003957      0.010026      0.017146
      5.86091      0.00000      5.28219         0.003957      0.010026      0.017146
      1.46523      2.53785      5.28219         0.006705     -0.008440      0.017146
      4.39568      2.53785      5.28219        -0.000000     -0.000000     -0.027200
      7.32614      2.53785      5.28219        -0.006705     -0.008440      0.017146
      2.93046      5.07570      5.28219         0.010661     -0.001586      0.017146
      5.86091      5.07570      5.28219        -0.010661     -0.001586      0.017146
      8.79137      5.07570      5.28219        -0.000000     -0.000000      0.038729
      1.46523      0.84595      7.67490         0.004929      0.002846     -0.009506
      4.39568      0.84595      7.67490        -0.000000     -0.035843     -0.062438
      7.32614      0.84595      7.67490        -0.004929      0.002846     -0.009506
      2.93046      3.38380      7.67490        -0.031041      0.017921     -0.062438
      5.86091      3.38380      7.67490         0.031041      0.017921     -0.062438
      8.79137      3.38380      7.67490        -0.000000     -0.008863      0.022339
      4.39568      5.92165      7.67490        -0.000000     -0.005691     -0.009506
      7.32614      5.92165      7.67490        -0.007675      0.004431      0.022339
     10.25659      5.92165      7.67490         0.007675      0.004431      0.022339
      8.79137      1.69374     10.05841         0.000000      0.003908      0.046593
      2.93927      1.69699     10.03909        -0.179257     -0.103494     -0.109933
      5.85210      1.69699     10.03909         0.179257     -0.103494     -0.109933
     10.25385      4.23133     10.05420         0.033869     -0.019554      0.028543
      4.39568      4.21957     10.03909         0.000000      0.206988     -0.109933
      7.32888      4.23133     10.05420        -0.033869     -0.019554      0.028543
     11.72023      6.76668     10.05841        -0.003385     -0.001954      0.046593
      5.86251      6.76668     10.05841         0.003385     -0.001954      0.046593
      8.79137      6.76443     10.05420         0.000000      0.039109      0.028543
      0.00000      0.00000     12.42643        -0.000000     -0.000000     -0.017356
      2.96234      0.05459     12.44639        -0.012703     -0.021912     -0.007860
      5.82903      0.05459     12.44639         0.012703     -0.021912     -0.007860
      1.52844      2.53816     12.44639        -0.025328     -0.000045     -0.007860
      7.26292      2.53816     12.44639         0.025328     -0.000045     -0.007860
      2.96179      5.02079     12.44639        -0.012625      0.021957     -0.007860
      5.82958      5.02079     12.44639         0.012625      0.021957     -0.007860
      8.79137      5.07570     12.42906        -0.000000     -0.000000     -0.011529
      4.39568      2.53785     12.18689        -0.000000     -0.000000      0.184269
      4.39568      2.53785     13.82455        -0.000000     -0.000000      0.009326
    total drift:                                0.009252      0.007639     -0.085913

  FREE ENERGIE OF THE ION-ELECTRON SYSTEM (eV)
  free  energy   TOTEN  =      -102.76195283 eV

  energy  without entropy=     -102.76195283  energy(sigma->0) =     -102.76195283

 stress matrix after NEB project (eV)
     -9.13084     -0.00000      0.00000
     -0.00000     -9.13084     -0.00000
      0.00000     -0.00000     -0.67699
  FORCES: max atom, RMS     0.009326    0.001533
  FORCE total and by dimension    0.009326    0.009326
  Stress total and by dimension   12.930692    9.130840
|           W    W    AA    RRRRR   N    N  II  N    N   GGGG   !!!           |
|           W    W   A  A   R    R  NN   N  II  NN   N  G    G  !!!           |
|           W    W  A    A  R    R  N N  N  II  N N  N  G       !!!           |
|           W WW W  AAAAAA  RRRRR   N  N N  II  N  N N  G  GGG   !            |
|           WW  WW  A    A  R   R   N   NN  II  N   NN  G    G                |
|           W    W  A    A  R    R  N    N  II  N    N   GGGG   !!!           |
|     Tetrahedron method does not include variations of the Fermi             |
|     occupations, so forces and stress will be inaccurate. We suggest        |
|     using a different smearing scheme ISMEAR = 1 or 2 for metals in         |
|     relaxations.                                                            |

 total charge

# of ion       s       p       d       tot
    1        0.415   0.204   9.177   9.796
    2        0.418   0.203   9.176   9.798
    3        0.418   0.203   9.176   9.798
    4        0.418   0.203   9.176   9.798
    5        0.417   0.203   9.178   9.797
    6        0.418   0.203   9.176   9.798
    7        0.418   0.203   9.176   9.798
    8        0.418   0.203   9.176   9.798
    9        0.413   0.204   9.177   9.794
   10        0.405   0.271   9.164   9.839
   11        0.407   0.270   9.166   9.843
   12        0.405   0.271   9.164   9.839
   13        0.407   0.270   9.166   9.843
   14        0.407   0.270   9.166   9.843
   15        0.402   0.271   9.164   9.838
   16        0.405   0.271   9.164   9.839
   17        0.402   0.271   9.164   9.838
   18        0.402   0.271   9.164   9.838
   19        0.400   0.264   9.168   9.833
   20        0.423   0.295   9.148   9.865
   21        0.423   0.295   9.148   9.865
   22        0.396   0.277   9.164   9.836
   23        0.423   0.295   9.148   9.865
   24        0.396   0.277   9.164   9.836
   25        0.400   0.264   9.168   9.833
   26        0.400   0.264   9.168   9.833
   27        0.396   0.277   9.164   9.836
   28        0.415   0.195   9.178   9.788
   29        0.415   0.207   9.172   9.794
   30        0.415   0.207   9.172   9.794
   31        0.415   0.207   9.172   9.794
   32        0.415   0.207   9.172   9.794
   33        0.415   0.207   9.172   9.794
   34        0.415   0.207   9.172   9.794
   35        0.415   0.197   9.177   9.789
   36        0.465   0.516   4.692   5.673
   37        1.001   1.248   0.000   2.249
tot         15.839  10.170 325.590 351.599

 BZINTS: Fermi energy:    0.261642;  395.000000 electrons
         Band energy:-0.150664E+04;  BLOECHL correction:   -0.028911