 vasp.6.2.0 18Jan21 (build Jun 12 2021 23:27:24) complex

 executed on             LinuxIFC date 2022.05.28  01:29:33

 INCAR:
   ISMEAR = -5
   SIGMA = 0.1
   ISPIN = 1
   EDIFF = 1.d-5
   EDIFFG = -0.01
   NSW = 0
   NELM = 150
   ENCUT = 500
   ISIF = 2
   IBRION = 2
   LREAL = Auto
   ALGO = Fast
   ICHARG = 11
   LORBIT = 10
   LCHARG = .F.
   LWAVE = .F.

 POTCAR:    PAW_PBE Ag 02Apr2005
 POTCAR:    PAW_PBE Mn 06Sep2000
 POTCAR:    PAW_PBE C 08Apr2002
 POTCAR:    PAW_PBE O 08Apr2002
|           W    W    AA    RRRRR   N    N  II  N    N   GGGG   !!!           |
|           W    W   A  A   R    R  NN   N  II  NN   N  G    G  !!!           |
|           W    W  A    A  R    R  N N  N  II  N N  N  G       !!!           |
|           W WW W  AAAAAA  RRRRR   N  N N  II  N  N N  G  GGG   !            |
|           WW  WW  A    A  R   R   N   NN  II  N   NN  G    G                |
|           W    W  A    A  R    R  N    N  II  N    N   GGGG   !!!           |
|     For optimal performance we recommend to set                             |
|       NCORE = 2 up to number-of-cores-per-socket                            |
|     This setting can greatly improve the performance of VASP for DFT.       |
|     The default, NCORE=1 might be grossly inefficient on modern             |
|     multi-core architectures or massively parallel machines. Do your        |
|     Unfortunately you need to use the default for GW and RPA                |
|     calculations (for HF NCORE is supported but not extensively tested      |
|     yet).                                                                   |

 POTCAR:    PAW_PBE Ag 02Apr2005
   VRHFIN =Ag : s1 d10

   TITEL  = PAW_PBE Ag 02Apr2005
   POMASS =  107.868; ZVAL   =   11.000    mass and valenz
   ENMAX  =  249.844; ENMIN  =  187.383 eV

 POTCAR:    PAW_PBE Mn 06Sep2000
   VRHFIN =Mn: d6 s1

   TITEL  = PAW_PBE Mn 06Sep2000
   POMASS =   54.938; ZVAL   =    7.000    mass and valenz
   ENMAX  =  269.864; ENMIN  =  202.398 eV

 POTCAR:    PAW_PBE C 08Apr2002
   VRHFIN =C: s2p2

[...]

 POTCAR:    PAW_PBE O 08Apr2002
   VRHFIN =O: s2p4

   TITEL  = PAW_PBE O 08Apr2002
   POMASS =   16.000; ZVAL   =    6.000    mass and valenz
   ENMAX  =  400.000; ENMIN  =  300.000 eV

 Optimization of the real space projectors (new method)

 maximal supplied QI-value         = 15.12
 optimisation between [QCUT,QGAM] = [ 11.34, 22.83] = [ 36.00,145.93] Ry
 Optimized for a Real-space Cutoff    1.43 Angstroem

   l    n(q)    QCUT    max X(q) W(low)/X(q) W(high)/X(q)  e(spline)
   2      9    11.338    53.897    0.16E-03    0.20E-03    0.28E-06
   2      9    11.338    52.416    0.16E-03    0.20E-03    0.29E-06
   0     10    11.338   122.045    0.31E-04    0.76E-04    0.15E-06
   0     10    11.338    73.629    0.30E-04    0.72E-04    0.15E-06
   1      9    11.338    15.255    0.20E-03    0.19E-04    0.17E-06
   1      9    11.338     9.562    0.16E-03    0.15E-04    0.14E-06
 Optimization of the real space projectors (new method)

[...]

   l    n(q)    QCUT    max X(q) W(low)/X(q) W(high)/X(q)  e(spline)
   0      7    11.310   115.676    0.43E-03    0.13E-02    0.19E-06
   0      7    11.310    87.132    0.43E-03    0.13E-02    0.18E-06
   1      6    11.310     4.429    0.42E-03    0.74E-03    0.11E-06
   1      6    11.310     2.733    0.34E-03    0.55E-03    0.92E-07
 Optimization of the real space projectors (new method)

 maximal supplied QI-value         = 24.76
 optimisation between [QCUT,QGAM] = [ 11.39, 22.77] = [ 36.31,145.25] Ry
 Optimized for a Real-space Cutoff    1.00 Angstroem

   l    n(q)    QCUT    max X(q) W(low)/X(q) W(high)/X(q)  e(spline)
   0      7    11.387    20.381    0.39E-03    0.13E-02    0.15E-06
   0      7    11.387    15.268    0.42E-03    0.14E-02    0.17E-06
   1      6    11.387     5.964    0.41E-03    0.11E-02    0.17E-06
   1      6    11.387     5.382    0.39E-03    0.87E-03    0.15E-06
  PAW_PBE Ag 02Apr2005                  :
  PAW_PBE Mn 06Sep2000                  :
  PAW_PBE C 08Apr2002                   :
  PAW_PBE O 08Apr2002                   :

 POSCAR: Ag-Mn-CO2
  positions in direct lattice
  velocities in cartesian coordinates
 exchange correlation table for  LEXCH =        8
   RHO(1)=    0.500       N(1)  =     2000
   RHO(2)=  100.500       N(2)  =     4000

 VTST: version 3.2, (02/03/18)

 CHAIN: initializing optimizer

 OPT: Using VASP Conjugate-Gradient optimizer
 CHAIN: Read ICHAIN            0

 POSCAR: Ag-Mn-CO2
  positions in direct lattice
  velocities in cartesian coordinates

 ion  position               nearest neighbor table
   1  0.000  0.000  0.217-   2 2.93   8 2.93   7 2.93   6 2.93   4 2.93  12 2.93  16 2.93  10 2.93
                             3 2.93
   2  0.333  0.000  0.217-   1 2.93   8 2.93   9 2.93   3 2.93   4 2.93   5 2.93  10 2.93  17 2.93
                            11 2.93
   3  0.667  0.000  0.217-   9 2.93   2 2.93   5 2.93  11 2.93   7 2.93  18 2.93   1 2.93   6 2.93
                            12 2.93
   4  0.000  0.333  0.217-   5 2.93   6 2.93   2 2.93   1 2.93   7 2.93  13 2.93  15 2.93   9 2.93
                            10 2.93
   5  0.333  0.333  0.217-   4 2.93   3 2.93   7 2.93   2 2.93   8 2.93  14 2.93  13 2.93  11 2.93
                             6 2.93
   6  0.667  0.333  0.217-   4 2.93   9 2.93   1 2.93  15 2.93   8 2.93  12 2.93   3 2.93   5 2.93
                            14 2.93
   7  0.000  0.667  0.217-   8 2.93   1 2.93   5 2.93   3 2.93   4 2.93  16 2.93  18 2.93  13 2.93
                             9 2.93
   8  0.333  0.667  0.217-   7 2.93   1 2.93   2 2.93   9 2.93   5 2.93  16 2.93   6 2.93  17 2.93
                            14 2.93
   9  0.667  0.667  0.217-   3 2.93   2 2.93   8 2.93   6 2.93  17 2.93   4 2.93  15 2.93   7 2.93
                            18 2.93
  10  0.111  0.111  0.315-  20 2.92  19 2.93  26 2.93  12 2.93  16 2.93  15 2.93  17 2.93  13 2.93
                            11 2.93   2 2.93   1 2.93   4 2.93
  11  0.444  0.111  0.315-  21 2.90  20 2.90  27 2.92  14 2.93  17 2.93  18 2.93   3 2.93  12 2.93
                            13 2.93  10 2.93   5 2.93   2 2.93
  12  0.778  0.111  0.315-  21 2.92  25 2.93  19 2.93  10 2.93  16 2.93  18 2.93  15 2.93  11 2.93
                             1 2.93  14 2.93   6 2.93   3 2.93
  13  0.111  0.444  0.315-  20 2.90  23 2.90  22 2.92  15 2.93  14 2.93  18 2.93  10 2.93  11 2.93
                            16 2.93   4 2.93   5 2.93   7 2.93
  14  0.444  0.444  0.315-  23 2.90  21 2.90  24 2.92  13 2.93  11 2.93  16 2.93   5 2.93  12 2.93
                            17 2.93   8 2.93  15 2.93   6 2.93
  15  0.778  0.444  0.315-  24 2.92  22 2.92  19 2.92  13 2.93  10 2.93  12 2.93  17 2.93  18 2.93
                             4 2.93   6 2.93   9 2.93  14 2.93
  16  0.111  0.778  0.315-  23 2.92  26 2.93  25 2.93  18 2.93  12 2.93  10 2.93  14 2.93  17 2.93
                            13 2.93   7 2.93   8 2.93   1 2.93
  17  0.444  0.778  0.315-  27 2.92  24 2.92  26 2.92  11 2.93  10 2.93   9 2.93  18 2.93  15 2.93
                            16 2.93   2 2.93  14 2.93   8 2.93
  18  0.778  0.778  0.315-  22 2.92  27 2.92  25 2.92  16 2.93  12 2.93  13 2.93  11 2.93  17 2.93
                            15 2.93   7 2.93   3 2.93   9 2.93
  19  0.889  0.223  0.413-  28 2.91  15 2.92  10 2.93  12 2.93  24 2.93  22 2.93  26 2.94  25 2.94
                            20 2.94  21 2.94  32 2.95  31 2.95
  20  0.223  0.223  0.412-  36 2.71  31 2.90  29 2.90  13 2.90  11 2.90  21 2.91  23 2.91  10 2.92
                            27 2.93  22 2.93  19 2.94  26 2.94
  21  0.554  0.223  0.412-  36 2.71  30 2.90  32 2.90  11 2.90  14 2.90  20 2.91  23 2.91  12 2.92
                            27 2.93  24 2.93  25 2.94  19 2.94
  22  0.888  0.556  0.413-  35 2.91  18 2.92  15 2.92  13 2.92  24 2.93  27 2.93  33 2.93  31 2.93
                            25 2.93  19 2.93  23 2.93  20 2.93
  23  0.223  0.554  0.412-  36 2.71  34 2.90  33 2.90  14 2.90  13 2.90  21 2.91  20 2.91  16 2.92
                            22 2.93  24 2.93  26 2.94  25 2.94
  24  0.556  0.556  0.413-  35 2.91  15 2.92  17 2.92  14 2.92  27 2.93  22 2.93  32 2.93  34 2.93
                            19 2.93  26 2.93  23 2.93  21 2.93
  25  0.889  0.889  0.413-  28 2.91  18 2.92  16 2.93  12 2.93  22 2.93  27 2.93  26 2.94  19 2.94
                            23 2.94  21 2.94  33 2.95  30 2.95
  26  0.223  0.889  0.413-  28 2.91  17 2.92  16 2.93  10 2.93  27 2.93  24 2.93  25 2.94  19 2.94
                            23 2.94  20 2.94  34 2.95  29 2.95
  27  0.556  0.888  0.413-  35 2.91  17 2.92  18 2.92  11 2.92  24 2.93  22 2.93  29 2.93  30 2.93
                            26 2.93  25 2.93  20 2.93  21 2.93
  28  0.000  0.000  0.510-  26 2.91  25 2.91  19 2.91  29 2.97  34 2.97  33 2.97  32 2.97  31 2.97
                            30 2.97
  29  0.333  0.008  0.511-  31 2.86  30 2.86  36 2.87  20 2.90  27 2.93  26 2.95  28 2.97  35 2.97
                            34 3.07
  30  0.659  0.008  0.511-  32 2.86  29 2.86  36 2.87  21 2.90  27 2.93  25 2.95  28 2.97  35 2.97
                            33 3.07
  31  0.008  0.333  0.511-  37 2.65  38 2.70  29 2.86  33 2.86  36 2.87  20 2.90  22 2.93  19 2.95
                            28 2.97  35 2.97  32 3.07
  32  0.659  0.333  0.511-  30 2.86  34 2.86  36 2.87  21 2.90  24 2.93  19 2.95  28 2.97  35 2.97
                            31 3.07
  33  0.008  0.659  0.511-  34 2.86  31 2.86  36 2.87  23 2.90  22 2.93  25 2.95  28 2.97  35 2.97
                            30 3.07
  34  0.333  0.659  0.511-  33 2.86  32 2.86  36 2.87  23 2.90  24 2.93  26 2.95  28 2.97  35 2.97
                            29 3.07
  35  0.667  0.667  0.510-  24 2.91  27 2.91  22 2.91  32 2.97  30 2.97  29 2.97  34 2.97  31 2.97
                            33 2.97
  36  0.333  0.333  0.500-  37 1.93  39 1.95  21 2.71  20 2.71  23 2.71  31 2.87  30 2.87  33 2.87
                            29 2.87  34 2.87  32 2.87
  37  0.259  0.321  0.573-  38 1.23  39 1.31  36 1.93  31 2.65
  38  0.166  0.307  0.608-  37 1.23  31 2.70
  39  0.388  0.355  0.576-  37 1.31  36 1.95

  LATTYP: Found a hexagonal cell.
 ALAT       =     8.7913665772
 C/A-ratio  =     2.7703738524

  Lattice vectors:

 A1 = (  -4.3956832886,  -7.6135467898,   0.0000000000)
 A2 = (   8.7913665771,   0.0000000000,   0.0000000000)
 A3 = (   0.0000000000,   0.0000000000,  24.3553720923)

Analysis of symmetry for initial positions (statically):
 Subroutine PRICEL returns:
 Original cell was already a primitive cell.

 Routine SETGRP: Setting up the symmetry group for a
 hexagonal supercell.

 Subroutine GETGRP returns: Found  1 space group operations
 (whereof  1 operations were pure point group operations)
 out of a pool of 24 trial point group operations.

The static configuration has the point symmetry C_1 .

Analysis of symmetry for dynamics (positions and initial velocities):
 Subroutine PRICEL returns:
 Original cell was already a primitive cell.

[...]

The dynamic configuration has the point symmetry C_1 .

Analysis of constrained symmetry for selective dynamics:
 Subroutine PRICEL returns:
 Original cell was already a primitive cell.

[...]
     41      -4.9609      2.00000
     42      -4.9465      2.00000
     43      -4.9216      2.00000
     44      -4.8962      2.00000
     45      -4.8915      2.00000
     46      -4.8750      2.00000
     47      -4.8699      2.00000
     48      -4.8511      2.00000
     49      -4.7827      2.00000
     50      -4.7512      2.00000
     51      -4.7430      2.00000
     52      -4.7381      2.00000
     53      -4.7327      2.00000
     54      -4.7290      2.00000
     55      -4.7127      2.00000
     56      -4.7080      2.00000
     57      -4.6914      2.00000
     58      -4.6860      2.00000
     59      -4.6226      2.00000
     60      -4.6127      2.00000
[...]
    238       5.3267      0.00000
    239       5.4579      0.00000
    240       5.6352      0.00000
    241       5.6760      0.00000
    242       5.7343      0.00000
    243       5.7943      0.00000
    244       5.8864      0.00000
    245       5.9180      0.00000
    246       6.0216      0.00000
    247       6.5367      0.00000
    248       6.5638      0.00000
    249       6.6283      0.00000
    250       6.6844      0.00000
    251       6.7220      0.00000
    252       6.7346      0.00000

 soft charge-density along one line, spin component           1
         0         1         2         3         4         5         6         7         8         9
 total charge-density along one line

------------------------ aborting loop because EDIFF is reached ----------------------------------------

 total charge

# of ion       s       p       d       tot
    1        0.419   0.200   9.179   9.798
    2        0.416   0.204   9.177   9.796
    3        0.415   0.204   9.177   9.796
    4        0.417   0.203   9.177   9.797
    5        0.419   0.203   9.175   9.796
    6        0.417   0.203   9.177   9.797
    7        0.416   0.203   9.177   9.796
    8        0.417   0.203   9.177   9.797
    9        0.413   0.203   9.179   9.795
   10        0.407   0.268   9.164   9.839
   11        0.408   0.268   9.167   9.844
   12        0.407   0.269   9.163   9.839
   13        0.407   0.268   9.168   9.843
   14        0.405   0.269   9.168   9.842
   15        0.404   0.269   9.165   9.837
   16        0.407   0.269   9.163   9.839
   17        0.402   0.270   9.165   9.837
   18        0.402   0.271   9.164   9.838
   19        0.397   0.268   9.166   9.830
   20        0.429   0.296   9.143   9.868
   21        0.429   0.293   9.148   9.871
   22        0.394   0.276   9.165   9.835
   23        0.431   0.298   9.142   9.871
   24        0.396   0.276   9.164   9.835
   25        0.402   0.264   9.169   9.835
   26        0.400   0.266   9.167   9.832
   27        0.395   0.273   9.168   9.836
   28        0.416   0.192   9.181   9.790
   29        0.410   0.210   9.178   9.799
   30        0.417   0.203   9.180   9.800
   31        0.385   0.223   9.182   9.791
   32        0.407   0.203   9.183   9.793
   33        0.417   0.205   9.181   9.803
   34        0.409   0.204   9.181   9.794
   35        0.409   0.196   9.181   9.786
   36        0.301   0.301   5.159   5.761
   37        0.878   1.662   0.000   2.540
   38        1.597   3.510   0.000   5.108
   39        1.593   3.463   0.000   5.056
tot         18.709  17.326 326.121 362.156

  FORCE on cell =-STRESS in cart. coord.  units (eV):
  Direction    XX          YY          ZZ          XY          YZ          ZX
  Alpha Z   713.81856   713.81856   713.81856
  Ewald  153871.73543153305.15185************    93.62550   -21.61126  -135.30239
  Hartree163908.05412163618.32073************    47.59232   -11.99905   -59.17163
  E(xc)   -2135.78925 -2137.08411 -2141.50538     0.23030     0.06167    -0.01212
  Local  ************************328140.61178  -136.08468    32.16168   181.39173
  n-local  -398.20880  -394.09975  -401.57033    -0.73192     0.37780     1.40577
  augment  3261.02357  3261.85309  3270.28438    -0.16270    -0.44554    -0.75595
  Kinetic  5144.72477  5173.41015  5185.56744    -4.53763     1.48532    12.44755
  Fock        0.00000     0.00000     0.00000     0.00000     0.00000     0.00000
  Total      -7.30901    -7.74092    -1.30225    -0.06881     0.03061     0.00296
  in kB      -7.18342    -7.60790    -1.27987    -0.06763     0.03009     0.00291

 VOLUME and BASIS-vectors are now :
  energy-cutoff  :      500.00
  volume of cell :     1630.19
      direct lattice vectors                 reciprocal lattice vectors
     8.791366577  0.000000000  0.000000000     0.113747958 -0.065672414  0.000000000
     4.395683289  7.613546790  0.000000000     0.000000000  0.131344829  0.000000000
     0.000000000  0.000000000 24.355372092     0.000000000  0.000000000  0.041058703

  length of vectors
     8.791366577  8.791366577 24.355372092     0.131344829  0.131344829  0.041058703

 FORCES acting on ions
    electron-ion (+dipol)            ewald-force                    non-local-force                 convergence-correction
   0.561E-01 0.795E-01 0.271E+04   -.630E-01 -.517E-01 -.271E+04   0.170E-01 0.104E-01 -.213E+01   -.104E-01 -.397E-01 -.730E-01
   0.270E+00 0.554E+00 0.272E+04   -.447E+00 -.592E+00 -.271E+04   0.806E-01 0.910E-01 -.163E+01   0.952E-01 -.397E-01 -.105E+00
   -.343E+00 0.394E+00 0.272E+04   0.510E+00 -.518E+00 -.271E+04   -.832E-01 0.113E+00 -.160E+01   -.819E-01 0.197E-01 -.143E+00
   0.665E+00 0.486E-01 0.272E+04   -.724E+00 -.155E+00 -.271E+04   0.922E-01 0.152E-01 -.165E+01   -.167E-01 0.850E-01 -.491E-01
   -.168E+00 -.643E-01 0.272E+04   0.955E-01 -.160E-02 -.271E+04   0.260E-01 0.369E-01 -.141E+01   0.472E-01 0.289E-01 -.168E-01
   -.482E+00 0.124E+00 0.272E+04   0.628E+00 -.174E+00 -.271E+04   -.143E+00 -.317E-01 -.162E+01   -.213E-01 0.756E-01 -.169E-01
   0.539E-01 -.623E+00 0.272E+04   -.181E+00 0.765E+00 -.271E+04   0.966E-01 -.104E+00 -.161E+01   0.352E-01 -.402E-01 -.121E+00
   -.142E+00 -.517E+00 0.272E+04   0.212E+00 0.674E+00 -.271E+04   -.875E-01 -.111E+00 -.159E+01   0.129E-01 -.543E-01 -.483E-01
   0.105E+00 0.839E-02 0.272E+04   -.317E-01 0.531E-01 -.271E+04   -.135E-01 -.257E-01 -.193E+01   -.611E-01 -.348E-01 -.991E-01
   0.487E+01 0.320E+01 0.971E+03   -.453E+01 -.304E+01 -.970E+03   -.358E+00 -.190E+00 -.786E+00   0.193E-01 0.380E-01 0.128E+00
   -.527E+00 0.569E+01 0.978E+03   0.606E+00 -.595E+01 -.978E+03   -.553E-01 0.159E+00 -.315E+00   -.274E-01 0.565E-01 0.117E+00
   -.435E+01 0.272E+01 0.970E+03   0.392E+01 -.269E+01 -.969E+03   0.406E+00 -.149E+00 -.744E+00   0.146E-01 0.115E+00 0.361E-01
   0.430E+01 -.302E+01 0.979E+03   -.448E+01 0.322E+01 -.979E+03   0.133E+00 -.129E+00 -.403E+00   0.901E-02 -.465E-01 0.830E-01
   -.494E+01 -.270E+01 0.978E+03   0.507E+01 0.285E+01 -.977E+03   -.153E+00 -.136E+00 -.358E+00   0.635E-01 0.838E-02 0.257E-01
   0.678E+00 0.595E+00 0.971E+03   -.588E+00 -.689E+00 -.971E+03   -.203E-01 0.516E-01 -.831E+00   -.677E-01 0.241E-01 0.704E-01
   -.757E-01 -.553E+01 0.970E+03   -.709E-02 0.502E+01 -.969E+03   0.202E-01 0.521E+00 -.764E+00   0.638E-01 -.259E-01 0.343E-01
   0.785E+00 -.110E+00 0.971E+03   -.819E+00 0.301E+00 -.970E+03   0.251E-01 -.881E-01 -.735E+00   -.660E-02 -.971E-01 0.954E-01
   -.739E+00 -.856E+00 0.971E+03   0.826E+00 0.972E+00 -.970E+03   -.231E-01 -.466E-01 -.710E+00   -.467E-01 -.587E-01 0.501E-01
   0.492E+01 0.319E+01 -.803E+03   -.486E+01 -.340E+01 0.802E+03   -.850E-01 0.153E+00 0.818E+00   0.262E-01 0.633E-01 0.541E-01
   0.172E+02 0.144E+02 -.757E+03   -.160E+02 -.137E+02 0.758E+03   -.129E+01 -.645E+00 -.107E+01   0.110E+00 0.143E-01 0.223E+00
   -.219E+02 0.134E+02 -.768E+03   0.209E+02 -.128E+02 0.768E+03   0.117E+01 -.703E+00 -.924E+00   -.117E+00 0.258E-02 0.202E+00
   0.117E+02 -.106E+02 -.789E+03   -.118E+02 0.108E+02 0.788E+03   0.209E+00 -.164E+00 0.434E+00   -.280E-01 -.798E-01 0.598E-01
   -.300E+01 -.265E+02 -.765E+03   0.290E+01 0.250E+02 0.766E+03   0.654E-01 0.157E+01 -.111E+01   0.250E-01 -.845E-01 0.177E+00
   -.891E+01 -.680E+01 -.794E+03   0.882E+01 0.684E+01 0.794E+03   0.335E-01 -.803E-01 0.507E+00   0.341E-02 0.175E-01 0.547E-01
   -.620E+00 -.190E+01 -.809E+03   0.630E+00 0.188E+01 0.808E+03   -.175E-01 -.502E-02 0.893E+00   -.572E-02 0.172E-01 0.164E+00
   0.205E+01 0.247E+01 -.806E+03   -.226E+01 -.244E+01 0.805E+03   0.984E-01 -.288E-01 0.816E+00   0.113E+00 -.496E-02 0.104E+00
   -.147E+01 0.119E+02 -.795E+03   0.162E+01 -.122E+02 0.795E+03   -.371E-01 0.324E+00 0.579E+00   -.101E+00 0.686E-01 0.105E+00
   0.152E+02 0.131E+02 -.257E+04   -.153E+02 -.131E+02 0.257E+04   -.427E-03 0.180E-01 0.202E+01   0.999E-02 -.647E-01 0.367E-01
   0.293E+02 0.112E+03 -.252E+04   -.286E+02 -.112E+03 0.251E+04   -.837E+00 -.357E+00 0.239E+01   0.649E-01 0.323E-01 -.856E-01
   -.458E+02 0.753E+02 -.255E+04   0.455E+02 -.754E+02 0.255E+04   0.523E+00 -.294E+00 0.231E+01   -.109E+00 0.152E+00 -.309E-01
   0.135E+03 -.833E+01 -.246E+04   -.136E+03 0.864E+01 0.245E+04   -.280E+00 -.264E+00 0.325E+01   0.101E+00 -.143E-01 -.955E-01
   -.872E+02 0.475E+01 -.253E+04   0.878E+02 -.478E+01 0.253E+04   -.569E-02 -.270E-01 0.306E+01   -.249E+00 0.299E-01 -.375E-01
   0.344E+02 -.106E+03 -.253E+04   -.343E+02 0.106E+03 0.253E+04   -.403E+00 0.632E+00 0.228E+01   0.137E+00 -.120E+00 0.208E-01
   -.448E+02 -.827E+02 -.254E+04   0.449E+02 0.831E+02 0.254E+04   0.966E-01 0.761E-01 0.275E+01   -.115E+00 -.187E+00 0.130E-01
   0.776E+01 -.120E+02 -.257E+04   -.781E+01 0.119E+02 0.257E+04   0.846E-01 0.988E-01 0.205E+01   -.552E-01 0.608E-01 -.645E-02
   -.208E+02 0.376E+01 -.132E+04   0.196E+02 -.417E+01 0.132E+04   0.116E+01 0.410E+00 0.117E+01   0.872E-01 0.347E-01 -.108E-01
   0.195E+02 0.161E+02 -.101E+04   -.231E+02 -.174E+02 0.100E+04   0.349E+01 0.122E+01 0.657E+01   0.961E-01 0.576E-01 -.628E-01
   0.180E+03 0.268E+02 -.176E+04   -.218E+03 -.317E+02 0.180E+04   0.378E+02 0.485E+01 -.376E+02   0.429E-01 0.237E-01 -.682E-02
   -.222E+03 -.405E+02 -.171E+04   0.265E+03 0.494E+02 0.172E+04   -.433E+02 -.897E+01 -.164E+02   -.249E-01 0.379E-01 -.205E+00
   0.154E+01 0.218E+01 0.453E+02   0.568E-13 0.227E-12 -.123E-10   -.154E+01 -.220E+01 -.460E+02   0.309E-01 0.715E-01 0.642E+00

 POSITION                                       TOTAL-FORCE (eV/Angst)
      0.00000      0.00000      5.28219        -0.000979     -0.002820     -0.032243
      2.93046      0.00000      5.28219        -0.001592      0.011842      0.036077
      5.86091      0.00000      5.28219         0.001222      0.007538      0.043852
      1.46523      2.53785      5.28219         0.015901     -0.007518      0.025318
      4.39568      2.53785      5.28219         0.000299     -0.001336      0.002444
      7.32614      2.53785      5.28219        -0.018738     -0.006675      0.017704
      2.93046      5.07570      5.28219         0.004466     -0.003363      0.031360
      5.86091      5.07570      5.28219        -0.005070     -0.009273      0.023821
      8.79137      5.07570      5.28219        -0.002100     -0.000280      0.010414
      1.46523      0.84595      7.67490         0.002972      0.004174     -0.008295
      4.39568      0.84595      7.67490        -0.004747     -0.050869     -0.070065
      7.32614      0.84595      7.67490        -0.002628      0.004562      0.000480
      2.93046      3.38380      7.67490        -0.033154      0.024871     -0.065299
      5.86091      3.38380      7.67490         0.029900      0.020110     -0.041007
      8.79137      3.38380      7.67490         0.001637     -0.019238     -0.007550
      4.39568      5.92165      7.67490         0.000486     -0.011004      0.012195
      7.32614      5.92165      7.67490        -0.016318      0.005047      0.008841
     10.25659      5.92165      7.67490         0.016539      0.009616      0.015571
      8.79137      1.69455     10.06139         0.002004      0.010039      0.087749
      2.94158      1.69832     10.04035        -0.028769     -0.007454     -0.047862
      5.84978      1.69832     10.04035         0.022723     -0.066081     -0.124716
     10.25392      4.23129     10.05365         0.049274     -0.027765      0.029846
      4.39568      4.21690     10.04035        -0.010048      0.007077     -0.055602
      7.32881      4.23129     10.05365        -0.049060     -0.030921      0.032859
     11.71953      6.76627     10.06139        -0.014277     -0.002992      0.021335
      5.86321      6.76627     10.06139         0.004341     -0.002204      0.045809
      8.79137      6.76451     10.05365         0.010780      0.049936      0.005091
      0.00000      0.00000     12.42536        -0.031832     -0.041005     -0.002954
      2.96459      0.05999     12.43855        -0.027376     -0.204012     -0.149970
      5.82677      0.05999     12.43855         0.102287     -0.253136     -0.165022
      1.53425      2.53742     12.43855        -0.352660      0.032228     -0.169322
      7.25712      2.53742     12.43855         0.341124     -0.022444     -0.233578
      2.96534      5.01614     12.43855        -0.119919      0.246930     -0.191400
      5.82603      5.01614     12.43855         0.128620      0.279497     -0.178024
      8.79137      5.07570     12.42471        -0.022495      0.030511      0.008136
      4.39568      2.53785     12.16969         0.012606      0.034715      1.125087
      3.69180      2.44622     13.96608        -0.053418     -0.024816     -0.022848
      2.80609      2.33695     14.80876         0.019357      0.000756      0.011306
      4.97179      2.69929     14.03003         0.028640      0.015759     -0.029537
    total drift:                                0.026248      0.048233     -0.105409

  FREE ENERGIE OF THE ION-ELECTRON SYSTEM (eV)
  free  energy   TOTEN  =      -118.16549554 eV

  energy  without entropy=     -118.16549554  energy(sigma->0) =     -118.16549554

 stress matrix after NEB project (eV)
     -7.30901     -0.06881      0.00296
     -0.06881     -7.74092      0.03061
      0.00296      0.03061     -1.30225
  FORCES: max atom, RMS     0.063177    0.012846
  FORCE total and by dimension    0.080221    0.053418
  Stress total and by dimension   10.726171    7.740921
|           W    W    AA    RRRRR   N    N  II  N    N   GGGG   !!!           |
|           W    W   A  A   R    R  NN   N  II  NN   N  G    G  !!!           |
|           W    W  A    A  R    R  N N  N  II  N N  N  G       !!!           |
|           W WW W  AAAAAA  RRRRR   N  N N  II  N  N N  G  GGG   !            |
|           WW  WW  A    A  R   R   N   NN  II  N   NN  G    G                |
|           W    W  A    A  R    R  N    N  II  N    N   GGGG   !!!           |
|     Tetrahedron method does not include variations of the Fermi             |
|     occupations, so forces and stress will be inaccurate. We suggest        |
|     using a different smearing scheme ISMEAR = 1 or 2 for metals in         |
|     relaxations.                                                            |

 total charge

# of ion       s       p       d       tot
    1        0.419   0.200   9.179   9.798
    2        0.416   0.204   9.177   9.796
    3        0.415   0.204   9.177   9.796
    4        0.417   0.203   9.177   9.797
    5        0.419   0.203   9.175   9.796
    6        0.417   0.203   9.177   9.797
    7        0.416   0.203   9.177   9.796
    8        0.417   0.203   9.177   9.797
    9        0.413   0.203   9.179   9.795
   10        0.407   0.268   9.164   9.839
   11        0.408   0.268   9.167   9.844
   12        0.407   0.269   9.163   9.839
   13        0.407   0.268   9.168   9.843
   14        0.405   0.269   9.168   9.842
   15        0.404   0.269   9.165   9.837
   16        0.407   0.269   9.163   9.839
   17        0.402   0.270   9.165   9.837
   18        0.402   0.271   9.164   9.838
   19        0.397   0.268   9.166   9.830
   20        0.429   0.296   9.143   9.868
   21        0.429   0.293   9.148   9.871
   22        0.394   0.276   9.165   9.835
   23        0.431   0.298   9.142   9.871
   24        0.396   0.276   9.164   9.835
   25        0.402   0.264   9.169   9.835
   26        0.400   0.266   9.167   9.832
   27        0.395   0.273   9.168   9.836
   28        0.416   0.192   9.181   9.790
   29        0.410   0.210   9.178   9.799
   30        0.417   0.203   9.180   9.800
   31        0.385   0.223   9.182   9.791
   32        0.407   0.203   9.183   9.793
   33        0.417   0.205   9.181   9.803
   34        0.409   0.204   9.181   9.794
   35        0.409   0.196   9.181   9.786
   36        0.301   0.301   5.159   5.761
   37        0.878   1.662   0.000   2.540
   38        1.597   3.510   0.000   5.108
   39        1.593   3.463   0.000   5.056
tot         18.709  17.326 326.121 362.156

 BZINTS: Fermi energy:    0.238650;  408.000000 electrons
         Band energy:-0.164016E+04;  BLOECHL correction:   -0.022816