 vasp.6.2.0 18Jan21 (build Jun 12 2021 23:27:24) complex

 executed on             LinuxIFC date 2022.05.26  19:40:11

 INCAR:
   ISMEAR = -5
   SIGMA = 0.1
   ISPIN = 1
   EDIFF = 1.d-5
   EDIFFG = -0.01
   NSW = 0
   NELM = 150
   ENCUT = 500
   ISIF = 2
   IBRION = 2
   LREAL = Auto
   ALGO = Fast
   ICHARG = 11
   LORBIT = 10
   LCHARG = .F.
   LWAVE = .F.

 POTCAR:    PAW_PBE Ag 02Apr2005
 POTCAR:    PAW_PBE Mn 06Sep2000
 POTCAR:    PAW_PBE N 08Apr2002
|           W    W    AA    RRRRR   N    N  II  N    N   GGGG   !!!           |
|           W    W   A  A   R    R  NN   N  II  NN   N  G    G  !!!           |
|           W    W  A    A  R    R  N N  N  II  N N  N  G       !!!           |
|           W WW W  AAAAAA  RRRRR   N  N N  II  N  N N  G  GGG   !            |
|           WW  WW  A    A  R   R   N   NN  II  N   NN  G    G                |
|           W    W  A    A  R    R  N    N  II  N    N   GGGG   !!!           |
|     For optimal performance we recommend to set                             |
|       NCORE = 2 up to number-of-cores-per-socket                            |
|     This setting can greatly improve the performance of VASP for DFT.       |
|     The default, NCORE=1 might be grossly inefficient on modern             |
|     multi-core architectures or massively parallel machines. Do your        |
|     Unfortunately you need to use the default for GW and RPA                |
|     calculations (for HF NCORE is supported but not extensively tested      |
|     yet).                                                                   |

 POTCAR:    PAW_PBE Ag 02Apr2005
   VRHFIN =Ag : s1 d10

   TITEL  = PAW_PBE Ag 02Apr2005
   POMASS =  107.868; ZVAL   =   11.000    mass and valenz
   ENMAX  =  249.844; ENMIN  =  187.383 eV

 POTCAR:    PAW_PBE Mn 06Sep2000
   VRHFIN =Mn: d6 s1

   TITEL  = PAW_PBE Mn 06Sep2000
   POMASS =   54.938; ZVAL   =    7.000    mass and valenz
   ENMAX  =  269.864; ENMIN  =  202.398 eV

 POTCAR:    PAW_PBE N 08Apr2002
   VRHFIN =N: s2p3

   TITEL  = PAW_PBE N 08Apr2002
   POMASS =   14.001; ZVAL   =    5.000    mass and valenz
   ENMAX  =  400.000; ENMIN  =  300.000 eV

 Optimization of the real space projectors (new method)

 maximal supplied QI-value         = 15.12
 optimisation between [QCUT,QGAM] = [ 11.34, 22.83] = [ 36.00,145.93] Ry
 Optimized for a Real-space Cutoff    1.43 Angstroem

   l    n(q)    QCUT    max X(q) W(low)/X(q) W(high)/X(q)  e(spline)
   2      9    11.338    53.897    0.16E-03    0.20E-03    0.28E-06
   2      9    11.338    52.416    0.16E-03    0.20E-03    0.29E-06
   0     10    11.338   122.045    0.31E-04    0.76E-04    0.15E-06
   0     10    11.338    73.629    0.30E-04    0.72E-04    0.15E-06
   1      9    11.338    15.255    0.20E-03    0.19E-04    0.17E-06
   1      9    11.338     9.562    0.16E-03    0.15E-04    0.14E-06
 Optimization of the real space projectors (new method)

[...]

   l    n(q)    QCUT    max X(q) W(low)/X(q) W(high)/X(q)  e(spline)
   2      8    11.376   110.144    0.49E-03    0.27E-04    0.26E-06
   2      8    11.376   103.200    0.49E-03    0.28E-04    0.27E-06
   0      9    11.376    68.437    0.57E-04    0.92E-04    0.15E-06
   0      9    11.376    33.971    0.51E-04    0.83E-04    0.14E-06
   1      9    11.376    17.065    0.34E-03    0.68E-04    0.14E-06
   1      9    11.376    12.540    0.27E-03    0.59E-04    0.11E-06
 Optimization of the real space projectors (new method)

 maximal supplied QI-value         = 25.13
 optimisation between [QCUT,QGAM] = [ 11.31, 22.87] = [ 35.82,146.48] Ry
 Optimized for a Real-space Cutoff    1.27 Angstroem

   l    n(q)    QCUT    max X(q) W(low)/X(q) W(high)/X(q)  e(spline)
   0      9    11.310    79.467    0.75E-04    0.16E-03    0.36E-06
   0      9    11.310    66.151    0.74E-04    0.16E-03    0.36E-06
   1      8    11.310    17.416    0.35E-03    0.12E-03    0.95E-06
   1      8    11.310    12.382    0.37E-03    0.13E-03    0.98E-06
  PAW_PBE Ag 02Apr2005                  :
  PAW_PBE Mn 06Sep2000                  :
  PAW_PBE N 08Apr2002                   :

 POSCAR: Ag-Mn-N
  positions in direct lattice
  velocities in cartesian coordinates
 exchange correlation table for  LEXCH =        8
   RHO(1)=    0.500       N(1)  =     2000
   RHO(2)=  100.500       N(2)  =     4000

 VTST: version 3.2, (02/03/18)

 CHAIN: initializing optimizer

 OPT: Using VASP Conjugate-Gradient optimizer
 CHAIN: Read ICHAIN            0

 POSCAR: Ag-Mn-N
  positions in direct lattice
  velocities in cartesian coordinates

 ion  position               nearest neighbor table
   1  0.000  0.000  0.238-   2 2.93   8 2.93   7 2.93   6 2.93   4 2.93  12 2.93  16 2.93  10 2.93
                             3 2.93
   2  0.333  0.000  0.238-   1 2.93   8 2.93   9 2.93   3 2.93   4 2.93   5 2.93  10 2.93  17 2.93
                            11 2.93
   3  0.667  0.000  0.238-   9 2.93   2 2.93   5 2.93  11 2.93   7 2.93  18 2.93   1 2.93   6 2.93
                            12 2.93
   4  0.000  0.333  0.238-   5 2.93   6 2.93   2 2.93   1 2.93   7 2.93  13 2.93  15 2.93   9 2.93
                            10 2.93
   5  0.333  0.333  0.238-   4 2.93   3 2.93   7 2.93   2 2.93   8 2.93  14 2.93  13 2.93  11 2.93
                             6 2.93
   6  0.667  0.333  0.238-   4 2.93   9 2.93   1 2.93  15 2.93   8 2.93  12 2.93   3 2.93   5 2.93
                            14 2.93
   7  0.000  0.667  0.238-   8 2.93   1 2.93   5 2.93   3 2.93   4 2.93  16 2.93  18 2.93  13 2.93
                             9 2.93
   8  0.333  0.667  0.238-   7 2.93   1 2.93   2 2.93   9 2.93   5 2.93  16 2.93   6 2.93  17 2.93
                            14 2.93
   9  0.667  0.667  0.238-   3 2.93   2 2.93   8 2.93   6 2.93  17 2.93   4 2.93  15 2.93   7 2.93
                            18 2.93
  10  0.111  0.111  0.346-  20 2.92  19 2.93  26 2.93  12 2.93  16 2.93  15 2.93  17 2.93  13 2.93
                            11 2.93   2 2.93   1 2.93   4 2.93
  11  0.444  0.111  0.346-  21 2.90  20 2.90  27 2.92  14 2.93  17 2.93  18 2.93   3 2.93  12 2.93
                            13 2.93  10 2.93   5 2.93   2 2.93
  12  0.778  0.111  0.346-  21 2.92  25 2.93  19 2.93  10 2.93  16 2.93  18 2.93  15 2.93  11 2.93
                             1 2.93  14 2.93   6 2.93   3 2.93
  13  0.111  0.444  0.346-  20 2.90  23 2.90  22 2.92  15 2.93  14 2.93  18 2.93  10 2.93  11 2.93
                            16 2.93   4 2.93   5 2.93   7 2.93
  14  0.444  0.444  0.346-  23 2.90  21 2.90  24 2.92  13 2.93  11 2.93  16 2.93   5 2.93  12 2.93
                            17 2.93   8 2.93  15 2.93   6 2.93
  15  0.778  0.444  0.346-  24 2.92  22 2.92  19 2.92  13 2.93  10 2.93  12 2.93  17 2.93  18 2.93
                             4 2.93   6 2.93   9 2.93  14 2.93
  16  0.111  0.778  0.346-  23 2.92  26 2.93  25 2.93  18 2.93  12 2.93  10 2.93  14 2.93  17 2.93
                            13 2.93   7 2.93   8 2.93   1 2.93
  17  0.444  0.778  0.346-  27 2.92  24 2.92  26 2.92  11 2.93  10 2.93   9 2.93  18 2.93  15 2.93
                            16 2.93   2 2.93  14 2.93   8 2.93
  18  0.778  0.778  0.346-  22 2.92  27 2.92  25 2.92  16 2.93  12 2.93  13 2.93  11 2.93  17 2.93
                            15 2.93   7 2.93   3 2.93   9 2.93
  19  0.889  0.223  0.454-  28 2.91  15 2.92  10 2.93  12 2.93  24 2.93  22 2.93  26 2.94  25 2.94
                            20 2.94  21 2.94  32 2.95  31 2.95
  20  0.223  0.223  0.453-  36 2.71  31 2.90  29 2.90  13 2.90  11 2.90  21 2.91  23 2.91  10 2.92
                            27 2.93  22 2.93  19 2.94  26 2.94
  21  0.554  0.223  0.453-  36 2.71  30 2.90  32 2.90  11 2.90  14 2.90  20 2.91  23 2.91  12 2.92
                            27 2.93  24 2.93  25 2.94  19 2.94
  22  0.888  0.556  0.453-  35 2.91  18 2.92  15 2.92  13 2.92  24 2.93  27 2.93  33 2.93  31 2.93
                            25 2.93  19 2.93  23 2.93  20 2.93
  23  0.223  0.554  0.453-  36 2.71  34 2.90  33 2.90  14 2.90  13 2.90  21 2.91  20 2.91  16 2.92
                            22 2.93  24 2.93  26 2.94  25 2.94
  24  0.556  0.556  0.453-  35 2.91  15 2.92  17 2.92  14 2.92  27 2.93  22 2.93  32 2.93  34 2.93
                            19 2.93  26 2.93  23 2.93  21 2.93
  25  0.889  0.889  0.454-  28 2.91  18 2.92  16 2.93  12 2.93  22 2.93  27 2.93  26 2.94  19 2.94
                            23 2.94  21 2.94  33 2.95  30 2.95
  26  0.223  0.889  0.454-  28 2.91  17 2.92  16 2.93  10 2.93  27 2.93  24 2.93  25 2.94  19 2.94
                            23 2.94  20 2.94  34 2.95  29 2.95
  27  0.556  0.888  0.453-  35 2.91  17 2.92  18 2.92  11 2.92  24 2.93  22 2.93  29 2.93  30 2.93
                            26 2.93  25 2.93  20 2.93  21 2.93
  28  0.000  0.000  0.560-  26 2.91  25 2.91  19 2.91  29 2.97  34 2.97  33 2.97  32 2.97  31 2.97
                            30 2.97
  29  0.333  0.008  0.561-  31 2.86  30 2.86  36 2.87  20 2.90  27 2.93  26 2.95  28 2.97  35 2.97
                            34 3.07
  30  0.659  0.008  0.561-  32 2.86  29 2.86  36 2.87  21 2.90  27 2.93  25 2.95  28 2.97  35 2.97
                            33 3.07
  31  0.008  0.333  0.561-  29 2.86  33 2.86  36 2.87  20 2.90  22 2.93  19 2.95  28 2.97  35 2.97
                            32 3.07
  32  0.659  0.333  0.561-  30 2.86  34 2.86  36 2.87  21 2.90  24 2.93  19 2.95  28 2.97  35 2.97
                            31 3.07
  33  0.008  0.659  0.561-  34 2.86  31 2.86  36 2.87  23 2.90  22 2.93  25 2.95  28 2.97  35 2.97
                            30 3.07
  34  0.333  0.659  0.561-  33 2.86  32 2.86  36 2.87  23 2.90  24 2.93  26 2.95  28 2.97  35 2.97
                            29 3.07
  35  0.667  0.667  0.560-  24 2.91  27 2.91  22 2.91  32 2.97  30 2.97  29 2.97  34 2.97  31 2.97
                            33 2.97
  36  0.333  0.333  0.549-  37 1.56  21 2.71  20 2.71  23 2.71  31 2.87  30 2.87  33 2.87  29 2.87
                            34 2.87  32 2.87
  37  0.333  0.333  0.619-  36 1.56

  LATTYP: Found a hexagonal cell.
 ALAT       =     8.7913665772
 C/A-ratio  =     2.5227160501

  Lattice vectors:

 A1 = (  -4.3956832886,  -7.6135467898,   0.0000000000)
 A2 = (   8.7913665771,   0.0000000000,   0.0000000000)
 A3 = (   0.0000000000,   0.0000000000,  22.1781215668)

Analysis of symmetry for initial positions (statically):
 Subroutine PRICEL returns:
 Original cell was already a primitive cell.

 Routine SETGRP: Setting up the symmetry group for a
 hexagonal supercell.

 Subroutine GETGRP returns: Found  6 space group operations
 (whereof  6 operations were pure point group operations)
 out of a pool of 24 trial point group operations.

The static configuration has the point symmetry C_3v.

Analysis of symmetry for dynamics (positions and initial velocities):
 Subroutine PRICEL returns:
 Original cell was already a primitive cell.

[...]

The dynamic configuration has the point symmetry C_3v.

Analysis of constrained symmetry for selective dynamics:
 Subroutine PRICEL returns:
 Original cell was already a primitive cell.

 Routine SETGRP: Setting up the symmetry group for a
 hexagonal supercell.

 Subroutine GETGRP returns: Found  6 space group operations
[...]
     24      -4.6727      2.00000
     25      -4.6592      2.00000
     26      -4.6372      2.00000
     27      -4.6172      2.00000
     28      -4.6032      2.00000
     29      -4.5976      2.00000
     30      -4.5763      2.00000
     31      -4.5692      2.00000
     32      -4.5598      2.00000
     33      -4.5285      2.00000
     34      -4.4837      2.00000
     35      -4.4588      2.00000
     36      -4.4360      2.00000
     37      -4.4195      2.00000
     38      -4.4014      2.00000
     39      -4.3751      2.00000
     40      -4.3670      2.00000
     41      -4.3562      2.00000
     42      -4.3395      2.00000
     43      -4.3201      2.00000
     44      -4.2632      2.00000
     45      -4.2257      2.00000
     46      -4.2208      2.00000
     47      -4.2093      2.00000
     48      -4.2043      2.00000
     49      -4.1973      2.00000
     50      -4.1795      2.00000
     51      -4.1751      2.00000
     52      -4.1625      2.00000
     53      -4.1564      2.00000
     54      -4.0963      2.00000
     55      -4.0847      2.00000
     56      -4.0766      2.00000
     57      -4.0687      2.00000
     58      -4.0531      2.00000
     59      -4.0340      2.00000
     60      -4.0144      2.00000
[...]
    238       6.2457      0.00000
    239       6.3226      0.00000
    240       6.3818      0.00000
    241       7.0682      0.00000
    242       7.1842      0.00000
    243       7.2257      0.00000
    244       7.2399      0.00000
    245       7.3100      0.00000
    246       7.3385      0.00000
    247       7.3886      0.00000
    248       7.4976      0.00000
    249       7.5719      0.00000
    250       7.6025      0.00000
    251       7.6266      0.00000
    252       7.7394      0.00000

 soft charge-density along one line, spin component           1
         0         1         2         3         4         5         6         7         8         9
 total charge-density along one line

------------------------ aborting loop because EDIFF is reached ----------------------------------------

 total charge

# of ion       s       p       d       tot
    1        0.418   0.202   9.177   9.797
    2        0.416   0.204   9.177   9.796
    3        0.416   0.204   9.177   9.796
    4        0.416   0.204   9.177   9.796
    5        0.419   0.201   9.178   9.798
    6        0.416   0.204   9.177   9.796
    7        0.416   0.204   9.177   9.796
    8        0.416   0.204   9.177   9.796
    9        0.413   0.205   9.176   9.794
   10        0.406   0.268   9.165   9.839
   11        0.403   0.272   9.165   9.840
   12        0.406   0.268   9.165   9.839
   13        0.403   0.272   9.165   9.840
   14        0.403   0.272   9.165   9.840
   15        0.403   0.270   9.165   9.838
   16        0.406   0.268   9.165   9.839
   17        0.403   0.270   9.165   9.838
   18        0.403   0.270   9.165   9.838
   19        0.404   0.263   9.168   9.835
   20        0.426   0.295   9.147   9.869
   21        0.426   0.295   9.147   9.869
   22        0.396   0.276   9.164   9.836
   23        0.426   0.295   9.147   9.869
   24        0.396   0.276   9.164   9.836
   25        0.404   0.263   9.168   9.835
   26        0.404   0.263   9.168   9.835
   27        0.396   0.276   9.164   9.836
   28        0.418   0.192   9.179   9.790
   29        0.409   0.207   9.179   9.795
   30        0.409   0.207   9.179   9.795
   31        0.409   0.207   9.179   9.795
   32        0.409   0.207   9.179   9.795
   33        0.409   0.207   9.179   9.795
   34        0.409   0.207   9.179   9.795
   35        0.414   0.195   9.179   9.788
   36        0.387   0.399   5.351   6.138
   37        1.355   2.197   0.000   3.552
tot         16.090  10.987 326.295 353.371

  FORCE on cell =-STRESS in cart. coord.  units (eV):
  Direction    XX          YY          ZZ          XY          YZ          ZX
  Alpha Z   750.64407   750.64407   750.64407
  Ewald  120809.51562120809.51564************     0.00003    -0.00000     0.00003
  Hartree131026.73505131026.73507************     0.00001    -0.00000     0.00001
  E(xc)   -2082.46332 -2082.46331 -2088.07764    -0.00001     0.00000     0.00000
  Local  ************************263163.25021     0.00040    -0.00005    -0.00014
  n-local  -363.58078  -346.46950  -357.43835    10.58536    -0.39913     0.56925
  augment  3251.48335  3251.48347  3254.72598    -0.00010     0.00001     0.00009
  Kinetic  4934.15936  4936.91746  4942.49990     4.38405     0.84387    -0.42293
  Fock        0.00000     0.00000     0.00000     0.00000     0.00000     0.00000
  Total      -7.93672    -7.93672    -0.91554    -0.00000     0.00000     0.00000
  in kB      -8.56611    -8.56611    -0.98814    -0.00000     0.00000     0.00000

 VOLUME and BASIS-vectors are now :
  energy-cutoff  :      500.00
  volume of cell :     1484.46
      direct lattice vectors                 reciprocal lattice vectors
     8.791366577  0.000000000  0.000000000     0.113747958 -0.065672414  0.000000000
     4.395683289  7.613546790  0.000000000     0.000000000  0.131344829  0.000000000
     0.000000000  0.000000000 22.178121567     0.000000000  0.000000000  0.045089481

  length of vectors
     8.791366577  8.791366577 22.178121567     0.131344829  0.131344829  0.045089481

 FORCES acting on ions
    electron-ion (+dipol)            ewald-force                    non-local-force                 convergence-correction
   0.459E-04 -.283E-04 0.250E+04   -.954E-04 0.593E-04 -.250E+04   -.353E-17 -.185E-17 -.178E+01   -.105E-03 -.168E-03 -.323E-01
   0.452E+00 0.386E+00 0.251E+04   -.416E+00 -.387E+00 -.250E+04   -.482E-02 0.406E-01 -.167E+01   -.288E-01 -.367E-01 -.771E-01
   -.452E+00 0.386E+00 0.251E+04   0.416E+00 -.387E+00 -.250E+04   0.482E-02 0.406E-01 -.167E+01   0.283E-01 -.348E-01 -.764E-01
   0.560E+00 0.199E+00 0.251E+04   -.543E+00 -.167E+00 -.250E+04   0.328E-01 -.245E-01 -.167E+01   -.460E-01 -.643E-02 -.771E-01
   -.578E-05 -.187E-04 0.251E+04   0.981E-04 -.200E-05 -.250E+04   0.204E-17 0.189E-17 -.168E+01   0.624E-02 0.381E-02 -.580E-01
   -.560E+00 0.199E+00 0.251E+04   0.543E+00 -.167E+00 -.250E+04   -.328E-01 -.245E-01 -.167E+01   0.446E-01 -.551E-02 -.763E-01
   0.108E+00 -.585E+00 0.251E+04   -.127E+00 0.553E+00 -.250E+04   0.376E-01 -.161E-01 -.167E+01   -.155E-01 0.424E-01 -.764E-01
   -.108E+00 -.585E+00 0.251E+04   0.127E+00 0.553E+00 -.250E+04   -.376E-01 -.161E-01 -.167E+01   0.172E-01 0.414E-01 -.762E-01
   0.361E-04 -.132E-04 0.250E+04   0.792E-04 -.643E-04 -.250E+04   -.527E-17 -.204E-17 -.170E+01   -.666E-02 -.343E-02 -.538E-01
   0.377E+01 0.217E+01 0.842E+03   -.350E+01 -.202E+01 -.841E+03   -.215E+00 -.124E+00 -.550E+00   -.538E-01 -.311E-01 0.175E-01
   -.292E-04 0.429E+01 0.849E+03   0.415E-04 -.446E+01 -.848E+03   0.879E-12 0.134E+00 -.610E+00   0.629E-02 0.228E-02 0.716E-02
   -.377E+01 0.217E+01 0.842E+03   0.350E+01 -.202E+01 -.841E+03   0.215E+00 -.124E+00 -.550E+00   0.523E-01 -.300E-01 0.173E-01
   0.372E+01 -.215E+01 0.849E+03   -.386E+01 0.223E+01 -.848E+03   0.116E+00 -.669E-01 -.610E+00   0.500E-02 0.433E-02 0.715E-02
   -.372E+01 -.215E+01 0.849E+03   0.386E+01 0.223E+01 -.848E+03   -.116E+00 -.669E-01 -.610E+00   0.565E-02 0.351E-02 0.640E-02
   0.158E-04 0.108E+01 0.843E+03   -.108E-03 -.117E+01 -.843E+03   0.199E-12 0.302E-01 -.587E+00   -.163E-02 0.407E-01 0.173E-01
   -.805E-05 -.435E+01 0.842E+03   0.207E-04 0.404E+01 -.841E+03   0.163E-11 0.249E+00 -.550E+00   0.124E-03 0.602E-01 0.173E-01
   0.936E+00 -.540E+00 0.843E+03   -.102E+01 0.586E+00 -.843E+03   0.262E-01 -.151E-01 -.587E+00   0.344E-01 -.218E-01 0.173E-01
   -.936E+00 -.540E+00 0.843E+03   0.102E+01 0.586E+00 -.843E+03   -.262E-01 -.151E-01 -.587E+00   -.344E-01 -.199E-01 0.179E-01
   0.401E-04 0.562E+00 -.847E+03   -.127E-03 -.501E+00 0.846E+03   -.410E-13 -.625E-02 0.738E+00   -.161E-03 -.505E-01 0.847E-01
   0.132E+02 0.763E+01 -.821E+03   -.125E+02 -.723E+01 0.821E+03   -.790E+00 -.456E+00 -.458E+00   -.414E-01 -.239E-01 0.126E-01
   -.132E+02 0.763E+01 -.821E+03   0.125E+02 -.723E+01 0.821E+03   0.790E+00 -.456E+00 -.458E+00   0.412E-01 -.233E-01 0.127E-01
   0.466E+01 -.269E+01 -.836E+03   -.482E+01 0.278E+01 0.836E+03   0.263E+00 -.152E+00 0.637E+00   -.813E-01 0.474E-01 0.112E-01
   -.571E-04 -.153E+02 -.821E+03   0.429E-04 0.145E+02 0.821E+03   0.599E-11 0.912E+00 -.458E+00   0.795E-03 0.480E-01 0.127E-01
   -.466E+01 -.269E+01 -.836E+03   0.482E+01 0.278E+01 0.836E+03   -.263E+00 -.152E+00 0.637E+00   0.813E-01 0.470E-01 0.108E-01
   -.487E+00 -.281E+00 -.847E+03   0.434E+00 0.251E+00 0.846E+03   0.541E-02 0.312E-02 0.738E+00   0.440E-01 0.253E-01 0.839E-01
   0.487E+00 -.281E+00 -.847E+03   -.434E+00 0.251E+00 0.846E+03   -.541E-02 0.312E-02 0.738E+00   -.441E-01 0.250E-01 0.847E-01
   0.211E-04 0.538E+01 -.836E+03   0.110E-03 -.556E+01 0.836E+03   0.199E-11 0.303E+00 0.637E+00   -.239E-03 -.941E-01 0.113E-01
   0.540E-04 -.368E-04 -.249E+04   -.114E-03 0.776E-04 0.249E+04   -.951E-18 -.997E-18 0.190E+01   0.127E-02 0.596E-03 0.714E-01
   0.216E+02 0.360E+02 -.248E+04   -.211E+02 -.354E+02 0.248E+04   -.464E+00 -.647E+00 0.239E+01   -.142E+00 -.123E+00 0.955E-02
   -.216E+02 0.360E+02 -.248E+04   0.211E+02 -.354E+02 0.248E+04   0.464E+00 -.647E+00 0.239E+01   0.131E+00 -.121E+00 0.958E-02
   0.420E+02 0.690E+00 -.248E+04   -.411E+02 -.552E+00 0.248E+04   -.792E+00 -.788E-01 0.239E+01   -.177E+00 -.614E-01 0.957E-02
   -.420E+02 0.690E+00 -.248E+04   0.411E+02 -.553E+00 0.248E+04   0.792E+00 -.788E-01 0.239E+01   0.165E+00 -.605E-01 0.961E-02
   0.204E+02 -.367E+02 -.248E+04   -.201E+02 0.359E+02 0.248E+04   -.328E+00 0.725E+00 0.239E+01   -.388E-01 0.174E+00 0.954E-02
   -.204E+02 -.367E+02 -.248E+04   0.201E+02 0.359E+02 0.248E+04   0.328E+00 0.725E+00 0.239E+01   0.300E-01 0.174E+00 0.956E-02
   0.228E-04 -.130E-04 -.249E+04   0.106E-03 -.657E-04 0.249E+04   -.262E-17 0.464E-17 0.201E+01   -.535E-02 -.266E-02 0.429E-01
   -.253E-04 -.198E-04 -.134E+04   0.674E-04 0.931E-05 0.133E+04   -.139E-17 -.366E-18 0.276E+01   0.383E-02 0.231E-02 -.898E-01
   0.107E-03 -.551E-04 -.141E+04   0.286E-04 0.526E-06 0.143E+04   0.207E-18 0.572E-19 -.191E+02   0.207E-02 0.126E-02 0.422E-01
   0.449E-03 -.760E-03 0.159E+02   -.435E-13 0.289E-12 -.909E-12   0.517E-16 0.433E-17 -.158E+02   -.161E-01 -.596E-02 -.296E-01

 POSITION                                       TOTAL-FORCE (eV/Angst)
      0.00000      0.00000      5.28219         0.000000      0.000000      0.002788
      2.93046      0.00000      5.28219         0.003763      0.003868      0.036986
      5.86091      0.00000      5.28219        -0.003763      0.003868      0.036986
      1.46523      2.53785      5.28219         0.005231      0.001325      0.036986
      4.39568      2.53785      5.28219         0.000000      0.000000      0.000952
      7.32614      2.53785      5.28219        -0.005231      0.001325      0.036986
      2.93046      5.07570      5.28219         0.001468     -0.005193      0.036986
      5.86091      5.07570      5.28219        -0.001468     -0.005193      0.036986
      8.79137      5.07570      5.28219         0.000000      0.000000      0.035957
      1.46523      0.84595      7.67490        -0.004461     -0.002576      0.001285
      4.39568      0.84595      7.67490        -0.000000     -0.036366     -0.043354
      7.32614      0.84595      7.67490         0.004461     -0.002576      0.001285
      2.93046      3.38380      7.67490        -0.031494      0.018183     -0.043354
      5.86091      3.38380      7.67490         0.031494      0.018183     -0.043354
      8.79137      3.38380      7.67490        -0.000000     -0.021407      0.014388
      4.39568      5.92165      7.67490         0.000000      0.005151      0.001285
      7.32614      5.92165      7.67490        -0.018539      0.010703      0.014388
     10.25659      5.92165      7.67490         0.018539      0.010703      0.014388
      8.79137      1.69455     10.06139         0.000000      0.004111      0.013887
      2.94158      1.69832     10.04035        -0.135110     -0.078006     -0.092654
      5.84978      1.69832     10.04035         0.135110     -0.078006     -0.092654
     10.25392      4.23129     10.05365         0.022655     -0.013080      0.013407
      4.39568      4.21690     10.04035         0.000000      0.156012     -0.092654
      7.32881      4.23129     10.05365        -0.022655     -0.013080      0.013407
     11.71953      6.76627     10.06139        -0.003560     -0.002055      0.013887
      5.86321      6.76627     10.06139         0.003560     -0.002055      0.013887
      8.79137      6.76451     10.05365         0.000000      0.026160      0.013407
      0.00000      0.00000     12.42536         0.000000      0.000000     -0.009550
      2.96459      0.05999     12.43855        -0.071845     -0.124256     -0.118077
      5.82677      0.05999     12.43855         0.071845     -0.124256     -0.118077
      1.53425      2.53742     12.43855        -0.143532     -0.000092     -0.118077
      7.25712      2.53742     12.43855         0.143532     -0.000092     -0.118077
      2.96534      5.01614     12.43855        -0.071686      0.124348     -0.118077
      5.82603      5.01614     12.43855         0.071686      0.124348     -0.118077
      8.79137      5.07570     12.42471         0.000000      0.000000     -0.005277
      4.39568      2.53785     12.16969         0.000000      0.000000      0.735166
      4.39568      2.53785     13.72732         0.000000      0.000000      0.005634
    total drift:                               -0.015621     -0.006720      0.050055

  FREE ENERGIE OF THE ION-ELECTRON SYSTEM (eV)
  free  energy   TOTEN  =      -103.83129661 eV

  energy  without entropy=     -103.83129661  energy(sigma->0) =     -103.83129661

 stress matrix after NEB project (eV)
     -7.93672     -0.00000      0.00000
     -0.00000     -7.93672      0.00000
      0.00000      0.00000     -0.91554
  FORCES: max atom, RMS     0.005634    0.000926
  FORCE total and by dimension    0.005634    0.005634
  Stress total and by dimension   11.261493    7.936719
|           W    W    AA    RRRRR   N    N  II  N    N   GGGG   !!!           |
|           W    W   A  A   R    R  NN   N  II  NN   N  G    G  !!!           |
|           W    W  A    A  R    R  N N  N  II  N N  N  G       !!!           |
|           W WW W  AAAAAA  RRRRR   N  N N  II  N  N N  G  GGG   !            |
|           WW  WW  A    A  R   R   N   NN  II  N   NN  G    G                |
|           W    W  A    A  R    R  N    N  II  N    N   GGGG   !!!           |
|     Tetrahedron method does not include variations of the Fermi             |
|     occupations, so forces and stress will be inaccurate. We suggest        |
|     using a different smearing scheme ISMEAR = 1 or 2 for metals in         |
|     relaxations.                                                            |

 total charge

# of ion       s       p       d       tot
    1        0.418   0.202   9.177   9.797
    2        0.416   0.204   9.177   9.796
    3        0.416   0.204   9.177   9.796
    4        0.416   0.204   9.177   9.796
    5        0.419   0.201   9.178   9.798
    6        0.416   0.204   9.177   9.796
    7        0.416   0.204   9.177   9.796
    8        0.416   0.204   9.177   9.796
    9        0.413   0.205   9.176   9.794
   10        0.406   0.268   9.165   9.839
   11        0.403   0.272   9.165   9.840
   12        0.406   0.268   9.165   9.839
   13        0.403   0.272   9.165   9.840
   14        0.403   0.272   9.165   9.840
   15        0.403   0.270   9.165   9.838
   16        0.406   0.268   9.165   9.839
   17        0.403   0.270   9.165   9.838
   18        0.403   0.270   9.165   9.838
   19        0.404   0.263   9.168   9.835
   20        0.426   0.295   9.147   9.869
   21        0.426   0.295   9.147   9.869
   22        0.396   0.276   9.164   9.836
   23        0.426   0.295   9.147   9.869
   24        0.396   0.276   9.164   9.836
   25        0.404   0.263   9.168   9.835
   26        0.404   0.263   9.168   9.835
   27        0.396   0.276   9.164   9.836
   28        0.418   0.192   9.179   9.790
   29        0.409   0.207   9.179   9.795
   30        0.409   0.207   9.179   9.795
   31        0.409   0.207   9.179   9.795
   32        0.409   0.207   9.179   9.795
   33        0.409   0.207   9.179   9.795
   34        0.409   0.207   9.179   9.795
   35        0.414   0.195   9.179   9.788
   36        0.387   0.399   5.351   6.138
   37        1.355   2.197   0.000   3.552
tot         16.090  10.987 326.295 353.371

 BZINTS: Fermi energy:    0.774438;  397.000000 electrons
         Band energy:-0.131618E+04;  BLOECHL correction:   -0.044718