 vasp.6.2.0 18Jan21 (build Jun 12 2021 23:27:24) complex

 executed on             LinuxIFC date 2022.05.26  19:45:27

 INCAR:
   ISMEAR = -5
   SIGMA = 0.1
   ISPIN = 1
   EDIFF = 1.d-5
   EDIFFG = -0.01
   NSW = 0
   NELM = 150
   ENCUT = 500
   ISIF = 2
   IBRION = 2
   LREAL = Auto
   ALGO = Fast
   ICHARG = 11
   LORBIT = 10
   LCHARG = .F.
   LWAVE = .F.

 POTCAR:    PAW_PBE Ag 02Apr2005
 POTCAR:    PAW_PBE Zr_sv 04Jan2005
 POTCAR:    PAW_PBE O 08Apr2002
|           W    W    AA    RRRRR   N    N  II  N    N   GGGG   !!!           |
|           W    W   A  A   R    R  NN   N  II  NN   N  G    G  !!!           |
|           W    W  A    A  R    R  N N  N  II  N N  N  G       !!!           |
|           W WW W  AAAAAA  RRRRR   N  N N  II  N  N N  G  GGG   !            |
|           WW  WW  A    A  R   R   N   NN  II  N   NN  G    G                |
|           W    W  A    A  R    R  N    N  II  N    N   GGGG   !!!           |
|     For optimal performance we recommend to set                             |
|       NCORE = 2 up to number-of-cores-per-socket                            |
|     This setting can greatly improve the performance of VASP for DFT.       |
|     The default, NCORE=1 might be grossly inefficient on modern             |
|     multi-core architectures or massively parallel machines. Do your        |
|     Unfortunately you need to use the default for GW and RPA                |
|     calculations (for HF NCORE is supported but not extensively tested      |
|     yet).                                                                   |

 POTCAR:    PAW_PBE Ag 02Apr2005
   VRHFIN =Ag : s1 d10

   TITEL  = PAW_PBE Ag 02Apr2005
   POMASS =  107.868; ZVAL   =   11.000    mass and valenz
   ENMAX  =  249.844; ENMIN  =  187.383 eV

 POTCAR:    PAW_PBE Zr_sv 04Jan2005
   VRHFIN =Zr: 4s4p5s4d

   TITEL  = PAW_PBE Zr_sv 04Jan2005
   POMASS =   91.224; ZVAL   =   12.000    mass and valenz
   ENMAX  =  229.898; ENMIN  =  172.424 eV

 POTCAR:    PAW_PBE O 08Apr2002
   VRHFIN =O: s2p4

   TITEL  = PAW_PBE O 08Apr2002
   POMASS =   16.000; ZVAL   =    6.000    mass and valenz
   ENMAX  =  400.000; ENMIN  =  300.000 eV

 Optimization of the real space projectors (new method)

 maximal supplied QI-value         = 15.12
 optimisation between [QCUT,QGAM] = [ 11.34, 22.83] = [ 36.00,145.93] Ry
 Optimized for a Real-space Cutoff    1.43 Angstroem

   l    n(q)    QCUT    max X(q) W(low)/X(q) W(high)/X(q)  e(spline)
   2      9    11.338    53.897    0.16E-03    0.20E-03    0.28E-06
   2      9    11.338    52.416    0.16E-03    0.20E-03    0.29E-06
   0     10    11.338   122.045    0.31E-04    0.76E-04    0.15E-06
   0     10    11.338    73.629    0.30E-04    0.72E-04    0.15E-06
   1      9    11.338    15.255    0.20E-03    0.19E-04    0.17E-06
   1      9    11.338     9.562    0.16E-03    0.15E-04    0.14E-06
 Optimization of the real space projectors (new method)

[...]

   l    n(q)    QCUT    max X(q) W(low)/X(q) W(high)/X(q)  e(spline)
   0     10    11.338    12.107    0.38E-04    0.13E-04    0.27E-07
   0     10    11.338     9.948    0.69E-04    0.30E-04    0.38E-07
   1     10    11.338     3.563    0.26E-04    0.18E-04    0.40E-07
   1     10    11.338     4.524    0.25E-03    0.39E-04    0.44E-06
   2      9    11.338    87.261    0.26E-03    0.91E-05    0.26E-06
   2      9    11.338    70.950    0.25E-03    0.91E-05    0.25E-06
 Optimization of the real space projectors (new method)

 maximal supplied QI-value         = 24.76
 optimisation between [QCUT,QGAM] = [ 11.39, 22.77] = [ 36.31,145.25] Ry
 Optimized for a Real-space Cutoff    1.00 Angstroem

   l    n(q)    QCUT    max X(q) W(low)/X(q) W(high)/X(q)  e(spline)
   0      7    11.387    20.381    0.39E-03    0.13E-02    0.15E-06
   0      7    11.387    15.268    0.42E-03    0.14E-02    0.17E-06
   1      6    11.387     5.964    0.41E-03    0.11E-02    0.17E-06
   1      6    11.387     5.382    0.39E-03    0.87E-03    0.15E-06
  PAW_PBE Ag 02Apr2005                  :
  PAW_PBE Zr_sv 04Jan2005               :
  PAW_PBE O 08Apr2002                   :

 POSCAR: Ag-Zr-O
  positions in direct lattice
  velocities in cartesian coordinates
 exchange correlation table for  LEXCH =        8
   RHO(1)=    0.500       N(1)  =     2000
   RHO(2)=  100.500       N(2)  =     4000

 VTST: version 3.2, (02/03/18)

 CHAIN: initializing optimizer

 OPT: Using VASP Conjugate-Gradient optimizer
 CHAIN: Read ICHAIN            0

 POSCAR: Ag-Zr-O
  positions in direct lattice
  velocities in cartesian coordinates

 ion  position               nearest neighbor table
   1  0.000  0.000  0.238-   2 2.93   8 2.93   7 2.93   6 2.93   4 2.93  12 2.93  16 2.93  10 2.93
                             3 2.93
   2  0.333  0.000  0.238-   1 2.93   8 2.93   9 2.93   3 2.93   4 2.93   5 2.93  10 2.93  17 2.93
                            11 2.93
   3  0.667  0.000  0.238-   9 2.93   2 2.93   5 2.93  11 2.93   7 2.93  18 2.93   1 2.93   6 2.93
                            12 2.93
   4  0.000  0.333  0.238-   5 2.93   6 2.93   2 2.93   1 2.93   7 2.93  13 2.93  15 2.93   9 2.93
                            10 2.93
   5  0.333  0.333  0.238-   4 2.93   3 2.93   7 2.93   2 2.93   8 2.93  14 2.93  13 2.93  11 2.93
                             6 2.93
   6  0.667  0.333  0.238-   4 2.93   9 2.93   1 2.93  15 2.93   8 2.93  12 2.93   3 2.93   5 2.93
                            14 2.93
   7  0.000  0.667  0.238-   8 2.93   1 2.93   5 2.93   3 2.93   4 2.93  16 2.93  18 2.93  13 2.93
                             9 2.93
   8  0.333  0.667  0.238-   7 2.93   1 2.93   2 2.93   9 2.93   5 2.93  16 2.93   6 2.93  17 2.93
                            14 2.93
   9  0.667  0.667  0.238-   3 2.93   2 2.93   8 2.93   6 2.93  17 2.93   4 2.93  15 2.93   7 2.93
                            18 2.93
  10  0.111  0.111  0.346-  20 2.91  19 2.92  26 2.92  12 2.93  16 2.93  15 2.93  17 2.93  13 2.93
                            11 2.93   2 2.93   1 2.93   4 2.93
  11  0.444  0.111  0.346-  21 2.91  20 2.91  14 2.93  17 2.93  18 2.93   3 2.93  12 2.93  13 2.93
                            10 2.93   5 2.93   2 2.93  27 2.93
  12  0.778  0.111  0.346-  21 2.91  25 2.92  19 2.92  10 2.93  16 2.93  18 2.93  15 2.93  11 2.93
                             1 2.93  14 2.93   6 2.93   3 2.93
  13  0.111  0.444  0.346-  20 2.91  23 2.91  15 2.93  14 2.93  18 2.93  10 2.93  11 2.93  16 2.93
                             4 2.93   5 2.93   7 2.93  22 2.93
  14  0.444  0.444  0.346-  23 2.91  21 2.91  13 2.93  11 2.93  16 2.93   5 2.93  12 2.93  17 2.93
                             8 2.93  15 2.93   6 2.93  24 2.93
  15  0.778  0.444  0.346-  19 2.92  13 2.93  10 2.93  12 2.93  17 2.93  18 2.93   4 2.93   6 2.93
                             9 2.93  14 2.93  24 2.93  22 2.93
  16  0.111  0.778  0.346-  23 2.91  26 2.92  25 2.92  18 2.93  12 2.93  10 2.93  14 2.93  17 2.93
                            13 2.93   7 2.93   8 2.93   1 2.93
  17  0.444  0.778  0.346-  26 2.92  11 2.93  10 2.93   9 2.93  18 2.93  15 2.93  16 2.93   2 2.93
                            14 2.93   8 2.93  27 2.93  24 2.93
  18  0.778  0.778  0.346-  25 2.92  16 2.93  12 2.93  13 2.93  11 2.93  17 2.93  15 2.93   7 2.93
                             3 2.93   9 2.93  22 2.93  27 2.93
  19  0.889  0.222  0.453-  10 2.92  12 2.92  15 2.92  26 2.93  25 2.93  20 2.93  21 2.93  24 2.93
                            22 2.93  28 2.93  32 2.97  31 2.97
  20  0.222  0.222  0.453-  13 2.91  11 2.91  10 2.91  36 2.92  21 2.93  23 2.93  27 2.93  22 2.93
                            19 2.93  26 2.93  31 2.97  29 2.97
  21  0.555  0.222  0.453-  11 2.91  14 2.91  12 2.91  36 2.92  20 2.93  23 2.93  27 2.93  24 2.93
                            25 2.93  19 2.93  30 2.97  32 2.97
  22  0.889  0.556  0.454-  24 2.93  27 2.93  23 2.93  20 2.93  18 2.93  15 2.93  13 2.93  25 2.93
                            19 2.93  35 2.94  33 2.95  31 2.95
  23  0.222  0.555  0.453-  14 2.91  13 2.91  16 2.91  36 2.92  21 2.93  20 2.93  22 2.93  24 2.93
                            26 2.93  25 2.93  34 2.97  33 2.97
  24  0.556  0.556  0.454-  27 2.93  22 2.93  23 2.93  21 2.93  15 2.93  17 2.93  14 2.93  19 2.93
                            26 2.93  35 2.94  32 2.95  34 2.95
  25  0.889  0.889  0.453-  16 2.92  12 2.92  18 2.92  26 2.93  19 2.93  23 2.93  21 2.93  22 2.93
                            27 2.93  28 2.93  33 2.97  30 2.97
  26  0.222  0.889  0.453-  16 2.92  10 2.92  17 2.92  25 2.93  19 2.93  23 2.93  20 2.93  27 2.93
                            24 2.93  28 2.93  34 2.97  29 2.97
  27  0.556  0.889  0.454-  24 2.93  22 2.93  20 2.93  21 2.93  17 2.93  18 2.93  11 2.93  26 2.93
                            25 2.93  35 2.94  29 2.95  30 2.95
  28  0.000  0.000  0.561-  29 2.93  34 2.93  33 2.93  32 2.93  31 2.93  30 2.93  26 2.93  25 2.93
                            19 2.93
  29  0.334  0.000  0.563-  30 2.93  36 2.93  35 2.93  31 2.93  28 2.93  34 2.94  27 2.95  26 2.97
                            20 2.97
  30  0.666  0.000  0.563-  29 2.93  36 2.93  35 2.93  32 2.93  28 2.93  33 2.94  27 2.95  25 2.97
                            21 2.97
  31  0.000  0.334  0.563-  33 2.93  36 2.93  35 2.93  29 2.93  28 2.93  32 2.94  22 2.95  19 2.97
                            20 2.97
  32  0.666  0.334  0.563-  34 2.93  36 2.93  35 2.93  30 2.93  28 2.93  31 2.94  24 2.95  19 2.97
                            21 2.97
  33  0.000  0.666  0.563-  31 2.93  36 2.93  35 2.93  34 2.93  28 2.93  30 2.94  22 2.95  25 2.97
                            23 2.97
  34  0.334  0.666  0.563-  32 2.93  36 2.93  35 2.93  33 2.93  28 2.93  29 2.94  24 2.95  26 2.97
                            23 2.97
  35  0.667  0.667  0.563-  30 2.93  29 2.93  32 2.93  34 2.93  31 2.93  33 2.93  24 2.94  27 2.94
                            22 2.94
  36  0.333  0.333  0.560-  37 1.78  21 2.92  20 2.92  23 2.92  31 2.93  33 2.93  30 2.93  29 2.93
                            34 2.93  32 2.93
  37  0.333  0.333  0.641-  36 1.78

  LATTYP: Found a hexagonal cell.
 ALAT       =     8.7913665772
 C/A-ratio  =     2.5227160501

  Lattice vectors:

 A1 = (  -4.3956832886,  -7.6135467898,   0.0000000000)
 A2 = (   8.7913665771,   0.0000000000,   0.0000000000)
 A3 = (   0.0000000000,   0.0000000000,  22.1781215668)

Analysis of symmetry for initial positions (statically):
 Subroutine PRICEL returns:
 Original cell was already a primitive cell.

 Routine SETGRP: Setting up the symmetry group for a
 hexagonal supercell.

 Subroutine GETGRP returns: Found  6 space group operations
 (whereof  6 operations were pure point group operations)
 out of a pool of 24 trial point group operations.

The static configuration has the point symmetry C_3v.

Analysis of symmetry for dynamics (positions and initial velocities):
 Subroutine PRICEL returns:
 Original cell was already a primitive cell.

[...]

The dynamic configuration has the point symmetry C_3v.

Analysis of constrained symmetry for selective dynamics:
 Subroutine PRICEL returns:
 Original cell was already a primitive cell.

 Routine SETGRP: Setting up the symmetry group for a
 hexagonal supercell.

 Subroutine GETGRP returns: Found  6 space group operations
[...]
     24      -4.7627      2.00000
     25      -4.7534      2.00000
     26      -4.7437      2.00000
     27      -4.7238      2.00000
     28      -4.7161      2.00000
     29      -4.6934      2.00000
     30      -4.6907      2.00000
     31      -4.6871      2.00000
     32      -4.6514      2.00000
     33      -4.6411      2.00000
     34      -4.6330      2.00000
     35      -4.6060      2.00000
     36      -4.5931      2.00000
     37      -4.5693      2.00000
     38      -4.5599      2.00000
     39      -4.5372      2.00000
     40      -4.5267      2.00000
     41      -4.4835      2.00000
     42      -4.4575      2.00000
     43      -4.4226      2.00000
     44      -4.4183      2.00000
     45      -4.4084      2.00000
     46      -4.3986      2.00000
     47      -4.3840      2.00000
     48      -4.2905      2.00000
     49      -4.2764      2.00000
     50      -4.2723      2.00000
     51      -4.2473      2.00000
     52      -4.2437      2.00000
     53      -4.2402      2.00000
     54      -4.2303      2.00000
     55      -4.2188      2.00000
     56      -4.2144      2.00000
     57      -4.2096      2.00000
     58      -4.1487      2.00000
     59      -4.1431      2.00000
     60      -4.1289      2.00000
[...]
    238       6.1390      0.00000
    239       6.2153      0.00000
    240       6.2679      0.00000
    241       6.3073      0.00000
    242       6.3749      0.00000
    243       6.4296      0.00000
    244       6.6200      0.00000
    245       7.2034      0.00000
    246       7.2448      0.00000
    247       7.2999      0.00000
    248       7.4121      0.00000
    249       7.4395      0.00000
    250       7.4573      0.00000
    251       7.5001      0.00000
    252       7.5829      0.00000

 soft charge-density along one line, spin component           1
         0         1         2         3         4         5         6         7         8         9
 total charge-density along one line

------------------------ aborting loop because EDIFF is reached ----------------------------------------

 total charge

# of ion       s       p       d       tot
    1        0.418   0.203   9.176   9.797
    2        0.415   0.203   9.176   9.795
    3        0.415   0.203   9.176   9.795
    4        0.415   0.203   9.176   9.795
    5        0.415   0.202   9.176   9.794
    6        0.415   0.203   9.176   9.795
    7        0.415   0.203   9.176   9.795
    8        0.415   0.203   9.176   9.795
    9        0.414   0.203   9.177   9.794
   10        0.406   0.271   9.163   9.840
   11        0.404   0.269   9.166   9.839
   12        0.406   0.271   9.163   9.840
   13        0.404   0.269   9.166   9.839
   14        0.404   0.269   9.166   9.839
   15        0.402   0.270   9.163   9.835
   16        0.406   0.271   9.163   9.840
   17        0.402   0.270   9.163   9.835
   18        0.402   0.270   9.163   9.835
   19        0.405   0.266   9.168   9.838
   20        0.428   0.290   9.148   9.866
   21        0.428   0.290   9.148   9.866
   22        0.396   0.274   9.163   9.833
   23        0.428   0.290   9.148   9.866
   24        0.396   0.274   9.163   9.833
   25        0.405   0.266   9.168   9.838
   26        0.405   0.266   9.168   9.838
   27        0.396   0.274   9.163   9.833
   28        0.414   0.208   9.171   9.793
   29        0.445   0.212   9.161   9.818
   30        0.445   0.212   9.161   9.818
   31        0.445   0.212   9.161   9.818
   32        0.445   0.212   9.161   9.818
   33        0.445   0.212   9.161   9.818
   34        0.445   0.212   9.161   9.818
   35        0.414   0.209   9.171   9.794
   36        2.226   5.998   1.793  10.017
   37        1.606   3.334   0.000   4.940
tot         18.394  17.765 322.596 358.754

  FORCE on cell =-STRESS in cart. coord.  units (eV):
  Direction    XX          YY          ZZ          XY          YZ          ZX
  Alpha Z   771.07367   771.07367   771.07367
  Ewald  121092.40627121092.40638************     0.00003     0.00000     0.00005
  Hartree131513.79091131513.79095************     0.00002     0.00000     0.00001
  E(xc)   -2110.55549 -2110.55551 -2115.49873     0.00001     0.00000     0.00000
  Local  ************************263928.88944     0.00047    -0.00006    -0.00017
  n-local  -353.37711  -337.37866  -362.45592    10.18268    -0.62011     0.56982
  augment  3224.71143  3224.71165  3242.18356    -0.00020    -0.00003    -0.00003
  Kinetic  5119.87141  5120.34253  5165.88371     2.03741     1.20535    -0.64418
  Fock        0.00000     0.00000     0.00000     0.00000     0.00000     0.00000
  Total      -4.91775    -4.91775    -0.42160    -0.00000     0.00000    -0.00000
  in kB      -5.30773    -5.30773    -0.45504    -0.00000     0.00000    -0.00000

 VOLUME and BASIS-vectors are now :
  energy-cutoff  :      500.00
  volume of cell :     1484.46
      direct lattice vectors                 reciprocal lattice vectors
     8.791366577  0.000000000  0.000000000     0.113747958 -0.065672414  0.000000000
     4.395683289  7.613546790  0.000000000     0.000000000  0.131344829  0.000000000
     0.000000000  0.000000000 22.178121567     0.000000000  0.000000000  0.045089481

  length of vectors
     8.791366577  8.791366577 22.178121567     0.131344829  0.131344829  0.045089481

 FORCES acting on ions
    electron-ion (+dipol)            ewald-force                    non-local-force                 convergence-correction
   0.460E-04 -.281E-04 0.252E+04   -.953E-04 0.593E-04 -.252E+04   -.134E-17 0.102E-17 -.168E+01   -.914E-04 -.161E-03 0.919E-01
   -.184E+00 0.552E+00 0.252E+04   0.435E-02 -.607E+00 -.252E+04   0.329E-01 0.551E-01 -.162E+01   0.135E+00 -.340E-02 0.659E-01
   0.184E+00 0.552E+00 0.252E+04   -.423E-02 -.607E+00 -.252E+04   -.329E-01 0.551E-01 -.162E+01   -.135E+00 -.155E-02 0.666E-01
   0.386E+00 -.435E+00 0.252E+04   -.524E+00 0.307E+00 -.252E+04   0.642E-01 0.938E-03 -.162E+01   0.647E-01 0.119E+00 0.658E-01
   -.601E-05 -.189E-04 0.252E+04   0.981E-04 -.201E-05 -.252E+04   0.915E-18 -.939E-19 -.167E+01   0.616E-02 0.374E-02 0.312E-01
   -.386E+00 -.435E+00 0.252E+04   0.523E+00 0.307E+00 -.252E+04   -.642E-01 0.938E-03 -.162E+01   -.660E-01 0.120E+00 0.665E-01
   0.570E+00 -.116E+00 0.252E+04   -.528E+00 0.300E+00 -.252E+04   0.313E-01 -.561E-01 -.162E+01   -.686E-01 -.116E+00 0.665E-01
   -.570E+00 -.116E+00 0.252E+04   0.528E+00 0.300E+00 -.252E+04   -.313E-01 -.561E-01 -.162E+01   0.702E-01 -.117E+00 0.665E-01
   0.364E-04 -.130E-04 0.252E+04   0.792E-04 -.643E-04 -.252E+04   -.197E-17 0.331E-18 -.173E+01   -.660E-02 -.336E-02 0.650E-01
   0.170E+01 0.983E+00 0.883E+03   -.167E+01 -.965E+00 -.882E+03   -.145E+00 -.839E-01 -.533E+00   0.966E-01 0.555E-01 -.334E+00
   -.284E-04 0.556E+01 0.886E+03   0.410E-04 -.574E+01 -.885E+03   0.849E-12 0.129E+00 -.480E+00   0.619E-02 0.125E-01 -.409E+00
   -.170E+01 0.983E+00 0.883E+03   0.167E+01 -.965E+00 -.882E+03   0.145E+00 -.839E-01 -.533E+00   -.977E-01 0.560E-01 -.335E+00
   0.482E+01 -.278E+01 0.886E+03   -.497E+01 0.287E+01 -.885E+03   0.112E+00 -.646E-01 -.480E+00   0.140E-01 -.933E-03 -.410E+00
   -.482E+01 -.278E+01 0.886E+03   0.497E+01 0.287E+01 -.885E+03   -.112E+00 -.646E-01 -.480E+00   -.395E-02 -.208E-02 -.412E+00
   0.156E-04 -.315E+01 0.879E+03   -.109E-03 0.306E+01 -.878E+03   0.282E-12 0.429E-01 -.576E+00   -.122E-02 0.609E-01 -.423E+00
   -.789E-05 -.197E+01 0.883E+03   0.208E-04 0.193E+01 -.882E+03   0.110E-11 0.168E+00 -.533E+00   -.387E-03 -.113E+00 -.336E+00
   -.273E+01 0.158E+01 0.879E+03   0.265E+01 -.153E+01 -.878E+03   0.371E-01 -.214E-01 -.576E+00   0.520E-01 -.312E-01 -.422E+00
   0.273E+01 0.158E+01 0.879E+03   -.265E+01 -.153E+01 -.878E+03   -.371E-01 -.214E-01 -.576E+00   -.518E-01 -.297E-01 -.421E+00
   0.397E-04 -.193E+01 -.785E+03   -.130E-03 0.179E+01 0.785E+03   0.877E-12 0.134E+00 0.995E+00   0.924E-03 -.275E-01 -.381E+00
   0.214E+02 0.124E+02 -.754E+03   -.211E+02 -.122E+02 0.754E+03   -.508E+00 -.293E+00 0.160E+00   -.174E-01 -.108E-01 -.425E+00
   -.214E+02 0.124E+02 -.754E+03   0.211E+02 -.122E+02 0.754E+03   0.508E+00 -.293E+00 0.160E+00   0.611E-02 -.119E-01 -.425E+00
   0.105E+02 -.606E+01 -.788E+03   -.106E+02 0.615E+01 0.788E+03   0.177E+00 -.102E+00 0.616E+00   0.176E-02 0.628E-02 -.461E+00
   -.550E-04 -.247E+02 -.754E+03   0.461E-04 0.244E+02 0.754E+03   0.385E-11 0.587E+00 0.160E+00   -.676E-02 0.114E-01 -.425E+00
   -.105E+02 -.606E+01 -.788E+03   0.106E+02 0.615E+01 0.788E+03   -.177E+00 -.102E+00 0.616E+00   0.103E-01 0.680E-02 -.460E+00
   0.167E+01 0.963E+00 -.785E+03   -.155E+01 -.897E+00 0.785E+03   -.116E+00 -.668E-01 0.995E+00   0.217E-01 0.131E-01 -.382E+00
   -.167E+01 0.963E+00 -.785E+03   0.155E+01 -.897E+00 0.785E+03   0.116E+00 -.668E-01 0.995E+00   -.123E-01 0.148E-01 -.381E+00
   0.209E-04 0.121E+02 -.788E+03   0.109E-03 -.123E+02 0.788E+03   0.134E-11 0.204E+00 0.616E+00   0.450E-02 -.142E-02 -.461E+00
   0.557E-04 -.354E-04 -.245E+04   -.119E-03 0.787E-04 0.245E+04   -.252E-17 -.106E-17 0.146E+01   0.456E-04 0.934E-04 -.412E-01
   0.352E+02 0.539E+02 -.244E+04   -.348E+02 -.535E+02 0.244E+04   -.526E+00 -.692E+00 0.191E+01   -.142E-01 0.719E-01 0.148E-01
   -.352E+02 0.539E+02 -.244E+04   0.348E+02 -.535E+02 0.244E+04   0.526E+00 -.692E+00 0.191E+01   0.132E-01 0.733E-01 0.150E-01
   0.643E+02 0.358E+01 -.244E+04   -.637E+02 -.342E+01 0.244E+04   -.862E+00 -.110E+00 0.191E+01   0.557E-01 -.482E-01 0.155E-01
   -.643E+02 0.358E+01 -.244E+04   0.637E+02 -.342E+01 0.244E+04   0.862E+00 -.110E+00 0.191E+01   -.563E-01 -.475E-01 0.166E-01
   0.290E+02 -.574E+02 -.244E+04   -.289E+02 0.569E+02 0.244E+04   -.336E+00 0.801E+00 0.191E+01   0.705E-01 -.245E-01 0.152E-01
   -.290E+02 -.574E+02 -.244E+04   0.289E+02 0.569E+02 0.244E+04   0.336E+00 0.801E+00 0.191E+01   -.693E-01 -.249E-01 0.166E-01
   0.191E-04 -.925E-05 -.246E+04   0.106E-03 -.675E-04 0.246E+04   0.125E-16 0.561E-17 0.157E+01   -.631E-02 -.294E-02 0.809E-01
   0.251E-03 -.147E-03 -.235E+04   0.112E-03 0.106E-04 0.236E+04   0.121E-17 0.701E-18 -.467E+01   0.533E-02 0.313E-02 0.174E-01
   0.197E-03 -.105E-03 -.172E+04   0.240E-04 0.300E-06 0.175E+04   -.104E-17 0.509E-18 -.249E+02   0.369E-02 0.224E-02 -.283E-01
   0.847E-03 -.901E-03 0.360E+02   -.436E-13 0.762E-13 -.123E-10   -.265E-15 0.118E-15 -.293E+02   0.242E-01 0.122E-01 -.659E+01

 POSITION                                       TOTAL-FORCE (eV/Angst)
      0.00000      0.00000      5.28219         0.000000     -0.000000     -0.008257
      2.93046      0.00000      5.28219        -0.011274     -0.002698      0.026620
      5.86091      0.00000      5.28219         0.011274     -0.002698      0.026620
      1.46523      2.53785      5.28219        -0.007973     -0.008414      0.026620
      4.39568      2.53785      5.28219         0.000000     -0.000000      0.016392
      7.32614      2.53785      5.28219         0.007973     -0.008414      0.026620
      2.93046      5.07570      5.28219         0.003301      0.011112      0.026620
      5.86091      5.07570      5.28219        -0.003301      0.011112      0.026620
      8.79137      5.07570      5.28219         0.000000     -0.000000      0.015540
      1.46523      0.84595      7.67490        -0.016216     -0.009362     -0.055158
      4.39568      0.84595      7.67490        -0.000000     -0.038704     -0.035833
      7.32614      0.84595      7.67490         0.016216     -0.009362     -0.055158
      2.93046      3.38380      7.67490        -0.033518      0.019352     -0.035833
      5.86091      3.38380      7.67490         0.033518      0.019352     -0.035833
      8.79137      3.38380      7.67490         0.000000      0.008362      0.044945
      4.39568      5.92165      7.67490         0.000000      0.018724     -0.055158
      7.32614      5.92165      7.67490         0.007242     -0.004181      0.044945
     10.25659      5.92165      7.67490        -0.007242     -0.004181      0.044945
      8.79137      1.69022     10.04930        -0.000000     -0.020889      0.026553
      2.93117      1.69231     10.04246        -0.246154     -0.142117     -0.208536
      5.86019      1.69231     10.04246         0.246154     -0.142117     -0.208536
     10.25641      4.22985     10.06824         0.023774     -0.013726      0.029910
      4.39568      4.22892     10.04246         0.000000      0.284234     -0.208536
      7.32632      4.22985     10.06824        -0.023774     -0.013726      0.029910
     11.72328      6.76844     10.04930         0.018090      0.010444      0.026553
      5.85946      6.76844     10.04930        -0.018090      0.010444      0.026553
      8.79137      6.76739     10.06824         0.000000      0.027451      0.029910
      0.00000      0.00000     12.44689         0.000000     -0.000000     -0.020763
      2.93311      0.00118     12.48352        -0.125707     -0.213557     -0.131185
      5.85826      0.00118     12.48352         0.125707     -0.213557     -0.131185
      1.46758      2.53956     12.48352        -0.247800     -0.002087     -0.131185
      7.32379      2.53956     12.48352         0.247800     -0.002087     -0.131185
      2.93015      5.07281     12.48352        -0.122092      0.215644     -0.131185
      5.86121      5.07281     12.48352         0.122092      0.215644     -0.131185
      8.79137      5.07570     12.47551         0.000000     -0.000000     -0.044389
      4.39568      2.53785     12.42634         0.000000     -0.000000      1.259019
      4.39568      2.53785     14.20555         0.000000     -0.000000      0.004205
    total drift:                                0.025007      0.011343      0.087029

  FREE ENERGIE OF THE ION-ELECTRON SYSTEM (eV)
  free  energy   TOTEN  =      -105.19686554 eV

  energy  without entropy=     -105.19686554  energy(sigma->0) =     -105.19686554

 stress matrix after NEB project (eV)
     -4.91775     -0.00000     -0.00000
     -0.00000     -4.91775      0.00000
      0.00000      0.00000     -0.42160
  FORCES: max atom, RMS     0.004205    0.000691
  FORCE total and by dimension    0.004205    0.004205
  Stress total and by dimension    6.967522    4.917754
|           W    W    AA    RRRRR   N    N  II  N    N   GGGG   !!!           |
|           W    W   A  A   R    R  NN   N  II  NN   N  G    G  !!!           |
|           W    W  A    A  R    R  N N  N  II  N N  N  G       !!!           |
|           W WW W  AAAAAA  RRRRR   N  N N  II  N  N N  G  GGG   !            |
|           WW  WW  A    A  R   R   N   NN  II  N   NN  G    G                |
|           W    W  A    A  R    R  N    N  II  N    N   GGGG   !!!           |
|     Tetrahedron method does not include variations of the Fermi             |
|     occupations, so forces and stress will be inaccurate. We suggest        |
|     using a different smearing scheme ISMEAR = 1 or 2 for metals in         |
|     relaxations.                                                            |

 total charge

# of ion       s       p       d       tot
    1        0.418   0.203   9.176   9.797
    2        0.415   0.203   9.176   9.795
    3        0.415   0.203   9.176   9.795
    4        0.415   0.203   9.176   9.795
    5        0.415   0.202   9.176   9.794
    6        0.415   0.203   9.176   9.795
    7        0.415   0.203   9.176   9.795
    8        0.415   0.203   9.176   9.795
    9        0.414   0.203   9.177   9.794
   10        0.406   0.271   9.163   9.840
   11        0.404   0.269   9.166   9.839
   12        0.406   0.271   9.163   9.840
   13        0.404   0.269   9.166   9.839
   14        0.404   0.269   9.166   9.839
   15        0.402   0.270   9.163   9.835
   16        0.406   0.271   9.163   9.840
   17        0.402   0.270   9.163   9.835
   18        0.402   0.270   9.163   9.835
   19        0.405   0.266   9.168   9.838
   20        0.428   0.290   9.148   9.866
   21        0.428   0.290   9.148   9.866
   22        0.396   0.274   9.163   9.833
   23        0.428   0.290   9.148   9.866
   24        0.396   0.274   9.163   9.833
   25        0.405   0.266   9.168   9.838
   26        0.405   0.266   9.168   9.838
   27        0.396   0.274   9.163   9.833
   28        0.414   0.208   9.171   9.793
   29        0.445   0.212   9.161   9.818
   30        0.445   0.212   9.161   9.818
   31        0.445   0.212   9.161   9.818
   32        0.445   0.212   9.161   9.818
   33        0.445   0.212   9.161   9.818
   34        0.445   0.212   9.161   9.818
   35        0.414   0.209   9.171   9.794
   36        2.226   5.998   1.793  10.017
   37        1.606   3.334   0.000   4.940
tot         18.394  17.765 322.596 358.754

 BZINTS: Fermi energy:    0.813662;  403.000000 electrons
         Band energy:-0.159730E+04;  BLOECHL correction:   -0.067844