 vasp.6.2.0 18Jan21 (build Jun 12 2021 23:27:24) complex

 executed on             LinuxIFC date 2022.05.30  18:14:30

 INCAR:
   ISMEAR = -5
   SIGMA = 0.1
   ISPIN = 1
   EDIFF = 1.d-5
   EDIFFG = -0.01
   NSW = 0
   NELM = 150
   ENCUT = 500
   ISIF = 2
   IBRION = 2
   LREAL = Auto
   ALGO = Fast
   ICHARG = 11
   LORBIT = 10
   LCHARG = .F.
   LWAVE = .F.

 POTCAR:    PAW_PBE Cu 22Jun2005
 POTCAR:    PAW_PBE Zr_sv 04Jan2005
 POTCAR:    PAW_PBE O 08Apr2002
|           W    W    AA    RRRRR   N    N  II  N    N   GGGG   !!!           |
|           W    W   A  A   R    R  NN   N  II  NN   N  G    G  !!!           |
|           W    W  A    A  R    R  N N  N  II  N N  N  G       !!!           |
|           W WW W  AAAAAA  RRRRR   N  N N  II  N  N N  G  GGG   !            |
|           WW  WW  A    A  R   R   N   NN  II  N   NN  G    G                |
|           W    W  A    A  R    R  N    N  II  N    N   GGGG   !!!           |
|     For optimal performance we recommend to set                             |
|       NCORE = 2 up to number-of-cores-per-socket                            |
|     This setting can greatly improve the performance of VASP for DFT.       |
|     The default, NCORE=1 might be grossly inefficient on modern             |
|     multi-core architectures or massively parallel machines. Do your        |
|     Unfortunately you need to use the default for GW and RPA                |
|     calculations (for HF NCORE is supported but not extensively tested      |
|     yet).                                                                   |

 POTCAR:    PAW_PBE Cu 22Jun2005
   VRHFIN =Cu: d10 p1

   TITEL  = PAW_PBE Cu 22Jun2005
   POMASS =   63.546; ZVAL   =   11.000    mass and valenz
   ENMAX  =  295.446; ENMIN  =  221.585 eV

 POTCAR:    PAW_PBE Zr_sv 04Jan2005
   VRHFIN =Zr: 4s4p5s4d

   TITEL  = PAW_PBE Zr_sv 04Jan2005
   POMASS =   91.224; ZVAL   =   12.000    mass and valenz
   ENMAX  =  229.898; ENMIN  =  172.424 eV

 POTCAR:    PAW_PBE O 08Apr2002
   VRHFIN =O: s2p4

   TITEL  = PAW_PBE O 08Apr2002
   POMASS =   16.000; ZVAL   =    6.000    mass and valenz
   ENMAX  =  400.000; ENMIN  =  300.000 eV

 Optimization of the real space projectors (new method)

 maximal supplied QI-value         = 16.25
 optimisation between [QCUT,QGAM] = [ 11.38, 22.75] = [ 36.24,144.96] Ry
 Optimized for a Real-space Cutoff    1.52 Angstroem

   l    n(q)    QCUT    max X(q) W(low)/X(q) W(high)/X(q)  e(spline)
   2      9    11.376     4.610    0.21E-03    0.10E-03    0.26E-06
   2      9    11.376     8.522    0.33E-03    0.16E-03    0.37E-06
   0     10    11.376    51.609    0.62E-04    0.20E-04    0.13E-06
   0     10    11.376    27.747    0.54E-04    0.20E-04    0.13E-06
   1     10    11.376    20.408    0.13E-04    0.99E-04    0.19E-06
   1     10    11.376    13.425    0.12E-04    0.87E-04    0.17E-06
 Optimization of the real space projectors (new method)

[...]

   l    n(q)    QCUT    max X(q) W(low)/X(q) W(high)/X(q)  e(spline)
   0     10    11.338    12.107    0.38E-04    0.13E-04    0.27E-07
   0     10    11.338     9.948    0.69E-04    0.30E-04    0.38E-07
   1     10    11.338     3.563    0.26E-04    0.18E-04    0.40E-07
   1     10    11.338     4.524    0.25E-03    0.39E-04    0.44E-06
   2      9    11.338    87.261    0.26E-03    0.91E-05    0.26E-06
   2      9    11.338    70.950    0.25E-03    0.91E-05    0.25E-06
 Optimization of the real space projectors (new method)

 maximal supplied QI-value         = 24.76
 optimisation between [QCUT,QGAM] = [ 11.39, 22.77] = [ 36.31,145.25] Ry
 Optimized for a Real-space Cutoff    1.00 Angstroem

   l    n(q)    QCUT    max X(q) W(low)/X(q) W(high)/X(q)  e(spline)
   0      7    11.387    20.381    0.39E-03    0.13E-02    0.15E-06
   0      7    11.387    15.268    0.42E-03    0.14E-02    0.17E-06
   1      6    11.387     5.964    0.41E-03    0.11E-02    0.17E-06
   1      6    11.387     5.382    0.39E-03    0.87E-03    0.15E-06
  PAW_PBE Cu 22Jun2005                  :
  PAW_PBE Zr_sv 04Jan2005               :
  PAW_PBE O 08Apr2002                   :

 POSCAR: Cu-Zr-O2
  positions in direct lattice
  velocities in cartesian coordinates
 exchange correlation table for  LEXCH =        8
   RHO(1)=    0.500       N(1)  =     2000
   RHO(2)=  100.500       N(2)  =     4000

 VTST: version 3.2, (02/03/18)

 CHAIN: initializing optimizer

 OPT: Using VASP Conjugate-Gradient optimizer
 CHAIN: Read ICHAIN            0

 POSCAR: Cu-Zr-O2
  positions in direct lattice
  velocities in cartesian coordinates

 ion  position               nearest neighbor table
   1  0.000  0.000  0.226-   7 2.57   3 2.57   4 2.57   2 2.57   6 2.57   8 2.57  12 2.57  10 2.57
                            16 2.57
   2  0.333  0.000  0.226-   8 2.57   9 2.57   5 2.57   1 2.57   3 2.57  11 2.57   4 2.57  10 2.57
                            17 2.57
   3  0.667  0.000  0.226-   1 2.57   7 2.57   6 2.57   9 2.57   2 2.57  12 2.57   5 2.57  18 2.57
                            11 2.57
   4  0.000  0.333  0.226-   5 2.57   6 2.57   1 2.57   7 2.57   2 2.57  13 2.57   9 2.57  10 2.57
                            15 2.57
   5  0.333  0.333  0.226-   4 2.57   2 2.57   7 2.57  13 2.57   8 2.57   6 2.57   3 2.57  11 2.57
                            14 2.57
   6  0.667  0.333  0.226-   4 2.57   9 2.57  15 2.57   3 2.57   1 2.57   8 2.57  14 2.57   5 2.57
                            12 2.57
   7  0.000  0.667  0.226-   1 2.57   3 2.57  16 2.57  18 2.57   4 2.57   5 2.57   8 2.57   9 2.57
                            13 2.57
   8  0.333  0.667  0.226-   9 2.57   2 2.57  17 2.57   6 2.57   1 2.57   7 2.57   5 2.57  14 2.57
                            16 2.57
   9  0.667  0.667  0.226-   8 2.57   6 2.57   2 2.57  17 2.57   3 2.57   7 2.57   4 2.57  15 2.57
                            18 2.57
  10  0.111  0.111  0.314-  26 2.54  19 2.54  11 2.57  12 2.57  13 2.57   1 2.57   2 2.57   4 2.57
                            15 2.57  16 2.57  17 2.57  20 2.59
  11  0.444  0.111  0.314-  27 2.56  10 2.57  13 2.57   2 2.57  17 2.57  14 2.57  12 2.57   5 2.57
                             3 2.57  18 2.57  20 2.58  21 2.58
  12  0.778  0.111  0.314-  19 2.54  25 2.54  15 2.57  10 2.57  14 2.57  18 2.57   3 2.57   1 2.57
                            16 2.57  11 2.57   6 2.57  21 2.59
  13  0.111  0.444  0.314-  22 2.56  16 2.57  18 2.57  10 2.57  11 2.57  14 2.57   5 2.57   4 2.57
                             7 2.57  15 2.57  23 2.58  20 2.58
  14  0.444  0.444  0.314-  24 2.56  15 2.57  17 2.57  12 2.57  16 2.57  13 2.57  11 2.57   6 2.57
                             8 2.57   5 2.57  21 2.58  23 2.58
  15  0.778  0.444  0.314-  19 2.54  24 2.56  22 2.56  14 2.57  17 2.57  12 2.57   6 2.57  18 2.57
                            10 2.57   9 2.57  13 2.57   4 2.57
  16  0.111  0.778  0.314-  25 2.54  26 2.54  18 2.57  13 2.57   7 2.57  14 2.57  17 2.57  12 2.57
                            10 2.57   8 2.57   1 2.57  23 2.59
  17  0.444  0.778  0.314-  26 2.54  27 2.56  24 2.56  14 2.57  15 2.57   8 2.57   9 2.57  11 2.57
                            16 2.57  18 2.57  10 2.57   2 2.57
  18  0.778  0.778  0.314-  25 2.54  22 2.56  27 2.56  16 2.57  13 2.57   7 2.57  15 2.57  12 2.57
                            17 2.57   9 2.57   3 2.57  11 2.57
  19  0.889  0.221  0.401-  12 2.54  10 2.54  15 2.54  25 2.55  26 2.55  32 2.56  31 2.56  22 2.57
                            24 2.57  28 2.57  21 2.58  20 2.58
  20  0.223  0.223  0.403-  23 2.55  21 2.55  29 2.57  31 2.57  27 2.57  22 2.57  26 2.58  19 2.58
                            11 2.58  13 2.58  10 2.59  36 2.86
  21  0.554  0.223  0.403-  20 2.55  23 2.55  32 2.57  30 2.57  24 2.57  27 2.57  19 2.58  25 2.58
                            14 2.58  11 2.58  12 2.59  36 2.86
  22  0.889  0.556  0.402-  18 2.56  15 2.56  13 2.56  31 2.56  33 2.56  24 2.57  27 2.57  23 2.57
                            20 2.57  19 2.57  25 2.57  35 2.58
  23  0.223  0.554  0.403-  20 2.55  21 2.55  33 2.57  34 2.57  22 2.57  24 2.57  25 2.58  26 2.58
                            13 2.58  14 2.58  16 2.59  36 2.86
  24  0.556  0.556  0.402-  15 2.56  17 2.56  14 2.56  32 2.56  34 2.56  22 2.57  27 2.57  21 2.57
                            23 2.57  19 2.57  26 2.57  35 2.58
  25  0.889  0.889  0.401-  12 2.54  16 2.54  18 2.54  19 2.55  26 2.55  33 2.56  30 2.56  22 2.57
                            27 2.57  28 2.57  21 2.58  23 2.58
  26  0.221  0.889  0.401-  10 2.54  16 2.54  17 2.54  25 2.55  19 2.55  29 2.56  34 2.56  27 2.57
                            24 2.57  28 2.57  20 2.58  23 2.58
  27  0.556  0.889  0.402-  17 2.56  18 2.56  11 2.56  29 2.56  30 2.56  24 2.57  22 2.57  20 2.57
                            21 2.57  26 2.57  25 2.57  35 2.58
  28  0.000  0.000  0.489-  33 2.55  30 2.55  31 2.55  29 2.55  32 2.55  34 2.55  25 2.57  19 2.57
                            26 2.57
  29  0.334  0.994  0.489-  34 2.47  35 2.54  28 2.55  27 2.56  26 2.56  20 2.57  30 2.60  31 2.62
                            36 2.64
  30  0.672  0.994  0.489-  33 2.47  35 2.54  28 2.55  27 2.56  25 2.56  21 2.57  29 2.60  32 2.62
                            36 2.64
  31  0.994  0.334  0.489-  32 2.47  35 2.54  28 2.55  22 2.56  19 2.56  20 2.57  33 2.60  29 2.62
                            36 2.64
  32  0.672  0.334  0.489-  31 2.47  35 2.54  28 2.55  24 2.56  19 2.56  21 2.57  34 2.60  30 2.62
                            36 2.64
  33  0.994  0.672  0.489-  30 2.47  35 2.54  28 2.55  22 2.56  25 2.56  23 2.57  31 2.60  34 2.62
                            36 2.64
  34  0.334  0.672  0.489-  29 2.47  35 2.54  28 2.55  24 2.56  26 2.56  23 2.57  32 2.60  33 2.62
                            36 2.64
  35  0.667  0.667  0.490-  34 2.54  32 2.54  29 2.54  30 2.54  33 2.54  31 2.54  24 2.58  27 2.58
                            22 2.58
  36  0.333  0.333  0.506-  38 2.01  37 2.01  31 2.64  29 2.64  33 2.64  32 2.64  34 2.64  30 2.64
                            23 2.86  20 2.86  21 2.86
  37  0.238  0.333  0.584-  38 1.46  36 2.01
  38  0.428  0.333  0.584-  37 1.46  36 2.01

  LATTYP: Found a hexagonal cell.
 ALAT       =     7.6967864036
 C/A-ratio  =     3.0908716217

  Lattice vectors:

 A1 = (  -3.8483927580,  -6.6656128093,   0.0000000000)
 A2 = (   7.6967864037,   0.0000000000,   0.0000000000)
 A3 = (   0.0000000000,   0.0000000000,  23.7897786731)

Analysis of symmetry for initial positions (statically):
 Subroutine PRICEL returns:
 Original cell was already a primitive cell.

 Routine SETGRP: Setting up the symmetry group for a
 hexagonal supercell.

 Subroutine GETGRP returns: Found  2 space group operations
 (whereof  2 operations were pure point group operations)
 out of a pool of 24 trial point group operations.

The static configuration has the point symmetry C_1h.

Analysis of symmetry for dynamics (positions and initial velocities):
 Subroutine PRICEL returns:
 Original cell was already a primitive cell.

[...]

The dynamic configuration has the point symmetry C_1h.

Analysis of constrained symmetry for selective dynamics:
 Subroutine PRICEL returns:
 Original cell was already a primitive cell.

 Routine SETGRP: Setting up the symmetry group for a
 hexagonal supercell.

[...]
     33      -4.7662      2.00000
     34      -4.7317      2.00000
     35      -4.7260      2.00000
     36      -4.7156      2.00000
     37      -4.6869      2.00000
     38      -4.6673      2.00000
     39      -4.6669      2.00000
     40      -4.6570      2.00000
     41      -4.6553      2.00000
     42      -4.5995      2.00000
     43      -4.5276      2.00000
     44      -4.5244      2.00000
     45      -4.4753      2.00000
     46      -4.3600      2.00000
     47      -4.3353      2.00000
     48      -4.2881      2.00000
     49      -4.2827      2.00000
     50      -4.2627      2.00000
     51      -4.2552      2.00000
     52      -4.2467      2.00000
     53      -4.2372      2.00000
     54      -4.2129      2.00000
     55      -4.0878      2.00000
     56      -4.0615      2.00000
     57      -4.0379      2.00000
     58      -4.0269      2.00000
     59      -3.9702      2.00000
     60      -3.9588      2.00000
[...]
    238       5.1774      0.00000
    239       5.1960      0.00000
    240       5.3689      0.00000
    241       5.4747      0.00000
    242       5.4793      0.00000
    243       5.6585      0.00000
    244       5.6621      0.00000
    245       5.9016      0.00000
    246       6.0274      0.00000
    247       6.2304      0.00000
    248       6.3317      0.00000
    249       6.3803      0.00000
    250       6.5099      0.00000
    251       6.5254      0.00000
    252       6.6766      0.00000

 soft charge-density along one line, spin component           1
         0         1         2         3         4         5         6         7         8         9
 total charge-density along one line

------------------------ aborting loop because EDIFF is reached ----------------------------------------

 total charge

# of ion       s       p       d       tot
    1        0.449   0.284   9.188   9.921
    2        0.448   0.285   9.187   9.920
    3        0.448   0.285   9.187   9.920
    4        0.448   0.284   9.188   9.920
    5        0.449   0.284   9.186   9.919
    6        0.448   0.284   9.188   9.920
    7        0.448   0.285   9.187   9.920
    8        0.448   0.285   9.187   9.920
    9        0.449   0.284   9.189   9.921
   10        0.442   0.370   9.179   9.992
   11        0.440   0.365   9.183   9.987
   12        0.442   0.370   9.179   9.992
   13        0.440   0.365   9.182   9.987
   14        0.440   0.365   9.182   9.987
   15        0.440   0.373   9.178   9.990
   16        0.443   0.371   9.177   9.991
   17        0.440   0.373   9.178   9.991
   18        0.440   0.373   9.178   9.991
   19        0.444   0.372   9.182   9.997
   20        0.452   0.377   9.169   9.998
   21        0.452   0.377   9.169   9.998
   22        0.436   0.375   9.177   9.988
   23        0.454   0.376   9.169  10.000
   24        0.436   0.375   9.177   9.988
   25        0.446   0.372   9.181   9.999
   26        0.446   0.372   9.181   9.999
   27        0.436   0.374   9.178   9.989
   28        0.449   0.295   9.182   9.926
   29        0.482   0.312   9.176   9.970
   30        0.482   0.312   9.176   9.970
   31        0.486   0.298   9.185   9.970
   32        0.486   0.298   9.185   9.970
   33        0.482   0.312   9.176   9.970
   34        0.482   0.312   9.176   9.970
   35        0.451   0.298   9.182   9.931
   36        2.230   6.017   1.733   9.980
   37        1.610   3.260   0.000   4.870
   38        1.610   3.260   0.000   4.870
tot         21.252  24.229 323.056 368.537

  FORCE on cell =-STRESS in cart. coord.  units (eV):
  Direction    XX          YY          ZZ          XY          YZ          ZX
  Alpha Z   832.40325   832.40325   832.40325
  Ewald  225182.74263224747.41673************     0.00042    -0.56774     0.00023
  Hartree238125.99072237886.82522************     0.00005    -0.45981     0.00007
  E(xc)   -2357.31168 -2358.11524 -2361.75530    -0.00028    -0.00049    -0.00005
  Local  ************************475968.74542     0.02007     1.00864    -0.00078
  n-local  -805.62589  -811.94598  -825.21162     1.58222    -0.08773     0.04320
  augment  3317.64853  3322.23071  3343.30159    -0.01795    -0.00431     0.00041
  Kinetic  3598.23477  3639.38082  3657.00942     0.49070     0.05129    -0.21869
  Fock        0.00000     0.00000     0.00000     0.00000     0.00000     0.00000
  Total       1.13133     0.99389     1.28440    -0.00000    -0.06015     0.00000
  in kB       1.48512     1.30470     1.68605    -0.00000    -0.07895     0.00000

 VOLUME and BASIS-vectors are now :
  energy-cutoff  :      500.00
  volume of cell :     1220.51
      direct lattice vectors                 reciprocal lattice vectors
     7.696786404  0.000000000  0.000000000     0.129924354 -0.075011849  0.000000000
     3.848392758  6.665612809  0.000000000     0.000000000  0.150023716  0.000000000
     0.000000000  0.000000000 23.789778673     0.000000000  0.000000000  0.042034859

  length of vectors
     7.696786404  7.696786404 23.789778673     0.150023716  0.150023716  0.042034859

 FORCES acting on ions
    electron-ion (+dipol)            ewald-force                    non-local-force                 convergence-correction
   -.410E-04 -.394E-01 0.379E+04   0.579E-04 -.224E-01 -.379E+04   -.105E-08 0.158E-01 -.220E+01   -.334E-03 0.401E-01 -.218E+00
   -.874E+00 -.923E+00 0.379E+04   0.836E+00 0.830E+00 -.379E+04   0.321E-01 0.685E-01 -.194E+01   0.561E-02 0.229E-01 -.239E+00
   0.874E+00 -.923E+00 0.379E+04   -.836E+00 0.830E+00 -.379E+04   -.321E-01 0.685E-01 -.194E+01   -.478E-02 0.256E-01 -.238E+00
   -.121E+01 -.290E+00 0.379E+04   0.116E+01 0.297E+00 -.379E+04   0.720E-01 -.207E-01 -.203E+01   -.122E-01 0.111E-01 -.263E+00
   -.625E-04 0.133E-01 0.379E+04   0.116E-03 -.440E-04 -.379E+04   0.189E-08 -.284E-01 -.199E+01   0.122E-01 0.149E-01 -.130E+00
   0.121E+01 -.290E+00 0.379E+04   -.116E+01 0.297E+00 -.379E+04   -.720E-01 -.207E-01 -.203E+01   0.105E-01 0.123E-01 -.262E+00
   -.341E+00 0.122E+01 0.379E+04   0.321E+00 -.113E+01 -.379E+04   0.221E-01 -.509E-01 -.199E+01   0.215E-02 -.373E-01 -.263E+00
   0.341E+00 0.122E+01 0.379E+04   -.321E+00 -.113E+01 -.379E+04   -.221E-01 -.509E-01 -.199E+01   0.138E-02 -.388E-01 -.263E+00
   -.143E-03 0.268E-01 0.379E+04   0.263E-03 0.225E-01 -.379E+04   -.174E-09 0.261E-02 -.214E+01   -.133E-01 -.476E-01 -.253E+00
   -.983E+01 -.556E+01 0.136E+04   0.101E+02 0.563E+01 -.136E+04   -.168E+00 -.457E-01 -.779E+00   -.406E-01 -.465E-02 0.508E-01
   -.832E-04 -.762E+01 0.135E+04   0.189E-03 0.725E+01 -.135E+04   -.152E-07 0.229E+00 -.422E+00   0.118E-01 0.131E+00 0.243E-01
   0.983E+01 -.556E+01 0.136E+04   -.101E+02 0.563E+01 -.136E+04   0.168E+00 -.457E-01 -.779E+00   0.387E-01 -.261E-02 0.515E-01
   -.675E+01 0.375E+01 0.135E+04   0.644E+01 -.359E+01 -.135E+04   0.242E+00 -.132E+00 -.532E+00   0.747E-01 -.261E-01 0.126E-02
   0.675E+01 0.375E+01 0.135E+04   -.644E+01 -.359E+01 -.135E+04   -.242E+00 -.132E+00 -.532E+00   -.503E-01 -.271E-01 0.135E-02
   -.139E-03 -.219E+01 0.136E+04   0.296E-03 0.219E+01 -.136E+04   -.116E-08 0.175E-01 -.949E+00   -.405E-02 -.582E-02 0.303E-01
   -.906E-04 0.114E+02 0.136E+04   0.186E-03 -.116E+02 -.136E+04   -.105E-07 0.157E+00 -.817E+00   -.170E-03 0.209E-01 0.512E-01
   -.178E+01 0.103E+01 0.136E+04   0.180E+01 -.973E+00 -.136E+04   0.372E-01 -.290E-01 -.816E+00   -.485E-01 -.323E-01 0.550E-01
   0.178E+01 0.103E+01 0.136E+04   -.180E+01 -.973E+00 -.136E+04   -.372E-01 -.290E-01 -.816E+00   0.493E-01 -.293E-01 0.556E-01
   -.631E-04 -.328E+01 -.106E+04   0.660E-04 0.318E+01 0.106E+04   -.685E-08 0.103E+00 0.139E+01   -.244E-02 -.239E-01 0.711E-01
   -.208E+02 -.111E+02 -.113E+04   0.217E+02 0.115E+02 0.113E+04   -.960E+00 -.420E+00 0.126E+00   -.126E+00 -.370E-01 0.236E-01
   0.208E+02 -.111E+02 -.113E+04   -.217E+02 0.115E+02 0.113E+04   0.960E+00 -.420E+00 0.126E+00   0.150E+00 -.356E-01 0.229E-01
   -.691E+01 0.285E+01 -.108E+04   0.683E+01 -.269E+01 0.108E+04   0.124E+00 -.145E+00 0.825E+00   -.102E-01 -.240E-01 -.112E-01
   -.361E-04 0.224E+02 -.113E+04   0.148E-03 -.235E+02 0.113E+04   -.758E-07 0.114E+01 -.128E+00   0.120E-01 0.137E+00 -.162E-01
   0.691E+01 0.285E+01 -.108E+04   -.683E+01 -.269E+01 0.108E+04   -.124E+00 -.145E+00 0.825E+00   0.762E-02 -.253E-01 -.112E-01
   0.335E+01 0.247E+01 -.106E+04   -.340E+01 -.245E+01 0.106E+04   -.367E-03 -.408E-01 0.104E+01   0.470E-01 0.253E-01 0.443E-01
   -.334E+01 0.247E+01 -.106E+04   0.340E+01 -.245E+01 0.106E+04   0.367E-03 -.408E-01 0.104E+01   -.464E-01 0.225E-01 0.447E-01
   -.148E-03 -.782E+01 -.108E+04   0.244E-03 0.765E+01 0.108E+04   -.141E-07 0.211E+00 0.101E+01   -.959E-03 -.580E-02 -.870E-02
   -.139E-04 0.573E+01 -.355E+04   0.342E-04 -.596E+01 0.355E+04   -.764E-08 0.115E+00 0.197E+01   -.220E-03 0.959E-01 0.148E+00
   0.169E+02 0.264E+02 -.350E+04   -.168E+02 -.271E+02 0.349E+04   -.239E+00 0.371E+00 0.179E+01   -.335E-01 0.731E-01 0.156E+00
   -.169E+02 0.264E+02 -.350E+04   0.168E+02 -.271E+02 0.349E+04   0.239E+00 0.371E+00 0.179E+01   0.345E-01 0.755E-01 0.156E+00
   0.342E+02 0.680E+01 -.348E+04   -.347E+02 -.668E+01 0.348E+04   0.140E+00 -.129E+00 0.240E+01   -.467E-01 -.785E-02 0.206E+00
   -.342E+02 0.680E+01 -.348E+04   0.347E+02 -.668E+01 0.348E+04   -.140E+00 -.129E+00 0.240E+01   0.454E-01 -.688E-02 0.204E+00
   0.510E+01 -.334E+02 -.350E+04   -.518E+01 0.339E+02 0.349E+04   -.352E-01 -.193E+00 0.185E+01   -.257E-01 -.566E-01 0.160E+00
   -.510E+01 -.334E+02 -.350E+04   0.518E+01 0.339E+02 0.349E+04   0.352E-01 -.193E+00 0.185E+01   0.290E-01 -.579E-01 0.159E+00
   -.137E-03 -.579E+01 -.358E+04   0.264E-03 0.609E+01 0.357E+04   0.939E-08 -.141E+00 0.198E+01   -.132E-01 -.126E+00 0.182E+00
   0.154E-03 0.162E-01 -.373E+04   0.122E-03 -.396E-01 0.373E+04   0.763E-09 -.115E-01 -.257E+01   0.453E-02 -.166E-02 0.376E+00
   0.246E+03 0.191E+00 -.235E+04   -.278E+03 -.169E+00 0.236E+04   0.324E+02 -.137E-01 -.177E+02   0.355E-01 -.405E-02 0.785E-01
   -.246E+03 0.191E+00 -.235E+04   0.278E+03 -.169E+00 0.236E+04   -.324E+02 -.137E-01 -.177E+02   -.390E-01 -.397E-02 0.777E-01
   0.299E-03 -.286E+00 0.401E+02   -.568E-13 -.865E-13 -.819E-11   -.165E-07 0.248E+00 -.403E+02   0.531E-01 0.404E-01 0.253E+00

 POSITION                                       TOTAL-FORCE (eV/Angst)
      0.00000      0.00000      5.37156         0.000000     -0.005983      0.023472
      2.56560      0.00000      5.37156        -0.000781     -0.000175      0.068996
      5.13119      0.00000      5.37156         0.000781     -0.000175      0.068996
      1.28280      2.22187      5.37156         0.006958     -0.002435      0.062191
      3.84839      2.22187      5.37156         0.000000     -0.000354      0.054146
      6.41399      2.22187      5.37156        -0.006958     -0.002435      0.062191
      2.56560      4.44374      5.37156         0.002810      0.002259      0.065252
      5.13119      4.44374      5.37156        -0.002810      0.002259      0.065252
      7.69679      4.44374      5.37156        -0.000000      0.004268      0.036263
      1.28280      0.74062      7.46636         0.028710      0.019130     -0.107024
      3.84839      0.74062      7.46636         0.000000     -0.012005     -0.005254
      6.41399      0.74062      7.46636        -0.028710      0.019130     -0.107024
      2.56560      2.96249      7.46636        -0.006228      0.001603     -0.012492
      5.13119      2.96249      7.46636         0.006228      0.001603     -0.012492
      7.69679      2.96249      7.46636        -0.000000      0.011067     -0.044243
      3.84839      5.18437      7.46636         0.000000     -0.028467     -0.104964
      6.41399      5.18437      7.46636         0.010673     -0.005197     -0.040665
      8.97958      5.18437      7.46636        -0.010673     -0.005197     -0.040665
      7.69679      1.47435      9.52922         0.000000     -0.021540      0.052892
      2.57570      1.48708      9.58099        -0.142625     -0.067993     -0.200004
      5.12109      1.48708      9.58099         0.142626     -0.067993     -0.200004
      8.97941      3.70322      9.55185         0.039424     -0.012276      0.050215
      3.84839      3.69145      9.58099        -0.000000      0.160918     -0.211116
      6.41416      3.70322      9.55185        -0.039424     -0.012276      0.050215
     10.26835      5.92844      9.52922        -0.008749      0.004197      0.041859
      5.12522      5.92844      9.52922         0.008749      0.004197      0.041859
      7.69679      5.92479      9.55185        -0.000000      0.040303      0.066569
      0.00000      0.00000     11.63765         0.000000     -0.020810     -0.062949
      6.39598      6.62341     11.64088        -0.165780     -0.257321     -0.190968
      8.99759      6.62341     11.64088         0.165780     -0.257321     -0.190968
      8.93403      2.22738     11.64088        -0.443290     -0.016029     -0.231708
      6.45955      2.22738     11.64088         0.443290     -0.016029     -0.231708
     10.23483      4.48044     11.64088        -0.138194      0.270895     -0.190382
      5.15874      4.48044     11.64088         0.138194      0.270895     -0.190382
      7.69679      4.44374     11.66679        -0.000000      0.028267     -0.086418
      3.84839      2.22187     12.03290         0.000000     -0.036619      1.635934
      3.11736      2.22204     13.90247         0.011514      0.003823      0.007565
      4.57943      2.22204     13.90247        -0.011514      0.003823      0.007565
    total drift:                                0.053429      0.002870     -0.026251

  FREE ENERGIE OF THE ION-ELECTRON SYSTEM (eV)
  free  energy   TOTEN  =      -143.24883323 eV

  energy  without entropy=     -143.24883323  energy(sigma->0) =     -143.24883323

 stress matrix after NEB project (eV)
      1.13133     -0.00000      0.00000
     -0.00000      0.99389     -0.06015
      0.00000     -0.06015      1.28440
  FORCES: max atom, RMS     0.014297    0.003280
  FORCE total and by dimension    0.020219    0.011514
  Stress total and by dimension    1.981071    1.284397
|           W    W    AA    RRRRR   N    N  II  N    N   GGGG   !!!           |
|           W    W   A  A   R    R  NN   N  II  NN   N  G    G  !!!           |
|           W    W  A    A  R    R  N N  N  II  N N  N  G       !!!           |
|           W WW W  AAAAAA  RRRRR   N  N N  II  N  N N  G  GGG   !            |
|           WW  WW  A    A  R   R   N   NN  II  N   NN  G    G                |
|           W    W  A    A  R    R  N    N  II  N    N   GGGG   !!!           |
|     Tetrahedron method does not include variations of the Fermi             |
|     occupations, so forces and stress will be inaccurate. We suggest        |
|     using a different smearing scheme ISMEAR = 1 or 2 for metals in         |
|     relaxations.                                                            |

 total charge

# of ion       s       p       d       tot
    1        0.449   0.284   9.188   9.921
    2        0.448   0.285   9.187   9.920
    3        0.448   0.285   9.187   9.920
    4        0.448   0.284   9.188   9.920
    5        0.449   0.284   9.186   9.919
    6        0.448   0.284   9.188   9.920
    7        0.448   0.285   9.187   9.920
    8        0.448   0.285   9.187   9.920
    9        0.449   0.284   9.189   9.921
   10        0.442   0.370   9.179   9.992
   11        0.440   0.365   9.183   9.987
   12        0.442   0.370   9.179   9.992
   13        0.440   0.365   9.182   9.987
   14        0.440   0.365   9.182   9.987
   15        0.440   0.373   9.178   9.990
   16        0.443   0.371   9.177   9.991
   17        0.440   0.373   9.178   9.991
   18        0.440   0.373   9.178   9.991
   19        0.444   0.372   9.182   9.997
   20        0.452   0.377   9.169   9.998
   21        0.452   0.377   9.169   9.998
   22        0.436   0.375   9.177   9.988
   23        0.454   0.376   9.169  10.000
   24        0.436   0.375   9.177   9.988
   25        0.446   0.372   9.181   9.999
   26        0.446   0.372   9.181   9.999
   27        0.436   0.374   9.178   9.989
   28        0.449   0.295   9.182   9.926
   29        0.482   0.312   9.176   9.970
   30        0.482   0.312   9.176   9.970
   31        0.486   0.298   9.185   9.970
   32        0.486   0.298   9.185   9.970
   33        0.482   0.312   9.176   9.970
   34        0.482   0.312   9.176   9.970
   35        0.451   0.298   9.182   9.931
   36        2.230   6.017   1.733   9.980
   37        1.610   3.260   0.000   4.870
   38        1.610   3.260   0.000   4.870
tot         21.252  24.229 323.056 368.537

 BZINTS: Fermi energy:   -0.534040;  409.000000 electrons
         Band energy:-0.170243E+04;  BLOECHL correction:   -0.064114