 vasp.6.2.0 18Jan21 (build Jun 12 2021 23:27:24) complex

 executed on             LinuxIFC date 2022.05.26  20:07:20

 INCAR:
   ISMEAR = -5
   SIGMA = 0.1
   ISPIN = 1
   EDIFF = 1.d-5
   EDIFFG = -0.01
   NSW = 0
   NELM = 150
   ENCUT = 500
   ISIF = 2
   IBRION = 2
   LREAL = Auto
   ALGO = Fast
   ICHARG = 11
   LORBIT = 10
   LCHARG = .F.
   LWAVE = .F.

 POTCAR:    PAW_PBE Cu 22Jun2005
 POTCAR:    PAW_PBE Ta 17Jan2003
 POTCAR:    PAW_PBE O 08Apr2002
|           W    W    AA    RRRRR   N    N  II  N    N   GGGG   !!!           |
|           W    W   A  A   R    R  NN   N  II  NN   N  G    G  !!!           |
|           W    W  A    A  R    R  N N  N  II  N N  N  G       !!!           |
|           W WW W  AAAAAA  RRRRR   N  N N  II  N  N N  G  GGG   !            |
|           WW  WW  A    A  R   R   N   NN  II  N   NN  G    G                |
|           W    W  A    A  R    R  N    N  II  N    N   GGGG   !!!           |
|     For optimal performance we recommend to set                             |
|       NCORE = 2 up to number-of-cores-per-socket                            |
|     This setting can greatly improve the performance of VASP for DFT.       |
|     The default, NCORE=1 might be grossly inefficient on modern             |
|     multi-core architectures or massively parallel machines. Do your        |
|     Unfortunately you need to use the default for GW and RPA                |
|     calculations (for HF NCORE is supported but not extensively tested      |
|     yet).                                                                   |

 POTCAR:    PAW_PBE Cu 22Jun2005
   VRHFIN =Cu: d10 p1

   TITEL  = PAW_PBE Cu 22Jun2005
   POMASS =   63.546; ZVAL   =   11.000    mass and valenz
   ENMAX  =  295.446; ENMIN  =  221.585 eV

 POTCAR:    PAW_PBE Ta 17Jan2003
   VRHFIN =Ta:  6s5d

   TITEL  = PAW_PBE Ta 17Jan2003
   POMASS =  180.948; ZVAL   =    5.000    mass and valenz
   ENMAX  =  223.667; ENMIN  =  167.750 eV

 POTCAR:    PAW_PBE O 08Apr2002
   VRHFIN =O: s2p4

   TITEL  = PAW_PBE O 08Apr2002
   POMASS =   16.000; ZVAL   =    6.000    mass and valenz
   ENMAX  =  400.000; ENMIN  =  300.000 eV

 Optimization of the real space projectors (new method)

 maximal supplied QI-value         = 16.25
 optimisation between [QCUT,QGAM] = [ 11.38, 22.75] = [ 36.24,144.96] Ry
 Optimized for a Real-space Cutoff    1.52 Angstroem

   l    n(q)    QCUT    max X(q) W(low)/X(q) W(high)/X(q)  e(spline)
   2      9    11.376     4.610    0.21E-03    0.10E-03    0.26E-06
   2      9    11.376     8.522    0.33E-03    0.16E-03    0.37E-06
   0     10    11.376    51.609    0.62E-04    0.20E-04    0.13E-06
   0     10    11.376    27.747    0.54E-04    0.20E-04    0.13E-06
   1     10    11.376    20.408    0.13E-04    0.99E-04    0.19E-06
   1     10    11.376    13.425    0.12E-04    0.87E-04    0.17E-06
 Optimization of the real space projectors (new method)

[...]

   l    n(q)    QCUT    max X(q) W(low)/X(q) W(high)/X(q)  e(spline)
   2     10    11.437    62.315    0.14E-03    0.26E-03    0.80E-06
   2     10    11.437    52.185    0.14E-03    0.26E-03    0.80E-06
   0     11    11.437   103.837    0.25E-04    0.17E-04    0.84E-07
   0     11    11.437    59.728    0.20E-04    0.15E-04    0.73E-07
   1     11    11.437    13.958    0.47E-03    0.12E-03    0.89E-06
   1     11    11.437     8.441    0.33E-03    0.88E-04    0.61E-06
 Optimization of the real space projectors (new method)

 maximal supplied QI-value         = 24.76
 optimisation between [QCUT,QGAM] = [ 11.39, 22.77] = [ 36.31,145.25] Ry
 Optimized for a Real-space Cutoff    1.00 Angstroem

   l    n(q)    QCUT    max X(q) W(low)/X(q) W(high)/X(q)  e(spline)
   0      7    11.387    20.381    0.39E-03    0.13E-02    0.15E-06
   0      7    11.387    15.268    0.42E-03    0.14E-02    0.17E-06
   1      6    11.387     5.964    0.41E-03    0.11E-02    0.17E-06
   1      6    11.387     5.382    0.39E-03    0.87E-03    0.15E-06
  PAW_PBE Cu 22Jun2005                  :
  PAW_PBE Ta 17Jan2003                  :
  PAW_PBE O 08Apr2002                   :

 POSCAR: Cu-Ta-O
  positions in direct lattice
  velocities in cartesian coordinates
 exchange correlation table for  LEXCH =        8
   RHO(1)=    0.500       N(1)  =     2000
   RHO(2)=  100.500       N(2)  =     4000

 VTST: version 3.2, (02/03/18)

 CHAIN: initializing optimizer

 OPT: Using VASP Conjugate-Gradient optimizer
 CHAIN: Read ICHAIN            0

 POSCAR: Cu-Ta-O
  positions in direct lattice
  velocities in cartesian coordinates

 ion  position               nearest neighbor table
   1  0.000  0.000  0.252-   7 2.57   3 2.57   4 2.57   2 2.57   6 2.57   8 2.57  12 2.57  10 2.57
                            16 2.57
   2  0.333  0.000  0.252-   8 2.57   9 2.57   5 2.57   1 2.57   3 2.57  11 2.57   4 2.57  10 2.57
                            17 2.57
   3  0.667  0.000  0.252-   1 2.57   7 2.57   6 2.57   9 2.57   2 2.57  12 2.57   5 2.57  18 2.57
                            11 2.57
   4  0.000  0.333  0.252-   5 2.57   6 2.57   1 2.57   7 2.57   2 2.57  13 2.57   9 2.57  10 2.57
                            15 2.57
   5  0.333  0.333  0.252-   4 2.57   2 2.57   7 2.57  13 2.57   8 2.57   6 2.57   3 2.57  11 2.57
                            14 2.57
   6  0.667  0.333  0.252-   4 2.57   9 2.57  15 2.57   3 2.57   1 2.57   8 2.57  14 2.57   5 2.57
                            12 2.57
   7  0.000  0.667  0.252-   1 2.57   3 2.57  16 2.57  18 2.57   4 2.57   5 2.57   8 2.57   9 2.57
                            13 2.57
   8  0.333  0.667  0.252-   9 2.57   2 2.57  17 2.57   6 2.57   1 2.57   7 2.57   5 2.57  14 2.57
                            16 2.57
   9  0.667  0.667  0.252-   8 2.57   6 2.57   2 2.57  17 2.57   3 2.57   7 2.57   4 2.57  15 2.57
                            18 2.57
  10  0.111  0.111  0.351-  20 2.55  26 2.56  19 2.56  11 2.57  12 2.57  13 2.57   1 2.57   2 2.57
                             4 2.57  15 2.57  16 2.57  17 2.57
  11  0.444  0.111  0.351-  20 2.56  21 2.56  10 2.57  13 2.57   2 2.57  17 2.57  14 2.57  12 2.57
                             5 2.57   3 2.57  18 2.57  27 2.57
  12  0.778  0.111  0.351-  21 2.55  19 2.56  25 2.56  15 2.57  10 2.57  14 2.57  18 2.57   3 2.57
                             1 2.57  16 2.57  11 2.57   6 2.57
  13  0.111  0.444  0.351-  23 2.56  20 2.56  16 2.57  18 2.57  10 2.57  11 2.57  14 2.57   5 2.57
                             4 2.57   7 2.57  15 2.57  22 2.57
  14  0.444  0.444  0.351-  21 2.56  23 2.56  15 2.57  17 2.57  12 2.57  16 2.57  13 2.57  11 2.57
                             6 2.57   8 2.57   5 2.57  24 2.57
  15  0.778  0.444  0.351-  19 2.56  14 2.57  17 2.57  12 2.57   6 2.57  18 2.57  10 2.57   9 2.57
                            13 2.57   4 2.57  24 2.57  22 2.57
  16  0.111  0.778  0.351-  23 2.55  25 2.56  26 2.56  18 2.57  13 2.57   7 2.57  14 2.57  17 2.57
                            12 2.57  10 2.57   8 2.57   1 2.57
  17  0.444  0.778  0.351-  26 2.56  14 2.57  15 2.57   8 2.57   9 2.57  11 2.57  16 2.57  18 2.57
                            10 2.57   2 2.57  27 2.57  24 2.57
  18  0.778  0.778  0.351-  25 2.56  16 2.57  13 2.57   7 2.57  15 2.57  12 2.57  17 2.57   9 2.57
                             3 2.57  11 2.57  22 2.57  27 2.57
  19  0.889  0.222  0.449-  12 2.56  10 2.56  15 2.56  21 2.56  20 2.56  25 2.56  26 2.56  22 2.57
                            24 2.57  28 2.57  32 2.59  31 2.59
  20  0.222  0.222  0.449-  10 2.55  11 2.56  13 2.56  26 2.56  19 2.56  27 2.57  22 2.57  23 2.58
                            21 2.58  36 2.61  29 2.61  31 2.61
  21  0.557  0.222  0.449-  12 2.55  14 2.56  11 2.56  19 2.56  25 2.56  24 2.57  27 2.57  20 2.58
                            23 2.58  36 2.61  32 2.61  30 2.61
  22  0.888  0.556  0.450-  24 2.56  27 2.56  19 2.57  25 2.57  23 2.57  20 2.57  18 2.57  15 2.57
                            35 2.57  13 2.57  31 2.59  33 2.59
  23  0.222  0.557  0.449-  16 2.55  13 2.56  14 2.56  25 2.56  26 2.56  22 2.57  24 2.57  20 2.58
                            21 2.58  36 2.61  33 2.61  34 2.61
  24  0.556  0.556  0.450-  22 2.56  27 2.56  19 2.57  26 2.57  21 2.57  23 2.57  15 2.57  17 2.57
                            35 2.57  14 2.57  32 2.59  34 2.59
  25  0.889  0.889  0.449-  12 2.56  16 2.56  18 2.56  21 2.56  23 2.56  19 2.56  26 2.56  22 2.57
                            27 2.57  28 2.57  33 2.59  30 2.59
  26  0.222  0.889  0.449-  10 2.56  16 2.56  17 2.56  20 2.56  23 2.56  25 2.56  19 2.56  27 2.57
                            24 2.57  28 2.57  29 2.59  34 2.59
  27  0.556  0.888  0.450-  24 2.56  22 2.56  26 2.57  25 2.57  20 2.57  21 2.57  17 2.57  18 2.57
                            35 2.57  11 2.57  29 2.59  30 2.59
  28  0.000  0.000  0.548-  33 2.55  30 2.55  31 2.55  29 2.55  32 2.55  34 2.55  25 2.57  19 2.57
                            26 2.57
  29  0.333  0.997  0.549-  34 2.52  35 2.55  28 2.55  31 2.59  27 2.59  36 2.59  30 2.59  26 2.59
                            20 2.61
  30  0.670  0.997  0.549-  33 2.52  35 2.55  28 2.55  32 2.59  27 2.59  36 2.59  29 2.59  25 2.59
                            21 2.61
  31  0.997  0.333  0.549-  32 2.52  35 2.55  28 2.55  29 2.59  22 2.59  36 2.59  33 2.59  19 2.59
                            20 2.61
  32  0.670  0.333  0.549-  31 2.52  35 2.55  28 2.55  30 2.59  24 2.59  36 2.59  34 2.59  19 2.59
                            21 2.61
  33  0.997  0.670  0.549-  30 2.52  35 2.55  28 2.55  34 2.59  22 2.59  36 2.59  31 2.59  25 2.59
                            23 2.61
  34  0.333  0.670  0.549-  29 2.52  35 2.55  28 2.55  33 2.59  24 2.59  36 2.59  32 2.59  26 2.59
                            23 2.61
  35  0.667  0.667  0.549-  34 2.55  32 2.55  29 2.55  30 2.55  33 2.55  31 2.55  24 2.57  27 2.57
                            22 2.57
  36  0.333  0.333  0.549-  37 1.77  31 2.59  29 2.59  33 2.59  34 2.59  32 2.59  30 2.59  23 2.61
                            20 2.61  21 2.61
  37  0.333  0.333  0.632-  36 1.77

  LATTYP: Found a hexagonal cell.
 ALAT       =     7.6967864036
 C/A-ratio  =     2.7653617908

  Lattice vectors:

 A1 = (  -3.8483927580,  -6.6656128093,   0.0000000000)
 A2 = (   7.6967864037,   0.0000000000,   0.0000000000)
 A3 = (   0.0000000000,   0.0000000000,  21.2843990326)

Analysis of symmetry for initial positions (statically):
 Subroutine PRICEL returns:
 Original cell was already a primitive cell.

 Routine SETGRP: Setting up the symmetry group for a
 hexagonal supercell.

 Subroutine GETGRP returns: Found  6 space group operations
 (whereof  6 operations were pure point group operations)
 out of a pool of 24 trial point group operations.

The static configuration has the point symmetry C_3v.

Analysis of symmetry for dynamics (positions and initial velocities):
 Subroutine PRICEL returns:
 Original cell was already a primitive cell.

[...]

The dynamic configuration has the point symmetry C_3v.

Analysis of constrained symmetry for selective dynamics:
 Subroutine PRICEL returns:
 Original cell was already a primitive cell.

 Routine SETGRP: Setting up the symmetry group for a
 hexagonal supercell.

 Subroutine GETGRP returns: Found  6 space group operations
[...]
     24      -4.4593      2.00000
     25      -4.3496      2.00000
     26      -4.2990      2.00000
     27      -4.2677      2.00000
     28      -4.2518      2.00000
     29      -4.2184      2.00000
     30      -4.1978      2.00000
     31      -4.1865      2.00000
     32      -4.1776      2.00000
     33      -4.1557      2.00000
     34      -4.1521      2.00000
     35      -4.1414      2.00000
     36      -4.0969      2.00000
     37      -4.0244      2.00000
     38      -3.9328      2.00000
     39      -3.9115      2.00000
     40      -3.8847      2.00000
     41      -3.8628      2.00000
     42      -3.8145      2.00000
     43      -3.7853      2.00000
     44      -3.7616      2.00000
     45      -3.7435      2.00000
     46      -3.7374      2.00000
     47      -3.6425      2.00000
     48      -3.6236      2.00000
     49      -3.6151      2.00000
     50      -3.5684      2.00000
     51      -3.5483      2.00000
     52      -3.5313      2.00000
     53      -3.5101      2.00000
     54      -3.4835      2.00000
     55      -3.4593      2.00000
     56      -3.4536      2.00000
     57      -3.4257      2.00000
     58      -3.4198      2.00000
     59      -3.4099      2.00000
     60      -3.3950      2.00000
[...]
    238       6.4001      0.00000
    239       6.5223      0.00000
    240       6.5274      0.00000
    241       7.0529      0.00000
    242       7.0616      0.00000
    243       7.0999      0.00000
    244       7.1308      0.00000
    245       7.2425      0.00000
    246       7.3204      0.00000
    247       7.4076      0.00000
    248       7.4919      0.00000
    249       7.5636      0.00000
    250       7.7204      0.00000
    251       7.8228      0.00000
    252       8.0234      0.00000

 soft charge-density along one line, spin component           1
         0         1         2         3         4         5         6         7         8         9
 total charge-density along one line

------------------------ aborting loop because EDIFF is reached ----------------------------------------

 total charge

# of ion       s       p       d       tot
    1        0.451   0.283   9.188   9.921
    2        0.448   0.285   9.186   9.919
    3        0.448   0.285   9.186   9.919
    4        0.448   0.285   9.186   9.919
    5        0.448   0.285   9.184   9.917
    6        0.448   0.285   9.186   9.919
    7        0.448   0.285   9.186   9.919
    8        0.448   0.285   9.186   9.919
    9        0.448   0.283   9.188   9.919
   10        0.442   0.370   9.178   9.989
   11        0.440   0.367   9.182   9.989
   12        0.442   0.370   9.178   9.989
   13        0.440   0.367   9.182   9.989
   14        0.440   0.367   9.182   9.989
   15        0.438   0.369   9.177   9.984
   16        0.442   0.370   9.178   9.989
   17        0.438   0.369   9.177   9.984
   18        0.438   0.369   9.177   9.984
   19        0.442   0.365   9.183   9.989
   20        0.465   0.393   9.168  10.026
   21        0.465   0.393   9.168  10.026
   22        0.432   0.371   9.177   9.980
   23        0.465   0.393   9.168  10.026
   24        0.432   0.371   9.177   9.980
   25        0.442   0.365   9.183   9.989
   26        0.442   0.365   9.183   9.989
   27        0.432   0.371   9.177   9.980
   28        0.450   0.294   9.180   9.924
   29        0.475   0.312   9.172   9.959
   30        0.475   0.312   9.172   9.959
   31        0.475   0.312   9.172   9.959
   32        0.475   0.312   9.172   9.959
   33        0.475   0.312   9.172   9.959
   34        0.475   0.312   9.172   9.959
   35        0.449   0.299   9.177   9.924
   36        0.806   0.880   3.629   5.316
   37        1.600   3.314   0.000   4.914
tot         18.166  15.923 324.887 358.976

  FORCE on cell =-STRESS in cart. coord.  units (eV):
  Direction    XX          YY          ZZ          XY          YZ          ZX
  Alpha Z   892.48335   892.48335   892.48335
  Ewald  169599.00912169599.00876************     0.00036     0.00013     0.00017
  Hartree182504.44141182504.44143************     0.00002     0.00007     0.00006
  E(xc)   -2298.80129 -2298.80082 -2305.27683    -0.00041    -0.00003    -0.00006
  Local  ************************365025.70667     0.01867    -0.00062    -0.00095
  n-local  -784.32442  -771.40186  -788.15401     6.81084    -0.20970     0.32528
  augment  3315.19049  3315.21064  3339.09471    -0.01745     0.00030     0.00045
  Kinetic  3315.61436  3317.33164  3336.02338     1.83112     1.92697    -1.30333
  Fock        0.00000     0.00000     0.00000     0.00000     0.00000     0.00000
  Total      -2.17274    -2.17274     1.01427     0.00000     0.00000    -0.00000
  in kB      -3.18792    -3.18792     1.48817     0.00000     0.00000    -0.00000

 VOLUME and BASIS-vectors are now :
  energy-cutoff  :      500.00
  volume of cell :     1091.97
      direct lattice vectors                 reciprocal lattice vectors
     7.696786404  0.000000000  0.000000000     0.129924354 -0.075011849  0.000000000
     3.848392758  6.665612809  0.000000000     0.000000000  0.150023716  0.000000000
     0.000000000  0.000000000 21.284399033     0.000000000  0.000000000  0.046982769

  length of vectors
     7.696786404  7.696786404 21.284399033     0.150023716  0.150023716  0.046982769

 FORCES acting on ions
    electron-ion (+dipol)            ewald-force                    non-local-force                 convergence-correction
   -.415E-04 0.169E-06 0.346E+04   0.581E-04 -.426E-05 -.346E+04   0.342E-17 -.479E-17 -.213E+01   -.364E-03 -.176E-03 -.534E-01
   -.862E+00 -.540E+00 0.346E+04   0.800E+00 0.603E+00 -.345E+04   0.901E-02 0.502E-01 -.193E+01   0.515E-01 -.104E+00 -.539E-01
   0.862E+00 -.540E+00 0.346E+04   -.800E+00 0.603E+00 -.345E+04   -.901E-02 0.502E-01 -.193E+01   -.507E-01 -.101E+00 -.529E-01
   -.899E+00 -.477E+00 0.346E+04   0.922E+00 0.391E+00 -.345E+04   0.480E-01 -.173E-01 -.193E+01   -.639E-01 0.964E-01 -.538E-01
   -.649E-04 -.517E-05 0.345E+04   0.116E-03 -.101E-04 -.345E+04   0.517E-17 0.784E-18 -.194E+01   0.121E-01 0.742E-02 -.920E-01
   0.899E+00 -.477E+00 0.346E+04   -.922E+00 0.391E+00 -.345E+04   -.480E-01 -.173E-01 -.193E+01   0.624E-01 0.975E-01 -.527E-01
   -.368E-01 0.102E+01 0.346E+04   0.122E+00 -.994E+00 -.345E+04   0.390E-01 -.329E-01 -.193E+01   -.113E+00 0.666E-02 -.527E-01
   0.369E-01 0.102E+01 0.346E+04   -.122E+00 -.994E+00 -.345E+04   -.390E-01 -.329E-01 -.193E+01   0.116E+00 0.525E-02 -.528E-01
   -.143E-03 -.327E-04 0.346E+04   0.263E-03 0.204E-04 -.345E+04   -.819E-19 -.211E-19 -.206E+01   -.131E-01 -.679E-02 -.954E-01
   -.543E+01 -.313E+01 0.115E+04   0.567E+01 0.328E+01 -.115E+04   -.286E+00 -.165E+00 -.743E+00   0.178E-01 0.106E-01 -.357E+00
   -.911E-04 -.615E+01 0.113E+04   0.190E-03 0.592E+01 -.113E+04   -.177E-07 0.266E+00 -.457E+00   0.120E-01 -.743E-01 -.407E+00
   0.543E+01 -.313E+01 0.115E+04   -.567E+01 0.328E+01 -.115E+04   0.286E+00 -.165E+00 -.743E+00   -.196E-01 0.110E-01 -.357E+00
   -.533E+01 0.308E+01 0.113E+04   0.513E+01 -.296E+01 -.113E+04   0.231E+00 -.133E+00 -.457E+00   -.582E-01 0.485E-01 -.406E+00
   0.533E+01 0.308E+01 0.113E+04   -.513E+01 -.296E+01 -.113E+04   -.231E+00 -.133E+00 -.457E+00   0.813E-01 0.466E-01 -.409E+00
   -.140E-03 -.210E+01 0.114E+04   0.296E-03 0.198E+01 -.114E+04   -.462E-08 0.694E-01 -.780E+00   -.292E-02 0.628E-01 -.360E+00
   -.922E-04 0.627E+01 0.115E+04   0.187E-03 -.655E+01 -.115E+04   -.220E-07 0.330E+00 -.743E+00   -.125E-02 -.237E-01 -.357E+00
   -.182E+01 0.105E+01 0.114E+04   0.171E+01 -.989E+00 -.114E+04   0.601E-01 -.347E-01 -.780E+00   0.537E-01 -.344E-01 -.361E+00
   0.182E+01 0.105E+01 0.114E+04   -.171E+01 -.989E+00 -.114E+04   -.601E-01 -.347E-01 -.780E+00   -.518E-01 -.318E-01 -.358E+00
   -.660E-04 -.812E+01 -.116E+04   0.720E-04 0.800E+01 0.116E+04   -.287E-08 0.431E-01 0.121E+01   0.898E-03 0.481E-01 -.600E+00
   -.596E+02 -.344E+02 -.123E+04   0.598E+02 0.345E+02 0.123E+04   -.390E+00 -.225E+00 0.670E+00   -.100E+00 -.570E-01 -.721E+00
   0.596E+02 -.344E+02 -.123E+04   -.598E+02 0.345E+02 0.123E+04   0.390E+00 -.225E+00 0.670E+00   0.796E-01 -.609E-01 -.722E+00
   -.302E+02 0.175E+02 -.118E+04   0.300E+02 -.173E+02 0.118E+04   0.412E+00 -.238E+00 0.106E+01   -.912E-01 0.657E-01 -.695E+00
   -.846E-04 0.689E+02 -.123E+04   0.152E-03 -.690E+02 0.123E+04   -.300E-07 0.450E+00 0.670E+00   -.143E-01 0.989E-01 -.722E+00
   0.302E+02 0.175E+02 -.118E+04   -.300E+02 -.173E+02 0.118E+04   -.412E+00 -.238E+00 0.106E+01   0.115E+00 0.648E-01 -.694E+00
   0.703E+01 0.406E+01 -.116E+04   -.693E+01 -.400E+01 0.116E+04   -.373E-01 -.216E-01 0.121E+01   -.424E-01 -.254E-01 -.600E+00
   -.703E+01 0.406E+01 -.116E+04   0.693E+01 -.400E+01 0.116E+04   0.373E-01 -.216E-01 0.121E+01   0.193E-01 -.235E-01 -.600E+00
   -.120E-03 -.349E+02 -.118E+04   0.239E-03 0.346E+02 0.118E+04   -.317E-07 0.476E+00 0.106E+01   0.128E-01 -.112E+00 -.694E+00
   -.439E-04 0.134E-04 -.339E+04   0.439E-04 -.314E-04 0.339E+04   0.227E-17 -.151E-17 0.151E+01   -.175E-02 -.122E-02 -.534E-01
   -.393E+02 -.734E+02 -.339E+04   0.395E+02 0.733E+02 0.339E+04   -.247E+00 -.277E-01 0.215E+01   -.984E-01 -.107E+00 -.142E+00
   0.393E+02 -.734E+02 -.339E+04   -.395E+02 0.733E+02 0.339E+04   0.247E+00 -.277E-01 0.215E+01   0.121E+00 -.107E+00 -.143E+00
   -.832E+02 0.268E+01 -.339E+04   0.832E+02 -.243E+01 0.339E+04   -.148E+00 -.200E+00 0.215E+01   -.142E+00 -.313E-01 -.142E+00
   0.832E+02 0.268E+01 -.339E+04   -.832E+02 -.243E+01 0.339E+04   0.148E+00 -.200E+00 0.215E+01   0.165E+00 -.308E-01 -.141E+00
   -.439E+02 0.707E+02 -.339E+04   0.437E+02 -.708E+02 0.339E+04   0.996E-01 0.228E+00 0.215E+01   -.319E-01 0.158E+00 -.143E+00
   0.439E+02 0.707E+02 -.339E+04   -.437E+02 -.708E+02 0.339E+04   -.996E-01 0.228E+00 0.215E+01   0.559E-01 0.158E+00 -.141E+00
   -.145E-03 -.239E-04 -.341E+04   0.250E-03 0.260E-06 0.341E+04   0.973E-18 0.777E-17 0.182E+01   -.137E-01 -.742E-02 -.832E-01
   -.277E-04 -.833E-05 -.142E+04   0.604E-04 0.127E-04 0.143E+04   0.261E-18 0.124E-17 -.117E+01   -.289E-03 -.904E-04 -.640E-01
   0.171E-03 -.847E-04 -.208E+04   0.164E-04 0.763E-05 0.211E+04   -.205E-17 -.139E-17 -.286E+02   0.262E-02 0.163E-02 0.145E+00
   -.127E-03 -.983E-04 0.392E+02   0.574E-13 0.378E-12 -.200E-10   -.167E-15 0.763E-17 -.283E+02   0.679E-01 0.476E-01 -.109E+02

 POSITION                                       TOTAL-FORCE (eV/Angst)
      0.00000      0.00000      5.37156        -0.000000     -0.000000     -0.001087
      2.56560      0.00000      5.37156        -0.001869      0.010005      0.055213
      5.13119      0.00000      5.37156         0.001869      0.010005      0.055213
      1.28280      2.22187      5.37156         0.007730     -0.006621      0.055213
      3.84839      2.22187      5.37156        -0.000000     -0.000000      0.056610
      6.41399      2.22187      5.37156        -0.007730     -0.006621      0.055213
      2.56560      4.44374      5.37156         0.009599     -0.003384      0.055213
      5.13119      4.44374      5.37156        -0.009599     -0.003384      0.055213
      7.69679      4.44374      5.37156        -0.000000     -0.000000      0.026701
      1.28280      0.74062      7.46636        -0.022043     -0.012727     -0.091114
      3.84839      0.74062      7.46636         0.000000     -0.049802     -0.032849
      6.41399      0.74062      7.46636         0.022043     -0.012727     -0.091114
      2.56560      2.96249      7.46636        -0.043130      0.024901     -0.032849
      5.13119      2.96249      7.46636         0.043130      0.024901     -0.032849
      7.69679      2.96249      7.46636        -0.000000      0.013460      0.037247
      3.84839      5.18437      7.46636        -0.000000      0.025453     -0.091114
      6.41399      5.18437      7.46636         0.011657     -0.006730      0.037247
      8.97958      5.18437      7.46636        -0.011657     -0.006730      0.037247
      7.69679      1.48082      9.55187         0.000000     -0.037008      0.040760
      2.55960      1.47778      9.55047        -0.330283     -0.190689     -0.414227
      5.13719      1.47778      9.55047         0.330283     -0.190689     -0.414227
      8.97653      3.70488      9.56926         0.067192     -0.038793      0.041809
      3.84839      3.71005      9.55047        -0.000000      0.381378     -0.414227
      6.41705      3.70488      9.56926        -0.067192     -0.038793      0.041809
     10.26275      5.92520      9.55187         0.032050      0.018504      0.040760
      5.13082      5.92520      9.55187        -0.032050      0.018504      0.040760
      7.69679      5.92146      9.56926        -0.000000      0.077586      0.041809
      0.00000      0.00000     11.65662        -0.000000     -0.000000     -0.075279
      6.40243      6.64574     11.69071        -0.143249     -0.268520     -0.212312
      8.99114      6.64574     11.69071         0.143249     -0.268520     -0.212312
      8.95659      2.22180     11.69071        -0.304170      0.010203     -0.212312
      6.43698      2.22180     11.69071         0.304170      0.010203     -0.212312
     10.25095      4.46369     11.69071        -0.160921      0.258317     -0.212312
      5.14262      4.46369     11.69071         0.160921      0.258317     -0.212312
      7.69679      4.44374     11.67656        -0.000000     -0.000000     -0.053742
      3.84839      2.22187     11.69355        -0.000000     -0.000000      2.244745
      3.84839      2.22187     13.46095        -0.000000     -0.000000     -0.000232
    total drift:                                0.067744      0.047496     -0.079114

  FREE ENERGIE OF THE ION-ELECTRON SYSTEM (eV)
  free  energy   TOTEN  =      -140.96694890 eV

  energy  without entropy=     -140.96694890  energy(sigma->0) =     -140.96694890

 stress matrix after NEB project (eV)
     -2.17274      0.00000     -0.00000
      0.00000     -2.17274     -0.00000
      0.00000      0.00000      1.01427
  FORCES: max atom, RMS     0.000232    0.000038
  FORCE total and by dimension    0.000232    0.000232
  Stress total and by dimension    3.235789    2.172739
|           W    W    AA    RRRRR   N    N  II  N    N   GGGG   !!!           |
|           W    W   A  A   R    R  NN   N  II  NN   N  G    G  !!!           |
|           W    W  A    A  R    R  N N  N  II  N N  N  G       !!!           |
|           W WW W  AAAAAA  RRRRR   N  N N  II  N  N N  G  GGG   !            |
|           WW  WW  A    A  R   R   N   NN  II  N   NN  G    G                |
|           W    W  A    A  R    R  N    N  II  N    N   GGGG   !!!           |
|     Tetrahedron method does not include variations of the Fermi             |
|     occupations, so forces and stress will be inaccurate. We suggest        |
|     using a different smearing scheme ISMEAR = 1 or 2 for metals in         |
|     relaxations.                                                            |

 total charge

# of ion       s       p       d       tot
    1        0.451   0.283   9.188   9.921
    2        0.448   0.285   9.186   9.919
    3        0.448   0.285   9.186   9.919
    4        0.448   0.285   9.186   9.919
    5        0.448   0.285   9.184   9.917
    6        0.448   0.285   9.186   9.919
    7        0.448   0.285   9.186   9.919
    8        0.448   0.285   9.186   9.919
    9        0.448   0.283   9.188   9.919
   10        0.442   0.370   9.178   9.989
   11        0.440   0.367   9.182   9.989
   12        0.442   0.370   9.178   9.989
   13        0.440   0.367   9.182   9.989
   14        0.440   0.367   9.182   9.989
   15        0.438   0.369   9.177   9.984
   16        0.442   0.370   9.178   9.989
   17        0.438   0.369   9.177   9.984
   18        0.438   0.369   9.177   9.984
   19        0.442   0.365   9.183   9.989
   20        0.465   0.393   9.168  10.026
   21        0.465   0.393   9.168  10.026
   22        0.432   0.371   9.177   9.980
   23        0.465   0.393   9.168  10.026
   24        0.432   0.371   9.177   9.980
   25        0.442   0.365   9.183   9.989
   26        0.442   0.365   9.183   9.989
   27        0.432   0.371   9.177   9.980
   28        0.450   0.294   9.180   9.924
   29        0.475   0.312   9.172   9.959
   30        0.475   0.312   9.172   9.959
   31        0.475   0.312   9.172   9.959
   32        0.475   0.312   9.172   9.959
   33        0.475   0.312   9.172   9.959
   34        0.475   0.312   9.172   9.959
   35        0.449   0.299   9.177   9.924
   36        0.806   0.880   3.629   5.316
   37        1.600   3.314   0.000   4.914
tot         18.166  15.923 324.887 358.976

 BZINTS: Fermi energy:   -0.008253;  396.000000 electrons
         Band energy:-0.118652E+04;  BLOECHL correction:   -0.050465