 vasp.6.2.0 18Jan21 (build Jun 12 2021 23:27:24) complex

 executed on             LinuxIFC date 2022.05.30  16:40:00

 INCAR:
   ISMEAR = -5
   SIGMA = 0.1
   ISPIN = 1
   EDIFF = 1.d-5
   EDIFFG = -0.01
   NSW = 0
   NELM = 150
   ENCUT = 500
   ISIF = 2
   IBRION = 2
   LREAL = Auto
   ALGO = Fast
   ICHARG = 11
   LORBIT = 10
   LCHARG = .F.
   LWAVE = .F.

 POTCAR:    PAW_PBE Au 04Oct2007
 POTCAR:    PAW_PBE Ir 06Sep2000
 POTCAR:    PAW_PBE C 08Apr2002
 POTCAR:    PAW_PBE O 08Apr2002
 POTCAR:    PAW_PBE H 15Jun2001
|           W    W    AA    RRRRR   N    N  II  N    N   GGGG   !!!           |
|           W    W   A  A   R    R  NN   N  II  NN   N  G    G  !!!           |
|           W    W  A    A  R    R  N N  N  II  N N  N  G       !!!           |
|           W WW W  AAAAAA  RRRRR   N  N N  II  N  N N  G  GGG   !            |
|           WW  WW  A    A  R   R   N   NN  II  N   NN  G    G                |
|           W    W  A    A  R    R  N    N  II  N    N   GGGG   !!!           |
|     For optimal performance we recommend to set                             |
|       NCORE = 2 up to number-of-cores-per-socket                            |
|     This setting can greatly improve the performance of VASP for DFT.       |
|     The default, NCORE=1 might be grossly inefficient on modern             |
|     multi-core architectures or massively parallel machines. Do your        |
|     Unfortunately you need to use the default for GW and RPA                |
|     calculations (for HF NCORE is supported but not extensively tested      |
|     yet).                                                                   |

 POTCAR:    PAW_PBE Au 04Oct2007
   VRHFIN =Au: s1d10

   TITEL  = PAW_PBE Au 04Oct2007
   POMASS =  196.966; ZVAL   =   11.000    mass and valenz
   ENMAX  =  229.943; ENMIN  =  172.457 eV

 POTCAR:    PAW_PBE Ir 06Sep2000
   VRHFIN =Ir: s1d8

   TITEL  = PAW_PBE Ir 06Sep2000
   POMASS =  192.220; ZVAL   =    9.000    mass and valenz
   ENMAX  =  210.864; ENMIN  =  158.148 eV

 POTCAR:    PAW_PBE C 08Apr2002
   VRHFIN =C: s2p2

   TITEL  = PAW_PBE C 08Apr2002
   POMASS =   12.011; ZVAL   =    4.000    mass and valenz
   ENMAX  =  400.000; ENMIN  =  300.000 eV

 POTCAR:    PAW_PBE O 08Apr2002
   VRHFIN =O: s2p4

   TITEL  = PAW_PBE O 08Apr2002
   POMASS =   16.000; ZVAL   =    6.000    mass and valenz
   ENMAX  =  400.000; ENMIN  =  300.000 eV

 POTCAR:    PAW_PBE H 15Jun2001
   VRHFIN =H: ultrasoft test

   TITEL  = PAW_PBE H 15Jun2001
   POMASS =    1.000; ZVAL   =    1.000    mass and valenz
   ENMAX  =  250.000; ENMIN  =  200.000 eV

 Optimization of the real space projectors (new method)

 maximal supplied QI-value         = 15.12
 optimisation between [QCUT,QGAM] = [ 11.34, 22.83] = [ 36.00,145.93] Ry
 Optimized for a Real-space Cutoff    1.39 Angstroem

   l    n(q)    QCUT    max X(q) W(low)/X(q) W(high)/X(q)  e(spline)
   2      9    11.338    60.898    0.39E-03    0.42E-03    0.21E-06
   2      9    11.338    58.894    0.40E-03    0.42E-03    0.22E-06
   0      9    11.338   109.617    0.13E-03    0.20E-04    0.13E-06
   0      9    11.338    75.026    0.13E-03    0.20E-04    0.13E-06
   1      9    11.338    16.344    0.33E-04    0.24E-03    0.18E-06
   1      9    11.338    10.160    0.26E-04    0.19E-03    0.15E-06
 Optimization of the real space projectors (new method)

[...]

   l    n(q)    QCUT    max X(q) W(low)/X(q) W(high)/X(q)  e(spline)
   0      7    11.387    20.381    0.39E-03    0.13E-02    0.15E-06
   0      7    11.387    15.268    0.42E-03    0.14E-02    0.17E-06
   1      6    11.387     5.964    0.41E-03    0.11E-02    0.17E-06
   1      6    11.387     5.382    0.39E-03    0.87E-03    0.15E-06
 Optimization of the real space projectors (new method)

 maximal supplied QI-value         = 34.20
 optimisation between [QCUT,QGAM] = [ 11.29, 22.57] = [ 35.68,142.71] Ry
 Optimized for a Real-space Cutoff    1.16 Angstroem

   l    n(q)    QCUT    max X(q) W(low)/X(q) W(high)/X(q)  e(spline)
   0      8    11.287    19.460    0.40E-03    0.73E-03    0.16E-06
   0      8    11.287    12.209    0.38E-03    0.70E-03    0.15E-06
   1      7    11.287     4.655    0.22E-03    0.25E-04    0.22E-06
  PAW_PBE Au 04Oct2007                  :
  PAW_PBE Ir 06Sep2000                  :
  PAW_PBE C 08Apr2002                   :
  PAW_PBE O 08Apr2002                   :
  PAW_PBE H 15Jun2001                   :

 POSCAR: Au-Ir-COH
  positions in direct lattice
  velocities in cartesian coordinates
 exchange correlation table for  LEXCH =        8
   RHO(1)=    0.500       N(1)  =     2000
   RHO(2)=  100.500       N(2)  =     4000

 VTST: version 3.2, (02/03/18)

 CHAIN: initializing optimizer

 OPT: Using VASP Conjugate-Gradient optimizer
 CHAIN: Read ICHAIN            0

 POSCAR: Au-Ir-COH
  positions in direct lattice
  velocities in cartesian coordinates

 ion  position               nearest neighbor table
   1  0.000  0.000  0.197-  16 2.94  12 2.94   6 2.94   8 2.94   7 2.94   3 2.94  10 2.94   4 2.94
                             2 2.94
   2  0.333  0.000  0.197-   9 2.94  11 2.94  17 2.94  10 2.94   8 2.94   4 2.94   5 2.94   1 2.94
                             3 2.94
   3  0.667  0.000  0.197-   7 2.94  18 2.94  12 2.94   1 2.94  11 2.94   5 2.94   6 2.94   9 2.94
                             2 2.94
   4  0.000  0.333  0.197-  10 2.94   6 2.94   5 2.94  13 2.94   2 2.94  15 2.94   9 2.94   1 2.94
                             7 2.94
   5  0.333  0.333  0.197-  13 2.94   7 2.94  11 2.94   4 2.94   2 2.94  14 2.94   3 2.94   8 2.94
                             6 2.94
   6  0.667  0.333  0.197-  15 2.94  14 2.94   1 2.94  12 2.94   4 2.94   9 2.94   8 2.94   3 2.94
                             5 2.94
   7  0.000  0.667  0.197-  18 2.94   3 2.94  16 2.94   5 2.94   1 2.94  13 2.94   8 2.94   4 2.94
                             9 2.94
   8  0.333  0.667  0.197-   9 2.94  17 2.94   1 2.94   2 2.94  14 2.94  16 2.94   6 2.94   7 2.94
                             5 2.94
   9  0.667  0.667  0.197-   2 2.94   8 2.94  17 2.94   6 2.94  15 2.94   4 2.94   3 2.94  18 2.94
                             7 2.94
  10  0.111  0.111  0.287-  20 2.90  11 2.94  17 2.94   2 2.94   4 2.94   1 2.94  12 2.94  16 2.94
                            13 2.94  15 2.94  26 2.94  19 2.94
  11  0.444  0.111  0.287-  20 2.91  21 2.91  27 2.93  13 2.94   2 2.94  10 2.94  17 2.94   5 2.94
                             3 2.94  18 2.94  14 2.94  12 2.94
  12  0.778  0.111  0.287-  21 2.90  16 2.94  18 2.94   1 2.94  14 2.94  15 2.94   3 2.94   6 2.94
                            10 2.94  11 2.94  25 2.94  19 2.94
  13  0.111  0.444  0.287-  23 2.91  20 2.91  22 2.93   5 2.94  18 2.94  11 2.94   7 2.94   4 2.94
                            16 2.94  10 2.94  14 2.94  15 2.94
  14  0.444  0.444  0.287-  21 2.91  23 2.91  24 2.93  15 2.94   6 2.94  12 2.94   8 2.94  17 2.94
                             5 2.94  16 2.94  13 2.94  11 2.94
  15  0.778  0.444  0.287-  24 2.92  22 2.92  14 2.94   6 2.94  17 2.94  12 2.94   9 2.94   4 2.94
                            10 2.94  13 2.94  18 2.94  19 2.94
  16  0.111  0.778  0.287-  23 2.90  18 2.94  12 2.94   7 2.94   1 2.94   8 2.94  13 2.94  10 2.94
                            14 2.94  17 2.94  25 2.94  26 2.94
  17  0.444  0.778  0.287-  27 2.92  24 2.92   9 2.94  15 2.94   2 2.94  10 2.94  11 2.94   8 2.94
                            14 2.94  16 2.94  18 2.94  26 2.94
  18  0.778  0.778  0.287-  22 2.92  27 2.92  16 2.94   7 2.94  13 2.94  12 2.94   3 2.94  11 2.94
                             9 2.94  15 2.94  17 2.94  25 2.94
  19  0.889  0.223  0.377-  21 2.93  20 2.93  24 2.93  22 2.93  15 2.94  10 2.94  12 2.94  26 2.95
                            25 2.95  28 2.95  32 2.96  31 2.96
  20  0.222  0.222  0.375-  36 2.78  10 2.90  11 2.91  13 2.91  26 2.93  19 2.93  29 2.95  31 2.95
                            27 2.95  22 2.95  23 2.95  21 2.95
  21  0.557  0.222  0.375-  36 2.78  12 2.90  14 2.91  11 2.91  25 2.93  19 2.93  30 2.95  32 2.95
                            24 2.95  27 2.95  20 2.95  23 2.95
  22  0.887  0.557  0.376-  24 2.91  27 2.91  18 2.92  15 2.92  13 2.93  25 2.93  19 2.93  23 2.95
                            20 2.95  35 2.95  33 2.96  31 2.96
  23  0.222  0.557  0.375-  36 2.78  16 2.90  13 2.91  14 2.91  25 2.93  26 2.93  33 2.95  34 2.95
                            22 2.95  24 2.95  20 2.95  21 2.95
  24  0.557  0.557  0.376-  27 2.91  22 2.91  15 2.92  17 2.92  14 2.93  26 2.93  19 2.93  21 2.95
                            23 2.95  35 2.95  32 2.96  34 2.96
  25  0.889  0.889  0.377-  23 2.93  21 2.93  22 2.93  27 2.93  18 2.94  16 2.94  12 2.94  19 2.95
                            26 2.95  28 2.95  33 2.96  30 2.96
  26  0.223  0.889  0.377-  20 2.93  23 2.93  27 2.93  24 2.93  17 2.94  10 2.94  16 2.94  19 2.95
                            25 2.95  28 2.95  29 2.96  34 2.96
  27  0.557  0.887  0.376-  24 2.91  22 2.91  17 2.92  18 2.92  11 2.93  26 2.93  25 2.93  20 2.95
                            21 2.95  35 2.95  29 2.96  30 2.96
  28  0.000  0.000  0.467-  25 2.95  19 2.95  26 2.95  34 2.96  32 2.96  33 2.96  30 2.96  31 2.96
                            29 2.96
  29  0.333  0.005  0.467-  31 2.89  30 2.89  36 2.90  20 2.95  28 2.96  35 2.96  27 2.96  26 2.96
                            34 3.03
  30  0.661  0.005  0.467-  32 2.89  29 2.89  36 2.90  21 2.95  28 2.96  35 2.96  27 2.96  25 2.96
                            33 3.03
  31  0.005  0.333  0.467-  29 2.89  33 2.89  36 2.90  20 2.95  28 2.96  35 2.96  22 2.96  19 2.96
                            32 3.03
  32  0.661  0.333  0.467-  30 2.89  34 2.89  36 2.90  21 2.95  28 2.96  35 2.96  24 2.96  19 2.96
                            31 3.03
  33  0.005  0.661  0.467-  34 2.89  31 2.89  36 2.90  23 2.95  28 2.96  35 2.96  22 2.96  25 2.96
                            30 3.03
  34  0.333  0.661  0.467-  33 2.89  32 2.89  36 2.90  23 2.95  28 2.96  35 2.96  24 2.96  26 2.96
                            29 3.03
  35  0.667  0.667  0.467-  24 2.95  27 2.95  22 2.95  29 2.96  34 2.96  32 2.96  31 2.96  30 2.96
                            33 2.96
  36  0.333  0.333  0.457-  37 1.76  20 2.78  23 2.78  21 2.78  33 2.90  31 2.90  29 2.90  30 2.90
                            34 2.90  32 2.90
  37  0.333  0.333  0.523-  38 1.24  36 1.76
  38  0.333  0.333  0.570-  39 0.96  37 1.24
  39  0.333  0.333  0.606-  38 0.96

  LATTYP: Found a hexagonal cell.
 ALAT       =     8.8135128021
 C/A-ratio  =     3.0356784858

  Lattice vectors:

 A1 = (  -4.4067569092,  -7.6327256898,   0.0000000000)
 A2 = (   8.8135128021,   0.0000000000,   0.0000000000)
 A3 = (   0.0000000000,   0.0000000000,  26.7549911976)

Analysis of symmetry for initial positions (statically):
 Subroutine PRICEL returns:
 Original cell was already a primitive cell.

 Routine SETGRP: Setting up the symmetry group for a
 hexagonal supercell.

 Subroutine GETGRP returns: Found  6 space group operations
 (whereof  6 operations were pure point group operations)
 out of a pool of 24 trial point group operations.

The static configuration has the point symmetry C_3v.

Analysis of symmetry for dynamics (positions and initial velocities):
[...]
     41      -4.9279      2.00000
     42      -4.8178      2.00000
     43      -4.8038      2.00000
     44      -4.7466      2.00000
     45      -4.7131      2.00000
     46      -4.6772      2.00000
     47      -4.6555      2.00000
     48      -4.6309      2.00000
     49      -4.5670      2.00000
     50      -4.5584      2.00000
     51      -4.4588      2.00000
     52      -4.4432      2.00000
     53      -4.4100      2.00000
     54      -4.4043      2.00000
     55      -4.3915      2.00000
     56      -4.3769      2.00000
     57      -4.3712      2.00000
     58      -4.3321      2.00000
     59      -4.3071      2.00000
     60      -4.2585      2.00000
[...]
    238       5.2224      0.00000
    239       5.3075      0.00000
    240       5.4040      0.00000
    241       5.5601      0.00000
    242       5.6684      0.00000
    243       5.9062      0.00000
    244       5.9163      0.00000
    245       5.9865      0.00000
    246       6.0822      0.00000
    247       6.1090      0.00000
    248       6.1605      0.00000
    249       6.2233      0.00000
    250       6.2560      0.00000
    251       6.3672      0.00000
    252       6.4169      0.00000

 soft charge-density along one line, spin component           1
         0         1         2         3         4         5         6         7         8         9
 total charge-density along one line

------------------------ aborting loop because EDIFF is reached ----------------------------------------

 total charge

# of ion       s       p       d       tot
    1        0.544   0.240   8.766   9.549
    2        0.546   0.241   8.765   9.551
    3        0.546   0.241   8.765   9.551
    4        0.546   0.241   8.765   9.551
    5        0.544   0.242   8.764   9.550
    6        0.546   0.241   8.765   9.551
    7        0.546   0.241   8.765   9.551
    8        0.546   0.241   8.765   9.551
    9        0.540   0.241   8.768   9.549
   10        0.521   0.309   8.770   9.600
   11        0.522   0.308   8.778   9.608
   12        0.521   0.309   8.770   9.600
   13        0.522   0.308   8.778   9.608
   14        0.522   0.308   8.778   9.608
   15        0.513   0.310   8.773   9.596
   16        0.521   0.309   8.770   9.600
   17        0.513   0.310   8.773   9.596
   18        0.513   0.310   8.773   9.596
   19        0.520   0.302   8.775   9.597
   20        0.544   0.334   8.753   9.630
   21        0.544   0.334   8.753   9.630
   22        0.511   0.311   8.772   9.594
   23        0.544   0.334   8.753   9.630
   24        0.511   0.311   8.772   9.594
   25        0.520   0.302   8.775   9.597
   26        0.520   0.302   8.775   9.597
   27        0.511   0.311   8.772   9.594
   28        0.544   0.231   8.770   9.544
   29        0.536   0.250   8.769   9.555
   30        0.536   0.250   8.769   9.555
   31        0.536   0.250   8.769   9.555
   32        0.536   0.250   8.769   9.555
   33        0.536   0.250   8.769   9.555
   34        0.536   0.250   8.769   9.555
   35        0.542   0.230   8.772   9.544
   36        0.642   0.677   7.126   8.445
   37        0.924   1.478   0.000   2.401
   38        1.529   3.769   0.000   5.298
   39        0.551   0.132   0.000   0.682
tot         22.244  15.803 314.031 352.078

  FORCE on cell =-STRESS in cart. coord.  units (eV):
  Direction    XX          YY          ZZ          XY          YZ          ZX
  Alpha Z   872.85188   872.85188   872.85188
  Ewald  188135.56514188135.56558************    -0.00032    -0.00008    -0.00012
  Hartree196767.33573196767.33574************     0.00001    -0.00002    -0.00003
  E(xc)   -1817.39725 -1817.39741 -1822.42116     0.00014    -0.00001    -0.00002
  Local  ************************397125.66567     0.00218    -0.00000    -0.00004
  n-local  -115.95055   -68.90422   -67.18463    23.23191    -1.24974     1.20885
  augment  2417.28705  2417.28862  2419.66904    -0.00136     0.00001     0.00004
  Kinetic  5687.14757  5695.96141  5653.45940     5.18042     0.30016     0.13884
  Fock        0.00000     0.00000     0.00000     0.00000     0.00000     0.00000
  Total     -17.87996   -17.87996     2.17887    -0.00000    -0.00000    -0.00000
  in kB     -15.91635   -15.91635     1.93959    -0.00000    -0.00000    -0.00000

 VOLUME and BASIS-vectors are now :
  energy-cutoff  :      500.00
  volume of cell :     1799.84
      direct lattice vectors                 reciprocal lattice vectors
     8.813512802  0.000000000  0.000000000     0.113462137 -0.065507406  0.000000000
     4.406756909  7.632725690  0.000000000     0.000000000  0.131014796  0.000000000
     0.000000000  0.000000000 26.754991198     0.000000000  0.000000000  0.037376204

  length of vectors
     8.813512802  8.813512802 26.754991198     0.131014796  0.131014796  0.037376204

 FORCES acting on ions
    electron-ion (+dipol)            ewald-force                    non-local-force                 convergence-correction
   -.201E-04 -.165E-04 0.284E+04   0.519E-04 0.434E-04 -.284E+04   0.724E-19 -.230E-17 -.101E+01   -.296E-03 -.184E-03 -.278E+00
   0.460E+00 0.359E+00 0.284E+04   -.555E+00 -.377E+00 -.284E+04   0.370E-01 0.713E-01 -.280E+00   0.541E-01 -.415E-01 -.329E+00
   -.461E+00 0.359E+00 0.284E+04   0.555E+00 -.377E+00 -.284E+04   -.370E-01 0.713E-01 -.280E+00   -.537E-01 -.396E-01 -.329E+00
   0.541E+00 0.219E+00 0.284E+04   -.604E+00 -.292E+00 -.284E+04   0.803E-01 -.364E-02 -.280E+00   -.886E-02 0.676E-01 -.329E+00
   0.103E-04 -.223E-04 0.284E+04   0.952E-04 0.174E-05 -.284E+04   -.265E-18 -.123E-17 -.201E+00   0.432E-02 0.263E-02 -.360E+00
   -.541E+00 0.219E+00 0.284E+04   0.604E+00 -.292E+00 -.284E+04   -.803E-01 -.364E-02 -.280E+00   0.729E-02 0.684E-01 -.328E+00
   0.805E-01 -.578E+00 0.284E+04   -.494E-01 0.669E+00 -.284E+04   0.433E-01 -.677E-01 -.280E+00   -.611E-01 -.267E-01 -.329E+00
   -.806E-01 -.578E+00 0.284E+04   0.493E-01 0.669E+00 -.284E+04   -.433E-01 -.677E-01 -.280E+00   0.629E-01 -.279E-01 -.328E+00
   0.195E-04 -.414E-04 0.284E+04   0.166E-03 -.201E-04 -.284E+04   -.882E-18 -.115E-17 -.571E+00   -.456E-02 -.236E-02 -.303E+00
   0.633E+01 0.365E+01 0.997E+03   -.589E+01 -.340E+01 -.996E+03   -.374E+00 -.216E+00 -.658E+00   -.417E-01 -.242E-01 -.261E+00
   0.143E-04 0.445E+01 0.100E+04   0.149E-03 -.443E+01 -.100E+04   0.239E-08 0.359E-01 -.327E+00   0.437E-02 -.121E+00 -.257E+00
   -.633E+01 0.365E+01 0.997E+03   0.589E+01 -.340E+01 -.996E+03   0.374E+00 -.216E+00 -.658E+00   0.399E-01 -.230E-01 -.261E+00
   0.386E+01 -.223E+01 0.100E+04   -.383E+01 0.221E+01 -.100E+04   0.310E-01 -.179E-01 -.327E+00   -.102E+00 0.645E-01 -.257E+00
   -.386E+01 -.223E+01 0.100E+04   0.383E+01 0.221E+01 -.100E+04   -.310E-01 -.179E-01 -.327E+00   0.110E+00 0.634E-01 -.258E+00
   0.312E-04 0.304E+01 0.998E+03   0.236E-03 -.310E+01 -.998E+03   -.332E-08 -.499E-01 -.459E+00   -.250E-02 0.738E-01 -.235E+00
   -.211E-04 -.731E+01 0.997E+03   0.163E-03 0.680E+01 -.996E+03   0.287E-07 0.432E+00 -.658E+00   -.175E-03 0.460E-01 -.261E+00
   0.263E+01 -.152E+01 0.998E+03   -.268E+01 0.155E+01 -.998E+03   -.432E-01 0.249E-01 -.459E+00   0.629E-01 -.386E-01 -.235E+00
   -.263E+01 -.152E+01 0.998E+03   0.268E+01 0.155E+01 -.998E+03   0.432E-01 0.249E-01 -.459E+00   -.623E-01 -.362E-01 -.234E+00
   -.425E-04 0.472E+01 -.886E+03   0.530E-04 -.482E+01 0.886E+03   -.702E-09 -.105E-01 0.612E+00   -.466E-02 0.826E-01 -.340E-01
   0.153E+02 0.884E+01 -.834E+03   -.144E+02 -.832E+01 0.835E+03   -.783E+00 -.452E+00 -.923E+00   -.969E-01 -.561E-01 -.622E-01
   -.153E+02 0.884E+01 -.834E+03   0.144E+02 -.832E+01 0.835E+03   0.783E+00 -.452E+00 -.923E+00   0.991E-01 -.564E-01 -.624E-01
   0.161E+01 -.928E+00 -.870E+03   -.179E+01 0.103E+01 0.870E+03   0.353E+00 -.204E+00 0.615E+00   -.113E+00 0.668E-01 -.597E-01
   -.137E-04 -.177E+02 -.834E+03   0.144E-03 0.166E+02 0.835E+03   0.602E-07 0.904E+00 -.923E+00   0.472E-03 0.114E+00 -.624E-01
   -.161E+01 -.928E+00 -.870E+03   0.179E+01 0.103E+01 0.870E+03   -.353E+00 -.204E+00 0.615E+00   0.113E+00 0.650E-01 -.596E-01
   -.409E+01 -.236E+01 -.886E+03   0.417E+01 0.241E+01 0.886E+03   0.913E-02 0.527E-02 0.612E+00   -.759E-01 -.439E-01 -.343E-01
   0.409E+01 -.236E+01 -.886E+03   -.417E+01 0.241E+01 0.886E+03   -.913E-02 0.527E-02 0.612E+00   0.695E-01 -.453E-01 -.340E-01
   0.774E-05 0.186E+01 -.870E+03   0.199E-03 -.206E+01 0.870E+03   0.272E-07 0.408E+00 0.615E+00   0.106E-02 -.131E+00 -.596E-01
   -.133E-04 -.133E-04 -.274E+04   0.293E-04 0.351E-04 0.274E+04   0.759E-18 -.456E-18 0.109E+00   -.406E-03 -.253E-03 0.251E+00
   0.305E+02 0.531E+02 -.270E+04   -.306E+02 -.533E+02 0.270E+04   -.108E+00 -.123E+00 0.347E+00   0.650E-02 -.852E-01 0.229E+00
   -.305E+02 0.531E+02 -.270E+04   0.306E+02 -.533E+02 0.270E+04   0.108E+00 -.123E+00 0.347E+00   -.577E-02 -.836E-01 0.228E+00
   0.612E+02 -.157E+00 -.270E+04   -.615E+02 0.181E+00 0.270E+04   -.160E+00 -.318E-01 0.347E+00   -.705E-01 0.482E-01 0.229E+00
   -.612E+02 -.156E+00 -.270E+04   0.615E+02 0.181E+00 0.270E+04   0.160E+00 -.318E-01 0.347E+00   0.691E-01 0.486E-01 0.228E+00
   0.307E+02 -.529E+02 -.270E+04   -.309E+02 0.531E+02 0.270E+04   -.527E-01 0.155E+00 0.347E+00   -.752E-01 0.368E-01 0.228E+00
   -.307E+02 -.529E+02 -.270E+04   0.309E+02 0.531E+02 0.270E+04   0.527E-01 0.155E+00 0.347E+00   0.767E-01 0.356E-01 0.228E+00
   0.310E-04 -.269E-04 -.274E+04   0.144E-03 -.505E-04 0.274E+04   0.163E-17 0.897E-18 0.254E+00   -.432E-02 -.220E-02 0.173E+00
   -.129E-04 -.201E-04 -.192E+04   0.926E-04 0.834E-05 0.192E+04   -.194E-18 0.255E-17 0.710E+00   0.254E-02 0.154E-02 0.215E+00
   -.744E-05 -.832E-04 -.107E+04   0.156E-04 0.994E-06 0.105E+04   -.123E-18 -.128E-18 0.182E+02   0.126E-02 0.770E-03 0.877E-01
   0.246E-03 -.901E-04 -.177E+04   0.564E-05 0.527E-06 0.178E+04   -.126E-18 -.105E-18 -.833E+01   0.390E-02 0.239E-02 0.674E-01
   0.630E-05 -.143E-04 -.336E+03   0.265E-06 0.390E-07 0.344E+03   -.267E-20 0.104E-19 -.850E+01   0.203E-03 0.124E-03 0.572E-02
   -.482E-03 -.938E-03 0.635E+01   -.251E-13 0.568E-13 0.739E-12   -.394E-15 -.108E-15 -.234E+01   0.498E-02 0.364E-02 -.347E+01

 POSITION                                       TOTAL-FORCE (eV/Angst)
      0.00000      0.00000      5.28038        -0.000000     -0.000000     -0.059194
      2.93784      0.00000      5.28038        -0.002809      0.012415     -0.035280
      5.87568      0.00000      5.28038         0.002809      0.012415     -0.035280
      1.46892      2.54424      5.28038         0.009347     -0.008640     -0.035280
      4.40676      2.54424      5.28038        -0.000000      0.000000     -0.049448
      7.34459      2.54424      5.28038        -0.009347     -0.008640     -0.035280
      2.93784      5.08848      5.28038         0.012156     -0.003775     -0.035280
      5.87568      5.08848      5.28038        -0.012156     -0.003775     -0.035280
      8.81351      5.08848      5.28038        -0.000000      0.000000     -0.038101
      1.46892      0.84808      7.67911         0.027207      0.015708      0.145412
      4.40676      0.84808      7.67911        -0.000000     -0.061716      0.014826
      7.34459      0.84808      7.67911        -0.027207      0.015708      0.145412
      2.93784      3.39232      7.67911        -0.053448      0.030858      0.014826
      5.87568      3.39232      7.67911         0.053448      0.030858      0.014826
      8.81351      3.39232      7.67911        -0.000000     -0.032355      0.113743
      4.40676      5.93656      7.67911        -0.000000     -0.031416      0.145412
      7.34459      5.93656      7.67911        -0.028020      0.016178      0.113743
     10.28243      5.93656      7.67911         0.028020      0.016178      0.113743
      8.81351      1.70038     10.08128        -0.000000     -0.023782     -0.017314
      2.93047      1.69191     10.03818         0.019400      0.011201     -0.214981
      5.88304      1.69191     10.03818        -0.019400      0.011201     -0.214981
     10.26792      4.24878     10.06124         0.060302     -0.034815     -0.023341
      4.40676      4.24891     10.03818        -0.000000     -0.022402     -0.214981
      7.35911      4.24878     10.06124        -0.060302     -0.034815     -0.023341
     11.74770      6.78254     10.08128         0.020595      0.011891     -0.017314
      5.87933      6.78254     10.08128        -0.020595      0.011891     -0.017314
      8.81351      6.76789     10.06124         0.000000      0.069631     -0.023341
      0.00000      0.00000     12.49619        -0.000000     -0.000000     -0.119445
      2.96082      0.04010     12.48308        -0.198641     -0.426196     -0.121841
      5.85269      0.04010     12.48308         0.198641     -0.426196     -0.121841
      1.51514      2.54410     12.48308        -0.468417      0.041070     -0.121841
      7.29838      2.54410     12.48308         0.468417      0.041070     -0.121841
      2.96107      5.04853     12.48308        -0.269776      0.385126     -0.121841
      5.85244      5.04853     12.48308         0.269776      0.385126     -0.121841
      8.81351      5.08848     12.49171        -0.000000      0.000000     -0.050113
      4.40676      2.54424     12.23647        -0.000000      0.000000      1.162911
      4.40676      2.54424     13.99937        -0.000000      0.000000      0.012146
      4.40676      2.54424     15.24034        -0.000000      0.000000      0.012140
      4.40676      2.54424     16.20363        -0.000000     -0.000000      0.016799
    total drift:                                0.004494      0.002705      0.536178

  FREE ENERGIE OF THE ION-ELECTRON SYSTEM (eV)
  free  energy   TOTEN  =      -132.18641955 eV

  energy  without entropy=     -132.18641955  energy(sigma->0) =     -132.18641955

 stress matrix after NEB project (eV)
    -17.87996     -0.00000     -0.00000
     -0.00000    -17.87996     -0.00000
      0.00000     -0.00000      2.17887
  FORCES: max atom, RMS     0.016799    0.003847
  FORCE total and by dimension    0.024023    0.016799
  Stress total and by dimension   25.379779   17.879958
|           W    W    AA    RRRRR   N    N  II  N    N   GGGG   !!!           |
|           W    W   A  A   R    R  NN   N  II  NN   N  G    G  !!!           |
|           W    W  A    A  R    R  N N  N  II  N N  N  G       !!!           |
|           W WW W  AAAAAA  RRRRR   N  N N  II  N  N N  G  GGG   !            |
|           WW  WW  A    A  R   R   N   NN  II  N   NN  G    G                |
|           W    W  A    A  R    R  N    N  II  N    N   GGGG   !!!           |
|     Tetrahedron method does not include variations of the Fermi             |
|     occupations, so forces and stress will be inaccurate. We suggest        |
|     using a different smearing scheme ISMEAR = 1 or 2 for metals in         |
|     relaxations.                                                            |

 total charge

# of ion       s       p       d       tot
    1        0.544   0.240   8.766   9.549
    2        0.546   0.241   8.765   9.551
    3        0.546   0.241   8.765   9.551
    4        0.546   0.241   8.765   9.551
    5        0.544   0.242   8.764   9.550
    6        0.546   0.241   8.765   9.551
    7        0.546   0.241   8.765   9.551
    8        0.546   0.241   8.765   9.551
    9        0.540   0.241   8.768   9.549
   10        0.521   0.309   8.770   9.600
   11        0.522   0.308   8.778   9.608
   12        0.521   0.309   8.770   9.600
   13        0.522   0.308   8.778   9.608
   14        0.522   0.308   8.778   9.608
   15        0.513   0.310   8.773   9.596
   16        0.521   0.309   8.770   9.600
   17        0.513   0.310   8.773   9.596
   18        0.513   0.310   8.773   9.596
   19        0.520   0.302   8.775   9.597
   20        0.544   0.334   8.753   9.630
   21        0.544   0.334   8.753   9.630
   22        0.511   0.311   8.772   9.594
   23        0.544   0.334   8.753   9.630
   24        0.511   0.311   8.772   9.594
   25        0.520   0.302   8.775   9.597
   26        0.520   0.302   8.775   9.597
   27        0.511   0.311   8.772   9.594
   28        0.544   0.231   8.770   9.544
   29        0.536   0.250   8.769   9.555
   30        0.536   0.250   8.769   9.555
   31        0.536   0.250   8.769   9.555
   32        0.536   0.250   8.769   9.555
   33        0.536   0.250   8.769   9.555
   34        0.536   0.250   8.769   9.555
   35        0.542   0.230   8.772   9.544
   36        0.642   0.677   7.126   8.445
   37        0.924   1.478   0.000   2.401
   38        1.529   3.769   0.000   5.298
   39        0.551   0.132   0.000   0.682
tot         22.244  15.803 314.031 352.078

 BZINTS: Fermi energy:    0.415960;  405.000000 electrons
         Band energy:-0.143186E+04;  BLOECHL correction:   -0.077159