 vasp.6.2.0 18Jan21 (build Jun 12 2021 23:27:24) complex

 executed on             LinuxIFC date 2022.05.28  01:28:08

 INCAR:
   ISMEAR = -5
   SIGMA = 0.1
   ISPIN = 1
   EDIFF = 1.d-5
   EDIFFG = -0.01
   NSW = 0
   NELM = 150
   ENCUT = 500
   ISIF = 2
   IBRION = 2
   LREAL = Auto
   ALGO = Fast
   ICHARG = 11
   LORBIT = 10
   LCHARG = .F.
   LWAVE = .F.

 POTCAR:    PAW_PBE Ag 02Apr2005
 POTCAR:    PAW_PBE Cr 06Sep2000
 POTCAR:    PAW_PBE H 15Jun2001
 POTCAR:    PAW_PBE O 08Apr2002
|           W    W    AA    RRRRR   N    N  II  N    N   GGGG   !!!           |
|           W    W   A  A   R    R  NN   N  II  NN   N  G    G  !!!           |
|           W    W  A    A  R    R  N N  N  II  N N  N  G       !!!           |
|           W WW W  AAAAAA  RRRRR   N  N N  II  N  N N  G  GGG   !            |
|           WW  WW  A    A  R   R   N   NN  II  N   NN  G    G                |
|           W    W  A    A  R    R  N    N  II  N    N   GGGG   !!!           |
|     For optimal performance we recommend to set                             |
|       NCORE = 2 up to number-of-cores-per-socket                            |
|     This setting can greatly improve the performance of VASP for DFT.       |
|     The default, NCORE=1 might be grossly inefficient on modern             |
|     multi-core architectures or massively parallel machines. Do your        |
|     Unfortunately you need to use the default for GW and RPA                |
|     calculations (for HF NCORE is supported but not extensively tested      |
|     yet).                                                                   |

 POTCAR:    PAW_PBE Ag 02Apr2005
   VRHFIN =Ag : s1 d10

   TITEL  = PAW_PBE Ag 02Apr2005
   POMASS =  107.868; ZVAL   =   11.000    mass and valenz
   ENMAX  =  249.844; ENMIN  =  187.383 eV

 POTCAR:    PAW_PBE Cr 06Sep2000
   VRHFIN =Cr : d5 s1

   TITEL  = PAW_PBE Cr 06Sep2000
   POMASS =   51.996; ZVAL   =    6.000    mass and valenz
   ENMAX  =  227.080; ENMIN  =  170.310 eV

 POTCAR:    PAW_PBE H 15Jun2001
   VRHFIN =H: ultrasoft test

   TITEL  = PAW_PBE H 15Jun2001
   POMASS =    1.000; ZVAL   =    1.000    mass and valenz
   ENMAX  =  250.000; ENMIN  =  200.000 eV

 POTCAR:    PAW_PBE O 08Apr2002
   VRHFIN =O: s2p4

   TITEL  = PAW_PBE O 08Apr2002
   POMASS =   16.000; ZVAL   =    6.000    mass and valenz
   ENMAX  =  400.000; ENMIN  =  300.000 eV

 Optimization of the real space projectors (new method)

 maximal supplied QI-value         = 15.12
 optimisation between [QCUT,QGAM] = [ 11.34, 22.83] = [ 36.00,145.93] Ry
 Optimized for a Real-space Cutoff    1.43 Angstroem

   l    n(q)    QCUT    max X(q) W(low)/X(q) W(high)/X(q)  e(spline)
   2      9    11.338    53.897    0.16E-03    0.20E-03    0.28E-06
   2      9    11.338    52.416    0.16E-03    0.20E-03    0.29E-06
   0     10    11.338   122.045    0.31E-04    0.76E-04    0.15E-06
   0     10    11.338    73.629    0.30E-04    0.72E-04    0.15E-06
   1      9    11.338    15.255    0.20E-03    0.19E-04    0.17E-06
   1      9    11.338     9.562    0.16E-03    0.15E-04    0.14E-06
 Optimization of the real space projectors (new method)

[...]

   l    n(q)    QCUT    max X(q) W(low)/X(q) W(high)/X(q)  e(spline)
   0      8    11.287    19.460    0.40E-03    0.73E-03    0.16E-06
   0      8    11.287    12.209    0.38E-03    0.70E-03    0.15E-06
   1      7    11.287     4.655    0.22E-03    0.25E-04    0.22E-06
 Optimization of the real space projectors (new method)

 maximal supplied QI-value         = 24.76
 optimisation between [QCUT,QGAM] = [ 11.39, 22.77] = [ 36.31,145.25] Ry
 Optimized for a Real-space Cutoff    1.00 Angstroem

   l    n(q)    QCUT    max X(q) W(low)/X(q) W(high)/X(q)  e(spline)
   0      7    11.387    20.381    0.39E-03    0.13E-02    0.15E-06
   0      7    11.387    15.268    0.42E-03    0.14E-02    0.17E-06
   1      6    11.387     5.964    0.41E-03    0.11E-02    0.17E-06
   1      6    11.387     5.382    0.39E-03    0.87E-03    0.15E-06
  PAW_PBE Ag 02Apr2005                  :
  PAW_PBE Cr 06Sep2000                  :
  PAW_PBE H 15Jun2001                   :
  PAW_PBE O 08Apr2002                   :

 POSCAR: Ag-Cr-H2O
  positions in direct lattice
  velocities in cartesian coordinates
 exchange correlation table for  LEXCH =        8
   RHO(1)=    0.500       N(1)  =     2000
   RHO(2)=  100.500       N(2)  =     4000

 VTST: version 3.2, (02/03/18)

 CHAIN: initializing optimizer

 OPT: Using VASP Conjugate-Gradient optimizer
 CHAIN: Read ICHAIN            0

 POSCAR: Ag-Cr-H2O
  positions in direct lattice
  velocities in cartesian coordinates

 ion  position               nearest neighbor table
   1  0.000  0.000  0.212-   2 2.93   8 2.93   7 2.93   6 2.93   4 2.93  12 2.93  16 2.93  10 2.93
                             3 2.93
   2  0.333  0.000  0.212-   1 2.93   8 2.93   9 2.93   3 2.93   4 2.93   5 2.93  10 2.93  17 2.93
                            11 2.93
   3  0.667  0.000  0.212-   9 2.93   2 2.93   5 2.93  11 2.93   7 2.93  18 2.93   1 2.93   6 2.93
                            12 2.93
   4  0.000  0.333  0.212-   5 2.93   6 2.93   2 2.93   1 2.93   7 2.93  13 2.93  15 2.93   9 2.93
                            10 2.93
   5  0.333  0.333  0.212-   4 2.93   3 2.93   7 2.93   2 2.93   8 2.93  14 2.93  13 2.93  11 2.93
                             6 2.93
   6  0.667  0.333  0.212-   4 2.93   9 2.93   1 2.93  15 2.93   8 2.93  12 2.93   3 2.93   5 2.93
                            14 2.93
   7  0.000  0.667  0.212-   8 2.93   1 2.93   5 2.93   3 2.93   4 2.93  16 2.93  18 2.93  13 2.93
                             9 2.93
   8  0.333  0.667  0.212-   7 2.93   1 2.93   2 2.93   9 2.93   5 2.93  16 2.93   6 2.93  17 2.93
                            14 2.93
   9  0.667  0.667  0.212-   3 2.93   2 2.93   8 2.93   6 2.93  17 2.93   4 2.93  15 2.93   7 2.93
                            18 2.93
  10  0.111  0.111  0.308-  20 2.91  19 2.92  26 2.92  12 2.93  16 2.93  15 2.93  17 2.93  13 2.93
                            11 2.93   2 2.93   1 2.93   4 2.93
  11  0.444  0.111  0.308-  21 2.90  20 2.90  27 2.92  14 2.93  17 2.93  18 2.93   3 2.93  12 2.93
                            13 2.93  10 2.93   5 2.93   2 2.93
  12  0.778  0.111  0.308-  21 2.91  25 2.92  19 2.92  10 2.93  16 2.93  18 2.93  15 2.93  11 2.93
                             1 2.93  14 2.93   6 2.93   3 2.93
  13  0.111  0.444  0.308-  20 2.90  23 2.90  22 2.92  15 2.93  14 2.93  18 2.93  10 2.93  11 2.93
                            16 2.93   4 2.93   5 2.93   7 2.93
  14  0.444  0.444  0.308-  23 2.90  21 2.90  24 2.92  13 2.93  11 2.93  16 2.93   5 2.93  12 2.93
                            17 2.93   8 2.93  15 2.93   6 2.93
  15  0.778  0.444  0.308-  24 2.92  22 2.92  19 2.92  13 2.93  10 2.93  12 2.93  17 2.93  18 2.93
                             4 2.93   6 2.93   9 2.93  14 2.93
  16  0.111  0.778  0.308-  23 2.91  26 2.92  25 2.92  18 2.93  12 2.93  10 2.93  14 2.93  17 2.93
                            13 2.93   7 2.93   8 2.93   1 2.93
  17  0.444  0.778  0.308-  27 2.92  24 2.92  26 2.92  11 2.93  10 2.93   9 2.93  18 2.93  15 2.93
                            16 2.93   2 2.93  14 2.93   8 2.93
  18  0.778  0.778  0.308-  22 2.92  27 2.92  25 2.92  16 2.93  12 2.93  13 2.93  11 2.93  17 2.93
                            15 2.93   7 2.93   3 2.93   9 2.93
  19  0.889  0.222  0.403-  28 2.91  15 2.92  10 2.92  12 2.92  24 2.93  22 2.93  26 2.93  25 2.93
                            20 2.94  21 2.94  32 2.96  31 2.96
  20  0.223  0.223  0.402-  36 2.73  13 2.90  11 2.90  21 2.91  23 2.91  10 2.91  31 2.91  29 2.91
                            27 2.93  22 2.93  19 2.94  26 2.94
  21  0.554  0.223  0.402-  36 2.73  11 2.90  14 2.90  20 2.91  23 2.91  12 2.91  30 2.91  32 2.91
                            27 2.93  24 2.93  25 2.94  19 2.94
  22  0.888  0.556  0.403-  35 2.91  18 2.92  15 2.92  13 2.92  24 2.92  27 2.92  25 2.93  19 2.93
                            33 2.93  31 2.93  23 2.93  20 2.93
  23  0.223  0.554  0.402-  36 2.73  14 2.90  13 2.90  21 2.91  20 2.91  16 2.91  34 2.91  33 2.91
                            22 2.93  24 2.93  26 2.94  25 2.94
  24  0.556  0.556  0.403-  35 2.91  15 2.92  17 2.92  14 2.92  27 2.92  22 2.92  19 2.93  26 2.93
                            32 2.93  34 2.93  23 2.93  21 2.93
  25  0.889  0.889  0.403-  28 2.91  18 2.92  16 2.92  12 2.92  22 2.93  27 2.93  26 2.93  19 2.93
                            23 2.94  21 2.94  33 2.96  30 2.96
  26  0.222  0.889  0.403-  28 2.91  17 2.92  16 2.92  10 2.92  27 2.93  24 2.93  25 2.93  19 2.93
                            23 2.94  20 2.94  34 2.96  29 2.96
  27  0.556  0.888  0.403-  35 2.91  17 2.92  18 2.92  11 2.92  24 2.92  22 2.92  26 2.93  25 2.93
                            29 2.93  30 2.93  20 2.93  21 2.93
  28  0.000  0.000  0.498-  26 2.91  25 2.91  19 2.91  29 2.96  34 2.96  33 2.96  32 2.96  31 2.96
                            30 2.96
  29  0.333  0.007  0.499-  30 2.87  31 2.87  36 2.88  20 2.91  27 2.93  26 2.96  35 2.96  28 2.96
                            34 3.06
  30  0.659  0.007  0.499-  29 2.87  32 2.87  36 2.88  21 2.91  27 2.93  25 2.96  35 2.96  28 2.96
                            33 3.06
  31  0.007  0.333  0.499-  33 2.87  29 2.87  36 2.88  20 2.91  22 2.93  19 2.96  35 2.96  28 2.96
                            32 3.06
  32  0.659  0.333  0.499-  34 2.87  30 2.87  36 2.88  21 2.91  24 2.93  19 2.96  35 2.96  28 2.96
                            31 3.06
  33  0.007  0.659  0.499-  31 2.87  34 2.87  36 2.88  23 2.91  22 2.93  25 2.96  35 2.96  28 2.96
                            30 3.06
  34  0.333  0.659  0.499-  32 2.87  33 2.87  36 2.88  23 2.91  24 2.93  26 2.96  35 2.96  28 2.96
                            29 3.06
  35  0.667  0.667  0.498-  24 2.91  27 2.91  22 2.91  30 2.96  32 2.96  29 2.96  34 2.96  31 2.96
                            33 2.96
  36  0.333  0.333  0.488-  39 2.13  21 2.73  20 2.73  23 2.73  31 2.88  33 2.88  30 2.88  29 2.88
                            34 2.88  32 2.88
  37  0.276  0.268  0.583-  39 0.98
  38  0.455  0.268  0.584-  39 0.98
  39  0.331  0.338  0.574-  37 0.98  38 0.98  36 2.13

  LATTYP: Found a hexagonal cell.
 ALAT       =     8.7913665772
 C/A-ratio  =     2.8382349142

  Lattice vectors:

 A1 = (  -4.3956832886,  -7.6135467898,   0.0000000000)
 A2 = (   8.7913665771,   0.0000000000,   0.0000000000)
 A3 = (   0.0000000000,   0.0000000000,  24.9519635625)

Analysis of symmetry for initial positions (statically):
 Subroutine PRICEL returns:
 Original cell was already a primitive cell.

 Routine SETGRP: Setting up the symmetry group for a
 hexagonal supercell.

 Subroutine GETGRP returns: Found  1 space group operations
 (whereof  1 operations were pure point group operations)
 out of a pool of 24 trial point group operations.

The static configuration has the point symmetry C_1 .

Analysis of symmetry for dynamics (positions and initial velocities):
 Subroutine PRICEL returns:
 Original cell was already a primitive cell.

[...]

The dynamic configuration has the point symmetry C_1 .

Analysis of constrained symmetry for selective dynamics:
 Subroutine PRICEL returns:
[...]
     41      -4.7276      2.00000
     42      -4.6901      2.00000
     43      -4.6864      2.00000
     44      -4.6701      2.00000
     45      -4.6633      2.00000
     46      -4.6589      2.00000
     47      -4.5698      2.00000
     48      -4.5406      2.00000
     49      -4.5333      2.00000
     50      -4.5274      2.00000
     51      -4.5228      2.00000
     52      -4.5223      2.00000
     53      -4.5064      2.00000
     54      -4.4984      2.00000
     55      -4.4887      2.00000
     56      -4.4796      2.00000
     57      -4.4108      2.00000
     58      -4.4075      2.00000
     59      -4.3960      2.00000
     60      -4.3875      2.00000
[...]
    238       5.6776      0.00000
    239       5.7679      0.00000
    240       5.8286      0.00000
    241       5.9036      0.00000
    242       5.9911      0.00000
    243       6.1964      0.00000
    244       6.2159      0.00000
    245       6.3391      0.00000
    246       6.3741      0.00000
    247       6.5755      0.00000
    248       6.6711      0.00000
    249       6.8316      0.00000
    250       6.8744      0.00000
    251       6.9031      0.00000
    252       7.0896      0.00000

 soft charge-density along one line, spin component           1
         0         1         2         3         4         5         6         7         8         9
 total charge-density along one line

------------------------ aborting loop because EDIFF is reached ----------------------------------------

 total charge

# of ion       s       p       d       tot
    1        0.421   0.202   9.179   9.801
    2        0.417   0.204   9.178   9.799
    3        0.417   0.204   9.178   9.799
    4        0.417   0.204   9.178   9.799
    5        0.420   0.202   9.176   9.799
    6        0.417   0.204   9.178   9.799
    7        0.416   0.204   9.178   9.798
    8        0.416   0.204   9.178   9.798
    9        0.416   0.203   9.179   9.798
   10        0.410   0.269   9.164   9.842
   11        0.409   0.267   9.169   9.845
   12        0.410   0.269   9.164   9.842
   13        0.407   0.268   9.169   9.844
   14        0.407   0.268   9.169   9.844
   15        0.405   0.269   9.166   9.839
   16        0.409   0.269   9.163   9.841
   17        0.404   0.269   9.166   9.839
   18        0.404   0.269   9.166   9.839
   19        0.405   0.265   9.168   9.837
   20        0.436   0.299   9.139   9.874
   21        0.436   0.299   9.139   9.874
   22        0.396   0.274   9.167   9.837
   23        0.436   0.299   9.138   9.873
   24        0.396   0.274   9.167   9.837
   25        0.403   0.265   9.168   9.836
   26        0.403   0.265   9.168   9.836
   27        0.398   0.274   9.167   9.838
   28        0.414   0.201   9.174   9.788
   29        0.436   0.217   9.161   9.814
   30        0.436   0.217   9.161   9.814
   31        0.436   0.216   9.162   9.814
   32        0.436   0.216   9.162   9.814
   33        0.430   0.209   9.168   9.806
   34        0.430   0.209   9.168   9.806
   35        0.407   0.202   9.177   9.785
   36        0.367   0.336   4.144   4.847
   37        0.600   0.117   0.000   0.717
   38        0.600   0.117   0.000   0.717
   39        1.568   3.610   0.000   5.178
tot         17.691  12.626 324.990 355.307

  FORCE on cell =-STRESS in cart. coord.  units (eV):
  Direction    XX          YY          ZZ          XY          YZ          ZX
  Alpha Z   669.72160   669.72160   669.72160
  Ewald  160889.32868160821.84005************    -0.05041   -16.69586     0.11170
  Hartree170855.63358170842.46660************    -0.01646     0.58771     0.10376
  E(xc)   -2090.37788 -2090.46129 -2096.06363    -0.00029    -0.00633    -0.00017
  Local  ************************342890.77854     0.05984     9.22021    -0.21726
  n-local  -355.66754  -356.19091  -357.77952    -0.00095     0.06861    -0.00389
  augment  3253.46951  3254.06206  3265.48031     0.00032     0.24465     0.00099
  Kinetic  4948.05821  4965.83462  4999.59405     0.01415     6.48051     0.00158
  Fock        0.00000     0.00000     0.00000     0.00000     0.00000     0.00000
  Total      -9.64633    -9.62096    -0.35589     0.00620    -0.10050    -0.00329
  in kB      -9.25389    -9.22956    -0.34142     0.00595    -0.09641    -0.00316

 VOLUME and BASIS-vectors are now :
  energy-cutoff  :      500.00
  volume of cell :     1670.12
      direct lattice vectors                 reciprocal lattice vectors
     8.791366577  0.000000000  0.000000000     0.113747958 -0.065672414  0.000000000
     4.395683289  7.613546790  0.000000000     0.000000000  0.131344829  0.000000000
     0.000000000  0.000000000 24.951963562     0.000000000  0.000000000  0.040077006

  length of vectors
     8.791366577  8.791366577 24.951963562     0.131344829  0.131344829  0.040077006

 FORCES acting on ions
    electron-ion (+dipol)            ewald-force                    non-local-force                 convergence-correction
   0.163E-02 0.439E-01 0.272E+04   -.238E-03 -.771E-02 -.272E+04   -.815E-04 0.336E-02 -.202E+01   -.131E-02 -.349E-01 0.202E+00
   -.746E-01 0.136E+00 0.272E+04   -.239E+00 -.211E+00 -.272E+04   0.120E+00 0.150E+00 -.153E+01   0.190E+00 -.698E-01 0.284E+00
   0.739E-01 0.127E+00 0.272E+04   0.239E+00 -.211E+00 -.272E+04   -.119E+00 0.150E+00 -.153E+01   -.190E+00 -.610E-01 0.287E+00
   0.774E-01 -.120E+00 0.272E+04   -.296E+00 -.943E-01 -.272E+04   0.174E+00 0.989E-02 -.155E+01   0.427E-01 0.194E+00 0.262E+00
   -.128E-01 -.137E+00 0.272E+04   0.383E-03 0.114E-01 -.272E+04   -.239E-02 0.219E-01 -.127E+01   0.151E-01 0.953E-01 0.320E+00
   -.696E-01 -.123E+00 0.272E+04   0.295E+00 -.944E-01 -.272E+04   -.174E+00 0.963E-02 -.155E+01   -.503E-01 0.197E+00 0.265E+00
   0.303E-01 0.276E-01 0.272E+04   -.562E-01 0.305E+00 -.272E+04   0.891E-01 -.171E+00 -.163E+01   -.636E-01 -.155E+00 0.249E+00
   -.374E-01 0.330E-01 0.272E+04   0.563E-01 0.305E+00 -.272E+04   -.894E-01 -.171E+00 -.163E+01   0.708E-01 -.161E+00 0.249E+00
   0.120E-01 0.197E-01 0.272E+04   -.578E-04 -.354E-02 -.272E+04   0.255E-02 -.109E-01 -.180E+01   -.147E-01 -.457E-02 0.250E+00
   0.237E+01 0.142E+01 0.921E+03   -.207E+01 -.120E+01 -.921E+03   -.362E+00 -.217E+00 -.764E+00   0.808E-01 0.692E-02 0.635E+00
   -.134E-01 0.253E+01 0.924E+03   0.164E-02 -.257E+01 -.924E+03   -.231E-02 0.766E-01 -.258E+00   0.143E-01 -.635E-01 0.830E+00
   -.236E+01 0.142E+01 0.921E+03   0.207E+01 -.120E+01 -.921E+03   0.362E+00 -.217E+00 -.764E+00   -.874E-01 0.806E-02 0.632E+00
   0.210E+01 -.137E+01 0.923E+03   -.222E+01 0.136E+01 -.924E+03   0.951E-01 -.533E-01 -.312E+00   0.729E-02 0.807E-01 0.813E+00
   -.211E+01 -.136E+01 0.923E+03   0.222E+01 0.135E+01 -.924E+03   -.990E-01 -.529E-01 -.312E+00   0.108E-01 0.751E-01 0.802E+00
   0.700E-02 0.648E+00 0.922E+03   -.197E-02 -.884E+00 -.921E+03   0.159E-03 0.908E-01 -.746E+00   -.514E-02 0.121E+00 0.638E+00
   0.178E-02 -.267E+01 0.921E+03   0.365E-03 0.232E+01 -.920E+03   0.179E-03 0.460E+00 -.803E+00   -.235E-02 -.116E+00 0.649E+00
   0.697E+00 -.302E+00 0.922E+03   -.827E+00 0.408E+00 -.921E+03   0.536E-01 -.418E-01 -.763E+00   0.556E-01 -.532E-01 0.648E+00
   -.699E+00 -.311E+00 0.922E+03   0.827E+00 0.410E+00 -.921E+03   -.541E-01 -.423E-01 -.763E+00   -.536E-01 -.460E-01 0.656E+00
   0.979E-02 -.162E+01 -.898E+03   -.126E-01 0.134E+01 0.896E+03   -.146E-03 0.104E+00 0.637E+00   0.291E-02 0.163E+00 0.107E+01
   -.116E+01 -.103E+01 -.888E+03   0.176E+01 0.137E+01 0.888E+03   -.129E+01 -.715E+00 -.119E+01   0.683E+00 0.379E+00 0.189E+01
   0.116E+01 -.103E+01 -.888E+03   -.174E+01 0.138E+01 0.888E+03   0.129E+01 -.714E+00 -.119E+01   -.702E+00 0.370E+00 0.189E+01
   -.169E+01 0.661E+00 -.891E+03   0.115E+01 -.439E+00 0.890E+03   0.261E+00 -.126E+00 0.353E+00   0.289E+00 -.107E+00 0.111E+01
   0.235E-02 0.105E+01 -.890E+03   0.118E-01 -.183E+01 0.889E+03   0.205E-02 0.154E+01 -.116E+01   -.165E-01 -.745E+00 0.192E+01
   0.168E+01 0.673E+00 -.891E+03   -.116E+01 -.449E+00 0.890E+03   -.266E+00 -.126E+00 0.352E+00   -.264E+00 -.109E+00 0.111E+01
   0.114E+01 0.129E+01 -.899E+03   -.869E+00 -.105E+01 0.897E+03   -.840E-01 -.921E-01 0.761E+00   -.167E+00 -.133E+00 0.107E+01
   -.113E+01 0.129E+01 -.899E+03   0.866E+00 -.107E+01 0.897E+03   0.843E-01 -.923E-01 0.761E+00   0.160E+00 -.127E+00 0.107E+01
   -.137E-01 -.129E+01 -.891E+03   0.290E-02 0.745E+00 0.889E+03   -.224E-02 0.301E+00 0.305E+00   0.132E-01 0.263E+00 0.110E+01
   0.263E-01 0.163E+01 -.266E+04   -.257E-01 -.169E+01 0.266E+04   -.212E-04 0.723E-01 0.175E+01   -.478E-03 -.114E-01 0.221E+00
   0.154E+02 0.252E+02 -.264E+04   -.155E+02 -.252E+02 0.264E+04   -.807E+00 -.125E+01 0.103E+01   0.778E+00 0.115E+01 0.273E+00
   -.155E+02 0.251E+02 -.264E+04   0.155E+02 -.251E+02 0.264E+04   0.807E+00 -.125E+01 0.103E+01   -.779E+00 0.115E+01 0.270E+00
   0.277E+02 -.110E+01 -.264E+04   -.276E+02 0.110E+01 0.264E+04   -.157E+01 -.935E-01 0.104E+01   0.129E+01 0.898E-01 0.283E+00
   -.276E+02 -.110E+01 -.264E+04   0.274E+02 0.110E+01 0.264E+04   0.157E+01 -.938E-01 0.104E+01   -.129E+01 0.909E-01 0.287E+00
   0.985E+01 -.221E+02 -.265E+04   -.102E+02 0.223E+02 0.265E+04   -.479E+00 0.116E+01 0.161E+01   0.748E+00 -.126E+01 0.336E+00
   -.988E+01 -.220E+02 -.265E+04   0.102E+02 0.222E+02 0.265E+04   0.479E+00 0.116E+01 0.161E+01   -.746E+00 -.126E+01 0.343E+00
   0.308E-01 0.684E+00 -.267E+04   -.238E-01 -.658E+00 0.266E+04   0.230E-02 -.834E-02 0.197E+01   -.947E-02 -.177E-01 0.359E+00
   -.102E+00 -.279E+01 -.128E+04   0.101E+00 0.274E+01 0.128E+04   -.116E-02 -.285E-01 0.133E+01   0.131E-02 0.305E-01 0.489E+00
   0.670E+02 0.421E+02 -.297E+03   -.738E+02 -.464E+02 0.299E+03   0.670E+01 0.425E+01 -.192E+01   0.651E-01 0.381E-01 -.141E+00
   -.669E+02 0.422E+02 -.297E+03   0.736E+02 -.465E+02 0.299E+03   -.668E+01 0.426E+01 -.193E+01   -.648E-01 0.383E-01 -.141E+00
   -.128E+00 -.545E+02 -.167E+04   0.179E+00 0.961E+02 0.166E+04   -.472E-01 -.416E+02 0.848E+01   0.205E-02 0.313E-01 -.129E+01
   0.183E-01 0.333E+02 -.190E+02   -.142E-12 0.426E-12 0.182E-11   -.365E-01 -.334E+02 -.331E+01   0.133E-01 0.372E-01 0.222E+02

 POSITION                                       TOTAL-FORCE (eV/Angst)
      0.00000      0.00000      5.28219         0.000129      0.004876     -0.041952
      2.93046      0.00000      5.28219        -0.004009      0.005751      0.020979
      5.86091      0.00000      5.28219         0.004215      0.005706      0.020949
      1.46523      2.53785      5.28219        -0.001318     -0.010794      0.021552
      4.39568      2.53785      5.28219         0.000326     -0.007857      0.003599
      7.32614      2.53785      5.28219         0.001597     -0.010784      0.021567
      2.93046      5.07570      5.28219        -0.000188      0.006537      0.026784
      5.86091      5.07570      5.28219         0.000409      0.006531      0.026801
      8.79137      5.07570      5.28219        -0.000072      0.000970      0.002869
      1.46523      0.84595      7.67490         0.014737      0.009758     -0.016379
      4.39568      0.84595      7.67490         0.000360     -0.026241     -0.053439
      7.32614      0.84595      7.67490        -0.014481      0.009723     -0.016410
      2.93046      3.38380      7.67490        -0.016858      0.014119     -0.053323
      5.86091      3.38380      7.67490         0.017534      0.014113     -0.053297
      8.79137      3.38380      7.67490         0.000173     -0.023905     -0.006542
      4.39568      5.92165      7.67490         0.000099     -0.012658     -0.023045
      7.32614      5.92165      7.67490        -0.020588      0.010791     -0.003895
     10.25659      5.92165      7.67490         0.020856      0.010752     -0.003889
      8.79137      1.69374     10.05841         0.000118     -0.016613     -0.019096
      2.93927      1.69699     10.03909        -0.005826      0.006390     -0.047609
      5.85210      1.69699     10.03909         0.005726      0.006358     -0.047529
     10.25385      4.23133     10.05420         0.014658     -0.011300     -0.005147
      4.39568      4.21957     10.03909        -0.000095      0.018058     -0.009732
      7.32888      4.23133     10.05420        -0.014044     -0.011362     -0.005109
     11.72023      6.76668     10.05841         0.018834      0.009855     -0.006087
      5.86251      6.76668     10.05841        -0.018579      0.009875     -0.006051
      8.79137      6.76443     10.05420         0.000307      0.021455     -0.016565
      0.00000      0.00000     12.42643         0.000128      0.000658      0.053676
      2.96234      0.05459     12.44639        -0.070803     -0.112095     -0.055991
      5.82903      0.05459     12.44639         0.070959     -0.111420     -0.055526
      1.52844      2.53816     12.44639        -0.126273     -0.005075     -0.062645
      7.26292      2.53816     12.44639         0.125434     -0.005312     -0.061853
      2.96179      5.02079     12.44639        -0.097846      0.122126     -0.076739
      5.82958      5.02079     12.44639         0.097976      0.121843     -0.076688
      8.79137      5.07570     12.42906        -0.000075      0.000516      0.059327
      4.39568      2.53785     12.18689        -0.000725     -0.047848      0.578439
      3.60591      2.04102     14.55905        -0.008843     -0.012069      0.010291
      5.18121      2.03952     14.55978        -0.000062     -0.005680      0.008175
      4.39402      2.57565     14.32093         0.006112      0.014250     -0.030468
    total drift:                               -0.004821     -0.010267     -0.101983

  FREE ENERGIE OF THE ION-ELECTRON SYSTEM (eV)
  free  energy   TOTEN  =      -109.89687602 eV

  energy  without entropy=     -109.89687602  energy(sigma->0) =     -109.89687602

 stress matrix after NEB project (eV)
     -9.64633      0.00620     -0.00329
      0.00620     -9.62096     -0.10050
     -0.00329     -0.10050     -0.35589
  FORCES: max atom, RMS     0.034187    0.006400
  FORCE total and by dimension    0.039970    0.030468
  Stress total and by dimension   13.629437    9.646329
|           W    W    AA    RRRRR   N    N  II  N    N   GGGG   !!!           |
|           W    W   A  A   R    R  NN   N  II  NN   N  G    G  !!!           |
|           W    W  A    A  R    R  N N  N  II  N N  N  G       !!!           |
|           W WW W  AAAAAA  RRRRR   N  N N  II  N  N N  G  GGG   !            |
|           WW  WW  A    A  R   R   N   NN  II  N   NN  G    G                |
|           W    W  A    A  R    R  N    N  II  N    N   GGGG   !!!           |
|     Tetrahedron method does not include variations of the Fermi             |
|     occupations, so forces and stress will be inaccurate. We suggest        |
|     using a different smearing scheme ISMEAR = 1 or 2 for metals in         |
|     relaxations.                                                            |

 total charge

# of ion       s       p       d       tot
    1        0.421   0.202   9.179   9.801
    2        0.417   0.204   9.178   9.799
    3        0.417   0.204   9.178   9.799
    4        0.417   0.204   9.178   9.799
    5        0.420   0.202   9.176   9.799
    6        0.417   0.204   9.178   9.799
    7        0.416   0.204   9.178   9.798
    8        0.416   0.204   9.178   9.798
    9        0.416   0.203   9.179   9.798
   10        0.410   0.269   9.164   9.842
   11        0.409   0.267   9.169   9.845
   12        0.410   0.269   9.164   9.842
   13        0.407   0.268   9.169   9.844
   14        0.407   0.268   9.169   9.844
   15        0.405   0.269   9.166   9.839
   16        0.409   0.269   9.163   9.841
   17        0.404   0.269   9.166   9.839
   18        0.404   0.269   9.166   9.839
   19        0.405   0.265   9.168   9.837
   20        0.436   0.299   9.139   9.874
   21        0.436   0.299   9.139   9.874
   22        0.396   0.274   9.167   9.837
   23        0.436   0.299   9.138   9.873
   24        0.396   0.274   9.167   9.837
   25        0.403   0.265   9.168   9.836
   26        0.403   0.265   9.168   9.836
   27        0.398   0.274   9.167   9.838
   28        0.414   0.201   9.174   9.788
   29        0.436   0.217   9.161   9.814
   30        0.436   0.217   9.161   9.814
   31        0.436   0.216   9.162   9.814
   32        0.436   0.216   9.162   9.814
   33        0.430   0.209   9.168   9.806
   34        0.430   0.209   9.168   9.806
   35        0.407   0.202   9.177   9.785
   36        0.367   0.336   4.144   4.847
   37        0.600   0.117   0.000   0.717
   38        0.600   0.117   0.000   0.717
   39        1.568   3.610   0.000   5.178
tot         17.691  12.626 324.990 355.307

 BZINTS: Fermi energy:    0.472621;  399.000000 electrons
         Band energy:-0.149256E+04;  BLOECHL correction:   -0.013740