 vasp.6.2.0 18Jan21 (build Jun 12 2021 23:27:24) complex

 executed on             LinuxIFC date 2022.05.27  05:51:22

 INCAR:
   ISMEAR = -5
   SIGMA = 0.1
   ISPIN = 1
   EDIFF = 1.d-5
   EDIFFG = -0.01
   NSW = 0
   NELM = 150
   ENCUT = 500
   ISIF = 2
   IBRION = 2
   LREAL = Auto
   ALGO = Fast
   ICHARG = 11
   LORBIT = 10
   LCHARG = .F.
   LWAVE = .F.

 POTCAR:    PAW_PBE Ag 02Apr2005
 POTCAR:    PAW_PBE Re 17Jan2003
 POTCAR:    PAW_PBE O 08Apr2002
 POTCAR:    PAW_PBE H 15Jun2001
|           W    W    AA    RRRRR   N    N  II  N    N   GGGG   !!!           |
|           W    W   A  A   R    R  NN   N  II  NN   N  G    G  !!!           |
|           W    W  A    A  R    R  N N  N  II  N N  N  G       !!!           |
|           W WW W  AAAAAA  RRRRR   N  N N  II  N  N N  G  GGG   !            |
|           WW  WW  A    A  R   R   N   NN  II  N   NN  G    G                |
|           W    W  A    A  R    R  N    N  II  N    N   GGGG   !!!           |
|     For optimal performance we recommend to set                             |
|       NCORE = 2 up to number-of-cores-per-socket                            |
|     This setting can greatly improve the performance of VASP for DFT.       |
|     The default, NCORE=1 might be grossly inefficient on modern             |
|     multi-core architectures or massively parallel machines. Do your        |
|     Unfortunately you need to use the default for GW and RPA                |
|     calculations (for HF NCORE is supported but not extensively tested      |
|     yet).                                                                   |

 POTCAR:    PAW_PBE Ag 02Apr2005
   VRHFIN =Ag : s1 d10

   TITEL  = PAW_PBE Ag 02Apr2005
   POMASS =  107.868; ZVAL   =   11.000    mass and valenz
   ENMAX  =  249.844; ENMIN  =  187.383 eV

 POTCAR:    PAW_PBE Re 17Jan2003
   VRHFIN =Re: 5p6s5d

   TITEL  = PAW_PBE Re 17Jan2003
   POMASS =  186.207; ZVAL   =    7.000    mass and valenz
   ENMAX  =  226.216; ENMIN  =  169.662 eV

 POTCAR:    PAW_PBE O 08Apr2002
   VRHFIN =O: s2p4

   TITEL  = PAW_PBE O 08Apr2002
   POMASS =   16.000; ZVAL   =    6.000    mass and valenz
   ENMAX  =  400.000; ENMIN  =  300.000 eV

 POTCAR:    PAW_PBE H 15Jun2001
   VRHFIN =H: ultrasoft test

   TITEL  = PAW_PBE H 15Jun2001
   POMASS =    1.000; ZVAL   =    1.000    mass and valenz
   ENMAX  =  250.000; ENMIN  =  200.000 eV

 Optimization of the real space projectors (new method)

 maximal supplied QI-value         = 15.12
 optimisation between [QCUT,QGAM] = [ 11.34, 22.83] = [ 36.00,145.93] Ry
 Optimized for a Real-space Cutoff    1.43 Angstroem

   l    n(q)    QCUT    max X(q) W(low)/X(q) W(high)/X(q)  e(spline)
   2      9    11.338    53.897    0.16E-03    0.20E-03    0.28E-06
   2      9    11.338    52.416    0.16E-03    0.20E-03    0.29E-06
   0     10    11.338   122.045    0.31E-04    0.76E-04    0.15E-06
   0     10    11.338    73.629    0.30E-04    0.72E-04    0.15E-06
   1      9    11.338    15.255    0.20E-03    0.19E-04    0.17E-06
   1      9    11.338     9.562    0.16E-03    0.15E-04    0.14E-06
 Optimization of the real space projectors (new method)

[...]

   l    n(q)    QCUT    max X(q) W(low)/X(q) W(high)/X(q)  e(spline)
   0      7    11.387    20.381    0.39E-03    0.13E-02    0.15E-06
   0      7    11.387    15.268    0.42E-03    0.14E-02    0.17E-06
   1      6    11.387     5.964    0.41E-03    0.11E-02    0.17E-06
   1      6    11.387     5.382    0.39E-03    0.87E-03    0.15E-06
 Optimization of the real space projectors (new method)

 maximal supplied QI-value         = 34.20
 optimisation between [QCUT,QGAM] = [ 11.29, 22.57] = [ 35.68,142.71] Ry
 Optimized for a Real-space Cutoff    1.16 Angstroem

   l    n(q)    QCUT    max X(q) W(low)/X(q) W(high)/X(q)  e(spline)
   0      8    11.287    19.460    0.40E-03    0.73E-03    0.16E-06
   0      8    11.287    12.209    0.38E-03    0.70E-03    0.15E-06
   1      7    11.287     4.655    0.22E-03    0.25E-04    0.22E-06
  PAW_PBE Ag 02Apr2005                  :
  PAW_PBE Re 17Jan2003                  :
  PAW_PBE O 08Apr2002                   :
  PAW_PBE H 15Jun2001                   :

 POSCAR: Ag-Re-OH
  positions in direct lattice
  velocities in cartesian coordinates
 exchange correlation table for  LEXCH =        8
   RHO(1)=    0.500       N(1)  =     2000
   RHO(2)=  100.500       N(2)  =     4000

 VTST: version 3.2, (02/03/18)

 CHAIN: initializing optimizer

 OPT: Using VASP Conjugate-Gradient optimizer
 CHAIN: Read ICHAIN            0

 POSCAR: Ag-Re-OH
  positions in direct lattice
  velocities in cartesian coordinates

 ion  position               nearest neighbor table
   1  0.000  0.000  0.238-   2 2.93   8 2.93   7 2.93   6 2.93   4 2.93  12 2.93  16 2.93  10 2.93
                             3 2.93
   2  0.333  0.000  0.238-   1 2.93   8 2.93   9 2.93   3 2.93   4 2.93   5 2.93  10 2.93  17 2.93
                            11 2.93
   3  0.667  0.000  0.238-   9 2.93   2 2.93   5 2.93  11 2.93   7 2.93  18 2.93   1 2.93   6 2.93
                            12 2.93
   4  0.000  0.333  0.238-   5 2.93   6 2.93   2 2.93   1 2.93   7 2.93  13 2.93  15 2.93   9 2.93
                            10 2.93
   5  0.333  0.333  0.238-   4 2.93   3 2.93   7 2.93   2 2.93   8 2.93  14 2.93  13 2.93  11 2.93
                             6 2.93
   6  0.667  0.333  0.238-   4 2.93   9 2.93   1 2.93  15 2.93   8 2.93  12 2.93   3 2.93   5 2.93
                            14 2.93
   7  0.000  0.667  0.238-   8 2.93   1 2.93   5 2.93   3 2.93   4 2.93  16 2.93  18 2.93  13 2.93
                             9 2.93
   8  0.333  0.667  0.238-   7 2.93   1 2.93   2 2.93   9 2.93   5 2.93  16 2.93   6 2.93  17 2.93
                            14 2.93
   9  0.667  0.667  0.238-   3 2.93   2 2.93   8 2.93   6 2.93  17 2.93   4 2.93  15 2.93   7 2.93
                            18 2.93
  10  0.111  0.111  0.346-  20 2.89  12 2.93  16 2.93  15 2.93  17 2.93  13 2.93  11 2.93   2 2.93
                             1 2.93   4 2.93  19 2.93  26 2.93
  11  0.444  0.111  0.346-  21 2.89  20 2.89  27 2.93  14 2.93  17 2.93  18 2.93   3 2.93  12 2.93
                            13 2.93  10 2.93   5 2.93   2 2.93
  12  0.778  0.111  0.346-  21 2.89  10 2.93  16 2.93  18 2.93  15 2.93  11 2.93   1 2.93  14 2.93
                             6 2.93   3 2.93  25 2.93  19 2.93
  13  0.111  0.444  0.346-  20 2.89  23 2.89  22 2.93  15 2.93  14 2.93  18 2.93  10 2.93  11 2.93
                            16 2.93   4 2.93   5 2.93   7 2.93
  14  0.444  0.444  0.346-  23 2.89  21 2.89  24 2.93  13 2.93  11 2.93  16 2.93   5 2.93  12 2.93
                            17 2.93   8 2.93  15 2.93   6 2.93
  15  0.778  0.444  0.346-  24 2.92  22 2.92  19 2.93  13 2.93  10 2.93  12 2.93  17 2.93  18 2.93
                             4 2.93   6 2.93   9 2.93  14 2.93
  16  0.111  0.778  0.346-  23 2.89  18 2.93  12 2.93  10 2.93  14 2.93  17 2.93  13 2.93   7 2.93
                             8 2.93   1 2.93  26 2.93  25 2.93
  17  0.444  0.778  0.346-  27 2.92  24 2.92  26 2.93  11 2.93  10 2.93   9 2.93  18 2.93  15 2.93
                            16 2.93   2 2.93  14 2.93   8 2.93
  18  0.778  0.778  0.346-  22 2.92  27 2.92  25 2.93  16 2.93  12 2.93  13 2.93  11 2.93  17 2.93
                            15 2.93   7 2.93   3 2.93   9 2.93
  19  0.889  0.223  0.454-  28 2.91  24 2.93  22 2.93  15 2.93  20 2.93  21 2.93  10 2.93  12 2.93
                            26 2.94  25 2.94  32 2.97  31 2.97
  20  0.222  0.222  0.452-  36 2.76  10 2.89  13 2.89  11 2.89  19 2.93  26 2.93  21 2.93  23 2.93
                            27 2.94  22 2.94  31 2.94  29 2.94
  21  0.556  0.222  0.452-  36 2.76  12 2.89  11 2.89  14 2.89  25 2.93  19 2.93  20 2.93  23 2.93
                            27 2.94  24 2.94  30 2.94  32 2.94
  22  0.888  0.556  0.453-  35 2.91  24 2.92  27 2.92  18 2.92  15 2.92  13 2.93  25 2.93  19 2.93
                            23 2.94  20 2.94  33 2.95  31 2.95
  23  0.222  0.556  0.452-  36 2.76  16 2.89  14 2.89  13 2.89  26 2.93  25 2.93  21 2.93  20 2.93
                            22 2.94  24 2.94  34 2.94  33 2.94
  24  0.556  0.556  0.453-  35 2.91  27 2.92  22 2.92  15 2.92  17 2.92  14 2.93  19 2.93  26 2.93
                            23 2.94  21 2.94  32 2.95  34 2.95
  25  0.889  0.889  0.454-  28 2.91  22 2.93  27 2.93  18 2.93  23 2.93  21 2.93  16 2.93  12 2.93
                            26 2.94  19 2.94  33 2.97  30 2.97
  26  0.223  0.889  0.454-  28 2.91  27 2.93  24 2.93  17 2.93  23 2.93  20 2.93  16 2.93  10 2.93
                            25 2.94  19 2.94  34 2.97  29 2.97
  27  0.556  0.888  0.453-  35 2.91  24 2.92  22 2.92  17 2.92  18 2.92  11 2.93  26 2.93  25 2.93
                            20 2.94  21 2.94  29 2.95  30 2.95
  28  0.000  0.000  0.560-  26 2.91  25 2.91  19 2.91  29 2.96  34 2.96  33 2.96  32 2.96  31 2.96
                            30 2.96
  29  0.333  0.008  0.562-  31 2.86  30 2.87  36 2.88  20 2.94  27 2.95  28 2.96  26 2.97  35 2.97
                            34 3.06
  30  0.659  0.008  0.562-  32 2.86  29 2.87  36 2.88  21 2.94  27 2.95  28 2.96  25 2.97  35 2.97
                            33 3.06
  31  0.008  0.333  0.562-  29 2.86  33 2.87  36 2.88  20 2.94  22 2.95  28 2.96  19 2.97  35 2.97
                            32 3.06
  32  0.659  0.333  0.562-  30 2.86  34 2.87  36 2.88  21 2.94  24 2.95  28 2.96  19 2.97  35 2.97
                            31 3.06
  33  0.008  0.659  0.562-  34 2.86  31 2.87  36 2.88  23 2.94  22 2.95  28 2.96  25 2.97  35 2.97
                            30 3.06
  34  0.333  0.659  0.562-  33 2.86  32 2.87  36 2.88  23 2.94  24 2.95  28 2.96  26 2.97  35 2.97
                            29 3.06
  35  0.667  0.667  0.560-  24 2.91  27 2.91  22 2.91  30 2.97  32 2.97  29 2.97  34 2.97  31 2.97
                            33 2.97
  36  0.333  0.333  0.550-  37 1.87  21 2.76  20 2.76  23 2.76  31 2.88  30 2.88  33 2.88  29 2.88
                            34 2.88  32 2.88
  37  0.333  0.333  0.634-  38 0.97  36 1.87
  38  0.333  0.333  0.678-  37 0.97

  LATTYP: Found a hexagonal cell.
 ALAT       =     8.7913665772
 C/A-ratio  =     2.5227160501

  Lattice vectors:

 A1 = (  -4.3956832886,  -7.6135467898,   0.0000000000)
 A2 = (   8.7913665771,   0.0000000000,   0.0000000000)
 A3 = (   0.0000000000,   0.0000000000,  22.1781215668)

Analysis of symmetry for initial positions (statically):
 Subroutine PRICEL returns:
 Original cell was already a primitive cell.

 Routine SETGRP: Setting up the symmetry group for a
 hexagonal supercell.

 Subroutine GETGRP returns: Found  6 space group operations
 (whereof  6 operations were pure point group operations)
 out of a pool of 24 trial point group operations.

The static configuration has the point symmetry C_3v.

Analysis of symmetry for dynamics (positions and initial velocities):
 Subroutine PRICEL returns:
 Original cell was already a primitive cell.

[...]

The dynamic configuration has the point symmetry C_3v.

Analysis of constrained symmetry for selective dynamics:
 Subroutine PRICEL returns:
 Original cell was already a primitive cell.

[...]
     33      -4.2923      2.00000
     34      -4.2714      2.00000
     35      -4.2671      2.00000
     36      -4.2284      2.00000
     37      -4.2040      2.00000
     38      -4.1824      2.00000
     39      -4.1501      2.00000
     40      -4.1424      2.00000
     41      -4.1056      2.00000
     42      -4.0857      2.00000
     43      -4.0717      2.00000
     44      -4.0504      2.00000
     45      -4.0137      2.00000
     46      -3.9645      2.00000
     47      -3.9537      2.00000
     48      -3.9277      2.00000
     49      -3.9204      2.00000
     50      -3.9129      2.00000
     51      -3.9077      2.00000
     52      -3.9012      2.00000
     53      -3.8935      2.00000
     54      -3.8851      2.00000
     55      -3.8794      2.00000
     56      -3.8683      2.00000
     57      -3.7994      2.00000
     58      -3.7945      2.00000
     59      -3.7863      2.00000
     60      -3.7715      2.00000
[...]
    238       6.4308      0.00000
    239       6.5045      0.00000
    240       6.5492      0.00000
    241       6.6572      0.00000
    242       7.1631      0.00000
    243       7.2906      0.00000
    244       7.3282      0.00000
    245       7.3756      0.00000
    246       7.4621      0.00000
    247       7.4763      0.00000
    248       7.5354      0.00000
    249       7.5552      0.00000
    250       7.6945      0.00000
    251       7.7351      0.00000
    252       7.8853      0.00000

 soft charge-density along one line, spin component           1
         0         1         2         3         4         5         6         7         8         9
 total charge-density along one line

------------------------ aborting loop because EDIFF is reached ----------------------------------------

 total charge

# of ion       s       p       d       tot
    1        0.422   0.200   9.178   9.800
    2        0.417   0.204   9.178   9.798
    3        0.417   0.204   9.178   9.798
    4        0.417   0.204   9.178   9.798
    5        0.420   0.202   9.176   9.798
    6        0.417   0.204   9.178   9.798
    7        0.417   0.204   9.178   9.798
    8        0.417   0.204   9.178   9.798
    9        0.414   0.204   9.178   9.796
   10        0.411   0.268   9.163   9.842
   11        0.407   0.270   9.168   9.845
   12        0.411   0.268   9.163   9.842
   13        0.407   0.270   9.168   9.845
   14        0.407   0.270   9.168   9.845
   15        0.402   0.268   9.167   9.838
   16        0.411   0.268   9.163   9.842
   17        0.402   0.268   9.167   9.838
   18        0.402   0.268   9.167   9.838
   19        0.403   0.262   9.169   9.834
   20        0.442   0.313   9.129   9.884
   21        0.442   0.313   9.129   9.884
   22        0.392   0.272   9.169   9.833
   23        0.442   0.313   9.129   9.884
   24        0.392   0.272   9.169   9.833
   25        0.403   0.262   9.169   9.834
   26        0.403   0.262   9.169   9.834
   27        0.392   0.272   9.169   9.833
   28        0.415   0.200   9.175   9.790
   29        0.418   0.221   9.169   9.808
   30        0.418   0.221   9.169   9.808
   31        0.418   0.221   9.169   9.808
   32        0.418   0.221   9.169   9.808
   33        0.418   0.221   9.169   9.808
   34        0.418   0.221   9.169   9.808
   35        0.406   0.202   9.178   9.786
   36        0.539   0.456   4.637   5.631
   37        1.549   3.546   0.000   5.095
   38        0.599   0.126   0.000   0.725
tot         17.148  12.649 325.497 355.295

  FORCE on cell =-STRESS in cart. coord.  units (eV):
  Direction    XX          YY          ZZ          XY          YZ          ZX
  Alpha Z   770.67253   770.67253   770.67253
  Ewald  119707.49918119707.49920************     0.00003    -0.00000     0.00004
  Hartree130073.37718130073.37718************     0.00001    -0.00000     0.00001
  E(xc)   -2094.40299 -2094.40301 -2098.33683     0.00002     0.00000    -0.00000
  Local  ************************260977.94297     0.00049    -0.00006    -0.00017
  n-local  -375.48936  -355.67686  -363.22369    11.82892    -0.11448     0.26209
  augment  3236.42563  3236.42580  3243.11383    -0.00015    -0.00002    -0.00004
  Kinetic  5015.63699  5019.62845  4995.49620     4.82309     0.59644     0.17467
  Fock        0.00000     0.00000     0.00000     0.00000     0.00000     0.00000
  Total      -7.62573    -7.62573    -0.15476    -0.00000     0.00000     0.00000
  in kB      -8.23045    -8.23045    -0.16704    -0.00000     0.00000     0.00000

 VOLUME and BASIS-vectors are now :
  energy-cutoff  :      500.00
  volume of cell :     1484.46
      direct lattice vectors                 reciprocal lattice vectors
     8.791366577  0.000000000  0.000000000     0.113747958 -0.065672414  0.000000000
     4.395683289  7.613546790  0.000000000     0.000000000  0.131344829  0.000000000
     0.000000000  0.000000000 22.178121567     0.000000000  0.000000000  0.045089481

  length of vectors
     8.791366577  8.791366577 22.178121567     0.131344829  0.131344829  0.045089481

 FORCES acting on ions
    electron-ion (+dipol)            ewald-force                    non-local-force                 convergence-correction
   0.460E-04 -.282E-04 0.251E+04   -.954E-04 0.593E-04 -.250E+04   -.739E-17 -.408E-17 -.223E+01   -.274E-04 -.123E-03 -.546E-01
   0.304E+00 0.196E+00 0.251E+04   -.427E+00 -.487E+00 -.250E+04   0.813E-01 0.221E+00 -.153E+01   0.379E-01 0.654E-01 -.215E-01
   -.304E+00 0.196E+00 0.251E+04   0.427E+00 -.487E+00 -.250E+04   -.813E-01 0.221E+00 -.153E+01   -.385E-01 0.673E-01 -.210E-01
   0.322E+00 0.165E+00 0.251E+04   -.635E+00 -.126E+00 -.250E+04   0.232E+00 -.401E-01 -.153E+01   0.758E-01 0.289E-03 -.215E-01
   -.577E-05 -.189E-04 0.251E+04   0.980E-04 -.197E-05 -.250E+04   0.184E-17 0.663E-18 -.137E+01   0.615E-02 0.376E-02 -.394E-01
   -.322E+00 0.165E+00 0.251E+04   0.635E+00 -.126E+00 -.250E+04   -.232E+00 -.401E-01 -.153E+01   -.771E-01 0.125E-02 -.209E-01
   0.178E-01 -.361E+00 0.251E+04   -.208E+00 0.613E+00 -.250E+04   0.151E+00 -.181E+00 -.153E+01   0.395E-01 -.665E-01 -.210E-01
   -.177E-01 -.361E+00 0.251E+04   0.208E+00 0.613E+00 -.250E+04   -.151E+00 -.181E+00 -.153E+01   -.378E-01 -.674E-01 -.209E-01
   0.361E-04 -.131E-04 0.251E+04   0.792E-04 -.643E-04 -.250E+04   -.632E-19 0.954E-18 -.185E+01   -.665E-02 -.343E-02 0.222E-01
   0.579E+01 0.334E+01 0.849E+03   -.522E+01 -.302E+01 -.849E+03   -.592E+00 -.342E+00 -.865E+00   0.363E-01 0.210E-01 0.432E+00
   -.287E-04 0.487E+01 0.854E+03   0.408E-04 -.500E+01 -.854E+03   0.744E-12 0.113E+00 -.248E+00   0.582E-02 -.294E-01 0.467E+00
   -.579E+01 0.334E+01 0.849E+03   0.522E+01 -.302E+01 -.849E+03   0.592E+00 -.342E+00 -.865E+00   -.372E-01 0.216E-01 0.430E+00
   0.422E+01 -.244E+01 0.854E+03   -.433E+01 0.250E+01 -.854E+03   0.981E-01 -.566E-01 -.248E+00   -.227E-01 0.198E-01 0.467E+00
   -.422E+01 -.244E+01 0.854E+03   0.433E+01 0.250E+01 -.854E+03   -.981E-01 -.566E-01 -.248E+00   0.328E-01 0.192E-01 0.465E+00
   0.156E-04 0.113E+01 0.849E+03   -.108E-03 -.125E+01 -.849E+03   0.461E-12 0.703E-01 -.740E+00   -.108E-02 0.199E-01 0.381E+00
   -.816E-05 -.668E+01 0.849E+03   0.205E-04 0.603E+01 -.849E+03   0.449E-11 0.684E+00 -.865E+00   0.541E-05 -.431E-01 0.430E+00
   0.976E+00 -.564E+00 0.849E+03   -.108E+01 0.624E+00 -.849E+03   0.608E-01 -.351E-01 -.740E+00   0.166E-01 -.109E-01 0.381E+00
   -.976E+00 -.564E+00 0.849E+03   0.108E+01 0.624E+00 -.849E+03   -.608E-01 -.351E-01 -.740E+00   -.168E-01 -.970E-02 0.381E+00
   0.388E-04 -.128E+00 -.837E+03   -.128E-03 -.138E-01 0.835E+03   0.729E-12 0.111E+00 0.745E+00   0.687E-02 0.812E-02 0.517E+00
   0.422E+01 0.244E+01 -.805E+03   -.284E+01 -.164E+01 0.806E+03   -.168E+01 -.968E+00 -.163E+01   0.313E+00 0.181E+00 0.907E+00
   -.422E+01 0.244E+01 -.805E+03   0.284E+01 -.164E+01 0.806E+03   0.168E+01 -.968E+00 -.163E+01   -.325E+00 0.181E+00 0.906E+00
   -.148E+01 0.856E+00 -.826E+03   0.932E+00 -.538E+00 0.825E+03   0.458E+00 -.264E+00 0.625E+00   0.141E+00 -.826E-01 0.561E+00
   -.531E-04 -.487E+01 -.805E+03   0.416E-04 0.328E+01 0.806E+03   0.127E-10 0.194E+01 -.163E+01   -.568E-02 -.372E+00 0.906E+00
   0.148E+01 0.856E+00 -.826E+03   -.932E+00 -.538E+00 0.825E+03   -.458E+00 -.264E+00 0.625E+00   -.139E+00 -.803E-01 0.561E+00
   0.111E+00 0.640E-01 -.837E+03   0.119E-01 0.705E-02 0.835E+03   -.961E-01 -.555E-01 0.745E+00   0.881E-03 0.357E-03 0.517E+00
   -.111E+00 0.641E-01 -.837E+03   -.120E-01 0.694E-02 0.835E+03   0.961E-01 -.555E-01 0.745E+00   0.102E-01 0.176E-02 0.517E+00
   0.205E-04 -.171E+01 -.826E+03   0.110E-03 0.108E+01 0.825E+03   0.347E-11 0.529E+00 0.625E+00   -.189E-02 0.163E+00 0.561E+00
   0.535E-04 -.362E-04 -.246E+04   -.115E-03 0.777E-04 0.246E+04   0.526E-17 -.498E-17 0.156E+01   -.664E-03 -.519E-03 0.230E+00
   0.202E+02 0.358E+02 -.245E+04   -.201E+02 -.359E+02 0.245E+04   -.586E+00 -.640E+00 0.172E+01   0.289E+00 0.474E+00 0.249E+00
   -.202E+02 0.358E+02 -.245E+04   0.201E+02 -.359E+02 0.245E+04   0.586E+00 -.640E+00 0.172E+01   -.280E+00 0.476E+00 0.250E+00
   0.411E+02 -.362E+00 -.245E+04   -.412E+02 0.562E+00 0.245E+04   -.847E+00 -.187E+00 0.172E+01   0.556E+00 0.132E-01 0.249E+00
   -.411E+02 -.362E+00 -.245E+04   0.412E+02 0.562E+00 0.245E+04   0.847E+00 -.187E+00 0.172E+01   -.546E+00 0.146E-01 0.251E+00
   0.209E+02 -.354E+02 -.245E+04   -.211E+02 0.354E+02 0.245E+04   -.262E+00 0.828E+00 0.172E+01   0.272E+00 -.480E+00 0.250E+00
   -.209E+02 -.354E+02 -.245E+04   0.211E+02 0.354E+02 0.245E+04   0.262E+00 0.828E+00 0.172E+01   -.261E+00 -.480E+00 0.251E+00
   0.225E-04 -.121E-04 -.246E+04   0.106E-03 -.657E-04 0.246E+04   0.214E-17 -.544E-18 0.186E+01   -.773E-02 -.403E-02 0.275E+00
   -.859E-05 -.968E-05 -.134E+04   0.677E-04 0.862E-05 0.134E+04   0.222E-17 0.102E-17 0.261E+01   0.102E-03 0.928E-04 0.263E+00
   0.196E-03 -.949E-04 -.154E+04   0.269E-04 0.345E-06 0.152E+04   0.296E-17 -.946E-19 0.171E+02   0.324E-02 0.200E-02 -.521E+00
   0.792E-05 -.130E-04 -.313E+03   0.190E-05 0.589E-08 0.321E+03   0.318E-18 0.199E-18 -.847E+01   0.177E-03 0.109E-03 -.955E-01
   0.566E-03 -.792E-03 -.153E+02   0.608E-13 -.104E-12 0.796E-12   0.341E-15 0.334E-15 0.405E+01   0.385E-01 0.255E-01 0.112E+02

 POSITION                                       TOTAL-FORCE (eV/Angst)
      0.00000      0.00000      5.28219        -0.000000     -0.000000     -0.030588
      2.93046      0.00000      5.28219        -0.003126     -0.003319      0.038960
      5.86091      0.00000      5.28219         0.003126     -0.003319      0.038960
      1.46523      2.53785      5.28219        -0.004437     -0.001047      0.038960
      4.39568      2.53785      5.28219        -0.000000      0.000000      0.024255
      7.32614      2.53785      5.28219         0.004437     -0.001047      0.038960
      2.93046      5.07570      5.28219        -0.001312      0.004367      0.038960
      5.86091      5.07570      5.28219         0.001312      0.004367      0.038960
      8.79137      5.07570      5.28219        -0.000000      0.000000     -0.000260
      1.46523      0.84595      7.67490         0.006572      0.003794     -0.011383
      4.39568      0.84595      7.67490        -0.000000     -0.043819     -0.092126
      7.32614      0.84595      7.67490        -0.006572      0.003794     -0.011383
      2.93046      3.38380      7.67490        -0.037948      0.021909     -0.092126
      5.86091      3.38380      7.67490         0.037948      0.021909     -0.092126
      8.79137      3.38380      7.67490        -0.000000     -0.031783      0.014393
      4.39568      5.92165      7.67490        -0.000000     -0.007589     -0.011383
      7.32614      5.92165      7.67490        -0.027525      0.015892      0.014393
     10.25659      5.92165      7.67490         0.027525      0.015892      0.014393
      8.79137      1.69725     10.06774        -0.000000     -0.025959     -0.006027
      2.92950      1.69135     10.02116         0.025640      0.014804     -0.051731
      5.86187      1.69135     10.02116        -0.025640      0.014804     -0.051731
     10.25061      4.23320     10.05696         0.047128     -0.027209     -0.004666
      4.39568      4.23086     10.02116        -0.000000     -0.029607     -0.051731
      7.33212      4.23320     10.05696        -0.047128     -0.027209     -0.004666
     11.71719      6.76492     10.06774         0.022481      0.012980     -0.006027
      5.86555      6.76492     10.06774        -0.022481      0.012980     -0.006027
      8.79137      6.76069     10.05696         0.000000      0.054419     -0.004666
      0.00000      0.00000     12.43040        -0.000000      0.000000      0.054189
      2.96174      0.05879     12.46433        -0.165725     -0.334180     -0.206914
      5.82963      0.05879     12.46433         0.165725     -0.334180     -0.206914
      1.53179      2.53554     12.46433        -0.372271      0.023568     -0.206914
      7.25958      2.53554     12.46433         0.372271      0.023568     -0.206914
      2.96573      5.01921     12.46433        -0.206546      0.310612     -0.206914
      5.82563      5.01921     12.46433         0.206546      0.310612     -0.206914
      8.79137      5.07570     12.42552        -0.000000      0.000000      0.074751
      4.39568      2.53785     12.19879        -0.000000      0.000000      1.429188
      4.39568      2.53785     14.06942        -0.000000     -0.000000     -0.105956
      4.39568      2.53785     15.03579        -0.000000      0.000000      0.016765
    total drift:                                0.039032      0.024744      0.012402

  FREE ENERGIE OF THE ION-ELECTRON SYSTEM (eV)
  free  energy   TOTEN  =      -108.46825645 eV

  energy  without entropy=     -108.46825645  energy(sigma->0) =     -108.46825645

 stress matrix after NEB project (eV)
     -7.62573     -0.00000      0.00000
     -0.00000     -7.62573     -0.00000
      0.00000      0.00000     -0.15476
  FORCES: max atom, RMS     0.105956    0.017402
  FORCE total and by dimension    0.107274    0.105956
  Stress total and by dimension   10.785517    7.625727
|           W    W    AA    RRRRR   N    N  II  N    N   GGGG   !!!           |
|           W    W   A  A   R    R  NN   N  II  NN   N  G    G  !!!           |
|           W    W  A    A  R    R  N N  N  II  N N  N  G       !!!           |
|           W WW W  AAAAAA  RRRRR   N  N N  II  N  N N  G  GGG   !            |
|           WW  WW  A    A  R   R   N   NN  II  N   NN  G    G                |
|           W    W  A    A  R    R  N    N  II  N    N   GGGG   !!!           |
|     Tetrahedron method does not include variations of the Fermi             |
|     occupations, so forces and stress will be inaccurate. We suggest        |
|     using a different smearing scheme ISMEAR = 1 or 2 for metals in         |
|     relaxations.                                                            |

 total charge

# of ion       s       p       d       tot
    1        0.422   0.200   9.178   9.800
    2        0.417   0.204   9.178   9.798
    3        0.417   0.204   9.178   9.798
    4        0.417   0.204   9.178   9.798
    5        0.420   0.202   9.176   9.798
    6        0.417   0.204   9.178   9.798
    7        0.417   0.204   9.178   9.798
    8        0.417   0.204   9.178   9.798
    9        0.414   0.204   9.178   9.796
   10        0.411   0.268   9.163   9.842
   11        0.407   0.270   9.168   9.845
   12        0.411   0.268   9.163   9.842
   13        0.407   0.270   9.168   9.845
   14        0.407   0.270   9.168   9.845
   15        0.402   0.268   9.167   9.838
   16        0.411   0.268   9.163   9.842
   17        0.402   0.268   9.167   9.838
   18        0.402   0.268   9.167   9.838
   19        0.403   0.262   9.169   9.834
   20        0.442   0.313   9.129   9.884
   21        0.442   0.313   9.129   9.884
   22        0.392   0.272   9.169   9.833
   23        0.442   0.313   9.129   9.884
   24        0.392   0.272   9.169   9.833
   25        0.403   0.262   9.169   9.834
   26        0.403   0.262   9.169   9.834
   27        0.392   0.272   9.169   9.833
   28        0.415   0.200   9.175   9.790
   29        0.418   0.221   9.169   9.808
   30        0.418   0.221   9.169   9.808
   31        0.418   0.221   9.169   9.808
   32        0.418   0.221   9.169   9.808
   33        0.418   0.221   9.169   9.808
   34        0.418   0.221   9.169   9.808
   35        0.406   0.202   9.178   9.786
   36        0.539   0.456   4.637   5.631
   37        1.549   3.546   0.000   5.095
   38        0.599   0.126   0.000   0.725
tot         17.148  12.649 325.497 355.295

 BZINTS: Fermi energy:    1.087141;  399.000000 electrons
         Band energy:-0.124086E+04;  BLOECHL correction:   -0.027126