 vasp.6.2.0 18Jan21 (build Jun 12 2021 23:27:24) complex

 executed on             LinuxIFC date 2022.05.27  05:22:39

 INCAR:
   ISMEAR = -5
   SIGMA = 0.1
   ISPIN = 1
   EDIFF = 1.d-5
   EDIFFG = -0.01
   NSW = 0
   NELM = 150
   ENCUT = 500
   ISIF = 2
   IBRION = 2
   LREAL = Auto
   ALGO = Fast
   ICHARG = 11
   LORBIT = 10
   LCHARG = .F.
   LWAVE = .F.

 POTCAR:    PAW_PBE Au 04Oct2007
 POTCAR:    PAW_PBE Ir 06Sep2000
 POTCAR:    PAW_PBE H 15Jun2001
|           W    W    AA    RRRRR   N    N  II  N    N   GGGG   !!!           |
|           W    W   A  A   R    R  NN   N  II  NN   N  G    G  !!!           |
|           W    W  A    A  R    R  N N  N  II  N N  N  G       !!!           |
|           W WW W  AAAAAA  RRRRR   N  N N  II  N  N N  G  GGG   !            |
|           WW  WW  A    A  R   R   N   NN  II  N   NN  G    G                |
|           W    W  A    A  R    R  N    N  II  N    N   GGGG   !!!           |
|     For optimal performance we recommend to set                             |
|       NCORE = 2 up to number-of-cores-per-socket                            |
|     This setting can greatly improve the performance of VASP for DFT.       |
|     The default, NCORE=1 might be grossly inefficient on modern             |
|     multi-core architectures or massively parallel machines. Do your        |
|     Unfortunately you need to use the default for GW and RPA                |
|     calculations (for HF NCORE is supported but not extensively tested      |
|     yet).                                                                   |

 POTCAR:    PAW_PBE Au 04Oct2007
   VRHFIN =Au: s1d10

   TITEL  = PAW_PBE Au 04Oct2007
   POMASS =  196.966; ZVAL   =   11.000    mass and valenz
   ENMAX  =  229.943; ENMIN  =  172.457 eV

 POTCAR:    PAW_PBE Ir 06Sep2000
   VRHFIN =Ir: s1d8

   TITEL  = PAW_PBE Ir 06Sep2000
   POMASS =  192.220; ZVAL   =    9.000    mass and valenz
   ENMAX  =  210.864; ENMIN  =  158.148 eV

 POTCAR:    PAW_PBE H 15Jun2001
   VRHFIN =H: ultrasoft test

   TITEL  = PAW_PBE H 15Jun2001
   POMASS =    1.000; ZVAL   =    1.000    mass and valenz
   ENMAX  =  250.000; ENMIN  =  200.000 eV

 Optimization of the real space projectors (new method)

 maximal supplied QI-value         = 15.12
 optimisation between [QCUT,QGAM] = [ 11.34, 22.83] = [ 36.00,145.93] Ry
 Optimized for a Real-space Cutoff    1.39 Angstroem

   l    n(q)    QCUT    max X(q) W(low)/X(q) W(high)/X(q)  e(spline)
   2      9    11.338    60.898    0.39E-03    0.42E-03    0.21E-06
   2      9    11.338    58.894    0.40E-03    0.42E-03    0.22E-06
   0      9    11.338   109.617    0.13E-03    0.20E-04    0.13E-06
   0      9    11.338    75.026    0.13E-03    0.20E-04    0.13E-06
   1      9    11.338    16.344    0.33E-04    0.24E-03    0.18E-06
   1      9    11.338    10.160    0.26E-04    0.19E-03    0.15E-06
 Optimization of the real space projectors (new method)

[...]

   l    n(q)    QCUT    max X(q) W(low)/X(q) W(high)/X(q)  e(spline)
   2      9    11.346   134.116    0.47E-03    0.13E-03    0.92E-06
   2      9    11.346   130.192    0.47E-03    0.13E-03    0.92E-06
   0     10    11.346    60.310    0.74E-04    0.13E-03    0.69E-06
   0     10    11.346    39.218    0.68E-04    0.12E-03    0.65E-06
   1     10    11.346    18.439    0.15E-03    0.34E-04    0.20E-06
   1     10    11.346    12.760    0.12E-03    0.31E-04    0.16E-06
 Optimization of the real space projectors (new method)

 maximal supplied QI-value         = 34.20
 optimisation between [QCUT,QGAM] = [ 11.29, 22.57] = [ 35.68,142.71] Ry
 Optimized for a Real-space Cutoff    1.16 Angstroem

   l    n(q)    QCUT    max X(q) W(low)/X(q) W(high)/X(q)  e(spline)
   0      8    11.287    19.460    0.40E-03    0.73E-03    0.16E-06
   0      8    11.287    12.209    0.38E-03    0.70E-03    0.15E-06
   1      7    11.287     4.655    0.22E-03    0.25E-04    0.22E-06
  PAW_PBE Au 04Oct2007                  :
  PAW_PBE Ir 06Sep2000                  :
  PAW_PBE H 15Jun2001                   :

 POSCAR: Au-Ir-H2
  positions in direct lattice
  velocities in cartesian coordinates
 exchange correlation table for  LEXCH =        8
   RHO(1)=    0.500       N(1)  =     2000
   RHO(2)=  100.500       N(2)  =     4000

 VTST: version 3.2, (02/03/18)

 CHAIN: initializing optimizer

 OPT: Using VASP Conjugate-Gradient optimizer
 CHAIN: Read ICHAIN            0

 POSCAR: Au-Ir-H2
  positions in direct lattice
  velocities in cartesian coordinates

 ion  position               nearest neighbor table
   1  0.000  0.000  0.227-  16 2.94  12 2.94   6 2.94   8 2.94   7 2.94   3 2.94  10 2.94   4 2.94
                             2 2.94
   2  0.333  0.000  0.227-   9 2.94  11 2.94  17 2.94  10 2.94   8 2.94   4 2.94   5 2.94   1 2.94
                             3 2.94
   3  0.667  0.000  0.227-   7 2.94  18 2.94  12 2.94   1 2.94  11 2.94   5 2.94   6 2.94   9 2.94
                             2 2.94
   4  0.000  0.333  0.227-  10 2.94   6 2.94   5 2.94  13 2.94   2 2.94  15 2.94   9 2.94   1 2.94
                             7 2.94
   5  0.333  0.333  0.227-  13 2.94   7 2.94  11 2.94   4 2.94   2 2.94  14 2.94   3 2.94   8 2.94
                             6 2.94
   6  0.667  0.333  0.227-  15 2.94  14 2.94   1 2.94  12 2.94   4 2.94   9 2.94   8 2.94   3 2.94
                             5 2.94
   7  0.000  0.667  0.227-  18 2.94   3 2.94  16 2.94   5 2.94   1 2.94  13 2.94   8 2.94   4 2.94
                             9 2.94
   8  0.333  0.667  0.227-   9 2.94  17 2.94   1 2.94   2 2.94  14 2.94  16 2.94   6 2.94   7 2.94
                             5 2.94
   9  0.667  0.667  0.227-   2 2.94   8 2.94  17 2.94   6 2.94  15 2.94   4 2.94   3 2.94  18 2.94
                             7 2.94
  10  0.111  0.111  0.330-  20 2.90  11 2.94  17 2.94   2 2.94   4 2.94   1 2.94  12 2.94  16 2.94
                            13 2.94  15 2.94  26 2.94  19 2.94
  11  0.444  0.111  0.330-  20 2.91  21 2.91  27 2.93  13 2.94   2 2.94  10 2.94  17 2.94   5 2.94
                             3 2.94  18 2.94  14 2.94  12 2.94
  12  0.778  0.111  0.330-  21 2.90  16 2.94  18 2.94   1 2.94  14 2.94  15 2.94   3 2.94   6 2.94
                            10 2.94  11 2.94  25 2.94  19 2.94
  13  0.111  0.444  0.330-  23 2.91  20 2.91  22 2.93   5 2.94  18 2.94  11 2.94   7 2.94   4 2.94
                            16 2.94  10 2.94  14 2.94  15 2.94
  14  0.444  0.444  0.330-  21 2.91  23 2.91  24 2.93  15 2.94   6 2.94  12 2.94   8 2.94  17 2.94
                             5 2.94  16 2.94  13 2.94  11 2.94
  15  0.778  0.444  0.330-  24 2.92  22 2.92  14 2.94   6 2.94  17 2.94  12 2.94   9 2.94   4 2.94
                            10 2.94  13 2.94  18 2.94  19 2.94
  16  0.111  0.778  0.330-  23 2.90  18 2.94  12 2.94   7 2.94   1 2.94   8 2.94  13 2.94  10 2.94
                            14 2.94  17 2.94  25 2.94  26 2.94
  17  0.444  0.778  0.330-  27 2.92  24 2.92   9 2.94  15 2.94   2 2.94  10 2.94  11 2.94   8 2.94
                            14 2.94  16 2.94  18 2.94  26 2.94
  18  0.778  0.778  0.330-  22 2.92  27 2.92  16 2.94   7 2.94  13 2.94  12 2.94   3 2.94  11 2.94
                             9 2.94  15 2.94  17 2.94  25 2.94
  19  0.889  0.223  0.433-  21 2.93  20 2.93  24 2.93  22 2.93  15 2.94  10 2.94  12 2.94  26 2.95
                            25 2.95  28 2.95  32 2.96  31 2.96
  20  0.222  0.222  0.431-  36 2.78  10 2.90  11 2.91  13 2.91  26 2.93  19 2.93  29 2.95  31 2.95
                            27 2.95  22 2.95  23 2.95  21 2.95
  21  0.557  0.222  0.431-  36 2.78  12 2.90  14 2.91  11 2.91  25 2.93  19 2.93  30 2.95  32 2.95
                            24 2.95  27 2.95  20 2.95  23 2.95
  22  0.887  0.557  0.432-  24 2.91  27 2.91  18 2.92  15 2.92  13 2.93  25 2.93  19 2.93  23 2.95
                            20 2.95  35 2.95  33 2.96  31 2.96
  23  0.222  0.557  0.431-  36 2.78  16 2.90  13 2.91  14 2.91  25 2.93  26 2.93  33 2.95  34 2.95
                            22 2.95  24 2.95  20 2.95  21 2.95
  24  0.557  0.557  0.432-  27 2.91  22 2.91  15 2.92  17 2.92  14 2.93  26 2.93  19 2.93  21 2.95
                            23 2.95  35 2.95  32 2.96  34 2.96
  25  0.889  0.889  0.433-  23 2.93  21 2.93  22 2.93  27 2.93  18 2.94  16 2.94  12 2.94  19 2.95
                            26 2.95  28 2.95  33 2.96  30 2.96
  26  0.223  0.889  0.433-  20 2.93  23 2.93  27 2.93  24 2.93  17 2.94  10 2.94  16 2.94  19 2.95
                            25 2.95  28 2.95  29 2.96  34 2.96
  27  0.557  0.887  0.432-  24 2.91  22 2.91  17 2.92  18 2.92  11 2.93  26 2.93  25 2.93  20 2.95
                            21 2.95  35 2.95  29 2.96  30 2.96
  28  0.000  0.000  0.536-  25 2.95  19 2.95  26 2.95  34 2.96  32 2.96  33 2.96  30 2.96  31 2.96
                            29 2.96
  29  0.333  0.005  0.536-  31 2.89  30 2.89  36 2.90  20 2.95  28 2.96  35 2.96  27 2.96  26 2.96
                            34 3.03
  30  0.661  0.005  0.536-  32 2.89  29 2.89  36 2.90  21 2.95  28 2.96  35 2.96  27 2.96  25 2.96
                            33 3.03
  31  0.005  0.333  0.536-  29 2.89  33 2.89  36 2.90  20 2.95  28 2.96  35 2.96  22 2.96  19 2.96
                            32 3.03
  32  0.661  0.333  0.536-  30 2.89  34 2.89  36 2.90  21 2.95  28 2.96  35 2.96  24 2.96  19 2.96
                            31 3.03
  33  0.005  0.661  0.536-  34 2.89  31 2.89  36 2.90  23 2.95  28 2.96  35 2.96  22 2.96  25 2.96
                            30 3.03
  34  0.333  0.661  0.536-  33 2.89  32 2.89  36 2.90  23 2.95  28 2.96  35 2.96  24 2.96  26 2.96
                            29 3.03
  35  0.667  0.667  0.536-  24 2.95  27 2.95  22 2.95  29 2.96  34 2.96  32 2.96  31 2.96  30 2.96
                            33 2.96
  36  0.333  0.333  0.525-  38 1.61  37 1.61  20 2.78  23 2.78  21 2.78  33 2.90  31 2.90  29 2.90
                            30 2.90  34 2.90  32 2.90
  37  0.239  0.324  0.583-  36 1.61
  38  0.437  0.324  0.583-  36 1.61

  LATTYP: Found a hexagonal cell.
 ALAT       =     8.8135128021
 C/A-ratio  =     2.6441008252

  Lattice vectors:

 A1 = (  -4.4067569092,  -7.6327256898,   0.0000000000)
 A2 = (   8.8135128021,   0.0000000000,   0.0000000000)
 A3 = (   0.0000000000,   0.0000000000,  23.3038164725)

Analysis of symmetry for initial positions (statically):
 Subroutine PRICEL returns:
 Original cell was already a primitive cell.

 Routine SETGRP: Setting up the symmetry group for a
 hexagonal supercell.

 Subroutine GETGRP returns: Found  2 space group operations
 (whereof  2 operations were pure point group operations)
 out of a pool of 24 trial point group operations.

The static configuration has the point symmetry C_1h.

Analysis of symmetry for dynamics (positions and initial velocities):
 Subroutine PRICEL returns:
 Original cell was already a primitive cell.

[...]

The dynamic configuration has the point symmetry C_1h.

Analysis of constrained symmetry for selective dynamics:
 Subroutine PRICEL returns:
 Original cell was already a primitive cell.

 Routine SETGRP: Setting up the symmetry group for a
 hexagonal supercell.

 Subroutine GETGRP returns: Found  2 space group operations
[...]
     33      -4.9564      2.00000
     34      -4.9469      2.00000
     35      -4.8836      2.00000
     36      -4.8420      2.00000
     37      -4.8009      2.00000
     38      -4.7634      2.00000
     39      -4.7348      2.00000
     40      -4.6979      2.00000
     41      -4.6063      2.00000
     42      -4.5935      2.00000
     43      -4.5770      2.00000
     44      -4.5290      2.00000
     45      -4.4931      2.00000
     46      -4.4806      2.00000
     47      -4.4163      2.00000
     48      -4.3754      2.00000
     49      -4.3442      2.00000
     50      -4.3252      2.00000
     51      -4.3196      2.00000
     52      -4.3065      2.00000
     53      -4.2938      2.00000
     54      -4.2776      2.00000
     55      -4.2166      2.00000
     56      -4.2126      2.00000
     57      -4.1670      2.00000
     58      -4.1566      2.00000
     59      -4.1522      2.00000
     60      -4.1360      2.00000
[...]
    238       6.4052      0.00000
    239       6.4581      0.00000
    240       6.5331      0.00000
    241       6.5927      0.00000
    242       6.6421      0.00000
    243       6.7336      0.00000
    244       6.9289      0.00000
    245       6.9954      0.00000
    246       7.1312      0.00000
    247       7.1696      0.00000
    248       7.1953      0.00000
    249       7.2145      0.00000
    250       7.2937      0.00000
    251       7.4876      0.00000
    252       7.5233      0.00000

 soft charge-density along one line, spin component           1
         0         1         2         3         4         5         6         7         8         9
 total charge-density along one line

------------------------ aborting loop because EDIFF is reached ----------------------------------------

 total charge

# of ion       s       p       d       tot
    1        0.545   0.238   8.770   9.552
    2        0.545   0.240   8.765   9.550
    3        0.545   0.240   8.765   9.550
    4        0.545   0.240   8.765   9.550
    5        0.545   0.242   8.759   9.545
    6        0.545   0.240   8.765   9.550
    7        0.545   0.240   8.764   9.550
    8        0.545   0.240   8.764   9.550
    9        0.541   0.239   8.770   9.550
   10        0.520   0.309   8.769   9.598
   11        0.524   0.306   8.780   9.610
   12        0.520   0.309   8.769   9.598
   13        0.522   0.307   8.779   9.608
   14        0.522   0.307   8.779   9.608
   15        0.514   0.309   8.774   9.597
   16        0.520   0.310   8.768   9.598
   17        0.513   0.310   8.776   9.599
   18        0.513   0.310   8.776   9.599
   19        0.516   0.303   8.775   9.593
   20        0.546   0.326   8.759   9.631
   21        0.546   0.326   8.759   9.631
   22        0.509   0.311   8.773   9.593
   23        0.543   0.331   8.755   9.629
   24        0.509   0.311   8.773   9.593
   25        0.518   0.302   8.775   9.594
   26        0.518   0.302   8.775   9.594
   27        0.508   0.310   8.774   9.593
   28        0.541   0.227   8.773   9.541
   29        0.539   0.245   8.765   9.549
   30        0.539   0.245   8.765   9.549
   31        0.531   0.258   8.759   9.549
   32        0.531   0.258   8.759   9.549
   33        0.539   0.244   8.765   9.549
   34        0.539   0.244   8.765   9.549
   35        0.537   0.227   8.775   9.539
   36        0.615   0.576   7.136   8.327
   37        0.501   0.027   0.000   0.528
   38        0.501   0.027   0.000   0.528
tot         20.194  10.338 314.034 344.566

  FORCE on cell =-STRESS in cart. coord.  units (eV):
  Direction    XX          YY          ZZ          XY          YZ          ZX
  Alpha Z   969.42515   969.42515   969.42515
  Ewald  136212.19481136168.09485************    -0.00033    -2.15856    -0.00015
  Hartree144666.38939144655.03276************     0.00000    -0.02421    -0.00004
  E(xc)   -1774.82103 -1775.09227 -1782.09758     0.00000    -0.04598    -0.00000
  Local  ************************293589.73398     0.00186     0.93197     0.00011
  n-local   -72.66966   -71.86260   -47.55760     4.22781     0.26111     0.15813
  augment  2407.46012  2408.72704  2419.25586    -0.00137     0.26996     0.00003
  Kinetic  5483.12676  5489.56517  5525.60236     1.03358     1.12831     0.06926
  Fock        0.00000     0.00000     0.00000     0.00000     0.00000     0.00000
  Total     -19.28770   -19.18974     2.46892    -0.00000     0.36259     0.00000
  in kB     -19.71220   -19.61209     2.52326    -0.00000     0.37058     0.00000

 VOLUME and BASIS-vectors are now :
  energy-cutoff  :      500.00
  volume of cell :     1567.67
      direct lattice vectors                 reciprocal lattice vectors
     8.813512802  0.000000000  0.000000000     0.113462137 -0.065507406  0.000000000
     4.406756909  7.632725690  0.000000000     0.000000000  0.131014796  0.000000000
     0.000000000  0.000000000 23.303816472     0.000000000  0.000000000  0.042911426

  length of vectors
     8.813512802  8.813512802 23.303816472     0.131014796  0.131014796  0.042911426

 FORCES acting on ions
    electron-ion (+dipol)            ewald-force                    non-local-force                 convergence-correction
   -.199E-04 0.385E-01 0.257E+04   0.519E-04 -.129E-01 -.257E+04   0.289E-09 0.435E-02 -.106E+01   -.296E-03 -.303E-01 -.336E+00
   0.392E+00 0.198E+00 0.258E+04   -.488E+00 -.270E+00 -.257E+04   0.496E-01 0.692E-01 -.352E+00   0.551E-01 0.236E-01 -.369E+00
   -.392E+00 0.198E+00 0.258E+04   0.488E+00 -.270E+00 -.257E+04   -.496E-01 0.692E-01 -.352E+00   -.547E-01 0.255E-01 -.368E+00
   0.317E+00 0.199E+00 0.258E+04   -.467E+00 -.289E+00 -.257E+04   0.105E+00 0.128E-01 -.352E+00   0.558E-01 0.682E-01 -.349E+00
   0.704E-05 -.629E-01 0.258E+04   0.952E-04 0.550E-02 -.258E+04   0.391E-09 0.587E-02 -.132E+00   0.432E-02 0.537E-01 -.342E+00
   -.317E+00 0.199E+00 0.258E+04   0.467E+00 -.289E+00 -.257E+04   -.105E+00 0.128E-01 -.352E+00   -.573E-01 0.691E-01 -.348E+00
   -.573E-01 -.392E+00 0.258E+04   0.213E-01 0.559E+00 -.257E+04   0.283E-01 -.943E-01 -.347E+00   0.294E-01 -.856E-01 -.372E+00
   0.573E-01 -.392E+00 0.258E+04   -.215E-01 0.559E+00 -.257E+04   -.283E-01 -.943E-01 -.347E+00   -.276E-01 -.867E-01 -.372E+00
   0.196E-04 0.406E-01 0.258E+04   0.166E-03 0.760E-02 -.257E+04   -.121E-08 -.182E-01 -.681E+00   -.456E-02 -.331E-01 -.369E+00
   0.548E+01 0.316E+01 0.861E+03   -.516E+01 -.305E+01 -.860E+03   -.333E+00 -.163E+00 -.721E+00   0.752E-02 0.488E-01 -.249E+00
   0.136E-04 0.336E+01 0.865E+03   0.149E-03 -.341E+01 -.865E+03   0.279E-08 0.419E-01 -.335E+00   0.436E-02 -.393E-01 -.280E+00
   -.548E+01 0.316E+01 0.861E+03   0.516E+01 -.305E+01 -.860E+03   0.333E+00 -.163E+00 -.721E+00   -.933E-02 0.500E-01 -.248E+00
   0.289E+01 -.173E+01 0.865E+03   -.288E+01 0.176E+01 -.865E+03   0.379E-01 -.528E-01 -.282E+00   -.720E-01 0.485E-01 -.312E+00
   -.289E+01 -.173E+01 0.865E+03   0.288E+01 0.176E+01 -.865E+03   -.379E-01 -.528E-01 -.282E+00   0.797E-01 0.473E-01 -.313E+00
   0.310E-04 0.316E+01 0.863E+03   0.236E-03 -.322E+01 -.862E+03   0.568E-09 0.853E-02 -.569E+00   -.249E-02 0.220E-01 -.251E+00
   -.217E-04 -.631E+01 0.861E+03   0.163E-03 0.594E+01 -.860E+03   0.272E-07 0.408E+00 -.762E+00   -.176E-03 -.459E-01 -.278E+00
   0.284E+01 -.156E+01 0.863E+03   -.286E+01 0.165E+01 -.862E+03   -.148E-01 -.388E-03 -.546E+00   0.204E-02 -.616E-01 -.257E+00
   -.284E+01 -.156E+01 0.863E+03   0.286E+01 0.165E+01 -.862E+03   0.148E-01 -.388E-03 -.546E+00   -.145E-02 -.592E-01 -.256E+00
   -.418E-04 0.387E+01 -.885E+03   0.535E-04 -.393E+01 0.885E+03   -.192E-09 -.288E-02 0.624E+00   -.464E-02 0.685E-01 0.923E-01
   0.812E+01 0.526E+01 -.848E+03   -.738E+01 -.464E+01 0.848E+03   -.762E+00 -.628E+00 -.953E+00   -.896E-02 -.828E-02 0.187E+00
   -.812E+01 0.526E+01 -.848E+03   0.738E+01 -.464E+01 0.848E+03   0.762E+00 -.628E+00 -.953E+00   0.112E-01 -.863E-02 0.187E+00
   -.343E+01 0.138E+01 -.873E+03   0.313E+01 -.122E+01 0.872E+03   0.348E+00 -.190E+00 0.584E+00   0.789E-02 -.985E-02 0.794E-01
   -.130E-04 -.102E+02 -.849E+03   0.143E-03 0.927E+01 0.850E+03   0.623E-07 0.935E+00 -.847E+00   0.450E-03 -.667E-03 0.196E+00
   0.343E+01 0.138E+01 -.873E+03   -.313E+01 -.122E+01 0.872E+03   -.348E+00 -.190E+00 0.584E+00   -.791E-02 -.117E-01 0.794E-01
   -.328E+01 -.142E+01 -.886E+03   0.329E+01 0.145E+01 0.886E+03   0.384E-01 -.394E-02 0.576E+00   -.529E-01 -.339E-01 0.130E+00
   0.328E+01 -.142E+01 -.886E+03   -.329E+01 0.145E+01 0.886E+03   -.384E-01 -.394E-02 0.576E+00   0.465E-01 -.353E-01 0.130E+00
   0.903E-05 -.380E+01 -.874E+03   0.201E-03 0.337E+01 0.873E+03   0.307E-07 0.461E+00 0.604E+00   0.106E-02 0.176E-01 0.134E+00
   -.978E-05 0.211E+01 -.258E+04   0.271E-04 -.200E+01 0.258E+04   -.747E-08 -.112E+00 0.541E+00   -.360E-03 -.131E-01 0.316E+00
   0.734E+01 0.180E+02 -.257E+04   -.707E+01 -.181E+02 0.257E+04   -.376E+00 -.151E+00 0.552E+00   0.550E-01 -.555E-02 0.266E+00
   -.734E+01 0.180E+02 -.257E+04   0.707E+01 -.181E+02 0.257E+04   0.376E+00 -.151E+00 0.552E+00   -.543E-01 -.411E-02 0.266E+00
   0.240E+02 -.111E+01 -.257E+04   -.244E+02 0.119E+01 0.256E+04   0.121E-01 -.782E-01 0.598E+00   0.287E-01 0.364E-01 0.275E+00
   -.240E+02 -.111E+01 -.257E+04   0.244E+02 0.119E+01 0.256E+04   -.121E-01 -.782E-01 0.598E+00   -.299E-01 0.368E-01 0.275E+00
   0.633E+01 -.158E+02 -.257E+04   -.607E+01 0.157E+02 0.257E+04   -.303E+00 0.320E+00 0.505E+00   -.268E-01 -.257E-01 0.285E+00
   -.633E+01 -.158E+02 -.257E+04   0.607E+01 0.157E+02 0.257E+04   0.303E+00 0.320E+00 0.505E+00   0.282E-01 -.267E-01 0.285E+00
   0.297E-04 -.141E+01 -.258E+04   0.146E-03 0.130E+01 0.258E+04   0.702E-08 0.105E+00 0.578E+00   -.427E-02 0.176E-01 0.301E+00
   -.192E-04 -.440E+01 -.194E+04   0.926E-04 0.444E+01 0.195E+04   0.890E-08 0.134E+00 -.258E+01   0.223E-02 -.148E-01 0.134E+00
   0.908E+01 0.492E+00 -.299E+03   -.104E+02 -.596E+00 0.301E+03   0.128E+01 0.109E+00 -.233E+01   0.252E-02 0.163E-03 0.181E-02
   -.908E+01 0.492E+00 -.299E+03   0.104E+02 -.596E+00 0.301E+03   -.128E+01 0.109E+00 -.233E+01   -.238E-02 0.181E-03 0.166E-02
   -.774E-03 -.266E+00 0.129E+02   -.782E-13 -.128E-12 0.193E-11   0.180E-07 0.271E+00 -.108E+02   -.299E-03 -.613E-02 -.205E+01

 POSITION                                       TOTAL-FORCE (eV/Angst)
      0.00000      0.00000      5.28038        -0.000000     -0.000274     -0.101190
      2.93784      0.00000      5.28038         0.008143      0.021585     -0.047211
      5.87568      0.00000      5.28038        -0.008143      0.021585     -0.047211
      1.46892      2.54424      5.28038         0.011713     -0.008233     -0.051539
      4.40676      2.54424      5.28038         0.000000      0.002130     -0.071681
      7.34459      2.54424      5.28038        -0.011713     -0.008233     -0.051539
      2.93784      5.08848      5.28038         0.020915     -0.013038     -0.048949
      5.87568      5.08848      5.28038        -0.020915     -0.013038     -0.048949
      8.81351      5.08848      5.28038        -0.000000     -0.003060     -0.056722
      1.46892      0.84808      7.67911         0.001118     -0.004469      0.113884
      4.40676      0.84808      7.67911        -0.000000     -0.056151      0.020745
      7.34459      0.84808      7.67911        -0.001118     -0.004469      0.113884
      2.93784      3.39232      7.67911        -0.033997      0.020223      0.040094
      5.87568      3.39232      7.67911         0.033997      0.020223      0.040094
      8.81351      3.39232      7.67911        -0.000000     -0.029492      0.085121
      4.40676      5.93656      7.67911        -0.000000     -0.011195      0.130810
      7.34459      5.93656      7.67911        -0.035027      0.021761      0.089026
     10.28243      5.93656      7.67911         0.035027      0.021761      0.089026
      8.81351      1.70038     10.08128        -0.000000     -0.001862      0.019291
      2.93047      1.69191     10.03818        -0.035662     -0.018814     -0.228646
      5.88304      1.69191     10.03818         0.035662     -0.018814     -0.228646
     10.26792      4.24878     10.06124         0.063041     -0.035586     -0.007099
      4.40676      4.24891     10.03818        -0.000000     -0.042479     -0.207115
      7.35911      4.24878     10.06124        -0.063041     -0.035586     -0.007099
     11.74770      6.78254     10.08128         0.001803     -0.003171     -0.012241
      5.87933      6.78254     10.08128        -0.001803     -0.003171     -0.012241
      8.81351      6.76789     10.06124         0.000000      0.049511     -0.007925
      0.00000      0.00000     12.49619        -0.000000     -0.022457     -0.072336
      2.96082      0.04010     12.48308        -0.048391     -0.245082     -0.087544
      5.85269      0.04010     12.48308         0.048391     -0.245082     -0.087544
      1.51514      2.54410     12.48308        -0.309999      0.035923     -0.044971
      7.29838      2.54410     12.48308         0.309999      0.035923     -0.044971
      2.96107      5.04853     12.48308        -0.069503      0.196411     -0.041164
      5.85244      5.04853     12.48308         0.069503      0.196411     -0.041164
      8.81351      5.08848     12.49171         0.000000      0.010386     -0.090318
      4.40676      2.54424     12.23647         0.000000      0.160845      0.992182
      3.53228      2.47068     13.58420        -0.011407      0.004538      0.005930
      5.28123      2.47068     13.58420         0.011407      0.004538      0.005930
    total drift:                               -0.001073     -0.001044      0.085560

  FREE ENERGIE OF THE ION-ELECTRON SYSTEM (eV)
  free  energy   TOTEN  =      -121.70778178 eV

  energy  without entropy=     -121.70778178  energy(sigma->0) =     -121.70778178

 stress matrix after NEB project (eV)
    -19.28770     -0.00000      0.00000
     -0.00000    -19.18974      0.36259
      0.00000      0.36259      2.46892
  FORCES: max atom, RMS     0.013633    0.003128
  FORCE total and by dimension    0.019281    0.011407
  Stress total and by dimension   27.324344   19.287696
|           W    W    AA    RRRRR   N    N  II  N    N   GGGG   !!!           |
|           W    W   A  A   R    R  NN   N  II  NN   N  G    G  !!!           |
|           W    W  A    A  R    R  N N  N  II  N N  N  G       !!!           |
|           W WW W  AAAAAA  RRRRR   N  N N  II  N  N N  G  GGG   !            |
|           WW  WW  A    A  R   R   N   NN  II  N   NN  G    G                |
|           W    W  A    A  R    R  N    N  II  N    N   GGGG   !!!           |
|     Tetrahedron method does not include variations of the Fermi             |
|     occupations, so forces and stress will be inaccurate. We suggest        |
|     using a different smearing scheme ISMEAR = 1 or 2 for metals in         |
|     relaxations.                                                            |

 total charge

# of ion       s       p       d       tot
    1        0.545   0.238   8.770   9.552
    2        0.545   0.240   8.765   9.550
    3        0.545   0.240   8.765   9.550
    4        0.545   0.240   8.765   9.550
    5        0.545   0.242   8.759   9.545
    6        0.545   0.240   8.765   9.550
    7        0.545   0.240   8.764   9.550
    8        0.545   0.240   8.764   9.550
    9        0.541   0.239   8.770   9.550
   10        0.520   0.309   8.769   9.598
   11        0.524   0.306   8.780   9.610
   12        0.520   0.309   8.769   9.598
   13        0.522   0.307   8.779   9.608
   14        0.522   0.307   8.779   9.608
   15        0.514   0.309   8.774   9.597
   16        0.520   0.310   8.768   9.598
   17        0.513   0.310   8.776   9.599
   18        0.513   0.310   8.776   9.599
   19        0.516   0.303   8.775   9.593
   20        0.546   0.326   8.759   9.631
   21        0.546   0.326   8.759   9.631
   22        0.509   0.311   8.773   9.593
   23        0.543   0.331   8.755   9.629
   24        0.509   0.311   8.773   9.593
   25        0.518   0.302   8.775   9.594
   26        0.518   0.302   8.775   9.594
   27        0.508   0.310   8.774   9.593
   28        0.541   0.227   8.773   9.541
   29        0.539   0.245   8.765   9.549
   30        0.539   0.245   8.765   9.549
   31        0.531   0.258   8.759   9.549
   32        0.531   0.258   8.759   9.549
   33        0.539   0.244   8.765   9.549
   34        0.539   0.244   8.765   9.549
   35        0.537   0.227   8.775   9.539
   36        0.615   0.576   7.136   8.327
   37        0.501   0.027   0.000   0.528
   38        0.501   0.027   0.000   0.528
tot         20.194  10.338 314.034 344.566

 BZINTS: Fermi energy:    0.462101;  396.000000 electrons
         Band energy:-0.127979E+04;  BLOECHL correction:   -0.095175