 vasp.6.2.0 18Jan21 (build Jun 12 2021 23:27:24) complex

 executed on             LinuxIFC date 2022.05.30  18:44:06

 INCAR:
   ISMEAR = -5
   SIGMA = 0.1
   ISPIN = 1
   EDIFF = 1.d-5
   EDIFFG = -0.01
   NSW = 0
   NELM = 150
   ENCUT = 500
   ISIF = 2
   IBRION = 2
   LREAL = Auto
   ALGO = Fast
   ICHARG = 11
   LORBIT = 10
   LCHARG = .F.
   LWAVE = .F.

 POTCAR:    PAW_PBE Cu 22Jun2005
 POTCAR:    PAW_PBE Os 17Jan2003
 POTCAR:    PAW_PBE O 08Apr2002
|           W    W    AA    RRRRR   N    N  II  N    N   GGGG   !!!           |
|           W    W   A  A   R    R  NN   N  II  NN   N  G    G  !!!           |
|           W    W  A    A  R    R  N N  N  II  N N  N  G       !!!           |
|           W WW W  AAAAAA  RRRRR   N  N N  II  N  N N  G  GGG   !            |
|           WW  WW  A    A  R   R   N   NN  II  N   NN  G    G                |
|           W    W  A    A  R    R  N    N  II  N    N   GGGG   !!!           |
|     For optimal performance we recommend to set                             |
|       NCORE = 2 up to number-of-cores-per-socket                            |
|     This setting can greatly improve the performance of VASP for DFT.       |
|     The default, NCORE=1 might be grossly inefficient on modern             |
|     multi-core architectures or massively parallel machines. Do your        |
|     Unfortunately you need to use the default for GW and RPA                |
|     calculations (for HF NCORE is supported but not extensively tested      |
|     yet).                                                                   |

 POTCAR:    PAW_PBE Cu 22Jun2005
   VRHFIN =Cu: d10 p1

   TITEL  = PAW_PBE Cu 22Jun2005
   POMASS =   63.546; ZVAL   =   11.000    mass and valenz
   ENMAX  =  295.446; ENMIN  =  221.585 eV

 POTCAR:    PAW_PBE Os 17Jan2003
   VRHFIN =Os: 6s5d

   TITEL  = PAW_PBE Os 17Jan2003
   POMASS =  190.200; ZVAL   =    8.000    mass and valenz
   ENMAX  =  228.022; ENMIN  =  171.017 eV

 POTCAR:    PAW_PBE O 08Apr2002
   VRHFIN =O: s2p4

   TITEL  = PAW_PBE O 08Apr2002
   POMASS =   16.000; ZVAL   =    6.000    mass and valenz
   ENMAX  =  400.000; ENMIN  =  300.000 eV

 Optimization of the real space projectors (new method)

 maximal supplied QI-value         = 16.25
 optimisation between [QCUT,QGAM] = [ 11.38, 22.75] = [ 36.24,144.96] Ry
 Optimized for a Real-space Cutoff    1.52 Angstroem

   l    n(q)    QCUT    max X(q) W(low)/X(q) W(high)/X(q)  e(spline)
   2      9    11.376     4.610    0.21E-03    0.10E-03    0.26E-06
   2      9    11.376     8.522    0.33E-03    0.16E-03    0.37E-06
   0     10    11.376    51.609    0.62E-04    0.20E-04    0.13E-06
   0     10    11.376    27.747    0.54E-04    0.20E-04    0.13E-06
   1     10    11.376    20.408    0.13E-04    0.99E-04    0.19E-06
   1     10    11.376    13.425    0.12E-04    0.87E-04    0.17E-06
 Optimization of the real space projectors (new method)

[...]

   l    n(q)    QCUT    max X(q) W(low)/X(q) W(high)/X(q)  e(spline)
   2     10    11.327   152.873    0.32E-03    0.72E-03    0.11E-05
   2     10    11.327   151.010    0.32E-03    0.72E-03    0.11E-05
   0     11    11.327    72.114    0.43E-04    0.61E-04    0.13E-06
   0     11    11.327    44.596    0.40E-04    0.57E-04    0.12E-06
   1     10    11.327    13.742    0.16E-03    0.10E-03    0.19E-06
   1     10    11.327     8.461    0.12E-03    0.78E-04    0.15E-06
 Optimization of the real space projectors (new method)

 maximal supplied QI-value         = 24.76
 optimisation between [QCUT,QGAM] = [ 11.39, 22.77] = [ 36.31,145.25] Ry
 Optimized for a Real-space Cutoff    1.00 Angstroem

   l    n(q)    QCUT    max X(q) W(low)/X(q) W(high)/X(q)  e(spline)
   0      7    11.387    20.381    0.39E-03    0.13E-02    0.15E-06
   0      7    11.387    15.268    0.42E-03    0.14E-02    0.17E-06
   1      6    11.387     5.964    0.41E-03    0.11E-02    0.17E-06
   1      6    11.387     5.382    0.39E-03    0.87E-03    0.15E-06
  PAW_PBE Cu 22Jun2005                  :
  PAW_PBE Os 17Jan2003                  :
  PAW_PBE O 08Apr2002                   :

 POSCAR: Cu-Os-O2
  positions in direct lattice
  velocities in cartesian coordinates
 exchange correlation table for  LEXCH =        8
   RHO(1)=    0.500       N(1)  =     2000
   RHO(2)=  100.500       N(2)  =     4000

 VTST: version 3.2, (02/03/18)

 CHAIN: initializing optimizer

 OPT: Using VASP Conjugate-Gradient optimizer
 CHAIN: Read ICHAIN            0

 POSCAR: Cu-Os-O2
  positions in direct lattice
  velocities in cartesian coordinates

 ion  position               nearest neighbor table
   1  0.000  0.000  0.226-   7 2.57   3 2.57   4 2.57   2 2.57   6 2.57   8 2.57  12 2.57  10 2.57
                            16 2.57
   2  0.333  0.000  0.226-   8 2.57   9 2.57   5 2.57   1 2.57   3 2.57  11 2.57   4 2.57  10 2.57
                            17 2.57
   3  0.667  0.000  0.226-   1 2.57   7 2.57   6 2.57   9 2.57   2 2.57  12 2.57   5 2.57  18 2.57
                            11 2.57
   4  0.000  0.333  0.226-   5 2.57   6 2.57   1 2.57   7 2.57   2 2.57  13 2.57   9 2.57  10 2.57
                            15 2.57
   5  0.333  0.333  0.226-   4 2.57   2 2.57   7 2.57  13 2.57   8 2.57   6 2.57   3 2.57  11 2.57
                            14 2.57
   6  0.667  0.333  0.226-   4 2.57   9 2.57  15 2.57   3 2.57   1 2.57   8 2.57  14 2.57   5 2.57
                            12 2.57
   7  0.000  0.667  0.226-   1 2.57   3 2.57  16 2.57  18 2.57   4 2.57   5 2.57   8 2.57   9 2.57
                            13 2.57
   8  0.333  0.667  0.226-   9 2.57   2 2.57  17 2.57   6 2.57   1 2.57   7 2.57   5 2.57  14 2.57
                            16 2.57
   9  0.667  0.667  0.226-   8 2.57   6 2.57   2 2.57  17 2.57   3 2.57   7 2.57   4 2.57  15 2.57
                            18 2.57
  10  0.111  0.111  0.314-  20 2.53  11 2.57  12 2.57  13 2.57   1 2.57   2 2.57   4 2.57  15 2.57
                            16 2.57  17 2.57  26 2.57  19 2.57
  11  0.444  0.111  0.314-  20 2.54  21 2.54  10 2.57  13 2.57   2 2.57  17 2.57  14 2.57  12 2.57
                             5 2.57   3 2.57  18 2.57  27 2.57
  12  0.778  0.111  0.314-  21 2.53  15 2.57  10 2.57  14 2.57  18 2.57   3 2.57   1 2.57  16 2.57
                            11 2.57   6 2.57  19 2.57  25 2.57
  13  0.111  0.444  0.314-  23 2.54  20 2.54  16 2.57  18 2.57  10 2.57  11 2.57  14 2.57   5 2.57
                             4 2.57   7 2.57  15 2.57  22 2.57
  14  0.444  0.444  0.314-  21 2.54  23 2.54  15 2.57  17 2.57  12 2.57  16 2.57  13 2.57  11 2.57
                             6 2.57   8 2.57   5 2.57  24 2.57
  15  0.778  0.444  0.314-  19 2.56  14 2.57  17 2.57  12 2.57   6 2.57  18 2.57  10 2.57   9 2.57
                            13 2.57   4 2.57  24 2.57  22 2.57
  16  0.111  0.778  0.314-  23 2.53  18 2.57  13 2.57   7 2.57  14 2.57  17 2.57  12 2.57  10 2.57
                             8 2.57   1 2.57  25 2.57  26 2.57
  17  0.444  0.778  0.314-  26 2.56  14 2.57  15 2.57   8 2.57   9 2.57  11 2.57  16 2.57  18 2.57
                            10 2.57   2 2.57  27 2.57  24 2.57
  18  0.778  0.778  0.314-  25 2.56  16 2.57  13 2.57   7 2.57  15 2.57  12 2.57  17 2.57   9 2.57
                             3 2.57  11 2.57  22 2.57  27 2.57
  19  0.888  0.223  0.402-  21 2.55  20 2.55  28 2.55  22 2.56  24 2.56  15 2.56  12 2.57  10 2.57
                            32 2.57  31 2.57  25 2.57  26 2.57
  20  0.221  0.221  0.401-  10 2.53  36 2.53  11 2.54  13 2.54  26 2.55  19 2.55  27 2.57  22 2.57
                            23 2.59  21 2.59  29 2.60  31 2.60
  21  0.558  0.221  0.401-  12 2.53  36 2.53  14 2.54  11 2.54  19 2.55  25 2.55  24 2.57  27 2.57
                            20 2.59  23 2.59  32 2.60  30 2.60
  22  0.888  0.556  0.402-  35 2.55  24 2.55  27 2.55  19 2.56  25 2.56  18 2.57  15 2.57  23 2.57
                            20 2.57  13 2.57  31 2.58  33 2.58
  23  0.221  0.558  0.401-  16 2.53  36 2.53  13 2.54  14 2.54  25 2.55  26 2.55  22 2.57  24 2.57
                            20 2.59  21 2.59  33 2.60  34 2.60
  24  0.556  0.556  0.402-  35 2.55  22 2.55  27 2.55  19 2.56  26 2.56  15 2.57  17 2.57  21 2.57
                            23 2.57  14 2.57  32 2.58  34 2.58
  25  0.888  0.888  0.402-  21 2.55  23 2.55  28 2.55  22 2.56  27 2.56  18 2.56  16 2.57  12 2.57
                            33 2.57  30 2.57  19 2.57  26 2.57
  26  0.223  0.888  0.402-  20 2.55  23 2.55  28 2.55  27 2.56  24 2.56  17 2.56  10 2.57  16 2.57
                            29 2.57  34 2.57  25 2.57  19 2.57
  27  0.556  0.888  0.402-  35 2.55  24 2.55  22 2.55  26 2.56  25 2.56  17 2.57  18 2.57  20 2.57
                            21 2.57  11 2.57  29 2.58  30 2.58
  28  0.000  0.000  0.489-  25 2.55  19 2.55  26 2.55  33 2.56  30 2.56  31 2.56  29 2.56  32 2.56
                            34 2.56
  29  0.333  0.000  0.491-  31 2.56  28 2.56  34 2.57  36 2.57  35 2.57  30 2.57  26 2.57  27 2.58
                            20 2.60
  30  0.667  0.000  0.491-  32 2.56  28 2.56  33 2.57  36 2.57  35 2.57  29 2.57  25 2.57  27 2.58
                            21 2.60
  31  0.000  0.333  0.491-  29 2.56  28 2.56  32 2.57  36 2.57  35 2.57  33 2.57  19 2.57  22 2.58
                            20 2.60
  32  0.667  0.333  0.491-  30 2.56  28 2.56  31 2.57  36 2.57  35 2.57  34 2.57  19 2.57  24 2.58
                            21 2.60
  33  0.000  0.667  0.491-  34 2.56  28 2.56  30 2.57  36 2.57  35 2.57  31 2.57  25 2.57  22 2.58
                            23 2.60
  34  0.333  0.667  0.491-  33 2.56  28 2.56  29 2.57  36 2.57  35 2.57  32 2.57  26 2.57  24 2.58
                            23 2.60
  35  0.667  0.667  0.489-  24 2.55  27 2.55  22 2.55  34 2.57  32 2.57  29 2.57  30 2.57  33 2.57
                            31 2.57
  36  0.333  0.333  0.487-  37 2.06  38 2.06  23 2.53  20 2.53  21 2.53  31 2.57  29 2.57  33 2.57
                            34 2.57  32 2.57  30 2.57
  37  0.243  0.331  0.568-  38 1.42  36 2.06
  38  0.427  0.331  0.568-  37 1.42  36 2.06

  LATTYP: Found a hexagonal cell.
 ALAT       =     7.6967864036
 C/A-ratio  =     3.0908716217

  Lattice vectors:

 A1 = (  -3.8483927580,  -6.6656128093,   0.0000000000)
 A2 = (   7.6967864037,   0.0000000000,   0.0000000000)
 A3 = (   0.0000000000,   0.0000000000,  23.7897786731)

Analysis of symmetry for initial positions (statically):
 Subroutine PRICEL returns:
 Original cell was already a primitive cell.

 Routine SETGRP: Setting up the symmetry group for a
 hexagonal supercell.

 Subroutine GETGRP returns: Found  2 space group operations
 (whereof  2 operations were pure point group operations)
 out of a pool of 24 trial point group operations.

The static configuration has the point symmetry C_1h.

Analysis of symmetry for dynamics (positions and initial velocities):
 Subroutine PRICEL returns:
 Original cell was already a primitive cell.

[...]

The dynamic configuration has the point symmetry C_1h.

Analysis of constrained symmetry for selective dynamics:
 Subroutine PRICEL returns:
 Original cell was already a primitive cell.

 Routine SETGRP: Setting up the symmetry group for a
 hexagonal supercell.

[...]
     33      -4.6155      2.00000
     34      -4.6052      2.00000
     35      -4.5865      2.00000
     36      -4.5848      2.00000
     37      -4.5711      2.00000
     38      -4.5576      2.00000
     39      -4.5374      2.00000
     40      -4.4871      2.00000
     41      -4.4248      2.00000
     42      -4.3109      2.00000
     43      -4.2765      2.00000
     44      -4.2691      2.00000
     45      -4.2072      2.00000
     46      -4.1970      2.00000
     47      -4.1848      2.00000
     48      -4.1559      2.00000
     49      -4.1536      2.00000
     50      -4.1403      2.00000
     51      -4.0139      2.00000
     52      -3.9631      2.00000
     53      -3.9466      2.00000
     54      -3.9329      2.00000
     55      -3.9077      2.00000
     56      -3.8757      2.00000
     57      -3.8643      2.00000
     58      -3.8511      2.00000
     59      -3.8489      2.00000
     60      -3.8403      2.00000
[...]
    238       5.3246      0.00000
    239       5.4839      0.00000
    240       5.6757      0.00000
    241       5.7656      0.00000
    242       5.9137      0.00000
    243       6.0563      0.00000
    244       6.0526      0.00000
    245       6.1388      0.00000
    246       6.1910      0.00000
    247       6.3671      0.00000
    248       6.4162      0.00000
    249       6.6066      0.00000
    250       6.7465      0.00000
    251       6.8013      0.00000
    252       6.8917      0.00000

 soft charge-density along one line, spin component           1
         0         1         2         3         4         5         6         7         8         9
 total charge-density along one line

------------------------ aborting loop because EDIFF is reached ----------------------------------------

 total charge

# of ion       s       p       d       tot
    1        0.449   0.283   9.189   9.921
    2        0.449   0.284   9.188   9.921
    3        0.449   0.284   9.188   9.921
    4        0.449   0.285   9.186   9.920
    5        0.448   0.287   9.182   9.917
    6        0.449   0.285   9.186   9.920
    7        0.450   0.285   9.186   9.921
    8        0.450   0.285   9.186   9.921
    9        0.447   0.283   9.189   9.920
   10        0.444   0.372   9.176   9.991
   11        0.443   0.367   9.185   9.994
   12        0.444   0.372   9.176   9.991
   13        0.443   0.366   9.185   9.994
   14        0.443   0.366   9.185   9.994
   15        0.438   0.369   9.180   9.986
   16        0.443   0.372   9.176   9.991
   17        0.437   0.368   9.180   9.986
   18        0.437   0.368   9.180   9.986
   19        0.439   0.365   9.186   9.990
   20        0.462   0.401   9.163  10.026
   21        0.462   0.401   9.163  10.026
   22        0.430   0.371   9.183   9.984
   23        0.457   0.412   9.154  10.023
   24        0.430   0.371   9.183   9.984
   25        0.440   0.368   9.182   9.990
   26        0.440   0.368   9.182   9.990
   27        0.431   0.367   9.187   9.985
   28        0.453   0.286   9.190   9.929
   29        0.450   0.304   9.185   9.939
   30        0.450   0.304   9.185   9.939
   31        0.444   0.310   9.186   9.940
   32        0.444   0.310   9.186   9.940
   33        0.449   0.304   9.185   9.939
   34        0.449   0.304   9.185   9.939
   35        0.445   0.289   9.190   9.924
   36        0.633   0.613   6.036   7.282
   37        1.608   3.246   0.000   4.854
   38        1.608   3.246   0.000   4.854
tot         19.434  18.819 327.414 365.667

  FORCE on cell =-STRESS in cart. coord.  units (eV):
  Direction    XX          YY          ZZ          XY          YZ          ZX
  Alpha Z   832.41936   832.41936   832.41936
  Ewald  224473.17355224094.14229************     0.00041     1.27641     0.00019
  Hartree237240.50474237058.88201************     0.00005     1.39606     0.00006
  E(xc)   -2342.43769 -2343.63107 -2347.02711    -0.00032    -0.05512    -0.00004
  Local  ************************474556.75537     0.02043    -2.70423    -0.00077
  n-local  -819.35784  -829.00027  -837.16146     2.10948     0.10415     0.05708
  augment  3333.19659  3339.20432  3354.08425    -0.01853     0.04555     0.00040
  Kinetic  3481.69359  3537.93754  3524.74789     1.22026     0.32258    -0.14927
  Fock        0.00000     0.00000     0.00000     0.00000     0.00000     0.00000
  Total      -2.81400    -4.27722     0.02219     0.00000     0.38540    -0.00000
  in kB      -3.69398    -5.61478     0.02913     0.00000     0.50592    -0.00000

 VOLUME and BASIS-vectors are now :
  energy-cutoff  :      500.00
  volume of cell :     1220.51
      direct lattice vectors                 reciprocal lattice vectors
     7.696786404  0.000000000  0.000000000     0.129924354 -0.075011849  0.000000000
     3.848392758  6.665612809  0.000000000     0.000000000  0.150023716  0.000000000
     0.000000000  0.000000000 23.789778673     0.000000000  0.000000000  0.042034859

  length of vectors
     7.696786404  7.696786404 23.789778673     0.150023716  0.150023716  0.042034859

 FORCES acting on ions
    electron-ion (+dipol)            ewald-force                    non-local-force                 convergence-correction
   -.415E-04 0.671E-02 0.377E+04   0.580E-04 -.328E-01 -.376E+04   -.526E-09 0.790E-02 -.300E+01   -.344E-03 0.132E-01 -.332E+00
   -.517E-02 0.223E+00 0.377E+04   -.325E-01 -.290E+00 -.376E+04   -.134E-01 0.592E-01 -.184E+01   0.599E-01 0.268E-01 -.271E+00
   0.518E-02 0.223E+00 0.377E+04   0.324E-01 -.290E+00 -.376E+04   0.134E-01 0.592E-01 -.184E+01   -.590E-01 0.293E-01 -.270E+00
   0.238E-02 -.208E+00 0.377E+04   -.239E+00 0.105E+00 -.376E+04   0.166E+00 0.815E-02 -.192E+01   0.752E-01 0.878E-01 -.294E+00
   -.641E-04 -.571E-01 0.377E+04   0.116E-03 0.481E-02 -.376E+04   -.223E-08 0.335E-01 -.165E+01   0.122E-01 0.271E-01 -.187E+00
   -.235E-02 -.208E+00 0.377E+04   0.239E+00 0.105E+00 -.376E+04   -.166E+00 0.815E-02 -.192E+01   -.768E-01 0.890E-01 -.293E+00
   0.369E+00 0.884E-02 0.377E+04   -.206E+00 0.185E+00 -.376E+04   -.440E-01 -.915E-01 -.181E+01   -.878E-01 -.113E+00 -.238E+00
   -.369E+00 0.883E-02 0.377E+04   0.206E+00 0.185E+00 -.376E+04   0.440E-01 -.915E-01 -.181E+01   0.913E-01 -.115E+00 -.238E+00
   -.144E-03 -.420E-01 0.377E+04   0.263E-03 0.281E-01 -.376E+04   -.202E-08 0.303E-01 -.239E+01   -.132E-01 -.200E-01 -.241E+00
   0.406E+01 0.245E+01 0.132E+04   -.350E+01 -.226E+01 -.132E+04   -.652E+00 -.244E+00 -.114E+01   0.761E-01 0.445E-01 0.177E+00
   -.848E-04 0.210E+01 0.132E+04   0.190E-03 -.251E+01 -.132E+04   -.163E-07 0.245E+00 -.378E+00   0.121E-01 0.837E-01 0.195E+00
   -.406E+01 0.245E+01 0.132E+04   0.350E+01 -.226E+01 -.132E+04   0.652E+00 -.244E+00 -.114E+01   -.778E-01 0.458E-01 0.177E+00
   0.167E+01 -.119E+01 0.132E+04   -.195E+01 0.132E+01 -.132E+04   0.187E+00 -.128E+00 -.319E+00   0.467E-01 0.210E-01 0.183E+00
   -.167E+01 -.119E+01 0.132E+04   0.195E+01 0.132E+01 -.132E+04   -.187E+00 -.128E+00 -.319E+00   -.229E-01 0.198E-01 0.182E+00
   -.141E-03 -.577E+00 0.132E+04   0.299E-03 0.399E+00 -.132E+04   -.436E-08 0.655E-01 -.971E+00   -.358E-02 0.936E-01 0.922E-01
   -.894E-04 -.473E+01 0.132E+04   0.186E-03 0.408E+01 -.132E+04   -.502E-07 0.754E+00 -.133E+01   -.507E-03 -.913E-01 0.174E+00
   -.324E+00 0.305E+00 0.132E+04   0.189E+00 -.506E-01 -.132E+04   0.708E-01 -.142E+00 -.793E+00   0.528E-01 -.963E-01 0.122E+00
   0.324E+00 0.305E+00 0.132E+04   -.189E+00 -.507E-01 -.132E+04   -.708E-01 -.142E+00 -.793E+00   -.515E-01 -.933E-01 0.124E+00
   -.601E-04 0.131E+01 -.114E+04   0.676E-04 -.147E+01 0.114E+04   -.649E-08 0.975E-01 0.107E+01   -.110E-01 0.282E-01 0.432E+00
   -.182E+02 -.907E+01 -.113E+04   0.194E+02 0.990E+01 0.113E+04   -.128E+01 -.938E+00 -.127E+01   0.829E-01 0.370E-01 0.388E+00
   0.182E+02 -.907E+01 -.113E+04   -.194E+02 0.990E+01 0.113E+04   0.128E+01 -.938E+00 -.127E+01   -.102E+00 0.364E-01 0.387E+00
   -.128E+02 0.571E+01 -.115E+04   0.122E+02 -.530E+01 0.115E+04   0.588E+00 -.432E+00 0.968E+00   0.541E-01 -.194E-01 0.376E+00
   -.860E-04 0.187E+02 -.113E+04   0.144E-03 -.203E+02 0.113E+04   -.108E-06 0.162E+01 -.117E+01   0.783E-06 -.114E+00 0.420E+00
   0.128E+02 0.571E+01 -.115E+04   -.122E+02 -.530E+01 0.115E+04   -.588E+00 -.432E+00 0.968E+00   -.542E-01 -.207E-01 0.376E+00
   -.447E+00 0.589E+00 -.115E+04   0.563E+00 -.564E+00 0.114E+04   -.452E-01 0.228E-01 0.897E+00   -.650E-01 -.316E-01 0.427E+00
   0.447E+00 0.589E+00 -.115E+04   -.564E+00 -.564E+00 0.114E+04   0.452E-01 0.228E-01 0.897E+00   0.437E-01 -.325E-01 0.427E+00
   -.114E-03 -.147E+02 -.115E+04   0.243E-03 0.136E+02 0.115E+04   -.689E-07 0.103E+01 0.101E+01   0.931E-03 0.474E-01 0.381E+00
   -.410E-04 0.773E+01 -.359E+04   0.323E-04 -.769E+01 0.358E+04   0.579E-08 -.869E-01 0.203E+01   -.163E-03 0.122E-02 0.323E+00
   0.596E+01 0.315E+02 -.356E+04   -.595E+01 -.326E+02 0.356E+04   -.198E+00 0.818E+00 0.264E+01   0.161E-01 0.898E-04 0.277E+00
   -.596E+01 0.315E+02 -.356E+04   0.595E+01 -.326E+02 0.356E+04   0.198E+00 0.818E+00 0.264E+01   -.152E-01 0.160E-02 0.276E+00
   0.368E+02 -.328E+01 -.354E+04   -.386E+02 0.356E+01 0.354E+04   0.110E+01 -.279E+00 0.356E+01   0.118E+00 0.231E-01 0.272E+00
   -.368E+02 -.328E+01 -.354E+04   0.386E+02 0.356E+01 0.354E+04   -.110E+01 -.279E+00 0.356E+01   -.119E+00 0.240E-01 0.271E+00
   0.895E+01 -.270E+02 -.356E+04   -.927E+01 0.280E+02 0.356E+04   0.165E+00 -.598E+00 0.252E+01   -.189E-01 -.648E-01 0.220E+00
   -.895E+01 -.270E+02 -.356E+04   0.927E+01 0.280E+02 0.356E+04   -.165E+00 -.598E+00 0.252E+01   0.217E-01 -.657E-01 0.220E+00
   -.162E-03 -.702E+01 -.359E+04   0.259E-03 0.674E+01 0.359E+04   -.187E-07 0.281E+00 0.243E+01   -.127E-01 0.203E-01 0.412E+00
   -.405E-04 -.240E+01 -.232E+04   0.102E-03 0.237E+01 0.231E+04   -.225E-07 0.339E+00 0.336E+01   0.133E-02 0.228E-01 0.115E+00
   0.205E+03 -.429E+00 -.234E+04   -.239E+03 0.381E+00 0.236E+04   0.347E+02 0.305E-01 -.184E+02   -.348E-01 0.122E-01 0.134E-01
   -.205E+03 -.429E+00 -.234E+04   0.239E+03 0.381E+00 0.236E+04   -.347E+02 0.305E-01 -.184E+02   0.351E-01 0.123E-01 0.129E-01
   0.999E-04 -.499E+00 0.296E+02   -.284E-13 -.537E-13 0.864E-11   -.395E-07 0.593E+00 -.348E+02   -.255E-01 -.291E-01 0.509E+01

 POSITION                                       TOTAL-FORCE (eV/Angst)
      0.00000      0.00000      5.37156         0.000000     -0.006742     -0.000729
      2.56560      0.00000      5.37156         0.008417      0.019150      0.073723
      5.13119      0.00000      5.37156        -0.008417      0.019150      0.073723
      1.28280      2.22187      5.37156         0.005051     -0.008262      0.074443
      3.84839      2.22187      5.37156        -0.000000      0.006657      0.045010
      6.41399      2.22187      5.37156        -0.005051     -0.008262      0.074443
      2.56560      4.44374      5.37156         0.030013     -0.013434      0.064952
      5.13119      4.44374      5.37156        -0.030013     -0.013434      0.064952
      7.69679      4.44374      5.37156         0.000000     -0.005305      0.020976
      1.28280      0.74062      7.46636        -0.012908     -0.002838     -0.066174
      3.84839      0.74062      7.46636         0.000000     -0.082853     -0.129980
      6.41399      0.74062      7.46636         0.012908     -0.002838     -0.066174
      2.56560      2.96249      7.46636        -0.059079      0.027567     -0.096983
      5.13119      2.96249      7.46636         0.059079      0.027567     -0.096983
      7.69679      2.96249      7.46636         0.000000     -0.021482      0.011366
      3.84839      5.18437      7.46636        -0.000000      0.005651     -0.038291
      6.41399      5.18437      7.46636        -0.012267      0.016447      0.019985
      8.97958      5.18437      7.46636         0.012267      0.016447      0.019985
      7.69679      1.48657      9.56400         0.000000     -0.044400      0.024465
      2.55408      1.47460      9.52990        -0.008376     -0.068858     -0.160092
      5.14271      1.47460      9.52990         0.008376     -0.068858     -0.160092
      8.97350      3.70663      9.56526         0.077337     -0.046581      0.030762
      3.84839      3.71642      9.52990         0.000000     -0.090862     -0.047555
      6.42007      3.70663      9.56526        -0.077337     -0.046581      0.030762
     10.25777      5.92233      9.56400         0.016502      0.014348      0.012246
      5.13580      5.92233      9.56400        -0.016502      0.014348      0.012246
      7.69679      5.91797      9.56526        -0.000000      0.054833      0.001296
      0.00000      0.00000     11.64184         0.000000     -0.043611     -0.019258
      2.56182      0.00242     11.67254        -0.164391     -0.333265     -0.215736
      5.13496      0.00242     11.67254         0.164391     -0.333265     -0.215736
      1.28301      2.21740     11.67254        -0.547673      0.020288     -0.365507
      6.41378      2.21740     11.67254         0.547673      0.020288     -0.365507
      2.56958      4.44580     11.67254        -0.171561      0.319372     -0.181340
      5.12721      4.44580     11.67254         0.171561      0.319372     -0.181340
      7.69679      4.44374     11.64035        -0.000000      0.022290      0.034227
      3.84839      2.22187     11.57579        -0.000000      0.331621      1.738652
      3.14054      2.20537     13.51129        -0.004099     -0.006833     -0.010368
      4.55624      2.20537     13.51129         0.004099     -0.006833     -0.010368
    total drift:                               -0.025425      0.065542     -0.083973

  FREE ENERGIE OF THE ION-ELECTRON SYSTEM (eV)
  free  energy   TOTEN  =      -142.40350338 eV

  energy  without entropy=     -142.40350338  energy(sigma->0) =     -142.40350338

 stress matrix after NEB project (eV)
     -2.81400      0.00000     -0.00000
      0.00000     -4.27722      0.38540
     -0.00000      0.38540      0.02219
  FORCES: max atom, RMS     0.013077    0.003000
  FORCE total and by dimension    0.018493    0.010368
  Stress total and by dimension    5.148862    4.277223
|           W    W    AA    RRRRR   N    N  II  N    N   GGGG   !!!           |
|           W    W   A  A   R    R  NN   N  II  NN   N  G    G  !!!           |
|           W    W  A    A  R    R  N N  N  II  N N  N  G       !!!           |
|           W WW W  AAAAAA  RRRRR   N  N N  II  N  N N  G  GGG   !            |
|           WW  WW  A    A  R   R   N   NN  II  N   NN  G    G                |
|           W    W  A    A  R    R  N    N  II  N    N   GGGG   !!!           |
|     Tetrahedron method does not include variations of the Fermi             |
|     occupations, so forces and stress will be inaccurate. We suggest        |
|     using a different smearing scheme ISMEAR = 1 or 2 for metals in         |
|     relaxations.                                                            |

 total charge

# of ion       s       p       d       tot
    1        0.449   0.283   9.189   9.921
    2        0.449   0.284   9.188   9.921
    3        0.449   0.284   9.188   9.921
    4        0.449   0.285   9.186   9.920
    5        0.448   0.287   9.182   9.917
    6        0.449   0.285   9.186   9.920
    7        0.450   0.285   9.186   9.921
    8        0.450   0.285   9.186   9.921
    9        0.447   0.283   9.189   9.920
   10        0.444   0.372   9.176   9.991
   11        0.443   0.367   9.185   9.994
   12        0.444   0.372   9.176   9.991
   13        0.443   0.366   9.185   9.994
   14        0.443   0.366   9.185   9.994
   15        0.438   0.369   9.180   9.986
   16        0.443   0.372   9.176   9.991
   17        0.437   0.368   9.180   9.986
   18        0.437   0.368   9.180   9.986
   19        0.439   0.365   9.186   9.990
   20        0.462   0.401   9.163  10.026
   21        0.462   0.401   9.163  10.026
   22        0.430   0.371   9.183   9.984
   23        0.457   0.412   9.154  10.023
   24        0.430   0.371   9.183   9.984
   25        0.440   0.368   9.182   9.990
   26        0.440   0.368   9.182   9.990
   27        0.431   0.367   9.187   9.985
   28        0.453   0.286   9.190   9.929
   29        0.450   0.304   9.185   9.939
   30        0.450   0.304   9.185   9.939
   31        0.444   0.310   9.186   9.940
   32        0.444   0.310   9.186   9.940
   33        0.449   0.304   9.185   9.939
   34        0.449   0.304   9.185   9.939
   35        0.445   0.289   9.190   9.924
   36        0.633   0.613   6.036   7.282
   37        1.608   3.246   0.000   4.854
   38        1.608   3.246   0.000   4.854
tot         19.434  18.819 327.414 365.667

 BZINTS: Fermi energy:   -0.483450;  405.000000 electrons
         Band energy:-0.142121E+04;  BLOECHL correction:   -0.042881