 vasp.6.2.0 18Jan21 (build Jun 12 2021 23:27:24) complex

 executed on             LinuxIFC date 2022.05.27  05:08:29

 INCAR:
   ISMEAR = -5
   SIGMA = 0.1
   ISPIN = 1
   EDIFF = 1.d-5
   EDIFFG = -0.01
   NSW = 0
   NELM = 150
   ENCUT = 500
   ISIF = 2
   IBRION = 2
   LREAL = Auto
   ALGO = Fast
   ICHARG = 11
   LORBIT = 10
   LCHARG = .F.
   LWAVE = .F.

 POTCAR:    PAW_PBE Au 04Oct2007
 POTCAR:    PAW_PBE Zr_sv 04Jan2005
 POTCAR:    PAW_PBE C 08Apr2002
 POTCAR:    PAW_PBE O 08Apr2002
|           W    W    AA    RRRRR   N    N  II  N    N   GGGG   !!!           |
|           W    W   A  A   R    R  NN   N  II  NN   N  G    G  !!!           |
|           W    W  A    A  R    R  N N  N  II  N N  N  G       !!!           |
|           W WW W  AAAAAA  RRRRR   N  N N  II  N  N N  G  GGG   !            |
|           WW  WW  A    A  R   R   N   NN  II  N   NN  G    G                |
|           W    W  A    A  R    R  N    N  II  N    N   GGGG   !!!           |
|     For optimal performance we recommend to set                             |
|       NCORE = 2 up to number-of-cores-per-socket                            |
|     This setting can greatly improve the performance of VASP for DFT.       |
|     The default, NCORE=1 might be grossly inefficient on modern             |
|     multi-core architectures or massively parallel machines. Do your        |
|     Unfortunately you need to use the default for GW and RPA                |
|     calculations (for HF NCORE is supported but not extensively tested      |
|     yet).                                                                   |

 POTCAR:    PAW_PBE Au 04Oct2007
   VRHFIN =Au: s1d10

   TITEL  = PAW_PBE Au 04Oct2007
   POMASS =  196.966; ZVAL   =   11.000    mass and valenz
   ENMAX  =  229.943; ENMIN  =  172.457 eV

 POTCAR:    PAW_PBE Zr_sv 04Jan2005
   VRHFIN =Zr: 4s4p5s4d

   TITEL  = PAW_PBE Zr_sv 04Jan2005
   POMASS =   91.224; ZVAL   =   12.000    mass and valenz
   ENMAX  =  229.898; ENMIN  =  172.424 eV

 POTCAR:    PAW_PBE C 08Apr2002
   VRHFIN =C: s2p2

   TITEL  = PAW_PBE C 08Apr2002
   POMASS =   12.011; ZVAL   =    4.000    mass and valenz
   ENMAX  =  400.000; ENMIN  =  300.000 eV

 POTCAR:    PAW_PBE O 08Apr2002
   VRHFIN =O: s2p4

   TITEL  = PAW_PBE O 08Apr2002
   POMASS =   16.000; ZVAL   =    6.000    mass and valenz
   ENMAX  =  400.000; ENMIN  =  300.000 eV

 Optimization of the real space projectors (new method)

 maximal supplied QI-value         = 15.12
 optimisation between [QCUT,QGAM] = [ 11.34, 22.83] = [ 36.00,145.93] Ry
 Optimized for a Real-space Cutoff    1.39 Angstroem

   l    n(q)    QCUT    max X(q) W(low)/X(q) W(high)/X(q)  e(spline)
   2      9    11.338    60.898    0.39E-03    0.42E-03    0.21E-06
   2      9    11.338    58.894    0.40E-03    0.42E-03    0.22E-06
   0      9    11.338   109.617    0.13E-03    0.20E-04    0.13E-06
   0      9    11.338    75.026    0.13E-03    0.20E-04    0.13E-06
   1      9    11.338    16.344    0.33E-04    0.24E-03    0.18E-06
   1      9    11.338    10.160    0.26E-04    0.19E-03    0.15E-06
 Optimization of the real space projectors (new method)

[...]

   l    n(q)    QCUT    max X(q) W(low)/X(q) W(high)/X(q)  e(spline)
   0      7    11.310   115.676    0.43E-03    0.13E-02    0.19E-06
   0      7    11.310    87.132    0.43E-03    0.13E-02    0.18E-06
   1      6    11.310     4.429    0.42E-03    0.74E-03    0.11E-06
   1      6    11.310     2.733    0.34E-03    0.55E-03    0.92E-07
 Optimization of the real space projectors (new method)

 maximal supplied QI-value         = 24.76
 optimisation between [QCUT,QGAM] = [ 11.39, 22.77] = [ 36.31,145.25] Ry
 Optimized for a Real-space Cutoff    1.00 Angstroem

   l    n(q)    QCUT    max X(q) W(low)/X(q) W(high)/X(q)  e(spline)
   0      7    11.387    20.381    0.39E-03    0.13E-02    0.15E-06
   0      7    11.387    15.268    0.42E-03    0.14E-02    0.17E-06
   1      6    11.387     5.964    0.41E-03    0.11E-02    0.17E-06
   1      6    11.387     5.382    0.39E-03    0.87E-03    0.15E-06
  PAW_PBE Au 04Oct2007                  :
  PAW_PBE Zr_sv 04Jan2005               :
  PAW_PBE C 08Apr2002                   :
  PAW_PBE O 08Apr2002                   :

 POSCAR: Au-Zr-CO
  positions in direct lattice
  velocities in cartesian coordinates
 exchange correlation table for  LEXCH =        8
   RHO(1)=    0.500       N(1)  =     2000
   RHO(2)=  100.500       N(2)  =     4000

 VTST: version 3.2, (02/03/18)

 CHAIN: initializing optimizer

 OPT: Using VASP Conjugate-Gradient optimizer
 CHAIN: Read ICHAIN            0

 POSCAR: Au-Zr-CO
  positions in direct lattice
  velocities in cartesian coordinates

 ion  position               nearest neighbor table
   1  0.000  0.000  0.238-  16 2.94  12 2.94   6 2.94   8 2.94   7 2.94   3 2.94  10 2.94   4 2.94
                             2 2.94
   2  0.333  0.000  0.238-   9 2.94  11 2.94  17 2.94  10 2.94   8 2.94   4 2.94   5 2.94   1 2.94
                             3 2.94
   3  0.667  0.000  0.238-   7 2.94  18 2.94  12 2.94   1 2.94  11 2.94   5 2.94   6 2.94   9 2.94
                             2 2.94
   4  0.000  0.333  0.238-  10 2.94   6 2.94   5 2.94  13 2.94   2 2.94  15 2.94   9 2.94   1 2.94
                             7 2.94
   5  0.333  0.333  0.238-  13 2.94   7 2.94  11 2.94   4 2.94   2 2.94  14 2.94   3 2.94   8 2.94
                             6 2.94
   6  0.667  0.333  0.238-  15 2.94  14 2.94   1 2.94  12 2.94   4 2.94   9 2.94   8 2.94   3 2.94
                             5 2.94
   7  0.000  0.667  0.238-  18 2.94   3 2.94  16 2.94   5 2.94   1 2.94  13 2.94   8 2.94   4 2.94
                             9 2.94
   8  0.333  0.667  0.238-   9 2.94  17 2.94   1 2.94   2 2.94  14 2.94  16 2.94   6 2.94   7 2.94
                             5 2.94
   9  0.667  0.667  0.238-   2 2.94   8 2.94  17 2.94   6 2.94  15 2.94   4 2.94   3 2.94  18 2.94
                             7 2.94
  10  0.111  0.111  0.346-  20 2.93  26 2.93  19 2.93  11 2.94  17 2.94   2 2.94   4 2.94   1 2.94
                            12 2.94  16 2.94  13 2.94  15 2.94
  11  0.444  0.111  0.346-  20 2.92  21 2.92  27 2.94  13 2.94   2 2.94  10 2.94  17 2.94   5 2.94
                             3 2.94  18 2.94  14 2.94  12 2.94
  12  0.778  0.111  0.346-  21 2.93  25 2.93  19 2.93  16 2.94  18 2.94   1 2.94  14 2.94  15 2.94
                             3 2.94   6 2.94  10 2.94  11 2.94
  13  0.111  0.444  0.346-  23 2.92  20 2.92  22 2.94   5 2.94  18 2.94  11 2.94   7 2.94   4 2.94
                            16 2.94  10 2.94  14 2.94  15 2.94
  14  0.444  0.444  0.346-  21 2.92  23 2.92  24 2.94  15 2.94   6 2.94  12 2.94   8 2.94  17 2.94
                             5 2.94  16 2.94  13 2.94  11 2.94
  15  0.778  0.444  0.346-  24 2.93  22 2.93  19 2.93  14 2.94   6 2.94  17 2.94  12 2.94   9 2.94
                             4 2.94  10 2.94  13 2.94  18 2.94
  16  0.111  0.778  0.346-  23 2.93  25 2.93  26 2.93  18 2.94  12 2.94   7 2.94   1 2.94   8 2.94
                            13 2.94  10 2.94  14 2.94  17 2.94
  17  0.444  0.778  0.346-  27 2.93  24 2.93  26 2.93   9 2.94  15 2.94   2 2.94  10 2.94  11 2.94
                             8 2.94  14 2.94  16 2.94  18 2.94
  18  0.778  0.778  0.346-  22 2.93  27 2.93  25 2.93  16 2.94   7 2.94  13 2.94  12 2.94   3 2.94
                            11 2.94   9 2.94  15 2.94  17 2.94
  19  0.889  0.222  0.454-  10 2.93  12 2.93  15 2.93  26 2.94  25 2.94  24 2.94  22 2.94  21 2.95
                            20 2.95  28 2.96  32 3.04  31 3.04
  20  0.223  0.223  0.453-  36 2.86  23 2.92  21 2.92  11 2.92  13 2.92  10 2.93  27 2.94  22 2.94
                            26 2.95  19 2.95  29 3.00  31 3.00
  21  0.554  0.223  0.453-  36 2.86  20 2.92  23 2.92  14 2.92  11 2.92  12 2.93  27 2.94  24 2.94
                            25 2.95  19 2.95  30 3.00  32 3.00
  22  0.888  0.556  0.454-  24 2.92  27 2.92  18 2.93  15 2.93  13 2.94  25 2.94  19 2.94  23 2.94
                            20 2.94  35 2.96  33 3.01  31 3.01
  23  0.223  0.554  0.453-  36 2.86  20 2.92  21 2.92  13 2.92  14 2.92  16 2.93  22 2.94  24 2.94
                            25 2.95  26 2.95  33 3.00  34 3.00
  24  0.556  0.556  0.454-  27 2.92  22 2.92  15 2.93  17 2.93  14 2.94  26 2.94  19 2.94  21 2.94
                            23 2.94  35 2.96  32 3.01  34 3.01
  25  0.889  0.889  0.454-  16 2.93  12 2.93  18 2.93  19 2.94  26 2.94  22 2.94  27 2.94  23 2.95
                            21 2.95  28 2.96  33 3.04  30 3.04
  26  0.222  0.889  0.454-  10 2.93  16 2.93  17 2.93  19 2.94  25 2.94  27 2.94  24 2.94  20 2.95
                            23 2.95  28 2.96  29 3.04  34 3.04
  27  0.556  0.888  0.454-  24 2.92  22 2.92  17 2.93  18 2.93  11 2.94  26 2.94  25 2.94  20 2.94
                            21 2.94  35 2.96  29 3.01  30 3.01
  28  0.000  0.000  0.563-  25 2.96  19 2.96  26 2.96  34 2.97  32 2.97  33 2.97  30 2.97  31 2.97
                            29 2.97
  29  0.334  0.006  0.566-  30 2.88  31 2.89  36 2.89  35 2.96  28 2.97  20 3.00  27 3.01  26 3.04
                            34 3.04
  30  0.661  0.006  0.566-  29 2.88  32 2.89  36 2.89  35 2.96  28 2.97  21 3.00  27 3.01  25 3.04
                            33 3.04
  31  0.006  0.334  0.566-  33 2.88  29 2.89  36 2.89  35 2.96  28 2.97  20 3.00  22 3.01  19 3.04
                            32 3.04
  32  0.661  0.334  0.566-  34 2.88  30 2.89  36 2.89  35 2.96  28 2.97  21 3.00  24 3.01  19 3.04
                            31 3.04
  33  0.006  0.661  0.566-  31 2.88  34 2.89  36 2.89  35 2.96  28 2.97  23 3.00  22 3.01  25 3.04
                            30 3.04
  34  0.334  0.661  0.566-  32 2.88  33 2.89  36 2.89  35 2.96  28 2.97  23 3.00  24 3.01  26 3.04
                            29 3.04
  35  0.667  0.667  0.563-  24 2.96  27 2.96  22 2.96  29 2.96  34 2.96  32 2.96  31 2.96  30 2.96
                            33 2.96
  36  0.333  0.333  0.557-  37 2.29  20 2.86  23 2.86  21 2.86  33 2.89  31 2.89  29 2.89  30 2.89
                            34 2.89  32 2.89
  37  0.333  0.333  0.661-  38 1.15  36 2.29
  38  0.333  0.333  0.713-  37 1.15

  LATTYP: Found a hexagonal cell.
 ALAT       =     8.8135128021
 C/A-ratio  =     2.5184286595

  Lattice vectors:

 A1 = (  -4.4067569092,  -7.6327256898,   0.0000000000)
 A2 = (   8.8135128021,   0.0000000000,   0.0000000000)
 A3 = (   0.0000000000,   0.0000000000,  22.1962032318)

Analysis of symmetry for initial positions (statically):
 Subroutine PRICEL returns:
 Original cell was already a primitive cell.

 Routine SETGRP: Setting up the symmetry group for a
 hexagonal supercell.

 Subroutine GETGRP returns: Found  6 space group operations
 (whereof  6 operations were pure point group operations)
 out of a pool of 24 trial point group operations.

The static configuration has the point symmetry C_3v.

Analysis of symmetry for dynamics (positions and initial velocities):
 Subroutine PRICEL returns:
 Original cell was already a primitive cell.

[...]

The dynamic configuration has the point symmetry C_3v.

Analysis of constrained symmetry for selective dynamics:
 Subroutine PRICEL returns:
[...]
     33      -4.8226      2.00000
     34      -4.7862      2.00000
     35      -4.7805      2.00000
     36      -4.7282      2.00000
     37      -4.6923      2.00000
     38      -4.6268      2.00000
     39      -4.5884      2.00000
     40      -4.5636      2.00000
     41      -4.5325      2.00000
     42      -4.5220      2.00000
     43      -4.5021      2.00000
     44      -4.4822      2.00000
     45      -4.4447      2.00000
     46      -4.3086      2.00000
     47      -4.2861      2.00000
     48      -4.2348      2.00000
     49      -4.1888      2.00000
     50      -4.1704      2.00000
     51      -4.1352      2.00000
     52      -4.1170      2.00000
     53      -4.0810      2.00000
     54      -4.0644      2.00000
     55      -3.9727      2.00000
     56      -3.9513      2.00000
     57      -3.9273      2.00000
     58      -3.9037      2.00000
     59      -3.8960      2.00000
     60      -3.8885      2.00000
[...]
    238       5.6757      0.00000
    239       5.9426      0.00000
    240       5.9662      0.00000
    241       6.1968      0.00000
    242       6.2779      0.00000
    243       6.4892      0.00000
    244       6.5499      0.00000
    245       6.5879      0.00000
    246       6.6358      0.00000
    247       6.7539      0.00000
    248       6.8483      0.00000
    249       6.9428      0.00000
    250       6.9536      0.00000
    251       7.0342      0.00000
    252       7.1090      0.00000

 soft charge-density along one line, spin component           1
         0         1         2         3         4         5         6         7         8         9
 total charge-density along one line

------------------------ aborting loop because EDIFF is reached ----------------------------------------

 total charge

# of ion       s       p       d       tot
    1        0.550   0.236   8.768   9.554
    2        0.541   0.241   8.766   9.548
    3        0.541   0.241   8.766   9.548
    4        0.541   0.241   8.766   9.548
    5        0.549   0.242   8.759   9.550
    6        0.541   0.241   8.766   9.548
    7        0.541   0.241   8.766   9.548
    8        0.541   0.241   8.766   9.548
    9        0.544   0.239   8.768   9.551
   10        0.524   0.306   8.770   9.600
   11        0.522   0.305   8.779   9.607
   12        0.524   0.306   8.770   9.600
   13        0.522   0.305   8.779   9.607
   14        0.522   0.305   8.779   9.607
   15        0.517   0.308   8.773   9.597
   16        0.524   0.306   8.770   9.600
   17        0.517   0.308   8.773   9.597
   18        0.517   0.308   8.773   9.597
   19        0.522   0.297   8.768   9.587
   20        0.570   0.327   8.738   9.635
   21        0.570   0.327   8.738   9.635
   22        0.510   0.304   8.775   9.589
   23        0.570   0.327   8.738   9.635
   24        0.510   0.304   8.775   9.589
   25        0.522   0.297   8.768   9.587
   26        0.522   0.297   8.768   9.587
   27        0.510   0.304   8.775   9.589
   28        0.541   0.234   8.755   9.530
   29        0.597   0.247   8.731   9.574
   30        0.597   0.247   8.731   9.574
   31        0.597   0.247   8.731   9.574
   32        0.597   0.247   8.731   9.574
   33        0.597   0.247   8.731   9.574
   34        0.597   0.247   8.731   9.574
   35        0.540   0.234   8.757   9.531
   36        2.184   5.997   1.483   9.664
   37        0.992   1.515   0.000   2.507
   38        1.622   3.520   0.000   5.142
tot         23.839  20.682 308.082 352.603

  FORCE on cell =-STRESS in cart. coord.  units (eV):
  Direction    XX          YY          ZZ          XY          YZ          ZX
  Alpha Z  1052.30194  1052.30194  1052.30194
  Ewald  116638.19907116638.19953************    -0.00032    -0.00008    -0.00012
  Hartree125734.17885125734.17886************     0.00001    -0.00002    -0.00004
  E(xc)   -1822.97377 -1822.97379 -1829.04697     0.00002     0.00000     0.00000
  Local  ************************254463.00358     0.00205     0.00000    -0.00001
  n-local   -96.06967   -51.07948   -50.82958    21.81418    -1.56825     1.14478
  augment  2370.95790  2370.95949  2390.52068    -0.00138     0.00001     0.00002
  Kinetic  5756.70919  5762.24397  5799.40884     2.76197     0.35026    -0.01703
  Fock        0.00000     0.00000     0.00000     0.00000     0.00000     0.00000
  Total     -20.07778   -20.07778     3.70354    -0.00000     0.00000    -0.00000
  in kB     -21.54363   -21.54363     3.97393    -0.00000     0.00000    -0.00000

 VOLUME and BASIS-vectors are now :
  energy-cutoff  :      500.00
  volume of cell :     1493.16
      direct lattice vectors                 reciprocal lattice vectors
     8.813512802  0.000000000  0.000000000     0.113462137 -0.065507406  0.000000000
     4.406756909  7.632725690  0.000000000     0.000000000  0.131014796  0.000000000
     0.000000000  0.000000000 22.196203232     0.000000000  0.000000000  0.045052750

  length of vectors
     8.813512802  8.813512802 22.196203232     0.131014796  0.131014796  0.045052750

 FORCES acting on ions
    electron-ion (+dipol)            ewald-force                    non-local-force                 convergence-correction
   -.194E-04 -.160E-04 0.250E+04   0.519E-04 0.434E-04 -.250E+04   -.300E-17 -.193E-17 -.562E+00   -.146E-03 -.978E-04 -.899E-01
   0.449E+00 0.560E+00 0.250E+04   -.433E+00 -.585E+00 -.250E+04   0.274E-01 0.945E-01 -.377E+00   -.418E-01 -.720E-01 -.121E+00
   -.449E+00 0.560E+00 0.250E+04   0.433E+00 -.585E+00 -.250E+04   -.274E-01 0.945E-01 -.377E+00   0.420E-01 -.700E-01 -.121E+00
   0.709E+00 0.109E+00 0.250E+04   -.723E+00 -.821E-01 -.250E+04   0.956E-01 -.235E-01 -.377E+00   -.832E-01 -.227E-03 -.121E+00
   0.822E-05 -.237E-04 0.250E+04   0.951E-04 0.171E-05 -.250E+04   -.112E-17 -.313E-17 0.163E+00   0.427E-02 0.260E-02 -.764E-01
   -.710E+00 0.109E+00 0.250E+04   0.723E+00 -.822E-01 -.250E+04   -.956E-01 -.235E-01 -.377E+00   0.817E-01 0.787E-03 -.120E+00
   0.261E+00 -.669E+00 0.250E+04   -.290E+00 0.667E+00 -.250E+04   0.682E-01 -.710E-01 -.377E+00   -.396E-01 0.714E-01 -.121E+00
   -.261E+00 -.669E+00 0.250E+04   0.290E+00 0.667E+00 -.250E+04   -.682E-01 -.710E-01 -.377E+00   0.415E-01 0.703E-01 -.120E+00
   0.193E-04 -.418E-04 0.250E+04   0.166E-03 -.201E-04 -.250E+04   -.167E-17 0.286E-18 -.350E+00   -.466E-02 -.242E-02 -.125E+00
   0.392E+01 0.227E+01 0.878E+03   -.370E+01 -.214E+01 -.877E+03   -.231E+00 -.134E+00 -.559E+00   -.332E-01 -.193E-01 -.331E-01
   0.158E-04 0.660E+01 0.886E+03   0.147E-03 -.646E+01 -.885E+03   -.239E-08 -.359E-01 -.109E+00   0.345E-02 -.137E+00 -.207E-01
   -.392E+01 0.227E+01 0.878E+03   0.370E+01 -.214E+01 -.877E+03   0.231E+00 -.134E+00 -.559E+00   0.323E-01 -.179E-01 -.342E-01
   0.571E+01 -.330E+01 0.886E+03   -.559E+01 0.323E+01 -.885E+03   -.311E-01 0.179E-01 -.109E+00   -.116E+00 0.716E-01 -.207E-01
   -.571E+01 -.330E+01 0.886E+03   0.559E+01 0.323E+01 -.885E+03   0.311E-01 0.179E-01 -.109E+00   0.124E+00 0.714E-01 -.209E-01
   0.303E-04 0.546E+00 0.878E+03   0.236E-03 -.508E+00 -.877E+03   -.423E-09 -.636E-02 -.475E+00   -.220E-02 -.560E-01 -.539E-01
   -.215E-04 -.453E+01 0.878E+03   0.163E-03 0.427E+01 -.877E+03   0.178E-07 0.267E+00 -.559E+00   0.403E-03 0.368E-01 -.343E-01
   0.473E+00 -.273E+00 0.878E+03   -.440E+00 0.254E+00 -.877E+03   -.551E-02 0.318E-02 -.475E+00   -.494E-01 0.265E-01 -.538E-01
   -.473E+00 -.273E+00 0.878E+03   0.440E+00 0.254E+00 -.877E+03   0.551E-02 0.318E-02 -.475E+00   0.490E-01 0.281E-01 -.548E-01
   -.426E-04 -.919E+00 -.772E+03   0.521E-04 0.101E+01 0.772E+03   -.308E-08 -.463E-01 0.597E+00   0.348E-02 -.239E-01 -.629E-02
   0.399E+02 0.230E+02 -.717E+03   -.387E+02 -.224E+02 0.718E+03   -.117E+01 -.674E+00 -.124E+01   -.448E-01 -.260E-01 0.120E+00
   -.399E+02 0.230E+02 -.717E+03   0.387E+02 -.224E+02 0.718E+03   0.117E+01 -.674E+00 -.124E+01   0.443E-01 -.233E-01 0.120E+00
   0.111E+02 -.639E+01 -.763E+03   -.113E+02 0.653E+01 0.762E+03   0.253E+00 -.146E+00 0.601E+00   0.512E-03 -.633E-02 0.567E-01
   -.751E-05 -.461E+02 -.717E+03   0.144E-03 0.447E+02 0.718E+03   0.898E-07 0.135E+01 -.124E+01   0.173E-02 0.500E-01 0.120E+00
   -.111E+02 -.639E+01 -.763E+03   0.113E+02 0.653E+01 0.762E+03   -.253E+00 -.146E+00 0.601E+00   -.768E-02 -.438E-02 0.567E-01
   0.795E+00 0.459E+00 -.772E+03   -.873E+00 -.504E+00 0.772E+03   0.401E-01 0.232E-01 0.597E+00   0.273E-01 0.157E-01 -.664E-02
   -.796E+00 0.459E+00 -.772E+03   0.872E+00 -.504E+00 0.772E+03   -.401E-01 0.232E-01 0.597E+00   -.186E-01 0.150E-01 -.628E-02
   0.126E-04 0.128E+02 -.763E+03   0.194E-03 -.131E+02 0.762E+03   0.194E-07 0.292E+00 0.601E+00   -.577E-02 0.357E-02 0.567E-01
   -.166E-04 -.143E-04 -.237E+04   0.304E-04 0.365E-04 0.237E+04   -.102E-17 -.139E-17 0.529E+00   0.383E-03 0.201E-03 0.779E-01
   0.503E+02 0.836E+02 -.238E+04   -.493E+02 -.819E+02 0.238E+04   -.114E+01 -.185E+01 -.527E+00   0.723E-01 0.471E-01 0.435E-01
   -.503E+02 0.836E+02 -.238E+04   0.493E+02 -.819E+02 0.238E+04   0.114E+01 -.185E+01 -.527E+00   -.726E-01 0.494E-01 0.449E-01
   0.975E+02 0.176E+01 -.238E+04   -.955E+02 -.174E+01 0.238E+04   -.217E+01 -.625E-01 -.527E+00   0.771E-01 0.390E-01 0.435E-01
   -.975E+02 0.176E+01 -.238E+04   0.955E+02 -.174E+01 0.238E+04   0.217E+01 -.625E-01 -.527E+00   -.786E-01 0.404E-01 0.440E-01
   0.472E+02 -.854E+02 -.238E+04   -.463E+02 0.836E+02 0.238E+04   -.103E+01 0.191E+01 -.527E+00   0.655E-02 -.876E-01 0.449E-01
   -.472E+02 -.854E+02 -.238E+04   0.463E+02 0.836E+02 0.238E+04   0.103E+01 0.191E+01 -.527E+00   -.425E-02 -.883E-01 0.440E-01
   0.303E-04 -.252E-04 -.238E+04   0.142E-03 -.517E-04 0.238E+04   0.104E-17 0.160E-17 0.606E+00   -.496E-02 -.257E-02 0.104E+00
   0.231E-03 -.133E-03 -.238E+04   0.120E-03 0.103E-04 0.238E+04   -.341E-18 0.285E-18 0.633E-02   0.554E-02 0.339E-02 0.138E+00
   0.128E-05 -.874E-04 -.796E+03   0.818E-05 0.594E-06 0.774E+03   -.887E-18 -.562E-18 0.211E+02   0.117E-02 0.714E-03 -.227E-01
   0.244E-03 -.939E-04 -.141E+04   0.285E-05 0.340E-06 0.147E+04   0.664E-18 0.423E-19 -.607E+02   0.372E-02 0.228E-02 -.230E-01
   -.268E-03 -.105E-02 0.489E+02   -.616E-13 0.483E-13 -.682E-12   0.445E-15 0.668E-15 -.482E+02   0.148E-01 0.943E-02 -.293E+00

 POSITION                                       TOTAL-FORCE (eV/Angst)
      0.00000      0.00000      5.28038         0.000000      0.000000     -0.151991
      2.93784      0.00000      5.28038         0.002487     -0.001368     -0.062336
      5.87568      0.00000      5.28038        -0.002487     -0.001368     -0.062336
      1.46892      2.54424      5.28038         0.000059      0.002838     -0.062336
      4.40676      2.54424      5.28038         0.000000      0.000000     -0.069011
      7.34459      2.54424      5.28038        -0.000059      0.002838     -0.062336
      2.93784      5.08848      5.28038        -0.002429     -0.001470     -0.062336
      5.87568      5.08848      5.28038         0.002429     -0.001470     -0.062336
      8.81351      5.08848      5.28038         0.000000      0.000000     -0.068884
      1.46892      0.84808      7.67911        -0.039075     -0.022560      0.041583
      4.40676      0.84808      7.67911        -0.000000     -0.039754      0.010476
      7.34459      0.84808      7.67911         0.039075     -0.022560      0.041583
      2.93784      3.39232      7.67911        -0.034428      0.019877      0.010476
      5.87568      3.39232      7.67911         0.034428      0.019877      0.010476
      8.81351      3.39232      7.67911        -0.000000     -0.024555      0.120847
      4.40676      5.93656      7.67911         0.000000      0.045120      0.041583
      7.34459      5.93656      7.67911        -0.021265      0.012277      0.120847
     10.28243      5.93656      7.67911         0.021265      0.012277      0.120847
      8.81351      1.69571     10.07248         0.000000      0.016235      0.039464
      2.94528      1.70046     10.06340        -0.072408     -0.041805     -0.135166
      5.86824      1.70046     10.06340         0.072408     -0.041805     -0.135166
     10.27570      4.24429     10.07162         0.016794     -0.009696      0.031438
      4.40676      4.23182     10.06340         0.000000      0.083610     -0.135166
      7.35132      4.24429     10.07162        -0.016794     -0.009696      0.031438
     11.75174      6.78487     10.07248        -0.014060     -0.008118      0.039464
      5.87529      6.78487     10.07248         0.014060     -0.008118      0.039464
      8.81351      6.77688     10.07162         0.000000      0.019392      0.031438
      0.00000      0.00000     12.49858         0.000000      0.000000     -0.000951
      2.96552      0.04535     12.55994        -0.037732     -0.072361      0.002945
      5.84799      0.04535     12.55994         0.037732     -0.072361      0.002945
      1.52204      2.54555     12.55994        -0.081533      0.003504      0.002945
      7.29148      2.54555     12.55994         0.081533      0.003504      0.002945
      2.96327      5.04183     12.55994        -0.043801      0.068857      0.002945
      5.85025      5.04183     12.55994         0.043801      0.068857      0.002945
      8.81351      5.08848     12.50663         0.000000      0.000000      0.015131
      4.40676      2.54424     12.37417         0.000000      0.000000      0.322614
      4.40676      2.54424     14.66659         0.000000      0.000000     -0.028953
      4.40676      2.54424     15.81948         0.000000      0.000000      0.012466
    total drift:                                0.014567      0.008379      0.443968

  FREE ENERGIE OF THE ION-ELECTRON SYSTEM (eV)
  free  energy   TOTEN  =      -132.35873644 eV

  energy  without entropy=     -132.35873644  energy(sigma->0) =     -132.35873644

 stress matrix after NEB project (eV)
    -20.07778     -0.00000     -0.00000
     -0.00000    -20.07778      0.00000
      0.00000      0.00000      3.70354
  FORCES: max atom, RMS     0.028953    0.005114
  FORCE total and by dimension    0.031523    0.028953
  Stress total and by dimension   28.634780   20.077780
|           W    W    AA    RRRRR   N    N  II  N    N   GGGG   !!!           |
|           W    W   A  A   R    R  NN   N  II  NN   N  G    G  !!!           |
|           W    W  A    A  R    R  N N  N  II  N N  N  G       !!!           |
|           W WW W  AAAAAA  RRRRR   N  N N  II  N  N N  G  GGG   !            |
|           WW  WW  A    A  R   R   N   NN  II  N   NN  G    G                |
|           W    W  A    A  R    R  N    N  II  N    N   GGGG   !!!           |
|     Tetrahedron method does not include variations of the Fermi             |
|     occupations, so forces and stress will be inaccurate. We suggest        |
|     using a different smearing scheme ISMEAR = 1 or 2 for metals in         |
|     relaxations.                                                            |

 total charge

# of ion       s       p       d       tot
    1        0.550   0.236   8.768   9.554
    2        0.541   0.241   8.766   9.548
    3        0.541   0.241   8.766   9.548
    4        0.541   0.241   8.766   9.548
    5        0.549   0.242   8.759   9.550
    6        0.541   0.241   8.766   9.548
    7        0.541   0.241   8.766   9.548
    8        0.541   0.241   8.766   9.548
    9        0.544   0.239   8.768   9.551
   10        0.524   0.306   8.770   9.600
   11        0.522   0.305   8.779   9.607
   12        0.524   0.306   8.770   9.600
   13        0.522   0.305   8.779   9.607
   14        0.522   0.305   8.779   9.607
   15        0.517   0.308   8.773   9.597
   16        0.524   0.306   8.770   9.600
   17        0.517   0.308   8.773   9.597
   18        0.517   0.308   8.773   9.597
   19        0.522   0.297   8.768   9.587
   20        0.570   0.327   8.738   9.635
   21        0.570   0.327   8.738   9.635
   22        0.510   0.304   8.775   9.589
   23        0.570   0.327   8.738   9.635
   24        0.510   0.304   8.775   9.589
   25        0.522   0.297   8.768   9.587
   26        0.522   0.297   8.768   9.587
   27        0.510   0.304   8.775   9.589
   28        0.541   0.234   8.755   9.530
   29        0.597   0.247   8.731   9.574
   30        0.597   0.247   8.731   9.574
   31        0.597   0.247   8.731   9.574
   32        0.597   0.247   8.731   9.574
   33        0.597   0.247   8.731   9.574
   34        0.597   0.247   8.731   9.574
   35        0.540   0.234   8.757   9.531
   36        2.184   5.997   1.483   9.664
   37        0.992   1.515   0.000   2.507
   38        1.622   3.520   0.000   5.142
tot         23.839  20.682 308.082 352.603

 BZINTS: Fermi energy:    0.914692;  407.000000 electrons
         Band energy:-0.146091E+04;  BLOECHL correction:   -0.035728