 vasp.6.2.0 18Jan21 (build Jun 12 2021 23:27:24) complex

 executed on             LinuxIFC date 2022.05.26  19:24:14

 INCAR:
   ISMEAR = -5
   SIGMA = 0.1
   ISPIN = 1
   EDIFF = 1.d-5
   EDIFFG = -0.01
   NSW = 0
   NELM = 150
   ENCUT = 500
   ISIF = 2
   IBRION = 2
   LREAL = Auto
   ALGO = Fast
   ICHARG = 11
   LORBIT = 10
   LCHARG = .F.
   LWAVE = .F.

 POTCAR:    PAW_PBE Au 04Oct2007
 POTCAR:    PAW_PBE Mo 08Apr2002
 POTCAR:    PAW_PBE O 08Apr2002
|           W    W    AA    RRRRR   N    N  II  N    N   GGGG   !!!           |
|           W    W   A  A   R    R  NN   N  II  NN   N  G    G  !!!           |
|           W    W  A    A  R    R  N N  N  II  N N  N  G       !!!           |
|           W WW W  AAAAAA  RRRRR   N  N N  II  N  N N  G  GGG   !            |
|           WW  WW  A    A  R   R   N   NN  II  N   NN  G    G                |
|           W    W  A    A  R    R  N    N  II  N    N   GGGG   !!!           |
|     For optimal performance we recommend to set                             |
|       NCORE = 2 up to number-of-cores-per-socket                            |
|     This setting can greatly improve the performance of VASP for DFT.       |
|     The default, NCORE=1 might be grossly inefficient on modern             |
|     multi-core architectures or massively parallel machines. Do your        |
|     Unfortunately you need to use the default for GW and RPA                |
|     calculations (for HF NCORE is supported but not extensively tested      |
|     yet).                                                                   |

 POTCAR:    PAW_PBE Au 04Oct2007
   VRHFIN =Au: s1d10

   TITEL  = PAW_PBE Au 04Oct2007
   POMASS =  196.966; ZVAL   =   11.000    mass and valenz
   ENMAX  =  229.943; ENMIN  =  172.457 eV

 POTCAR:    PAW_PBE Mo 08Apr2002
   VRHFIN =Mo: 4p5s4d

   TITEL  = PAW_PBE Mo 08Apr2002
   POMASS =   95.940; ZVAL   =    6.000    mass and valenz
   ENMAX  =  224.584; ENMIN  =  168.438 eV

 POTCAR:    PAW_PBE O 08Apr2002
   VRHFIN =O: s2p4

   TITEL  = PAW_PBE O 08Apr2002
   POMASS =   16.000; ZVAL   =    6.000    mass and valenz
   ENMAX  =  400.000; ENMIN  =  300.000 eV

 Optimization of the real space projectors (new method)

 maximal supplied QI-value         = 15.12
 optimisation between [QCUT,QGAM] = [ 11.34, 22.83] = [ 36.00,145.93] Ry
 Optimized for a Real-space Cutoff    1.39 Angstroem

   l    n(q)    QCUT    max X(q) W(low)/X(q) W(high)/X(q)  e(spline)
   2      9    11.338    60.898    0.39E-03    0.42E-03    0.21E-06
   2      9    11.338    58.894    0.40E-03    0.42E-03    0.22E-06
   0      9    11.338   109.617    0.13E-03    0.20E-04    0.13E-06
   0      9    11.338    75.026    0.13E-03    0.20E-04    0.13E-06
   1      9    11.338    16.344    0.33E-04    0.24E-03    0.18E-06
   1      9    11.338    10.160    0.26E-04    0.19E-03    0.15E-06
 Optimization of the real space projectors (new method)

[...]

   l    n(q)    QCUT    max X(q) W(low)/X(q) W(high)/X(q)  e(spline)
   2     10    11.429    80.908    0.27E-03    0.78E-03    0.13E-05
   2     10    11.429    79.000    0.27E-03    0.78E-03    0.13E-05
   0     11    11.429    52.066    0.33E-04    0.97E-04    0.72E-06
   0     11    11.429    24.514    0.27E-04    0.80E-04    0.60E-06
   1     10    11.429    16.033    0.31E-04    0.17E-03    0.36E-06
   1     10    11.429    11.179    0.22E-04    0.13E-03    0.29E-06
 Optimization of the real space projectors (new method)

 maximal supplied QI-value         = 24.76
 optimisation between [QCUT,QGAM] = [ 11.39, 22.77] = [ 36.31,145.25] Ry
 Optimized for a Real-space Cutoff    1.00 Angstroem

   l    n(q)    QCUT    max X(q) W(low)/X(q) W(high)/X(q)  e(spline)
   0      7    11.387    20.381    0.39E-03    0.13E-02    0.15E-06
   0      7    11.387    15.268    0.42E-03    0.14E-02    0.17E-06
   1      6    11.387     5.964    0.41E-03    0.11E-02    0.17E-06
   1      6    11.387     5.382    0.39E-03    0.87E-03    0.15E-06
  PAW_PBE Au 04Oct2007                  :
  PAW_PBE Mo 08Apr2002                  :
  PAW_PBE O 08Apr2002                   :

 POSCAR: Au-Mo-O
  positions in direct lattice
  velocities in cartesian coordinates
 exchange correlation table for  LEXCH =        8
   RHO(1)=    0.500       N(1)  =     2000
   RHO(2)=  100.500       N(2)  =     4000

 VTST: version 3.2, (02/03/18)

 CHAIN: initializing optimizer

 OPT: Using VASP Conjugate-Gradient optimizer
 CHAIN: Read ICHAIN            0

 POSCAR: Au-Mo-O
  positions in direct lattice
  velocities in cartesian coordinates

 ion  position               nearest neighbor table
   1  0.000  0.000  0.238-  16 2.94  12 2.94   6 2.94   8 2.94   7 2.94   3 2.94  10 2.94   4 2.94
                             2 2.94
   2  0.333  0.000  0.238-   9 2.94  11 2.94  17 2.94  10 2.94   8 2.94   4 2.94   5 2.94   1 2.94
                             3 2.94
   3  0.667  0.000  0.238-   7 2.94  18 2.94  12 2.94   1 2.94  11 2.94   5 2.94   6 2.94   9 2.94
                             2 2.94
   4  0.000  0.333  0.238-  10 2.94   6 2.94   5 2.94  13 2.94   2 2.94  15 2.94   9 2.94   1 2.94
                             7 2.94
   5  0.333  0.333  0.238-  13 2.94   7 2.94  11 2.94   4 2.94   2 2.94  14 2.94   3 2.94   8 2.94
                             6 2.94
   6  0.667  0.333  0.238-  15 2.94  14 2.94   1 2.94  12 2.94   4 2.94   9 2.94   8 2.94   3 2.94
                             5 2.94
   7  0.000  0.667  0.238-  18 2.94   3 2.94  16 2.94   5 2.94   1 2.94  13 2.94   8 2.94   4 2.94
                             9 2.94
   8  0.333  0.667  0.238-   9 2.94  17 2.94   1 2.94   2 2.94  14 2.94  16 2.94   6 2.94   7 2.94
                             5 2.94
   9  0.667  0.667  0.238-   2 2.94   8 2.94  17 2.94   6 2.94  15 2.94   4 2.94   3 2.94  18 2.94
                             7 2.94
  10  0.111  0.111  0.346-  20 2.91  11 2.94  17 2.94   2 2.94   4 2.94   1 2.94  12 2.94  16 2.94
                            13 2.94  15 2.94  26 2.95  19 2.95
  11  0.444  0.111  0.346-  20 2.91  21 2.91  13 2.94   2 2.94  10 2.94  17 2.94   5 2.94   3 2.94
                            18 2.94  14 2.94  12 2.94  27 2.94
  12  0.778  0.111  0.346-  21 2.91  16 2.94  18 2.94   1 2.94  14 2.94  15 2.94   3 2.94   6 2.94
                            10 2.94  11 2.94  25 2.95  19 2.95
  13  0.111  0.444  0.346-  23 2.91  20 2.91   5 2.94  18 2.94  11 2.94   7 2.94   4 2.94  16 2.94
                            10 2.94  14 2.94  15 2.94  22 2.94
  14  0.444  0.444  0.346-  21 2.91  23 2.91  15 2.94   6 2.94  12 2.94   8 2.94  17 2.94   5 2.94
                            16 2.94  13 2.94  11 2.94  24 2.94
  15  0.778  0.444  0.346-  24 2.93  22 2.93  14 2.94   6 2.94  17 2.94  12 2.94   9 2.94   4 2.94
                            10 2.94  13 2.94  18 2.94  19 2.95
  16  0.111  0.778  0.346-  23 2.91  18 2.94  12 2.94   7 2.94   1 2.94   8 2.94  13 2.94  10 2.94
                            14 2.94  17 2.94  25 2.95  26 2.95
  17  0.444  0.778  0.346-  27 2.93  24 2.93   9 2.94  15 2.94   2 2.94  10 2.94  11 2.94   8 2.94
                            14 2.94  16 2.94  18 2.94  26 2.95
  18  0.778  0.778  0.346-  22 2.93  27 2.93  16 2.94   7 2.94  13 2.94  12 2.94   3 2.94  11 2.94
                             9 2.94  15 2.94  17 2.94  25 2.95
  19  0.889  0.223  0.455-  24 2.93  22 2.93  21 2.94  20 2.94  28 2.95  26 2.95  25 2.95  15 2.95
                            10 2.95  12 2.95  32 3.02  31 3.02
  20  0.222  0.222  0.453-  36 2.77  11 2.91  13 2.91  10 2.91  23 2.94  21 2.94  26 2.94  19 2.94
                            27 2.95  22 2.95  29 2.98  31 2.98
  21  0.555  0.222  0.453-  36 2.77  14 2.91  11 2.91  12 2.91  20 2.94  23 2.94  25 2.94  19 2.94
                            27 2.95  24 2.95  30 2.98  32 2.98
  22  0.887  0.557  0.454-  24 2.91  27 2.91  18 2.93  15 2.93  25 2.93  19 2.93  13 2.94  35 2.95
                            23 2.95  20 2.95  33 3.00  31 3.00
  23  0.222  0.555  0.453-  36 2.77  13 2.91  14 2.91  16 2.91  20 2.94  21 2.94  25 2.94  26 2.94
                            22 2.95  24 2.95  33 2.98  34 2.98
  24  0.557  0.557  0.454-  27 2.91  22 2.91  15 2.93  17 2.93  26 2.93  19 2.93  14 2.94  35 2.95
                            21 2.95  23 2.95  32 3.00  34 3.00
  25  0.889  0.889  0.455-  22 2.93  27 2.93  23 2.94  21 2.94  28 2.95  19 2.95  26 2.95  18 2.95
                            16 2.95  12 2.95  33 3.02  30 3.02
  26  0.223  0.889  0.455-  27 2.93  24 2.93  20 2.94  23 2.94  28 2.95  19 2.95  25 2.95  17 2.95
                            10 2.95  16 2.95  29 3.02  34 3.02
  27  0.557  0.887  0.454-  24 2.91  22 2.91  17 2.93  18 2.93  26 2.93  25 2.93  11 2.94  35 2.95
                            20 2.95  21 2.95  29 3.00  30 3.00
  28  0.000  0.000  0.563-  25 2.95  19 2.95  26 2.95  34 2.98  32 2.98  33 2.98  30 2.98  31 2.98
                            29 2.98
  29  0.333  0.010  0.565-  30 2.85  31 2.85  36 2.87  20 2.98  35 2.98  28 2.98  27 3.00  26 3.02
                            34 3.11
  30  0.657  0.010  0.565-  29 2.85  32 2.85  36 2.87  21 2.98  35 2.98  28 2.98  27 3.00  25 3.02
                            33 3.11
  31  0.010  0.333  0.565-  33 2.85  29 2.85  36 2.87  20 2.98  35 2.98  28 2.98  22 3.00  19 3.02
                            32 3.11
  32  0.657  0.333  0.565-  34 2.85  30 2.85  36 2.87  21 2.98  35 2.98  28 2.98  24 3.00  19 3.02
                            31 3.11
  33  0.010  0.657  0.565-  31 2.85  34 2.85  36 2.87  23 2.98  35 2.98  28 2.98  22 3.00  25 3.02
                            30 3.11
  34  0.333  0.657  0.565-  32 2.85  33 2.85  36 2.87  23 2.98  35 2.98  28 2.98  24 3.00  26 3.02
                            29 3.11
  35  0.667  0.667  0.563-  24 2.95  27 2.95  22 2.95  29 2.98  34 2.98  32 2.98  31 2.98  30 2.98
                            33 2.98
  36  0.333  0.333  0.551-  37 1.72  20 2.77  23 2.77  21 2.77  33 2.87  31 2.87  29 2.87  30 2.87
                            34 2.87  32 2.87
  37  0.333  0.333  0.629-  36 1.72

  LATTYP: Found a hexagonal cell.
 ALAT       =     8.8135128021
 C/A-ratio  =     2.5184286595

  Lattice vectors:

 A1 = (  -4.4067569092,  -7.6327256898,   0.0000000000)
 A2 = (   8.8135128021,   0.0000000000,   0.0000000000)
 A3 = (   0.0000000000,   0.0000000000,  22.1962032318)

Analysis of symmetry for initial positions (statically):
 Subroutine PRICEL returns:
 Original cell was already a primitive cell.

 Routine SETGRP: Setting up the symmetry group for a
 hexagonal supercell.

 Subroutine GETGRP returns: Found  6 space group operations
 (whereof  6 operations were pure point group operations)
 out of a pool of 24 trial point group operations.

The static configuration has the point symmetry C_3v.

Analysis of symmetry for dynamics (positions and initial velocities):
 Subroutine PRICEL returns:
 Original cell was already a primitive cell.

[...]

The dynamic configuration has the point symmetry C_3v.

Analysis of constrained symmetry for selective dynamics:
 Subroutine PRICEL returns:
 Original cell was already a primitive cell.

 Routine SETGRP: Setting up the symmetry group for a
 hexagonal supercell.

 Subroutine GETGRP returns: Found  6 space group operations
[...]
     24      -5.0863      2.00000
     25      -5.0616      2.00000
     26      -5.0461      2.00000
     27      -5.0163      2.00000
     28      -4.9490      2.00000
     29      -4.9378      2.00000
     30      -4.8360      2.00000
     31      -4.8157      2.00000
     32      -4.8049      2.00000
     33      -4.7739      2.00000
     34      -4.7589      2.00000
     35      -4.7286      2.00000
     36      -4.6828      2.00000
     37      -4.6683      2.00000
     38      -4.6150      2.00000
     39      -4.5739      2.00000
     40      -4.5325      2.00000
     41      -4.5192      2.00000
     42      -4.4800      2.00000
     43      -4.4219      2.00000
     44      -4.3956      2.00000
     45      -4.3251      2.00000
     46      -4.2843      2.00000
     47      -4.2292      2.00000
     48      -4.2217      2.00000
     49      -4.1950      2.00000
     50      -4.1639      2.00000
     51      -4.1576      2.00000
     52      -4.1442      2.00000
     53      -4.1127      2.00000
     54      -4.1000      2.00000
     55      -4.0781      2.00000
     56      -4.0285      2.00000
     57      -4.0132      2.00000
     58      -4.0100      2.00000
     59      -3.9812      2.00000
     60      -3.9753      2.00000
[...]
    238       6.5023      0.00000
    239       6.5269      0.00000
    240       6.5643      0.00000
    241       6.7432      0.00000
    242       6.7505      0.00000
    243       6.7852      0.00000
    244       6.8504      0.00000
    245       6.9202      0.00000
    246       7.1923      0.00000
    247       7.2298      0.00000
    248       7.3312      0.00000
    249       7.5997      0.00000
    250       7.6456      0.00000
    251       7.7345      0.00000
    252       7.8406      0.00000

 soft charge-density along one line, spin component           1
         0         1         2         3         4         5         6         7         8         9
 total charge-density along one line

------------------------ aborting loop because EDIFF is reached ----------------------------------------

 total charge

# of ion       s       p       d       tot
    1        0.550   0.238   8.767   9.554
    2        0.542   0.242   8.765   9.549
    3        0.542   0.242   8.765   9.549
    4        0.542   0.242   8.765   9.549
    5        0.544   0.241   8.763   9.549
    6        0.542   0.242   8.765   9.549
    7        0.542   0.242   8.765   9.549
    8        0.542   0.242   8.765   9.549
    9        0.543   0.241   8.766   9.550
   10        0.522   0.307   8.772   9.601
   11        0.518   0.311   8.779   9.607
   12        0.522   0.307   8.772   9.601
   13        0.518   0.311   8.779   9.607
   14        0.518   0.311   8.779   9.607
   15        0.514   0.309   8.772   9.595
   16        0.522   0.307   8.772   9.601
   17        0.514   0.309   8.772   9.595
   18        0.514   0.309   8.772   9.595
   19        0.518   0.294   8.777   9.589
   20        0.564   0.338   8.737   9.638
   21        0.564   0.338   8.737   9.638
   22        0.509   0.308   8.772   9.589
   23        0.564   0.338   8.737   9.638
   24        0.509   0.308   8.772   9.589
   25        0.518   0.294   8.777   9.589
   26        0.518   0.294   8.777   9.589
   27        0.509   0.308   8.772   9.589
   28        0.547   0.227   8.755   9.529
   29        0.563   0.243   8.753   9.558
   30        0.563   0.243   8.753   9.558
   31        0.563   0.243   8.753   9.558
   32        0.563   0.243   8.753   9.558
   33        0.563   0.243   8.753   9.558
   34        0.563   0.243   8.753   9.558
   35        0.538   0.228   8.759   9.525
   36        0.480   0.565   4.307   5.351
   37        1.611   3.277   0.000   4.888
tot         20.876  13.520 311.050 345.447

  FORCE on cell =-STRESS in cart. coord.  units (eV):
  Direction    XX          YY          ZZ          XY          YZ          ZX
  Alpha Z  1021.96530  1021.96530  1021.96530
  Ewald  117575.47650117575.47691************    -0.00032    -0.00009    -0.00013
  Hartree126252.41201126252.41201************     0.00001    -0.00002    -0.00004
  E(xc)   -1784.81011 -1784.81011 -1792.71242     0.00000     0.00000     0.00000
  Local  ************************256183.33278     0.00197     0.00002     0.00001
  n-local  -114.23315   -66.22969   -57.41540    24.20033    -1.72312     1.52149
  augment  2380.25349  2380.25500  2395.21331    -0.00131    -0.00001     0.00004
  Kinetic  5550.41723  5560.13237  5586.59470     5.87211     0.29909     0.09638
  Fock        0.00000     0.00000     0.00000     0.00000     0.00000     0.00000
  Total     -18.85613   -18.85613     1.97933    -0.00000     0.00000    -0.00000
  in kB     -20.23279   -20.23279     2.12384    -0.00000     0.00000    -0.00000

 VOLUME and BASIS-vectors are now :
  energy-cutoff  :      500.00
  volume of cell :     1493.16
      direct lattice vectors                 reciprocal lattice vectors
     8.813512802  0.000000000  0.000000000     0.113462137 -0.065507406  0.000000000
     4.406756909  7.632725690  0.000000000     0.000000000  0.131014796  0.000000000
     0.000000000  0.000000000 22.196203232     0.000000000  0.000000000  0.045052750

  length of vectors
     8.813512802  8.813512802 22.196203232     0.131014796  0.131014796  0.045052750

 FORCES acting on ions
    electron-ion (+dipol)            ewald-force                    non-local-force                 convergence-correction
   -.195E-04 -.161E-04 0.247E+04   0.519E-04 0.433E-04 -.247E+04   -.829E-17 0.984E-18 -.579E+00   -.280E-03 -.175E-03 -.277E+00
   0.581E+00 0.163E+00 0.247E+04   -.601E+00 -.200E+00 -.247E+04   -.162E-01 0.618E-01 -.352E+00   0.358E-01 -.274E-01 -.296E+00
   -.581E+00 0.163E+00 0.247E+04   0.601E+00 -.200E+00 -.247E+04   0.162E-01 0.618E-01 -.352E+00   -.354E-01 -.253E-01 -.295E+00
   0.432E+00 0.422E+00 0.247E+04   -.473E+00 -.420E+00 -.247E+04   0.455E-01 -.449E-01 -.352E+00   -.577E-02 0.446E-01 -.296E+00
   0.909E-05 -.230E-04 0.247E+04   0.951E-04 0.174E-05 -.247E+04   0.749E-17 -.255E-17 -.237E+00   0.440E-02 0.267E-02 -.300E+00
   -.432E+00 0.422E+00 0.247E+04   0.473E+00 -.420E+00 -.247E+04   -.455E-01 -.449E-01 -.352E+00   0.412E-02 0.455E-01 -.295E+00
   -.149E+00 -.585E+00 0.247E+04   0.127E+00 0.620E+00 -.247E+04   0.616E-01 -.169E-01 -.352E+00   -.396E-01 -.180E-01 -.295E+00
   0.149E+00 -.585E+00 0.247E+04   -.127E+00 0.620E+00 -.247E+04   -.616E-01 -.169E-01 -.352E+00   0.415E-01 -.192E-01 -.295E+00
   0.196E-04 -.416E-04 0.247E+04   0.166E-03 -.200E-04 -.247E+04   -.573E-18 -.172E-17 -.425E+00   -.466E-02 -.241E-02 -.166E+00
   0.562E+01 0.325E+01 0.822E+03   -.535E+01 -.309E+01 -.821E+03   -.317E+00 -.183E+00 -.455E+00   0.125E-01 0.708E-02 0.234E+00
   0.143E-04 0.323E+01 0.827E+03   0.148E-03 -.326E+01 -.827E+03   0.221E-08 0.332E-01 -.306E+00   0.426E-02 -.735E-01 0.318E+00
   -.562E+01 0.325E+01 0.822E+03   0.535E+01 -.309E+01 -.821E+03   0.317E+00 -.183E+00 -.455E+00   -.144E-01 0.905E-02 0.235E+00
   0.280E+01 -.162E+01 0.827E+03   -.283E+01 0.163E+01 -.827E+03   0.288E-01 -.166E-01 -.306E+00   -.613E-01 0.407E-01 0.318E+00
   -.280E+01 -.162E+01 0.827E+03   0.283E+01 0.163E+01 -.827E+03   -.288E-01 -.166E-01 -.306E+00   0.696E-01 0.401E-01 0.319E+00
   0.311E-04 0.428E+01 0.826E+03   0.236E-03 -.451E+01 -.825E+03   0.140E-08 0.211E-01 -.398E+00   -.297E-02 0.156E+00 0.295E+00
   -.210E-04 -.649E+01 0.822E+03   0.162E-03 0.618E+01 -.821E+03   0.243E-07 0.366E+00 -.455E+00   0.398E-03 -.170E-01 0.235E+00
   0.370E+01 -.214E+01 0.826E+03   -.391E+01 0.226E+01 -.825E+03   0.183E-01 -.105E-01 -.398E+00   0.134E+00 -.801E-01 0.295E+00
   -.370E+01 -.214E+01 0.826E+03   0.391E+01 0.226E+01 -.825E+03   -.183E-01 -.105E-01 -.398E+00   -.134E+00 -.775E-01 0.295E+00
   -.428E-04 0.438E+00 -.854E+03   0.546E-04 -.755E+00 0.853E+03   0.389E-09 0.584E-02 0.664E+00   -.594E-02 0.243E+00 0.711E+00
   0.986E+00 0.569E+00 -.825E+03   -.348E+00 -.201E+00 0.824E+03   -.108E+01 -.625E+00 -.811E+00   0.303E+00 0.175E+00 0.114E+01
   -.986E+00 0.569E+00 -.825E+03   0.348E+00 -.201E+00 0.824E+03   0.108E+01 -.625E+00 -.811E+00   -.294E+00 0.177E+00 0.114E+01
   -.810E+01 0.468E+01 -.838E+03   0.771E+01 -.445E+01 0.836E+03   0.428E+00 -.247E+00 0.735E+00   0.242E-01 -.169E-01 0.722E+00
   -.969E-05 -.114E+01 -.825E+03   0.139E-03 0.402E+00 0.824E+03   0.832E-07 0.125E+01 -.811E+00   0.583E-02 -.343E+00 0.114E+01
   0.810E+01 0.468E+01 -.838E+03   -.771E+01 -.445E+01 0.836E+03   -.428E+00 -.247E+00 0.735E+00   -.324E-01 -.187E-01 0.722E+00
   -.379E+00 -.219E+00 -.854E+03   0.653E+00 0.377E+00 0.853E+03   -.506E-02 -.292E-02 0.664E+00   -.213E+00 -.123E+00 0.710E+00
   0.379E+00 -.219E+00 -.854E+03   -.654E+00 0.377E+00 0.853E+03   0.506E-02 -.292E-02 0.664E+00   0.208E+00 -.127E+00 0.711E+00
   0.100E-04 -.935E+01 -.838E+03   0.198E-03 0.890E+01 0.836E+03   0.329E-07 0.494E+00 0.735E+00   -.308E-02 0.294E-01 0.722E+00
   -.128E-04 -.124E-04 -.243E+04   0.291E-04 0.331E-04 0.243E+04   -.388E-17 -.134E-17 0.438E+00   -.322E-03 -.203E-03 0.491E+00
   0.218E+02 0.358E+02 -.243E+04   -.214E+02 -.354E+02 0.243E+04   -.905E+00 -.122E+01 0.375E+00   0.321E+00 0.410E+00 0.373E+00
   -.218E+02 0.358E+02 -.243E+04   0.214E+02 -.354E+02 0.243E+04   0.905E+00 -.122E+01 0.375E+00   -.321E+00 0.412E+00 0.372E+00
   0.419E+02 0.971E+00 -.243E+04   -.413E+02 -.849E+00 0.243E+04   -.151E+01 -.172E+00 0.375E+00   0.516E+00 0.733E-01 0.373E+00
   -.419E+02 0.971E+00 -.243E+04   0.413E+02 -.849E+00 0.243E+04   0.151E+01 -.172E+00 0.375E+00   -.517E+00 0.740E-01 0.371E+00
   0.201E+02 -.367E+02 -.243E+04   -.199E+02 0.362E+02 0.243E+04   -.608E+00 0.140E+01 0.375E+00   0.196E+00 -.484E+00 0.372E+00
   -.201E+02 -.367E+02 -.243E+04   0.199E+02 0.362E+02 0.243E+04   0.608E+00 0.140E+01 0.375E+00   -.195E+00 -.485E+00 0.371E+00
   0.329E-04 -.297E-04 -.243E+04   0.142E-03 -.487E-04 0.243E+04   -.695E-18 0.418E-17 0.673E+00   -.477E-02 -.246E-02 0.409E+00
   -.211E-05 0.928E-07 -.111E+04   0.625E-04 0.565E-05 0.111E+04   -.151E-17 -.119E-17 -.124E+00   0.133E-02 0.796E-03 0.279E+00
   0.182E-03 -.983E-04 -.158E+04   0.256E-04 0.159E-05 0.161E+04   0.221E-18 -.456E-18 -.308E+02   0.359E-02 0.219E-02 -.742E+00
   -.590E-03 -.859E-03 0.228E+02   -.365E-13 0.256E-12 -.659E-11   0.442E-15 0.447E-15 -.327E+02   0.213E-02 0.191E-02 0.104E+02

 POSITION                                       TOTAL-FORCE (eV/Angst)
      0.00000      0.00000      5.28038        -0.000000      0.000000     -0.140790
      2.93784      0.00000      5.28038         0.000549     -0.001089     -0.050611
      5.87568      0.00000      5.28038        -0.000549     -0.001089     -0.050611
      1.46892      2.54424      5.28038        -0.000668      0.001020     -0.050611
      4.40676      2.54424      5.28038        -0.000000      0.000000     -0.071424
      7.34459      2.54424      5.28038         0.000668      0.001020     -0.050611
      2.93784      5.08848      5.28038        -0.001218      0.000069     -0.050611
      5.87568      5.08848      5.28038         0.001218      0.000069     -0.050611
      8.81351      5.08848      5.28038        -0.000000      0.000000     -0.084182
      1.46892      0.84808      7.67911        -0.036013     -0.020792      0.110312
      4.40676      0.84808      7.67911        -0.000000     -0.074133      0.028369
      7.34459      0.84808      7.67911         0.036013     -0.020792      0.110312
      2.93784      3.39232      7.67911        -0.064201      0.037067      0.028369
      5.87568      3.39232      7.67911         0.064201      0.037067      0.028369
      8.81351      3.39232      7.67911        -0.000000     -0.058034      0.136564
      4.40676      5.93656      7.67911         0.000000      0.041585      0.110312
      7.34459      5.93656      7.67911        -0.050259      0.029017      0.136564
     10.28243      5.93656      7.67911         0.050259      0.029017      0.136564
      8.81351      1.70181     10.09390        -0.000000     -0.067015     -0.056268
      2.93906      1.69686     10.04479        -0.144695     -0.083540     -0.148739
      5.87446      1.69686     10.04479         0.144695     -0.083540     -0.148739
     10.26694      4.24935     10.06849         0.063152     -0.036461      0.004877
      4.40676      4.23900     10.04479         0.000000      0.167079     -0.148739
      7.36009      4.24935     10.06849        -0.063152     -0.036461      0.004877
     11.74646      6.78182     10.09390         0.058037      0.033508     -0.056268
      5.88057      6.78182     10.09390        -0.058037      0.033508     -0.056268
      8.81351      6.76675     10.06849         0.000000      0.072922      0.004877
      0.00000      0.00000     12.49934        -0.000000     -0.000000     -0.017256
      2.98260      0.07565     12.53968        -0.218639     -0.426169     -0.288066
      5.83091      0.07565     12.53968         0.218639     -0.426169     -0.288066
      1.55682      2.54518     12.53968        -0.478393      0.023738     -0.288066
      7.25669      2.54518     12.53968         0.478393      0.023738     -0.288066
      2.98097      5.01189     12.53968        -0.259754      0.402431     -0.288066
      5.83254      5.01189     12.53968         0.259754      0.402431     -0.288066
      8.81351      5.08848     12.49853        -0.000000     -0.000000      0.077990
      4.40676      2.54424     12.23451        -0.000000      0.000000      2.038389
      4.40676      2.54424     13.95502        -0.000000      0.000000      0.003985
    total drift:                                0.001540      0.001046      0.509821

  FREE ENERGIE OF THE ION-ELECTRON SYSTEM (eV)
  free  energy   TOTEN  =      -123.29911531 eV

  energy  without entropy=     -123.29911531  energy(sigma->0) =     -123.29911531

 stress matrix after NEB project (eV)
    -18.85613     -0.00000     -0.00000
     -0.00000    -18.85613     -0.00000
      0.00000      0.00000      1.97933
  FORCES: max atom, RMS     0.003985    0.000655
  FORCE total and by dimension    0.003985    0.003985
  Stress total and by dimension   26.739952   18.856131
|           W    W    AA    RRRRR   N    N  II  N    N   GGGG   !!!           |
|           W    W   A  A   R    R  NN   N  II  NN   N  G    G  !!!           |
|           W    W  A    A  R    R  N N  N  II  N N  N  G       !!!           |
|           W WW W  AAAAAA  RRRRR   N  N N  II  N  N N  G  GGG   !            |
|           WW  WW  A    A  R   R   N   NN  II  N   NN  G    G                |
|           W    W  A    A  R    R  N    N  II  N    N   GGGG   !!!           |
|     Tetrahedron method does not include variations of the Fermi             |
|     occupations, so forces and stress will be inaccurate. We suggest        |
|     using a different smearing scheme ISMEAR = 1 or 2 for metals in         |
|     relaxations.                                                            |

 total charge

# of ion       s       p       d       tot
    1        0.550   0.238   8.767   9.554
    2        0.542   0.242   8.765   9.549
    3        0.542   0.242   8.765   9.549
    4        0.542   0.242   8.765   9.549
    5        0.544   0.241   8.763   9.549
    6        0.542   0.242   8.765   9.549
    7        0.542   0.242   8.765   9.549
    8        0.542   0.242   8.765   9.549
    9        0.543   0.241   8.766   9.550
   10        0.522   0.307   8.772   9.601
   11        0.518   0.311   8.779   9.607
   12        0.522   0.307   8.772   9.601
   13        0.518   0.311   8.779   9.607
   14        0.518   0.311   8.779   9.607
   15        0.514   0.309   8.772   9.595
   16        0.522   0.307   8.772   9.601
   17        0.514   0.309   8.772   9.595
   18        0.514   0.309   8.772   9.595
   19        0.518   0.294   8.777   9.589
   20        0.564   0.338   8.737   9.638
   21        0.564   0.338   8.737   9.638
   22        0.509   0.308   8.772   9.589
   23        0.564   0.338   8.737   9.638
   24        0.509   0.308   8.772   9.589
   25        0.518   0.294   8.777   9.589
   26        0.518   0.294   8.777   9.589
   27        0.509   0.308   8.772   9.589
   28        0.547   0.227   8.755   9.529
   29        0.563   0.243   8.753   9.558
   30        0.563   0.243   8.753   9.558
   31        0.563   0.243   8.753   9.558
   32        0.563   0.243   8.753   9.558
   33        0.563   0.243   8.753   9.558
   34        0.563   0.243   8.753   9.558
   35        0.538   0.228   8.759   9.525
   36        0.480   0.565   4.307   5.351
   37        1.611   3.277   0.000   4.888
tot         20.876  13.520 311.050 345.447

 BZINTS: Fermi energy:    0.677706;  397.000000 electrons
         Band energy:-0.124481E+04;  BLOECHL correction:   -0.041072