 vasp.6.2.0 18Jan21 (build Jun 12 2021 23:27:24) complex

 executed on             LinuxIFC date 2022.05.28  02:41:29

 INCAR:
   ISMEAR = -5
   SIGMA = 0.1
   ISPIN = 1
   EDIFF = 1.d-5
   EDIFFG = -0.01
   NSW = 0
   NELM = 150
   ENCUT = 500
   ISIF = 2
   IBRION = 2
   LREAL = Auto
   ALGO = Fast
   ICHARG = 11
   LORBIT = 10
   LCHARG = .F.
   LWAVE = .F.

 POTCAR:    PAW_PBE Cu 22Jun2005
 POTCAR:    PAW_PBE Hf 20Jan2003
 POTCAR:    PAW_PBE C 08Apr2002
 POTCAR:    PAW_PBE O 08Apr2002
|           W    W    AA    RRRRR   N    N  II  N    N   GGGG   !!!           |
|           W    W   A  A   R    R  NN   N  II  NN   N  G    G  !!!           |
|           W    W  A    A  R    R  N N  N  II  N N  N  G       !!!           |
|           W WW W  AAAAAA  RRRRR   N  N N  II  N  N N  G  GGG   !            |
|           WW  WW  A    A  R   R   N   NN  II  N   NN  G    G                |
|           W    W  A    A  R    R  N    N  II  N    N   GGGG   !!!           |
|     For optimal performance we recommend to set                             |
|       NCORE = 2 up to number-of-cores-per-socket                            |
|     This setting can greatly improve the performance of VASP for DFT.       |
|     The default, NCORE=1 might be grossly inefficient on modern             |
|     multi-core architectures or massively parallel machines. Do your        |
|     Unfortunately you need to use the default for GW and RPA                |
|     calculations (for HF NCORE is supported but not extensively tested      |
|     yet).                                                                   |

 POTCAR:    PAW_PBE Cu 22Jun2005
   VRHFIN =Cu: d10 p1

   TITEL  = PAW_PBE Cu 22Jun2005
   POMASS =   63.546; ZVAL   =   11.000    mass and valenz
   ENMAX  =  295.446; ENMIN  =  221.585 eV

 POTCAR:    PAW_PBE Hf 20Jan2003
   VRHFIN =Hf: 6s5d

   TITEL  = PAW_PBE Hf 20Jan2003
   POMASS =  178.490; ZVAL   =    4.000    mass and valenz
   ENMAX  =  220.334; ENMIN  =  165.250 eV

 POTCAR:    PAW_PBE C 08Apr2002
   VRHFIN =C: s2p2

   TITEL  = PAW_PBE C 08Apr2002
   POMASS =   12.011; ZVAL   =    4.000    mass and valenz
   ENMAX  =  400.000; ENMIN  =  300.000 eV

 POTCAR:    PAW_PBE O 08Apr2002
   VRHFIN =O: s2p4

   TITEL  = PAW_PBE O 08Apr2002
   POMASS =   16.000; ZVAL   =    6.000    mass and valenz
   ENMAX  =  400.000; ENMIN  =  300.000 eV

 Optimization of the real space projectors (new method)

 maximal supplied QI-value         = 16.25
 optimisation between [QCUT,QGAM] = [ 11.38, 22.75] = [ 36.24,144.96] Ry
 Optimized for a Real-space Cutoff    1.52 Angstroem

   l    n(q)    QCUT    max X(q) W(low)/X(q) W(high)/X(q)  e(spline)
   2      9    11.376     4.610    0.21E-03    0.10E-03    0.26E-06
   2      9    11.376     8.522    0.33E-03    0.16E-03    0.37E-06
   0     10    11.376    51.609    0.62E-04    0.20E-04    0.13E-06
   0     10    11.376    27.747    0.54E-04    0.20E-04    0.13E-06
   1     10    11.376    20.408    0.13E-04    0.99E-04    0.19E-06
   1     10    11.376    13.425    0.12E-04    0.87E-04    0.17E-06
 Optimization of the real space projectors (new method)

[...]

   l    n(q)    QCUT    max X(q) W(low)/X(q) W(high)/X(q)  e(spline)
   0      7    11.310   115.676    0.43E-03    0.13E-02    0.19E-06
   0      7    11.310    87.132    0.43E-03    0.13E-02    0.18E-06
   1      6    11.310     4.429    0.42E-03    0.74E-03    0.11E-06
   1      6    11.310     2.733    0.34E-03    0.55E-03    0.92E-07
 Optimization of the real space projectors (new method)

 maximal supplied QI-value         = 24.76
 optimisation between [QCUT,QGAM] = [ 11.39, 22.77] = [ 36.31,145.25] Ry
 Optimized for a Real-space Cutoff    1.00 Angstroem

   l    n(q)    QCUT    max X(q) W(low)/X(q) W(high)/X(q)  e(spline)
   0      7    11.387    20.381    0.39E-03    0.13E-02    0.15E-06
   0      7    11.387    15.268    0.42E-03    0.14E-02    0.17E-06
   1      6    11.387     5.964    0.41E-03    0.11E-02    0.17E-06
   1      6    11.387     5.382    0.39E-03    0.87E-03    0.15E-06
  PAW_PBE Cu 22Jun2005                  :
  PAW_PBE Hf 20Jan2003                  :
  PAW_PBE C 08Apr2002                   :
  PAW_PBE O 08Apr2002                   :

 POSCAR: Cu-Hf-CO2
  positions in direct lattice
  velocities in cartesian coordinates
 exchange correlation table for  LEXCH =        8
   RHO(1)=    0.500       N(1)  =     2000
   RHO(2)=  100.500       N(2)  =     4000

 VTST: version 3.2, (02/03/18)

 CHAIN: initializing optimizer

 OPT: Using VASP Conjugate-Gradient optimizer
 CHAIN: Read ICHAIN            0

 POSCAR: Cu-Hf-CO2
  positions in direct lattice
  velocities in cartesian coordinates

 ion  position               nearest neighbor table
   1  0.000  0.000  0.229-   7 2.57   3 2.57   4 2.57   2 2.57   6 2.57   8 2.57  12 2.57  10 2.57
                            16 2.57
   2  0.333  0.000  0.229-   8 2.57   9 2.57   5 2.57   1 2.57   3 2.57  11 2.57   4 2.57  10 2.57
                            17 2.57
   3  0.667  0.000  0.229-   1 2.57   7 2.57   6 2.57   9 2.57   2 2.57  12 2.57   5 2.57  18 2.57
                            11 2.57
   4  0.000  0.333  0.229-   5 2.57   6 2.57   1 2.57   7 2.57   2 2.57  13 2.57   9 2.57  10 2.57
                            15 2.57
   5  0.333  0.333  0.229-   4 2.57   2 2.57   7 2.57  13 2.57   8 2.57   6 2.57   3 2.57  11 2.57
                            14 2.57
   6  0.667  0.333  0.229-   4 2.57   9 2.57  15 2.57   3 2.57   1 2.57   8 2.57  14 2.57   5 2.57
                            12 2.57
   7  0.000  0.667  0.229-   1 2.57   3 2.57  16 2.57  18 2.57   4 2.57   5 2.57   8 2.57   9 2.57
                            13 2.57
   8  0.333  0.667  0.229-   9 2.57   2 2.57  17 2.57   6 2.57   1 2.57   7 2.57   5 2.57  14 2.57
                            16 2.57
   9  0.667  0.667  0.229-   8 2.57   6 2.57   2 2.57  17 2.57   3 2.57   7 2.57   4 2.57  15 2.57
                            18 2.57
  10  0.111  0.111  0.318-  26 2.54  19 2.54  11 2.57  12 2.57  13 2.57   1 2.57   2 2.57   4 2.57
                            15 2.57  16 2.57  17 2.57  20 2.58
  11  0.444  0.111  0.318-  27 2.56  10 2.57  13 2.57   2 2.57  17 2.57  14 2.57  12 2.57   5 2.57
                             3 2.57  18 2.57  20 2.57  21 2.57
  12  0.778  0.111  0.318-  19 2.54  25 2.54  15 2.57  10 2.57  14 2.57  18 2.57   3 2.57   1 2.57
                            16 2.57  11 2.57   6 2.57  21 2.58
  13  0.111  0.444  0.318-  22 2.56  16 2.57  18 2.57  10 2.57  11 2.57  14 2.57   5 2.57   4 2.57
                             7 2.57  15 2.57  23 2.57  20 2.57
  14  0.444  0.444  0.318-  24 2.56  15 2.57  17 2.57  12 2.57  16 2.57  13 2.57  11 2.57   6 2.57
                             8 2.57   5 2.57  21 2.57  23 2.57
  15  0.778  0.444  0.318-  19 2.55  24 2.56  22 2.56  14 2.57  17 2.57  12 2.57   6 2.57  18 2.57
                            10 2.57   9 2.57  13 2.57   4 2.57
  16  0.111  0.778  0.318-  25 2.54  26 2.54  18 2.57  13 2.57   7 2.57  14 2.57  17 2.57  12 2.57
                            10 2.57   8 2.57   1 2.57  23 2.58
  17  0.444  0.778  0.318-  26 2.55  27 2.56  24 2.56  14 2.57  15 2.57   8 2.57   9 2.57  11 2.57
                            16 2.57  18 2.57  10 2.57   2 2.57
  18  0.778  0.778  0.318-  25 2.55  22 2.56  27 2.56  16 2.57  13 2.57   7 2.57  15 2.57  12 2.57
                            17 2.57   9 2.57   3 2.57  11 2.57
  19  0.889  0.221  0.406-  12 2.54  10 2.54  15 2.55  25 2.56  26 2.56  32 2.57  31 2.57  22 2.57
                            24 2.57  21 2.57  20 2.57  28 2.57
  20  0.223  0.223  0.408-  23 2.55  21 2.55  27 2.57  22 2.57  26 2.57  19 2.57  11 2.57  13 2.57
                            10 2.58  29 2.58  31 2.58  36 2.77
  21  0.555  0.223  0.408-  20 2.55  23 2.55  24 2.57  27 2.57  19 2.57  25 2.57  14 2.57  11 2.57
                            12 2.58  32 2.58  30 2.58  36 2.77
  22  0.889  0.556  0.407-  18 2.56  15 2.56  13 2.56  24 2.56  27 2.56  23 2.57  20 2.57  31 2.57
                            33 2.57  19 2.57  25 2.57  35 2.58
  23  0.223  0.555  0.408-  20 2.55  21 2.55  22 2.57  24 2.57  25 2.57  26 2.57  13 2.57  14 2.57
                            16 2.58  33 2.58  34 2.58  36 2.77
  24  0.556  0.556  0.407-  15 2.56  17 2.56  14 2.56  22 2.56  27 2.56  21 2.57  23 2.57  32 2.57
                            34 2.57  19 2.57  26 2.57  35 2.58
  25  0.889  0.889  0.406-  12 2.54  16 2.54  18 2.55  19 2.56  26 2.56  33 2.57  30 2.57  22 2.57
                            27 2.57  21 2.57  23 2.57  28 2.57
  26  0.221  0.889  0.406-  10 2.54  16 2.54  17 2.55  25 2.56  19 2.56  29 2.57  34 2.57  27 2.57
                            24 2.57  20 2.57  23 2.57  28 2.57
  27  0.556  0.889  0.407-  17 2.56  18 2.56  11 2.56  24 2.56  22 2.56  20 2.57  21 2.57  29 2.57
                            30 2.57  26 2.57  25 2.57  35 2.58
  28  0.000  0.000  0.496-  33 2.55  30 2.55  31 2.55  29 2.55  32 2.55  34 2.55  25 2.57  19 2.57
                            26 2.57
  29  0.334  0.994  0.497-  34 2.48  35 2.54  28 2.55  26 2.57  27 2.57  20 2.58  30 2.60  31 2.61
                            36 2.62
  30  0.672  0.994  0.497-  33 2.48  35 2.54  28 2.55  25 2.57  27 2.57  21 2.58  29 2.60  32 2.61
                            36 2.62
  31  0.994  0.334  0.497-  32 2.48  35 2.54  28 2.55  19 2.57  22 2.57  20 2.58  33 2.60  29 2.61
                            36 2.62
  32  0.672  0.334  0.497-  31 2.48  35 2.54  28 2.55  19 2.57  24 2.57  21 2.58  34 2.60  30 2.61
                            36 2.62
  33  0.994  0.672  0.497-  30 2.48  35 2.54  28 2.55  25 2.57  22 2.57  23 2.58  31 2.60  34 2.61
                            36 2.62
  34  0.334  0.672  0.497-  29 2.48  35 2.54  28 2.55  26 2.57  24 2.57  23 2.58  32 2.60  33 2.61
                            36 2.62
  35  0.667  0.667  0.497-  34 2.54  32 2.54  29 2.54  30 2.54  33 2.54  31 2.54  24 2.58  27 2.58
                            22 2.58
  36  0.333  0.333  0.508-  39 2.20  38 2.20  37 2.52  31 2.62  29 2.62  33 2.62  32 2.62  34 2.62
                            30 2.62  23 2.77  20 2.77  21 2.77
  37  0.334  0.331  0.615-  39 1.29  38 1.29  36 2.52
  38  0.185  0.335  0.588-  37 1.29  36 2.20
  39  0.479  0.335  0.588-  37 1.29  36 2.20

  LATTYP: Found a hexagonal cell.
 ALAT       =     7.6967864036
 C/A-ratio  =     3.0484540560

  Lattice vectors:

 A1 = (  -3.8483927580,  -6.6656128093,   0.0000000000)
 A2 = (   7.6967864037,   0.0000000000,   0.0000000000)
 A3 = (   0.0000000000,   0.0000000000,  23.4632997305)

Analysis of symmetry for initial positions (statically):
 Subroutine PRICEL returns:
 Original cell was already a primitive cell.

 Routine SETGRP: Setting up the symmetry group for a
 hexagonal supercell.

 Subroutine GETGRP returns: Found  2 space group operations
 (whereof  2 operations were pure point group operations)
 out of a pool of 24 trial point group operations.

The static configuration has the point symmetry C_1h.

Analysis of symmetry for dynamics (positions and initial velocities):
 Subroutine PRICEL returns:
 Original cell was already a primitive cell.

[...]

The dynamic configuration has the point symmetry C_1h.

[...]
     41      -4.3566      2.00000
     42      -4.3211      2.00000
     43      -4.2390      2.00000
     44      -4.1758      2.00000
     45      -4.1644      2.00000
     46      -4.1398      2.00000
     47      -4.1024      2.00000
     48      -4.0958      2.00000
     49      -4.0655      2.00000
     50      -4.0518      2.00000
     51      -4.0402      2.00000
     52      -4.0208      2.00000
     53      -3.9895      2.00000
     54      -3.9011      2.00000
     55      -3.8763      2.00000
     56      -3.8550      2.00000
     57      -3.8246      2.00000
     58      -3.7856      2.00000
     59      -3.7654      2.00000
     60      -3.7612      2.00000
[...]
    238       5.3890      0.00000
    239       5.5439      0.00000
    240       5.6080      0.00000
    241       5.6630      0.00000
    242       5.8461      0.00000
    243       5.8659      0.00000
    244       5.9737      0.00000
    245       6.3712      0.00000
    246       6.3734      0.00000
    247       6.3963      0.00000
    248       6.4714      0.00000
    249       6.4768      0.00000
    250       6.6681      0.00000
    251       6.8075      0.00000
    252       6.8895      0.00000

 soft charge-density along one line, spin component           1
         0         1         2         3         4         5         6         7         8         9
 total charge-density along one line

------------------------ aborting loop because EDIFF is reached ----------------------------------------

 total charge

# of ion       s       p       d       tot
    1        0.449   0.283   9.188   9.920
    2        0.447   0.286   9.184   9.918
    3        0.447   0.286   9.184   9.918
    4        0.448   0.285   9.187   9.920
    5        0.449   0.284   9.183   9.917
    6        0.448   0.285   9.187   9.920
    7        0.448   0.285   9.187   9.919
    8        0.448   0.285   9.187   9.919
    9        0.448   0.284   9.188   9.920
   10        0.442   0.371   9.178   9.991
   11        0.441   0.365   9.181   9.988
   12        0.442   0.371   9.178   9.991
   13        0.440   0.365   9.182   9.987
   14        0.440   0.365   9.182   9.987
   15        0.439   0.372   9.176   9.988
   16        0.442   0.371   9.177   9.991
   17        0.439   0.372   9.177   9.989
   18        0.439   0.372   9.177   9.989
   19        0.439   0.375   9.177   9.991
   20        0.457   0.387   9.160  10.004
   21        0.457   0.387   9.160  10.004
   22        0.434   0.375   9.176   9.985
   23        0.458   0.386   9.163  10.007
   24        0.434   0.375   9.176   9.985
   25        0.444   0.369   9.183   9.997
   26        0.444   0.369   9.183   9.997
   27        0.436   0.372   9.181   9.988
   28        0.450   0.296   9.182   9.928
   29        0.487   0.316   9.169   9.972
   30        0.487   0.316   9.169   9.972
   31        0.469   0.313   9.180   9.962
   32        0.469   0.313   9.180   9.962
   33        0.486   0.315   9.172   9.973
   34        0.486   0.315   9.172   9.973
   35        0.450   0.300   9.180   9.929
   36        0.621   0.608   2.089   3.318
   37        0.923   1.505   0.000   2.428
   38        1.600   3.481   0.000   5.080
   39        1.600   3.481   0.000   5.080
tot         20.528  20.842 323.332 364.702

  FORCE on cell =-STRESS in cart. coord.  units (eV):
  Direction    XX          YY          ZZ          XY          YZ          ZX
  Alpha Z   833.15775   833.15775   833.15775
  Ewald  212003.31589211408.42791************     0.00036    -7.15753     0.00016
  Hartree224712.31040224430.73419************     0.00002    -4.54168     0.00005
  E(xc)   -2337.45983 -2338.75040 -2341.97613    -0.00027    -0.00983    -0.00004
  Local  ************************448748.38093     0.02015    11.78482    -0.00070
  n-local  -796.37220  -791.78276  -808.17513     1.51304     0.26787    -0.00902
  augment  3320.19537  3320.94313  3342.82867    -0.01803    -0.04185     0.00033
  Kinetic  3470.47540  3501.26567  3514.14540     0.53134    -0.39572    -0.23143
  Fock        0.00000     0.00000     0.00000     0.00000     0.00000     0.00000
  Total      -3.00887    -2.29073    -1.39714     0.00000    -0.09392     0.00000
  in kB      -4.00475    -3.04892    -1.85956     0.00000    -0.12500     0.00000

 VOLUME and BASIS-vectors are now :
  energy-cutoff  :      500.00
  volume of cell :     1203.76
      direct lattice vectors                 reciprocal lattice vectors
     7.696786404  0.000000000  0.000000000     0.129924354 -0.075011849  0.000000000
     3.848392758  6.665612809  0.000000000     0.000000000  0.150023716  0.000000000
     0.000000000  0.000000000 23.463299730     0.000000000  0.000000000  0.042619751

  length of vectors
     7.696786404  7.696786404 23.463299730     0.150023716  0.150023716  0.042619751

 FORCES acting on ions
    electron-ion (+dipol)            ewald-force                    non-local-force                 convergence-correction
   -.418E-04 0.168E+00 0.371E+04   0.581E-04 -.553E-01 -.371E+04   0.345E-08 -.518E-01 -.219E+01   -.222E-03 -.613E-01 -.269E+00
   -.115E+01 -.140E+01 0.371E+04   0.111E+01 0.133E+01 -.371E+04   0.126E-01 0.440E-01 -.183E+01   0.355E-01 0.286E-01 -.247E+00
   0.115E+01 -.140E+01 0.371E+04   -.111E+01 0.133E+01 -.371E+04   -.126E-01 0.440E-01 -.183E+01   -.348E-01 0.312E-01 -.247E+00
   -.202E+01 -.328E+00 0.371E+04   0.175E+01 0.271E+00 -.371E+04   0.164E+00 0.584E-02 -.204E+01   0.104E+00 0.420E-01 -.151E+00
   -.620E-04 -.647E-02 0.371E+04   0.116E-03 -.209E-02 -.370E+04   -.186E-08 0.280E-01 -.185E+01   0.121E-01 -.246E-01 -.902E-01
   0.202E+01 -.328E+00 0.371E+04   -.175E+01 0.271E+00 -.371E+04   -.164E+00 0.584E-02 -.204E+01   -.106E+00 0.433E-01 -.149E+00
   -.623E+00 0.169E+01 0.371E+04   0.640E+00 -.160E+01 -.371E+04   0.218E-01 -.642E-01 -.192E+01   -.271E-01 -.244E-01 -.291E+00
   0.623E+00 0.169E+01 0.371E+04   -.641E+00 -.160E+01 -.371E+04   -.218E-01 -.642E-01 -.192E+01   0.307E-01 -.258E-01 -.290E+00
   -.143E-03 -.956E-01 0.371E+04   0.263E-03 0.574E-01 -.371E+04   -.362E-08 0.544E-01 -.211E+01   -.133E-01 -.785E-02 -.272E+00
   -.120E+02 -.656E+01 0.129E+04   0.122E+02 0.656E+01 -.129E+04   -.268E+00 -.713E-01 -.854E+00   0.884E-01 0.826E-01 -.190E+00
   -.918E-04 -.127E+02 0.127E+04   0.189E-03 0.122E+02 -.127E+04   -.194E-07 0.291E+00 -.503E+00   0.113E-01 0.146E+00 -.240E+00
   0.120E+02 -.656E+01 0.129E+04   -.122E+02 0.656E+01 -.129E+04   0.268E+00 -.713E-01 -.854E+00   -.895E-01 0.842E-01 -.192E+00
   -.113E+02 0.634E+01 0.127E+04   0.110E+02 -.605E+01 -.127E+04   0.261E+00 -.161E+00 -.474E+00   0.445E-01 -.112E+00 -.221E+00
   0.113E+02 0.634E+01 0.127E+04   -.110E+02 -.605E+01 -.127E+04   -.261E+00 -.161E+00 -.474E+00   -.205E-01 -.113E+00 -.221E+00
   -.137E-03 -.109E+01 0.129E+04   0.295E-03 0.108E+01 -.129E+04   -.682E-09 0.102E-01 -.112E+01   -.344E-02 -.300E-02 -.158E+00
   -.882E-04 0.136E+02 0.129E+04   0.187E-03 -.139E+02 -.129E+04   -.198E-07 0.298E+00 -.753E+00   0.840E-04 -.306E-01 -.204E+00
   -.797E+00 0.283E+00 0.129E+04   0.696E+00 -.224E+00 -.129E+04   0.923E-01 -.597E-01 -.799E+00   0.193E-01 -.108E-01 -.227E+00
   0.797E+00 0.283E+00 0.129E+04   -.697E+00 -.224E+00 -.129E+04   -.923E-01 -.597E-01 -.799E+00   -.188E-01 -.854E-02 -.228E+00
   -.653E-04 -.702E+01 -.110E+04   0.727E-04 0.690E+01 0.110E+04   -.199E-08 0.299E-01 0.148E+01   0.107E-02 0.752E-01 -.475E+00
   -.725E+02 -.393E+02 -.123E+04   0.734E+02 0.397E+02 0.123E+04   -.883E+00 -.442E+00 -.209E+00   -.674E-01 -.259E-02 -.505E+00
   0.725E+02 -.393E+02 -.123E+04   -.734E+02 0.397E+02 0.123E+04   0.883E+00 -.442E+00 -.209E+00   0.470E-01 -.653E-03 -.506E+00
   -.333E+02 0.164E+02 -.113E+04   0.334E+02 -.161E+02 0.113E+04   0.932E-01 -.230E+00 0.803E+00   -.902E-01 -.111E+00 -.399E+00
   -.768E-04 0.798E+02 -.123E+04   0.156E-03 -.809E+02 0.123E+04   -.818E-07 0.123E+01 -.271E+00   0.129E-02 0.131E-02 -.523E+00
   0.333E+02 0.164E+02 -.113E+04   -.334E+02 -.161E+02 0.113E+04   -.932E-01 -.230E+00 0.803E+00   0.677E-01 -.109E+00 -.399E+00
   0.770E+01 0.552E+01 -.111E+04   -.770E+01 -.555E+01 0.111E+04   -.198E-01 -.372E-02 0.126E+01   -.117E-01 0.537E-01 -.486E+00
   -.770E+01 0.552E+01 -.111E+04   0.770E+01 -.555E+01 0.111E+04   0.198E-01 -.372E-02 0.126E+01   0.149E-01 0.527E-01 -.486E+00
   -.137E-03 -.384E+02 -.114E+04   0.240E-03 0.380E+02 0.113E+04   -.295E-07 0.442E+00 0.985E+00   -.132E-01 0.257E-01 -.407E+00
   -.252E-04 0.150E+02 -.349E+04   0.439E-04 -.149E+02 0.349E+04   0.185E-07 -.278E+00 0.151E+01   -.998E-03 0.994E-01 -.214E+00
   -.511E+02 -.714E+02 -.345E+04   0.515E+02 0.710E+02 0.345E+04   -.353E+00 0.246E+00 0.152E+01   -.580E-01 -.764E-01 -.290E+00
   0.511E+02 -.714E+02 -.345E+04   -.515E+02 0.710E+02 0.345E+04   0.353E+00 0.246E+00 0.152E+01   0.800E-01 -.747E-01 -.289E+00
   -.817E+02 0.505E+01 -.341E+04   0.802E+02 -.498E+01 0.341E+04   0.134E+01 -.110E+00 0.363E+01   -.161E+00 0.306E-01 -.289E+00
   0.817E+02 0.505E+01 -.341E+04   -.802E+02 -.498E+01 0.341E+04   -.134E+01 -.110E+00 0.363E+01   0.183E+00 0.324E-01 -.289E+00
   -.587E+02 0.660E+02 -.345E+04   0.590E+02 -.655E+02 0.345E+04   -.101E+00 -.237E+00 0.169E+01   -.123E+00 0.631E-01 -.261E+00
   0.587E+02 0.660E+02 -.345E+04   -.590E+02 -.655E+02 0.345E+04   0.101E+00 -.237E+00 0.169E+01   0.149E+00 0.629E-01 -.263E+00
   -.134E-03 -.158E+02 -.351E+04   0.253E-03 0.156E+02 0.351E+04   -.238E-07 0.358E+00 0.168E+01   -.148E-01 -.112E+00 -.225E+00
   -.330E-04 0.596E+00 -.120E+04   0.434E-04 -.589E+00 0.120E+04   0.390E-08 -.586E-01 0.157E+01   -.209E-03 -.717E-02 -.191E+00
   0.145E-04 0.723E+01 -.151E+04   0.187E-05 -.811E+01 0.153E+04   -.583E-07 0.875E+00 -.195E+02   -.441E-03 0.641E-02 -.184E+00
   0.185E+03 -.256E+01 -.209E+04   -.230E+03 0.351E+01 0.209E+04   0.457E+02 -.956E+00 0.550E+01   -.363E+00 0.128E-01 -.347E+00
   -.185E+03 -.256E+01 -.209E+04   0.230E+03 0.351E+01 0.209E+04   -.457E+02 -.956E+00 0.550E+01   0.364E+00 0.130E-01 -.347E+00
   0.166E-05 0.783E+00 0.197E+02   0.853E-13 -.131E-12 0.455E-12   0.567E-07 -.851E+00 -.850E+01   0.351E-01 0.717E-01 -.113E+02

 POSITION                                       TOTAL-FORCE (eV/Angst)
      0.00000      0.00000      5.37156         0.000000     -0.000078      0.009216
      2.56560      0.00000      5.37156         0.011185      0.003834      0.076552
      5.13119      0.00000      5.37156        -0.011185      0.003834      0.076552
      1.28280      2.22187      5.37156        -0.001166     -0.008136      0.044030
      3.84839      2.22187      5.37156         0.000000     -0.005260      0.048275
      6.41399      2.22187      5.37156         0.001166     -0.008136      0.044030
      2.56560      4.44374      5.37156         0.010733      0.002827      0.073894
      5.13119      4.44374      5.37156        -0.010733      0.002827      0.073894
      7.69679      4.44374      5.37156        -0.000000      0.008225      0.029245
      1.28280      0.74062      7.46636         0.011932      0.011607     -0.100015
      3.84839      0.74062      7.46636         0.000000     -0.019864     -0.037328
      6.41399      0.74062      7.46636        -0.011932      0.011607     -0.100015
      2.56560      2.96249      7.46636        -0.015733      0.013203     -0.036743
      5.13119      2.96249      7.46636         0.015733      0.013203     -0.036743
      7.69679      2.96249      7.46636        -0.000000      0.004609     -0.046590
      3.84839      5.18437      7.46636         0.000000     -0.007968     -0.090771
      6.41399      5.18437      7.46636         0.010691     -0.010529     -0.010258
      8.97958      5.18437      7.46636        -0.010691     -0.010529     -0.010258
      7.69679      1.47625      9.53578         0.000000     -0.013563      0.131907
      2.57143      1.48462      9.57247        -0.076793     -0.052074     -0.127700
      5.12535      1.48462      9.57247         0.076793     -0.052074     -0.127700
      8.97869      3.70363      9.55450         0.041979     -0.014997      0.068465
      3.84839      3.69638      9.57247        -0.000000      0.088954     -0.085718
      6.41488      3.70363      9.55450        -0.041979     -0.014997      0.068465
     10.26671      5.92749      9.53578        -0.027179      0.018789      0.000681
      5.12686      5.92749      9.53578         0.027179      0.018789      0.000681
      7.69679      5.92396      9.55450        -0.000000      0.063636      0.007256
      0.00000      0.00000     11.64309         0.000000     -0.045366     -0.053281
      6.39641      6.62889     11.65568        -0.027159     -0.276437     -0.257219
      8.99717      6.62889     11.65568         0.027159     -0.276437     -0.257219
      8.93899      2.22500     11.65568        -0.300227     -0.011831     -0.234964
      6.45458      2.22500     11.65568         0.300227     -0.011831     -0.234964
     10.23937      4.47733     11.65568        -0.028290      0.278545     -0.259917
      5.15420      4.47733     11.65568         0.028290      0.278545     -0.259917
      7.69679      4.44374     11.66757        -0.000000      0.057492     -0.068438
      3.84839      2.22187     11.91603         0.000000     -0.059393      1.727126
      3.84839      2.20840     14.43673        -0.000000      0.001020      0.165836
      2.71730      2.23501     13.80759         0.012950      0.008976     -0.105173
      4.97948      2.23501     13.80759        -0.012950      0.008976     -0.105173
    total drift:                                0.035150      0.003192     -0.103474

  FREE ENERGIE OF THE ION-ELECTRON SYSTEM (eV)
  free  energy   TOTEN  =      -154.35210109 eV

  energy  without entropy=     -154.35210109  energy(sigma->0) =     -154.35210109

 stress matrix after NEB project (eV)
     -3.00887      0.00000      0.00000
      0.00000     -2.29073     -0.09392
      0.00000     -0.09392     -1.39714
  FORCES: max atom, RMS     0.165840    0.035849
  FORCE total and by dimension    0.223880    0.165836
  Stress total and by dimension    4.033657    3.008872
|           W    W    AA    RRRRR   N    N  II  N    N   GGGG   !!!           |
|           W    W   A  A   R    R  NN   N  II  NN   N  G    G  !!!           |
|           W    W  A    A  R    R  N N  N  II  N N  N  G       !!!           |
|           W WW W  AAAAAA  RRRRR   N  N N  II  N  N N  G  GGG   !            |
|           WW  WW  A    A  R   R   N   NN  II  N   NN  G    G                |
|           W    W  A    A  R    R  N    N  II  N    N   GGGG   !!!           |
|     Tetrahedron method does not include variations of the Fermi             |
|     occupations, so forces and stress will be inaccurate. We suggest        |
|     using a different smearing scheme ISMEAR = 1 or 2 for metals in         |
|     relaxations.                                                            |

 total charge

# of ion       s       p       d       tot
    1        0.449   0.283   9.188   9.920
    2        0.447   0.286   9.184   9.918
    3        0.447   0.286   9.184   9.918
    4        0.448   0.285   9.187   9.920
    5        0.449   0.284   9.183   9.917
    6        0.448   0.285   9.187   9.920
    7        0.448   0.285   9.187   9.919
    8        0.448   0.285   9.187   9.919
    9        0.448   0.284   9.188   9.920
   10        0.442   0.371   9.178   9.991
   11        0.441   0.365   9.181   9.988
   12        0.442   0.371   9.178   9.991
   13        0.440   0.365   9.182   9.987
   14        0.440   0.365   9.182   9.987
   15        0.439   0.372   9.176   9.988
   16        0.442   0.371   9.177   9.991
   17        0.439   0.372   9.177   9.989
   18        0.439   0.372   9.177   9.989
   19        0.439   0.375   9.177   9.991
   20        0.457   0.387   9.160  10.004
   21        0.457   0.387   9.160  10.004
   22        0.434   0.375   9.176   9.985
   23        0.458   0.386   9.163  10.007
   24        0.434   0.375   9.176   9.985
   25        0.444   0.369   9.183   9.997
   26        0.444   0.369   9.183   9.997
   27        0.436   0.372   9.181   9.988
   28        0.450   0.296   9.182   9.928
   29        0.487   0.316   9.169   9.972
   30        0.487   0.316   9.169   9.972
   31        0.469   0.313   9.180   9.962
   32        0.469   0.313   9.180   9.962
   33        0.486   0.315   9.172   9.973
   34        0.486   0.315   9.172   9.973
   35        0.450   0.300   9.180   9.929
   36        0.621   0.608   2.089   3.318
   37        0.923   1.505   0.000   2.428
   38        1.600   3.481   0.000   5.080
   39        1.600   3.481   0.000   5.080
tot         20.528  20.842 323.332 364.702

 BZINTS: Fermi energy:   -0.301386;  405.000000 electrons
         Band energy:-0.141959E+04;  BLOECHL correction:   -0.041678