 vasp.6.2.0 18Jan21 (build Jun 12 2021 23:27:24) complex

 executed on             LinuxIFC date 2022.05.28  01:53:45

 INCAR:
   ISMEAR = -5
   SIGMA = 0.1
   ISPIN = 1
   EDIFF = 1.d-5
   EDIFFG = -0.01
   NSW = 0
   NELM = 150
   ENCUT = 500
   ISIF = 2
   IBRION = 2
   LREAL = Auto
   ALGO = Fast
   ICHARG = 11
   LORBIT = 10
   LCHARG = .F.
   LWAVE = .F.

 POTCAR:    PAW_PBE Ag 02Apr2005
 POTCAR:    PAW_PBE Pd 04Jan2005
 POTCAR:    PAW_PBE C 08Apr2002
 POTCAR:    PAW_PBE O 08Apr2002
|           W    W    AA    RRRRR   N    N  II  N    N   GGGG   !!!           |
|           W    W   A  A   R    R  NN   N  II  NN   N  G    G  !!!           |
|           W    W  A    A  R    R  N N  N  II  N N  N  G       !!!           |
|           W WW W  AAAAAA  RRRRR   N  N N  II  N  N N  G  GGG   !            |
|           WW  WW  A    A  R   R   N   NN  II  N   NN  G    G                |
|           W    W  A    A  R    R  N    N  II  N    N   GGGG   !!!           |
|     For optimal performance we recommend to set                             |
|       NCORE = 2 up to number-of-cores-per-socket                            |
|     This setting can greatly improve the performance of VASP for DFT.       |
|     The default, NCORE=1 might be grossly inefficient on modern             |
|     multi-core architectures or massively parallel machines. Do your        |
|     Unfortunately you need to use the default for GW and RPA                |
|     calculations (for HF NCORE is supported but not extensively tested      |
|     yet).                                                                   |

 POTCAR:    PAW_PBE Ag 02Apr2005
   VRHFIN =Ag : s1 d10

   TITEL  = PAW_PBE Ag 02Apr2005
   POMASS =  107.868; ZVAL   =   11.000    mass and valenz
   ENMAX  =  249.844; ENMIN  =  187.383 eV

 POTCAR:    PAW_PBE Pd 04Jan2005
   VRHFIN =Pd : s1 d9

   TITEL  = PAW_PBE Pd 04Jan2005
   POMASS =  106.420; ZVAL   =   10.000    mass and valenz
   ENMAX  =  250.925; ENMIN  =  188.194 eV

 POTCAR:    PAW_PBE C 08Apr2002
   VRHFIN =C: s2p2

[...]

 POTCAR:    PAW_PBE O 08Apr2002
   VRHFIN =O: s2p4

   TITEL  = PAW_PBE O 08Apr2002
   POMASS =   16.000; ZVAL   =    6.000    mass and valenz
   ENMAX  =  400.000; ENMIN  =  300.000 eV

 Optimization of the real space projectors (new method)

 maximal supplied QI-value         = 15.12
 optimisation between [QCUT,QGAM] = [ 11.34, 22.83] = [ 36.00,145.93] Ry
 Optimized for a Real-space Cutoff    1.43 Angstroem

   l    n(q)    QCUT    max X(q) W(low)/X(q) W(high)/X(q)  e(spline)
   2      9    11.338    53.897    0.16E-03    0.20E-03    0.28E-06
   2      9    11.338    52.416    0.16E-03    0.20E-03    0.29E-06
   0     10    11.338   122.045    0.31E-04    0.76E-04    0.15E-06
   0     10    11.338    73.629    0.30E-04    0.72E-04    0.15E-06
   1      9    11.338    15.255    0.20E-03    0.19E-04    0.17E-06
   1      9    11.338     9.562    0.16E-03    0.15E-04    0.14E-06
 Optimization of the real space projectors (new method)

[...]

   l    n(q)    QCUT    max X(q) W(low)/X(q) W(high)/X(q)  e(spline)
   0      7    11.310   115.676    0.43E-03    0.13E-02    0.19E-06
   0      7    11.310    87.132    0.43E-03    0.13E-02    0.18E-06
   1      6    11.310     4.429    0.42E-03    0.74E-03    0.11E-06
   1      6    11.310     2.733    0.34E-03    0.55E-03    0.92E-07
 Optimization of the real space projectors (new method)

 maximal supplied QI-value         = 24.76
 optimisation between [QCUT,QGAM] = [ 11.39, 22.77] = [ 36.31,145.25] Ry
 Optimized for a Real-space Cutoff    1.00 Angstroem

   l    n(q)    QCUT    max X(q) W(low)/X(q) W(high)/X(q)  e(spline)
   0      7    11.387    20.381    0.39E-03    0.13E-02    0.15E-06
   0      7    11.387    15.268    0.42E-03    0.14E-02    0.17E-06
   1      6    11.387     5.964    0.41E-03    0.11E-02    0.17E-06
   1      6    11.387     5.382    0.39E-03    0.87E-03    0.15E-06
  PAW_PBE Ag 02Apr2005                  :
  PAW_PBE Pd 04Jan2005                  :
  PAW_PBE C 08Apr2002                   :
  PAW_PBE O 08Apr2002                   :

 POSCAR: Ag-Pd-CO2
  positions in direct lattice
  velocities in cartesian coordinates
 exchange correlation table for  LEXCH =        8
   RHO(1)=    0.500       N(1)  =     2000
   RHO(2)=  100.500       N(2)  =     4000

 VTST: version 3.2, (02/03/18)

 CHAIN: initializing optimizer

 OPT: Using VASP Conjugate-Gradient optimizer
 CHAIN: Read ICHAIN            0

 POSCAR: Ag-Pd-CO2
  positions in direct lattice
  velocities in cartesian coordinates

 ion  position               nearest neighbor table
   1  0.000  0.000  0.217-   2 2.93   8 2.93   7 2.93   6 2.93   4 2.93  12 2.93  16 2.93  10 2.93
                             3 2.93
   2  0.333  0.000  0.217-   1 2.93   8 2.93   9 2.93   3 2.93   4 2.93   5 2.93  10 2.93  17 2.93
                            11 2.93
   3  0.667  0.000  0.217-   9 2.93   2 2.93   5 2.93  11 2.93   7 2.93  18 2.93   1 2.93   6 2.93
                            12 2.93
   4  0.000  0.333  0.217-   5 2.93   6 2.93   2 2.93   1 2.93   7 2.93  13 2.93  15 2.93   9 2.93
                            10 2.93
   5  0.333  0.333  0.217-   4 2.93   3 2.93   7 2.93   2 2.93   8 2.93  14 2.93  13 2.93  11 2.93
                             6 2.93
   6  0.667  0.333  0.217-   4 2.93   9 2.93   1 2.93  15 2.93   8 2.93  12 2.93   3 2.93   5 2.93
                            14 2.93
   7  0.000  0.667  0.217-   8 2.93   1 2.93   5 2.93   3 2.93   4 2.93  16 2.93  18 2.93  13 2.93
                             9 2.93
   8  0.333  0.667  0.217-   7 2.93   1 2.93   2 2.93   9 2.93   5 2.93  16 2.93   6 2.93  17 2.93
                            14 2.93
   9  0.667  0.667  0.217-   3 2.93   2 2.93   8 2.93   6 2.93  17 2.93   4 2.93  15 2.93   7 2.93
                            18 2.93
  10  0.111  0.111  0.315-  20 2.91  19 2.92  26 2.92  12 2.93  16 2.93  15 2.93  17 2.93  13 2.93
                            11 2.93   2 2.93   1 2.93   4 2.93
  11  0.444  0.111  0.315-  21 2.91  20 2.91  27 2.91  14 2.93  17 2.93  18 2.93   3 2.93  12 2.93
                            13 2.93  10 2.93   5 2.93   2 2.93
  12  0.778  0.111  0.315-  21 2.91  25 2.92  19 2.92  10 2.93  16 2.93  18 2.93  15 2.93  11 2.93
                             1 2.93  14 2.93   6 2.93   3 2.93
  13  0.111  0.444  0.315-  20 2.91  23 2.91  22 2.91  15 2.93  14 2.93  18 2.93  10 2.93  11 2.93
                            16 2.93   4 2.93   5 2.93   7 2.93
  14  0.444  0.444  0.315-  23 2.91  21 2.91  24 2.91  13 2.93  11 2.93  16 2.93   5 2.93  12 2.93
                            17 2.93   8 2.93  15 2.93   6 2.93
  15  0.778  0.444  0.315-  24 2.91  22 2.91  19 2.92  13 2.93  10 2.93  12 2.93  17 2.93  18 2.93
                             4 2.93   6 2.93   9 2.93  14 2.93
  16  0.111  0.778  0.315-  23 2.91  26 2.92  25 2.92  18 2.93  12 2.93  10 2.93  14 2.93  17 2.93
                            13 2.93   7 2.93   8 2.93   1 2.93
  17  0.444  0.778  0.315-  27 2.91  24 2.91  26 2.92  11 2.93  10 2.93   9 2.93  18 2.93  15 2.93
                            16 2.93   2 2.93  14 2.93   8 2.93
  18  0.778  0.778  0.315-  22 2.91  27 2.91  25 2.92  16 2.93  12 2.93  13 2.93  11 2.93  17 2.93
                            15 2.93   7 2.93   3 2.93   9 2.93
  19  0.889  0.223  0.413-  28 2.91  15 2.92  10 2.92  12 2.92  32 2.92  31 2.92  20 2.93  21 2.93
                            24 2.93  22 2.93  26 2.93  25 2.93
  20  0.222  0.222  0.412-  36 2.81  10 2.91  13 2.91  11 2.91  31 2.91  29 2.91  19 2.93  26 2.93
                            27 2.93  22 2.93  21 2.94  23 2.94
  21  0.556  0.222  0.412-  36 2.81  12 2.91  11 2.91  14 2.91  30 2.91  32 2.91  25 2.93  19 2.93
                            27 2.93  24 2.93  20 2.94  23 2.94
  22  0.889  0.556  0.413-  35 2.91  18 2.91  15 2.91  13 2.91  33 2.92  31 2.92  25 2.93  19 2.93
                            24 2.93  27 2.93  23 2.93  20 2.93
  23  0.222  0.556  0.412-  36 2.81  16 2.91  14 2.91  13 2.91  34 2.91  33 2.91  26 2.93  25 2.93
                            22 2.93  24 2.93  21 2.94  20 2.94
  24  0.556  0.556  0.413-  35 2.91  15 2.91  17 2.91  14 2.91  32 2.92  34 2.92  19 2.93  26 2.93
                            27 2.93  22 2.93  23 2.93  21 2.93
  25  0.889  0.889  0.413-  28 2.91  18 2.92  16 2.92  12 2.92  33 2.92  30 2.92  23 2.93  21 2.93
                            22 2.93  27 2.93  26 2.93  19 2.93
  26  0.223  0.889  0.413-  28 2.91  17 2.92  16 2.92  10 2.92  34 2.92  29 2.92  23 2.93  20 2.93
                            27 2.93  24 2.93  25 2.93  19 2.93
  27  0.556  0.889  0.413-  35 2.91  17 2.91  18 2.91  11 2.91  29 2.92  30 2.92  26 2.93  25 2.93
                            24 2.93  22 2.93  20 2.93  21 2.93
  28  0.000  0.000  0.510-  26 2.91  25 2.91  19 2.91  29 2.94  34 2.94  33 2.94  32 2.94  31 2.94
                            30 2.94
  29  0.333  0.003  0.510-  30 2.91  31 2.91  36 2.91  20 2.91  27 2.92  26 2.92  35 2.94  28 2.94
                            34 2.98
  30  0.664  0.003  0.510-  29 2.91  32 2.91  36 2.91  21 2.91  27 2.92  25 2.92  35 2.94  28 2.94
                            33 2.98
  31  0.003  0.333  0.510-  33 2.91  29 2.91  36 2.91  20 2.91  22 2.92  19 2.92  35 2.94  28 2.94
                            32 2.98
  32  0.664  0.333  0.510-  34 2.91  30 2.91  36 2.91  21 2.91  24 2.92  19 2.92  35 2.94  28 2.94
                            31 2.98
  33  0.003  0.664  0.510-  31 2.91  34 2.91  36 2.91  23 2.91  22 2.92  25 2.92  35 2.94  28 2.94
                            30 2.98
  34  0.333  0.664  0.510-  32 2.91  33 2.91  36 2.91  23 2.91  24 2.92  26 2.92  35 2.94  28 2.94
                            29 2.98
  35  0.667  0.667  0.510-  24 2.91  27 2.91  22 2.91  30 2.94  29 2.94  32 2.94  34 2.94  31 2.94
                            33 2.94
  36  0.333  0.333  0.504-  21 2.81  20 2.81  23 2.81  31 2.91  33 2.91  30 2.91  29 2.91  34 2.91
                            32 2.91
  37  0.339  0.334  0.650-  38 1.18  39 1.18
  38  0.205  0.334  0.653-  37 1.18
  39  0.473  0.333  0.648-  37 1.18

  LATTYP: Found a hexagonal cell.
 ALAT       =     8.7913665772
 C/A-ratio  =     2.7703738524

  Lattice vectors:

 A1 = (  -4.3956832886,  -7.6135467898,   0.0000000000)
 A2 = (   8.7913665771,   0.0000000000,   0.0000000000)
 A3 = (   0.0000000000,   0.0000000000,  24.3553720923)

Analysis of symmetry for initial positions (statically):
 Subroutine PRICEL returns:
 Original cell was already a primitive cell.

 Routine SETGRP: Setting up the symmetry group for a
 hexagonal supercell.

 Subroutine GETGRP returns: Found  1 space group operations
 (whereof  1 operations were pure point group operations)
 out of a pool of 24 trial point group operations.

The static configuration has the point symmetry C_1 .

Analysis of symmetry for dynamics (positions and initial velocities):
 Subroutine PRICEL returns:
 Original cell was already a primitive cell.

[...]

The dynamic configuration has the point symmetry C_1 .

Analysis of constrained symmetry for selective dynamics:
 Subroutine PRICEL returns:
 Original cell was already a primitive cell.

 Routine SETGRP: Setting up the symmetry group for a
 hexagonal supercell.

[...]
     41      -4.6983      2.00000
     42      -4.6903      2.00000
     43      -4.6657      2.00000
     44      -4.6389      2.00000
     45      -4.6272      2.00000
     46      -4.6219      2.00000
     47      -4.6005      2.00000
     48      -4.5897      2.00000
     49      -4.5162      2.00000
     50      -4.4845      2.00000
     51      -4.4829      2.00000
     52      -4.4719      2.00000
     53      -4.4647      2.00000
     54      -4.4598      2.00000
     55      -4.4495      2.00000
     56      -4.4365      2.00000
     57      -4.4128      2.00000
     58      -4.4095      2.00000
     59      -4.3484      2.00000
     60      -4.3411      2.00000
[...]
    238       5.3825      0.00000
    239       5.4481      0.00000
    240       5.4522      0.00000
    241       5.5006      0.00000
    242       5.7584      0.00000
    243       5.8514      0.00000
    244       5.9318      0.00000
    245       6.0175      0.00000
    246       6.0315      0.00000
    247       6.0557      0.00000
    248       6.3447      0.00000
    249       6.4872      0.00000
    250       6.6038      0.00000
    251       6.6278      0.00000
    252       6.7784      0.00000

 soft charge-density along one line, spin component           1
         0         1         2         3         4         5         6         7         8         9
 total charge-density along one line

------------------------ aborting loop because EDIFF is reached ----------------------------------------

 total charge

# of ion       s       p       d       tot
    1        0.415   0.204   9.177   9.796
    2        0.418   0.203   9.177   9.798
    3        0.418   0.203   9.177   9.798
    4        0.418   0.203   9.177   9.798
    5        0.414   0.204   9.178   9.796
    6        0.418   0.203   9.177   9.798
    7        0.418   0.203   9.177   9.798
    8        0.418   0.203   9.177   9.798
    9        0.417   0.203   9.177   9.797
   10        0.406   0.270   9.164   9.840
   11        0.407   0.268   9.166   9.842
   12        0.406   0.270   9.164   9.840
   13        0.407   0.268   9.166   9.842
   14        0.407   0.268   9.166   9.841
   15        0.404   0.270   9.166   9.840
   16        0.406   0.270   9.164   9.840
   17        0.404   0.270   9.166   9.840
   18        0.404   0.270   9.166   9.840
   19        0.404   0.269   9.167   9.840
   20        0.408   0.278   9.164   9.849
   21        0.408   0.278   9.164   9.849
   22        0.402   0.272   9.166   9.840
   23        0.408   0.278   9.164   9.849
   24        0.402   0.272   9.166   9.840
   25        0.405   0.269   9.168   9.841
   26        0.405   0.269   9.167   9.841
   27        0.403   0.272   9.166   9.841
   28        0.416   0.199   9.180   9.795
   29        0.415   0.203   9.178   9.796
   30        0.415   0.203   9.178   9.796
   31        0.413   0.202   9.179   9.794
   32        0.413   0.202   9.179   9.794
   33        0.415   0.203   9.178   9.796
   34        0.415   0.203   9.178   9.796
   35        0.415   0.200   9.180   9.796
   36        0.406   0.239   8.616   9.262
   37        0.932   1.797   0.000   2.729
   38        1.607   3.529   0.000   5.136
   39        1.607   3.528   0.000   5.136
tot         18.919  17.417 329.623 365.959

  FORCE on cell =-STRESS in cart. coord.  units (eV):
  Direction    XX          YY          ZZ          XY          YZ          ZX
  Alpha Z   715.61512   715.61512   715.61512
  Ewald  149730.87747148933.50775************    -1.64082     0.03461   -45.21699
  Hartree159869.72306159490.93953************    -0.76315    -0.00764   -21.05922
  E(xc)   -2155.00915 -2157.11206 -2162.65999    -0.00455    -0.00010    -0.11951
  Local  ************************319821.51633     2.25310    -0.02566    62.19264
  n-local  -383.19662  -377.31178  -383.68034     0.01740     0.00224     0.32718
  augment  3304.43011  3307.09446  3316.88347     0.00599     0.00177     0.15655
  Kinetic  5182.40192  5247.48610  5274.74201     0.13903    -0.00160     3.71878
  Fock        0.00000     0.00000     0.00000     0.00000     0.00000     0.00000
  Total      -7.82508    -7.83502    -0.47782     0.00701     0.00363    -0.00057
  in kB      -7.69061    -7.70039    -0.46961     0.00689     0.00357    -0.00056

 VOLUME and BASIS-vectors are now :
  energy-cutoff  :      500.00
  volume of cell :     1630.19
      direct lattice vectors                 reciprocal lattice vectors
     8.791366577  0.000000000  0.000000000     0.113747958 -0.065672414  0.000000000
     4.395683289  7.613546790  0.000000000     0.000000000  0.131344829  0.000000000
     0.000000000  0.000000000 24.355372092     0.000000000  0.000000000  0.041058703

  length of vectors
     8.791366577  8.791366577 24.355372092     0.131344829  0.131344829  0.041058703

 FORCES acting on ions
    electron-ion (+dipol)            ewald-force                    non-local-force                 convergence-correction
   -.414E-02 0.455E-02 0.271E+04   0.399E-02 -.180E-01 -.270E+04   0.129E-02 -.591E-02 -.192E+01   -.105E-02 0.180E-01 -.186E+00
   0.187E+00 0.357E+00 0.271E+04   -.208E+00 -.247E+00 -.270E+04   0.167E-01 -.461E-01 -.167E+01   0.249E-02 -.597E-01 -.148E+00
   -.182E+00 0.343E+00 0.271E+04   0.204E+00 -.254E+00 -.270E+04   -.178E-01 -.444E-01 -.167E+01   -.245E-02 -.413E-01 -.146E+00
   0.383E+00 -.116E-01 0.271E+04   -.300E+00 -.621E-01 -.270E+04   -.214E-01 0.366E-01 -.169E+01   -.586E-01 0.332E-01 -.151E+00
   -.152E-01 -.362E-02 0.271E+04   -.801E-02 -.249E-03 -.270E+04   -.577E-03 0.154E-03 -.171E+01   0.234E-01 0.348E-02 -.205E+00
   -.372E+00 -.228E-01 0.271E+04   0.308E+00 -.621E-01 -.270E+04   0.195E-01 0.383E-01 -.169E+01   0.423E-01 0.424E-01 -.150E+00
   0.210E+00 -.333E+00 0.271E+04   -.100E+00 0.309E+00 -.270E+04   -.465E-01 0.710E-02 -.167E+01   -.584E-01 0.171E-01 -.145E+00
   -.224E+00 -.328E+00 0.271E+04   0.964E-01 0.316E+00 -.270E+04   0.478E-01 0.674E-02 -.167E+01   0.745E-01 0.631E-02 -.145E+00
   0.186E-01 -.532E-02 0.271E+04   0.404E-02 0.183E-01 -.270E+04   0.113E-02 0.687E-02 -.176E+01   -.235E-01 -.190E-01 -.125E+00
   0.246E+01 0.153E+01 0.970E+03   -.231E+01 -.147E+01 -.970E+03   -.957E-01 -.521E-01 -.657E+00   -.385E-01 0.719E-04 0.997E-01
   0.288E-01 0.215E+01 0.974E+03   -.452E-01 -.220E+01 -.973E+03   -.189E-02 -.987E-02 -.597E+00   0.182E-01 0.487E-01 0.141E+00
   -.249E+01 0.156E+01 0.971E+03   0.235E+01 -.150E+01 -.970E+03   0.952E-01 -.525E-01 -.665E+00   0.279E-01 0.859E-02 0.942E-01
   0.178E+01 -.109E+01 0.974E+03   -.181E+01 0.111E+01 -.973E+03   -.112E-01 0.232E-02 -.595E+00   0.293E-01 -.176E-01 0.143E+00
   -.175E+01 -.110E+01 0.974E+03   0.176E+01 0.113E+01 -.973E+03   0.681E-02 0.238E-02 -.597E+00   -.326E-02 -.233E-01 0.134E+00
   -.423E-01 0.239E+00 0.970E+03   0.543E-01 -.194E+00 -.970E+03   0.794E-03 -.138E-02 -.602E+00   -.127E-01 -.440E-01 0.109E+00
   0.823E-02 -.290E+01 0.970E+03   -.970E-02 0.274E+01 -.970E+03   -.232E-03 0.110E+00 -.646E+00   0.187E-02 0.304E-01 0.962E-01
   0.266E+00 -.218E+00 0.970E+03   -.240E+00 0.220E+00 -.970E+03   0.128E-02 -.124E-03 -.570E+00   -.284E-01 -.190E-02 0.112E+00
   -.273E+00 -.174E+00 0.970E+03   0.250E+00 0.164E+00 -.970E+03   -.134E-02 -.699E-03 -.570E+00   0.264E-01 0.113E-01 0.115E+00
   -.379E+00 0.231E+01 -.792E+03   0.382E+00 -.236E+01 0.791E+03   -.375E-02 0.588E-02 0.537E+00   0.379E-03 0.386E-01 0.109E+00
   0.947E+01 0.598E+01 -.770E+03   -.918E+01 -.582E+01 0.770E+03   -.327E+00 -.184E+00 -.258E+00   0.328E-01 0.309E-01 0.158E+00
   -.909E+01 0.614E+01 -.769E+03   0.880E+01 -.599E+01 0.769E+03   0.334E+00 -.187E+00 -.265E+00   -.482E-01 0.331E-01 0.155E+00
   0.461E+01 -.354E+01 -.786E+03   -.475E+01 0.365E+01 0.785E+03   0.140E+00 -.953E-01 0.544E+00   -.446E-02 -.166E-01 0.174E+00
   0.322E+00 -.117E+02 -.770E+03   -.318E+00 0.114E+02 0.771E+03   0.133E-02 0.377E+00 -.248E+00   -.531E-02 -.719E-01 0.159E+00
   -.493E+01 -.383E+01 -.785E+03   0.507E+01 0.394E+01 0.785E+03   -.139E+00 -.953E-01 0.545E+00   0.395E-02 -.146E-01 0.174E+00
   -.153E+01 -.330E+00 -.793E+03   0.155E+01 0.332E+00 0.792E+03   0.462E-02 0.640E-02 0.520E+00   -.229E-01 -.496E-02 0.109E+00
   0.145E+01 -.707E+00 -.793E+03   -.148E+01 0.714E+00 0.793E+03   -.542E-02 0.250E-02 0.519E+00   0.261E-01 -.637E-02 0.112E+00
   0.777E-01 0.573E+01 -.787E+03   -.752E-01 -.591E+01 0.786E+03   0.749E-03 0.173E+00 0.552E+00   -.300E-02 0.147E-02 0.176E+00
   -.106E+01 0.518E+01 -.255E+04   0.106E+01 -.520E+01 0.255E+04   0.145E-02 -.317E-02 0.195E+01   0.749E-03 0.179E-01 0.161E+00
   0.155E+02 0.314E+02 -.253E+04   -.152E+02 -.309E+02 0.253E+04   -.335E+00 -.428E+00 0.183E+01   0.161E-01 -.298E-01 0.134E+00
   -.144E+02 0.340E+02 -.253E+04   0.141E+02 -.335E+02 0.253E+04   0.334E+00 -.418E+00 0.184E+01   -.178E-01 -.167E-01 0.134E+00
   0.324E+02 0.675E+00 -.252E+04   -.319E+02 -.647E+00 0.252E+04   -.492E+00 -.606E-01 0.197E+01   -.295E-01 0.310E-01 0.139E+00
   -.361E+02 0.629E+00 -.251E+04   0.357E+02 -.608E+00 0.251E+04   0.470E+00 -.605E-01 0.202E+01   0.206E-01 0.382E-01 0.140E+00
   0.145E+02 -.320E+02 -.253E+04   -.142E+02 0.316E+02 0.253E+04   -.231E+00 0.487E+00 0.183E+01   -.408E-01 -.852E-02 0.134E+00
   -.134E+02 -.347E+02 -.253E+04   0.131E+02 0.342E+02 0.253E+04   0.231E+00 0.479E+00 0.184E+01   0.532E-01 -.132E-01 0.136E+00
   -.998E+00 -.523E+01 -.255E+04   0.102E+01 0.524E+01 0.254E+04   0.209E-02 0.565E-02 0.197E+01   -.202E-01 -.197E-01 0.101E+00
   0.305E+01 0.877E-01 -.218E+04   -.309E+01 -.868E-01 0.218E+04   0.149E-01 -.512E-03 0.216E+01   0.135E-01 0.196E-02 0.183E+00
   -.135E+00 -.238E+00 -.904E+03   0.177E+00 0.240E+00 0.904E+03   -.502E-01 -.128E-01 0.387E-01   -.183E-03 -.885E-03 -.281E-01
   0.263E+03 -.457E+00 -.136E+04   -.326E+03 0.560E+00 0.136E+04   0.635E+02 -.105E+00 -.367E+01   0.530E-02 -.331E-02 -.414E-01
   -.262E+03 0.647E+00 -.136E+04   0.325E+03 -.815E+00 0.136E+04   -.633E+02 0.171E+00 0.349E+01   -.120E-01 0.419E-03 -.262E-01
   -.102E+00 -.664E-01 -.110E+01   0.000E+00 0.109E-12 0.132E-10   0.875E-01 0.534E-01 -.124E+01   -.121E-01 -.128E-03 0.213E+01

 POSITION                                       TOTAL-FORCE (eV/Angst)
      0.00000      0.00000      5.28219         0.000781     -0.001002      0.053949
      2.93046      0.00000      5.28219        -0.001108      0.004188      0.029390
      5.86091      0.00000      5.28219         0.002387      0.003709      0.029220
      1.46523      2.53785      5.28219         0.003658     -0.003566      0.027506
      4.39568      2.53785      5.28219         0.000370      0.000100      0.019727
      7.32614      2.53785      5.28219        -0.001801     -0.003884      0.027504
      2.93046      5.07570      5.28219         0.005619      0.000840      0.028515
      5.86091      5.07570      5.28219        -0.004739      0.001223      0.028462
      8.79137      5.07570      5.28219         0.000994      0.001112      0.035624
      1.46523      0.84595      7.67490         0.015003      0.008602     -0.025069
      4.39568      0.84595      7.67490         0.000612     -0.012872     -0.056222
      7.32614      0.84595      7.67490        -0.013299      0.008520     -0.026259
      2.93046      3.38380      7.67490        -0.010337      0.007765     -0.056060
      5.86091      3.38380      7.67490         0.012174      0.008234     -0.056317
      8.79137      3.38380      7.67490         0.000714     -0.000616     -0.021119
      4.39568      5.92165      7.67490         0.000861     -0.017086     -0.023912
      7.32614      5.92165      7.67490        -0.000679      0.000578     -0.018523
     10.25659      5.92165      7.67490         0.001922      0.000580     -0.018759
      8.79137      1.69432     10.05238        -0.000015     -0.004846      0.013821
      2.92802      1.69049     10.04000        -0.000005     -0.001474      0.002106
      5.86334      1.69049     10.04000         0.002167     -0.001568      0.001247
     10.25637      4.22988     10.04709        -0.002468      0.002838      0.012328
      4.39568      4.23256     10.04000         0.000861      0.000021      0.002870
      7.32637      4.22988     10.04709         0.003264      0.001859      0.013601
     11.71973      6.76639     10.05238         0.003310      0.003713      0.006301
      5.86300      6.76639     10.05238        -0.002287      0.003438      0.006100
      8.79137      6.76733     10.04709         0.000972     -0.002846      0.008339
      0.00000      0.00000     12.42253         0.001071     -0.003930      0.007439
      2.94245      0.01904     12.42445         0.002463     -0.000401     -0.001717
      5.84892      0.01904     12.42445        -0.001548     -0.003645     -0.004457
      1.48772      2.53872     12.42445         0.002700     -0.001586      0.002777
      7.30365      2.53872     12.42445         0.002574     -0.001456     -0.000878
      2.94095      5.05579     12.42445         0.006959      0.003163     -0.001340
      5.85042      5.05579     12.42445        -0.006316      0.005808     -0.004319
      8.79137      5.07570     12.41807         0.001115      0.004534     -0.005890
      4.39568      2.53785     12.28633        -0.003694      0.002643     -0.035103
      4.44917      2.54093     15.83467        -0.008107     -0.011561     -0.011709
      3.27460      2.54282     15.90607        -0.019934     -0.005071      0.006440
      5.62513      2.53788     15.77270         0.003788      0.003941      0.004389
    total drift:                               -0.026892     -0.013067     -0.209394

  FREE ENERGIE OF THE ION-ELECTRON SYSTEM (eV)
  free  energy   TOTEN  =      -117.23195880 eV

  energy  without entropy=     -117.23195880  energy(sigma->0) =     -117.23195880

 stress matrix after NEB project (eV)
     -7.82508      0.00701     -0.00057
      0.00701     -7.83502      0.00363
     -0.00057      0.00363     -0.47782
  FORCES: max atom, RMS     0.021554    0.004669
  FORCE total and by dimension    0.029158    0.019934
  Stress total and by dimension   11.083676    7.835024
|           W    W    AA    RRRRR   N    N  II  N    N   GGGG   !!!           |
|           W    W   A  A   R    R  NN   N  II  NN   N  G    G  !!!           |
|           W    W  A    A  R    R  N N  N  II  N N  N  G       !!!           |
|           W WW W  AAAAAA  RRRRR   N  N N  II  N  N N  G  GGG   !            |
|           WW  WW  A    A  R   R   N   NN  II  N   NN  G    G                |
|           W    W  A    A  R    R  N    N  II  N    N   GGGG   !!!           |
|     Tetrahedron method does not include variations of the Fermi             |
|     occupations, so forces and stress will be inaccurate. We suggest        |
|     using a different smearing scheme ISMEAR = 1 or 2 for metals in         |
|     relaxations.                                                            |

 total charge

# of ion       s       p       d       tot
    1        0.415   0.204   9.177   9.796
    2        0.418   0.203   9.177   9.798
    3        0.418   0.203   9.177   9.798
    4        0.418   0.203   9.177   9.798
    5        0.414   0.204   9.178   9.796
    6        0.418   0.203   9.177   9.798
    7        0.418   0.203   9.177   9.798
    8        0.418   0.203   9.177   9.798
    9        0.417   0.203   9.177   9.797
   10        0.406   0.270   9.164   9.840
   11        0.407   0.268   9.166   9.842
   12        0.406   0.270   9.164   9.840
   13        0.407   0.268   9.166   9.842
   14        0.407   0.268   9.166   9.841
   15        0.404   0.270   9.166   9.840
   16        0.406   0.270   9.164   9.840
   17        0.404   0.270   9.166   9.840
   18        0.404   0.270   9.166   9.840
   19        0.404   0.269   9.167   9.840
   20        0.408   0.278   9.164   9.849
   21        0.408   0.278   9.164   9.849
   22        0.402   0.272   9.166   9.840
   23        0.408   0.278   9.164   9.849
   24        0.402   0.272   9.166   9.840
   25        0.405   0.269   9.168   9.841
   26        0.405   0.269   9.167   9.841
   27        0.403   0.272   9.166   9.841
   28        0.416   0.199   9.180   9.795
   29        0.415   0.203   9.178   9.796
   30        0.415   0.203   9.178   9.796
   31        0.413   0.202   9.179   9.794
   32        0.413   0.202   9.179   9.794
   33        0.415   0.203   9.178   9.796
   34        0.415   0.203   9.178   9.796
   35        0.415   0.200   9.180   9.796
   36        0.406   0.239   8.616   9.262
   37        0.932   1.797   0.000   2.729
   38        1.607   3.529   0.000   5.136
   39        1.607   3.528   0.000   5.136
tot         18.919  17.417 329.623 365.959

 BZINTS: Fermi energy:    0.485649;  411.000000 electrons
         Band energy:-0.156093E+04;  BLOECHL correction:   -0.088292