 vasp.6.2.0 18Jan21 (build Jun 12 2021 23:27:24) complex

 executed on             LinuxIFC date 2022.05.30  18:19:29

 INCAR:
   ISMEAR = -5
   SIGMA = 0.1
   ISPIN = 1
   EDIFF = 1.d-5
   EDIFFG = -0.01
   NSW = 0
   NELM = 150
   ENCUT = 500
   ISIF = 2
   IBRION = 2
   LREAL = Auto
   ALGO = Fast
   ICHARG = 11
   LORBIT = 10
   LCHARG = .F.
   LWAVE = .F.

 POTCAR:    PAW_PBE Cu 22Jun2005
 POTCAR:    PAW_PBE Nb_sv 25May2007
 POTCAR:    PAW_PBE O 08Apr2002
|           W    W    AA    RRRRR   N    N  II  N    N   GGGG   !!!           |
|           W    W   A  A   R    R  NN   N  II  NN   N  G    G  !!!           |
|           W    W  A    A  R    R  N N  N  II  N N  N  G       !!!           |
|           W WW W  AAAAAA  RRRRR   N  N N  II  N  N N  G  GGG   !            |
|           WW  WW  A    A  R   R   N   NN  II  N   NN  G    G                |
|           W    W  A    A  R    R  N    N  II  N    N   GGGG   !!!           |
|     For optimal performance we recommend to set                             |
|       NCORE = 2 up to number-of-cores-per-socket                            |
|     This setting can greatly improve the performance of VASP for DFT.       |
|     The default, NCORE=1 might be grossly inefficient on modern             |
|     multi-core architectures or massively parallel machines. Do your        |
|     Unfortunately you need to use the default for GW and RPA                |
|     calculations (for HF NCORE is supported but not extensively tested      |
|     yet).                                                                   |

 POTCAR:    PAW_PBE Cu 22Jun2005
   VRHFIN =Cu: d10 p1

   TITEL  = PAW_PBE Cu 22Jun2005
   POMASS =   63.546; ZVAL   =   11.000    mass and valenz
   ENMAX  =  295.446; ENMIN  =  221.585 eV

 POTCAR:    PAW_PBE Nb_sv 25May2007
   VRHFIN =Nb: 4p5s4d

   TITEL  = PAW_PBE Nb_sv 25May2007
   POMASS =   92.910; ZVAL   =   13.000    mass and valenz
   ENMAX  =  293.235; ENMIN  =  219.927 eV

 POTCAR:    PAW_PBE O 08Apr2002
   VRHFIN =O: s2p4

   TITEL  = PAW_PBE O 08Apr2002
   POMASS =   16.000; ZVAL   =    6.000    mass and valenz
   ENMAX  =  400.000; ENMIN  =  300.000 eV

 Optimization of the real space projectors (new method)

 maximal supplied QI-value         = 16.25
 optimisation between [QCUT,QGAM] = [ 11.38, 22.75] = [ 36.24,144.96] Ry
 Optimized for a Real-space Cutoff    1.52 Angstroem

   l    n(q)    QCUT    max X(q) W(low)/X(q) W(high)/X(q)  e(spline)
   2      9    11.376     4.610    0.21E-03    0.10E-03    0.26E-06
   2      9    11.376     8.522    0.33E-03    0.16E-03    0.37E-06
   0     10    11.376    51.609    0.62E-04    0.20E-04    0.13E-06
   0     10    11.376    27.747    0.54E-04    0.20E-04    0.13E-06
   1     10    11.376    20.408    0.13E-04    0.99E-04    0.19E-06
   1     10    11.376    13.425    0.12E-04    0.87E-04    0.17E-06
 Optimization of the real space projectors (new method)

[...]

   l    n(q)    QCUT    max X(q) W(low)/X(q) W(high)/X(q)  e(spline)
   0     11    11.450    10.201    0.21E-04    0.96E-05    0.78E-07
   0     11    11.450     8.174    0.31E-04    0.18E-04    0.14E-06
   1     10    11.450     3.488    0.27E-04    0.12E-04    0.96E-07
   1     10    11.450     4.917    0.11E-03    0.11E-03    0.37E-06
   2     10    11.450   153.744    0.37E-03    0.81E-03    0.10E-05
   2     10    11.450   126.342    0.37E-03    0.81E-03    0.10E-05
 Optimization of the real space projectors (new method)

 maximal supplied QI-value         = 24.76
 optimisation between [QCUT,QGAM] = [ 11.39, 22.77] = [ 36.31,145.25] Ry
 Optimized for a Real-space Cutoff    1.00 Angstroem

   l    n(q)    QCUT    max X(q) W(low)/X(q) W(high)/X(q)  e(spline)
   0      7    11.387    20.381    0.39E-03    0.13E-02    0.15E-06
   0      7    11.387    15.268    0.42E-03    0.14E-02    0.17E-06
   1      6    11.387     5.964    0.41E-03    0.11E-02    0.17E-06
   1      6    11.387     5.382    0.39E-03    0.87E-03    0.15E-06
  PAW_PBE Cu 22Jun2005                  :
  PAW_PBE Nb_sv 25May2007               :
  PAW_PBE O 08Apr2002                   :

 POSCAR: Cu-Nb-O2
  positions in direct lattice
  velocities in cartesian coordinates
 exchange correlation table for  LEXCH =        8
   RHO(1)=    0.500       N(1)  =     2000
   RHO(2)=  100.500       N(2)  =     4000

 VTST: version 3.2, (02/03/18)

 CHAIN: initializing optimizer

 OPT: Using VASP Conjugate-Gradient optimizer
 CHAIN: Read ICHAIN            0

 POSCAR: Cu-Nb-O2
  positions in direct lattice
  velocities in cartesian coordinates

 ion  position               nearest neighbor table
   1  0.000  0.000  0.226-   7 2.57   3 2.57   4 2.57   2 2.57   6 2.57   8 2.57  12 2.57  10 2.57
                            16 2.57
   2  0.333  0.000  0.226-   8 2.57   9 2.57   5 2.57   1 2.57   3 2.57  11 2.57   4 2.57  10 2.57
                            17 2.57
   3  0.667  0.000  0.226-   1 2.57   7 2.57   6 2.57   9 2.57   2 2.57  12 2.57   5 2.57  18 2.57
                            11 2.57
   4  0.000  0.333  0.226-   5 2.57   6 2.57   1 2.57   7 2.57   2 2.57  13 2.57   9 2.57  10 2.57
                            15 2.57
   5  0.333  0.333  0.226-   4 2.57   2 2.57   7 2.57  13 2.57   8 2.57   6 2.57   3 2.57  11 2.57
                            14 2.57
   6  0.667  0.333  0.226-   4 2.57   9 2.57  15 2.57   3 2.57   1 2.57   8 2.57  14 2.57   5 2.57
                            12 2.57
   7  0.000  0.667  0.226-   1 2.57   3 2.57  16 2.57  18 2.57   4 2.57   5 2.57   8 2.57   9 2.57
                            13 2.57
   8  0.333  0.667  0.226-   9 2.57   2 2.57  17 2.57   6 2.57   1 2.57   7 2.57   5 2.57  14 2.57
                            16 2.57
   9  0.667  0.667  0.226-   8 2.57   6 2.57   2 2.57  17 2.57   3 2.57   7 2.57   4 2.57  15 2.57
                            18 2.57
  10  0.111  0.111  0.314-  26 2.55  19 2.55  11 2.57  12 2.57  13 2.57   1 2.57   2 2.57   4 2.57
                            15 2.57  16 2.57  17 2.57  20 2.57
  11  0.444  0.111  0.314-  20 2.57  21 2.57  10 2.57  13 2.57   2 2.57  17 2.57  14 2.57  12 2.57
                             5 2.57   3 2.57  18 2.57  27 2.57
  12  0.778  0.111  0.314-  19 2.55  25 2.55  15 2.57  10 2.57  14 2.57  18 2.57   3 2.57   1 2.57
                            16 2.57  11 2.57   6 2.57  21 2.57
  13  0.111  0.444  0.314-  23 2.57  20 2.57  16 2.57  18 2.57  10 2.57  11 2.57  14 2.57   5 2.57
                             4 2.57   7 2.57  15 2.57  22 2.57
  14  0.444  0.444  0.314-  21 2.57  23 2.57  15 2.57  17 2.57  12 2.57  16 2.57  13 2.57  11 2.57
                             6 2.57   8 2.57   5 2.57  24 2.57
  15  0.778  0.444  0.314-  19 2.55  14 2.57  17 2.57  12 2.57   6 2.57  18 2.57  10 2.57   9 2.57
                            13 2.57   4 2.57  24 2.57  22 2.57
  16  0.111  0.778  0.314-  25 2.55  26 2.55  18 2.57  13 2.57   7 2.57  14 2.57  17 2.57  12 2.57
                            10 2.57   8 2.57   1 2.57  23 2.57
  17  0.444  0.778  0.314-  26 2.55  14 2.57  15 2.57   8 2.57   9 2.57  11 2.57  16 2.57  18 2.57
                            10 2.57   2 2.57  27 2.57  24 2.57
  18  0.778  0.778  0.314-  25 2.55  16 2.57  13 2.57   7 2.57  15 2.57  12 2.57  17 2.57   9 2.57
                             3 2.57  11 2.57  22 2.57  27 2.57
  19  0.889  0.222  0.401-  12 2.55  10 2.55  15 2.55  25 2.56  26 2.56  21 2.57  20 2.57  22 2.57
                            24 2.57  28 2.57  32 2.58  31 2.58
  20  0.222  0.222  0.402-  23 2.56  21 2.56  11 2.57  13 2.57  10 2.57  26 2.57  19 2.57  27 2.57
                            22 2.57  29 2.59  31 2.59  36 2.66
  21  0.555  0.222  0.402-  20 2.56  23 2.56  14 2.57  11 2.57  12 2.57  19 2.57  25 2.57  24 2.57
                            27 2.57  32 2.59  30 2.59  36 2.66
  22  0.889  0.556  0.402-  24 2.56  27 2.56  18 2.57  15 2.57  23 2.57  20 2.57  19 2.57  25 2.57
                            13 2.57  35 2.57  31 2.57  33 2.57
  23  0.222  0.555  0.402-  20 2.56  21 2.56  13 2.57  14 2.57  16 2.57  25 2.57  26 2.57  22 2.57
                            24 2.57  33 2.59  34 2.59  36 2.66
  24  0.556  0.556  0.402-  22 2.56  27 2.56  15 2.57  17 2.57  21 2.57  23 2.57  19 2.57  26 2.57
                            14 2.57  35 2.57  32 2.57  34 2.57
  25  0.889  0.889  0.401-  12 2.55  16 2.55  18 2.55  19 2.56  26 2.56  21 2.57  23 2.57  22 2.57
                            27 2.57  28 2.57  33 2.58  30 2.58
  26  0.222  0.889  0.401-  10 2.55  16 2.55  17 2.55  25 2.56  19 2.56  20 2.57  23 2.57  27 2.57
                            24 2.57  28 2.57  29 2.58  34 2.58
  27  0.556  0.889  0.402-  24 2.56  22 2.56  17 2.57  18 2.57  20 2.57  21 2.57  26 2.57  25 2.57
                            11 2.57  35 2.57  29 2.57  30 2.57
  28  0.000  0.000  0.489-  33 2.55  30 2.55  31 2.55  29 2.55  32 2.55  34 2.55  25 2.57  19 2.57
                            26 2.57
  29  0.334  0.996  0.490-  34 2.51  35 2.55  28 2.55  27 2.57  26 2.58  20 2.59  30 2.59  36 2.60
                            31 2.60
  30  0.670  0.996  0.490-  33 2.51  35 2.55  28 2.55  27 2.57  25 2.58  21 2.59  29 2.59  36 2.60
                            32 2.60
  31  0.996  0.334  0.490-  32 2.51  35 2.55  28 2.55  22 2.57  19 2.58  20 2.59  33 2.59  36 2.60
                            29 2.60
  32  0.670  0.334  0.490-  31 2.51  35 2.55  28 2.55  24 2.57  19 2.58  21 2.59  34 2.59  36 2.60
                            30 2.60
  33  0.996  0.670  0.490-  30 2.51  35 2.55  28 2.55  22 2.57  25 2.58  23 2.59  31 2.59  36 2.60
                            34 2.60
  34  0.334  0.670  0.490-  29 2.51  35 2.55  28 2.55  24 2.57  26 2.58  23 2.59  32 2.59  36 2.60
                            33 2.60
  35  0.667  0.667  0.490-  34 2.55  32 2.55  29 2.55  30 2.55  33 2.55  31 2.55  24 2.57  27 2.57
                            22 2.57
  36  0.333  0.333  0.495-  37 1.98  38 1.98  31 2.60  29 2.60  33 2.60  32 2.60  34 2.60  30 2.60
                            23 2.66  20 2.66  21 2.66
  37  0.238  0.333  0.572-  38 1.47  36 1.98
  38  0.429  0.333  0.572-  37 1.47  36 1.98

  LATTYP: Found a hexagonal cell.
 ALAT       =     7.6967864036
 C/A-ratio  =     3.0908716217

  Lattice vectors:

 A1 = (  -3.8483927580,  -6.6656128093,   0.0000000000)
 A2 = (   7.6967864037,   0.0000000000,   0.0000000000)
 A3 = (   0.0000000000,   0.0000000000,  23.7897786731)

Analysis of symmetry for initial positions (statically):
 Subroutine PRICEL returns:
 Original cell was already a primitive cell.

 Routine SETGRP: Setting up the symmetry group for a
 hexagonal supercell.

 Subroutine GETGRP returns: Found  2 space group operations
 (whereof  2 operations were pure point group operations)
 out of a pool of 24 trial point group operations.

The static configuration has the point symmetry C_1h.

Analysis of symmetry for dynamics (positions and initial velocities):
 Subroutine PRICEL returns:
 Original cell was already a primitive cell.

[...]

The dynamic configuration has the point symmetry C_1h.

Analysis of constrained symmetry for selective dynamics:
 Subroutine PRICEL returns:
 Original cell was already a primitive cell.

 Routine SETGRP: Setting up the symmetry group for a
 hexagonal supercell.

[...]
     33      -4.6896      2.00000
     34      -4.6811      2.00000
     35      -4.6420      2.00000
     36      -4.6176      2.00000
     37      -4.5764      2.00000
     38      -4.5634      2.00000
     39      -4.5581      2.00000
     40      -4.5507      2.00000
     41      -4.5391      2.00000
     42      -4.4927      2.00000
     43      -4.4602      2.00000
     44      -4.4430      2.00000
     45      -4.3890      2.00000
     46      -4.2503      2.00000
     47      -4.2359      2.00000
     48      -4.1960      2.00000
     49      -4.1771      2.00000
     50      -4.1677      2.00000
     51      -4.1475      2.00000
     52      -4.1374      2.00000
     53      -4.1268      2.00000
     54      -4.1153      2.00000
     55      -3.9749      2.00000
     56      -3.9409      2.00000
     57      -3.9350      2.00000
     58      -3.9214      2.00000
     59      -3.8697      2.00000
     60      -3.8611      2.00000
[...]
    238       5.1892      0.00000
    239       5.2310      0.00000
    240       5.3949      0.00000
    241       5.4177      0.00000
    242       5.4704      0.00000
    243       5.6142      0.00000
    244       5.7212      0.00000
    245       5.8636      0.00000
    246       5.9652      0.00000
    247       6.1467      0.00000
    248       6.2431      0.00000
    249       6.2687      0.00000
    250       6.3403      0.00000
    251       6.4644      0.00000
    252       6.5955      0.00000

 soft charge-density along one line, spin component           1
         0         1         2         3         4         5         6         7         8         9
 total charge-density along one line

------------------------ aborting loop because EDIFF is reached ----------------------------------------

 total charge

# of ion       s       p       d       tot
    1        0.451   0.282   9.189   9.921
    2        0.448   0.285   9.187   9.920
    3        0.448   0.285   9.187   9.920
    4        0.448   0.285   9.187   9.919
    5        0.448   0.285   9.185   9.918
    6        0.448   0.285   9.187   9.919
    7        0.448   0.285   9.187   9.920
    8        0.448   0.285   9.187   9.920
    9        0.448   0.284   9.188   9.920
   10        0.443   0.370   9.179   9.992
   11        0.440   0.366   9.183   9.989
   12        0.443   0.370   9.179   9.992
   13        0.440   0.366   9.182   9.989
   14        0.440   0.366   9.182   9.989
   15        0.438   0.370   9.179   9.987
   16        0.444   0.371   9.178   9.992
   17        0.438   0.370   9.179   9.988
   18        0.438   0.370   9.179   9.988
   19        0.442   0.368   9.183   9.993
   20        0.463   0.390   9.162  10.015
   21        0.463   0.390   9.162  10.015
   22        0.432   0.374   9.177   9.983
   23        0.464   0.393   9.159  10.017
   24        0.432   0.374   9.177   9.983
   25        0.443   0.369   9.182   9.994
   26        0.443   0.369   9.182   9.994
   27        0.434   0.371   9.180   9.985
   28        0.453   0.293   9.182   9.927
   29        0.473   0.314   9.171   9.959
   30        0.473   0.314   9.171   9.959
   31        0.478   0.305   9.178   9.960
   32        0.478   0.305   9.178   9.960
   33        0.473   0.315   9.172   9.960
   34        0.473   0.315   9.172   9.960
   35        0.450   0.298   9.179   9.927
   36        2.224   6.052   2.395  10.671
   37        1.613   3.251   0.000   4.864
   38        1.613   3.251   0.000   4.864
tot         21.221  24.290 323.662 369.172

  FORCE on cell =-STRESS in cart. coord.  units (eV):
  Direction    XX          YY          ZZ          XY          YZ          ZX
  Alpha Z   835.76058   835.76058   835.76058
  Ewald  227930.26535227489.29273************     0.00044    -0.43691     0.00022
  Hartree240959.26122240719.71983************     0.00006    -0.45243     0.00008
  E(xc)   -2364.97273 -2365.75786 -2369.51039    -0.00031    -0.00639    -0.00004
  Local  ************************481732.47674     0.02031     1.56603    -0.00080
  n-local  -802.32928  -810.51490  -817.03348     1.36276    -0.02174     0.03444
  augment  3334.49141  3338.91412  3359.78725    -0.01826    -0.03846     0.00043
  Kinetic  3619.22847  3663.12237  3666.06077     0.56308    -0.62448    -0.25628
  Fock        0.00000     0.00000     0.00000     0.00000     0.00000     0.00000
  Total      -0.84683    -1.41466     1.05385     0.00000    -0.01438     0.00000
  in kB      -1.11164    -1.85705     1.38340     0.00000    -0.01888     0.00000

 VOLUME and BASIS-vectors are now :
  energy-cutoff  :      500.00
  volume of cell :     1220.51
      direct lattice vectors                 reciprocal lattice vectors
     7.696786404  0.000000000  0.000000000     0.129924354 -0.075011849  0.000000000
     3.848392758  6.665612809  0.000000000     0.000000000  0.150023716  0.000000000
     0.000000000  0.000000000 23.789778673     0.000000000  0.000000000  0.042034859

  length of vectors
     7.696786404  7.696786404 23.789778673     0.150023716  0.150023716  0.042034859

 FORCES acting on ions
    electron-ion (+dipol)            ewald-force                    non-local-force                 convergence-correction
   -.412E-04 -.672E-01 0.381E+04   0.578E-04 -.299E-01 -.380E+04   -.265E-08 0.398E-01 -.230E+01   -.336E-03 0.502E-01 -.272E+00
   -.358E+00 0.788E-01 0.381E+04   0.356E+00 -.156E+00 -.380E+04   0.367E-01 0.915E-01 -.190E+01   -.354E-01 -.105E-01 -.243E+00
   0.358E+00 0.788E-01 0.381E+04   -.356E+00 -.156E+00 -.380E+04   -.367E-01 0.915E-01 -.190E+01   0.363E-01 -.784E-02 -.242E+00
   -.897E-01 -.398E+00 0.381E+04   0.687E-01 0.371E+00 -.380E+04   0.523E-01 -.378E-01 -.198E+01   -.204E-01 0.594E-01 -.270E+00
   -.638E-04 -.615E-02 0.381E+04   0.116E-03 0.301E-03 -.380E+04   0.111E-08 -.167E-01 -.190E+01   0.122E-01 0.244E-01 -.213E+00
   0.897E-01 -.398E+00 0.381E+04   -.688E-01 0.371E+00 -.380E+04   -.523E-01 -.378E-01 -.198E+01   0.187E-01 0.606E-01 -.269E+00
   0.339E+00 0.331E+00 0.381E+04   -.286E+00 -.216E+00 -.380E+04   0.483E-01 -.696E-01 -.189E+01   -.912E-01 -.474E-01 -.234E+00
   -.339E+00 0.331E+00 0.381E+04   0.286E+00 -.216E+00 -.380E+04   -.483E-01 -.696E-01 -.189E+01   0.947E-01 -.489E-01 -.234E+00
   -.144E-03 0.624E-01 0.381E+04   0.263E-03 0.296E-01 -.380E+04   0.303E-09 -.456E-02 -.212E+01   -.133E-01 -.824E-01 -.252E+00
   -.227E+01 -.113E+01 0.138E+04   0.261E+01 0.126E+01 -.138E+04   -.352E+00 -.158E+00 -.835E+00   0.189E-01 0.299E-01 -.451E-03
   -.830E-04 0.144E+01 0.138E+04   0.190E-03 -.178E+01 -.138E+04   -.170E-07 0.255E+00 -.317E+00   0.118E-01 0.400E-01 0.185E-01
   0.227E+01 -.113E+01 0.138E+04   -.261E+01 0.126E+01 -.138E+04   0.352E+00 -.158E+00 -.835E+00   -.209E-01 0.319E-01 0.257E-03
   0.996E+00 -.756E+00 0.138E+04   -.132E+01 0.930E+00 -.138E+04   0.298E+00 -.155E+00 -.422E+00   0.204E-04 0.226E-03 -.352E-02
   -.996E+00 -.756E+00 0.138E+04   0.132E+01 0.930E+00 -.138E+04   -.298E+00 -.155E+00 -.422E+00   0.244E-01 -.768E-03 -.334E-02
   -.140E-03 -.354E+01 0.138E+04   0.298E-03 0.351E+01 -.138E+04   -.157E-08 0.236E-01 -.886E+00   -.407E-02 0.909E-02 -.781E-02
   -.896E-04 0.254E+01 0.138E+04   0.185E-03 -.294E+01 -.138E+04   -.286E-07 0.429E+00 -.925E+00   -.151E-03 -.311E-01 -.366E-01
   -.299E+01 0.168E+01 0.138E+04   0.290E+01 -.159E+01 -.138E+04   0.778E-01 -.660E-01 -.787E+00   0.170E-01 -.351E-01 0.181E-01
   0.299E+01 0.168E+01 0.138E+04   -.291E+01 -.159E+01 -.138E+04   -.778E-01 -.660E-01 -.787E+00   -.163E-01 -.321E-01 0.187E-01
   -.647E-04 -.269E+00 -.106E+04   0.626E-04 0.958E-01 0.106E+04   -.219E-08 0.329E-01 0.142E+01   -.238E-02 0.991E-01 0.103E+00
   0.137E+02 0.913E+01 -.105E+04   -.129E+02 -.886E+01 0.105E+04   -.103E+01 -.397E+00 -.589E-02   0.246E-01 0.275E-01 0.991E-02
   -.137E+02 0.913E+01 -.105E+04   0.129E+02 -.886E+01 0.105E+04   0.103E+01 -.397E+00 -.589E-02   -.552E-03 0.294E-01 0.102E-01
   0.618E+01 -.507E+01 -.108E+04   -.637E+01 0.534E+01 0.107E+04   0.297E+00 -.269E+00 0.979E+00   -.496E-01 -.204E-01 -.871E-03
   -.463E-04 -.180E+02 -.106E+04   0.140E-03 0.169E+02 0.106E+04   -.894E-07 0.134E+01 -.406E+00   0.124E-01 -.578E-01 -.335E-01
   -.618E+01 -.507E+01 -.108E+04   0.637E+01 0.534E+01 0.107E+04   -.297E+00 -.269E+00 0.979E+00   0.468E-01 -.222E-01 -.124E-02
   0.109E+01 0.117E+01 -.106E+04   -.914E+00 -.119E+01 0.106E+04   -.882E-01 0.345E-01 0.111E+01   -.875E-01 0.127E-01 0.443E-01
   -.109E+01 0.117E+01 -.106E+04   0.914E+00 -.119E+01 0.106E+04   0.882E-01 0.345E-01 0.111E+01   0.880E-01 0.101E-01 0.453E-01
   -.132E-03 0.715E+01 -.108E+04   0.244E-03 -.761E+01 0.108E+04   -.384E-07 0.577E+00 0.116E+01   -.703E-03 -.368E-01 0.185E-01
   -.233E-04 0.715E+01 -.357E+04   0.288E-04 -.734E+01 0.356E+04   -.644E-08 0.966E-01 0.168E+01   0.116E-02 0.757E-01 0.360E+00
   0.409E+02 0.773E+02 -.353E+04   -.407E+02 -.780E+02 0.353E+04   -.307E+00 0.483E+00 0.202E+01   -.667E-01 -.701E-02 0.326E+00
   -.409E+02 0.773E+02 -.353E+04   0.407E+02 -.780E+02 0.353E+04   0.307E+00 0.483E+00 0.202E+01   0.460E-01 -.413E-02 0.326E+00
   0.946E+02 0.433E+01 -.351E+04   -.948E+02 -.410E+01 0.351E+04   -.121E+00 -.217E+00 0.280E+01   -.860E-01 -.142E-01 0.332E+00
   -.946E+02 0.433E+01 -.351E+04   0.948E+02 -.410E+01 0.351E+04   0.121E+00 -.217E+00 0.280E+01   0.619E-01 -.133E-01 0.332E+00
   0.333E+02 -.817E+02 -.353E+04   -.333E+02 0.821E+02 0.353E+04   0.586E-01 -.187E+00 0.216E+01   -.118E+00 0.242E-01 0.327E+00
   -.333E+02 -.817E+02 -.353E+04   0.333E+02 0.821E+02 0.353E+04   -.586E-01 -.187E+00 0.216E+01   0.100E+00 0.223E-01 0.326E+00
   -.156E-03 -.726E+01 -.359E+04   0.266E-03 0.738E+01 0.358E+04   0.291E-08 -.437E-01 0.193E+01   -.118E-01 -.546E-01 0.387E+00
   0.133E-03 -.314E+00 -.386E+04   0.151E-03 0.314E+00 0.387E+04   0.682E-09 -.102E-01 -.224E+01   0.877E-02 -.418E-01 0.268E+00
   0.240E+03 0.272E+00 -.244E+04   -.271E+03 -.177E+00 0.246E+04   0.319E+02 -.843E-01 -.189E+02   -.130E-01 -.789E-02 0.975E-01
   -.240E+03 0.272E+00 -.244E+04   0.271E+03 -.177E+00 0.246E+04   -.319E+02 -.843E-01 -.189E+02   0.179E-01 -.780E-02 0.962E-01
   0.285E-03 -.684E+00 0.391E+02   -.568E-13 -.298E-12 -.127E-10   -.437E-07 0.656E+00 -.403E+02   0.307E-02 0.228E-01 0.115E+01

 POSITION                                       TOTAL-FORCE (eV/Angst)
      0.00000      0.00000      5.37156         0.000000     -0.006893     -0.007589
      2.56560      0.00000      5.37156        -0.001614      0.005725      0.064357
      5.13119      0.00000      5.37156         0.001614      0.005725      0.064357
      1.28280      2.22187      5.37156         0.011707     -0.004614      0.060420
      3.84839      2.22187      5.37156        -0.000000      0.001951      0.051115
      6.41399      2.22187      5.37156        -0.011707     -0.004614      0.060420
      2.56560      4.44374      5.37156         0.007708     -0.002002      0.060627
      5.13119      4.44374      5.37156        -0.007708     -0.002002      0.060627
      7.69679      4.44374      5.37156        -0.000000      0.005153      0.023150
      1.28280      0.74062      7.46636         0.002129      0.007274     -0.102987
      3.84839      0.74062      7.46636         0.000000     -0.045926     -0.048294
      6.41399      0.74062      7.46636        -0.002129      0.007274     -0.102987
      2.56560      2.96249      7.46636        -0.037694      0.019165     -0.037478
      5.13119      2.96249      7.46636         0.037694      0.019165     -0.037478
      7.69679      2.96249      7.46636        -0.000000      0.000832      0.006484
      3.84839      5.18437      7.46636        -0.000000      0.004139     -0.082669
      6.41399      5.18437      7.46636         0.011473     -0.008821      0.005174
      8.97958      5.18437      7.46636        -0.011473     -0.008821      0.005174
      7.69679      1.47855      9.54201         0.000000     -0.041009      0.041127
      2.56706      1.48209      9.56134        -0.166233     -0.097352     -0.286725
      5.12972      1.48209      9.56134         0.166233     -0.097352     -0.286725
      8.97774      3.70418      9.56312         0.058942     -0.017478      0.047517
      3.84839      3.70142      9.56134        -0.000000      0.205615     -0.249003
      6.41583      3.70418      9.56312        -0.058942     -0.017478      0.047517
     10.26471      5.92634      9.54201        -0.003064      0.021179      0.036469
      5.12886      5.92634      9.54201         0.003064      0.021179      0.036469
      7.69679      5.92286      9.56312        -0.000000      0.075844      0.030866
      0.00000      0.00000     11.64396         0.000000     -0.017055     -0.055380
      6.40056      6.63873     11.66709        -0.113566     -0.247938     -0.228874
      8.99302      6.63873     11.66709         0.113566     -0.247938     -0.228874
      8.94959      2.22368     11.66709        -0.432215     -0.000611     -0.316157
      6.44399      2.22368     11.66709         0.432215     -0.000611     -0.316157
     10.24582      4.46882     11.66709        -0.104472      0.246868     -0.241045
      5.14776      4.46882     11.66709         0.104472      0.246868     -0.241045
      7.69679      4.44374     11.66626        -0.000000      0.021555     -0.040504
      3.84839      2.22187     11.77465         0.000000     -0.052386      2.214941
      3.11407      2.22069     13.61307         0.019283      0.002697     -0.003418
      4.58272      2.22069     13.61307        -0.019283      0.002697     -0.003418
    total drift:                                0.003355     -0.005279     -0.034280

  FREE ENERGIE OF THE ION-ELECTRON SYSTEM (eV)
  free  energy   TOTEN  =      -143.65156966 eV

  energy  without entropy=     -143.65156966  energy(sigma->0) =     -143.65156966

 stress matrix after NEB project (eV)
     -0.84683      0.00000      0.00000
      0.00000     -1.41466     -0.01438
      0.00000     -0.01438      1.05385
  FORCES: max atom, RMS     0.019768    0.004535
  FORCE total and by dimension    0.027956    0.019283
  Stress total and by dimension    1.956885    1.414662
|           W    W    AA    RRRRR   N    N  II  N    N   GGGG   !!!           |
|           W    W   A  A   R    R  NN   N  II  NN   N  G    G  !!!           |
|           W    W  A    A  R    R  N N  N  II  N N  N  G       !!!           |
|           W WW W  AAAAAA  RRRRR   N  N N  II  N  N N  G  GGG   !            |
|           WW  WW  A    A  R   R   N   NN  II  N   NN  G    G                |
|           W    W  A    A  R    R  N    N  II  N    N   GGGG   !!!           |
|     Tetrahedron method does not include variations of the Fermi             |
|     occupations, so forces and stress will be inaccurate. We suggest        |
|     using a different smearing scheme ISMEAR = 1 or 2 for metals in         |
|     relaxations.                                                            |

 total charge

# of ion       s       p       d       tot
    1        0.451   0.282   9.189   9.921
    2        0.448   0.285   9.187   9.920
    3        0.448   0.285   9.187   9.920
    4        0.448   0.285   9.187   9.919
    5        0.448   0.285   9.185   9.918
    6        0.448   0.285   9.187   9.919
    7        0.448   0.285   9.187   9.920
    8        0.448   0.285   9.187   9.920
    9        0.448   0.284   9.188   9.920
   10        0.443   0.370   9.179   9.992
   11        0.440   0.366   9.183   9.989
   12        0.443   0.370   9.179   9.992
   13        0.440   0.366   9.182   9.989
   14        0.440   0.366   9.182   9.989
   15        0.438   0.370   9.179   9.987
   16        0.444   0.371   9.178   9.992
   17        0.438   0.370   9.179   9.988
   18        0.438   0.370   9.179   9.988
   19        0.442   0.368   9.183   9.993
   20        0.463   0.390   9.162  10.015
   21        0.463   0.390   9.162  10.015
   22        0.432   0.374   9.177   9.983
   23        0.464   0.393   9.159  10.017
   24        0.432   0.374   9.177   9.983
   25        0.443   0.369   9.182   9.994
   26        0.443   0.369   9.182   9.994
   27        0.434   0.371   9.180   9.985
   28        0.453   0.293   9.182   9.927
   29        0.473   0.314   9.171   9.959
   30        0.473   0.314   9.171   9.959
   31        0.478   0.305   9.178   9.960
   32        0.478   0.305   9.178   9.960
   33        0.473   0.315   9.172   9.960
   34        0.473   0.315   9.172   9.960
   35        0.450   0.298   9.179   9.927
   36        2.224   6.052   2.395  10.671
   37        1.613   3.251   0.000   4.864
   38        1.613   3.251   0.000   4.864
tot         21.221  24.290 323.662 369.172

 BZINTS: Fermi energy:   -0.404084;  410.000000 electrons
         Band energy:-0.171149E+04;  BLOECHL correction:   -0.043430