 vasp.6.2.0 18Jan21 (build Jun 12 2021 23:27:24) complex

 executed on             LinuxIFC date 2022.05.26  20:22:42

 INCAR:
   ISMEAR = -5
   SIGMA = 0.1
   ISPIN = 1
   EDIFF = 1.d-5
   EDIFFG = -0.01
   NSW = 0
   NELM = 150
   ENCUT = 500
   ISIF = 2
   IBRION = 2
   LREAL = Auto
   ALGO = Fast
   ICHARG = 11
   LORBIT = 10
   LCHARG = .F.
   LWAVE = .F.

 POTCAR:    PAW_PBE Ag 02Apr2005
 POTCAR:    PAW_PBE Ta 17Jan2003
|           W    W    AA    RRRRR   N    N  II  N    N   GGGG   !!!           |
|           W    W   A  A   R    R  NN   N  II  NN   N  G    G  !!!           |
|           W    W  A    A  R    R  N N  N  II  N N  N  G       !!!           |
|           W WW W  AAAAAA  RRRRR   N  N N  II  N  N N  G  GGG   !            |
|           WW  WW  A    A  R   R   N   NN  II  N   NN  G    G                |
|           W    W  A    A  R    R  N    N  II  N    N   GGGG   !!!           |
|     For optimal performance we recommend to set                             |
|       NCORE = 2 up to number-of-cores-per-socket                            |
|     This setting can greatly improve the performance of VASP for DFT.       |
|     The default, NCORE=1 might be grossly inefficient on modern             |
|     multi-core architectures or massively parallel machines. Do your        |
|     Unfortunately you need to use the default for GW and RPA                |
|     calculations (for HF NCORE is supported but not extensively tested      |
|     yet).                                                                   |

 POTCAR:    PAW_PBE Ag 02Apr2005
   VRHFIN =Ag : s1 d10

   TITEL  = PAW_PBE Ag 02Apr2005
   POMASS =  107.868; ZVAL   =   11.000    mass and valenz
   ENMAX  =  249.844; ENMIN  =  187.383 eV

 POTCAR:    PAW_PBE Ta 17Jan2003
   VRHFIN =Ta:  6s5d

   TITEL  = PAW_PBE Ta 17Jan2003
   POMASS =  180.948; ZVAL   =    5.000    mass and valenz
   ENMAX  =  223.667; ENMIN  =  167.750 eV

 Optimization of the real space projectors (new method)

 maximal supplied QI-value         = 15.12
 optimisation between [QCUT,QGAM] = [ 11.34, 22.83] = [ 36.00,145.93] Ry
 Optimized for a Real-space Cutoff    1.43 Angstroem

   l    n(q)    QCUT    max X(q) W(low)/X(q) W(high)/X(q)  e(spline)
   2      9    11.338    53.897    0.16E-03    0.20E-03    0.28E-06
   2      9    11.338    52.416    0.16E-03    0.20E-03    0.29E-06
   0     10    11.338   122.045    0.31E-04    0.76E-04    0.15E-06
   0     10    11.338    73.629    0.30E-04    0.72E-04    0.15E-06
   1      9    11.338    15.255    0.20E-03    0.19E-04    0.17E-06
   1      9    11.338     9.562    0.16E-03    0.15E-04    0.14E-06
 Optimization of the real space projectors (new method)

 maximal supplied QI-value         = 12.85
 optimisation between [QCUT,QGAM] = [ 11.44, 22.87] = [ 36.63,146.51] Ry
 Optimized for a Real-space Cutoff    1.61 Angstroem

   l    n(q)    QCUT    max X(q) W(low)/X(q) W(high)/X(q)  e(spline)
   2     10    11.437    62.315    0.14E-03    0.26E-03    0.80E-06
   2     10    11.437    52.185    0.14E-03    0.26E-03    0.80E-06
   0     11    11.437   103.837    0.25E-04    0.17E-04    0.84E-07
   0     11    11.437    59.728    0.20E-04    0.15E-04    0.73E-07
   1     11    11.437    13.958    0.47E-03    0.12E-03    0.89E-06
   1     11    11.437     8.441    0.33E-03    0.88E-04    0.61E-06
  PAW_PBE Ag 02Apr2005                  :
  PAW_PBE Ta 17Jan2003                  :

 POSCAR: Ag-Ta
  positions in direct lattice
  velocities in cartesian coordinates
 exchange correlation table for  LEXCH =        8
   RHO(1)=    0.500       N(1)  =     2000
   RHO(2)=  100.500       N(2)  =     4000

 VTST: version 3.2, (02/03/18)

 CHAIN: initializing optimizer

 OPT: Using VASP Conjugate-Gradient optimizer
 CHAIN: Read ICHAIN            0

 POSCAR: Ag-Ta
  positions in direct lattice
  velocities in cartesian coordinates

 ion  position               nearest neighbor table
   1  0.000  0.000  0.238-   2 2.93   8 2.93   7 2.93   6 2.93   4 2.93  12 2.93  16 2.93  10 2.93
                             3 2.93
   2  0.333  0.000  0.238-   1 2.93   8 2.93   9 2.93   3 2.93   4 2.93   5 2.93  10 2.93  17 2.93
                            11 2.93
   3  0.667  0.000  0.238-   9 2.93   2 2.93   5 2.93  11 2.93   7 2.93  18 2.93   1 2.93   6 2.93
                            12 2.93
   4  0.000  0.333  0.238-   5 2.93   6 2.93   2 2.93   1 2.93   7 2.93  13 2.93  15 2.93   9 2.93
                            10 2.93
   5  0.333  0.333  0.238-   4 2.93   3 2.93   7 2.93   2 2.93   8 2.93  14 2.93  13 2.93  11 2.93
                             6 2.93
   6  0.667  0.333  0.238-   4 2.93   9 2.93   1 2.93  15 2.93   8 2.93  12 2.93   3 2.93   5 2.93
                            14 2.93
   7  0.000  0.667  0.238-   8 2.93   1 2.93   5 2.93   3 2.93   4 2.93  16 2.93  18 2.93  13 2.93
                             9 2.93
   8  0.333  0.667  0.238-   7 2.93   1 2.93   2 2.93   9 2.93   5 2.93  16 2.93   6 2.93  17 2.93
                            14 2.93
   9  0.667  0.667  0.238-   3 2.93   2 2.93   8 2.93   6 2.93  17 2.93   4 2.93  15 2.93   7 2.93
                            18 2.93
  10  0.111  0.111  0.346-  20 2.89  12 2.93  16 2.93  15 2.93  17 2.93  13 2.93  11 2.93   2 2.93
                             1 2.93   4 2.93  19 2.93  26 2.93
  11  0.444  0.111  0.346-  21 2.90  20 2.90  14 2.93  17 2.93  18 2.93   3 2.93  12 2.93  13 2.93
                            10 2.93   5 2.93   2 2.93  27 2.93
  12  0.778  0.111  0.346-  21 2.89  10 2.93  16 2.93  18 2.93  15 2.93  11 2.93   1 2.93  14 2.93
                             6 2.93   3 2.93  25 2.93  19 2.93
  13  0.111  0.444  0.346-  20 2.90  23 2.90  15 2.93  14 2.93  18 2.93  10 2.93  11 2.93  16 2.93
                             4 2.93   5 2.93   7 2.93  22 2.93
  14  0.444  0.444  0.346-  23 2.90  21 2.90  13 2.93  11 2.93  16 2.93   5 2.93  12 2.93  17 2.93
                             8 2.93  15 2.93   6 2.93  24 2.93
  15  0.778  0.444  0.346-  19 2.93  24 2.93  22 2.93  13 2.93  10 2.93  12 2.93  17 2.93  18 2.93
                             4 2.93   6 2.93   9 2.93  14 2.93
  16  0.111  0.778  0.346-  23 2.89  18 2.93  12 2.93  10 2.93  14 2.93  17 2.93  13 2.93   7 2.93
                             8 2.93   1 2.93  26 2.93  25 2.93
  17  0.444  0.778  0.346-  26 2.93  27 2.93  24 2.93  11 2.93  10 2.93   9 2.93  18 2.93  15 2.93
                            16 2.93   2 2.93  14 2.93   8 2.93
  18  0.778  0.778  0.346-  25 2.93  22 2.93  27 2.93  16 2.93  12 2.93  13 2.93  11 2.93  17 2.93
                            15 2.93   7 2.93   3 2.93   9 2.93
  19  0.889  0.223  0.454-  20 2.92  21 2.92  24 2.93  22 2.93  28 2.93  15 2.93  10 2.93  12 2.93
                            26 2.94  25 2.94  32 2.99  31 2.99
  20  0.222  0.222  0.452-  36 2.78  10 2.89  13 2.90  11 2.90  19 2.92  26 2.92  27 2.93  22 2.93
                            21 2.95  23 2.95  31 2.97  29 2.97
  21  0.557  0.222  0.452-  36 2.78  12 2.89  11 2.90  14 2.90  25 2.92  19 2.92  27 2.93  24 2.93
                            20 2.95  23 2.95  30 2.97  32 2.97
  22  0.888  0.556  0.454-  24 2.92  27 2.92  25 2.93  19 2.93  18 2.93  15 2.93  13 2.93  23 2.93
                            20 2.93  35 2.94  33 2.96  31 2.96
  23  0.222  0.557  0.452-  36 2.78  16 2.89  14 2.90  13 2.90  26 2.92  25 2.92  22 2.93  24 2.93
                            21 2.95  20 2.95  34 2.97  33 2.97
  24  0.556  0.556  0.454-  27 2.92  22 2.92  19 2.93  26 2.93  15 2.93  17 2.93  14 2.93  23 2.93
                            21 2.93  35 2.94  32 2.96  34 2.96
  25  0.889  0.889  0.454-  23 2.92  21 2.92  22 2.93  27 2.93  28 2.93  18 2.93  16 2.93  12 2.93
                            26 2.94  19 2.94  33 2.99  30 2.99
  26  0.223  0.889  0.454-  23 2.92  20 2.92  27 2.93  24 2.93  28 2.93  17 2.93  16 2.93  10 2.93
                            25 2.94  19 2.94  34 2.99  29 2.99
  27  0.556  0.888  0.454-  24 2.92  22 2.92  26 2.93  25 2.93  17 2.93  18 2.93  11 2.93  20 2.93
                            21 2.93  35 2.94  29 2.96  30 2.96
  28  0.000  0.000  0.562-  26 2.93  25 2.93  19 2.93  29 2.96  34 2.96  33 2.96  32 2.96  31 2.96
                            30 2.96
  29  0.334  0.006  0.564-  30 2.88  31 2.88  36 2.89  35 2.96  28 2.96  27 2.96  20 2.97  26 2.99
                            34 3.03
  30  0.661  0.006  0.564-  29 2.88  32 2.88  36 2.89  35 2.96  28 2.96  27 2.96  21 2.97  25 2.99
                            33 3.03
  31  0.006  0.334  0.564-  33 2.88  29 2.88  36 2.89  35 2.96  28 2.96  22 2.96  20 2.97  19 2.99
                            32 3.03
  32  0.661  0.334  0.564-  34 2.88  30 2.88  36 2.89  35 2.96  28 2.96  24 2.96  21 2.97  19 2.99
                            31 3.03
  33  0.006  0.661  0.564-  31 2.88  34 2.88  36 2.89  35 2.96  28 2.96  22 2.96  23 2.97  25 2.99
                            30 3.03
  34  0.334  0.661  0.564-  32 2.88  33 2.88  36 2.89  35 2.96  28 2.96  24 2.96  23 2.97  26 2.99
                            29 3.03
  35  0.667  0.667  0.562-  24 2.94  27 2.94  22 2.94  30 2.96  32 2.96  29 2.96  34 2.96  31 2.96
                            33 2.96
  36  0.333  0.333  0.551-  21 2.78  20 2.78  23 2.78  31 2.89  33 2.89  30 2.89  29 2.89  34 2.89
                            32 2.89

  LATTYP: Found a hexagonal cell.
 ALAT       =     8.7913665772
 C/A-ratio  =     2.5227160501

  Lattice vectors:

 A1 = (  -4.3956832886,  -7.6135467898,   0.0000000000)
 A2 = (   8.7913665771,   0.0000000000,   0.0000000000)
 A3 = (   0.0000000000,   0.0000000000,  22.1781215668)

Analysis of symmetry for initial positions (statically):
 Subroutine PRICEL returns:
 Original cell was already a primitive cell.

 Routine SETGRP: Setting up the symmetry group for a
 hexagonal supercell.

 Subroutine GETGRP returns: Found  6 space group operations
 (whereof  6 operations were pure point group operations)
 out of a pool of 24 trial point group operations.

The static configuration has the point symmetry C_3v.

Analysis of symmetry for dynamics (positions and initial velocities):
 Subroutine PRICEL returns:
 Original cell was already a primitive cell.

[...]

The dynamic configuration has the point symmetry C_3v.

Analysis of constrained symmetry for selective dynamics:
 Subroutine PRICEL returns:
 Original cell was already a primitive cell.

 Routine SETGRP: Setting up the symmetry group for a
 hexagonal supercell.

 Subroutine GETGRP returns: Found  6 space group operations
 (whereof  6 operations were pure point group operations)
 out of a pool of 24 trial point group operations.

The constrained configuration has the point symmetry C_3v.

 Subroutine INISYM returns: Found  6 space group operations
 (whereof  6 operations are pure point group operations),
 and found     1 'primitive' translations

                                     Primitive cell

  volume of cell :    1484.4589

  direct lattice vectors                    reciprocal lattice vectors
     8.791366577  0.000000000  0.000000000     0.113747958 -0.065672414  0.000000000
     4.395683289  7.613546790  0.000000000     0.000000000  0.131344829  0.000000000
[...]
     15      -4.8004      2.00000
     16      -4.7501      2.00000
     17      -4.7385      2.00000
     18      -4.7273      2.00000
     19      -4.7186      2.00000
     20      -4.6944      2.00000
     21      -4.6762      2.00000
     22      -4.6574      2.00000
     23      -4.6519      2.00000
     24      -4.6342      2.00000
     25      -4.6217      2.00000
     26      -4.6129      2.00000
     27      -4.5849      2.00000
     28      -4.5668      2.00000
     29      -4.5651      2.00000
     30      -4.5469      2.00000
     31      -4.5250      2.00000
     32      -4.5009      2.00000
     33      -4.4974      2.00000
     34      -4.4716      2.00000
     35      -4.4518      2.00000
     36      -4.4159      2.00000
     37      -4.3829      2.00000
     38      -4.3526      2.00000
     39      -4.3473      2.00000
     40      -4.3381      2.00000
     41      -4.3251      2.00000
     42      -4.3093      2.00000
     43      -4.2207      2.00000
     44      -4.2041      2.00000
     45      -4.1890      2.00000
     46      -4.1810      2.00000
     47      -4.1759      2.00000
     48      -4.1688      2.00000
     49      -4.1643      2.00000
     50      -4.1580      2.00000
     51      -4.1430      2.00000
     52      -4.1394      2.00000
     53      -4.0774      2.00000
     54      -4.0681      2.00000
     55      -4.0598      2.00000
     56      -4.0411      2.00000
     57      -4.0282      2.00000
     58      -4.0109      2.00000
     59      -4.0053      2.00000
     60      -3.9716      2.00000
[...]
    238       7.2420      0.00000
    239       7.2515      0.00000
    240       7.2570      0.00000
    241       7.2837      0.00000
    242       7.2992      0.00000
    243       7.3476      0.00000
    244       7.4084      0.00000
    245       7.5197      0.00000
    246       7.5785      0.00000
    247       7.6236      0.00000
    248       7.6717      0.00000
    249       7.7793      0.00000
    250       7.9498      0.00000
    251       8.0694      0.00000
    252       8.1803      0.00000

 soft charge-density along one line, spin component           1
         0         1         2         3         4         5         6         7         8         9
 total charge-density along one line

------------------------ aborting loop because EDIFF is reached ----------------------------------------

 total charge

# of ion       s       p       d       tot
    1        0.423   0.199   9.178   9.799
    2        0.413   0.204   9.178   9.795
    3        0.413   0.204   9.178   9.795
    4        0.413   0.204   9.178   9.795
    5        0.422   0.201   9.175   9.798
    6        0.413   0.204   9.178   9.795
    7        0.413   0.204   9.178   9.795
    8        0.413   0.204   9.178   9.795
    9        0.418   0.201   9.177   9.796
   10        0.412   0.269   9.161   9.842
   11        0.405   0.267   9.170   9.842
   12        0.412   0.269   9.161   9.842
   13        0.405   0.267   9.170   9.842
   14        0.405   0.267   9.170   9.842
   15        0.405   0.266   9.165   9.836
   16        0.412   0.269   9.161   9.842
   17        0.405   0.266   9.165   9.836
   18        0.405   0.266   9.165   9.836
   19        0.400   0.265   9.165   9.829
   20        0.449   0.312   9.124   9.885
   21        0.449   0.312   9.124   9.885
   22        0.393   0.269   9.168   9.830
   23        0.449   0.312   9.124   9.885
   24        0.393   0.269   9.168   9.830
   25        0.400   0.265   9.165   9.829
   26        0.400   0.265   9.165   9.829
   27        0.393   0.269   9.168   9.830
   28        0.405   0.200   9.173   9.779
   29        0.447   0.223   9.143   9.813
   30        0.447   0.223   9.143   9.813
   31        0.447   0.223   9.143   9.813
   32        0.447   0.223   9.143   9.813
   33        0.447   0.223   9.143   9.813
   34        0.447   0.223   9.143   9.813
   35        0.401   0.201   9.175   9.777
   36        0.680   0.429   2.865   3.974
tot         15.301   8.940 323.517 347.758

  FORCE on cell =-STRESS in cart. coord.  units (eV):
  Direction    XX          YY          ZZ          XY          YZ          ZX
  Alpha Z   740.16585   740.16585   740.16585
  Ewald  118130.79895118130.79881************    -0.00002    -0.00001    -0.00003
  Hartree128122.99009128122.99003************    -0.00001    -0.00001    -0.00001
  E(xc)   -2049.63727 -2049.63726 -2055.64746    -0.00001     0.00000     0.00000
  Local  ************************257346.39381     0.00023    -0.00002    -0.00003
  n-local  -327.32946  -308.43428  -322.44586    10.85310    -0.44661     0.66033
  augment  3220.65777  3220.65788  3234.98597    -0.00012     0.00004     0.00001
  Kinetic  4815.17710  4813.55738  4853.09472     1.93907     0.42753    -0.34920
  Fock        0.00000     0.00000     0.00000     0.00000     0.00000     0.00000
  Total     -10.12391   -10.12391    -0.30700    -0.00000     0.00000     0.00000
  in kB     -10.92674   -10.92674    -0.33135    -0.00000     0.00000     0.00000

 VOLUME and BASIS-vectors are now :
  energy-cutoff  :      500.00
  volume of cell :     1484.46
      direct lattice vectors                 reciprocal lattice vectors
     8.791366577  0.000000000  0.000000000     0.113747958 -0.065672414  0.000000000
     4.395683289  7.613546790  0.000000000     0.000000000  0.131344829  0.000000000
     0.000000000  0.000000000 22.178121567     0.000000000  0.000000000  0.045089481

  length of vectors
     8.791366577  8.791366577 22.178121567     0.131344829  0.131344829  0.045089481

 FORCES acting on ions
    electron-ion (+dipol)            ewald-force                    non-local-force                 convergence-correction
   0.460E-04 -.282E-04 0.247E+04   -.953E-04 0.593E-04 -.247E+04   -.174E-17 -.431E-17 -.187E+01   -.115E-03 -.127E-03 -.676E-01
   -.163E+00 -.309E-01 0.247E+04   0.814E-01 -.833E-01 -.247E+04   0.668E-01 0.196E+00 -.163E+01   0.160E-01 -.848E-01 0.290E-01
   0.163E+00 -.309E-01 0.247E+04   -.812E-01 -.833E-01 -.247E+04   -.668E-01 0.196E+00 -.163E+01   -.165E-01 -.829E-01 0.297E-01
   -.108E+00 -.125E+00 0.247E+04   -.316E-01 0.112E+00 -.247E+04   0.203E+00 -.403E-01 -.163E+01   -.653E-01 0.564E-01 0.291E-01
   -.767E-05 -.200E-04 0.247E+04   0.980E-04 -.197E-05 -.247E+04   0.279E-17 0.101E-17 -.102E+01   0.622E-02 0.379E-02 0.273E+00
   0.108E+00 -.125E+00 0.247E+04   0.314E-01 0.112E+00 -.247E+04   -.203E+00 -.403E-01 -.163E+01   0.639E-01 0.573E-01 0.299E-01
   0.545E-01 0.156E+00 0.247E+04   -.113E+00 -.288E-01 -.247E+04   0.137E+00 -.156E+00 -.163E+01   -.797E-01 0.277E-01 0.297E-01
   -.545E-01 0.156E+00 0.247E+04   0.113E+00 -.289E-01 -.247E+04   -.137E+00 -.156E+00 -.163E+01   0.813E-01 0.267E-01 0.298E-01
   0.365E-04 -.131E-04 0.247E+04   0.792E-04 -.643E-04 -.247E+04   -.263E-17 -.273E-17 -.164E+01   -.664E-02 -.344E-02 0.455E-01
   0.189E+01 0.109E+01 0.788E+03   -.152E+01 -.878E+00 -.787E+03   -.417E+00 -.241E+00 -.759E+00   0.195E-01 0.115E-01 -.145E+00
   -.280E-04 0.458E+00 0.784E+03   0.398E-04 -.496E+00 -.784E+03   0.395E-12 0.601E-01 -.942E-01   0.620E-02 -.777E-01 -.244E+00
   -.189E+01 0.109E+01 0.788E+03   0.152E+01 -.878E+00 -.787E+03   0.417E+00 -.241E+00 -.759E+00   -.211E-01 0.124E-01 -.145E+00
   0.397E+00 -.229E+00 0.784E+03   -.430E+00 0.248E+00 -.784E+03   0.520E-01 -.300E-01 -.942E-01   -.643E-01 0.442E-01 -.244E+00
   -.397E+00 -.229E+00 0.784E+03   0.430E+00 0.248E+00 -.784E+03   -.520E-01 -.300E-01 -.942E-01   0.748E-01 0.431E-01 -.245E+00
   0.153E-04 -.333E+00 0.786E+03   -.108E-03 0.679E-01 -.785E+03   0.664E-12 0.101E+00 -.739E+00   -.156E-02 0.137E+00 -.168E+00
   -.812E-05 -.218E+01 0.788E+03   0.204E-04 0.176E+01 -.787E+03   0.316E-11 0.481E+00 -.759E+00   -.175E-03 -.243E-01 -.146E+00
   -.288E+00 0.166E+00 0.786E+03   0.588E-01 -.340E-01 -.785E+03   0.875E-01 -.505E-01 -.739E+00   0.118E+00 -.699E-01 -.168E+00
   0.288E+00 0.166E+00 0.786E+03   -.588E-01 -.339E-01 -.785E+03   -.875E-01 -.505E-01 -.739E+00   -.118E+00 -.681E-01 -.167E+00
   0.383E-04 -.559E+01 -.907E+03   -.125E-03 0.560E+01 0.906E+03   0.849E-13 0.129E-01 0.815E+00   0.431E-02 -.134E-01 -.888E-01
   -.306E+02 -.177E+02 -.921E+03   0.323E+02 0.187E+02 0.923E+03   -.125E+01 -.722E+00 -.123E+01   -.439E+00 -.253E+00 -.563E+00
   0.306E+02 -.177E+02 -.921E+03   -.323E+02 0.187E+02 0.923E+03   0.125E+01 -.722E+00 -.123E+01   0.449E+00 -.254E+00 -.563E+00
   -.162E+02 0.933E+01 -.907E+03   0.163E+02 -.940E+01 0.907E+03   0.180E+00 -.104E+00 0.367E+00   -.288E+00 0.172E+00 -.217E+00
   -.494E-04 0.354E+02 -.921E+03   0.360E-04 -.373E+02 0.923E+03   0.948E-11 0.144E+01 -.123E+01   -.759E-03 0.506E+00 -.564E+00
   0.162E+02 0.933E+01 -.907E+03   -.163E+02 -.940E+01 0.907E+03   -.180E+00 -.104E+00 0.367E+00   0.298E+00 0.172E+00 -.217E+00
   0.484E+01 0.280E+01 -.907E+03   -.485E+01 -.280E+01 0.906E+03   -.112E-01 -.647E-02 0.815E+00   0.180E-01 0.115E-01 -.895E-01
   -.484E+01 0.280E+01 -.907E+03   0.485E+01 -.280E+01 0.906E+03   0.112E-01 -.647E-02 0.815E+00   -.899E-02 0.116E-01 -.891E-01
   0.192E-04 -.187E+02 -.907E+03   0.110E-03 0.188E+02 0.907E+03   0.137E-11 0.208E+00 0.367E+00   0.431E-02 -.335E+00 -.216E+00
   0.534E-04 -.355E-04 -.249E+04   -.112E-03 0.758E-04 0.248E+04   -.262E-17 0.794E-18 0.167E+01   0.410E-04 0.158E-02 -.869E-02
   -.260E+02 -.503E+02 -.250E+04   0.273E+02 0.524E+02 0.250E+04   -.120E+01 -.172E+01 0.769E+00   -.181E+00 -.358E+00 0.352E-01
   0.260E+02 -.503E+02 -.250E+04   -.273E+02 0.524E+02 0.250E+04   0.120E+01 -.172E+01 0.769E+00   0.180E+00 -.357E+00 0.351E-01
   -.565E+02 0.267E+01 -.250E+04   0.590E+02 -.251E+01 0.250E+04   -.208E+01 -.177E+00 0.769E+00   -.406E+00 0.129E-01 0.350E-01
   0.565E+02 0.267E+01 -.250E+04   -.590E+02 -.251E+01 0.250E+04   0.208E+01 -.177E+00 0.769E+00   0.395E+00 0.136E-01 0.351E-01
   -.306E+02 0.476E+02 -.250E+04   0.317E+02 -.498E+02 0.250E+04   -.888E+00 0.189E+01 0.769E+00   -.219E+00 0.336E+00 0.351E-01
   0.306E+02 0.476E+02 -.250E+04   -.317E+02 -.498E+02 0.250E+04   0.888E+00 0.189E+01 0.769E+00   0.221E+00 0.335E+00 0.357E-01
   0.278E-04 -.142E-04 -.249E+04   0.102E-03 -.643E-04 0.249E+04   0.355E-17 -.883E-18 0.194E+01   -.638E-02 -.197E-02 -.913E-01
   -.259E-04 -.951E-06 -.109E+04   0.479E-04 0.590E-05 0.109E+04   -.718E-17 0.416E-17 0.275E+01   0.626E-03 -.185E-03 0.943E-01
   0.286E-03 -.706E-03 0.120E+02   -.149E-13 0.176E-12 -.523E-11   0.218E-15 -.441E-15 -.826E+01   0.333E-01 0.773E-02 -.365E+01

 POSITION                                       TOTAL-FORCE (eV/Angst)
      0.00000      0.00000      5.28219        -0.000000     -0.000000     -0.036228
      2.93046      0.00000      5.28219         0.002218     -0.001920      0.030676
      5.86091      0.00000      5.28219        -0.002218     -0.001920      0.030676
      1.46523      2.53785      5.28219        -0.000554      0.002880      0.030676
      4.39568      2.53785      5.28219        -0.000000      0.000000      0.003250
      7.32614      2.53785      5.28219         0.000554      0.002880      0.030676
      2.93046      5.07570      5.28219        -0.002771     -0.000961      0.030676
      5.86091      5.07570      5.28219         0.002771     -0.000961      0.030676
      8.79137      5.07570      5.28219        -0.000000      0.000000      0.003973
      1.46523      0.84595      7.67490        -0.031032     -0.017916     -0.040102
      4.39568      0.84595      7.67490        -0.000000     -0.058105     -0.081647
      7.32614      0.84595      7.67490         0.031032     -0.017916     -0.040102
      2.93046      3.38380      7.67490        -0.050320      0.029052     -0.081647
      5.86091      3.38380      7.67490         0.050320      0.029052     -0.081647
      8.79137      3.38380      7.67490        -0.000000     -0.026924      0.018042
      4.39568      5.92165      7.67490         0.000000      0.035832     -0.040102
      7.32614      5.92165      7.67490        -0.023316      0.013462      0.018042
     10.25659      5.92165      7.67490         0.023316      0.013462      0.018042
      8.79137      1.69476     10.06939         0.000000      0.006514      0.010350
      2.92162      1.68680     10.02387         0.003055      0.001764      0.020235
      5.86975      1.68680     10.02387        -0.003055      0.001764      0.020235
     10.25272      4.23198     10.06895         0.012389     -0.007153     -0.000570
      4.39568      4.23995     10.02387        -0.000000     -0.003527      0.020235
      7.33001      4.23198     10.06895        -0.012389     -0.007153     -0.000570
     11.71935      6.76617     10.06939        -0.005641     -0.003257      0.010350
      5.86339      6.76617     10.06939         0.005641     -0.003257      0.010350
      8.79137      6.76312     10.06895         0.000000      0.014306     -0.000570
      0.00000      0.00000     12.45783        -0.000000     -0.000000      0.011935
      2.95723      0.04373     12.49962         0.001183     -0.005887      0.005214
      5.83413      0.04373     12.49962        -0.001183     -0.005887      0.005214
      1.51649      2.53918     12.49962        -0.004507      0.003968      0.005214
      7.27488      2.53918     12.49962         0.004507      0.003968      0.005214
      2.95494      5.03064     12.49962        -0.005690      0.001919      0.005214
      5.83643      5.03064     12.49962         0.005690      0.001919      0.005214
      8.79137      5.07570     12.47105        -0.000000      0.000000      0.014062
      4.39568      2.53785     12.22632        -0.000000     -0.000000      0.008747
    total drift:                                0.033536      0.007025      0.083418

  FREE ENERGIE OF THE ION-ELECTRON SYSTEM (eV)
  free  energy   TOTEN  =       -97.84173833 eV

  energy  without entropy=      -97.84173833  energy(sigma->0) =      -97.84173833

 stress matrix after NEB project (eV)
    -10.12391     -0.00000      0.00000
     -0.00000    -10.12391     -0.00000
     -0.00000      0.00000     -0.30700
  FORCES: max atom, RMS     0.020540    0.009318
  FORCE total and by dimension    0.055906    0.020235
  Stress total and by dimension   14.320665   10.123912
|           W    W    AA    RRRRR   N    N  II  N    N   GGGG   !!!           |
|           W    W   A  A   R    R  NN   N  II  NN   N  G    G  !!!           |
|           W    W  A    A  R    R  N N  N  II  N N  N  G       !!!           |
|           W WW W  AAAAAA  RRRRR   N  N N  II  N  N N  G  GGG   !            |
|           WW  WW  A    A  R   R   N   NN  II  N   NN  G    G                |
|           W    W  A    A  R    R  N    N  II  N    N   GGGG   !!!           |
|     Tetrahedron method does not include variations of the Fermi             |
|     occupations, so forces and stress will be inaccurate. We suggest        |
|     using a different smearing scheme ISMEAR = 1 or 2 for metals in         |
|     relaxations.                                                            |

 total charge

# of ion       s       p       d       tot
    1        0.423   0.199   9.178   9.799
    2        0.413   0.204   9.178   9.795
    3        0.413   0.204   9.178   9.795
    4        0.413   0.204   9.178   9.795
    5        0.422   0.201   9.175   9.798
    6        0.413   0.204   9.178   9.795
    7        0.413   0.204   9.178   9.795
    8        0.413   0.204   9.178   9.795
    9        0.418   0.201   9.177   9.796
   10        0.412   0.269   9.161   9.842
   11        0.405   0.267   9.170   9.842
   12        0.412   0.269   9.161   9.842
   13        0.405   0.267   9.170   9.842
   14        0.405   0.267   9.170   9.842
   15        0.405   0.266   9.165   9.836
   16        0.412   0.269   9.161   9.842
   17        0.405   0.266   9.165   9.836
   18        0.405   0.266   9.165   9.836
   19        0.400   0.265   9.165   9.829
   20        0.449   0.312   9.124   9.885
   21        0.449   0.312   9.124   9.885
   22        0.393   0.269   9.168   9.830
   23        0.449   0.312   9.124   9.885
   24        0.393   0.269   9.168   9.830
   25        0.400   0.265   9.165   9.829
   26        0.400   0.265   9.165   9.829
   27        0.393   0.269   9.168   9.830
   28        0.405   0.200   9.173   9.779
   29        0.447   0.223   9.143   9.813
   30        0.447   0.223   9.143   9.813
   31        0.447   0.223   9.143   9.813
   32        0.447   0.223   9.143   9.813
   33        0.447   0.223   9.143   9.813
   34        0.447   0.223   9.143   9.813
   35        0.401   0.201   9.175   9.777
   36        0.680   0.429   2.865   3.974
tot         15.301   8.940 323.517 347.758

 BZINTS: Fermi energy:    0.837899;  390.000000 electrons
         Band energy:-0.127351E+04;  BLOECHL correction:   -0.024375