 vasp.6.2.0 18Jan21 (build Jun 12 2021 23:27:24) complex

 executed on             LinuxIFC date 2022.05.28  02:04:10

 INCAR:
   ISMEAR = -5
   SIGMA = 0.1
   ISPIN = 1
   EDIFF = 1.d-5
   EDIFFG = -0.01
   NSW = 0
   NELM = 150
   ENCUT = 500
   ISIF = 2
   IBRION = 2
   LREAL = Auto
   ALGO = Fast
   ICHARG = 11
   LORBIT = 10
   LCHARG = .F.
   LWAVE = .F.

 POTCAR:    PAW_PBE Ag 02Apr2005
 POTCAR:    PAW_PBE Re 17Jan2003
 POTCAR:    PAW_PBE O 08Apr2002
 POTCAR:    PAW_PBE H 15Jun2001
|           W    W    AA    RRRRR   N    N  II  N    N   GGGG   !!!           |
|           W    W   A  A   R    R  NN   N  II  NN   N  G    G  !!!           |
|           W    W  A    A  R    R  N N  N  II  N N  N  G       !!!           |
|           W WW W  AAAAAA  RRRRR   N  N N  II  N  N N  G  GGG   !            |
|           WW  WW  A    A  R   R   N   NN  II  N   NN  G    G                |
|           W    W  A    A  R    R  N    N  II  N    N   GGGG   !!!           |
|     For optimal performance we recommend to set                             |
|       NCORE = 2 up to number-of-cores-per-socket                            |
|     This setting can greatly improve the performance of VASP for DFT.       |
|     The default, NCORE=1 might be grossly inefficient on modern             |
|     multi-core architectures or massively parallel machines. Do your        |
|     Unfortunately you need to use the default for GW and RPA                |
|     calculations (for HF NCORE is supported but not extensively tested      |
|     yet).                                                                   |

 POTCAR:    PAW_PBE Ag 02Apr2005
   VRHFIN =Ag : s1 d10

   TITEL  = PAW_PBE Ag 02Apr2005
   POMASS =  107.868; ZVAL   =   11.000    mass and valenz
   ENMAX  =  249.844; ENMIN  =  187.383 eV

 POTCAR:    PAW_PBE Re 17Jan2003
   VRHFIN =Re: 5p6s5d

   TITEL  = PAW_PBE Re 17Jan2003
   POMASS =  186.207; ZVAL   =    7.000    mass and valenz
   ENMAX  =  226.216; ENMIN  =  169.662 eV

 POTCAR:    PAW_PBE O 08Apr2002
   VRHFIN =O: s2p4

   TITEL  = PAW_PBE O 08Apr2002
   POMASS =   16.000; ZVAL   =    6.000    mass and valenz
   ENMAX  =  400.000; ENMIN  =  300.000 eV

 POTCAR:    PAW_PBE H 15Jun2001
   VRHFIN =H: ultrasoft test

   TITEL  = PAW_PBE H 15Jun2001
   POMASS =    1.000; ZVAL   =    1.000    mass and valenz
   ENMAX  =  250.000; ENMIN  =  200.000 eV

 Optimization of the real space projectors (new method)

 maximal supplied QI-value         = 15.12
 optimisation between [QCUT,QGAM] = [ 11.34, 22.83] = [ 36.00,145.93] Ry
 Optimized for a Real-space Cutoff    1.43 Angstroem

   l    n(q)    QCUT    max X(q) W(low)/X(q) W(high)/X(q)  e(spline)
   2      9    11.338    53.897    0.16E-03    0.20E-03    0.28E-06
   2      9    11.338    52.416    0.16E-03    0.20E-03    0.29E-06
   0     10    11.338   122.045    0.31E-04    0.76E-04    0.15E-06
   0     10    11.338    73.629    0.30E-04    0.72E-04    0.15E-06
   1      9    11.338    15.255    0.20E-03    0.19E-04    0.17E-06
   1      9    11.338     9.562    0.16E-03    0.15E-04    0.14E-06
 Optimization of the real space projectors (new method)

[...]

   l    n(q)    QCUT    max X(q) W(low)/X(q) W(high)/X(q)  e(spline)
   0      7    11.387    20.381    0.39E-03    0.13E-02    0.15E-06
   0      7    11.387    15.268    0.42E-03    0.14E-02    0.17E-06
   1      6    11.387     5.964    0.41E-03    0.11E-02    0.17E-06
   1      6    11.387     5.382    0.39E-03    0.87E-03    0.15E-06
 Optimization of the real space projectors (new method)

 maximal supplied QI-value         = 34.20
 optimisation between [QCUT,QGAM] = [ 11.29, 22.57] = [ 35.68,142.71] Ry
 Optimized for a Real-space Cutoff    1.16 Angstroem

   l    n(q)    QCUT    max X(q) W(low)/X(q) W(high)/X(q)  e(spline)
   0      8    11.287    19.460    0.40E-03    0.73E-03    0.16E-06
   0      8    11.287    12.209    0.38E-03    0.70E-03    0.15E-06
   1      7    11.287     4.655    0.22E-03    0.25E-04    0.22E-06
  PAW_PBE Ag 02Apr2005                  :
  PAW_PBE Re 17Jan2003                  :
  PAW_PBE O 08Apr2002                   :
  PAW_PBE H 15Jun2001                   :

 POSCAR: Ag-Re-OOH
  positions in direct lattice
  velocities in cartesian coordinates
 exchange correlation table for  LEXCH =        8
   RHO(1)=    0.500       N(1)  =     2000
   RHO(2)=  100.500       N(2)  =     4000

 VTST: version 3.2, (02/03/18)

 CHAIN: initializing optimizer

 OPT: Using VASP Conjugate-Gradient optimizer
 CHAIN: Read ICHAIN            0

 POSCAR: Ag-Re-OOH
  positions in direct lattice
  velocities in cartesian coordinates

 ion  position               nearest neighbor table
   1  0.000  0.000  0.204-   2 2.93   8 2.93   7 2.93   6 2.93   4 2.93  12 2.93  16 2.93  10 2.93
                             3 2.93
   2  0.333  0.000  0.204-   1 2.93   8 2.93   9 2.93   3 2.93   4 2.93   5 2.93  10 2.93  17 2.93
                            11 2.93
   3  0.667  0.000  0.204-   9 2.93   2 2.93   5 2.93  11 2.93   7 2.93  18 2.93   1 2.93   6 2.93
                            12 2.93
   4  0.000  0.333  0.204-   5 2.93   6 2.93   2 2.93   1 2.93   7 2.93  13 2.93  15 2.93   9 2.93
                            10 2.93
   5  0.333  0.333  0.204-   4 2.93   3 2.93   7 2.93   2 2.93   8 2.93  14 2.93  13 2.93  11 2.93
                             6 2.93
   6  0.667  0.333  0.204-   4 2.93   9 2.93   1 2.93  15 2.93   8 2.93  12 2.93   3 2.93   5 2.93
                            14 2.93
   7  0.000  0.667  0.204-   8 2.93   1 2.93   5 2.93   3 2.93   4 2.93  16 2.93  18 2.93  13 2.93
                             9 2.93
   8  0.333  0.667  0.204-   7 2.93   1 2.93   2 2.93   9 2.93   5 2.93  16 2.93   6 2.93  17 2.93
                            14 2.93
   9  0.667  0.667  0.204-   3 2.93   2 2.93   8 2.93   6 2.93  17 2.93   4 2.93  15 2.93   7 2.93
                            18 2.93
  10  0.111  0.111  0.296-  20 2.89  12 2.93  16 2.93  15 2.93  17 2.93  13 2.93  11 2.93   2 2.93
                             1 2.93   4 2.93  19 2.93  26 2.93
  11  0.444  0.111  0.296-  21 2.89  20 2.89  27 2.93  14 2.93  17 2.93  18 2.93   3 2.93  12 2.93
                            13 2.93  10 2.93   5 2.93   2 2.93
  12  0.778  0.111  0.296-  21 2.89  10 2.93  16 2.93  18 2.93  15 2.93  11 2.93   1 2.93  14 2.93
                             6 2.93   3 2.93  25 2.93  19 2.93
  13  0.111  0.444  0.296-  20 2.89  23 2.89  22 2.93  15 2.93  14 2.93  18 2.93  10 2.93  11 2.93
                            16 2.93   4 2.93   5 2.93   7 2.93
  14  0.444  0.444  0.296-  23 2.89  21 2.89  24 2.93  13 2.93  11 2.93  16 2.93   5 2.93  12 2.93
                            17 2.93   8 2.93  15 2.93   6 2.93
  15  0.778  0.444  0.296-  24 2.92  22 2.92  19 2.93  13 2.93  10 2.93  12 2.93  17 2.93  18 2.93
                             4 2.93   6 2.93   9 2.93  14 2.93
  16  0.111  0.778  0.296-  23 2.89  18 2.93  12 2.93  10 2.93  14 2.93  17 2.93  13 2.93   7 2.93
                             8 2.93   1 2.93  26 2.93  25 2.93
  17  0.444  0.778  0.296-  27 2.92  24 2.92  26 2.93  11 2.93  10 2.93   9 2.93  18 2.93  15 2.93
                            16 2.93   2 2.93  14 2.93   8 2.93
  18  0.778  0.778  0.296-  22 2.92  27 2.92  25 2.93  16 2.93  12 2.93  13 2.93  11 2.93  17 2.93
                            15 2.93   7 2.93   3 2.93   9 2.93
  19  0.889  0.223  0.389-  28 2.91  24 2.93  22 2.93  15 2.93  20 2.93  21 2.93  10 2.93  12 2.93
                            26 2.94  25 2.94  32 2.97  31 2.97
  20  0.222  0.222  0.387-  36 2.76  10 2.89  13 2.89  11 2.89  19 2.93  26 2.93  21 2.93  23 2.93
                            27 2.94  22 2.94  31 2.94  29 2.94
  21  0.556  0.222  0.387-  36 2.76  12 2.89  11 2.89  14 2.89  25 2.93  19 2.93  20 2.93  23 2.93
                            27 2.94  24 2.94  30 2.94  32 2.94
  22  0.888  0.556  0.388-  35 2.91  24 2.92  27 2.92  18 2.92  15 2.92  13 2.93  25 2.93  19 2.93
                            23 2.94  20 2.94  33 2.95  31 2.95
  23  0.222  0.556  0.387-  36 2.76  16 2.89  14 2.89  13 2.89  26 2.93  25 2.93  21 2.93  20 2.93
                            22 2.94  24 2.94  34 2.94  33 2.94
  24  0.556  0.556  0.388-  35 2.91  27 2.92  22 2.92  15 2.92  17 2.92  14 2.93  19 2.93  26 2.93
                            23 2.94  21 2.94  32 2.95  34 2.95
  25  0.889  0.889  0.389-  28 2.91  22 2.93  27 2.93  18 2.93  23 2.93  21 2.93  16 2.93  12 2.93
                            26 2.94  19 2.94  33 2.97  30 2.97
  26  0.223  0.889  0.389-  28 2.91  27 2.93  24 2.93  17 2.93  23 2.93  20 2.93  16 2.93  10 2.93
                            25 2.94  19 2.94  34 2.97  29 2.97
  27  0.556  0.888  0.388-  35 2.91  24 2.92  22 2.92  17 2.92  18 2.92  11 2.93  26 2.93  25 2.93
                            20 2.94  21 2.94  29 2.95  30 2.95
  28  0.000  0.000  0.480-  38 2.23  26 2.91  25 2.91  19 2.91  29 2.96  34 2.96  33 2.96  32 2.96
                            31 2.96  30 2.96
  29  0.333  0.008  0.481-  38 2.34  31 2.86  30 2.87  36 2.88  20 2.94  27 2.95  28 2.96  26 2.97
                            35 2.97  34 3.06
  30  0.659  0.008  0.481-  32 2.86  29 2.87  36 2.88  21 2.94  27 2.95  28 2.96  25 2.97  35 2.97
                            33 3.06
  31  0.008  0.333  0.481-  38 2.32  29 2.86  33 2.87  36 2.88  20 2.94  22 2.95  28 2.96  19 2.97
                            35 2.97  32 3.06
  32  0.659  0.333  0.481-  30 2.86  34 2.87  36 2.88  21 2.94  24 2.95  28 2.96  19 2.97  35 2.97
                            31 3.06
  33  0.008  0.659  0.481-  34 2.86  31 2.87  36 2.88  23 2.94  22 2.95  28 2.96  25 2.97  35 2.97
                            30 3.06
  34  0.333  0.659  0.481-  33 2.86  32 2.87  36 2.88  23 2.94  24 2.95  28 2.96  26 2.97  35 2.97
                            29 3.06
  35  0.667  0.667  0.480-  24 2.91  27 2.91  22 2.91  30 2.97  32 2.97  29 2.97  34 2.97  31 2.97
                            33 2.97
  36  0.333  0.333  0.471-  37 1.72  21 2.76  20 2.76  23 2.76  31 2.88  30 2.88  33 2.88  29 2.88
                            34 2.88  32 2.88
  37  0.322  0.331  0.537-  36 1.72
  38  0.103  0.106  0.540-  39 0.97  28 2.23  31 2.32  29 2.34
  39  0.094  0.102  0.578-  38 0.97

  LATTYP: Found a hexagonal cell.
 ALAT       =     8.7913665772
 C/A-ratio  =     2.9469639759

  Lattice vectors:

 A1 = (  -4.3956832886,  -7.6135467898,   0.0000000000)
 A2 = (   8.7913665771,   0.0000000000,   0.0000000000)
 A3 = (   0.0000000000,   0.0000000000,  25.9078406020)

Analysis of symmetry for initial positions (statically):
 Subroutine PRICEL returns:
 Original cell was already a primitive cell.

 Routine SETGRP: Setting up the symmetry group for a
 hexagonal supercell.

 Subroutine GETGRP returns: Found  1 space group operations
 (whereof  1 operations were pure point group operations)
 out of a pool of 24 trial point group operations.

The static configuration has the point symmetry C_1 .

Analysis of symmetry for dynamics (positions and initial velocities):
 Subroutine PRICEL returns:
 Original cell was already a primitive cell.

[...]

The dynamic configuration has the point symmetry C_1 .

Analysis of constrained symmetry for selective dynamics:
 Subroutine PRICEL returns:
[...]
     41      -5.0840      2.00000
     42      -5.0617      2.00000
     43      -5.0265      2.00000
     44      -5.0095      2.00000
     45      -4.9846      2.00000
     46      -4.9727      2.00000
     47      -4.9420      2.00000
     48      -4.8928      2.00000
     49      -4.8760      2.00000
     50      -4.8657      2.00000
     51      -4.8542      2.00000
     52      -4.8443      2.00000
     53      -4.8385      2.00000
     54      -4.8269      2.00000
     55      -4.8209      2.00000
     56      -4.8082      2.00000
     57      -4.7927      2.00000
     58      -4.7700      2.00000
     59      -4.7360      2.00000
     60      -4.7268      2.00000
[...]
    238       5.2523      0.00000
    239       5.3289      0.00000
    240       5.4779      0.00000
    241       5.5823      0.00000
    242       5.6836      0.00000
    243       5.8635      0.00000
    244       5.9011      0.00000
    245       5.9376      0.00000
    246       6.0011      0.00000
    247       6.1919      0.00000
    248       6.2200      0.00000
    249       6.2984      0.00000
    250       6.5238      0.00000
    251       6.5843      0.00000
    252       6.6296      0.00000

 soft charge-density along one line, spin component           1
         0         1         2         3         4         5         6         7         8         9
 total charge-density along one line

------------------------ aborting loop because EDIFF is reached ----------------------------------------

 total charge

# of ion       s       p       d       tot
    1        0.419   0.200   9.179   9.798
    2        0.416   0.203   9.178   9.797
    3        0.416   0.204   9.177   9.797
    4        0.417   0.203   9.178   9.797
    5        0.420   0.202   9.176   9.798
    6        0.416   0.204   9.177   9.797
    7        0.416   0.204   9.177   9.797
    8        0.416   0.204   9.177   9.797
    9        0.412   0.204   9.178   9.793
   10        0.410   0.267   9.165   9.842
   11        0.404   0.273   9.166   9.843
   12        0.413   0.266   9.164   9.844
   13        0.404   0.273   9.166   9.843
   14        0.401   0.274   9.168   9.843
   15        0.404   0.268   9.165   9.838
   16        0.413   0.267   9.164   9.843
   17        0.404   0.269   9.165   9.838
   18        0.400   0.273   9.162   9.835
   19        0.406   0.264   9.165   9.836
   20        0.438   0.314   9.130   9.883
   21        0.445   0.306   9.136   9.887
   22        0.390   0.277   9.165   9.831
   23        0.444   0.307   9.135   9.886
   24        0.391   0.275   9.167   9.833
   25        0.401   0.268   9.162   9.832
   26        0.406   0.264   9.165   9.835
   27        0.390   0.277   9.165   9.832
   28        0.378   0.240   9.181   9.798
   29        0.374   0.240   9.187   9.802
   30        0.411   0.219   9.176   9.807
   31        0.374   0.243   9.187   9.803
   32        0.409   0.216   9.182   9.806
   33        0.410   0.218   9.178   9.806
   34        0.408   0.215   9.183   9.806
   35        0.412   0.194   9.183   9.789
   36        0.620   0.545   4.826   5.991
   37        1.609   3.300   0.000   4.909
   38        1.557   3.490   0.000   5.047
   39        0.616   0.120   0.000   0.736
tot         18.689  16.052 325.753 360.495

  FORCE on cell =-STRESS in cart. coord.  units (eV):
  Direction    XX          YY          ZZ          XY          YZ          ZX
  Alpha Z   675.05523   675.05523   675.05523
  Ewald  178252.86818178191.70247************    58.26770    -1.26483    -8.14883
  Hartree188278.23119188229.89809************    46.61331     2.65361     7.24949
  E(xc)   -2124.72894 -2124.76791 -2128.56740     0.03730    -0.01784    -0.07919
  Local  ************************377647.87866  -104.59709    -2.19740    -2.83982
  n-local  -389.01196  -388.82144  -386.01489    -0.19017    -0.07925    -0.66863
  augment  3243.15646  3243.20569  3248.25296    -0.00968    -0.00959     0.23283
  Kinetic  5151.95667  5152.06654  5119.51580     0.09475     0.78601     4.04819
  Fock        0.00000     0.00000     0.00000     0.00000     0.00000     0.00000
  Total      -4.10926    -4.36580    -0.51081     0.21613    -0.12929    -0.20596
  in kB      -3.79665    -4.03367    -0.47195     0.19969    -0.11946    -0.19029

 VOLUME and BASIS-vectors are now :
  energy-cutoff  :      500.00
  volume of cell :     1734.10
      direct lattice vectors                 reciprocal lattice vectors
     8.791366577  0.000000000  0.000000000     0.113747958 -0.065672414  0.000000000
     4.395683289  7.613546790  0.000000000     0.000000000  0.131344829  0.000000000
     0.000000000  0.000000000 25.907840602     0.000000000  0.000000000  0.038598354

  length of vectors
     8.791366577  8.791366577 25.907840602     0.131344829  0.131344829  0.038598354

 FORCES acting on ions
    electron-ion (+dipol)            ewald-force                    non-local-force                 convergence-correction
   0.196E+00 0.119E+00 0.282E+04   -.206E+00 -.117E+00 -.281E+04   -.227E-01 -.149E-01 -.191E+01   0.337E-01 0.145E-01 -.124E+00
   0.434E-01 0.541E+00 0.282E+04   -.213E+00 -.612E+00 -.281E+04   0.100E+00 0.939E-01 -.157E+01   0.698E-01 -.147E-01 -.119E+00
   -.246E+00 0.401E+00 0.282E+04   0.420E+00 -.526E+00 -.281E+04   -.710E-01 0.162E+00 -.165E+01   -.102E+00 -.295E-01 -.112E+00
   0.485E+00 -.231E+00 0.282E+04   -.638E+00 0.113E+00 -.281E+04   0.134E+00 0.403E-01 -.157E+01   0.255E-01 0.715E-01 -.118E+00
   -.110E+00 -.700E-01 0.282E+04   0.175E+00 0.924E-01 -.282E+04   -.167E-01 -.132E-03 -.157E+01   -.400E-01 -.181E-01 -.109E+00
   -.362E+00 -.364E-02 0.282E+04   0.463E+00 -.239E-01 -.281E+04   -.142E+00 -.355E-01 -.156E+01   0.245E-01 0.639E-01 -.152E+00
   0.222E+00 -.420E+00 0.282E+04   -.247E+00 0.634E+00 -.281E+04   0.104E+00 -.141E+00 -.166E+01   -.728E-01 -.745E-01 -.111E+00
   -.184E+00 -.320E+00 0.282E+04   0.218E+00 0.415E+00 -.281E+04   -.102E+00 -.102E+00 -.158E+01   0.615E-01 -.867E-02 -.153E+00
   -.398E-01 -.184E-01 0.282E+04   0.290E-01 0.234E-01 -.281E+04   0.115E-01 -.209E-02 -.192E+01   -.343E-03 -.239E-02 -.117E+00
   0.564E+01 0.329E+01 0.995E+03   -.521E+01 -.304E+01 -.995E+03   -.470E+00 -.265E+00 -.830E+00   0.248E-01 0.125E-01 0.153E+00
   -.164E+01 0.485E+01 0.997E+03   0.159E+01 -.506E+01 -.997E+03   0.810E-01 0.181E+00 -.372E+00   -.290E-01 -.276E-01 0.191E+00
   -.393E+01 0.319E+01 0.992E+03   0.362E+01 -.298E+01 -.991E+03   0.317E+00 -.211E+00 -.711E+00   0.793E-02 -.144E-01 0.194E+00
   0.335E+01 -.380E+01 0.997E+03   -.356E+01 0.386E+01 -.997E+03   0.208E+00 -.286E-01 -.383E+00   -.364E-01 -.668E-02 0.187E+00
   -.413E+01 -.236E+01 0.995E+03   0.441E+01 0.251E+01 -.995E+03   -.213E+00 -.114E+00 -.244E+00   -.131E-01 0.504E-03 0.181E+00
   0.757E+00 -.358E+00 0.992E+03   -.848E+00 0.149E+00 -.991E+03   0.196E-01 0.904E-01 -.712E+00   0.620E-01 0.851E-01 0.160E+00
   0.765E+00 -.505E+01 0.992E+03   -.738E+00 0.468E+01 -.991E+03   -.275E-01 0.393E+00 -.730E+00   -.710E-02 0.861E-02 0.193E+00
   0.512E-01 0.789E+00 0.992E+03   -.268E+00 -.760E+00 -.991E+03   0.842E-01 -.305E-01 -.720E+00   0.987E-01 0.989E-02 0.158E+00
   -.810E+00 -.527E+00 0.991E+03   0.101E+01 0.644E+00 -.990E+03   -.718E-01 -.428E-01 -.808E+00   -.872E-01 -.545E-01 0.149E+00
   0.122E+02 -.734E+01 -.848E+03   -.120E+02 0.730E+01 0.848E+03   -.139E+00 0.139E-01 0.229E+00   0.180E-01 0.231E-01 0.355E+00
   -.711E+01 -.363E+01 -.814E+03   0.819E+01 0.425E+01 0.815E+03   -.120E+01 -.690E+00 -.117E+01   -.943E-02 -.167E-02 0.391E+00
   -.446E+01 0.801E+00 -.836E+03   0.326E+01 -.587E-02 0.836E+03   0.136E+01 -.794E+00 -.793E+00   -.171E-01 -.621E-01 0.387E+00
   -.753E+00 -.850E+01 -.855E+03   0.420E+00 0.849E+01 0.854E+03   0.433E+00 -.164E+00 0.578E+00   -.587E-01 0.412E-01 0.311E+00
   -.192E+01 -.429E+01 -.835E+03   0.202E+01 0.279E+01 0.835E+03   -.196E-01 0.163E+01 -.808E+00   -.641E-01 0.174E-01 0.386E+00
   0.262E+01 0.147E+01 -.859E+03   -.247E+01 -.137E+01 0.858E+03   -.290E+00 -.176E+00 0.758E+00   0.104E+00 0.586E-01 0.308E+00
   0.837E+01 0.452E+01 -.866E+03   -.813E+01 -.439E+01 0.865E+03   -.128E+00 -.620E-01 0.384E+00   -.161E-01 -.120E-01 0.337E+00
   -.609E+00 0.140E+02 -.849E+03   0.642E+00 -.139E+02 0.848E+03   -.511E-01 -.116E+00 0.230E+00   0.229E-01 0.268E-02 0.352E+00
   -.766E+01 0.319E+01 -.856E+03   0.749E+01 -.344E+01 0.855E+03   0.638E-01 0.428E+00 0.591E+00   0.870E-02 -.734E-01 0.310E+00
   0.114E+03 0.664E+02 -.257E+04   -.115E+03 -.671E+02 0.257E+04   0.587E+00 0.357E+00 0.139E+01   0.159E-01 0.936E-02 0.193E+00
   -.925E+02 0.934E+02 -.259E+04   0.943E+02 -.935E+02 0.259E+04   -.162E+01 -.412E+00 0.234E+01   0.186E-02 -.109E-01 0.132E+00
   -.190E+02 0.392E+02 -.269E+04   0.186E+02 -.387E+02 0.269E+04   0.529E+00 -.803E+00 0.207E+01   -.192E-01 0.369E-02 0.121E+00
   0.355E+02 -.126E+03 -.259E+04   -.348E+02 0.128E+03 0.258E+04   -.109E+01 -.108E+01 0.223E+01   -.111E-01 0.104E-01 0.132E+00
   -.133E+01 -.219E+02 -.269E+04   -.394E+00 0.225E+02 0.268E+04   0.182E+01 -.401E+00 0.239E+01   0.841E-01 -.390E-02 0.138E+00
   0.258E+02 -.396E+02 -.269E+04   -.256E+02 0.393E+02 0.269E+04   -.352E+00 0.704E+00 0.215E+01   -.640E-02 -.195E-01 0.122E+00
   -.218E+02 0.819E+01 -.269E+04   0.215E+02 -.984E+01 0.268E+04   0.499E+00 0.170E+01 0.240E+01   0.340E-01 0.723E-01 0.137E+00
   -.413E+01 -.351E+01 -.269E+04   0.410E+01 0.348E+01 0.269E+04   0.523E-01 0.467E-01 0.198E+01   -.498E-02 -.778E-02 0.141E+00
   -.311E+02 -.126E+02 -.145E+04   0.313E+02 0.127E+02 0.145E+04   0.795E-01 0.595E-01 0.110E+01   -.296E-01 -.163E-01 0.814E-01
   -.309E+02 -.177E+02 -.183E+04   0.287E+02 0.172E+02 0.187E+04   0.217E+01 0.527E+00 -.337E+02   -.463E-02 -.544E-02 -.112E+00
   0.157E+02 0.111E+02 -.181E+04   -.103E+02 -.920E+01 0.179E+04   -.533E+01 -.185E+01 0.261E+02   -.253E-01 -.973E-02 -.222E-01
   0.111E+02 0.417E+01 -.365E+03   -.120E+02 -.442E+01 0.373E+03   0.804E+00 0.243E+00 -.806E+01   -.147E-03 -.123E-04 -.132E-01
   0.184E+01 0.869E+00 0.135E+02   -.480E-13 -.211E-12 0.119E-11   -.190E+01 -.871E+00 -.181E+02   0.432E-01 0.312E-01 0.463E+01

 POSITION                                       TOTAL-FORCE (eV/Angst)
      0.00000      0.00000      5.28219         0.000752      0.000408     -0.049518
      2.93046      0.00000      5.28219         0.000307      0.007884      0.022811
      5.86091      0.00000      5.28219         0.000628      0.006972      0.031771
      1.46523      2.53785      5.28219         0.006831     -0.006568      0.021565
      4.39568      2.53785      5.28219         0.009031      0.003337      0.006703
      7.32614      2.53785      5.28219        -0.016312      0.000109      0.032062
      2.93046      5.07570      5.28219         0.006683     -0.002814      0.031187
      5.86091      5.07570      5.28219        -0.006010     -0.015728      0.031973
      8.79137      5.07570      5.28219         0.000603     -0.000213      0.024902
      1.46523      0.84595      7.67490        -0.016654     -0.009431     -0.045402
      4.39568      0.84595      7.67490        -0.000251     -0.055089     -0.075635
      7.32614      0.84595      7.67490         0.018253     -0.017300     -0.045095
      2.93046      3.38380      7.67490        -0.046720      0.025682     -0.076660
      5.86091      3.38380      7.67490         0.060228      0.033829     -0.055480
      8.79137      3.38380      7.67490        -0.009174     -0.034041     -0.003666
      4.39568      5.92165      7.67490        -0.006903      0.023677     -0.041920
      7.32614      5.92165      7.67490        -0.034079      0.007069     -0.003427
     10.25659      5.92165      7.67490         0.037296      0.018876      0.060707
      8.79137      1.69725     10.06774         0.013732     -0.002264      0.017075
      2.92950      1.69135     10.02116        -0.135264     -0.076164     -0.045722
      5.86187      1.69135     10.02116         0.144901     -0.062148     -0.153721
     10.25061      4.23320     10.05696         0.041746     -0.129138      0.088989
      4.39568      4.23086     10.02116         0.017195      0.143673     -0.137207
      7.33212      4.23320     10.05696        -0.034193     -0.021618      0.029065
     11.71719      6.76492     10.06774         0.100204      0.058359      0.130875
      5.86555      6.76492     10.06774         0.005232      0.013409      0.021747
      8.79137      6.76069     10.05696        -0.088455      0.098125      0.084999
      0.00000      0.00000     12.43040        -0.532835     -0.312945     -0.036064
      2.96174      0.05879     12.46433         0.232176     -0.577823     -0.143672
      5.82963      0.05879     12.46433         0.166824     -0.327999     -0.263011
      1.53179      2.53554     12.46433        -0.405015      0.494266     -0.161093
      7.25958      2.53554     12.46433         0.188199      0.125613     -0.296455
      2.96573      5.01921     12.46433        -0.218819      0.342773     -0.272315
      5.82563      5.01921     12.46433         0.221657      0.116140     -0.301027
      8.79137      5.07570     12.42552         0.012230      0.008680     -0.009604
      4.39568      2.53785     12.19879         0.270346      0.125364      1.586851
      4.28288      2.51847     13.91102        -0.001757      0.004791      0.015179
      1.36999      0.80428     14.00173        -0.002314     -0.001401     -0.017896
      1.27005      0.77351     14.96948        -0.000299     -0.006352     -0.003873
    total drift:                               -0.011374      0.029292      0.016781

  FREE ENERGIE OF THE ION-ELECTRON SYSTEM (eV)
  free  energy   TOTEN  =      -115.89080380 eV

  energy  without entropy=     -115.89080380  energy(sigma->0) =     -115.89080380

 stress matrix after NEB project (eV)
     -4.10926      0.21613     -0.20596
      0.21613     -4.36580     -0.12929
     -0.20596     -0.12929     -0.51081
  FORCES: max atom, RMS     0.018099    0.004049
  FORCE total and by dimension    0.025288    0.017896
  Stress total and by dimension    6.034807    4.365801
|           W    W    AA    RRRRR   N    N  II  N    N   GGGG   !!!           |
|           W    W   A  A   R    R  NN   N  II  NN   N  G    G  !!!           |
|           W    W  A    A  R    R  N N  N  II  N N  N  G       !!!           |
|           W WW W  AAAAAA  RRRRR   N  N N  II  N  N N  G  GGG   !            |
|           WW  WW  A    A  R   R   N   NN  II  N   NN  G    G                |
|           W    W  A    A  R    R  N    N  II  N    N   GGGG   !!!           |
|     Tetrahedron method does not include variations of the Fermi             |
|     occupations, so forces and stress will be inaccurate. We suggest        |
|     using a different smearing scheme ISMEAR = 1 or 2 for metals in         |
|     relaxations.                                                            |

 total charge

# of ion       s       p       d       tot
    1        0.419   0.200   9.179   9.798
    2        0.416   0.203   9.178   9.797
    3        0.416   0.204   9.177   9.797
    4        0.417   0.203   9.178   9.797
    5        0.420   0.202   9.176   9.798
    6        0.416   0.204   9.177   9.797
    7        0.416   0.204   9.177   9.797
    8        0.416   0.204   9.177   9.797
    9        0.412   0.204   9.178   9.793
   10        0.410   0.267   9.165   9.842
   11        0.404   0.273   9.166   9.843
   12        0.413   0.266   9.164   9.844
   13        0.404   0.273   9.166   9.843
   14        0.401   0.274   9.168   9.843
   15        0.404   0.268   9.165   9.838
   16        0.413   0.267   9.164   9.843
   17        0.404   0.269   9.165   9.838
   18        0.400   0.273   9.162   9.835
   19        0.406   0.264   9.165   9.836
   20        0.438   0.314   9.130   9.883
   21        0.445   0.306   9.136   9.887
   22        0.390   0.277   9.165   9.831
   23        0.444   0.307   9.135   9.886
   24        0.391   0.275   9.167   9.833
   25        0.401   0.268   9.162   9.832
   26        0.406   0.264   9.165   9.835
   27        0.390   0.277   9.165   9.832
   28        0.378   0.240   9.181   9.798
   29        0.374   0.240   9.187   9.802
   30        0.411   0.219   9.176   9.807
   31        0.374   0.243   9.187   9.803
   32        0.409   0.216   9.182   9.806
   33        0.410   0.218   9.178   9.806
   34        0.408   0.215   9.183   9.806
   35        0.412   0.194   9.183   9.789
   36        0.620   0.545   4.826   5.991
   37        1.609   3.300   0.000   4.909
   38        1.557   3.490   0.000   5.047
   39        0.616   0.120   0.000   0.736
tot         18.689  16.052 325.753 360.495

 BZINTS: Fermi energy:    0.132613;  405.000000 electrons
         Band energy:-0.165892E+04;  BLOECHL correction:   -0.033809