 vasp.6.2.0 18Jan21 (build Jun 12 2021 23:27:24) complex

 executed on             LinuxIFC date 2022.05.27  05:03:38

 INCAR:
   ISMEAR = -5
   SIGMA = 0.1
   ISPIN = 1
   EDIFF = 1.d-5
   EDIFFG = -0.01
   NSW = 0
   NELM = 150
   ENCUT = 500
   ISIF = 2
   IBRION = 2
   LREAL = Auto
   ALGO = Fast
   ICHARG = 11
   LORBIT = 10
   LCHARG = .F.
   LWAVE = .F.

 POTCAR:    PAW_PBE Au 04Oct2007
 POTCAR:    PAW_PBE Fe 06Sep2000
 POTCAR:    PAW_PBE H 15Jun2001
|           W    W    AA    RRRRR   N    N  II  N    N   GGGG   !!!           |
|           W    W   A  A   R    R  NN   N  II  NN   N  G    G  !!!           |
|           W    W  A    A  R    R  N N  N  II  N N  N  G       !!!           |
|           W WW W  AAAAAA  RRRRR   N  N N  II  N  N N  G  GGG   !            |
|           WW  WW  A    A  R   R   N   NN  II  N   NN  G    G                |
|           W    W  A    A  R    R  N    N  II  N    N   GGGG   !!!           |
|     For optimal performance we recommend to set                             |
|       NCORE = 2 up to number-of-cores-per-socket                            |
|     This setting can greatly improve the performance of VASP for DFT.       |
|     The default, NCORE=1 might be grossly inefficient on modern             |
|     multi-core architectures or massively parallel machines. Do your        |
|     Unfortunately you need to use the default for GW and RPA                |
|     calculations (for HF NCORE is supported but not extensively tested      |
|     yet).                                                                   |

 POTCAR:    PAW_PBE Au 04Oct2007
   VRHFIN =Au: s1d10

   TITEL  = PAW_PBE Au 04Oct2007
   POMASS =  196.966; ZVAL   =   11.000    mass and valenz
   ENMAX  =  229.943; ENMIN  =  172.457 eV

 POTCAR:    PAW_PBE Fe 06Sep2000
   VRHFIN =Fe:  d7 s1

   TITEL  = PAW_PBE Fe 06Sep2000
   POMASS =   55.847; ZVAL   =    8.000    mass and valenz
   ENMAX  =  267.882; ENMIN  =  200.911 eV

 POTCAR:    PAW_PBE H 15Jun2001
   VRHFIN =H: ultrasoft test

   TITEL  = PAW_PBE H 15Jun2001
   POMASS =    1.000; ZVAL   =    1.000    mass and valenz
   ENMAX  =  250.000; ENMIN  =  200.000 eV

 Optimization of the real space projectors (new method)

 maximal supplied QI-value         = 15.12
 optimisation between [QCUT,QGAM] = [ 11.34, 22.83] = [ 36.00,145.93] Ry
 Optimized for a Real-space Cutoff    1.39 Angstroem

   l    n(q)    QCUT    max X(q) W(low)/X(q) W(high)/X(q)  e(spline)
   2      9    11.338    60.898    0.39E-03    0.42E-03    0.21E-06
   2      9    11.338    58.894    0.40E-03    0.42E-03    0.22E-06
   0      9    11.338   109.617    0.13E-03    0.20E-04    0.13E-06
   0      9    11.338    75.026    0.13E-03    0.20E-04    0.13E-06
   1      9    11.338    16.344    0.33E-04    0.24E-03    0.18E-06
   1      9    11.338    10.160    0.26E-04    0.19E-03    0.15E-06
 Optimization of the real space projectors (new method)

[...]

   l    n(q)    QCUT    max X(q) W(low)/X(q) W(high)/X(q)  e(spline)
   2      8    11.376    80.901    0.45E-03    0.44E-04    0.21E-06
   2      8    11.376    75.754    0.45E-03    0.45E-04    0.22E-06
   0      9    11.376    58.752    0.65E-04    0.95E-04    0.17E-06
   0      9    11.376    30.679    0.59E-04    0.87E-04    0.16E-06
   1      9    11.376    17.977    0.38E-03    0.10E-03    0.14E-06
   1      9    11.376    13.559    0.31E-03    0.90E-04    0.12E-06
 Optimization of the real space projectors (new method)

 maximal supplied QI-value         = 34.20
 optimisation between [QCUT,QGAM] = [ 11.29, 22.57] = [ 35.68,142.71] Ry
 Optimized for a Real-space Cutoff    1.16 Angstroem

   l    n(q)    QCUT    max X(q) W(low)/X(q) W(high)/X(q)  e(spline)
   0      8    11.287    19.460    0.40E-03    0.73E-03    0.16E-06
   0      8    11.287    12.209    0.38E-03    0.70E-03    0.15E-06
   1      7    11.287     4.655    0.22E-03    0.25E-04    0.22E-06
  PAW_PBE Au 04Oct2007                  :
  PAW_PBE Fe 06Sep2000                  :
  PAW_PBE H 15Jun2001                   :

 POSCAR: Au-Fe-H2
  positions in direct lattice
  velocities in cartesian coordinates
 exchange correlation table for  LEXCH =        8
   RHO(1)=    0.500       N(1)  =     2000
   RHO(2)=  100.500       N(2)  =     4000

 VTST: version 3.2, (02/03/18)

 CHAIN: initializing optimizer

 OPT: Using VASP Conjugate-Gradient optimizer
 CHAIN: Read ICHAIN            0

 POSCAR: Au-Fe-H2
  positions in direct lattice
  velocities in cartesian coordinates

 ion  position               nearest neighbor table
   1  0.000  0.000  0.238-  16 2.94  12 2.94   6 2.94   8 2.94   7 2.94   3 2.94  10 2.94   4 2.94
                             2 2.94
   2  0.333  0.000  0.238-   9 2.94  11 2.94  17 2.94  10 2.94   8 2.94   4 2.94   5 2.94   1 2.94
                             3 2.94
   3  0.667  0.000  0.238-   7 2.94  18 2.94  12 2.94   1 2.94  11 2.94   5 2.94   6 2.94   9 2.94
                             2 2.94
   4  0.000  0.333  0.238-  10 2.94   6 2.94   5 2.94  13 2.94   2 2.94  15 2.94   9 2.94   1 2.94
                             7 2.94
   5  0.333  0.333  0.238-  13 2.94   7 2.94  11 2.94   4 2.94   2 2.94  14 2.94   3 2.94   8 2.94
                             6 2.94
   6  0.667  0.333  0.238-  15 2.94  14 2.94   1 2.94  12 2.94   4 2.94   9 2.94   8 2.94   3 2.94
                             5 2.94
   7  0.000  0.667  0.238-  18 2.94   3 2.94  16 2.94   5 2.94   1 2.94  13 2.94   8 2.94   4 2.94
                             9 2.94
   8  0.333  0.667  0.238-   9 2.94  17 2.94   1 2.94   2 2.94  14 2.94  16 2.94   6 2.94   7 2.94
                             5 2.94
   9  0.667  0.667  0.238-   2 2.94   8 2.94  17 2.94   6 2.94  15 2.94   4 2.94   3 2.94  18 2.94
                             7 2.94
  10  0.111  0.111  0.346-  20 2.93  26 2.94  19 2.94  11 2.94  17 2.94   2 2.94   4 2.94   1 2.94
                            12 2.94  16 2.94  13 2.94  15 2.94
  11  0.444  0.111  0.346-  20 2.91  21 2.91  27 2.93  13 2.94   2 2.94  10 2.94  17 2.94   5 2.94
                             3 2.94  18 2.94  14 2.94  12 2.94
  12  0.778  0.111  0.346-  21 2.93  25 2.94  19 2.94  16 2.94  18 2.94   1 2.94  14 2.94  15 2.94
                             3 2.94   6 2.94  10 2.94  11 2.94
  13  0.111  0.444  0.346-  23 2.91  20 2.91  22 2.93   5 2.94  18 2.94  11 2.94   7 2.94   4 2.94
                            16 2.94  10 2.94  14 2.94  15 2.94
  14  0.444  0.444  0.346-  21 2.91  23 2.91  24 2.93  15 2.94   6 2.94  12 2.94   8 2.94  17 2.94
                             5 2.94  16 2.94  13 2.94  11 2.94
  15  0.778  0.444  0.346-  24 2.92  22 2.92  19 2.94  14 2.94   6 2.94  17 2.94  12 2.94   9 2.94
                             4 2.94  10 2.94  13 2.94  18 2.94
  16  0.111  0.778  0.346-  23 2.93  25 2.94  26 2.94  18 2.94  12 2.94   7 2.94   1 2.94   8 2.94
                            13 2.94  10 2.94  14 2.94  17 2.94
  17  0.444  0.778  0.346-  27 2.92  24 2.92  26 2.94   9 2.94  15 2.94   2 2.94  10 2.94  11 2.94
                             8 2.94  14 2.94  16 2.94  18 2.94
  18  0.778  0.778  0.346-  22 2.92  27 2.92  25 2.94  16 2.94   7 2.94  13 2.94  12 2.94   3 2.94
                            11 2.94   9 2.94  15 2.94  17 2.94
  19  0.889  0.222  0.454-  10 2.94  12 2.94  15 2.94  26 2.94  25 2.94  24 2.94  22 2.94  28 2.95
                            21 2.95  20 2.95  32 2.98  31 2.98
  20  0.223  0.223  0.453-  36 2.70  23 2.91  21 2.91  11 2.91  13 2.91  29 2.92  31 2.92  10 2.93
                            27 2.95  22 2.95  26 2.95  19 2.95
  21  0.553  0.223  0.453-  36 2.70  20 2.91  23 2.91  14 2.91  11 2.91  30 2.92  32 2.92  12 2.93
                            27 2.95  24 2.95  25 2.95  19 2.95
  22  0.887  0.557  0.453-  24 2.91  27 2.91  18 2.92  15 2.92  13 2.93  25 2.94  19 2.94  33 2.95
                            31 2.95  23 2.95  20 2.95  35 2.95
  23  0.223  0.553  0.453-  36 2.70  20 2.91  21 2.91  13 2.91  14 2.91  33 2.92  34 2.92  16 2.93
                            22 2.95  24 2.95  25 2.95  26 2.95
  24  0.557  0.557  0.453-  27 2.91  22 2.91  15 2.92  17 2.92  14 2.93  26 2.94  19 2.94  32 2.95
                            34 2.95  21 2.95  23 2.95  35 2.95
  25  0.889  0.889  0.454-  16 2.94  12 2.94  18 2.94  19 2.94  26 2.94  22 2.94  27 2.94  28 2.95
                            23 2.95  21 2.95  33 2.98  30 2.98
  26  0.222  0.889  0.454-  10 2.94  16 2.94  17 2.94  19 2.94  25 2.94  27 2.94  24 2.94  28 2.95
                            20 2.95  23 2.95  29 2.98  34 2.98
  27  0.557  0.887  0.453-  24 2.91  22 2.91  17 2.92  18 2.92  11 2.93  26 2.94  25 2.94  29 2.95
                            30 2.95  20 2.95  21 2.95  35 2.95
  28  0.000  0.000  0.563-  25 2.95  19 2.95  26 2.95  34 2.98  32 2.98  33 2.98  30 2.98  31 2.98
                            29 2.98
  29  0.333  0.010  0.562-  30 2.85  31 2.85  36 2.87  20 2.92  27 2.95  26 2.98  35 2.98  28 2.98
                            34 3.11
  30  0.657  0.010  0.562-  29 2.85  32 2.85  36 2.87  21 2.92  27 2.95  25 2.98  35 2.98  28 2.98
                            33 3.11
  31  0.010  0.333  0.562-  33 2.85  29 2.85  36 2.87  20 2.92  22 2.95  19 2.98  35 2.98  28 2.98
                            32 3.11
  32  0.657  0.333  0.562-  34 2.85  30 2.85  36 2.87  21 2.92  24 2.95  19 2.98  35 2.98  28 2.98
                            31 3.11
  33  0.010  0.657  0.562-  31 2.85  34 2.85  36 2.87  23 2.92  22 2.95  25 2.98  35 2.98  28 2.98
                            30 3.11
  34  0.333  0.657  0.562-  32 2.85  33 2.85  36 2.87  23 2.92  24 2.95  26 2.98  35 2.98  28 2.98
                            29 3.11
  35  0.667  0.667  0.563-  24 2.95  27 2.95  22 2.95  29 2.98  34 2.98  32 2.98  31 2.98  30 2.98
                            33 2.98
  36  0.333  0.333  0.548-  38 1.60  37 1.60  20 2.70  23 2.70  21 2.70  33 2.87  31 2.87  29 2.87
                            30 2.87  34 2.87  32 2.87
  37  0.283  0.332  0.617-  36 1.60
  38  0.385  0.332  0.617-  36 1.60

  LATTYP: Found a hexagonal cell.
 ALAT       =     8.8135128021
 C/A-ratio  =     2.5184286595

  Lattice vectors:

 A1 = (  -4.4067569092,  -7.6327256898,   0.0000000000)
 A2 = (   8.8135128021,   0.0000000000,   0.0000000000)
 A3 = (   0.0000000000,   0.0000000000,  22.1962032318)

Analysis of symmetry for initial positions (statically):
 Subroutine PRICEL returns:
 Original cell was already a primitive cell.

 Routine SETGRP: Setting up the symmetry group for a
 hexagonal supercell.

 Subroutine GETGRP returns: Found  2 space group operations
 (whereof  2 operations were pure point group operations)
 out of a pool of 24 trial point group operations.

The static configuration has the point symmetry C_1h.

Analysis of symmetry for dynamics (positions and initial velocities):
 Subroutine PRICEL returns:
 Original cell was already a primitive cell.

[...]

The dynamic configuration has the point symmetry C_1h.

Analysis of constrained symmetry for selective dynamics:
 Subroutine PRICEL returns:
 Original cell was already a primitive cell.

 Routine SETGRP: Setting up the symmetry group for a
 hexagonal supercell.

 Subroutine GETGRP returns: Found  2 space group operations
[...]
     33      -4.6949      2.00000
     34      -4.6777      2.00000
     35      -4.5757      2.00000
     36      -4.5072      2.00000
     37      -4.4973      2.00000
     38      -4.4919      2.00000
     39      -4.4712      2.00000
     40      -4.4228      2.00000
     41      -4.3525      2.00000
     42      -4.3219      2.00000
     43      -4.2614      2.00000
     44      -4.2414      2.00000
     45      -4.2377      2.00000
     46      -4.2302      2.00000
     47      -4.1208      2.00000
     48      -4.1100      2.00000
     49      -4.0728      2.00000
     50      -4.0607      2.00000
     51      -4.0526      2.00000
     52      -4.0484      2.00000
     53      -4.0278      2.00000
     54      -3.9960      2.00000
     55      -3.9548      2.00000
     56      -3.9242      2.00000
     57      -3.9084      2.00000
     58      -3.9022      2.00000
     59      -3.8797      2.00000
     60      -3.8727      2.00000
[...]
    238       6.5743      0.00000
    239       6.6371      0.00000
    240       6.7083      0.00000
    241       6.8269      0.00000
    242       6.8505      0.00000
    243       7.0519      0.00000
    244       7.1455      0.00000
    245       7.2729      0.00000
    246       7.4702      0.00000
    247       7.5064      0.00000
    248       7.5525      0.00000
    249       7.6404      0.00000
    250       7.7264      0.00000
    251       7.7589      0.00000
    252       7.8989      0.00000

 soft charge-density along one line, spin component           1
         0         1         2         3         4         5         6         7         8         9
 total charge-density along one line

------------------------ aborting loop because EDIFF is reached ----------------------------------------

 total charge

# of ion       s       p       d       tot
    1        0.546   0.239   8.769   9.553
    2        0.545   0.241   8.765   9.551
    3        0.545   0.241   8.765   9.551
    4        0.545   0.241   8.765   9.551
    5        0.544   0.242   8.760   9.546
    6        0.545   0.241   8.765   9.551
    7        0.545   0.241   8.765   9.551
    8        0.545   0.241   8.765   9.551
    9        0.542   0.239   8.771   9.553
   10        0.521   0.308   8.770   9.600
   11        0.524   0.307   8.781   9.611
   12        0.521   0.308   8.770   9.600
   13        0.523   0.307   8.780   9.610
   14        0.523   0.307   8.780   9.610
   15        0.516   0.310   8.777   9.602
   16        0.522   0.309   8.769   9.599
   17        0.515   0.310   8.777   9.602
   18        0.515   0.310   8.777   9.602
   19        0.517   0.301   8.774   9.592
   20        0.547   0.329   8.753   9.629
   21        0.547   0.329   8.753   9.629
   22        0.510   0.312   8.776   9.597
   23        0.547   0.331   8.751   9.628
   24        0.510   0.312   8.776   9.597
   25        0.518   0.300   8.775   9.593
   26        0.518   0.300   8.775   9.593
   27        0.510   0.311   8.777   9.598
   28        0.539   0.223   8.768   9.530
   29        0.555   0.238   8.759   9.552
   30        0.555   0.238   8.759   9.552
   31        0.551   0.243   8.756   9.550
   32        0.551   0.243   8.756   9.550
   33        0.555   0.238   8.759   9.552
   34        0.555   0.238   8.759   9.552
   35        0.535   0.224   8.769   9.528
   36        0.351   0.400   6.290   7.040
   37        0.542   0.032   0.000   0.574
   38        0.542   0.032   0.000   0.574
tot         20.136  10.116 313.155 343.406

  FORCE on cell =-STRESS in cart. coord.  units (eV):
  Direction    XX          YY          ZZ          XY          YZ          ZX
  Alpha Z  1004.56934  1004.56934  1004.56934
  Ewald  119780.97280119757.60278************    -0.00032    -0.18261    -0.00015
  Hartree128451.65780128445.74000************     0.00000     0.04477    -0.00004
  E(xc)   -1772.33032 -1772.53123 -1779.52524    -0.00000    -0.01072    -0.00000
  Local  ************************260792.36948     0.00187    -0.05731     0.00010
  n-local   -88.69612   -88.43335   -64.96823     4.75725     0.11296     0.21890
  augment  2404.09363  2404.12054  2417.98244    -0.00138     0.03371     0.00003
  Kinetic  5436.65727  5441.26143  5485.92094     1.65672     0.12060     0.17545
  Fock        0.00000     0.00000     0.00000     0.00000     0.00000     0.00000
  Total     -23.18527   -22.99451     1.37824    -0.00000     0.06140     0.00000
  in kB     -24.87800   -24.67330     1.47886    -0.00000     0.06589     0.00000

 VOLUME and BASIS-vectors are now :
  energy-cutoff  :      500.00
  volume of cell :     1493.16
      direct lattice vectors                 reciprocal lattice vectors
     8.813512802  0.000000000  0.000000000     0.113462137 -0.065507406  0.000000000
     4.406756909  7.632725690  0.000000000     0.000000000  0.131014796  0.000000000
     0.000000000  0.000000000 22.196203232     0.000000000  0.000000000  0.045052750

  length of vectors
     8.813512802  8.813512802 22.196203232     0.131014796  0.131014796  0.045052750

 FORCES acting on ions
    electron-ion (+dipol)            ewald-force                    non-local-force                 convergence-correction
   -.199E-04 0.251E-02 0.248E+04   0.519E-04 -.281E-02 -.248E+04   0.584E-09 0.878E-02 -.916E+00   -.237E-03 -.974E-02 -.383E+00
   0.501E+00 0.234E+00 0.248E+04   -.597E+00 -.371E+00 -.248E+04   0.497E-01 0.671E-01 -.297E+00   0.481E-01 0.840E-01 -.449E+00
   -.502E+00 0.234E+00 0.248E+04   0.597E+00 -.372E+00 -.248E+04   -.497E-01 0.671E-01 -.297E+00   -.477E-01 0.860E-01 -.448E+00
   0.437E+00 0.304E+00 0.248E+04   -.618E+00 -.332E+00 -.248E+04   0.845E-01 0.700E-02 -.304E+00   0.109E+00 0.145E-01 -.434E+00
   0.740E-05 -.259E-01 0.248E+04   0.951E-04 0.583E-03 -.248E+04   0.349E-09 0.524E-02 -.144E+00   0.428E-02 0.205E-01 -.390E+00
   -.437E+00 0.304E+00 0.248E+04   0.618E+00 -.332E+00 -.248E+04   -.845E-01 0.700E-02 -.304E+00   -.110E+00 0.154E-01 -.433E+00
   -.574E-01 -.534E+00 0.248E+04   -.208E-01 0.704E+00 -.248E+04   0.359E-01 -.787E-01 -.292E+00   0.551E-01 -.973E-01 -.439E+00
   0.574E-01 -.534E+00 0.248E+04   0.207E-01 0.704E+00 -.248E+04   -.359E-01 -.787E-01 -.292E+00   -.533E-01 -.984E-01 -.439E+00
   0.197E-04 0.240E-01 0.248E+04   0.166E-03 0.227E-02 -.248E+04   -.788E-09 -.118E-01 -.597E+00   -.459E-02 -.148E-01 -.480E+00
   0.446E+01 0.258E+01 0.821E+03   -.427E+01 -.248E+01 -.821E+03   -.281E+00 -.147E+00 -.672E+00   0.107E+00 0.676E-01 0.474E+00
   0.153E-04 0.533E+01 0.830E+03   0.147E-03 -.557E+01 -.830E+03   0.422E-08 0.634E-01 -.301E+00   0.404E-02 0.129E+00 0.544E+00
   -.446E+01 0.258E+01 0.821E+03   0.427E+01 -.248E+01 -.821E+03   0.281E+00 -.147E+00 -.672E+00   -.108E+00 0.687E-01 0.474E+00
   0.461E+01 -.266E+01 0.830E+03   -.480E+01 0.279E+01 -.830E+03   0.590E-01 -.518E-01 -.304E+00   0.105E+00 -.519E-01 0.526E+00
   -.461E+01 -.266E+01 0.830E+03   0.480E+01 0.279E+01 -.830E+03   -.590E-01 -.518E-01 -.304E+00   -.978E-01 -.527E-01 0.525E+00
   0.313E-04 0.330E+01 0.825E+03   0.236E-03 -.332E+01 -.824E+03   0.162E-08 0.244E-01 -.536E+00   -.224E-02 -.401E-01 0.403E+00
   -.216E-04 -.517E+01 0.821E+03   0.163E-03 0.493E+01 -.821E+03   0.229E-07 0.344E+00 -.688E+00   -.183E-04 -.133E+00 0.465E+00
   0.290E+01 -.165E+01 0.825E+03   -.289E+01 0.167E+01 -.824E+03   0.696E-02 -.121E-01 -.528E+00   -.526E-01 0.101E-01 0.404E+00
   -.290E+01 -.165E+01 0.825E+03   0.289E+01 0.167E+01 -.824E+03   -.696E-02 -.121E-01 -.528E+00   0.530E-01 0.121E-01 0.405E+00
   -.403E-04 0.197E+01 -.867E+03   0.543E-04 -.204E+01 0.866E+03   0.250E-08 0.376E-01 0.615E+00   -.315E-02 0.248E-01 0.118E+01
   0.231E+02 0.135E+02 -.829E+03   -.228E+02 -.133E+02 0.828E+03   -.101E+01 -.608E+00 -.980E+00   0.773E+00 0.418E+00 0.217E+01
   -.231E+02 0.135E+02 -.829E+03   0.228E+02 -.133E+02 0.828E+03   0.101E+01 -.608E+00 -.980E+00   -.777E+00 0.419E+00 0.217E+01
   0.214E+01 -.138E+01 -.854E+03   -.284E+01 0.178E+01 0.852E+03   0.349E+00 -.204E+00 0.548E+00   0.388E+00 -.214E+00 0.130E+01
   -.905E-05 -.269E+02 -.830E+03   0.142E-03 0.266E+02 0.828E+03   0.800E-07 0.120E+01 -.991E+00   -.221E-02 -.883E+00 0.221E+01
   -.214E+01 -.138E+01 -.854E+03   0.284E+01 0.178E+01 0.852E+03   -.349E+00 -.204E+00 0.548E+00   -.393E+00 -.214E+00 0.130E+01
   -.166E+01 -.861E+00 -.868E+03   0.172E+01 0.910E+00 0.866E+03   -.289E-01 -.226E-01 0.615E+00   -.347E-01 -.269E-01 0.122E+01
   0.166E+01 -.861E+00 -.868E+03   -.172E+01 0.910E+00 0.866E+03   0.289E-01 -.226E-01 0.615E+00   0.300E-01 -.276E-01 0.122E+01
   0.115E-04 0.244E+01 -.854E+03   0.197E-03 -.330E+01 0.852E+03   0.297E-07 0.447E+00 0.558E+00   -.291E-02 0.457E+00 0.134E+01
   -.110E-04 0.532E+00 -.249E+04   0.287E-04 -.456E+00 0.249E+04   -.286E-08 -.429E-01 0.661E+00   0.220E-04 -.443E-01 0.855E+00
   0.175E+02 0.294E+02 -.248E+04   -.175E+02 -.295E+02 0.248E+04   -.689E+00 -.945E+00 0.426E+00   0.598E+00 0.992E+00 0.744E+00
   -.175E+02 0.294E+02 -.248E+04   0.175E+02 -.295E+02 0.248E+04   0.689E+00 -.945E+00 0.426E+00   -.598E+00 0.993E+00 0.743E+00
   0.355E+02 0.111E+01 -.248E+04   -.357E+02 -.103E+01 0.248E+04   -.109E+01 -.638E-01 0.452E+00   0.120E+01 -.524E-02 0.727E+00
   -.355E+02 0.111E+01 -.248E+04   0.357E+02 -.103E+01 0.248E+04   0.109E+01 -.638E-01 0.452E+00   -.120E+01 -.444E-02 0.726E+00
   0.153E+02 -.303E+02 -.248E+04   -.154E+02 0.304E+02 0.248E+04   -.579E+00 0.102E+01 0.428E+00   0.593E+00 -.982E+00 0.737E+00
   -.153E+02 -.303E+02 -.248E+04   0.154E+02 0.304E+02 0.248E+04   0.579E+00 0.102E+01 0.428E+00   -.591E+00 -.982E+00 0.737E+00
   0.343E-04 -.475E+00 -.249E+04   0.143E-03 0.384E+00 0.249E+04   0.344E-08 0.516E-01 0.636E+00   -.436E-02 0.443E-01 0.852E+00
   -.265E-04 -.441E+00 -.166E+04   0.846E-04 0.438E+00 0.165E+04   0.425E-08 0.638E-01 0.793E+00   0.438E-02 0.699E-03 0.664E+00
   0.172E+02 0.297E-01 -.286E+03   -.204E+02 -.406E-01 0.288E+03   0.310E+01 0.605E-02 -.145E+01   0.872E-01 -.190E-02 -.276E+00
   -.172E+02 0.297E-01 -.286E+03   0.204E+02 -.406E-01 0.288E+03   -.310E+01 0.605E-02 -.145E+01   -.871E-01 -.189E-02 -.276E+00
   -.777E-03 -.947E-01 -.145E+02   0.124E-12 0.324E-12 -.813E-11   0.816E-08 0.123E+00 -.563E+01   -.124E-01 -.287E-01 0.207E+02

 POSITION                                       TOTAL-FORCE (eV/Angst)
      0.00000      0.00000      5.28038        -0.000000     -0.001244     -0.121307
      2.93784      0.00000      5.28038         0.002186      0.014597     -0.056155
      5.87568      0.00000      5.28038        -0.002186      0.014597     -0.056155
      1.46892      2.54424      5.28038         0.012840     -0.006036     -0.058501
      4.40676      2.54424      5.28038         0.000000      0.000451     -0.090098
      7.34459      2.54424      5.28038        -0.012840     -0.006036     -0.058501
      2.93784      5.08848      5.28038         0.011955     -0.007451     -0.058703
      5.87568      5.08848      5.28038        -0.011955     -0.007451     -0.058703
      8.81351      5.08848      5.28038        -0.000000     -0.000354     -0.074186
      1.46892      0.84808      7.67911         0.020331      0.013408      0.125925
      4.40676      0.84808      7.67911        -0.000000     -0.049375      0.033233
      7.34459      0.84808      7.67911        -0.020331      0.013408      0.125925
      2.93784      3.39232      7.67911        -0.036921      0.022582      0.042463
      5.87568      3.39232      7.67911         0.036921      0.022582      0.042463
      8.81351      3.39232      7.67911        -0.000000     -0.039145      0.096947
      4.40676      5.93656      7.67911        -0.000000     -0.031208      0.131481
      7.34459      5.93656      7.67911        -0.035028      0.021693      0.100768
     10.28243      5.93656      7.67911         0.035028      0.021693      0.100768
      8.81351      1.69603     10.07519        -0.000000     -0.001493      0.008865
      2.95264      1.70471     10.05068         0.003815     -0.012333     -0.135772
      5.86088      1.70471     10.05068        -0.003815     -0.012333     -0.135772
     10.26798      4.24875     10.06116         0.032240     -0.017248     -0.003909
      4.40676      4.22331     10.05068        -0.000000     -0.016654     -0.114366
      7.35905      4.24875     10.06116        -0.032240     -0.017248     -0.003909
     11.75147      6.78471     10.07519        -0.000984     -0.000196     -0.006710
      5.87556      6.78471     10.07519         0.000984     -0.000196     -0.006710
      8.81351      6.76796     10.06116         0.000000      0.036622     -0.000286
      0.00000      0.00000     12.48698        -0.000000     -0.011291     -0.041313
      2.98147      0.07441     12.46921        -0.051643     -0.125746     -0.066624
      5.83205      0.07441     12.46921         0.051643     -0.125746     -0.066624
      1.55518      2.54482     12.46921        -0.090628      0.009422     -0.030582
      7.25833      2.54482     12.46921         0.090628      0.009422     -0.030582
      2.98047      5.01349     12.46921        -0.064883      0.117111     -0.058074
      5.83305      5.01349     12.46921         0.064883      0.117111     -0.058074
      8.81351      5.08848     12.49182         0.000000      0.005184     -0.027769
      4.40676      2.54424     12.16047         0.000000      0.062249      0.573887
      3.95749      2.53616     13.69942         0.028972     -0.006675      0.018329
      4.85602      2.53616     13.69942        -0.028972     -0.006675      0.018329
    total drift:                               -0.013225     -0.000822      0.548577

  FREE ENERGIE OF THE ION-ELECTRON SYSTEM (eV)
  free  energy   TOTEN  =      -120.25941939 eV

  energy  without entropy=     -120.25941939  energy(sigma->0) =     -120.25941939

 stress matrix after NEB project (eV)
    -23.18527     -0.00000      0.00000
     -0.00000    -22.99451      0.06140
      0.00000      0.06140      1.37824
  FORCES: max atom, RMS     0.034927    0.008013
  FORCE total and by dimension    0.049394    0.028972
  Stress total and by dimension   32.683503   23.185274
|           W    W    AA    RRRRR   N    N  II  N    N   GGGG   !!!           |
|           W    W   A  A   R    R  NN   N  II  NN   N  G    G  !!!           |
|           W    W  A    A  R    R  N N  N  II  N N  N  G       !!!           |
|           W WW W  AAAAAA  RRRRR   N  N N  II  N  N N  G  GGG   !            |
|           WW  WW  A    A  R   R   N   NN  II  N   NN  G    G                |
|           W    W  A    A  R    R  N    N  II  N    N   GGGG   !!!           |
|     Tetrahedron method does not include variations of the Fermi             |
|     occupations, so forces and stress will be inaccurate. We suggest        |
|     using a different smearing scheme ISMEAR = 1 or 2 for metals in         |
|     relaxations.                                                            |

 total charge

# of ion       s       p       d       tot
    1        0.546   0.239   8.769   9.553
    2        0.545   0.241   8.765   9.551
    3        0.545   0.241   8.765   9.551
    4        0.545   0.241   8.765   9.551
    5        0.544   0.242   8.760   9.546
    6        0.545   0.241   8.765   9.551
    7        0.545   0.241   8.765   9.551
    8        0.545   0.241   8.765   9.551
    9        0.542   0.239   8.771   9.553
   10        0.521   0.308   8.770   9.600
   11        0.524   0.307   8.781   9.611
   12        0.521   0.308   8.770   9.600
   13        0.523   0.307   8.780   9.610
   14        0.523   0.307   8.780   9.610
   15        0.516   0.310   8.777   9.602
   16        0.522   0.309   8.769   9.599
   17        0.515   0.310   8.777   9.602
   18        0.515   0.310   8.777   9.602
   19        0.517   0.301   8.774   9.592
   20        0.547   0.329   8.753   9.629
   21        0.547   0.329   8.753   9.629
   22        0.510   0.312   8.776   9.597
   23        0.547   0.331   8.751   9.628
   24        0.510   0.312   8.776   9.597
   25        0.518   0.300   8.775   9.593
   26        0.518   0.300   8.775   9.593
   27        0.510   0.311   8.777   9.598
   28        0.539   0.223   8.768   9.530
   29        0.555   0.238   8.759   9.552
   30        0.555   0.238   8.759   9.552
   31        0.551   0.243   8.756   9.550
   32        0.551   0.243   8.756   9.550
   33        0.555   0.238   8.759   9.552
   34        0.555   0.238   8.759   9.552
   35        0.535   0.224   8.769   9.528
   36        0.351   0.400   6.290   7.040
   37        0.542   0.032   0.000   0.574
   38        0.542   0.032   0.000   0.574
tot         20.136  10.116 313.155 343.406

 BZINTS: Fermi energy:    0.726308;  395.000000 electrons
         Band energy:-0.117017E+04;  BLOECHL correction:   -0.052701