 vasp.6.2.0 18Jan21 (build Jun 12 2021 23:27:24) complex

 executed on             LinuxIFC date 2022.05.28  02:32:55

 INCAR:
   ISMEAR = -5
   SIGMA = 0.1
   ISPIN = 1
   EDIFF = 1.d-5
   EDIFFG = -0.01
   NSW = 0
   NELM = 150
   ENCUT = 500
   ISIF = 2
   IBRION = 2
   LREAL = Auto
   ALGO = Fast
   ICHARG = 11
   LORBIT = 10
   LCHARG = .F.
   LWAVE = .F.

 POTCAR:    PAW_PBE Cu 22Jun2005
 POTCAR:    PAW_PBE Nb_sv 25May2007
 POTCAR:    PAW_PBE O 08Apr2002
 POTCAR:    PAW_PBE H 15Jun2001
|           W    W    AA    RRRRR   N    N  II  N    N   GGGG   !!!           |
|           W    W   A  A   R    R  NN   N  II  NN   N  G    G  !!!           |
|           W    W  A    A  R    R  N N  N  II  N N  N  G       !!!           |
|           W WW W  AAAAAA  RRRRR   N  N N  II  N  N N  G  GGG   !            |
|           WW  WW  A    A  R   R   N   NN  II  N   NN  G    G                |
|           W    W  A    A  R    R  N    N  II  N    N   GGGG   !!!           |
|     For optimal performance we recommend to set                             |
|       NCORE = 2 up to number-of-cores-per-socket                            |
|     This setting can greatly improve the performance of VASP for DFT.       |
|     The default, NCORE=1 might be grossly inefficient on modern             |
|     multi-core architectures or massively parallel machines. Do your        |
|     Unfortunately you need to use the default for GW and RPA                |
|     calculations (for HF NCORE is supported but not extensively tested      |
|     yet).                                                                   |

 POTCAR:    PAW_PBE Cu 22Jun2005
   VRHFIN =Cu: d10 p1

   TITEL  = PAW_PBE Cu 22Jun2005
   POMASS =   63.546; ZVAL   =   11.000    mass and valenz
   ENMAX  =  295.446; ENMIN  =  221.585 eV

 POTCAR:    PAW_PBE Nb_sv 25May2007
   VRHFIN =Nb: 4p5s4d

   TITEL  = PAW_PBE Nb_sv 25May2007
   POMASS =   92.910; ZVAL   =   13.000    mass and valenz
   ENMAX  =  293.235; ENMIN  =  219.927 eV

 POTCAR:    PAW_PBE O 08Apr2002
   VRHFIN =O: s2p4

   TITEL  = PAW_PBE O 08Apr2002
   POMASS =   16.000; ZVAL   =    6.000    mass and valenz
   ENMAX  =  400.000; ENMIN  =  300.000 eV

 POTCAR:    PAW_PBE H 15Jun2001
   VRHFIN =H: ultrasoft test

   TITEL  = PAW_PBE H 15Jun2001
   POMASS =    1.000; ZVAL   =    1.000    mass and valenz
   ENMAX  =  250.000; ENMIN  =  200.000 eV

 Optimization of the real space projectors (new method)

 maximal supplied QI-value         = 16.25
 optimisation between [QCUT,QGAM] = [ 11.38, 22.75] = [ 36.24,144.96] Ry
 Optimized for a Real-space Cutoff    1.52 Angstroem

   l    n(q)    QCUT    max X(q) W(low)/X(q) W(high)/X(q)  e(spline)
   2      9    11.376     4.610    0.21E-03    0.10E-03    0.26E-06
   2      9    11.376     8.522    0.33E-03    0.16E-03    0.37E-06
   0     10    11.376    51.609    0.62E-04    0.20E-04    0.13E-06
   0     10    11.376    27.747    0.54E-04    0.20E-04    0.13E-06
   1     10    11.376    20.408    0.13E-04    0.99E-04    0.19E-06
   1     10    11.376    13.425    0.12E-04    0.87E-04    0.17E-06
 Optimization of the real space projectors (new method)

[...]

   l    n(q)    QCUT    max X(q) W(low)/X(q) W(high)/X(q)  e(spline)
   0      7    11.387    20.381    0.39E-03    0.13E-02    0.15E-06
   0      7    11.387    15.268    0.42E-03    0.14E-02    0.17E-06
   1      6    11.387     5.964    0.41E-03    0.11E-02    0.17E-06
   1      6    11.387     5.382    0.39E-03    0.87E-03    0.15E-06
 Optimization of the real space projectors (new method)

 maximal supplied QI-value         = 34.20
 optimisation between [QCUT,QGAM] = [ 11.29, 22.57] = [ 35.68,142.71] Ry
 Optimized for a Real-space Cutoff    1.16 Angstroem

   l    n(q)    QCUT    max X(q) W(low)/X(q) W(high)/X(q)  e(spline)
   0      8    11.287    19.460    0.40E-03    0.73E-03    0.16E-06
   0      8    11.287    12.209    0.38E-03    0.70E-03    0.15E-06
   1      7    11.287     4.655    0.22E-03    0.25E-04    0.22E-06
  PAW_PBE Cu 22Jun2005                  :
  PAW_PBE Nb_sv 25May2007               :
  PAW_PBE O 08Apr2002                   :
  PAW_PBE H 15Jun2001                   :

 POSCAR: Cu-Nb-OOH
  positions in direct lattice
  velocities in cartesian coordinates
 exchange correlation table for  LEXCH =        8
   RHO(1)=    0.500       N(1)  =     2000
   RHO(2)=  100.500       N(2)  =     4000

 VTST: version 3.2, (02/03/18)

 CHAIN: initializing optimizer

 OPT: Using VASP Conjugate-Gradient optimizer
 CHAIN: Read ICHAIN            0

 POSCAR: Cu-Nb-OOH
  positions in direct lattice
  velocities in cartesian coordinates

 ion  position               nearest neighbor table
   1  0.000  0.000  0.212-   7 2.57   3 2.57   4 2.57   2 2.57   6 2.57   8 2.57  12 2.57  10 2.57
                            16 2.57
   2  0.333  0.000  0.212-   8 2.57   9 2.57   5 2.57   1 2.57   3 2.57  11 2.57   4 2.57  10 2.57
                            17 2.57
   3  0.667  0.000  0.212-   1 2.57   7 2.57   6 2.57   9 2.57   2 2.57  12 2.57   5 2.57  18 2.57
                            11 2.57
   4  0.000  0.333  0.212-   5 2.57   6 2.57   1 2.57   7 2.57   2 2.57  13 2.57   9 2.57  10 2.57
                            15 2.57
   5  0.333  0.333  0.212-   4 2.57   2 2.57   7 2.57  13 2.57   8 2.57   6 2.57   3 2.57  11 2.57
                            14 2.57
   6  0.667  0.333  0.212-   4 2.57   9 2.57  15 2.57   3 2.57   1 2.57   8 2.57  14 2.57   5 2.57
                            12 2.57
   7  0.000  0.667  0.212-   1 2.57   3 2.57  16 2.57  18 2.57   4 2.57   5 2.57   8 2.57   9 2.57
                            13 2.57
   8  0.333  0.667  0.212-   9 2.57   2 2.57  17 2.57   6 2.57   1 2.57   7 2.57   5 2.57  14 2.57
                            16 2.57
   9  0.667  0.667  0.212-   8 2.57   6 2.57   2 2.57  17 2.57   3 2.57   7 2.57   4 2.57  15 2.57
                            18 2.57
  10  0.111  0.111  0.294-  26 2.55  19 2.55  11 2.57  12 2.57  13 2.57   1 2.57   2 2.57   4 2.57
                            15 2.57  16 2.57  17 2.57  20 2.57
  11  0.444  0.111  0.294-  20 2.57  21 2.57  10 2.57  13 2.57   2 2.57  17 2.57  14 2.57  12 2.57
                             5 2.57   3 2.57  18 2.57  27 2.57
  12  0.778  0.111  0.294-  19 2.55  25 2.55  15 2.57  10 2.57  14 2.57  18 2.57   3 2.57   1 2.57
                            16 2.57  11 2.57   6 2.57  21 2.57
  13  0.111  0.444  0.294-  23 2.57  20 2.57  16 2.57  18 2.57  10 2.57  11 2.57  14 2.57   5 2.57
                             4 2.57   7 2.57  15 2.57  22 2.57
  14  0.444  0.444  0.294-  21 2.57  23 2.57  15 2.57  17 2.57  12 2.57  16 2.57  13 2.57  11 2.57
                             6 2.57   8 2.57   5 2.57  24 2.57
  15  0.778  0.444  0.294-  19 2.55  14 2.57  17 2.57  12 2.57   6 2.57  18 2.57  10 2.57   9 2.57
                            13 2.57   4 2.57  24 2.57  22 2.57
  16  0.111  0.778  0.294-  25 2.55  26 2.55  18 2.57  13 2.57   7 2.57  14 2.57  17 2.57  12 2.57
                            10 2.57   8 2.57   1 2.57  23 2.57
  17  0.444  0.778  0.294-  26 2.55  14 2.57  15 2.57   8 2.57   9 2.57  11 2.57  16 2.57  18 2.57
                            10 2.57   2 2.57  27 2.57  24 2.57
  18  0.778  0.778  0.294-  25 2.55  16 2.57  13 2.57   7 2.57  15 2.57  12 2.57  17 2.57   9 2.57
                             3 2.57  11 2.57  22 2.57  27 2.57
  19  0.889  0.222  0.376-  12 2.55  10 2.55  15 2.55  25 2.56  26 2.56  21 2.57  20 2.57  22 2.57
                            24 2.57  28 2.57  32 2.58  31 2.58
  20  0.222  0.222  0.377-  23 2.56  21 2.56  11 2.57  13 2.57  10 2.57  26 2.57  19 2.57  27 2.57
                            22 2.57  29 2.59  31 2.59  36 2.66
  21  0.555  0.222  0.377-  20 2.56  23 2.56  14 2.57  11 2.57  12 2.57  19 2.57  25 2.57  24 2.57
                            27 2.57  32 2.59  30 2.59  36 2.66
  22  0.889  0.556  0.377-  24 2.56  27 2.56  18 2.57  15 2.57  23 2.57  20 2.57  19 2.57  25 2.57
                            13 2.57  35 2.57  31 2.57  33 2.57
  23  0.222  0.555  0.377-  20 2.56  21 2.56  13 2.57  14 2.57  16 2.57  25 2.57  26 2.57  22 2.57
                            24 2.57  33 2.59  34 2.59  36 2.66
  24  0.556  0.556  0.377-  22 2.56  27 2.56  15 2.57  17 2.57  21 2.57  23 2.57  19 2.57  26 2.57
                            14 2.57  35 2.57  32 2.57  34 2.57
  25  0.889  0.889  0.376-  12 2.55  16 2.55  18 2.55  19 2.56  26 2.56  21 2.57  23 2.57  22 2.57
                            27 2.57  28 2.57  33 2.58  30 2.58
  26  0.222  0.889  0.376-  10 2.55  16 2.55  17 2.55  25 2.56  19 2.56  20 2.57  23 2.57  27 2.57
                            24 2.57  28 2.57  29 2.58  34 2.58
  27  0.556  0.889  0.377-  24 2.56  22 2.56  17 2.57  18 2.57  20 2.57  21 2.57  26 2.57  25 2.57
                            11 2.57  35 2.57  29 2.57  30 2.57
  28  0.000  0.000  0.459-  33 2.55  30 2.55  31 2.55  29 2.55  32 2.55  34 2.55  25 2.57  19 2.57
                            26 2.57
  29  0.334  0.996  0.460-  34 2.51  35 2.55  28 2.55  27 2.57  26 2.58  20 2.59  30 2.59  36 2.60
                            31 2.60
  30  0.670  0.996  0.460-  33 2.51  35 2.55  28 2.55  27 2.57  25 2.58  21 2.59  29 2.59  36 2.60
                            32 2.60
  31  0.996  0.334  0.460-  32 2.51  35 2.55  28 2.55  22 2.57  19 2.58  20 2.59  33 2.59  36 2.60
                            29 2.60
  32  0.670  0.334  0.460-  31 2.51  35 2.55  28 2.55  24 2.57  19 2.58  21 2.59  34 2.59  36 2.60
                            30 2.60
  33  0.996  0.670  0.460-  30 2.51  35 2.55  28 2.55  22 2.57  25 2.58  23 2.59  31 2.59  36 2.60
                            34 2.60
  34  0.334  0.670  0.460-  29 2.51  35 2.55  28 2.55  24 2.57  26 2.58  23 2.59  32 2.59  36 2.60
                            33 2.60
  35  0.667  0.667  0.460-  34 2.55  32 2.55  29 2.55  30 2.55  33 2.55  31 2.55  24 2.57  27 2.57
                            22 2.57
  36  0.333  0.333  0.464-  37 1.76  31 2.60  29 2.60  33 2.60  32 2.60  34 2.60  30 2.60  23 2.66
                            20 2.66  21 2.66
  37  0.336  0.334  0.533-  36 1.76  38 1.87
  38  0.305  0.333  0.606-  39 0.98  37 1.87
  39  0.431  0.333  0.613-  38 0.98

  LATTYP: Found a hexagonal cell.
 ALAT       =     7.6967864036
 C/A-ratio  =     3.2973366172

  Lattice vectors:

 A1 = (  -3.8483927580,  -6.6656128093,   0.0000000000)
 A2 = (   7.6967864037,   0.0000000000,   0.0000000000)
 A3 = (   0.0000000000,   0.0000000000,  25.3788956434)

Analysis of symmetry for initial positions (statically):
 Subroutine PRICEL returns:
 Original cell was already a primitive cell.

 Routine SETGRP: Setting up the symmetry group for a
 hexagonal supercell.

 Subroutine GETGRP returns: Found  1 space group operations
 (whereof  1 operations were pure point group operations)
 out of a pool of 24 trial point group operations.

The static configuration has the point symmetry C_1 .

Analysis of symmetry for dynamics (positions and initial velocities):
 Subroutine PRICEL returns:
 Original cell was already a primitive cell.

[...]

The dynamic configuration has the point symmetry C_1 .

Analysis of constrained symmetry for selective dynamics:
 Subroutine PRICEL returns:
[...]
     41      -4.9803      2.00000
     42      -4.9243      2.00000
     43      -4.9066      2.00000
     44      -4.8726      2.00000
     45      -4.8193      2.00000
     46      -4.7189      2.00000
     47      -4.6875      2.00000
     48      -4.6746      2.00000
     49      -4.6172      2.00000
     50      -4.5915      2.00000
     51      -4.5821      2.00000
     52      -4.5746      2.00000
     53      -4.5664      2.00000
     54      -4.5353      2.00000
     55      -4.4813      2.00000
     56      -4.4032      2.00000
     57      -4.3736      2.00000
     58      -4.3599      2.00000
     59      -4.3394      2.00000
     60      -4.3003      2.00000
[...]
    238       4.7508      0.00000
    239       4.7826      0.00000
    240       4.8893      0.00000
    241       5.0153      0.00000
    242       5.0540      0.00000
    243       5.0841      0.00000
    244       5.2487      0.00000
    245       5.3368      0.00000
    246       5.4904      0.00000
    247       5.6674      0.00000
    248       5.6882      0.00000
    249       5.7228      0.00000
    250       5.8042      0.00000
    251       6.0060      0.00000
    252       6.0263      0.00000

 soft charge-density along one line, spin component           1
         0         1         2         3         4         5         6         7         8         9
 total charge-density along one line

------------------------ aborting loop because EDIFF is reached ----------------------------------------

 total charge

# of ion       s       p       d       tot
    1        0.448   0.284   9.186   9.918
    2        0.449   0.284   9.185   9.918
    3        0.449   0.284   9.185   9.918
    4        0.449   0.284   9.185   9.918
    5        0.445   0.285   9.184   9.914
    6        0.448   0.284   9.185   9.917
    7        0.449   0.284   9.185   9.918
    8        0.448   0.284   9.185   9.918
    9        0.448   0.283   9.186   9.917
   10        0.442   0.371   9.176   9.989
   11        0.441   0.365   9.182   9.987
   12        0.442   0.371   9.176   9.989
   13        0.441   0.365   9.182   9.987
   14        0.441   0.365   9.182   9.987
   15        0.438   0.370   9.177   9.985
   16        0.442   0.371   9.176   9.989
   17        0.438   0.370   9.177   9.985
   18        0.438   0.370   9.177   9.985
   19        0.443   0.367   9.184   9.994
   20        0.459   0.390   9.167  10.016
   21        0.460   0.388   9.168  10.016
   22        0.433   0.373   9.177   9.983
   23        0.459   0.389   9.168  10.016
   24        0.433   0.373   9.177   9.984
   25        0.443   0.367   9.184   9.994
   26        0.443   0.367   9.184   9.994
   27        0.433   0.373   9.177   9.983
   28        0.451   0.294   9.180   9.925
   29        0.476   0.311   9.172   9.959
   30        0.476   0.312   9.172   9.960
   31        0.476   0.312   9.171   9.959
   32        0.476   0.312   9.172   9.961
   33        0.476   0.311   9.172   9.959
   34        0.476   0.311   9.172   9.960
   35        0.448   0.299   9.179   9.926
   36        2.229   6.042   2.541  10.812
   37        1.614   3.280   0.000   4.894
   38        1.604   3.317   0.000   4.921
   39        0.624   0.114   0.000   0.738
tot         21.826  24.477 323.788 370.091

  FORCE on cell =-STRESS in cart. coord.  units (eV):
  Direction    XX          YY          ZZ          XY          YZ          ZX
  Alpha Z   786.10866   786.10866   786.10866
  Ewald  257922.60322257827.60360************    -0.01530     0.10169    -3.91752
  Hartree270800.38752270780.10055************     0.00468    -0.19123   -14.74491
  E(xc)   -2368.21456 -2368.61331 -2372.25116    -0.00048     0.00184     0.05056
  Local  ************************541616.43866     0.08298     0.02172    20.79854
  n-local  -814.63624  -814.77527  -822.64039    -0.04344    -0.01685    -0.58227
  augment  3336.33259  3338.20909  3358.30054    -0.01216     0.01073     0.06847
  Kinetic  3645.71623  3671.67750  3663.53209    -0.05787     0.06527    -1.96299
  Fock        0.00000     0.00000     0.00000     0.00000     0.00000     0.00000
  Total      -4.11958    -3.93406    -2.15872    -0.04160    -0.00684    -0.29012
  in kB      -5.06922    -4.84094    -2.65634    -0.05119    -0.00841    -0.35700

 VOLUME and BASIS-vectors are now :
  energy-cutoff  :      500.00
  volume of cell :     1302.03
      direct lattice vectors                 reciprocal lattice vectors
     7.696786404  0.000000000  0.000000000     0.129924354 -0.075011849  0.000000000
     3.848392758  6.665612809  0.000000000     0.000000000  0.150023716  0.000000000
     0.000000000  0.000000000 25.378895643     0.000000000  0.000000000  0.039402818

  length of vectors
     7.696786404  7.696786404 25.378895643     0.150023716  0.150023716  0.039402818

 FORCES acting on ions
    electron-ion (+dipol)            ewald-force                    non-local-force                 convergence-correction
   0.912E-02 -.389E-02 0.393E+04   0.527E-03 -.364E-03 -.393E+04   -.137E-01 0.875E-04 -.229E+01   0.290E-02 0.408E-02 -.175E+00
   -.451E+00 0.238E+00 0.393E+04   0.383E+00 -.792E-01 -.393E+04   -.369E-02 -.629E-01 -.187E+01   0.662E-01 -.909E-01 -.963E-01
   0.442E+00 0.178E+00 0.393E+04   -.383E+00 -.801E-01 -.393E+04   0.180E-01 -.321E-01 -.183E+01   -.691E-01 -.613E-01 -.822E-01
   -.404E-01 -.524E+00 0.393E+04   0.123E+00 0.371E+00 -.393E+04   -.396E-01 0.299E-01 -.187E+01   -.439E-01 0.114E+00 -.976E-01
   -.152E-01 -.106E-01 0.393E+04   -.891E-03 -.688E-03 -.393E+04   -.156E-01 -.667E-02 -.214E+01   0.331E-01 0.179E-01 -.435E-01
   0.533E-01 -.495E+00 0.393E+04   -.122E+00 0.371E+00 -.393E+04   0.446E-01 0.940E-02 -.184E+01   0.231E-01 0.108E+00 -.924E-01
   0.404E+00 0.311E+00 0.393E+04   -.261E+00 -.291E+00 -.393E+04   -.328E-01 0.212E-01 -.185E+01   -.101E+00 -.344E-01 -.825E-01
   -.429E+00 0.286E+00 0.393E+04   0.260E+00 -.291E+00 -.393E+04   0.514E-01 0.382E-01 -.186E+01   0.112E+00 -.327E-01 -.926E-01
   0.217E-01 0.180E-01 0.393E+04   0.745E-03 0.104E-02 -.393E+04   -.352E-02 0.339E-02 -.210E+01   -.204E-01 -.225E-01 -.555E-01
   -.273E+01 -.158E+01 0.143E+04   0.291E+01 0.167E+01 -.142E+04   -.269E+00 -.162E+00 -.833E+00   0.111E+00 0.769E-01 -.959E+00
   -.457E-02 0.799E+00 0.142E+04   -.559E-02 -.112E+01 -.142E+04   -.873E-02 0.214E+00 -.606E+00   0.215E-01 0.528E-01 -.971E+00
   0.273E+01 -.158E+01 0.142E+04   -.290E+01 0.167E+01 -.142E+04   0.276E+00 -.153E+00 -.722E+00   -.118E+00 0.743E-01 -.956E+00
   0.684E+00 -.407E+00 0.142E+04   -.964E+00 0.553E+00 -.142E+04   0.187E+00 -.117E+00 -.614E+00   0.484E-01 -.201E-02 -.971E+00
   -.709E+00 -.416E+00 0.142E+04   0.957E+00 0.556E+00 -.142E+04   -.191E+00 -.109E+00 -.579E+00   -.121E-01 -.698E-02 -.967E+00
   -.977E-02 -.343E+01 0.142E+04   0.668E-02 0.328E+01 -.142E+04   0.109E-01 0.712E-01 -.712E+00   -.608E-02 0.892E-01 -.991E+00
   -.317E-02 0.316E+01 0.143E+04   -.125E-02 -.335E+01 -.142E+04   0.101E-01 0.313E+00 -.779E+00   -.681E-02 -.148E+00 -.953E+00
   -.296E+01 0.171E+01 0.142E+04   0.284E+01 -.163E+01 -.142E+04   0.538E-01 -.196E-01 -.699E+00   0.755E-01 -.617E-01 -.983E+00
   0.298E+01 0.173E+01 0.142E+04   -.284E+01 -.164E+01 -.142E+04   -.782E-01 -.471E-01 -.730E+00   -.717E-01 -.544E-01 -.992E+00
   -.501E-01 -.168E+01 -.110E+04   0.346E-01 0.158E+01 0.110E+04   0.249E-01 0.210E-01 0.117E+01   -.120E-02 0.584E-01 -.111E+01
   0.109E+02 0.630E+01 -.110E+04   -.104E+02 -.602E+01 0.110E+04   -.673E+00 -.383E+00 -.714E-01   -.555E-01 -.169E-01 -.135E+01
   -.108E+02 0.635E+01 -.110E+04   0.103E+02 -.606E+01 0.110E+04   0.626E+00 -.411E+00 0.312E-01   0.872E-01 -.104E-01 -.136E+01
   0.387E+01 -.225E+01 -.112E+04   -.415E+01 0.243E+01 0.112E+04   0.368E+00 -.212E+00 0.103E+01   -.297E-01 0.388E-02 -.121E+01
   0.715E-01 -.126E+02 -.110E+04   -.500E-01 0.120E+02 0.110E+04   -.453E-01 0.753E+00 0.606E-02   0.211E-01 0.776E-01 -.135E+01
   -.394E+01 -.232E+01 -.112E+04   0.420E+01 0.247E+01 0.112E+04   -.352E+00 -.192E+00 0.104E+01   0.217E-01 0.106E-01 -.121E+01
   0.148E+01 0.877E+00 -.110E+04   -.140E+01 -.816E+00 0.110E+04   -.234E-01 -.293E-01 0.118E+01   -.368E-01 -.270E-01 -.112E+01
   -.149E+01 0.826E+00 -.110E+04   0.141E+01 -.782E+00 0.110E+04   0.179E-01 0.945E-03 0.116E+01   0.424E-01 -.312E-01 -.111E+01
   0.244E-01 0.450E+01 -.112E+04   -.990E-02 -.480E+01 0.112E+04   -.742E-02 0.413E+00 0.104E+01   -.992E-02 -.432E-01 -.121E+01
   -.400E-01 0.160E+00 -.367E+04   -.579E-01 -.167E+00 0.367E+04   0.700E-01 -.669E-02 0.161E+01   0.267E-01 0.140E-01 -.827E+00
   0.355E+02 0.530E+02 -.365E+04   -.353E+02 -.530E+02 0.365E+04   -.324E+00 -.149E+00 0.212E+01   -.554E-01 -.623E-01 -.796E+00
   -.356E+02 0.533E+02 -.365E+04   0.354E+02 -.534E+02 0.365E+04   0.320E+00 -.456E-01 0.211E+01   0.872E-02 -.522E-01 -.807E+00
   0.636E+02 0.453E+01 -.365E+04   -.634E+02 -.429E+01 0.365E+04   -.306E+00 -.218E+00 0.211E+01   -.923E-01 -.159E-01 -.791E+00
   -.641E+02 0.451E+01 -.365E+04   0.642E+02 -.430E+01 0.365E+04   0.133E+00 -.217E+00 0.205E+01   0.491E-01 0.682E-02 -.814E+00
   0.281E+02 -.577E+02 -.365E+04   -.282E+02 0.575E+02 0.365E+04   0.779E-01 0.362E+00 0.215E+01   -.412E-01 0.373E-01 -.809E+00
   -.282E+02 -.579E+02 -.365E+04   0.284E+02 0.579E+02 0.365E+04   -.745E-01 0.271E+00 0.210E+01   0.253E-01 0.335E-01 -.822E+00
   0.446E-01 -.295E+00 -.369E+04   -.581E-01 0.299E+00 0.369E+04   0.375E-01 0.160E-01 0.190E+01   -.249E-01 -.214E-01 -.734E+00
   0.316E+01 0.871E+00 -.406E+04   -.327E+01 -.869E+00 0.407E+04   0.999E-01 -.538E-02 -.260E+01   0.209E-01 0.108E-01 -.125E+01
   -.143E+02 -.722E+00 -.246E+04   0.150E+02 0.807E+00 0.247E+04   -.691E+00 -.807E-01 -.169E+02   0.511E-01 -.357E-02 -.865E+00
   0.670E+02 0.257E+00 -.209E+04   -.106E+03 -.247E+00 0.209E+04   0.394E+02 -.985E-02 -.272E+00   -.975E-01 0.820E-03 0.206E+00
   -.858E+02 0.968E-01 -.349E+03   0.935E+02 -.102E+00 0.350E+03   -.792E+01 0.548E-02 -.140E+01   0.167E+00 -.769E-04 0.457E-01
   -.308E+02 0.142E+00 0.512E+02   0.128E-12 0.281E-12 0.841E-11   0.307E+02 -.126E+00 -.223E+02   0.121E+00 -.777E-02 -.288E+02

 POSITION                                       TOTAL-FORCE (eV/Angst)
      0.00000      0.00000      5.37156        -0.003549     -0.000302      0.023080
      2.56560      0.00000      5.37156        -0.008105      0.004535      0.046632
      5.13119      0.00000      5.37156         0.004754      0.004310      0.048358
      1.28280      2.22187      5.37156        -0.003042     -0.009966      0.045082
      3.84839      2.22187      5.37156        -0.000977     -0.000315      0.044764
      6.41399      2.22187      5.37156        -0.003767     -0.006713      0.051617
      2.56560      4.44374      5.37156         0.006598      0.005990      0.045188
      5.13119      4.44374      5.37156        -0.008993      0.001177      0.050665
      7.69679      4.44374      5.37156        -0.003938     -0.000305      0.022034
      1.28280      0.74062      7.46636         0.017598      0.011161     -0.095801
      3.84839      0.74062      7.46636         0.000174     -0.051037     -0.064176
      6.41399      0.74062      7.46636        -0.020508      0.008782     -0.090247
      2.56560      2.96249      7.46636        -0.046611      0.027193     -0.069872
      5.13119      2.96249      7.46636         0.042444      0.024574     -0.057719
      7.69679      2.96249      7.46636        -0.000734      0.014545      0.022948
      3.84839      5.18437      7.46636        -0.003608     -0.021651     -0.093158
      6.41399      5.18437      7.46636         0.010399     -0.006282      0.020589
      8.97958      5.18437      7.46636        -0.014177     -0.007781      0.024936
      7.69679      1.47855      9.54201         0.005805     -0.018496      0.024608
      2.56706      1.48209      9.56134        -0.205936     -0.115281     -0.333886
      5.12972      1.48209      9.56134         0.226457     -0.133813     -0.355127
      8.97774      3.70418      9.56312         0.054077     -0.034756      0.026503
      3.84839      3.70142      9.56134        -0.005268      0.248390     -0.343123
      6.41583      3.70418      9.56312        -0.067663     -0.036620      0.029568
     10.26471      5.92634      9.54201         0.014365      0.004711      0.027260
      5.12886      5.92634      9.54201        -0.016919      0.013097      0.027365
      7.69679      5.92286      9.56312        -0.005297      0.068322      0.029062
      0.00000      0.00000     11.64396        -0.003542      0.000768     -0.068366
      6.40056      6.63873     11.66709        -0.128417     -0.222693     -0.147160
      8.99302      6.63873     11.66709         0.128220     -0.226517     -0.176848
      8.94959      2.22368     11.66709        -0.257001      0.001428     -0.137185
      6.44399      2.22368     11.66709         0.263184     -0.002029     -0.203337
     10.24582      4.46882     11.66709        -0.132455      0.222139     -0.145421
      5.14776      4.46882     11.66709         0.128011      0.225717     -0.180750
      7.69679      4.44374     11.66626        -0.003222     -0.001619     -0.043870
      3.84839      2.22187     11.77465         0.003210      0.007807      2.000940
      3.87485      2.22630     13.53157         0.021623      0.000358     -0.148365
      3.63332      2.22220     15.38252         0.122432      0.000877      0.152028
      4.60020      2.22154     15.54879        -0.105621      0.000295     -0.008818
    total drift:                                0.094985      0.008314      0.041188

  FREE ENERGIE OF THE ION-ELECTRON SYSTEM (eV)
  free  energy   TOTEN  =      -146.92887573 eV

  energy  without entropy=     -146.92887573  energy(sigma->0) =     -146.92887573

 stress matrix after NEB project (eV)
     -4.11958     -0.04160     -0.29012
     -0.04160     -3.93406     -0.00684
     -0.29012     -0.00684     -2.15872
  FORCES: max atom, RMS     0.195199    0.042912
  FORCE total and by dimension    0.267985    0.152028
  Stress total and by dimension    6.105711    4.119578
|           W    W    AA    RRRRR   N    N  II  N    N   GGGG   !!!           |
|           W    W   A  A   R    R  NN   N  II  NN   N  G    G  !!!           |
|           W    W  A    A  R    R  N N  N  II  N N  N  G       !!!           |
|           W WW W  AAAAAA  RRRRR   N  N N  II  N  N N  G  GGG   !            |
|           WW  WW  A    A  R   R   N   NN  II  N   NN  G    G                |
|           W    W  A    A  R    R  N    N  II  N    N   GGGG   !!!           |
|     Tetrahedron method does not include variations of the Fermi             |
|     occupations, so forces and stress will be inaccurate. We suggest        |
|     using a different smearing scheme ISMEAR = 1 or 2 for metals in         |
|     relaxations.                                                            |

 total charge

# of ion       s       p       d       tot
    1        0.448   0.284   9.186   9.918
    2        0.449   0.284   9.185   9.918
    3        0.449   0.284   9.185   9.918
    4        0.449   0.284   9.185   9.918
    5        0.445   0.285   9.184   9.914
    6        0.448   0.284   9.185   9.917
    7        0.449   0.284   9.185   9.918
    8        0.448   0.284   9.185   9.918
    9        0.448   0.283   9.186   9.917
   10        0.442   0.371   9.176   9.989
   11        0.441   0.365   9.182   9.987
   12        0.442   0.371   9.176   9.989
   13        0.441   0.365   9.182   9.987
   14        0.441   0.365   9.182   9.987
   15        0.438   0.370   9.177   9.985
   16        0.442   0.371   9.176   9.989
   17        0.438   0.370   9.177   9.985
   18        0.438   0.370   9.177   9.985
   19        0.443   0.367   9.184   9.994
   20        0.459   0.390   9.167  10.016
   21        0.460   0.388   9.168  10.016
   22        0.433   0.373   9.177   9.983
   23        0.459   0.389   9.168  10.016
   24        0.433   0.373   9.177   9.984
   25        0.443   0.367   9.184   9.994
   26        0.443   0.367   9.184   9.994
   27        0.433   0.373   9.177   9.983
   28        0.451   0.294   9.180   9.925
   29        0.476   0.311   9.172   9.959
   30        0.476   0.312   9.172   9.960
   31        0.476   0.312   9.171   9.959
   32        0.476   0.312   9.172   9.961
   33        0.476   0.311   9.172   9.959
   34        0.476   0.311   9.172   9.960
   35        0.448   0.299   9.179   9.926
   36        2.229   6.042   2.541  10.812
   37        1.614   3.280   0.000   4.894
   38        1.604   3.317   0.000   4.921
   39        0.624   0.114   0.000   0.738
tot         21.826  24.477 323.788 370.091

 BZINTS: Fermi energy:   -0.873668;  411.000000 electrons
         Band energy:-0.187989E+04;  BLOECHL correction:   -0.028389