 vasp.6.2.0 18Jan21 (build Jun 12 2021 23:27:24) complex

 executed on             LinuxIFC date 2022.05.28  00:52:38

 INCAR:
   ISMEAR = -5
   SIGMA = 0.1
   ISPIN = 1
   EDIFF = 1.d-5
   EDIFFG = -0.01
   NSW = 0
   NELM = 150
   ENCUT = 500
   ISIF = 2
   IBRION = 2
   LREAL = Auto
   ALGO = Fast
   ICHARG = 11
   LORBIT = 10
   LCHARG = .F.
   LWAVE = .F.

 POTCAR:    PAW_PBE Au 04Oct2007
 POTCAR:    PAW_PBE Mo 08Apr2002
 POTCAR:    PAW_PBE O 08Apr2002
 POTCAR:    PAW_PBE H 15Jun2001
|           W    W    AA    RRRRR   N    N  II  N    N   GGGG   !!!           |
|           W    W   A  A   R    R  NN   N  II  NN   N  G    G  !!!           |
|           W    W  A    A  R    R  N N  N  II  N N  N  G       !!!           |
|           W WW W  AAAAAA  RRRRR   N  N N  II  N  N N  G  GGG   !            |
|           WW  WW  A    A  R   R   N   NN  II  N   NN  G    G                |
|           W    W  A    A  R    R  N    N  II  N    N   GGGG   !!!           |
|     For optimal performance we recommend to set                             |
|       NCORE = 2 up to number-of-cores-per-socket                            |
|     This setting can greatly improve the performance of VASP for DFT.       |
|     The default, NCORE=1 might be grossly inefficient on modern             |
|     multi-core architectures or massively parallel machines. Do your        |
|     Unfortunately you need to use the default for GW and RPA                |
|     calculations (for HF NCORE is supported but not extensively tested      |
|     yet).                                                                   |

 POTCAR:    PAW_PBE Au 04Oct2007
   VRHFIN =Au: s1d10

   TITEL  = PAW_PBE Au 04Oct2007
   POMASS =  196.966; ZVAL   =   11.000    mass and valenz
   ENMAX  =  229.943; ENMIN  =  172.457 eV

 POTCAR:    PAW_PBE Mo 08Apr2002
   VRHFIN =Mo: 4p5s4d

   TITEL  = PAW_PBE Mo 08Apr2002
   POMASS =   95.940; ZVAL   =    6.000    mass and valenz
   ENMAX  =  224.584; ENMIN  =  168.438 eV

 POTCAR:    PAW_PBE O 08Apr2002
   VRHFIN =O: s2p4

   TITEL  = PAW_PBE O 08Apr2002
   POMASS =   16.000; ZVAL   =    6.000    mass and valenz
   ENMAX  =  400.000; ENMIN  =  300.000 eV

 POTCAR:    PAW_PBE H 15Jun2001
   VRHFIN =H: ultrasoft test

   TITEL  = PAW_PBE H 15Jun2001
   POMASS =    1.000; ZVAL   =    1.000    mass and valenz
   ENMAX  =  250.000; ENMIN  =  200.000 eV

 Optimization of the real space projectors (new method)

 maximal supplied QI-value         = 15.12
 optimisation between [QCUT,QGAM] = [ 11.34, 22.83] = [ 36.00,145.93] Ry
 Optimized for a Real-space Cutoff    1.39 Angstroem

   l    n(q)    QCUT    max X(q) W(low)/X(q) W(high)/X(q)  e(spline)
   2      9    11.338    60.898    0.39E-03    0.42E-03    0.21E-06
   2      9    11.338    58.894    0.40E-03    0.42E-03    0.22E-06
   0      9    11.338   109.617    0.13E-03    0.20E-04    0.13E-06
   0      9    11.338    75.026    0.13E-03    0.20E-04    0.13E-06
   1      9    11.338    16.344    0.33E-04    0.24E-03    0.18E-06
   1      9    11.338    10.160    0.26E-04    0.19E-03    0.15E-06
 Optimization of the real space projectors (new method)

[...]

   l    n(q)    QCUT    max X(q) W(low)/X(q) W(high)/X(q)  e(spline)
   0      7    11.387    20.381    0.39E-03    0.13E-02    0.15E-06
   0      7    11.387    15.268    0.42E-03    0.14E-02    0.17E-06
   1      6    11.387     5.964    0.41E-03    0.11E-02    0.17E-06
   1      6    11.387     5.382    0.39E-03    0.87E-03    0.15E-06
 Optimization of the real space projectors (new method)

 maximal supplied QI-value         = 34.20
 optimisation between [QCUT,QGAM] = [ 11.29, 22.57] = [ 35.68,142.71] Ry
 Optimized for a Real-space Cutoff    1.16 Angstroem

   l    n(q)    QCUT    max X(q) W(low)/X(q) W(high)/X(q)  e(spline)
   0      8    11.287    19.460    0.40E-03    0.73E-03    0.16E-06
   0      8    11.287    12.209    0.38E-03    0.70E-03    0.15E-06
   1      7    11.287     4.655    0.22E-03    0.25E-04    0.22E-06
  PAW_PBE Au 04Oct2007                  :
  PAW_PBE Mo 08Apr2002                  :
  PAW_PBE O 08Apr2002                   :
  PAW_PBE H 15Jun2001                   :

 POSCAR: Au-Mo-OOH
  positions in direct lattice
  velocities in cartesian coordinates
 exchange correlation table for  LEXCH =        8
   RHO(1)=    0.500       N(1)  =     2000
   RHO(2)=  100.500       N(2)  =     4000

 VTST: version 3.2, (02/03/18)

 CHAIN: initializing optimizer

 OPT: Using VASP Conjugate-Gradient optimizer
 CHAIN: Read ICHAIN            0

 POSCAR: Au-Mo-OOH
  positions in direct lattice
  velocities in cartesian coordinates

 ion  position               nearest neighbor table
   1  0.000  0.000  0.204-  16 2.94  12 2.94   6 2.94   8 2.94   7 2.94   3 2.94  10 2.94   4 2.94
                             2 2.94
   2  0.333  0.000  0.204-   9 2.94  11 2.94  17 2.94  10 2.94   8 2.94   4 2.94   5 2.94   1 2.94
                             3 2.94
   3  0.667  0.000  0.204-   7 2.94  18 2.94  12 2.94   1 2.94  11 2.94   5 2.94   6 2.94   9 2.94
                             2 2.94
   4  0.000  0.333  0.204-  10 2.94   6 2.94   5 2.94  13 2.94   2 2.94  15 2.94   9 2.94   1 2.94
                             7 2.94
   5  0.333  0.333  0.204-  13 2.94   7 2.94  11 2.94   4 2.94   2 2.94  14 2.94   3 2.94   8 2.94
                             6 2.94
   6  0.667  0.333  0.204-  15 2.94  14 2.94   1 2.94  12 2.94   4 2.94   9 2.94   8 2.94   3 2.94
                             5 2.94
   7  0.000  0.667  0.204-  18 2.94   3 2.94  16 2.94   5 2.94   1 2.94  13 2.94   8 2.94   4 2.94
                             9 2.94
   8  0.333  0.667  0.204-   9 2.94  17 2.94   1 2.94   2 2.94  14 2.94  16 2.94   6 2.94   7 2.94
                             5 2.94
   9  0.667  0.667  0.204-   2 2.94   8 2.94  17 2.94   6 2.94  15 2.94   4 2.94   3 2.94  18 2.94
                             7 2.94
  10  0.111  0.111  0.296-  20 2.91  11 2.94  17 2.94   2 2.94   4 2.94   1 2.94  12 2.94  16 2.94
                            13 2.94  15 2.94  26 2.95  19 2.95
  11  0.444  0.111  0.296-  20 2.91  21 2.91  13 2.94   2 2.94  10 2.94  17 2.94   5 2.94   3 2.94
                            18 2.94  14 2.94  12 2.94  27 2.94
  12  0.778  0.111  0.296-  21 2.91  16 2.94  18 2.94   1 2.94  14 2.94  15 2.94   3 2.94   6 2.94
                            10 2.94  11 2.94  25 2.95  19 2.95
  13  0.111  0.444  0.296-  23 2.91  20 2.91   5 2.94  18 2.94  11 2.94   7 2.94   4 2.94  16 2.94
                            10 2.94  14 2.94  15 2.94  22 2.94
  14  0.444  0.444  0.296-  21 2.91  23 2.91  15 2.94   6 2.94  12 2.94   8 2.94  17 2.94   5 2.94
                            16 2.94  13 2.94  11 2.94  24 2.94
  15  0.778  0.444  0.296-  24 2.93  22 2.93  14 2.94   6 2.94  17 2.94  12 2.94   9 2.94   4 2.94
                            10 2.94  13 2.94  18 2.94  19 2.95
  16  0.111  0.778  0.296-  23 2.91  18 2.94  12 2.94   7 2.94   1 2.94   8 2.94  13 2.94  10 2.94
                            14 2.94  17 2.94  25 2.95  26 2.95
  17  0.444  0.778  0.296-  27 2.93  24 2.93   9 2.94  15 2.94   2 2.94  10 2.94  11 2.94   8 2.94
                            14 2.94  16 2.94  18 2.94  26 2.95
  18  0.778  0.778  0.296-  22 2.93  27 2.93  16 2.94   7 2.94  13 2.94  12 2.94   3 2.94  11 2.94
                             9 2.94  15 2.94  17 2.94  25 2.95
  19  0.889  0.223  0.389-  24 2.93  22 2.93  21 2.94  20 2.94  28 2.95  26 2.95  25 2.95  15 2.95
                            10 2.95  12 2.95  32 3.02  31 3.02
  20  0.222  0.222  0.387-  36 2.77  11 2.91  13 2.91  10 2.91  23 2.94  21 2.94  26 2.94  19 2.94
                            27 2.95  22 2.95  29 2.98  31 2.98
  21  0.555  0.222  0.387-  36 2.77  14 2.91  11 2.91  12 2.91  20 2.94  23 2.94  25 2.94  19 2.94
                            27 2.95  24 2.95  30 2.98  32 2.98
  22  0.887  0.557  0.388-  24 2.91  27 2.91  18 2.93  15 2.93  25 2.93  19 2.93  13 2.94  35 2.95
                            23 2.95  20 2.95  33 3.00  31 3.00
  23  0.222  0.555  0.387-  36 2.77  13 2.91  14 2.91  16 2.91  20 2.94  21 2.94  25 2.94  26 2.94
                            22 2.95  24 2.95  33 2.98  34 2.98
  24  0.557  0.557  0.388-  27 2.91  22 2.91  15 2.93  17 2.93  26 2.93  19 2.93  14 2.94  35 2.95
                            21 2.95  23 2.95  32 3.00  34 3.00
  25  0.889  0.889  0.389-  22 2.93  27 2.93  23 2.94  21 2.94  28 2.95  19 2.95  26 2.95  18 2.95
                            16 2.95  12 2.95  33 3.02  30 3.02
  26  0.223  0.889  0.389-  27 2.93  24 2.93  20 2.94  23 2.94  28 2.95  19 2.95  25 2.95  17 2.95
                            10 2.95  16 2.95  29 3.02  34 3.02
  27  0.557  0.887  0.388-  24 2.91  22 2.91  17 2.93  18 2.93  26 2.93  25 2.93  11 2.94  35 2.95
                            20 2.95  21 2.95  29 3.00  30 3.00
  28  0.000  0.000  0.482-  25 2.95  19 2.95  26 2.95  34 2.98  32 2.98  33 2.98  30 2.98  31 2.98
                            29 2.98
  29  0.333  0.010  0.484-  30 2.85  31 2.85  36 2.87  20 2.98  35 2.98  28 2.98  27 3.00  26 3.02
                            34 3.11
  30  0.657  0.010  0.484-  29 2.85  32 2.85  36 2.87  21 2.98  35 2.98  28 2.98  27 3.00  25 3.02
                            33 3.11
  31  0.010  0.333  0.484-  38 2.25  33 2.85  29 2.85  36 2.87  20 2.98  35 2.98  28 2.98  22 3.00
                            19 3.02  32 3.11
  32  0.657  0.333  0.484-  38 2.26  34 2.85  30 2.85  36 2.87  21 2.98  35 2.98  28 2.98  24 3.00
                            19 3.02  31 3.11
  33  0.010  0.657  0.484-  31 2.85  34 2.85  36 2.87  23 2.98  35 2.98  28 2.98  22 3.00  25 3.02
                            30 3.11
  34  0.333  0.657  0.484-  32 2.85  33 2.85  36 2.87  23 2.98  35 2.98  28 2.98  24 3.00  26 3.02
                            29 3.11
  35  0.667  0.667  0.482-  24 2.95  27 2.95  22 2.95  29 2.98  34 2.98  32 2.98  31 2.98  30 2.98
                            33 2.98
  36  0.333  0.333  0.472-  37 1.72  20 2.77  23 2.77  21 2.77  33 2.87  31 2.87  29 2.87  30 2.87
                            34 2.87  32 2.87
  37  0.330  0.338  0.538-  36 1.72
  38  0.840  0.320  0.547-  39 0.98  31 2.25  32 2.26
  39  0.783  0.433  0.564-  38 0.98

  LATTYP: Found a hexagonal cell.
 ALAT       =     8.8135128021
 C/A-ratio  =     2.9412617888

  Lattice vectors:

 A1 = (  -4.4067569092,  -7.6327256898,   0.0000000000)
 A2 = (   8.8135128021,   0.0000000000,   0.0000000000)
 A3 = (   0.0000000000,   0.0000000000,  25.9228484302)

Analysis of symmetry for initial positions (statically):
 Subroutine PRICEL returns:
 Original cell was already a primitive cell.

 Routine SETGRP: Setting up the symmetry group for a
 hexagonal supercell.

 Subroutine GETGRP returns: Found  1 space group operations
 (whereof  1 operations were pure point group operations)
 out of a pool of 24 trial point group operations.

The static configuration has the point symmetry C_1 .

Analysis of symmetry for dynamics (positions and initial velocities):
 Subroutine PRICEL returns:
 Original cell was already a primitive cell.

[...]

The dynamic configuration has the point symmetry C_1 .

Analysis of constrained symmetry for selective dynamics:
 Subroutine PRICEL returns:
[...]
     41      -5.3897      2.00000
     42      -5.3418      2.00000
     43      -5.3355      2.00000
     44      -5.2976      2.00000
     45      -5.2261      2.00000
     46      -5.2088      2.00000
     47      -5.1534      2.00000
     48      -5.0896      2.00000
     49      -5.0772      2.00000
     50      -5.0335      2.00000
     51      -5.0100      2.00000
     52      -4.9841      2.00000
     53      -4.9676      2.00000
     54      -4.9495      2.00000
     55      -4.9277      2.00000
     56      -4.9179      2.00000
     57      -4.8940      2.00000
     58      -4.8593      2.00000
     59      -4.8398      2.00000
     60      -4.8159      2.00000
[...]
    238       5.2504      0.00000
    239       5.3939      0.00000
    240       5.6348      0.00000
    241       5.6448      0.00000
    242       5.6703      0.00000
    243       5.7049      0.00000
    244       5.7587      0.00000
    245       5.8664      0.00000
    246       5.9559      0.00000
    247       6.0332      0.00000
    248       6.0573      0.00000
    249       6.2111      0.00000
    250       6.3791      0.00000
    251       6.4473      0.00000
    252       6.4812      0.00000

 soft charge-density along one line, spin component           1
         0         1         2         3         4         5         6         7         8         9
 total charge-density along one line

------------------------ aborting loop because EDIFF is reached ----------------------------------------

 total charge

# of ion       s       p       d       tot
    1        0.548   0.238   8.766   9.552
    2        0.543   0.241   8.763   9.548
    3        0.543   0.241   8.763   9.548
    4        0.543   0.241   8.765   9.549
    5        0.545   0.239   8.765   9.549
    6        0.543   0.241   8.764   9.549
    7        0.542   0.241   8.764   9.548
    8        0.542   0.241   8.764   9.548
    9        0.543   0.241   8.764   9.548
   10        0.523   0.305   8.774   9.603
   11        0.514   0.314   8.775   9.602
   12        0.523   0.305   8.774   9.603
   13        0.521   0.309   8.777   9.607
   14        0.521   0.309   8.777   9.607
   15        0.515   0.309   8.773   9.598
   16        0.520   0.306   8.773   9.600
   17        0.516   0.308   8.773   9.598
   18        0.516   0.308   8.773   9.598
   19        0.520   0.293   8.779   9.592
   20        0.555   0.345   8.733   9.633
   21        0.555   0.344   8.734   9.633
   22        0.508   0.308   8.774   9.590
   23        0.568   0.331   8.741   9.641
   24        0.508   0.308   8.774   9.590
   25        0.514   0.294   8.778   9.587
   26        0.514   0.294   8.778   9.586
   27        0.510   0.307   8.775   9.592
   28        0.532   0.215   8.783   9.530
   29        0.561   0.242   8.758   9.562
   30        0.562   0.242   8.758   9.562
   31        0.541   0.296   8.720   9.557
   32        0.541   0.296   8.720   9.557
   33        0.563   0.242   8.757   9.562
   34        0.563   0.242   8.756   9.562
   35        0.533   0.224   8.783   9.541
   36        0.479   0.570   4.318   5.367
   37        1.612   3.278   0.000   4.889
   38        1.579   3.420   0.000   4.999
   39        0.617   0.118   0.000   0.734
tot         23.001  17.148 311.068 351.216

  FORCE on cell =-STRESS in cart. coord.  units (eV):
  Direction    XX          YY          ZZ          XY          YZ          ZX
  Alpha Z   896.40721   896.40721   896.40721
  Ewald  174764.55629174615.04553************    -0.24431    33.10002    -0.34339
  Hartree183119.25757182987.84244************    -0.03053     3.10221     0.16655
  E(xc)   -1818.01632 -1818.21152 -1825.40546    -0.00139     0.15390     0.00185
  Local  ************************370063.80980     0.20530   -25.91016     0.06412
  n-local  -117.32871  -115.40649   -87.78249    -0.00200    -0.07311    -0.03444
  augment  2387.57290  2387.92330  2401.61100     0.00087    -0.71465     0.01494
  Kinetic  5700.84844  5693.70198  5725.28076     0.06940   -10.05840     0.13541
  Fock        0.00000     0.00000     0.00000     0.00000     0.00000     0.00000
  Total     -18.88942   -16.01550     0.69597    -0.00265    -0.40019     0.00504
  in kB     -17.35473   -14.71431     0.63942    -0.00243    -0.36768     0.00463

 VOLUME and BASIS-vectors are now :
  energy-cutoff  :      500.00
  volume of cell :     1743.86
      direct lattice vectors                 reciprocal lattice vectors
     8.813512802  0.000000000  0.000000000     0.113462137 -0.065507406  0.000000000
     4.406756909  7.632725690  0.000000000     0.000000000  0.131014796  0.000000000
     0.000000000  0.000000000 25.922848430     0.000000000  0.000000000  0.038576008

  length of vectors
     8.813512802  8.813512802 25.922848430     0.131014796  0.131014796  0.038576008

 FORCES acting on ions
    electron-ion (+dipol)            ewald-force                    non-local-force                 convergence-correction
   0.349E-02 0.222E+00 0.278E+04   -.483E-03 -.222E+00 -.278E+04   -.489E-03 0.187E-02 -.602E+00   -.241E-02 -.832E-02 -.297E+00
   0.435E+00 0.155E+00 0.278E+04   -.498E+00 -.252E+00 -.278E+04   0.260E-01 0.634E-01 -.420E+00   0.384E-01 0.299E-01 -.292E+00
   -.438E+00 0.140E+00 0.278E+04   0.498E+00 -.251E+00 -.278E+04   -.257E-01 0.642E-01 -.420E+00   -.360E-01 0.427E-01 -.288E+00
   0.182E+00 0.425E+00 0.278E+04   -.274E+00 -.421E+00 -.278E+04   0.392E-01 -.412E-01 -.258E+00   0.566E-01 0.392E-01 -.321E+00
   -.162E-01 0.309E-02 0.278E+04   0.119E-02 -.531E-02 -.278E+04   -.458E-03 -.776E-02 -.373E+00   0.159E-01 0.109E-01 -.256E+00
   -.170E+00 0.422E+00 0.278E+04   0.272E+00 -.421E+00 -.278E+04   -.390E-01 -.420E-01 -.257E+00   -.678E-01 0.435E-01 -.313E+00
   -.262E+00 -.588E+00 0.278E+04   0.222E+00 0.673E+00 -.278E+04   0.391E-01 -.176E-01 -.353E+00   -.892E-02 -.660E-01 -.309E+00
   0.251E+00 -.580E+00 0.278E+04   -.222E+00 0.672E+00 -.278E+04   -.390E-01 -.176E-01 -.353E+00   0.193E-01 -.739E-01 -.306E+00
   0.156E-01 -.201E+00 0.278E+04   -.363E-03 0.227E+00 -.278E+04   -.189E-03 0.440E-02 -.404E+00   -.152E-01 -.243E-01 -.255E+00
   0.439E+01 0.450E+01 0.968E+03   -.425E+01 -.432E+01 -.967E+03   -.270E+00 -.208E+00 -.563E+00   0.838E-01 0.172E-01 -.288E-01
   -.221E-01 0.353E+01 0.972E+03   0.626E-02 -.357E+01 -.971E+03   0.122E-03 -.156E-01 -.309E+00   0.159E-01 0.279E-01 0.186E-01
   -.437E+01 0.448E+01 0.968E+03   0.424E+01 -.431E+01 -.967E+03   0.268E+00 -.207E+00 -.560E+00   -.962E-01 0.309E-01 -.232E-01
   0.120E+01 -.201E+01 0.973E+03   -.152E+01 0.203E+01 -.973E+03   0.191E+00 0.676E-02 -.432E+00   0.689E-01 0.465E-02 0.230E-01
   -.123E+01 -.200E+01 0.973E+03   0.153E+01 0.203E+01 -.973E+03   -.192E+00 0.768E-02 -.433E+00   -.412E-01 0.110E-02 0.283E-01
   0.247E-01 0.338E+01 0.974E+03   -.688E-02 -.355E+01 -.973E+03   0.208E-03 0.219E-01 -.389E+00   -.182E-01 0.834E-01 -.323E-01
   -.591E-02 -.582E+01 0.966E+03   0.155E-02 0.561E+01 -.965E+03   -.181E-03 0.354E+00 -.474E+00   0.442E-02 -.907E-01 -.310E-01
   0.396E+01 -.301E+01 0.970E+03   -.413E+01 0.303E+01 -.970E+03   0.421E-01 0.313E-01 -.418E+00   0.464E-01 -.472E-01 -.221E-01
   -.395E+01 -.304E+01 0.970E+03   0.412E+01 0.304E+01 -.970E+03   -.417E-01 0.320E-01 -.419E+00   -.501E-01 -.299E-01 -.224E-01
   0.699E-01 0.837E+01 -.853E+03   -.472E-01 -.861E+01 0.852E+03   0.292E-03 -.865E-02 0.521E+00   -.233E-01 0.160E+00 0.607E+00
   -.799E+01 0.334E+01 -.842E+03   0.859E+01 -.316E+01 0.842E+03   -.108E+01 -.411E+00 -.746E+00   0.216E+00 0.181E+00 0.747E+00
   0.793E+01 0.330E+01 -.842E+03   -.855E+01 -.313E+01 0.842E+03   0.107E+01 -.409E+00 -.745E+00   -.186E+00 0.192E+00 0.743E+00
   -.160E+02 -.439E+01 -.849E+03   0.154E+02 0.466E+01 0.848E+03   0.597E+00 -.263E+00 0.564E+00   0.601E-01 -.435E-01 0.599E+00
   -.689E-01 -.278E+01 -.848E+03   0.468E-01 0.201E+01 0.848E+03   -.138E-02 0.125E+01 -.805E+00   0.234E-01 -.266E+00 0.747E+00
   0.161E+02 -.434E+01 -.849E+03   -.155E+02 0.462E+01 0.848E+03   -.595E+00 -.262E+00 0.564E+00   -.878E-01 -.529E-01 0.597E+00
   0.140E+01 0.474E+01 -.879E+03   -.128E+01 -.459E+01 0.877E+03   0.500E-01 -.529E-02 0.795E+00   -.108E+00 -.853E-01 0.565E+00
   -.138E+01 0.481E+01 -.879E+03   0.127E+01 -.464E+01 0.877E+03   -.499E-01 -.484E-02 0.795E+00   0.101E+00 -.107E+00 0.567E+00
   -.336E-02 -.132E+02 -.863E+03   0.102E-01 0.128E+02 0.862E+03   0.123E-03 0.482E+00 0.786E+00   -.701E-02 0.414E-01 0.541E+00
   0.917E-01 0.752E+02 -.262E+04   -.875E-01 -.769E+02 0.262E+04   -.232E-02 0.102E+01 0.130E+01   -.209E-02 0.455E-01 0.423E+00
   0.426E+00 0.480E+02 -.265E+04   0.781E-01 -.474E+02 0.265E+04   -.840E+00 -.136E+01 0.399E+00   0.154E+00 0.231E+00 0.314E+00
   -.501E+00 0.477E+02 -.265E+04   -.111E-01 -.470E+02 0.265E+04   0.843E+00 -.137E+01 0.394E+00   -.151E+00 0.243E+00 0.311E+00
   -.846E+02 -.796E+00 -.253E+04   0.869E+02 0.941E+00 0.253E+04   -.238E+01 -.270E+00 0.117E+01   0.283E+00 0.818E-01 0.344E+00
   0.851E+02 -.781E+00 -.253E+04   -.875E+02 0.919E+00 0.253E+04   0.240E+01 -.270E+00 0.117E+01   -.291E+00 0.865E-01 0.335E+00
   0.100E+01 -.511E+02 -.265E+04   -.887E+00 0.505E+02 0.265E+04   -.472E+00 0.137E+01 0.409E+00   0.963E-01 -.331E+00 0.301E+00
   -.107E+01 -.507E+02 -.265E+04   0.939E+00 0.501E+02 0.265E+04   0.476E+00 0.139E+01 0.401E+00   -.844E-01 -.337E+00 0.294E+00
   0.918E-01 -.736E+02 -.262E+04   -.741E-01 0.750E+02 0.262E+04   -.130E-02 -.735E+00 0.650E+00   -.165E-01 -.767E-01 0.350E+00
   -.590E+00 0.353E+01 -.122E+04   0.584E+00 -.357E+01 0.122E+04   0.260E-02 -.557E-01 -.106E+00   0.546E-02 0.292E-01 0.215E+00
   -.334E+00 0.727E+00 -.179E+04   0.243E+00 -.243E+00 0.182E+04   0.898E-01 -.489E+00 -.309E+02   0.267E-02 0.101E-01 -.418E+00
   0.246E-01 0.459E+02 -.179E+04   0.884E-01 -.818E+02 0.179E+04   -.116E+00 0.359E+02 0.955E+00   -.547E-02 0.418E-01 -.159E-01
   0.295E+00 -.724E+02 -.330E+03   -.319E+00 0.795E+02 0.334E+03   0.295E-01 -.705E+01 -.392E+01   -.455E-03 -.117E-01 -.103E-01
   -.233E-01 -.285E+02 0.285E+02   -.991E-13 0.156E-12 -.153E-11   0.215E-01 0.285E+02 -.337E+02   -.717E-02 0.232E-01 0.543E+01

 POSITION                                       TOTAL-FORCE (eV/Angst)
      0.00000      0.00000      5.28038         0.000341     -0.006758     -0.142821
      2.93784      0.00000      5.28038         0.001243     -0.003608     -0.035714
      5.87568      0.00000      5.28038        -0.000849     -0.003692     -0.035664
      1.46892      2.54424      5.28038         0.004421      0.002322     -0.064623
      4.40676      2.54424      5.28038         0.000661      0.001079     -0.098781
      7.34459      2.54424      5.28038        -0.004250      0.002510     -0.064337
      2.93784      5.08848      5.28038        -0.009245      0.001302     -0.049395
      5.87568      5.08848      5.28038         0.009649      0.000846     -0.049185
      8.81351      5.08848      5.28038         0.000067      0.006862     -0.064261
      1.46892      0.84808      7.67911        -0.043267     -0.011168      0.088708
      4.40676      0.84808      7.67911         0.000383     -0.024628      0.105313
      7.34459      0.84808      7.67911         0.043952     -0.011136      0.088047
      2.93784      3.39232      7.67911        -0.066371      0.038188      0.017401
      5.87568      3.39232      7.67911         0.067391      0.038313      0.017503
      8.81351      3.39232      7.67911         0.000125     -0.063046      0.138244
      4.40676      5.93656      7.67911         0.000117      0.050787      0.119880
      7.34459      5.93656      7.67911        -0.079490      0.002236      0.138800
     10.28243      5.93656      7.67911         0.080039      0.002308      0.138886
      8.81351      1.70181     10.09390        -0.000100     -0.086995     -0.045852
      2.93906      1.69686     10.04479        -0.265214     -0.050135      0.002769
      5.87446      1.69686     10.04479         0.267931     -0.051565     -0.001148
     10.26694      4.24935     10.06849         0.047232     -0.031547      0.025043
      4.40676      4.23900     10.04479         0.000119      0.216957     -0.136751
      7.36009      4.24935     10.06849        -0.047217     -0.031690      0.024756
     11.74646      6.78182     10.09390         0.058650      0.061187     -0.031801
      5.88057      6.78182     10.09390        -0.058786      0.060898     -0.031390
      8.81351      6.76675     10.06849         0.000192      0.064959     -0.007833
      0.00000      0.00000     12.49934         0.000062     -0.549882     -0.342536
      2.98260      0.07565     12.53968        -0.181716     -0.489274     -0.279765
      5.83091      0.07565     12.53968         0.180776     -0.485231     -0.278487
      1.55682      2.54518     12.53968         0.244852     -0.042359     -0.096974
      7.25669      2.54518     12.53968        -0.251561     -0.045201     -0.093305
      2.98097      5.01189     12.53968        -0.260160      0.486337     -0.303971
      5.83254      5.01189     12.53968         0.259631      0.481566     -0.302366
      8.81351      5.08848     12.49853         0.000100      0.532045     -0.220611
      4.40676      2.54424     12.23451         0.002342     -0.067300      1.887306
      4.40087      2.58096     13.95274         0.001030      0.005956      0.004231
      8.81420      2.44200     14.16766        -0.008032     -0.017722     -0.021175
      8.81074      3.30720     14.62556         0.004952      0.016277      0.001858
    total drift:                               -0.009019     -0.006641      0.161368

  FREE ENERGIE OF THE ION-ELECTRON SYSTEM (eV)
  free  energy   TOTEN  =      -133.05399223 eV

  energy  without entropy=     -133.05399223  energy(sigma->0) =     -133.05399223

 stress matrix after NEB project (eV)
    -18.88942     -0.00265      0.00504
     -0.00265    -16.01550     -0.40019
      0.00504     -0.40019      0.69597
  FORCES: max atom, RMS     0.028757    0.005487
  FORCE total and by dimension    0.034268    0.021175
  Stress total and by dimension   24.781269   18.889420
|           W    W    AA    RRRRR   N    N  II  N    N   GGGG   !!!           |
|           W    W   A  A   R    R  NN   N  II  NN   N  G    G  !!!           |
|           W    W  A    A  R    R  N N  N  II  N N  N  G       !!!           |
|           W WW W  AAAAAA  RRRRR   N  N N  II  N  N N  G  GGG   !            |
|           WW  WW  A    A  R   R   N   NN  II  N   NN  G    G                |
|           W    W  A    A  R    R  N    N  II  N    N   GGGG   !!!           |
|     Tetrahedron method does not include variations of the Fermi             |
|     occupations, so forces and stress will be inaccurate. We suggest        |
|     using a different smearing scheme ISMEAR = 1 or 2 for metals in         |
|     relaxations.                                                            |

 total charge

# of ion       s       p       d       tot
    1        0.548   0.238   8.766   9.552
    2        0.543   0.241   8.763   9.548
    3        0.543   0.241   8.763   9.548
    4        0.543   0.241   8.765   9.549
    5        0.545   0.239   8.765   9.549
    6        0.543   0.241   8.764   9.549
    7        0.542   0.241   8.764   9.548
    8        0.542   0.241   8.764   9.548
    9        0.543   0.241   8.764   9.548
   10        0.523   0.305   8.774   9.603
   11        0.514   0.314   8.775   9.602
   12        0.523   0.305   8.774   9.603
   13        0.521   0.309   8.777   9.607
   14        0.521   0.309   8.777   9.607
   15        0.515   0.309   8.773   9.598
   16        0.520   0.306   8.773   9.600
   17        0.516   0.308   8.773   9.598
   18        0.516   0.308   8.773   9.598
   19        0.520   0.293   8.779   9.592
   20        0.555   0.345   8.733   9.633
   21        0.555   0.344   8.734   9.633
   22        0.508   0.308   8.774   9.590
   23        0.568   0.331   8.741   9.641
   24        0.508   0.308   8.774   9.590
   25        0.514   0.294   8.778   9.587
   26        0.514   0.294   8.778   9.586
   27        0.510   0.307   8.775   9.592
   28        0.532   0.215   8.783   9.530
   29        0.561   0.242   8.758   9.562
   30        0.562   0.242   8.758   9.562
   31        0.541   0.296   8.720   9.557
   32        0.541   0.296   8.720   9.557
   33        0.563   0.242   8.757   9.562
   34        0.563   0.242   8.756   9.562
   35        0.533   0.224   8.783   9.541
   36        0.479   0.570   4.318   5.367
   37        1.612   3.278   0.000   4.889
   38        1.579   3.420   0.000   4.999
   39        0.617   0.118   0.000   0.734
tot         23.001  17.148 311.068 351.216

 BZINTS: Fermi energy:   -0.114953;  404.000000 electrons
         Band energy:-0.162886E+04;  BLOECHL correction:   -0.051105