 vasp.6.2.0 18Jan21 (build Jun 12 2021 23:27:24) complex

 executed on             LinuxIFC date 2022.05.30  16:46:01

 INCAR:
   ISMEAR = -5
   SIGMA = 0.1
   ISPIN = 1
   EDIFF = 1.d-5
   EDIFFG = -0.01
   NSW = 0
   NELM = 150
   ENCUT = 500
   ISIF = 2
   IBRION = 2
   LREAL = Auto
   ALGO = Fast
   ICHARG = 11
   LORBIT = 10
   LCHARG = .F.
   LWAVE = .F.

 POTCAR:    PAW_PBE Au 04Oct2007
 POTCAR:    PAW_PBE Pt 04Feb2005
 POTCAR:    PAW_PBE O 08Apr2002
|           W    W    AA    RRRRR   N    N  II  N    N   GGGG   !!!           |
|           W    W   A  A   R    R  NN   N  II  NN   N  G    G  !!!           |
|           W    W  A    A  R    R  N N  N  II  N N  N  G       !!!           |
|           W WW W  AAAAAA  RRRRR   N  N N  II  N  N N  G  GGG   !            |
|           WW  WW  A    A  R   R   N   NN  II  N   NN  G    G                |
|           W    W  A    A  R    R  N    N  II  N    N   GGGG   !!!           |
|     For optimal performance we recommend to set                             |
|       NCORE = 2 up to number-of-cores-per-socket                            |
|     This setting can greatly improve the performance of VASP for DFT.       |
|     The default, NCORE=1 might be grossly inefficient on modern             |
|     multi-core architectures or massively parallel machines. Do your        |
|     Unfortunately you need to use the default for GW and RPA                |
|     calculations (for HF NCORE is supported but not extensively tested      |
|     yet).                                                                   |

 POTCAR:    PAW_PBE Au 04Oct2007
   VRHFIN =Au: s1d10

   TITEL  = PAW_PBE Au 04Oct2007
   POMASS =  196.966; ZVAL   =   11.000    mass and valenz
   ENMAX  =  229.943; ENMIN  =  172.457 eV

 POTCAR:    PAW_PBE Pt 04Feb2005
   VRHFIN =Pt: s1d9

   TITEL  = PAW_PBE Pt 04Feb2005
   POMASS =  195.080; ZVAL   =   10.000    mass and valenz
   ENMAX  =  230.283; ENMIN  =  172.712 eV

 POTCAR:    PAW_PBE O 08Apr2002
   VRHFIN =O: s2p4

   TITEL  = PAW_PBE O 08Apr2002
   POMASS =   16.000; ZVAL   =    6.000    mass and valenz
   ENMAX  =  400.000; ENMIN  =  300.000 eV

 Optimization of the real space projectors (new method)

 maximal supplied QI-value         = 15.12
 optimisation between [QCUT,QGAM] = [ 11.34, 22.83] = [ 36.00,145.93] Ry
 Optimized for a Real-space Cutoff    1.39 Angstroem

   l    n(q)    QCUT    max X(q) W(low)/X(q) W(high)/X(q)  e(spline)
   2      9    11.338    60.898    0.39E-03    0.42E-03    0.21E-06
   2      9    11.338    58.894    0.40E-03    0.42E-03    0.22E-06
   0      9    11.338   109.617    0.13E-03    0.20E-04    0.13E-06
   0      9    11.338    75.026    0.13E-03    0.20E-04    0.13E-06
   1      9    11.338    16.344    0.33E-04    0.24E-03    0.18E-06
   1      9    11.338    10.160    0.26E-04    0.19E-03    0.15E-06
 Optimization of the real space projectors (new method)

[...]

   l    n(q)    QCUT    max X(q) W(low)/X(q) W(high)/X(q)  e(spline)
   2      9    11.346    66.195    0.31E-03    0.12E-04    0.29E-06
   2      9    11.346    64.643    0.32E-03    0.12E-04    0.29E-06
   0     10    11.346    95.520    0.90E-04    0.16E-04    0.19E-06
   0     10    11.346    63.403    0.87E-04    0.15E-04    0.19E-06
   1     10    11.346    19.961    0.17E-03    0.21E-03    0.11E-06
   1     10    11.346    13.289    0.14E-03    0.18E-03    0.89E-07
 Optimization of the real space projectors (new method)

 maximal supplied QI-value         = 24.76
 optimisation between [QCUT,QGAM] = [ 11.39, 22.77] = [ 36.31,145.25] Ry
 Optimized for a Real-space Cutoff    1.00 Angstroem

   l    n(q)    QCUT    max X(q) W(low)/X(q) W(high)/X(q)  e(spline)
   0      7    11.387    20.381    0.39E-03    0.13E-02    0.15E-06
   0      7    11.387    15.268    0.42E-03    0.14E-02    0.17E-06
   1      6    11.387     5.964    0.41E-03    0.11E-02    0.17E-06
   1      6    11.387     5.382    0.39E-03    0.87E-03    0.15E-06
  PAW_PBE Au 04Oct2007                  :
  PAW_PBE Pt 04Feb2005                  :
  PAW_PBE O 08Apr2002                   :

 POSCAR: Au-Pt-O2
  positions in direct lattice
  velocities in cartesian coordinates
 exchange correlation table for  LEXCH =        8
   RHO(1)=    0.500       N(1)  =     2000
   RHO(2)=  100.500       N(2)  =     4000

 VTST: version 3.2, (02/03/18)

 CHAIN: initializing optimizer

 OPT: Using VASP Conjugate-Gradient optimizer
 CHAIN: Read ICHAIN            0

 POSCAR: Au-Pt-O2
  positions in direct lattice
  velocities in cartesian coordinates

 ion  position               nearest neighbor table
   1  0.000  0.000  0.217-  16 2.94  12 2.94   6 2.94   8 2.94   7 2.94   3 2.94  10 2.94   4 2.94
                             2 2.94
   2  0.333  0.000  0.217-   9 2.94  11 2.94  17 2.94  10 2.94   8 2.94   4 2.94   5 2.94   1 2.94
                             3 2.94
   3  0.667  0.000  0.217-   7 2.94  18 2.94  12 2.94   1 2.94  11 2.94   5 2.94   6 2.94   9 2.94
                             2 2.94
   4  0.000  0.333  0.217-  10 2.94   6 2.94   5 2.94  13 2.94   2 2.94  15 2.94   9 2.94   1 2.94
                             7 2.94
   5  0.333  0.333  0.217-  13 2.94   7 2.94  11 2.94   4 2.94   2 2.94  14 2.94   3 2.94   8 2.94
                             6 2.94
   6  0.667  0.333  0.217-  15 2.94  14 2.94   1 2.94  12 2.94   4 2.94   9 2.94   8 2.94   3 2.94
                             5 2.94
   7  0.000  0.667  0.217-  18 2.94   3 2.94  16 2.94   5 2.94   1 2.94  13 2.94   8 2.94   4 2.94
                             9 2.94
   8  0.333  0.667  0.217-   9 2.94  17 2.94   1 2.94   2 2.94  14 2.94  16 2.94   6 2.94   7 2.94
                             5 2.94
   9  0.667  0.667  0.217-   2 2.94   8 2.94  17 2.94   6 2.94  15 2.94   4 2.94   3 2.94  18 2.94
                             7 2.94
  10  0.111  0.111  0.316-  20 2.91  26 2.93  19 2.93  11 2.94  17 2.94   2 2.94   4 2.94   1 2.94
                            12 2.94  16 2.94  13 2.94  15 2.94
  11  0.444  0.111  0.316-  20 2.92  21 2.92  27 2.93  13 2.94   2 2.94  10 2.94  17 2.94   5 2.94
                             3 2.94  18 2.94  14 2.94  12 2.94
  12  0.778  0.111  0.316-  21 2.91  25 2.93  19 2.93  16 2.94  18 2.94   1 2.94  14 2.94  15 2.94
                             3 2.94   6 2.94  10 2.94  11 2.94
  13  0.111  0.444  0.316-  23 2.92  20 2.92  22 2.93   5 2.94  18 2.94  11 2.94   7 2.94   4 2.94
                            16 2.94  10 2.94  14 2.94  15 2.94
  14  0.444  0.444  0.316-  21 2.92  23 2.92  24 2.93  15 2.94   6 2.94  12 2.94   8 2.94  17 2.94
                             5 2.94  16 2.94  13 2.94  11 2.94
  15  0.778  0.444  0.316-  24 2.93  22 2.93  19 2.93  14 2.94   6 2.94  17 2.94  12 2.94   9 2.94
                             4 2.94  10 2.94  13 2.94  18 2.94
  16  0.111  0.778  0.316-  23 2.91  25 2.93  26 2.93  18 2.94  12 2.94   7 2.94   1 2.94   8 2.94
                            13 2.94  10 2.94  14 2.94  17 2.94
  17  0.444  0.778  0.316-  27 2.93  24 2.93  26 2.93   9 2.94  15 2.94   2 2.94  10 2.94  11 2.94
                             8 2.94  14 2.94  16 2.94  18 2.94
  18  0.778  0.778  0.316-  22 2.93  27 2.93  25 2.93  16 2.94   7 2.94  13 2.94  12 2.94   3 2.94
                            11 2.94   9 2.94  15 2.94  17 2.94
  19  0.889  0.222  0.414-  21 2.93  20 2.93  15 2.93  10 2.93  12 2.93  24 2.94  22 2.94  26 2.94
                            25 2.94  28 2.96  32 2.96  31 2.96
  20  0.221  0.221  0.413-  36 2.82  10 2.91  11 2.92  13 2.92  26 2.93  19 2.93  27 2.94  22 2.94
                            23 2.96  21 2.96  29 2.96  31 2.96
  21  0.557  0.221  0.413-  36 2.82  12 2.91  14 2.92  11 2.92  25 2.93  19 2.93  24 2.94  27 2.94
                            20 2.96  23 2.96  30 2.96  32 2.96
  22  0.888  0.556  0.414-  18 2.93  15 2.93  24 2.93  27 2.93  13 2.93  25 2.94  19 2.94  23 2.94
                            20 2.94  35 2.96  33 2.96  31 2.96
  23  0.221  0.557  0.413-  36 2.82  16 2.91  13 2.92  14 2.92  25 2.93  26 2.93  22 2.94  24 2.94
                            20 2.96  21 2.96  33 2.96  34 2.96
  24  0.556  0.556  0.414-  15 2.93  17 2.93  27 2.93  22 2.93  14 2.93  26 2.94  19 2.94  21 2.94
                            23 2.94  35 2.96  32 2.96  34 2.96
  25  0.889  0.889  0.414-  23 2.93  21 2.93  18 2.93  16 2.93  12 2.93  22 2.94  27 2.94  19 2.94
                            26 2.94  28 2.96  33 2.96  30 2.96
  26  0.222  0.889  0.414-  20 2.93  23 2.93  17 2.93  10 2.93  16 2.93  27 2.94  24 2.94  19 2.94
                            25 2.94  28 2.96  29 2.96  34 2.96
  27  0.556  0.888  0.414-  17 2.93  18 2.93  24 2.93  22 2.93  11 2.93  26 2.94  25 2.94  20 2.94
                            21 2.94  35 2.96  29 2.96  30 2.96
  28  0.000  0.000  0.514-  34 2.95  32 2.95  33 2.95  30 2.95  31 2.95  29 2.95  25 2.96  19 2.96
                            26 2.96
  29  0.333  0.002  0.514-  30 2.92  31 2.92  36 2.93  35 2.95  28 2.95  27 2.96  20 2.96  26 2.96
                            34 2.98
  30  0.664  0.002  0.514-  29 2.92  32 2.92  36 2.93  35 2.95  28 2.95  27 2.96  21 2.96  25 2.96
                            33 2.98
  31  0.002  0.333  0.514-  33 2.92  29 2.92  36 2.93  35 2.95  28 2.95  22 2.96  20 2.96  19 2.96
                            32 2.98
  32  0.664  0.333  0.514-  34 2.92  30 2.92  36 2.93  35 2.95  28 2.95  24 2.96  21 2.96  19 2.96
                            31 2.98
  33  0.002  0.664  0.514-  31 2.92  34 2.92  36 2.93  35 2.95  28 2.95  22 2.96  23 2.96  25 2.96
                            30 2.98
  34  0.333  0.664  0.514-  32 2.92  33 2.92  36 2.93  35 2.95  28 2.95  24 2.96  23 2.96  26 2.96
                            29 2.98
  35  0.667  0.667  0.514-  29 2.95  34 2.95  32 2.95  31 2.95  30 2.95  33 2.95  24 2.96  27 2.96
                            22 2.96
  36  0.333  0.333  0.506-  37 2.18  38 2.18  20 2.82  23 2.82  21 2.82  33 2.93  31 2.93  29 2.93
                            30 2.93  34 2.93  32 2.93
  37  0.257  0.333  0.591-  38 1.35  36 2.18
  38  0.410  0.333  0.591-  37 1.35  36 2.18

  LATTYP: Found a hexagonal cell.
 ALAT       =     8.8135128021
 C/A-ratio  =     2.7586513333

  Lattice vectors:

 A1 = (  -4.4067569092,  -7.6327256898,   0.0000000000)
 A2 = (   8.8135128021,   0.0000000000,   0.0000000000)
 A3 = (   0.0000000000,   0.0000000000,  24.3134088421)

Analysis of symmetry for initial positions (statically):
 Subroutine PRICEL returns:
 Original cell was already a primitive cell.

 Routine SETGRP: Setting up the symmetry group for a
 hexagonal supercell.

 Subroutine GETGRP returns: Found  2 space group operations
 (whereof  2 operations were pure point group operations)
 out of a pool of 24 trial point group operations.

The static configuration has the point symmetry C_1h.

Analysis of symmetry for dynamics (positions and initial velocities):
 Subroutine PRICEL returns:
 Original cell was already a primitive cell.

[...]

The dynamic configuration has the point symmetry C_1h.

Analysis of constrained symmetry for selective dynamics:
 Subroutine PRICEL returns:
 Original cell was already a primitive cell.

 Routine SETGRP: Setting up the symmetry group for a
 hexagonal supercell.

[...]
     33      -5.3803      2.00000
     34      -5.2829      2.00000
     35      -5.2722      2.00000
     36      -5.2617      2.00000
     37      -5.2457      2.00000
     38      -5.2403      2.00000
     39      -5.2342      2.00000
     40      -5.1420      2.00000
     41      -5.1323      2.00000
     42      -5.0340      2.00000
     43      -5.0333      2.00000
     44      -4.9725      2.00000
     45      -4.9015      2.00000
     46      -4.8590      2.00000
     47      -4.8410      2.00000
     48      -4.8061      2.00000
     49      -4.7863      2.00000
     50      -4.7842      2.00000
     51      -4.6870      2.00000
     52      -4.6467      2.00000
     53      -4.6224      2.00000
     54      -4.6169      2.00000
     55      -4.6048      2.00000
     56      -4.6030      2.00000
     57      -4.5966      2.00000
     58      -4.5505      2.00000
     59      -4.5020      2.00000
     60      -4.4761      2.00000
[...]
    238       5.5855      0.00000
    239       5.7527      0.00000
    240       5.9437      0.00000
    241       5.9976      0.00000
    242       6.0465      0.00000
    243       6.0799      0.00000
    244       6.1253      0.00000
    245       6.2589      0.00000
    246       6.3102      0.00000
    247       6.3700      0.00000
    248       6.4075      0.00000
    249       6.4829      0.00000
    250       6.6682      0.00000
    251       6.6951      0.00000
    252       6.8045      0.00000

 soft charge-density along one line, spin component           1
         0         1         2         3         4         5         6         7         8         9
 total charge-density along one line

------------------------ aborting loop because EDIFF is reached ----------------------------------------

 total charge

# of ion       s       p       d       tot
    1        0.541   0.240   8.765   9.546
    2        0.545   0.240   8.765   9.550
    3        0.545   0.240   8.765   9.550
    4        0.546   0.240   8.764   9.550
    5        0.540   0.241   8.765   9.547
    6        0.546   0.240   8.764   9.550
    7        0.545   0.240   8.763   9.549
    8        0.545   0.240   8.763   9.549
    9        0.541   0.241   8.766   9.547
   10        0.520   0.310   8.768   9.598
   11        0.521   0.306   8.777   9.605
   12        0.520   0.310   8.768   9.598
   13        0.520   0.307   8.777   9.604
   14        0.520   0.307   8.777   9.604
   15        0.514   0.309   8.774   9.596
   16        0.519   0.310   8.771   9.599
   17        0.514   0.308   8.776   9.599
   18        0.514   0.308   8.776   9.599
   19        0.516   0.301   8.780   9.597
   20        0.526   0.324   8.756   9.606
   21        0.526   0.324   8.756   9.606
   22        0.511   0.306   8.774   9.591
   23        0.522   0.323   8.764   9.609
   24        0.511   0.306   8.774   9.591
   25        0.517   0.303   8.776   9.595
   26        0.517   0.303   8.776   9.595
   27        0.511   0.306   8.772   9.589
   28        0.541   0.231   8.769   9.541
   29        0.535   0.233   8.774   9.542
   30        0.535   0.233   8.774   9.542
   31        0.527   0.235   8.779   9.541
   32        0.527   0.235   8.779   9.541
   33        0.535   0.232   8.775   9.542
   34        0.535   0.232   8.775   9.542
   35        0.540   0.231   8.770   9.542
   36        0.549   0.466   8.007   9.022
   37        1.610   3.244   0.000   4.854
   38        1.610   3.244   0.000   4.854
tot         22.259  16.545 314.976 353.780

  FORCE on cell =-STRESS in cart. coord.  units (eV):
  Direction    XX          YY          ZZ          XY          YZ          ZX
  Alpha Z   957.42253   957.42253   957.42253
  Ewald  152024.71084151610.63023************    -0.00032     0.20848    -0.00010
  Hartree160573.96975160375.92351************     0.00001    -0.07527    -0.00003
  E(xc)   -1830.43605 -1831.73087 -1837.64887     0.00001     0.00887    -0.00001
  Local  ************************324572.95225     0.00286     0.10477    -0.00003
  n-local  -100.71190  -103.89552   -80.45211     4.25259    -0.12317     0.24691
  augment  2429.60316  2438.42567  2445.15210    -0.00139    -0.09475     0.00008
  Kinetic  5727.89532  5788.93967  5794.09303     0.83329    -0.16844     0.13640
  Fock        0.00000     0.00000     0.00000     0.00000     0.00000     0.00000
  Total     -18.78894   -18.66980     0.46871    -0.00000    -0.13950    -0.00000
  in kB     -18.40510   -18.28840     0.45914    -0.00000    -0.13665    -0.00000

 VOLUME and BASIS-vectors are now :
  energy-cutoff  :      500.00
  volume of cell :     1635.59
      direct lattice vectors                 reciprocal lattice vectors
     8.813512802  0.000000000  0.000000000     0.113462137 -0.065507406  0.000000000
     4.406756909  7.632725690  0.000000000     0.000000000  0.131014796  0.000000000
     0.000000000  0.000000000 24.313408842     0.000000000  0.000000000  0.041129568

  length of vectors
     8.813512802  8.813512802 24.313408842     0.131014796  0.131014796  0.041129568

 FORCES acting on ions
    electron-ion (+dipol)            ewald-force                    non-local-force                 convergence-correction
   -.200E-04 0.357E-01 0.269E+04   0.519E-04 -.196E-01 -.269E+04   -.145E-09 -.219E-02 -.939E+00   -.202E-03 -.929E-02 -.457E+00
   0.321E+00 0.509E+00 0.269E+04   -.279E+00 -.456E+00 -.269E+04   -.183E-01 -.336E-01 -.324E+00   -.152E-01 -.124E-01 -.472E+00
   -.321E+00 0.509E+00 0.269E+04   0.279E+00 -.456E+00 -.269E+04   0.183E-01 -.336E-01 -.324E+00   0.154E-01 -.104E-01 -.472E+00
   0.470E+00 -.890E-02 0.269E+04   -.518E+00 -.240E-01 -.269E+04   0.271E-01 0.322E-02 -.341E+00   0.202E-01 0.207E-01 -.448E+00
   0.797E-05 0.188E-01 0.269E+04   0.952E-04 -.217E-03 -.269E+04   -.130E-08 -.195E-01 -.355E+00   0.430E-02 0.371E-02 -.422E+00
   -.470E+00 -.887E-02 0.269E+04   0.518E+00 -.241E-01 -.269E+04   -.271E-01 0.322E-02 -.341E+00   -.218E-01 0.216E-01 -.447E+00
   0.315E+00 -.493E+00 0.269E+04   -.238E+00 0.480E+00 -.269E+04   -.266E-01 0.255E-02 -.352E+00   -.287E-01 0.761E-02 -.505E+00
   -.315E+00 -.493E+00 0.269E+04   0.238E+00 0.480E+00 -.269E+04   0.266E-01 0.255E-02 -.352E+00   0.306E-01 0.652E-02 -.505E+00
   0.196E-04 0.217E-01 0.269E+04   0.166E-03 0.198E-01 -.269E+04   -.156E-08 -.235E-01 -.474E+00   -.464E-02 -.236E-01 -.496E+00
   0.443E+01 0.263E+01 0.959E+03   -.401E+01 -.247E+01 -.958E+03   -.292E+00 -.125E+00 -.676E+00   -.599E-01 -.259E-02 -.396E+00
   0.167E-04 0.422E+01 0.963E+03   0.149E-03 -.415E+01 -.962E+03   -.599E-08 -.900E-01 -.557E+00   0.380E-02 -.238E-01 -.335E+00
   -.443E+01 0.263E+01 0.959E+03   0.401E+01 -.247E+01 -.958E+03   0.292E+00 -.125E+00 -.676E+00   0.586E-01 -.109E-02 -.396E+00
   0.347E+01 -.205E+01 0.963E+03   -.345E+01 0.210E+01 -.962E+03   -.251E-01 -.835E-02 -.487E+00   -.244E-01 -.237E-01 -.348E+00
   -.347E+01 -.205E+01 0.963E+03   0.345E+01 0.210E+01 -.962E+03   0.251E-01 -.835E-02 -.487E+00   0.322E-01 -.241E-01 -.348E+00
   0.307E-04 0.198E+00 0.958E+03   0.236E-03 -.169E+00 -.957E+03   0.267E-09 0.401E-02 -.452E+00   -.239E-02 -.189E-01 -.435E+00
   -.217E-04 -.505E+01 0.959E+03   0.163E-03 0.467E+01 -.958E+03   0.156E-07 0.235E+00 -.664E+00   0.299E-03 0.729E-01 -.429E+00
   0.298E+00 -.245E+00 0.957E+03   -.231E+00 0.193E+00 -.957E+03   -.534E-01 0.336E-01 -.374E+00   -.135E-01 0.210E-01 -.401E+00
   -.298E+00 -.245E+00 0.957E+03   0.231E+00 0.193E+00 -.957E+03   0.534E-01 0.336E-01 -.374E+00   0.134E-01 0.230E-01 -.401E+00
   -.410E-04 0.314E+01 -.806E+03   0.523E-04 -.328E+01 0.806E+03   0.591E-08 0.888E-01 0.698E+00   -.331E-03 0.192E-01 -.108E+00
   0.169E+02 0.109E+02 -.760E+03   -.167E+02 -.106E+02 0.761E+03   -.291E+00 -.238E+00 -.407E+00   0.113E+00 0.386E-01 0.733E-01
   -.169E+02 0.109E+02 -.760E+03   0.167E+02 -.106E+02 0.761E+03   0.291E+00 -.238E+00 -.407E+00   -.112E+00 0.407E-01 0.734E-01
   0.836E+01 -.589E+01 -.798E+03   -.863E+01 0.605E+01 0.797E+03   0.248E+00 -.146E+00 0.682E+00   0.253E-01 -.182E-01 -.239E-01
   -.105E-04 -.207E+02 -.762E+03   0.145E-03 0.207E+02 0.762E+03   0.914E-08 0.137E+00 -.146E+00   0.193E-02 -.184E+00 0.129E+00
   -.836E+01 -.589E+01 -.798E+03   0.863E+01 0.605E+01 0.797E+03   -.248E+00 -.146E+00 0.682E+00   -.323E-01 -.180E-01 -.244E-01
   -.221E+01 -.862E+00 -.808E+03   0.229E+01 0.896E+00 0.807E+03   0.190E-01 -.414E-01 0.628E+00   -.703E-01 0.623E-02 -.476E-01
   0.221E+01 -.862E+00 -.808E+03   -.229E+01 0.896E+00 0.807E+03   -.190E-01 -.414E-01 0.628E+00   0.721E-01 0.508E-02 -.468E-01
   0.809E-05 0.973E+01 -.799E+03   0.200E-03 -.100E+02 0.799E+03   0.168E-07 0.253E+00 0.694E+00   -.422E-02 0.681E-01 0.252E-01
   -.140E-04 0.452E+01 -.257E+04   0.290E-04 -.435E+01 0.257E+04   -.794E-08 -.119E+00 0.325E+00   0.134E-02 -.530E-01 0.972E-01
   0.353E+02 0.710E+02 -.254E+04   -.353E+02 -.715E+02 0.254E+04   -.117E+00 0.216E+00 0.770E+00   0.840E-01 0.747E-02 -.450E-01
   -.353E+02 0.710E+02 -.254E+04   0.353E+02 -.715E+02 0.254E+04   0.117E+00 0.216E+00 0.770E+00   -.902E-01 0.940E-02 -.444E-01
   0.858E+02 0.646E+00 -.252E+04   -.868E+02 -.614E+00 0.252E+04   0.447E+00 -.274E-01 0.907E+00   0.112E+00 0.110E-01 -.306E-01
   -.858E+02 0.646E+00 -.252E+04   0.868E+02 -.614E+00 0.252E+04   -.447E+00 -.274E-01 0.907E+00   -.119E+00 0.121E-01 -.310E-01
   0.342E+02 -.717E+02 -.254E+04   -.344E+02 0.722E+02 0.253E+04   -.230E-01 -.176E+00 0.758E+00   0.322E-01 -.504E-01 0.218E-02
   -.342E+02 -.717E+02 -.254E+04   0.344E+02 0.722E+02 0.253E+04   0.230E-01 -.176E+00 0.758E+00   -.364E-01 -.512E-01 0.127E-02
   0.283E-04 -.463E+01 -.257E+04   0.146E-03 0.439E+01 0.257E+04   0.106E-07 0.159E+00 0.445E+00   -.354E-02 0.859E-01 0.612E-01
   0.151E-04 0.716E-01 -.197E+04   0.101E-03 -.141E+00 0.197E+04   -.490E-08 -.737E-01 0.397E+01   0.409E-02 0.158E-01 -.464E+00
   0.242E+03 0.129E+00 -.171E+04   -.282E+03 0.152E-01 0.172E+04   0.395E+02 -.143E+00 -.126E+02   -.189E+00 -.164E-02 -.263E+00
   -.242E+03 0.129E+00 -.171E+04   0.282E+03 0.152E-01 0.172E+04   -.395E+02 -.143E+00 -.126E+02   0.190E+00 -.156E-02 -.264E+00
   -.414E-03 0.847E+00 0.298E+02   -.568E-13 0.438E-13 -.500E-11   -.546E-07 -.821E+00 -.210E+02   -.139E-01 -.308E-01 -.864E+01

 POSITION                                       TOTAL-FORCE (eV/Angst)
      0.00000      0.00000      5.28038         0.000000      0.004848      0.036930
      2.93784      0.00000      5.28038         0.007980      0.007707     -0.035510
      5.87568      0.00000      5.28038        -0.007980      0.007707     -0.035510
      1.46892      2.54424      5.28038         0.000021     -0.008402     -0.031512
      4.40676      2.54424      5.28038         0.000000      0.002874     -0.061531
      7.34459      2.54424      5.28038        -0.000021     -0.008402     -0.031512
      2.93784      5.08848      5.28038         0.020796     -0.003593     -0.020464
      5.87568      5.08848      5.28038        -0.020796     -0.003593     -0.020464
      8.81351      5.08848      5.28038        -0.000000     -0.005457     -0.016520
      1.46892      0.84808      7.67911         0.070477      0.036061      0.098284
      4.40676      0.84808      7.67911        -0.000000     -0.047738     -0.014451
      7.34459      0.84808      7.67911        -0.070477      0.036061      0.098284
      2.93784      3.39232      7.67911        -0.030945      0.017107     -0.014980
      5.87568      3.39232      7.67911         0.030945      0.017107     -0.014980
      8.81351      3.39232      7.67911         0.000000      0.014308      0.092035
      4.40676      5.93656      7.67911        -0.000000     -0.072203      0.083349
      7.34459      5.93656      7.67911         0.000607      0.004200      0.076500
     10.28243      5.93656      7.67911        -0.000607      0.004200      0.076500
      8.81351      1.69709     10.07334        -0.000000     -0.026237      0.001067
      2.92757      1.69024     10.04824         0.076386      0.090317      0.134147
      5.88594      1.69024     10.04824        -0.076386      0.090317      0.134147
     10.27700      4.24354     10.06671         0.006881     -0.008632      0.002405
      4.40676      4.25225     10.04824        -0.000000     -0.050221     -0.009228
      7.35003      4.24354     10.06671        -0.006881     -0.008632      0.002405
     11.75055      6.78418     10.07334         0.031157     -0.001186      0.019232
      5.87648      6.78418     10.07334        -0.031157     -0.001186      0.019232
      8.81351      6.77837     10.06671         0.000000      0.004064      0.019981
      0.00000      0.00000     12.49905        -0.000000     -0.003672     -0.045002
      2.94801      0.01573     12.49317        -0.105861     -0.259236     -0.144631
      5.86551      0.01573     12.49317         0.105860     -0.259236     -0.144631
      1.48763      2.54518     12.49317        -0.500906      0.016511     -0.278974
      7.32589      2.54518     12.49317         0.500906      0.016511     -0.278974
      2.94638      5.07181     12.49317        -0.144107      0.264689     -0.135565
      5.86714      5.07181     12.49317         0.144107      0.264689     -0.135565
      8.81351      5.08848     12.49660        -0.000000     -0.003578      0.005767
      4.40676      2.54424     12.29817        -0.000000     -0.126902      0.692432
      3.73143      2.54515     14.37328        -0.052899     -0.000587     -0.061349
      5.08208      2.54515     14.37328         0.052899     -0.000587     -0.061349
    total drift:                               -0.014343     -0.004927      0.085337

  FREE ENERGIE OF THE ION-ELECTRON SYSTEM (eV)
  free  energy   TOTEN  =      -121.59906882 eV

  energy  without entropy=     -121.59906882  energy(sigma->0) =     -121.59906882

 stress matrix after NEB project (eV)
    -18.78894     -0.00000     -0.00000
     -0.00000    -18.66980     -0.13950
     -0.00000     -0.13950      0.46871
  FORCES: max atom, RMS     0.081008    0.018585
  FORCE total and by dimension    0.114563    0.061349
  Stress total and by dimension   26.492339   18.788937
|           W    W    AA    RRRRR   N    N  II  N    N   GGGG   !!!           |
|           W    W   A  A   R    R  NN   N  II  NN   N  G    G  !!!           |
|           W    W  A    A  R    R  N N  N  II  N N  N  G       !!!           |
|           W WW W  AAAAAA  RRRRR   N  N N  II  N  N N  G  GGG   !            |
|           WW  WW  A    A  R   R   N   NN  II  N   NN  G    G                |
|           W    W  A    A  R    R  N    N  II  N    N   GGGG   !!!           |
|     Tetrahedron method does not include variations of the Fermi             |
|     occupations, so forces and stress will be inaccurate. We suggest        |
|     using a different smearing scheme ISMEAR = 1 or 2 for metals in         |
|     relaxations.                                                            |

 total charge

# of ion       s       p       d       tot
    1        0.541   0.240   8.765   9.546
    2        0.545   0.240   8.765   9.550
    3        0.545   0.240   8.765   9.550
    4        0.546   0.240   8.764   9.550
    5        0.540   0.241   8.765   9.547
    6        0.546   0.240   8.764   9.550
    7        0.545   0.240   8.763   9.549
    8        0.545   0.240   8.763   9.549
    9        0.541   0.241   8.766   9.547
   10        0.520   0.310   8.768   9.598
   11        0.521   0.306   8.777   9.605
   12        0.520   0.310   8.768   9.598
   13        0.520   0.307   8.777   9.604
   14        0.520   0.307   8.777   9.604
   15        0.514   0.309   8.774   9.596
   16        0.519   0.310   8.771   9.599
   17        0.514   0.308   8.776   9.599
   18        0.514   0.308   8.776   9.599
   19        0.516   0.301   8.780   9.597
   20        0.526   0.324   8.756   9.606
   21        0.526   0.324   8.756   9.606
   22        0.511   0.306   8.774   9.591
   23        0.522   0.323   8.764   9.609
   24        0.511   0.306   8.774   9.591
   25        0.517   0.303   8.776   9.595
   26        0.517   0.303   8.776   9.595
   27        0.511   0.306   8.772   9.589
   28        0.541   0.231   8.769   9.541
   29        0.535   0.233   8.774   9.542
   30        0.535   0.233   8.774   9.542
   31        0.527   0.235   8.779   9.541
   32        0.527   0.235   8.779   9.541
   33        0.535   0.232   8.775   9.542
   34        0.535   0.232   8.775   9.542
   35        0.540   0.231   8.770   9.542
   36        0.549   0.466   8.007   9.022
   37        1.610   3.244   0.000   4.854
   38        1.610   3.244   0.000   4.854
tot         22.259  16.545 314.976 353.780

 BZINTS: Fermi energy:    0.159146;  407.000000 electrons
         Band energy:-0.150100E+04;  BLOECHL correction:   -0.058860