 vasp.6.2.0 18Jan21 (build Jun 12 2021 23:27:24) complex

 executed on             LinuxIFC date 2022.05.27  05:55:35

 INCAR:
   ISMEAR = -5
   SIGMA = 0.1
   ISPIN = 1
   EDIFF = 1.d-5
   EDIFFG = -0.01
   NSW = 0
   NELM = 150
   ENCUT = 500
   ISIF = 2
   IBRION = 2
   LREAL = Auto
   ALGO = Fast
   ICHARG = 11
   LORBIT = 10
   LCHARG = .F.
   LWAVE = .F.

 POTCAR:    PAW_PBE Ag 02Apr2005
 POTCAR:    PAW_PBE Ir 06Sep2000
 POTCAR:    PAW_PBE N 08Apr2002
|           W    W    AA    RRRRR   N    N  II  N    N   GGGG   !!!           |
|           W    W   A  A   R    R  NN   N  II  NN   N  G    G  !!!           |
|           W    W  A    A  R    R  N N  N  II  N N  N  G       !!!           |
|           W WW W  AAAAAA  RRRRR   N  N N  II  N  N N  G  GGG   !            |
|           WW  WW  A    A  R   R   N   NN  II  N   NN  G    G                |
|           W    W  A    A  R    R  N    N  II  N    N   GGGG   !!!           |
|     For optimal performance we recommend to set                             |
|       NCORE = 2 up to number-of-cores-per-socket                            |
|     This setting can greatly improve the performance of VASP for DFT.       |
|     The default, NCORE=1 might be grossly inefficient on modern             |
|     multi-core architectures or massively parallel machines. Do your        |
|     Unfortunately you need to use the default for GW and RPA                |
|     calculations (for HF NCORE is supported but not extensively tested      |
|     yet).                                                                   |

 POTCAR:    PAW_PBE Ag 02Apr2005
   VRHFIN =Ag : s1 d10

   TITEL  = PAW_PBE Ag 02Apr2005
   POMASS =  107.868; ZVAL   =   11.000    mass and valenz
   ENMAX  =  249.844; ENMIN  =  187.383 eV

 POTCAR:    PAW_PBE Ir 06Sep2000
   VRHFIN =Ir: s1d8

   TITEL  = PAW_PBE Ir 06Sep2000
   POMASS =  192.220; ZVAL   =    9.000    mass and valenz
   ENMAX  =  210.864; ENMIN  =  158.148 eV

 POTCAR:    PAW_PBE N 08Apr2002
   VRHFIN =N: s2p3

   TITEL  = PAW_PBE N 08Apr2002
   POMASS =   14.001; ZVAL   =    5.000    mass and valenz
   ENMAX  =  400.000; ENMIN  =  300.000 eV

 Optimization of the real space projectors (new method)

 maximal supplied QI-value         = 15.12
 optimisation between [QCUT,QGAM] = [ 11.34, 22.83] = [ 36.00,145.93] Ry
 Optimized for a Real-space Cutoff    1.43 Angstroem

   l    n(q)    QCUT    max X(q) W(low)/X(q) W(high)/X(q)  e(spline)
   2      9    11.338    53.897    0.16E-03    0.20E-03    0.28E-06
   2      9    11.338    52.416    0.16E-03    0.20E-03    0.29E-06
   0     10    11.338   122.045    0.31E-04    0.76E-04    0.15E-06
   0     10    11.338    73.629    0.30E-04    0.72E-04    0.15E-06
   1      9    11.338    15.255    0.20E-03    0.19E-04    0.17E-06
   1      9    11.338     9.562    0.16E-03    0.15E-04    0.14E-06
 Optimization of the real space projectors (new method)

[...]

   l    n(q)    QCUT    max X(q) W(low)/X(q) W(high)/X(q)  e(spline)
   2      9    11.346   134.116    0.47E-03    0.13E-03    0.92E-06
   2      9    11.346   130.192    0.47E-03    0.13E-03    0.92E-06
   0     10    11.346    60.310    0.74E-04    0.13E-03    0.69E-06
   0     10    11.346    39.218    0.68E-04    0.12E-03    0.65E-06
   1     10    11.346    18.439    0.15E-03    0.34E-04    0.20E-06
   1     10    11.346    12.760    0.12E-03    0.31E-04    0.16E-06
 Optimization of the real space projectors (new method)

 maximal supplied QI-value         = 25.13
 optimisation between [QCUT,QGAM] = [ 11.31, 22.87] = [ 35.82,146.48] Ry
 Optimized for a Real-space Cutoff    1.27 Angstroem

   l    n(q)    QCUT    max X(q) W(low)/X(q) W(high)/X(q)  e(spline)
   0      9    11.310    79.467    0.75E-04    0.16E-03    0.36E-06
   0      9    11.310    66.151    0.74E-04    0.16E-03    0.36E-06
   1      8    11.310    17.416    0.35E-03    0.12E-03    0.95E-06
   1      8    11.310    12.382    0.37E-03    0.13E-03    0.98E-06
  PAW_PBE Ag 02Apr2005                  :
  PAW_PBE Ir 06Sep2000                  :
  PAW_PBE N 08Apr2002                   :

 POSCAR: Ag-Ir-N2
  positions in direct lattice
  velocities in cartesian coordinates
 exchange correlation table for  LEXCH =        8
   RHO(1)=    0.500       N(1)  =     2000
   RHO(2)=  100.500       N(2)  =     4000

 VTST: version 3.2, (02/03/18)

 CHAIN: initializing optimizer

 OPT: Using VASP Conjugate-Gradient optimizer
 CHAIN: Read ICHAIN            0

 POSCAR: Ag-Ir-N2
  positions in direct lattice
  velocities in cartesian coordinates

 ion  position               nearest neighbor table
   1  0.000  0.000  0.238-   2 2.93   8 2.93   7 2.93   6 2.93   4 2.93  12 2.93  16 2.93  10 2.93
                             3 2.93
   2  0.333  0.000  0.238-   1 2.93   8 2.93   9 2.93   3 2.93   4 2.93   5 2.93  10 2.93  17 2.93
                            11 2.93
   3  0.667  0.000  0.238-   9 2.93   2 2.93   5 2.93  11 2.93   7 2.93  18 2.93   1 2.93   6 2.93
                            12 2.93
   4  0.000  0.333  0.238-   5 2.93   6 2.93   2 2.93   1 2.93   7 2.93  13 2.93  15 2.93   9 2.93
                            10 2.93
   5  0.333  0.333  0.238-   4 2.93   3 2.93   7 2.93   2 2.93   8 2.93  14 2.93  13 2.93  11 2.93
                             6 2.93
   6  0.667  0.333  0.238-   4 2.93   9 2.93   1 2.93  15 2.93   8 2.93  12 2.93   3 2.93   5 2.93
                            14 2.93
   7  0.000  0.667  0.238-   8 2.93   1 2.93   5 2.93   3 2.93   4 2.93  16 2.93  18 2.93  13 2.93
                             9 2.93
   8  0.333  0.667  0.238-   7 2.93   1 2.93   2 2.93   9 2.93   5 2.93  16 2.93   6 2.93  17 2.93
                            14 2.93
   9  0.667  0.667  0.238-   3 2.93   2 2.93   8 2.93   6 2.93  17 2.93   4 2.93  15 2.93   7 2.93
                            18 2.93
  10  0.111  0.111  0.346-  20 2.89  12 2.93  16 2.93  15 2.93  17 2.93  13 2.93  11 2.93   2 2.93
                             1 2.93   4 2.93  19 2.93  26 2.93
  11  0.444  0.111  0.346-  21 2.90  20 2.90  27 2.92  14 2.93  17 2.93  18 2.93   3 2.93  12 2.93
                            13 2.93  10 2.93   5 2.93   2 2.93
  12  0.778  0.111  0.346-  21 2.89  10 2.93  16 2.93  18 2.93  15 2.93  11 2.93   1 2.93  14 2.93
                             6 2.93   3 2.93  25 2.93  19 2.93
  13  0.111  0.444  0.346-  20 2.90  23 2.90  22 2.92  15 2.93  14 2.93  18 2.93  10 2.93  11 2.93
                            16 2.93   4 2.93   5 2.93   7 2.93
  14  0.444  0.444  0.346-  23 2.90  21 2.90  24 2.92  13 2.93  11 2.93  16 2.93   5 2.93  12 2.93
                            17 2.93   8 2.93  15 2.93   6 2.93
  15  0.778  0.444  0.346-  24 2.92  22 2.92  19 2.93  13 2.93  10 2.93  12 2.93  17 2.93  18 2.93
                             4 2.93   6 2.93   9 2.93  14 2.93
  16  0.111  0.778  0.346-  23 2.89  18 2.93  12 2.93  10 2.93  14 2.93  17 2.93  13 2.93   7 2.93
                             8 2.93   1 2.93  26 2.93  25 2.93
  17  0.444  0.778  0.346-  27 2.92  24 2.92  26 2.93  11 2.93  10 2.93   9 2.93  18 2.93  15 2.93
                            16 2.93   2 2.93  14 2.93   8 2.93
  18  0.778  0.778  0.346-  22 2.92  27 2.92  25 2.93  16 2.93  12 2.93  13 2.93  11 2.93  17 2.93
                            15 2.93   7 2.93   3 2.93   9 2.93
  19  0.888  0.223  0.454-  28 2.90  24 2.92  22 2.92  15 2.93  20 2.93  21 2.93  10 2.93  12 2.93
                            32 2.94  31 2.94  26 2.94  25 2.94
  20  0.222  0.222  0.452-  36 2.77  10 2.89  13 2.90  11 2.90  31 2.92  29 2.92  19 2.93  26 2.93
                            27 2.93  22 2.93  21 2.94  23 2.94
  21  0.556  0.222  0.452-  36 2.77  12 2.89  11 2.90  14 2.90  30 2.92  32 2.92  25 2.93  19 2.93
                            27 2.93  24 2.93  20 2.94  23 2.94
  22  0.888  0.556  0.453-  35 2.90  18 2.92  15 2.92  13 2.92  24 2.92  27 2.92  25 2.92  19 2.92
                            33 2.93  31 2.93  23 2.93  20 2.93
  23  0.222  0.556  0.452-  36 2.77  16 2.89  14 2.90  13 2.90  34 2.92  33 2.92  26 2.93  25 2.93
                            22 2.93  24 2.93  21 2.94  20 2.94
  24  0.556  0.556  0.453-  35 2.90  15 2.92  17 2.92  14 2.92  27 2.92  22 2.92  19 2.92  26 2.92
                            32 2.93  34 2.93  23 2.93  21 2.93
  25  0.888  0.888  0.454-  28 2.90  22 2.92  27 2.92  18 2.93  23 2.93  21 2.93  16 2.93  12 2.93
                            33 2.94  30 2.94  26 2.94  19 2.94
  26  0.223  0.888  0.454-  28 2.90  27 2.92  24 2.92  17 2.93  23 2.93  20 2.93  16 2.93  10 2.93
                            34 2.94  29 2.94  25 2.94  19 2.94
  27  0.556  0.888  0.453-  35 2.90  17 2.92  18 2.92  11 2.92  24 2.92  22 2.92  26 2.92  25 2.92
                            29 2.93  30 2.93  20 2.93  21 2.93
  28  0.000  0.000  0.560-  26 2.90  25 2.90  19 2.90  29 2.96  34 2.96  33 2.96  32 2.96  31 2.96
                            30 2.96
  29  0.333  0.007  0.561-  31 2.87  30 2.88  36 2.88  20 2.92  27 2.93  26 2.94  28 2.96  35 2.96
                            34 3.04
  30  0.660  0.007  0.561-  32 2.87  29 2.88  36 2.88  21 2.92  27 2.93  25 2.94  28 2.96  35 2.96
                            33 3.04
  31  0.007  0.333  0.561-  29 2.87  33 2.88  36 2.88  20 2.92  22 2.93  19 2.94  28 2.96  35 2.96
                            32 3.04
  32  0.660  0.333  0.561-  30 2.87  34 2.88  36 2.88  21 2.92  24 2.93  19 2.94  28 2.96  35 2.96
                            31 3.04
  33  0.007  0.660  0.561-  34 2.87  31 2.88  36 2.88  23 2.92  22 2.93  25 2.94  28 2.96  35 2.96
                            30 3.04
  34  0.333  0.660  0.561-  33 2.87  32 2.88  36 2.88  23 2.92  24 2.93  26 2.94  28 2.96  35 2.96
                            29 3.04
  35  0.667  0.667  0.560-  24 2.90  27 2.90  22 2.90  30 2.96  32 2.96  29 2.96  34 2.96  31 2.96
                            33 2.96
  36  0.333  0.333  0.551-  38 2.40  37 2.40  21 2.77  20 2.77  23 2.77  31 2.88  30 2.88  33 2.88
                            29 2.88  34 2.88  32 2.88
  37  0.269  0.332  0.656-  38 1.14  36 2.40
  38  0.399  0.332  0.656-  37 1.14  36 2.40

  LATTYP: Found a hexagonal cell.
 ALAT       =     8.7913665772
 C/A-ratio  =     2.5227160501

  Lattice vectors:

 A1 = (  -4.3956832886,  -7.6135467898,   0.0000000000)
 A2 = (   8.7913665771,   0.0000000000,   0.0000000000)
 A3 = (   0.0000000000,   0.0000000000,  22.1781215668)

Analysis of symmetry for initial positions (statically):
 Subroutine PRICEL returns:
 Original cell was already a primitive cell.

 Routine SETGRP: Setting up the symmetry group for a
 hexagonal supercell.

 Subroutine GETGRP returns: Found  2 space group operations
 (whereof  2 operations were pure point group operations)
 out of a pool of 24 trial point group operations.

The static configuration has the point symmetry C_1h.

Analysis of symmetry for dynamics (positions and initial velocities):
 Subroutine PRICEL returns:
 Original cell was already a primitive cell.

[...]

The dynamic configuration has the point symmetry C_1h.

Analysis of constrained symmetry for selective dynamics:
 Subroutine PRICEL returns:
 Original cell was already a primitive cell.

 Routine SETGRP: Setting up the symmetry group for a
 hexagonal supercell.

[...]
     33      -4.3973      2.00000
     34      -4.3832      2.00000
     35      -4.3698      2.00000
     36      -4.3629      2.00000
     37      -4.3264      2.00000
     38      -4.3049      2.00000
     39      -4.2681      2.00000
     40      -4.2485      2.00000
     41      -4.2346      2.00000
     42      -4.2070      2.00000
     43      -4.1729      2.00000
     44      -4.1642      2.00000
     45      -4.1582      2.00000
     46      -4.1411      2.00000
     47      -4.1337      2.00000
     48      -4.0550      2.00000
     49      -4.0288      2.00000
     50      -4.0158      2.00000
     51      -4.0072      2.00000
     52      -4.0003      2.00000
     53      -3.9965      2.00000
     54      -3.9867      2.00000
     55      -3.9769      2.00000
     56      -3.9698      2.00000
     57      -3.9603      2.00000
     58      -3.8863      2.00000
     59      -3.8753      2.00000
     60      -3.8709      2.00000
[...]
    238       6.0274      0.00000
    239       6.2526      0.00000
    240       6.3258      0.00000
    241       6.4256      0.00000
    242       6.4618      0.00000
    243       6.5463      0.00000
    244       6.8424      0.00000
    245       7.3013      0.00000
    246       7.3533      0.00000
    247       7.3810      0.00000
    248       7.4103      0.00000
    249       7.4201      0.00000
    250       7.4720      0.00000
    251       7.6093      0.00000
    252       7.6628      0.00000

 soft charge-density along one line, spin component           1
         0         1         2         3         4         5         6         7         8         9
 total charge-density along one line

------------------------ aborting loop because EDIFF is reached ----------------------------------------

 total charge

# of ion       s       p       d       tot
    1        0.414   0.204   9.177   9.795
    2        0.420   0.203   9.177   9.799
    3        0.420   0.203   9.177   9.799
    4        0.419   0.203   9.177   9.799
    5        0.415   0.205   9.177   9.797
    6        0.419   0.203   9.177   9.799
    7        0.420   0.203   9.177   9.800
    8        0.420   0.203   9.177   9.800
    9        0.414   0.203   9.179   9.796
   10        0.406   0.270   9.162   9.838
   11        0.411   0.267   9.168   9.845
   12        0.406   0.270   9.162   9.838
   13        0.410   0.267   9.168   9.845
   14        0.410   0.267   9.168   9.845
   15        0.400   0.270   9.166   9.836
   16        0.405   0.270   9.163   9.839
   17        0.400   0.271   9.166   9.836
   18        0.400   0.271   9.166   9.836
   19        0.402   0.267   9.167   9.836
   20        0.416   0.298   9.152   9.865
   21        0.416   0.298   9.152   9.865
   22        0.397   0.274   9.168   9.838
   23        0.414   0.300   9.150   9.865
   24        0.397   0.274   9.168   9.838
   25        0.405   0.266   9.166   9.837
   26        0.405   0.266   9.166   9.837
   27        0.397   0.273   9.169   9.838
   28        0.416   0.196   9.182   9.794
   29        0.415   0.213   9.177   9.805
   30        0.415   0.213   9.177   9.805
   31        0.408   0.213   9.179   9.801
   32        0.408   0.213   9.179   9.801
   33        0.414   0.213   9.178   9.805
   34        0.414   0.213   9.178   9.805
   35        0.410   0.199   9.183   9.791
   36        0.544   0.345   7.089   7.978
   37        1.358   2.447   0.000   3.805
   38        1.358   2.447   0.000   3.805
tot         17.614  13.680 328.066 359.359

  FORCE on cell =-STRESS in cart. coord.  units (eV):
  Direction    XX          YY          ZZ          XY          YZ          ZX
  Alpha Z   782.75987   782.75987   782.75987
  Ewald  120493.50881120172.87525************     0.00005     0.18297     0.00005
  Hartree130777.32007130661.13889************     0.00002     0.25730     0.00002
  E(xc)   -2111.90909 -2113.20900 -2117.67688     0.00009    -0.01327    -0.00000
  Local  ************************262227.93162     0.00080    -0.60720    -0.00016
  n-local  -361.03199  -349.30250  -360.33231     2.36935     0.02189     0.11772
  augment  3261.96810  3261.84749  3269.56439    -0.00015     0.02898     0.00001
  Kinetic  5066.43933  5083.17008  5102.63874     1.23748     0.22351     0.01146
  Fock        0.00000     0.00000     0.00000     0.00000     0.00000     0.00000
  Total      -7.49288    -7.57504    -0.63961    -0.00000     0.09418     0.00000
  in kB      -8.08707    -8.17574    -0.69034    -0.00000     0.10164     0.00000

 VOLUME and BASIS-vectors are now :
  energy-cutoff  :      500.00
  volume of cell :     1484.46
      direct lattice vectors                 reciprocal lattice vectors
     8.791366577  0.000000000  0.000000000     0.113747958 -0.065672414  0.000000000
     4.395683289  7.613546790  0.000000000     0.000000000  0.131344829  0.000000000
     0.000000000  0.000000000 22.178121567     0.000000000  0.000000000  0.045089481

  length of vectors
     8.791366577  8.791366577 22.178121567     0.131344829  0.131344829  0.045089481

 FORCES acting on ions
    electron-ion (+dipol)            ewald-force                    non-local-force                 convergence-correction
   0.459E-04 -.833E-02 0.252E+04   -.954E-04 -.113E-01 -.252E+04   -.656E-14 -.999E-03 -.252E+01   -.126E-03 0.187E-01 -.264E+00
   0.608E+00 0.729E+00 0.252E+04   -.595E+00 -.606E+00 -.252E+04   0.118E-01 -.400E-01 -.163E+01   -.165E-01 -.627E-01 -.222E+00
   -.608E+00 0.729E+00 0.252E+04   0.595E+00 -.606E+00 -.252E+04   -.118E-01 -.400E-01 -.163E+01   0.159E-01 -.607E-01 -.221E+00
   0.860E+00 0.127E+00 0.252E+04   -.813E+00 -.216E+00 -.252E+04   0.201E-01 0.407E-01 -.165E+01   -.487E-01 0.424E-01 -.241E+00
   -.738E-05 0.865E-03 0.252E+04   0.981E-04 0.157E-02 -.252E+04   -.342E-14 -.520E-03 -.150E+01   0.630E-02 -.228E-02 -.163E+00
   -.860E+00 0.127E+00 0.252E+04   0.813E+00 -.216E+00 -.252E+04   -.201E-01 0.407E-01 -.165E+01   0.472E-01 0.433E-01 -.240E+00
   0.383E+00 -.851E+00 0.252E+04   -.218E+00 0.822E+00 -.252E+04   -.517E-01 -.820E-02 -.162E+01   -.925E-01 0.225E-01 -.219E+00
   -.383E+00 -.851E+00 0.252E+04   0.218E+00 0.822E+00 -.252E+04   0.517E-01 -.820E-02 -.162E+01   0.942E-01 0.215E-01 -.218E+00
   0.361E-04 0.659E-02 0.252E+04   0.792E-04 0.980E-02 -.252E+04   0.471E-13 0.717E-02 -.209E+01   -.670E-02 -.231E-01 -.279E+00
   0.719E+01 0.420E+01 0.883E+03   -.672E+01 -.396E+01 -.882E+03   -.439E+00 -.242E+00 -.876E+00   -.364E-02 0.193E-01 0.258E-01
   -.293E-04 0.576E+01 0.890E+03   0.411E-04 -.584E+01 -.890E+03   0.250E-12 0.381E-01 -.529E+00   0.644E-02 -.128E-01 0.102E+00
   -.719E+01 0.420E+01 0.883E+03   0.672E+01 -.396E+01 -.882E+03   0.439E+00 -.242E+00 -.876E+00   0.188E-02 0.208E-01 0.264E-01
   0.494E+01 -.288E+01 0.890E+03   -.498E+01 0.294E+01 -.890E+03   0.326E-01 -.363E-01 -.506E+00   -.325E-01 -.121E-02 0.108E+00
   -.494E+01 -.288E+01 0.890E+03   0.498E+01 0.294E+01 -.890E+03   -.326E-01 -.363E-01 -.506E+00   0.436E-01 -.193E-02 0.108E+00
   0.164E-04 0.142E+01 0.883E+03   -.109E-03 -.147E+01 -.882E+03   0.881E-13 0.134E-01 -.713E+00   -.196E-02 0.918E-02 0.791E-02
   -.804E-05 -.832E+01 0.882E+03   0.205E-04 0.778E+01 -.882E+03   0.331E-11 0.505E+00 -.887E+00   0.385E-03 0.582E-02 0.789E-02
   0.127E+01 -.763E+00 0.883E+03   -.132E+01 0.782E+00 -.882E+03   -.929E-03 0.220E-02 -.637E+00   0.257E-01 -.136E-01 -.383E-02
   -.127E+01 -.763E+00 0.883E+03   0.132E+01 0.783E+00 -.882E+03   0.929E-03 0.220E-02 -.637E+00   -.258E-01 -.114E-01 -.339E-02
   0.418E-04 0.450E+01 -.795E+03   -.130E-03 -.460E+01 0.794E+03   0.273E-12 0.416E-01 0.672E+00   -.637E-02 0.433E-01 0.195E+00
   0.164E+02 0.993E+01 -.746E+03   -.155E+02 -.938E+01 0.746E+03   -.104E+01 -.643E+00 -.123E+01   0.141E+00 0.991E-01 0.358E+00
   -.164E+02 0.993E+01 -.746E+03   0.155E+02 -.938E+01 0.746E+03   0.104E+01 -.643E+00 -.123E+01   -.139E+00 0.100E+00 0.358E+00
   0.611E+01 -.402E+01 -.781E+03   -.652E+01 0.433E+01 0.780E+03   0.355E+00 -.249E+00 0.647E+00   0.624E-01 -.713E-01 0.172E+00
   -.560E-04 -.197E+02 -.746E+03   0.441E-04 0.186E+02 0.747E+03   0.802E-11 0.122E+01 -.119E+01   0.216E-02 -.200E+00 0.388E+00
   -.611E+01 -.402E+01 -.781E+03   0.652E+01 0.433E+01 0.780E+03   -.355E+00 -.249E+00 0.647E+00   -.730E-01 -.723E-01 0.172E+00
   -.374E+01 -.188E+01 -.796E+03   0.374E+01 0.187E+01 0.795E+03   0.324E-01 0.226E-01 0.621E+00   -.290E-01 -.745E-02 0.217E+00
   0.374E+01 -.188E+01 -.796E+03   -.374E+01 0.187E+01 0.795E+03   -.324E-01 0.226E-01 0.621E+00   0.197E-01 -.958E-02 0.218E+00
   0.195E-04 0.711E+01 -.781E+03   0.110E-03 -.767E+01 0.780E+03   0.317E-11 0.483E+00 0.665E+00   -.504E-02 0.799E-01 0.185E+00
   0.541E-04 0.250E+01 -.245E+04   -.116E-03 -.246E+01 0.244E+04   -.276E-12 -.420E-01 0.201E+01   -.127E-04 -.244E-02 0.346E+00
   0.321E+02 0.624E+02 -.242E+04   -.315E+02 -.619E+02 0.242E+04   -.659E+00 -.772E+00 0.200E+01   0.437E-01 0.152E+00 0.234E+00
   -.321E+02 0.624E+02 -.242E+04   0.315E+02 -.619E+02 0.242E+04   0.659E+00 -.772E+00 0.200E+01   -.440E-01 0.154E+00 0.234E+00
   0.724E+02 -.847E+00 -.242E+04   -.720E+02 0.101E+01 0.241E+04   -.793E+00 -.109E+00 0.242E+01   0.171E+00 -.303E-01 0.233E+00
   -.724E+02 -.847E+00 -.242E+04   0.720E+02 0.101E+01 0.241E+04   0.793E+00 -.109E+00 0.242E+01   -.172E+00 -.295E-01 0.231E+00
   0.327E+02 -.613E+02 -.242E+04   -.324E+02 0.606E+02 0.242E+04   -.485E+00 0.893E+00 0.200E+01   0.103E+00 -.122E+00 0.237E+00
   -.327E+02 -.613E+02 -.242E+04   0.324E+02 0.606E+02 0.242E+04   0.485E+00 0.893E+00 0.200E+01   -.102E+00 -.123E+00 0.236E+00
   0.207E-04 -.222E+01 -.244E+04   0.107E-03 0.217E+01 0.244E+04   0.373E-12 0.568E-01 0.214E+01   -.667E-02 -.390E-02 0.329E+00
   -.181E-04 -.728E+00 -.176E+04   0.867E-04 0.738E+00 0.175E+04   0.256E-12 0.390E-01 0.428E+01   0.230E-02 0.396E-02 0.142E+00
   0.227E+03 -.822E-01 -.127E+04   -.269E+03 0.773E-01 0.127E+04   0.425E+02 -.121E-02 -.579E+01   0.655E-01 0.786E-03 -.110E+00
   -.227E+03 -.822E-01 -.127E+04   0.269E+03 0.773E-01 0.127E+04   -.425E+02 -.121E-02 -.579E+01   -.652E-01 0.830E-03 -.110E+00
   0.480E-03 -.555E-01 0.966E+01   0.568E-13 0.161E-12 0.000E+00   0.504E-12 0.768E-01 -.122E+02   -.180E-01 -.237E-01 0.258E+01

 POSITION                                       TOTAL-FORCE (eV/Angst)
      0.00000      0.00000      5.28219        -0.000000     -0.001898      0.065079
      2.93046      0.00000      5.28219         0.008719      0.021081      0.046553
      5.86091      0.00000      5.28219        -0.008719      0.021081      0.046553
      1.46523      2.53785      5.28219         0.019642     -0.005781      0.044832
      4.39568      2.53785      5.28219        -0.000000     -0.000306      0.014219
      7.32614      2.53785      5.28219        -0.019642     -0.005781      0.044832
      2.93046      5.07570      5.28219         0.019808     -0.014418      0.044426
      5.86091      5.07570      5.28219        -0.019808     -0.014418      0.044426
      8.79137      5.07570      5.28219         0.000000      0.000543      0.057829
      1.46523      0.84595      7.67490         0.023651      0.015176      0.000365
      4.39568      0.84595      7.67490        -0.000000     -0.052034     -0.121496
      7.32614      0.84595      7.67490        -0.023651      0.015176      0.000365
      2.93046      3.38380      7.67490        -0.044267      0.027831     -0.114321
      5.86091      3.38380      7.67490         0.044267      0.027831     -0.114321
      8.79137      3.38380      7.67490        -0.000000     -0.018741     -0.000430
      4.39568      5.92165      7.67490        -0.000000     -0.037408      0.007264
      7.32614      5.92165      7.67490        -0.020713      0.009605      0.008681
     10.25659      5.92165      7.67490         0.020713      0.009605      0.008681
      8.79137      1.70006     10.06849        -0.000000     -0.013637      0.000785
      2.92657      1.68966     10.02287         0.035297      0.014002     -0.058372
      5.86479      1.68966     10.02287        -0.035297      0.014002     -0.058372
     10.25237      4.23218     10.05185         0.016321     -0.006394      0.002784
      4.39568      4.23423     10.02287        -0.000000     -0.059039     -0.056901
      7.33036      4.23218     10.05185        -0.016321     -0.006394      0.002784
     11.71475      6.76352     10.06849         0.009299      0.004283     -0.021758
      5.86798      6.76352     10.06849        -0.009299      0.004283     -0.021758
      8.79137      6.76272     10.05185         0.000000      0.005904     -0.008420
      0.00000      0.00000     12.42216        -0.000000     -0.010331     -0.002964
      2.95716      0.04978     12.43839        -0.071988     -0.181015     -0.121869
      5.83420      0.04978     12.43839         0.071988     -0.181015     -0.121869
      1.52169      2.53609     12.43839        -0.214659      0.020267     -0.131129
      7.26967      2.53609     12.43839         0.214659      0.020267     -0.131129
      2.96021      5.02768     12.43839        -0.096268      0.163861     -0.115016
      5.83115      5.02768     12.43839         0.096268      0.163861     -0.115016
      8.79137      5.07570     12.41166         0.000000      0.007978     -0.002006
      4.39568      2.53785     12.21369         0.000000      0.052473      0.917174
      3.82454      2.52920     14.54181        -0.020247     -0.005251     -0.020243
      4.96682      2.52920     14.54181         0.020247     -0.005251     -0.020243
    total drift:                               -0.017471     -0.002445      0.079153

  FREE ENERGIE OF THE ION-ELECTRON SYSTEM (eV)
  free  energy   TOTEN  =      -112.52810919 eV

  energy  without entropy=     -112.52810919  energy(sigma->0) =     -112.52810919

 stress matrix after NEB project (eV)
     -7.49288     -0.00000      0.00000
     -0.00000     -7.57504      0.09418
      0.00000      0.09418     -0.63961
  FORCES: max atom, RMS     0.029108    0.006678
  FORCE total and by dimension    0.041164    0.020247
  Stress total and by dimension   10.674798    7.575037
|           W    W    AA    RRRRR   N    N  II  N    N   GGGG   !!!           |
|           W    W   A  A   R    R  NN   N  II  NN   N  G    G  !!!           |
|           W    W  A    A  R    R  N N  N  II  N N  N  G       !!!           |
|           W WW W  AAAAAA  RRRRR   N  N N  II  N  N N  G  GGG   !            |
|           WW  WW  A    A  R   R   N   NN  II  N   NN  G    G                |
|           W    W  A    A  R    R  N    N  II  N    N   GGGG   !!!           |
|     Tetrahedron method does not include variations of the Fermi             |
|     occupations, so forces and stress will be inaccurate. We suggest        |
|     using a different smearing scheme ISMEAR = 1 or 2 for metals in         |
|     relaxations.                                                            |

 total charge

# of ion       s       p       d       tot
    1        0.414   0.204   9.177   9.795
    2        0.420   0.203   9.177   9.799
    3        0.420   0.203   9.177   9.799
    4        0.419   0.203   9.177   9.799
    5        0.415   0.205   9.177   9.797
    6        0.419   0.203   9.177   9.799
    7        0.420   0.203   9.177   9.800
    8        0.420   0.203   9.177   9.800
    9        0.414   0.203   9.179   9.796
   10        0.406   0.270   9.162   9.838
   11        0.411   0.267   9.168   9.845
   12        0.406   0.270   9.162   9.838
   13        0.410   0.267   9.168   9.845
   14        0.410   0.267   9.168   9.845
   15        0.400   0.270   9.166   9.836
   16        0.405   0.270   9.163   9.839
   17        0.400   0.271   9.166   9.836
   18        0.400   0.271   9.166   9.836
   19        0.402   0.267   9.167   9.836
   20        0.416   0.298   9.152   9.865
   21        0.416   0.298   9.152   9.865
   22        0.397   0.274   9.168   9.838
   23        0.414   0.300   9.150   9.865
   24        0.397   0.274   9.168   9.838
   25        0.405   0.266   9.166   9.837
   26        0.405   0.266   9.166   9.837
   27        0.397   0.273   9.169   9.838
   28        0.416   0.196   9.182   9.794
   29        0.415   0.213   9.177   9.805
   30        0.415   0.213   9.177   9.805
   31        0.408   0.213   9.179   9.801
   32        0.408   0.213   9.179   9.801
   33        0.414   0.213   9.178   9.805
   34        0.414   0.213   9.178   9.805
   35        0.410   0.199   9.183   9.791
   36        0.544   0.345   7.089   7.978
   37        1.358   2.447   0.000   3.805
   38        1.358   2.447   0.000   3.805
tot         17.614  13.680 328.066 359.359

 BZINTS: Fermi energy:    0.954330;  404.000000 electrons
         Band energy:-0.130072E+04;  BLOECHL correction:   -0.051884