 vasp.6.2.0 18Jan21 (build Jun 12 2021 23:27:24) complex

 executed on             LinuxIFC date 2022.05.26  20:09:43

 INCAR:
   ISMEAR = -5
   SIGMA = 0.1
   ISPIN = 1
   EDIFF = 1.d-5
   EDIFFG = -0.01
   NSW = 0
   NELM = 150
   ENCUT = 500
   ISIF = 2
   IBRION = 2
   LREAL = Auto
   ALGO = Fast
   ICHARG = 11
   LORBIT = 10
   LCHARG = .F.
   LWAVE = .F.

 POTCAR:    PAW_PBE Cu 22Jun2005
 POTCAR:    PAW_PBE Ir 06Sep2000
 POTCAR:    PAW_PBE H 15Jun2001
|           W    W    AA    RRRRR   N    N  II  N    N   GGGG   !!!           |
|           W    W   A  A   R    R  NN   N  II  NN   N  G    G  !!!           |
|           W    W  A    A  R    R  N N  N  II  N N  N  G       !!!           |
|           W WW W  AAAAAA  RRRRR   N  N N  II  N  N N  G  GGG   !            |
|           WW  WW  A    A  R   R   N   NN  II  N   NN  G    G                |
|           W    W  A    A  R    R  N    N  II  N    N   GGGG   !!!           |
|     For optimal performance we recommend to set                             |
|       NCORE = 2 up to number-of-cores-per-socket                            |
|     This setting can greatly improve the performance of VASP for DFT.       |
|     The default, NCORE=1 might be grossly inefficient on modern             |
|     multi-core architectures or massively parallel machines. Do your        |
|     Unfortunately you need to use the default for GW and RPA                |
|     calculations (for HF NCORE is supported but not extensively tested      |
|     yet).                                                                   |

 POTCAR:    PAW_PBE Cu 22Jun2005
   VRHFIN =Cu: d10 p1

   TITEL  = PAW_PBE Cu 22Jun2005
   POMASS =   63.546; ZVAL   =   11.000    mass and valenz
   ENMAX  =  295.446; ENMIN  =  221.585 eV

 POTCAR:    PAW_PBE Ir 06Sep2000
   VRHFIN =Ir: s1d8

   TITEL  = PAW_PBE Ir 06Sep2000
   POMASS =  192.220; ZVAL   =    9.000    mass and valenz
   ENMAX  =  210.864; ENMIN  =  158.148 eV

 POTCAR:    PAW_PBE H 15Jun2001
   VRHFIN =H: ultrasoft test

   TITEL  = PAW_PBE H 15Jun2001
   POMASS =    1.000; ZVAL   =    1.000    mass and valenz
   ENMAX  =  250.000; ENMIN  =  200.000 eV

 Optimization of the real space projectors (new method)

 maximal supplied QI-value         = 16.25
 optimisation between [QCUT,QGAM] = [ 11.38, 22.75] = [ 36.24,144.96] Ry
 Optimized for a Real-space Cutoff    1.52 Angstroem

   l    n(q)    QCUT    max X(q) W(low)/X(q) W(high)/X(q)  e(spline)
   2      9    11.376     4.610    0.21E-03    0.10E-03    0.26E-06
   2      9    11.376     8.522    0.33E-03    0.16E-03    0.37E-06
   0     10    11.376    51.609    0.62E-04    0.20E-04    0.13E-06
   0     10    11.376    27.747    0.54E-04    0.20E-04    0.13E-06
   1     10    11.376    20.408    0.13E-04    0.99E-04    0.19E-06
   1     10    11.376    13.425    0.12E-04    0.87E-04    0.17E-06
 Optimization of the real space projectors (new method)

[...]

   l    n(q)    QCUT    max X(q) W(low)/X(q) W(high)/X(q)  e(spline)
   2      9    11.346   134.116    0.47E-03    0.13E-03    0.92E-06
   2      9    11.346   130.192    0.47E-03    0.13E-03    0.92E-06
   0     10    11.346    60.310    0.74E-04    0.13E-03    0.69E-06
   0     10    11.346    39.218    0.68E-04    0.12E-03    0.65E-06
   1     10    11.346    18.439    0.15E-03    0.34E-04    0.20E-06
   1     10    11.346    12.760    0.12E-03    0.31E-04    0.16E-06
 Optimization of the real space projectors (new method)

 maximal supplied QI-value         = 34.20
 optimisation between [QCUT,QGAM] = [ 11.29, 22.57] = [ 35.68,142.71] Ry
 Optimized for a Real-space Cutoff    1.16 Angstroem

   l    n(q)    QCUT    max X(q) W(low)/X(q) W(high)/X(q)  e(spline)
   0      8    11.287    19.460    0.40E-03    0.73E-03    0.16E-06
   0      8    11.287    12.209    0.38E-03    0.70E-03    0.15E-06
   1      7    11.287     4.655    0.22E-03    0.25E-04    0.22E-06
  PAW_PBE Cu 22Jun2005                  :
  PAW_PBE Ir 06Sep2000                  :
  PAW_PBE H 15Jun2001                   :

 POSCAR: Cu-Ir-H
  positions in direct lattice
  velocities in cartesian coordinates
 exchange correlation table for  LEXCH =        8
   RHO(1)=    0.500       N(1)  =     2000
   RHO(2)=  100.500       N(2)  =     4000

 VTST: version 3.2, (02/03/18)

 CHAIN: initializing optimizer

 OPT: Using VASP Conjugate-Gradient optimizer
 CHAIN: Read ICHAIN            0

 POSCAR: Cu-Ir-H
  positions in direct lattice
  velocities in cartesian coordinates

 ion  position               nearest neighbor table
   1  0.000  0.000  0.252-   7 2.57   3 2.57   4 2.57   2 2.57   6 2.57   8 2.57  12 2.57  10 2.57
                            16 2.57
   2  0.333  0.000  0.252-   8 2.57   9 2.57   5 2.57   1 2.57   3 2.57  11 2.57   4 2.57  10 2.57
                            17 2.57
   3  0.667  0.000  0.252-   1 2.57   7 2.57   6 2.57   9 2.57   2 2.57  12 2.57   5 2.57  18 2.57
                            11 2.57
   4  0.000  0.333  0.252-   5 2.57   6 2.57   1 2.57   7 2.57   2 2.57  13 2.57   9 2.57  10 2.57
                            15 2.57
   5  0.333  0.333  0.252-   4 2.57   2 2.57   7 2.57  13 2.57   8 2.57   6 2.57   3 2.57  11 2.57
                            14 2.57
   6  0.667  0.333  0.252-   4 2.57   9 2.57  15 2.57   3 2.57   1 2.57   8 2.57  14 2.57   5 2.57
                            12 2.57
   7  0.000  0.667  0.252-   1 2.57   3 2.57  16 2.57  18 2.57   4 2.57   5 2.57   8 2.57   9 2.57
                            13 2.57
   8  0.333  0.667  0.252-   9 2.57   2 2.57  17 2.57   6 2.57   1 2.57   7 2.57   5 2.57  14 2.57
                            16 2.57
   9  0.667  0.667  0.252-   8 2.57   6 2.57   2 2.57  17 2.57   3 2.57   7 2.57   4 2.57  15 2.57
                            18 2.57
  10  0.111  0.111  0.351-  20 2.53  11 2.57  12 2.57  13 2.57   1 2.57   2 2.57   4 2.57  15 2.57
                            16 2.57  17 2.57  26 2.57  19 2.57
  11  0.444  0.111  0.351-  20 2.55  21 2.55  10 2.57  13 2.57   2 2.57  17 2.57  14 2.57  12 2.57
                             5 2.57   3 2.57  18 2.57  27 2.57
  12  0.778  0.111  0.351-  21 2.53  15 2.57  10 2.57  14 2.57  18 2.57   3 2.57   1 2.57  16 2.57
                            11 2.57   6 2.57  19 2.57  25 2.57
  13  0.111  0.444  0.351-  23 2.55  20 2.55  16 2.57  18 2.57  10 2.57  11 2.57  14 2.57   5 2.57
                             4 2.57   7 2.57  15 2.57  22 2.57
  14  0.444  0.444  0.351-  21 2.55  23 2.55  15 2.57  17 2.57  12 2.57  16 2.57  13 2.57  11 2.57
                             6 2.57   8 2.57   5 2.57  24 2.57
  15  0.778  0.444  0.351-  19 2.56  24 2.56  22 2.56  14 2.57  17 2.57  12 2.57   6 2.57  18 2.57
                            10 2.57   9 2.57  13 2.57   4 2.57
  16  0.111  0.778  0.351-  23 2.53  18 2.57  13 2.57   7 2.57  14 2.57  17 2.57  12 2.57  10 2.57
                             8 2.57   1 2.57  25 2.57  26 2.57
  17  0.444  0.778  0.351-  26 2.56  27 2.56  24 2.56  14 2.57  15 2.57   8 2.57   9 2.57  11 2.57
                            16 2.57  18 2.57  10 2.57   2 2.57
  18  0.778  0.778  0.351-  25 2.56  22 2.56  27 2.56  16 2.57  13 2.57   7 2.57  15 2.57  12 2.57
                            17 2.57   9 2.57   3 2.57  11 2.57
  19  0.888  0.223  0.449-  28 2.55  21 2.55  20 2.55  22 2.56  24 2.56  15 2.56  32 2.56  31 2.56
                            12 2.57  10 2.57  25 2.58  26 2.58
  20  0.221  0.221  0.448-  10 2.53  11 2.55  13 2.55  26 2.55  19 2.55  36 2.55  27 2.57  22 2.57
                            29 2.59  31 2.59  23 2.59  21 2.59
  21  0.558  0.221  0.448-  12 2.53  14 2.55  11 2.55  19 2.55  25 2.55  36 2.55  24 2.57  27 2.57
                            32 2.59  30 2.59  20 2.59  23 2.59
  22  0.888  0.556  0.449-  35 2.54  24 2.56  27 2.56  19 2.56  25 2.56  18 2.56  15 2.56  13 2.57
                            23 2.57  20 2.57  31 2.57  33 2.57
  23  0.221  0.558  0.448-  16 2.53  13 2.55  14 2.55  25 2.55  26 2.55  36 2.55  22 2.57  24 2.57
                            33 2.59  34 2.59  20 2.59  21 2.59
  24  0.556  0.556  0.449-  35 2.54  22 2.56  27 2.56  19 2.56  26 2.56  15 2.56  17 2.56  14 2.57
                            21 2.57  23 2.57  32 2.57  34 2.57
  25  0.888  0.888  0.449-  28 2.55  21 2.55  23 2.55  22 2.56  27 2.56  18 2.56  33 2.56  30 2.56
                            16 2.57  12 2.57  19 2.58  26 2.58
  26  0.223  0.888  0.449-  28 2.55  20 2.55  23 2.55  27 2.56  24 2.56  17 2.56  29 2.56  34 2.56
                            10 2.57  16 2.57  25 2.58  19 2.58
  27  0.556  0.888  0.449-  35 2.54  24 2.56  22 2.56  26 2.56  25 2.56  17 2.56  18 2.56  11 2.57
                            20 2.57  21 2.57  29 2.57  30 2.57
  28  0.000  0.000  0.546-  25 2.55  19 2.55  26 2.55  33 2.56  30 2.56  31 2.56  29 2.56  32 2.56
                            34 2.56
  29  0.333  0.999  0.548-  34 2.55  28 2.56  26 2.56  35 2.57  31 2.57  27 2.57  36 2.57  30 2.58
                            20 2.59
  30  0.668  0.999  0.548-  33 2.55  28 2.56  25 2.56  35 2.57  32 2.57  27 2.57  36 2.57  29 2.58
                            21 2.59
  31  0.999  0.333  0.548-  32 2.55  28 2.56  19 2.56  35 2.57  29 2.57  22 2.57  36 2.57  33 2.58
                            20 2.59
  32  0.668  0.333  0.548-  31 2.55  28 2.56  19 2.56  35 2.57  30 2.57  24 2.57  36 2.57  34 2.58
                            21 2.59
  33  0.999  0.668  0.548-  30 2.55  28 2.56  25 2.56  35 2.57  34 2.57  22 2.57  36 2.57  31 2.58
                            23 2.59
  34  0.333  0.668  0.548-  29 2.55  28 2.56  26 2.56  35 2.57  33 2.57  24 2.57  36 2.57  32 2.58
                            23 2.59
  35  0.667  0.667  0.546-  24 2.54  27 2.54  22 2.54  34 2.57  32 2.57  29 2.57  30 2.57  33 2.57
                            31 2.57
  36  0.333  0.333  0.545-  37 1.61  23 2.55  20 2.55  21 2.55  31 2.57  29 2.57  33 2.57  34 2.57
                            32 2.57  30 2.57
  37  0.333  0.333  0.621-  36 1.61

  LATTYP: Found a hexagonal cell.
 ALAT       =     7.6967864036
 C/A-ratio  =     2.7653617908

  Lattice vectors:

 A1 = (  -3.8483927580,  -6.6656128093,   0.0000000000)
 A2 = (   7.6967864037,   0.0000000000,   0.0000000000)
 A3 = (   0.0000000000,   0.0000000000,  21.2843990326)

Analysis of symmetry for initial positions (statically):
 Subroutine PRICEL returns:
 Original cell was already a primitive cell.

 Routine SETGRP: Setting up the symmetry group for a
 hexagonal supercell.

 Subroutine GETGRP returns: Found  6 space group operations
 (whereof  6 operations were pure point group operations)
 out of a pool of 24 trial point group operations.

The static configuration has the point symmetry C_3v.

Analysis of symmetry for dynamics (positions and initial velocities):
 Subroutine PRICEL returns:
 Original cell was already a primitive cell.

[...]

The dynamic configuration has the point symmetry C_3v.

Analysis of constrained symmetry for selective dynamics:
 Subroutine PRICEL returns:
 Original cell was already a primitive cell.

 Routine SETGRP: Setting up the symmetry group for a
 hexagonal supercell.

 Subroutine GETGRP returns: Found  6 space group operations
 (whereof  6 operations were pure point group operations)
[...]
     24      -4.2277      2.00000
     25      -4.1770      2.00000
     26      -4.1411      2.00000
     27      -4.1058      2.00000
     28      -4.0899      2.00000
     29      -4.0489      2.00000
     30      -4.0388      2.00000
     31      -4.0302      2.00000
     32      -4.0229      2.00000
     33      -4.0016      2.00000
     34      -3.9730      2.00000
     35      -3.9165      2.00000
     36      -3.9071      2.00000
     37      -3.8432      2.00000
     38      -3.7180      2.00000
     39      -3.6982      2.00000
     40      -3.6707      2.00000
     41      -3.6438      2.00000
     42      -3.6306      2.00000
     43      -3.6160      2.00000
     44      -3.5994      2.00000
     45      -3.5925      2.00000
     46      -3.5269      2.00000
     47      -3.3959      2.00000
     48      -3.3812      2.00000
     49      -3.3695      2.00000
     50      -3.3428      2.00000
     51      -3.3162      2.00000
     52      -3.3031      2.00000
     53      -3.2967      2.00000
     54      -3.2862      2.00000
     55      -3.2690      2.00000
     56      -3.2530      2.00000
     57      -3.2413      2.00000
     58      -3.2327      2.00000
     59      -3.2230      2.00000
     60      -3.2183      2.00000
[...]
    238       6.8957      0.00000
    239       6.9132      0.00000
    240       7.0500      0.00000
    241       7.0925      0.00000
    242       7.2724      0.00000
    243       7.3238      0.00000
    244       7.3624      0.00000
    245       7.4492      0.00000
    246       7.5044      0.00000
    247       7.6784      0.00000
    248       7.8386      0.00000
    249       7.9905      0.00000
    250       8.1550      0.00000
    251       8.2150      0.00000
    252       8.4726      0.00000

 soft charge-density along one line, spin component           1
         0         1         2         3         4         5         6         7         8         9
 total charge-density along one line

------------------------ aborting loop because EDIFF is reached ----------------------------------------

 total charge

# of ion       s       p       d       tot
    1        0.449   0.283   9.189   9.921
    2        0.449   0.285   9.186   9.920
    3        0.449   0.285   9.186   9.920
    4        0.449   0.285   9.186   9.920
    5        0.449   0.287   9.179   9.915
    6        0.449   0.285   9.186   9.920
    7        0.449   0.285   9.186   9.920
    8        0.449   0.285   9.186   9.920
    9        0.447   0.282   9.191   9.921
   10        0.441   0.373   9.174   9.988
   11        0.445   0.366   9.184   9.995
   12        0.441   0.373   9.174   9.988
   13        0.445   0.366   9.184   9.995
   14        0.445   0.366   9.184   9.995
   15        0.437   0.370   9.178   9.985
   16        0.441   0.373   9.174   9.988
   17        0.437   0.370   9.178   9.985
   18        0.437   0.370   9.178   9.985
   19        0.441   0.371   9.181   9.993
   20        0.455   0.387   9.175  10.017
   21        0.455   0.387   9.175  10.017
   22        0.432   0.372   9.183   9.987
   23        0.455   0.387   9.175  10.017
   24        0.432   0.372   9.183   9.987
   25        0.441   0.371   9.181   9.993
   26        0.441   0.371   9.181   9.993
   27        0.432   0.372   9.183   9.987
   28        0.449   0.288   9.195   9.932
   29        0.450   0.304   9.180   9.935
   30        0.450   0.304   9.180   9.935
   31        0.450   0.304   9.180   9.935
   32        0.450   0.304   9.180   9.935
   33        0.450   0.304   9.180   9.935
   34        0.450   0.304   9.180   9.935
   35        0.443   0.292   9.193   9.928
   36        0.713   0.569   7.135   8.417
   37        0.515   0.022   0.000   0.537
tot         16.815  12.271 328.503 357.589

  FORCE on cell =-STRESS in cart. coord.  units (eV):
  Direction    XX          YY          ZZ          XY          YZ          ZX
  Alpha Z   888.44163   888.44163   888.44163
  Ewald  173439.19909173439.19868************     0.00038     0.00011     0.00016
  Hartree186357.99594186357.99592************     0.00003     0.00005     0.00006
  E(xc)   -2291.01780 -2291.01730 -2295.76988    -0.00043    -0.00003    -0.00006
  Local  ************************373232.14217     0.01844    -0.00055    -0.00090
  n-local  -776.40413  -759.03128  -780.18841     9.30895    -0.13139     0.34044
  augment  3346.09499  3346.11525  3365.81226    -0.01754     0.00023     0.00041
  Kinetic  3252.02279  3258.58933  3279.43851     4.50201     1.61781    -1.25432
  Fock        0.00000     0.00000     0.00000     0.00000     0.00000     0.00000
  Total      -5.71526    -5.71526     2.03515     0.00000    -0.00000     0.00000
  in kB      -8.38564    -8.38564     2.98604     0.00000    -0.00000     0.00000

 VOLUME and BASIS-vectors are now :
  energy-cutoff  :      500.00
  volume of cell :     1091.97
      direct lattice vectors                 reciprocal lattice vectors
     7.696786404  0.000000000  0.000000000     0.129924354 -0.075011849  0.000000000
     3.848392758  6.665612809  0.000000000     0.000000000  0.150023716  0.000000000
     0.000000000  0.000000000 21.284399033     0.000000000  0.000000000  0.046982769

  length of vectors
     7.696786404  7.696786404 21.284399033     0.150023716  0.150023716  0.046982769

 FORCES acting on ions
    electron-ion (+dipol)            ewald-force                    non-local-force                 convergence-correction
   -.416E-04 0.175E-06 0.347E+04   0.580E-04 -.436E-05 -.347E+04   0.414E-18 0.128E-17 -.289E+01   -.335E-03 -.161E-03 -.360E+00
   -.163E+00 -.264E-01 0.347E+04   0.574E-01 0.726E-02 -.347E+04   0.940E-01 0.779E-01 -.185E+01   0.240E-01 -.339E-01 -.346E+00
   0.163E+00 -.264E-01 0.347E+04   -.575E-01 0.722E-02 -.347E+04   -.940E-01 0.779E-01 -.185E+01   -.232E-01 -.313E-01 -.345E+00
   -.105E+00 -.128E+00 0.347E+04   0.349E-01 0.461E-01 -.347E+04   0.114E+00 0.425E-01 -.185E+01   -.173E-01 0.377E-01 -.346E+00
   -.612E-04 -.317E-05 0.347E+04   0.116E-03 -.101E-04 -.347E+04   -.872E-17 -.352E-17 -.144E+01   0.122E-01 0.749E-02 -.242E+00
   0.105E+00 -.128E+00 0.347E+04   -.350E-01 0.460E-01 -.347E+04   -.114E+00 0.425E-01 -.185E+01   0.156E-01 0.390E-01 -.344E+00
   0.589E-01 0.155E+00 0.347E+04   -.225E-01 -.533E-01 -.347E+04   0.204E-01 -.120E+00 -.185E+01   -.387E-01 -.448E-02 -.345E+00
   -.588E-01 0.155E+00 0.347E+04   0.222E-01 -.533E-01 -.347E+04   -.204E-01 -.120E+00 -.185E+01   0.422E-01 -.598E-02 -.344E+00
   -.144E-03 -.330E-04 0.347E+04   0.263E-03 0.206E-04 -.347E+04   -.419E-18 -.107E-17 -.247E+01   -.133E-01 -.685E-02 -.382E+00
   0.270E+01 0.156E+01 0.116E+04   -.227E+01 -.131E+01 -.115E+04   -.463E+00 -.267E+00 -.117E+01   0.190E-01 0.109E-01 -.427E+00
   -.915E-04 -.867E+00 0.115E+04   0.190E-03 0.464E+00 -.115E+04   -.201E-07 0.302E+00 -.406E+00   0.118E-01 0.654E-01 -.374E+00
   -.270E+01 0.156E+01 0.116E+04   0.227E+01 -.131E+01 -.115E+04   0.463E+00 -.267E+00 -.117E+01   -.210E-01 0.130E-01 -.426E+00
   -.751E+00 0.434E+00 0.115E+04   0.402E+00 -.232E+00 -.115E+04   0.262E+00 -.151E+00 -.406E+00   0.630E-01 -.217E-01 -.374E+00
   0.751E+00 0.434E+00 0.115E+04   -.402E+00 -.232E+00 -.115E+04   -.262E+00 -.151E+00 -.406E+00   -.386E-01 -.226E-01 -.374E+00
   -.143E-03 0.421E-01 0.115E+04   0.298E-03 -.325E+00 -.115E+04   -.121E-07 0.182E+00 -.100E+01   -.407E-02 0.788E-01 -.415E+00
   -.920E-04 -.311E+01 0.116E+04   0.186E-03 0.263E+01 -.115E+04   -.356E-07 0.534E+00 -.117E+01   -.148E-03 -.259E-01 -.426E+00
   0.364E-01 -.212E-01 0.115E+04   -.281E+00 0.163E+00 -.115E+04   0.157E+00 -.909E-01 -.100E+01   0.669E-01 -.430E-01 -.415E+00
   -.364E-01 -.211E-01 0.115E+04   0.281E+00 0.162E+00 -.115E+04   -.157E+00 -.909E-01 -.100E+01   -.662E-01 -.399E-01 -.414E+00
   -.555E-04 -.143E-01 -.118E+04   0.695E-04 0.130E-01 0.118E+04   0.300E-08 -.450E-01 0.832E+00   -.251E-02 0.343E-01 -.393E+00
   -.265E+02 -.153E+02 -.119E+04   0.275E+02 0.159E+02 0.119E+04   -.116E+01 -.671E+00 -.747E+00   0.257E-01 0.147E-01 -.304E+00
   0.265E+02 -.153E+02 -.119E+04   -.275E+02 0.159E+02 0.119E+04   0.116E+01 -.671E+00 -.747E+00   -.165E-02 0.162E-01 -.304E+00
   -.188E+02 0.109E+02 -.119E+04   0.181E+02 -.105E+02 0.119E+04   0.628E+00 -.362E+00 0.795E+00   0.676E-01 -.401E-01 -.391E+00
   -.866E-04 0.305E+02 -.119E+04   0.146E-03 -.318E+02 0.119E+04   -.894E-07 0.134E+01 -.747E+00   0.120E-01 -.107E-01 -.305E+00
   0.188E+02 0.109E+02 -.119E+04   -.181E+02 -.105E+02 0.119E+04   -.628E+00 -.362E+00 0.795E+00   -.702E-01 -.414E-01 -.391E+00
   0.125E-01 0.721E-02 -.118E+04   -.114E-01 -.662E-02 0.118E+04   0.390E-01 0.225E-01 0.832E+00   -.282E-01 -.162E-01 -.394E+00
   -.123E-01 0.722E-02 -.118E+04   0.112E-01 -.665E-02 0.118E+04   -.390E-01 0.225E-01 0.832E+00   0.288E-01 -.191E-01 -.393E+00
   -.119E-03 -.217E+02 -.119E+04   0.243E-03 0.210E+02 0.119E+04   -.483E-07 0.725E+00 0.795E+00   -.996E-03 0.785E-01 -.391E+00
   -.446E-04 0.122E-04 -.346E+04   0.414E-04 -.326E-04 0.346E+04   -.792E-17 0.347E-17 0.239E+01   -.265E-03 -.100E-03 0.372E+00
   -.234E+02 -.352E+02 -.348E+04   0.237E+02 0.353E+02 0.348E+04   -.286E+00 -.150E+00 0.182E+01   0.236E-01 0.707E-01 0.276E+00
   0.234E+02 -.352E+02 -.348E+04   -.237E+02 0.353E+02 0.348E+04   0.286E+00 -.150E+00 0.182E+01   -.226E-01 0.730E-01 0.276E+00
   -.422E+02 -.264E+01 -.348E+04   0.424E+02 0.284E+01 0.348E+04   -.273E+00 -.173E+00 0.182E+01   0.731E-01 -.149E-01 0.276E+00
   0.422E+02 -.264E+01 -.348E+04   -.424E+02 0.284E+01 0.348E+04   0.273E+00 -.173E+00 0.182E+01   -.744E-01 -.140E-01 0.275E+00
   -.188E+02 0.379E+02 -.348E+04   0.187E+02 -.381E+02 0.348E+04   0.134E-01 0.323E+00 0.182E+01   0.519E-01 -.561E-01 0.276E+00
   0.188E+02 0.379E+02 -.348E+04   -.187E+02 -.381E+02 0.348E+04   -.134E-01 0.323E+00 0.182E+01   -.486E-01 -.575E-01 0.275E+00
   -.156E-03 -.318E-04 -.347E+04   0.252E-03 0.328E-05 0.346E+04   0.458E-18 0.548E-18 0.271E+01   -.133E-01 -.684E-02 0.306E+00
   -.517E-04 -.233E-04 -.276E+04   0.113E-03 0.218E-04 0.276E+04   0.387E-18 -.361E-18 -.330E+01   0.216E-02 0.129E-02 0.481E-01
   0.430E-05 -.534E-05 -.385E+03   0.365E-05 0.155E-05 0.387E+03   0.148E-18 0.126E-18 -.270E+01   0.111E-03 0.654E-04 0.202E-01
   -.193E-03 0.220E-04 0.206E+02   0.196E-13 0.401E-12 -.819E-11   0.114E-15 0.222E-15 -.130E+02   0.544E-01 0.283E-01 -.756E+01

 POSITION                                       TOTAL-FORCE (eV/Angst)
      0.00000      0.00000      5.37156         0.000000      0.000000     -0.010325
      2.56560      0.00000      5.37156         0.012455      0.025883      0.066119
      5.13119      0.00000      5.37156        -0.012455      0.025883      0.066119
      1.28280      2.22187      5.37156         0.028643     -0.002156      0.066119
      3.84839      2.22187      5.37156         0.000000      0.000000      0.026371
      6.41399      2.22187      5.37156        -0.028643     -0.002156      0.066119
      2.56560      4.44374      5.37156         0.016188     -0.023728      0.066119
      5.13119      4.44374      5.37156        -0.016188     -0.023728      0.066119
      7.69679      4.44374      5.37156         0.000000      0.000000      0.018404
      1.28280      0.74062      7.46636        -0.021120     -0.012194     -0.058306
      3.84839      0.74062      7.46636         0.000000     -0.042352     -0.058105
      6.41399      0.74062      7.46636         0.021120     -0.012194     -0.058306
      2.56560      2.96249      7.46636        -0.036678      0.021176     -0.058105
      5.13119      2.96249      7.46636         0.036678      0.021176     -0.058105
      7.69679      2.96249      7.46636         0.000000     -0.022214     -0.019636
      3.84839      5.18437      7.46636        -0.000000      0.024387     -0.058306
      6.41399      5.18437      7.46636        -0.019238      0.011107     -0.019636
      8.97958      5.18437      7.46636         0.019238      0.011107     -0.019636
      7.69679      1.48769      9.56171         0.000000     -0.012530      0.009406
      2.55203      1.47342      9.53141        -0.061966     -0.035776     -0.219533
      5.14476      1.47342      9.53141         0.061966     -0.035776     -0.219533
      8.97489      3.70583      9.56026         0.040865     -0.023593     -0.011264
      3.84839      3.71878      9.53141        -0.000000      0.071553     -0.219533
      6.41868      3.70583      9.56026        -0.040865     -0.023593     -0.011264
     10.25680      5.92177      9.56171         0.010851      0.006265      0.009406
      5.13677      5.92177      9.56171        -0.010851      0.006265      0.009406
      7.69679      5.91957      9.56026        -0.000000      0.047187     -0.011264
      0.00000      0.00000     11.63002         0.000000      0.000000     -0.002845
      6.40663      6.66047     11.66109         0.006164     -0.015349      0.026274
      8.98694      6.66047     11.66109        -0.006164     -0.015349      0.026274
      8.97145      2.21807     11.66109        -0.010211      0.013012      0.026274
      6.42212      2.21807     11.66109         0.010211      0.013012      0.026274
     10.26160      4.45269     11.66109        -0.016374      0.002337      0.026274
      5.13197      4.45269     11.66109         0.016374      0.002337      0.026274
      7.69679      4.44374     11.62915         0.000000      0.000000     -0.003581
      3.84839      2.22187     11.60012         0.000000      0.000000      0.487435
      3.84839      2.22187     13.20796         0.000000      0.000000      0.002500
    total drift:                                0.054199      0.028348      0.017206

  FREE ENERGIE OF THE ION-ELECTRON SYSTEM (eV)
  free  energy   TOTEN  =      -134.40768328 eV

  energy  without entropy=     -134.40768328  energy(sigma->0) =     -134.40768328

 stress matrix after NEB project (eV)
     -5.71526      0.00000      0.00000
      0.00000     -5.71526      0.00000
      0.00000     -0.00000      2.03515
  FORCES: max atom, RMS     0.002500    0.000411
  FORCE total and by dimension    0.002500    0.002500
  Stress total and by dimension    8.334885    5.715265
|           W    W    AA    RRRRR   N    N  II  N    N   GGGG   !!!           |
|           W    W   A  A   R    R  NN   N  II  NN   N  G    G  !!!           |
|           W    W  A    A  R    R  N N  N  II  N N  N  G       !!!           |
|           W WW W  AAAAAA  RRRRR   N  N N  II  N  N N  G  GGG   !            |
|           WW  WW  A    A  R   R   N   NN  II  N   NN  G    G                |
|           W    W  A    A  R    R  N    N  II  N    N   GGGG   !!!           |
|     Tetrahedron method does not include variations of the Fermi             |
|     occupations, so forces and stress will be inaccurate. We suggest        |
|     using a different smearing scheme ISMEAR = 1 or 2 for metals in         |
|     relaxations.                                                            |

 total charge

# of ion       s       p       d       tot
    1        0.449   0.283   9.189   9.921
    2        0.449   0.285   9.186   9.920
    3        0.449   0.285   9.186   9.920
    4        0.449   0.285   9.186   9.920
    5        0.449   0.287   9.179   9.915
    6        0.449   0.285   9.186   9.920
    7        0.449   0.285   9.186   9.920
    8        0.449   0.285   9.186   9.920
    9        0.447   0.282   9.191   9.921
   10        0.441   0.373   9.174   9.988
   11        0.445   0.366   9.184   9.995
   12        0.441   0.373   9.174   9.988
   13        0.445   0.366   9.184   9.995
   14        0.445   0.366   9.184   9.995
   15        0.437   0.370   9.178   9.985
   16        0.441   0.373   9.174   9.988
   17        0.437   0.370   9.178   9.985
   18        0.437   0.370   9.178   9.985
   19        0.441   0.371   9.181   9.993
   20        0.455   0.387   9.175  10.017
   21        0.455   0.387   9.175  10.017
   22        0.432   0.372   9.183   9.987
   23        0.455   0.387   9.175  10.017
   24        0.432   0.372   9.183   9.987
   25        0.441   0.371   9.181   9.993
   26        0.441   0.371   9.181   9.993
   27        0.432   0.372   9.183   9.987
   28        0.449   0.288   9.195   9.932
   29        0.450   0.304   9.180   9.935
   30        0.450   0.304   9.180   9.935
   31        0.450   0.304   9.180   9.935
   32        0.450   0.304   9.180   9.935
   33        0.450   0.304   9.180   9.935
   34        0.450   0.304   9.180   9.935
   35        0.443   0.292   9.193   9.928
   36        0.713   0.569   7.135   8.417
   37        0.515   0.022   0.000   0.537
tot         16.815  12.271 328.503 357.589

 BZINTS: Fermi energy:    0.039766;  395.000000 electrons
         Band energy:-0.108311E+04;  BLOECHL correction:   -0.061826