 vasp.6.2.0 18Jan21 (build Jun 12 2021 23:27:24) complex

 executed on             LinuxIFC date 2022.05.26  19:17:31

 INCAR:
   ISMEAR = -5
   SIGMA = 0.1
   ISPIN = 1
   EDIFF = 1.d-5
   EDIFFG = -0.01
   NSW = 0
   NELM = 150
   ENCUT = 500
   ISIF = 2
   IBRION = 2
   LREAL = Auto
   ALGO = Fast
   ICHARG = 11
   LORBIT = 10
   LCHARG = .F.
   LWAVE = .F.

 POTCAR:    PAW_PBE Au 04Oct2007
 POTCAR:    PAW_PBE V 08Apr2002
 POTCAR:    PAW_PBE H 15Jun2001
|           W    W    AA    RRRRR   N    N  II  N    N   GGGG   !!!           |
|           W    W   A  A   R    R  NN   N  II  NN   N  G    G  !!!           |
|           W    W  A    A  R    R  N N  N  II  N N  N  G       !!!           |
|           W WW W  AAAAAA  RRRRR   N  N N  II  N  N N  G  GGG   !            |
|           WW  WW  A    A  R   R   N   NN  II  N   NN  G    G                |
|           W    W  A    A  R    R  N    N  II  N    N   GGGG   !!!           |
|     For optimal performance we recommend to set                             |
|       NCORE = 2 up to number-of-cores-per-socket                            |
|     This setting can greatly improve the performance of VASP for DFT.       |
|     The default, NCORE=1 might be grossly inefficient on modern             |
|     multi-core architectures or massively parallel machines. Do your        |
|     Unfortunately you need to use the default for GW and RPA                |
|     calculations (for HF NCORE is supported but not extensively tested      |
|     yet).                                                                   |

 POTCAR:    PAW_PBE Au 04Oct2007
   VRHFIN =Au: s1d10

   TITEL  = PAW_PBE Au 04Oct2007
   POMASS =  196.966; ZVAL   =   11.000    mass and valenz
   ENMAX  =  229.943; ENMIN  =  172.457 eV

 POTCAR:    PAW_PBE V 08Apr2002
   VRHFIN =V: p6 d4 s1

   TITEL  = PAW_PBE V 08Apr2002
   POMASS =   50.941; ZVAL   =    5.000    mass and valenz
   ENMAX  =  192.543; ENMIN  =  144.408 eV

 POTCAR:    PAW_PBE H 15Jun2001
   VRHFIN =H: ultrasoft test

   TITEL  = PAW_PBE H 15Jun2001
   POMASS =    1.000; ZVAL   =    1.000    mass and valenz
   ENMAX  =  250.000; ENMIN  =  200.000 eV

 Optimization of the real space projectors (new method)

 maximal supplied QI-value         = 15.12
 optimisation between [QCUT,QGAM] = [ 11.34, 22.83] = [ 36.00,145.93] Ry
 Optimized for a Real-space Cutoff    1.39 Angstroem

   l    n(q)    QCUT    max X(q) W(low)/X(q) W(high)/X(q)  e(spline)
   2      9    11.338    60.898    0.39E-03    0.42E-03    0.21E-06
   2      9    11.338    58.894    0.40E-03    0.42E-03    0.22E-06
   0      9    11.338   109.617    0.13E-03    0.20E-04    0.13E-06
   0      9    11.338    75.026    0.13E-03    0.20E-04    0.13E-06
   1      9    11.338    16.344    0.33E-04    0.24E-03    0.18E-06
   1      9    11.338    10.160    0.26E-04    0.19E-03    0.15E-06
 Optimization of the real space projectors (new method)

[...]

   l    n(q)    QCUT    max X(q) W(low)/X(q) W(high)/X(q)  e(spline)
   2     10    11.327    96.114    0.36E-03    0.35E-03    0.42E-06
   2     10    11.327    88.986    0.37E-03    0.35E-03    0.42E-06
   0     11    11.327    20.919    0.40E-04    0.56E-04    0.79E-06
   0     11    11.327     9.593    0.30E-04    0.41E-04    0.60E-06
   1     10    11.327    11.615    0.15E-03    0.10E-03    0.19E-06
   1     10    11.327     7.031    0.11E-03    0.73E-04    0.14E-06
 Optimization of the real space projectors (new method)

 maximal supplied QI-value         = 34.20
 optimisation between [QCUT,QGAM] = [ 11.29, 22.57] = [ 35.68,142.71] Ry
 Optimized for a Real-space Cutoff    1.16 Angstroem

   l    n(q)    QCUT    max X(q) W(low)/X(q) W(high)/X(q)  e(spline)
   0      8    11.287    19.460    0.40E-03    0.73E-03    0.16E-06
   0      8    11.287    12.209    0.38E-03    0.70E-03    0.15E-06
   1      7    11.287     4.655    0.22E-03    0.25E-04    0.22E-06
  PAW_PBE Au 04Oct2007                  :
  PAW_PBE V 08Apr2002                   :
  PAW_PBE H 15Jun2001                   :

 POSCAR: Au-V-H
  positions in direct lattice
  velocities in cartesian coordinates
 exchange correlation table for  LEXCH =        8
   RHO(1)=    0.500       N(1)  =     2000
   RHO(2)=  100.500       N(2)  =     4000

 VTST: version 3.2, (02/03/18)

 CHAIN: initializing optimizer

 OPT: Using VASP Conjugate-Gradient optimizer
 CHAIN: Read ICHAIN            0

 POSCAR: Au-V-H
  positions in direct lattice
  velocities in cartesian coordinates

 ion  position               nearest neighbor table
   1  0.000  0.000  0.238-  16 2.94  12 2.94   6 2.94   8 2.94   7 2.94   3 2.94  10 2.94   4 2.94
                             2 2.94
   2  0.333  0.000  0.238-   9 2.94  11 2.94  17 2.94  10 2.94   8 2.94   4 2.94   5 2.94   1 2.94
                             3 2.94
   3  0.667  0.000  0.238-   7 2.94  18 2.94  12 2.94   1 2.94  11 2.94   5 2.94   6 2.94   9 2.94
                             2 2.94
   4  0.000  0.333  0.238-  10 2.94   6 2.94   5 2.94  13 2.94   2 2.94  15 2.94   9 2.94   1 2.94
                             7 2.94
   5  0.333  0.333  0.238-  13 2.94   7 2.94  11 2.94   4 2.94   2 2.94  14 2.94   3 2.94   8 2.94
                             6 2.94
   6  0.667  0.333  0.238-  15 2.94  14 2.94   1 2.94  12 2.94   4 2.94   9 2.94   8 2.94   3 2.94
                             5 2.94
   7  0.000  0.667  0.238-  18 2.94   3 2.94  16 2.94   5 2.94   1 2.94  13 2.94   8 2.94   4 2.94
                             9 2.94
   8  0.333  0.667  0.238-   9 2.94  17 2.94   1 2.94   2 2.94  14 2.94  16 2.94   6 2.94   7 2.94
                             5 2.94
   9  0.667  0.667  0.238-   2 2.94   8 2.94  17 2.94   6 2.94  15 2.94   4 2.94   3 2.94  18 2.94
                             7 2.94
  10  0.111  0.111  0.346-  20 2.93  26 2.94  19 2.94  11 2.94  17 2.94   2 2.94   4 2.94   1 2.94
                            12 2.94  16 2.94  13 2.94  15 2.94
  11  0.444  0.111  0.346-  20 2.92  21 2.92  27 2.94  13 2.94   2 2.94  10 2.94  17 2.94   5 2.94
                             3 2.94  18 2.94  14 2.94  12 2.94
  12  0.778  0.111  0.346-  21 2.93  25 2.94  19 2.94  16 2.94  18 2.94   1 2.94  14 2.94  15 2.94
                             3 2.94   6 2.94  10 2.94  11 2.94
  13  0.111  0.444  0.346-  23 2.92  20 2.92  22 2.94   5 2.94  18 2.94  11 2.94   7 2.94   4 2.94
                            16 2.94  10 2.94  14 2.94  15 2.94
  14  0.444  0.444  0.346-  21 2.92  23 2.92  24 2.94  15 2.94   6 2.94  12 2.94   8 2.94  17 2.94
                             5 2.94  16 2.94  13 2.94  11 2.94
  15  0.778  0.444  0.346-  24 2.92  22 2.92  19 2.93  14 2.94   6 2.94  17 2.94  12 2.94   9 2.94
                             4 2.94  10 2.94  13 2.94  18 2.94
  16  0.111  0.778  0.346-  23 2.93  25 2.94  26 2.94  18 2.94  12 2.94   7 2.94   1 2.94   8 2.94
                            13 2.94  10 2.94  14 2.94  17 2.94
  17  0.444  0.778  0.346-  27 2.92  24 2.92  26 2.93   9 2.94  15 2.94   2 2.94  10 2.94  11 2.94
                             8 2.94  14 2.94  16 2.94  18 2.94
  18  0.778  0.778  0.346-  22 2.92  27 2.92  25 2.93  16 2.94   7 2.94  13 2.94  12 2.94   3 2.94
                            11 2.94   9 2.94  15 2.94  17 2.94
  19  0.889  0.222  0.454-  15 2.93  10 2.94  12 2.94  24 2.94  22 2.94  28 2.94  26 2.94  25 2.94
                            21 2.95  20 2.95  32 3.03  31 3.03
  20  0.223  0.223  0.453-  36 2.72  23 2.92  21 2.92  11 2.92  13 2.92  10 2.93  29 2.95  31 2.95
                            26 2.95  19 2.95  27 2.95  22 2.95
  21  0.554  0.223  0.453-  36 2.72  20 2.92  23 2.92  14 2.92  11 2.92  12 2.93  30 2.95  32 2.95
                            25 2.95  19 2.95  27 2.95  24 2.95
  22  0.887  0.557  0.453-  24 2.91  27 2.91  18 2.92  15 2.92  25 2.94  19 2.94  13 2.94  23 2.95
                            20 2.95  35 2.96  33 2.99  31 2.99
  23  0.223  0.554  0.453-  36 2.72  20 2.92  21 2.92  13 2.92  14 2.92  16 2.93  33 2.95  34 2.95
                            25 2.95  26 2.95  22 2.95  24 2.95
  24  0.557  0.557  0.453-  27 2.91  22 2.91  15 2.92  17 2.92  26 2.94  19 2.94  14 2.94  21 2.95
                            23 2.95  35 2.96  32 2.99  34 2.99
  25  0.889  0.889  0.454-  18 2.93  16 2.94  12 2.94  22 2.94  27 2.94  28 2.94  19 2.94  26 2.94
                            23 2.95  21 2.95  33 3.03  30 3.03
  26  0.222  0.889  0.454-  17 2.93  10 2.94  16 2.94  27 2.94  24 2.94  28 2.94  19 2.94  25 2.94
                            20 2.95  23 2.95  29 3.03  34 3.03
  27  0.557  0.887  0.453-  24 2.91  22 2.91  17 2.92  18 2.92  26 2.94  25 2.94  11 2.94  20 2.95
                            21 2.95  35 2.96  29 2.99  30 2.99
  28  0.000  0.000  0.562-  25 2.94  19 2.94  26 2.94  34 2.99  32 2.99  33 2.99  30 2.99  31 2.99
                            29 2.99
  29  0.334  0.011  0.564-  30 2.83  31 2.85  36 2.86  20 2.95  35 2.98  27 2.99  28 2.99  26 3.03
                            34 3.13
  30  0.655  0.011  0.564-  29 2.83  32 2.85  36 2.86  21 2.95  35 2.98  27 2.99  28 2.99  25 3.03
                            33 3.13
  31  0.011  0.334  0.564-  33 2.83  29 2.85  36 2.86  20 2.95  35 2.98  22 2.99  28 2.99  19 3.03
                            32 3.13
  32  0.655  0.334  0.564-  34 2.83  30 2.85  36 2.86  21 2.95  35 2.98  24 2.99  28 2.99  19 3.03
                            31 3.13
  33  0.011  0.655  0.564-  31 2.83  34 2.85  36 2.86  23 2.95  35 2.98  22 2.99  28 2.99  25 3.03
                            30 3.13
  34  0.334  0.655  0.564-  32 2.83  33 2.85  36 2.86  23 2.95  35 2.98  24 2.99  28 2.99  26 3.03
                            29 3.13
  35  0.667  0.667  0.563-  24 2.96  27 2.96  22 2.96  29 2.98  34 2.98  32 2.98  31 2.98  30 2.98
                            33 2.98
  36  0.333  0.333  0.550-  37 1.64  20 2.72  23 2.72  21 2.72  33 2.86  31 2.86  29 2.86  30 2.86
                            34 2.86  32 2.86
  37  0.333  0.333  0.623-  36 1.64

  LATTYP: Found a hexagonal cell.
 ALAT       =     8.8135128021
 C/A-ratio  =     2.5184286595

  Lattice vectors:

 A1 = (  -4.4067569092,  -7.6327256898,   0.0000000000)
 A2 = (   8.8135128021,   0.0000000000,   0.0000000000)
 A3 = (   0.0000000000,   0.0000000000,  22.1962032318)

Analysis of symmetry for initial positions (statically):
 Subroutine PRICEL returns:
 Original cell was already a primitive cell.

 Routine SETGRP: Setting up the symmetry group for a
 hexagonal supercell.

 Subroutine GETGRP returns: Found  6 space group operations
 (whereof  6 operations were pure point group operations)
 out of a pool of 24 trial point group operations.

The static configuration has the point symmetry C_3v.

Analysis of symmetry for dynamics (positions and initial velocities):
 Subroutine PRICEL returns:
 Original cell was already a primitive cell.

[...]

The dynamic configuration has the point symmetry C_3v.

Analysis of constrained symmetry for selective dynamics:
 Subroutine PRICEL returns:
 Original cell was already a primitive cell.

 Routine SETGRP: Setting up the symmetry group for a
 hexagonal supercell.

 Subroutine GETGRP returns: Found  6 space group operations
 (whereof  6 operations were pure point group operations)
[...]
     24      -5.1038      2.00000
     25      -5.0903      2.00000
     26      -5.0563      2.00000
     27      -4.9880      2.00000
     28      -4.9511      2.00000
     29      -4.8485      2.00000
     30      -4.8423      2.00000
     31      -4.8254      2.00000
     32      -4.8040      2.00000
     33      -4.7881      2.00000
     34      -4.7741      2.00000
     35      -4.6836      2.00000
     36      -4.6535      2.00000
     37      -4.6131      2.00000
     38      -4.5881      2.00000
     39      -4.5347      2.00000
     40      -4.4671      2.00000
     41      -4.4332      2.00000
     42      -4.3820      2.00000
     43      -4.3654      2.00000
     44      -4.3623      2.00000
     45      -4.3353      2.00000
     46      -4.2469      2.00000
     47      -4.2389      2.00000
     48      -4.2028      2.00000
     49      -4.1735      2.00000
     50      -4.1643      2.00000
     51      -4.1614      2.00000
     52      -4.1348      2.00000
     53      -4.1216      2.00000
     54      -4.0746      2.00000
     55      -4.0573      2.00000
     56      -4.0351      2.00000
     57      -4.0265      2.00000
     58      -4.0083      2.00000
     59      -4.0006      2.00000
     60      -3.9808      2.00000
[...]
    238       6.5761      0.00000
    239       6.6830      0.00000
    240       6.7199      0.00000
    241       6.7521      0.00000
    242       6.7745      0.00000
    243       7.0578      0.00000
    244       7.1040      0.00000
    245       7.2449      0.00000
    246       7.5497      0.00000
    247       7.5704      0.00000
    248       7.6544      0.00000
    249       7.7309      0.00000
    250       7.7804      0.00000
    251       7.9173      0.00000
    252       7.9976      0.00000

 soft charge-density along one line, spin component           1
         0         1         2         3         4         5         6         7         8         9
 total charge-density along one line

------------------------ aborting loop because EDIFF is reached ----------------------------------------

 total charge

# of ion       s       p       d       tot
    1        0.550   0.236   8.767   9.553
    2        0.541   0.241   8.765   9.548
    3        0.541   0.241   8.765   9.548
    4        0.541   0.241   8.765   9.548
    5        0.547   0.241   8.761   9.548
    6        0.541   0.241   8.765   9.548
    7        0.541   0.241   8.765   9.548
    8        0.541   0.241   8.765   9.548
    9        0.545   0.240   8.767   9.551
   10        0.523   0.307   8.768   9.598
   11        0.519   0.307   8.779   9.605
   12        0.523   0.307   8.768   9.598
   13        0.519   0.307   8.779   9.605
   14        0.519   0.307   8.779   9.605
   15        0.517   0.308   8.772   9.597
   16        0.523   0.307   8.768   9.598
   17        0.517   0.308   8.772   9.597
   18        0.517   0.308   8.772   9.597
   19        0.518   0.297   8.773   9.588
   20        0.564   0.330   8.737   9.631
   21        0.564   0.330   8.737   9.631
   22        0.509   0.307   8.775   9.591
   23        0.564   0.330   8.737   9.631
   24        0.509   0.307   8.775   9.591
   25        0.518   0.297   8.773   9.588
   26        0.518   0.297   8.773   9.588
   27        0.509   0.307   8.775   9.591
   28        0.541   0.228   8.756   9.525
   29        0.575   0.238   8.740   9.553
   30        0.575   0.238   8.740   9.553
   31        0.575   0.238   8.740   9.553
   32        0.575   0.238   8.740   9.553
   33        0.575   0.238   8.740   9.553
   34        0.575   0.238   8.740   9.553
   35        0.537   0.226   8.760   9.523
   36        0.442   0.528   3.245   4.215
   37        0.515   0.009   0.000   0.524
tot         19.822  10.154 309.897 339.872

  FORCE on cell =-STRESS in cart. coord.  units (eV):
  Direction    XX          YY          ZZ          XY          YZ          ZX
  Alpha Z   987.36962   987.36962   987.36962
  Ewald  117277.29770117277.29808************    -0.00033    -0.00009    -0.00017
  Hartree125754.51450125754.51450************     0.00000    -0.00002    -0.00005
  E(xc)   -1751.15887 -1751.15885 -1759.52349    -0.00001    -0.00000    -0.00000
  Local  ************************255358.56627     0.00171     0.00005     0.00010
  n-local   -76.94452   -28.11554   -22.81382    23.78035    -1.86658     1.74959
  augment  2382.94064  2382.94214  2403.09853    -0.00130     0.00001     0.00003
  Kinetic  5378.59771  5386.71083  5443.65276     4.52191     0.25331     0.03601
  Fock        0.00000     0.00000     0.00000     0.00000     0.00000     0.00000
  Total     -23.33622   -23.33622     2.27080    -0.00000     0.00000     0.00000
  in kB     -25.03996   -25.03996     2.43658    -0.00000     0.00000     0.00000

 VOLUME and BASIS-vectors are now :
  energy-cutoff  :      500.00
  volume of cell :     1493.16
      direct lattice vectors                 reciprocal lattice vectors
     8.813512802  0.000000000  0.000000000     0.113462137 -0.065507406  0.000000000
     4.406756909  7.632725690  0.000000000     0.000000000  0.131014796  0.000000000
     0.000000000  0.000000000 22.196203232     0.000000000  0.000000000  0.045052750

  length of vectors
     8.813512802  8.813512802 22.196203232     0.131014796  0.131014796  0.045052750

 FORCES acting on ions
    electron-ion (+dipol)            ewald-force                    non-local-force                 convergence-correction
   -.197E-04 -.162E-04 0.245E+04   0.518E-04 0.433E-04 -.245E+04   -.373E-17 -.166E-17 -.609E+00   -.238E-03 -.151E-03 -.513E-01
   0.264E+00 -.276E+00 0.245E+04   -.217E+00 0.226E+00 -.245E+04   0.110E-01 0.867E-01 -.357E+00   -.580E-01 -.468E-01 -.920E-01
   -.264E+00 -.276E+00 0.245E+04   0.217E+00 0.226E+00 -.245E+04   -.110E-01 0.867E-01 -.357E+00   0.583E-01 -.449E-01 -.914E-01
   -.107E+00 0.367E+00 0.245E+04   0.873E-01 -.301E+00 -.245E+04   0.806E-01 -.338E-01 -.357E+00   -.695E-01 -.269E-01 -.921E-01
   0.718E-05 -.241E-04 0.245E+04   0.951E-04 0.173E-05 -.245E+04   0.389E-17 -.231E-17 -.198E-01   0.428E-02 0.260E-02 -.545E-01
   0.107E+00 0.367E+00 0.245E+04   -.874E-01 -.301E+00 -.245E+04   -.806E-01 -.338E-01 -.357E+00   0.679E-01 -.260E-01 -.911E-01
   -.371E+00 -.905E-01 0.245E+04   0.304E+00 0.748E-01 -.245E+04   0.696E-01 -.529E-01 -.357E+00   -.967E-02 0.729E-01 -.913E-01
   0.371E+00 -.905E-01 0.245E+04   -.304E+00 0.748E-01 -.245E+04   -.696E-01 -.529E-01 -.357E+00   0.115E-01 0.718E-01 -.912E-01
   0.198E-04 -.416E-04 0.246E+04   0.166E-03 -.200E-04 -.245E+04   0.103E-17 -.219E-17 -.372E+00   -.458E-02 -.237E-02 -.424E-01
   0.823E+00 0.475E+00 0.785E+03   -.522E+00 -.302E+00 -.785E+03   -.283E+00 -.163E+00 -.537E+00   -.380E-01 -.220E-01 -.671E-01
   0.143E-04 -.376E+00 0.786E+03   0.148E-03 0.391E+00 -.786E+03   0.104E-08 0.156E-01 -.187E+00   0.399E-02 -.720E-01 0.597E-02
   -.823E+00 0.475E+00 0.785E+03   0.522E+00 -.302E+00 -.785E+03   0.283E+00 -.163E+00 -.537E+00   0.365E-01 -.209E-01 -.673E-01
   -.326E+00 0.188E+00 0.786E+03   0.339E+00 -.196E+00 -.786E+03   0.135E-01 -.782E-02 -.187E+00   -.600E-01 0.397E-01 0.596E-02
   0.326E+00 0.188E+00 0.786E+03   -.339E+00 -.196E+00 -.786E+03   -.135E-01 -.782E-02 -.187E+00   0.676E-01 0.389E-01 0.516E-02
   0.323E-04 0.354E+01 0.790E+03   0.235E-03 -.367E+01 -.789E+03   0.298E-08 0.447E-01 -.490E+00   -.228E-02 0.493E-01 -.112E-01
   -.209E-04 -.950E+00 0.785E+03   0.162E-03 0.603E+00 -.785E+03   0.217E-07 0.326E+00 -.537E+00   -.722E-04 0.421E-01 -.673E-01
   0.306E+01 -.177E+01 0.790E+03   -.318E+01 0.184E+01 -.789E+03   0.387E-01 -.224E-01 -.490E+00   0.418E-01 -.262E-01 -.112E-01
   -.306E+01 -.177E+01 0.790E+03   0.318E+01 0.184E+01 -.789E+03   -.387E-01 -.224E-01 -.490E+00   -.415E-01 -.242E-01 -.105E-01
   -.421E-04 -.418E+01 -.897E+03   0.563E-04 0.391E+01 0.897E+03   0.387E-08 0.581E-01 0.655E+00   -.536E-03 0.186E+00 -.456E-01
   -.106E+02 -.609E+01 -.903E+03   0.114E+02 0.656E+01 0.904E+03   -.114E+01 -.658E+00 -.105E+01   0.274E+00 0.158E+00 0.413E+00
   0.106E+02 -.609E+01 -.903E+03   -.114E+02 0.656E+01 0.904E+03   0.114E+01 -.658E+00 -.105E+01   -.273E+00 0.158E+00 0.413E+00
   -.133E+02 0.770E+01 -.889E+03   0.130E+02 -.751E+01 0.888E+03   0.334E+00 -.193E+00 0.589E+00   0.176E-01 -.996E-02 0.743E-01
   -.828E-05 0.122E+02 -.903E+03   0.138E-03 -.131E+02 0.904E+03   0.877E-07 0.132E+01 -.105E+01   0.261E-03 -.316E+00 0.413E+00
   0.133E+02 0.770E+01 -.889E+03   -.130E+02 -.751E+01 0.888E+03   -.334E+00 -.193E+00 0.589E+00   -.177E-01 -.102E-01 0.743E-01
   0.362E+01 0.209E+01 -.897E+03   -.339E+01 -.196E+01 0.897E+03   -.503E-01 -.290E-01 0.655E+00   -.161E+00 -.931E-01 -.460E-01
   -.362E+01 0.209E+01 -.897E+03   0.339E+01 -.196E+01 0.897E+03   0.503E-01 -.290E-01 0.655E+00   0.162E+00 -.937E-01 -.456E-01
   0.883E-05 -.154E+02 -.889E+03   0.198E-03 0.150E+02 0.888E+03   0.256E-07 0.385E+00 0.589E+00   -.360E-03 0.202E-01 0.744E-01
   -.100E-04 -.109E-04 -.246E+04   0.275E-04 0.303E-04 0.246E+04   -.429E-17 -.289E-18 0.595E+00   0.263E-05 -.138E-04 0.188E+00
   -.308E+01 -.143E+02 -.248E+04   0.378E+01 0.153E+02 0.248E+04   -.100E+01 -.151E+01 0.102E+00   0.291E+00 0.397E+00 0.104E+00
   0.308E+01 -.143E+02 -.248E+04   -.378E+01 0.153E+02 0.248E+04   0.100E+01 -.151E+01 0.102E+00   -.291E+00 0.398E+00 0.104E+00
   -.139E+02 0.447E+01 -.248E+04   0.152E+02 -.439E+01 0.248E+04   -.181E+01 -.117E+00 0.102E+00   0.489E+00 0.532E-01 0.104E+00
   0.139E+02 0.447E+01 -.248E+04   -.152E+02 -.439E+01 0.248E+04   0.181E+01 -.117E+00 0.102E+00   -.490E+00 0.540E-01 0.104E+00
   -.108E+02 0.980E+01 -.248E+04   0.114E+02 -.109E+02 0.248E+04   -.803E+00 0.162E+01 0.102E+00   0.200E+00 -.451E+00 0.104E+00
   0.108E+02 0.980E+01 -.248E+04   -.114E+02 -.109E+02 0.248E+04   0.803E+00 0.162E+01 0.102E+00   -.198E+00 -.451E+00 0.104E+00
   0.339E-04 -.333E-04 -.247E+04   0.143E-03 -.458E-04 0.247E+04   0.455E-17 0.366E-17 0.688E+00   -.437E-02 -.223E-02 0.473E-01
   -.245E-04 0.320E-05 -.105E+04   0.527E-04 0.489E-05 0.105E+04   0.405E-18 -.187E-17 -.206E+01   0.768E-03 0.466E-03 0.152E+00
   0.504E-05 -.360E-05 -.266E+03   0.470E-05 0.305E-06 0.268E+03   0.168E-18 -.181E-18 -.204E+01   0.734E-04 0.440E-04 -.114E+00
   -.808E-03 -.779E-03 0.756E+01   -.603E-14 0.261E-12 -.114E-12   0.227E-15 0.161E-17 -.841E+01   0.634E-02 0.424E-02 0.130E+01

 POSITION                                       TOTAL-FORCE (eV/Angst)
      0.00000      0.00000      5.28038         0.000000     -0.000000     -0.169344
      2.93784      0.00000      5.28038         0.000465     -0.009267     -0.054379
      5.87568      0.00000      5.28038        -0.000465     -0.009267     -0.054379
      1.46892      2.54424      5.28038        -0.007793      0.005036     -0.054379
      4.40676      2.54424      5.28038         0.000000     -0.000000     -0.091568
      7.34459      2.54424      5.28038         0.007793      0.005036     -0.054379
      2.93784      5.08848      5.28038        -0.008258      0.004231     -0.054379
      5.87568      5.08848      5.28038         0.008258      0.004231     -0.054379
      8.81351      5.08848      5.28038         0.000000     -0.000000     -0.089979
      1.46892      0.84808      7.67911        -0.019025     -0.010984      0.088317
      4.40676      0.84808      7.67911        -0.000000     -0.043473      0.041836
      7.34459      0.84808      7.67911         0.019025     -0.010984      0.088317
      2.93784      3.39232      7.67911        -0.037649      0.021737      0.041836
      5.87568      3.39232      7.67911         0.037649      0.021737      0.041836
      8.81351      3.39232      7.67911        -0.000000     -0.045009      0.105002
      4.40676      5.93656      7.67911         0.000000      0.021968      0.088317
      7.34459      5.93656      7.67911        -0.038979      0.022505      0.105002
     10.28243      5.93656      7.67911         0.038979      0.022505      0.105002
      8.81351      1.69782     10.07545        -0.000000     -0.022741     -0.005497
      2.94790      1.70197     10.06171        -0.055584     -0.032092     -0.066845
      5.86562      1.70197     10.06171         0.055584     -0.032092     -0.066845
     10.26824      4.24860     10.06503         0.036103     -0.020844      0.004199
      4.40676      4.22879     10.06171         0.000000      0.064183     -0.066845
      7.35878      4.24860     10.06503        -0.036103     -0.020844      0.004199
     11.74991      6.78381     10.07545         0.019694      0.011370     -0.005497
      5.87712      6.78381     10.07545        -0.019694      0.011370     -0.005497
      8.81351      6.76826     10.06503         0.000000      0.041688      0.004199
      0.00000      0.00000     12.47281         0.000000     -0.000000      0.005162
      2.99055      0.08121     12.52138        -0.012890     -0.052557     -0.048761
      5.82296      0.08121     12.52138         0.012890     -0.052557     -0.048761
      1.56560      2.54929     12.52138        -0.051961      0.015116     -0.048761
      7.24791      2.54929     12.52138         0.051961      0.015116     -0.048761
      2.98181      5.00223     12.52138        -0.039071      0.037442     -0.048761
      5.83171      5.00223     12.52138         0.039071      0.037442     -0.048761
      8.81351      5.08848     12.50032         0.000000     -0.000000      0.050017
      4.40676      2.54424     12.20130         0.000000     -0.000000      0.375545
      4.40676      2.54424     13.83739         0.000000     -0.000000      0.037975
    total drift:                                0.005535      0.003456      0.454073

  FREE ENERGIE OF THE ION-ELECTRON SYSTEM (eV)
  free  energy   TOTEN  =      -117.59402239 eV

  energy  without entropy=     -117.59402239  energy(sigma->0) =     -117.59402239

 stress matrix after NEB project (eV)
    -23.33622     -0.00000      0.00000
     -0.00000    -23.33622      0.00000
     -0.00000      0.00000      2.27080
  FORCES: max atom, RMS     0.037975    0.006243
  FORCE total and by dimension    0.037975    0.037975
  Stress total and by dimension   33.080425   23.336217
|           W    W    AA    RRRRR   N    N  II  N    N   GGGG   !!!           |
|           W    W   A  A   R    R  NN   N  II  NN   N  G    G  !!!           |
|           W    W  A    A  R    R  N N  N  II  N N  N  G       !!!           |
|           W WW W  AAAAAA  RRRRR   N  N N  II  N  N N  G  GGG   !            |
|           WW  WW  A    A  R   R   N   NN  II  N   NN  G    G                |
|           W    W  A    A  R    R  N    N  II  N    N   GGGG   !!!           |
|     Tetrahedron method does not include variations of the Fermi             |
|     occupations, so forces and stress will be inaccurate. We suggest        |
|     using a different smearing scheme ISMEAR = 1 or 2 for metals in         |
|     relaxations.                                                            |

 total charge

# of ion       s       p       d       tot
    1        0.550   0.236   8.767   9.553
    2        0.541   0.241   8.765   9.548
    3        0.541   0.241   8.765   9.548
    4        0.541   0.241   8.765   9.548
    5        0.547   0.241   8.761   9.548
    6        0.541   0.241   8.765   9.548
    7        0.541   0.241   8.765   9.548
    8        0.541   0.241   8.765   9.548
    9        0.545   0.240   8.767   9.551
   10        0.523   0.307   8.768   9.598
   11        0.519   0.307   8.779   9.605
   12        0.523   0.307   8.768   9.598
   13        0.519   0.307   8.779   9.605
   14        0.519   0.307   8.779   9.605
   15        0.517   0.308   8.772   9.597
   16        0.523   0.307   8.768   9.598
   17        0.517   0.308   8.772   9.597
   18        0.517   0.308   8.772   9.597
   19        0.518   0.297   8.773   9.588
   20        0.564   0.330   8.737   9.631
   21        0.564   0.330   8.737   9.631
   22        0.509   0.307   8.775   9.591
   23        0.564   0.330   8.737   9.631
   24        0.509   0.307   8.775   9.591
   25        0.518   0.297   8.773   9.588
   26        0.518   0.297   8.773   9.588
   27        0.509   0.307   8.775   9.591
   28        0.541   0.228   8.756   9.525
   29        0.575   0.238   8.740   9.553
   30        0.575   0.238   8.740   9.553
   31        0.575   0.238   8.740   9.553
   32        0.575   0.238   8.740   9.553
   33        0.575   0.238   8.740   9.553
   34        0.575   0.238   8.740   9.553
   35        0.537   0.226   8.760   9.523
   36        0.442   0.528   3.245   4.215
   37        0.515   0.009   0.000   0.524
tot         19.822  10.154 309.897 339.872

 BZINTS: Fermi energy:    0.626252;  391.000000 electrons
         Band energy:-0.120836E+04;  BLOECHL correction:   -0.027818