 vasp.6.2.0 18Jan21 (build Jun 12 2021 23:27:24) complex

 executed on             LinuxIFC date 2022.05.28  01:41:52

 INCAR:
   ISMEAR = -5
   SIGMA = 0.1
   ISPIN = 1
   EDIFF = 1.d-5
   EDIFFG = -0.01
   NSW = 0
   NELM = 150
   ENCUT = 500
   ISIF = 2
   IBRION = 2
   LREAL = Auto
   ALGO = Fast
   ICHARG = 11
   LORBIT = 10
   LCHARG = .F.
   LWAVE = .F.

 POTCAR:    PAW_PBE Ag 02Apr2005
 POTCAR:    PAW_PBE Zr_sv 04Jan2005
 POTCAR:    PAW_PBE C 08Apr2002
 POTCAR:    PAW_PBE O 08Apr2002
|           W    W    AA    RRRRR   N    N  II  N    N   GGGG   !!!           |
|           W    W   A  A   R    R  NN   N  II  NN   N  G    G  !!!           |
|           W    W  A    A  R    R  N N  N  II  N N  N  G       !!!           |
|           W WW W  AAAAAA  RRRRR   N  N N  II  N  N N  G  GGG   !            |
|           WW  WW  A    A  R   R   N   NN  II  N   NN  G    G                |
|           W    W  A    A  R    R  N    N  II  N    N   GGGG   !!!           |
|     For optimal performance we recommend to set                             |
|       NCORE = 2 up to number-of-cores-per-socket                            |
|     This setting can greatly improve the performance of VASP for DFT.       |
|     The default, NCORE=1 might be grossly inefficient on modern             |
|     multi-core architectures or massively parallel machines. Do your        |
|     Unfortunately you need to use the default for GW and RPA                |
|     calculations (for HF NCORE is supported but not extensively tested      |
|     yet).                                                                   |

 POTCAR:    PAW_PBE Ag 02Apr2005
   VRHFIN =Ag : s1 d10

   TITEL  = PAW_PBE Ag 02Apr2005
   POMASS =  107.868; ZVAL   =   11.000    mass and valenz
   ENMAX  =  249.844; ENMIN  =  187.383 eV

 POTCAR:    PAW_PBE Zr_sv 04Jan2005
   VRHFIN =Zr: 4s4p5s4d

   TITEL  = PAW_PBE Zr_sv 04Jan2005
   POMASS =   91.224; ZVAL   =   12.000    mass and valenz
   ENMAX  =  229.898; ENMIN  =  172.424 eV

 POTCAR:    PAW_PBE C 08Apr2002
   VRHFIN =C: s2p2

[...]

 POTCAR:    PAW_PBE O 08Apr2002
   VRHFIN =O: s2p4

   TITEL  = PAW_PBE O 08Apr2002
   POMASS =   16.000; ZVAL   =    6.000    mass and valenz
   ENMAX  =  400.000; ENMIN  =  300.000 eV

 Optimization of the real space projectors (new method)

 maximal supplied QI-value         = 15.12
 optimisation between [QCUT,QGAM] = [ 11.34, 22.83] = [ 36.00,145.93] Ry
 Optimized for a Real-space Cutoff    1.43 Angstroem

   l    n(q)    QCUT    max X(q) W(low)/X(q) W(high)/X(q)  e(spline)
   2      9    11.338    53.897    0.16E-03    0.20E-03    0.28E-06
   2      9    11.338    52.416    0.16E-03    0.20E-03    0.29E-06
   0     10    11.338   122.045    0.31E-04    0.76E-04    0.15E-06
   0     10    11.338    73.629    0.30E-04    0.72E-04    0.15E-06
   1      9    11.338    15.255    0.20E-03    0.19E-04    0.17E-06
   1      9    11.338     9.562    0.16E-03    0.15E-04    0.14E-06
 Optimization of the real space projectors (new method)

[...]

   l    n(q)    QCUT    max X(q) W(low)/X(q) W(high)/X(q)  e(spline)
   0      7    11.310   115.676    0.43E-03    0.13E-02    0.19E-06
   0      7    11.310    87.132    0.43E-03    0.13E-02    0.18E-06
   1      6    11.310     4.429    0.42E-03    0.74E-03    0.11E-06
   1      6    11.310     2.733    0.34E-03    0.55E-03    0.92E-07
 Optimization of the real space projectors (new method)

 maximal supplied QI-value         = 24.76
 optimisation between [QCUT,QGAM] = [ 11.39, 22.77] = [ 36.31,145.25] Ry
 Optimized for a Real-space Cutoff    1.00 Angstroem

   l    n(q)    QCUT    max X(q) W(low)/X(q) W(high)/X(q)  e(spline)
   0      7    11.387    20.381    0.39E-03    0.13E-02    0.15E-06
   0      7    11.387    15.268    0.42E-03    0.14E-02    0.17E-06
   1      6    11.387     5.964    0.41E-03    0.11E-02    0.17E-06
   1      6    11.387     5.382    0.39E-03    0.87E-03    0.15E-06
  PAW_PBE Ag 02Apr2005                  :
  PAW_PBE Zr_sv 04Jan2005               :
  PAW_PBE C 08Apr2002                   :
  PAW_PBE O 08Apr2002                   :

 POSCAR: Ag-Zr-CO2
  positions in direct lattice
  velocities in cartesian coordinates
 exchange correlation table for  LEXCH =        8
   RHO(1)=    0.500       N(1)  =     2000
   RHO(2)=  100.500       N(2)  =     4000

 VTST: version 3.2, (02/03/18)

 CHAIN: initializing optimizer

 OPT: Using VASP Conjugate-Gradient optimizer
 CHAIN: Read ICHAIN            0

 POSCAR: Ag-Zr-CO2
  positions in direct lattice
  velocities in cartesian coordinates

 ion  position               nearest neighbor table
   1  0.000  0.000  0.217-   2 2.93   8 2.93   7 2.93   6 2.93   4 2.93  12 2.93  16 2.93  10 2.93
                             3 2.93
   2  0.333  0.000  0.217-   1 2.93   8 2.93   9 2.93   3 2.93   4 2.93   5 2.93  10 2.93  17 2.93
                            11 2.93
   3  0.667  0.000  0.217-   9 2.93   2 2.93   5 2.93  11 2.93   7 2.93  18 2.93   1 2.93   6 2.93
                            12 2.93
   4  0.000  0.333  0.217-   5 2.93   6 2.93   2 2.93   1 2.93   7 2.93  13 2.93  15 2.93   9 2.93
                            10 2.93
   5  0.333  0.333  0.217-   4 2.93   3 2.93   7 2.93   2 2.93   8 2.93  14 2.93  13 2.93  11 2.93
                             6 2.93
   6  0.667  0.333  0.217-   4 2.93   9 2.93   1 2.93  15 2.93   8 2.93  12 2.93   3 2.93   5 2.93
                            14 2.93
   7  0.000  0.667  0.217-   8 2.93   1 2.93   5 2.93   3 2.93   4 2.93  16 2.93  18 2.93  13 2.93
                             9 2.93
   8  0.333  0.667  0.217-   7 2.93   1 2.93   2 2.93   9 2.93   5 2.93  16 2.93   6 2.93  17 2.93
                            14 2.93
   9  0.667  0.667  0.217-   3 2.93   2 2.93   8 2.93   6 2.93  17 2.93   4 2.93  15 2.93   7 2.93
                            18 2.93
  10  0.111  0.111  0.315-  20 2.91  19 2.92  26 2.92  12 2.93  16 2.93  15 2.93  17 2.93  13 2.93
                            11 2.93   2 2.93   1 2.93   4 2.93
  11  0.444  0.111  0.315-  21 2.91  20 2.91  14 2.93  17 2.93  18 2.93   3 2.93  12 2.93  13 2.93
                            10 2.93   5 2.93   2 2.93  27 2.93
  12  0.778  0.111  0.315-  21 2.91  25 2.92  19 2.92  10 2.93  16 2.93  18 2.93  15 2.93  11 2.93
                             1 2.93  14 2.93   6 2.93   3 2.93
  13  0.111  0.444  0.315-  20 2.91  23 2.91  15 2.93  14 2.93  18 2.93  10 2.93  11 2.93  16 2.93
                             4 2.93   5 2.93   7 2.93  22 2.93
  14  0.444  0.444  0.315-  23 2.91  21 2.91  13 2.93  11 2.93  16 2.93   5 2.93  12 2.93  17 2.93
                             8 2.93  15 2.93   6 2.93  24 2.93
  15  0.778  0.444  0.315-  19 2.92  13 2.93  10 2.93  12 2.93  17 2.93  18 2.93   4 2.93   6 2.93
                             9 2.93  14 2.93  24 2.93  22 2.93
  16  0.111  0.778  0.315-  23 2.91  26 2.92  25 2.92  18 2.93  12 2.93  10 2.93  14 2.93  17 2.93
                            13 2.93   7 2.93   8 2.93   1 2.93
  17  0.444  0.778  0.315-  26 2.92  11 2.93  10 2.93   9 2.93  18 2.93  15 2.93  16 2.93   2 2.93
                            14 2.93   8 2.93  27 2.93  24 2.93
  18  0.778  0.778  0.315-  25 2.92  16 2.93  12 2.93  13 2.93  11 2.93  17 2.93  15 2.93   7 2.93
                             3 2.93   9 2.93  22 2.93  27 2.93
  19  0.889  0.222  0.413-  10 2.92  12 2.92  15 2.92  26 2.93  25 2.93  20 2.93  21 2.93  24 2.93
                            22 2.93  28 2.93  32 2.97  31 2.97
  20  0.222  0.222  0.412-  13 2.91  11 2.91  10 2.91  36 2.92  21 2.93  23 2.93  27 2.93  22 2.93
                            19 2.93  26 2.93  31 2.97  29 2.97
  21  0.555  0.222  0.412-  11 2.91  14 2.91  12 2.91  36 2.92  20 2.93  23 2.93  27 2.93  24 2.93
                            25 2.93  19 2.93  30 2.97  32 2.97
  22  0.889  0.556  0.413-  24 2.93  27 2.93  23 2.93  20 2.93  18 2.93  15 2.93  13 2.93  25 2.93
                            19 2.93  35 2.94  33 2.95  31 2.95
  23  0.222  0.555  0.412-  14 2.91  13 2.91  16 2.91  36 2.92  21 2.93  20 2.93  22 2.93  24 2.93
                            26 2.93  25 2.93  34 2.97  33 2.97
  24  0.556  0.556  0.413-  27 2.93  22 2.93  23 2.93  21 2.93  15 2.93  17 2.93  14 2.93  19 2.93
                            26 2.93  35 2.94  32 2.95  34 2.95
  25  0.889  0.889  0.413-  16 2.92  12 2.92  18 2.92  26 2.93  19 2.93  23 2.93  21 2.93  22 2.93
                            27 2.93  28 2.93  33 2.97  30 2.97
  26  0.222  0.889  0.413-  16 2.92  10 2.92  17 2.92  25 2.93  19 2.93  23 2.93  20 2.93  27 2.93
                            24 2.93  28 2.93  34 2.97  29 2.97
  27  0.556  0.889  0.413-  24 2.93  22 2.93  20 2.93  21 2.93  17 2.93  18 2.93  11 2.93  26 2.93
                            25 2.93  35 2.94  29 2.95  30 2.95
  28  0.000  0.000  0.511-  29 2.93  34 2.93  33 2.93  32 2.93  31 2.93  30 2.93  26 2.93  25 2.93
                            19 2.93
  29  0.334  0.000  0.513-  30 2.93  36 2.93  35 2.93  31 2.93  28 2.93  34 2.94  27 2.95  26 2.97
                            20 2.97
  30  0.666  0.000  0.513-  29 2.93  36 2.93  35 2.93  32 2.93  28 2.93  33 2.94  27 2.95  25 2.97
                            21 2.97
  31  0.000  0.334  0.513-  33 2.93  36 2.93  35 2.93  29 2.93  28 2.93  32 2.94  22 2.95  19 2.97
                            20 2.97
  32  0.666  0.334  0.513-  34 2.93  36 2.93  35 2.93  30 2.93  28 2.93  31 2.94  24 2.95  19 2.97
                            21 2.97
  33  0.000  0.666  0.513-  31 2.93  36 2.93  35 2.93  34 2.93  28 2.93  30 2.94  22 2.95  25 2.97
                            23 2.97
  34  0.334  0.666  0.513-  32 2.93  36 2.93  35 2.93  33 2.93  28 2.93  29 2.94  24 2.95  26 2.97
                            23 2.97
  35  0.667  0.667  0.512-  30 2.93  29 2.93  32 2.93  34 2.93  31 2.93  33 2.93  24 2.94  27 2.94
                            22 2.94
  36  0.333  0.333  0.510-  37 2.27  39 2.88  38 2.88  21 2.92  20 2.92  23 2.92  31 2.93  33 2.93
                            30 2.93  29 2.93  34 2.93  32 2.93
  37  0.335  0.328  0.603-  38 1.23  39 1.23  36 2.27
  38  0.199  0.333  0.618-  37 1.23  36 2.88
  39  0.467  0.333  0.618-  37 1.23  36 2.88

  LATTYP: Found a hexagonal cell.
 ALAT       =     8.7913665772
 C/A-ratio  =     2.7703738524

  Lattice vectors:

 A1 = (  -4.3956832886,  -7.6135467898,   0.0000000000)
 A2 = (   8.7913665771,   0.0000000000,   0.0000000000)
 A3 = (   0.0000000000,   0.0000000000,  24.3553720923)

Analysis of symmetry for initial positions (statically):
 Subroutine PRICEL returns:
 Original cell was already a primitive cell.

 Routine SETGRP: Setting up the symmetry group for a
 hexagonal supercell.

 Subroutine GETGRP returns: Found  1 space group operations
 (whereof  1 operations were pure point group operations)
 out of a pool of 24 trial point group operations.

The static configuration has the point symmetry C_1 .

Analysis of symmetry for dynamics (positions and initial velocities):
 Subroutine PRICEL returns:
 Original cell was already a primitive cell.

[...]

The dynamic configuration has the point symmetry C_1 .

Analysis of constrained symmetry for selective dynamics:
 Subroutine PRICEL returns:
 Original cell was already a primitive cell.

[...]
     41      -5.0119      2.00000
     42      -4.9961      2.00000
     43      -4.9817      2.00000
     44      -4.9636      2.00000
     45      -4.9548      2.00000
     46      -4.9066      2.00000
     47      -4.8705      2.00000
     48      -4.8445      2.00000
     49      -4.8375      2.00000
     50      -4.8251      2.00000
     51      -4.8229      2.00000
     52      -4.8048      2.00000
     53      -4.7063      2.00000
     54      -4.7021      2.00000
     55      -4.6830      2.00000
     56      -4.6699      2.00000
     57      -4.6625      2.00000
     58      -4.6588      2.00000
     59      -4.6521      2.00000
     60      -4.6393      2.00000
[...]
    238       5.2277      0.00000
    239       5.2381      0.00000
    240       5.3486      0.00000
    241       5.3971      0.00000
    242       5.4468      0.00000
    243       5.5565      0.00000
    244       5.7242      0.00000
    245       5.7849      0.00000
    246       5.8199      0.00000
    247       5.8665      0.00000
    248       5.9684      0.00000
    249       6.0009      0.00000
    250       6.0909      0.00000
    251       6.6986      0.00000
    252       6.7449      0.00000

 soft charge-density along one line, spin component           1
         0         1         2         3         4         5         6         7         8         9
 total charge-density along one line

------------------------ aborting loop because EDIFF is reached ----------------------------------------

 total charge

# of ion       s       p       d       tot
    1        0.420   0.201   9.177   9.799
    2        0.415   0.204   9.176   9.796
    3        0.415   0.204   9.176   9.796
    4        0.416   0.203   9.178   9.797
    5        0.415   0.202   9.178   9.795
    6        0.416   0.203   9.178   9.797
    7        0.416   0.203   9.177   9.796
    8        0.416   0.203   9.177   9.796
    9        0.417   0.202   9.177   9.796
   10        0.410   0.270   9.163   9.843
   11        0.405   0.267   9.168   9.840
   12        0.410   0.270   9.163   9.842
   13        0.405   0.268   9.167   9.840
   14        0.405   0.268   9.167   9.840
   15        0.401   0.270   9.164   9.835
   16        0.406   0.271   9.163   9.840
   17        0.404   0.268   9.166   9.837
   18        0.404   0.268   9.166   9.837
   19        0.402   0.265   9.170   9.836
   20        0.432   0.291   9.143   9.866
   21        0.432   0.291   9.143   9.866
   22        0.394   0.274   9.162   9.830
   23        0.428   0.293   9.143   9.865
   24        0.394   0.274   9.162   9.830
   25        0.405   0.265   9.167   9.837
   26        0.405   0.265   9.167   9.837
   27        0.396   0.270   9.165   9.832
   28        0.414   0.206   9.172   9.792
   29        0.454   0.217   9.150   9.821
   30        0.454   0.217   9.150   9.821
   31        0.438   0.220   9.157   9.814
   32        0.438   0.220   9.157   9.814
   33        0.454   0.218   9.150   9.821
   34        0.454   0.218   9.150   9.821
   35        0.410   0.208   9.173   9.791
   36        2.201   5.956   1.600   9.757
   37        0.894   1.729   0.000   2.623
   38        1.602   3.470   0.000   5.072
   39        1.602   3.470   0.000   5.072
tot         20.901  23.076 322.361 366.339

  FORCE on cell =-STRESS in cart. coord.  units (eV):
  Direction    XX          YY          ZZ          XY          YZ          ZX
  Alpha Z   730.63648   730.63648   730.63648
  Ewald  152896.96237152135.89405************     0.03357     2.50190    -1.06757
  Hartree163058.61086162661.51911************     0.01824     1.17642    -0.51380
  E(xc)   -2153.66054 -2155.47543 -2160.44448     0.00001     0.00562    -0.00342
  Local  ************************326232.62728    -0.05399    -3.07858     1.50807
  n-local  -373.43895  -371.63331  -379.63495     0.00602     0.15616     0.01672
  augment  3231.66279  3233.03636  3248.03977    -0.00052    -0.10666    -0.00537
  Kinetic  5281.63832  5326.92287  5363.72092     0.00650    -0.64727     0.03520
  Fock        0.00000     0.00000     0.00000     0.00000     0.00000     0.00000
  Total      -5.28626    -5.84533    -0.22349     0.00985     0.00760    -0.03018
  in kB      -5.19542    -5.74489    -0.21965     0.00968     0.00747    -0.02966

 VOLUME and BASIS-vectors are now :
  energy-cutoff  :      500.00
  volume of cell :     1630.19
      direct lattice vectors                 reciprocal lattice vectors
     8.791366577  0.000000000  0.000000000     0.113747958 -0.065672414  0.000000000
     4.395683289  7.613546790  0.000000000     0.000000000  0.131344829  0.000000000
     0.000000000  0.000000000 24.355372092     0.000000000  0.000000000  0.041058703

  length of vectors
     8.791366577  8.791366577 24.355372092     0.131344829  0.131344829  0.041058703

 FORCES acting on ions
    electron-ion (+dipol)            ewald-force                    non-local-force                 convergence-correction
   0.114E-02 0.206E+00 0.273E+04   -.139E-03 -.344E-01 -.272E+04   -.523E-04 -.824E-01 -.175E+01   -.965E-03 -.836E-01 -.123E+00
   -.972E-01 0.819E+00 0.273E+04   -.459E-02 -.655E+00 -.272E+04   -.177E-01 -.282E-01 -.163E+01   0.112E+00 -.133E+00 -.109E+00
   0.975E-01 0.810E+00 0.273E+04   0.476E-02 -.655E+00 -.272E+04   0.175E-01 -.290E-01 -.163E+01   -.112E+00 -.123E+00 -.106E+00
   0.483E+00 -.453E+00 0.273E+04   -.540E+00 0.309E+00 -.272E+04   0.806E-01 0.242E-01 -.174E+01   -.275E-01 0.111E+00 -.860E-01
   -.137E-01 -.565E-01 0.273E+04   0.176E-03 0.254E-02 -.273E+04   -.243E-02 0.270E-01 -.162E+01   0.160E-01 0.219E-01 -.385E-02
   -.474E+00 -.459E+00 0.273E+04   0.540E+00 0.309E+00 -.272E+04   -.807E-01 0.248E-01 -.175E+01   0.187E-01 0.115E+00 -.829E-01
   0.560E+00 -.377E+00 0.273E+04   -.535E+00 0.346E+00 -.272E+04   0.186E-01 0.201E-01 -.166E+01   -.436E-01 0.180E-01 -.926E-01
   -.568E+00 -.370E+00 0.273E+04   0.535E+00 0.346E+00 -.272E+04   -.182E-01 0.196E-01 -.166E+01   0.518E-01 0.120E-01 -.923E-01
   0.130E-01 -.118E+00 0.273E+04   0.445E-04 0.319E-01 -.272E+04   0.247E-02 0.305E-01 -.163E+01   -.157E-01 0.564E-01 -.594E-01
   0.203E+01 0.138E+01 0.999E+03   -.179E+01 -.129E+01 -.999E+03   -.272E+00 -.887E-01 -.712E+00   0.287E-01 0.142E-02 -.122E-02
   -.134E-01 0.601E+01 0.100E+04   0.441E-03 -.613E+01 -.100E+04   -.201E-02 0.548E-01 -.463E+00   0.150E-01 0.185E-01 -.860E-01
   -.202E+01 0.137E+01 0.999E+03   0.179E+01 -.129E+01 -.999E+03   0.272E+00 -.887E-01 -.714E+00   -.357E-01 0.529E-02 -.472E-02
   0.482E+01 -.305E+01 0.100E+04   -.507E+01 0.312E+01 -.100E+04   0.902E-01 -.494E-01 -.478E+00   0.101E+00 0.363E-02 -.814E-01
   -.484E+01 -.304E+01 0.100E+04   0.507E+01 0.312E+01 -.100E+04   -.943E-01 -.498E-01 -.479E+00   -.818E-01 -.172E-02 -.907E-01
   0.694E-02 -.328E+01 0.995E+03   -.577E-03 0.327E+01 -.994E+03   0.300E-03 -.195E-01 -.746E+00   -.670E-02 0.606E-01 -.584E-01
   0.599E-03 -.228E+01 0.999E+03   0.668E-04 0.213E+01 -.998E+03   -.238E-03 0.220E+00 -.573E+00   -.413E-03 -.731E-01 -.347E-02
   -.281E+01 0.144E+01 0.994E+03   0.267E+01 -.146E+01 -.994E+03   0.698E-01 0.121E-01 -.543E+00   0.724E-01 -.414E-02 -.615E-01
   0.281E+01 0.143E+01 0.994E+03   -.267E+01 -.146E+01 -.994E+03   -.705E-01 0.122E-01 -.543E+00   -.729E-01 0.330E-02 -.566E-01
   0.382E-02 -.477E+00 -.755E+03   -.396E-02 0.328E+00 0.754E+03   -.613E-03 0.139E+00 0.973E+00   0.308E-03 -.169E-01 -.408E-01
   0.222E+02 0.142E+02 -.720E+03   -.215E+02 -.138E+02 0.720E+03   -.738E+00 -.431E+00 -.524E+00   -.254E-01 -.109E+00 -.162E+00
   -.222E+02 0.142E+02 -.720E+03   0.215E+02 -.138E+02 0.720E+03   0.740E+00 -.429E+00 -.523E+00   0.854E-02 -.110E+00 -.159E+00
   0.117E+02 -.858E+01 -.759E+03   -.117E+02 0.864E+01 0.758E+03   0.593E-01 -.149E+00 0.587E+00   -.402E-01 0.819E-01 -.116E+00
   0.300E-02 -.278E+02 -.722E+03   0.226E-02 0.270E+02 0.722E+03   0.519E-02 0.770E+00 -.256E+00   -.108E-01 0.155E+00 -.133E+00
   -.117E+02 -.857E+01 -.759E+03   0.117E+02 0.864E+01 0.758E+03   -.643E-01 -.150E+00 0.586E+00   0.591E-01 0.798E-01 -.114E+00
   0.119E+01 0.153E+01 -.758E+03   -.117E+01 -.149E+01 0.757E+03   -.455E-01 0.116E-01 0.768E+00   0.275E-01 -.423E-01 -.109E-01
   -.120E+01 0.153E+01 -.758E+03   0.117E+01 -.149E+01 0.757E+03   0.411E-01 0.105E-01 0.768E+00   -.150E-01 -.388E-01 -.999E-02
   -.863E-02 0.139E+02 -.761E+03   0.914E-03 -.140E+02 0.760E+03   -.905E-03 0.190E+00 0.575E+00   0.881E-02 -.172E-01 -.993E-01
   0.206E-01 0.942E+01 -.252E+04   -.183E-01 -.919E+01 0.252E+04   -.114E-02 -.142E+00 0.146E+01   -.100E-02 -.110E+00 -.127E-01
   0.398E+02 0.783E+02 -.250E+04   -.389E+02 -.773E+02 0.250E+04   -.953E+00 -.102E+01 0.135E+01   -.452E-01 -.168E+00 0.122E-01
   -.399E+02 0.783E+02 -.250E+04   0.389E+02 -.772E+02 0.250E+04   0.952E+00 -.102E+01 0.135E+01   0.443E-01 -.159E+00 0.123E-01
   0.897E+02 0.321E+01 -.248E+04   -.889E+02 -.300E+01 0.247E+04   -.893E+00 -.190E+00 0.215E+01   -.103E+00 -.127E-01 -.126E-03
   -.897E+02 0.321E+01 -.248E+04   0.889E+02 -.301E+01 0.248E+04   0.894E+00 -.190E+00 0.215E+01   0.930E-01 -.998E-02 0.443E-02
   0.327E+02 -.810E+02 -.250E+04   -.321E+02 0.798E+02 0.250E+04   -.627E+00 0.117E+01 0.139E+01   0.233E-01 0.166E+00 0.218E-01
   -.327E+02 -.810E+02 -.250E+04   0.321E+02 0.798E+02 0.250E+04   0.625E+00 0.117E+01 0.139E+01   -.176E-01 0.161E+00 0.276E-01
   0.283E-01 -.907E+01 -.254E+04   -.161E-01 0.885E+01 0.254E+04   0.146E-02 0.156E+00 0.169E+01   -.138E-01 0.891E-01 0.551E-01
   -.157E-01 -.221E+01 -.247E+04   -.142E-02 0.214E+01 0.247E+04   0.589E-02 0.132E+00 0.106E+01   0.176E-01 0.247E-01 0.117E+00
   0.945E-01 0.130E+02 -.101E+04   -.110E+00 -.135E+02 0.100E+04   0.156E-01 0.508E+00 0.591E+01   0.323E-02 0.660E-02 0.500E-01
   0.250E+03 -.477E+01 -.164E+04   -.300E+03 0.626E+01 0.166E+04   0.504E+02 -.151E+01 -.176E+02   0.142E-01 0.669E-02 0.582E-01
   -.250E+03 -.479E+01 -.164E+04   0.300E+03 0.628E+01 0.166E+04   -.504E+02 -.151E+01 -.175E+02   -.779E-02 0.815E-02 0.359E-01
   -.406E-01 0.252E+01 0.342E+02   0.114E-12 0.130E-12 0.105E-10   0.945E-02 -.247E+01 -.326E+02   0.389E-01 -.755E-02 -.166E+01

 POSITION                                       TOTAL-FORCE (eV/Angst)
      0.00000      0.00000      5.28219        -0.000214      0.004466     -0.006470
      2.93046      0.00000      5.28219        -0.007553      0.001629      0.030981
      5.86091      0.00000      5.28219         0.007106      0.001589      0.030803
      1.46523      2.53785      5.28219        -0.003672     -0.010883      0.009283
      4.39568      2.53785      5.28219        -0.000125     -0.006120      0.015050
      7.32614      2.53785      5.28219         0.003399     -0.011029      0.009152
      2.93046      5.07570      5.28219        -0.000343      0.006809      0.028025
      5.86091      5.07570      5.28219        -0.000135      0.006973      0.027897
      8.79137      5.07570      5.28219        -0.000320     -0.000512      0.006949
      1.46523      0.84595      7.67490        -0.001100     -0.005567     -0.064452
      4.39568      0.84595      7.67490        -0.000126     -0.054335     -0.068883
      7.32614      0.84595      7.67490         0.000684     -0.005576     -0.064406
      2.93046      3.38380      7.67490        -0.058489      0.031598     -0.067579
      5.86091      3.38380      7.67490         0.058734      0.031833     -0.067949
      8.79137      3.38380      7.67490        -0.000237      0.023347      0.040392
      4.39568      5.92165      7.67490        -0.000184     -0.003792     -0.053622
      7.32614      5.92165      7.67490         0.005482     -0.016701      0.041488
     10.25659      5.92165      7.67490        -0.005996     -0.016593      0.041388
      8.79137      1.69022     10.04930        -0.000636     -0.027705      0.059157
      2.93117      1.69231     10.04246        -0.098502     -0.073850     -0.082056
      5.86019      1.69231     10.04246         0.096763     -0.073798     -0.082295
     10.25641      4.22985     10.06824         0.035169     -0.006188      0.053004
      4.39568      4.22892     10.04246        -0.000557      0.080811     -0.068697
      7.32632      4.22985     10.06824        -0.034427     -0.005936      0.053074
     11.72328      6.76844     10.04930        -0.003117      0.015093      0.011638
      5.85946      6.76844     10.04930         0.003258      0.014791      0.011588
      8.79137      6.76739     10.06824        -0.000009      0.021624      0.013799
      0.00000      0.00000     12.44689        -0.000120     -0.016084      0.004888
      2.93311      0.00118     12.48352        -0.025391     -0.154721     -0.128591
      5.85826      0.00118     12.48352         0.025043     -0.155637     -0.128651
      1.46758      2.53956     12.48352        -0.164733      0.003743     -0.127967
      7.32379      2.53956     12.48352         0.164339      0.003849     -0.127237
      2.93015      5.07281     12.48352        -0.031799      0.153661     -0.136452
      5.86121      5.07281     12.48352         0.031555      0.154479     -0.136434
      8.79137      5.07570     12.47551        -0.000354      0.020976     -0.007698
      4.39568      2.53785     12.42634         0.006140      0.078599      0.940933
      4.39331      2.50083     14.69303         0.002882      0.002068     -0.003606
      3.21410      2.53626     15.05404         0.001963     -0.004200     -0.004888
      5.57408      2.53636     15.05027        -0.004380     -0.008713     -0.001557
    total drift:                                0.007731      0.039027     -0.102588

  FREE ENERGIE OF THE ION-ELECTRON SYSTEM (eV)
  free  energy   TOTEN  =      -119.03150876 eV

  energy  without entropy=     -119.03150876  energy(sigma->0) =     -119.03150876

 stress matrix after NEB project (eV)
     -5.28626      0.00985     -0.03018
      0.00985     -5.84533      0.00760
     -0.03018      0.00760     -0.22349
  FORCES: max atom, RMS     0.009875    0.002079
  FORCE total and by dimension    0.012981    0.008713
  Stress total and by dimension    7.884447    5.845329
|           W    W    AA    RRRRR   N    N  II  N    N   GGGG   !!!           |
|           W    W   A  A   R    R  NN   N  II  NN   N  G    G  !!!           |
|           W    W  A    A  R    R  N N  N  II  N N  N  G       !!!           |
|           W WW W  AAAAAA  RRRRR   N  N N  II  N  N N  G  GGG   !            |
|           WW  WW  A    A  R   R   N   NN  II  N   NN  G    G                |
|           W    W  A    A  R    R  N    N  II  N    N   GGGG   !!!           |
|     Tetrahedron method does not include variations of the Fermi             |
|     occupations, so forces and stress will be inaccurate. We suggest        |
|     using a different smearing scheme ISMEAR = 1 or 2 for metals in         |
|     relaxations.                                                            |

 total charge

# of ion       s       p       d       tot
    1        0.420   0.201   9.177   9.799
    2        0.415   0.204   9.176   9.796
    3        0.415   0.204   9.176   9.796
    4        0.416   0.203   9.178   9.797
    5        0.415   0.202   9.178   9.795
    6        0.416   0.203   9.178   9.797
    7        0.416   0.203   9.177   9.796
    8        0.416   0.203   9.177   9.796
    9        0.417   0.202   9.177   9.796
   10        0.410   0.270   9.163   9.843
   11        0.405   0.267   9.168   9.840
   12        0.410   0.270   9.163   9.842
   13        0.405   0.268   9.167   9.840
   14        0.405   0.268   9.167   9.840
   15        0.401   0.270   9.164   9.835
   16        0.406   0.271   9.163   9.840
   17        0.404   0.268   9.166   9.837
   18        0.404   0.268   9.166   9.837
   19        0.402   0.265   9.170   9.836
   20        0.432   0.291   9.143   9.866
   21        0.432   0.291   9.143   9.866
   22        0.394   0.274   9.162   9.830
   23        0.428   0.293   9.143   9.865
   24        0.394   0.274   9.162   9.830
   25        0.405   0.265   9.167   9.837
   26        0.405   0.265   9.167   9.837
   27        0.396   0.270   9.165   9.832
   28        0.414   0.206   9.172   9.792
   29        0.454   0.217   9.150   9.821
   30        0.454   0.217   9.150   9.821
   31        0.438   0.220   9.157   9.814
   32        0.438   0.220   9.157   9.814
   33        0.454   0.218   9.150   9.821
   34        0.454   0.218   9.150   9.821
   35        0.410   0.208   9.173   9.791
   36        2.201   5.956   1.600   9.757
   37        0.894   1.729   0.000   2.623
   38        1.602   3.470   0.000   5.072
   39        1.602   3.470   0.000   5.072
tot         20.901  23.076 322.361 366.339

 BZINTS: Fermi energy:    0.369155;  413.000000 electrons
         Band energy:-0.187834E+04;  BLOECHL correction:   -0.033018