 vasp.6.2.0 18Jan21 (build Jun 12 2021 23:27:24) complex

 executed on             LinuxIFC date 2022.05.30  18:23:05

 INCAR:
   ISMEAR = -5
   SIGMA = 0.1
   ISPIN = 1
   EDIFF = 1.d-5
   NSW = 0
   NELM = 150
   ENCUT = 500
   ISIF = 2
   IBRION = 2
   LREAL = Auto
   ALGO = Fast
   ICHARG = 11
   LORBIT = 10
   LCHARG = .F.
   LWAVE = .F.

 POTCAR:    PAW_PBE Cu 22Jun2005
 POTCAR:    PAW_PBE Ru 04Feb2005
 POTCAR:    PAW_PBE O 08Apr2002
|           W    W    AA    RRRRR   N    N  II  N    N   GGGG   !!!           |
|           W    W   A  A   R    R  NN   N  II  NN   N  G    G  !!!           |
|           W    W  A    A  R    R  N N  N  II  N N  N  G       !!!           |
|           W WW W  AAAAAA  RRRRR   N  N N  II  N  N N  G  GGG   !            |
|           WW  WW  A    A  R   R   N   NN  II  N   NN  G    G                |
|           W    W  A    A  R    R  N    N  II  N    N   GGGG   !!!           |
|     For optimal performance we recommend to set                             |
|       NCORE = 2 up to number-of-cores-per-socket                            |
|     This setting can greatly improve the performance of VASP for DFT.       |
|     The default, NCORE=1 might be grossly inefficient on modern             |
|     multi-core architectures or massively parallel machines. Do your        |
|     Unfortunately you need to use the default for GW and RPA                |
|     calculations (for HF NCORE is supported but not extensively tested      |
|     yet).                                                                   |

 POTCAR:    PAW_PBE Cu 22Jun2005
   VRHFIN =Cu: d10 p1

   TITEL  = PAW_PBE Cu 22Jun2005
   POMASS =   63.546; ZVAL   =   11.000    mass and valenz
   ENMAX  =  295.446; ENMIN  =  221.585 eV

 POTCAR:    PAW_PBE Ru 04Feb2005
   VRHFIN =Ru: s1 d7

   TITEL  = PAW_PBE Ru 04Feb2005
   POMASS =  101.070; ZVAL   =    8.000    mass and valenz
   ENMAX  =  213.271; ENMIN  =  159.953 eV

 POTCAR:    PAW_PBE O 08Apr2002
   VRHFIN =O: s2p4

   TITEL  = PAW_PBE O 08Apr2002
   POMASS =   16.000; ZVAL   =    6.000    mass and valenz
   ENMAX  =  400.000; ENMIN  =  300.000 eV

 Optimization of the real space projectors (new method)

 maximal supplied QI-value         = 16.25
 optimisation between [QCUT,QGAM] = [ 11.38, 22.75] = [ 36.24,144.96] Ry
 Optimized for a Real-space Cutoff    1.52 Angstroem

   l    n(q)    QCUT    max X(q) W(low)/X(q) W(high)/X(q)  e(spline)
   2      9    11.376     4.610    0.21E-03    0.10E-03    0.26E-06
   2      9    11.376     8.522    0.33E-03    0.16E-03    0.37E-06
   0     10    11.376    51.609    0.62E-04    0.20E-04    0.13E-06
   0     10    11.376    27.747    0.54E-04    0.20E-04    0.13E-06
   1     10    11.376    20.408    0.13E-04    0.99E-04    0.19E-06
   1     10    11.376    13.425    0.12E-04    0.87E-04    0.17E-06
 Optimization of the real space projectors (new method)

[...]

   l    n(q)    QCUT    max X(q) W(low)/X(q) W(high)/X(q)  e(spline)
   2      9    11.327    61.733    0.26E-03    0.14E-03    0.16E-06
   2      9    11.327    59.886    0.26E-03    0.14E-03    0.17E-06
   0     10    11.327    23.358    0.19E-03    0.14E-04    0.46E-06
   0     10    11.327    11.320    0.15E-03    0.11E-04    0.37E-06
   1     10    11.327    14.765    0.49E-04    0.26E-03    0.24E-06
   1     10    11.327     8.283    0.37E-04    0.20E-03    0.18E-06
 Optimization of the real space projectors (new method)

 maximal supplied QI-value         = 24.76
 optimisation between [QCUT,QGAM] = [ 11.39, 22.77] = [ 36.31,145.25] Ry
 Optimized for a Real-space Cutoff    1.00 Angstroem

   l    n(q)    QCUT    max X(q) W(low)/X(q) W(high)/X(q)  e(spline)
   0      7    11.387    20.381    0.39E-03    0.13E-02    0.15E-06
   0      7    11.387    15.268    0.42E-03    0.14E-02    0.17E-06
   1      6    11.387     5.964    0.41E-03    0.11E-02    0.17E-06
   1      6    11.387     5.382    0.39E-03    0.87E-03    0.15E-06
  PAW_PBE Cu 22Jun2005                  :
  PAW_PBE Ru 04Feb2005                  :
  PAW_PBE O 08Apr2002                   :

 POSCAR: Cu-Ru-O2
  positions in direct lattice
  velocities in cartesian coordinates
 exchange correlation table for  LEXCH =        8
   RHO(1)=    0.500       N(1)  =     2000
   RHO(2)=  100.500       N(2)  =     4000

 VTST: version 3.2, (02/03/18)

 CHAIN: initializing optimizer

 OPT: Using VASP Conjugate-Gradient optimizer
 CHAIN: Read ICHAIN            0

 POSCAR: Cu-Ru-O2
  positions in direct lattice
  velocities in cartesian coordinates

 ion  position               nearest neighbor table
   1  0.000  0.000  0.226-   7 2.57   3 2.57   4 2.57   2 2.57   6 2.57   8 2.57  12 2.57  10 2.57
                            16 2.57
   2  0.333  0.000  0.226-   8 2.57   9 2.57   5 2.57   1 2.57   3 2.57  11 2.57   4 2.57  10 2.57
                            17 2.57
   3  0.667  0.000  0.226-   1 2.57   7 2.57   6 2.57   9 2.57   2 2.57  12 2.57   5 2.57  18 2.57
                            11 2.57
   4  0.000  0.333  0.226-   5 2.57   6 2.57   1 2.57   7 2.57   2 2.57  13 2.57   9 2.57  10 2.57
                            15 2.57
   5  0.333  0.333  0.226-   4 2.57   2 2.57   7 2.57  13 2.57   8 2.57   6 2.57   3 2.57  11 2.57
                            14 2.57
   6  0.667  0.333  0.226-   4 2.57   9 2.57  15 2.57   3 2.57   1 2.57   8 2.57  14 2.57   5 2.57
                            12 2.57
   7  0.000  0.667  0.226-   1 2.57   3 2.57  16 2.57  18 2.57   4 2.57   5 2.57   8 2.57   9 2.57
                            13 2.57
   8  0.333  0.667  0.226-   9 2.57   2 2.57  17 2.57   6 2.57   1 2.57   7 2.57   5 2.57  14 2.57
                            16 2.57
   9  0.667  0.667  0.226-   8 2.57   6 2.57   2 2.57  17 2.57   3 2.57   7 2.57   4 2.57  15 2.57
                            18 2.57
  10  0.111  0.111  0.314-  20 2.55  26 2.56  19 2.56  11 2.57  12 2.57  13 2.57   1 2.57   2 2.57
                             4 2.57  15 2.57  16 2.57  17 2.57
  11  0.444  0.111  0.314-  20 2.55  21 2.55  10 2.57  13 2.57   2 2.57  17 2.57  14 2.57  12 2.57
                             5 2.57   3 2.57  18 2.57  27 2.57
  12  0.778  0.111  0.314-  21 2.55  19 2.56  25 2.56  15 2.57  10 2.57  14 2.57  18 2.57   3 2.57
                             1 2.57  16 2.57  11 2.57   6 2.57
  13  0.111  0.444  0.314-  23 2.55  20 2.55  16 2.57  18 2.57  10 2.57  11 2.57  14 2.57   5 2.57
                             4 2.57   7 2.57  15 2.57  22 2.57
  14  0.444  0.444  0.314-  21 2.55  23 2.55  15 2.57  17 2.57  12 2.57  16 2.57  13 2.57  11 2.57
                             6 2.57   8 2.57   5 2.57  24 2.57
  15  0.778  0.444  0.314-  19 2.56  14 2.57  17 2.57  12 2.57   6 2.57  18 2.57  10 2.57   9 2.57
                            13 2.57   4 2.57  24 2.57  22 2.57
  16  0.111  0.778  0.314-  23 2.55  25 2.56  26 2.56  18 2.57  13 2.57   7 2.57  14 2.57  17 2.57
                            12 2.57  10 2.57   8 2.57   1 2.57
  17  0.444  0.778  0.314-  26 2.56  14 2.57  15 2.57   8 2.57   9 2.57  11 2.57  16 2.57  18 2.57
                            10 2.57   2 2.57  27 2.57  24 2.57
  18  0.778  0.778  0.314-  25 2.56  16 2.57  13 2.57   7 2.57  15 2.57  12 2.57  17 2.57   9 2.57
                             3 2.57  11 2.57  22 2.57  27 2.57
  19  0.889  0.223  0.402-  28 2.55  15 2.56  21 2.56  20 2.56  12 2.56  10 2.56  22 2.56  24 2.56
                            32 2.56  31 2.56  25 2.57  26 2.57
  20  0.222  0.222  0.401-  10 2.55  11 2.55  13 2.55  36 2.55  26 2.56  19 2.56  27 2.57  22 2.57
                            23 2.57  21 2.57  29 2.58  31 2.58
  21  0.556  0.222  0.401-  12 2.55  14 2.55  11 2.55  36 2.55  19 2.56  25 2.56  24 2.57  27 2.57
                            20 2.57  23 2.57  32 2.58  30 2.58
  22  0.888  0.556  0.402-  35 2.55  24 2.56  27 2.56  19 2.56  25 2.56  18 2.57  15 2.57  31 2.57
                            33 2.57  23 2.57  20 2.57  13 2.57
  23  0.222  0.556  0.401-  16 2.55  13 2.55  14 2.55  36 2.55  25 2.56  26 2.56  22 2.57  24 2.57
                            20 2.57  21 2.57  33 2.58  34 2.58
  24  0.556  0.556  0.402-  35 2.55  22 2.56  27 2.56  19 2.56  26 2.56  15 2.57  17 2.57  32 2.57
                            34 2.57  21 2.57  23 2.57  14 2.57
  25  0.889  0.889  0.402-  28 2.55  18 2.56  21 2.56  23 2.56  16 2.56  12 2.56  22 2.56  27 2.56
                            33 2.56  30 2.56  19 2.57  26 2.57
  26  0.223  0.889  0.402-  28 2.55  17 2.56  20 2.56  23 2.56  10 2.56  16 2.56  27 2.56  24 2.56
                            29 2.56  34 2.56  25 2.57  19 2.57
  27  0.556  0.888  0.402-  35 2.55  24 2.56  22 2.56  26 2.56  25 2.56  17 2.57  18 2.57  29 2.57
                            30 2.57  20 2.57  21 2.57  11 2.57
  28  0.000  0.000  0.489-  25 2.55  19 2.55  26 2.55  33 2.56  30 2.56  31 2.56  29 2.56  32 2.56
                            34 2.56
  29  0.333  0.999  0.490-  37 2.03  34 2.55  28 2.56  26 2.56  35 2.56  27 2.57  31 2.57  36 2.57
                            30 2.58  20 2.58
  30  0.668  0.999  0.490-  38 2.03  33 2.55  28 2.56  25 2.56  35 2.56  27 2.57  32 2.57  36 2.57
                            29 2.58  21 2.58
  31  0.999  0.333  0.490-  32 2.55  28 2.56  19 2.56  35 2.56  22 2.57  29 2.57  36 2.57  33 2.58
                            20 2.58
  32  0.668  0.333  0.490-  31 2.55  28 2.56  19 2.56  35 2.56  24 2.57  30 2.57  36 2.57  34 2.58
                            21 2.58
  33  0.999  0.668  0.490-  30 2.55  28 2.56  25 2.56  35 2.56  22 2.57  34 2.57  36 2.57  31 2.58
                            23 2.58
  34  0.333  0.668  0.490-  29 2.55  28 2.56  26 2.56  35 2.56  24 2.57  33 2.57  36 2.57  32 2.58
                            23 2.58
  35  0.667  0.667  0.489-  24 2.55  27 2.55  22 2.55  34 2.56  32 2.56  29 2.56  30 2.56  33 2.56
                            31 2.56
  36  0.333  0.333  0.488-  37 2.07  38 2.07  23 2.55  20 2.55  21 2.55  31 2.57  29 2.57  33 2.57
                            34 2.57  32 2.57  30 2.57
  37  0.316  0.175  0.556-  38 1.49  29 2.03  36 2.07
  38  0.509  0.175  0.556-  37 1.49  30 2.03  36 2.07

  LATTYP: Found a hexagonal cell.
 ALAT       =     7.6967864036
 C/A-ratio  =     3.0908716217

  Lattice vectors:

 A1 = (  -3.8483927580,  -6.6656128093,   0.0000000000)
 A2 = (   7.6967864037,   0.0000000000,   0.0000000000)
 A3 = (   0.0000000000,   0.0000000000,  23.7897786731)

Analysis of symmetry for initial positions (statically):
 Subroutine PRICEL returns:
 Original cell was already a primitive cell.

 Routine SETGRP: Setting up the symmetry group for a
 hexagonal supercell.

 Subroutine GETGRP returns: Found  2 space group operations
 (whereof  2 operations were pure point group operations)
 out of a pool of 24 trial point group operations.

The static configuration has the point symmetry C_1h.

Analysis of symmetry for dynamics (positions and initial velocities):
 Subroutine PRICEL returns:
 Original cell was already a primitive cell.

[...]

The dynamic configuration has the point symmetry C_1h.

Analysis of constrained symmetry for selective dynamics:
 Subroutine PRICEL returns:
 Original cell was already a primitive cell.

 Routine SETGRP: Setting up the symmetry group for a
[...]
     33      -4.5351      2.00000
     34      -4.5162      2.00000
     35      -4.5043      2.00000
     36      -4.4950      2.00000
     37      -4.4823      2.00000
     38      -4.4562      2.00000
     39      -4.4158      2.00000
     40      -4.3821      2.00000
     41      -4.2963      2.00000
     42      -4.2183      2.00000
     43      -4.1859      2.00000
     44      -4.1691      2.00000
     45      -4.1175      2.00000
     46      -4.1149      2.00000
     47      -4.0990      2.00000
     48      -4.0875      2.00000
     49      -4.0773      2.00000
     50      -4.0535      2.00000
     51      -4.0303      2.00000
     52      -3.8805      2.00000
     53      -3.8661      2.00000
     54      -3.8538      2.00000
     55      -3.8412      2.00000
     56      -3.8025      2.00000
     57      -3.7929      2.00000
     58      -3.7777      2.00000
     59      -3.7685      2.00000
     60      -3.7518      2.00000
[...]
    238       5.4132      0.00000
    239       5.4834      0.00000
    240       5.7769      0.00000
    241       5.7872      0.00000
    242       5.9271      0.00000
    243       6.0997      0.00000
    244       6.1379      0.00000
    245       6.2356      0.00000
    246       6.3728      0.00000
    247       6.4176      0.00000
    248       6.5717      0.00000
    249       6.6079      0.00000
    250       6.8004      0.00000
    251       6.8399      0.00000
    252       6.9433      0.00000

 soft charge-density along one line, spin component           1
         0         1         2         3         4         5         6         7         8         9
 total charge-density along one line

------------------------ aborting loop because EDIFF is reached ----------------------------------------

 total charge

# of ion       s       p       d       tot
    1        0.448   0.282   9.191   9.922
    2        0.447   0.285   9.188   9.920
    3        0.447   0.285   9.188   9.920
    4        0.449   0.285   9.187   9.920
    5        0.447   0.288   9.183   9.917
    6        0.449   0.285   9.187   9.920
    7        0.450   0.285   9.185   9.920
    8        0.450   0.285   9.185   9.920
    9        0.446   0.284   9.188   9.919
   10        0.442   0.372   9.176   9.990
   11        0.442   0.367   9.182   9.991
   12        0.442   0.372   9.176   9.990
   13        0.443   0.366   9.184   9.993
   14        0.443   0.366   9.184   9.993
   15        0.437   0.368   9.181   9.987
   16        0.444   0.373   9.174   9.991
   17        0.439   0.368   9.181   9.988
   18        0.439   0.368   9.181   9.988
   19        0.438   0.369   9.183   9.990
   20        0.453   0.391   9.171  10.015
   21        0.453   0.391   9.171  10.015
   22        0.431   0.371   9.183   9.985
   23        0.460   0.396   9.160  10.016
   24        0.431   0.371   9.183   9.985
   25        0.440   0.373   9.179   9.992
   26        0.440   0.373   9.179   9.992
   27        0.432   0.375   9.178   9.984
   28        0.453   0.284   9.199   9.936
   29        0.432   0.360   9.176   9.969
   30        0.432   0.360   9.176   9.969
   31        0.444   0.300   9.196   9.940
   32        0.444   0.300   9.196   9.940
   33        0.452   0.307   9.178   9.937
   34        0.452   0.307   9.178   9.937
   35        0.446   0.283   9.201   9.931
   36        0.552   0.664   6.677   7.893
   37        1.607   3.237   0.000   4.844
   38        1.607   3.237   0.000   4.844
tot         19.306  18.929 328.063 366.299

  FORCE on cell =-STRESS in cart. coord.  units (eV):
  Direction    XX          YY          ZZ          XY          YZ          ZX
  Alpha Z   806.55273   806.55273   806.55273
  Ewald  226173.57205225874.86408************     0.00038   108.67652     0.00019
  Hartree238980.93234238791.50777************     0.00004   110.06713     0.00007
  E(xc)   -2343.94215 -2344.59279 -2348.25206    -0.00032    -0.25908    -0.00003
  Local  ************************478018.36799     0.02042  -229.63986    -0.00075
  n-local  -784.90062  -791.96083  -806.12292     2.00316    -2.43554     0.17257
  augment  3363.53287  3368.56710  3382.31664    -0.01871     2.24159     0.00034
  Kinetic  3461.43359  3501.89774  3513.22366     1.06218    11.26453    -0.22716
  Fock        0.00000     0.00000     0.00000     0.00000     0.00000     0.00000
  Total      -2.34248    -2.60417    -0.15104     0.00000    -0.08472     0.00000
  in kB      -3.07501    -3.41853    -0.19828     0.00000    -0.11121     0.00000

 VOLUME and BASIS-vectors are now :
  energy-cutoff  :      500.00
  volume of cell :     1220.51
      direct lattice vectors                 reciprocal lattice vectors
     7.696786404  0.000000000  0.000000000     0.129924354 -0.075011849  0.000000000
     3.848392758  6.665612809  0.000000000     0.000000000  0.150023716  0.000000000
     0.000000000  0.000000000 23.789778673     0.000000000  0.000000000  0.042034859

  length of vectors
     7.696786404  7.696786404 23.789778673     0.150023716  0.150023716  0.042034859

 FORCES acting on ions
    electron-ion (+dipol)            ewald-force                    non-local-force                 convergence-correction
   -.416E-04 0.410E-01 0.377E+04   0.579E-04 -.129E+00 -.377E+04   -.816E-08 0.123E+00 -.285E+01   -.353E-03 -.473E-01 -.322E+00
   0.167E+00 0.203E+00 0.377E+04   -.184E-01 -.167E+00 -.377E+04   -.133E+00 0.430E-02 -.209E+01   -.380E-02 -.242E-01 -.273E+00
   -.167E+00 0.203E+00 0.377E+04   0.183E-01 -.167E+00 -.377E+04   0.133E+00 0.430E-02 -.209E+01   0.465E-02 -.217E-01 -.272E+00
   -.295E-01 -.442E+00 0.377E+04   -.386E-01 0.350E+00 -.377E+04   0.659E-01 0.181E-01 -.184E+01   0.138E-01 0.776E-01 -.273E+00
   -.589E-04 -.666E+00 0.377E+04   0.116E-03 0.351E+00 -.377E+04   -.165E-07 0.248E+00 -.164E+01   0.121E-01 0.652E-01 -.184E+00
   0.295E-01 -.442E+00 0.377E+04   0.385E-01 0.350E+00 -.377E+04   -.659E-01 0.181E-01 -.184E+01   -.154E-01 0.788E-01 -.272E+00
   0.526E-01 0.417E+00 0.377E+04   -.211E-01 -.186E+00 -.377E+04   -.554E-02 -.207E+00 -.181E+01   0.159E-02 -.362E-01 -.331E+00
   -.525E-01 0.417E+00 0.377E+04   0.208E-01 -.186E+00 -.377E+04   0.554E-02 -.207E+00 -.181E+01   0.182E-02 -.377E-01 -.331E+00
   -.144E-03 0.199E+00 0.377E+04   0.263E-03 -.216E+00 -.377E+04   -.456E-08 0.685E-01 -.229E+01   -.131E-01 -.439E-01 -.238E+00
   0.195E+01 0.494E+00 0.133E+04   -.160E+01 -.115E+00 -.133E+04   -.391E+00 -.372E+00 -.105E+01   0.375E-01 0.981E-02 0.699E-01
   -.924E-04 -.483E+00 0.133E+04   0.190E-03 0.139E+00 -.133E+04   -.179E-07 0.268E+00 -.763E+00   0.119E-01 0.321E-01 0.112E+00
   -.195E+01 0.494E+00 0.133E+04   0.160E+01 -.115E+00 -.133E+04   0.391E+00 -.372E+00 -.105E+01   -.393E-01 0.109E-01 0.699E-01
   0.405E+00 -.197E+01 0.133E+04   -.520E+00 0.201E+01 -.133E+04   0.504E-01 -.823E-02 -.210E+00   0.184E-01 -.808E-02 0.354E-01
   -.404E+00 -.197E+01 0.133E+04   0.520E+00 0.201E+01 -.133E+04   -.504E-01 -.823E-02 -.210E+00   0.518E-02 -.965E-02 0.334E-01
   -.140E-03 -.164E+01 0.133E+04   0.299E-03 0.146E+01 -.133E+04   -.428E-08 0.643E-01 -.862E+00   -.345E-02 0.960E-01 0.459E-01
   -.892E-04 0.207E+00 0.133E+04   0.186E-03 -.675E+00 -.133E+04   -.324E-07 0.486E+00 -.151E+01   -.898E-03 -.282E-01 -.902E-02
   -.123E-01 0.243E+01 0.133E+04   -.159E+00 -.236E+01 -.133E+04   0.785E-01 -.255E-01 -.879E+00   0.982E-01 -.409E-01 0.586E-01
   0.124E-01 0.243E+01 0.133E+04   0.158E+00 -.236E+01 -.133E+04   -.785E-01 -.255E-01 -.879E+00   -.968E-01 -.382E-01 0.605E-01
   -.618E-04 -.505E+01 -.113E+04   0.678E-04 0.500E+01 0.113E+04   0.522E-08 -.784E-01 0.869E+00   -.900E-03 0.804E-01 0.655E-01
   -.130E+02 -.235E+02 -.112E+04   0.136E+02 0.244E+02 0.112E+04   -.742E+00 -.854E+00 -.942E+00   0.110E+00 -.168E-01 0.127E+00
   0.130E+02 -.235E+02 -.112E+04   -.136E+02 0.244E+02 0.112E+04   0.742E+00 -.854E+00 -.942E+00   -.108E+00 -.186E-01 0.126E+00
   -.145E+02 0.735E+01 -.115E+04   0.143E+02 -.729E+01 0.114E+04   0.354E+00 -.125E+00 0.105E+01   -.512E-01 0.278E-01 0.567E-01
   -.853E-04 0.165E+02 -.115E+04   0.145E-03 -.178E+02 0.115E+04   -.906E-07 0.136E+01 -.168E+01   -.216E-02 -.695E-01 0.173E+00
   0.145E+02 0.735E+01 -.115E+04   -.143E+02 -.729E+01 0.114E+04   -.354E+00 -.125E+00 0.105E+01   0.731E-01 0.269E-01 0.573E-01
   -.794E+01 0.107E+02 -.113E+04   0.767E+01 -.104E+02 0.113E+04   0.269E+00 -.249E+00 0.477E+00   -.835E-01 -.170E-01 0.849E-01
   0.794E+01 0.107E+02 -.113E+04   -.767E+01 -.104E+02 0.113E+04   -.269E+00 -.249E+00 0.477E+00   0.825E-01 -.171E-01 0.849E-01
   -.111E-03 0.810E+00 -.112E+04   0.243E-03 -.130E+01 0.112E+04   -.315E-07 0.473E+00 0.468E+00   0.109E-01 0.284E-01 0.734E-01
   -.335E-04 0.246E+02 -.359E+04   0.287E-04 -.243E+02 0.359E+04   0.188E-07 -.282E+00 0.240E+01   -.159E-02 -.450E-01 0.187E+00
   0.836E+02 0.967E+02 -.344E+04   -.859E+02 -.100E+03 0.344E+04   0.168E+01 0.269E+01 0.278E+01   0.562E-01 0.423E-01 0.340E-02
   -.836E+02 0.967E+02 -.344E+04   0.859E+02 -.100E+03 0.344E+04   -.168E+01 0.269E+01 0.278E+01   -.340E-01 0.430E-01 0.163E-02
   0.267E+02 -.536E+02 -.357E+04   -.286E+02 0.551E+02 0.356E+04   0.125E+01 -.126E+01 0.343E+01   0.854E-01 0.316E-01 0.118E+00
   -.267E+02 -.536E+02 -.357E+04   0.286E+02 0.551E+02 0.356E+04   -.125E+01 -.126E+01 0.343E+01   -.633E-01 0.327E-01 0.118E+00
   -.295E+02 0.311E+02 -.361E+04   0.294E+02 -.316E+02 0.361E+04   -.928E-01 0.637E+00 0.196E+01   0.834E-01 -.525E-01 0.134E+00
   0.295E+02 0.311E+02 -.361E+04   -.294E+02 -.316E+02 0.361E+04   0.928E-01 0.637E+00 0.196E+01   -.591E-01 -.529E-01 0.135E+00
   -.150E-03 0.434E+02 -.360E+04   0.258E-03 -.432E+02 0.360E+04   0.177E-07 -.267E+00 0.275E+01   -.141E-01 -.237E-01 0.161E+00
   -.571E-04 -.149E+03 -.240E+04   0.937E-04 0.150E+03 0.240E+04   0.104E-08 -.156E-01 0.280E+01   0.966E-04 0.345E-01 0.161E-01
   0.176E+03 -.365E+02 -.243E+04   -.203E+03 0.359E+02 0.245E+04   0.270E+02 0.577E+00 -.208E+02   -.335E-01 -.634E-02 -.543E-02
   -.176E+03 -.365E+02 -.243E+04   0.203E+03 0.359E+02 0.245E+04   -.270E+02 0.577E+00 -.208E+02   0.294E-01 -.612E-02 -.529E-02
   0.113E-03 -.414E+01 0.423E+02   -.568E-13 0.568E-13 0.146E-10   -.273E-06 0.410E+01 -.422E+02   0.111E+00 0.564E-01 -.306E+00

 POSITION                                       TOTAL-FORCE (eV/Angst)
      0.00000      0.00000      5.37156         0.000000     -0.013812      0.023179
      2.56560      0.00000      5.37156         0.011373      0.017155      0.057856
      5.13119      0.00000      5.37156        -0.011373      0.017155      0.057856
      1.28280      2.22187      5.37156         0.012412      0.003632      0.075858
      3.84839      2.22187      5.37156         0.000000     -0.002752      0.055447
      6.41399      2.22187      5.37156        -0.012412      0.003632      0.075858
      2.56560      4.44374      5.37156         0.025884     -0.013364      0.066973
      5.13119      4.44374      5.37156        -0.025884     -0.013364      0.066973
      7.69679      4.44374      5.37156        -0.000000      0.006434      0.032947
      1.28280      0.74062      7.46636         0.003580      0.017097     -0.058980
      3.84839      0.74062      7.46636         0.000000     -0.043657     -0.133260
      6.41399      0.74062      7.46636        -0.003580      0.017097     -0.058980
      2.56560      2.96249      7.46636        -0.058784      0.024829     -0.076324
      5.13119      2.96249      7.46636         0.058784      0.024829     -0.076324
      7.69679      2.96249      7.46636         0.000000     -0.019043      0.017079
      3.84839      5.18437      7.46636         0.000000     -0.009684     -0.055491
      6.41399      5.18437      7.46636         0.005040      0.000120     -0.024223
      8.97958      5.18437      7.46636        -0.005040      0.000120     -0.024223
      7.69679      1.48414      9.55535         0.000000     -0.046703      0.088374
      2.56128      1.47875      9.53998        -0.031199      0.005466     -0.083349
      5.13551      1.47875      9.53998         0.031199      0.005466     -0.083349
      8.97644      3.70493      9.56275         0.103375     -0.039610      0.027323
      3.84839      3.70811      9.53998        -0.000000      0.015780     -0.070116
      6.41713      3.70493      9.56275        -0.103375     -0.039610      0.027323
     10.25987      5.92354      9.55535        -0.082077      0.028978      0.081192
      5.13370      5.92354      9.55535         0.082077      0.028978      0.081192
      7.69679      5.92136      9.56275        -0.000000      0.011282      0.059423
      0.00000      0.00000     11.63109         0.000000     -0.032003     -0.046305
      6.40750      6.66078     11.65531        -0.577219     -0.635893     -0.062467
      8.98608      6.66078     11.65531         0.577219     -0.635893     -0.062467
      8.97216      2.21866     11.65531        -0.497214      0.276507     -0.326677
      6.42142      2.21866     11.65531         0.497214      0.276507     -0.326677
     10.26144      4.45178     11.65531        -0.048971      0.074408     -0.175049
      5.13213      4.45178     11.65531         0.048971      0.074408     -0.175049
      7.69679      4.44374     11.63516         0.000000     -0.137872     -0.017895
      3.84839      2.22187     11.61289        -0.000000      0.734949      1.045586
      3.10503      1.16701     13.22550        -0.006124      0.009216     -0.001617
      4.59176      1.16701     13.22550         0.006124      0.009216     -0.001617
    total drift:                                0.111302      0.020172     -0.139863

  FREE ENERGIE OF THE ION-ELECTRON SYSTEM (eV)
  free  energy   TOTEN  =      -141.37561107 eV

  energy  without entropy=     -141.37561107  energy(sigma->0) =     -141.37561107

 stress matrix after NEB project (eV)
     -2.34248      0.00000      0.00000
      0.00000     -2.60417     -0.08472
      0.00000     -0.08472     -0.15104
  FORCES: max atom, RMS     0.011182    0.002565
  FORCE total and by dimension    0.015814    0.009216
  Stress total and by dimension    3.508003    2.604170
|           W    W    AA    RRRRR   N    N  II  N    N   GGGG   !!!           |
|           W    W   A  A   R    R  NN   N  II  NN   N  G    G  !!!           |
|           W    W  A    A  R    R  N N  N  II  N N  N  G       !!!           |
|           W WW W  AAAAAA  RRRRR   N  N N  II  N  N N  G  GGG   !            |
|           WW  WW  A    A  R   R   N   NN  II  N   NN  G    G                |
|           W    W  A    A  R    R  N    N  II  N    N   GGGG   !!!           |
|     Tetrahedron method does not include variations of the Fermi             |
|     occupations, so forces and stress will be inaccurate. We suggest        |
|     using a different smearing scheme ISMEAR = 1 or 2 for metals in         |
|     relaxations.                                                            |

 total charge

# of ion       s       p       d       tot
    1        0.448   0.282   9.191   9.922
    2        0.447   0.285   9.188   9.920
    3        0.447   0.285   9.188   9.920
    4        0.449   0.285   9.187   9.920
    5        0.447   0.288   9.183   9.917
    6        0.449   0.285   9.187   9.920
    7        0.450   0.285   9.185   9.920
    8        0.450   0.285   9.185   9.920
    9        0.446   0.284   9.188   9.919
   10        0.442   0.372   9.176   9.990
   11        0.442   0.367   9.182   9.991
   12        0.442   0.372   9.176   9.990
   13        0.443   0.366   9.184   9.993
   14        0.443   0.366   9.184   9.993
   15        0.437   0.368   9.181   9.987
   16        0.444   0.373   9.174   9.991
   17        0.439   0.368   9.181   9.988
   18        0.439   0.368   9.181   9.988
   19        0.438   0.369   9.183   9.990
   20        0.453   0.391   9.171  10.015
   21        0.453   0.391   9.171  10.015
   22        0.431   0.371   9.183   9.985
   23        0.460   0.396   9.160  10.016
   24        0.431   0.371   9.183   9.985
   25        0.440   0.373   9.179   9.992
   26        0.440   0.373   9.179   9.992
   27        0.432   0.375   9.178   9.984
   28        0.453   0.284   9.199   9.936
   29        0.432   0.360   9.176   9.969
   30        0.432   0.360   9.176   9.969
   31        0.444   0.300   9.196   9.940
   32        0.444   0.300   9.196   9.940
   33        0.452   0.307   9.178   9.937
   34        0.452   0.307   9.178   9.937
   35        0.446   0.283   9.201   9.931
   36        0.552   0.664   6.677   7.893
   37        1.607   3.237   0.000   4.844
   38        1.607   3.237   0.000   4.844
tot         19.306  18.929 328.063 366.299

 BZINTS: Fermi energy:   -0.423414;  405.000000 electrons
         Band energy:-0.139150E+04;  BLOECHL correction:   -0.048057