 vasp.6.2.0 18Jan21 (build Jun 12 2021 23:27:24) complex

 executed on             LinuxIFC date 2022.05.27  05:59:47

 INCAR:
   ISMEAR = -5
   SIGMA = 0.1
   ISPIN = 1
   EDIFF = 1.d-5
   EDIFFG = -0.01
   NSW = 0
   NELM = 150
   ENCUT = 500
   ISIF = 2
   IBRION = 2
   LREAL = Auto
   ALGO = Fast
   ICHARG = 11
   LORBIT = 10
   LCHARG = .F.
   LWAVE = .F.

 POTCAR:    PAW_PBE Cu 22Jun2005
 POTCAR:    PAW_PBE Cr 06Sep2000
 POTCAR:    PAW_PBE O 08Apr2002
 POTCAR:    PAW_PBE H 15Jun2001
|           W    W    AA    RRRRR   N    N  II  N    N   GGGG   !!!           |
|           W    W   A  A   R    R  NN   N  II  NN   N  G    G  !!!           |
|           W    W  A    A  R    R  N N  N  II  N N  N  G       !!!           |
|           W WW W  AAAAAA  RRRRR   N  N N  II  N  N N  G  GGG   !            |
|           WW  WW  A    A  R   R   N   NN  II  N   NN  G    G                |
|           W    W  A    A  R    R  N    N  II  N    N   GGGG   !!!           |
|     For optimal performance we recommend to set                             |
|       NCORE = 2 up to number-of-cores-per-socket                            |
|     This setting can greatly improve the performance of VASP for DFT.       |
|     The default, NCORE=1 might be grossly inefficient on modern             |
|     multi-core architectures or massively parallel machines. Do your        |
|     Unfortunately you need to use the default for GW and RPA                |
|     calculations (for HF NCORE is supported but not extensively tested      |
|     yet).                                                                   |

 POTCAR:    PAW_PBE Cu 22Jun2005
   VRHFIN =Cu: d10 p1

   TITEL  = PAW_PBE Cu 22Jun2005
   POMASS =   63.546; ZVAL   =   11.000    mass and valenz
   ENMAX  =  295.446; ENMIN  =  221.585 eV

 POTCAR:    PAW_PBE Cr 06Sep2000
   VRHFIN =Cr : d5 s1

   TITEL  = PAW_PBE Cr 06Sep2000
   POMASS =   51.996; ZVAL   =    6.000    mass and valenz
   ENMAX  =  227.080; ENMIN  =  170.310 eV

 POTCAR:    PAW_PBE O 08Apr2002
   VRHFIN =O: s2p4

   TITEL  = PAW_PBE O 08Apr2002
   POMASS =   16.000; ZVAL   =    6.000    mass and valenz
   ENMAX  =  400.000; ENMIN  =  300.000 eV

 POTCAR:    PAW_PBE H 15Jun2001
   VRHFIN =H: ultrasoft test

   TITEL  = PAW_PBE H 15Jun2001
   POMASS =    1.000; ZVAL   =    1.000    mass and valenz
   ENMAX  =  250.000; ENMIN  =  200.000 eV

 Optimization of the real space projectors (new method)

 maximal supplied QI-value         = 16.25
 optimisation between [QCUT,QGAM] = [ 11.38, 22.75] = [ 36.24,144.96] Ry
 Optimized for a Real-space Cutoff    1.52 Angstroem

   l    n(q)    QCUT    max X(q) W(low)/X(q) W(high)/X(q)  e(spline)
   2      9    11.376     4.610    0.21E-03    0.10E-03    0.26E-06
   2      9    11.376     8.522    0.33E-03    0.16E-03    0.37E-06
   0     10    11.376    51.609    0.62E-04    0.20E-04    0.13E-06
   0     10    11.376    27.747    0.54E-04    0.20E-04    0.13E-06
   1     10    11.376    20.408    0.13E-04    0.99E-04    0.19E-06
   1     10    11.376    13.425    0.12E-04    0.87E-04    0.17E-06
 Optimization of the real space projectors (new method)

[...]

   l    n(q)    QCUT    max X(q) W(low)/X(q) W(high)/X(q)  e(spline)
   0      7    11.387    20.381    0.39E-03    0.13E-02    0.15E-06
   0      7    11.387    15.268    0.42E-03    0.14E-02    0.17E-06
   1      6    11.387     5.964    0.41E-03    0.11E-02    0.17E-06
   1      6    11.387     5.382    0.39E-03    0.87E-03    0.15E-06
 Optimization of the real space projectors (new method)

 maximal supplied QI-value         = 34.20
 optimisation between [QCUT,QGAM] = [ 11.29, 22.57] = [ 35.68,142.71] Ry
 Optimized for a Real-space Cutoff    1.16 Angstroem

   l    n(q)    QCUT    max X(q) W(low)/X(q) W(high)/X(q)  e(spline)
   0      8    11.287    19.460    0.40E-03    0.73E-03    0.16E-06
   0      8    11.287    12.209    0.38E-03    0.70E-03    0.15E-06
   1      7    11.287     4.655    0.22E-03    0.25E-04    0.22E-06
  PAW_PBE Cu 22Jun2005                  :
  PAW_PBE Cr 06Sep2000                  :
  PAW_PBE O 08Apr2002                   :
  PAW_PBE H 15Jun2001                   :

 POSCAR: Cu-Cr-OH
  positions in direct lattice
  velocities in cartesian coordinates
 exchange correlation table for  LEXCH =        8
   RHO(1)=    0.500       N(1)  =     2000
   RHO(2)=  100.500       N(2)  =     4000

 VTST: version 3.2, (02/03/18)

 CHAIN: initializing optimizer

 OPT: Using VASP Conjugate-Gradient optimizer
 CHAIN: Read ICHAIN            0

 POSCAR: Cu-Cr-OH
  positions in direct lattice
  velocities in cartesian coordinates

 ion  position               nearest neighbor table
   1  0.000  0.000  0.252-   7 2.57   3 2.57   4 2.57   2 2.57   6 2.57   8 2.57  12 2.57  10 2.57
                            16 2.57
   2  0.333  0.000  0.252-   8 2.57   9 2.57   5 2.57   1 2.57   3 2.57  11 2.57   4 2.57  10 2.57
                            17 2.57
   3  0.667  0.000  0.252-   1 2.57   7 2.57   6 2.57   9 2.57   2 2.57  12 2.57   5 2.57  18 2.57
                            11 2.57
   4  0.000  0.333  0.252-   5 2.57   6 2.57   1 2.57   7 2.57   2 2.57  13 2.57   9 2.57  10 2.57
                            15 2.57
   5  0.333  0.333  0.252-   4 2.57   2 2.57   7 2.57  13 2.57   8 2.57   6 2.57   3 2.57  11 2.57
                            14 2.57
   6  0.667  0.333  0.252-   4 2.57   9 2.57  15 2.57   3 2.57   1 2.57   8 2.57  14 2.57   5 2.57
                            12 2.57
   7  0.000  0.667  0.252-   1 2.57   3 2.57  16 2.57  18 2.57   4 2.57   5 2.57   8 2.57   9 2.57
                            13 2.57
   8  0.333  0.667  0.252-   9 2.57   2 2.57  17 2.57   6 2.57   1 2.57   7 2.57   5 2.57  14 2.57
                            16 2.57
   9  0.667  0.667  0.252-   8 2.57   6 2.57   2 2.57  17 2.57   3 2.57   7 2.57   4 2.57  15 2.57
                            18 2.57
  10  0.111  0.111  0.351-  20 2.55  26 2.56  19 2.56  11 2.57  12 2.57  13 2.57   1 2.57   2 2.57
                             4 2.57  15 2.57  16 2.57  17 2.57
  11  0.444  0.111  0.351-  20 2.55  21 2.55  10 2.57  13 2.57   2 2.57  17 2.57  14 2.57  12 2.57
                             5 2.57   3 2.57  18 2.57  27 2.57
  12  0.778  0.111  0.351-  21 2.55  19 2.56  25 2.56  15 2.57  10 2.57  14 2.57  18 2.57   3 2.57
                             1 2.57  16 2.57  11 2.57   6 2.57
  13  0.111  0.444  0.351-  23 2.55  20 2.55  16 2.57  18 2.57  10 2.57  11 2.57  14 2.57   5 2.57
                             4 2.57   7 2.57  15 2.57  22 2.57
  14  0.444  0.444  0.351-  21 2.55  23 2.55  15 2.57  17 2.57  12 2.57  16 2.57  13 2.57  11 2.57
                             6 2.57   8 2.57   5 2.57  24 2.57
  15  0.778  0.444  0.351-  19 2.56  24 2.56  22 2.56  14 2.57  17 2.57  12 2.57   6 2.57  18 2.57
                            10 2.57   9 2.57  13 2.57   4 2.57
  16  0.111  0.778  0.351-  23 2.55  25 2.56  26 2.56  18 2.57  13 2.57   7 2.57  14 2.57  17 2.57
                            12 2.57  10 2.57   8 2.57   1 2.57
  17  0.444  0.778  0.351-  26 2.56  27 2.56  24 2.56  14 2.57  15 2.57   8 2.57   9 2.57  11 2.57
                            16 2.57  18 2.57  10 2.57   2 2.57
  18  0.778  0.778  0.351-  25 2.56  22 2.56  27 2.56  16 2.57  13 2.57   7 2.57  15 2.57  12 2.57
                            17 2.57   9 2.57   3 2.57  11 2.57
  19  0.889  0.222  0.449-  12 2.56  10 2.56  15 2.56  28 2.56  25 2.57  26 2.57  22 2.57  24 2.57
                            21 2.57  20 2.57  32 2.58  31 2.58
  20  0.222  0.222  0.448-  36 2.50  11 2.55  13 2.55  10 2.55  23 2.56  21 2.56  26 2.57  19 2.57
                            29 2.57  31 2.57  27 2.57  22 2.57
  21  0.555  0.222  0.448-  36 2.50  14 2.55  11 2.55  12 2.55  20 2.56  23 2.56  19 2.57  25 2.57
                            32 2.57  30 2.57  24 2.57  27 2.57
  22  0.888  0.556  0.449-  35 2.56  24 2.56  27 2.56  18 2.56  15 2.56  31 2.56  33 2.56  19 2.57
                            25 2.57  13 2.57  23 2.57  20 2.57
  23  0.222  0.555  0.448-  36 2.50  13 2.55  14 2.55  16 2.55  20 2.56  21 2.56  25 2.57  26 2.57
                            33 2.57  34 2.57  22 2.57  24 2.57
  24  0.556  0.556  0.449-  35 2.56  22 2.56  27 2.56  15 2.56  17 2.56  32 2.56  34 2.56  19 2.57
                            26 2.57  14 2.57  21 2.57  23 2.57
  25  0.889  0.889  0.449-  12 2.56  16 2.56  18 2.56  28 2.56  19 2.57  26 2.57  22 2.57  27 2.57
                            21 2.57  23 2.57  33 2.58  30 2.58
  26  0.222  0.889  0.449-  10 2.56  16 2.56  17 2.56  28 2.56  25 2.57  19 2.57  27 2.57  24 2.57
                            20 2.57  23 2.57  29 2.58  34 2.58
  27  0.556  0.888  0.449-  35 2.56  24 2.56  22 2.56  17 2.56  18 2.56  29 2.56  30 2.56  26 2.57
                            25 2.57  11 2.57  20 2.57  21 2.57
  28  0.000  0.000  0.547-  25 2.56  19 2.56  26 2.56  33 2.57  30 2.57  31 2.57  29 2.57  32 2.57
                            34 2.57
  29  0.333  0.002  0.547-  31 2.55  30 2.55  36 2.55  27 2.56  20 2.57  28 2.57  35 2.57  26 2.58
                            34 2.60
  30  0.665  0.002  0.547-  32 2.55  29 2.55  36 2.55  27 2.56  21 2.57  28 2.57  35 2.57  25 2.58
                            33 2.60
  31  0.002  0.333  0.547-  29 2.55  33 2.55  36 2.55  22 2.56  20 2.57  28 2.57  35 2.57  19 2.58
                            32 2.60
  32  0.665  0.333  0.547-  30 2.55  34 2.55  36 2.55  24 2.56  21 2.57  28 2.57  35 2.57  19 2.58
                            31 2.60
  33  0.002  0.665  0.547-  34 2.55  31 2.55  36 2.55  22 2.56  23 2.57  28 2.57  35 2.57  25 2.58
                            30 2.60
  34  0.333  0.665  0.547-  33 2.55  32 2.55  36 2.55  24 2.56  23 2.57  28 2.57  35 2.57  26 2.58
                            29 2.60
  35  0.667  0.667  0.547-  24 2.56  27 2.56  22 2.56  34 2.57  32 2.57  29 2.57  30 2.57  33 2.57
                            31 2.57
  36  0.333  0.333  0.543-  37 1.75  23 2.50  20 2.50  21 2.50  31 2.55  29 2.55  33 2.55  34 2.55
                            32 2.55  30 2.55
  37  0.333  0.333  0.625-  38 0.97  36 1.75
  38  0.333  0.333  0.671-  37 0.97

  LATTYP: Found a hexagonal cell.
 ALAT       =     7.6967864036
 C/A-ratio  =     2.7653617908

  Lattice vectors:

 A1 = (  -3.8483927580,  -6.6656128093,   0.0000000000)
 A2 = (   7.6967864037,   0.0000000000,   0.0000000000)
 A3 = (   0.0000000000,   0.0000000000,  21.2843990326)

Analysis of symmetry for initial positions (statically):
 Subroutine PRICEL returns:
 Original cell was already a primitive cell.

 Routine SETGRP: Setting up the symmetry group for a
 hexagonal supercell.

 Subroutine GETGRP returns: Found  6 space group operations
 (whereof  6 operations were pure point group operations)
 out of a pool of 24 trial point group operations.

The static configuration has the point symmetry C_3v.

Analysis of symmetry for dynamics (positions and initial velocities):
 Subroutine PRICEL returns:
 Original cell was already a primitive cell.

[...]

The dynamic configuration has the point symmetry C_3v.

Analysis of constrained symmetry for selective dynamics:
 Subroutine PRICEL returns:
 Original cell was already a primitive cell.

[...]
     33      -3.7103      2.00000
     34      -3.6991      2.00000
     35      -3.6846      2.00000
     36      -3.6333      2.00000
     37      -3.6178      2.00000
     38      -3.6040      2.00000
     39      -3.5114      2.00000
     40      -3.5048      2.00000
     41      -3.4054      2.00000
     42      -3.3999      2.00000
     43      -3.3196      2.00000
     44      -3.3163      2.00000
     45      -3.3006      2.00000
     46      -3.2793      2.00000
     47      -3.2677      2.00000
     48      -3.2479      2.00000
     49      -3.2339      2.00000
     50      -3.0755      2.00000
     51      -3.0536      2.00000
     52      -3.0452      2.00000
     53      -3.0413      2.00000
     54      -2.9951      2.00000
     55      -2.9930      2.00000
     56      -2.9749      2.00000
     57      -2.9515      2.00000
     58      -2.9459      2.00000
     59      -2.9275      2.00000
     60      -2.9135      2.00000
[...]
    238       6.3772      0.00000
    239       6.5635      0.00000
    240       6.6274      0.00000
    241       6.7064      0.00000
    242       6.7700      0.00000
    243       6.9883      0.00000
    244       7.0205      0.00000
    245       7.1475      0.00000
    246       7.3624      0.00000
    247       7.4924      0.00000
    248       7.5886      0.00000
    249       7.6563      0.00000
    250       7.7165      0.00000
    251       7.9330      0.00000
    252       8.2386      0.00000

 soft charge-density along one line, spin component           1
         0         1         2         3         4         5         6         7         8         9
 total charge-density along one line

------------------------ aborting loop because EDIFF is reached ----------------------------------------

 total charge

# of ion       s       p       d       tot
    1        0.449   0.283   9.189   9.921
    2        0.449   0.286   9.185   9.920
    3        0.449   0.286   9.185   9.920
    4        0.449   0.286   9.185   9.920
    5        0.449   0.286   9.183   9.918
    6        0.449   0.286   9.185   9.920
    7        0.449   0.286   9.185   9.920
    8        0.449   0.286   9.185   9.920
    9        0.446   0.286   9.187   9.919
   10        0.443   0.370   9.178   9.991
   11        0.441   0.368   9.182   9.991
   12        0.443   0.370   9.178   9.991
   13        0.441   0.368   9.182   9.991
   14        0.441   0.368   9.182   9.991
   15        0.438   0.369   9.179   9.987
   16        0.443   0.370   9.178   9.991
   17        0.438   0.369   9.179   9.987
   18        0.438   0.369   9.179   9.987
   19        0.441   0.366   9.183   9.990
   20        0.464   0.397   9.158  10.019
   21        0.464   0.397   9.158  10.019
   22        0.432   0.374   9.180   9.986
   23        0.464   0.397   9.158  10.019
   24        0.432   0.374   9.180   9.986
   25        0.441   0.366   9.183   9.990
   26        0.441   0.366   9.183   9.990
   27        0.432   0.374   9.180   9.986
   28        0.451   0.286   9.185   9.921
   29        0.455   0.299   9.183   9.937
   30        0.455   0.299   9.183   9.937
   31        0.455   0.299   9.183   9.937
   32        0.455   0.299   9.183   9.937
   33        0.455   0.299   9.183   9.937
   34        0.455   0.299   9.183   9.937
   35        0.443   0.290   9.185   9.918
   36        0.496   0.641   4.395   5.532
   37        1.560   3.523   0.000   5.083
   38        0.606   0.124   0.000   0.730
tot         18.299  15.964 325.706 359.969

  FORCE on cell =-STRESS in cart. coord.  units (eV):
  Direction    XX          YY          ZZ          XY          YZ          ZX
  Alpha Z   882.56031   882.56031   882.56031
  Ewald  171591.18342171591.18302************     0.00039     0.00013     0.00018
  Hartree184784.13744184784.13743************     0.00004     0.00006     0.00007
  E(xc)   -2305.95675 -2305.95630 -2309.33193    -0.00039    -0.00003    -0.00006
  Local  ************************369408.81685     0.01876    -0.00062    -0.00099
  n-local  -797.71585  -783.85081  -801.21631     7.25208    -0.10899     0.33039
  augment  3344.69772  3344.71786  3356.59197    -0.01745     0.00025     0.00043
  Kinetic  3328.67630  3332.00725  3317.27682     3.36173     1.52024    -1.25152
  Fock        0.00000     0.00000     0.00000     0.00000     0.00000     0.00000
  Total      -5.80453    -5.80453     0.39529     0.00000    -0.00000    -0.00000
  in kB      -8.51661    -8.51661     0.57999     0.00000    -0.00000    -0.00000

 VOLUME and BASIS-vectors are now :
  energy-cutoff  :      500.00
  volume of cell :     1091.97
      direct lattice vectors                 reciprocal lattice vectors
     7.696786404  0.000000000  0.000000000     0.129924354 -0.075011849  0.000000000
     3.848392758  6.665612809  0.000000000     0.000000000  0.150023716  0.000000000
     0.000000000  0.000000000 21.284399033     0.000000000  0.000000000  0.046982769

  length of vectors
     7.696786404  7.696786404 21.284399033     0.150023716  0.150023716  0.046982769

 FORCES acting on ions
    electron-ion (+dipol)            ewald-force                    non-local-force                 convergence-correction
   -.417E-04 0.903E-07 0.348E+04   0.580E-04 -.436E-05 -.348E+04   -.436E-17 0.354E-17 -.261E+01   -.156E-03 -.570E-04 -.396E+00
   -.277E+00 -.379E+00 0.348E+04   0.259E+00 0.168E+00 -.348E+04   0.243E-01 0.177E+00 -.187E+01   -.448E-02 0.435E-01 -.372E+00
   0.277E+00 -.379E+00 0.348E+04   -.259E+00 0.168E+00 -.348E+04   -.243E-01 0.177E+00 -.187E+01   0.514E-02 0.461E-01 -.371E+00
   -.466E+00 -.502E-01 0.348E+04   0.275E+00 0.140E+00 -.348E+04   0.165E+00 -.674E-01 -.187E+01   0.355E-01 -.257E-01 -.372E+00
   -.659E-04 -.585E-05 0.348E+04   0.116E-03 -.101E-04 -.347E+04   0.360E-18 0.132E-17 -.172E+01   0.121E-01 0.739E-02 -.305E+00
   0.466E+00 -.501E-01 0.348E+04   -.275E+00 0.140E+00 -.348E+04   -.165E+00 -.674E-01 -.187E+01   -.371E-01 -.244E-01 -.371E+00
   -.190E+00 0.429E+00 0.348E+04   0.157E-01 -.308E+00 -.348E+04   0.141E+00 -.109E+00 -.187E+01   0.425E-01 -.186E-01 -.371E+00
   0.190E+00 0.429E+00 0.348E+04   -.160E-01 -.308E+00 -.348E+04   -.141E+00 -.109E+00 -.187E+01   -.389E-01 -.199E-01 -.371E+00
   -.144E-03 -.329E-04 0.348E+04   0.263E-03 0.205E-04 -.348E+04   -.230E-17 0.103E-17 -.224E+01   -.133E-01 -.686E-02 -.366E+00
   -.109E+01 -.627E+00 0.117E+04   0.162E+01 0.934E+00 -.117E+04   -.525E+00 -.303E+00 -.967E+00   -.529E-02 -.307E-02 -.378E+00
   -.906E-04 -.157E+01 0.117E+04   0.189E-03 0.131E+01 -.117E+04   -.157E-07 0.236E+00 -.433E+00   0.108E-01 -.112E-01 -.385E+00
   0.109E+01 -.627E+00 0.117E+04   -.162E+01 0.934E+00 -.117E+04   0.525E+00 -.303E+00 -.967E+00   0.472E-02 -.175E-02 -.380E+00
   -.136E+01 0.785E+00 0.117E+04   0.113E+01 -.653E+00 -.117E+04   0.205E+00 -.118E+00 -.433E+00   -.381E-02 0.157E-01 -.385E+00
   0.136E+01 0.785E+00 0.117E+04   -.113E+01 -.653E+00 -.117E+04   -.205E+00 -.118E+00 -.433E+00   0.275E-01 0.155E-01 -.386E+00
   -.142E-03 -.631E+00 0.117E+04   0.298E-03 0.466E+00 -.117E+04   -.557E-08 0.836E-01 -.929E+00   -.299E-02 0.603E-01 -.354E+00
   -.920E-04 0.125E+01 0.117E+04   0.186E-03 -.187E+01 -.117E+04   -.404E-07 0.606E+00 -.967E+00   -.880E-04 0.375E-02 -.380E+00
   -.546E+00 0.315E+00 0.117E+04   0.404E+00 -.233E+00 -.117E+04   0.724E-01 -.418E-01 -.929E+00   0.514E-01 -.327E-01 -.354E+00
   0.547E+00 0.315E+00 0.117E+04   -.404E+00 -.233E+00 -.117E+04   -.724E-01 -.418E-01 -.929E+00   -.511E-01 -.312E-01 -.355E+00
   -.618E-04 -.370E+01 -.115E+04   0.699E-04 0.365E+01 0.115E+04   -.424E-08 0.637E-01 0.101E+01   0.134E-01 -.211E-01 -.250E+00
   -.284E+02 -.164E+02 -.117E+04   0.296E+02 0.171E+02 0.117E+04   -.121E+01 -.701E+00 -.957E+00   -.662E-02 -.395E-02 -.385E+00
   0.284E+02 -.164E+02 -.117E+04   -.296E+02 0.171E+02 0.117E+04   0.121E+01 -.701E+00 -.957E+00   -.158E-01 -.155E-02 -.386E+00
   -.138E+02 0.797E+01 -.115E+04   0.136E+02 -.787E+01 0.115E+04   0.394E+00 -.228E+00 0.771E+00   -.162E+00 0.766E-01 -.360E+00
   -.809E-04 0.328E+02 -.117E+04   0.147E-03 -.342E+02 0.117E+04   -.933E-07 0.140E+01 -.957E+00   -.104E-01 -.142E-01 -.386E+00
   0.138E+02 0.797E+01 -.115E+04   -.136E+02 -.787E+01 0.115E+04   -.394E+00 -.228E+00 0.771E+00   0.141E+00 0.803E-01 -.360E+00
   0.320E+01 0.185E+01 -.115E+04   -.316E+01 -.183E+01 0.115E+04   -.552E-01 -.318E-01 0.101E+01   0.366E-01 0.212E-01 -.251E+00
   -.320E+01 0.185E+01 -.115E+04   0.316E+01 -.183E+01 0.115E+04   0.552E-01 -.318E-01 0.101E+01   -.112E-01 0.223E-01 -.250E+00
   -.124E-03 -.159E+02 -.115E+04   0.240E-03 0.157E+02 0.115E+04   -.303E-07 0.455E+00 0.771E+00   -.146E-01 -.179E+00 -.360E+00
   -.341E-04 0.172E-04 -.342E+04   0.367E-04 -.336E-04 0.342E+04   -.578E-17 0.185E-18 0.167E+01   0.807E-03 0.517E-03 0.767E-01
   -.754E+01 -.154E+02 -.340E+04   0.753E+01 0.150E+02 0.339E+04   -.878E-01 0.346E+00 0.260E+01   -.528E-01 -.115E+00 0.180E+00
   0.754E+01 -.154E+02 -.340E+04   -.753E+01 0.150E+02 0.339E+04   0.878E-01 0.346E+00 0.260E+01   0.524E-01 -.113E+00 0.182E+00
   -.171E+02 0.119E+01 -.340E+04   0.167E+02 -.959E+00 0.339E+04   0.256E+00 -.249E+00 0.260E+01   -.126E+00 0.118E-01 0.180E+00
   0.171E+02 0.119E+01 -.340E+04   -.167E+02 -.959E+00 0.339E+04   -.256E+00 -.249E+00 0.260E+01   0.126E+00 0.139E-01 0.182E+00
   -.961E+01 0.142E+02 -.340E+04   0.919E+01 -.140E+02 0.339E+04   0.343E+00 -.969E-01 0.260E+01   -.717E-01 0.102E+00 0.182E+00
   0.961E+01 0.142E+02 -.340E+04   -.919E+01 -.140E+02 0.339E+04   -.343E+00 -.969E-01 0.260E+01   0.757E-01 0.102E+00 0.182E+00
   -.129E-03 -.168E-04 -.343E+04   0.254E-03 0.506E-05 0.342E+04   -.596E-17 -.348E-17 0.212E+01   -.134E-01 -.690E-02 0.214E+00
   -.472E-04 -.141E-04 -.168E+04   0.773E-04 0.145E-04 0.168E+04   0.213E-17 0.346E-17 0.124E+01   0.126E-02 0.767E-03 0.100E+00
   0.187E-03 -.782E-04 -.211E+04   0.185E-04 0.857E-05 0.209E+04   -.639E-18 -.109E-17 0.206E+02   0.312E-02 0.190E-02 0.241E+00
   0.505E-05 -.130E-04 -.392E+03   0.711E-06 0.583E-06 0.401E+03   0.583E-19 0.546E-19 -.846E+01   0.168E-03 0.102E-03 -.214E-02
   -.116E-03 -.119E-03 -.255E+01   0.192E-12 0.314E-12 -.375E-11   -.441E-17 -.292E-15 0.105E+02   -.216E-02 -.422E-02 -.792E+01

 POSITION                                       TOTAL-FORCE (eV/Angst)
      0.00000      0.00000      5.37156        -0.000000      0.000000     -0.007545
      2.56560      0.00000      5.37156         0.002762      0.010732      0.064780
      5.13119      0.00000      5.37156        -0.002762      0.010732      0.064780
      1.28280      2.22187      5.37156         0.010675     -0.002974      0.064780
      3.84839      2.22187      5.37156        -0.000000      0.000000      0.051727
      6.41399      2.22187      5.37156        -0.010675     -0.002974      0.064780
      2.56560      4.44374      5.37156         0.007913     -0.007758      0.064780
      5.13119      4.44374      5.37156        -0.007913     -0.007758      0.064780
      7.69679      4.44374      5.37156        -0.000000      0.000000      0.020798
      1.28280      0.74062      7.46636         0.001542      0.000890     -0.064799
      3.84839      0.74062      7.46636         0.000000     -0.045266     -0.081662
      6.41399      0.74062      7.46636        -0.001542      0.000890     -0.064799
      2.56560      2.96249      7.46636        -0.039202      0.022633     -0.081662
      5.13119      2.96249      7.46636         0.039202      0.022633     -0.081662
      7.69679      2.96249      7.46636         0.000000     -0.020591     -0.015454
      3.84839      5.18437      7.46636         0.000000     -0.001781     -0.064799
      6.41399      5.18437      7.46636        -0.017832      0.010296     -0.015454
      8.97958      5.18437      7.46636         0.017832      0.010296     -0.015454
      7.69679      1.48113      9.55176         0.000000     -0.010500      0.038699
      2.56610      1.48154      9.54462        -0.027674     -0.015978     -0.099317
      5.13069      1.48154      9.54462         0.027674     -0.015978     -0.099317
      8.97635      3.70498      9.55922         0.079247     -0.045753      0.017462
      3.84839      3.70254      9.54462        -0.000000      0.031955     -0.099317
      6.41722      3.70498      9.55922        -0.079247     -0.045753      0.017462
     10.26248      5.92505      9.55176         0.009093      0.005250      0.038699
      5.13109      5.92505      9.55176        -0.009093      0.005250      0.038699
      7.69679      5.92126      9.55922        -0.000000      0.091507      0.017462
      0.00000      0.00000     11.63975        -0.000000      0.000000     -0.029305
      2.57267      0.01383     11.65039        -0.146413     -0.251424     -0.231098
      5.12411      0.01383     11.65039         0.146413     -0.251424     -0.231098
      1.29831      2.22109     11.65039        -0.290946     -0.001086     -0.231098
      6.39847      2.22109     11.65039         0.290946     -0.001086     -0.231098
      2.57403      4.43070     11.65039        -0.144533      0.252510     -0.231098
      5.12275      4.43070     11.65039         0.144533      0.252510     -0.231098
      7.69679      4.44374     11.64501        -0.000000      0.000000      0.026925
      3.84839      2.22187     11.55740        -0.000000      0.000000      1.616356
      3.84839      2.22187     13.30998        -0.000000      0.000000     -0.081360
      3.84839      2.22187     14.27768        -0.000000      0.000000      0.015524
    total drift:                               -0.002281     -0.004337      0.031730

  FREE ENERGIE OF THE ION-ELECTRON SYSTEM (eV)
  free  energy   TOTEN  =      -140.83458660 eV

  energy  without entropy=     -140.83458660  energy(sigma->0) =     -140.83458660

 stress matrix after NEB project (eV)
     -5.80453      0.00000     -0.00000
      0.00000     -5.80453      0.00000
     -0.00000     -0.00000      0.39529
  FORCES: max atom, RMS     0.081360    0.013436
  FORCE total and by dimension    0.082828    0.081360
  Stress total and by dimension    8.218355    5.804529
|           W    W    AA    RRRRR   N    N  II  N    N   GGGG   !!!           |
|           W    W   A  A   R    R  NN   N  II  NN   N  G    G  !!!           |
|           W    W  A    A  R    R  N N  N  II  N N  N  G       !!!           |
|           W WW W  AAAAAA  RRRRR   N  N N  II  N  N N  G  GGG   !            |
|           WW  WW  A    A  R   R   N   NN  II  N   NN  G    G                |
|           W    W  A    A  R    R  N    N  II  N    N   GGGG   !!!           |
|     Tetrahedron method does not include variations of the Fermi             |
|     occupations, so forces and stress will be inaccurate. We suggest        |
|     using a different smearing scheme ISMEAR = 1 or 2 for metals in         |
|     relaxations.                                                            |

 total charge

# of ion       s       p       d       tot
    1        0.449   0.283   9.189   9.921
    2        0.449   0.286   9.185   9.920
    3        0.449   0.286   9.185   9.920
    4        0.449   0.286   9.185   9.920
    5        0.449   0.286   9.183   9.918
    6        0.449   0.286   9.185   9.920
    7        0.449   0.286   9.185   9.920
    8        0.449   0.286   9.185   9.920
    9        0.446   0.286   9.187   9.919
   10        0.443   0.370   9.178   9.991
   11        0.441   0.368   9.182   9.991
   12        0.443   0.370   9.178   9.991
   13        0.441   0.368   9.182   9.991
   14        0.441   0.368   9.182   9.991
   15        0.438   0.369   9.179   9.987
   16        0.443   0.370   9.178   9.991
   17        0.438   0.369   9.179   9.987
   18        0.438   0.369   9.179   9.987
   19        0.441   0.366   9.183   9.990
   20        0.464   0.397   9.158  10.019
   21        0.464   0.397   9.158  10.019
   22        0.432   0.374   9.180   9.986
   23        0.464   0.397   9.158  10.019
   24        0.432   0.374   9.180   9.986
   25        0.441   0.366   9.183   9.990
   26        0.441   0.366   9.183   9.990
   27        0.432   0.374   9.180   9.986
   28        0.451   0.286   9.185   9.921
   29        0.455   0.299   9.183   9.937
   30        0.455   0.299   9.183   9.937
   31        0.455   0.299   9.183   9.937
   32        0.455   0.299   9.183   9.937
   33        0.455   0.299   9.183   9.937
   34        0.455   0.299   9.183   9.937
   35        0.443   0.290   9.185   9.918
   36        0.496   0.641   4.395   5.532
   37        1.560   3.523   0.000   5.083
   38        0.606   0.124   0.000   0.730
tot         18.299  15.964 325.706 359.969

 BZINTS: Fermi energy:    0.400639;  398.000000 electrons
         Band energy:-0.101728E+04;  BLOECHL correction:   -0.027966