 vasp.6.2.0 18Jan21 (build Jun 12 2021 23:27:24) complex

 executed on             LinuxIFC date 2022.05.30  17:36:21

 INCAR:
   ISMEAR = -5
   SIGMA = 0.1
   ISPIN = 1
   EDIFF = 1.d-5
   EDIFFG = -0.01
   NSW = 0
   NELM = 150
   ENCUT = 500
   ISIF = 2
   IBRION = 2
   LREAL = Auto
   ALGO = Fast
   ICHARG = 11
   LORBIT = 10
   LCHARG = .F.
   LWAVE = .F.

 POTCAR:    PAW_PBE Ag 02Apr2005
 POTCAR:    PAW_PBE W 08Apr2002
 POTCAR:    PAW_PBE C 08Apr2002
|           W    W    AA    RRRRR   N    N  II  N    N   GGGG   !!!           |
|           W    W   A  A   R    R  NN   N  II  NN   N  G    G  !!!           |
|           W    W  A    A  R    R  N N  N  II  N N  N  G       !!!           |
|           W WW W  AAAAAA  RRRRR   N  N N  II  N  N N  G  GGG   !            |
|           WW  WW  A    A  R   R   N   NN  II  N   NN  G    G                |
|           W    W  A    A  R    R  N    N  II  N    N   GGGG   !!!           |
|     For optimal performance we recommend to set                             |
|       NCORE = 2 up to number-of-cores-per-socket                            |
|     This setting can greatly improve the performance of VASP for DFT.       |
|     The default, NCORE=1 might be grossly inefficient on modern             |
|     multi-core architectures or massively parallel machines. Do your        |
|     Unfortunately you need to use the default for GW and RPA                |
|     calculations (for HF NCORE is supported but not extensively tested      |
|     yet).                                                                   |

 POTCAR:    PAW_PBE Ag 02Apr2005
   VRHFIN =Ag : s1 d10

   TITEL  = PAW_PBE Ag 02Apr2005
   POMASS =  107.868; ZVAL   =   11.000    mass and valenz
   ENMAX  =  249.844; ENMIN  =  187.383 eV

 POTCAR:    PAW_PBE W 08Apr2002
   VRHFIN =W : 6s5d

[...]

 POTCAR:    PAW_PBE C 08Apr2002
   VRHFIN =C: s2p2

   TITEL  = PAW_PBE C 08Apr2002
   POMASS =   12.011; ZVAL   =    4.000    mass and valenz
   ENMAX  =  400.000; ENMIN  =  300.000 eV

 Optimization of the real space projectors (new method)

 maximal supplied QI-value         = 15.12
 optimisation between [QCUT,QGAM] = [ 11.34, 22.83] = [ 36.00,145.93] Ry
 Optimized for a Real-space Cutoff    1.43 Angstroem

   l    n(q)    QCUT    max X(q) W(low)/X(q) W(high)/X(q)  e(spline)
   2      9    11.338    53.897    0.16E-03    0.20E-03    0.28E-06
   2      9    11.338    52.416    0.16E-03    0.20E-03    0.29E-06
   0     10    11.338   122.045    0.31E-04    0.76E-04    0.15E-06
   0     10    11.338    73.629    0.30E-04    0.72E-04    0.15E-06
   1      9    11.338    15.255    0.20E-03    0.19E-04    0.17E-06
   1      9    11.338     9.562    0.16E-03    0.15E-04    0.14E-06
 Optimization of the real space projectors (new method)

[...]

   l    n(q)    QCUT    max X(q) W(low)/X(q) W(high)/X(q)  e(spline)
   2     10    11.429   130.855    0.22E-03    0.64E-03    0.11E-05
   2     10    11.429   114.007    0.22E-03    0.64E-03    0.11E-05
   0     11    11.429    84.709    0.39E-04    0.67E-04    0.23E-06
   0     11    11.429    49.163    0.35E-04    0.62E-04    0.21E-06
   1     10    11.429    15.765    0.84E-04    0.15E-03    0.24E-06
   1     10    11.429    10.638    0.58E-04    0.12E-03    0.19E-06
 Optimization of the real space projectors (new method)

 maximal supplied QI-value         = 25.13
 optimisation between [QCUT,QGAM] = [ 11.31, 22.87] = [ 35.82,146.48] Ry
 Optimized for a Real-space Cutoff    1.00 Angstroem

   l    n(q)    QCUT    max X(q) W(low)/X(q) W(high)/X(q)  e(spline)
   0      7    11.310   115.676    0.43E-03    0.13E-02    0.19E-06
   0      7    11.310    87.132    0.43E-03    0.13E-02    0.18E-06
   1      6    11.310     4.429    0.42E-03    0.74E-03    0.11E-06
   1      6    11.310     2.733    0.34E-03    0.55E-03    0.92E-07
  PAW_PBE Ag 02Apr2005                  :
  PAW_PBE W 08Apr2002                   :
  PAW_PBE C 08Apr2002                   :

 POSCAR: Ag-W-C
  positions in direct lattice
  velocities in cartesian coordinates
 exchange correlation table for  LEXCH =        8
   RHO(1)=    0.500       N(1)  =     2000
   RHO(2)=  100.500       N(2)  =     4000

 VTST: version 3.2, (02/03/18)

 CHAIN: initializing optimizer

 OPT: Using VASP Conjugate-Gradient optimizer
 CHAIN: Read ICHAIN            0

 POSCAR: Ag-W-C
  positions in direct lattice
  velocities in cartesian coordinates

 ion  position               nearest neighbor table
   1  0.000  0.000  0.217-   2 2.93   8 2.93   7 2.93   6 2.93   4 2.93  12 2.93  16 2.93  10 2.93
                             3 2.93
   2  0.333  0.000  0.217-   1 2.93   8 2.93   9 2.93   3 2.93   4 2.93   5 2.93  10 2.93  17 2.93
                            11 2.93
   3  0.667  0.000  0.217-   9 2.93   2 2.93   5 2.93  11 2.93   7 2.93  18 2.93   1 2.93   6 2.93
                            12 2.93
   4  0.000  0.333  0.217-   5 2.93   6 2.93   2 2.93   1 2.93   7 2.93  13 2.93  15 2.93   9 2.93
                            10 2.93
   5  0.333  0.333  0.217-   4 2.93   3 2.93   7 2.93   2 2.93   8 2.93  14 2.93  13 2.93  11 2.93
                             6 2.93
   6  0.667  0.333  0.217-   4 2.93   9 2.93   1 2.93  15 2.93   8 2.93  12 2.93   3 2.93   5 2.93
                            14 2.93
   7  0.000  0.667  0.217-   8 2.93   1 2.93   5 2.93   3 2.93   4 2.93  16 2.93  18 2.93  13 2.93
                             9 2.93
   8  0.333  0.667  0.217-   7 2.93   1 2.93   2 2.93   9 2.93   5 2.93  16 2.93   6 2.93  17 2.93
                            14 2.93
   9  0.667  0.667  0.217-   3 2.93   2 2.93   8 2.93   6 2.93  17 2.93   4 2.93  15 2.93   7 2.93
                            18 2.93
  10  0.111  0.111  0.315-  20 2.89  12 2.93  16 2.93  15 2.93  17 2.93  13 2.93  11 2.93   2 2.93
                             1 2.93   4 2.93  19 2.93  26 2.93
  11  0.444  0.111  0.315-  21 2.90  20 2.90  14 2.93  17 2.93  18 2.93   3 2.93  12 2.93  13 2.93
                            10 2.93   5 2.93   2 2.93  27 2.93
  12  0.778  0.111  0.315-  21 2.89  10 2.93  16 2.93  18 2.93  15 2.93  11 2.93   1 2.93  14 2.93
                             6 2.93   3 2.93  25 2.93  19 2.93
  13  0.111  0.444  0.315-  20 2.90  23 2.90  15 2.93  14 2.93  18 2.93  10 2.93  11 2.93  16 2.93
                             4 2.93   5 2.93   7 2.93  22 2.93
  14  0.444  0.444  0.315-  23 2.90  21 2.90  13 2.93  11 2.93  16 2.93   5 2.93  12 2.93  17 2.93
                             8 2.93  15 2.93   6 2.93  24 2.93
  15  0.778  0.444  0.315-  24 2.93  22 2.93  13 2.93  10 2.93  12 2.93  17 2.93  18 2.93   4 2.93
                             6 2.93   9 2.93  14 2.93  19 2.93
  16  0.111  0.778  0.315-  23 2.89  18 2.93  12 2.93  10 2.93  14 2.93  17 2.93  13 2.93   7 2.93
                             8 2.93   1 2.93  26 2.93  25 2.93
  17  0.444  0.778  0.315-  27 2.93  24 2.93  11 2.93  10 2.93   9 2.93  18 2.93  15 2.93  16 2.93
                             2 2.93  14 2.93   8 2.93  26 2.93
  18  0.778  0.778  0.315-  22 2.93  27 2.93  16 2.93  12 2.93  13 2.93  11 2.93  17 2.93  15 2.93
                             7 2.93   3 2.93   9 2.93  25 2.93
  19  0.889  0.223  0.413-  28 2.92  20 2.93  21 2.93  24 2.93  22 2.93  15 2.93  10 2.93  12 2.93
                            26 2.94  25 2.94  32 2.98  31 2.98
  20  0.222  0.222  0.411-  36 2.76  10 2.89  13 2.90  11 2.90  19 2.93  26 2.93  27 2.94  22 2.94
                            21 2.94  23 2.94  31 2.96  29 2.96
  21  0.556  0.222  0.411-  36 2.76  12 2.89  11 2.90  14 2.90  25 2.93  19 2.93  27 2.94  24 2.94
                            20 2.94  23 2.94  30 2.96  32 2.96
  22  0.888  0.556  0.413-  35 2.92  24 2.92  27 2.92  18 2.93  15 2.93  25 2.93  19 2.93  13 2.93
                            23 2.94  20 2.94  33 2.96  31 2.96
  23  0.222  0.556  0.411-  36 2.76  16 2.89  14 2.90  13 2.90  26 2.93  25 2.93  22 2.94  24 2.94
                            21 2.94  20 2.94  34 2.96  33 2.96
  24  0.556  0.556  0.413-  35 2.92  27 2.92  22 2.92  15 2.93  17 2.93  19 2.93  26 2.93  14 2.93
                            23 2.94  21 2.94  32 2.96  34 2.96
  25  0.889  0.889  0.413-  28 2.92  23 2.93  21 2.93  22 2.93  27 2.93  18 2.93  16 2.93  12 2.93
                            26 2.94  19 2.94  33 2.98  30 2.98
  26  0.223  0.889  0.413-  28 2.92  23 2.93  20 2.93  27 2.93  24 2.93  17 2.93  16 2.93  10 2.93
                            25 2.94  19 2.94  34 2.98  29 2.98
  27  0.556  0.888  0.413-  35 2.92  24 2.92  22 2.92  17 2.93  18 2.93  26 2.93  25 2.93  11 2.93
                            20 2.94  21 2.94  29 2.96  30 2.96
  28  0.000  0.000  0.511-  26 2.92  25 2.92  19 2.92  29 2.96  34 2.96  33 2.96  32 2.96  31 2.96
                            30 2.96
  29  0.333  0.007  0.513-  31 2.86  30 2.87  36 2.88  20 2.96  27 2.96  28 2.96  35 2.96  26 2.98
                            34 3.06
  30  0.659  0.007  0.513-  32 2.86  29 2.87  36 2.88  21 2.96  27 2.96  28 2.96  35 2.96  25 2.98
                            33 3.06
  31  0.007  0.333  0.513-  29 2.86  33 2.87  36 2.88  20 2.96  22 2.96  28 2.96  35 2.96  19 2.98
                            32 3.06
  32  0.659  0.333  0.513-  30 2.86  34 2.87  36 2.88  21 2.96  24 2.96  28 2.96  35 2.96  19 2.98
                            31 3.06
  33  0.007  0.659  0.513-  34 2.86  31 2.87  36 2.88  23 2.96  22 2.96  28 2.96  35 2.96  25 2.98
                            30 3.06
  34  0.333  0.659  0.513-  33 2.86  32 2.87  36 2.88  23 2.96  24 2.96  28 2.96  35 2.96  26 2.98
                            29 3.06
  35  0.667  0.667  0.511-  24 2.92  27 2.92  22 2.92  30 2.96  32 2.96  29 2.96  34 2.96  31 2.96
                            33 2.96
  36  0.333  0.333  0.501-  37 1.79  21 2.76  20 2.76  23 2.76  31 2.88  30 2.88  33 2.88  29 2.88
                            34 2.88  32 2.88
  37  0.333  0.333  0.574-  36 1.79

  LATTYP: Found a hexagonal cell.
 ALAT       =     8.7913665772
 C/A-ratio  =     2.7711238095

  Lattice vectors:

 A1 = (  -4.3956832886,  -7.6135467898,   0.0000000000)
 A2 = (   8.7913665771,   0.0000000000,   0.0000000000)
 A3 = (   0.0000000000,   0.0000000000,  24.3619652401)

Analysis of symmetry for initial positions (statically):
 Subroutine PRICEL returns:
 Original cell was already a primitive cell.

 Routine SETGRP: Setting up the symmetry group for a
 hexagonal supercell.

 Subroutine GETGRP returns: Found  6 space group operations
 (whereof  6 operations were pure point group operations)
 out of a pool of 24 trial point group operations.

The static configuration has the point symmetry C_3v.

Analysis of symmetry for dynamics (positions and initial velocities):
 Subroutine PRICEL returns:
 Original cell was already a primitive cell.

[...]

The dynamic configuration has the point symmetry C_3v.

Analysis of constrained symmetry for selective dynamics:
 Subroutine PRICEL returns:
 Original cell was already a primitive cell.

 Routine SETGRP: Setting up the symmetry group for a
 hexagonal supercell.

 Subroutine GETGRP returns: Found  6 space group operations
 (whereof  6 operations were pure point group operations)
 out of a pool of 24 trial point group operations.

[...]
     24      -5.2275      2.00000
     25      -5.2120      2.00000
     26      -5.1971      2.00000
     27      -5.1865      2.00000
     28      -5.1514      2.00000
     29      -5.1491      2.00000
     30      -5.1398      2.00000
     31      -5.1184      2.00000
     32      -5.1076      2.00000
     33      -5.0769      2.00000
     34      -5.0723      2.00000
     35      -5.0306      2.00000
     36      -5.0044      2.00000
     37      -4.9967      2.00000
     38      -4.9634      2.00000
     39      -4.9339      2.00000
     40      -4.9330      2.00000
     41      -4.9167      2.00000
     42      -4.9033      2.00000
     43      -4.8870      2.00000
     44      -4.8061      2.00000
     45      -4.7785      2.00000
     46      -4.7692      2.00000
     47      -4.7554      2.00000
     48      -4.7494      2.00000
     49      -4.7472      2.00000
     50      -4.7441      2.00000
     51      -4.7367      2.00000
     52      -4.7211      2.00000
     53      -4.7153      2.00000
     54      -4.6532      2.00000
     55      -4.6444      2.00000
     56      -4.6355      2.00000
     57      -4.6207      2.00000
     58      -4.6048      2.00000
     59      -4.5908      2.00000
     60      -4.5727      2.00000
[...]
    238       5.8096      0.00000
    239       5.8823      0.00000
    240       6.0502      0.00000
    241       6.5022      0.00000
    242       6.5115      0.00000
    243       6.6100      0.00000
    244       6.6357      0.00000
    245       6.6784      0.00000
    246       6.7432      0.00000
    247       6.7982      0.00000
    248       6.8638      0.00000
    249       6.9527      0.00000
    250       7.0541      0.00000
    251       7.1712      0.00000
    252       7.2259      0.00000

 soft charge-density along one line, spin component           1
         0         1         2         3         4         5         6         7         8         9
 total charge-density along one line

------------------------ aborting loop because EDIFF is reached ----------------------------------------

 total charge

# of ion       s       p       d       tot
    1        0.415   0.204   9.177   9.795
    2        0.418   0.203   9.176   9.797
    3        0.418   0.203   9.176   9.797
    4        0.418   0.203   9.176   9.797
    5        0.415   0.202   9.178   9.796
    6        0.418   0.203   9.176   9.797
    7        0.418   0.203   9.176   9.797
    8        0.418   0.203   9.176   9.797
    9        0.413   0.204   9.176   9.793
   10        0.405   0.271   9.163   9.839
   11        0.407   0.270   9.165   9.843
   12        0.405   0.271   9.163   9.839
   13        0.407   0.270   9.165   9.843
   14        0.407   0.270   9.165   9.843
   15        0.402   0.270   9.165   9.836
   16        0.405   0.271   9.163   9.839
   17        0.402   0.270   9.165   9.836
   18        0.402   0.270   9.165   9.836
   19        0.399   0.262   9.168   9.829
   20        0.427   0.305   9.146   9.879
   21        0.427   0.305   9.146   9.879
   22        0.392   0.274   9.165   9.830
   23        0.427   0.305   9.146   9.879
   24        0.392   0.274   9.165   9.830
   25        0.399   0.262   9.168   9.829
   26        0.399   0.262   9.168   9.829
   27        0.392   0.274   9.165   9.830
   28        0.413   0.195   9.177   9.785
   29        0.423   0.218   9.162   9.803
   30        0.423   0.218   9.162   9.803
   31        0.423   0.218   9.162   9.803
   32        0.423   0.218   9.162   9.803
   33        0.423   0.218   9.162   9.803
   34        0.423   0.218   9.162   9.803
   35        0.411   0.199   9.175   9.785
   36        0.661   0.501   4.359   5.521
   37        0.991   1.255   0.000   2.245
tot         16.059  10.245 325.189 351.493

  FORCE on cell =-STRESS in cart. coord.  units (eV):
  Direction    XX          YY          ZZ          XY          YZ          ZX
  Alpha Z   689.98772   689.98772   689.98772
  Ewald  151192.85460151192.85456************     0.00001    -0.00001     0.00001
  Hartree160992.90764160992.90762************     0.00000    -0.00000     0.00000
  E(xc)   -2068.38285 -2068.38284 -2076.85176    -0.00001     0.00000     0.00000
  Local  ************************323536.70597     0.00026    -0.00003    -0.00009
  n-local  -337.40565  -320.96804  -337.78416     9.74086    -0.50379     0.56053
  augment  3223.79553  3223.79567  3237.10263    -0.00009    -0.00001     0.00004
  Kinetic  4894.04360  4899.46205  4928.17599     4.85454     0.64729    -0.07004
  Fock        0.00000     0.00000     0.00000     0.00000     0.00000     0.00000
  Total      -7.96370    -7.96370     0.09508    -0.00000    -0.00000     0.00000
  in kB      -7.82474    -7.82474     0.09342    -0.00000    -0.00000     0.00000

 VOLUME and BASIS-vectors are now :
  energy-cutoff  :      500.00
  volume of cell :     1630.63
      direct lattice vectors                 reciprocal lattice vectors
     8.791366577  0.000000000  0.000000000     0.113747958 -0.065672414  0.000000000
     4.395683289  7.613546790  0.000000000     0.000000000  0.131344829  0.000000000
     0.000000000  0.000000000 24.361965240     0.000000000  0.000000000  0.041047592

  length of vectors
     8.791366577  8.791366577 24.361965240     0.131344829  0.131344829  0.041047592

 FORCES acting on ions
    electron-ion (+dipol)            ewald-force                    non-local-force                 convergence-correction
   0.463E-04 -.280E-04 0.266E+04   -.953E-04 0.593E-04 -.266E+04   -.471E-17 -.936E-17 -.201E+01   -.203E-03 -.221E-03 -.108E+00
   0.124E+00 0.479E+00 0.266E+04   -.224E+00 -.329E+00 -.266E+04   0.335E-01 -.229E-01 -.163E+01   0.591E-01 -.123E+00 -.143E-01
   -.124E+00 0.479E+00 0.266E+04   0.224E+00 -.329E+00 -.266E+04   -.335E-01 -.229E-01 -.163E+01   -.596E-01 -.121E+00 -.134E-01
   0.477E+00 -.133E+00 0.266E+04   -.396E+00 -.293E-01 -.266E+04   -.312E-02 0.405E-01 -.163E+01   -.767E-01 0.113E+00 -.143E-01
   -.712E-05 -.195E-04 0.266E+04   0.980E-04 -.197E-05 -.266E+04   -.174E-17 0.116E-17 -.167E+01   0.626E-02 0.383E-02 0.339E-01
   -.477E+00 -.132E+00 0.266E+04   0.396E+00 -.294E-01 -.266E+04   0.312E-02 0.405E-01 -.163E+01   0.753E-01 0.114E+00 -.134E-01
   0.353E+00 -.347E+00 0.266E+04   -.173E+00 0.358E+00 -.266E+04   -.366E-01 -.175E-01 -.163E+01   -.134E+00 0.945E-02 -.134E-01
   -.353E+00 -.347E+00 0.266E+04   0.173E+00 0.358E+00 -.266E+04   0.366E-01 -.175E-01 -.163E+01   0.136E+00 0.839E-02 -.134E-01
   0.362E-04 -.131E-04 0.266E+04   0.792E-04 -.643E-04 -.266E+04   -.103E-17 0.304E-18 -.188E+01   -.658E-02 -.339E-02 -.110E+00
   0.397E+01 0.229E+01 0.878E+03   -.375E+01 -.217E+01 -.878E+03   -.253E+00 -.146E+00 -.645E+00   0.221E-01 0.128E-01 0.140E+00
   -.280E-04 0.311E+01 0.881E+03   0.403E-04 -.325E+01 -.880E+03   0.309E-12 0.471E-01 -.743E+00   0.688E-02 0.491E-01 0.119E+00
   -.397E+01 0.229E+01 0.878E+03   0.375E+01 -.217E+01 -.878E+03   0.253E+00 -.146E+00 -.645E+00   -.242E-01 0.136E-01 0.141E+00
   0.269E+01 -.155E+01 0.881E+03   -.282E+01 0.163E+01 -.880E+03   0.408E-01 -.235E-01 -.743E+00   0.458E-01 -.186E-01 0.119E+00
   -.269E+01 -.155E+01 0.881E+03   0.282E+01 0.163E+01 -.880E+03   -.408E-01 -.235E-01 -.743E+00   -.353E-01 -.201E-01 0.118E+00
   0.158E-04 0.765E+00 0.878E+03   -.108E-03 -.826E+00 -.877E+03   0.285E-12 0.433E-01 -.609E+00   -.173E-02 0.113E-01 0.585E-01
   -.797E-05 -.458E+01 0.878E+03   0.205E-04 0.433E+01 -.878E+03   0.192E-11 0.292E+00 -.645E+00   -.372E-03 -.279E-01 0.141E+00
   0.662E+00 -.382E+00 0.878E+03   -.716E+00 0.413E+00 -.877E+03   0.375E-01 -.217E-01 -.609E+00   0.893E-02 -.721E-02 0.584E-01
   -.662E+00 -.382E+00 0.878E+03   0.716E+00 0.413E+00 -.877E+03   -.375E-01 -.217E-01 -.609E+00   -.827E-02 -.483E-02 0.607E-01
   0.387E-04 -.279E+01 -.925E+03   -.127E-03 0.265E+01 0.924E+03   0.825E-12 0.126E+00 0.968E+00   -.651E-02 -.200E-02 0.188E+00
   -.112E+02 -.645E+01 -.910E+03   0.113E+02 0.651E+01 0.910E+03   -.500E+00 -.289E+00 -.505E+00   0.765E-01 0.445E-01 0.174E+00
   0.112E+02 -.645E+01 -.910E+03   -.113E+02 0.651E+01 0.910E+03   0.500E+00 -.289E+00 -.505E+00   -.751E-01 0.425E-01 0.174E+00
   -.789E+01 0.455E+01 -.918E+03   0.736E+01 -.425E+01 0.917E+03   0.465E+00 -.268E+00 0.731E+00   0.104E+00 -.507E-01 0.994E-01
   -.511E-04 0.129E+02 -.910E+03   0.393E-04 -.130E+02 0.910E+03   0.380E-11 0.578E+00 -.505E+00   -.637E-03 -.859E-01 0.174E+00
   0.789E+01 0.455E+01 -.918E+03   -.736E+01 -.425E+01 0.917E+03   -.465E+00 -.268E+00 0.731E+00   -.927E-01 -.536E-01 0.989E-01
   0.241E+01 0.139E+01 -.925E+03   -.230E+01 -.133E+01 0.924E+03   -.109E+00 -.628E-01 0.968E+00   -.730E-02 -.415E-02 0.188E+00
   -.241E+01 0.139E+01 -.925E+03   0.230E+01 -.133E+01 0.924E+03   0.109E+00 -.628E-01 0.968E+00   -.536E-02 -.466E-02 0.188E+00
   0.200E-04 -.911E+01 -.918E+03   0.109E-03 0.850E+01 0.917E+03   0.352E-11 0.537E+00 0.731E+00   0.733E-02 0.115E+00 0.988E-01
   0.531E-04 -.359E-04 -.264E+04   -.113E-03 0.767E-04 0.264E+04   0.160E-17 0.239E-17 0.189E+01   -.474E-03 0.351E-03 0.397E-01
   0.288E+01 0.367E+01 -.264E+04   -.193E+01 -.244E+01 0.264E+04   -.913E+00 -.137E+01 0.224E+01   -.960E-01 0.504E-01 -.477E-01
   -.288E+01 0.367E+01 -.264E+04   0.193E+01 -.244E+01 0.264E+04   0.913E+00 -.137E+01 0.224E+01   0.964E-01 0.513E-01 -.492E-01
   0.462E+01 0.662E+00 -.264E+04   -.307E+01 -.448E+00 0.264E+04   -.164E+01 -.105E+00 0.224E+01   -.373E-02 -.107E+00 -.477E-01
   -.462E+01 0.662E+00 -.264E+04   0.307E+01 -.448E+00 0.264E+04   0.164E+01 -.105E+00 0.224E+01   -.733E-02 -.108E+00 -.482E-01
   0.174E+01 -.433E+01 -.264E+04   -.115E+01 0.289E+01 0.264E+04   -.731E+00 0.148E+01 0.224E+01   0.871E-01 0.486E-01 -.492E-01
   -.174E+01 -.433E+01 -.264E+04   0.115E+01 0.289E+01 0.264E+04   0.731E+00 0.148E+01 0.224E+01   -.968E-01 0.471E-01 -.482E-01
   0.247E-04 -.131E-04 -.264E+04   0.104E-03 -.651E-04 0.264E+04   0.475E-17 0.426E-17 0.199E+01   -.479E-02 -.310E-02 0.786E-01
   -.160E-04 -.773E-05 -.128E+04   0.578E-04 0.738E-05 0.128E+04   0.405E-17 0.291E-17 -.691E+00   0.127E-02 0.112E-02 -.226E-01
   0.456E-04 -.273E-04 -.115E+04   0.194E-04 0.268E-06 0.116E+04   0.184E-17 -.865E-18 -.638E+01   0.885E-03 0.686E-03 0.685E-02
   0.369E-03 -.725E-03 0.547E+01   -.184E-13 -.222E-12 -.659E-11   -.100E-15 0.630E-17 -.746E+01   -.105E-01 -.835E-02 0.188E+01

 POSITION                                       TOTAL-FORCE (eV/Angst)
      0.00000      0.00000      5.28219         0.000000      0.000000      0.020006
      2.93046      0.00000      5.28219        -0.006605      0.005945      0.013768
      5.86091      0.00000      5.28219         0.006605      0.005945      0.013768
      1.46523      2.53785      5.28219         0.001846     -0.008693      0.013768
      4.39568      2.53785      5.28219         0.000000      0.000000     -0.027639
      7.32614      2.53785      5.28219        -0.001846     -0.008693      0.013768
      2.93046      5.07570      5.28219         0.008451      0.002748      0.013768
      5.86091      5.07570      5.28219        -0.008451      0.002748      0.013768
      8.79137      5.07570      5.28219         0.000000      0.000000      0.034560
      1.46523      0.84595      7.67490        -0.011156     -0.006441     -0.002417
      4.39568      0.84595      7.67490        -0.000000     -0.051718     -0.071447
      7.32614      0.84595      7.67490         0.011156     -0.006441     -0.002417
      2.93046      3.38380      7.67490        -0.044789      0.025859     -0.071447
      5.86091      3.38380      7.67490         0.044789      0.025859     -0.071447
      8.79137      3.38380      7.67490        -0.000000     -0.007720      0.055136
      4.39568      5.92165      7.67490         0.000000      0.012882     -0.002417
      7.32614      5.92165      7.67490        -0.006685      0.003860      0.055136
     10.25659      5.92165      7.67490         0.006685      0.003860      0.055136
      8.79137      1.69504     10.07204        -0.000000     -0.006707      0.052711
      2.92602      1.68934     10.02478        -0.316070     -0.182483     -0.249648
      5.86534      1.68934     10.02478         0.316070     -0.182483     -0.249648
     10.25093      4.23302     10.06482         0.033294     -0.019222      0.037500
      4.39568      4.23487     10.02478         0.000000      0.364966     -0.249648
      7.33181      4.23302     10.06482        -0.033294     -0.019222      0.037500
     11.71910      6.76603     10.07204         0.005808      0.003353      0.052711
      5.86363      6.76603     10.07204        -0.005808      0.003353      0.052711
      8.79137      6.76105     10.06482         0.000000      0.038445      0.037500
      0.00000      0.00000     12.45341         0.000000      0.000000     -0.068910
      2.96185      0.05622     12.48740        -0.047693     -0.086934     -0.045518
      5.82952      0.05622     12.48740         0.047693     -0.086934     -0.045518
      1.52961      2.53693     12.48740        -0.099133      0.002163     -0.045518
      7.26176      2.53693     12.48740         0.099133      0.002163     -0.045518
      2.96344      5.02040     12.48740        -0.051440      0.084770     -0.045518
      5.82792      5.02040     12.48740         0.051440      0.084770     -0.045518
      8.79137      5.07570     12.44798         0.000000      0.000000     -0.041768
      4.39568      2.53785     12.20252         0.000000      0.000000      0.839844
      4.39568      2.53785     13.99040         0.000000      0.000000     -0.031097
    total drift:                               -0.010160     -0.009070     -0.114627

  FREE ENERGIE OF THE ION-ELECTRON SYSTEM (eV)
  free  energy   TOTEN  =      -105.65213678 eV

  energy  without entropy=     -105.65213678  energy(sigma->0) =     -105.65213678

 stress matrix after NEB project (eV)
     -7.96370     -0.00000      0.00000
     -0.00000     -7.96370      0.00000
      0.00000     -0.00000      0.09508
  FORCES: max atom, RMS     0.031097    0.005112
  FORCE total and by dimension    0.031097    0.031097
  Stress total and by dimension   11.262781    7.963705
|           W    W    AA    RRRRR   N    N  II  N    N   GGGG   !!!           |
|           W    W   A  A   R    R  NN   N  II  NN   N  G    G  !!!           |
|           W    W  A    A  R    R  N N  N  II  N N  N  G       !!!           |
|           W WW W  AAAAAA  RRRRR   N  N N  II  N  N N  G  GGG   !            |
|           WW  WW  A    A  R   R   N   NN  II  N   NN  G    G                |
|           W    W  A    A  R    R  N    N  II  N    N   GGGG   !!!           |
|     Tetrahedron method does not include variations of the Fermi             |
|     occupations, so forces and stress will be inaccurate. We suggest        |
|     using a different smearing scheme ISMEAR = 1 or 2 for metals in         |
|     relaxations.                                                            |

 total charge

# of ion       s       p       d       tot
    1        0.415   0.204   9.177   9.795
    2        0.418   0.203   9.176   9.797
    3        0.418   0.203   9.176   9.797
    4        0.418   0.203   9.176   9.797
    5        0.415   0.202   9.178   9.796
    6        0.418   0.203   9.176   9.797
    7        0.418   0.203   9.176   9.797
    8        0.418   0.203   9.176   9.797
    9        0.413   0.204   9.176   9.793
   10        0.405   0.271   9.163   9.839
   11        0.407   0.270   9.165   9.843
   12        0.405   0.271   9.163   9.839
   13        0.407   0.270   9.165   9.843
   14        0.407   0.270   9.165   9.843
   15        0.402   0.270   9.165   9.836
   16        0.405   0.271   9.163   9.839
   17        0.402   0.270   9.165   9.836
   18        0.402   0.270   9.165   9.836
   19        0.399   0.262   9.168   9.829
   20        0.427   0.305   9.146   9.879
   21        0.427   0.305   9.146   9.879
   22        0.392   0.274   9.165   9.830
   23        0.427   0.305   9.146   9.879
   24        0.392   0.274   9.165   9.830
   25        0.399   0.262   9.168   9.829
   26        0.399   0.262   9.168   9.829
   27        0.392   0.274   9.165   9.830
   28        0.413   0.195   9.177   9.785
   29        0.423   0.218   9.162   9.803
   30        0.423   0.218   9.162   9.803
   31        0.423   0.218   9.162   9.803
   32        0.423   0.218   9.162   9.803
   33        0.423   0.218   9.162   9.803
   34        0.423   0.218   9.162   9.803
   35        0.411   0.199   9.175   9.785
   36        0.661   0.501   4.359   5.521
   37        0.991   1.255   0.000   2.245
tot         16.059  10.245 325.189 351.493

 BZINTS: Fermi energy:    0.256731;  395.000000 electrons
         Band energy:-0.151957E+04;  BLOECHL correction:   -0.034602