 vasp.6.2.0 18Jan21 (build Jun 12 2021 23:27:24) complex

 executed on             LinuxIFC date 2022.05.28  00:48:09

 INCAR:
   ISMEAR = -5
   SIGMA = 0.1
   ISPIN = 1
   EDIFF = 1.d-5
   EDIFFG = -0.01
   NSW = 0
   NELM = 150
   ENCUT = 500
   ISIF = 2
   IBRION = 2
   LREAL = Auto
   ALGO = Fast
   ICHARG = 11
   LORBIT = 10
   LCHARG = .F.
   LWAVE = .F.

 POTCAR:    PAW_PBE Au 04Oct2007
 POTCAR:    PAW_PBE Ni 02Aug2007
 POTCAR:    PAW_PBE H 15Jun2001
 POTCAR:    PAW_PBE O 08Apr2002
|           W    W    AA    RRRRR   N    N  II  N    N   GGGG   !!!           |
|           W    W   A  A   R    R  NN   N  II  NN   N  G    G  !!!           |
|           W    W  A    A  R    R  N N  N  II  N N  N  G       !!!           |
|           W WW W  AAAAAA  RRRRR   N  N N  II  N  N N  G  GGG   !            |
|           WW  WW  A    A  R   R   N   NN  II  N   NN  G    G                |
|           W    W  A    A  R    R  N    N  II  N    N   GGGG   !!!           |
|     For optimal performance we recommend to set                             |
|       NCORE = 2 up to number-of-cores-per-socket                            |
|     This setting can greatly improve the performance of VASP for DFT.       |
|     The default, NCORE=1 might be grossly inefficient on modern             |
|     multi-core architectures or massively parallel machines. Do your        |
|     Unfortunately you need to use the default for GW and RPA                |
|     calculations (for HF NCORE is supported but not extensively tested      |
|     yet).                                                                   |

 POTCAR:    PAW_PBE Au 04Oct2007
   VRHFIN =Au: s1d10

   TITEL  = PAW_PBE Au 04Oct2007
   POMASS =  196.966; ZVAL   =   11.000    mass and valenz
   ENMAX  =  229.943; ENMIN  =  172.457 eV

 POTCAR:    PAW_PBE Ni 02Aug2007
   VRHFIN =Ni:

   TITEL  = PAW_PBE Ni 02Aug2007
   POMASS =   58.690; ZVAL   =   10.000    mass and valenz
   ENMAX  =  269.532; ENMIN  =  202.149 eV

 POTCAR:    PAW_PBE H 15Jun2001
   VRHFIN =H: ultrasoft test

   TITEL  = PAW_PBE H 15Jun2001
   POMASS =    1.000; ZVAL   =    1.000    mass and valenz
   ENMAX  =  250.000; ENMIN  =  200.000 eV

 POTCAR:    PAW_PBE O 08Apr2002
   VRHFIN =O: s2p4

   TITEL  = PAW_PBE O 08Apr2002
   POMASS =   16.000; ZVAL   =    6.000    mass and valenz
   ENMAX  =  400.000; ENMIN  =  300.000 eV

 Optimization of the real space projectors (new method)

 maximal supplied QI-value         = 15.12
 optimisation between [QCUT,QGAM] = [ 11.34, 22.83] = [ 36.00,145.93] Ry
 Optimized for a Real-space Cutoff    1.39 Angstroem

   l    n(q)    QCUT    max X(q) W(low)/X(q) W(high)/X(q)  e(spline)
   2      9    11.338    60.898    0.39E-03    0.42E-03    0.21E-06
   2      9    11.338    58.894    0.40E-03    0.42E-03    0.22E-06
   0      9    11.338   109.617    0.13E-03    0.20E-04    0.13E-06
   0      9    11.338    75.026    0.13E-03    0.20E-04    0.13E-06
   1      9    11.338    16.344    0.33E-04    0.24E-03    0.18E-06
   1      9    11.338    10.160    0.26E-04    0.19E-03    0.15E-06
 Optimization of the real space projectors (new method)

[...]

   l    n(q)    QCUT    max X(q) W(low)/X(q) W(high)/X(q)  e(spline)
   0      8    11.287    19.460    0.40E-03    0.73E-03    0.16E-06
   0      8    11.287    12.209    0.38E-03    0.70E-03    0.15E-06
   1      7    11.287     4.655    0.22E-03    0.25E-04    0.22E-06
 Optimization of the real space projectors (new method)

 maximal supplied QI-value         = 24.76
 optimisation between [QCUT,QGAM] = [ 11.39, 22.77] = [ 36.31,145.25] Ry
 Optimized for a Real-space Cutoff    1.00 Angstroem

   l    n(q)    QCUT    max X(q) W(low)/X(q) W(high)/X(q)  e(spline)
   0      7    11.387    20.381    0.39E-03    0.13E-02    0.15E-06
   0      7    11.387    15.268    0.42E-03    0.14E-02    0.17E-06
   1      6    11.387     5.964    0.41E-03    0.11E-02    0.17E-06
   1      6    11.387     5.382    0.39E-03    0.87E-03    0.15E-06
  PAW_PBE Au 04Oct2007                  :
  PAW_PBE Ni 02Aug2007                  :
  PAW_PBE H 15Jun2001                   :
  PAW_PBE O 08Apr2002                   :

 POSCAR: Au-Ni-H2O
  positions in direct lattice
  velocities in cartesian coordinates
 exchange correlation table for  LEXCH =        8
   RHO(1)=    0.500       N(1)  =     2000
   RHO(2)=  100.500       N(2)  =     4000

 VTST: version 3.2, (02/03/18)

 CHAIN: initializing optimizer

 OPT: Using VASP Conjugate-Gradient optimizer
 CHAIN: Read ICHAIN            0

 POSCAR: Au-Ni-H2O
  positions in direct lattice
  velocities in cartesian coordinates

 ion  position               nearest neighbor table
   1  0.000  0.000  0.213-  16 2.94  12 2.94   6 2.94   8 2.94   7 2.94   3 2.94  10 2.94   4 2.94
                             2 2.94
   2  0.333  0.000  0.213-   9 2.94  11 2.94  17 2.94  10 2.94   8 2.94   4 2.94   5 2.94   1 2.94
                             3 2.94
   3  0.667  0.000  0.213-   7 2.94  18 2.94  12 2.94   1 2.94  11 2.94   5 2.94   6 2.94   9 2.94
                             2 2.94
   4  0.000  0.333  0.213-  10 2.94   6 2.94   5 2.94  13 2.94   2 2.94  15 2.94   9 2.94   1 2.94
                             7 2.94
   5  0.333  0.333  0.213-  13 2.94   7 2.94  11 2.94   4 2.94   2 2.94  14 2.94   3 2.94   8 2.94
                             6 2.94
   6  0.667  0.333  0.213-  15 2.94  14 2.94   1 2.94  12 2.94   4 2.94   9 2.94   8 2.94   3 2.94
                             5 2.94
   7  0.000  0.667  0.213-  18 2.94   3 2.94  16 2.94   5 2.94   1 2.94  13 2.94   8 2.94   4 2.94
                             9 2.94
   8  0.333  0.667  0.213-   9 2.94  17 2.94   1 2.94   2 2.94  14 2.94  16 2.94   6 2.94   7 2.94
                             5 2.94
   9  0.667  0.667  0.213-   2 2.94   8 2.94  17 2.94   6 2.94  15 2.94   4 2.94   3 2.94  18 2.94
                             7 2.94
  10  0.111  0.111  0.310-  20 2.93  26 2.93  19 2.93  11 2.94  17 2.94   2 2.94   4 2.94   1 2.94
                            12 2.94  16 2.94  13 2.94  15 2.94
  11  0.444  0.111  0.310-  20 2.92  21 2.92  27 2.93  13 2.94   2 2.94  10 2.94  17 2.94   5 2.94
                             3 2.94  18 2.94  14 2.94  12 2.94
  12  0.778  0.111  0.310-  21 2.93  25 2.93  19 2.93  16 2.94  18 2.94   1 2.94  14 2.94  15 2.94
                             3 2.94   6 2.94  10 2.94  11 2.94
  13  0.111  0.444  0.310-  23 2.92  20 2.92  22 2.93   5 2.94  18 2.94  11 2.94   7 2.94   4 2.94
                            16 2.94  10 2.94  14 2.94  15 2.94
  14  0.444  0.444  0.310-  21 2.92  23 2.92  24 2.93  15 2.94   6 2.94  12 2.94   8 2.94  17 2.94
                             5 2.94  16 2.94  13 2.94  11 2.94
  15  0.778  0.444  0.310-  24 2.92  22 2.92  19 2.93  14 2.94   6 2.94  17 2.94  12 2.94   9 2.94
                             4 2.94  10 2.94  13 2.94  18 2.94
  16  0.111  0.778  0.310-  23 2.93  25 2.93  26 2.93  18 2.94  12 2.94   7 2.94   1 2.94   8 2.94
                            13 2.94  10 2.94  14 2.94  17 2.94
  17  0.444  0.778  0.310-  27 2.92  24 2.92  26 2.93   9 2.94  15 2.94   2 2.94  10 2.94  11 2.94
                             8 2.94  14 2.94  16 2.94  18 2.94
  18  0.778  0.778  0.310-  22 2.92  27 2.92  25 2.93  16 2.94   7 2.94  13 2.94  12 2.94   3 2.94
                            11 2.94   9 2.94  15 2.94  17 2.94
  19  0.889  0.222  0.407-  10 2.93  12 2.93  15 2.93  26 2.93  25 2.93  24 2.94  22 2.94  21 2.95
                            20 2.95  28 2.95  32 2.96  31 2.96
  20  0.223  0.223  0.406-  36 2.70  29 2.91  31 2.91  11 2.92  13 2.92  23 2.92  21 2.92  10 2.93
                            27 2.95  22 2.95  26 2.95  19 2.95
  21  0.554  0.223  0.406-  36 2.70  30 2.91  32 2.91  14 2.92  11 2.92  20 2.92  23 2.92  12 2.93
                            27 2.95  24 2.95  25 2.95  19 2.95
  22  0.888  0.556  0.407-  18 2.92  15 2.92  24 2.92  27 2.92  13 2.93  25 2.94  19 2.94  33 2.94
                            31 2.94  23 2.95  20 2.95  35 2.96
  23  0.223  0.554  0.406-  36 2.70  33 2.91  34 2.91  13 2.92  14 2.92  20 2.92  21 2.92  16 2.93
                            22 2.95  24 2.95  25 2.95  26 2.95
  24  0.556  0.556  0.407-  15 2.92  17 2.92  27 2.92  22 2.92  14 2.93  26 2.94  19 2.94  32 2.94
                            34 2.94  21 2.95  23 2.95  35 2.96
  25  0.889  0.889  0.407-  16 2.93  12 2.93  18 2.93  19 2.93  26 2.93  22 2.94  27 2.94  23 2.95
                            21 2.95  28 2.95  33 2.96  30 2.96
  26  0.222  0.889  0.407-  10 2.93  16 2.93  17 2.93  19 2.93  25 2.93  27 2.94  24 2.94  20 2.95
                            23 2.95  28 2.95  29 2.96  34 2.96
  27  0.556  0.888  0.407-  17 2.92  18 2.92  24 2.92  22 2.92  11 2.93  26 2.94  25 2.94  29 2.94
                            30 2.94  20 2.95  21 2.95  35 2.96
  28  0.000  0.000  0.505-  25 2.95  19 2.95  26 2.95  34 2.97  32 2.97  33 2.97  30 2.97  31 2.97
                            29 2.97
  29  0.334  0.007  0.503-  30 2.87  31 2.88  36 2.89  20 2.91  27 2.94  26 2.96  35 2.97  28 2.97
                            34 3.06
  30  0.660  0.007  0.503-  29 2.87  32 2.88  36 2.89  21 2.91  27 2.94  25 2.96  35 2.97  28 2.97
                            33 3.06
  31  0.007  0.334  0.503-  33 2.87  29 2.88  36 2.89  20 2.91  22 2.94  19 2.96  35 2.97  28 2.97
                            32 3.06
  32  0.660  0.334  0.503-  34 2.87  30 2.88  36 2.89  21 2.91  24 2.94  19 2.96  35 2.97  28 2.97
                            31 3.06
  33  0.007  0.660  0.503-  31 2.87  34 2.88  36 2.89  23 2.91  22 2.94  25 2.96  35 2.97  28 2.97
                            30 3.06
  34  0.334  0.660  0.503-  32 2.87  33 2.88  36 2.89  23 2.91  24 2.94  26 2.96  35 2.97  28 2.97
                            29 3.06
  35  0.667  0.667  0.505-  24 2.96  27 2.96  22 2.96  29 2.97  34 2.97  32 2.97  31 2.97  30 2.97
                            33 2.97
  36  0.333  0.333  0.491-  39 2.15  20 2.70  23 2.70  21 2.70  33 2.89  31 2.89  29 2.89  30 2.89
                            34 2.89  32 2.89
  37  0.278  0.264  0.586-  39 0.98
  38  0.458  0.259  0.586-  39 0.98
  39  0.333  0.334  0.578-  37 0.98  38 0.98  36 2.15

  LATTYP: Found a hexagonal cell.
 ALAT       =     8.8135128021
 C/A-ratio  =     2.8075332270

  Lattice vectors:

 A1 = (  -4.4067569092,  -7.6327256898,   0.0000000000)
 A2 = (   8.8135128021,   0.0000000000,   0.0000000000)
 A3 = (   0.0000000000,   0.0000000000,  24.7442300386)

Analysis of symmetry for initial positions (statically):
 Subroutine PRICEL returns:
 Original cell was already a primitive cell.

 Routine SETGRP: Setting up the symmetry group for a
 hexagonal supercell.

 Subroutine GETGRP returns: Found  1 space group operations
 (whereof  1 operations were pure point group operations)
 out of a pool of 24 trial point group operations.

The static configuration has the point symmetry C_1 .

Analysis of symmetry for dynamics (positions and initial velocities):
 Subroutine PRICEL returns:
 Original cell was already a primitive cell.

[...]

The dynamic configuration has the point symmetry C_1 .

Analysis of constrained symmetry for selective dynamics:
 Subroutine PRICEL returns:
 Original cell was already a primitive cell.

[...]
     41      -4.9159      2.00000
     42      -4.8654      2.00000
     43      -4.7761      2.00000
     44      -4.7492      2.00000
     45      -4.6979      2.00000
     46      -4.6670      2.00000
     47      -4.6624      2.00000
     48      -4.6597      2.00000
     49      -4.5761      2.00000
     50      -4.5438      2.00000
     51      -4.5118      2.00000
     52      -4.4906      2.00000
     53      -4.4823      2.00000
     54      -4.4738      2.00000
     55      -4.4521      2.00000
     56      -4.4244      2.00000
     57      -4.4133      2.00000
     58      -4.3740      2.00000
     59      -4.3406      2.00000
     60      -4.3227      2.00000
[...]
    238       5.7868      0.00000
    239       5.9951      0.00000
    240       6.0377      0.00000
    241       6.0545      0.00000
    242       6.0930      0.00000
    243       6.3107      0.00000
    244       6.3668      0.00000
    245       6.4072      0.00000
    246       6.4850      0.00000
    247       6.5457      0.00000
    248       6.6176      0.00000
    249       6.6427      0.00000
    250       6.7109      0.00000
    251       6.8002      0.00000
    252       6.8527      0.00000

 soft charge-density along one line, spin component           1
         0         1         2         3         4         5         6         7         8         9
 total charge-density along one line

------------------------ aborting loop because EDIFF is reached ----------------------------------------

 total charge

# of ion       s       p       d       tot
    1        0.543   0.240   8.767   9.550
    2        0.546   0.240   8.766   9.552
    3        0.546   0.240   8.766   9.552
    4        0.546   0.240   8.766   9.552
    5        0.541   0.242   8.765   9.547
    6        0.546   0.240   8.766   9.552
    7        0.546   0.240   8.766   9.552
    8        0.546   0.240   8.766   9.552
    9        0.542   0.240   8.769   9.551
   10        0.520   0.308   8.773   9.601
   11        0.522   0.307   8.780   9.609
   12        0.520   0.308   8.773   9.601
   13        0.522   0.307   8.780   9.609
   14        0.522   0.307   8.780   9.608
   15        0.517   0.309   8.777   9.603
   16        0.521   0.308   8.772   9.601
   17        0.517   0.309   8.777   9.603
   18        0.517   0.309   8.777   9.603
   19        0.520   0.302   8.778   9.600
   20        0.536   0.325   8.760   9.621
   21        0.536   0.325   8.760   9.621
   22        0.514   0.310   8.774   9.598
   23        0.535   0.325   8.759   9.620
   24        0.514   0.310   8.774   9.598
   25        0.519   0.302   8.778   9.599
   26        0.519   0.302   8.778   9.598
   27        0.516   0.309   8.774   9.600
   28        0.540   0.228   8.766   9.535
   29        0.556   0.239   8.763   9.558
   30        0.557   0.239   8.763   9.559
   31        0.556   0.237   8.764   9.558
   32        0.556   0.237   8.765   9.557
   33        0.549   0.231   8.769   9.549
   34        0.549   0.231   8.769   9.549
   35        0.539   0.227   8.768   9.535
   36        0.333   0.288   8.299   8.921
   37        0.605   0.117   0.000   0.722
   38        0.605   0.117   0.000   0.722
   39        1.570   3.593   0.000   5.163
tot         21.802  13.727 315.249 350.779

  FORCE on cell =-STRESS in cart. coord.  units (eV):
  Direction    XX          YY          ZZ          XY          YZ          ZX
  Alpha Z   916.41301   916.41301   916.41301
  Ewald  159054.13730158991.05456************    -1.71894   -19.52467    -0.38221
  Hartree167726.24469167713.92130************    -0.35739    -3.05310    -0.05703
  E(xc)   -1819.02610 -1819.26690 -1825.72084    -0.00684    -0.05081    -0.00057
  Local  ************************339059.59251     1.60876    16.11044     0.30775
  n-local   -98.56149   -99.48347   -78.99827    -0.02119     0.02908     0.00379
  augment  2550.68136  2551.95050  2561.08763     0.03372     0.40271     0.00806
  Kinetic  5563.42682  5581.05677  5631.34493     0.46291     6.01445     0.11949
  Fock        0.00000     0.00000     0.00000     0.00000     0.00000     0.00000
  Total     -22.99566   -23.21810    -0.52545     0.00103    -0.07191    -0.00071
  in kB     -22.13369   -22.34779    -0.50575     0.00099    -0.06922    -0.00068

 VOLUME and BASIS-vectors are now :
  energy-cutoff  :      500.00
  volume of cell :     1664.57
      direct lattice vectors                 reciprocal lattice vectors
     8.813512802  0.000000000  0.000000000     0.113462137 -0.065507406  0.000000000
     4.406756909  7.632725690  0.000000000     0.000000000  0.131014796  0.000000000
     0.000000000  0.000000000 24.744230039     0.000000000  0.000000000  0.040413462

  length of vectors
     8.813512802  8.813512802 24.744230039     0.131014796  0.131014796  0.040413462

 FORCES acting on ions
    electron-ion (+dipol)            ewald-force                    non-local-force                 convergence-correction
   0.186E-02 0.137E-01 0.271E+04   -.124E-03 -.106E-01 -.271E+04   -.148E-04 0.798E-02 -.776E+00   -.176E-02 -.861E-02 -.620E+00
   0.505E+00 0.577E+00 0.271E+04   -.585E+00 -.570E+00 -.271E+04   0.280E-01 0.983E-02 -.266E+00   0.480E-01 -.506E-02 -.655E+00
   -.507E+00 0.565E+00 0.271E+04   0.585E+00 -.570E+00 -.271E+04   -.278E-01 0.952E-02 -.266E+00   -.460E-01 0.699E-02 -.651E+00
   0.746E+00 0.144E+00 0.271E+04   -.777E+00 -.210E+00 -.271E+04   0.140E-01 0.118E-01 -.263E+00   0.229E-01 0.412E-01 -.657E+00
   -.153E-01 -.149E-01 0.271E+04   0.653E-03 0.180E-01 -.271E+04   -.166E-03 -.812E-02 -.331E+00   0.149E-01 0.286E-02 -.644E+00
   -.735E+00 0.139E+00 0.271E+04   0.777E+00 -.209E+00 -.271E+04   -.139E-01 0.120E-01 -.263E+00   -.331E-01 0.460E-01 -.651E+00
   0.230E+00 -.723E+00 0.271E+04   -.191E+00 0.779E+00 -.271E+04   -.112E-01 -.215E-01 -.295E+00   -.163E-01 -.349E-01 -.652E+00
   -.240E+00 -.716E+00 0.271E+04   0.192E+00 0.779E+00 -.271E+04   0.110E-01 -.216E-01 -.296E+00   0.266E-01 -.418E-01 -.650E+00
   0.150E-01 0.188E-01 0.271E+04   -.206E-03 -.700E-02 -.271E+04   0.263E-03 -.447E-02 -.448E+00   -.152E-01 -.662E-02 -.704E+00
   0.487E+01 0.279E+01 0.945E+03   -.461E+01 -.265E+01 -.945E+03   -.191E+00 -.111E+00 -.608E+00   -.176E-01 0.105E-03 0.535E-01
   -.169E-01 0.650E+01 0.955E+03   0.266E-02 -.654E+01 -.955E+03   0.583E-03 -.225E-02 -.394E+00   0.140E-01 0.192E-01 0.187E+00
   -.485E+01 0.278E+01 0.945E+03   0.461E+01 -.265E+01 -.945E+03   0.190E+00 -.112E+00 -.610E+00   0.764E-02 0.113E-01 0.559E-01
   0.559E+01 -.336E+01 0.955E+03   -.566E+01 0.338E+01 -.955E+03   0.201E-01 -.919E-02 -.434E+00   0.327E-01 -.244E-02 0.190E+00
   -.562E+01 -.335E+01 0.955E+03   0.567E+01 0.338E+01 -.955E+03   -.204E-01 -.871E-02 -.435E+00   -.793E-02 -.598E-02 0.191E+00
   0.186E-01 0.172E+01 0.946E+03   -.375E-02 -.172E+01 -.946E+03   0.336E-03 -.114E-01 -.459E+00   -.154E-01 -.757E-02 0.488E-01
   -.531E-02 -.548E+01 0.945E+03   0.163E-02 0.520E+01 -.944E+03   0.227E-03 0.221E+00 -.671E+00   0.357E-02 -.257E-02 0.714E-01
   0.158E+01 -.793E+00 0.946E+03   -.158E+01 0.796E+00 -.946E+03   -.184E-01 0.146E-01 -.481E+00   -.618E-02 -.957E-02 0.500E-01
   -.158E+01 -.811E+00 0.946E+03   0.158E+01 0.799E+00 -.946E+03   0.184E-01 0.150E-01 -.480E+00   0.348E-02 0.440E-02 0.509E-01
   0.419E-01 0.306E+01 -.859E+03   -.234E-01 -.321E+01 0.857E+03   -.241E-02 0.344E-01 0.519E+00   -.166E-01 0.945E-01 0.107E+01
   0.418E+02 0.235E+02 -.798E+03   -.418E+02 -.235E+02 0.797E+03   -.676E+00 -.377E+00 -.660E+00   0.665E+00 0.381E+00 0.196E+01
   -.419E+02 0.235E+02 -.798E+03   0.418E+02 -.235E+02 0.797E+03   0.677E+00 -.377E+00 -.660E+00   -.652E+00 0.389E+00 0.196E+01
   0.151E+02 -.902E+01 -.844E+03   -.156E+02 0.926E+01 0.843E+03   0.257E+00 -.110E+00 0.520E+00   0.244E+00 -.138E+00 0.121E+01
   -.402E-01 -.485E+02 -.800E+03   0.269E-01 0.485E+02 0.799E+03   0.417E-03 0.802E+00 -.667E+00   0.129E-01 -.753E+00 0.197E+01
   -.150E+02 -.899E+01 -.844E+03   0.155E+02 0.924E+01 0.843E+03   -.257E+00 -.111E+00 0.521E+00   -.265E+00 -.144E+00 0.121E+01
   -.316E+01 -.938E+00 -.859E+03   0.327E+01 0.107E+01 0.858E+03   -.763E-02 -.635E-01 0.575E+00   -.791E-01 -.569E-01 0.108E+01
   0.316E+01 -.899E+00 -.859E+03   -.327E+01 0.104E+01 0.858E+03   0.926E-02 -.642E-01 0.578E+00   0.723E-01 -.712E-01 0.108E+01
   0.895E-02 0.183E+02 -.843E+03   -.110E-02 -.189E+02 0.842E+03   -.124E-02 0.263E+00 0.485E+00   -.680E-02 0.283E+00 0.122E+01
   0.307E-01 0.218E+01 -.265E+04   -.306E-01 -.220E+01 0.265E+04   -.145E-03 0.276E-01 0.323E+00   -.214E-05 -.839E-02 0.115E+01
   0.459E+02 0.769E+02 -.261E+04   -.460E+02 -.771E+02 0.261E+04   -.427E+00 -.762E+00 0.891E-01   0.523E+00 0.789E+00 0.107E+01
   -.459E+02 0.768E+02 -.261E+04   0.461E+02 -.770E+02 0.261E+04   0.432E+00 -.771E+00 0.692E-01   -.522E+00 0.799E+00 0.106E+01
   0.861E+02 -.195E+01 -.262E+04   -.863E+02 0.192E+01 0.262E+04   -.926E+00 -.331E-02 0.141E+00   0.940E+00 0.469E-01 0.107E+01
   -.857E+02 -.199E+01 -.262E+04   0.860E+02 0.196E+01 0.262E+04   0.914E+00 -.283E-02 0.171E+00   -.947E+00 0.523E-01 0.106E+01
   0.382E+02 -.717E+02 -.262E+04   -.384E+02 0.721E+02 0.262E+04   -.321E+00 0.632E+00 0.618E+00   0.439E+00 -.835E+00 0.104E+01
   -.382E+02 -.715E+02 -.262E+04   0.385E+02 0.719E+02 0.262E+04   0.318E+00 0.625E+00 0.631E+00   -.429E+00 -.840E+00 0.103E+01
   0.888E-01 0.130E+01 -.265E+04   -.752E-01 -.130E+01 0.265E+04   0.103E-02 0.683E-03 0.351E+00   -.149E-01 0.875E-05 0.107E+01
   -.268E+00 -.793E+01 -.210E+04   0.263E+00 0.809E+01 0.210E+04   -.104E-01 -.122E+00 0.145E+01   0.186E-01 0.260E-02 0.106E+01
   0.700E+02 0.435E+02 -.301E+03   -.769E+02 -.479E+02 0.303E+03   0.679E+01 0.429E+01 -.164E+01   0.752E-01 0.470E-01 -.964E-01
   -.676E+02 0.471E+02 -.301E+03   0.742E+02 -.518E+02 0.303E+03   -.655E+01 0.464E+01 -.166E+01   -.723E-01 0.507E-01 -.965E-01
   -.155E+01 -.578E+02 -.173E+04   0.270E+01 0.101E+03 0.173E+04   -.115E+01 -.436E+02 0.788E+01   -.432E-02 -.634E-01 -.102E+01
   0.937E+00 0.350E+02 -.175E+02   0.213E-12 -.142E-12 -.132E-10   -.930E+00 -.350E+02 0.186E+01   -.408E-02 0.323E-01 0.162E+02

 POSITION                                       TOTAL-FORCE (eV/Angst)
      0.00000      0.00000      5.28038        -0.000132      0.001477      0.020980
      2.93784      0.00000      5.28038        -0.004260      0.011000      0.010071
      5.87568      0.00000      5.28038         0.004127      0.010917      0.009801
      1.46892      2.54424      5.28038         0.005827     -0.013291      0.012877
      4.40676      2.54424      5.28038        -0.000016     -0.003191     -0.001289
      7.34459      2.54424      5.28038        -0.005902     -0.013361      0.012958
      2.93784      5.08848      5.28038         0.011015     -0.000924      0.009091
      5.87568      5.08848      5.28038        -0.011289     -0.000888      0.008943
      8.81351      5.08848      5.28038        -0.000188     -0.000292      0.018205
      1.46892      0.84808      7.67911         0.047979      0.022138      0.074109
      4.40676      0.84808      7.67911         0.000221     -0.027239     -0.000710
      7.34459      0.84808      7.67911        -0.048388      0.022243      0.073840
      2.93784      3.39232      7.67911        -0.021646      0.013605     -0.003468
      5.87568      3.39232      7.67911         0.022151      0.013688     -0.003650
      8.81351      3.39232      7.67911        -0.000334     -0.012850      0.055204
      4.40676      5.93656      7.67911         0.000033     -0.054029      0.065157
      7.34459      5.93656      7.67911        -0.017745      0.006630      0.052597
     10.28243      5.93656      7.67911         0.017490      0.006927      0.052711
      8.81351      1.69394     10.07055        -0.000622     -0.024934     -0.038443
      2.94670      1.70128     10.05847         0.024681      0.017836     -0.049052
      5.86681      1.70128     10.05847        -0.024690      0.018125     -0.048621
     10.27376      4.24541     10.05945         0.012125     -0.009715     -0.001953
      4.40676      4.23017     10.05847        -0.000082     -0.031694     -0.021541
      7.35327      4.24541     10.05945        -0.012840     -0.010235     -0.000809
     11.75328      6.78576     10.07055         0.026934      0.006738     -0.023580
      5.87375      6.78576     10.07055        -0.027411      0.006922     -0.022918
      8.81351      6.77463     10.05945        -0.000281      0.012347     -0.014293
      0.00000      0.00000     12.48855        -0.000198     -0.004893     -0.132185
      2.97006      0.05170     12.45862        -0.085416     -0.172615     -0.075289
      5.84345      0.05170     12.45862         0.085369     -0.172167     -0.073847
      1.52981      2.54630     12.45862        -0.186443      0.014552     -0.091243
      7.28371      2.54630     12.45862         0.185545      0.014295     -0.093241
      2.96650      5.03473     12.45862        -0.116753      0.143933     -0.106064
      5.84701      5.03473     12.45862         0.116233      0.144022     -0.106522
      8.81351      5.08848     12.49203        -0.000321     -0.000906     -0.074969
      4.40676      2.54424     12.16149         0.002452      0.043729      0.557941
      3.61163      2.01447     14.50927        -0.018674     -0.008527      0.003544
      5.17180      1.97356     14.51124         0.016802     -0.009626      0.001654
      4.40658      2.55124     14.30678         0.004652      0.040254     -0.055995
    total drift:                                0.003559      0.037462      0.524329

  FREE ENERGIE OF THE ION-ELECTRON SYSTEM (eV)
  free  energy   TOTEN  =      -126.01862823 eV

  energy  without entropy=     -126.01862823  energy(sigma->0) =     -126.01862823

 stress matrix after NEB project (eV)
    -22.99566      0.00103     -0.00071
      0.00103    -23.21810     -0.07191
     -0.00071     -0.07191     -0.52545
  FORCES: max atom, RMS     0.069119    0.011971
  FORCE total and by dimension    0.074761    0.055995
  Stress total and by dimension   32.682826   23.218101
|           W    W    AA    RRRRR   N    N  II  N    N   GGGG   !!!           |
|           W    W   A  A   R    R  NN   N  II  NN   N  G    G  !!!           |
|           W    W  A    A  R    R  N N  N  II  N N  N  G       !!!           |
|           W WW W  AAAAAA  RRRRR   N  N N  II  N  N N  G  GGG   !            |
|           WW  WW  A    A  R   R   N   NN  II  N   NN  G    G                |
|           W    W  A    A  R    R  N    N  II  N    N   GGGG   !!!           |
|     Tetrahedron method does not include variations of the Fermi             |
|     occupations, so forces and stress will be inaccurate. We suggest        |
|     using a different smearing scheme ISMEAR = 1 or 2 for metals in         |
|     relaxations.                                                            |

 total charge

# of ion       s       p       d       tot
    1        0.543   0.240   8.767   9.550
    2        0.546   0.240   8.766   9.552
    3        0.546   0.240   8.766   9.552
    4        0.546   0.240   8.766   9.552
    5        0.541   0.242   8.765   9.547
    6        0.546   0.240   8.766   9.552
    7        0.546   0.240   8.766   9.552
    8        0.546   0.240   8.766   9.552
    9        0.542   0.240   8.769   9.551
   10        0.520   0.308   8.773   9.601
   11        0.522   0.307   8.780   9.609
   12        0.520   0.308   8.773   9.601
   13        0.522   0.307   8.780   9.609
   14        0.522   0.307   8.780   9.608
   15        0.517   0.309   8.777   9.603
   16        0.521   0.308   8.772   9.601
   17        0.517   0.309   8.777   9.603
   18        0.517   0.309   8.777   9.603
   19        0.520   0.302   8.778   9.600
   20        0.536   0.325   8.760   9.621
   21        0.536   0.325   8.760   9.621
   22        0.514   0.310   8.774   9.598
   23        0.535   0.325   8.759   9.620
   24        0.514   0.310   8.774   9.598
   25        0.519   0.302   8.778   9.599
   26        0.519   0.302   8.778   9.598
   27        0.516   0.309   8.774   9.600
   28        0.540   0.228   8.766   9.535
   29        0.556   0.239   8.763   9.558
   30        0.557   0.239   8.763   9.559
   31        0.556   0.237   8.764   9.558
   32        0.556   0.237   8.765   9.557
   33        0.549   0.231   8.769   9.549
   34        0.549   0.231   8.769   9.549
   35        0.539   0.227   8.768   9.535
   36        0.333   0.288   8.299   8.921
   37        0.605   0.117   0.000   0.722
   38        0.605   0.117   0.000   0.722
   39        1.570   3.593   0.000   5.163
tot         21.802  13.727 315.249 350.779

 BZINTS: Fermi energy:    0.281505;  403.000000 electrons
         Band energy:-0.140653E+04;  BLOECHL correction:   -0.080800