 vasp.6.2.0 18Jan21 (build Jun 12 2021 23:27:24) complex

 executed on             LinuxIFC date 2022.05.30  17:27:28

 INCAR:
   ISMEAR = -5
   SIGMA = 0.1
   ISPIN = 1
   EDIFF = 1.d-5
   EDIFFG = -0.01
   NSW = 0
   NELM = 150
   ENCUT = 500
   ISIF = 2
   IBRION = 2
   LREAL = Auto
   ALGO = Fast
   ICHARG = 11
   LORBIT = 10
   LCHARG = .F.
   LWAVE = .F.

 POTCAR:    PAW_PBE Ag 02Apr2005
 POTCAR:    PAW_PBE Pd 04Jan2005
 POTCAR:    PAW_PBE C 08Apr2002
|           W    W    AA    RRRRR   N    N  II  N    N   GGGG   !!!           |
|           W    W   A  A   R    R  NN   N  II  NN   N  G    G  !!!           |
|           W    W  A    A  R    R  N N  N  II  N N  N  G       !!!           |
|           W WW W  AAAAAA  RRRRR   N  N N  II  N  N N  G  GGG   !            |
|           WW  WW  A    A  R   R   N   NN  II  N   NN  G    G                |
|           W    W  A    A  R    R  N    N  II  N    N   GGGG   !!!           |
|     For optimal performance we recommend to set                             |
|       NCORE = 2 up to number-of-cores-per-socket                            |
|     This setting can greatly improve the performance of VASP for DFT.       |
|     The default, NCORE=1 might be grossly inefficient on modern             |
|     multi-core architectures or massively parallel machines. Do your        |
|     Unfortunately you need to use the default for GW and RPA                |
|     calculations (for HF NCORE is supported but not extensively tested      |
|     yet).                                                                   |

 POTCAR:    PAW_PBE Ag 02Apr2005
   VRHFIN =Ag : s1 d10

   TITEL  = PAW_PBE Ag 02Apr2005
   POMASS =  107.868; ZVAL   =   11.000    mass and valenz
   ENMAX  =  249.844; ENMIN  =  187.383 eV

 POTCAR:    PAW_PBE Pd 04Jan2005
   VRHFIN =Pd : s1 d9

   TITEL  = PAW_PBE Pd 04Jan2005
   POMASS =  106.420; ZVAL   =   10.000    mass and valenz
   ENMAX  =  250.925; ENMIN  =  188.194 eV

 POTCAR:    PAW_PBE C 08Apr2002
   VRHFIN =C: s2p2

   TITEL  = PAW_PBE C 08Apr2002
   POMASS =   12.011; ZVAL   =    4.000    mass and valenz
   ENMAX  =  400.000; ENMIN  =  300.000 eV

 Optimization of the real space projectors (new method)

 maximal supplied QI-value         = 15.12
 optimisation between [QCUT,QGAM] = [ 11.34, 22.83] = [ 36.00,145.93] Ry
 Optimized for a Real-space Cutoff    1.43 Angstroem

   l    n(q)    QCUT    max X(q) W(low)/X(q) W(high)/X(q)  e(spline)
   2      9    11.338    53.897    0.16E-03    0.20E-03    0.28E-06
   2      9    11.338    52.416    0.16E-03    0.20E-03    0.29E-06
   0     10    11.338   122.045    0.31E-04    0.76E-04    0.15E-06
   0     10    11.338    73.629    0.30E-04    0.72E-04    0.15E-06
   1      9    11.338    15.255    0.20E-03    0.19E-04    0.17E-06
   1      9    11.338     9.562    0.16E-03    0.15E-04    0.14E-06
 Optimization of the real space projectors (new method)

[...]

   l    n(q)    QCUT    max X(q) W(low)/X(q) W(high)/X(q)  e(spline)
   2      9    11.346    59.108    0.74E-04    0.81E-04    0.26E-06
   2      9    11.346    58.101    0.74E-04    0.83E-04    0.27E-06
   0     10    11.346   102.235    0.26E-04    0.31E-04    0.16E-06
   0     10    11.346    58.388    0.23E-04    0.29E-04    0.15E-06
   1     10    11.346    22.191    0.23E-03    0.26E-03    0.14E-06
   1     10    11.346    15.590    0.19E-03    0.22E-03    0.12E-06
 Optimization of the real space projectors (new method)

 maximal supplied QI-value         = 25.13
 optimisation between [QCUT,QGAM] = [ 11.31, 22.87] = [ 35.82,146.48] Ry
 Optimized for a Real-space Cutoff    1.00 Angstroem

   l    n(q)    QCUT    max X(q) W(low)/X(q) W(high)/X(q)  e(spline)
   0      7    11.310   115.676    0.43E-03    0.13E-02    0.19E-06
   0      7    11.310    87.132    0.43E-03    0.13E-02    0.18E-06
   1      6    11.310     4.429    0.42E-03    0.74E-03    0.11E-06
   1      6    11.310     2.733    0.34E-03    0.55E-03    0.92E-07
  PAW_PBE Ag 02Apr2005                  :
  PAW_PBE Pd 04Jan2005                  :
  PAW_PBE C 08Apr2002                   :

 POSCAR: Ag-Pd-C
  positions in direct lattice
  velocities in cartesian coordinates
 exchange correlation table for  LEXCH =        8
   RHO(1)=    0.500       N(1)  =     2000
   RHO(2)=  100.500       N(2)  =     4000

 VTST: version 3.2, (02/03/18)

 CHAIN: initializing optimizer

 OPT: Using VASP Conjugate-Gradient optimizer
 CHAIN: Read ICHAIN            0

 POSCAR: Ag-Pd-C
  positions in direct lattice
  velocities in cartesian coordinates

 ion  position               nearest neighbor table
   1  0.000  0.000  0.217-   2 2.93   8 2.93   7 2.93   6 2.93   4 2.93  12 2.93  16 2.93  10 2.93
                             3 2.93
   2  0.333  0.000  0.217-   1 2.93   8 2.93   9 2.93   3 2.93   4 2.93   5 2.93  10 2.93  17 2.93
                            11 2.93
   3  0.667  0.000  0.217-   9 2.93   2 2.93   5 2.93  11 2.93   7 2.93  18 2.93   1 2.93   6 2.93
                            12 2.93
   4  0.000  0.333  0.217-   5 2.93   6 2.93   2 2.93   1 2.93   7 2.93  13 2.93  15 2.93   9 2.93
                            10 2.93
   5  0.333  0.333  0.217-   4 2.93   3 2.93   7 2.93   2 2.93   8 2.93  14 2.93  13 2.93  11 2.93
                             6 2.93
   6  0.667  0.333  0.217-   4 2.93   9 2.93   1 2.93  15 2.93   8 2.93  12 2.93   3 2.93   5 2.93
                            14 2.93
   7  0.000  0.667  0.217-   8 2.93   1 2.93   5 2.93   3 2.93   4 2.93  16 2.93  18 2.93  13 2.93
                             9 2.93
   8  0.333  0.667  0.217-   7 2.93   1 2.93   2 2.93   9 2.93   5 2.93  16 2.93   6 2.93  17 2.93
                            14 2.93
   9  0.667  0.667  0.217-   3 2.93   2 2.93   8 2.93   6 2.93  17 2.93   4 2.93  15 2.93   7 2.93
                            18 2.93
  10  0.111  0.111  0.315-  20 2.91  19 2.92  26 2.92  12 2.93  16 2.93  15 2.93  17 2.93  13 2.93
                            11 2.93   2 2.93   1 2.93   4 2.93
  11  0.444  0.111  0.315-  21 2.91  20 2.91  27 2.91  14 2.93  17 2.93  18 2.93   3 2.93  12 2.93
                            13 2.93  10 2.93   5 2.93   2 2.93
  12  0.778  0.111  0.315-  21 2.91  25 2.92  19 2.92  10 2.93  16 2.93  18 2.93  15 2.93  11 2.93
                             1 2.93  14 2.93   6 2.93   3 2.93
  13  0.111  0.444  0.315-  20 2.91  23 2.91  22 2.91  15 2.93  14 2.93  18 2.93  10 2.93  11 2.93
                            16 2.93   4 2.93   5 2.93   7 2.93
  14  0.444  0.444  0.315-  23 2.91  21 2.91  24 2.91  13 2.93  11 2.93  16 2.93   5 2.93  12 2.93
                            17 2.93   8 2.93  15 2.93   6 2.93
  15  0.778  0.444  0.315-  24 2.91  22 2.91  19 2.92  13 2.93  10 2.93  12 2.93  17 2.93  18 2.93
                             4 2.93   6 2.93   9 2.93  14 2.93
  16  0.111  0.778  0.315-  23 2.91  26 2.92  25 2.92  18 2.93  12 2.93  10 2.93  14 2.93  17 2.93
                            13 2.93   7 2.93   8 2.93   1 2.93
  17  0.444  0.778  0.315-  27 2.91  24 2.91  26 2.92  11 2.93  10 2.93   9 2.93  18 2.93  15 2.93
                            16 2.93   2 2.93  14 2.93   8 2.93
  18  0.778  0.778  0.315-  22 2.91  27 2.91  25 2.92  16 2.93  12 2.93  13 2.93  11 2.93  17 2.93
                            15 2.93   7 2.93   3 2.93   9 2.93
  19  0.889  0.223  0.413-  28 2.91  15 2.92  10 2.92  12 2.92  32 2.92  31 2.92  20 2.93  21 2.93
                            24 2.93  22 2.93  26 2.93  25 2.93
  20  0.222  0.222  0.412-  36 2.81  10 2.91  13 2.91  11 2.91  31 2.91  29 2.91  19 2.93  26 2.93
                            27 2.93  22 2.93  21 2.94  23 2.94
  21  0.556  0.222  0.412-  36 2.81  12 2.91  11 2.91  14 2.91  30 2.91  32 2.91  25 2.93  19 2.93
                            27 2.93  24 2.93  20 2.94  23 2.94
  22  0.889  0.556  0.412-  35 2.91  18 2.91  15 2.91  13 2.91  33 2.92  31 2.92  25 2.93  19 2.93
                            24 2.93  27 2.93  23 2.93  20 2.93
  23  0.222  0.556  0.412-  36 2.81  16 2.91  14 2.91  13 2.91  34 2.91  33 2.91  26 2.93  25 2.93
                            22 2.93  24 2.93  21 2.94  20 2.94
  24  0.556  0.556  0.412-  35 2.91  15 2.91  17 2.91  14 2.91  32 2.92  34 2.92  19 2.93  26 2.93
                            27 2.93  22 2.93  23 2.93  21 2.93
  25  0.889  0.889  0.413-  28 2.91  18 2.92  16 2.92  12 2.92  33 2.92  30 2.92  23 2.93  21 2.93
                            22 2.93  27 2.93  26 2.93  19 2.93
  26  0.223  0.889  0.413-  28 2.91  17 2.92  16 2.92  10 2.92  34 2.92  29 2.92  23 2.93  20 2.93
                            27 2.93  24 2.93  25 2.93  19 2.93
  27  0.556  0.889  0.412-  35 2.91  17 2.91  18 2.91  11 2.91  29 2.92  30 2.92  26 2.93  25 2.93
                            24 2.93  22 2.93  20 2.93  21 2.93
  28  0.000  0.000  0.510-  26 2.91  25 2.91  19 2.91  29 2.94  34 2.94  33 2.94  32 2.94  31 2.94
                            30 2.94
  29  0.333  0.003  0.510-  30 2.91  31 2.91  36 2.91  20 2.91  27 2.92  26 2.92  35 2.94  28 2.94
                            34 2.98
  30  0.664  0.003  0.510-  29 2.91  32 2.91  36 2.91  21 2.91  27 2.92  25 2.92  35 2.94  28 2.94
                            33 2.98
  31  0.003  0.333  0.510-  33 2.91  29 2.91  36 2.91  20 2.91  22 2.92  19 2.92  35 2.94  28 2.94
                            32 2.98
  32  0.664  0.333  0.510-  34 2.91  30 2.91  36 2.91  21 2.91  24 2.92  19 2.92  35 2.94  28 2.94
                            31 2.98
  33  0.003  0.664  0.510-  31 2.91  34 2.91  36 2.91  23 2.91  22 2.92  25 2.92  35 2.94  28 2.94
                            30 2.98
  34  0.333  0.664  0.510-  32 2.91  33 2.91  36 2.91  23 2.91  24 2.92  26 2.92  35 2.94  28 2.94
                            29 2.98
  35  0.667  0.667  0.510-  24 2.91  27 2.91  22 2.91  30 2.94  29 2.94  32 2.94  34 2.94  31 2.94
                            33 2.94
  36  0.333  0.333  0.504-  37 1.75  21 2.81  20 2.81  23 2.81  31 2.91  33 2.91  30 2.91  29 2.91
                            34 2.91  32 2.91
  37  0.333  0.333  0.576-  36 1.75

  LATTYP: Found a hexagonal cell.
 ALAT       =     8.7913665772
 C/A-ratio  =     2.7711238095

  Lattice vectors:

 A1 = (  -4.3956832886,  -7.6135467898,   0.0000000000)
 A2 = (   8.7913665771,   0.0000000000,   0.0000000000)
 A3 = (   0.0000000000,   0.0000000000,  24.3619652401)

Analysis of symmetry for initial positions (statically):
 Subroutine PRICEL returns:
 Original cell was already a primitive cell.

 Routine SETGRP: Setting up the symmetry group for a
 hexagonal supercell.

 Subroutine GETGRP returns: Found  6 space group operations
 (whereof  6 operations were pure point group operations)
 out of a pool of 24 trial point group operations.

The static configuration has the point symmetry C_3v.

Analysis of symmetry for dynamics (positions and initial velocities):
 Subroutine PRICEL returns:
 Original cell was already a primitive cell.

[...]

The dynamic configuration has the point symmetry C_3v.

Analysis of constrained symmetry for selective dynamics:
 Subroutine PRICEL returns:
 Original cell was already a primitive cell.

 Routine SETGRP: Setting up the symmetry group for a
 hexagonal supercell.

 Subroutine GETGRP returns: Found  6 space group operations
[...]
     24      -5.1292      2.00000
     25      -5.1220      2.00000
     26      -5.0914      2.00000
     27      -5.0864      2.00000
     28      -5.0619      2.00000
     29      -5.0530      2.00000
     30      -5.0376      2.00000
     31      -5.0230      2.00000
     32      -5.0168      2.00000
     33      -5.0020      2.00000
     34      -4.9799      2.00000
     35      -4.9552      2.00000
     36      -4.9155      2.00000
     37      -4.9113      2.00000
     38      -4.8974      2.00000
     39      -4.8918      2.00000
     40      -4.8463      2.00000
     41      -4.8238      2.00000
     42      -4.8109      2.00000
     43      -4.7875      2.00000
     44      -4.7113      2.00000
     45      -4.6849      2.00000
     46      -4.6809      2.00000
     47      -4.6640      2.00000
     48      -4.6600      2.00000
     49      -4.6472      2.00000
     50      -4.6418      2.00000
     51      -4.6372      2.00000
     52      -4.6365      2.00000
     53      -4.6207      2.00000
     54      -4.5771      2.00000
     55      -4.5619      2.00000
     56      -4.5299      2.00000
     57      -4.5180      2.00000
     58      -4.5158      2.00000
     59      -4.5021      2.00000
     60      -4.4808      2.00000
[...]
    238       5.8354      0.00000
    239       5.9231      0.00000
    240       5.9540      0.00000
    241       6.4810      0.00000
    242       6.4839      0.00000
    243       6.6542      0.00000
    244       6.6689      0.00000
    245       6.7027      0.00000
    246       6.7424      0.00000
    247       6.8176      0.00000
    248       6.8836      0.00000
    249       6.9609      0.00000
    250       7.0937      0.00000
    251       7.1576      0.00000
    252       7.2395      0.00000

 soft charge-density along one line, spin component           1
         0         1         2         3         4         5         6         7         8         9
 total charge-density along one line

------------------------ aborting loop because EDIFF is reached ----------------------------------------

 total charge

# of ion       s       p       d       tot
    1        0.416   0.203   9.177   9.796
    2        0.416   0.203   9.177   9.796
    3        0.416   0.203   9.177   9.796
    4        0.416   0.203   9.177   9.796
    5        0.416   0.204   9.176   9.796
    6        0.416   0.203   9.177   9.796
    7        0.416   0.203   9.177   9.796
    8        0.416   0.203   9.177   9.796
    9        0.415   0.204   9.176   9.795
   10        0.407   0.270   9.164   9.840
   11        0.402   0.272   9.165   9.839
   12        0.407   0.270   9.164   9.840
   13        0.402   0.272   9.165   9.839
   14        0.402   0.272   9.165   9.839
   15        0.405   0.269   9.165   9.839
   16        0.407   0.270   9.164   9.840
   17        0.405   0.269   9.165   9.839
   18        0.405   0.269   9.165   9.839
   19        0.406   0.271   9.163   9.840
   20        0.417   0.283   9.159   9.859
   21        0.417   0.283   9.159   9.859
   22        0.401   0.273   9.166   9.840
   23        0.417   0.283   9.159   9.859
   24        0.401   0.273   9.166   9.840
   25        0.406   0.271   9.163   9.840
   26        0.406   0.271   9.163   9.840
   27        0.401   0.273   9.166   9.840
   28        0.419   0.197   9.182   9.799
   29        0.402   0.211   9.180   9.793
   30        0.402   0.211   9.180   9.793
   31        0.402   0.211   9.180   9.793
   32        0.402   0.211   9.180   9.793
   33        0.402   0.211   9.180   9.793
   34        0.402   0.211   9.180   9.793
   35        0.420   0.199   9.181   9.799
   36        0.596   0.610   8.513   9.720
   37        1.031   1.115   0.000   2.145
tot         15.932  10.128 329.496 355.555

  FORCE on cell =-STRESS in cart. coord.  units (eV):
  Direction    XX          YY          ZZ          XY          YZ          ZX
  Alpha Z   683.19962   683.19962   683.19962
  Ewald  154741.83398154741.83403************     0.00002     0.00000     0.00002
  Hartree164749.02268164749.02269************     0.00001    -0.00000     0.00001
  E(xc)   -2095.53381 -2095.53380 -2100.51989    -0.00001     0.00000     0.00000
  Local  ************************331032.54670     0.00029    -0.00004    -0.00012
  n-local  -325.10413  -307.99957  -313.89064    10.56931    -0.34887     0.42716
  augment  3296.69240  3296.69261  3297.00174    -0.00019    -0.00001     0.00002
  Kinetic  4959.07806  4958.79370  4968.34660     2.55298     1.35949    -0.59883
  Fock        0.00000     0.00000     0.00000     0.00000     0.00000     0.00000
  Total      -7.10061    -7.10061     0.33490    -0.00000    -0.00000     0.00000
  in kB      -6.97671    -6.97671     0.32906    -0.00000    -0.00000     0.00000

 VOLUME and BASIS-vectors are now :
  energy-cutoff  :      500.00
  volume of cell :     1630.63
      direct lattice vectors                 reciprocal lattice vectors
     8.791366577  0.000000000  0.000000000     0.113747958 -0.065672414  0.000000000
     4.395683289  7.613546790  0.000000000     0.000000000  0.131344829  0.000000000
     0.000000000  0.000000000 24.361965240     0.000000000  0.000000000  0.041047592

  length of vectors
     8.791366577  8.791366577 24.361965240     0.131344829  0.131344829  0.041047592

 FORCES acting on ions
    electron-ion (+dipol)            ewald-force                    non-local-force                 convergence-correction
   0.465E-04 -.279E-04 0.269E+04   -.954E-04 0.593E-04 -.269E+04   0.396E-17 0.169E-17 -.176E+01   -.846E-04 -.156E-03 0.123E+00
   0.198E+00 0.368E+00 0.269E+04   -.223E+00 -.263E+00 -.269E+04   0.362E-01 -.237E-01 -.164E+01   -.108E-01 -.744E-01 0.125E+00
   -.198E+00 0.368E+00 0.269E+04   0.224E+00 -.263E+00 -.269E+04   -.362E-01 -.237E-01 -.164E+01   0.102E-01 -.725E-01 0.125E+00
   0.418E+00 -.126E-01 0.269E+04   -.340E+00 -.619E-01 -.269E+04   -.245E-02 0.432E-01 -.164E+01   -.696E-01 0.280E-01 0.125E+00
   -.701E-05 -.194E-04 0.269E+04   0.981E-04 -.199E-05 -.269E+04   0.162E-17 0.134E-17 -.176E+01   0.618E-02 0.378E-02 0.126E+00
   -.418E+00 -.126E-01 0.269E+04   0.340E+00 -.620E-01 -.269E+04   0.245E-02 0.432E-01 -.164E+01   0.682E-01 0.289E-01 0.125E+00
   0.220E+00 -.356E+00 0.269E+04   -.116E+00 0.325E+00 -.269E+04   -.386E-01 -.195E-01 -.164E+01   -.572E-01 0.456E-01 0.125E+00
   -.220E+00 -.356E+00 0.269E+04   0.116E+00 0.325E+00 -.269E+04   0.386E-01 -.195E-01 -.164E+01   0.588E-01 0.447E-01 0.125E+00
   0.365E-04 -.131E-04 0.269E+04   0.792E-04 -.643E-04 -.269E+04   0.376E-18 0.117E-17 -.158E+01   -.663E-02 -.341E-02 0.159E+00
   0.259E+01 0.150E+01 0.921E+03   -.254E+01 -.147E+01 -.920E+03   -.548E-01 -.317E-01 -.692E+00   -.113E-01 -.647E-02 -.320E-01
   -.288E-04 0.235E+01 0.924E+03   0.414E-04 -.240E+01 -.924E+03   0.611E-12 0.930E-01 -.453E+00   0.619E-02 -.578E-01 -.392E-01
   -.259E+01 0.150E+01 0.921E+03   0.254E+01 -.147E+01 -.920E+03   0.548E-01 -.317E-01 -.692E+00   0.997E-02 -.581E-02 -.328E-01
   0.204E+01 -.118E+01 0.924E+03   -.208E+01 0.120E+01 -.924E+03   0.806E-01 -.465E-01 -.453E+00   -.471E-01 0.343E-01 -.392E-01
   -.204E+01 -.118E+01 0.924E+03   0.208E+01 0.120E+01 -.924E+03   -.806E-01 -.465E-01 -.453E+00   0.574E-01 0.334E-01 -.408E-01
   0.163E-04 0.320E+00 0.920E+03   -.108E-03 -.236E+00 -.920E+03   -.342E-12 -.520E-01 -.496E+00   -.128E-02 -.326E-01 -.263E-01
   -.796E-05 -.300E+01 0.921E+03   0.206E-04 0.294E+01 -.920E+03   0.416E-12 0.633E-01 -.692E+00   -.890E-04 0.115E-01 -.328E-01
   0.277E+00 -.160E+00 0.920E+03   -.205E+00 0.118E+00 -.920E+03   -.451E-01 0.260E-01 -.496E+00   -.289E-01 0.152E-01 -.263E-01
   -.277E+00 -.160E+00 0.920E+03   0.205E+00 0.118E+00 -.920E+03   0.451E-01 0.260E-01 -.496E+00   0.290E-01 0.167E-01 -.255E-01
   0.414E-04 0.204E+01 -.878E+03   -.130E-03 -.190E+01 0.878E+03   -.530E-12 -.807E-01 0.369E+00   0.999E-03 -.648E-01 -.164E+00
   0.122E+02 0.705E+01 -.853E+03   -.116E+02 -.669E+01 0.853E+03   -.516E+00 -.298E+00 0.129E+00   -.143E+00 -.826E-01 -.252E+00
   -.122E+02 0.705E+01 -.853E+03   0.116E+02 -.669E+01 0.853E+03   0.516E+00 -.298E+00 0.129E+00   0.132E+00 -.829E-01 -.252E+00
   0.591E+01 -.341E+01 -.872E+03   -.603E+01 0.348E+01 0.871E+03   0.137E+00 -.792E-01 0.706E+00   -.321E-01 0.190E-01 -.190E+00
   -.573E-04 -.141E+02 -.853E+03   0.441E-04 0.134E+02 0.853E+03   0.391E-11 0.596E+00 0.129E+00   -.539E-02 0.157E+00 -.252E+00
   -.591E+01 -.341E+01 -.872E+03   0.603E+01 0.348E+01 0.871E+03   -.137E+00 -.792E-01 0.706E+00   0.336E-01 0.195E-01 -.190E+00
   -.177E+01 -.102E+01 -.878E+03   0.164E+01 0.948E+00 0.878E+03   0.699E-01 0.404E-01 0.369E+00   0.561E-01 0.322E-01 -.164E+00
   0.177E+01 -.102E+01 -.878E+03   -.164E+01 0.948E+00 0.878E+03   -.699E-01 0.404E-01 0.369E+00   -.559E-01 0.331E-01 -.164E+00
   0.196E-04 0.683E+01 -.872E+03   0.110E-03 -.697E+01 0.871E+03   0.104E-11 0.158E+00 0.706E+00   -.292E-03 -.373E-01 -.190E+00
   0.544E-04 -.378E-04 -.266E+04   -.117E-03 0.784E-04 0.266E+04   0.204E-17 -.223E-17 0.192E+01   0.216E-03 -.132E-04 -.173E+00
   0.182E+02 0.302E+02 -.265E+04   -.181E+02 -.301E+02 0.265E+04   -.341E-01 -.107E-01 0.192E+01   -.123E+00 -.198E+00 -.199E+00
   -.182E+02 0.302E+02 -.265E+04   0.181E+02 -.301E+02 0.265E+04   0.341E-01 -.107E-01 0.192E+01   0.122E+00 -.197E+00 -.199E+00
   0.353E+02 0.608E+00 -.265E+04   -.351E+02 -.586E+00 0.265E+04   -.263E-01 -.242E-01 0.192E+01   -.233E+00 -.694E-02 -.199E+00
   -.353E+02 0.608E+00 -.265E+04   0.351E+02 -.586E+00 0.265E+04   0.263E-01 -.242E-01 0.192E+01   0.232E+00 -.599E-02 -.198E+00
   0.171E+02 -.309E+02 -.265E+04   -.171E+02 0.307E+02 0.265E+04   0.780E-02 0.349E-01 0.192E+01   -.109E+00 0.205E+00 -.199E+00
   -.171E+02 -.309E+02 -.265E+04   0.171E+02 0.307E+02 0.265E+04   -.780E-02 0.349E-01 0.192E+01   0.111E+00 0.204E+00 -.198E+00
   0.225E-04 -.111E-04 -.266E+04   0.106E-03 -.668E-04 0.266E+04   -.427E-17 0.311E-17 0.185E+01   -.637E-02 -.325E-02 -.200E+00
   0.103E-04 -.263E-04 -.220E+04   0.943E-04 0.110E-04 0.220E+04   -.756E-18 0.975E-17 -.434E+01   0.431E-02 0.264E-02 -.394E+00
   0.493E-04 -.266E-04 -.123E+04   0.176E-04 0.244E-06 0.124E+04   -.399E-18 -.409E-18 -.120E+02   0.771E-03 0.474E-03 -.433E-01
   0.429E-03 -.737E-03 0.202E+02   0.142E-12 -.303E-12 0.227E-12   0.288E-15 0.200E-15 -.173E+02   -.199E-02 0.217E-02 -.296E+01

 POSITION                                       TOTAL-FORCE (eV/Angst)
      0.00000      0.00000      5.28219         0.000000     -0.000000      0.008146
      2.93046      0.00000      5.28219         0.000649      0.008008      0.017642
      5.86091      0.00000      5.28219        -0.000649      0.008008      0.017642
      1.46523      2.53785      5.28219         0.007260     -0.003442      0.017642
      4.39568      2.53785      5.28219         0.000000      0.000000      0.020971
      7.32614      2.53785      5.28219        -0.007260     -0.003442      0.017642
      2.93046      5.07570      5.28219         0.006611     -0.004566      0.017642
      5.86091      5.07570      5.28219        -0.006611     -0.004566      0.017642
      8.79137      5.07570      5.28219         0.000000     -0.000000      0.025058
      1.46523      0.84595      7.67490        -0.014434     -0.008333     -0.013981
      4.39568      0.84595      7.67490        -0.000000     -0.019954     -0.029125
      7.32614      0.84595      7.67490         0.014434     -0.008333     -0.013981
      2.93046      3.38380      7.67490        -0.017280      0.009977     -0.029125
      5.86091      3.38380      7.67490         0.017280      0.009977     -0.029125
      8.79137      3.38380      7.67490        -0.000000     -0.001131     -0.021307
      4.39568      5.92165      7.67490         0.000000      0.016667     -0.013981
      7.32614      5.92165      7.67490        -0.000979      0.000565     -0.021307
     10.25659      5.92165      7.67490         0.000979      0.000565     -0.021307
      8.79137      1.69432     10.05238         0.000000      0.001984      0.000103
      2.92802      1.69049     10.04000        -0.029485     -0.017023     -0.167361
      5.86334      1.69049     10.04000         0.029485     -0.017023     -0.167361
     10.25637      4.22988     10.04709        -0.015287      0.008826     -0.002207
      4.39568      4.23256     10.04000         0.000000      0.034047     -0.167361
      7.32637      4.22988     10.04709         0.015287      0.008826     -0.002207
     11.71973      6.76639     10.05238        -0.001719     -0.000992      0.000103
      5.86300      6.76639     10.05238         0.001719     -0.000992      0.000103
      8.79137      6.76733     10.04709        -0.000000     -0.017652     -0.002207
      0.00000      0.00000     12.42253         0.000000      0.000000     -0.005629
      2.94245      0.01904     12.42445        -0.058878     -0.082925      0.027158
      5.84892      0.01904     12.42445         0.058878     -0.082925      0.027158
      1.48772      2.53872     12.42445        -0.101255     -0.009527      0.027158
      7.30365      2.53872     12.42445         0.101255     -0.009527      0.027158
      2.94095      5.05579     12.42445        -0.042377      0.092453      0.027158
      5.85042      5.05579     12.42445         0.042377      0.092453      0.027158
      8.79137      5.07570     12.41807         0.000000      0.000000     -0.013874
      4.39568      2.53785     12.28633         0.000000     -0.000000      0.359486
      4.39568      2.53785     14.04106         0.000000      0.000000      0.038680
    total drift:                               -0.001558      0.001438     -0.120342

  FREE ENERGIE OF THE ION-ELECTRON SYSTEM (eV)
  free  energy   TOTEN  =       -99.35565455 eV

  energy  without entropy=      -99.35565455  energy(sigma->0) =      -99.35565455

 stress matrix after NEB project (eV)
     -7.10061     -0.00000      0.00000
     -0.00000     -7.10061     -0.00000
      0.00000     -0.00000      0.33490
  FORCES: max atom, RMS     0.038680    0.006359
  FORCE total and by dimension    0.038680    0.038680
  Stress total and by dimension   10.047361    7.100609
|           W    W    AA    RRRRR   N    N  II  N    N   GGGG   !!!           |
|           W    W   A  A   R    R  NN   N  II  NN   N  G    G  !!!           |
|           W    W  A    A  R    R  N N  N  II  N N  N  G       !!!           |
|           W WW W  AAAAAA  RRRRR   N  N N  II  N  N N  G  GGG   !            |
|           WW  WW  A    A  R   R   N   NN  II  N   NN  G    G                |
|           W    W  A    A  R    R  N    N  II  N    N   GGGG   !!!           |
|     Tetrahedron method does not include variations of the Fermi             |
|     occupations, so forces and stress will be inaccurate. We suggest        |
|     using a different smearing scheme ISMEAR = 1 or 2 for metals in         |
|     relaxations.                                                            |

 total charge

# of ion       s       p       d       tot
    1        0.416   0.203   9.177   9.796
    2        0.416   0.203   9.177   9.796
    3        0.416   0.203   9.177   9.796
    4        0.416   0.203   9.177   9.796
    5        0.416   0.204   9.176   9.796
    6        0.416   0.203   9.177   9.796
    7        0.416   0.203   9.177   9.796
    8        0.416   0.203   9.177   9.796
    9        0.415   0.204   9.176   9.795
   10        0.407   0.270   9.164   9.840
   11        0.402   0.272   9.165   9.839
   12        0.407   0.270   9.164   9.840
   13        0.402   0.272   9.165   9.839
   14        0.402   0.272   9.165   9.839
   15        0.405   0.269   9.165   9.839
   16        0.407   0.270   9.164   9.840
   17        0.405   0.269   9.165   9.839
   18        0.405   0.269   9.165   9.839
   19        0.406   0.271   9.163   9.840
   20        0.417   0.283   9.159   9.859
   21        0.417   0.283   9.159   9.859
   22        0.401   0.273   9.166   9.840
   23        0.417   0.283   9.159   9.859
   24        0.401   0.273   9.166   9.840
   25        0.406   0.271   9.163   9.840
   26        0.406   0.271   9.163   9.840
   27        0.401   0.273   9.166   9.840
   28        0.419   0.197   9.182   9.799
   29        0.402   0.211   9.180   9.793
   30        0.402   0.211   9.180   9.793
   31        0.402   0.211   9.180   9.793
   32        0.402   0.211   9.180   9.793
   33        0.402   0.211   9.180   9.793
   34        0.402   0.211   9.180   9.793
   35        0.420   0.199   9.181   9.799
   36        0.596   0.610   8.513   9.720
   37        1.031   1.115   0.000   2.145
tot         15.932  10.128 329.496 355.555

 BZINTS: Fermi energy:    0.360603;  399.000000 electrons
         Band energy:-0.150097E+04;  BLOECHL correction:   -0.073013