 vasp.6.2.0 18Jan21 (build Jun 12 2021 23:27:24) complex

 executed on             LinuxIFC date 2022.05.26  19:35:59

 INCAR:
   ISMEAR = -5
   SIGMA = 0.1
   ISPIN = 1
   EDIFF = 1.d-5
   EDIFFG = -0.01
   NSW = 0
   NELM = 150
   ENCUT = 500
   ISIF = 2
   IBRION = 2
   LREAL = Auto
   ALGO = Fast
   ICHARG = 11
   LORBIT = 10
   LCHARG = .F.
   LWAVE = .F.

 POTCAR:    PAW_PBE Au 04Oct2007
 POTCAR:    PAW_PBE Pt 04Feb2005
 POTCAR:    PAW_PBE H 15Jun2001
|           W    W    AA    RRRRR   N    N  II  N    N   GGGG   !!!           |
|           W    W   A  A   R    R  NN   N  II  NN   N  G    G  !!!           |
|           W    W  A    A  R    R  N N  N  II  N N  N  G       !!!           |
|           W WW W  AAAAAA  RRRRR   N  N N  II  N  N N  G  GGG   !            |
|           WW  WW  A    A  R   R   N   NN  II  N   NN  G    G                |
|           W    W  A    A  R    R  N    N  II  N    N   GGGG   !!!           |
|     For optimal performance we recommend to set                             |
|       NCORE = 2 up to number-of-cores-per-socket                            |
|     This setting can greatly improve the performance of VASP for DFT.       |
|     The default, NCORE=1 might be grossly inefficient on modern             |
|     multi-core architectures or massively parallel machines. Do your        |
|     Unfortunately you need to use the default for GW and RPA                |
|     calculations (for HF NCORE is supported but not extensively tested      |
|     yet).                                                                   |

 POTCAR:    PAW_PBE Au 04Oct2007
   VRHFIN =Au: s1d10

   TITEL  = PAW_PBE Au 04Oct2007
   POMASS =  196.966; ZVAL   =   11.000    mass and valenz
   ENMAX  =  229.943; ENMIN  =  172.457 eV

 POTCAR:    PAW_PBE Pt 04Feb2005
   VRHFIN =Pt: s1d9

   TITEL  = PAW_PBE Pt 04Feb2005
   POMASS =  195.080; ZVAL   =   10.000    mass and valenz
   ENMAX  =  230.283; ENMIN  =  172.712 eV

 POTCAR:    PAW_PBE H 15Jun2001
   VRHFIN =H: ultrasoft test

   TITEL  = PAW_PBE H 15Jun2001
   POMASS =    1.000; ZVAL   =    1.000    mass and valenz
   ENMAX  =  250.000; ENMIN  =  200.000 eV

 Optimization of the real space projectors (new method)

 maximal supplied QI-value         = 15.12
 optimisation between [QCUT,QGAM] = [ 11.34, 22.83] = [ 36.00,145.93] Ry
 Optimized for a Real-space Cutoff    1.39 Angstroem

   l    n(q)    QCUT    max X(q) W(low)/X(q) W(high)/X(q)  e(spline)
   2      9    11.338    60.898    0.39E-03    0.42E-03    0.21E-06
   2      9    11.338    58.894    0.40E-03    0.42E-03    0.22E-06
   0      9    11.338   109.617    0.13E-03    0.20E-04    0.13E-06
   0      9    11.338    75.026    0.13E-03    0.20E-04    0.13E-06
   1      9    11.338    16.344    0.33E-04    0.24E-03    0.18E-06
   1      9    11.338    10.160    0.26E-04    0.19E-03    0.15E-06
 Optimization of the real space projectors (new method)

[...]

   l    n(q)    QCUT    max X(q) W(low)/X(q) W(high)/X(q)  e(spline)
   2      9    11.346    66.195    0.31E-03    0.12E-04    0.29E-06
   2      9    11.346    64.643    0.32E-03    0.12E-04    0.29E-06
   0     10    11.346    95.520    0.90E-04    0.16E-04    0.19E-06
   0     10    11.346    63.403    0.87E-04    0.15E-04    0.19E-06
   1     10    11.346    19.961    0.17E-03    0.21E-03    0.11E-06
   1     10    11.346    13.289    0.14E-03    0.18E-03    0.89E-07
 Optimization of the real space projectors (new method)

 maximal supplied QI-value         = 34.20
 optimisation between [QCUT,QGAM] = [ 11.29, 22.57] = [ 35.68,142.71] Ry
 Optimized for a Real-space Cutoff    1.16 Angstroem

   l    n(q)    QCUT    max X(q) W(low)/X(q) W(high)/X(q)  e(spline)
   0      8    11.287    19.460    0.40E-03    0.73E-03    0.16E-06
   0      8    11.287    12.209    0.38E-03    0.70E-03    0.15E-06
   1      7    11.287     4.655    0.22E-03    0.25E-04    0.22E-06
  PAW_PBE Au 04Oct2007                  :
  PAW_PBE Pt 04Feb2005                  :
  PAW_PBE H 15Jun2001                   :

 POSCAR: Au-Pt-H
  positions in direct lattice
  velocities in cartesian coordinates
 exchange correlation table for  LEXCH =        8
   RHO(1)=    0.500       N(1)  =     2000
   RHO(2)=  100.500       N(2)  =     4000

 VTST: version 3.2, (02/03/18)

 CHAIN: initializing optimizer

 OPT: Using VASP Conjugate-Gradient optimizer
 CHAIN: Read ICHAIN            0

 POSCAR: Au-Pt-H
  positions in direct lattice
  velocities in cartesian coordinates

 ion  position               nearest neighbor table
   1  0.000  0.000  0.238-  16 2.94  12 2.94   6 2.94   8 2.94   7 2.94   3 2.94  10 2.94   4 2.94
                             2 2.94
   2  0.333  0.000  0.238-   9 2.94  11 2.94  17 2.94  10 2.94   8 2.94   4 2.94   5 2.94   1 2.94
                             3 2.94
   3  0.667  0.000  0.238-   7 2.94  18 2.94  12 2.94   1 2.94  11 2.94   5 2.94   6 2.94   9 2.94
                             2 2.94
   4  0.000  0.333  0.238-  10 2.94   6 2.94   5 2.94  13 2.94   2 2.94  15 2.94   9 2.94   1 2.94
                             7 2.94
   5  0.333  0.333  0.238-  13 2.94   7 2.94  11 2.94   4 2.94   2 2.94  14 2.94   3 2.94   8 2.94
                             6 2.94
   6  0.667  0.333  0.238-  15 2.94  14 2.94   1 2.94  12 2.94   4 2.94   9 2.94   8 2.94   3 2.94
                             5 2.94
   7  0.000  0.667  0.238-  18 2.94   3 2.94  16 2.94   5 2.94   1 2.94  13 2.94   8 2.94   4 2.94
                             9 2.94
   8  0.333  0.667  0.238-   9 2.94  17 2.94   1 2.94   2 2.94  14 2.94  16 2.94   6 2.94   7 2.94
                             5 2.94
   9  0.667  0.667  0.238-   2 2.94   8 2.94  17 2.94   6 2.94  15 2.94   4 2.94   3 2.94  18 2.94
                             7 2.94
  10  0.111  0.111  0.346-  20 2.91  26 2.93  19 2.93  11 2.94  17 2.94   2 2.94   4 2.94   1 2.94
                            12 2.94  16 2.94  13 2.94  15 2.94
  11  0.444  0.111  0.346-  20 2.92  21 2.92  27 2.93  13 2.94   2 2.94  10 2.94  17 2.94   5 2.94
                             3 2.94  18 2.94  14 2.94  12 2.94
  12  0.778  0.111  0.346-  21 2.91  25 2.93  19 2.93  16 2.94  18 2.94   1 2.94  14 2.94  15 2.94
                             3 2.94   6 2.94  10 2.94  11 2.94
  13  0.111  0.444  0.346-  23 2.92  20 2.92  22 2.93   5 2.94  18 2.94  11 2.94   7 2.94   4 2.94
                            16 2.94  10 2.94  14 2.94  15 2.94
  14  0.444  0.444  0.346-  21 2.92  23 2.92  24 2.93  15 2.94   6 2.94  12 2.94   8 2.94  17 2.94
                             5 2.94  16 2.94  13 2.94  11 2.94
  15  0.778  0.444  0.346-  24 2.93  22 2.93  19 2.93  14 2.94   6 2.94  17 2.94  12 2.94   9 2.94
                             4 2.94  10 2.94  13 2.94  18 2.94
  16  0.111  0.778  0.346-  23 2.91  25 2.93  26 2.93  18 2.94  12 2.94   7 2.94   1 2.94   8 2.94
                            13 2.94  10 2.94  14 2.94  17 2.94
  17  0.444  0.778  0.346-  27 2.93  24 2.93  26 2.93   9 2.94  15 2.94   2 2.94  10 2.94  11 2.94
                             8 2.94  14 2.94  16 2.94  18 2.94
  18  0.778  0.778  0.346-  22 2.93  27 2.93  25 2.93  16 2.94   7 2.94  13 2.94  12 2.94   3 2.94
                            11 2.94   9 2.94  15 2.94  17 2.94
  19  0.889  0.222  0.454-  21 2.93  20 2.93  15 2.93  10 2.93  12 2.93  24 2.94  22 2.94  26 2.94
                            25 2.94  28 2.96  32 2.96  31 2.96
  20  0.221  0.221  0.453-  36 2.82  10 2.91  11 2.92  13 2.92  26 2.93  19 2.93  27 2.94  22 2.94
                            23 2.96  21 2.96  29 2.96  31 2.96
  21  0.557  0.221  0.453-  36 2.82  12 2.91  14 2.92  11 2.92  25 2.93  19 2.93  24 2.94  27 2.94
                            20 2.96  23 2.96  30 2.96  32 2.96
  22  0.888  0.556  0.454-  18 2.93  15 2.93  24 2.93  27 2.93  13 2.93  25 2.94  19 2.94  23 2.94
                            20 2.94  35 2.96  33 2.96  31 2.96
  23  0.221  0.557  0.453-  36 2.82  16 2.91  13 2.92  14 2.92  25 2.93  26 2.93  22 2.94  24 2.94
                            20 2.96  21 2.96  33 2.96  34 2.96
  24  0.556  0.556  0.454-  15 2.93  17 2.93  27 2.93  22 2.93  14 2.93  26 2.94  19 2.94  21 2.94
                            23 2.94  35 2.96  32 2.96  34 2.96
  25  0.889  0.889  0.454-  23 2.93  21 2.93  18 2.93  16 2.93  12 2.93  22 2.94  27 2.94  19 2.94
                            26 2.94  28 2.96  33 2.96  30 2.96
  26  0.222  0.889  0.454-  20 2.93  23 2.93  17 2.93  10 2.93  16 2.93  27 2.94  24 2.94  19 2.94
                            25 2.94  28 2.96  29 2.96  34 2.96
  27  0.556  0.888  0.454-  17 2.93  18 2.93  24 2.93  22 2.93  11 2.93  26 2.94  25 2.94  20 2.94
                            21 2.94  35 2.96  29 2.96  30 2.96
  28  0.000  0.000  0.563-  34 2.95  32 2.95  33 2.95  30 2.95  31 2.95  29 2.95  25 2.96  19 2.96
                            26 2.96
  29  0.333  0.002  0.563-  30 2.92  31 2.92  36 2.93  35 2.95  28 2.95  27 2.96  20 2.96  26 2.96
                            34 2.98
  30  0.664  0.002  0.563-  29 2.92  32 2.92  36 2.93  35 2.95  28 2.95  27 2.96  21 2.96  25 2.96
                            33 2.98
  31  0.002  0.333  0.563-  33 2.92  29 2.92  36 2.93  35 2.95  28 2.95  22 2.96  20 2.96  19 2.96
                            32 2.98
  32  0.664  0.333  0.563-  34 2.92  30 2.92  36 2.93  35 2.95  28 2.95  24 2.96  21 2.96  19 2.96
                            31 2.98
  33  0.002  0.664  0.563-  31 2.92  34 2.92  36 2.93  35 2.95  28 2.95  22 2.96  23 2.96  25 2.96
                            30 2.98
  34  0.333  0.664  0.563-  32 2.92  33 2.92  36 2.93  35 2.95  28 2.95  24 2.96  23 2.96  26 2.96
                            29 2.98
  35  0.667  0.667  0.563-  29 2.95  34 2.95  32 2.95  31 2.95  30 2.95  33 2.95  24 2.96  27 2.96
                            22 2.96
  36  0.333  0.333  0.554-  37 1.57  20 2.82  23 2.82  21 2.82  33 2.93  31 2.93  29 2.93  30 2.93
                            34 2.93  32 2.93
  37  0.333  0.333  0.625-  36 1.57

  LATTYP: Found a hexagonal cell.
 ALAT       =     8.8135128021
 C/A-ratio  =     2.5184286595

  Lattice vectors:

 A1 = (  -4.4067569092,  -7.6327256898,   0.0000000000)
 A2 = (   8.8135128021,   0.0000000000,   0.0000000000)
 A3 = (   0.0000000000,   0.0000000000,  22.1962032318)

Analysis of symmetry for initial positions (statically):
 Subroutine PRICEL returns:
 Original cell was already a primitive cell.

 Routine SETGRP: Setting up the symmetry group for a
 hexagonal supercell.

 Subroutine GETGRP returns: Found  6 space group operations
 (whereof  6 operations were pure point group operations)
 out of a pool of 24 trial point group operations.

The static configuration has the point symmetry C_3v.

Analysis of symmetry for dynamics (positions and initial velocities):
 Subroutine PRICEL returns:
 Original cell was already a primitive cell.

[...]

The dynamic configuration has the point symmetry C_3v.

Analysis of constrained symmetry for selective dynamics:
 Subroutine PRICEL returns:
 Original cell was already a primitive cell.

 Routine SETGRP: Setting up the symmetry group for a
 hexagonal supercell.

 Subroutine GETGRP returns: Found  6 space group operations
 (whereof  6 operations were pure point group operations)
[...]
     24      -5.0035      2.00000
     25      -4.9914      2.00000
     26      -4.9419      2.00000
     27      -4.8653      2.00000
     28      -4.8360      2.00000
     29      -4.7898      2.00000
     30      -4.7146      2.00000
     31      -4.7081      2.00000
     32      -4.6971      2.00000
     33      -4.6890      2.00000
     34      -4.6777      2.00000
     35      -4.6159      2.00000
     36      -4.5552      2.00000
     37      -4.5405      2.00000
     38      -4.4727      2.00000
     39      -4.4393      2.00000
     40      -4.3428      2.00000
     41      -4.3319      2.00000
     42      -4.2921      2.00000
     43      -4.2578      2.00000
     44      -4.2467      2.00000
     45      -4.2246      2.00000
     46      -4.1787      2.00000
     47      -4.1217      2.00000
     48      -4.0763      2.00000
     49      -4.0570      2.00000
     50      -4.0497      2.00000
     51      -4.0449      2.00000
     52      -4.0397      2.00000
     53      -3.9839      2.00000
     54      -3.9768      2.00000
     55      -3.9473      2.00000
     56      -3.8940      2.00000
     57      -3.8831      2.00000
     58      -3.8735      2.00000
     59      -3.8703      2.00000
     60      -3.8609      2.00000
[...]
    238       6.7357      0.00000
    239       6.7576      0.00000
    240       6.8187      0.00000
    241       6.8689      0.00000
    242       6.9114      0.00000
    243       7.1867      0.00000
    244       7.2099      0.00000
    245       7.2809      0.00000
    246       7.5996      0.00000
    247       7.6136      0.00000
    248       7.6755      0.00000
    249       7.7355      0.00000
    250       7.8810      0.00000
    251       7.9999      0.00000
    252       8.0370      0.00000

 soft charge-density along one line, spin component           1
         0         1         2         3         4         5         6         7         8         9
 total charge-density along one line

------------------------ aborting loop because EDIFF is reached ----------------------------------------

 total charge

# of ion       s       p       d       tot
    1        0.545   0.238   8.771   9.553
    2        0.545   0.240   8.766   9.551
    3        0.545   0.240   8.766   9.551
    4        0.545   0.240   8.766   9.551
    5        0.544   0.242   8.760   9.546
    6        0.545   0.240   8.766   9.551
    7        0.545   0.240   8.766   9.551
    8        0.545   0.240   8.766   9.551
    9        0.542   0.239   8.770   9.551
   10        0.519   0.309   8.769   9.597
   11        0.522   0.306   8.779   9.607
   12        0.519   0.309   8.769   9.597
   13        0.522   0.306   8.779   9.607
   14        0.522   0.306   8.779   9.607
   15        0.514   0.308   8.775   9.598
   16        0.519   0.309   8.769   9.597
   17        0.514   0.308   8.775   9.598
   18        0.514   0.308   8.775   9.598
   19        0.517   0.303   8.774   9.594
   20        0.535   0.317   8.762   9.615
   21        0.535   0.317   8.762   9.615
   22        0.511   0.306   8.773   9.589
   23        0.535   0.317   8.762   9.615
   24        0.511   0.306   8.773   9.589
   25        0.517   0.303   8.774   9.594
   26        0.517   0.303   8.774   9.594
   27        0.511   0.306   8.773   9.589
   28        0.542   0.230   8.771   9.543
   29        0.538   0.237   8.765   9.540
   30        0.538   0.237   8.765   9.540
   31        0.538   0.237   8.765   9.540
   32        0.538   0.237   8.765   9.540
   33        0.538   0.237   8.765   9.540
   34        0.538   0.237   8.765   9.540
   35        0.539   0.232   8.772   9.542
   36        0.641   0.484   8.089   9.215
   37        0.511   0.025   0.000   0.537
tot         19.714  10.101 315.019 344.833

  FORCE on cell =-STRESS in cart. coord.  units (eV):
  Direction    XX          YY          ZZ          XY          YZ          ZX
  Alpha Z  1008.76478  1008.76478  1008.76478
  Ewald  119879.57347119879.57388************    -0.00034    -0.00009    -0.00016
  Hartree128546.64036128546.64036************    -0.00000    -0.00002    -0.00004
  E(xc)   -1775.17207 -1775.17205 -1782.16488    -0.00002    -0.00000    -0.00000
  Local  ************************261130.72491     0.00180     0.00004     0.00007
  n-local   -84.26478   -29.92581   -30.17213    24.72098    -1.38381     1.55509
  augment  2421.39666  2421.39822  2431.82111    -0.00135     0.00002     0.00008
  Kinetic  5498.55226  5511.95601  5544.58744     6.03896    -0.00795     0.44029
  Fock        0.00000     0.00000     0.00000     0.00000     0.00000     0.00000
  Total     -19.83247   -19.83247     1.68888    -0.00000     0.00000    -0.00000
  in kB     -21.28041   -21.28041     1.81218    -0.00000     0.00000    -0.00000

 VOLUME and BASIS-vectors are now :
  energy-cutoff  :      500.00
  volume of cell :     1493.16
      direct lattice vectors                 reciprocal lattice vectors
     8.813512802  0.000000000  0.000000000     0.113462137 -0.065507406  0.000000000
     4.406756909  7.632725690  0.000000000     0.000000000  0.131014796  0.000000000
     0.000000000  0.000000000 22.196203232     0.000000000  0.000000000  0.045052750

  length of vectors
     8.813512802  8.813512802 22.196203232     0.131014796  0.131014796  0.045052750

 FORCES acting on ions
    electron-ion (+dipol)            ewald-force                    non-local-force                 convergence-correction
   -.198E-04 -.163E-04 0.248E+04   0.519E-04 0.433E-04 -.248E+04   0.407E-17 -.239E-17 -.922E+00   -.202E-03 -.130E-03 -.196E+00
   0.751E-01 0.176E+00 0.248E+04   -.165E+00 -.238E+00 -.248E+04   0.504E-01 0.618E-01 -.344E+00   0.417E-01 0.192E-01 -.244E+00
   -.752E-01 0.176E+00 0.248E+04   0.165E+00 -.238E+00 -.248E+04   -.504E-01 0.618E-01 -.344E+00   -.414E-01 0.211E-01 -.244E+00
   0.190E+00 -.231E-01 0.248E+04   -.289E+00 -.239E-01 -.248E+04   0.787E-01 0.127E-01 -.344E+00   0.375E-01 0.265E-01 -.244E+00
   0.685E-05 -.242E-04 0.248E+04   0.952E-04 0.171E-05 -.248E+04   0.313E-17 -.218E-17 -.147E+00   0.430E-02 0.262E-02 -.244E+00
   -.190E+00 -.231E-01 0.248E+04   0.289E+00 -.239E-01 -.248E+04   -.787E-01 0.127E-01 -.344E+00   -.390E-01 0.274E-01 -.243E+00
   0.115E+00 -.153E+00 0.248E+04   -.124E+00 0.262E+00 -.248E+04   0.283E-01 -.745E-01 -.344E+00   -.234E-02 -.464E-01 -.244E+00
   -.115E+00 -.153E+00 0.248E+04   0.124E+00 0.262E+00 -.248E+04   -.283E-01 -.745E-01 -.344E+00   0.424E-02 -.475E-01 -.243E+00
   0.195E-04 -.415E-04 0.248E+04   0.166E-03 -.200E-04 -.248E+04   0.321E-17 0.174E-17 -.631E+00   -.464E-02 -.240E-02 -.252E+00
   0.305E+01 0.176E+01 0.832E+03   -.277E+01 -.160E+01 -.831E+03   -.253E+00 -.146E+00 -.651E+00   -.230E-01 -.134E-01 -.678E-01
   0.139E-04 0.222E+01 0.833E+03   0.149E-03 -.219E+01 -.833E+03   0.386E-08 0.580E-01 -.237E+00   0.380E-02 -.113E+00 -.121E+00
   -.305E+01 0.176E+01 0.832E+03   0.277E+01 -.160E+01 -.831E+03   0.253E+00 -.146E+00 -.651E+00   0.217E-01 -.119E-01 -.682E-01
   0.192E+01 -.111E+01 0.833E+03   -.189E+01 0.109E+01 -.833E+03   0.502E-01 -.290E-01 -.237E+00   -.956E-01 0.600E-01 -.121E+00
   -.192E+01 -.111E+01 0.833E+03   0.189E+01 0.109E+01 -.833E+03   -.502E-01 -.290E-01 -.237E+00   0.103E+00 0.596E-01 -.121E+00
   0.310E-04 0.537E+00 0.831E+03   0.236E-03 -.580E+00 -.830E+03   0.717E-09 0.108E-01 -.499E+00   -.240E-02 0.194E-01 -.459E-01
   -.213E-04 -.352E+01 0.832E+03   0.162E-03 0.320E+01 -.831E+03   0.194E-07 0.292E+00 -.651E+00   0.299E-03 0.247E-01 -.682E-01
   0.465E+00 -.268E+00 0.831E+03   -.502E+00 0.290E+00 -.830E+03   0.932E-02 -.538E-02 -.499E+00   0.159E-01 -.114E-01 -.459E-01
   -.465E+00 -.268E+00 0.831E+03   0.502E+00 0.290E+00 -.830E+03   -.932E-02 -.538E-02 -.499E+00   -.159E-01 -.944E-02 -.462E-01
   -.407E-04 0.602E+00 -.848E+03   0.534E-04 -.699E+00 0.848E+03   0.177E-08 0.266E-01 0.655E+00   -.338E-03 0.719E-01 0.505E-01
   0.596E+01 0.344E+01 -.825E+03   -.523E+01 -.302E+01 0.825E+03   -.630E+00 -.364E+00 -.451E+00   -.359E-01 -.209E-01 0.181E+00
   -.596E+01 0.344E+01 -.825E+03   0.523E+01 -.302E+01 0.825E+03   0.630E+00 -.364E+00 -.451E+00   0.367E-01 -.187E-01 0.181E+00
   0.940E-01 -.543E-01 -.843E+03   -.245E+00 0.141E+00 0.842E+03   0.188E+00 -.109E+00 0.571E+00   -.154E-01 0.466E-02 0.888E-01
   -.143E-04 -.689E+01 -.825E+03   0.144E-03 0.604E+01 0.825E+03   0.484E-07 0.728E+00 -.451E+00   0.193E-02 0.412E-01 0.181E+00
   -.941E-01 -.543E-01 -.843E+03   0.245E+00 0.141E+00 0.842E+03   -.188E+00 -.109E+00 0.571E+00   0.839E-02 0.489E-02 0.883E-01
   -.521E+00 -.301E+00 -.848E+03   0.605E+00 0.349E+00 0.848E+03   -.230E-01 -.133E-01 0.655E+00   -.606E-01 -.351E-01 0.497E-01
   0.521E+00 -.301E+00 -.848E+03   -.605E+00 0.349E+00 0.848E+03   0.230E-01 -.133E-01 0.655E+00   0.625E-01 -.362E-01 0.505E-01
   0.565E-05 0.109E+00 -.843E+03   0.202E-03 -.283E+00 0.842E+03   0.145E-07 0.217E+00 0.571E+00   -.422E-02 -.157E-01 0.888E-01
   -.901E-05 -.110E-04 -.248E+04   0.261E-04 0.317E-04 0.248E+04   0.966E-18 0.247E-17 0.496E+00   0.132E-02 0.747E-03 0.183E+00
   0.267E+01 0.338E+01 -.248E+04   -.267E+01 -.340E+01 0.248E+04   -.788E-01 -.427E-01 0.546E+00   0.544E-01 -.325E-02 0.158E+00
   -.267E+01 0.338E+01 -.248E+04   0.267E+01 -.340E+01 0.248E+04   0.788E-01 -.427E-01 0.546E+00   -.606E-01 -.126E-02 0.158E+00
   0.427E+01 0.619E+00 -.248E+04   -.428E+01 -.611E+00 0.248E+04   -.764E-01 -.469E-01 0.546E+00   0.245E-01 0.487E-01 0.158E+00
   -.427E+01 0.619E+00 -.248E+04   0.428E+01 -.611E+00 0.248E+04   0.764E-01 -.469E-01 0.546E+00   -.321E-01 0.498E-01 0.157E+00
   0.160E+01 -.400E+01 -.248E+04   -.161E+01 0.402E+01 0.248E+04   0.245E-02 0.896E-01 0.546E+00   -.313E-01 -.518E-01 0.158E+00
   -.160E+01 -.400E+01 -.248E+04   0.161E+01 0.402E+01 0.248E+04   -.245E-02 0.896E-01 0.546E+00   0.271E-01 -.526E-01 0.157E+00
   0.275E-04 -.310E-04 -.248E+04   0.149E-03 -.469E-04 0.248E+04   -.679E-18 0.196E-17 0.559E+00   -.355E-02 -.176E-02 0.160E+00
   -.377E-05 -.270E-04 -.213E+04   0.101E-03 0.891E-05 0.214E+04   0.255E-17 -.275E-17 -.567E+01   0.420E-02 0.252E-02 0.516E-01
   0.692E-05 -.430E-05 -.295E+03   0.446E-05 0.279E-06 0.298E+03   0.117E-18 -.454E-19 -.297E+01   0.194E-03 0.116E-03 -.120E-01
   -.761E-03 -.794E-03 0.113E+02   0.442E-14 0.133E-12 -.330E-11   0.428E-16 -.702E-16 -.992E+01   -.145E-01 -.777E-02 -.569E+00

 POSITION                                       TOTAL-FORCE (eV/Angst)
      0.00000      0.00000      5.28038         0.000000     -0.000000     -0.093865
      2.93784      0.00000      5.28038         0.002375      0.019728     -0.044016
      5.87568      0.00000      5.28038        -0.002375      0.019728     -0.044016
      1.46892      2.54424      5.28038         0.018272     -0.007807     -0.044016
      4.40676      2.54424      5.28038        -0.000000     -0.000000     -0.055397
      7.34459      2.54424      5.28038        -0.018272     -0.007807     -0.044016
      2.93784      5.08848      5.28038         0.015898     -0.011921     -0.044016
      5.87568      5.08848      5.28038        -0.015898     -0.011921     -0.044016
      8.81351      5.08848      5.28038         0.000000     -0.000000     -0.055819
      1.46892      0.84808      7.67911         0.006268      0.003619      0.082465
      4.40676      0.84808      7.67911        -0.000000     -0.024593      0.052059
      7.34459      0.84808      7.67911        -0.006268      0.003619      0.082465
      2.93784      3.39232      7.67911        -0.021299      0.012297      0.052059
      5.87568      3.39232      7.67911         0.021299      0.012297      0.052059
      8.81351      3.39232      7.67911        -0.000000     -0.013419      0.080896
      4.40676      5.93656      7.67911        -0.000000     -0.007238      0.082465
      7.34459      5.93656      7.67911        -0.011621      0.006709      0.080896
     10.28243      5.93656      7.67911         0.011621      0.006709      0.080896
      8.81351      1.69709     10.07334         0.000000      0.001276      0.014151
      2.92757      1.69024     10.04824         0.062595      0.036139     -0.148660
      5.88594      1.69024     10.04824        -0.062595      0.036139     -0.148660
     10.27700      4.24354     10.06671         0.025393     -0.014661      0.012341
      4.40676      4.25225     10.04824        -0.000000     -0.072278     -0.148660
      7.35003      4.24354     10.06671        -0.025393     -0.014661      0.012341
     11.75055      6.78418     10.07334        -0.001105     -0.000638      0.014151
      5.87648      6.78418     10.07334         0.001105     -0.000638      0.014151
      8.81351      6.77837     10.06671         0.000000      0.029322      0.012341
      0.00000      0.00000     12.49905         0.000000     -0.000000     -0.059552
      2.94801      0.01573     12.49317        -0.023677     -0.062549     -0.028228
      5.86551      0.01573     12.49317         0.023677     -0.062549     -0.028228
      1.48763      2.54518     12.49317        -0.066007      0.010770     -0.028228
      7.32589      2.54518     12.49317         0.066007      0.010770     -0.028228
      2.94638      5.07181     12.49317        -0.042331      0.051779     -0.028228
      5.86714      5.07181     12.49317         0.042331      0.051779     -0.028228
      8.81351      5.08848     12.49660         0.000000      0.000000     -0.036039
      4.40676      2.54424     12.29817         0.000000      0.000000      0.469800
      4.40676      2.54424     13.86634         0.000000     -0.000000     -0.015423
    total drift:                               -0.015279     -0.008560      0.768525

  FREE ENERGIE OF THE ION-ELECTRON SYSTEM (eV)
  free  energy   TOTEN  =      -116.20565657 eV

  energy  without entropy=     -116.20565657  energy(sigma->0) =     -116.20565657

 stress matrix after NEB project (eV)
    -19.83247     -0.00000     -0.00000
     -0.00000    -19.83247      0.00000
      0.00000      0.00000      1.68888
  FORCES: max atom, RMS     0.015423    0.002536
  FORCE total and by dimension    0.015423    0.015423
  Stress total and by dimension   28.098145   19.832467
|           W    W    AA    RRRRR   N    N  II  N    N   GGGG   !!!           |
|           W    W   A  A   R    R  NN   N  II  NN   N  G    G  !!!           |
|           W    W  A    A  R    R  N N  N  II  N N  N  G       !!!           |
|           W WW W  AAAAAA  RRRRR   N  N N  II  N  N N  G  GGG   !            |
|           WW  WW  A    A  R   R   N   NN  II  N   NN  G    G                |
|           W    W  A    A  R    R  N    N  II  N    N   GGGG   !!!           |
|     Tetrahedron method does not include variations of the Fermi             |
|     occupations, so forces and stress will be inaccurate. We suggest        |
|     using a different smearing scheme ISMEAR = 1 or 2 for metals in         |
|     relaxations.                                                            |

 total charge

# of ion       s       p       d       tot
    1        0.545   0.238   8.771   9.553
    2        0.545   0.240   8.766   9.551
    3        0.545   0.240   8.766   9.551
    4        0.545   0.240   8.766   9.551
    5        0.544   0.242   8.760   9.546
    6        0.545   0.240   8.766   9.551
    7        0.545   0.240   8.766   9.551
    8        0.545   0.240   8.766   9.551
    9        0.542   0.239   8.770   9.551
   10        0.519   0.309   8.769   9.597
   11        0.522   0.306   8.779   9.607
   12        0.519   0.309   8.769   9.597
   13        0.522   0.306   8.779   9.607
   14        0.522   0.306   8.779   9.607
   15        0.514   0.308   8.775   9.598
   16        0.519   0.309   8.769   9.597
   17        0.514   0.308   8.775   9.598
   18        0.514   0.308   8.775   9.598
   19        0.517   0.303   8.774   9.594
   20        0.535   0.317   8.762   9.615
   21        0.535   0.317   8.762   9.615
   22        0.511   0.306   8.773   9.589
   23        0.535   0.317   8.762   9.615
   24        0.511   0.306   8.773   9.589
   25        0.517   0.303   8.774   9.594
   26        0.517   0.303   8.774   9.594
   27        0.511   0.306   8.773   9.589
   28        0.542   0.230   8.771   9.543
   29        0.538   0.237   8.765   9.540
   30        0.538   0.237   8.765   9.540
   31        0.538   0.237   8.765   9.540
   32        0.538   0.237   8.765   9.540
   33        0.538   0.237   8.765   9.540
   34        0.538   0.237   8.765   9.540
   35        0.539   0.232   8.772   9.542
   36        0.641   0.484   8.089   9.215
   37        0.511   0.025   0.000   0.537
tot         19.714  10.101 315.019 344.833

 BZINTS: Fermi energy:    0.708068;  396.000000 electrons
         Band energy:-0.116966E+04;  BLOECHL correction:   -0.112050