 vasp.6.2.0 18Jan21 (build Jun 12 2021 23:27:24) complex

 executed on             LinuxIFC date 2022.05.27  06:00:37

 INCAR:
   ISMEAR = -5
   SIGMA = 0.1
   ISPIN = 1
   EDIFF = 1.d-5
   EDIFFG = -0.01
   NSW = 0
   NELM = 150
   ENCUT = 500
   ISIF = 2
   IBRION = 2
   LREAL = Auto
   ALGO = Fast
   ICHARG = 11
   LORBIT = 10
   LCHARG = .F.
   LWAVE = .F.

 POTCAR:    PAW_PBE Cu 22Jun2005
 POTCAR:    PAW_PBE Cr 06Sep2000
 POTCAR:    PAW_PBE N 08Apr2002
|           W    W    AA    RRRRR   N    N  II  N    N   GGGG   !!!           |
|           W    W   A  A   R    R  NN   N  II  NN   N  G    G  !!!           |
|           W    W  A    A  R    R  N N  N  II  N N  N  G       !!!           |
|           W WW W  AAAAAA  RRRRR   N  N N  II  N  N N  G  GGG   !            |
|           WW  WW  A    A  R   R   N   NN  II  N   NN  G    G                |
|           W    W  A    A  R    R  N    N  II  N    N   GGGG   !!!           |
|     For optimal performance we recommend to set                             |
|       NCORE = 2 up to number-of-cores-per-socket                            |
|     This setting can greatly improve the performance of VASP for DFT.       |
|     The default, NCORE=1 might be grossly inefficient on modern             |
|     multi-core architectures or massively parallel machines. Do your        |
|     Unfortunately you need to use the default for GW and RPA                |
|     calculations (for HF NCORE is supported but not extensively tested      |
|     yet).                                                                   |

 POTCAR:    PAW_PBE Cu 22Jun2005
   VRHFIN =Cu: d10 p1

   TITEL  = PAW_PBE Cu 22Jun2005
   POMASS =   63.546; ZVAL   =   11.000    mass and valenz
   ENMAX  =  295.446; ENMIN  =  221.585 eV

 POTCAR:    PAW_PBE Cr 06Sep2000
   VRHFIN =Cr : d5 s1

   TITEL  = PAW_PBE Cr 06Sep2000
   POMASS =   51.996; ZVAL   =    6.000    mass and valenz
   ENMAX  =  227.080; ENMIN  =  170.310 eV

 POTCAR:    PAW_PBE N 08Apr2002
   VRHFIN =N: s2p3

   TITEL  = PAW_PBE N 08Apr2002
   POMASS =   14.001; ZVAL   =    5.000    mass and valenz
   ENMAX  =  400.000; ENMIN  =  300.000 eV

 Optimization of the real space projectors (new method)

 maximal supplied QI-value         = 16.25
 optimisation between [QCUT,QGAM] = [ 11.38, 22.75] = [ 36.24,144.96] Ry
 Optimized for a Real-space Cutoff    1.52 Angstroem

   l    n(q)    QCUT    max X(q) W(low)/X(q) W(high)/X(q)  e(spline)
   2      9    11.376     4.610    0.21E-03    0.10E-03    0.26E-06
   2      9    11.376     8.522    0.33E-03    0.16E-03    0.37E-06
   0     10    11.376    51.609    0.62E-04    0.20E-04    0.13E-06
   0     10    11.376    27.747    0.54E-04    0.20E-04    0.13E-06
   1     10    11.376    20.408    0.13E-04    0.99E-04    0.19E-06
   1     10    11.376    13.425    0.12E-04    0.87E-04    0.17E-06
 Optimization of the real space projectors (new method)

[...]

   l    n(q)    QCUT    max X(q) W(low)/X(q) W(high)/X(q)  e(spline)
   2      9    11.338    94.395    0.18E-03    0.10E-02    0.64E-06
   2      9    11.338    88.078    0.18E-03    0.10E-02    0.65E-06
   0     10    11.338    50.173    0.13E-03    0.16E-03    0.96E-07
   0     10    11.338    24.906    0.12E-03    0.14E-03    0.88E-07
   1      9    11.338    12.133    0.13E-03    0.15E-03    0.24E-06
   1      9    11.338     7.290    0.10E-03    0.10E-03    0.18E-06
 Optimization of the real space projectors (new method)

 maximal supplied QI-value         = 25.13
 optimisation between [QCUT,QGAM] = [ 11.31, 22.87] = [ 35.82,146.48] Ry
 Optimized for a Real-space Cutoff    1.27 Angstroem

   l    n(q)    QCUT    max X(q) W(low)/X(q) W(high)/X(q)  e(spline)
   0      9    11.310    79.467    0.75E-04    0.16E-03    0.36E-06
   0      9    11.310    66.151    0.74E-04    0.16E-03    0.36E-06
   1      8    11.310    17.416    0.35E-03    0.12E-03    0.95E-06
   1      8    11.310    12.382    0.37E-03    0.13E-03    0.98E-06
  PAW_PBE Cu 22Jun2005                  :
  PAW_PBE Cr 06Sep2000                  :
  PAW_PBE N 08Apr2002                   :

 POSCAR: Cu-Cr-N2
  positions in direct lattice
  velocities in cartesian coordinates
 exchange correlation table for  LEXCH =        8
   RHO(1)=    0.500       N(1)  =     2000
   RHO(2)=  100.500       N(2)  =     4000

 VTST: version 3.2, (02/03/18)

 CHAIN: initializing optimizer

 OPT: Using VASP Conjugate-Gradient optimizer
 CHAIN: Read ICHAIN            0

 POSCAR: Cu-Cr-N2
  positions in direct lattice
  velocities in cartesian coordinates

 ion  position               nearest neighbor table
   1  0.000  0.000  0.252-   7 2.57   3 2.57   4 2.57   2 2.57   6 2.57   8 2.57  12 2.57  10 2.57
                            16 2.57
   2  0.333  0.000  0.252-   8 2.57   9 2.57   5 2.57   1 2.57   3 2.57  11 2.57   4 2.57  10 2.57
                            17 2.57
   3  0.667  0.000  0.252-   1 2.57   7 2.57   6 2.57   9 2.57   2 2.57  12 2.57   5 2.57  18 2.57
                            11 2.57
   4  0.000  0.333  0.252-   5 2.57   6 2.57   1 2.57   7 2.57   2 2.57  13 2.57   9 2.57  10 2.57
                            15 2.57
   5  0.333  0.333  0.252-   4 2.57   2 2.57   7 2.57  13 2.57   8 2.57   6 2.57   3 2.57  11 2.57
                            14 2.57
   6  0.667  0.333  0.252-   4 2.57   9 2.57  15 2.57   3 2.57   1 2.57   8 2.57  14 2.57   5 2.57
                            12 2.57
   7  0.000  0.667  0.252-   1 2.57   3 2.57  16 2.57  18 2.57   4 2.57   5 2.57   8 2.57   9 2.57
                            13 2.57
   8  0.333  0.667  0.252-   9 2.57   2 2.57  17 2.57   6 2.57   1 2.57   7 2.57   5 2.57  14 2.57
                            16 2.57
   9  0.667  0.667  0.252-   8 2.57   6 2.57   2 2.57  17 2.57   3 2.57   7 2.57   4 2.57  15 2.57
                            18 2.57
  10  0.111  0.111  0.351-  20 2.55  26 2.56  19 2.56  11 2.57  12 2.57  13 2.57   1 2.57   2 2.57
                             4 2.57  15 2.57  16 2.57  17 2.57
  11  0.444  0.111  0.351-  20 2.55  21 2.55  10 2.57  13 2.57   2 2.57  17 2.57  14 2.57  12 2.57
                             5 2.57   3 2.57  18 2.57  27 2.57
  12  0.778  0.111  0.351-  21 2.55  19 2.56  25 2.56  15 2.57  10 2.57  14 2.57  18 2.57   3 2.57
                             1 2.57  16 2.57  11 2.57   6 2.57
  13  0.111  0.444  0.351-  23 2.55  20 2.55  16 2.57  18 2.57  10 2.57  11 2.57  14 2.57   5 2.57
                             4 2.57   7 2.57  15 2.57  22 2.57
  14  0.444  0.444  0.351-  21 2.55  23 2.55  15 2.57  17 2.57  12 2.57  16 2.57  13 2.57  11 2.57
                             6 2.57   8 2.57   5 2.57  24 2.57
  15  0.778  0.444  0.351-  19 2.56  24 2.56  22 2.56  14 2.57  17 2.57  12 2.57   6 2.57  18 2.57
                            10 2.57   9 2.57  13 2.57   4 2.57
  16  0.111  0.778  0.351-  23 2.55  25 2.56  26 2.56  18 2.57  13 2.57   7 2.57  14 2.57  17 2.57
                            12 2.57  10 2.57   8 2.57   1 2.57
  17  0.444  0.778  0.351-  26 2.56  27 2.56  24 2.56  14 2.57  15 2.57   8 2.57   9 2.57  11 2.57
                            16 2.57  18 2.57  10 2.57   2 2.57
  18  0.778  0.778  0.351-  25 2.56  22 2.56  27 2.56  16 2.57  13 2.57   7 2.57  15 2.57  12 2.57
                            17 2.57   9 2.57   3 2.57  11 2.57
  19  0.889  0.222  0.449-  12 2.56  10 2.56  15 2.56  28 2.56  25 2.57  26 2.57  22 2.57  24 2.57
                            21 2.57  20 2.57  32 2.58  31 2.58
  20  0.222  0.222  0.448-  36 2.50  11 2.55  13 2.55  10 2.55  23 2.56  21 2.56  26 2.57  19 2.57
                            29 2.57  31 2.57  27 2.57  22 2.57
  21  0.555  0.222  0.448-  36 2.50  14 2.55  11 2.55  12 2.55  20 2.56  23 2.56  19 2.57  25 2.57
                            32 2.57  30 2.57  24 2.57  27 2.57
  22  0.888  0.556  0.449-  35 2.56  24 2.56  27 2.56  18 2.56  15 2.56  31 2.56  33 2.56  19 2.57
                            25 2.57  13 2.57  23 2.57  20 2.57
  23  0.222  0.555  0.448-  36 2.50  13 2.55  14 2.55  16 2.55  20 2.56  21 2.56  25 2.57  26 2.57
                            33 2.57  34 2.57  22 2.57  24 2.57
  24  0.556  0.556  0.449-  35 2.56  22 2.56  27 2.56  15 2.56  17 2.56  32 2.56  34 2.56  19 2.57
                            26 2.57  14 2.57  21 2.57  23 2.57
  25  0.889  0.889  0.449-  12 2.56  16 2.56  18 2.56  28 2.56  19 2.57  26 2.57  22 2.57  27 2.57
                            21 2.57  23 2.57  33 2.58  30 2.58
  26  0.222  0.889  0.449-  10 2.56  16 2.56  17 2.56  28 2.56  25 2.57  19 2.57  27 2.57  24 2.57
                            20 2.57  23 2.57  29 2.58  34 2.58
  27  0.556  0.888  0.449-  35 2.56  24 2.56  22 2.56  17 2.56  18 2.56  29 2.56  30 2.56  26 2.57
                            25 2.57  11 2.57  20 2.57  21 2.57
  28  0.000  0.000  0.547-  25 2.56  19 2.56  26 2.56  33 2.57  30 2.57  31 2.57  29 2.57  32 2.57
                            34 2.57
  29  0.333  0.002  0.547-  31 2.55  30 2.55  36 2.55  27 2.56  20 2.57  28 2.57  35 2.57  26 2.58
                            34 2.60
  30  0.665  0.002  0.547-  32 2.55  29 2.55  36 2.55  27 2.56  21 2.57  28 2.57  35 2.57  25 2.58
                            33 2.60
  31  0.002  0.333  0.547-  29 2.55  33 2.55  36 2.55  22 2.56  20 2.57  28 2.57  35 2.57  19 2.58
                            32 2.60
  32  0.665  0.333  0.547-  30 2.55  34 2.55  36 2.55  24 2.56  21 2.57  28 2.57  35 2.57  19 2.58
                            31 2.60
  33  0.002  0.665  0.547-  34 2.55  31 2.55  36 2.55  22 2.56  23 2.57  28 2.57  35 2.57  25 2.58
                            30 2.60
  34  0.333  0.665  0.547-  33 2.55  32 2.55  36 2.55  24 2.56  23 2.57  28 2.57  35 2.57  26 2.58
                            29 2.60
  35  0.667  0.667  0.547-  24 2.56  27 2.56  22 2.56  34 2.57  32 2.57  29 2.57  30 2.57  33 2.57
                            31 2.57
  36  0.333  0.333  0.543-  38 2.12  37 2.12  23 2.50  20 2.50  21 2.50  31 2.55  29 2.55  33 2.55
                            34 2.55  32 2.55  30 2.55
  37  0.257  0.334  0.639-  38 1.17  36 2.12
  38  0.409  0.334  0.639-  37 1.17  36 2.12

  LATTYP: Found a hexagonal cell.
 ALAT       =     7.6967864036
 C/A-ratio  =     2.7653617908

  Lattice vectors:

 A1 = (  -3.8483927580,  -6.6656128093,   0.0000000000)
 A2 = (   7.6967864037,   0.0000000000,   0.0000000000)
 A3 = (   0.0000000000,   0.0000000000,  21.2843990326)

Analysis of symmetry for initial positions (statically):
 Subroutine PRICEL returns:
 Original cell was already a primitive cell.

 Routine SETGRP: Setting up the symmetry group for a
 hexagonal supercell.

 Subroutine GETGRP returns: Found  2 space group operations
 (whereof  2 operations were pure point group operations)
 out of a pool of 24 trial point group operations.

The static configuration has the point symmetry C_1h.

Analysis of symmetry for dynamics (positions and initial velocities):
 Subroutine PRICEL returns:
 Original cell was already a primitive cell.

[...]

The dynamic configuration has the point symmetry C_1h.

Analysis of constrained symmetry for selective dynamics:
 Subroutine PRICEL returns:
 Original cell was already a primitive cell.

 Routine SETGRP: Setting up the symmetry group for a
 hexagonal supercell.

[...]
     33      -3.9458      2.00000
     34      -3.9366      2.00000
     35      -3.9291      2.00000
     36      -3.9057      2.00000
     37      -3.8687      2.00000
     38      -3.8584      2.00000
     39      -3.8262      2.00000
     40      -3.7583      2.00000
     41      -3.7445      2.00000
     42      -3.6290      2.00000
     43      -3.6227      2.00000
     44      -3.5454      2.00000
     45      -3.5403      2.00000
     46      -3.5348      2.00000
     47      -3.5073      2.00000
     48      -3.4949      2.00000
     49      -3.4905      2.00000
     50      -3.4809      2.00000
     51      -3.3016      2.00000
     52      -3.2854      2.00000
     53      -3.2787      2.00000
     54      -3.2680      2.00000
     55      -3.2201      2.00000
     56      -3.2191      2.00000
     57      -3.2000      2.00000
     58      -3.1850      2.00000
     59      -3.1846      2.00000
     60      -3.1629      2.00000
[...]
    238       5.9330      0.00000
    239       6.1575      0.00000
    240       6.2630      0.00000
    241       6.3037      0.00000
    242       6.4787      0.00000
    243       6.6612      0.00000
    244       6.9532      0.00000
    245       6.9884      0.00000
    246       7.1247      0.00000
    247       7.1613      0.00000
    248       7.3028      0.00000
    249       7.4219      0.00000
    250       7.4858      0.00000
    251       7.5102      0.00000
    252       7.6771      0.00000

 soft charge-density along one line, spin component           1
         0         1         2         3         4         5         6         7         8         9
 total charge-density along one line

------------------------ aborting loop because EDIFF is reached ----------------------------------------

 total charge

# of ion       s       p       d       tot
    1        0.450   0.283   9.189   9.922
    2        0.448   0.286   9.185   9.920
    3        0.448   0.286   9.185   9.920
    4        0.449   0.285   9.187   9.921
    5        0.449   0.285   9.183   9.917
    6        0.449   0.285   9.187   9.921
    7        0.448   0.285   9.187   9.920
    8        0.448   0.285   9.187   9.920
    9        0.447   0.284   9.189   9.920
   10        0.442   0.372   9.178   9.992
   11        0.443   0.367   9.185   9.994
   12        0.442   0.372   9.178   9.992
   13        0.442   0.367   9.184   9.993
   14        0.442   0.367   9.184   9.993
   15        0.439   0.370   9.178   9.987
   16        0.445   0.371   9.175   9.991
   17        0.438   0.371   9.179   9.988
   18        0.438   0.371   9.179   9.988
   19        0.438   0.369   9.181   9.988
   20        0.461   0.397   9.158  10.016
   21        0.461   0.397   9.158  10.016
   22        0.432   0.375   9.180   9.987
   23        0.464   0.393   9.163  10.020
   24        0.432   0.375   9.180   9.987
   25        0.443   0.366   9.184   9.993
   26        0.443   0.366   9.184   9.993
   27        0.434   0.373   9.182   9.989
   28        0.448   0.285   9.186   9.919
   29        0.464   0.301   9.176   9.940
   30        0.464   0.301   9.176   9.940
   31        0.458   0.293   9.181   9.932
   32        0.458   0.293   9.181   9.932
   33        0.463   0.299   9.177   9.940
   34        0.463   0.299   9.177   9.940
   35        0.442   0.290   9.185   9.917
   36        0.444   0.524   4.380   5.348
   37        1.345   2.443   0.000   3.788
   38        1.345   2.443   0.000   3.788
tot         18.810  17.070 325.690 361.569

  FORCE on cell =-STRESS in cart. coord.  units (eV):
  Direction    XX          YY          ZZ          XY          YZ          ZX
  Alpha Z   895.64039   895.64039   895.64039
  Ewald  171413.13413171110.77297************     0.00040    -0.38663     0.00018
  Hartree184399.67186184291.24476************     0.00005    -0.12344     0.00007
  E(xc)   -2314.38023 -2315.23440 -2319.31145    -0.00026     0.08706    -0.00004
  Local  ************************368578.61383     0.02010     0.86494    -0.00075
  n-local  -789.87623  -777.68720  -795.95895     1.66414     0.16254     0.04537
  augment  3337.83027  3335.93644  3356.88135    -0.01832    -0.33412     0.00028
  Kinetic  3360.11350  3371.08823  3400.18933     0.96840    -0.39884    -0.15565
  Fock        0.00000     0.00000     0.00000     0.00000     0.00000     0.00000
  Total      -4.47350    -4.62402     1.74401     0.00000    -0.12849     0.00000
  in kB      -6.56368    -6.78452     2.55888     0.00000    -0.18853     0.00000

 VOLUME and BASIS-vectors are now :
  energy-cutoff  :      500.00
  volume of cell :     1091.97
      direct lattice vectors                 reciprocal lattice vectors
     7.696786404  0.000000000  0.000000000     0.129924354 -0.075011849  0.000000000
     3.848392758  6.665612809  0.000000000     0.000000000  0.150023716  0.000000000
     0.000000000  0.000000000 21.284399033     0.000000000  0.000000000  0.046982769

  length of vectors
     7.696786404  7.696786404 21.284399033     0.150023716  0.150023716  0.046982769

 FORCES acting on ions
    electron-ion (+dipol)            ewald-force                    non-local-force                 convergence-correction
   -.408E-04 0.206E-02 0.349E+04   0.580E-04 -.157E-01 -.349E+04   -.210E-08 0.316E-01 -.256E+01   -.156E-03 -.195E-01 -.281E+00
   -.530E+00 -.192E+00 0.349E+04   0.253E+00 0.139E+00 -.349E+04   0.173E+00 0.859E-01 -.184E+01   0.988E-01 -.281E-01 -.267E+00
   0.530E+00 -.192E+00 0.349E+04   -.253E+00 0.139E+00 -.349E+04   -.173E+00 0.859E-01 -.184E+01   -.982E-01 -.256E-01 -.267E+00
   -.286E+00 -.220E+00 0.349E+04   0.260E+00 0.140E+00 -.349E+04   0.698E-01 -.110E-01 -.191E+01   -.167E-01 0.842E-01 -.246E+00
   -.624E-04 -.133E+00 0.349E+04   0.116E-03 -.140E-02 -.349E+04   -.351E-08 0.527E-01 -.170E+01   0.121E-01 0.807E-01 -.160E+00
   0.286E+00 -.220E+00 0.349E+04   -.260E+00 0.140E+00 -.349E+04   -.698E-01 -.110E-01 -.191E+01   0.152E-01 0.856E-01 -.245E+00
   -.241E+00 0.447E+00 0.349E+04   0.824E-02 -.279E+00 -.349E+04   0.171E+00 -.110E+00 -.183E+01   0.586E-01 -.578E-01 -.264E+00
   0.241E+00 0.447E+00 0.349E+04   -.851E-02 -.279E+00 -.349E+04   -.171E+00 -.110E+00 -.183E+01   -.550E-01 -.591E-01 -.264E+00
   -.143E-03 0.840E-01 0.349E+04   0.263E-03 0.171E-01 -.349E+04   0.256E-08 -.384E-01 -.224E+01   -.133E-01 -.626E-01 -.233E+00
   -.109E+01 -.580E+00 0.119E+04   0.154E+01 0.755E+00 -.119E+04   -.483E+00 -.222E+00 -.103E+01   0.282E-01 0.595E-01 0.185E+00
   -.905E-04 -.155E+01 0.119E+04   0.189E-03 0.107E+01 -.119E+04   -.189E-07 0.284E+00 -.337E+00   0.108E-01 0.132E+00 0.231E+00
   0.109E+01 -.580E+00 0.119E+04   -.154E+01 0.755E+00 -.119E+04   0.483E+00 -.222E+00 -.103E+01   -.288E-01 0.608E-01 0.182E+00
   -.150E+01 0.821E+00 0.119E+04   0.105E+01 -.520E+00 -.119E+04   0.330E+00 -.230E+00 -.470E+00   0.949E-01 -.502E-01 0.194E+00
   0.150E+01 0.821E+00 0.119E+04   -.105E+01 -.520E+00 -.119E+04   -.330E+00 -.230E+00 -.470E+00   -.712E-01 -.504E-01 0.192E+00
   -.143E-03 -.930E+00 0.119E+04   0.298E-03 0.572E+00 -.119E+04   -.120E-07 0.180E+00 -.943E+00   -.299E-02 0.158E+00 0.245E+00
   -.921E-04 0.123E+01 0.119E+04   0.186E-03 -.173E+01 -.119E+04   -.387E-07 0.582E+00 -.901E+00   -.880E-04 -.778E-01 0.118E+00
   -.582E+00 0.389E+00 0.119E+04   0.430E+00 -.191E+00 -.119E+04   0.873E-01 -.880E-01 -.837E+00   0.486E-01 -.106E+00 0.158E+00
   0.582E+00 0.389E+00 0.119E+04   -.430E+00 -.191E+00 -.119E+04   -.873E-01 -.880E-01 -.837E+00   -.482E-01 -.104E+00 0.157E+00
   -.630E-04 -.316E+01 -.111E+04   0.697E-04 0.287E+01 0.111E+04   -.888E-08 0.133E+00 0.129E+01   0.134E-01 0.158E+00 0.708E+00
   -.283E+02 -.157E+02 -.114E+04   0.293E+02 0.161E+02 0.114E+04   -.132E+01 -.582E+00 -.733E+00   0.292E+00 0.247E+00 0.102E+01
   0.283E+02 -.157E+02 -.114E+04   -.293E+02 0.161E+02 0.114E+04   0.132E+01 -.582E+00 -.733E+00   -.314E+00 0.250E+00 0.102E+01
   -.132E+02 0.705E+01 -.112E+04   0.128E+02 -.653E+01 0.112E+04   0.407E+00 -.361E+00 0.831E+00   0.382E-01 -.197E+00 0.548E+00
   -.806E-04 0.316E+02 -.114E+04   0.147E-03 -.327E+02 0.114E+04   -.107E-06 0.161E+01 -.939E+00   -.104E-01 -.475E+00 0.891E+00
   0.132E+02 0.705E+01 -.112E+04   -.128E+02 -.653E+01 0.112E+04   -.407E+00 -.361E+00 0.831E+00   -.596E-01 -.193E+00 0.548E+00
   0.311E+01 0.198E+01 -.112E+04   -.298E+01 -.202E+01 0.111E+04   -.561E-01 0.185E-01 0.109E+01   -.486E-01 0.234E-01 0.568E+00
   -.311E+01 0.198E+01 -.112E+04   0.298E+01 -.202E+01 0.111E+04   0.561E-01 0.185E-01 0.109E+01   0.740E-01 0.245E-01 0.568E+00
   -.123E-03 -.155E+02 -.112E+04   0.241E-03 0.148E+02 0.112E+04   -.423E-07 0.635E+00 0.808E+00   -.146E-01 0.160E+00 0.506E+00
   -.332E-04 0.332E+01 -.338E+04   0.350E-04 -.379E+01 0.338E+04   -.127E-07 0.191E+00 0.199E+01   0.789E-03 0.245E+00 0.542E+00
   -.548E+01 -.306E+01 -.335E+04   0.572E+01 0.248E+01 0.335E+04   -.595E+00 -.234E+00 0.217E+01   0.230E+00 0.618E+00 0.524E+00
   0.548E+01 -.306E+01 -.335E+04   -.572E+01 0.248E+01 0.335E+04   0.595E+00 -.234E+00 0.217E+01   -.230E+00 0.620E+00 0.526E+00
   -.117E+01 0.132E+01 -.334E+04   0.694E+00 -.121E+01 0.334E+04   -.205E+00 -.123E+00 0.351E+01   0.515E+00 0.162E-01 0.565E+00
   0.117E+01 0.132E+01 -.334E+04   -.694E+00 -.121E+01 0.334E+04   0.205E+00 -.123E+00 0.351E+01   -.516E+00 0.183E-01 0.567E+00
   -.715E+01 0.149E+01 -.335E+04   0.697E+01 -.104E+01 0.335E+04   -.231E+00 0.408E+00 0.233E+01   0.284E+00 -.646E+00 0.594E+00
   0.715E+01 0.149E+01 -.335E+04   -.697E+01 -.104E+01 0.335E+04   0.231E+00 0.408E+00 0.233E+01   -.280E+00 -.646E+00 0.593E+00
   -.132E-03 -.372E+01 -.339E+04   0.255E-03 0.408E+01 0.339E+04   0.397E-08 -.597E-01 0.232E+01   -.134E-01 -.247E+00 0.555E+00
   -.478E-04 0.331E+00 -.167E+04   0.773E-04 -.494E+00 0.167E+04   0.304E-09 -.456E-02 0.280E+01   0.120E-02 0.240E-01 0.382E+00
   0.203E+03 0.143E+00 -.173E+04   -.243E+03 -.124E+00 0.174E+04   0.401E+02 -.475E-01 -.915E+01   0.178E+00 0.296E-01 -.292E+00
   -.203E+03 0.143E+00 -.173E+04   0.243E+03 -.125E+00 0.174E+04   -.401E+02 -.475E-01 -.915E+01   -.176E+00 0.296E-01 -.292E+00
   -.137E-03 -.684E+00 0.607E+01   0.199E-12 0.321E-12 0.341E-11   -.402E-07 0.604E+00 -.161E+02   -.356E-02 0.785E-01 0.101E+02

 POSITION                                       TOTAL-FORCE (eV/Angst)
      0.00000      0.00000      5.37156         0.000000     -0.001551     -0.015320
      2.56560      0.00000      5.37156        -0.006641      0.006681      0.071567
      5.13119      0.00000      5.37156         0.006641      0.006681      0.071567
      1.28280      2.22187      5.37156         0.028526     -0.006446      0.055172
      3.84839      2.22187      5.37156         0.000000     -0.001018      0.024185
      6.41399      2.22187      5.37156        -0.028526     -0.006446      0.055172
      2.56560      4.44374      5.37156        -0.004648      0.000199      0.071995
      5.13119      4.44374      5.37156         0.004648      0.000199      0.071995
      7.69679      4.44374      5.37156        -0.000000      0.000121      0.020110
      1.28280      0.74062      7.46636        -0.006381      0.013418     -0.071250
      3.84839      0.74062      7.46636         0.000000     -0.063083     -0.068601
      6.41399      0.74062      7.46636         0.006381      0.013418     -0.071250
      2.56560      2.96249      7.46636        -0.040889      0.020590     -0.073042
      5.13119      2.96249      7.46636         0.040889      0.020590     -0.073042
      7.69679      2.96249      7.46636         0.000000     -0.020364     -0.019420
      3.84839      5.18437      7.46636        -0.000000      0.004618     -0.060404
      6.41399      5.18437      7.46636        -0.016816      0.005040      0.005167
      8.97958      5.18437      7.46636         0.016816      0.005040      0.005167
      7.69679      1.48113      9.55176         0.000000     -0.003067      0.065250
      2.56610      1.48154      9.54462        -0.039812      0.004977     -0.095704
      5.13069      1.48154      9.54462         0.039812      0.004977     -0.095704
      8.97635      3.70498      9.55922         0.058845     -0.035968      0.024286
      3.84839      3.70254      9.54462        -0.000000      0.075455     -0.121159
      6.41722      3.70498      9.55922        -0.058845     -0.035968      0.024286
     10.26248      5.92505      9.55176         0.007044      0.002689      0.016373
      5.13109      5.92505      9.55176        -0.007044      0.002689      0.016373
      7.69679      5.92126      9.55922        -0.000000      0.070125      0.005463
      0.00000      0.00000     11.63975         0.000000     -0.040134     -0.042772
      2.57267      0.01383     11.65039        -0.124851     -0.198621     -0.200285
      5.12411      0.01383     11.65039         0.124851     -0.198621     -0.200285
      1.29831      2.22109     11.65039        -0.170726      0.009241     -0.082948
      6.39847      2.22109     11.65039         0.170726      0.009241     -0.082948
      2.57403      4.43070     11.65039        -0.136014      0.212889     -0.232003
      5.12275      4.43070     11.65039         0.136014      0.212889     -0.232003
      7.69679      4.44374     11.64501        -0.000000      0.050740     -0.020444
      3.84839      2.22187     11.55740         0.000000     -0.142805      1.309685
      3.26252      2.22785     13.59036        -0.005426      0.000793     -0.027614
      4.43427      2.22785     13.59036         0.005426      0.000793     -0.027614
    total drift:                               -0.003699     -0.001227     -0.004768

  FREE ENERGIE OF THE ION-ELECTRON SYSTEM (eV)
  free  energy   TOTEN  =      -146.10101721 eV

  energy  without entropy=     -146.10101721  energy(sigma->0) =     -146.10101721

 stress matrix after NEB project (eV)
     -4.47350      0.00000      0.00000
      0.00000     -4.62402     -0.12849
      0.00000     -0.12849      1.74401
  FORCES: max atom, RMS     0.028153    0.006459
  FORCE total and by dimension    0.039815    0.027614
  Stress total and by dimension    6.668461    4.624017
|           W    W    AA    RRRRR   N    N  II  N    N   GGGG   !!!           |
|           W    W   A  A   R    R  NN   N  II  NN   N  G    G  !!!           |
|           W    W  A    A  R    R  N N  N  II  N N  N  G       !!!           |
|           W WW W  AAAAAA  RRRRR   N  N N  II  N  N N  G  GGG   !            |
|           WW  WW  A    A  R   R   N   NN  II  N   NN  G    G                |
|           W    W  A    A  R    R  N    N  II  N    N   GGGG   !!!           |
|     Tetrahedron method does not include variations of the Fermi             |
|     occupations, so forces and stress will be inaccurate. We suggest        |
|     using a different smearing scheme ISMEAR = 1 or 2 for metals in         |
|     relaxations.                                                            |

 total charge

# of ion       s       p       d       tot
    1        0.450   0.283   9.189   9.922
    2        0.448   0.286   9.185   9.920
    3        0.448   0.286   9.185   9.920
    4        0.449   0.285   9.187   9.921
    5        0.449   0.285   9.183   9.917
    6        0.449   0.285   9.187   9.921
    7        0.448   0.285   9.187   9.920
    8        0.448   0.285   9.187   9.920
    9        0.447   0.284   9.189   9.920
   10        0.442   0.372   9.178   9.992
   11        0.443   0.367   9.185   9.994
   12        0.442   0.372   9.178   9.992
   13        0.442   0.367   9.184   9.993
   14        0.442   0.367   9.184   9.993
   15        0.439   0.370   9.178   9.987
   16        0.445   0.371   9.175   9.991
   17        0.438   0.371   9.179   9.988
   18        0.438   0.371   9.179   9.988
   19        0.438   0.369   9.181   9.988
   20        0.461   0.397   9.158  10.016
   21        0.461   0.397   9.158  10.016
   22        0.432   0.375   9.180   9.987
   23        0.464   0.393   9.163  10.020
   24        0.432   0.375   9.180   9.987
   25        0.443   0.366   9.184   9.993
   26        0.443   0.366   9.184   9.993
   27        0.434   0.373   9.182   9.989
   28        0.448   0.285   9.186   9.919
   29        0.464   0.301   9.176   9.940
   30        0.464   0.301   9.176   9.940
   31        0.458   0.293   9.181   9.932
   32        0.458   0.293   9.181   9.932
   33        0.463   0.299   9.177   9.940
   34        0.463   0.299   9.177   9.940
   35        0.442   0.290   9.185   9.917
   36        0.444   0.524   4.380   5.348
   37        1.345   2.443   0.000   3.788
   38        1.345   2.443   0.000   3.788
tot         18.810  17.070 325.690 361.569

 BZINTS: Fermi energy:    0.171747;  401.000000 electrons
         Band energy:-0.113238E+04;  BLOECHL correction:   -0.023516