 vasp.6.2.0 18Jan21 (build Jun 12 2021 23:27:24) complex

 executed on             LinuxIFC date 2022.05.28  02:05:49

 INCAR:
   ISMEAR = -5
   SIGMA = 0.1
   ISPIN = 1
   EDIFF = 1.d-5
   EDIFFG = -0.01
   NSW = 0
   NELM = 150
   ENCUT = 500
   ISIF = 2
   IBRION = 2
   LREAL = Auto
   ALGO = Fast
   ICHARG = 11
   LORBIT = 10
   LCHARG = .F.
   LWAVE = .F.

 POTCAR:    PAW_PBE Ag 02Apr2005
 POTCAR:    PAW_PBE Os 17Jan2003
 POTCAR:    PAW_PBE C 08Apr2002
 POTCAR:    PAW_PBE O 08Apr2002
|           W    W    AA    RRRRR   N    N  II  N    N   GGGG   !!!           |
|           W    W   A  A   R    R  NN   N  II  NN   N  G    G  !!!           |
|           W    W  A    A  R    R  N N  N  II  N N  N  G       !!!           |
|           W WW W  AAAAAA  RRRRR   N  N N  II  N  N N  G  GGG   !            |
|           WW  WW  A    A  R   R   N   NN  II  N   NN  G    G                |
|           W    W  A    A  R    R  N    N  II  N    N   GGGG   !!!           |
|     For optimal performance we recommend to set                             |
|       NCORE = 2 up to number-of-cores-per-socket                            |
|     This setting can greatly improve the performance of VASP for DFT.       |
|     The default, NCORE=1 might be grossly inefficient on modern             |
|     multi-core architectures or massively parallel machines. Do your        |
|     Unfortunately you need to use the default for GW and RPA                |
|     calculations (for HF NCORE is supported but not extensively tested      |
|     yet).                                                                   |

 POTCAR:    PAW_PBE Ag 02Apr2005
   VRHFIN =Ag : s1 d10

   TITEL  = PAW_PBE Ag 02Apr2005
   POMASS =  107.868; ZVAL   =   11.000    mass and valenz
   ENMAX  =  249.844; ENMIN  =  187.383 eV

 POTCAR:    PAW_PBE Os 17Jan2003
   VRHFIN =Os: 6s5d

   TITEL  = PAW_PBE Os 17Jan2003
   POMASS =  190.200; ZVAL   =    8.000    mass and valenz
   ENMAX  =  228.022; ENMIN  =  171.017 eV

 POTCAR:    PAW_PBE C 08Apr2002
   VRHFIN =C: s2p2

[...]

 POTCAR:    PAW_PBE O 08Apr2002
   VRHFIN =O: s2p4

   TITEL  = PAW_PBE O 08Apr2002
   POMASS =   16.000; ZVAL   =    6.000    mass and valenz
   ENMAX  =  400.000; ENMIN  =  300.000 eV

 Optimization of the real space projectors (new method)

 maximal supplied QI-value         = 15.12
 optimisation between [QCUT,QGAM] = [ 11.34, 22.83] = [ 36.00,145.93] Ry
 Optimized for a Real-space Cutoff    1.43 Angstroem

   l    n(q)    QCUT    max X(q) W(low)/X(q) W(high)/X(q)  e(spline)
   2      9    11.338    53.897    0.16E-03    0.20E-03    0.28E-06
   2      9    11.338    52.416    0.16E-03    0.20E-03    0.29E-06
   0     10    11.338   122.045    0.31E-04    0.76E-04    0.15E-06
   0     10    11.338    73.629    0.30E-04    0.72E-04    0.15E-06
   1      9    11.338    15.255    0.20E-03    0.19E-04    0.17E-06
   1      9    11.338     9.562    0.16E-03    0.15E-04    0.14E-06
 Optimization of the real space projectors (new method)

[...]

   l    n(q)    QCUT    max X(q) W(low)/X(q) W(high)/X(q)  e(spline)
   0      7    11.310   115.676    0.43E-03    0.13E-02    0.19E-06
   0      7    11.310    87.132    0.43E-03    0.13E-02    0.18E-06
   1      6    11.310     4.429    0.42E-03    0.74E-03    0.11E-06
   1      6    11.310     2.733    0.34E-03    0.55E-03    0.92E-07
 Optimization of the real space projectors (new method)

 maximal supplied QI-value         = 24.76
 optimisation between [QCUT,QGAM] = [ 11.39, 22.77] = [ 36.31,145.25] Ry
 Optimized for a Real-space Cutoff    1.00 Angstroem

   l    n(q)    QCUT    max X(q) W(low)/X(q) W(high)/X(q)  e(spline)
   0      7    11.387    20.381    0.39E-03    0.13E-02    0.15E-06
   0      7    11.387    15.268    0.42E-03    0.14E-02    0.17E-06
   1      6    11.387     5.964    0.41E-03    0.11E-02    0.17E-06
   1      6    11.387     5.382    0.39E-03    0.87E-03    0.15E-06
  PAW_PBE Ag 02Apr2005                  :
  PAW_PBE Os 17Jan2003                  :
  PAW_PBE C 08Apr2002                   :
  PAW_PBE O 08Apr2002                   :

 POSCAR: Ag-Os-CO2
  positions in direct lattice
  velocities in cartesian coordinates
 exchange correlation table for  LEXCH =        8
   RHO(1)=    0.500       N(1)  =     2000
   RHO(2)=  100.500       N(2)  =     4000

 VTST: version 3.2, (02/03/18)

 CHAIN: initializing optimizer

 OPT: Using VASP Conjugate-Gradient optimizer
 CHAIN: Read ICHAIN            0

 POSCAR: Ag-Os-CO2
  positions in direct lattice
  velocities in cartesian coordinates

 ion  position               nearest neighbor table
   1  0.000  0.000  0.217-   2 2.93   8 2.93   7 2.93   6 2.93   4 2.93  12 2.93  16 2.93  10 2.93
                             3 2.93
   2  0.333  0.000  0.217-   1 2.93   8 2.93   9 2.93   3 2.93   4 2.93   5 2.93  10 2.93  17 2.93
                            11 2.93
   3  0.667  0.000  0.217-   9 2.93   2 2.93   5 2.93  11 2.93   7 2.93  18 2.93   1 2.93   6 2.93
                            12 2.93
   4  0.000  0.333  0.217-   5 2.93   6 2.93   2 2.93   1 2.93   7 2.93  13 2.93  15 2.93   9 2.93
                            10 2.93
   5  0.333  0.333  0.217-   4 2.93   3 2.93   7 2.93   2 2.93   8 2.93  14 2.93  13 2.93  11 2.93
                             6 2.93
   6  0.667  0.333  0.217-   4 2.93   9 2.93   1 2.93  15 2.93   8 2.93  12 2.93   3 2.93   5 2.93
                            14 2.93
   7  0.000  0.667  0.217-   8 2.93   1 2.93   5 2.93   3 2.93   4 2.93  16 2.93  18 2.93  13 2.93
                             9 2.93
   8  0.333  0.667  0.217-   7 2.93   1 2.93   2 2.93   9 2.93   5 2.93  16 2.93   6 2.93  17 2.93
                            14 2.93
   9  0.667  0.667  0.217-   3 2.93   2 2.93   8 2.93   6 2.93  17 2.93   4 2.93  15 2.93   7 2.93
                            18 2.93
  10  0.111  0.111  0.315-  20 2.89  12 2.93  16 2.93  15 2.93  17 2.93  13 2.93  11 2.93   2 2.93
                             1 2.93   4 2.93  19 2.93  26 2.93
  11  0.444  0.111  0.315-  21 2.89  20 2.89  27 2.92  14 2.93  17 2.93  18 2.93   3 2.93  12 2.93
                            13 2.93  10 2.93   5 2.93   2 2.93
  12  0.778  0.111  0.315-  21 2.89  10 2.93  16 2.93  18 2.93  15 2.93  11 2.93   1 2.93  14 2.93
                             6 2.93   3 2.93  25 2.93  19 2.93
  13  0.111  0.444  0.315-  20 2.89  23 2.89  22 2.92  15 2.93  14 2.93  18 2.93  10 2.93  11 2.93
                            16 2.93   4 2.93   5 2.93   7 2.93
  14  0.444  0.444  0.315-  23 2.89  21 2.89  24 2.92  13 2.93  11 2.93  16 2.93   5 2.93  12 2.93
                            17 2.93   8 2.93  15 2.93   6 2.93
  15  0.778  0.444  0.315-  24 2.92  22 2.92  19 2.93  13 2.93  10 2.93  12 2.93  17 2.93  18 2.93
                             4 2.93   6 2.93   9 2.93  14 2.93
  16  0.111  0.778  0.315-  23 2.89  18 2.93  12 2.93  10 2.93  14 2.93  17 2.93  13 2.93   7 2.93
                             8 2.93   1 2.93  26 2.93  25 2.93
  17  0.444  0.778  0.315-  27 2.92  24 2.92  26 2.93  11 2.93  10 2.93   9 2.93  18 2.93  15 2.93
                            16 2.93   2 2.93  14 2.93   8 2.93
  18  0.778  0.778  0.315-  22 2.92  27 2.92  25 2.93  16 2.93  12 2.93  13 2.93  11 2.93  17 2.93
                            15 2.93   7 2.93   3 2.93   9 2.93
  19  0.888  0.223  0.413-  28 2.90  24 2.93  22 2.93  15 2.93  20 2.93  21 2.93  10 2.93  12 2.93
                            26 2.94  25 2.94  32 2.95  31 2.95
  20  0.222  0.222  0.411-  36 2.76  13 2.89  11 2.89  10 2.89  31 2.93  29 2.93  21 2.93  23 2.93
                            19 2.93  26 2.93  27 2.94  22 2.94
  21  0.556  0.222  0.411-  36 2.76  11 2.89  14 2.89  12 2.89  30 2.93  32 2.93  20 2.93  23 2.93
                            25 2.93  19 2.93  27 2.94  24 2.94
  22  0.888  0.556  0.413-  35 2.90  18 2.92  15 2.92  24 2.92  27 2.92  13 2.92  25 2.93  19 2.93
                            33 2.94  31 2.94  23 2.94  20 2.94
  23  0.222  0.556  0.411-  36 2.76  14 2.89  13 2.89  16 2.89  34 2.93  33 2.93  21 2.93  20 2.93
                            26 2.93  25 2.93  22 2.94  24 2.94
  24  0.556  0.556  0.413-  35 2.90  15 2.92  17 2.92  27 2.92  22 2.92  14 2.92  19 2.93  26 2.93
                            32 2.94  34 2.94  23 2.94  21 2.94
  25  0.888  0.888  0.413-  28 2.90  22 2.93  27 2.93  18 2.93  23 2.93  21 2.93  16 2.93  12 2.93
                            26 2.94  19 2.94  33 2.95  30 2.95
  26  0.223  0.888  0.413-  28 2.90  27 2.93  24 2.93  17 2.93  23 2.93  20 2.93  16 2.93  10 2.93
                            25 2.94  19 2.94  34 2.95  29 2.95
  27  0.556  0.888  0.413-  35 2.90  17 2.92  18 2.92  24 2.92  22 2.92  11 2.92  26 2.93  25 2.93
                            29 2.94  30 2.94  20 2.94  21 2.94
  28  0.000  0.000  0.510-  26 2.90  25 2.90  19 2.90  29 2.96  34 2.96  33 2.96  32 2.96  31 2.96
                            30 2.96
  29  0.333  0.008  0.511-  31 2.86  30 2.87  36 2.88  20 2.93  27 2.94  26 2.95  28 2.96  35 2.97
                            34 3.06
  30  0.659  0.008  0.511-  32 2.86  29 2.87  36 2.88  21 2.93  27 2.94  25 2.95  28 2.96  35 2.97
                            33 3.06
  31  0.008  0.333  0.511-  29 2.86  33 2.87  36 2.88  20 2.93  22 2.94  19 2.95  28 2.96  35 2.97
                            32 3.06
  32  0.659  0.333  0.511-  30 2.86  34 2.87  36 2.88  21 2.93  24 2.94  19 2.95  28 2.96  35 2.97
                            31 3.06
  33  0.008  0.659  0.511-  34 2.86  31 2.87  36 2.88  23 2.93  22 2.94  25 2.95  28 2.96  35 2.97
                            30 3.06
  34  0.333  0.659  0.511-  33 2.86  32 2.87  36 2.88  23 2.93  24 2.94  26 2.95  28 2.96  35 2.97
                            29 3.06
  35  0.667  0.667  0.510-  24 2.90  27 2.90  22 2.90  30 2.97  32 2.97  29 2.97  34 2.97  31 2.97
                            33 2.97
  36  0.333  0.333  0.501-  37 2.04  21 2.76  20 2.76  23 2.76  31 2.88  30 2.88  33 2.88  29 2.88
                            34 2.88  32 2.88
  37  0.333  0.334  0.585-  38 1.25  39 1.25  36 2.04
  38  0.202  0.333  0.604-  37 1.25
  39  0.466  0.333  0.604-  37 1.25

  LATTYP: Found a hexagonal cell.
 ALAT       =     8.7913665772
 C/A-ratio  =     2.7703738524

  Lattice vectors:

 A1 = (  -4.3956832886,  -7.6135467898,   0.0000000000)
 A2 = (   8.7913665771,   0.0000000000,   0.0000000000)
 A3 = (   0.0000000000,   0.0000000000,  24.3553720923)

Analysis of symmetry for initial positions (statically):
 Subroutine PRICEL returns:
 Original cell was already a primitive cell.

 Routine SETGRP: Setting up the symmetry group for a
 hexagonal supercell.

 Subroutine GETGRP returns: Found  1 space group operations
 (whereof  1 operations were pure point group operations)
 out of a pool of 24 trial point group operations.

The static configuration has the point symmetry C_1 .

Analysis of symmetry for dynamics (positions and initial velocities):
 Subroutine PRICEL returns:
 Original cell was already a primitive cell.

[...]

The dynamic configuration has the point symmetry C_1 .

Analysis of constrained symmetry for selective dynamics:
 Subroutine PRICEL returns:
 Original cell was already a primitive cell.

 Routine SETGRP: Setting up the symmetry group for a
[...]
     41      -5.0627      2.00000
     42      -5.0482      2.00000
     43      -5.0106      2.00000
     44      -4.9853      2.00000
     45      -4.9787      2.00000
     46      -4.9593      2.00000
     47      -4.9568      2.00000
     48      -4.9499      2.00000
     49      -4.8649      2.00000
     50      -4.8408      2.00000
     51      -4.8276      2.00000
     52      -4.8178      2.00000
     53      -4.8148      2.00000
     54      -4.8097      2.00000
     55      -4.7974      2.00000
     56      -4.7929      2.00000
     57      -4.7859      2.00000
     58      -4.7798      2.00000
     59      -4.7002      2.00000
     60      -4.6931      2.00000
[...]
    238       5.3109      0.00000
    239       5.4440      0.00000
    240       5.6449      0.00000
    241       5.7031      0.00000
    242       5.7324      0.00000
    243       5.8304      0.00000
    244       5.8507      0.00000
    245       5.8743      0.00000
    246       6.1031      0.00000
    247       6.6033      0.00000
    248       6.6341      0.00000
    249       6.6372      0.00000
    250       6.7133      0.00000
    251       6.7407      0.00000
    252       6.7687      0.00000

 soft charge-density along one line, spin component           1
         0         1         2         3         4         5         6         7         8         9
 total charge-density along one line

------------------------ aborting loop because EDIFF is reached ----------------------------------------

 total charge

# of ion       s       p       d       tot
    1        0.417   0.202   9.178   9.797
    2        0.417   0.203   9.177   9.796
    3        0.417   0.203   9.177   9.796
    4        0.416   0.203   9.178   9.797
    5        0.418   0.201   9.178   9.797
    6        0.416   0.203   9.178   9.797
    7        0.417   0.203   9.177   9.796
    8        0.417   0.203   9.177   9.796
    9        0.415   0.202   9.178   9.795
   10        0.407   0.271   9.162   9.840
   11        0.406   0.271   9.166   9.843
   12        0.407   0.271   9.162   9.840
   13        0.406   0.270   9.166   9.843
   14        0.406   0.270   9.166   9.843
   15        0.404   0.270   9.165   9.838
   16        0.405   0.270   9.164   9.839
   17        0.405   0.268   9.167   9.839
   18        0.405   0.268   9.167   9.839
   19        0.398   0.266   9.168   9.832
   20        0.424   0.303   9.148   9.875
   21        0.424   0.303   9.148   9.875
   22        0.392   0.272   9.169   9.834
   23        0.420   0.297   9.156   9.874
   24        0.392   0.272   9.169   9.834
   25        0.400   0.265   9.167   9.832
   26        0.400   0.265   9.167   9.832
   27        0.394   0.271   9.170   9.836
   28        0.413   0.193   9.182   9.788
   29        0.414   0.212   9.173   9.798
   30        0.414   0.212   9.173   9.798
   31        0.394   0.215   9.176   9.785
   32        0.393   0.215   9.176   9.785
   33        0.414   0.212   9.173   9.799
   34        0.414   0.212   9.173   9.799
   35        0.403   0.196   9.182   9.782
   36        0.586   0.363   6.112   7.061
   37        0.881   1.682   0.000   2.563
   38        1.597   3.471   0.000   5.067
   39        1.597   3.471   0.000   5.067
tot         18.964  17.421 327.065 363.450

  FORCE on cell =-STRESS in cart. coord.  units (eV):
  Direction    XX          YY          ZZ          XY          YZ          ZX
  Alpha Z   729.72746   729.72746   729.72746
  Ewald  153112.56656152430.15966************     0.15789    -1.36050    -0.37376
  Hartree163075.59284162727.25515************     0.07506    -0.70519    -0.20074
  E(xc)   -2139.19449 -2141.20524 -2146.11323     0.00037    -0.00116    -0.00022
  Local  ************************326505.69128    -0.21692     2.17714     0.55450
  n-local  -403.01748  -398.97648  -404.30841    -0.00065     0.21889     0.00043
  augment  3247.42928  3249.88695  3260.16765    -0.00049    -0.09399     0.00027
  Kinetic  5181.18454  5227.21861  5243.61885    -0.01000    -0.31498     0.01900
  Fock        0.00000     0.00000     0.00000     0.00000     0.00000     0.00000
  Total      -7.72635    -7.35679    -0.43449     0.00525    -0.07978    -0.00052
  in kB      -7.59359    -7.23037    -0.42702     0.00516    -0.07841    -0.00051

 VOLUME and BASIS-vectors are now :
  energy-cutoff  :      500.00
  volume of cell :     1630.19
      direct lattice vectors                 reciprocal lattice vectors
     8.791366577  0.000000000  0.000000000     0.113747958 -0.065672414  0.000000000
     4.395683289  7.613546790  0.000000000     0.000000000  0.131344829  0.000000000
     0.000000000  0.000000000 24.355372092     0.000000000  0.000000000  0.041058703

  length of vectors
     8.791366577  8.791366577 24.355372092     0.131344829  0.131344829  0.041058703

 FORCES acting on ions
    electron-ion (+dipol)            ewald-force                    non-local-force                 convergence-correction
   0.181E-02 0.364E-01 0.271E+04   -.234E-04 -.419E-01 -.271E+04   -.232E-03 -.149E-01 -.203E+01   -.154E-02 0.154E-01 -.193E+00
   0.615E+00 0.676E+00 0.272E+04   -.603E+00 -.671E+00 -.271E+04   -.190E-01 0.673E-02 -.169E+01   0.966E-02 -.146E-01 -.123E+00
   -.616E+00 0.666E+00 0.272E+04   0.603E+00 -.671E+00 -.271E+04   0.194E-01 0.642E-02 -.169E+01   -.921E-02 -.416E-02 -.120E+00
   0.774E+00 0.180E+00 0.272E+04   -.847E+00 -.208E+00 -.271E+04   0.817E-01 0.386E-02 -.173E+01   -.111E-01 0.277E-01 -.155E+00
   -.134E-01 0.167E-01 0.272E+04   -.881E-04 -.890E-04 -.272E+04   -.245E-02 -.235E-01 -.156E+01   0.162E-01 0.507E-02 -.599E-01
   -.766E+00 0.177E+00 0.272E+04   0.847E+00 -.209E+00 -.271E+04   -.813E-01 0.360E-02 -.173E+01   0.224E-02 0.318E-01 -.150E+00
   0.269E+00 -.833E+00 0.272E+04   -.242E+00 0.879E+00 -.271E+04   0.965E-02 -.267E-01 -.165E+01   -.326E-01 -.183E-01 -.990E-01
   -.277E+00 -.827E+00 0.272E+04   0.242E+00 0.879E+00 -.271E+04   -.992E-02 -.266E-01 -.165E+01   0.411E-01 -.243E-01 -.972E-01
   0.133E-01 -.879E-01 0.271E+04   0.190E-03 0.420E-01 -.271E+04   0.243E-02 0.615E-01 -.179E+01   -.161E-01 -.146E-01 -.117E+00
   0.700E+01 0.445E+01 0.973E+03   -.668E+01 -.419E+01 -.972E+03   -.348E+00 -.226E+00 -.820E+00   0.250E-01 -.333E-01 0.185E+00
   -.131E-01 0.676E+01 0.981E+03   -.881E-03 -.680E+01 -.981E+03   -.210E-02 -.163E-02 -.726E+00   0.163E-01 0.179E-01 0.158E+00
   -.699E+01 0.444E+01 0.973E+03   0.668E+01 -.419E+01 -.972E+03   0.348E+00 -.226E+00 -.819E+00   -.344E-01 -.242E-01 0.188E+00
   0.541E+01 -.352E+01 0.981E+03   -.558E+01 0.345E+01 -.981E+03   0.511E-01 0.170E-01 -.596E+00   0.817E-01 0.628E-01 0.179E+00
   -.543E+01 -.352E+01 0.981E+03   0.558E+01 0.345E+01 -.981E+03   -.554E-01 0.169E-01 -.597E+00   -.560E-01 0.594E-01 0.180E+00
   0.105E-01 0.120E+01 0.974E+03   0.119E-02 -.143E+01 -.973E+03   0.332E-03 0.124E+00 -.811E+00   -.120E-01 0.782E-01 0.167E+00
   -.288E-02 -.796E+01 0.972E+03   -.368E-03 0.782E+01 -.972E+03   0.379E-04 0.236E+00 -.709E+00   0.320E-02 -.912E-01 0.201E+00
   0.127E+01 -.914E+00 0.973E+03   -.143E+01 0.946E+00 -.972E+03   0.123E+00 0.106E-01 -.641E+00   0.120E-01 -.340E-01 0.164E+00
   -.126E+01 -.925E+00 0.973E+03   0.143E+01 0.945E+00 -.972E+03   -.123E+00 0.100E-01 -.641E+00   -.147E-01 -.217E-01 0.166E+00
   0.565E-02 0.424E+01 -.803E+03   0.798E-02 -.439E+01 0.802E+03   0.252E-02 0.138E+00 0.706E+00   -.165E-01 0.134E-01 0.459E+00
   0.149E+02 0.106E+02 -.752E+03   -.140E+02 -.999E+01 0.753E+03   -.986E+00 -.665E+00 -.119E+01   0.742E-02 -.300E-01 0.333E+00
   -.149E+02 0.106E+02 -.752E+03   0.140E+02 -.100E+02 0.753E+03   0.985E+00 -.664E+00 -.119E+01   0.246E-02 -.221E-01 0.334E+00
   0.540E+01 -.535E+01 -.789E+03   -.582E+01 0.568E+01 0.788E+03   0.436E+00 -.327E+00 0.610E+00   0.189E-01 -.266E-01 0.378E+00
   -.355E-02 -.198E+02 -.755E+03   -.817E-02 0.189E+02 0.755E+03   -.570E-03 0.942E+00 -.780E+00   0.122E-01 0.230E-01 0.283E+00
   -.539E+01 -.535E+01 -.789E+03   0.583E+01 0.568E+01 0.788E+03   -.432E+00 -.326E+00 0.610E+00   -.433E-01 -.327E-01 0.377E+00
   -.256E+01 -.537E+00 -.807E+03   0.259E+01 0.583E+00 0.806E+03   -.176E-01 -.387E-01 0.658E+00   -.573E-02 -.472E-02 0.397E+00
   0.257E+01 -.534E+00 -.807E+03   -.259E+01 0.592E+00 0.806E+03   0.218E-01 -.387E-01 0.658E+00   -.777E-02 -.163E-01 0.401E+00
   0.579E-02 0.668E+01 -.792E+03   -.420E-03 -.711E+01 0.791E+03   0.207E-02 0.416E+00 0.655E+00   -.768E-02 0.426E-01 0.379E+00
   -.152E-01 0.105E+02 -.256E+04   0.120E-01 -.104E+02 0.256E+04   0.940E-04 -.171E+00 0.215E+01   0.305E-02 0.259E-01 0.159E+00
   0.347E+02 0.835E+02 -.253E+04   -.338E+02 -.830E+02 0.252E+04   -.952E+00 -.745E+00 0.214E+01   0.875E-02 0.278E-01 0.189E+00
   -.347E+02 0.836E+02 -.253E+04   0.338E+02 -.831E+02 0.252E+04   0.957E+00 -.744E+00 0.214E+01   -.252E-01 0.410E-01 0.188E+00
   0.967E+02 -.686E+00 -.249E+04   -.963E+02 0.865E+00 0.249E+04   -.516E+00 -.147E+00 0.265E+01   -.460E-01 -.155E-01 0.180E+00
   -.968E+02 -.674E+00 -.249E+04   0.964E+02 0.848E+00 0.249E+04   0.518E+00 -.147E+00 0.265E+01   0.157E-01 -.111E-01 0.176E+00
   0.360E+02 -.828E+02 -.253E+04   -.354E+02 0.821E+02 0.252E+04   -.687E+00 0.910E+00 0.207E+01   -.337E-02 -.111E-01 0.181E+00
   -.360E+02 -.829E+02 -.253E+04   0.354E+02 0.822E+02 0.252E+04   0.691E+00 0.909E+00 0.207E+01   -.449E-02 -.196E-01 0.178E+00
   -.120E-01 -.105E+02 -.256E+04   0.223E-01 0.104E+02 0.256E+04   0.241E-02 0.180E+00 0.231E+01   -.129E-01 -.288E-01 0.218E+00
   0.515E-01 0.342E+00 -.157E+04   -.684E-01 -.205E+00 0.157E+04   0.430E-02 -.159E+00 0.725E+00   0.128E-01 -.244E-01 0.185E+00
   0.437E-01 -.429E+01 -.991E+03   -.581E-01 0.444E+01 0.985E+03   0.560E-02 -.160E+00 0.569E+01   0.719E-02 -.266E-02 0.133E-01
   0.224E+03 0.162E+01 -.168E+04   -.268E+03 -.212E+01 0.171E+04   0.448E+02 0.517E+00 -.216E+02   -.160E-01 -.643E-03 -.228E-01
   -.224E+03 0.150E+01 -.168E+04   0.268E+03 -.199E+01 0.171E+04   -.448E+02 0.487E+00 -.215E+02   0.139E-01 -.120E-02 -.445E-01
   0.373E-01 -.635E-01 0.341E+02   0.000E+00 0.393E-12 0.819E-11   0.338E-01 0.118E+00 -.396E+02   -.667E-01 -.557E-01 0.542E+01

 POSITION                                       TOTAL-FORCE (eV/Angst)
      0.00000      0.00000      5.28219        -0.000098     -0.005084      0.016254
      2.93046      0.00000      5.28219         0.002457     -0.002038      0.026063
      5.86091      0.00000      5.28219        -0.002729     -0.002080      0.026056
      1.46523      2.53785      5.28219        -0.001720      0.003453      0.025314
      4.39568      2.53785      5.28219         0.000091     -0.001755     -0.020691
      7.32614      2.53785      5.28219         0.001512      0.003437      0.025364
      2.93046      5.07570      5.28219         0.003440      0.001356      0.025083
      5.86091      5.07570      5.28219        -0.003735      0.001363      0.025143
      8.79137      5.07570      5.28219        -0.000286      0.001063      0.010488
      1.46523      0.84595      7.67490        -0.005446      0.000194      0.018142
      4.39568      0.84595      7.67490         0.000096     -0.017183     -0.061265
      7.32614      0.84595      7.67490         0.005269      0.000174      0.018068
      2.93046      3.38380      7.67490        -0.038095      0.008598     -0.075040
      5.86091      3.38380      7.67490         0.038323      0.008653     -0.075047
      8.79137      3.38380      7.67490        -0.000110     -0.026805      0.007858
      4.39568      5.92165      7.67490        -0.000127      0.006855      0.012853
      7.32614      5.92165      7.67490        -0.024356      0.008266      0.014177
     10.25659      5.92165      7.67490         0.024159      0.008263      0.014177
      8.79137      1.69824     10.07044        -0.000444     -0.006253      0.049727
      2.93075      1.69207     10.02201        -0.134343     -0.040616     -0.064673
      5.86061      1.69207     10.02201         0.134362     -0.040745     -0.065026
     10.25044      4.23330     10.05478         0.033698     -0.021643      0.022382
      4.39568      4.22940     10.02201        -0.000157      0.154253     -0.148621
      7.33230      4.23330     10.05478        -0.034366     -0.021676      0.022420
     11.71633      6.76443     10.07044         0.006261      0.002507      0.009311
      5.86640      6.76443     10.07044        -0.006996      0.002426      0.009259
      8.79137      6.76048     10.05478        -0.000347      0.025026      0.003211
      0.00000      0.00000     12.42728        -0.000142     -0.025875      0.013571
      2.96092      0.05748     12.44843        -0.031450     -0.202298     -0.090280
      5.83045      0.05748     12.44843         0.030775     -0.202602     -0.090462
      1.53024      2.53549     12.44843        -0.163238      0.016794      0.051463
      7.26113      2.53549     12.44843         0.163059      0.016654      0.051727
      2.96500      5.02058     12.44843        -0.045027      0.182495     -0.082173
      5.82636      5.02058     12.44843         0.044326      0.182994     -0.082416
      8.79137      5.07570     12.42122        -0.000259      0.027023      0.002117
      4.39568      2.53785     12.20312         0.000173     -0.046318      0.356020
      4.39593      2.54652     14.24050        -0.001719     -0.008945     -0.017557
      3.23600      2.53329     14.71791        -0.002415      0.008854      0.010470
      5.55647      2.53387     14.71670         0.009604      0.001215      0.006534
    total drift:                                0.004478     -0.001039     -0.132840

  FREE ENERGIE OF THE ION-ELECTRON SYSTEM (eV)
  free  energy   TOTEN  =      -119.62430147 eV

  energy  without entropy=     -119.62430147  energy(sigma->0) =     -119.62430147

 stress matrix after NEB project (eV)
     -7.72635      0.00525     -0.00052
      0.00525     -7.35679     -0.07978
     -0.00052     -0.07978     -0.43449
  FORCES: max atom, RMS     0.019780    0.004301
  FORCE total and by dimension    0.026860    0.017557
  Stress total and by dimension   10.678035    7.726355
|           W    W    AA    RRRRR   N    N  II  N    N   GGGG   !!!           |
|           W    W   A  A   R    R  NN   N  II  NN   N  G    G  !!!           |
|           W    W  A    A  R    R  N N  N  II  N N  N  G       !!!           |
|           W WW W  AAAAAA  RRRRR   N  N N  II  N  N N  G  GGG   !            |
|           WW  WW  A    A  R   R   N   NN  II  N   NN  G    G                |
|           W    W  A    A  R    R  N    N  II  N    N   GGGG   !!!           |
|     Tetrahedron method does not include variations of the Fermi             |
|     occupations, so forces and stress will be inaccurate. We suggest        |
|     using a different smearing scheme ISMEAR = 1 or 2 for metals in         |
|     relaxations.                                                            |

 total charge

# of ion       s       p       d       tot
    1        0.417   0.202   9.178   9.797
    2        0.417   0.203   9.177   9.796
    3        0.417   0.203   9.177   9.796
    4        0.416   0.203   9.178   9.797
    5        0.418   0.201   9.178   9.797
    6        0.416   0.203   9.178   9.797
    7        0.417   0.203   9.177   9.796
    8        0.417   0.203   9.177   9.796
    9        0.415   0.202   9.178   9.795
   10        0.407   0.271   9.162   9.840
   11        0.406   0.271   9.166   9.843
   12        0.407   0.271   9.162   9.840
   13        0.406   0.270   9.166   9.843
   14        0.406   0.270   9.166   9.843
   15        0.404   0.270   9.165   9.838
   16        0.405   0.270   9.164   9.839
   17        0.405   0.268   9.167   9.839
   18        0.405   0.268   9.167   9.839
   19        0.398   0.266   9.168   9.832
   20        0.424   0.303   9.148   9.875
   21        0.424   0.303   9.148   9.875
   22        0.392   0.272   9.169   9.834
   23        0.420   0.297   9.156   9.874
   24        0.392   0.272   9.169   9.834
   25        0.400   0.265   9.167   9.832
   26        0.400   0.265   9.167   9.832
   27        0.394   0.271   9.170   9.836
   28        0.413   0.193   9.182   9.788
   29        0.414   0.212   9.173   9.798
   30        0.414   0.212   9.173   9.798
   31        0.394   0.215   9.176   9.785
   32        0.393   0.215   9.176   9.785
   33        0.414   0.212   9.173   9.799
   34        0.414   0.212   9.173   9.799
   35        0.403   0.196   9.182   9.782
   36        0.586   0.363   6.112   7.061
   37        0.881   1.682   0.000   2.563
   38        1.597   3.471   0.000   5.067
   39        1.597   3.471   0.000   5.067
tot         18.964  17.421 327.065 363.450

 BZINTS: Fermi energy:    0.151430;  409.000000 electrons
         Band energy:-0.166557E+04;  BLOECHL correction:   -0.045824