 vasp.6.2.0 18Jan21 (build Jun 12 2021 23:27:24) complex

 executed on             LinuxIFC date 2022.05.26  20:18:38

 INCAR:
   ISMEAR = -5
   SIGMA = 0.1
   ISPIN = 1
   EDIFF = 1.d-5
   EDIFFG = -0.01
   NSW = 0
   NELM = 150
   ENCUT = 500
   ISIF = 2
   IBRION = 2
   LREAL = Auto
   ALGO = Fast
   ICHARG = 11
   LORBIT = 10
   LCHARG = .F.
   LWAVE = .F.

 POTCAR:    PAW_PBE Ag 02Apr2005
 POTCAR:    PAW_PBE Cr 06Sep2000
|           W    W    AA    RRRRR   N    N  II  N    N   GGGG   !!!           |
|           W    W   A  A   R    R  NN   N  II  NN   N  G    G  !!!           |
|           W    W  A    A  R    R  N N  N  II  N N  N  G       !!!           |
|           W WW W  AAAAAA  RRRRR   N  N N  II  N  N N  G  GGG   !            |
|           WW  WW  A    A  R   R   N   NN  II  N   NN  G    G                |
|           W    W  A    A  R    R  N    N  II  N    N   GGGG   !!!           |
|     For optimal performance we recommend to set                             |
|       NCORE = 2 up to number-of-cores-per-socket                            |
|     This setting can greatly improve the performance of VASP for DFT.       |
|     The default, NCORE=1 might be grossly inefficient on modern             |
|     multi-core architectures or massively parallel machines. Do your        |
|     Unfortunately you need to use the default for GW and RPA                |
|     calculations (for HF NCORE is supported but not extensively tested      |
|     yet).                                                                   |

 POTCAR:    PAW_PBE Ag 02Apr2005
   VRHFIN =Ag : s1 d10

   TITEL  = PAW_PBE Ag 02Apr2005
   POMASS =  107.868; ZVAL   =   11.000    mass and valenz
   ENMAX  =  249.844; ENMIN  =  187.383 eV

 POTCAR:    PAW_PBE Cr 06Sep2000
   VRHFIN =Cr : d5 s1

   TITEL  = PAW_PBE Cr 06Sep2000
   POMASS =   51.996; ZVAL   =    6.000    mass and valenz
   ENMAX  =  227.080; ENMIN  =  170.310 eV

 Optimization of the real space projectors (new method)

 maximal supplied QI-value         = 15.12
 optimisation between [QCUT,QGAM] = [ 11.34, 22.83] = [ 36.00,145.93] Ry
 Optimized for a Real-space Cutoff    1.43 Angstroem

   l    n(q)    QCUT    max X(q) W(low)/X(q) W(high)/X(q)  e(spline)
   2      9    11.338    53.897    0.16E-03    0.20E-03    0.28E-06
   2      9    11.338    52.416    0.16E-03    0.20E-03    0.29E-06
   0     10    11.338   122.045    0.31E-04    0.76E-04    0.15E-06
   0     10    11.338    73.629    0.30E-04    0.72E-04    0.15E-06
   1      9    11.338    15.255    0.20E-03    0.19E-04    0.17E-06
   1      9    11.338     9.562    0.16E-03    0.15E-04    0.14E-06
 Optimization of the real space projectors (new method)

 maximal supplied QI-value         = 15.12
 optimisation between [QCUT,QGAM] = [ 11.34, 22.83] = [ 36.00,145.93] Ry
 Optimized for a Real-space Cutoff    1.43 Angstroem

   l    n(q)    QCUT    max X(q) W(low)/X(q) W(high)/X(q)  e(spline)
   2      9    11.338    94.395    0.18E-03    0.10E-02    0.64E-06
   2      9    11.338    88.078    0.18E-03    0.10E-02    0.65E-06
   0     10    11.338    50.173    0.13E-03    0.16E-03    0.96E-07
   0     10    11.338    24.906    0.12E-03    0.14E-03    0.88E-07
   1      9    11.338    12.133    0.13E-03    0.15E-03    0.24E-06
   1      9    11.338     7.290    0.10E-03    0.10E-03    0.18E-06
  PAW_PBE Ag 02Apr2005                  :
  PAW_PBE Cr 06Sep2000                  :

 POSCAR: Ag-Cr
  positions in direct lattice
  velocities in cartesian coordinates
 exchange correlation table for  LEXCH =        8
   RHO(1)=    0.500       N(1)  =     2000
   RHO(2)=  100.500       N(2)  =     4000

 VTST: version 3.2, (02/03/18)

 CHAIN: initializing optimizer

 OPT: Using VASP Conjugate-Gradient optimizer
 CHAIN: Read ICHAIN            0

 POSCAR: Ag-Cr
  positions in direct lattice
  velocities in cartesian coordinates

 ion  position               nearest neighbor table
   1  0.000  0.000  0.238-   2 2.93   8 2.93   7 2.93   6 2.93   4 2.93  12 2.93  16 2.93  10 2.93
                             3 2.93
   2  0.333  0.000  0.238-   1 2.93   8 2.93   9 2.93   3 2.93   4 2.93   5 2.93  10 2.93  17 2.93
                            11 2.93
   3  0.667  0.000  0.238-   9 2.93   2 2.93   5 2.93  11 2.93   7 2.93  18 2.93   1 2.93   6 2.93
                            12 2.93
   4  0.000  0.333  0.238-   5 2.93   6 2.93   2 2.93   1 2.93   7 2.93  13 2.93  15 2.93   9 2.93
                            10 2.93
   5  0.333  0.333  0.238-   4 2.93   3 2.93   7 2.93   2 2.93   8 2.93  14 2.93  13 2.93  11 2.93
                             6 2.93
   6  0.667  0.333  0.238-   4 2.93   9 2.93   1 2.93  15 2.93   8 2.93  12 2.93   3 2.93   5 2.93
                            14 2.93
   7  0.000  0.667  0.238-   8 2.93   1 2.93   5 2.93   3 2.93   4 2.93  16 2.93  18 2.93  13 2.93
                             9 2.93
   8  0.333  0.667  0.238-   7 2.93   1 2.93   2 2.93   9 2.93   5 2.93  16 2.93   6 2.93  17 2.93
                            14 2.93
   9  0.667  0.667  0.238-   3 2.93   2 2.93   8 2.93   6 2.93  17 2.93   4 2.93  15 2.93   7 2.93
                            18 2.93
  10  0.111  0.111  0.346-  20 2.91  19 2.92  26 2.92  12 2.93  16 2.93  15 2.93  17 2.93  13 2.93
                            11 2.93   2 2.93   1 2.93   4 2.93
  11  0.444  0.111  0.346-  21 2.90  20 2.90  27 2.92  14 2.93  17 2.93  18 2.93   3 2.93  12 2.93
                            13 2.93  10 2.93   5 2.93   2 2.93
  12  0.778  0.111  0.346-  21 2.91  25 2.92  19 2.92  10 2.93  16 2.93  18 2.93  15 2.93  11 2.93
                             1 2.93  14 2.93   6 2.93   3 2.93
  13  0.111  0.444  0.346-  20 2.90  23 2.90  22 2.92  15 2.93  14 2.93  18 2.93  10 2.93  11 2.93
                            16 2.93   4 2.93   5 2.93   7 2.93
  14  0.444  0.444  0.346-  23 2.90  21 2.90  24 2.92  13 2.93  11 2.93  16 2.93   5 2.93  12 2.93
                            17 2.93   8 2.93  15 2.93   6 2.93
  15  0.778  0.444  0.346-  24 2.92  22 2.92  19 2.92  13 2.93  10 2.93  12 2.93  17 2.93  18 2.93
                             4 2.93   6 2.93   9 2.93  14 2.93
  16  0.111  0.778  0.346-  23 2.91  26 2.92  25 2.92  18 2.93  12 2.93  10 2.93  14 2.93  17 2.93
                            13 2.93   7 2.93   8 2.93   1 2.93
  17  0.444  0.778  0.346-  27 2.92  24 2.92  26 2.92  11 2.93  10 2.93   9 2.93  18 2.93  15 2.93
                            16 2.93   2 2.93  14 2.93   8 2.93
  18  0.778  0.778  0.346-  22 2.92  27 2.92  25 2.92  16 2.93  12 2.93  13 2.93  11 2.93  17 2.93
                            15 2.93   7 2.93   3 2.93   9 2.93
  19  0.889  0.222  0.454-  28 2.91  15 2.92  10 2.92  12 2.92  24 2.93  22 2.93  26 2.93  25 2.93
                            20 2.94  21 2.94  32 2.96  31 2.96
  20  0.223  0.223  0.453-  36 2.73  13 2.90  11 2.90  21 2.91  23 2.91  10 2.91  31 2.91  29 2.91
                            27 2.93  22 2.93  19 2.94  26 2.94
  21  0.554  0.223  0.453-  36 2.73  11 2.90  14 2.90  20 2.91  23 2.91  12 2.91  30 2.91  32 2.91
                            27 2.93  24 2.93  25 2.94  19 2.94
  22  0.888  0.556  0.453-  35 2.91  18 2.92  15 2.92  13 2.92  24 2.92  27 2.92  25 2.93  19 2.93
                            33 2.93  31 2.93  23 2.93  20 2.93
  23  0.223  0.554  0.453-  36 2.73  14 2.90  13 2.90  21 2.91  20 2.91  16 2.91  34 2.91  33 2.91
                            22 2.93  24 2.93  26 2.94  25 2.94
  24  0.556  0.556  0.453-  35 2.91  15 2.92  17 2.92  14 2.92  27 2.92  22 2.92  19 2.93  26 2.93
                            32 2.93  34 2.93  23 2.93  21 2.93
  25  0.889  0.889  0.454-  28 2.91  18 2.92  16 2.92  12 2.92  22 2.93  27 2.93  26 2.93  19 2.93
                            23 2.94  21 2.94  33 2.96  30 2.96
  26  0.222  0.889  0.454-  28 2.91  17 2.92  16 2.92  10 2.92  27 2.93  24 2.93  25 2.93  19 2.93
                            23 2.94  20 2.94  34 2.96  29 2.96
  27  0.556  0.888  0.453-  35 2.91  17 2.92  18 2.92  11 2.92  24 2.92  22 2.92  26 2.93  25 2.93
                            29 2.93  30 2.93  20 2.93  21 2.93
  28  0.000  0.000  0.560-  26 2.91  25 2.91  19 2.91  29 2.96  34 2.96  33 2.96  32 2.96  31 2.96
                            30 2.96
  29  0.333  0.007  0.561-  30 2.87  31 2.87  36 2.88  20 2.91  27 2.93  26 2.96  35 2.96  28 2.96
                            34 3.06
  30  0.659  0.007  0.561-  29 2.87  32 2.87  36 2.88  21 2.91  27 2.93  25 2.96  35 2.96  28 2.96
                            33 3.06
  31  0.007  0.333  0.561-  33 2.87  29 2.87  36 2.88  20 2.91  22 2.93  19 2.96  35 2.96  28 2.96
                            32 3.06
  32  0.659  0.333  0.561-  34 2.87  30 2.87  36 2.88  21 2.91  24 2.93  19 2.96  35 2.96  28 2.96
                            31 3.06
  33  0.007  0.659  0.561-  31 2.87  34 2.87  36 2.88  23 2.91  22 2.93  25 2.96  35 2.96  28 2.96
                            30 3.06
  34  0.333  0.659  0.561-  32 2.87  33 2.87  36 2.88  23 2.91  24 2.93  26 2.96  35 2.96  28 2.96
                            29 3.06
  35  0.667  0.667  0.560-  24 2.91  27 2.91  22 2.91  30 2.96  32 2.96  29 2.96  34 2.96  31 2.96
                            33 2.96
  36  0.333  0.333  0.550-  21 2.73  20 2.73  23 2.73  31 2.88  33 2.88  30 2.88  29 2.88  34 2.88
                            32 2.88

  LATTYP: Found a hexagonal cell.
 ALAT       =     8.7913665772
 C/A-ratio  =     2.5227160501

  Lattice vectors:

 A1 = (  -4.3956832886,  -7.6135467898,   0.0000000000)
 A2 = (   8.7913665771,   0.0000000000,   0.0000000000)
 A3 = (   0.0000000000,   0.0000000000,  22.1781215668)

Analysis of symmetry for initial positions (statically):
 Subroutine PRICEL returns:
 Original cell was already a primitive cell.

 Routine SETGRP: Setting up the symmetry group for a
 hexagonal supercell.

 Subroutine GETGRP returns: Found  6 space group operations
 (whereof  6 operations were pure point group operations)
 out of a pool of 24 trial point group operations.

The static configuration has the point symmetry C_3v.

Analysis of symmetry for dynamics (positions and initial velocities):
 Subroutine PRICEL returns:
 Original cell was already a primitive cell.

[...]

The dynamic configuration has the point symmetry C_3v.

Analysis of constrained symmetry for selective dynamics:
 Subroutine PRICEL returns:
 Original cell was already a primitive cell.

 Routine SETGRP: Setting up the symmetry group for a
 hexagonal supercell.

 Subroutine GETGRP returns: Found  6 space group operations
 (whereof  6 operations were pure point group operations)
 out of a pool of 24 trial point group operations.

The constrained configuration has the point symmetry C_3v.

 Subroutine INISYM returns: Found  6 space group operations
 (whereof  6 operations are pure point group operations),
 and found     1 'primitive' translations

                                     Primitive cell

  volume of cell :    1484.4589

  direct lattice vectors                    reciprocal lattice vectors
     8.791366577  0.000000000  0.000000000     0.113747958 -0.065672414  0.000000000
     4.395683289  7.613546790  0.000000000     0.000000000  0.131344829  0.000000000
[...]
     15      -4.7539      2.00000
     16      -4.7521      2.00000
     17      -4.7176      2.00000
     18      -4.7158      2.00000
     19      -4.7107      2.00000
     20      -4.7078      2.00000
     21      -4.6935      2.00000
     22      -4.6630      2.00000
     23      -4.6503      2.00000
     24      -4.6464      2.00000
     25      -4.6169      2.00000
     26      -4.5945      2.00000
     27      -4.5760      2.00000
     28      -4.5694      2.00000
     29      -4.5558      2.00000
     30      -4.5468      2.00000
     31      -4.5395      2.00000
     32      -4.5050      2.00000
     33      -4.4759      2.00000
     34      -4.4420      2.00000
     35      -4.4182      2.00000
     36      -4.4066      2.00000
     37      -4.3774      2.00000
     38      -4.3406      2.00000
     39      -4.3392      2.00000
     40      -4.3339      2.00000
     41      -4.3173      2.00000
     42      -4.3107      2.00000
     43      -4.2233      2.00000
     44      -4.1944      2.00000
     45      -4.1875      2.00000
     46      -4.1854      2.00000
     47      -4.1786      2.00000
     48      -4.1755      2.00000
     49      -4.1602      2.00000
     50      -4.1543      2.00000
     51      -4.1399      2.00000
     52      -4.1311      2.00000
     53      -4.0669      2.00000
     54      -4.0595      2.00000
     55      -4.0481      2.00000
     56      -4.0429      2.00000
     57      -4.0278      2.00000
     58      -4.0143      2.00000
     59      -3.9795      2.00000
     60      -3.9632      2.00000
[...]
    238       7.1987      0.00000
    239       7.2020      0.00000
    240       7.2135      0.00000
    241       7.2189      0.00000
    242       7.2808      0.00000
    243       7.3070      0.00000
    244       7.3368      0.00000
    245       7.5214      0.00000
    246       7.5290      0.00000
    247       7.5789      0.00000
    248       7.6154      0.00000
    249       7.6305      0.00000
    250       7.9175      0.00000
    251       7.9475      0.00000
    252       8.1116      0.00000

 soft charge-density along one line, spin component           1
         0         1         2         3         4         5         6         7         8         9
 total charge-density along one line

------------------------ aborting loop because EDIFF is reached ----------------------------------------

 total charge

# of ion       s       p       d       tot
    1        0.421   0.202   9.177   9.800
    2        0.416   0.204   9.178   9.797
    3        0.416   0.204   9.178   9.797
    4        0.416   0.204   9.178   9.797
    5        0.419   0.203   9.176   9.797
    6        0.416   0.204   9.178   9.797
    7        0.416   0.204   9.178   9.797
    8        0.416   0.204   9.178   9.797
    9        0.417   0.201   9.178   9.797
   10        0.409   0.269   9.162   9.840
   11        0.406   0.268   9.169   9.843
   12        0.409   0.269   9.162   9.840
   13        0.406   0.268   9.169   9.843
   14        0.406   0.268   9.169   9.843
   15        0.405   0.268   9.165   9.839
   16        0.409   0.269   9.162   9.840
   17        0.405   0.268   9.165   9.839
   18        0.405   0.268   9.165   9.839
   19        0.402   0.266   9.166   9.834
   20        0.431   0.300   9.140   9.870
   21        0.431   0.300   9.140   9.870
   22        0.397   0.273   9.167   9.837
   23        0.431   0.300   9.140   9.870
   24        0.397   0.273   9.167   9.837
   25        0.402   0.266   9.166   9.834
   26        0.402   0.266   9.166   9.834
   27        0.397   0.273   9.167   9.837
   28        0.412   0.198   9.175   9.785
   29        0.431   0.211   9.162   9.804
   30        0.431   0.211   9.162   9.804
   31        0.431   0.211   9.162   9.804
   32        0.431   0.211   9.162   9.804
   33        0.431   0.211   9.162   9.804
   34        0.431   0.211   9.162   9.804
   35        0.406   0.198   9.178   9.782
   36        0.375   0.260   4.179   4.814
tot         14.881   8.680 325.008 348.569

  FORCE on cell =-STRESS in cart. coord.  units (eV):
  Direction    XX          YY          ZZ          XY          YZ          ZX
  Alpha Z   730.99361   730.99361   730.99361
  Ewald  119684.03503119684.03494************    -0.00001    -0.00001    -0.00002
  Hartree129739.42927129739.42923************    -0.00000    -0.00000    -0.00001
  E(xc)   -2053.80100 -2053.80098 -2059.76982    -0.00002     0.00000     0.00000
  Local  ************************260678.51565     0.00023    -0.00003    -0.00003
  n-local  -336.51114  -317.47141  -331.29701    10.69053    -0.44177     0.39293
  augment  3246.90726  3246.90741  3259.38576    -0.00013     0.00001     0.00000
  Kinetic  4807.20774  4811.58259  4843.09184     4.14833     0.76918     0.01410
  Fock        0.00000     0.00000     0.00000     0.00000     0.00000     0.00000
  Total     -10.30540   -10.30540    -0.73198    -0.00000    -0.00000     0.00000
  in kB     -11.12262   -11.12262    -0.79003    -0.00000    -0.00000     0.00000

 VOLUME and BASIS-vectors are now :
  energy-cutoff  :      500.00
  volume of cell :     1484.46
      direct lattice vectors                 reciprocal lattice vectors
     8.791366577  0.000000000  0.000000000     0.113747958 -0.065672414  0.000000000
     4.395683289  7.613546790  0.000000000     0.000000000  0.131344829  0.000000000
     0.000000000  0.000000000 22.178121567     0.000000000  0.000000000  0.045089481

  length of vectors
     8.791366577  8.791366577 22.178121567     0.131344829  0.131344829  0.045089481

 FORCES acting on ions
    electron-ion (+dipol)            ewald-force                    non-local-force                 convergence-correction
   0.460E-04 -.282E-04 0.248E+04   -.953E-04 0.593E-04 -.248E+04   -.216E-17 -.429E-18 -.191E+01   -.120E-03 -.176E-03 0.156E+00
   -.154E+00 0.376E-01 0.248E+04   -.140E+00 -.405E-01 -.248E+04   0.107E+00 0.915E-01 -.157E+01   0.176E+00 -.851E-01 0.179E+00
   0.154E+00 0.376E-01 0.248E+04   0.140E+00 -.404E-01 -.248E+04   -.107E+00 0.915E-01 -.157E+01   -.177E+00 -.832E-01 0.180E+00
   -.443E-01 -.152E+00 0.248E+04   -.105E+00 -.101E+00 -.248E+04   0.133E+00 0.473E-01 -.157E+01   0.146E-01 0.195E+00 0.179E+00
   -.784E-05 -.200E-04 0.248E+04   0.981E-04 -.200E-05 -.248E+04   -.199E-17 -.459E-18 -.131E+01   0.616E-02 0.377E-02 0.342E+00
   0.443E-01 -.152E+00 0.248E+04   0.105E+00 -.101E+00 -.248E+04   -.133E+00 0.473E-01 -.157E+01   -.159E-01 0.196E+00 0.180E+00
   0.110E+00 0.114E+00 0.248E+04   0.347E-01 0.141E+00 -.248E+04   0.255E-01 -.139E+00 -.157E+01   -.160E+00 -.111E+00 0.180E+00
   -.110E+00 0.114E+00 0.248E+04   -.348E-01 0.141E+00 -.248E+04   -.255E-01 -.139E+00 -.157E+01   0.162E+00 -.112E+00 0.180E+00
   0.365E-04 -.131E-04 0.248E+04   0.791E-04 -.642E-04 -.248E+04   0.313E-18 0.566E-18 -.169E+01   -.657E-02 -.338E-02 0.111E+00
   0.132E+01 0.764E+00 0.800E+03   -.102E+01 -.591E+00 -.800E+03   -.317E+00 -.183E+00 -.791E+00   0.309E-01 0.179E-01 0.337E+00
   -.287E-04 0.969E+00 0.801E+03   0.410E-04 -.107E+01 -.801E+03   0.722E-12 0.110E+00 -.281E+00   0.638E-02 -.407E-01 0.378E+00
   -.132E+01 0.764E+00 0.800E+03   0.102E+01 -.591E+00 -.800E+03   0.317E+00 -.183E+00 -.791E+00   -.324E-01 0.182E-01 0.337E+00
   0.839E+00 -.485E+00 0.801E+03   -.926E+00 0.535E+00 -.801E+03   0.952E-01 -.550E-01 -.281E+00   -.322E-01 0.259E-01 0.378E+00
   -.839E+00 -.485E+00 0.801E+03   0.926E+00 0.535E+00 -.801E+03   -.952E-01 -.550E-01 -.281E+00   0.422E-01 0.246E-01 0.376E+00
   0.156E-04 0.936E+00 0.801E+03   -.108E-03 -.117E+01 -.801E+03   0.538E-12 0.820E-01 -.710E+00   -.116E-02 0.133E+00 0.351E+00
   -.815E-05 -.153E+01 0.800E+03   0.207E-04 0.118E+01 -.800E+03   0.240E-11 0.366E+00 -.791E+00   -.455E-03 -.372E-01 0.337E+00
   0.811E+00 -.468E+00 0.801E+03   -.102E+01 0.586E+00 -.801E+03   0.710E-01 -.410E-01 -.710E+00   0.115E+00 -.676E-01 0.351E+00
   -.811E+00 -.468E+00 0.801E+03   0.102E+01 0.586E+00 -.801E+03   -.710E-01 -.410E-01 -.710E+00   -.114E+00 -.659E-01 0.353E+00
   0.398E-04 -.302E+01 -.896E+03   -.125E-03 0.281E+01 0.895E+03   0.521E-12 0.793E-01 0.673E+00   0.976E-03 0.136E+00 0.638E+00
   -.106E+02 -.609E+01 -.905E+03   0.116E+02 0.670E+01 0.905E+03   -.115E+01 -.662E+00 -.902E+00   0.865E-01 0.500E-01 0.798E+00
   0.106E+02 -.609E+01 -.905E+03   -.116E+02 0.670E+01 0.905E+03   0.115E+01 -.662E+00 -.902E+00   -.976E-01 0.480E-01 0.797E+00
   -.804E+01 0.464E+01 -.892E+03   0.778E+01 -.449E+01 0.891E+03   0.221E+00 -.127E+00 0.362E+00   0.443E-01 -.182E-01 0.531E+00
   -.542E-04 0.122E+02 -.905E+03   0.387E-04 -.134E+02 0.905E+03   0.869E-11 0.132E+01 -.902E+00   -.692E-02 -.108E+00 0.797E+00
   0.804E+01 0.464E+01 -.892E+03   -.778E+01 -.449E+01 0.891E+03   -.221E+00 -.127E+00 0.362E+00   -.319E-01 -.183E-01 0.531E+00
   0.262E+01 0.151E+01 -.896E+03   -.243E+01 -.140E+01 0.895E+03   -.686E-01 -.396E-01 0.673E+00   -.119E+00 -.689E-01 0.637E+00
   -.262E+01 0.151E+01 -.896E+03   0.243E+01 -.140E+01 0.895E+03   0.686E-01 -.396E-01 0.673E+00   0.118E+00 -.671E-01 0.638E+00
   0.201E-04 -.929E+01 -.892E+03   0.110E-03 0.898E+01 0.891E+03   0.167E-11 0.255E+00 0.362E+00   0.575E-02 0.474E-01 0.531E+00
   0.538E-04 -.365E-04 -.251E+04   -.113E-03 0.765E-04 0.251E+04   0.150E-17 0.104E-16 0.184E+01   0.962E-04 -.779E-04 0.203E+00
   -.143E+02 -.272E+02 -.252E+04   0.149E+02 0.283E+02 0.252E+04   -.888E+00 -.136E+01 0.134E+01   0.256E+00 0.265E+00 0.223E+00
   0.143E+02 -.272E+02 -.252E+04   -.149E+02 0.283E+02 0.252E+04   0.888E+00 -.136E+01 0.134E+01   -.257E+00 0.265E+00 0.223E+00
   -.307E+02 0.123E+01 -.252E+04   0.320E+02 -.124E+01 0.252E+04   -.162E+01 -.877E-01 0.134E+01   0.357E+00 0.896E-01 0.223E+00
   0.307E+02 0.123E+01 -.252E+04   -.320E+02 -.124E+01 0.252E+04   0.162E+01 -.877E-01 0.134E+01   -.357E+00 0.902E-01 0.224E+00
   -.164E+02 0.260E+02 -.252E+04   0.171E+02 -.271E+02 0.252E+04   -.736E+00 0.145E+01 0.134E+01   0.102E+00 -.354E+00 0.223E+00
   0.164E+02 0.260E+02 -.252E+04   -.171E+02 -.271E+02 0.252E+04   0.736E+00 0.145E+01 0.134E+01   -.101E+00 -.354E+00 0.224E+00
   0.265E-04 -.147E-04 -.251E+04   0.104E-03 -.647E-04 0.251E+04   -.269E-18 -.137E-17 0.207E+01   -.598E-02 -.302E-02 0.311E+00
   -.324E-04 -.439E-06 -.133E+04   0.576E-04 0.774E-05 0.133E+04   -.357E-17 -.481E-17 0.298E+01   0.108E-02 0.667E-03 0.270E+00
   0.296E-03 -.706E-03 -.854E+01   -.122E-12 -.461E-13 0.932E-11   -.448E-15 0.438E-15 -.437E+01   0.833E-02 0.802E-02 0.129E+02

 POSITION                                       TOTAL-FORCE (eV/Angst)
      0.00000      0.00000      5.28219         0.000000     -0.000000     -0.033437
      2.93046      0.00000      5.28219        -0.009386      0.004510      0.024906
      5.86091      0.00000      5.28219         0.009386      0.004510      0.024906
      1.46523      2.53785      5.28219        -0.000787     -0.010383      0.024906
      4.39568      2.53785      5.28219         0.000000      0.000000      0.004242
      7.32614      2.53785      5.28219         0.000787     -0.010383      0.024906
      2.93046      5.07570      5.28219         0.008599      0.005873      0.024906
      5.86091      5.07570      5.28219        -0.008599      0.005873      0.024906
      8.79137      5.07570      5.28219        -0.000000     -0.000000      0.009285
      1.46523      0.84595      7.67490         0.014073      0.008125     -0.011619
      4.39568      0.84595      7.67490        -0.000000     -0.033859     -0.051052
      7.32614      0.84595      7.67490        -0.014073      0.008125     -0.011619
      2.93046      3.38380      7.67490        -0.029323      0.016929     -0.051052
      5.86091      3.38380      7.67490         0.029323      0.016929     -0.051052
      8.79137      3.38380      7.67490        -0.000000     -0.021142     -0.000748
      4.39568      5.92165      7.67490        -0.000000     -0.016250     -0.011619
      7.32614      5.92165      7.67490        -0.018310      0.010571     -0.000748
     10.25659      5.92165      7.67490         0.018310      0.010571     -0.000748
      8.79137      1.69374     10.05841        -0.000000     -0.002112      0.000154
      2.93927      1.69699     10.03909        -0.000651     -0.000376      0.011942
      5.85210      1.69699     10.03909         0.000651     -0.000376      0.011942
     10.25385      4.23133     10.05420        -0.003779      0.002182     -0.005192
      4.39568      4.21957     10.03909         0.000000      0.000752      0.011942
      7.32888      4.23133     10.05420         0.003779      0.002182     -0.005192
     11.72023      6.76668     10.05841         0.001829      0.001056      0.000154
      5.86251      6.76668     10.05841        -0.001829      0.001056      0.000154
      8.79137      6.76443     10.05420        -0.000000     -0.004363     -0.005192
      0.00000      0.00000     12.42643         0.000000     -0.000000      0.022009
      2.96234      0.05459     12.44639        -0.007648     -0.006255      0.008821
      5.82903      0.05459     12.44639         0.007648     -0.006255      0.008821
      1.52844      2.53816     12.44639        -0.009241     -0.003496      0.008821
      7.26292      2.53816     12.44639         0.009241     -0.003496      0.008821
      2.96179      5.02079     12.44639        -0.001593      0.009750      0.008821
      5.82958      5.02079     12.44639         0.001593      0.009750      0.008821
      8.79137      5.07570     12.42906         0.000000      0.000000      0.006810
      4.39568      2.53785     12.18689         0.000000      0.000000     -0.041728
    total drift:                                0.008623      0.007319     -0.010621

  FREE ENERGIE OF THE ION-ELECTRON SYSTEM (eV)
  free  energy   TOTEN  =       -94.95072053 eV

  energy  without entropy=      -94.95072053  energy(sigma->0) =      -94.95072053

 stress matrix after NEB project (eV)
    -10.30540     -0.00000      0.00000
     -0.00000    -10.30540      0.00000
      0.00000     -0.00000     -0.73198
  FORCES: max atom, RMS     0.041728    0.010416
  FORCE total and by dimension    0.062495    0.041728
  Stress total and by dimension   14.592404   10.305398
|           W    W    AA    RRRRR   N    N  II  N    N   GGGG   !!!           |
|           W    W   A  A   R    R  NN   N  II  NN   N  G    G  !!!           |
|           W    W  A    A  R    R  N N  N  II  N N  N  G       !!!           |
|           W WW W  AAAAAA  RRRRR   N  N N  II  N  N N  G  GGG   !            |
|           WW  WW  A    A  R   R   N   NN  II  N   NN  G    G                |
|           W    W  A    A  R    R  N    N  II  N    N   GGGG   !!!           |
|     Tetrahedron method does not include variations of the Fermi             |
|     occupations, so forces and stress will be inaccurate. We suggest        |
|     using a different smearing scheme ISMEAR = 1 or 2 for metals in         |
|     relaxations.                                                            |

 total charge

# of ion       s       p       d       tot
    1        0.421   0.202   9.177   9.800
    2        0.416   0.204   9.178   9.797
    3        0.416   0.204   9.178   9.797
    4        0.416   0.204   9.178   9.797
    5        0.419   0.203   9.176   9.797
    6        0.416   0.204   9.178   9.797
    7        0.416   0.204   9.178   9.797
    8        0.416   0.204   9.178   9.797
    9        0.417   0.201   9.178   9.797
   10        0.409   0.269   9.162   9.840
   11        0.406   0.268   9.169   9.843
   12        0.409   0.269   9.162   9.840
   13        0.406   0.268   9.169   9.843
   14        0.406   0.268   9.169   9.843
   15        0.405   0.268   9.165   9.839
   16        0.409   0.269   9.162   9.840
   17        0.405   0.268   9.165   9.839
   18        0.405   0.268   9.165   9.839
   19        0.402   0.266   9.166   9.834
   20        0.431   0.300   9.140   9.870
   21        0.431   0.300   9.140   9.870
   22        0.397   0.273   9.167   9.837
   23        0.431   0.300   9.140   9.870
   24        0.397   0.273   9.167   9.837
   25        0.402   0.266   9.166   9.834
   26        0.402   0.266   9.166   9.834
   27        0.397   0.273   9.167   9.837
   28        0.412   0.198   9.175   9.785
   29        0.431   0.211   9.162   9.804
   30        0.431   0.211   9.162   9.804
   31        0.431   0.211   9.162   9.804
   32        0.431   0.211   9.162   9.804
   33        0.431   0.211   9.162   9.804
   34        0.431   0.211   9.162   9.804
   35        0.406   0.198   9.178   9.782
   36        0.375   0.260   4.179   4.814
tot         14.881   8.680 325.008 348.569

 BZINTS: Fermi energy:    0.806094;  391.000000 electrons
         Band energy:-0.126783E+04;  BLOECHL correction:   -0.013632