 vasp.6.2.0 18Jan21 (build Jun 12 2021 23:27:24) complex

 executed on             LinuxIFC date 2022.05.27  06:13:17

 INCAR:
   ISMEAR = -5
   SIGMA = 0.1
   ISPIN = 1
   EDIFF = 1.d-5
   EDIFFG = -0.01
   NSW = 0
   NELM = 150
   ENCUT = 500
   ISIF = 2
   IBRION = 2
   LREAL = Auto
   ALGO = Fast
   ICHARG = 11
   LORBIT = 10
   LCHARG = .F.
   LWAVE = .F.

 POTCAR:    PAW_PBE Cu 22Jun2005
 POTCAR:    PAW_PBE Pd 04Jan2005
 POTCAR:    PAW_PBE H 15Jun2001
|           W    W    AA    RRRRR   N    N  II  N    N   GGGG   !!!           |
|           W    W   A  A   R    R  NN   N  II  NN   N  G    G  !!!           |
|           W    W  A    A  R    R  N N  N  II  N N  N  G       !!!           |
|           W WW W  AAAAAA  RRRRR   N  N N  II  N  N N  G  GGG   !            |
|           WW  WW  A    A  R   R   N   NN  II  N   NN  G    G                |
|           W    W  A    A  R    R  N    N  II  N    N   GGGG   !!!           |
|     For optimal performance we recommend to set                             |
|       NCORE = 2 up to number-of-cores-per-socket                            |
|     This setting can greatly improve the performance of VASP for DFT.       |
|     The default, NCORE=1 might be grossly inefficient on modern             |
|     multi-core architectures or massively parallel machines. Do your        |
|     Unfortunately you need to use the default for GW and RPA                |
|     calculations (for HF NCORE is supported but not extensively tested      |
|     yet).                                                                   |

 POTCAR:    PAW_PBE Cu 22Jun2005
   VRHFIN =Cu: d10 p1

   TITEL  = PAW_PBE Cu 22Jun2005
   POMASS =   63.546; ZVAL   =   11.000    mass and valenz
   ENMAX  =  295.446; ENMIN  =  221.585 eV

 POTCAR:    PAW_PBE Pd 04Jan2005
   VRHFIN =Pd : s1 d9

   TITEL  = PAW_PBE Pd 04Jan2005
   POMASS =  106.420; ZVAL   =   10.000    mass and valenz
   ENMAX  =  250.925; ENMIN  =  188.194 eV

 POTCAR:    PAW_PBE H 15Jun2001
   VRHFIN =H: ultrasoft test

   TITEL  = PAW_PBE H 15Jun2001
   POMASS =    1.000; ZVAL   =    1.000    mass and valenz
   ENMAX  =  250.000; ENMIN  =  200.000 eV

 Optimization of the real space projectors (new method)

 maximal supplied QI-value         = 16.25
 optimisation between [QCUT,QGAM] = [ 11.38, 22.75] = [ 36.24,144.96] Ry
 Optimized for a Real-space Cutoff    1.52 Angstroem

   l    n(q)    QCUT    max X(q) W(low)/X(q) W(high)/X(q)  e(spline)
   2      9    11.376     4.610    0.21E-03    0.10E-03    0.26E-06
   2      9    11.376     8.522    0.33E-03    0.16E-03    0.37E-06
   0     10    11.376    51.609    0.62E-04    0.20E-04    0.13E-06
   0     10    11.376    27.747    0.54E-04    0.20E-04    0.13E-06
   1     10    11.376    20.408    0.13E-04    0.99E-04    0.19E-06
   1     10    11.376    13.425    0.12E-04    0.87E-04    0.17E-06
 Optimization of the real space projectors (new method)

[...]

   l    n(q)    QCUT    max X(q) W(low)/X(q) W(high)/X(q)  e(spline)
   2      9    11.346    59.108    0.74E-04    0.81E-04    0.26E-06
   2      9    11.346    58.101    0.74E-04    0.83E-04    0.27E-06
   0     10    11.346   102.235    0.26E-04    0.31E-04    0.16E-06
   0     10    11.346    58.388    0.23E-04    0.29E-04    0.15E-06
   1     10    11.346    22.191    0.23E-03    0.26E-03    0.14E-06
   1     10    11.346    15.590    0.19E-03    0.22E-03    0.12E-06
 Optimization of the real space projectors (new method)

 maximal supplied QI-value         = 34.20
 optimisation between [QCUT,QGAM] = [ 11.29, 22.57] = [ 35.68,142.71] Ry
 Optimized for a Real-space Cutoff    1.16 Angstroem

   l    n(q)    QCUT    max X(q) W(low)/X(q) W(high)/X(q)  e(spline)
   0      8    11.287    19.460    0.40E-03    0.73E-03    0.16E-06
   0      8    11.287    12.209    0.38E-03    0.70E-03    0.15E-06
   1      7    11.287     4.655    0.22E-03    0.25E-04    0.22E-06
  PAW_PBE Cu 22Jun2005                  :
  PAW_PBE Pd 04Jan2005                  :
  PAW_PBE H 15Jun2001                   :

 POSCAR: Cu-Pd-H2
  positions in direct lattice
  velocities in cartesian coordinates
 exchange correlation table for  LEXCH =        8
   RHO(1)=    0.500       N(1)  =     2000
   RHO(2)=  100.500       N(2)  =     4000

 VTST: version 3.2, (02/03/18)

 CHAIN: initializing optimizer

 OPT: Using VASP Conjugate-Gradient optimizer
 CHAIN: Read ICHAIN            0

 POSCAR: Cu-Pd-H2
  positions in direct lattice
  velocities in cartesian coordinates

 ion  position               nearest neighbor table
   1  0.000  0.000  0.252-   7 2.57   3 2.57   4 2.57   2 2.57   6 2.57   8 2.57  12 2.57  10 2.57
                            16 2.57
   2  0.333  0.000  0.252-   8 2.57   9 2.57   5 2.57   1 2.57   3 2.57  11 2.57   4 2.57  10 2.57
                            17 2.57
   3  0.667  0.000  0.252-   1 2.57   7 2.57   6 2.57   9 2.57   2 2.57  12 2.57   5 2.57  18 2.57
                            11 2.57
   4  0.000  0.333  0.252-   5 2.57   6 2.57   1 2.57   7 2.57   2 2.57  13 2.57   9 2.57  10 2.57
                            15 2.57
   5  0.333  0.333  0.252-   4 2.57   2 2.57   7 2.57  13 2.57   8 2.57   6 2.57   3 2.57  11 2.57
                            14 2.57
   6  0.667  0.333  0.252-   4 2.57   9 2.57  15 2.57   3 2.57   1 2.57   8 2.57  14 2.57   5 2.57
                            12 2.57
   7  0.000  0.667  0.252-   1 2.57   3 2.57  16 2.57  18 2.57   4 2.57   5 2.57   8 2.57   9 2.57
                            13 2.57
   8  0.333  0.667  0.252-   9 2.57   2 2.57  17 2.57   6 2.57   1 2.57   7 2.57   5 2.57  14 2.57
                            16 2.57
   9  0.667  0.667  0.252-   8 2.57   6 2.57   2 2.57  17 2.57   3 2.57   7 2.57   4 2.57  15 2.57
                            18 2.57
  10  0.111  0.111  0.351-  20 2.54  26 2.55  19 2.55  11 2.57  12 2.57  13 2.57   1 2.57   2 2.57
                             4 2.57  15 2.57  16 2.57  17 2.57
  11  0.444  0.111  0.351-  20 2.55  21 2.55  27 2.55  10 2.57  13 2.57   2 2.57  17 2.57  14 2.57
                            12 2.57   5 2.57   3 2.57  18 2.57
  12  0.778  0.111  0.351-  21 2.54  19 2.55  25 2.55  15 2.57  10 2.57  14 2.57  18 2.57   3 2.57
                             1 2.57  16 2.57  11 2.57   6 2.57
  13  0.111  0.444  0.351-  23 2.55  20 2.55  22 2.55  16 2.57  18 2.57  10 2.57  11 2.57  14 2.57
                             5 2.57   4 2.57   7 2.57  15 2.57
  14  0.444  0.444  0.351-  21 2.55  23 2.55  24 2.55  15 2.57  17 2.57  12 2.57  16 2.57  13 2.57
                            11 2.57   6 2.57   8 2.57   5 2.57
  15  0.778  0.444  0.351-  19 2.55  24 2.55  22 2.55  14 2.57  17 2.57  12 2.57   6 2.57  18 2.57
                            10 2.57   9 2.57  13 2.57   4 2.57
  16  0.111  0.778  0.351-  23 2.54  25 2.55  26 2.55  18 2.57  13 2.57   7 2.57  14 2.57  17 2.57
                            12 2.57  10 2.57   8 2.57   1 2.57
  17  0.444  0.778  0.351-  26 2.55  27 2.55  24 2.55  14 2.57  15 2.57   8 2.57   9 2.57  11 2.57
                            16 2.57  18 2.57  10 2.57   2 2.57
  18  0.778  0.778  0.351-  25 2.55  22 2.55  27 2.55  16 2.57  13 2.57   7 2.57  15 2.57  12 2.57
                            17 2.57   9 2.57   3 2.57  11 2.57
  19  0.889  0.222  0.448-  32 2.54  31 2.54  28 2.55  15 2.55  12 2.55  10 2.55  21 2.56  20 2.56
                            22 2.56  24 2.56  25 2.57  26 2.57
  20  0.222  0.222  0.448-  10 2.54  11 2.55  13 2.55  26 2.56  19 2.56  27 2.56  22 2.56  29 2.57
                            31 2.57  23 2.58  21 2.58  36 2.62
  21  0.557  0.222  0.448-  12 2.54  14 2.55  11 2.55  19 2.56  25 2.56  24 2.56  27 2.56  32 2.57
                            30 2.57  20 2.58  23 2.58  36 2.62
  22  0.889  0.555  0.449-  35 2.54  31 2.55  33 2.55  13 2.55  18 2.55  15 2.55  23 2.56  20 2.56
                            19 2.56  25 2.56  24 2.57  27 2.57
  23  0.222  0.557  0.448-  16 2.54  13 2.55  14 2.55  25 2.56  26 2.56  22 2.56  24 2.56  33 2.57
                            34 2.57  20 2.58  21 2.58  36 2.62
  24  0.555  0.555  0.449-  35 2.54  32 2.55  34 2.55  14 2.55  15 2.55  17 2.55  21 2.56  23 2.56
                            19 2.56  26 2.56  22 2.57  27 2.57
  25  0.889  0.889  0.448-  33 2.54  30 2.54  28 2.55  18 2.55  16 2.55  12 2.55  21 2.56  23 2.56
                            22 2.56  27 2.56  19 2.57  26 2.57
  26  0.222  0.889  0.448-  29 2.54  34 2.54  28 2.55  17 2.55  10 2.55  16 2.55  20 2.56  23 2.56
                            27 2.56  24 2.56  25 2.57  19 2.57
  27  0.555  0.889  0.449-  35 2.54  29 2.55  30 2.55  11 2.55  17 2.55  18 2.55  20 2.56  21 2.56
                            26 2.56  25 2.56  24 2.57  22 2.57
  28  0.000  0.000  0.545-  25 2.55  19 2.55  26 2.55  33 2.55  30 2.55  31 2.55  29 2.55  32 2.55
                            34 2.55
  29  0.333  0.996  0.546-  34 2.51  26 2.54  28 2.55  27 2.55  35 2.55  20 2.57  31 2.59  36 2.60
                            30 2.60
  30  0.671  0.996  0.546-  33 2.51  25 2.54  28 2.55  27 2.55  35 2.55  21 2.57  32 2.59  36 2.60
                            29 2.60
  31  0.996  0.333  0.546-  32 2.51  19 2.54  28 2.55  22 2.55  35 2.55  20 2.57  29 2.59  36 2.60
                            33 2.60
  32  0.671  0.333  0.546-  31 2.51  19 2.54  28 2.55  24 2.55  35 2.55  21 2.57  30 2.59  36 2.60
                            34 2.60
  33  0.996  0.671  0.546-  30 2.51  25 2.54  28 2.55  22 2.55  35 2.55  23 2.57  34 2.59  36 2.60
                            31 2.60
  34  0.333  0.671  0.546-  29 2.51  26 2.54  28 2.55  24 2.55  35 2.55  23 2.57  33 2.59  36 2.60
                            32 2.60
  35  0.667  0.667  0.546-  24 2.54  27 2.54  22 2.54  34 2.55  32 2.55  29 2.55  30 2.55  33 2.55
                            31 2.55
  36  0.333  0.333  0.549-  37 1.86  38 1.86  31 2.60  29 2.60  33 2.60  34 2.60  32 2.60  30 2.60
                            23 2.62  20 2.62  21 2.62
  37  0.280  0.333  0.635-  38 0.82  36 1.86
  38  0.387  0.333  0.635-  37 0.82  36 1.86

  LATTYP: Found a hexagonal cell.
 ALAT       =     7.6967864036
 C/A-ratio  =     2.7653617908

  Lattice vectors:

 A1 = (  -3.8483927580,  -6.6656128093,   0.0000000000)
 A2 = (   7.6967864037,   0.0000000000,   0.0000000000)
 A3 = (   0.0000000000,   0.0000000000,  21.2843990326)

Analysis of symmetry for initial positions (statically):
 Subroutine PRICEL returns:
 Original cell was already a primitive cell.

 Routine SETGRP: Setting up the symmetry group for a
 hexagonal supercell.

 Subroutine GETGRP returns: Found  2 space group operations
 (whereof  2 operations were pure point group operations)
 out of a pool of 24 trial point group operations.

The static configuration has the point symmetry C_1h.

Analysis of symmetry for dynamics (positions and initial velocities):
 Subroutine PRICEL returns:
 Original cell was already a primitive cell.

[...]

The dynamic configuration has the point symmetry C_1h.

Analysis of constrained symmetry for selective dynamics:
 Subroutine PRICEL returns:
 Original cell was already a primitive cell.

 Routine SETGRP: Setting up the symmetry group for a
 hexagonal supercell.

 Subroutine GETGRP returns: Found  2 space group operations
[...]
     33      -3.7799      2.00000
     34      -3.7565      2.00000
     35      -3.7129      2.00000
     36      -3.6765      2.00000
     37      -3.6061      2.00000
     38      -3.4925      2.00000
     39      -3.4799      2.00000
     40      -3.4580      2.00000
     41      -3.4533      2.00000
     42      -3.4092      2.00000
     43      -3.3917      2.00000
     44      -3.3700      2.00000
     45      -3.3639      2.00000
     46      -3.3614      2.00000
     47      -3.1970      2.00000
     48      -3.1732      2.00000
     49      -3.1513      2.00000
     50      -3.1459      2.00000
     51      -3.1142      2.00000
     52      -3.0935      2.00000
     53      -3.0870      2.00000
     54      -3.0673      2.00000
     55      -3.0512      2.00000
     56      -3.0377      2.00000
     57      -3.0360      2.00000
     58      -3.0039      2.00000
     59      -2.9980      2.00000
     60      -2.9853      2.00000
[...]
    238       6.7174      0.00000
    239       6.8369      0.00000
    240       6.9287      0.00000
    241       7.0566      0.00000
    242       7.0902      0.00000
    243       7.2533      0.00000
    244       7.3701      0.00000
    245       7.4728      0.00000
    246       7.5549      0.00000
    247       7.6715      0.00000
    248       7.7895      0.00000
    249       8.0033      0.00000
    250       8.1921      0.00000
    251       8.2648      0.00000
    252       8.3506      0.00000

 soft charge-density along one line, spin component           1
         0         1         2         3         4         5         6         7         8         9
 total charge-density along one line

------------------------ aborting loop because EDIFF is reached ----------------------------------------

 total charge

# of ion       s       p       d       tot
    1        0.444   0.287   9.186   9.917
    2        0.449   0.284   9.188   9.921
    3        0.449   0.284   9.188   9.921
    4        0.449   0.284   9.188   9.922
    5        0.446   0.287   9.187   9.920
    6        0.449   0.284   9.188   9.922
    7        0.450   0.284   9.188   9.922
    8        0.450   0.284   9.188   9.922
    9        0.446   0.285   9.187   9.918
   10        0.441   0.375   9.178   9.994
   11        0.444   0.370   9.181   9.994
   12        0.441   0.375   9.178   9.994
   13        0.444   0.370   9.181   9.995
   14        0.444   0.370   9.181   9.995
   15        0.438   0.373   9.181   9.992
   16        0.441   0.375   9.178   9.994
   17        0.438   0.373   9.181   9.992
   18        0.438   0.373   9.181   9.992
   19        0.446   0.375   9.183  10.004
   20        0.439   0.379   9.178   9.997
   21        0.439   0.379   9.178   9.997
   22        0.440   0.376   9.179   9.995
   23        0.439   0.379   9.178   9.997
   24        0.440   0.376   9.179   9.995
   25        0.445   0.375   9.184  10.004
   26        0.445   0.375   9.184  10.004
   27        0.440   0.376   9.179   9.996
   28        0.455   0.293   9.191   9.939
   29        0.452   0.293   9.198   9.943
   30        0.452   0.293   9.198   9.943
   31        0.451   0.295   9.196   9.943
   32        0.451   0.295   9.196   9.943
   33        0.452   0.293   9.198   9.942
   34        0.452   0.293   9.198   9.942
   35        0.453   0.295   9.192   9.940
   36        0.498   0.538   8.549   9.585
   37        0.556   0.030   0.000   0.587
   38        0.556   0.030   0.000   0.587
tot         17.203  12.260 330.047 359.509

  FORCE on cell =-STRESS in cart. coord.  units (eV):
  Direction    XX          YY          ZZ          XY          YZ          ZX
  Alpha Z   871.46050   871.46050   871.46050
  Ewald  174742.85797174721.56105************     0.00038    -0.04058     0.00018
  Hartree187865.30987187861.74887************     0.00004     0.00187     0.00007
  E(xc)   -2305.89523 -2306.19990 -2310.16237    -0.00030    -0.00244    -0.00003
  Local  ************************376099.45906     0.01963     0.00170    -0.00070
  n-local  -759.03799  -758.88153  -776.58107     1.62330     0.00063     0.08695
  augment  3382.79563  3383.47734  3396.64262    -0.01823     0.01078     0.00022
  Kinetic  3283.94967  3290.68945  3305.21703     0.78085     0.03312    -0.13925
  Fock        0.00000     0.00000     0.00000     0.00000     0.00000     0.00000
  Total       1.87614     1.66765     6.33211    -0.00000     0.00508    -0.00000
  in kB       2.75274     2.44684     9.29070    -0.00000     0.00745    -0.00000

 VOLUME and BASIS-vectors are now :
  energy-cutoff  :      500.00
  volume of cell :     1091.97
      direct lattice vectors                 reciprocal lattice vectors
     7.696786404  0.000000000  0.000000000     0.129924354 -0.075011849  0.000000000
     3.848392758  6.665612809  0.000000000     0.000000000  0.150023716  0.000000000
     0.000000000  0.000000000 21.284399033     0.000000000  0.000000000  0.046982769

  length of vectors
     7.696786404  7.696786404 21.284399033     0.150023716  0.150023716  0.046982769

 FORCES acting on ions
    electron-ion (+dipol)            ewald-force                    non-local-force                 convergence-correction
   -.405E-04 -.101E-01 0.349E+04   0.579E-04 -.183E-02 -.349E+04   -.221E-09 0.332E-02 -.270E+01   -.259E-03 0.832E-02 -.135E+01
   -.310E+00 -.220E-01 0.349E+04   0.397E+00 0.282E+00 -.349E+04   -.330E-01 -.113E+00 -.201E+01   -.509E-01 -.136E+00 -.111E+01
   0.310E+00 -.220E-01 0.349E+04   -.398E+00 0.282E+00 -.349E+04   0.330E-01 -.113E+00 -.201E+01   0.517E-01 -.134E+00 -.111E+01
   -.192E+00 -.215E+00 0.349E+04   0.444E+00 0.203E+00 -.349E+04   -.115E+00 0.225E-01 -.199E+01   -.129E+00 -.132E-01 -.110E+01
   -.617E-04 0.483E-01 0.349E+04   0.116E-03 0.148E-03 -.349E+04   0.944E-09 -.142E-01 -.217E+01   0.122E-01 -.320E-01 -.861E+00
   0.192E+00 -.215E+00 0.349E+04   -.444E+00 0.203E+00 -.349E+04   0.115E+00 0.225E-01 -.199E+01   0.127E+00 -.119E-01 -.109E+01
   0.159E+00 0.239E+00 0.349E+04   0.467E-01 -.484E+00 -.349E+04   -.823E-01 0.934E-01 -.200E+01   -.111E+00 0.144E+00 -.109E+01
   -.158E+00 0.239E+00 0.349E+04   -.470E-01 -.484E+00 -.349E+04   0.823E-01 0.934E-01 -.200E+01   0.114E+00 0.143E+00 -.108E+01
   -.143E-03 -.570E-01 0.349E+04   0.263E-03 0.169E-02 -.349E+04   -.886E-09 0.133E-01 -.237E+01   -.133E-01 0.404E-01 -.117E+01
   -.222E+01 -.126E+01 0.118E+04   0.247E+01 0.141E+01 -.118E+04   -.195E+00 -.117E+00 -.831E+00   -.188E-01 -.140E-01 -.423E+00
   -.913E-04 -.330E+01 0.117E+04   0.191E-03 0.328E+01 -.117E+04   0.321E-08 -.482E-01 -.950E+00   0.113E-01 0.423E-01 -.272E+00
   0.222E+01 -.126E+01 0.118E+04   -.247E+01 0.141E+01 -.118E+04   0.195E+00 -.117E+00 -.831E+00   0.173E-01 -.121E-01 -.423E+00
   -.288E+01 0.167E+01 0.117E+04   0.285E+01 -.164E+01 -.117E+04   -.289E-01 0.115E-01 -.949E+00   0.434E-01 -.344E-01 -.238E+00
   0.288E+01 0.167E+01 0.117E+04   -.285E+01 -.164E+01 -.117E+04   0.289E-01 0.115E-01 -.949E+00   -.192E-01 -.349E-01 -.238E+00
   -.142E-03 -.147E+01 0.118E+04   0.298E-03 0.140E+01 -.118E+04   -.237E-08 0.356E-01 -.561E+00   -.380E-02 0.355E-01 -.433E+00
   -.921E-04 0.253E+01 0.118E+04   0.186E-03 -.285E+01 -.118E+04   -.150E-07 0.226E+00 -.829E+00   -.160E-04 0.469E-01 -.425E+00
   -.128E+01 0.699E+00 0.118E+04   0.120E+01 -.689E+00 -.118E+04   0.223E-01 -.554E-02 -.574E+00   0.519E-01 -.518E-02 -.476E+00
   0.128E+01 0.699E+00 0.118E+04   -.120E+01 -.689E+00 -.118E+04   -.223E-01 -.554E-02 -.574E+00   -.515E-01 -.267E-02 -.476E+00
   -.592E-04 -.171E+01 -.115E+04   0.688E-04 0.166E+01 0.114E+04   -.583E-09 0.875E-02 0.742E+00   0.955E-02 0.271E-01 0.406E+00
   -.271E+02 -.156E+02 -.118E+04   0.271E+02 0.156E+02 0.118E+04   -.199E+00 -.132E+00 -.634E-01   0.151E+00 0.119E+00 0.405E+00
   0.271E+02 -.156E+02 -.118E+04   -.271E+02 0.156E+02 0.118E+04   0.199E+00 -.132E+00 -.634E-01   -.129E+00 0.122E+00 0.404E+00
   -.127E+02 0.727E+01 -.116E+04   0.123E+02 -.698E+01 0.116E+04   0.340E+00 -.192E+00 0.991E+00   0.116E+00 -.105E+00 0.380E+00
   -.772E-04 0.312E+02 -.118E+04   0.149E-03 -.312E+02 0.118E+04   -.132E-07 0.198E+00 -.374E-01   0.119E-01 -.192E+00 0.433E+00
   0.127E+02 0.727E+01 -.116E+04   -.123E+02 -.698E+01 0.116E+04   -.340E+00 -.192E+00 0.991E+00   -.119E+00 -.104E+00 0.380E+00
   0.149E+01 0.910E+00 -.115E+04   -.148E+01 -.902E+00 0.114E+04   -.102E-01 -.214E-01 0.788E+00   0.227E-01 0.163E-01 0.411E+00
   -.149E+01 0.910E+00 -.115E+04   0.148E+01 -.902E+00 0.114E+04   0.102E-01 -.214E-01 0.788E+00   0.304E-03 0.144E-01 0.412E+00
   -.134E-03 -.146E+02 -.116E+04   0.245E-03 0.141E+02 0.116E+04   -.245E-07 0.368E+00 0.972E+00   -.282E-02 0.135E+00 0.362E+00
   -.222E-04 0.390E+00 -.347E+04   0.418E-04 -.411E+00 0.346E+04   0.686E-09 -.103E-01 0.197E+01   0.127E-03 0.258E-01 0.101E+01
   -.194E+02 -.310E+02 -.346E+04   0.192E+02 0.303E+02 0.346E+04   0.176E+00 0.518E+00 0.251E+01   -.504E-02 0.669E-01 0.832E+00
   0.194E+02 -.310E+02 -.346E+04   -.192E+02 0.303E+02 0.346E+04   -.176E+00 0.518E+00 0.251E+01   0.547E-02 0.695E-01 0.833E+00
   -.360E+02 -.880E+00 -.346E+04   0.354E+02 0.101E+01 0.346E+04   0.462E+00 -.903E-01 0.245E+01   0.248E-01 -.237E-01 0.858E+00
   0.360E+02 -.880E+00 -.346E+04   -.354E+02 0.101E+01 0.346E+04   -.462E+00 -.903E-01 0.245E+01   -.262E-01 -.222E-01 0.858E+00
   -.179E+02 0.319E+02 -.346E+04   0.175E+02 -.313E+02 0.346E+04   0.322E+00 -.423E+00 0.250E+01   0.459E-01 -.443E-01 0.822E+00
   0.179E+02 0.319E+02 -.346E+04   -.175E+02 -.313E+02 0.346E+04   -.322E+00 -.423E+00 0.250E+01   -.423E-01 -.453E-01 0.820E+00
   -.148E-03 -.358E+00 -.347E+04   0.255E-03 0.382E+00 0.347E+04   -.134E-08 0.201E-01 0.219E+01   -.135E-01 -.413E-01 0.106E+01
   -.618E-04 -.128E+00 -.312E+04   0.120E-03 0.129E+00 0.311E+04   -.125E-09 0.188E-02 0.301E+01   0.391E-02 0.607E-02 0.619E+00
   0.199E+02 0.129E-01 -.370E+03   -.239E+02 -.154E-01 0.371E+03   0.396E+01 0.782E-03 -.724E+00   0.932E-02 -.640E-04 0.143E-01
   -.199E+02 0.129E-01 -.370E+03   0.239E+02 -.154E-01 0.371E+03   -.396E+01 0.782E-03 -.724E+00   -.919E-02 -.526E-04 0.142E-01
   -.224E-03 0.416E-01 0.253E+01   0.135E-12 0.239E-12 0.796E-12   0.621E-08 -.932E-01 -.535E+00   0.862E-01 0.539E-01 -.204E+01

 POSITION                                       TOTAL-FORCE (eV/Angst)
      0.00000      0.00000      5.37156         0.000000     -0.000365      0.115504
      2.56560      0.00000      5.37156         0.003339      0.011301      0.089046
      5.13119      0.00000      5.37156        -0.003339      0.011301      0.089046
      1.28280      2.22187      5.37156         0.009326     -0.002162      0.089272
      3.84839      2.22187      5.37156        -0.000000      0.002253      0.055492
      6.41399      2.22187      5.37156        -0.009326     -0.002162      0.089272
      2.56560      4.44374      5.37156         0.010741     -0.008637      0.088087
      5.13119      4.44374      5.37156        -0.010741     -0.008637      0.088087
      7.69679      4.44374      5.37156         0.000000     -0.001653      0.086380
      1.28280      0.74062      7.46636         0.042874      0.025556     -0.097304
      3.84839      0.74062      7.46636         0.000000     -0.025323     -0.141053
      6.41399      0.74062      7.46636        -0.042874      0.025556     -0.097304
      2.56560      2.96249      7.46636        -0.022486      0.014285     -0.141606
      5.13119      2.96249      7.46636         0.022486      0.014285     -0.141606
      7.69679      2.96249      7.46636         0.000000     -0.001097     -0.059840
      3.84839      5.18437      7.46636         0.000000     -0.051950     -0.098251
      6.41399      5.18437      7.46636        -0.002789     -0.000356     -0.058522
      8.97958      5.18437      7.46636         0.002789     -0.000356     -0.058522
      7.69679      1.48223      9.53996         0.000000     -0.008097     -0.001290
      2.55948      1.47772      9.53985         0.029956      0.015831     -0.051111
      5.13731      1.47772      9.53985        -0.029956      0.015831     -0.051111
      8.98047      3.70261      9.54732         0.013376     -0.008964      0.016499
      3.84839      3.71018      9.53985         0.000000     -0.037002     -0.053376
      6.41310      3.70261      9.54732        -0.013376     -0.008964      0.016499
     10.26153      5.92450      9.53996         0.007952      0.002701     -0.002947
      5.13204      5.92450      9.53996        -0.007952      0.002701     -0.002947
      7.69679      5.92601      9.54732        -0.000000      0.016834      0.015832
      0.00000      0.00000     11.61018         0.000000     -0.005065     -0.024483
      6.39795      6.64100     11.62214        -0.065828     -0.126810     -0.058656
      8.99562      6.64100     11.62214         0.065828     -0.126810     -0.058656
      8.95025      2.22029     11.62214        -0.127631      0.015066     -0.047854
      6.44333      2.22029     11.62214         0.127631      0.015066     -0.047854
     10.24908      4.46994     11.62214        -0.090277      0.113836     -0.056814
      5.14449      4.46994     11.62214         0.090277      0.113836     -0.056814
      7.69679      4.44374     11.61116        -0.000000      0.002985     -0.000349
      3.84839      2.22187     11.69545        -0.000000      0.009006      0.593888
      3.43847      2.21876     13.51381        -0.030086     -0.001912     -0.012316
      4.25832      2.21876     13.51381         0.030086     -0.001912     -0.012316
    total drift:                                0.085952      0.002298     -0.045313

  FREE ENERGIE OF THE ION-ELECTRON SYSTEM (eV)
  free  energy   TOTEN  =      -134.68493913 eV

  energy  without entropy=     -134.68493913  energy(sigma->0) =     -134.68493913

 stress matrix after NEB project (eV)
      1.87614     -0.00000     -0.00000
     -0.00000      1.66765      0.00508
     -0.00000      0.00508      6.33211
  FORCES: max atom, RMS     0.032565    0.007471
  FORCE total and by dimension    0.046054    0.030086
  Stress total and by dimension    6.811510    6.332111
|           W    W    AA    RRRRR   N    N  II  N    N   GGGG   !!!           |
|           W    W   A  A   R    R  NN   N  II  NN   N  G    G  !!!           |
|           W    W  A    A  R    R  N N  N  II  N N  N  G       !!!           |
|           W WW W  AAAAAA  RRRRR   N  N N  II  N  N N  G  GGG   !            |
|           WW  WW  A    A  R   R   N   NN  II  N   NN  G    G                |
|           W    W  A    A  R    R  N    N  II  N    N   GGGG   !!!           |
|     Tetrahedron method does not include variations of the Fermi             |
|     occupations, so forces and stress will be inaccurate. We suggest        |
|     using a different smearing scheme ISMEAR = 1 or 2 for metals in         |
|     relaxations.                                                            |

 total charge

# of ion       s       p       d       tot
    1        0.444   0.287   9.186   9.917
    2        0.449   0.284   9.188   9.921
    3        0.449   0.284   9.188   9.921
    4        0.449   0.284   9.188   9.922
    5        0.446   0.287   9.187   9.920
    6        0.449   0.284   9.188   9.922
    7        0.450   0.284   9.188   9.922
    8        0.450   0.284   9.188   9.922
    9        0.446   0.285   9.187   9.918
   10        0.441   0.375   9.178   9.994
   11        0.444   0.370   9.181   9.994
   12        0.441   0.375   9.178   9.994
   13        0.444   0.370   9.181   9.995
   14        0.444   0.370   9.181   9.995
   15        0.438   0.373   9.181   9.992
   16        0.441   0.375   9.178   9.994
   17        0.438   0.373   9.181   9.992
   18        0.438   0.373   9.181   9.992
   19        0.446   0.375   9.183  10.004
   20        0.439   0.379   9.178   9.997
   21        0.439   0.379   9.178   9.997
   22        0.440   0.376   9.179   9.995
   23        0.439   0.379   9.178   9.997
   24        0.440   0.376   9.179   9.995
   25        0.445   0.375   9.184  10.004
   26        0.445   0.375   9.184  10.004
   27        0.440   0.376   9.179   9.996
   28        0.455   0.293   9.191   9.939
   29        0.452   0.293   9.198   9.943
   30        0.452   0.293   9.198   9.943
   31        0.451   0.295   9.196   9.943
   32        0.451   0.295   9.196   9.943
   33        0.452   0.293   9.198   9.942
   34        0.452   0.293   9.198   9.942
   35        0.453   0.295   9.192   9.940
   36        0.498   0.538   8.549   9.585
   37        0.556   0.030   0.000   0.587
   38        0.556   0.030   0.000   0.587
tot         17.203  12.260 330.047 359.509

 BZINTS: Fermi energy:    0.257876;  397.000000 electrons
         Band energy:-0.100467E+04;  BLOECHL correction:   -0.059236