 vasp.6.2.0 18Jan21 (build Jun 12 2021 23:27:24) complex

 executed on             LinuxIFC date 2022.05.30  18:09:33

 INCAR:
   ISMEAR = -5
   SIGMA = 0.1
   ISPIN = 1
   EDIFF = 1.d-5
   EDIFFG = -0.01
   NSW = 0
   NELM = 150
   ENCUT = 500
   ISIF = 2
   IBRION = 2
   LREAL = Auto
   ALGO = Fast
   ICHARG = 11
   LORBIT = 10
   LCHARG = .F.
   LWAVE = .F.

 POTCAR:    PAW_PBE Cu 22Jun2005
 POTCAR:    PAW_PBE Mo 08Apr2002
 POTCAR:    PAW_PBE C 08Apr2002
 POTCAR:    PAW_PBE O 08Apr2002
 POTCAR:    PAW_PBE H 15Jun2001
|           W    W    AA    RRRRR   N    N  II  N    N   GGGG   !!!           |
|           W    W   A  A   R    R  NN   N  II  NN   N  G    G  !!!           |
|           W    W  A    A  R    R  N N  N  II  N N  N  G       !!!           |
|           W WW W  AAAAAA  RRRRR   N  N N  II  N  N N  G  GGG   !            |
|           WW  WW  A    A  R   R   N   NN  II  N   NN  G    G                |
|           W    W  A    A  R    R  N    N  II  N    N   GGGG   !!!           |
|     For optimal performance we recommend to set                             |
|       NCORE = 2 up to number-of-cores-per-socket                            |
|     This setting can greatly improve the performance of VASP for DFT.       |
|     The default, NCORE=1 might be grossly inefficient on modern             |
|     multi-core architectures or massively parallel machines. Do your        |
|     Unfortunately you need to use the default for GW and RPA                |
|     calculations (for HF NCORE is supported but not extensively tested      |
|     yet).                                                                   |

 POTCAR:    PAW_PBE Cu 22Jun2005
   VRHFIN =Cu: d10 p1

   TITEL  = PAW_PBE Cu 22Jun2005
   POMASS =   63.546; ZVAL   =   11.000    mass and valenz
   ENMAX  =  295.446; ENMIN  =  221.585 eV

 POTCAR:    PAW_PBE Mo 08Apr2002
   VRHFIN =Mo: 4p5s4d

   TITEL  = PAW_PBE Mo 08Apr2002
   POMASS =   95.940; ZVAL   =    6.000    mass and valenz
   ENMAX  =  224.584; ENMIN  =  168.438 eV

 POTCAR:    PAW_PBE C 08Apr2002
   VRHFIN =C: s2p2

[...]

 POTCAR:    PAW_PBE O 08Apr2002
   VRHFIN =O: s2p4

   TITEL  = PAW_PBE O 08Apr2002
   POMASS =   16.000; ZVAL   =    6.000    mass and valenz
   ENMAX  =  400.000; ENMIN  =  300.000 eV

 POTCAR:    PAW_PBE H 15Jun2001
   VRHFIN =H: ultrasoft test

   TITEL  = PAW_PBE H 15Jun2001
   POMASS =    1.000; ZVAL   =    1.000    mass and valenz
   ENMAX  =  250.000; ENMIN  =  200.000 eV

 Optimization of the real space projectors (new method)

 maximal supplied QI-value         = 16.25
 optimisation between [QCUT,QGAM] = [ 11.38, 22.75] = [ 36.24,144.96] Ry
 Optimized for a Real-space Cutoff    1.52 Angstroem

   l    n(q)    QCUT    max X(q) W(low)/X(q) W(high)/X(q)  e(spline)
   2      9    11.376     4.610    0.21E-03    0.10E-03    0.26E-06
   2      9    11.376     8.522    0.33E-03    0.16E-03    0.37E-06
   0     10    11.376    51.609    0.62E-04    0.20E-04    0.13E-06
   0     10    11.376    27.747    0.54E-04    0.20E-04    0.13E-06
   1     10    11.376    20.408    0.13E-04    0.99E-04    0.19E-06
   1     10    11.376    13.425    0.12E-04    0.87E-04    0.17E-06
 Optimization of the real space projectors (new method)

[...]

   l    n(q)    QCUT    max X(q) W(low)/X(q) W(high)/X(q)  e(spline)
   0      7    11.387    20.381    0.39E-03    0.13E-02    0.15E-06
   0      7    11.387    15.268    0.42E-03    0.14E-02    0.17E-06
   1      6    11.387     5.964    0.41E-03    0.11E-02    0.17E-06
   1      6    11.387     5.382    0.39E-03    0.87E-03    0.15E-06
 Optimization of the real space projectors (new method)

 maximal supplied QI-value         = 34.20
 optimisation between [QCUT,QGAM] = [ 11.29, 22.57] = [ 35.68,142.71] Ry
 Optimized for a Real-space Cutoff    1.16 Angstroem

   l    n(q)    QCUT    max X(q) W(low)/X(q) W(high)/X(q)  e(spline)
   0      8    11.287    19.460    0.40E-03    0.73E-03    0.16E-06
   0      8    11.287    12.209    0.38E-03    0.70E-03    0.15E-06
   1      7    11.287     4.655    0.22E-03    0.25E-04    0.22E-06
  PAW_PBE Cu 22Jun2005                  :
  PAW_PBE Mo 08Apr2002                  :
  PAW_PBE C 08Apr2002                   :
  PAW_PBE O 08Apr2002                   :
  PAW_PBE H 15Jun2001                   :

 POSCAR: Cu-Mo-COH
  positions in direct lattice
  velocities in cartesian coordinates
 exchange correlation table for  LEXCH =        8
   RHO(1)=    0.500       N(1)  =     2000
   RHO(2)=  100.500       N(2)  =     4000

 VTST: version 3.2, (02/03/18)

 CHAIN: initializing optimizer

 OPT: Using VASP Conjugate-Gradient optimizer
 CHAIN: Read ICHAIN            0

 POSCAR: Cu-Mo-COH
  positions in direct lattice
  velocities in cartesian coordinates

 ion  position               nearest neighbor table
   1  0.000  0.000  0.206-   7 2.57   3 2.57   4 2.57   2 2.57   6 2.57   8 2.57  12 2.57  10 2.57
                            16 2.57
   2  0.333  0.000  0.206-   8 2.57   9 2.57   5 2.57   1 2.57   3 2.57  11 2.57   4 2.57  10 2.57
                            17 2.57
   3  0.667  0.000  0.206-   1 2.57   7 2.57   6 2.57   9 2.57   2 2.57  12 2.57   5 2.57  18 2.57
                            11 2.57
   4  0.000  0.333  0.206-   5 2.57   6 2.57   1 2.57   7 2.57   2 2.57  13 2.57   9 2.57  10 2.57
                            15 2.57
   5  0.333  0.333  0.206-   4 2.57   2 2.57   7 2.57  13 2.57   8 2.57   6 2.57   3 2.57  11 2.57
                            14 2.57
   6  0.667  0.333  0.206-   4 2.57   9 2.57  15 2.57   3 2.57   1 2.57   8 2.57  14 2.57   5 2.57
                            12 2.57
   7  0.000  0.667  0.206-   1 2.57   3 2.57  16 2.57  18 2.57   4 2.57   5 2.57   8 2.57   9 2.57
                            13 2.57
   8  0.333  0.667  0.206-   9 2.57   2 2.57  17 2.57   6 2.57   1 2.57   7 2.57   5 2.57  14 2.57
                            16 2.57
   9  0.667  0.667  0.206-   8 2.57   6 2.57   2 2.57  17 2.57   3 2.57   7 2.57   4 2.57  15 2.57
                            18 2.57
  10  0.111  0.111  0.286-  20 2.55  26 2.56  19 2.56  11 2.57  12 2.57  13 2.57   1 2.57   2 2.57
                             4 2.57  15 2.57  16 2.57  17 2.57
  11  0.444  0.111  0.286-  20 2.56  21 2.56  10 2.57  13 2.57   2 2.57  17 2.57  14 2.57  12 2.57
                             5 2.57   3 2.57  18 2.57  27 2.57
  12  0.778  0.111  0.286-  21 2.55  19 2.56  25 2.56  15 2.57  10 2.57  14 2.57  18 2.57   3 2.57
                             1 2.57  16 2.57  11 2.57   6 2.57
  13  0.111  0.444  0.286-  23 2.56  20 2.56  16 2.57  18 2.57  10 2.57  11 2.57  14 2.57   5 2.57
                             4 2.57   7 2.57  15 2.57  22 2.57
  14  0.444  0.444  0.286-  21 2.56  23 2.56  15 2.57  17 2.57  12 2.57  16 2.57  13 2.57  11 2.57
                             6 2.57   8 2.57   5 2.57  24 2.57
  15  0.778  0.444  0.286-  19 2.56  14 2.57  17 2.57  12 2.57   6 2.57  18 2.57  10 2.57   9 2.57
                            13 2.57   4 2.57  24 2.57  22 2.57
  16  0.111  0.778  0.286-  23 2.55  25 2.56  26 2.56  18 2.57  13 2.57   7 2.57  14 2.57  17 2.57
                            12 2.57  10 2.57   8 2.57   1 2.57
  17  0.444  0.778  0.286-  26 2.56  14 2.57  15 2.57   8 2.57   9 2.57  11 2.57  16 2.57  18 2.57
                            10 2.57   2 2.57  27 2.57  24 2.57
  18  0.778  0.778  0.286-  25 2.56  16 2.57  13 2.57   7 2.57  15 2.57  12 2.57  17 2.57   9 2.57
                             3 2.57  11 2.57  22 2.57  27 2.57
  19  0.889  0.222  0.366-  15 2.56  12 2.56  10 2.56  21 2.56  20 2.56  22 2.57  24 2.57  25 2.57
                            26 2.57  28 2.57  32 2.58  31 2.58
  20  0.222  0.222  0.365-  10 2.55  11 2.56  13 2.56  26 2.56  19 2.56  27 2.57  22 2.57  23 2.57
                            21 2.57  36 2.58  29 2.60  31 2.60
  21  0.556  0.222  0.365-  12 2.55  14 2.56  11 2.56  19 2.56  25 2.56  24 2.57  27 2.57  20 2.57
                            23 2.57  36 2.58  32 2.60  30 2.60
  22  0.888  0.556  0.366-  24 2.56  27 2.56  35 2.56  19 2.57  25 2.57  23 2.57  20 2.57  18 2.57
                            15 2.57  13 2.57  31 2.58  33 2.58
  23  0.222  0.556  0.365-  16 2.55  13 2.56  14 2.56  25 2.56  26 2.56  22 2.57  24 2.57  20 2.57
                            21 2.57  36 2.58  33 2.60  34 2.60
  24  0.556  0.556  0.366-  22 2.56  27 2.56  35 2.56  19 2.57  26 2.57  21 2.57  23 2.57  15 2.57
                            17 2.57  14 2.57  32 2.58  34 2.58
  25  0.889  0.889  0.366-  18 2.56  12 2.56  16 2.56  21 2.56  23 2.56  22 2.57  27 2.57  19 2.57
                            26 2.57  28 2.57  33 2.58  30 2.58
  26  0.222  0.889  0.366-  17 2.56  10 2.56  16 2.56  20 2.56  23 2.56  27 2.57  24 2.57  25 2.57
                            19 2.57  28 2.57  29 2.58  34 2.58
  27  0.556  0.888  0.366-  24 2.56  22 2.56  35 2.56  26 2.57  25 2.57  20 2.57  21 2.57  17 2.57
                            18 2.57  11 2.57  29 2.58  30 2.58
  28  0.000  0.000  0.446-  33 2.56  30 2.56  31 2.56  29 2.56  32 2.56  34 2.56  25 2.57  19 2.57
                            26 2.57
  29  0.333  0.998  0.447-  34 2.54  28 2.56  35 2.56  27 2.58  31 2.58  26 2.58  36 2.58  30 2.58
                            20 2.60
  30  0.669  0.998  0.447-  33 2.54  28 2.56  35 2.56  27 2.58  32 2.58  25 2.58  36 2.58  29 2.58
                            21 2.60
  31  0.998  0.333  0.447-  32 2.54  28 2.56  35 2.56  22 2.58  29 2.58  19 2.58  36 2.58  33 2.58
                            20 2.60
  32  0.669  0.333  0.447-  31 2.54  28 2.56  35 2.56  24 2.58  30 2.58  19 2.58  36 2.58  34 2.58
                            21 2.60
  33  0.998  0.669  0.447-  30 2.54  28 2.56  35 2.56  22 2.58  34 2.58  25 2.58  36 2.58  31 2.58
                            23 2.60
  34  0.333  0.669  0.447-  29 2.54  28 2.56  35 2.56  24 2.58  33 2.58  26 2.58  36 2.58  32 2.58
                            23 2.60
  35  0.667  0.667  0.446-  34 2.56  32 2.56  29 2.56  30 2.56  33 2.56  31 2.56  24 2.56  27 2.56
                            22 2.56
  36  0.333  0.333  0.446-  37 1.85  23 2.58  20 2.58  21 2.58  31 2.58  29 2.58  33 2.58  34 2.58
                            32 2.58  30 2.58
  37  0.333  0.333  0.517-  38 1.27  36 1.85
  38  0.333  0.333  0.565-  39 0.96  37 1.27
  39  0.333  0.333  0.602-  38 0.96

  LATTYP: Found a hexagonal cell.
 ALAT       =     7.6967864036
 C/A-ratio  =     3.3950614187

  Lattice vectors:

 A1 = (  -3.8483927580,  -6.6656128093,   0.0000000000)
 A2 = (   7.6967864037,   0.0000000000,   0.0000000000)
 A3 = (   0.0000000000,   0.0000000000,  26.1310625667)

Analysis of symmetry for initial positions (statically):
 Subroutine PRICEL returns:
 Original cell was already a primitive cell.

 Routine SETGRP: Setting up the symmetry group for a
 hexagonal supercell.

 Subroutine GETGRP returns: Found  6 space group operations
 (whereof  6 operations were pure point group operations)
 out of a pool of 24 trial point group operations.

The static configuration has the point symmetry C_3v.

Analysis of symmetry for dynamics (positions and initial velocities):
 Subroutine PRICEL returns:
 Original cell was already a primitive cell.

[...]

[...]
     41      -4.0539      2.00000
     42      -3.9243      2.00000
     43      -3.9142      2.00000
     44      -3.8721      2.00000
     45      -3.8454      2.00000
     46      -3.8354      2.00000
     47      -3.8186      2.00000
     48      -3.8045      2.00000
     49      -3.8020      2.00000
     50      -3.7943      2.00000
     51      -3.6117      2.00000
     52      -3.5950      2.00000
     53      -3.5901      2.00000
     54      -3.5768      2.00000
     55      -3.5279      2.00000
     56      -3.5210      2.00000
     57      -3.5077      2.00000
     58      -3.5010      2.00000
     59      -3.4906      2.00000
     60      -3.4847      2.00000
[...]
    238       5.1876      0.00000
    239       5.4204      0.00000
    240       5.4845      0.00000
    241       5.5167      0.00000
    242       5.5367      0.00000
    243       5.6397      0.00000
    244       5.6786      0.00000
    245       5.8595      0.00000
    246       5.8831      0.00000
    247       5.9180      0.00000
    248       6.0230      0.00000
    249       6.1810      0.00000
    250       6.2683      0.00000
    251       6.7919      0.00000
    252       6.9059      0.00000

 soft charge-density along one line, spin component           1
         0         1         2         3         4         5         6         7         8         9
 total charge-density along one line

------------------------ aborting loop because EDIFF is reached ----------------------------------------

 total charge

# of ion       s       p       d       tot
    1        0.448   0.284   9.190   9.922
    2        0.450   0.286   9.185   9.921
    3        0.450   0.286   9.185   9.921
    4        0.450   0.286   9.185   9.921
    5        0.448   0.288   9.180   9.916
    6        0.450   0.286   9.185   9.921
    7        0.450   0.286   9.185   9.921
    8        0.450   0.286   9.185   9.921
    9        0.448   0.284   9.190   9.921
   10        0.442   0.372   9.175   9.989
   11        0.444   0.365   9.183   9.992
   12        0.442   0.372   9.175   9.989
   13        0.444   0.365   9.183   9.992
   14        0.444   0.365   9.183   9.992
   15        0.436   0.371   9.176   9.983
   16        0.442   0.372   9.175   9.989
   17        0.436   0.371   9.176   9.983
   18        0.436   0.371   9.176   9.983
   19        0.442   0.368   9.181   9.991
   20        0.463   0.392   9.167  10.022
   21        0.463   0.392   9.167  10.022
   22        0.429   0.374   9.179   9.982
   23        0.463   0.392   9.167  10.022
   24        0.429   0.374   9.179   9.982
   25        0.442   0.368   9.181   9.991
   26        0.442   0.368   9.181   9.991
   27        0.429   0.374   9.179   9.982
   28        0.448   0.293   9.187   9.928
   29        0.466   0.312   9.170   9.948
   30        0.466   0.312   9.170   9.948
   31        0.466   0.312   9.170   9.948
   32        0.466   0.312   9.170   9.948
   33        0.466   0.312   9.170   9.948
   34        0.466   0.312   9.170   9.948
   35        0.446   0.297   9.183   9.926
   36        0.523   0.573   4.520   5.616
   37        0.926   1.433   0.000   2.359
   38        1.522   3.764   0.000   5.286
   39        0.567   0.138   0.000   0.705
tot         19.240  17.663 325.766 362.669

  FORCE on cell =-STRESS in cart. coord.  units (eV):
  Direction    XX          YY          ZZ          XY          YZ          ZX
  Alpha Z   745.89969   745.89969   745.89969
  Ewald  267195.03202267195.03165************     0.00038     0.00013     0.00017
  Hartree280086.07238280086.07239************     0.00003     0.00007     0.00006
  E(xc)   -2322.47368 -2322.47327 -2326.81652    -0.00036    -0.00003    -0.00005
  Local  ************************560047.36964     0.01894    -0.00062    -0.00096
  n-local  -805.36184  -791.35978  -810.24932     6.99360    -0.13081     0.32139
  augment  3323.74060  3323.76097  3344.26194    -0.01764     0.00030     0.00053
  Kinetic  3419.29748  3424.78521  3388.78738     3.49202     1.75964    -1.23395
  Fock        0.00000     0.00000     0.00000     0.00000     0.00000     0.00000
  Total      -4.38657    -4.38657     1.99998     0.00000     0.00000    -0.00000
  in kB      -5.24239    -5.24239     2.39017     0.00000     0.00000    -0.00000

 VOLUME and BASIS-vectors are now :
  energy-cutoff  :      500.00
  volume of cell :     1340.62
      direct lattice vectors                 reciprocal lattice vectors
     7.696786404  0.000000000  0.000000000     0.129924354 -0.075011849  0.000000000
     3.848392758  6.665612809  0.000000000     0.000000000  0.150023716  0.000000000
     0.000000000  0.000000000 26.131062567     0.000000000  0.000000000  0.038268631

  length of vectors
     7.696786404  7.696786404 26.131062567     0.150023716  0.150023716  0.038268631

 FORCES acting on ions
    electron-ion (+dipol)            ewald-force                    non-local-force                 convergence-correction
   -.437E-04 -.106E-05 0.392E+04   0.581E-04 -.430E-05 -.392E+04   -.101E-16 -.733E-17 -.271E+01   -.354E-03 -.171E-03 0.743E-01
   -.737E+00 -.228E+00 0.392E+04   0.640E+00 0.352E+00 -.391E+04   0.716E-01 0.338E-01 -.178E+01   0.367E-01 -.129E+00 0.134E+00
   0.737E+00 -.228E+00 0.392E+04   -.640E+00 0.352E+00 -.391E+04   -.716E-01 0.338E-01 -.178E+01   -.358E-01 -.126E+00 0.135E+00
   -.566E+00 -.524E+00 0.392E+04   0.625E+00 0.378E+00 -.391E+04   0.651E-01 0.452E-01 -.178E+01   -.931E-01 0.961E-01 0.134E+00
   -.696E-04 -.793E-05 0.391E+04   0.116E-03 -.101E-04 -.391E+04   0.118E-17 0.216E-17 -.156E+01   0.121E-01 0.742E-02 0.182E+00
   0.566E+00 -.524E+00 0.392E+04   -.625E+00 0.378E+00 -.391E+04   -.651E-01 0.452E-01 -.178E+01   0.915E-01 0.972E-01 0.135E+00
   0.171E+00 0.752E+00 0.392E+04   -.150E-01 -.730E+00 -.391E+04   -.658E-02 -.789E-01 -.178E+01   -.127E+00 0.321E-01 0.135E+00
   -.171E+00 0.752E+00 0.392E+04   0.147E-01 -.730E+00 -.391E+04   0.658E-02 -.789E-01 -.178E+01   0.131E+00 0.306E-01 0.135E+00
   -.145E-03 -.337E-04 0.392E+04   0.263E-03 0.204E-04 -.391E+04   -.495E-18 -.155E-17 -.245E+01   -.131E-01 -.678E-02 0.983E-01
   -.353E+01 -.204E+01 0.134E+04   0.398E+01 0.230E+01 -.134E+04   -.467E+00 -.270E+00 -.110E+01   0.197E-01 0.113E-01 0.954E-02
   -.903E-04 -.386E+01 0.133E+04   0.190E-03 0.346E+01 -.133E+04   -.203E-07 0.305E+00 -.499E+00   0.120E-01 0.541E-01 0.245E-01
   0.353E+01 -.204E+01 0.134E+04   -.398E+01 0.230E+01 -.134E+04   0.467E+00 -.270E+00 -.110E+01   -.213E-01 0.124E-01 0.956E-02
   -.334E+01 0.193E+01 0.133E+04   0.299E+01 -.173E+01 -.133E+04   0.264E+00 -.152E+00 -.499E+00   0.533E-01 -.158E-01 0.245E-01
   0.334E+01 0.193E+01 0.133E+04   -.299E+01 -.173E+01 -.133E+04   -.264E+00 -.152E+00 -.499E+00   -.295E-01 -.174E-01 0.225E-01
   -.140E-03 -.236E+01 0.134E+04   0.297E-03 0.220E+01 -.134E+04   -.922E-08 0.139E+00 -.978E+00   -.338E-02 0.298E-01 -.134E-01
   -.915E-04 0.408E+01 0.134E+04   0.186E-03 -.460E+01 -.134E+04   -.359E-07 0.540E+00 -.110E+01   -.835E-03 -.259E-01 0.950E-02
   -.204E+01 0.118E+01 0.134E+04   0.190E+01 -.110E+01 -.134E+04   0.120E+00 -.693E-01 -.978E+00   0.248E-01 -.178E-01 -.135E-01
   0.204E+01 0.118E+01 0.134E+04   -.190E+01 -.110E+01 -.134E+04   -.120E+00 -.693E-01 -.978E+00   -.232E-01 -.151E-01 -.115E-01
   -.667E-04 -.633E+01 -.123E+04   0.708E-04 0.620E+01 0.123E+04   -.321E-08 0.482E-01 0.107E+01   -.108E-01 0.789E-01 -.165E+00
   -.466E+02 -.269E+02 -.128E+04   0.472E+02 0.272E+02 0.128E+04   -.102E+01 -.588E+00 -.437E+00   0.153E+00 0.881E-01 0.103E+00
   0.466E+02 -.269E+02 -.128E+04   -.472E+02 0.272E+02 0.128E+04   0.102E+01 -.588E+00 -.437E+00   -.172E+00 0.865E-01 0.102E+00
   -.242E+02 0.140E+02 -.125E+04   0.236E+02 -.136E+02 0.125E+04   0.546E+00 -.315E+00 0.882E+00   0.144E+00 -.818E-01 -.930E-01
   -.861E-04 0.538E+02 -.128E+04   0.150E-03 -.544E+02 0.128E+04   -.783E-07 0.118E+01 -.437E+00   -.121E-01 -.193E+00 0.102E+00
   0.242E+02 0.140E+02 -.125E+04   -.236E+02 -.136E+02 0.125E+04   -.546E+00 -.315E+00 0.882E+00   -.142E+00 -.831E-01 -.930E-01
   0.548E+01 0.316E+01 -.123E+04   -.537E+01 -.310E+01 0.123E+04   -.417E-01 -.241E-01 0.107E+01   -.846E-01 -.488E-01 -.165E+00
   -.548E+01 0.316E+01 -.123E+04   0.537E+01 -.310E+01 0.123E+04   0.417E-01 -.241E-01 0.107E+01   0.633E-01 -.486E-01 -.165E+00
   -.125E-03 -.280E+02 -.125E+04   0.240E-03 0.272E+02 0.125E+04   -.420E-07 0.631E+00 0.882E+00   0.109E-02 0.166E+00 -.928E-01
   -.397E-04 0.154E-04 -.376E+04   0.406E-04 -.326E-04 0.375E+04   0.814E-17 -.286E-17 0.207E+01   -.251E-03 -.924E-04 0.332E+00
   -.276E+02 -.497E+02 -.374E+04   0.280E+02 0.500E+02 0.374E+04   -.551E+00 -.639E+00 0.179E+01   0.897E-01 0.215E+00 0.324E+00
   0.276E+02 -.496E+02 -.374E+04   -.280E+02 0.500E+02 0.374E+04   0.551E+00 -.639E+00 0.179E+01   -.887E-01 0.216E+00 0.323E+00
   -.568E+02 0.939E+00 -.374E+04   0.573E+02 -.741E+00 0.374E+04   -.829E+00 -.158E+00 0.179E+01   0.231E+00 -.297E-01 0.324E+00
   0.568E+02 0.939E+00 -.374E+04   -.573E+02 -.741E+00 0.374E+04   0.829E+00 -.158E+00 0.179E+01   -.231E+00 -.290E-01 0.325E+00
   -.292E+02 0.487E+02 -.374E+04   0.293E+02 -.493E+02 0.374E+04   -.278E+00 0.797E+00 0.179E+01   0.143E+00 -.185E+00 0.323E+00
   0.292E+02 0.487E+02 -.374E+04   -.293E+02 -.493E+02 0.374E+04   0.278E+00 0.797E+00 0.179E+01   -.140E+00 -.185E+00 0.325E+00
   -.145E-03 -.236E-04 -.377E+04   0.253E-03 0.220E-05 0.377E+04   0.569E-17 0.117E-17 0.238E+01   -.126E-01 -.642E-02 0.379E+00
   -.292E-04 -.865E-05 -.192E+04   0.738E-04 0.151E-04 0.192E+04   -.652E-17 -.832E-18 -.104E+01   0.672E-03 0.397E-03 0.109E+00
   -.568E-05 -.726E-04 -.144E+04   0.102E-04 0.488E-05 0.142E+04   -.703E-18 0.443E-19 0.202E+02   0.938E-03 0.567E-03 -.708E-01
   0.228E-03 -.718E-04 -.225E+04   0.219E-05 0.222E-05 0.225E+04   0.165E-18 -.367E-18 -.387E+01   0.332E-02 0.203E-02 -.396E-01
   0.311E-05 -.143E-04 -.406E+03   0.653E-07 0.147E-06 0.415E+03   0.500E-20 -.159E-19 -.870E+01   0.174E-03 0.106E-03 -.706E-02
   -.105E-03 -.193E-03 -.471E+01   -.866E-13 -.223E-12 0.185E-10   0.332E-15 -.111E-15 0.125E+01   -.316E-01 -.212E-01 0.340E+01

 POSITION                                       TOTAL-FORCE (eV/Angst)
      0.00000      0.00000      5.37156        -0.000000     -0.000000     -0.019142
      2.56560      0.00000      5.37156         0.011401      0.030512      0.055969
      5.13119      0.00000      5.37156        -0.011401      0.030512      0.055969
      1.28280      2.22187      5.37156         0.032125     -0.005382      0.055969
      3.84839      2.22187      5.37156        -0.000000     -0.000000      0.031569
      6.41399      2.22187      5.37156        -0.032125     -0.005382      0.055969
      2.56560      4.44374      5.37156         0.020723     -0.025130      0.055969
      5.13119      4.44374      5.37156        -0.020723     -0.025130      0.055969
      7.69679      4.44374      5.37156        -0.000000     -0.000000      0.016548
      1.28280      0.74062      7.46636         0.003262      0.001883     -0.081869
      3.84839      0.74062      7.46636         0.000000     -0.051885     -0.043706
      6.41399      0.74062      7.46636        -0.003262      0.001883     -0.081869
      2.56560      2.96249      7.46636        -0.044934      0.025943     -0.043706
      5.13119      2.96249      7.46636         0.044934      0.025943     -0.043706
      7.69679      2.96249      7.46636        -0.000000      0.009217      0.018191
      3.84839      5.18437      7.46636         0.000000     -0.003767     -0.081869
      6.41399      5.18437      7.46636         0.007982     -0.004608      0.018191
      8.97958      5.18437      7.46636        -0.007982     -0.004608      0.018191
      7.69679      1.48128      9.55134        -0.000000      0.002608      0.069434
      2.56091      1.47854      9.54628        -0.264939     -0.152962     -0.422409
      5.13587      1.47854      9.54628         0.264939     -0.152962     -0.422409
      8.97673      3.70477      9.56818         0.050840     -0.029352      0.012516
      3.84839      3.70853      9.54628        -0.000000      0.305925     -0.422409
      6.41684      3.70477      9.56818        -0.050840     -0.029352      0.012516
     10.26235      5.92497      9.55134        -0.002258     -0.001304      0.069434
      5.13122      5.92497      9.55134         0.002258     -0.001304      0.069434
      7.69679      5.92169      9.56818        -0.000000      0.058705      0.012516
      0.00000      0.00000     11.64671        -0.000000     -0.000000     -0.128324
      6.40484      6.65345     11.67351        -0.024707     -0.062955      0.006033
      8.98873      6.65345     11.67351         0.024707     -0.062955      0.006033
      8.96447      2.22003     11.67351        -0.066874      0.010080      0.006033
      6.42910      2.22003     11.67351         0.066874      0.010080      0.006033
     10.25642      4.45775     11.67351        -0.042167      0.052874      0.006033
      5.13715      4.45775     11.67351         0.042167      0.052874      0.006033
      7.69679      4.44374     11.65978        -0.000000     -0.000000     -0.119227
      3.84839      2.22187     11.64991        -0.000000     -0.000000      1.171231
      3.84839      2.22187     13.49804        -0.000000     -0.000000      0.028775
      3.84839      2.22187     14.76610        -0.000000     -0.000000     -0.017123
      3.84839      2.22187     15.72209        -0.000000     -0.000000      0.007214
    total drift:                               -0.031739     -0.021406     -0.061424

  FREE ENERGIE OF THE ION-ELECTRON SYSTEM (eV)
  free  energy   TOTEN  =      -149.45774652 eV

  energy  without entropy=     -149.45774652  energy(sigma->0) =     -149.45774652

 stress matrix after NEB project (eV)
     -4.38657      0.00000     -0.00000
      0.00000     -4.38657     -0.00000
     -0.00000      0.00000      1.99998
  FORCES: max atom, RMS     0.028775    0.005485
  FORCE total and by dimension    0.034252    0.028775
  Stress total and by dimension    6.517968    4.386570
|           W    W    AA    RRRRR   N    N  II  N    N   GGGG   !!!           |
|           W    W   A  A   R    R  NN   N  II  NN   N  G    G  !!!           |
|           W    W  A    A  R    R  N N  N  II  N N  N  G       !!!           |
|           W WW W  AAAAAA  RRRRR   N  N N  II  N  N N  G  GGG   !            |
|           WW  WW  A    A  R   R   N   NN  II  N   NN  G    G                |
|           W    W  A    A  R    R  N    N  II  N    N   GGGG   !!!           |
|     Tetrahedron method does not include variations of the Fermi             |
|     occupations, so forces and stress will be inaccurate. We suggest        |
|     using a different smearing scheme ISMEAR = 1 or 2 for metals in         |
|     relaxations.                                                            |

 total charge

# of ion       s       p       d       tot
    1        0.448   0.284   9.190   9.922
    2        0.450   0.286   9.185   9.921
    3        0.450   0.286   9.185   9.921
    4        0.450   0.286   9.185   9.921
    5        0.448   0.288   9.180   9.916
    6        0.450   0.286   9.185   9.921
    7        0.450   0.286   9.185   9.921
    8        0.450   0.286   9.185   9.921
    9        0.448   0.284   9.190   9.921
   10        0.442   0.372   9.175   9.989
   11        0.444   0.365   9.183   9.992
   12        0.442   0.372   9.175   9.989
   13        0.444   0.365   9.183   9.992
   14        0.444   0.365   9.183   9.992
   15        0.436   0.371   9.176   9.983
   16        0.442   0.372   9.175   9.989
   17        0.436   0.371   9.176   9.983
   18        0.436   0.371   9.176   9.983
   19        0.442   0.368   9.181   9.991
   20        0.463   0.392   9.167  10.022
   21        0.463   0.392   9.167  10.022
   22        0.429   0.374   9.179   9.982
   23        0.463   0.392   9.167  10.022
   24        0.429   0.374   9.179   9.982
   25        0.442   0.368   9.181   9.991
   26        0.442   0.368   9.181   9.991
   27        0.429   0.374   9.179   9.982
   28        0.448   0.293   9.187   9.928
   29        0.466   0.312   9.170   9.948
   30        0.466   0.312   9.170   9.948
   31        0.466   0.312   9.170   9.948
   32        0.466   0.312   9.170   9.948
   33        0.466   0.312   9.170   9.948
   34        0.466   0.312   9.170   9.948
   35        0.446   0.297   9.183   9.926
   36        0.523   0.573   4.520   5.616
   37        0.926   1.433   0.000   2.359
   38        1.522   3.764   0.000   5.286
   39        0.567   0.138   0.000   0.705
tot         19.240  17.663 325.766 362.669

 BZINTS: Fermi energy:   -0.120018;  402.000000 electrons
         Band energy:-0.127894E+04;  BLOECHL correction:   -0.036684