 vasp.6.2.0 18Jan21 (build Jun 12 2021 23:27:24) complex

 executed on             LinuxIFC date 2022.05.27  05:33:56

 INCAR:
   ISMEAR = -5
   SIGMA = 0.1
   ISPIN = 1
   EDIFF = 1.d-5
   EDIFFG = -0.01
   NSW = 0
   NELM = 150
   ENCUT = 500
   ISIF = 2
   IBRION = 2
   LREAL = Auto
   ALGO = Fast
   ICHARG = 11
   LORBIT = 10
   LCHARG = .F.
   LWAVE = .F.

 POTCAR:    PAW_PBE Ag 02Apr2005
 POTCAR:    PAW_PBE Mn 06Sep2000
 POTCAR:    PAW_PBE N 08Apr2002
|           W    W    AA    RRRRR   N    N  II  N    N   GGGG   !!!           |
|           W    W   A  A   R    R  NN   N  II  NN   N  G    G  !!!           |
|           W    W  A    A  R    R  N N  N  II  N N  N  G       !!!           |
|           W WW W  AAAAAA  RRRRR   N  N N  II  N  N N  G  GGG   !            |
|           WW  WW  A    A  R   R   N   NN  II  N   NN  G    G                |
|           W    W  A    A  R    R  N    N  II  N    N   GGGG   !!!           |
|     For optimal performance we recommend to set                             |
|       NCORE = 2 up to number-of-cores-per-socket                            |
|     This setting can greatly improve the performance of VASP for DFT.       |
|     The default, NCORE=1 might be grossly inefficient on modern             |
|     multi-core architectures or massively parallel machines. Do your        |
|     Unfortunately you need to use the default for GW and RPA                |
|     calculations (for HF NCORE is supported but not extensively tested      |
|     yet).                                                                   |

 POTCAR:    PAW_PBE Ag 02Apr2005
   VRHFIN =Ag : s1 d10

   TITEL  = PAW_PBE Ag 02Apr2005
   POMASS =  107.868; ZVAL   =   11.000    mass and valenz
   ENMAX  =  249.844; ENMIN  =  187.383 eV

 POTCAR:    PAW_PBE Mn 06Sep2000
   VRHFIN =Mn: d6 s1

   TITEL  = PAW_PBE Mn 06Sep2000
   POMASS =   54.938; ZVAL   =    7.000    mass and valenz
   ENMAX  =  269.864; ENMIN  =  202.398 eV

 POTCAR:    PAW_PBE N 08Apr2002
   VRHFIN =N: s2p3

   TITEL  = PAW_PBE N 08Apr2002
   POMASS =   14.001; ZVAL   =    5.000    mass and valenz
   ENMAX  =  400.000; ENMIN  =  300.000 eV

 Optimization of the real space projectors (new method)

 maximal supplied QI-value         = 15.12
 optimisation between [QCUT,QGAM] = [ 11.34, 22.83] = [ 36.00,145.93] Ry
 Optimized for a Real-space Cutoff    1.43 Angstroem

   l    n(q)    QCUT    max X(q) W(low)/X(q) W(high)/X(q)  e(spline)
   2      9    11.338    53.897    0.16E-03    0.20E-03    0.28E-06
   2      9    11.338    52.416    0.16E-03    0.20E-03    0.29E-06
   0     10    11.338   122.045    0.31E-04    0.76E-04    0.15E-06
   0     10    11.338    73.629    0.30E-04    0.72E-04    0.15E-06
   1      9    11.338    15.255    0.20E-03    0.19E-04    0.17E-06
   1      9    11.338     9.562    0.16E-03    0.15E-04    0.14E-06
 Optimization of the real space projectors (new method)

[...]

   l    n(q)    QCUT    max X(q) W(low)/X(q) W(high)/X(q)  e(spline)
   2      8    11.376   110.144    0.49E-03    0.27E-04    0.26E-06
   2      8    11.376   103.200    0.49E-03    0.28E-04    0.27E-06
   0      9    11.376    68.437    0.57E-04    0.92E-04    0.15E-06
   0      9    11.376    33.971    0.51E-04    0.83E-04    0.14E-06
   1      9    11.376    17.065    0.34E-03    0.68E-04    0.14E-06
   1      9    11.376    12.540    0.27E-03    0.59E-04    0.11E-06
 Optimization of the real space projectors (new method)

 maximal supplied QI-value         = 25.13
 optimisation between [QCUT,QGAM] = [ 11.31, 22.87] = [ 35.82,146.48] Ry
 Optimized for a Real-space Cutoff    1.27 Angstroem

   l    n(q)    QCUT    max X(q) W(low)/X(q) W(high)/X(q)  e(spline)
   0      9    11.310    79.467    0.75E-04    0.16E-03    0.36E-06
   0      9    11.310    66.151    0.74E-04    0.16E-03    0.36E-06
   1      8    11.310    17.416    0.35E-03    0.12E-03    0.95E-06
   1      8    11.310    12.382    0.37E-03    0.13E-03    0.98E-06
  PAW_PBE Ag 02Apr2005                  :
  PAW_PBE Mn 06Sep2000                  :
  PAW_PBE N 08Apr2002                   :

 POSCAR: Ag-Mn-N2
  positions in direct lattice
  velocities in cartesian coordinates
 exchange correlation table for  LEXCH =        8
   RHO(1)=    0.500       N(1)  =     2000
   RHO(2)=  100.500       N(2)  =     4000

 VTST: version 3.2, (02/03/18)

 CHAIN: initializing optimizer

 OPT: Using VASP Conjugate-Gradient optimizer
 CHAIN: Read ICHAIN            0

 POSCAR: Ag-Mn-N2
  positions in direct lattice
  velocities in cartesian coordinates

 ion  position               nearest neighbor table
   1  0.000  0.000  0.220-   2 2.93   8 2.93   7 2.93   6 2.93   4 2.93  12 2.93  16 2.93  10 2.93
                             3 2.93
   2  0.333  0.000  0.220-   1 2.93   8 2.93   9 2.93   3 2.93   4 2.93   5 2.93  10 2.93  17 2.93
                            11 2.93
   3  0.667  0.000  0.220-   9 2.93   2 2.93   5 2.93  11 2.93   7 2.93  18 2.93   1 2.93   6 2.93
                            12 2.93
   4  0.000  0.333  0.220-   5 2.93   6 2.93   2 2.93   1 2.93   7 2.93  13 2.93  15 2.93   9 2.93
                            10 2.93
   5  0.333  0.333  0.220-   4 2.93   3 2.93   7 2.93   2 2.93   8 2.93  14 2.93  13 2.93  11 2.93
                             6 2.93
   6  0.667  0.333  0.220-   4 2.93   9 2.93   1 2.93  15 2.93   8 2.93  12 2.93   3 2.93   5 2.93
                            14 2.93
   7  0.000  0.667  0.220-   8 2.93   1 2.93   5 2.93   3 2.93   4 2.93  16 2.93  18 2.93  13 2.93
                             9 2.93
   8  0.333  0.667  0.220-   7 2.93   1 2.93   2 2.93   9 2.93   5 2.93  16 2.93   6 2.93  17 2.93
                            14 2.93
   9  0.667  0.667  0.220-   3 2.93   2 2.93   8 2.93   6 2.93  17 2.93   4 2.93  15 2.93   7 2.93
                            18 2.93
  10  0.111  0.111  0.320-  20 2.92  19 2.93  26 2.93  12 2.93  16 2.93  15 2.93  17 2.93  13 2.93
                            11 2.93   2 2.93   1 2.93   4 2.93
  11  0.444  0.111  0.320-  21 2.90  20 2.90  27 2.92  14 2.93  17 2.93  18 2.93   3 2.93  12 2.93
                            13 2.93  10 2.93   5 2.93   2 2.93
  12  0.778  0.111  0.320-  21 2.92  25 2.93  19 2.93  10 2.93  16 2.93  18 2.93  15 2.93  11 2.93
                             1 2.93  14 2.93   6 2.93   3 2.93
  13  0.111  0.444  0.320-  20 2.90  23 2.90  22 2.92  15 2.93  14 2.93  18 2.93  10 2.93  11 2.93
                            16 2.93   4 2.93   5 2.93   7 2.93
  14  0.444  0.444  0.320-  23 2.90  21 2.90  24 2.92  13 2.93  11 2.93  16 2.93   5 2.93  12 2.93
                            17 2.93   8 2.93  15 2.93   6 2.93
  15  0.778  0.444  0.320-  24 2.92  22 2.92  19 2.92  13 2.93  10 2.93  12 2.93  17 2.93  18 2.93
                             4 2.93   6 2.93   9 2.93  14 2.93
  16  0.111  0.778  0.320-  23 2.92  26 2.93  25 2.93  18 2.93  12 2.93  10 2.93  14 2.93  17 2.93
                            13 2.93   7 2.93   8 2.93   1 2.93
  17  0.444  0.778  0.320-  27 2.92  24 2.92  26 2.92  11 2.93  10 2.93   9 2.93  18 2.93  15 2.93
                            16 2.93   2 2.93  14 2.93   8 2.93
  18  0.778  0.778  0.320-  22 2.92  27 2.92  25 2.92  16 2.93  12 2.93  13 2.93  11 2.93  17 2.93
                            15 2.93   7 2.93   3 2.93   9 2.93
  19  0.889  0.223  0.419-  28 2.91  15 2.92  10 2.93  12 2.93  24 2.93  22 2.93  26 2.94  25 2.94
                            20 2.94  21 2.94  32 2.95  31 2.95
  20  0.223  0.223  0.418-  36 2.71  31 2.90  29 2.90  13 2.90  11 2.90  21 2.91  23 2.91  10 2.92
                            27 2.93  22 2.93  19 2.94  26 2.94
  21  0.554  0.223  0.418-  36 2.71  30 2.90  32 2.90  11 2.90  14 2.90  20 2.91  23 2.91  12 2.92
                            27 2.93  24 2.93  25 2.94  19 2.94
  22  0.888  0.556  0.419-  35 2.91  18 2.92  15 2.92  13 2.92  24 2.93  27 2.93  33 2.93  31 2.93
                            25 2.93  19 2.93  23 2.93  20 2.93
  23  0.223  0.554  0.418-  36 2.71  34 2.90  33 2.90  14 2.90  13 2.90  21 2.91  20 2.91  16 2.92
                            22 2.93  24 2.93  26 2.94  25 2.94
  24  0.556  0.556  0.419-  35 2.91  15 2.92  17 2.92  14 2.92  27 2.93  22 2.93  32 2.93  34 2.93
                            19 2.93  26 2.93  23 2.93  21 2.93
  25  0.889  0.889  0.419-  28 2.91  18 2.92  16 2.93  12 2.93  22 2.93  27 2.93  26 2.94  19 2.94
                            23 2.94  21 2.94  33 2.95  30 2.95
  26  0.223  0.889  0.419-  28 2.91  17 2.92  16 2.93  10 2.93  27 2.93  24 2.93  25 2.94  19 2.94
                            23 2.94  20 2.94  34 2.95  29 2.95
  27  0.556  0.888  0.419-  35 2.91  17 2.92  18 2.92  11 2.92  24 2.93  22 2.93  29 2.93  30 2.93
                            26 2.93  25 2.93  20 2.93  21 2.93
  28  0.000  0.000  0.518-  26 2.91  25 2.91  19 2.91  29 2.97  34 2.97  33 2.97  32 2.97  31 2.97
                            30 2.97
  29  0.333  0.008  0.518-  31 2.86  30 2.86  36 2.87  20 2.90  27 2.93  26 2.95  28 2.97  35 2.97
                            34 3.07
  30  0.659  0.008  0.518-  32 2.86  29 2.86  36 2.87  21 2.90  27 2.93  25 2.95  28 2.97  35 2.97
                            33 3.07
  31  0.008  0.333  0.518-  29 2.86  33 2.86  36 2.87  20 2.90  22 2.93  19 2.95  28 2.97  35 2.97
                            32 3.07
  32  0.659  0.333  0.518-  30 2.86  34 2.86  36 2.87  21 2.90  24 2.93  19 2.95  28 2.97  35 2.97
                            31 3.07
  33  0.008  0.659  0.518-  34 2.86  31 2.86  36 2.87  23 2.90  22 2.93  25 2.95  28 2.97  35 2.97
                            30 3.07
  34  0.333  0.659  0.518-  33 2.86  32 2.86  36 2.87  23 2.90  24 2.93  26 2.95  28 2.97  35 2.97
                            29 3.07
  35  0.667  0.667  0.518-  24 2.91  27 2.91  22 2.91  32 2.97  30 2.97  29 2.97  34 2.97  31 2.97
                            33 2.97
  36  0.333  0.333  0.507-  37 1.99  38 1.99  21 2.71  20 2.71  23 2.71  31 2.87  30 2.87  33 2.87
                            29 2.87  34 2.87  32 2.87
  37  0.266  0.333  0.586-  38 1.19  36 1.99
  38  0.401  0.333  0.586-  37 1.19  36 1.99

  LATTYP: Found a hexagonal cell.
 ALAT       =     8.7913665772
 C/A-ratio  =     2.7306349153

  Lattice vectors:

 A1 = (  -4.3956832886,  -7.6135467898,   0.0000000000)
 A2 = (   8.7913665771,   0.0000000000,   0.0000000000)
 A3 = (   0.0000000000,   0.0000000000,  24.0060125285)

Analysis of symmetry for initial positions (statically):
 Subroutine PRICEL returns:
 Original cell was already a primitive cell.

 Routine SETGRP: Setting up the symmetry group for a
 hexagonal supercell.

 Subroutine GETGRP returns: Found  2 space group operations
 (whereof  2 operations were pure point group operations)
 out of a pool of 24 trial point group operations.

The static configuration has the point symmetry C_1h.

Analysis of symmetry for dynamics (positions and initial velocities):
 Subroutine PRICEL returns:
 Original cell was already a primitive cell.

[...]

The dynamic configuration has the point symmetry C_1h.

Analysis of constrained symmetry for selective dynamics:
 Subroutine PRICEL returns:
 Original cell was already a primitive cell.

 Routine SETGRP: Setting up the symmetry group for a
 hexagonal supercell.

[...]
     33      -4.9264      2.00000
     34      -4.9047      2.00000
     35      -4.8976      2.00000
     36      -4.8897      2.00000
     37      -4.8528      2.00000
     38      -4.8030      2.00000
     39      -4.7662      2.00000
     40      -4.7600      2.00000
     41      -4.7464      2.00000
     42      -4.7129      2.00000
     43      -4.6999      2.00000
     44      -4.6830      2.00000
     45      -4.6783      2.00000
     46      -4.6720      2.00000
     47      -4.6432      2.00000
     48      -4.5807      2.00000
     49      -4.5525      2.00000
     50      -4.5454      2.00000
     51      -4.5387      2.00000
     52      -4.5352      2.00000
     53      -4.5321      2.00000
     54      -4.5146      2.00000
     55      -4.5102      2.00000
     56      -4.4948      2.00000
     57      -4.4869      2.00000
     58      -4.4224      2.00000
     59      -4.4155      2.00000
     60      -4.4002      2.00000
[...]
    242       5.9897      0.00000
    243       6.0661      0.00000
    244       6.5084      0.00000
    245       6.5119      0.00000
    246       6.6534      0.00000
    247       6.7739      0.00000
    248       6.8290      0.00000
    249       6.8571      0.00000
    250       6.9015      0.00000
    251       6.9230      0.00000
    252       7.0484      0.00000
    253       7.1994      0.00000
    254       7.2451      0.00000
    255       7.3683      0.00000
    256       7.5237      0.00000

 soft charge-density along one line, spin component           1
         0         1         2         3         4         5         6         7         8         9
 total charge-density along one line

------------------------ aborting loop because EDIFF is reached ----------------------------------------

 total charge

# of ion       s       p       d       tot
    1        0.419   0.202   9.178   9.799
    2        0.416   0.204   9.177   9.798
    3        0.416   0.204   9.177   9.798
    4        0.417   0.204   9.177   9.798
    5        0.419   0.203   9.176   9.798
    6        0.417   0.204   9.177   9.798
    7        0.418   0.204   9.177   9.798
    8        0.418   0.204   9.177   9.798
    9        0.414   0.204   9.179   9.796
   10        0.407   0.269   9.165   9.840
   11        0.408   0.270   9.167   9.844
   12        0.407   0.269   9.165   9.840
   13        0.406   0.269   9.168   9.844
   14        0.406   0.269   9.168   9.844
   15        0.403   0.269   9.166   9.838
   16        0.409   0.269   9.163   9.841
   17        0.402   0.272   9.165   9.838
   18        0.402   0.272   9.165   9.838
   19        0.396   0.267   9.168   9.831
   20        0.427   0.297   9.144   9.868
   21        0.427   0.297   9.144   9.868
   22        0.396   0.275   9.166   9.837
   23        0.431   0.297   9.143   9.871
   24        0.396   0.275   9.166   9.837
   25        0.404   0.264   9.168   9.836
   26        0.404   0.264   9.168   9.836
   27        0.396   0.274   9.167   9.838
   28        0.415   0.197   9.178   9.790
   29        0.418   0.207   9.178   9.803
   30        0.418   0.207   9.178   9.803
   31        0.411   0.204   9.180   9.795
   32        0.411   0.204   9.180   9.795
   33        0.417   0.207   9.178   9.802
   34        0.417   0.207   9.178   9.802
   35        0.409   0.200   9.178   9.787
   36        0.284   0.275   5.112   5.671
   37        1.335   2.447   0.000   3.781
   38        1.335   2.447   0.000   3.781
tot         17.350  13.569 326.063 356.982

  FORCE on cell =-STRESS in cart. coord.  units (eV):
  Direction    XX          YY          ZZ          XY          YZ          ZX
  Alpha Z   707.61314   707.61314   707.61314
  Ewald  148396.91852148080.68212************     0.00005     0.32388     0.00007
  Hartree158377.86005158257.43404************     0.00002     0.13766     0.00002
  E(xc)   -2103.34073 -2104.45614 -2109.40256     0.00001     0.10599     0.00000
  Local  ************************317755.67970     0.00079     0.17364    -0.00018
  n-local  -372.39264  -361.25228  -369.59038     2.32140     0.48410     0.12995
  augment  3250.57438  3249.63549  3259.11900    -0.00011    -0.45191     0.00008
  Kinetic  5018.44029  5030.60099  5057.08007     1.26652    -0.65285    -0.02573
  Fock        0.00000     0.00000     0.00000     0.00000     0.00000     0.00000
  Total      -8.77920    -9.12003    -1.90053    -0.00000     0.12051     0.00000
  in kB      -8.75391    -9.09376    -1.89505    -0.00000     0.12016     0.00000

 VOLUME and BASIS-vectors are now :
  energy-cutoff  :      500.00
  volume of cell :     1606.81
      direct lattice vectors                 reciprocal lattice vectors
     8.791366577  0.000000000  0.000000000     0.113747958 -0.065672414  0.000000000
     4.395683289  7.613546790  0.000000000     0.000000000  0.131344829  0.000000000
     0.000000000  0.000000000 24.006012529     0.000000000  0.000000000  0.041656231

  length of vectors
     8.791366577  8.791366577 24.006012529     0.131344829  0.131344829  0.041656231

 FORCES acting on ions
    electron-ion (+dipol)            ewald-force                    non-local-force                 convergence-correction
   0.460E-04 -.305E-01 0.267E+04   -.954E-04 -.167E-01 -.267E+04   0.193E-12 0.294E-01 -.208E+01   -.105E-03 0.114E-01 0.332E-01
   0.217E+00 0.401E+00 0.267E+04   -.455E+00 -.471E+00 -.267E+04   0.981E-01 0.805E-01 -.161E+01   0.130E+00 -.581E-02 -.339E-01
   -.217E+00 0.401E+00 0.267E+04   0.455E+00 -.471E+00 -.267E+04   -.981E-01 0.805E-01 -.161E+01   -.131E+00 -.388E-02 -.332E-01
   0.581E+00 0.636E-01 0.267E+04   -.621E+00 -.166E+00 -.267E+04   0.782E-01 -.180E-02 -.160E+01   -.207E-01 0.979E-01 0.529E-01
   -.711E-05 -.735E-01 0.267E+04   0.981E-04 0.103E-02 -.267E+04   0.290E-12 0.441E-01 -.147E+01   0.624E-02 0.293E-01 0.813E-01
   -.581E+00 0.637E-01 0.267E+04   0.621E+00 -.166E+00 -.267E+04   -.782E-01 -.180E-02 -.160E+01   0.193E-01 0.989E-01 0.537E-01
   0.677E-01 -.432E+00 0.267E+04   -.166E+00 0.637E+00 -.267E+04   0.920E-01 -.107E+00 -.154E+01   0.945E-02 -.965E-01 0.643E-01
   -.677E-01 -.432E+00 0.267E+04   0.166E+00 0.637E+00 -.267E+04   -.920E-01 -.107E+00 -.154E+01   -.781E-02 -.975E-01 0.644E-01
   0.361E-04 0.411E-01 0.267E+04   0.792E-04 0.157E-01 -.267E+04   -.133E-12 -.203E-01 -.189E+01   -.666E-02 -.344E-01 0.215E-01
   0.430E+01 0.250E+01 0.923E+03   -.394E+01 -.241E+01 -.923E+03   -.383E+00 -.190E+00 -.724E+00   0.337E-01 0.104E+00 0.697E+00
   -.296E-04 0.484E+01 0.930E+03   0.415E-04 -.521E+01 -.930E+03   0.124E-11 0.188E+00 -.407E+00   0.628E-02 0.131E+00 0.756E+00
   -.430E+01 0.250E+01 0.923E+03   0.394E+01 -.241E+01 -.923E+03   0.383E+00 -.190E+00 -.724E+00   -.353E-01 0.105E+00 0.697E+00
   0.416E+01 -.243E+01 0.930E+03   -.439E+01 0.264E+01 -.931E+03   0.172E+00 -.142E+00 -.425E+00   0.303E-01 -.370E-01 0.724E+00
   -.416E+01 -.243E+01 0.930E+03   0.439E+01 0.264E+01 -.931E+03   -.172E+00 -.142E+00 -.425E+00   -.197E-01 -.378E-01 0.723E+00
   0.163E-04 0.881E+00 0.924E+03   -.108E-03 -.975E+00 -.924E+03   0.423E-12 0.644E-01 -.763E+00   -.163E-02 0.490E-02 0.663E+00
   -.787E-05 -.501E+01 0.923E+03   0.208E-04 0.458E+01 -.923E+03   0.339E-11 0.516E+00 -.736E+00   0.123E-03 -.107E+00 0.606E+00
   0.868E+00 -.412E+00 0.924E+03   -.919E+00 0.573E+00 -.924E+03   0.251E-01 -.704E-01 -.678E+00   0.104E-01 -.835E-01 0.626E+00
   -.868E+00 -.412E+00 0.924E+03   0.919E+00 0.573E+00 -.924E+03   -.251E-01 -.704E-01 -.678E+00   -.104E-01 -.816E-01 0.626E+00
   0.399E-04 0.134E+01 -.851E+03   -.128E-03 -.178E+01 0.849E+03   0.147E-11 0.224E+00 0.993E+00   -.129E-03 0.204E+00 0.969E+00
   0.168E+02 0.105E+02 -.816E+03   -.161E+02 -.101E+02 0.815E+03   -.124E+01 -.673E+00 -.936E+00   0.558E+00 0.344E+00 0.176E+01
   -.168E+02 0.105E+02 -.816E+03   0.161E+02 -.101E+02 0.815E+03   0.124E+01 -.673E+00 -.936E+00   -.559E+00 0.345E+00 0.176E+01
   0.767E+01 -.506E+01 -.839E+03   -.799E+01 0.549E+01 0.837E+03   0.185E+00 -.191E+00 0.549E+00   0.182E+00 -.261E+00 0.101E+01
   -.594E-04 -.207E+02 -.817E+03   0.435E-04 0.198E+02 0.816E+03   0.106E-10 0.161E+01 -.114E+01   0.761E-03 -.691E+00 0.154E+01
   -.767E+01 -.506E+01 -.839E+03   0.799E+01 0.549E+01 0.837E+03   -.185E+00 -.191E+00 0.549E+00   -.182E+00 -.261E+00 0.100E+01
   -.913E+00 -.285E+00 -.852E+03   0.114E+01 0.252E+00 0.850E+03   -.881E-01 -.309E-02 0.841E+00   -.134E+00 0.384E-01 0.941E+00
   0.913E+00 -.285E+00 -.852E+03   -.114E+01 0.252E+00 0.850E+03   0.881E-01 -.309E-02 0.841E+00   0.134E+00 0.381E-01 0.942E+00
   0.200E-04 0.864E+01 -.840E+03   0.109E-03 -.931E+01 0.839E+03   0.243E-11 0.370E+00 0.609E+00   -.246E-03 0.327E+00 0.103E+01
   0.540E-04 0.308E+01 -.260E+04   -.116E-03 -.324E+01 0.259E+04   0.278E-12 0.423E-01 0.178E+01   0.132E-02 0.828E-01 0.429E+00
   0.334E+02 0.656E+02 -.257E+04   -.335E+02 -.665E+02 0.257E+04   -.516E+00 -.333E+00 0.222E+01   0.472E+00 0.926E+00 0.341E+00
   -.334E+02 0.656E+02 -.257E+04   0.335E+02 -.665E+02 0.257E+04   0.516E+00 -.333E+00 0.222E+01   -.483E+00 0.927E+00 0.341E+00
   0.802E+02 0.519E+00 -.256E+04   -.814E+02 -.399E+00 0.256E+04   -.185E+00 -.105E+00 0.311E+01   0.107E+01 -.709E-02 0.361E+00
   -.802E+02 0.519E+00 -.256E+04   0.814E+02 -.399E+00 0.256E+04   0.185E+00 -.105E+00 0.311E+01   -.108E+01 -.622E-02 0.361E+00
   0.319E+02 -.659E+02 -.257E+04   -.322E+02 0.666E+02 0.257E+04   -.315E+00 0.497E+00 0.228E+01   0.482E+00 -.942E+00 0.461E+00
   -.319E+02 -.659E+02 -.257E+04   0.322E+02 0.666E+02 0.257E+04   0.315E+00 0.497E+00 0.228E+01   -.491E+00 -.943E+00 0.461E+00
   0.205E-04 -.296E+01 -.260E+04   0.107E-03 0.308E+01 0.260E+04   -.153E-12 -.234E-01 0.189E+01   -.530E-02 -.589E-01 0.415E+00
   -.259E-04 -.544E+00 -.138E+04   0.674E-04 0.487E+00 0.137E+04   0.523E-12 0.796E-01 0.216E+01   0.342E-02 -.789E-02 0.573E+00
   0.204E+03 -.143E+00 -.142E+04   -.243E+03 0.945E-01 0.144E+04   0.385E+02 -.198E-01 -.987E+01   0.349E+00 0.650E-01 -.802E+00
   -.204E+03 -.143E+00 -.142E+04   0.243E+03 0.945E-01 0.144E+04   -.385E+02 -.198E-01 -.987E+01   -.348E+00 0.650E-01 -.803E+00
   0.454E-03 -.796E+00 -.167E+01   0.568E-13 -.469E-13 -.227E-11   0.398E-11 0.606E+00 -.178E+02   -.174E-01 0.182E+00 0.195E+02

 POSITION                                       TOTAL-FORCE (eV/Angst)
      0.00000      0.00000      5.28219        -0.000000     -0.006244     -0.019521
      2.93046      0.00000      5.28219        -0.009346      0.006158      0.046885
      5.86091      0.00000      5.28219         0.009346      0.006158      0.046885
      1.46523      2.53785      5.28219         0.017500     -0.005588      0.030528
      4.39568      2.53785      5.28219         0.000000      0.001178     -0.001642
      7.32614      2.53785      5.28219        -0.017500     -0.005588      0.030528
      2.93046      5.07570      5.28219         0.002640      0.001229      0.030312
      5.86091      5.07570      5.28219        -0.002640      0.001229      0.030312
      8.79137      5.07570      5.28219         0.000000      0.002398      0.015602
      1.46523      0.84595      7.67490         0.006751      0.012190     -0.002143
      4.39568      0.84595      7.67490        -0.000000     -0.053104     -0.065674
      7.32614      0.84595      7.67490        -0.006751      0.012190     -0.002143
      2.93046      3.38380      7.67490        -0.034672      0.023168     -0.053167
      5.86091      3.38380      7.67490         0.034672      0.023168     -0.053167
      8.79137      3.38380      7.67490        -0.000000     -0.023928      0.003518
      4.39568      5.92165      7.67490        -0.000000     -0.018274      0.012285
      7.32614      5.92165      7.67490        -0.016341      0.007964      0.020102
     10.25659      5.92165      7.67490         0.016341      0.007964      0.020102
      8.79137      1.69455     10.06139        -0.000000     -0.009330      0.037305
      2.94158      1.69832     10.04035        -0.022741     -0.011984     -0.083454
      5.84978      1.69832     10.04035         0.022741     -0.011984     -0.083454
     10.25392      4.23129     10.05365         0.047991     -0.016024      0.006919
      4.39568      4.21690     10.04035         0.000000      0.023523     -0.074122
      7.32881      4.23129     10.05365        -0.047991     -0.016024      0.006919
     11.71953      6.76627     10.06139         0.003965      0.002962     -0.002564
      5.86321      6.76627     10.06139        -0.003965      0.002962     -0.002564
      8.79137      6.76451     10.05365         0.000000      0.032800     -0.008387
      0.00000      0.00000     12.42536        -0.000000     -0.027099      0.019605
      2.96459      0.05999     12.43855        -0.136407     -0.260844     -0.181193
      5.82677      0.05999     12.43855         0.136407     -0.260844     -0.181193
      1.53425      2.53742     12.43855        -0.295253      0.009465     -0.175415
      7.25712      2.53742     12.43855         0.295253      0.009465     -0.175415
      2.96534      5.01614     12.43855        -0.152773      0.249589     -0.189916
      5.82603      5.01614     12.43855         0.152773      0.249589     -0.189916
      8.79137      5.07570     12.42471         0.000000      0.033090      0.025710
      4.39568      2.53785     12.16969         0.000000      0.015078      1.102356
      3.80150      2.53383     14.06666         0.043531     -0.003330      0.029589
      4.98987      2.53383     14.06666        -0.043531     -0.003330      0.029589
    total drift:                               -0.016900     -0.008085     -0.000872

  FREE ENERGIE OF THE ION-ELECTRON SYSTEM (eV)
  free  energy   TOTEN  =      -111.61440142 eV

  energy  without entropy=     -111.61440142  energy(sigma->0) =     -111.61440142

 stress matrix after NEB project (eV)
     -8.77920     -0.00000      0.00000
     -0.00000     -9.12003      0.12051
      0.00000      0.12051     -1.90053
  FORCES: max atom, RMS     0.052740    0.012099
  FORCE total and by dimension    0.074586    0.043531
  Stress total and by dimension   12.801971    9.120033
|           W    W    AA    RRRRR   N    N  II  N    N   GGGG   !!!           |
|           W    W   A  A   R    R  NN   N  II  NN   N  G    G  !!!           |
|           W    W  A    A  R    R  N N  N  II  N N  N  G       !!!           |
|           W WW W  AAAAAA  RRRRR   N  N N  II  N  N N  G  GGG   !            |
|           WW  WW  A    A  R   R   N   NN  II  N   NN  G    G                |
|           W    W  A    A  R    R  N    N  II  N    N   GGGG   !!!           |
|     Tetrahedron method does not include variations of the Fermi             |
|     occupations, so forces and stress will be inaccurate. We suggest        |
|     using a different smearing scheme ISMEAR = 1 or 2 for metals in         |
|     relaxations.                                                            |

 total charge

# of ion       s       p       d       tot
    1        0.419   0.202   9.178   9.799
    2        0.416   0.204   9.177   9.798
    3        0.416   0.204   9.177   9.798
    4        0.417   0.204   9.177   9.798
    5        0.419   0.203   9.176   9.798
    6        0.417   0.204   9.177   9.798
    7        0.418   0.204   9.177   9.798
    8        0.418   0.204   9.177   9.798
    9        0.414   0.204   9.179   9.796
   10        0.407   0.269   9.165   9.840
   11        0.408   0.270   9.167   9.844
   12        0.407   0.269   9.165   9.840
   13        0.406   0.269   9.168   9.844
   14        0.406   0.269   9.168   9.844
   15        0.403   0.269   9.166   9.838
   16        0.409   0.269   9.163   9.841
   17        0.402   0.272   9.165   9.838
   18        0.402   0.272   9.165   9.838
   19        0.396   0.267   9.168   9.831
   20        0.427   0.297   9.144   9.868
   21        0.427   0.297   9.144   9.868
   22        0.396   0.275   9.166   9.837
   23        0.431   0.297   9.143   9.871
   24        0.396   0.275   9.166   9.837
   25        0.404   0.264   9.168   9.836
   26        0.404   0.264   9.168   9.836
   27        0.396   0.274   9.167   9.838
   28        0.415   0.197   9.178   9.790
   29        0.418   0.207   9.178   9.803
   30        0.418   0.207   9.178   9.803
   31        0.411   0.204   9.180   9.795
   32        0.411   0.204   9.180   9.795
   33        0.417   0.207   9.178   9.802
   34        0.417   0.207   9.178   9.802
   35        0.409   0.200   9.178   9.787
   36        0.284   0.275   5.112   5.671
   37        1.335   2.447   0.000   3.781
   38        1.335   2.447   0.000   3.781
tot         17.350  13.569 326.063 356.982

 BZINTS: Fermi energy:    0.442628;  402.000000 electrons
         Band energy:-0.150381E+04;  BLOECHL correction:   -0.022195