 vasp.6.2.0 18Jan21 (build Jun 12 2021 23:27:24) complex

 executed on             LinuxIFC date 2022.05.26  20:01:58

 INCAR:
   ISMEAR = -5
   SIGMA = 0.1
   ISPIN = 1
   EDIFF = 1.d-5
   EDIFFG = -0.01
   NSW = 0
   NELM = 150
   ENCUT = 500
   ISIF = 2
   IBRION = 2
   LREAL = Auto
   ALGO = Fast
   ICHARG = 11
   LORBIT = 10
   LCHARG = .F.
   LWAVE = .F.

 POTCAR:    PAW_PBE Cu 22Jun2005
 POTCAR:    PAW_PBE Zr_sv 04Jan2005
 POTCAR:    PAW_PBE H 15Jun2001
|           W    W    AA    RRRRR   N    N  II  N    N   GGGG   !!!           |
|           W    W   A  A   R    R  NN   N  II  NN   N  G    G  !!!           |
|           W    W  A    A  R    R  N N  N  II  N N  N  G       !!!           |
|           W WW W  AAAAAA  RRRRR   N  N N  II  N  N N  G  GGG   !            |
|           WW  WW  A    A  R   R   N   NN  II  N   NN  G    G                |
|           W    W  A    A  R    R  N    N  II  N    N   GGGG   !!!           |
|     For optimal performance we recommend to set                             |
|       NCORE = 2 up to number-of-cores-per-socket                            |
|     This setting can greatly improve the performance of VASP for DFT.       |
|     The default, NCORE=1 might be grossly inefficient on modern             |
|     multi-core architectures or massively parallel machines. Do your        |
|     Unfortunately you need to use the default for GW and RPA                |
|     calculations (for HF NCORE is supported but not extensively tested      |
|     yet).                                                                   |

 POTCAR:    PAW_PBE Cu 22Jun2005
   VRHFIN =Cu: d10 p1

   TITEL  = PAW_PBE Cu 22Jun2005
   POMASS =   63.546; ZVAL   =   11.000    mass and valenz
   ENMAX  =  295.446; ENMIN  =  221.585 eV

 POTCAR:    PAW_PBE Zr_sv 04Jan2005
   VRHFIN =Zr: 4s4p5s4d

   TITEL  = PAW_PBE Zr_sv 04Jan2005
   POMASS =   91.224; ZVAL   =   12.000    mass and valenz
   ENMAX  =  229.898; ENMIN  =  172.424 eV

 POTCAR:    PAW_PBE H 15Jun2001
   VRHFIN =H: ultrasoft test

   TITEL  = PAW_PBE H 15Jun2001
   POMASS =    1.000; ZVAL   =    1.000    mass and valenz
   ENMAX  =  250.000; ENMIN  =  200.000 eV

 Optimization of the real space projectors (new method)

 maximal supplied QI-value         = 16.25
 optimisation between [QCUT,QGAM] = [ 11.38, 22.75] = [ 36.24,144.96] Ry
 Optimized for a Real-space Cutoff    1.52 Angstroem

   l    n(q)    QCUT    max X(q) W(low)/X(q) W(high)/X(q)  e(spline)
   2      9    11.376     4.610    0.21E-03    0.10E-03    0.26E-06
   2      9    11.376     8.522    0.33E-03    0.16E-03    0.37E-06
   0     10    11.376    51.609    0.62E-04    0.20E-04    0.13E-06
   0     10    11.376    27.747    0.54E-04    0.20E-04    0.13E-06
   1     10    11.376    20.408    0.13E-04    0.99E-04    0.19E-06
   1     10    11.376    13.425    0.12E-04    0.87E-04    0.17E-06
 Optimization of the real space projectors (new method)

[...]

   l    n(q)    QCUT    max X(q) W(low)/X(q) W(high)/X(q)  e(spline)
   0     10    11.338    12.107    0.38E-04    0.13E-04    0.27E-07
   0     10    11.338     9.948    0.69E-04    0.30E-04    0.38E-07
   1     10    11.338     3.563    0.26E-04    0.18E-04    0.40E-07
   1     10    11.338     4.524    0.25E-03    0.39E-04    0.44E-06
   2      9    11.338    87.261    0.26E-03    0.91E-05    0.26E-06
   2      9    11.338    70.950    0.25E-03    0.91E-05    0.25E-06
 Optimization of the real space projectors (new method)

 maximal supplied QI-value         = 34.20
 optimisation between [QCUT,QGAM] = [ 11.29, 22.57] = [ 35.68,142.71] Ry
 Optimized for a Real-space Cutoff    1.16 Angstroem

   l    n(q)    QCUT    max X(q) W(low)/X(q) W(high)/X(q)  e(spline)
   0      8    11.287    19.460    0.40E-03    0.73E-03    0.16E-06
   0      8    11.287    12.209    0.38E-03    0.70E-03    0.15E-06
   1      7    11.287     4.655    0.22E-03    0.25E-04    0.22E-06
  PAW_PBE Cu 22Jun2005                  :
  PAW_PBE Zr_sv 04Jan2005               :
  PAW_PBE H 15Jun2001                   :

 POSCAR: Cu-Zr-H
  positions in direct lattice
  velocities in cartesian coordinates
 exchange correlation table for  LEXCH =        8
   RHO(1)=    0.500       N(1)  =     2000
   RHO(2)=  100.500       N(2)  =     4000

 VTST: version 3.2, (02/03/18)

 CHAIN: initializing optimizer

 OPT: Using VASP Conjugate-Gradient optimizer
 CHAIN: Read ICHAIN            0

 POSCAR: Cu-Zr-H
  positions in direct lattice
  velocities in cartesian coordinates

 ion  position               nearest neighbor table
   1  0.000  0.000  0.252-   7 2.57   3 2.57   4 2.57   2 2.57   6 2.57   8 2.57  12 2.57  10 2.57
                            16 2.57
   2  0.333  0.000  0.252-   8 2.57   9 2.57   5 2.57   1 2.57   3 2.57  11 2.57   4 2.57  10 2.57
                            17 2.57
   3  0.667  0.000  0.252-   1 2.57   7 2.57   6 2.57   9 2.57   2 2.57  12 2.57   5 2.57  18 2.57
                            11 2.57
   4  0.000  0.333  0.252-   5 2.57   6 2.57   1 2.57   7 2.57   2 2.57  13 2.57   9 2.57  10 2.57
                            15 2.57
   5  0.333  0.333  0.252-   4 2.57   2 2.57   7 2.57  13 2.57   8 2.57   6 2.57   3 2.57  11 2.57
                            14 2.57
   6  0.667  0.333  0.252-   4 2.57   9 2.57  15 2.57   3 2.57   1 2.57   8 2.57  14 2.57   5 2.57
                            12 2.57
   7  0.000  0.667  0.252-   1 2.57   3 2.57  16 2.57  18 2.57   4 2.57   5 2.57   8 2.57   9 2.57
                            13 2.57
   8  0.333  0.667  0.252-   9 2.57   2 2.57  17 2.57   6 2.57   1 2.57   7 2.57   5 2.57  14 2.57
                            16 2.57
   9  0.667  0.667  0.252-   8 2.57   6 2.57   2 2.57  17 2.57   3 2.57   7 2.57   4 2.57  15 2.57
                            18 2.57
  10  0.111  0.111  0.351-  26 2.54  19 2.54  11 2.57  12 2.57  13 2.57   1 2.57   2 2.57   4 2.57
                            15 2.57  16 2.57  17 2.57  20 2.59
  11  0.444  0.111  0.351-  27 2.56  10 2.57  13 2.57   2 2.57  17 2.57  14 2.57  12 2.57   5 2.57
                             3 2.57  18 2.57  20 2.58  21 2.58
  12  0.778  0.111  0.351-  19 2.54  25 2.54  15 2.57  10 2.57  14 2.57  18 2.57   3 2.57   1 2.57
                            16 2.57  11 2.57   6 2.57  21 2.59
  13  0.111  0.444  0.351-  22 2.56  16 2.57  18 2.57  10 2.57  11 2.57  14 2.57   5 2.57   4 2.57
                             7 2.57  15 2.57  23 2.58  20 2.58
  14  0.444  0.444  0.351-  24 2.56  15 2.57  17 2.57  12 2.57  16 2.57  13 2.57  11 2.57   6 2.57
                             8 2.57   5 2.57  21 2.58  23 2.58
  15  0.778  0.444  0.351-  19 2.54  24 2.56  22 2.56  14 2.57  17 2.57  12 2.57   6 2.57  18 2.57
                            10 2.57   9 2.57  13 2.57   4 2.57
  16  0.111  0.778  0.351-  25 2.54  26 2.54  18 2.57  13 2.57   7 2.57  14 2.57  17 2.57  12 2.57
                            10 2.57   8 2.57   1 2.57  23 2.59
  17  0.444  0.778  0.351-  26 2.54  27 2.56  24 2.56  14 2.57  15 2.57   8 2.57   9 2.57  11 2.57
                            16 2.57  18 2.57  10 2.57   2 2.57
  18  0.778  0.778  0.351-  25 2.54  22 2.56  27 2.56  16 2.57  13 2.57   7 2.57  15 2.57  12 2.57
                            17 2.57   9 2.57   3 2.57  11 2.57
  19  0.889  0.221  0.448-  12 2.54  10 2.54  15 2.54  25 2.55  26 2.55  32 2.56  31 2.56  22 2.57
                            24 2.57  28 2.57  21 2.58  20 2.58
  20  0.223  0.223  0.450-  23 2.55  21 2.55  29 2.57  31 2.57  27 2.57  22 2.57  26 2.58  19 2.58
                            11 2.58  13 2.58  10 2.59  36 2.86
  21  0.554  0.223  0.450-  20 2.55  23 2.55  32 2.57  30 2.57  24 2.57  27 2.57  19 2.58  25 2.58
                            14 2.58  11 2.58  12 2.59  36 2.86
  22  0.889  0.556  0.449-  18 2.56  15 2.56  13 2.56  31 2.56  33 2.56  24 2.57  27 2.57  23 2.57
                            20 2.57  19 2.57  25 2.57  35 2.58
  23  0.223  0.554  0.450-  20 2.55  21 2.55  33 2.57  34 2.57  22 2.57  24 2.57  25 2.58  26 2.58
                            13 2.58  14 2.58  16 2.59  36 2.86
  24  0.556  0.556  0.449-  15 2.56  17 2.56  14 2.56  32 2.56  34 2.56  22 2.57  27 2.57  21 2.57
                            23 2.57  19 2.57  26 2.57  35 2.58
  25  0.889  0.889  0.448-  12 2.54  16 2.54  18 2.54  19 2.55  26 2.55  33 2.56  30 2.56  22 2.57
                            27 2.57  28 2.57  21 2.58  23 2.58
  26  0.221  0.889  0.448-  10 2.54  16 2.54  17 2.54  25 2.55  19 2.55  29 2.56  34 2.56  27 2.57
                            24 2.57  28 2.57  20 2.58  23 2.58
  27  0.556  0.889  0.449-  17 2.56  18 2.56  11 2.56  29 2.56  30 2.56  24 2.57  22 2.57  20 2.57
                            21 2.57  26 2.57  25 2.57  35 2.58
  28  0.000  0.000  0.547-  33 2.55  30 2.55  31 2.55  29 2.55  32 2.55  34 2.55  25 2.57  19 2.57
                            26 2.57
  29  0.334  0.994  0.547-  34 2.47  35 2.54  28 2.55  27 2.56  26 2.56  20 2.57  30 2.60  31 2.62
                            36 2.64
  30  0.672  0.994  0.547-  33 2.47  35 2.54  28 2.55  27 2.56  25 2.56  21 2.57  29 2.60  32 2.62
                            36 2.64
  31  0.994  0.334  0.547-  32 2.47  35 2.54  28 2.55  22 2.56  19 2.56  20 2.57  33 2.60  29 2.62
                            36 2.64
  32  0.672  0.334  0.547-  31 2.47  35 2.54  28 2.55  24 2.56  19 2.56  21 2.57  34 2.60  30 2.62
                            36 2.64
  33  0.994  0.672  0.547-  30 2.47  35 2.54  28 2.55  22 2.56  25 2.56  23 2.57  31 2.60  34 2.62
                            36 2.64
  34  0.334  0.672  0.547-  29 2.47  35 2.54  28 2.55  24 2.56  26 2.56  23 2.57  32 2.60  33 2.62
                            36 2.64
  35  0.667  0.667  0.548-  34 2.54  32 2.54  29 2.54  30 2.54  33 2.54  31 2.54  24 2.58  27 2.58
                            22 2.58
  36  0.333  0.333  0.565-  37 1.87  31 2.64  29 2.64  33 2.64  32 2.64  34 2.64  30 2.64  23 2.86
                            20 2.86  21 2.86
  37  0.333  0.333  0.653-  36 1.87

  LATTYP: Found a hexagonal cell.
 ALAT       =     7.6967864036
 C/A-ratio  =     2.7653617908

  Lattice vectors:

 A1 = (  -3.8483927580,  -6.6656128093,   0.0000000000)
 A2 = (   7.6967864037,   0.0000000000,   0.0000000000)
 A3 = (   0.0000000000,   0.0000000000,  21.2843990326)

Analysis of symmetry for initial positions (statically):
 Subroutine PRICEL returns:
 Original cell was already a primitive cell.

 Routine SETGRP: Setting up the symmetry group for a
 hexagonal supercell.

 Subroutine GETGRP returns: Found  6 space group operations
 (whereof  6 operations were pure point group operations)
 out of a pool of 24 trial point group operations.

The static configuration has the point symmetry C_3v.

Analysis of symmetry for dynamics (positions and initial velocities):
 Subroutine PRICEL returns:
 Original cell was already a primitive cell.

[...]

The dynamic configuration has the point symmetry C_3v.

Analysis of constrained symmetry for selective dynamics:
 Subroutine PRICEL returns:
 Original cell was already a primitive cell.

 Routine SETGRP: Setting up the symmetry group for a
 hexagonal supercell.

 Subroutine GETGRP returns: Found  6 space group operations
 (whereof  6 operations were pure point group operations)
[...]
     24      -4.4061      2.00000
     25      -4.3917      2.00000
     26      -4.3817      2.00000
     27      -4.3285      2.00000
     28      -4.2262      2.00000
     29      -4.1625      2.00000
     30      -4.1440      2.00000
     31      -4.1416      2.00000
     32      -4.1079      2.00000
     33      -4.0841      2.00000
     34      -4.0826      2.00000
     35      -4.0745      2.00000
     36      -4.0723      2.00000
     37      -4.0299      2.00000
     38      -3.9919      2.00000
     39      -3.9441      2.00000
     40      -3.9230      2.00000
     41      -3.7787      2.00000
     42      -3.7603      2.00000
     43      -3.7229      2.00000
     44      -3.7063      2.00000
     45      -3.6807      2.00000
     46      -3.6739      2.00000
     47      -3.6665      2.00000
     48      -3.6581      2.00000
     49      -3.6430      2.00000
     50      -3.5132      2.00000
     51      -3.4909      2.00000
     52      -3.4697      2.00000
     53      -3.4497      2.00000
     54      -3.3956      2.00000
     55      -3.3829      2.00000
     56      -3.3762      2.00000
     57      -3.3549      2.00000
     58      -3.3474      2.00000
     59      -3.3424      2.00000
     60      -3.3204      2.00000
[...]
    238       6.2113      0.00000
    239       6.4211      0.00000
    240       6.7625      0.00000
    241       6.8104      0.00000
    242       7.0541      0.00000
    243       7.0744      0.00000
    244       7.1664      0.00000
    245       7.2068      0.00000
    246       7.2900      0.00000
    247       7.3966      0.00000
    248       7.4154      0.00000
    249       7.5075      0.00000
    250       7.5875      0.00000
    251       7.7111      0.00000
    252       7.8195      0.00000

 soft charge-density along one line, spin component           1
         0         1         2         3         4         5         6         7         8         9
 total charge-density along one line

------------------------ aborting loop because EDIFF is reached ----------------------------------------

 total charge

# of ion       s       p       d       tot
    1        0.449   0.283   9.188   9.920
    2        0.448   0.285   9.186   9.919
    3        0.448   0.285   9.186   9.919
    4        0.448   0.285   9.186   9.919
    5        0.449   0.285   9.185   9.918
    6        0.448   0.285   9.186   9.919
    7        0.448   0.285   9.186   9.919
    8        0.448   0.285   9.186   9.919
    9        0.449   0.284   9.188   9.921
   10        0.443   0.370   9.179   9.992
   11        0.440   0.365   9.181   9.987
   12        0.443   0.370   9.179   9.992
   13        0.440   0.365   9.181   9.987
   14        0.440   0.365   9.181   9.987
   15        0.440   0.373   9.177   9.990
   16        0.443   0.370   9.179   9.992
   17        0.440   0.373   9.177   9.990
   18        0.440   0.373   9.177   9.990
   19        0.446   0.372   9.181   9.999
   20        0.454   0.374   9.169   9.998
   21        0.454   0.374   9.169   9.998
   22        0.435   0.376   9.177   9.988
   23        0.454   0.374   9.169   9.998
   24        0.435   0.376   9.177   9.988
   25        0.446   0.372   9.181   9.999
   26        0.446   0.372   9.181   9.999
   27        0.435   0.376   9.177   9.988
   28        0.444   0.298   9.179   9.922
   29        0.489   0.318   9.163   9.970
   30        0.489   0.318   9.163   9.970
   31        0.489   0.318   9.163   9.970
   32        0.489   0.318   9.163   9.970
   33        0.489   0.318   9.163   9.970
   34        0.489   0.318   9.163   9.970
   35        0.444   0.303   9.178   9.925
   36        2.240   5.981   1.599   9.820
   37        0.535   0.005   0.000   0.541
tot         18.610  17.747 322.806 359.164

  FORCE on cell =-STRESS in cart. coord.  units (eV):
  Direction    XX          YY          ZZ          XY          YZ          ZX
  Alpha Z   889.36853   889.36853   889.36853
  Ewald  173719.51103173719.51060************     0.00038     0.00013     0.00021
  Hartree186733.28751186733.28749************     0.00003     0.00006     0.00007
  E(xc)   -2300.56402 -2300.56352 -2305.06855    -0.00043    -0.00003    -0.00006
  Local  ************************374058.92000     0.01825    -0.00057    -0.00092
  n-local  -772.88290  -761.07341  -779.98192     6.59850    -0.37553     0.39772
  augment  3308.65458  3308.67422  3331.33517    -0.01700     0.00024     0.00043
  Kinetic  3366.62733  3366.74888  3401.31319     0.29935     2.15230    -1.53061
  Fock        0.00000     0.00000     0.00000     0.00000     0.00000     0.00000
  Total      -2.39170    -2.39170     1.18013     0.00000    -0.00000    -0.00000
  in kB      -3.50919    -3.50919     1.73152     0.00000    -0.00000    -0.00000

 VOLUME and BASIS-vectors are now :
  energy-cutoff  :      500.00
  volume of cell :     1091.97
      direct lattice vectors                 reciprocal lattice vectors
     7.696786404  0.000000000  0.000000000     0.129924354 -0.075011849  0.000000000
     3.848392758  6.665612809  0.000000000     0.000000000  0.150023716  0.000000000
     0.000000000  0.000000000 21.284399033     0.000000000  0.000000000  0.046982769

  length of vectors
     7.696786404  7.696786404 21.284399033     0.150023716  0.150023716  0.046982769

 FORCES acting on ions
    electron-ion (+dipol)            ewald-force                    non-local-force                 convergence-correction
   -.409E-04 0.500E-06 0.349E+04   0.579E-04 -.429E-05 -.349E+04   0.198E-16 0.430E-17 -.214E+01   -.334E-03 -.160E-03 -.344E+00
   -.938E+00 -.107E+01 0.349E+04   0.919E+00 0.998E+00 -.349E+04   0.385E-01 0.806E-01 -.200E+01   -.157E-01 -.727E-02 -.279E+00
   0.938E+00 -.107E+01 0.349E+04   -.919E+00 0.998E+00 -.349E+04   -.385E-01 0.806E-01 -.200E+01   0.165E-01 -.464E-02 -.278E+00
   -.139E+01 -.278E+00 0.349E+04   0.132E+01 0.297E+00 -.349E+04   0.891E-01 -.699E-02 -.200E+01   -.141E-01 -.100E-01 -.279E+00
   -.607E-04 -.278E-05 0.348E+04   0.116E-03 -.101E-04 -.348E+04   -.145E-17 -.198E-17 -.192E+01   0.122E-01 0.748E-02 -.275E+00
   0.139E+01 -.278E+00 0.349E+04   -.132E+01 0.297E+00 -.349E+04   -.891E-01 -.699E-02 -.200E+01   0.124E-01 -.878E-02 -.277E+00
   -.456E+00 0.135E+01 0.349E+04   0.404E+00 -.129E+01 -.349E+04   0.506E-01 -.736E-01 -.200E+01   0.427E-02 0.166E-01 -.277E+00
   0.457E+00 0.135E+01 0.349E+04   -.405E+00 -.129E+01 -.349E+04   -.506E-01 -.736E-01 -.200E+01   -.738E-03 0.151E-01 -.277E+00
   -.143E-03 -.326E-04 0.349E+04   0.263E-03 0.205E-04 -.349E+04   -.348E-17 0.431E-19 -.201E+01   -.133E-01 -.685E-02 -.279E+00
   -.108E+02 -.625E+01 0.118E+04   0.110E+02 0.634E+01 -.118E+04   -.156E+00 -.899E-01 -.829E+00   0.284E-01 0.164E-01 -.199E+00
   -.905E-04 -.903E+01 0.117E+04   0.189E-03 0.875E+01 -.117E+04   -.180E-07 0.270E+00 -.478E+00   0.118E-01 0.676E-02 -.161E+00
   0.108E+02 -.625E+01 0.118E+04   -.110E+02 0.634E+01 -.118E+04   0.156E+00 -.899E-01 -.829E+00   -.304E-01 0.184E-01 -.199E+00
   -.782E+01 0.451E+01 0.117E+04   0.758E+01 -.438E+01 -.117E+04   0.234E+00 -.135E+00 -.478E+00   0.122E-01 0.766E-02 -.161E+00
   0.782E+01 0.451E+01 0.117E+04   -.758E+01 -.438E+01 -.117E+04   -.234E+00 -.135E+00 -.478E+00   0.122E-01 0.667E-02 -.161E+00
   -.140E-03 -.190E+01 0.118E+04   0.295E-03 0.184E+01 -.118E+04   -.369E-08 0.555E-01 -.930E+00   -.405E-02 0.113E-01 -.160E+00
   -.921E-04 0.125E+02 0.118E+04   0.186E-03 -.127E+02 -.118E+04   -.120E-07 0.180E+00 -.829E+00   -.169E-03 -.368E-01 -.199E+00
   -.164E+01 0.949E+00 0.118E+04   0.160E+01 -.922E+00 -.118E+04   0.480E-01 -.277E-01 -.930E+00   0.844E-02 -.916E-02 -.160E+00
   0.164E+01 0.949E+00 0.118E+04   -.160E+01 -.922E+00 -.118E+04   -.480E-01 -.277E-01 -.930E+00   -.768E-02 -.613E-02 -.159E+00
   -.685E-04 -.547E+01 -.111E+04   0.678E-04 0.544E+01 0.111E+04   0.235E-08 -.353E-01 0.106E+01   -.247E-02 0.427E-01 -.617E-01
   -.295E+02 -.171E+02 -.119E+04   0.303E+02 0.175E+02 0.119E+04   -.863E+00 -.498E+00 -.313E+00   0.179E-01 0.102E-01 -.703E-01
   0.295E+02 -.171E+02 -.119E+04   -.303E+02 0.175E+02 0.119E+04   0.863E+00 -.498E+00 -.313E+00   0.616E-02 0.116E-01 -.708E-01
   -.132E+02 0.765E+01 -.113E+04   0.132E+02 -.762E+01 0.113E+04   0.153E+00 -.883E-01 0.714E+00   -.705E-01 0.397E-01 -.459E-02
   -.471E-04 0.341E+02 -.119E+04   0.150E-03 -.350E+02 0.119E+04   -.664E-07 0.997E+00 -.313E+00   0.120E-01 -.170E-02 -.709E-01
   0.132E+02 0.765E+01 -.113E+04   -.132E+02 -.762E+01 0.113E+04   -.153E+00 -.883E-01 0.714E+00   0.679E-01 0.383E-01 -.455E-02
   0.473E+01 0.273E+01 -.111E+04   -.471E+01 -.272E+01 0.111E+04   0.305E-01 0.176E-01 0.106E+01   -.355E-01 -.205E-01 -.621E-01
   -.473E+01 0.273E+01 -.111E+04   0.471E+01 -.272E+01 0.111E+04   -.305E-01 0.176E-01 0.106E+01   0.361E-01 -.233E-01 -.616E-01
   -.146E-03 -.153E+02 -.113E+04   0.243E-03 0.152E+02 0.113E+04   -.118E-07 0.177E+00 0.714E+00   -.952E-03 -.809E-01 -.445E-02
   -.172E-04 0.301E-04 -.344E+04   0.416E-04 -.324E-04 0.344E+04   -.755E-18 -.785E-18 0.177E+01   -.312E-03 -.127E-03 0.283E+00
   -.702E+01 -.262E+02 -.341E+04   0.730E+01 0.264E+02 0.341E+04   -.322E+00 -.161E+00 0.982E+00   -.186E-01 -.766E-01 0.112E+00
   0.702E+01 -.262E+02 -.341E+04   -.730E+01 0.264E+02 0.341E+04   0.322E+00 -.161E+00 0.982E+00   0.197E-01 -.741E-01 0.112E+00
   -.262E+02 0.704E+01 -.341E+04   0.265E+02 -.686E+01 0.341E+04   -.301E+00 -.198E+00 0.982E+00   -.756E-01 0.221E-01 0.112E+00
   0.262E+02 0.704E+01 -.341E+04   -.265E+02 -.686E+01 0.341E+04   0.301E+00 -.198E+00 0.982E+00   0.739E-01 0.231E-01 0.111E+00
   -.192E+02 0.192E+02 -.341E+04   0.192E+02 -.195E+02 0.341E+04   0.214E-01 0.359E+00 0.982E+00   -.543E-01 0.540E-01 0.112E+00
   0.192E+02 0.192E+02 -.341E+04   -.192E+02 -.195E+02 0.341E+04   -.214E-01 0.359E+00 0.982E+00   0.577E-01 0.525E-01 0.112E+00
   -.127E-03 -.710E-05 -.346E+04   0.256E-03 -.955E-06 0.346E+04   0.226E-17 0.688E-18 0.187E+01   -.133E-01 -.686E-02 0.143E+00
   0.128E-03 -.164E-03 -.391E+04   0.122E-03 0.327E-04 0.392E+04   -.774E-18 0.287E-18 -.112E+01   0.508E-02 0.306E-02 0.112E+00
   0.750E-05 -.563E-05 -.361E+03   0.141E-05 0.815E-06 0.363E+03   0.211E-19 -.993E-20 -.179E+01   0.102E-03 0.609E-04 0.180E-01
   -.220E-04 -.930E-04 0.171E+02   0.132E-12 0.919E-13 0.682E-12   -.575E-16 0.965E-18 -.138E+02   0.570E-01 0.299E-01 -.331E+01

 POSITION                                       TOTAL-FORCE (eV/Angst)
      0.00000      0.00000      5.37156         0.000000      0.000000      0.015179
      2.56560      0.00000      5.37156         0.004014      0.003335      0.059774
      5.13119      0.00000      5.37156        -0.004014      0.003335      0.059774
      1.28280      2.22187      5.37156         0.004895      0.001809      0.059774
      3.84839      2.22187      5.37156         0.000000      0.000000      0.061094
      6.41399      2.22187      5.37156        -0.004895      0.001809      0.059774
      2.56560      4.44374      5.37156         0.000881     -0.005144      0.059774
      5.13119      4.44374      5.37156        -0.000881     -0.005144      0.059774
      7.69679      4.44374      5.37156         0.000000      0.000000      0.034922
      1.28280      0.74062      7.46636         0.028015      0.016174     -0.112062
      3.84839      0.74062      7.46636         0.000000     -0.005771     -0.012472
      6.41399      0.74062      7.46636        -0.028015      0.016174     -0.112062
      2.56560      2.96249      7.46636        -0.004998      0.002886     -0.012472
      5.13119      2.96249      7.46636         0.004998      0.002886     -0.012472
      7.69679      2.96249      7.46636        -0.000000      0.012046     -0.041830
      3.84839      5.18437      7.46636         0.000000     -0.032348     -0.112062
      6.41399      5.18437      7.46636         0.010432     -0.006023     -0.041830
      8.97958      5.18437      7.46636        -0.010432     -0.006023     -0.041830
      7.69679      1.47435      9.52922         0.000000     -0.022175      0.010304
      2.57570      1.48708      9.58099        -0.112187     -0.064771     -0.159672
      5.12109      1.48708      9.58099         0.112187     -0.064771     -0.159672
      8.97941      3.70322      9.55185         0.029442     -0.016998      0.028428
      3.84839      3.69145      9.58099        -0.000000      0.129542     -0.159672
      6.41416      3.70322      9.55185        -0.029442     -0.016998      0.028428
     10.26835      5.92844      9.52922         0.019204      0.011087      0.010304
      5.12522      5.92844      9.52922        -0.019204      0.011087      0.010304
      7.69679      5.92479      9.55185        -0.000000      0.033996      0.028428
      0.00000      0.00000     11.63765         0.000000      0.000000      0.002573
      6.39598      6.62341     11.64088        -0.059299     -0.104764     -0.108144
      8.99759      6.62341     11.64088         0.059299     -0.104764     -0.108144
      8.93403      2.22738     11.64088        -0.120378      0.001028     -0.108144
      6.45955      2.22738     11.64088         0.120378      0.001028     -0.108144
     10.23483      4.48044     11.64088        -0.061079      0.103736     -0.108144
      5.15874      4.48044     11.64088         0.061079      0.103736     -0.108144
      7.69679      4.44374     11.66679         0.000000      0.000000      0.002677
      3.84839      2.22187     12.03290         0.000000      0.000000      1.047078
      3.84839      2.22187     13.90577         0.000000      0.000000     -0.011389
    total drift:                                0.056952      0.029803      0.011345

  FREE ENERGIE OF THE ION-ELECTRON SYSTEM (eV)
  free  energy   TOTEN  =      -133.61199416 eV

  energy  without entropy=     -133.61199416  energy(sigma->0) =     -133.61199416

 stress matrix after NEB project (eV)
     -2.39170      0.00000     -0.00000
      0.00000     -2.39170     -0.00000
     -0.00000     -0.00000      1.18013
  FORCES: max atom, RMS     0.011389    0.001872
  FORCE total and by dimension    0.011389    0.011389
  Stress total and by dimension    3.582345    2.391704
|           W    W    AA    RRRRR   N    N  II  N    N   GGGG   !!!           |
|           W    W   A  A   R    R  NN   N  II  NN   N  G    G  !!!           |
|           W    W  A    A  R    R  N N  N  II  N N  N  G       !!!           |
|           W WW W  AAAAAA  RRRRR   N  N N  II  N  N N  G  GGG   !            |
|           WW  WW  A    A  R   R   N   NN  II  N   NN  G    G                |
|           W    W  A    A  R    R  N    N  II  N    N   GGGG   !!!           |
|     Tetrahedron method does not include variations of the Fermi             |
|     occupations, so forces and stress will be inaccurate. We suggest        |
|     using a different smearing scheme ISMEAR = 1 or 2 for metals in         |
|     relaxations.                                                            |

 total charge

# of ion       s       p       d       tot
    1        0.449   0.283   9.188   9.920
    2        0.448   0.285   9.186   9.919
    3        0.448   0.285   9.186   9.919
    4        0.448   0.285   9.186   9.919
    5        0.449   0.285   9.185   9.918
    6        0.448   0.285   9.186   9.919
    7        0.448   0.285   9.186   9.919
    8        0.448   0.285   9.186   9.919
    9        0.449   0.284   9.188   9.921
   10        0.443   0.370   9.179   9.992
   11        0.440   0.365   9.181   9.987
   12        0.443   0.370   9.179   9.992
   13        0.440   0.365   9.181   9.987
   14        0.440   0.365   9.181   9.987
   15        0.440   0.373   9.177   9.990
   16        0.443   0.370   9.179   9.992
   17        0.440   0.373   9.177   9.990
   18        0.440   0.373   9.177   9.990
   19        0.446   0.372   9.181   9.999
   20        0.454   0.374   9.169   9.998
   21        0.454   0.374   9.169   9.998
   22        0.435   0.376   9.177   9.988
   23        0.454   0.374   9.169   9.998
   24        0.435   0.376   9.177   9.988
   25        0.446   0.372   9.181   9.999
   26        0.446   0.372   9.181   9.999
   27        0.435   0.376   9.177   9.988
   28        0.444   0.298   9.179   9.922
   29        0.489   0.318   9.163   9.970
   30        0.489   0.318   9.163   9.970
   31        0.489   0.318   9.163   9.970
   32        0.489   0.318   9.163   9.970
   33        0.489   0.318   9.163   9.970
   34        0.489   0.318   9.163   9.970
   35        0.444   0.303   9.178   9.925
   36        2.240   5.981   1.599   9.820
   37        0.535   0.005   0.000   0.541
tot         18.610  17.747 322.806 359.164

 BZINTS: Fermi energy:    0.056457;  398.000000 electrons
         Band energy:-0.136033E+04;  BLOECHL correction:   -0.056946