 vasp.6.2.0 18Jan21 (build Jun 12 2021 23:27:24) complex

 executed on             LinuxIFC date 2022.05.28  02:14:14

 INCAR:
   ISMEAR = -5
   SIGMA = 0.1
   ISPIN = 1
   EDIFF = 1.d-5
   EDIFFG = -0.01
   NSW = 0
   NELM = 150
   ENCUT = 500
   ISIF = 2
   IBRION = 2
   LREAL = Auto
   ALGO = Fast
   ICHARG = 11
   LORBIT = 10
   LCHARG = .F.
   LWAVE = .F.

 POTCAR:    PAW_PBE Cu 22Jun2005
 POTCAR:    PAW_PBE Ti 08Apr2002
 POTCAR:    PAW_PBE H 15Jun2001
 POTCAR:    PAW_PBE O 08Apr2002
|           W    W    AA    RRRRR   N    N  II  N    N   GGGG   !!!           |
|           W    W   A  A   R    R  NN   N  II  NN   N  G    G  !!!           |
|           W    W  A    A  R    R  N N  N  II  N N  N  G       !!!           |
|           W WW W  AAAAAA  RRRRR   N  N N  II  N  N N  G  GGG   !            |
|           WW  WW  A    A  R   R   N   NN  II  N   NN  G    G                |
|           W    W  A    A  R    R  N    N  II  N    N   GGGG   !!!           |
|     For optimal performance we recommend to set                             |
|       NCORE = 2 up to number-of-cores-per-socket                            |
|     This setting can greatly improve the performance of VASP for DFT.       |
|     The default, NCORE=1 might be grossly inefficient on modern             |
|     multi-core architectures or massively parallel machines. Do your        |
|     Unfortunately you need to use the default for GW and RPA                |
|     calculations (for HF NCORE is supported but not extensively tested      |
|     yet).                                                                   |

 POTCAR:    PAW_PBE Cu 22Jun2005
   VRHFIN =Cu: d10 p1

   TITEL  = PAW_PBE Cu 22Jun2005
   POMASS =   63.546; ZVAL   =   11.000    mass and valenz
   ENMAX  =  295.446; ENMIN  =  221.585 eV

 POTCAR:    PAW_PBE Ti 08Apr2002
   VRHFIN =Ti: d3 s1

   TITEL  = PAW_PBE Ti 08Apr2002
   POMASS =   47.880; ZVAL   =    4.000    mass and valenz
   ENMAX  =  178.330; ENMIN  =  133.747 eV

 POTCAR:    PAW_PBE H 15Jun2001
   VRHFIN =H: ultrasoft test

   TITEL  = PAW_PBE H 15Jun2001
   POMASS =    1.000; ZVAL   =    1.000    mass and valenz
   ENMAX  =  250.000; ENMIN  =  200.000 eV

 POTCAR:    PAW_PBE O 08Apr2002
   VRHFIN =O: s2p4

   TITEL  = PAW_PBE O 08Apr2002
   POMASS =   16.000; ZVAL   =    6.000    mass and valenz
   ENMAX  =  400.000; ENMIN  =  300.000 eV

 Optimization of the real space projectors (new method)

 maximal supplied QI-value         = 16.25
 optimisation between [QCUT,QGAM] = [ 11.38, 22.75] = [ 36.24,144.96] Ry
 Optimized for a Real-space Cutoff    1.52 Angstroem

   l    n(q)    QCUT    max X(q) W(low)/X(q) W(high)/X(q)  e(spline)
   2      9    11.376     4.610    0.21E-03    0.10E-03    0.26E-06
   2      9    11.376     8.522    0.33E-03    0.16E-03    0.37E-06
   0     10    11.376    51.609    0.62E-04    0.20E-04    0.13E-06
   0     10    11.376    27.747    0.54E-04    0.20E-04    0.13E-06
   1     10    11.376    20.408    0.13E-04    0.99E-04    0.19E-06
   1     10    11.376    13.425    0.12E-04    0.87E-04    0.17E-06
 Optimization of the real space projectors (new method)

[...]

   l    n(q)    QCUT    max X(q) W(low)/X(q) W(high)/X(q)  e(spline)
   0      8    11.287    19.460    0.40E-03    0.73E-03    0.16E-06
   0      8    11.287    12.209    0.38E-03    0.70E-03    0.15E-06
   1      7    11.287     4.655    0.22E-03    0.25E-04    0.22E-06
 Optimization of the real space projectors (new method)

 maximal supplied QI-value         = 24.76
 optimisation between [QCUT,QGAM] = [ 11.39, 22.77] = [ 36.31,145.25] Ry
 Optimized for a Real-space Cutoff    1.00 Angstroem

   l    n(q)    QCUT    max X(q) W(low)/X(q) W(high)/X(q)  e(spline)
   0      7    11.387    20.381    0.39E-03    0.13E-02    0.15E-06
   0      7    11.387    15.268    0.42E-03    0.14E-02    0.17E-06
   1      6    11.387     5.964    0.41E-03    0.11E-02    0.17E-06
   1      6    11.387     5.382    0.39E-03    0.87E-03    0.15E-06
  PAW_PBE Cu 22Jun2005                  :
  PAW_PBE Ti 08Apr2002                  :
  PAW_PBE H 15Jun2001                   :
  PAW_PBE O 08Apr2002                   :

 POSCAR: Cu-Ti-H2O
  positions in direct lattice
  velocities in cartesian coordinates
 exchange correlation table for  LEXCH =        8
   RHO(1)=    0.500       N(1)  =     2000
   RHO(2)=  100.500       N(2)  =     4000

 VTST: version 3.2, (02/03/18)

 CHAIN: initializing optimizer

 OPT: Using VASP Conjugate-Gradient optimizer
 CHAIN: Read ICHAIN            0

 POSCAR: Cu-Ti-H2O
  positions in direct lattice
  velocities in cartesian coordinates

 ion  position               nearest neighbor table
   1  0.000  0.000  0.221-   7 2.57   3 2.57   4 2.57   2 2.57   6 2.57   8 2.57  12 2.57  10 2.57
                            16 2.57
   2  0.333  0.000  0.221-   8 2.57   9 2.57   5 2.57   1 2.57   3 2.57  11 2.57   4 2.57  10 2.57
                            17 2.57
   3  0.667  0.000  0.221-   1 2.57   7 2.57   6 2.57   9 2.57   2 2.57  12 2.57   5 2.57  18 2.57
                            11 2.57
   4  0.000  0.333  0.221-   5 2.57   6 2.57   1 2.57   7 2.57   2 2.57  13 2.57   9 2.57  10 2.57
                            15 2.57
   5  0.333  0.333  0.221-   4 2.57   2 2.57   7 2.57  13 2.57   8 2.57   6 2.57   3 2.57  11 2.57
                            14 2.57
   6  0.667  0.333  0.221-   4 2.57   9 2.57  15 2.57   3 2.57   1 2.57   8 2.57  14 2.57   5 2.57
                            12 2.57
   7  0.000  0.667  0.221-   1 2.57   3 2.57  16 2.57  18 2.57   4 2.57   5 2.57   8 2.57   9 2.57
                            13 2.57
   8  0.333  0.667  0.221-   9 2.57   2 2.57  17 2.57   6 2.57   1 2.57   7 2.57   5 2.57  14 2.57
                            16 2.57
   9  0.667  0.667  0.221-   8 2.57   6 2.57   2 2.57  17 2.57   3 2.57   7 2.57   4 2.57  15 2.57
                            18 2.57
  10  0.111  0.111  0.308-  26 2.55  19 2.55  11 2.57  12 2.57  13 2.57   1 2.57   2 2.57   4 2.57
                            15 2.57  16 2.57  17 2.57  20 2.57
  11  0.444  0.111  0.308-  27 2.56  20 2.56  21 2.56  10 2.57  13 2.57   2 2.57  17 2.57  14 2.57
                            12 2.57   5 2.57   3 2.57  18 2.57
  12  0.778  0.111  0.308-  19 2.55  25 2.55  15 2.57  10 2.57  14 2.57  18 2.57   3 2.57   1 2.57
                            16 2.57  11 2.57   6 2.57  21 2.57
  13  0.111  0.444  0.308-  22 2.56  23 2.56  20 2.56  16 2.57  18 2.57  10 2.57  11 2.57  14 2.57
                             5 2.57   4 2.57   7 2.57  15 2.57
  14  0.444  0.444  0.308-  24 2.56  21 2.56  23 2.56  15 2.57  17 2.57  12 2.57  16 2.57  13 2.57
                            11 2.57   6 2.57   8 2.57   5 2.57
  15  0.778  0.444  0.308-  19 2.55  24 2.56  22 2.56  14 2.57  17 2.57  12 2.57   6 2.57  18 2.57
                            10 2.57   9 2.57  13 2.57   4 2.57
  16  0.111  0.778  0.308-  25 2.55  26 2.55  18 2.57  13 2.57   7 2.57  14 2.57  17 2.57  12 2.57
                            10 2.57   8 2.57   1 2.57  23 2.57
  17  0.444  0.778  0.308-  26 2.55  27 2.56  24 2.56  14 2.57  15 2.57   8 2.57   9 2.57  11 2.57
                            16 2.57  18 2.57  10 2.57   2 2.57
  18  0.778  0.778  0.308-  25 2.55  22 2.56  27 2.56  16 2.57  13 2.57   7 2.57  15 2.57  12 2.57
                            17 2.57   9 2.57   3 2.57  11 2.57
  19  0.889  0.222  0.393-  12 2.55  10 2.55  15 2.55  25 2.56  26 2.56  28 2.56  22 2.57  24 2.57
                            21 2.57  20 2.57  32 2.57  31 2.57
  20  0.223  0.223  0.394-  23 2.55  21 2.55  11 2.56  13 2.56  27 2.57  22 2.57  29 2.57  31 2.57
                            10 2.57  26 2.57  19 2.57  36 2.66
  21  0.555  0.223  0.394-  20 2.55  23 2.55  14 2.56  11 2.56  24 2.57  27 2.57  32 2.57  30 2.57
                            12 2.57  19 2.57  25 2.57  36 2.66
  22  0.889  0.556  0.394-  18 2.56  15 2.56  13 2.56  31 2.56  33 2.56  24 2.56  27 2.56  23 2.57
                            20 2.57  19 2.57  25 2.57  35 2.57
  23  0.223  0.555  0.394-  20 2.55  21 2.55  13 2.56  14 2.56  22 2.57  24 2.57  33 2.57  34 2.57
                            16 2.57  25 2.57  26 2.57  36 2.66
  24  0.556  0.556  0.394-  15 2.56  17 2.56  14 2.56  32 2.56  34 2.56  22 2.56  27 2.56  21 2.57
                            23 2.57  19 2.57  26 2.57  35 2.57
  25  0.889  0.889  0.393-  12 2.55  16 2.55  18 2.55  19 2.56  26 2.56  28 2.56  22 2.57  27 2.57
                            21 2.57  23 2.57  33 2.57  30 2.57
  26  0.222  0.889  0.393-  10 2.55  16 2.55  17 2.55  25 2.56  19 2.56  28 2.56  27 2.57  24 2.57
                            20 2.57  23 2.57  29 2.57  34 2.57
  27  0.556  0.889  0.394-  17 2.56  18 2.56  11 2.56  29 2.56  30 2.56  24 2.56  22 2.56  20 2.57
                            21 2.57  26 2.57  25 2.57  35 2.57
  28  0.000  0.000  0.479-  33 2.56  30 2.56  31 2.56  29 2.56  32 2.56  34 2.56  25 2.56  19 2.56
                            26 2.56
  29  0.334  0.998  0.480-  34 2.53  35 2.55  28 2.56  27 2.56  20 2.57  26 2.57  30 2.58  36 2.59
                            31 2.59
  30  0.669  0.998  0.480-  33 2.53  35 2.55  28 2.56  27 2.56  21 2.57  25 2.57  29 2.58  36 2.59
                            32 2.59
  31  0.998  0.334  0.480-  32 2.53  35 2.55  28 2.56  22 2.56  20 2.57  19 2.57  33 2.58  36 2.59
                            29 2.59
  32  0.669  0.334  0.480-  31 2.53  35 2.55  28 2.56  24 2.56  21 2.57  19 2.57  34 2.58  36 2.59
                            30 2.59
  33  0.998  0.669  0.480-  30 2.53  35 2.55  28 2.56  22 2.56  23 2.57  25 2.57  31 2.58  36 2.59
                            34 2.59
  34  0.334  0.669  0.480-  29 2.53  35 2.55  28 2.56  24 2.56  23 2.57  26 2.57  32 2.58  36 2.59
                            33 2.59
  35  0.667  0.667  0.480-  34 2.55  32 2.55  29 2.55  30 2.55  33 2.55  31 2.55  24 2.57  27 2.57
                            22 2.57
  36  0.333  0.333  0.485-  39 2.18  31 2.59  29 2.59  33 2.59  32 2.59  34 2.59  30 2.59  23 2.66
                            20 2.66  21 2.66
  37  0.277  0.242  0.585-  39 0.98
  38  0.481  0.243  0.584-  39 0.98
  39  0.339  0.323  0.575-  37 0.98  38 0.98  36 2.18

  LATTYP: Found a hexagonal cell.
 ALAT       =     7.6967864036
 C/A-ratio  =     3.1535378041

  Lattice vectors:

 A1 = (  -3.8483927580,  -6.6656128093,   0.0000000000)
 A2 = (   7.6967864037,   0.0000000000,   0.0000000000)
 A3 = (   0.0000000000,   0.0000000000,  24.2721068937)

Analysis of symmetry for initial positions (statically):
 Subroutine PRICEL returns:
 Original cell was already a primitive cell.

 Routine SETGRP: Setting up the symmetry group for a
 hexagonal supercell.

 Subroutine GETGRP returns: Found  1 space group operations
 (whereof  1 operations were pure point group operations)
 out of a pool of 24 trial point group operations.

The static configuration has the point symmetry C_1 .

Analysis of symmetry for dynamics (positions and initial velocities):
 Subroutine PRICEL returns:
 Original cell was already a primitive cell.

[...]

The dynamic configuration has the point symmetry C_1 .

Analysis of constrained symmetry for selective dynamics:
 Subroutine PRICEL returns:
[...]
     41      -3.9092      2.00000
     42      -3.9002      2.00000
     43      -3.8366      2.00000
     44      -3.8299      2.00000
     45      -3.8173      2.00000
     46      -3.7935      2.00000
     47      -3.7886      2.00000
     48      -3.7824      2.00000
     49      -3.7777      2.00000
     50      -3.6100      2.00000
     51      -3.5967      2.00000
     52      -3.5797      2.00000
     53      -3.5621      2.00000
     54      -3.5189      2.00000
     55      -3.5078      2.00000
     56      -3.4909      2.00000
     57      -3.4865      2.00000
     58      -3.4725      2.00000
     59      -3.4700      2.00000
     60      -3.4372      2.00000
[...]
    238       5.6648      0.00000
    239       5.7119      0.00000
    240       5.8001      0.00000
    241       5.8380      0.00000
    242       6.0046      0.00000
    243       6.0165      0.00000
    244       6.1030      0.00000
    245       6.1375      0.00000
    246       6.3303      0.00000
    247       6.5967      0.00000
    248       6.7921      0.00000
    249       6.9847      0.00000
    250       7.0808      0.00000
    251       7.1888      0.00000
    252       7.4617      0.00000

 soft charge-density along one line, spin component           1
         0         1         2         3         4         5         6         7         8         9
 total charge-density along one line

------------------------ aborting loop because EDIFF is reached ----------------------------------------

 total charge

# of ion       s       p       d       tot
    1        0.450   0.283   9.187   9.921
    2        0.448   0.286   9.186   9.919
    3        0.448   0.286   9.186   9.919
    4        0.448   0.286   9.186   9.919
    5        0.448   0.286   9.182   9.916
    6        0.448   0.286   9.186   9.919
    7        0.448   0.286   9.186   9.919
    8        0.448   0.286   9.186   9.919
    9        0.449   0.284   9.186   9.920
   10        0.443   0.371   9.176   9.991
   11        0.441   0.366   9.182   9.989
   12        0.443   0.371   9.176   9.990
   13        0.441   0.366   9.181   9.989
   14        0.441   0.366   9.181   9.989
   15        0.439   0.371   9.177   9.988
   16        0.443   0.371   9.176   9.990
   17        0.439   0.372   9.177   9.987
   18        0.439   0.372   9.177   9.987
   19        0.445   0.371   9.179   9.995
   20        0.460   0.386   9.159  10.004
   21        0.460   0.386   9.159  10.004
   22        0.435   0.376   9.178   9.988
   23        0.459   0.386   9.159  10.004
   24        0.435   0.376   9.178   9.988
   25        0.444   0.371   9.180   9.995
   26        0.444   0.371   9.180   9.995
   27        0.435   0.376   9.177   9.989
   28        0.444   0.297   9.178   9.919
   29        0.479   0.315   9.160   9.954
   30        0.479   0.315   9.160   9.954
   31        0.479   0.314   9.160   9.953
   32        0.479   0.314   9.159   9.953
   33        0.478   0.309   9.163   9.950
   34        0.478   0.309   9.163   9.950
   35        0.442   0.301   9.178   9.921
   36        0.502   0.598   2.349   3.449
   37        0.598   0.117   0.000   0.714
   38        0.597   0.116   0.000   0.714
   39        1.567   3.623   0.000   5.190
tot         19.043  16.224 323.491 358.758

  FORCE on cell =-STRESS in cart. coord.  units (eV):
  Direction    XX          YY          ZZ          XY          YZ          ZX
  Alpha Z   778.88450   778.88450   778.88450
  Ewald  228247.40431228180.79990************     0.00599    -7.45240    -0.81210
  Hartree240995.06306240983.51363************     0.01804    11.43452    -0.35420
  E(xc)   -2297.83987 -2298.07110 -2301.88893    -0.00033    -0.04188    -0.00350
  Local  ************************482022.39198    -0.00369   -11.55447     1.01429
  n-local  -784.02469  -784.58622  -794.81521     0.00094    -0.15559     0.00155
  augment  3319.92235  3321.15066  3342.21995    -0.01959     0.43458     0.01078
  Kinetic  3286.23674  3305.17905  3338.74660     0.00739     7.18545     0.14926
  Fock        0.00000     0.00000     0.00000     0.00000     0.00000     0.00000
  Total      -8.35279    -8.30127    -1.54567     0.00874    -0.14979     0.00609
  in kB     -10.74695   -10.68066    -1.98871     0.01124    -0.19272     0.00783

 VOLUME and BASIS-vectors are now :
  energy-cutoff  :      500.00
  volume of cell :     1245.25
      direct lattice vectors                 reciprocal lattice vectors
     7.696786404  0.000000000  0.000000000     0.129924354 -0.075011849  0.000000000
     3.848392758  6.665612809  0.000000000     0.000000000  0.150023716  0.000000000
     0.000000000  0.000000000 24.272106894     0.000000000  0.000000000  0.041199555

  length of vectors
     7.696786404  7.696786404 24.272106894     0.150023716  0.150023716  0.041199555

 FORCES acting on ions
    electron-ion (+dipol)            ewald-force                    non-local-force                 convergence-correction
   0.224E-02 0.128E-01 0.374E+04   0.272E-03 -.118E-01 -.374E+04   -.830E-04 -.178E-02 -.220E+01   -.246E-02 0.206E-02 -.232E-01
   -.968E+00 -.115E+01 0.374E+04   0.926E+00 0.107E+01 -.374E+04   0.296E-01 0.798E-01 -.189E+01   0.208E-01 0.396E-02 0.753E-01
   0.966E+00 -.116E+01 0.374E+04   -.927E+00 0.107E+01 -.374E+04   -.303E-01 0.784E-01 -.189E+01   -.180E-01 0.184E-01 0.761E-01
   -.151E+01 -.305E+00 0.374E+04   0.140E+01 0.283E+00 -.374E+04   0.925E-01 -.628E-02 -.190E+01   0.261E-01 0.300E-01 0.755E-01
   -.170E-01 -.231E-01 0.374E+04   -.239E-03 0.216E-01 -.374E+04   -.893E-02 -.106E-01 -.180E+01   0.265E-01 0.995E-02 0.104E+00
   0.152E+01 -.309E+00 0.374E+04   -.140E+01 0.283E+00 -.374E+04   -.918E-01 -.701E-02 -.190E+01   -.389E-01 0.352E-01 0.801E-01
   -.502E+00 0.145E+01 0.374E+04   0.473E+00 -.135E+01 -.374E+04   0.462E-01 -.684E-01 -.194E+01   -.157E-01 -.327E-01 0.830E-01
   0.491E+00 0.146E+01 0.374E+04   -.474E+00 -.135E+01 -.374E+04   -.482E-01 -.677E-01 -.194E+01   0.287E-01 -.417E-01 0.861E-01
   0.149E-01 0.365E-01 0.374E+04   0.400E-03 -.953E-02 -.374E+04   0.978E-02 -.270E-02 -.197E+01   -.255E-01 -.233E-01 0.707E-01
   -.952E+01 -.550E+01 0.125E+04   0.968E+01 0.561E+01 -.125E+04   -.228E+00 -.147E+00 -.870E+00   0.751E-01 0.492E-01 -.299E+00
   -.105E-01 -.102E+02 0.123E+04   -.200E-02 0.993E+01 -.123E+04   -.842E-02 0.240E+00 -.391E+00   0.213E-01 0.431E-01 -.304E+00
   0.952E+01 -.551E+01 0.125E+04   -.968E+01 0.561E+01 -.125E+04   0.228E+00 -.147E+00 -.869E+00   -.829E-01 0.597E-01 -.305E+00
   -.885E+01 0.499E+01 0.123E+04   0.858E+01 -.483E+01 -.123E+04   0.206E+00 -.128E+00 -.385E+00   0.391E-01 -.171E-01 -.290E+00
   0.883E+01 0.499E+01 0.123E+04   -.859E+01 -.483E+01 -.123E+04   -.223E+00 -.128E+00 -.386E+00   0.248E-02 -.180E-01 -.292E+00
   0.112E-01 -.108E+01 0.125E+04   0.255E-02 0.951E+00 -.125E+04   0.202E-02 0.874E-01 -.853E+00   -.157E-01 0.410E-01 -.315E+00
   -.491E-02 0.111E+02 0.125E+04   0.430E-04 -.113E+02 -.125E+04   0.885E-04 0.272E+00 -.879E+00   0.473E-02 -.893E-01 -.303E+00
   -.799E+00 0.615E+00 0.125E+04   0.718E+00 -.553E+00 -.125E+04   0.497E-01 -.311E-01 -.857E+00   0.318E-01 -.311E-01 -.323E+00
   0.805E+00 0.606E+00 0.125E+04   -.718E+00 -.556E+00 -.125E+04   -.508E-01 -.327E-01 -.857E+00   -.363E-01 -.175E-01 -.323E+00
   -.178E-01 -.935E+01 -.123E+04   0.169E-01 0.942E+01 0.123E+04   0.302E-03 -.355E-01 0.774E+00   0.456E-03 -.356E-01 -.139E+00
   -.665E+02 -.392E+02 -.134E+04   0.674E+02 0.398E+02 0.134E+04   -.992E+00 -.581E+00 -.574E+00   0.446E-01 0.233E-01 -.163E+00
   0.665E+02 -.392E+02 -.134E+04   -.674E+02 0.398E+02 0.134E+04   0.101E+01 -.581E+00 -.573E+00   -.711E-01 0.328E-01 -.167E+00
   -.310E+02 0.176E+02 -.125E+04   0.307E+02 -.175E+02 0.125E+04   0.268E+00 -.133E+00 0.637E+00   0.424E-01 -.556E-01 -.206E+00
   -.371E-02 0.766E+02 -.134E+04   -.129E-01 -.776E+02 0.134E+04   -.810E-02 0.119E+01 -.446E+00   0.252E-01 -.930E-01 -.200E+00
   0.310E+02 0.176E+02 -.125E+04   -.307E+02 -.174E+02 0.125E+04   -.268E+00 -.133E+00 0.636E+00   -.545E-01 -.528E-01 -.207E+00
   0.744E+01 0.533E+01 -.123E+04   -.752E+01 -.535E+01 0.123E+04   0.555E-01 -.185E-01 0.882E+00   0.338E-01 0.436E-01 -.159E+00
   -.745E+01 0.532E+01 -.123E+04   0.752E+01 -.533E+01 0.123E+04   -.560E-01 -.177E-01 0.883E+00   -.281E-01 0.364E-01 -.158E+00
   0.990E-02 -.347E+02 -.125E+04   -.526E-02 0.343E+02 0.125E+04   0.697E-03 0.300E+00 0.599E+00   -.534E-02 0.818E-01 -.191E+00
   -.524E-01 0.283E+01 -.366E+04   0.503E-01 -.292E+01 0.366E+04   -.777E-03 0.745E-01 0.160E+01   0.280E-02 0.243E-01 -.490E-01
   -.419E+02 -.847E+02 -.363E+04   0.423E+02 0.850E+02 0.363E+04   -.503E+00 -.558E+00 0.534E+00   0.486E-01 0.130E+00 -.839E-01
   0.419E+02 -.845E+02 -.363E+04   -.424E+02 0.849E+02 0.363E+04   0.503E+00 -.559E+00 0.531E+00   -.507E-01 0.140E+00 -.805E-01
   -.988E+02 0.148E+01 -.364E+04   0.995E+02 -.126E+01 0.364E+04   -.836E+00 -.202E+00 0.461E+00   0.119E+00 -.290E-01 -.828E-01
   0.986E+02 0.144E+01 -.364E+04   -.993E+02 -.123E+01 0.364E+04   0.838E+00 -.202E+00 0.454E+00   -.125E+00 -.203E-01 -.813E-01
   -.576E+02 0.863E+02 -.364E+04   0.577E+02 -.868E+02 0.364E+04   -.180E+00 0.713E+00 0.947E+00   0.419E-01 -.868E-01 -.101E+00
   0.576E+02 0.862E+02 -.364E+04   -.577E+02 -.867E+02 0.364E+04   0.178E+00 0.713E+00 0.948E+00   -.298E-01 -.904E-01 -.104E+00
   -.141E-01 0.230E+01 -.368E+04   0.299E-01 -.227E+01 0.367E+04   0.914E-02 -.134E-01 0.194E+01   -.253E-01 -.183E-01 -.107E-01
   0.903E-01 -.529E+01 -.129E+04   -.954E-01 0.531E+01 0.129E+04   0.243E-03 0.376E-01 0.180E+01   0.204E-02 -.131E-01 -.214E-01
   0.670E+02 0.423E+02 -.376E+03   -.737E+02 -.466E+02 0.378E+03   0.669E+01 0.430E+01 -.196E+01   0.447E-02 0.287E-02 -.405E-02
   -.673E+02 0.420E+02 -.376E+03   0.740E+02 -.463E+02 0.377E+03   -.671E+01 0.428E+01 -.188E+01   -.430E-02 0.309E-02 -.428E-02
   0.275E+00 -.573E+02 -.216E+04   -.372E+00 0.988E+02 0.215E+04   0.101E+00 -.415E+02 0.835E+01   0.305E-02 -.116E-01 -.723E-01
   -.807E-01 0.330E+02 0.118E+02   -.996E-13 0.213E-12 -.637E-11   0.658E-01 -.330E+02 -.725E+01   0.156E-01 0.328E-01 -.441E+01

 POSITION                                       TOTAL-FORCE (eV/Angst)
      0.00000      0.00000      5.37156        -0.000041      0.000120      0.001056
      2.56560      0.00000      5.37156         0.008487      0.003989      0.045889
      5.13119      0.00000      5.37156        -0.008549      0.003833      0.045940
      1.28280      2.22187      5.37156         0.005953      0.000562      0.049146
      3.84839      2.22187      5.37156         0.000327     -0.003288      0.054551
      6.41399      2.22187      5.37156        -0.005864      0.000565      0.049152
      2.56560      4.44374      5.37156         0.001807     -0.007973      0.047680
      5.13119      4.44374      5.37156        -0.001840     -0.007917      0.047741
      7.69679      4.44374      5.37156        -0.000432     -0.000111      0.020796
      1.28280      0.74062      7.46636         0.009214      0.005952     -0.100861
      3.84839      0.74062      7.46636         0.000378     -0.032334     -0.053032
      6.41399      0.74062      7.46636        -0.009137      0.005914     -0.100800
      2.56560      2.96249      7.46636        -0.022217      0.015905     -0.050384
      5.13119      2.96249      7.46636         0.023238      0.015941     -0.050507
      7.69679      2.96249      7.46636         0.000052     -0.000229     -0.027664
      3.84839      5.18437      7.46636        -0.000074     -0.015391     -0.103248
      6.41399      5.18437      7.46636         0.000074     -0.001151     -0.022267
      8.97958      5.18437      7.46636        -0.000037     -0.001273     -0.022318
      7.69679      1.47704      9.53921        -0.000166     -0.005626     -0.015050
      2.57092      1.48432      9.56248        -0.024406     -0.015642     -0.080786
      5.12587      1.48432      9.56248         0.023398     -0.015745     -0.081099
      8.97870      3.70363      9.55579         0.017030     -0.014867      0.010854
      3.84839      3.69697      9.56248         0.000433      0.036923     -0.067483
      6.41487      3.70363      9.55579        -0.017009     -0.014931      0.010741
     10.26602      5.92709      9.53921         0.007223      0.004172     -0.006218
      5.12755      5.92709      9.53921        -0.007284      0.004102     -0.006198
      7.69679      5.92397      9.55579        -0.000019      0.023265      0.002918
      0.00000      0.00000     11.63511        -0.000006      0.007326      0.053267
      6.40848      6.64966     11.64831        -0.046238     -0.057122     -0.073151
      8.98509      6.64966     11.64831         0.046395     -0.057036     -0.072719
      8.96302      2.22507     11.64831        -0.055574     -0.011193     -0.058334
      6.43055      2.22507     11.64831         0.055502     -0.011411     -0.058081
     10.25132      4.45649     11.64831        -0.050001      0.057639     -0.079024
      5.14225      4.45649     11.64831         0.050015      0.057694     -0.079067
      7.69679      4.44374     11.65790        -0.000417     -0.002365      0.035231
      3.84839      2.22187     11.77538        -0.002837      0.044479      0.721057
      3.06527      1.61556     14.19021        -0.006000     -0.003301     -0.000132
      4.63956      1.61751     14.18151         0.001747     -0.000351      0.004558
      3.85027      2.15436     13.95129         0.006873     -0.009123      0.007847
    total drift:                                0.000697      0.043619      0.112697

  FREE ENERGIE OF THE ION-ELECTRON SYSTEM (eV)
  free  energy   TOTEN  =      -144.65001548 eV

  energy  without entropy=     -144.65001548  energy(sigma->0) =     -144.65001548

 stress matrix after NEB project (eV)
     -8.35279      0.00874      0.00609
      0.00874     -8.30127     -0.14979
      0.00609     -0.14979     -1.54567
  FORCES: max atom, RMS     0.013858    0.002596
  FORCE total and by dimension    0.016215    0.009123
  Stress total and by dimension   11.879156    8.352790
|           W    W    AA    RRRRR   N    N  II  N    N   GGGG   !!!           |
|           W    W   A  A   R    R  NN   N  II  NN   N  G    G  !!!           |
|           W    W  A    A  R    R  N N  N  II  N N  N  G       !!!           |
|           W WW W  AAAAAA  RRRRR   N  N N  II  N  N N  G  GGG   !            |
|           WW  WW  A    A  R   R   N   NN  II  N   NN  G    G                |
|           W    W  A    A  R    R  N    N  II  N    N   GGGG   !!!           |
|     Tetrahedron method does not include variations of the Fermi             |
|     occupations, so forces and stress will be inaccurate. We suggest        |
|     using a different smearing scheme ISMEAR = 1 or 2 for metals in         |
|     relaxations.                                                            |

 total charge

# of ion       s       p       d       tot
    1        0.450   0.283   9.187   9.921
    2        0.448   0.286   9.186   9.919
    3        0.448   0.286   9.186   9.919
    4        0.448   0.286   9.186   9.919
    5        0.448   0.286   9.182   9.916
    6        0.448   0.286   9.186   9.919
    7        0.448   0.286   9.186   9.919
    8        0.448   0.286   9.186   9.919
    9        0.449   0.284   9.186   9.920
   10        0.443   0.371   9.176   9.991
   11        0.441   0.366   9.182   9.989
   12        0.443   0.371   9.176   9.990
   13        0.441   0.366   9.181   9.989
   14        0.441   0.366   9.181   9.989
   15        0.439   0.371   9.177   9.988
   16        0.443   0.371   9.176   9.990
   17        0.439   0.372   9.177   9.987
   18        0.439   0.372   9.177   9.987
   19        0.445   0.371   9.179   9.995
   20        0.460   0.386   9.159  10.004
   21        0.460   0.386   9.159  10.004
   22        0.435   0.376   9.178   9.988
   23        0.459   0.386   9.159  10.004
   24        0.435   0.376   9.178   9.988
   25        0.444   0.371   9.180   9.995
   26        0.444   0.371   9.180   9.995
   27        0.435   0.376   9.177   9.989
   28        0.444   0.297   9.178   9.919
   29        0.479   0.315   9.160   9.954
   30        0.479   0.315   9.160   9.954
   31        0.479   0.314   9.160   9.953
   32        0.479   0.314   9.159   9.953
   33        0.478   0.309   9.163   9.950
   34        0.478   0.309   9.163   9.950
   35        0.442   0.301   9.178   9.921
   36        0.502   0.598   2.349   3.449
   37        0.598   0.117   0.000   0.714
   38        0.597   0.116   0.000   0.714
   39        1.567   3.623   0.000   5.190
tot         19.043  16.224 323.491 358.758

 BZINTS: Fermi energy:   -0.059416;  397.000000 electrons
         Band energy:-0.124299E+04;  BLOECHL correction:   -0.037110