 vasp.6.2.0 18Jan21 (build Jun 12 2021 23:27:24) complex

 executed on             LinuxIFC date 2022.05.30  17:48:33

 INCAR:
   ISMEAR = -5
   SIGMA = 0.1
   ISPIN = 1
   EDIFF = 1.d-5
   EDIFFG = -0.01
   NSW = 0
   NELM = 150
   ENCUT = 500
   ISIF = 2
   IBRION = 2
   LREAL = Auto
   ALGO = Fast
   ICHARG = 11
   LORBIT = 10
   LCHARG = .F.
   LWAVE = .F.

 POTCAR:    PAW_PBE Ag 02Apr2005
 POTCAR:    PAW_PBE Pt 04Feb2005
 POTCAR:    PAW_PBE C 08Apr2002
|           W    W    AA    RRRRR   N    N  II  N    N   GGGG   !!!           |
|           W    W   A  A   R    R  NN   N  II  NN   N  G    G  !!!           |
|           W    W  A    A  R    R  N N  N  II  N N  N  G       !!!           |
|           W WW W  AAAAAA  RRRRR   N  N N  II  N  N N  G  GGG   !            |
|           WW  WW  A    A  R   R   N   NN  II  N   NN  G    G                |
|           W    W  A    A  R    R  N    N  II  N    N   GGGG   !!!           |
|     For optimal performance we recommend to set                             |
|       NCORE = 2 up to number-of-cores-per-socket                            |
|     This setting can greatly improve the performance of VASP for DFT.       |
|     The default, NCORE=1 might be grossly inefficient on modern             |
|     multi-core architectures or massively parallel machines. Do your        |
|     Unfortunately you need to use the default for GW and RPA                |
|     calculations (for HF NCORE is supported but not extensively tested      |
|     yet).                                                                   |

 POTCAR:    PAW_PBE Ag 02Apr2005
   VRHFIN =Ag : s1 d10

   TITEL  = PAW_PBE Ag 02Apr2005
   POMASS =  107.868; ZVAL   =   11.000    mass and valenz
   ENMAX  =  249.844; ENMIN  =  187.383 eV

 POTCAR:    PAW_PBE Pt 04Feb2005
   VRHFIN =Pt: s1d9

   TITEL  = PAW_PBE Pt 04Feb2005
   POMASS =  195.080; ZVAL   =   10.000    mass and valenz
   ENMAX  =  230.283; ENMIN  =  172.712 eV

 POTCAR:    PAW_PBE C 08Apr2002
   VRHFIN =C: s2p2

   TITEL  = PAW_PBE C 08Apr2002
   POMASS =   12.011; ZVAL   =    4.000    mass and valenz
   ENMAX  =  400.000; ENMIN  =  300.000 eV

 Optimization of the real space projectors (new method)

 maximal supplied QI-value         = 15.12
 optimisation between [QCUT,QGAM] = [ 11.34, 22.83] = [ 36.00,145.93] Ry
 Optimized for a Real-space Cutoff    1.43 Angstroem

   l    n(q)    QCUT    max X(q) W(low)/X(q) W(high)/X(q)  e(spline)
   2      9    11.338    53.897    0.16E-03    0.20E-03    0.28E-06
   2      9    11.338    52.416    0.16E-03    0.20E-03    0.29E-06
   0     10    11.338   122.045    0.31E-04    0.76E-04    0.15E-06
   0     10    11.338    73.629    0.30E-04    0.72E-04    0.15E-06
   1      9    11.338    15.255    0.20E-03    0.19E-04    0.17E-06
   1      9    11.338     9.562    0.16E-03    0.15E-04    0.14E-06
 Optimization of the real space projectors (new method)

[...]

   l    n(q)    QCUT    max X(q) W(low)/X(q) W(high)/X(q)  e(spline)
   2      9    11.346    66.195    0.31E-03    0.12E-04    0.29E-06
   2      9    11.346    64.643    0.32E-03    0.12E-04    0.29E-06
   0     10    11.346    95.520    0.90E-04    0.16E-04    0.19E-06
   0     10    11.346    63.403    0.87E-04    0.15E-04    0.19E-06
   1     10    11.346    19.961    0.17E-03    0.21E-03    0.11E-06
   1     10    11.346    13.289    0.14E-03    0.18E-03    0.89E-07
 Optimization of the real space projectors (new method)

 maximal supplied QI-value         = 25.13
 optimisation between [QCUT,QGAM] = [ 11.31, 22.87] = [ 35.82,146.48] Ry
 Optimized for a Real-space Cutoff    1.00 Angstroem

   l    n(q)    QCUT    max X(q) W(low)/X(q) W(high)/X(q)  e(spline)
   0      7    11.310   115.676    0.43E-03    0.13E-02    0.19E-06
   0      7    11.310    87.132    0.43E-03    0.13E-02    0.18E-06
   1      6    11.310     4.429    0.42E-03    0.74E-03    0.11E-06
   1      6    11.310     2.733    0.34E-03    0.55E-03    0.92E-07
  PAW_PBE Ag 02Apr2005                  :
  PAW_PBE Pt 04Feb2005                  :
  PAW_PBE C 08Apr2002                   :

 POSCAR: Ag-Pt-C
  positions in direct lattice
  velocities in cartesian coordinates
 exchange correlation table for  LEXCH =        8
   RHO(1)=    0.500       N(1)  =     2000
   RHO(2)=  100.500       N(2)  =     4000

 VTST: version 3.2, (02/03/18)

 CHAIN: initializing optimizer

 OPT: Using VASP Conjugate-Gradient optimizer
 CHAIN: Read ICHAIN            0

 POSCAR: Ag-Pt-C
  positions in direct lattice
  velocities in cartesian coordinates

 ion  position               nearest neighbor table
   1  0.000  0.000  0.217-   2 2.93   8 2.93   7 2.93   6 2.93   4 2.93  12 2.93  16 2.93  10 2.93
                             3 2.93
   2  0.333  0.000  0.217-   1 2.93   8 2.93   9 2.93   3 2.93   4 2.93   5 2.93  10 2.93  17 2.93
                            11 2.93
   3  0.667  0.000  0.217-   9 2.93   2 2.93   5 2.93  11 2.93   7 2.93  18 2.93   1 2.93   6 2.93
                            12 2.93
   4  0.000  0.333  0.217-   5 2.93   6 2.93   2 2.93   1 2.93   7 2.93  13 2.93  15 2.93   9 2.93
                            10 2.93
   5  0.333  0.333  0.217-   4 2.93   3 2.93   7 2.93   2 2.93   8 2.93  14 2.93  13 2.93  11 2.93
                             6 2.93
   6  0.667  0.333  0.217-   4 2.93   9 2.93   1 2.93  15 2.93   8 2.93  12 2.93   3 2.93   5 2.93
                            14 2.93
   7  0.000  0.667  0.217-   8 2.93   1 2.93   5 2.93   3 2.93   4 2.93  16 2.93  18 2.93  13 2.93
                             9 2.93
   8  0.333  0.667  0.217-   7 2.93   1 2.93   2 2.93   9 2.93   5 2.93  16 2.93   6 2.93  17 2.93
                            14 2.93
   9  0.667  0.667  0.217-   3 2.93   2 2.93   8 2.93   6 2.93  17 2.93   4 2.93  15 2.93   7 2.93
                            18 2.93
  10  0.111  0.111  0.315-  20 2.89  19 2.93  26 2.93  12 2.93  16 2.93  15 2.93  17 2.93  13 2.93
                            11 2.93   2 2.93   1 2.93   4 2.93
  11  0.444  0.111  0.315-  21 2.90  20 2.90  27 2.91  14 2.93  17 2.93  18 2.93   3 2.93  12 2.93
                            13 2.93  10 2.93   5 2.93   2 2.93
  12  0.778  0.111  0.315-  21 2.89  25 2.93  19 2.93  10 2.93  16 2.93  18 2.93  15 2.93  11 2.93
                             1 2.93  14 2.93   6 2.93   3 2.93
  13  0.111  0.444  0.315-  20 2.90  23 2.90  22 2.91  15 2.93  14 2.93  18 2.93  10 2.93  11 2.93
                            16 2.93   4 2.93   5 2.93   7 2.93
  14  0.444  0.444  0.315-  23 2.90  21 2.90  24 2.91  13 2.93  11 2.93  16 2.93   5 2.93  12 2.93
                            17 2.93   8 2.93  15 2.93   6 2.93
  15  0.778  0.444  0.315-  24 2.91  22 2.91  19 2.92  13 2.93  10 2.93  12 2.93  17 2.93  18 2.93
                             4 2.93   6 2.93   9 2.93  14 2.93
  16  0.111  0.778  0.315-  23 2.89  26 2.93  25 2.93  18 2.93  12 2.93  10 2.93  14 2.93  17 2.93
                            13 2.93   7 2.93   8 2.93   1 2.93
  17  0.444  0.778  0.315-  27 2.91  24 2.91  26 2.92  11 2.93  10 2.93   9 2.93  18 2.93  15 2.93
                            16 2.93   2 2.93  14 2.93   8 2.93
  18  0.778  0.778  0.315-  22 2.91  27 2.91  25 2.92  16 2.93  12 2.93  13 2.93  11 2.93  17 2.93
                            15 2.93   7 2.93   3 2.93   9 2.93
  19  0.888  0.223  0.413-  28 2.91  15 2.92  20 2.92  21 2.92  24 2.92  22 2.92  10 2.93  12 2.93
                            32 2.93  31 2.93  26 2.94  25 2.94
  20  0.221  0.221  0.412-  36 2.81  10 2.89  13 2.90  11 2.90  19 2.92  26 2.92  31 2.92  29 2.92
                            27 2.93  22 2.93  21 2.95  23 2.95
  21  0.557  0.221  0.412-  36 2.81  12 2.89  11 2.90  14 2.90  25 2.92  19 2.92  30 2.92  32 2.92
                            27 2.93  24 2.93  20 2.95  23 2.95
  22  0.889  0.556  0.412-  35 2.91  18 2.91  15 2.91  13 2.91  25 2.92  19 2.92  24 2.93  27 2.93
                            33 2.93  31 2.93  23 2.93  20 2.93
  23  0.221  0.557  0.412-  36 2.81  16 2.89  14 2.90  13 2.90  26 2.92  25 2.92  34 2.92  33 2.92
                            22 2.93  24 2.93  21 2.95  20 2.95
  24  0.556  0.556  0.412-  35 2.91  15 2.91  17 2.91  14 2.91  19 2.92  26 2.92  27 2.93  22 2.93
                            32 2.93  34 2.93  23 2.93  21 2.93
  25  0.888  0.888  0.413-  28 2.91  18 2.92  23 2.92  21 2.92  22 2.92  27 2.92  16 2.93  12 2.93
                            33 2.93  30 2.93  26 2.94  19 2.94
  26  0.223  0.888  0.413-  28 2.91  17 2.92  23 2.92  20 2.92  27 2.92  24 2.92  16 2.93  10 2.93
                            34 2.93  29 2.93  25 2.94  19 2.94
  27  0.556  0.889  0.412-  35 2.91  17 2.91  18 2.91  11 2.91  26 2.92  25 2.92  24 2.93  22 2.93
                            29 2.93  30 2.93  20 2.93  21 2.93
  28  0.000  0.000  0.510-  26 2.91  25 2.91  19 2.91  29 2.95  34 2.95  33 2.95  32 2.95  31 2.95
                            30 2.95
  29  0.333  0.004  0.510-  30 2.89  31 2.89  36 2.90  20 2.92  27 2.93  26 2.93  35 2.95  28 2.95
                            34 3.00
  30  0.662  0.004  0.510-  29 2.89  32 2.89  36 2.90  21 2.92  27 2.93  25 2.93  35 2.95  28 2.95
                            33 3.00
  31  0.004  0.333  0.510-  33 2.89  29 2.89  36 2.90  20 2.92  22 2.93  19 2.93  35 2.95  28 2.95
                            32 3.00
  32  0.662  0.333  0.510-  34 2.89  30 2.89  36 2.90  21 2.92  24 2.93  19 2.93  35 2.95  28 2.95
                            31 3.00
  33  0.004  0.662  0.510-  31 2.89  34 2.89  36 2.90  23 2.92  22 2.93  25 2.93  35 2.95  28 2.95
                            30 3.00
  34  0.333  0.662  0.510-  32 2.89  33 2.89  36 2.90  23 2.92  24 2.93  26 2.93  35 2.95  28 2.95
                            29 3.00
  35  0.667  0.667  0.510-  24 2.91  27 2.91  22 2.91  30 2.95  32 2.95  29 2.95  34 2.95  31 2.95
                            33 2.95
  36  0.333  0.333  0.503-  37 1.77  21 2.81  20 2.81  23 2.81  31 2.90  33 2.90  30 2.90  29 2.90
                            34 2.90  32 2.90
  37  0.333  0.333  0.576-  36 1.77

  LATTYP: Found a hexagonal cell.
 ALAT       =     8.7913665772
 C/A-ratio  =     2.7711238095

  Lattice vectors:

 A1 = (  -4.3956832886,  -7.6135467898,   0.0000000000)
 A2 = (   8.7913665771,   0.0000000000,   0.0000000000)
 A3 = (   0.0000000000,   0.0000000000,  24.3619652401)

Analysis of symmetry for initial positions (statically):
 Subroutine PRICEL returns:
 Original cell was already a primitive cell.

 Routine SETGRP: Setting up the symmetry group for a
 hexagonal supercell.

 Subroutine GETGRP returns: Found  6 space group operations
 (whereof  6 operations were pure point group operations)
 out of a pool of 24 trial point group operations.

The static configuration has the point symmetry C_3v.

Analysis of symmetry for dynamics (positions and initial velocities):
 Subroutine PRICEL returns:
 Original cell was already a primitive cell.

[...]

The dynamic configuration has the point symmetry C_3v.

Analysis of constrained symmetry for selective dynamics:
 Subroutine PRICEL returns:
 Original cell was already a primitive cell.

 Routine SETGRP: Setting up the symmetry group for a
 hexagonal supercell.

 Subroutine GETGRP returns: Found  6 space group operations
[...]
     24      -5.1329      2.00000
     25      -5.1179      2.00000
     26      -5.0996      2.00000
     27      -5.0938      2.00000
     28      -5.0707      2.00000
     29      -5.0486      2.00000
     30      -5.0428      2.00000
     31      -5.0297      2.00000
     32      -5.0074      2.00000
     33      -4.9964      2.00000
     34      -4.9852      2.00000
     35      -4.9642      2.00000
     36      -4.9476      2.00000
     37      -4.9130      2.00000
     38      -4.8956      2.00000
     39      -4.8917      2.00000
     40      -4.8393      2.00000
     41      -4.8200      2.00000
     42      -4.7996      2.00000
     43      -4.7782      2.00000
     44      -4.7142      2.00000
     45      -4.6875      2.00000
     46      -4.6804      2.00000
     47      -4.6627      2.00000
     48      -4.6527      2.00000
     49      -4.6413      2.00000
     50      -4.6318      2.00000
     51      -4.6295      2.00000
     52      -4.6217      2.00000
     53      -4.6111      2.00000
     54      -4.5912      2.00000
     55      -4.5677      2.00000
     56      -4.5250      2.00000
     57      -4.5131      2.00000
     58      -4.5063      2.00000
     59      -4.4911      2.00000
     60      -4.4724      2.00000
[...]
    238       5.8227      0.00000
    239       5.9298      0.00000
    240       5.9534      0.00000
    241       6.4368      0.00000
    242       6.4447      0.00000
    243       6.6494      0.00000
    244       6.6648      0.00000
    245       6.7272      0.00000
    246       6.7559      0.00000
    247       6.8010      0.00000
    248       6.8820      0.00000
    249       6.9661      0.00000
    250       7.1094      0.00000
    251       7.1765      0.00000
    252       7.2414      0.00000

 soft charge-density along one line, spin component           1
         0         1         2         3         4         5         6         7         8         9
 total charge-density along one line

------------------------ aborting loop because EDIFF is reached ----------------------------------------

 total charge

# of ion       s       p       d       tot
    1        0.415   0.202   9.178   9.796
    2        0.416   0.203   9.177   9.796
    3        0.416   0.203   9.177   9.796
    4        0.416   0.203   9.177   9.796
    5        0.417   0.204   9.175   9.796
    6        0.416   0.203   9.177   9.796
    7        0.416   0.203   9.177   9.796
    8        0.416   0.203   9.177   9.796
    9        0.414   0.204   9.177   9.794
   10        0.407   0.270   9.164   9.840
   11        0.403   0.273   9.165   9.841
   12        0.407   0.270   9.164   9.840
   13        0.403   0.273   9.165   9.841
   14        0.403   0.273   9.165   9.841
   15        0.403   0.270   9.165   9.838
   16        0.407   0.270   9.164   9.840
   17        0.403   0.270   9.165   9.838
   18        0.403   0.270   9.165   9.838
   19        0.405   0.270   9.163   9.838
   20        0.420   0.290   9.156   9.866
   21        0.420   0.290   9.156   9.866
   22        0.400   0.273   9.167   9.839
   23        0.420   0.290   9.156   9.866
   24        0.400   0.273   9.167   9.839
   25        0.405   0.270   9.163   9.838
   26        0.405   0.270   9.163   9.838
   27        0.400   0.273   9.167   9.839
   28        0.418   0.197   9.182   9.797
   29        0.398   0.214   9.183   9.794
   30        0.398   0.214   9.183   9.794
   31        0.398   0.214   9.183   9.794
   32        0.398   0.214   9.183   9.794
   33        0.398   0.214   9.183   9.794
   34        0.398   0.214   9.183   9.794
   35        0.417   0.198   9.181   9.796
   36        0.797   0.658   8.079   9.534
   37        1.024   1.154   0.000   2.179
tot         16.098  10.255 329.071 355.424

  FORCE on cell =-STRESS in cart. coord.  units (eV):
  Direction    XX          YY          ZZ          XY          YZ          ZX
  Alpha Z   690.51172   690.51172   690.51172
  Ewald  154698.68437154698.68442************     0.00003     0.00000     0.00002
  Hartree164674.75487164674.75488************     0.00001     0.00000     0.00001
  E(xc)   -2087.68534 -2087.68532 -2092.96776    -0.00001    -0.00000    -0.00000
  Local  ************************330944.24256     0.00028    -0.00004    -0.00011
  n-local  -315.16189  -297.50544  -306.33669    10.73290    -0.30972     0.38761
  augment  3273.72379  3273.72404  3275.73185    -0.00022    -0.00003    -0.00003
  Kinetic  4969.23979  4969.07439  4977.47491     2.65473     1.36095    -0.65215
  Fock        0.00000     0.00000     0.00000     0.00000     0.00000     0.00000
  Total      -6.63088    -6.63088     0.64769    -0.00000     0.00000     0.00000
  in kB      -6.51517    -6.51517     0.63639    -0.00000     0.00000     0.00000

 VOLUME and BASIS-vectors are now :
  energy-cutoff  :      500.00
  volume of cell :     1630.63
      direct lattice vectors                 reciprocal lattice vectors
     8.791366577  0.000000000  0.000000000     0.113747958 -0.065672414  0.000000000
     4.395683289  7.613546790  0.000000000     0.000000000  0.131344829  0.000000000
     0.000000000  0.000000000 24.361965240     0.000000000  0.000000000  0.041047592

  length of vectors
     8.791366577  8.791366577 24.361965240     0.131344829  0.131344829  0.041047592

 FORCES acting on ions
    electron-ion (+dipol)            ewald-force                    non-local-force                 convergence-correction
   0.464E-04 -.280E-04 0.269E+04   -.954E-04 0.593E-04 -.269E+04   -.239E-17 -.834E-18 -.193E+01   -.107E-03 -.169E-03 0.106E+00
   0.415E+00 0.419E+00 0.269E+04   -.437E+00 -.373E+00 -.269E+04   0.458E-01 0.307E-01 -.160E+01   -.208E-01 -.676E-01 0.139E+00
   -.415E+00 0.419E+00 0.269E+04   0.438E+00 -.373E+00 -.269E+04   -.458E-01 0.307E-01 -.160E+01   0.202E-01 -.657E-01 0.139E+00
   0.570E+00 0.150E+00 0.269E+04   -.542E+00 -.192E+00 -.269E+04   0.495E-01 0.243E-01 -.160E+01   -.688E-01 0.160E-01 0.139E+00
   -.729E-05 -.196E-04 0.269E+04   0.981E-04 -.197E-05 -.269E+04   0.443E-18 -.296E-17 -.170E+01   0.624E-02 0.382E-02 0.127E+00
   -.570E+00 0.150E+00 0.269E+04   0.542E+00 -.192E+00 -.269E+04   -.495E-01 0.243E-01 -.160E+01   0.674E-01 0.169E-01 0.139E+00
   0.155E+00 -.569E+00 0.269E+04   -.104E+00 0.565E+00 -.269E+04   0.373E-02 -.550E-01 -.160E+01   -.464E-01 0.509E-01 0.139E+00
   -.155E+00 -.569E+00 0.269E+04   0.104E+00 0.565E+00 -.269E+04   -.373E-02 -.550E-01 -.160E+01   0.480E-01 0.499E-01 0.139E+00
   0.364E-04 -.131E-04 0.269E+04   0.792E-04 -.643E-04 -.269E+04   -.567E-17 0.169E-17 -.169E+01   -.667E-02 -.344E-02 0.158E+00
   0.546E+01 0.316E+01 0.920E+03   -.526E+01 -.304E+01 -.919E+03   -.185E+00 -.107E+00 -.724E+00   -.399E-01 -.230E-01 0.686E-01
   -.286E-04 0.326E+01 0.925E+03   0.411E-04 -.326E+01 -.924E+03   0.703E-12 0.107E+00 -.392E+00   0.629E-02 -.125E+00 0.495E-01
   -.546E+01 0.316E+01 0.920E+03   0.526E+01 -.304E+01 -.919E+03   0.185E+00 -.107E+00 -.724E+00   0.383E-01 -.219E-01 0.685E-01
   0.282E+01 -.163E+01 0.925E+03   -.282E+01 0.163E+01 -.924E+03   0.927E-01 -.535E-01 -.392E+00   -.105E+00 0.681E-01 0.495E-01
   -.282E+01 -.163E+01 0.925E+03   0.282E+01 0.163E+01 -.924E+03   -.927E-01 -.535E-01 -.392E+00   0.116E+00 0.673E-01 0.487E-01
   0.163E-04 0.130E+01 0.920E+03   -.108E-03 -.130E+01 -.920E+03   -.884E-13 -.135E-01 -.543E+00   -.166E-02 -.327E-02 0.583E-01
   -.790E-05 -.631E+01 0.920E+03   0.205E-04 0.608E+01 -.919E+03   0.140E-11 0.213E+00 -.724E+00   0.118E-03 0.440E-01 0.685E-01
   0.113E+01 -.651E+00 0.920E+03   -.113E+01 0.652E+00 -.920E+03   -.117E-01 0.673E-02 -.543E+00   -.369E-02 0.187E-03 0.583E-01
   -.113E+01 -.651E+00 0.920E+03   0.113E+01 0.652E+00 -.920E+03   0.117E-01 0.673E-02 -.543E+00   0.369E-02 0.211E-02 0.589E-01
   0.407E-04 0.448E+01 -.887E+03   -.130E-03 -.432E+01 0.886E+03   -.709E-12 -.108E+00 0.416E+00   -.642E-03 -.673E-01 0.152E-01
   0.125E+02 0.723E+01 -.846E+03   -.117E+02 -.676E+01 0.846E+03   -.595E+00 -.343E+00 0.204E-01   -.234E+00 -.135E+00 -.790E-01
   -.125E+02 0.723E+01 -.846E+03   0.117E+02 -.676E+01 0.846E+03   0.595E+00 -.343E+00 0.204E-01   0.234E+00 -.135E+00 -.797E-01
   0.516E+01 -.298E+01 -.874E+03   -.534E+01 0.308E+01 0.873E+03   0.235E+00 -.136E+00 0.773E+00   -.520E-01 0.301E-01 -.150E-02
   -.558E-04 -.145E+02 -.846E+03   0.441E-04 0.135E+02 0.846E+03   0.451E-11 0.687E+00 0.204E-01   0.523E-03 0.271E+00 -.796E-01
   -.516E+01 -.298E+01 -.874E+03   0.534E+01 0.308E+01 0.873E+03   -.235E+00 -.136E+00 0.773E+00   0.520E-01 0.301E-01 -.861E-03
   -.388E+01 -.224E+01 -.887E+03   0.374E+01 0.216E+01 0.886E+03   0.936E-01 0.540E-01 0.416E+00   0.590E-01 0.339E-01 0.153E-01
   0.388E+01 -.224E+01 -.887E+03   -.374E+01 0.216E+01 0.886E+03   -.936E-01 0.540E-01 0.416E+00   -.589E-01 0.330E-01 0.152E-01
   0.197E-04 0.595E+01 -.874E+03   0.110E-03 -.617E+01 0.873E+03   0.178E-11 0.272E+00 0.773E+00   -.554E-03 -.601E-01 -.144E-02
   0.541E-04 -.373E-04 -.266E+04   -.117E-03 0.783E-04 0.266E+04   0.761E-18 -.186E-18 0.187E+01   -.115E-02 -.803E-03 -.167E+00
   0.216E+02 0.376E+02 -.266E+04   -.216E+02 -.377E+02 0.266E+04   -.218E-02 0.506E-01 0.196E+01   -.123E+00 -.217E+00 -.128E+00
   -.216E+02 0.376E+02 -.266E+04   0.216E+02 -.377E+02 0.266E+04   0.218E-02 0.506E-01 0.196E+01   0.132E+00 -.216E+00 -.128E+00
   0.434E+02 -.936E-01 -.266E+04   -.434E+02 0.120E+00 0.266E+04   0.427E-01 -.272E-01 0.196E+01   -.249E+00 0.253E-02 -.128E+00
   -.434E+02 -.936E-01 -.266E+04   0.434E+02 0.120E+00 0.266E+04   -.427E-01 -.272E-01 0.196E+01   0.259E+00 0.340E-02 -.128E+00
   0.218E+02 -.375E+02 -.266E+04   -.218E+02 0.376E+02 0.266E+04   0.449E-01 -.234E-01 0.196E+01   -.120E+00 0.223E+00 -.128E+00
   -.218E+02 -.375E+02 -.266E+04   0.218E+02 0.376E+02 0.266E+04   -.449E-01 -.234E-01 0.196E+01   0.132E+00 0.222E+00 -.128E+00
   0.225E-04 -.109E-04 -.266E+04   0.106E-03 -.666E-04 0.266E+04   0.551E-17 0.275E-17 0.188E+01   -.778E-02 -.406E-02 -.107E+00
   0.135E-04 -.294E-04 -.218E+04   0.953E-04 0.113E-04 0.218E+04   -.280E-17 0.282E-17 -.484E+01   0.211E-02 0.132E-02 -.314E+00
   0.485E-04 -.286E-04 -.122E+04   0.180E-04 0.244E-06 0.124E+04   0.358E-18 -.423E-18 -.141E+02   0.599E-03 0.374E-03 -.669E-01
   0.433E-03 -.736E-03 0.195E+02   0.144E-13 -.144E-12 -.114E-11   0.128E-15 -.573E-16 -.197E+02   0.370E-01 0.246E-01 0.136E+00

 POSITION                                       TOTAL-FORCE (eV/Angst)
      0.00000      0.00000      5.28219         0.000000      0.000000     -0.001359
      2.93046      0.00000      5.28219         0.003120      0.009866      0.017941
      5.86091      0.00000      5.28219        -0.003120      0.009866      0.017941
      1.46523      2.53785      5.28219         0.010104     -0.002231      0.017941
      4.39568      2.53785      5.28219         0.000000      0.000000      0.020246
      7.32614      2.53785      5.28219        -0.010104     -0.002231      0.017941
      2.93046      5.07570      5.28219         0.006984     -0.007635      0.017941
      5.86091      5.07570      5.28219        -0.006984     -0.007635      0.017941
      8.79137      5.07570      5.28219         0.000000      0.000000      0.011391
      1.46523      0.84595      7.67490        -0.020259     -0.011697     -0.011426
      4.39568      0.84595      7.67490        -0.000000     -0.020469     -0.048929
      7.32614      0.84595      7.67490         0.020259     -0.011697     -0.011426
      2.93046      3.38380      7.67490        -0.017726      0.010234     -0.048929
      5.86091      3.38380      7.67490         0.017726      0.010234     -0.048929
      8.79137      3.38380      7.67490        -0.000000     -0.018732     -0.025565
      4.39568      5.92165      7.67490         0.000000      0.023394     -0.011426
      7.32614      5.92165      7.67490        -0.016222      0.009366     -0.025565
     10.25659      5.92165      7.67490         0.016222      0.009366     -0.025565
      8.79137      1.70009     10.06101        -0.000000     -0.014711      0.000810
      2.92042      1.68610     10.02751        -0.022143     -0.012784     -0.193144
      5.87095      1.68610     10.02751         0.022143     -0.012784     -0.193144
     10.25445      4.23098     10.04520        -0.002643      0.001526      0.003455
      4.39568      4.24134     10.02751         0.000000      0.025568     -0.193144
      7.32828      4.23098     10.04520         0.002643      0.001526      0.003455
     11.71473      6.76350     10.06101         0.012740      0.007356      0.000810
      5.86800      6.76350     10.06101        -0.012740      0.007356      0.000810
      8.79137      6.76512     10.04520        -0.000000     -0.003052      0.003455
      0.00000      0.00000     12.42233         0.000000      0.000000      0.000865
      2.94927      0.03214     12.43461        -0.121567     -0.208186     -0.032983
      5.84210      0.03214     12.43461         0.121567     -0.208186     -0.032983
      1.50247      2.53807     12.43461        -0.241078     -0.001187     -0.032983
      7.28890      2.53807     12.43461         0.241078     -0.001187     -0.032983
      2.94888      5.04334     12.43461        -0.119511      0.209374     -0.032983
      5.84248      5.04334     12.43461         0.119511      0.209374     -0.032983
      8.79137      5.07570     12.41249         0.000000      0.000000      0.002518
      4.39568      2.53785     12.25656         0.000000      0.000000      0.823279
      4.39568      2.53785     14.02422         0.000000      0.000000      0.057708
    total drift:                                0.037394      0.023877     -0.054483

  FREE ENERGIE OF THE ION-ELECTRON SYSTEM (eV)
  free  energy   TOTEN  =      -100.84404782 eV

  energy  without entropy=     -100.84404782  energy(sigma->0) =     -100.84404782

 stress matrix after NEB project (eV)
     -6.63088     -0.00000      0.00000
     -0.00000     -6.63088     -0.00000
      0.00000      0.00000      0.64769
  FORCES: max atom, RMS     0.057708    0.009487
  FORCE total and by dimension    0.057708    0.057708
  Stress total and by dimension    9.399817    6.630877
|           W    W    AA    RRRRR   N    N  II  N    N   GGGG   !!!           |
|           W    W   A  A   R    R  NN   N  II  NN   N  G    G  !!!           |
|           W    W  A    A  R    R  N N  N  II  N N  N  G       !!!           |
|           W WW W  AAAAAA  RRRRR   N  N N  II  N  N N  G  GGG   !            |
|           WW  WW  A    A  R   R   N   NN  II  N   NN  G    G                |
|           W    W  A    A  R    R  N    N  II  N    N   GGGG   !!!           |
|     Tetrahedron method does not include variations of the Fermi             |
|     occupations, so forces and stress will be inaccurate. We suggest        |
|     using a different smearing scheme ISMEAR = 1 or 2 for metals in         |
|     relaxations.                                                            |

 total charge

# of ion       s       p       d       tot
    1        0.415   0.202   9.178   9.796
    2        0.416   0.203   9.177   9.796
    3        0.416   0.203   9.177   9.796
    4        0.416   0.203   9.177   9.796
    5        0.417   0.204   9.175   9.796
    6        0.416   0.203   9.177   9.796
    7        0.416   0.203   9.177   9.796
    8        0.416   0.203   9.177   9.796
    9        0.414   0.204   9.177   9.794
   10        0.407   0.270   9.164   9.840
   11        0.403   0.273   9.165   9.841
   12        0.407   0.270   9.164   9.840
   13        0.403   0.273   9.165   9.841
   14        0.403   0.273   9.165   9.841
   15        0.403   0.270   9.165   9.838
   16        0.407   0.270   9.164   9.840
   17        0.403   0.270   9.165   9.838
   18        0.403   0.270   9.165   9.838
   19        0.405   0.270   9.163   9.838
   20        0.420   0.290   9.156   9.866
   21        0.420   0.290   9.156   9.866
   22        0.400   0.273   9.167   9.839
   23        0.420   0.290   9.156   9.866
   24        0.400   0.273   9.167   9.839
   25        0.405   0.270   9.163   9.838
   26        0.405   0.270   9.163   9.838
   27        0.400   0.273   9.167   9.839
   28        0.418   0.197   9.182   9.797
   29        0.398   0.214   9.183   9.794
   30        0.398   0.214   9.183   9.794
   31        0.398   0.214   9.183   9.794
   32        0.398   0.214   9.183   9.794
   33        0.398   0.214   9.183   9.794
   34        0.398   0.214   9.183   9.794
   35        0.417   0.198   9.181   9.796
   36        0.797   0.658   8.079   9.534
   37        1.024   1.154   0.000   2.179
tot         16.098  10.255 329.071 355.424

 BZINTS: Fermi energy:    0.382322;  399.000000 electrons
         Band energy:-0.149975E+04;  BLOECHL correction:   -0.073536