 vasp.6.2.0 18Jan21 (build Jun 12 2021 23:27:24) complex

 executed on             LinuxIFC date 2022.05.30  17:39:30

 INCAR:
   ISMEAR = -5
   SIGMA = 0.1
   ISPIN = 1
   EDIFF = 1.d-5
   EDIFFG = -0.01
   NSW = 0
   NELM = 150
   ENCUT = 500
   ISIF = 2
   IBRION = 2
   LREAL = Auto
   ALGO = Fast
   ICHARG = 11
   LORBIT = 10
   LCHARG = .F.
   LWAVE = .F.

 POTCAR:    PAW_PBE Ag 02Apr2005
 POTCAR:    PAW_PBE Re 17Jan2003
 POTCAR:    PAW_PBE C 08Apr2002
|           W    W    AA    RRRRR   N    N  II  N    N   GGGG   !!!           |
|           W    W   A  A   R    R  NN   N  II  NN   N  G    G  !!!           |
|           W    W  A    A  R    R  N N  N  II  N N  N  G       !!!           |
|           W WW W  AAAAAA  RRRRR   N  N N  II  N  N N  G  GGG   !            |
|           WW  WW  A    A  R   R   N   NN  II  N   NN  G    G                |
|           W    W  A    A  R    R  N    N  II  N    N   GGGG   !!!           |
|     For optimal performance we recommend to set                             |
|       NCORE = 2 up to number-of-cores-per-socket                            |
|     This setting can greatly improve the performance of VASP for DFT.       |
|     The default, NCORE=1 might be grossly inefficient on modern             |
|     multi-core architectures or massively parallel machines. Do your        |
|     Unfortunately you need to use the default for GW and RPA                |
|     calculations (for HF NCORE is supported but not extensively tested      |
|     yet).                                                                   |

 POTCAR:    PAW_PBE Ag 02Apr2005
   VRHFIN =Ag : s1 d10

   TITEL  = PAW_PBE Ag 02Apr2005
   POMASS =  107.868; ZVAL   =   11.000    mass and valenz
   ENMAX  =  249.844; ENMIN  =  187.383 eV

 POTCAR:    PAW_PBE Re 17Jan2003
   VRHFIN =Re: 5p6s5d

   TITEL  = PAW_PBE Re 17Jan2003
   POMASS =  186.207; ZVAL   =    7.000    mass and valenz
   ENMAX  =  226.216; ENMIN  =  169.662 eV

 POTCAR:    PAW_PBE C 08Apr2002
   VRHFIN =C: s2p2

   TITEL  = PAW_PBE C 08Apr2002
   POMASS =   12.011; ZVAL   =    4.000    mass and valenz
   ENMAX  =  400.000; ENMIN  =  300.000 eV

 Optimization of the real space projectors (new method)

 maximal supplied QI-value         = 15.12
 optimisation between [QCUT,QGAM] = [ 11.34, 22.83] = [ 36.00,145.93] Ry
 Optimized for a Real-space Cutoff    1.43 Angstroem

   l    n(q)    QCUT    max X(q) W(low)/X(q) W(high)/X(q)  e(spline)
   2      9    11.338    53.897    0.16E-03    0.20E-03    0.28E-06
   2      9    11.338    52.416    0.16E-03    0.20E-03    0.29E-06
   0     10    11.338   122.045    0.31E-04    0.76E-04    0.15E-06
   0     10    11.338    73.629    0.30E-04    0.72E-04    0.15E-06
   1      9    11.338    15.255    0.20E-03    0.19E-04    0.17E-06
   1      9    11.338     9.562    0.16E-03    0.15E-04    0.14E-06
 Optimization of the real space projectors (new method)

[...]

   l    n(q)    QCUT    max X(q) W(low)/X(q) W(high)/X(q)  e(spline)
   2     10    11.327   884.633    0.22E-03    0.51E-03    0.88E-06
   2     10    11.327   796.723    0.22E-03    0.51E-03    0.88E-06
   0     11    11.327    65.348    0.44E-04    0.11E-03    0.75E-06
   0     11    11.327    39.642    0.40E-04    0.10E-03    0.69E-06
   1     10    11.327    13.988    0.15E-03    0.10E-03    0.19E-06
   1     10    11.327     8.682    0.11E-03    0.76E-04    0.14E-06
 Optimization of the real space projectors (new method)

 maximal supplied QI-value         = 25.13
 optimisation between [QCUT,QGAM] = [ 11.31, 22.87] = [ 35.82,146.48] Ry
 Optimized for a Real-space Cutoff    1.00 Angstroem

   l    n(q)    QCUT    max X(q) W(low)/X(q) W(high)/X(q)  e(spline)
   0      7    11.310   115.676    0.43E-03    0.13E-02    0.19E-06
   0      7    11.310    87.132    0.43E-03    0.13E-02    0.18E-06
   1      6    11.310     4.429    0.42E-03    0.74E-03    0.11E-06
   1      6    11.310     2.733    0.34E-03    0.55E-03    0.92E-07
  PAW_PBE Ag 02Apr2005                  :
  PAW_PBE Re 17Jan2003                  :
  PAW_PBE C 08Apr2002                   :

 POSCAR: Ag-Re-C
  positions in direct lattice
  velocities in cartesian coordinates
 exchange correlation table for  LEXCH =        8
   RHO(1)=    0.500       N(1)  =     2000
   RHO(2)=  100.500       N(2)  =     4000

 VTST: version 3.2, (02/03/18)

 CHAIN: initializing optimizer

 OPT: Using VASP Conjugate-Gradient optimizer
 CHAIN: Read ICHAIN            0

 POSCAR: Ag-Re-C
  positions in direct lattice
  velocities in cartesian coordinates

 ion  position               nearest neighbor table
   1  0.000  0.000  0.217-   2 2.93   8 2.93   7 2.93   6 2.93   4 2.93  12 2.93  16 2.93  10 2.93
                             3 2.93
   2  0.333  0.000  0.217-   1 2.93   8 2.93   9 2.93   3 2.93   4 2.93   5 2.93  10 2.93  17 2.93
                            11 2.93
   3  0.667  0.000  0.217-   9 2.93   2 2.93   5 2.93  11 2.93   7 2.93  18 2.93   1 2.93   6 2.93
                            12 2.93
   4  0.000  0.333  0.217-   5 2.93   6 2.93   2 2.93   1 2.93   7 2.93  13 2.93  15 2.93   9 2.93
                            10 2.93
   5  0.333  0.333  0.217-   4 2.93   3 2.93   7 2.93   2 2.93   8 2.93  14 2.93  13 2.93  11 2.93
                             6 2.93
   6  0.667  0.333  0.217-   4 2.93   9 2.93   1 2.93  15 2.93   8 2.93  12 2.93   3 2.93   5 2.93
                            14 2.93
   7  0.000  0.667  0.217-   8 2.93   1 2.93   5 2.93   3 2.93   4 2.93  16 2.93  18 2.93  13 2.93
                             9 2.93
   8  0.333  0.667  0.217-   7 2.93   1 2.93   2 2.93   9 2.93   5 2.93  16 2.93   6 2.93  17 2.93
                            14 2.93
   9  0.667  0.667  0.217-   3 2.93   2 2.93   8 2.93   6 2.93  17 2.93   4 2.93  15 2.93   7 2.93
                            18 2.93
  10  0.111  0.111  0.315-  20 2.89  12 2.93  16 2.93  15 2.93  17 2.93  13 2.93  11 2.93   2 2.93
                             1 2.93   4 2.93  19 2.93  26 2.93
  11  0.444  0.111  0.315-  21 2.89  20 2.89  27 2.93  14 2.93  17 2.93  18 2.93   3 2.93  12 2.93
                            13 2.93  10 2.93   5 2.93   2 2.93
  12  0.778  0.111  0.315-  21 2.89  10 2.93  16 2.93  18 2.93  15 2.93  11 2.93   1 2.93  14 2.93
                             6 2.93   3 2.93  25 2.93  19 2.93
  13  0.111  0.444  0.315-  20 2.89  23 2.89  22 2.93  15 2.93  14 2.93  18 2.93  10 2.93  11 2.93
                            16 2.93   4 2.93   5 2.93   7 2.93
  14  0.444  0.444  0.315-  23 2.89  21 2.89  24 2.93  13 2.93  11 2.93  16 2.93   5 2.93  12 2.93
                            17 2.93   8 2.93  15 2.93   6 2.93
  15  0.778  0.444  0.315-  24 2.92  22 2.92  19 2.93  13 2.93  10 2.93  12 2.93  17 2.93  18 2.93
                             4 2.93   6 2.93   9 2.93  14 2.93
  16  0.111  0.778  0.315-  23 2.89  18 2.93  12 2.93  10 2.93  14 2.93  17 2.93  13 2.93   7 2.93
                             8 2.93   1 2.93  26 2.93  25 2.93
  17  0.444  0.778  0.315-  27 2.92  24 2.92  26 2.93  11 2.93  10 2.93   9 2.93  18 2.93  15 2.93
                            16 2.93   2 2.93  14 2.93   8 2.93
  18  0.778  0.778  0.315-  22 2.92  27 2.92  25 2.93  16 2.93  12 2.93  13 2.93  11 2.93  17 2.93
                            15 2.93   7 2.93   3 2.93   9 2.93
  19  0.889  0.223  0.413-  28 2.91  24 2.93  22 2.93  15 2.93  20 2.93  21 2.93  10 2.93  12 2.93
                            26 2.94  25 2.94  32 2.97  31 2.97
  20  0.222  0.222  0.411-  36 2.76  10 2.89  13 2.89  11 2.89  19 2.93  26 2.93  21 2.93  23 2.93
                            27 2.94  22 2.94  31 2.94  29 2.94
  21  0.556  0.222  0.411-  36 2.76  12 2.89  11 2.89  14 2.89  25 2.93  19 2.93  20 2.93  23 2.93
                            27 2.94  24 2.94  30 2.94  32 2.94
  22  0.888  0.556  0.413-  35 2.91  24 2.92  27 2.92  18 2.92  15 2.92  13 2.93  25 2.93  19 2.93
                            23 2.94  20 2.94  33 2.95  31 2.95
  23  0.222  0.556  0.411-  36 2.76  16 2.89  14 2.89  13 2.89  26 2.93  25 2.93  21 2.93  20 2.93
                            22 2.94  24 2.94  34 2.94  33 2.94
  24  0.556  0.556  0.413-  35 2.91  27 2.92  22 2.92  15 2.92  17 2.92  14 2.93  19 2.93  26 2.93
                            23 2.94  21 2.94  32 2.95  34 2.95
  25  0.889  0.889  0.413-  28 2.91  22 2.93  27 2.93  18 2.93  23 2.93  21 2.93  16 2.93  12 2.93
                            26 2.94  19 2.94  33 2.97  30 2.97
  26  0.223  0.889  0.413-  28 2.91  27 2.93  24 2.93  17 2.93  23 2.93  20 2.93  16 2.93  10 2.93
                            25 2.94  19 2.94  34 2.97  29 2.97
  27  0.556  0.888  0.413-  35 2.91  24 2.92  22 2.92  17 2.92  18 2.92  11 2.93  26 2.93  25 2.93
                            20 2.94  21 2.94  29 2.95  30 2.95
  28  0.000  0.000  0.510-  26 2.91  25 2.91  19 2.91  29 2.96  34 2.96  33 2.96  32 2.96  31 2.96
                            30 2.96
  29  0.333  0.008  0.512-  31 2.86  30 2.87  36 2.88  20 2.94  27 2.95  28 2.96  26 2.97  35 2.97
                            34 3.06
  30  0.659  0.008  0.512-  32 2.86  29 2.87  36 2.88  21 2.94  27 2.95  28 2.96  25 2.97  35 2.97
                            33 3.06
  31  0.008  0.333  0.512-  29 2.86  33 2.87  36 2.88  20 2.94  22 2.95  28 2.96  19 2.97  35 2.97
                            32 3.06
  32  0.659  0.333  0.512-  30 2.86  34 2.87  36 2.88  21 2.94  24 2.95  28 2.96  19 2.97  35 2.97
                            31 3.06
  33  0.008  0.659  0.512-  34 2.86  31 2.87  36 2.88  23 2.94  22 2.95  28 2.96  25 2.97  35 2.97
                            30 3.06
  34  0.333  0.659  0.512-  33 2.86  32 2.87  36 2.88  23 2.94  24 2.95  28 2.96  26 2.97  35 2.97
                            29 3.06
  35  0.667  0.667  0.510-  24 2.91  27 2.91  22 2.91  30 2.97  32 2.97  29 2.97  34 2.97  31 2.97
                            33 2.97
  36  0.333  0.333  0.501-  37 1.76  21 2.76  20 2.76  23 2.76  31 2.88  30 2.88  33 2.88  29 2.88
                            34 2.88  32 2.88
  37  0.333  0.333  0.573-  36 1.76

  LATTYP: Found a hexagonal cell.
 ALAT       =     8.7913665772
 C/A-ratio  =     2.7711238095

  Lattice vectors:

 A1 = (  -4.3956832886,  -7.6135467898,   0.0000000000)
 A2 = (   8.7913665771,   0.0000000000,   0.0000000000)
 A3 = (   0.0000000000,   0.0000000000,  24.3619652401)

Analysis of symmetry for initial positions (statically):
 Subroutine PRICEL returns:
 Original cell was already a primitive cell.

 Routine SETGRP: Setting up the symmetry group for a
 hexagonal supercell.

 Subroutine GETGRP returns: Found  6 space group operations
 (whereof  6 operations were pure point group operations)
 out of a pool of 24 trial point group operations.

The static configuration has the point symmetry C_3v.

Analysis of symmetry for dynamics (positions and initial velocities):
 Subroutine PRICEL returns:
 Original cell was already a primitive cell.

[...]

The dynamic configuration has the point symmetry C_3v.

Analysis of constrained symmetry for selective dynamics:
 Subroutine PRICEL returns:
 Original cell was already a primitive cell.

 Routine SETGRP: Setting up the symmetry group for a
 hexagonal supercell.

 Subroutine GETGRP returns: Found  6 space group operations
[...]
     24      -5.2047      2.00000
     25      -5.1829      2.00000
     26      -5.1634      2.00000
     27      -5.1530      2.00000
     28      -5.1258      2.00000
     29      -5.1214      2.00000
     30      -5.0985      2.00000
     31      -5.0932      2.00000
     32      -5.0813      2.00000
     33      -5.0481      2.00000
     34      -5.0383      2.00000
     35      -4.9854      2.00000
     36      -4.9681      2.00000
     37      -4.9545      2.00000
     38      -4.9319      2.00000
     39      -4.9028      2.00000
     40      -4.9014      2.00000
     41      -4.8816      2.00000
     42      -4.8731      2.00000
     43      -4.8591      2.00000
     44      -4.7788      2.00000
     45      -4.7445      2.00000
     46      -4.7410      2.00000
     47      -4.7252      2.00000
     48      -4.7226      2.00000
     49      -4.7169      2.00000
     50      -4.7099      2.00000
     51      -4.7018      2.00000
     52      -4.6932      2.00000
     53      -4.6865      2.00000
     54      -4.6211      2.00000
     55      -4.6092      2.00000
     56      -4.6016      2.00000
     57      -4.5921      2.00000
     58      -4.5724      2.00000
     59      -4.5628      2.00000
     60      -4.5368      2.00000
[...]
    238       5.7903      0.00000
    239       5.8971      0.00000
    240       6.0100      0.00000
    241       6.3979      0.00000
    242       6.4168      0.00000
    243       6.5860      0.00000
    244       6.6229      0.00000
    245       6.6895      0.00000
    246       6.7339      0.00000
    247       6.7706      0.00000
    248       6.8371      0.00000
    249       6.9502      0.00000
    250       7.0840      0.00000
    251       7.1922      0.00000
    252       7.2283      0.00000

 soft charge-density along one line, spin component           1
         0         1         2         3         4         5         6         7         8         9
 total charge-density along one line

------------------------ aborting loop because EDIFF is reached ----------------------------------------

 total charge

# of ion       s       p       d       tot
    1        0.416   0.204   9.177   9.797
    2        0.418   0.203   9.176   9.797
    3        0.418   0.203   9.176   9.797
    4        0.418   0.203   9.176   9.797
    5        0.417   0.202   9.178   9.797
    6        0.418   0.203   9.176   9.797
    7        0.418   0.203   9.176   9.797
    8        0.418   0.203   9.176   9.797
    9        0.412   0.205   9.176   9.793
   10        0.405   0.271   9.164   9.840
   11        0.406   0.273   9.165   9.844
   12        0.405   0.271   9.164   9.840
   13        0.406   0.273   9.165   9.844
   14        0.406   0.273   9.165   9.844
   15        0.402   0.271   9.165   9.837
   16        0.405   0.271   9.164   9.840
   17        0.402   0.271   9.165   9.837
   18        0.402   0.271   9.165   9.837
   19        0.402   0.262   9.169   9.833
   20        0.426   0.304   9.150   9.880
   21        0.426   0.304   9.150   9.880
   22        0.393   0.276   9.165   9.834
   23        0.426   0.304   9.150   9.880
   24        0.393   0.276   9.165   9.834
   25        0.402   0.262   9.169   9.833
   26        0.402   0.262   9.169   9.833
   27        0.393   0.276   9.165   9.834
   28        0.418   0.192   9.179   9.789
   29        0.413   0.219   9.170   9.802
   30        0.413   0.219   9.170   9.802
   31        0.413   0.219   9.170   9.802
   32        0.413   0.219   9.170   9.802
   33        0.413   0.219   9.170   9.802
   34        0.413   0.219   9.170   9.802
   35        0.413   0.197   9.178   9.788
   36        0.598   0.450   5.112   6.159
   37        0.996   1.259   0.000   2.255
tot         15.954  10.210 326.013 352.177

  FORCE on cell =-STRESS in cart. coord.  units (eV):
  Direction    XX          YY          ZZ          XY          YZ          ZX
  Alpha Z   695.08470   695.08470   695.08470
  Ewald  152414.08498152414.08498************     0.00002    -0.00000     0.00001
  Hartree162278.37350162278.37349************     0.00001    -0.00000     0.00000
  E(xc)   -2074.84943 -2074.84942 -2081.84353    -0.00001     0.00000    -0.00000
  Local  ************************326133.83021     0.00025    -0.00003    -0.00009
  n-local  -348.84069  -331.17118  -345.34160    10.58465    -0.47482     0.63025
  augment  3228.70540  3228.70557  3238.42438    -0.00015    -0.00002    -0.00004
  Kinetic  4921.35746  4926.29255  4938.90855     4.91389     0.70521    -0.25245
  Fock        0.00000     0.00000     0.00000     0.00000     0.00000     0.00000
  Total      -6.74136    -6.74136     0.97420    -0.00000    -0.00000     0.00000
  in kB      -6.62373    -6.62373     0.95720    -0.00000    -0.00000     0.00000

 VOLUME and BASIS-vectors are now :
  energy-cutoff  :      500.00
  volume of cell :     1630.63
      direct lattice vectors                 reciprocal lattice vectors
     8.791366577  0.000000000  0.000000000     0.113747958 -0.065672414  0.000000000
     4.395683289  7.613546790  0.000000000     0.000000000  0.131344829  0.000000000
     0.000000000  0.000000000 24.361965240     0.000000000  0.000000000  0.041047592

  length of vectors
     8.791366577  8.791366577 24.361965240     0.131344829  0.131344829  0.041047592

 FORCES acting on ions
    electron-ion (+dipol)            ewald-force                    non-local-force                 convergence-correction
   0.463E-04 -.280E-04 0.267E+04   -.954E-04 0.593E-04 -.267E+04   -.291E-17 -.250E-17 -.195E+01   -.274E-04 -.123E-03 -.444E+00
   0.317E+00 0.531E+00 0.267E+04   -.392E+00 -.426E+00 -.267E+04   0.813E-02 -.415E-02 -.171E+01   0.638E-01 -.968E-01 -.447E+00
   -.317E+00 0.531E+00 0.267E+04   0.392E+00 -.426E+00 -.267E+04   -.813E-02 -.415E-02 -.171E+01   -.644E-01 -.950E-01 -.446E+00
   0.619E+00 0.911E-02 0.267E+04   -.565E+00 -.126E+00 -.267E+04   0.469E-03 0.911E-02 -.171E+01   -.518E-01 0.104E+00 -.447E+00
   -.727E-05 -.196E-04 0.267E+04   0.980E-04 -.197E-05 -.267E+04   -.317E-18 -.234E-17 -.176E+01   0.615E-02 0.376E-02 -.438E+00
   -.619E+00 0.915E-02 0.267E+04   0.565E+00 -.126E+00 -.267E+04   -.469E-03 0.911E-02 -.171E+01   0.505E-01 0.105E+00 -.446E+00
   0.301E+00 -.540E+00 0.267E+04   -.173E+00 0.553E+00 -.267E+04   -.766E-02 -.496E-02 -.171E+01   -.114E+00 -.776E-02 -.446E+00
   -.301E+00 -.540E+00 0.267E+04   0.173E+00 0.553E+00 -.267E+04   0.766E-02 -.496E-02 -.171E+01   0.116E+00 -.866E-02 -.446E+00
   0.362E-04 -.130E-04 0.267E+04   0.792E-04 -.643E-04 -.267E+04   0.484E-17 -.160E-17 -.188E+01   -.665E-02 -.343E-02 -.520E+00
   0.509E+01 0.294E+01 0.890E+03   -.487E+01 -.281E+01 -.889E+03   -.222E+00 -.128E+00 -.633E+00   -.929E-02 -.534E-02 -.183E+00
   -.283E-04 0.440E+01 0.895E+03   0.407E-04 -.448E+01 -.894E+03   0.283E-12 0.430E-01 -.806E+00   0.582E-02 -.138E-01 -.234E+00
   -.509E+01 0.294E+01 0.890E+03   0.487E+01 -.281E+01 -.889E+03   0.222E+00 -.128E+00 -.633E+00   0.837E-02 -.478E-02 -.185E+00
   0.381E+01 -.220E+01 0.895E+03   -.388E+01 0.224E+01 -.894E+03   0.373E-01 -.215E-01 -.806E+00   -.916E-02 0.120E-01 -.234E+00
   -.381E+01 -.220E+01 0.895E+03   0.388E+01 0.224E+01 -.894E+03   -.373E-01 -.215E-01 -.806E+00   0.193E-01 0.114E-01 -.236E+00
   0.160E-04 0.127E+01 0.890E+03   -.108E-03 -.134E+01 -.889E+03   0.202E-12 0.307E-01 -.621E+00   -.108E-02 0.153E-01 -.218E+00
   -.788E-05 -.588E+01 0.890E+03   0.205E-04 0.563E+01 -.889E+03   0.169E-11 0.257E+00 -.633E+00   0.511E-05 0.956E-02 -.185E+00
   0.110E+01 -.637E+00 0.890E+03   -.116E+01 0.669E+00 -.889E+03   0.266E-01 -.154E-01 -.621E+00   0.127E-01 -.858E-02 -.218E+00
   -.110E+01 -.637E+00 0.890E+03   0.116E+01 0.669E+00 -.889E+03   -.266E-01 -.154E-01 -.621E+00   -.128E-01 -.741E-02 -.218E+00
   0.386E-04 -.467E+00 -.918E+03   -.127E-03 0.522E+00 0.916E+03   -.843E-14 -.128E-02 0.847E+00   0.688E-02 -.523E-01 0.323E+00
   -.460E-01 -.266E-01 -.890E+03   0.452E+00 0.261E+00 0.890E+03   -.563E+00 -.325E+00 -.481E+00   -.138E+00 -.794E-01 0.652E-01
   0.461E-01 -.266E-01 -.890E+03   -.451E+00 0.261E+00 0.890E+03   0.563E+00 -.325E+00 -.481E+00   0.125E+00 -.794E-01 0.643E-01
   -.361E+01 0.209E+01 -.907E+03   0.328E+01 -.189E+01 0.907E+03   0.435E+00 -.251E+00 0.759E+00   -.594E-01 0.329E-01 0.191E+00
   -.523E-04 0.532E-01 -.890E+03   0.410E-04 -.522E+00 0.890E+03   0.427E-11 0.650E+00 -.481E+00   -.569E-02 0.149E+00 0.644E-01
   0.361E+01 0.209E+01 -.907E+03   -.328E+01 -.189E+01 0.907E+03   -.435E+00 -.251E+00 0.759E+00   0.608E-01 0.352E-01 0.192E+00
   0.405E+00 0.234E+00 -.918E+03   -.452E+00 -.261E+00 0.916E+03   0.111E-02 0.642E-03 0.847E+00   0.532E-01 0.306E-01 0.323E+00
   -.405E+00 0.234E+00 -.918E+03   0.452E+00 -.261E+00 0.916E+03   -.111E-02 0.642E-03 0.847E+00   -.422E-01 0.320E-01 0.323E+00
   0.201E-04 -.417E+01 -.907E+03   0.110E-03 0.378E+01 0.907E+03   0.330E-11 0.502E+00 0.759E+00   -.189E-02 -.679E-01 0.191E+00
   0.535E-04 -.361E-04 -.265E+04   -.114E-03 0.773E-04 0.265E+04   -.106E-16 -.316E-17 0.205E+01   -.644E-03 -.506E-03 0.432E+00
   0.107E+02 0.193E+02 -.265E+04   -.968E+01 -.179E+02 0.265E+04   -.876E+00 -.127E+01 0.234E+01   -.236E+00 -.227E+00 0.360E+00
   -.107E+02 0.193E+02 -.265E+04   0.968E+01 -.179E+02 0.265E+04   0.876E+00 -.127E+01 0.234E+01   0.245E+00 -.225E+00 0.361E+00
   0.221E+02 -.355E+00 -.265E+04   -.204E+02 0.580E+00 0.265E+04   -.154E+01 -.123E+00 0.234E+01   -.314E+00 -.908E-01 0.360E+00
   -.221E+02 -.355E+00 -.265E+04   0.204E+02 0.580E+00 0.265E+04   0.154E+01 -.123E+00 0.234E+01   0.324E+00 -.895E-01 0.362E+00
   0.113E+02 -.189E+02 -.265E+04   -.107E+02 0.173E+02 0.265E+04   -.663E+00 0.139E+01 0.234E+01   -.724E-01 0.325E+00 0.361E+00
   -.113E+02 -.189E+02 -.265E+04   0.107E+02 0.173E+02 0.265E+04   0.663E+00 0.139E+01 0.234E+01   0.842E-01 0.325E+00 0.362E+00
   0.235E-04 -.129E-04 -.265E+04   0.105E-03 -.653E-04 0.265E+04   0.410E-17 -.658E-18 0.220E+01   -.770E-02 -.402E-02 0.408E+00
   -.128E-04 -.124E-04 -.150E+04   0.677E-04 0.862E-05 0.150E+04   -.393E-18 -.468E-18 0.859E+00   -.700E-05 0.261E-04 0.250E+00
   0.467E-04 -.280E-04 -.118E+04   0.196E-04 0.283E-06 0.119E+04   -.189E-18 -.208E-18 -.837E+01   0.405E-03 0.258E-03 0.182E+00
   0.380E-03 -.727E-03 0.861E+01   0.285E-13 -.225E-12 0.432E-11   -.219E-15 -.445E-15 -.786E+01   0.355E-01 0.237E-01 -.815E+00

 POSITION                                       TOTAL-FORCE (eV/Angst)
      0.00000      0.00000      5.28219        -0.000000     -0.000000      0.023333
      2.93046      0.00000      5.28219        -0.002200      0.004955      0.024523
      5.86091      0.00000      5.28219         0.002200      0.004955      0.024523
      1.46523      2.53785      5.28219         0.003191     -0.004383      0.024523
      4.39568      2.53785      5.28219        -0.000000     -0.000000     -0.010430
      7.32614      2.53785      5.28219        -0.003191     -0.004383      0.024523
      2.93046      5.07570      5.28219         0.005391     -0.000572      0.024523
      5.86091      5.07570      5.28219        -0.005391     -0.000572      0.024523
      8.79137      5.07570      5.28219        -0.000000     -0.000000      0.050201
      1.46523      0.84595      7.67490        -0.014366     -0.008294     -0.009613
      4.39568      0.84595      7.67490        -0.000000     -0.049313     -0.075897
      7.32614      0.84595      7.67490         0.014366     -0.008294     -0.009613
      2.93046      3.38380      7.67490        -0.042707      0.024657     -0.075897
      5.86091      3.38380      7.67490         0.042707      0.024657     -0.075897
      8.79137      3.38380      7.67490        -0.000000     -0.017122      0.026280
      4.39568      5.92165      7.67490         0.000000      0.016589     -0.009613
      7.32614      5.92165      7.67490        -0.014828      0.008561      0.026280
     10.25659      5.92165      7.67490         0.014828      0.008561      0.026280
      8.79137      1.69725     10.06774        -0.000000     -0.001989      0.030740
      2.92950      1.69135     10.02116        -0.289281     -0.167017     -0.234745
      5.86187      1.69135     10.02116         0.289281     -0.167017     -0.234745
     10.25061      4.23320     10.05696         0.038325     -0.022127      0.028956
      4.39568      4.23086     10.02116         0.000000      0.334033     -0.234745
      7.33212      4.23320     10.05696        -0.038325     -0.022127      0.028956
     11.71719      6.76492     10.06774         0.001723      0.000995      0.030740
      5.86555      6.76492     10.06774        -0.001723      0.000995      0.030740
      8.79137      6.76069     10.05696         0.000000      0.044254      0.028956
      0.00000      0.00000     12.43040        -0.000000     -0.000000     -0.016927
      2.96174      0.05879     12.46433        -0.057186     -0.116072     -0.076178
      5.82963      0.05879     12.46433         0.057186     -0.116072     -0.076178
      1.53179      2.53554     12.46433        -0.129114      0.008512     -0.076178
      7.25958      2.53554     12.46433         0.129114      0.008512     -0.076178
      2.96573      5.01921     12.46433        -0.071928      0.107560     -0.076178
      5.82563      5.01921     12.46433         0.071928      0.107560     -0.076178
      8.79137      5.07570     12.42552        -0.000000     -0.000000     -0.013011
      4.39568      2.53785     12.19879        -0.000000     -0.000000      0.973253
      4.39568      2.53785     13.95486        -0.000000     -0.000000      0.006353
    total drift:                                0.035860      0.022973     -0.063758

  FREE ENERGIE OF THE ION-ELECTRON SYSTEM (eV)
  free  energy   TOTEN  =      -105.64373340 eV

  energy  without entropy=     -105.64373340  energy(sigma->0) =     -105.64373340

 stress matrix after NEB project (eV)
     -6.74136     -0.00000      0.00000
     -0.00000     -6.74136     -0.00000
      0.00000     -0.00000      0.97420
  FORCES: max atom, RMS     0.006353    0.001044
  FORCE total and by dimension    0.006353    0.006353
  Stress total and by dimension    9.583370    6.741362
|           W    W    AA    RRRRR   N    N  II  N    N   GGGG   !!!           |
|           W    W   A  A   R    R  NN   N  II  NN   N  G    G  !!!           |
|           W    W  A    A  R    R  N N  N  II  N N  N  G       !!!           |
|           W WW W  AAAAAA  RRRRR   N  N N  II  N  N N  G  GGG   !            |
|           WW  WW  A    A  R   R   N   NN  II  N   NN  G    G                |
|           W    W  A    A  R    R  N    N  II  N    N   GGGG   !!!           |
|     Tetrahedron method does not include variations of the Fermi             |
|     occupations, so forces and stress will be inaccurate. We suggest        |
|     using a different smearing scheme ISMEAR = 1 or 2 for metals in         |
|     relaxations.                                                            |

 total charge

# of ion       s       p       d       tot
    1        0.416   0.204   9.177   9.797
    2        0.418   0.203   9.176   9.797
    3        0.418   0.203   9.176   9.797
    4        0.418   0.203   9.176   9.797
    5        0.417   0.202   9.178   9.797
    6        0.418   0.203   9.176   9.797
    7        0.418   0.203   9.176   9.797
    8        0.418   0.203   9.176   9.797
    9        0.412   0.205   9.176   9.793
   10        0.405   0.271   9.164   9.840
   11        0.406   0.273   9.165   9.844
   12        0.405   0.271   9.164   9.840
   13        0.406   0.273   9.165   9.844
   14        0.406   0.273   9.165   9.844
   15        0.402   0.271   9.165   9.837
   16        0.405   0.271   9.164   9.840
   17        0.402   0.271   9.165   9.837
   18        0.402   0.271   9.165   9.837
   19        0.402   0.262   9.169   9.833
   20        0.426   0.304   9.150   9.880
   21        0.426   0.304   9.150   9.880
   22        0.393   0.276   9.165   9.834
   23        0.426   0.304   9.150   9.880
   24        0.393   0.276   9.165   9.834
   25        0.402   0.262   9.169   9.833
   26        0.402   0.262   9.169   9.833
   27        0.393   0.276   9.165   9.834
   28        0.418   0.192   9.179   9.789
   29        0.413   0.219   9.170   9.802
   30        0.413   0.219   9.170   9.802
   31        0.413   0.219   9.170   9.802
   32        0.413   0.219   9.170   9.802
   33        0.413   0.219   9.170   9.802
   34        0.413   0.219   9.170   9.802
   35        0.413   0.197   9.178   9.788
   36        0.598   0.450   5.112   6.159
   37        0.996   1.259   0.000   2.255
tot         15.954  10.210 326.013 352.177

 BZINTS: Fermi energy:    0.260798;  396.000000 electrons
         Band energy:-0.150935E+04;  BLOECHL correction:   -0.032214