 vasp.6.2.0 18Jan21 (build Jun 12 2021 23:27:24) complex

 executed on             LinuxIFC date 2022.05.27  05:32:38

 INCAR:
   ISMEAR = -5
   SIGMA = 0.1
   ISPIN = 1
   EDIFF = 1.d-5
   EDIFFG = -0.01
   NSW = 0
   NELM = 150
   ENCUT = 500
   ISIF = 2
   IBRION = 2
   LREAL = Auto
   ALGO = Fast
   ICHARG = 11
   LORBIT = 10
   LCHARG = .F.
   LWAVE = .F.

 POTCAR:    PAW_PBE Ag 02Apr2005
 POTCAR:    PAW_PBE Ni 02Aug2007
 POTCAR:    PAW_PBE C 08Apr2002
 POTCAR:    PAW_PBE O 08Apr2002
|           W    W    AA    RRRRR   N    N  II  N    N   GGGG   !!!           |
|           W    W   A  A   R    R  NN   N  II  NN   N  G    G  !!!           |
|           W    W  A    A  R    R  N N  N  II  N N  N  G       !!!           |
|           W WW W  AAAAAA  RRRRR   N  N N  II  N  N N  G  GGG   !            |
|           WW  WW  A    A  R   R   N   NN  II  N   NN  G    G                |
|           W    W  A    A  R    R  N    N  II  N    N   GGGG   !!!           |
|     For optimal performance we recommend to set                             |
|       NCORE = 2 up to number-of-cores-per-socket                            |
|     This setting can greatly improve the performance of VASP for DFT.       |
|     The default, NCORE=1 might be grossly inefficient on modern             |
|     multi-core architectures or massively parallel machines. Do your        |
|     Unfortunately you need to use the default for GW and RPA                |
|     calculations (for HF NCORE is supported but not extensively tested      |
|     yet).                                                                   |

 POTCAR:    PAW_PBE Ag 02Apr2005
   VRHFIN =Ag : s1 d10

   TITEL  = PAW_PBE Ag 02Apr2005
   POMASS =  107.868; ZVAL   =   11.000    mass and valenz
   ENMAX  =  249.844; ENMIN  =  187.383 eV

 POTCAR:    PAW_PBE Ni 02Aug2007
   VRHFIN =Ni:

   TITEL  = PAW_PBE Ni 02Aug2007
   POMASS =   58.690; ZVAL   =   10.000    mass and valenz
   ENMAX  =  269.532; ENMIN  =  202.149 eV

 POTCAR:    PAW_PBE C 08Apr2002
   VRHFIN =C: s2p2

[...]

 POTCAR:    PAW_PBE O 08Apr2002
   VRHFIN =O: s2p4

   TITEL  = PAW_PBE O 08Apr2002
   POMASS =   16.000; ZVAL   =    6.000    mass and valenz
   ENMAX  =  400.000; ENMIN  =  300.000 eV

 Optimization of the real space projectors (new method)

 maximal supplied QI-value         = 15.12
 optimisation between [QCUT,QGAM] = [ 11.34, 22.83] = [ 36.00,145.93] Ry
 Optimized for a Real-space Cutoff    1.43 Angstroem

   l    n(q)    QCUT    max X(q) W(low)/X(q) W(high)/X(q)  e(spline)
   2      9    11.338    53.897    0.16E-03    0.20E-03    0.28E-06
   2      9    11.338    52.416    0.16E-03    0.20E-03    0.29E-06
   0     10    11.338   122.045    0.31E-04    0.76E-04    0.15E-06
   0     10    11.338    73.629    0.30E-04    0.72E-04    0.15E-06
   1      9    11.338    15.255    0.20E-03    0.19E-04    0.17E-06
   1      9    11.338     9.562    0.16E-03    0.15E-04    0.14E-06
 Optimization of the real space projectors (new method)

[...]

   l    n(q)    QCUT    max X(q) W(low)/X(q) W(high)/X(q)  e(spline)
   0      7    11.310   115.676    0.43E-03    0.13E-02    0.19E-06
   0      7    11.310    87.132    0.43E-03    0.13E-02    0.18E-06
   1      6    11.310     4.429    0.42E-03    0.74E-03    0.11E-06
   1      6    11.310     2.733    0.34E-03    0.55E-03    0.92E-07
 Optimization of the real space projectors (new method)

 maximal supplied QI-value         = 24.76
 optimisation between [QCUT,QGAM] = [ 11.39, 22.77] = [ 36.31,145.25] Ry
 Optimized for a Real-space Cutoff    1.00 Angstroem

   l    n(q)    QCUT    max X(q) W(low)/X(q) W(high)/X(q)  e(spline)
   0      7    11.387    20.381    0.39E-03    0.13E-02    0.15E-06
   0      7    11.387    15.268    0.42E-03    0.14E-02    0.17E-06
   1      6    11.387     5.964    0.41E-03    0.11E-02    0.17E-06
   1      6    11.387     5.382    0.39E-03    0.87E-03    0.15E-06
  PAW_PBE Ag 02Apr2005                  :
  PAW_PBE Ni 02Aug2007                  :
  PAW_PBE C 08Apr2002                   :
  PAW_PBE O 08Apr2002                   :

 POSCAR: Ag-Ni-CO
  positions in direct lattice
  velocities in cartesian coordinates
 exchange correlation table for  LEXCH =        8
   RHO(1)=    0.500       N(1)  =     2000
   RHO(2)=  100.500       N(2)  =     4000

 VTST: version 3.2, (02/03/18)

 CHAIN: initializing optimizer

 OPT: Using VASP Conjugate-Gradient optimizer
 CHAIN: Read ICHAIN            0

 POSCAR: Ag-Ni-CO
  positions in direct lattice
  velocities in cartesian coordinates

 ion  position               nearest neighbor table
   1  0.000  0.000  0.238-   2 2.93   8 2.93   7 2.93   6 2.93   4 2.93  12 2.93  16 2.93  10 2.93
                             3 2.93
   2  0.333  0.000  0.238-   1 2.93   8 2.93   9 2.93   3 2.93   4 2.93   5 2.93  10 2.93  17 2.93
                            11 2.93
   3  0.667  0.000  0.238-   9 2.93   2 2.93   5 2.93  11 2.93   7 2.93  18 2.93   1 2.93   6 2.93
                            12 2.93
   4  0.000  0.333  0.238-   5 2.93   6 2.93   2 2.93   1 2.93   7 2.93  13 2.93  15 2.93   9 2.93
                            10 2.93
   5  0.333  0.333  0.238-   4 2.93   3 2.93   7 2.93   2 2.93   8 2.93  14 2.93  13 2.93  11 2.93
                             6 2.93
   6  0.667  0.333  0.238-   4 2.93   9 2.93   1 2.93  15 2.93   8 2.93  12 2.93   3 2.93   5 2.93
                            14 2.93
   7  0.000  0.667  0.238-   8 2.93   1 2.93   5 2.93   3 2.93   4 2.93  16 2.93  18 2.93  13 2.93
                             9 2.93
   8  0.333  0.667  0.238-   7 2.93   1 2.93   2 2.93   9 2.93   5 2.93  16 2.93   6 2.93  17 2.93
                            14 2.93
   9  0.667  0.667  0.238-   3 2.93   2 2.93   8 2.93   6 2.93  17 2.93   4 2.93  15 2.93   7 2.93
                            18 2.93
  10  0.111  0.111  0.346-  20 2.91  19 2.92  26 2.92  12 2.93  16 2.93  15 2.93  17 2.93  13 2.93
                            11 2.93   2 2.93   1 2.93   4 2.93
  11  0.444  0.111  0.346-  21 2.91  20 2.91  27 2.91  14 2.93  17 2.93  18 2.93   3 2.93  12 2.93
                            13 2.93  10 2.93   5 2.93   2 2.93
  12  0.778  0.111  0.346-  21 2.91  25 2.92  19 2.92  10 2.93  16 2.93  18 2.93  15 2.93  11 2.93
                             1 2.93  14 2.93   6 2.93   3 2.93
  13  0.111  0.444  0.346-  20 2.91  23 2.91  22 2.91  15 2.93  14 2.93  18 2.93  10 2.93  11 2.93
                            16 2.93   4 2.93   5 2.93   7 2.93
  14  0.444  0.444  0.346-  23 2.91  21 2.91  24 2.91  13 2.93  11 2.93  16 2.93   5 2.93  12 2.93
                            17 2.93   8 2.93  15 2.93   6 2.93
  15  0.778  0.444  0.346-  24 2.91  22 2.91  19 2.92  13 2.93  10 2.93  12 2.93  17 2.93  18 2.93
                             4 2.93   6 2.93   9 2.93  14 2.93
  16  0.111  0.778  0.346-  23 2.91  26 2.92  25 2.92  18 2.93  12 2.93  10 2.93  14 2.93  17 2.93
                            13 2.93   7 2.93   8 2.93   1 2.93
  17  0.444  0.778  0.346-  27 2.91  24 2.91  26 2.92  11 2.93  10 2.93   9 2.93  18 2.93  15 2.93
                            16 2.93   2 2.93  14 2.93   8 2.93
  18  0.778  0.778  0.346-  22 2.91  27 2.91  25 2.92  16 2.93  12 2.93  13 2.93  11 2.93  17 2.93
                            15 2.93   7 2.93   3 2.93   9 2.93
  19  0.889  0.223  0.454-  28 2.91  15 2.92  10 2.92  12 2.92  24 2.93  22 2.93  32 2.94  31 2.94
                            26 2.94  25 2.94  20 2.94  21 2.94
  20  0.223  0.223  0.453-  36 2.69  31 2.89  29 2.89  13 2.91  11 2.91  10 2.91  21 2.92  23 2.92
                            27 2.93  22 2.93  19 2.94  26 2.94
  21  0.554  0.223  0.453-  36 2.69  30 2.89  32 2.89  11 2.91  14 2.91  12 2.91  20 2.92  23 2.92
                            27 2.93  24 2.93  25 2.94  19 2.94
  22  0.889  0.556  0.453-  18 2.91  15 2.91  35 2.91  13 2.91  33 2.91  31 2.91  24 2.93  27 2.93
                            25 2.93  19 2.93  23 2.93  20 2.93
  23  0.223  0.554  0.453-  36 2.69  34 2.89  33 2.89  14 2.91  13 2.91  16 2.91  21 2.92  20 2.92
                            22 2.93  24 2.93  26 2.94  25 2.94
  24  0.556  0.556  0.453-  15 2.91  17 2.91  35 2.91  14 2.91  32 2.91  34 2.91  27 2.93  22 2.93
                            19 2.93  26 2.93  23 2.93  21 2.93
  25  0.889  0.889  0.454-  28 2.91  18 2.92  16 2.92  12 2.92  22 2.93  27 2.93  33 2.94  30 2.94
                            26 2.94  19 2.94  23 2.94  21 2.94
  26  0.223  0.889  0.454-  28 2.91  17 2.92  16 2.92  10 2.92  27 2.93  24 2.93  34 2.94  29 2.94
                            25 2.94  19 2.94  23 2.94  20 2.94
  27  0.556  0.889  0.453-  17 2.91  18 2.91  35 2.91  11 2.91  29 2.91  30 2.91  24 2.93  22 2.93
                            26 2.93  25 2.93  20 2.93  21 2.93
  28  0.000  0.000  0.560-  26 2.91  25 2.91  19 2.91  29 2.96  34 2.96  33 2.96  32 2.96  31 2.96
                            30 2.96
  29  0.333  0.007  0.560-  30 2.87  31 2.87  36 2.88  20 2.89  27 2.91  26 2.94  35 2.96  28 2.96
                            34 3.06
  30  0.659  0.007  0.560-  29 2.87  32 2.87  36 2.88  21 2.89  27 2.91  25 2.94  35 2.96  28 2.96
                            33 3.06
  31  0.007  0.333  0.560-  33 2.87  29 2.87  36 2.88  20 2.89  22 2.91  19 2.94  35 2.96  28 2.96
                            32 3.06
  32  0.659  0.333  0.560-  34 2.87  30 2.87  36 2.88  21 2.89  24 2.91  19 2.94  35 2.96  28 2.96
                            31 3.06
  33  0.007  0.659  0.560-  31 2.87  34 2.87  36 2.88  23 2.89  22 2.91  25 2.94  35 2.96  28 2.96
                            30 3.06
  34  0.333  0.659  0.560-  32 2.87  33 2.87  36 2.88  23 2.89  24 2.91  26 2.94  35 2.96  28 2.96
                            29 3.06
  35  0.667  0.667  0.560-  24 2.91  27 2.91  22 2.91  30 2.96  32 2.96  29 2.96  34 2.96  31 2.96
                            33 2.96
  36  0.333  0.333  0.547-  37 1.75  21 2.69  20 2.69  23 2.69  31 2.88  33 2.88  30 2.88  29 2.88
                            34 2.88  32 2.88
  37  0.333  0.333  0.626-  38 1.17  36 1.75
  38  0.333  0.333  0.679-  37 1.17

  LATTYP: Found a hexagonal cell.
 ALAT       =     8.7913665772
 C/A-ratio  =     2.5227160501

  Lattice vectors:

 A1 = (  -4.3956832886,  -7.6135467898,   0.0000000000)
 A2 = (   8.7913665771,   0.0000000000,   0.0000000000)
 A3 = (   0.0000000000,   0.0000000000,  22.1781215668)

Analysis of symmetry for initial positions (statically):
 Subroutine PRICEL returns:
 Original cell was already a primitive cell.

 Routine SETGRP: Setting up the symmetry group for a
 hexagonal supercell.

 Subroutine GETGRP returns: Found  6 space group operations
 (whereof  6 operations were pure point group operations)
 out of a pool of 24 trial point group operations.

The static configuration has the point symmetry C_3v.

Analysis of symmetry for dynamics (positions and initial velocities):
 Subroutine PRICEL returns:
 Original cell was already a primitive cell.

[...]

The dynamic configuration has the point symmetry C_3v.

Analysis of constrained symmetry for selective dynamics:
 Subroutine PRICEL returns:
 Original cell was already a primitive cell.

 Routine SETGRP: Setting up the symmetry group for a
 hexagonal supercell.

[...]
     33      -4.4929      2.00000
     34      -4.4679      2.00000
     35      -4.4664      2.00000
     36      -4.4567      2.00000
     37      -4.4290      2.00000
     38      -4.3671      2.00000
     39      -4.3501      2.00000
     40      -4.3221      2.00000
     41      -4.3177      2.00000
     42      -4.2976      2.00000
     43      -4.2706      2.00000
     44      -4.2600      2.00000
     45      -4.2482      2.00000
     46      -4.2361      2.00000
     47      -4.2232      2.00000
     48      -4.1551      2.00000
     49      -4.1221      2.00000
     50      -4.1160      2.00000
     51      -4.1059      2.00000
     52      -4.1011      2.00000
     53      -4.0984      2.00000
     54      -4.0801      2.00000
     55      -4.0760      2.00000
     56      -4.0572      2.00000
     57      -4.0531      2.00000
     58      -3.9863      2.00000
     59      -3.9784      2.00000
     60      -3.9681      2.00000
[...]
    238       5.9267      0.00000
    239       6.1859      0.00000
    240       6.1922      0.00000
    241       6.2542      0.00000
    242       6.3570      0.00000
    243       6.4116      0.00000
    244       7.1292      0.00000
    245       7.1972      0.00000
    246       7.2187      0.00000
    247       7.2599      0.00000
    248       7.2772      0.00000
    249       7.3597      0.00000
    250       7.3991      0.00000
    251       7.5394      0.00000
    252       7.5778      0.00000

 soft charge-density along one line, spin component           1
         0         1         2         3         4         5         6         7         8         9
 total charge-density along one line

------------------------ aborting loop because EDIFF is reached ----------------------------------------

 total charge

# of ion       s       p       d       tot
    1        0.415   0.203   9.177   9.795
    2        0.418   0.203   9.177   9.798
    3        0.418   0.203   9.177   9.798
    4        0.418   0.203   9.177   9.798
    5        0.417   0.204   9.176   9.797
    6        0.418   0.203   9.177   9.798
    7        0.418   0.203   9.177   9.798
    8        0.418   0.203   9.177   9.798
    9        0.415   0.204   9.178   9.796
   10        0.405   0.269   9.164   9.838
   11        0.409   0.268   9.166   9.843
   12        0.405   0.269   9.164   9.838
   13        0.409   0.268   9.166   9.843
   14        0.409   0.268   9.166   9.843
   15        0.400   0.272   9.164   9.837
   16        0.405   0.269   9.164   9.838
   17        0.400   0.272   9.164   9.837
   18        0.400   0.272   9.164   9.837
   19        0.403   0.267   9.167   9.837
   20        0.420   0.291   9.151   9.862
   21        0.420   0.291   9.151   9.862
   22        0.400   0.276   9.164   9.840
   23        0.420   0.291   9.151   9.862
   24        0.400   0.276   9.164   9.840
   25        0.403   0.267   9.167   9.837
   26        0.403   0.267   9.167   9.837
   27        0.400   0.276   9.164   9.840
   28        0.414   0.196   9.180   9.790
   29        0.409   0.203   9.183   9.795
   30        0.409   0.203   9.183   9.795
   31        0.409   0.203   9.183   9.795
   32        0.409   0.203   9.183   9.795
   33        0.409   0.203   9.183   9.795
   34        0.409   0.203   9.183   9.795
   35        0.414   0.196   9.181   9.790
   36        0.443   0.479   8.420   9.343
   37        0.966   1.539   0.000   2.505
   38        1.614   3.528   0.000   5.142
tot         17.374  13.914 329.400 360.688

  FORCE on cell =-STRESS in cart. coord.  units (eV):
  Direction    XX          YY          ZZ          XY          YZ          ZX
  Alpha Z   764.20936   764.20936   764.20936
  Ewald  121012.78276121012.78289************     0.00006     0.00000     0.00005
  Hartree131634.73524131634.73530************     0.00003    -0.00000     0.00003
  E(xc)   -2129.17483 -2129.17492 -2133.07404     0.00008    -0.00001    -0.00002
  Local  ************************263432.56487     0.00071    -0.00007    -0.00020
  n-local  -359.85153  -343.98064  -363.43171    10.11511    -0.44361     0.46706
  augment  3406.40012  3406.40049  3403.17486    -0.00035    -0.00002    -0.00001
  Kinetic  5043.93021  5044.99552  5034.91745     3.77098     1.17160    -0.41270
  Fock        0.00000     0.00000     0.00000     0.00000     0.00000     0.00000
  Total      -8.33287    -8.33287    -0.75365    -0.00000     0.00000     0.00000
  in kB      -8.99367    -8.99367    -0.81341    -0.00000     0.00000     0.00000

 VOLUME and BASIS-vectors are now :
  energy-cutoff  :      500.00
  volume of cell :     1484.46
      direct lattice vectors                 reciprocal lattice vectors
     8.791366577  0.000000000  0.000000000     0.113747958 -0.065672414  0.000000000
     4.395683289  7.613546790  0.000000000     0.000000000  0.131344829  0.000000000
     0.000000000  0.000000000 22.178121567     0.000000000  0.000000000  0.045089481

  length of vectors
     8.791366577  8.791366577 22.178121567     0.131344829  0.131344829  0.045089481

 FORCES acting on ions
    electron-ion (+dipol)            ewald-force                    non-local-force                 convergence-correction
   0.459E-04 -.283E-04 0.253E+04   -.954E-04 0.593E-04 -.253E+04   0.108E-17 0.565E-18 -.233E+01   -.132E-03 -.177E-03 -.194E-01
   0.620E+00 0.632E+00 0.253E+04   -.653E+00 -.677E+00 -.253E+04   0.192E-01 0.508E-02 -.164E+01   0.200E-01 0.529E-01 -.557E-01
   -.619E+00 0.632E+00 0.253E+04   0.653E+00 -.677E+00 -.253E+04   -.192E-01 0.508E-02 -.164E+01   -.205E-01 0.549E-01 -.550E-01
   0.857E+00 0.221E+00 0.253E+04   -.913E+00 -.227E+00 -.253E+04   0.140E-01 0.141E-01 -.164E+01   0.560E-01 -.900E-02 -.557E-01
   -.593E-05 -.188E-04 0.253E+04   0.981E-04 -.200E-05 -.253E+04   -.127E-17 -.201E-17 -.153E+01   0.631E-02 0.384E-02 -.701E-01
   -.857E+00 0.221E+00 0.253E+04   0.913E+00 -.228E+00 -.253E+04   -.140E-01 0.141E-01 -.164E+01   -.575E-01 -.807E-02 -.547E-01
   0.238E+00 -.853E+00 0.253E+04   -.259E+00 0.904E+00 -.253E+04   -.522E-02 -.192E-01 -.164E+01   0.378E-01 -.447E-01 -.550E-01
   -.237E+00 -.852E+00 0.253E+04   0.259E+00 0.904E+00 -.253E+04   0.522E-02 -.192E-01 -.164E+01   -.361E-01 -.457E-01 -.547E-01
   0.368E-04 -.127E-04 0.253E+04   0.792E-04 -.643E-04 -.253E+04   -.133E-17 -.109E-17 -.201E+01   -.671E-02 -.345E-02 -.793E-02
   0.607E+01 0.351E+01 0.892E+03   -.566E+01 -.327E+01 -.891E+03   -.361E+00 -.208E+00 -.765E+00   -.240E-01 -.138E-01 0.298E-01
   -.296E-04 0.686E+01 0.903E+03   0.420E-04 -.703E+01 -.903E+03   0.536E-12 0.816E-01 -.518E+00   0.643E-02 0.537E-01 0.386E-01
   -.607E+01 0.351E+01 0.892E+03   0.566E+01 -.327E+01 -.891E+03   0.361E+00 -.208E+00 -.765E+00   0.221E-01 -.123E-01 0.305E-01
   0.594E+01 -.343E+01 0.903E+03   -.609E+01 0.351E+01 -.903E+03   0.707E-01 -.408E-01 -.518E+00   0.496E-01 -.213E-01 0.385E-01
   -.594E+01 -.343E+01 0.903E+03   0.609E+01 0.351E+01 -.903E+03   -.707E-01 -.408E-01 -.518E+00   -.386E-01 -.221E-01 0.387E-01
   0.167E-04 0.109E+01 0.893E+03   -.109E-03 -.110E+01 -.892E+03   0.101E-13 0.154E-02 -.674E+00   -.206E-02 -.824E-02 0.242E-01
   -.777E-05 -.701E+01 0.892E+03   0.208E-04 0.654E+01 -.891E+03   0.274E-11 0.417E+00 -.765E+00   0.334E-03 0.253E-01 0.304E-01
   0.947E+00 -.547E+00 0.893E+03   -.956E+00 0.552E+00 -.892E+03   0.133E-02 -.768E-03 -.674E+00   -.814E-02 0.236E-02 0.242E-01
   -.948E+00 -.547E+00 0.893E+03   0.956E+00 0.552E+00 -.892E+03   -.133E-02 -.768E-03 -.674E+00   0.796E-02 0.465E-02 0.246E-01
   0.424E-04 0.460E+01 -.787E+03   -.131E-03 -.464E+01 0.786E+03   0.278E-12 0.423E-01 0.734E+00   -.213E-02 -.566E-02 -.574E-01
   0.430E+02 0.249E+02 -.723E+03   -.421E+02 -.243E+02 0.724E+03   -.972E+00 -.561E+00 -.103E+01   0.301E-01 0.170E-01 -.383E-01
   -.430E+02 0.249E+02 -.723E+03   0.421E+02 -.243E+02 0.724E+03   0.972E+00 -.561E+00 -.103E+01   -.190E-01 0.182E-01 -.381E-01
   0.185E+02 -.107E+02 -.771E+03   -.187E+02 0.108E+02 0.770E+03   0.179E+00 -.103E+00 0.592E+00   0.534E-02 -.290E-02 -.402E-01
   -.629E-04 -.497E+02 -.723E+03   0.486E-04 0.486E+02 0.724E+03   0.737E-11 0.112E+01 -.103E+01   0.686E-02 -.253E-01 -.390E-01
   -.185E+02 -.107E+02 -.771E+03   0.187E+02 0.108E+02 0.770E+03   -.179E+00 -.103E+00 0.592E+00   -.713E-02 -.385E-02 -.393E-01
   -.398E+01 -.230E+01 -.787E+03   0.402E+01 0.232E+01 0.786E+03   -.366E-01 -.211E-01 0.734E+00   0.569E-02 0.361E-02 -.578E-01
   0.398E+01 -.230E+01 -.787E+03   -.402E+01 0.232E+01 0.786E+03   0.366E-01 -.211E-01 0.734E+00   -.589E-02 0.970E-03 -.579E-01
   0.210E-04 0.214E+02 -.771E+03   0.109E-03 -.216E+02 0.770E+03   0.136E-11 0.206E+00 0.592E+00   -.588E-03 0.653E-02 -.393E-01
   0.553E-04 -.374E-04 -.246E+04   -.116E-03 0.786E-04 0.246E+04   -.444E-17 -.201E-17 0.181E+01   -.135E-02 0.480E-03 0.495E-01
   0.479E+02 0.825E+02 -.244E+04   -.478E+02 -.825E+02 0.243E+04   -.110E+00 -.175E+00 0.238E+01   0.141E-01 0.492E-01 0.115E-01
   -.479E+02 0.825E+02 -.244E+04   0.478E+02 -.825E+02 0.243E+04   0.110E+00 -.175E+00 0.238E+01   -.392E-02 0.520E-01 0.114E-01
   0.953E+02 0.238E+00 -.244E+04   -.954E+02 -.198E+00 0.243E+04   -.206E+00 -.783E-02 0.238E+01   0.443E-01 -.223E-01 0.116E-01
   -.953E+02 0.238E+00 -.244E+04   0.954E+02 -.198E+00 0.243E+04   0.206E+00 -.783E-02 0.238E+01   -.464E-01 -.215E-01 0.107E-01
   0.475E+02 -.827E+02 -.244E+04   -.475E+02 0.827E+02 0.243E+04   -.963E-01 0.183E+00 0.238E+01   0.428E-01 -.275E-01 0.114E-01
   -.475E+02 -.827E+02 -.244E+04   0.475E+02 0.827E+02 0.243E+04   0.963E-01 0.183E+00 0.238E+01   -.307E-01 -.295E-01 0.107E-01
   0.203E-04 -.118E-04 -.246E+04   0.107E-03 -.669E-04 0.246E+04   0.517E-17 -.402E-18 0.184E+01   -.800E-02 -.280E-02 0.493E-02
   -.508E-04 -.283E-04 -.190E+04   0.957E-04 0.140E-04 0.190E+04   -.131E-17 -.262E-17 0.211E-01   0.104E-01 0.484E-02 0.585E-01
   0.219E-05 -.776E-04 -.926E+03   0.199E-04 0.315E-06 0.909E+03   -.580E-18 0.133E-18 0.170E+02   0.143E-02 0.501E-03 0.137E-01
   0.235E-03 -.927E-04 -.159E+04   0.107E-04 0.296E-07 0.165E+04   0.270E-20 -.367E-18 -.584E+02   0.385E-02 0.211E-02 -.325E-01
   0.586E-03 -.877E-03 0.445E+02   0.470E-14 -.114E-12 -.909E-12   -.191E-15 -.309E-15 -.441E+02   0.525E-01 0.231E-01 -.395E+00

 POSITION                                       TOTAL-FORCE (eV/Angst)
      0.00000      0.00000      5.28219        -0.000000      0.000000      0.042783
      2.93046      0.00000      5.28219         0.006075      0.014347      0.043839
      5.86091      0.00000      5.28219        -0.006075      0.014347      0.043839
      1.46523      2.53785      5.28219         0.015463     -0.001912      0.043839
      4.39568      2.53785      5.28219        -0.000000     -0.000000      0.020954
      7.32614      2.53785      5.28219        -0.015463     -0.001912      0.043839
      2.93046      5.07570      5.28219         0.009387     -0.012435      0.043839
      5.86091      5.07570      5.28219        -0.009387     -0.012435      0.043839
      8.79137      5.07570      5.28219        -0.000000      0.000000      0.040451
      1.46523      0.84595      7.67490         0.028500      0.016455     -0.009020
      4.39568      0.84595      7.67490        -0.000000     -0.034359     -0.087788
      7.32614      0.84595      7.67490        -0.028500      0.016455     -0.009020
      2.93046      3.38380      7.67490        -0.029756      0.017179     -0.087788
      5.86091      3.38380      7.67490         0.029756      0.017179     -0.087788
      8.79137      3.38380      7.67490        -0.000000     -0.016969     -0.006423
      4.39568      5.92165      7.67490        -0.000000     -0.032909     -0.009020
      7.32614      5.92165      7.67490        -0.014695      0.008484     -0.006423
     10.25659      5.92165      7.67490         0.014695      0.008484     -0.006423
      8.79137      1.69533     10.05818        -0.000000     -0.002587      0.010238
      2.93805      1.69629     10.04232         0.003098      0.001788     -0.112385
      5.85331      1.69629     10.04232        -0.003098      0.001788     -0.112385
     10.25424      4.23111     10.04634         0.035761     -0.020646      0.005859
      4.39568      4.22098     10.04232        -0.000000     -0.003577     -0.112385
      7.32849      4.23111     10.04634        -0.035761     -0.020646      0.005859
     11.71886      6.76588     10.05818         0.002241      0.001294      0.010238
      5.86388      6.76588     10.05818        -0.002241      0.001294      0.010238
      8.79137      6.76488     10.04634         0.000000      0.041293      0.005859
      0.00000      0.00000     12.42348        -0.000000      0.000000     -0.008431
      2.96241      0.05505     12.41819        -0.071210     -0.149756     -0.063336
      5.82895      0.05505     12.41819         0.071210     -0.149756     -0.063336
      1.52888      2.53800     12.41819        -0.165297      0.013208     -0.063336
      7.26249      2.53800     12.41819         0.165297      0.013208     -0.063336
      2.96215      5.02050     12.41819        -0.094087      0.136548     -0.063336
      5.82922      5.02050     12.41819         0.094087      0.136548     -0.063336
      8.79137      5.07570     12.42030        -0.000000     -0.000000      0.005493
      4.39568      2.53785     12.13895        -0.000000      0.000000      0.619695
      4.39568      2.53785     13.88906        -0.000000     -0.000000     -0.009554
      4.39568      2.53785     15.05828        -0.000000      0.000000      0.004152
    total drift:                                0.053078      0.022208      0.078217

  FREE ENERGIE OF THE ION-ELECTRON SYSTEM (eV)
  free  energy   TOTEN  =      -110.00491961 eV

  energy  without entropy=     -110.00491961  energy(sigma->0) =     -110.00491961

 stress matrix after NEB project (eV)
     -8.33287     -0.00000      0.00000
     -0.00000     -8.33287      0.00000
     -0.00000      0.00000     -0.75365
  FORCES: max atom, RMS     0.009554    0.001690
  FORCE total and by dimension    0.010417    0.009554
  Stress total and by dimension   11.808535    8.332872
|           W    W    AA    RRRRR   N    N  II  N    N   GGGG   !!!           |
|           W    W   A  A   R    R  NN   N  II  NN   N  G    G  !!!           |
|           W    W  A    A  R    R  N N  N  II  N N  N  G       !!!           |
|           W WW W  AAAAAA  RRRRR   N  N N  II  N  N N  G  GGG   !            |
|           WW  WW  A    A  R   R   N   NN  II  N   NN  G    G                |
|           W    W  A    A  R    R  N    N  II  N    N   GGGG   !!!           |
|     Tetrahedron method does not include variations of the Fermi             |
|     occupations, so forces and stress will be inaccurate. We suggest        |
|     using a different smearing scheme ISMEAR = 1 or 2 for metals in         |
|     relaxations.                                                            |

 total charge

# of ion       s       p       d       tot
    1        0.415   0.203   9.177   9.795
    2        0.418   0.203   9.177   9.798
    3        0.418   0.203   9.177   9.798
    4        0.418   0.203   9.177   9.798
    5        0.417   0.204   9.176   9.797
    6        0.418   0.203   9.177   9.798
    7        0.418   0.203   9.177   9.798
    8        0.418   0.203   9.177   9.798
    9        0.415   0.204   9.178   9.796
   10        0.405   0.269   9.164   9.838
   11        0.409   0.268   9.166   9.843
   12        0.405   0.269   9.164   9.838
   13        0.409   0.268   9.166   9.843
   14        0.409   0.268   9.166   9.843
   15        0.400   0.272   9.164   9.837
   16        0.405   0.269   9.164   9.838
   17        0.400   0.272   9.164   9.837
   18        0.400   0.272   9.164   9.837
   19        0.403   0.267   9.167   9.837
   20        0.420   0.291   9.151   9.862
   21        0.420   0.291   9.151   9.862
   22        0.400   0.276   9.164   9.840
   23        0.420   0.291   9.151   9.862
   24        0.400   0.276   9.164   9.840
   25        0.403   0.267   9.167   9.837
   26        0.403   0.267   9.167   9.837
   27        0.400   0.276   9.164   9.840
   28        0.414   0.196   9.180   9.790
   29        0.409   0.203   9.183   9.795
   30        0.409   0.203   9.183   9.795
   31        0.409   0.203   9.183   9.795
   32        0.409   0.203   9.183   9.795
   33        0.409   0.203   9.183   9.795
   34        0.409   0.203   9.183   9.795
   35        0.414   0.196   9.181   9.790
   36        0.443   0.479   8.420   9.343
   37        0.966   1.539   0.000   2.505
   38        1.614   3.528   0.000   5.142
tot         17.374  13.914 329.400 360.688

 BZINTS: Fermi energy:    0.903505;  405.000000 electrons
         Band energy:-0.134098E+04;  BLOECHL correction:   -0.060790