 vasp.6.2.0 18Jan21 (build Jun 12 2021 23:27:24) complex

 executed on             LinuxIFC date 2022.05.28  01:09:57

 INCAR:
   ISMEAR = -5
   SIGMA = 0.1
   ISPIN = 1
   EDIFF = 1.d-5
   EDIFFG = -0.01
   NSW = 0
   NELM = 150
   ENCUT = 500
   ISIF = 2
   IBRION = 2
   LREAL = Auto
   ALGO = Fast
   ICHARG = 11
   LORBIT = 10
   LCHARG = .F.
   LWAVE = .F.

 POTCAR:    PAW_PBE Au 04Oct2007
 POTCAR:    PAW_PBE W 08Apr2002
 POTCAR:    PAW_PBE H 15Jun2001
 POTCAR:    PAW_PBE O 08Apr2002
|           W    W    AA    RRRRR   N    N  II  N    N   GGGG   !!!           |
|           W    W   A  A   R    R  NN   N  II  NN   N  G    G  !!!           |
|           W    W  A    A  R    R  N N  N  II  N N  N  G       !!!           |
|           W WW W  AAAAAA  RRRRR   N  N N  II  N  N N  G  GGG   !            |
|           WW  WW  A    A  R   R   N   NN  II  N   NN  G    G                |
|           W    W  A    A  R    R  N    N  II  N    N   GGGG   !!!           |
|     For optimal performance we recommend to set                             |
|       NCORE = 2 up to number-of-cores-per-socket                            |
|     This setting can greatly improve the performance of VASP for DFT.       |
|     The default, NCORE=1 might be grossly inefficient on modern             |
|     multi-core architectures or massively parallel machines. Do your        |
|     Unfortunately you need to use the default for GW and RPA                |
|     calculations (for HF NCORE is supported but not extensively tested      |
|     yet).                                                                   |

 POTCAR:    PAW_PBE Au 04Oct2007
   VRHFIN =Au: s1d10

   TITEL  = PAW_PBE Au 04Oct2007
   POMASS =  196.966; ZVAL   =   11.000    mass and valenz
   ENMAX  =  229.943; ENMIN  =  172.457 eV

 POTCAR:    PAW_PBE W 08Apr2002
   VRHFIN =W : 6s5d

   TITEL  = PAW_PBE W 08Apr2002
   POMASS =  183.850; ZVAL   =    6.000    mass and valenz
   ENMAX  =  223.057; ENMIN  =  167.293 eV

 POTCAR:    PAW_PBE H 15Jun2001
   VRHFIN =H: ultrasoft test

   TITEL  = PAW_PBE H 15Jun2001
   POMASS =    1.000; ZVAL   =    1.000    mass and valenz
   ENMAX  =  250.000; ENMIN  =  200.000 eV

 POTCAR:    PAW_PBE O 08Apr2002
   VRHFIN =O: s2p4

   TITEL  = PAW_PBE O 08Apr2002
   POMASS =   16.000; ZVAL   =    6.000    mass and valenz
   ENMAX  =  400.000; ENMIN  =  300.000 eV

 Optimization of the real space projectors (new method)

 maximal supplied QI-value         = 15.12
 optimisation between [QCUT,QGAM] = [ 11.34, 22.83] = [ 36.00,145.93] Ry
 Optimized for a Real-space Cutoff    1.39 Angstroem

   l    n(q)    QCUT    max X(q) W(low)/X(q) W(high)/X(q)  e(spline)
   2      9    11.338    60.898    0.39E-03    0.42E-03    0.21E-06
   2      9    11.338    58.894    0.40E-03    0.42E-03    0.22E-06
   0      9    11.338   109.617    0.13E-03    0.20E-04    0.13E-06
   0      9    11.338    75.026    0.13E-03    0.20E-04    0.13E-06
   1      9    11.338    16.344    0.33E-04    0.24E-03    0.18E-06
   1      9    11.338    10.160    0.26E-04    0.19E-03    0.15E-06
 Optimization of the real space projectors (new method)

[...]

   l    n(q)    QCUT    max X(q) W(low)/X(q) W(high)/X(q)  e(spline)
   0      8    11.287    19.460    0.40E-03    0.73E-03    0.16E-06
   0      8    11.287    12.209    0.38E-03    0.70E-03    0.15E-06
   1      7    11.287     4.655    0.22E-03    0.25E-04    0.22E-06
 Optimization of the real space projectors (new method)

 maximal supplied QI-value         = 24.76
 optimisation between [QCUT,QGAM] = [ 11.39, 22.77] = [ 36.31,145.25] Ry
 Optimized for a Real-space Cutoff    1.00 Angstroem

   l    n(q)    QCUT    max X(q) W(low)/X(q) W(high)/X(q)  e(spline)
   0      7    11.387    20.381    0.39E-03    0.13E-02    0.15E-06
   0      7    11.387    15.268    0.42E-03    0.14E-02    0.17E-06
   1      6    11.387     5.964    0.41E-03    0.11E-02    0.17E-06
   1      6    11.387     5.382    0.39E-03    0.87E-03    0.15E-06
  PAW_PBE Au 04Oct2007                  :
  PAW_PBE W 08Apr2002                   :
  PAW_PBE H 15Jun2001                   :
  PAW_PBE O 08Apr2002                   :

 POSCAR: Au-W-H2O
  positions in direct lattice
  velocities in cartesian coordinates
 exchange correlation table for  LEXCH =        8
   RHO(1)=    0.500       N(1)  =     2000
   RHO(2)=  100.500       N(2)  =     4000

 VTST: version 3.2, (02/03/18)

 CHAIN: initializing optimizer

 OPT: Using VASP Conjugate-Gradient optimizer
 CHAIN: Read ICHAIN            0

 POSCAR: Au-W-H2O
  positions in direct lattice
  velocities in cartesian coordinates

 ion  position               nearest neighbor table
   1  0.000  0.000  0.213-  16 2.94  12 2.94   6 2.94   8 2.94   7 2.94   3 2.94  10 2.94   4 2.94
                             2 2.94
   2  0.333  0.000  0.213-   9 2.94  11 2.94  17 2.94  10 2.94   8 2.94   4 2.94   5 2.94   1 2.94
                             3 2.94
   3  0.667  0.000  0.213-   7 2.94  18 2.94  12 2.94   1 2.94  11 2.94   5 2.94   6 2.94   9 2.94
                             2 2.94
   4  0.000  0.333  0.213-  10 2.94   6 2.94   5 2.94  13 2.94   2 2.94  15 2.94   9 2.94   1 2.94
                             7 2.94
   5  0.333  0.333  0.213-  13 2.94   7 2.94  11 2.94   4 2.94   2 2.94  14 2.94   3 2.94   8 2.94
                             6 2.94
   6  0.667  0.333  0.213-  15 2.94  14 2.94   1 2.94  12 2.94   4 2.94   9 2.94   8 2.94   3 2.94
                             5 2.94
   7  0.000  0.667  0.213-  18 2.94   3 2.94  16 2.94   5 2.94   1 2.94  13 2.94   8 2.94   4 2.94
                             9 2.94
   8  0.333  0.667  0.213-   9 2.94  17 2.94   1 2.94   2 2.94  14 2.94  16 2.94   6 2.94   7 2.94
                             5 2.94
   9  0.667  0.667  0.213-   2 2.94   8 2.94  17 2.94   6 2.94  15 2.94   4 2.94   3 2.94  18 2.94
                             7 2.94
  10  0.111  0.111  0.310-  20 2.90  11 2.94  17 2.94   2 2.94   4 2.94   1 2.94  12 2.94  16 2.94
                            13 2.94  15 2.94  26 2.96  19 2.96
  11  0.444  0.111  0.310-  20 2.91  21 2.91  13 2.94   2 2.94  10 2.94  17 2.94   5 2.94   3 2.94
                            18 2.94  14 2.94  12 2.94  27 2.94
  12  0.778  0.111  0.310-  21 2.90  16 2.94  18 2.94   1 2.94  14 2.94  15 2.94   3 2.94   6 2.94
                            10 2.94  11 2.94  25 2.96  19 2.96
  13  0.111  0.444  0.310-  23 2.91  20 2.91   5 2.94  18 2.94  11 2.94   7 2.94   4 2.94  16 2.94
                            10 2.94  14 2.94  15 2.94  22 2.94
  14  0.444  0.444  0.310-  21 2.91  23 2.91  15 2.94   6 2.94  12 2.94   8 2.94  17 2.94   5 2.94
                            16 2.94  13 2.94  11 2.94  24 2.94
  15  0.778  0.444  0.310-  24 2.92  22 2.92  14 2.94   6 2.94  17 2.94  12 2.94   9 2.94   4 2.94
                            10 2.94  13 2.94  18 2.94  19 2.95
  16  0.111  0.778  0.310-  23 2.90  18 2.94  12 2.94   7 2.94   1 2.94   8 2.94  13 2.94  10 2.94
                            14 2.94  17 2.94  25 2.96  26 2.96
  17  0.444  0.778  0.310-  27 2.92  24 2.92   9 2.94  15 2.94   2 2.94  10 2.94  11 2.94   8 2.94
                            14 2.94  16 2.94  18 2.94  26 2.95
  18  0.778  0.778  0.310-  22 2.92  27 2.92  16 2.94   7 2.94  13 2.94  12 2.94   3 2.94  11 2.94
                             9 2.94  15 2.94  17 2.94  25 2.95
  19  0.888  0.224  0.408-  24 2.93  22 2.93  21 2.93  20 2.93  28 2.94  15 2.95  26 2.96  25 2.96
                            10 2.96  12 2.96  32 3.04  31 3.04
  20  0.222  0.222  0.406-  36 2.74  10 2.90  11 2.91  13 2.91  26 2.93  19 2.93  23 2.95  21 2.95
                            27 2.96  22 2.96  29 2.98  31 2.98
  21  0.557  0.222  0.406-  36 2.74  12 2.90  14 2.91  11 2.91  25 2.93  19 2.93  20 2.95  23 2.95
                            27 2.96  24 2.96  30 2.98  32 2.98
  22  0.886  0.557  0.407-  24 2.90  27 2.90  18 2.92  15 2.92  25 2.93  19 2.93  13 2.94  35 2.95
                            23 2.96  20 2.96  33 3.02  31 3.02
  23  0.222  0.557  0.406-  36 2.74  16 2.90  13 2.91  14 2.91  25 2.93  26 2.93  20 2.95  21 2.95
                            22 2.96  24 2.96  33 2.98  34 2.98
  24  0.557  0.557  0.407-  27 2.90  22 2.90  15 2.92  17 2.92  26 2.93  19 2.93  14 2.94  35 2.95
                            21 2.96  23 2.96  32 3.02  34 3.02
  25  0.888  0.888  0.408-  22 2.93  27 2.93  23 2.93  21 2.93  28 2.94  18 2.95  19 2.96  26 2.96
                            16 2.96  12 2.96  33 3.04  30 3.04
  26  0.224  0.888  0.408-  27 2.93  24 2.93  20 2.93  23 2.93  28 2.94  17 2.95  19 2.96  25 2.96
                            10 2.96  16 2.96  29 3.04  34 3.04
  27  0.557  0.886  0.407-  24 2.90  22 2.90  17 2.92  18 2.92  26 2.93  25 2.93  11 2.94  35 2.95
                            20 2.96  21 2.96  29 3.02  30 3.02
  28  0.000  0.000  0.505-  25 2.94  19 2.94  26 2.94  34 3.00  32 3.00  33 3.00  30 3.00  31 3.00
                            29 3.00
  29  0.334  0.013  0.507-  30 2.82  31 2.82  36 2.84  20 2.98  35 3.00  28 3.00  27 3.02  26 3.04
                            34 3.17
  30  0.653  0.013  0.507-  29 2.82  32 2.82  36 2.84  21 2.98  35 3.00  28 3.00  27 3.02  25 3.04
                            33 3.17
  31  0.013  0.334  0.507-  33 2.82  29 2.82  36 2.84  20 2.98  35 3.00  28 3.00  22 3.02  19 3.04
                            32 3.17
  32  0.653  0.334  0.507-  34 2.82  30 2.82  36 2.84  21 2.98  35 3.00  28 3.00  24 3.02  19 3.04
                            31 3.17
  33  0.013  0.653  0.507-  31 2.82  34 2.82  36 2.84  23 2.98  35 3.00  28 3.00  22 3.02  25 3.04
                            30 3.17
  34  0.334  0.653  0.507-  32 2.82  33 2.82  36 2.84  23 2.98  35 3.00  28 3.00  24 3.02  26 3.04
                            29 3.17
  35  0.667  0.667  0.505-  24 2.95  27 2.95  22 2.95  29 3.00  34 3.00  32 3.00  31 3.00  30 3.00
                            33 3.00
  36  0.333  0.333  0.492-  39 2.27  20 2.74  23 2.74  21 2.74  33 2.84  31 2.84  29 2.84  30 2.84
                            34 2.84  32 2.84
  37  0.279  0.263  0.593-  39 0.98
  38  0.458  0.262  0.593-  39 0.98
  39  0.333  0.333  0.584-  38 0.98  37 0.98  36 2.27

  LATTYP: Found a hexagonal cell.
 ALAT       =     8.8135128021
 C/A-ratio  =     2.8075332270

  Lattice vectors:

 A1 = (  -4.4067569092,  -7.6327256898,   0.0000000000)
 A2 = (   8.8135128021,   0.0000000000,   0.0000000000)
 A3 = (   0.0000000000,   0.0000000000,  24.7442300386)

Analysis of symmetry for initial positions (statically):
 Subroutine PRICEL returns:
 Original cell was already a primitive cell.

 Routine SETGRP: Setting up the symmetry group for a
 hexagonal supercell.

 Subroutine GETGRP returns: Found  1 space group operations
 (whereof  1 operations were pure point group operations)
 out of a pool of 24 trial point group operations.

The static configuration has the point symmetry C_1 .

Analysis of symmetry for dynamics (positions and initial velocities):
 Subroutine PRICEL returns:
 Original cell was already a primitive cell.

[...]

The dynamic configuration has the point symmetry C_1 .

Analysis of constrained symmetry for selective dynamics:
 Subroutine PRICEL returns:
 Original cell was already a primitive cell.

[...]
     41      -4.8249      2.00000
     42      -4.8105      2.00000
     43      -4.7540      2.00000
     44      -4.7032      2.00000
     45      -4.6757      2.00000
     46      -4.6620      2.00000
     47      -4.6332      2.00000
     48      -4.6060      2.00000
     49      -4.5912      2.00000
     50      -4.4945      2.00000
     51      -4.4873      2.00000
     52      -4.4533      2.00000
     53      -4.4447      2.00000
     54      -4.4232      2.00000
     55      -4.4108      2.00000
     56      -4.3892      2.00000
     57      -4.3659      2.00000
     58      -4.3409      2.00000
     59      -4.3060      2.00000
     60      -4.2896      2.00000
[...]
    238       5.8209      0.00000
    239       6.0173      0.00000
    240       6.0667      0.00000
    241       6.1259      0.00000
    242       6.2355      0.00000
    243       6.3673      0.00000
    244       6.3925      0.00000
    245       6.4465      0.00000
    246       6.5564      0.00000
    247       6.5828      0.00000
    248       6.6315      0.00000
    249       6.6988      0.00000
    250       6.7248      0.00000
    251       6.8415      0.00000
    252       6.8763      0.00000

 soft charge-density along one line, spin component           1
         0         1         2         3         4         5         6         7         8         9
 total charge-density along one line

------------------------ aborting loop because EDIFF is reached ----------------------------------------

 total charge

# of ion       s       p       d       tot
    1        0.548   0.238   8.768   9.554
    2        0.543   0.241   8.765   9.549
    3        0.543   0.241   8.765   9.549
    4        0.543   0.241   8.765   9.549
    5        0.546   0.239   8.763   9.548
    6        0.543   0.241   8.765   9.549
    7        0.542   0.241   8.766   9.549
    8        0.542   0.241   8.766   9.549
    9        0.543   0.239   8.767   9.549
   10        0.529   0.306   8.766   9.601
   11        0.523   0.307   8.780   9.610
   12        0.529   0.306   8.766   9.601
   13        0.522   0.307   8.779   9.609
   14        0.522   0.307   8.779   9.609
   15        0.516   0.307   8.776   9.600
   16        0.529   0.306   8.766   9.601
   17        0.516   0.307   8.777   9.600
   18        0.516   0.307   8.777   9.600
   19        0.518   0.295   8.771   9.584
   20        0.579   0.350   8.718   9.646
   21        0.579   0.350   8.718   9.646
   22        0.506   0.306   8.780   9.592
   23        0.579   0.349   8.718   9.646
   24        0.506   0.306   8.780   9.592
   25        0.517   0.294   8.772   9.584
   26        0.517   0.294   8.772   9.584
   27        0.508   0.306   8.780   9.593
   28        0.540   0.228   8.752   9.519
   29        0.589   0.262   8.727   9.578
   30        0.589   0.262   8.727   9.578
   31        0.589   0.261   8.727   9.576
   32        0.588   0.261   8.727   9.576
   33        0.584   0.254   8.731   9.569
   34        0.584   0.254   8.731   9.569
   35        0.534   0.227   8.757   9.518
   36        0.555   0.469   3.788   4.811
   37        0.598   0.118   0.000   0.716
   38        0.599   0.118   0.000   0.716
   39        1.567   3.613   0.000   5.181
tot         22.324  14.096 310.331 346.750

  FORCE on cell =-STRESS in cart. coord.  units (eV):
  Direction    XX          YY          ZZ          XY          YZ          ZX
  Alpha Z   924.20950   924.20950   924.20950
  Ewald  154322.37642154256.19540************    -0.11449   -13.60946     0.06816
  Hartree162720.31937162708.27595************    -0.02101     3.12318     0.03216
  E(xc)   -1789.22275 -1789.40110 -1797.02567    -0.00026    -0.01731     0.00040
  Local  ************************329286.69338     0.10356     3.52722    -0.08974
  n-local   -86.22683   -86.86145   -56.40812     0.00855    -0.04184    -0.00269
  augment  2372.89523  2374.06095  2395.41750     0.00042     0.35995    -0.00085
  Kinetic  5550.67634  5568.93230  5636.41176     0.02661     6.52103    -0.00756
  Fock        0.00000     0.00000     0.00000     0.00000     0.00000     0.00000
  Total     -22.29751   -22.39672     2.77827     0.00337    -0.13723    -0.00012
  in kB     -21.46171   -21.55720     2.67413     0.00324    -0.13209    -0.00011

 VOLUME and BASIS-vectors are now :
  energy-cutoff  :      500.00
  volume of cell :     1664.57
      direct lattice vectors                 reciprocal lattice vectors
     8.813512802  0.000000000  0.000000000     0.113462137 -0.065507406  0.000000000
     4.406756909  7.632725690  0.000000000     0.000000000  0.131014796  0.000000000
     0.000000000  0.000000000 24.744230039     0.000000000  0.000000000  0.040413462

  length of vectors
     8.813512802  8.813512802 24.744230039     0.131014796  0.131014796  0.040413462

 FORCES acting on ions
    electron-ion (+dipol)            ewald-force                    non-local-force                 convergence-correction
   0.154E-02 -.127E-01 0.267E+04   0.250E-04 -.968E-02 -.267E+04   -.423E-05 0.648E-02 -.876E+00   -.156E-02 0.163E-01 -.198E+00
   0.484E+00 -.106E+00 0.267E+04   -.771E+00 -.193E+00 -.267E+04   0.111E+00 0.172E+00 -.178E+00   0.160E+00 0.113E+00 -.224E+00
   -.486E+00 -.118E+00 0.267E+04   0.771E+00 -.193E+00 -.267E+04   -.111E+00 0.172E+00 -.178E+00   -.159E+00 0.125E+00 -.222E+00
   0.160E+00 0.471E+00 0.267E+04   -.544E+00 -.560E+00 -.267E+04   0.193E+00 -.532E-02 -.183E+00   0.171E+00 0.864E-01 -.234E+00
   -.149E-01 -.458E-01 0.268E+04   0.153E-03 0.162E-01 -.268E+04   0.606E-04 0.492E-02 0.141E+00   0.149E-01 0.186E-01 -.196E+00
   -.149E+00 0.467E+00 0.267E+04   0.544E+00 -.560E+00 -.267E+04   -.193E+00 -.529E-02 -.183E+00   -.182E+00 0.913E-01 -.228E+00
   -.358E+00 -.341E+00 0.267E+04   0.227E+00 0.753E+00 -.267E+04   0.104E+00 -.175E+00 -.215E+00   0.172E-01 -.213E+00 -.233E+00
   0.349E+00 -.334E+00 0.267E+04   -.227E+00 0.753E+00 -.267E+04   -.104E+00 -.175E+00 -.216E+00   -.722E-02 -.220E+00 -.230E+00
   0.144E-01 0.260E-01 0.268E+04   0.136E-03 -.629E-02 -.267E+04   0.244E-05 -.293E-02 -.466E+00   -.147E-01 -.167E-01 -.201E+00
   0.767E+01 0.442E+01 0.897E+03   -.726E+01 -.419E+01 -.896E+03   -.470E+00 -.281E+00 -.795E+00   0.642E-01 0.486E-01 0.341E-01
   -.116E-01 0.298E+01 0.904E+03   0.460E-03 -.305E+01 -.904E+03   0.808E-05 0.281E-02 -.105E+00   0.113E-01 0.127E-01 0.711E-01
   -.766E+01 0.441E+01 0.897E+03   0.726E+01 -.419E+01 -.896E+03   0.470E+00 -.281E+00 -.795E+00   -.714E-01 0.593E-01 0.318E-01
   0.258E+01 -.158E+01 0.904E+03   -.264E+01 0.162E+01 -.903E+03   0.256E-01 -.307E-02 -.111E+00   -.253E-02 -.963E-02 0.668E-01
   -.260E+01 -.158E+01 0.904E+03   0.264E+01 0.162E+01 -.903E+03   -.256E-01 -.292E-02 -.111E+00   0.258E-01 -.107E-01 0.665E-01
   0.141E-01 0.555E+01 0.902E+03   -.151E-03 -.570E+01 -.902E+03   -.144E-03 0.265E-01 -.589E+00   -.139E-01 0.361E-01 0.328E-01
   -.489E-02 -.879E+01 0.897E+03   0.248E-03 0.828E+01 -.896E+03   0.339E-04 0.573E+00 -.802E+00   0.464E-02 -.592E-01 0.305E-01
   0.489E+01 -.270E+01 0.902E+03   -.502E+01 0.279E+01 -.902E+03   0.171E-01 -.144E-01 -.599E+00   0.373E-01 -.386E-01 0.342E-01
   -.489E+01 -.271E+01 0.902E+03   0.502E+01 0.279E+01 -.902E+03   -.171E-01 -.143E-01 -.599E+00   -.417E-01 -.271E-01 0.322E-01
   0.643E-02 0.302E+01 -.911E+03   -.259E-02 -.314E+01 0.909E+03   -.183E-03 -.360E-01 0.435E+00   -.370E-02 0.951E-01 0.641E+00
   0.173E+01 0.400E+00 -.864E+03   -.670E+00 0.189E+00 0.864E+03   -.121E+01 -.674E+00 -.159E+01   0.183E+00 0.105E+00 0.849E+00
   -.174E+01 0.387E+00 -.864E+03   0.672E+00 0.190E+00 0.864E+03   0.121E+01 -.674E+00 -.159E+01   -.178E+00 0.117E+00 0.847E+00
   -.918E+01 0.506E+01 -.886E+03   0.862E+01 -.473E+01 0.885E+03   0.505E+00 -.273E+00 0.570E+00   0.574E-01 -.549E-01 0.591E+00
   -.143E-01 -.217E+01 -.865E+03   0.250E-02 0.921E+00 0.866E+03   -.216E-04 0.145E+01 -.152E+01   0.119E-01 -.221E+00 0.828E+00
   0.921E+01 0.506E+01 -.886E+03   -.862E+01 -.474E+01 0.885E+03   -.505E+00 -.273E+00 0.570E+00   -.783E-01 -.536E-01 0.588E+00
   -.310E+01 -.980E+00 -.911E+03   0.318E+01 0.106E+01 0.910E+03   0.529E-01 -.108E-01 0.519E+00   -.748E-01 -.306E-01 0.637E+00
   0.309E+01 -.969E+00 -.911E+03   -.318E+01 0.105E+01 0.910E+03   -.526E-01 -.110E-01 0.519E+00   0.837E-01 -.391E-01 0.641E+00
   0.120E-01 -.979E+01 -.886E+03   0.586E-03 0.912E+01 0.884E+03   0.389E-05 0.585E+00 0.523E+00   -.128E-01 0.828E-01 0.596E+00
   -.102E-02 0.205E+01 -.260E+04   -.516E-02 -.211E+01 0.260E+04   0.105E-03 0.316E-01 0.450E+00   0.606E-02 0.150E-01 0.478E+00
   0.329E+02 0.530E+02 -.259E+04   -.318E+02 -.514E+02 0.259E+04   -.131E+01 -.202E+01 -.837E+00   0.170E+00 0.253E+00 0.408E+00
   -.328E+02 0.529E+02 -.259E+04   0.318E+02 -.513E+02 0.259E+04   0.131E+01 -.202E+01 -.838E+00   -.184E+00 0.263E+00 0.411E+00
   0.588E+02 -.140E+01 -.259E+04   -.568E+02 0.152E+01 0.259E+04   -.244E+01 -.130E+00 -.800E+00   0.297E+00 0.230E-01 0.405E+00
   -.588E+02 -.141E+01 -.259E+04   0.568E+02 0.152E+01 0.259E+04   0.244E+01 -.130E+00 -.798E+00   -.315E+00 0.299E-01 0.402E+00
   0.242E+02 -.487E+02 -.260E+04   -.234E+02 0.471E+02 0.260E+04   -.104E+01 0.204E+01 -.384E+00   0.116E+00 -.286E+00 0.419E+00
   -.242E+02 -.487E+02 -.260E+04   0.234E+02 0.470E+02 0.260E+04   0.104E+01 0.204E+01 -.383E+00   -.118E+00 -.289E+00 0.413E+00
   0.167E-01 0.122E+01 -.260E+04   -.581E-02 -.123E+01 0.260E+04   0.863E-04 0.143E-01 0.566E+00   -.112E-01 -.118E-01 0.488E+00
   -.214E-01 -.428E+01 -.124E+04   0.169E-01 0.432E+01 0.124E+04   0.423E-03 -.212E-01 0.157E+01   0.483E-02 -.942E-02 0.278E+00
   0.670E+02 0.422E+02 -.289E+03   -.738E+02 -.465E+02 0.291E+03   0.677E+01 0.432E+01 -.185E+01   0.258E-02 0.210E-02 -.290E-01
   -.669E+02 0.424E+02 -.289E+03   0.737E+02 -.468E+02 0.291E+03   -.676E+01 0.435E+01 -.187E+01   -.224E-02 0.229E-02 -.293E-01
   -.885E-01 -.555E+02 -.162E+04   0.135E+00 0.979E+02 0.162E+04   -.518E-01 -.424E+02 0.564E+01   0.282E-02 0.395E-02 -.246E+00
   0.827E-01 0.339E+02 0.616E+00   0.423E-13 -.284E-13 -.182E-11   -.448E-01 -.339E+02 -.795E+01   -.288E-01 0.833E-02 0.805E+01

 POSITION                                       TOTAL-FORCE (eV/Angst)
      0.00000      0.00000      5.28038        -0.000230     -0.000082     -0.135182
      2.93784      0.00000      5.28038        -0.016063     -0.014467     -0.018824
      5.87568      0.00000      5.28038         0.015609     -0.014444     -0.018837
      1.46892      2.54424      5.28038        -0.020737     -0.008089     -0.015746
      4.40676      2.54424      5.28038        -0.000016     -0.006613     -0.035731
      7.34459      2.54424      5.28038         0.020239     -0.008083     -0.015607
      2.93784      5.08848      5.28038        -0.010697      0.023133     -0.011791
      5.87568      5.08848      5.28038         0.010245      0.023125     -0.011678
      8.81351      5.08848      5.28038        -0.000436     -0.000355     -0.029162
      1.46892      0.84808      7.67911         0.000924      0.000351      0.116382
      4.40676      0.84808      7.67911         0.000003     -0.050452     -0.049153
      7.34459      0.84808      7.67911        -0.001440      0.000405      0.116348
      2.93784      3.39232      7.67911        -0.037305      0.028565     -0.046981
      5.87568      3.39232      7.67911         0.037323      0.028598     -0.047003
      8.81351      3.39232      7.67911        -0.000333     -0.081408      0.048149
      4.40676      5.93656      7.67911        -0.000204      0.002097      0.107460
      7.34459      5.93656      7.67911        -0.069345      0.038135      0.052858
     10.28243      5.93656      7.67911         0.068875      0.038211      0.052839
      8.81351      1.70807     10.10081        -0.000274     -0.060336     -0.006091
      2.93151      1.69251     10.04012         0.030187      0.019451     -0.057976
      5.88200      1.69251     10.04012        -0.030688      0.019581     -0.058024
     10.26425      4.25090     10.06644        -0.002417     -0.003145      0.009294
      4.40676      4.24770     10.04012        -0.000138     -0.017176     -0.024036
      7.36277      4.25090     10.06644         0.001435     -0.003239      0.009356
     11.74104      6.77869     10.10081         0.053466      0.035124     -0.011315
      5.88599      6.77869     10.10081        -0.053891      0.035094     -0.011278
      8.81351      6.76365     10.06644        -0.000449      0.001556      0.000244
      0.00000      0.00000     12.49922        -0.000255     -0.019922     -0.025862
      2.99894      0.10048     12.55446        -0.096996     -0.161652     -0.059423
      5.81457      0.10048     12.55446         0.096112     -0.161633     -0.059273
      1.58649      2.54692     12.55446        -0.153419      0.012769     -0.055151
      7.22703      2.54692     12.55446         0.152495      0.012874     -0.055358
      2.99430      4.98533     12.55446        -0.101489      0.136888     -0.102827
      5.81921      4.98533     12.55446         0.100713      0.136856     -0.103040
      8.81351      5.08848     12.49869        -0.000532     -0.001709     -0.028215
      4.40676      2.54424     12.18560         0.000488      0.012573      0.576754
      3.61800      2.00463     14.68309         0.005229      0.005770     -0.001170
      5.19297      2.00228     14.68401         0.006499     -0.002573      0.001465
      4.40665      2.54304     14.45617        -0.002488      0.004223      0.003586
    total drift:                                0.009111      0.019710      0.716343

  FREE ENERGIE OF THE ION-ELECTRON SYSTEM (eV)
  free  energy   TOTEN  =      -131.94721956 eV

  energy  without entropy=     -131.94721956  energy(sigma->0) =     -131.94721956

 stress matrix after NEB project (eV)
    -22.29751      0.00337     -0.00012
      0.00337    -22.39672     -0.13723
     -0.00012     -0.13723      2.77827
  FORCES: max atom, RMS     0.007875    0.001960
  FORCE total and by dimension    0.012243    0.006499
  Stress total and by dimension   31.726150   22.396721
|           W    W    AA    RRRRR   N    N  II  N    N   GGGG   !!!           |
|           W    W   A  A   R    R  NN   N  II  NN   N  G    G  !!!           |
|           W    W  A    A  R    R  N N  N  II  N N  N  G       !!!           |
|           W WW W  AAAAAA  RRRRR   N  N N  II  N  N N  G  GGG   !            |
|           WW  WW  A    A  R   R   N   NN  II  N   NN  G    G                |
|           W    W  A    A  R    R  N    N  II  N    N   GGGG   !!!           |
|     Tetrahedron method does not include variations of the Fermi             |
|     occupations, so forces and stress will be inaccurate. We suggest        |
|     using a different smearing scheme ISMEAR = 1 or 2 for metals in         |
|     relaxations.                                                            |

 total charge

# of ion       s       p       d       tot
    1        0.548   0.238   8.768   9.554
    2        0.543   0.241   8.765   9.549
    3        0.543   0.241   8.765   9.549
    4        0.543   0.241   8.765   9.549
    5        0.546   0.239   8.763   9.548
    6        0.543   0.241   8.765   9.549
    7        0.542   0.241   8.766   9.549
    8        0.542   0.241   8.766   9.549
    9        0.543   0.239   8.767   9.549
   10        0.529   0.306   8.766   9.601
   11        0.523   0.307   8.780   9.610
   12        0.529   0.306   8.766   9.601
   13        0.522   0.307   8.779   9.609
   14        0.522   0.307   8.779   9.609
   15        0.516   0.307   8.776   9.600
   16        0.529   0.306   8.766   9.601
   17        0.516   0.307   8.777   9.600
   18        0.516   0.307   8.777   9.600
   19        0.518   0.295   8.771   9.584
   20        0.579   0.350   8.718   9.646
   21        0.579   0.350   8.718   9.646
   22        0.506   0.306   8.780   9.592
   23        0.579   0.349   8.718   9.646
   24        0.506   0.306   8.780   9.592
   25        0.517   0.294   8.772   9.584
   26        0.517   0.294   8.772   9.584
   27        0.508   0.306   8.780   9.593
   28        0.540   0.228   8.752   9.519
   29        0.589   0.262   8.727   9.578
   30        0.589   0.262   8.727   9.578
   31        0.589   0.261   8.727   9.576
   32        0.588   0.261   8.727   9.576
   33        0.584   0.254   8.731   9.569
   34        0.584   0.254   8.731   9.569
   35        0.534   0.227   8.757   9.518
   36        0.555   0.469   3.788   4.811
   37        0.598   0.118   0.000   0.716
   38        0.599   0.118   0.000   0.716
   39        1.567   3.613   0.000   5.181
tot         22.324  14.096 310.331 346.750

 BZINTS: Fermi energy:    0.404960;  399.000000 electrons
         Band energy:-0.139790E+04;  BLOECHL correction:   -0.025669