 vasp.6.2.0 18Jan21 (build Jun 12 2021 23:27:24) complex

 executed on             LinuxIFC date 2022.05.30  15:42:48

 INCAR:
   ISMEAR = -5
   SIGMA = 0.1
   ISPIN = 1
   EDIFF = 1.d-5
   EDIFFG = -0.01
   NSW = 0
   NELM = 150
   ENCUT = 500
   ISIF = 2
   IBRION = 2
   LREAL = Auto
   ALGO = Fast
   ICHARG = 11
   LORBIT = 10
   LCHARG = .F.
   LWAVE = .F.

 POTCAR:    PAW_PBE Au 04Oct2007
 POTCAR:    PAW_PBE Ti 08Apr2002
 POTCAR:    PAW_PBE C 08Apr2002
|           W    W    AA    RRRRR   N    N  II  N    N   GGGG   !!!           |
|           W    W   A  A   R    R  NN   N  II  NN   N  G    G  !!!           |
|           W    W  A    A  R    R  N N  N  II  N N  N  G       !!!           |
|           W WW W  AAAAAA  RRRRR   N  N N  II  N  N N  G  GGG   !            |
|           WW  WW  A    A  R   R   N   NN  II  N   NN  G    G                |
|           W    W  A    A  R    R  N    N  II  N    N   GGGG   !!!           |
|     For optimal performance we recommend to set                             |
|       NCORE = 2 up to number-of-cores-per-socket                            |
|     This setting can greatly improve the performance of VASP for DFT.       |
|     The default, NCORE=1 might be grossly inefficient on modern             |
|     multi-core architectures or massively parallel machines. Do your        |
|     Unfortunately you need to use the default for GW and RPA                |
|     calculations (for HF NCORE is supported but not extensively tested      |
|     yet).                                                                   |

 POTCAR:    PAW_PBE Au 04Oct2007
   VRHFIN =Au: s1d10

   TITEL  = PAW_PBE Au 04Oct2007
   POMASS =  196.966; ZVAL   =   11.000    mass and valenz
   ENMAX  =  229.943; ENMIN  =  172.457 eV

 POTCAR:    PAW_PBE Ti 08Apr2002
   VRHFIN =Ti: d3 s1

   TITEL  = PAW_PBE Ti 08Apr2002
   POMASS =   47.880; ZVAL   =    4.000    mass and valenz
   ENMAX  =  178.330; ENMIN  =  133.747 eV

 POTCAR:    PAW_PBE C 08Apr2002
   VRHFIN =C: s2p2

   TITEL  = PAW_PBE C 08Apr2002
   POMASS =   12.011; ZVAL   =    4.000    mass and valenz
   ENMAX  =  400.000; ENMIN  =  300.000 eV

 Optimization of the real space projectors (new method)

 maximal supplied QI-value         = 15.12
 optimisation between [QCUT,QGAM] = [ 11.34, 22.83] = [ 36.00,145.93] Ry
 Optimized for a Real-space Cutoff    1.39 Angstroem

   l    n(q)    QCUT    max X(q) W(low)/X(q) W(high)/X(q)  e(spline)
   2      9    11.338    60.898    0.39E-03    0.42E-03    0.21E-06
   2      9    11.338    58.894    0.40E-03    0.42E-03    0.22E-06
   0      9    11.338   109.617    0.13E-03    0.20E-04    0.13E-06
   0      9    11.338    75.026    0.13E-03    0.20E-04    0.13E-06
   1      9    11.338    16.344    0.33E-04    0.24E-03    0.18E-06
   1      9    11.338    10.160    0.26E-04    0.19E-03    0.15E-06
 Optimization of the real space projectors (new method)

[...]

   l    n(q)    QCUT    max X(q) W(low)/X(q) W(high)/X(q)  e(spline)
   2     10    11.404    49.363    0.27E-03    0.67E-03    0.76E-06
   2     10    11.404    47.669    0.26E-03    0.65E-03    0.73E-06
   0     11    11.404    26.374    0.17E-03    0.20E-03    0.34E-06
   0     11    11.404    11.549    0.14E-03    0.16E-03    0.29E-06
   1     10    11.404     9.492    0.33E-04    0.56E-04    0.16E-06
 Optimization of the real space projectors (new method)

 maximal supplied QI-value         = 25.13
 optimisation between [QCUT,QGAM] = [ 11.31, 22.87] = [ 35.82,146.48] Ry
 Optimized for a Real-space Cutoff    1.00 Angstroem

   l    n(q)    QCUT    max X(q) W(low)/X(q) W(high)/X(q)  e(spline)
   0      7    11.310   115.676    0.43E-03    0.13E-02    0.19E-06
   0      7    11.310    87.132    0.43E-03    0.13E-02    0.18E-06
   1      6    11.310     4.429    0.42E-03    0.74E-03    0.11E-06
   1      6    11.310     2.733    0.34E-03    0.55E-03    0.92E-07
  PAW_PBE Au 04Oct2007                  :
  PAW_PBE Ti 08Apr2002                  :
  PAW_PBE C 08Apr2002                   :

 POSCAR: Au-Ti-C
  positions in direct lattice
  velocities in cartesian coordinates
 exchange correlation table for  LEXCH =        8
   RHO(1)=    0.500       N(1)  =     2000
   RHO(2)=  100.500       N(2)  =     4000

 VTST: version 3.2, (02/03/18)

 CHAIN: initializing optimizer

 OPT: Using VASP Conjugate-Gradient optimizer
 CHAIN: Read ICHAIN            0

 POSCAR: Au-Ti-C
  positions in direct lattice
  velocities in cartesian coordinates

 ion  position               nearest neighbor table
   1  0.000  0.000  0.217-  16 2.94  12 2.94   6 2.94   8 2.94   7 2.94   3 2.94  10 2.94   4 2.94
                             2 2.94
   2  0.333  0.000  0.217-   9 2.94  11 2.94  17 2.94  10 2.94   8 2.94   4 2.94   5 2.94   1 2.94
                             3 2.94
   3  0.667  0.000  0.217-   7 2.94  18 2.94  12 2.94   1 2.94  11 2.94   5 2.94   6 2.94   9 2.94
                             2 2.94
   4  0.000  0.333  0.217-  10 2.94   6 2.94   5 2.94  13 2.94   2 2.94  15 2.94   9 2.94   1 2.94
                             7 2.94
   5  0.333  0.333  0.217-  13 2.94   7 2.94  11 2.94   4 2.94   2 2.94  14 2.94   3 2.94   8 2.94
                             6 2.94
   6  0.667  0.333  0.217-  15 2.94  14 2.94   1 2.94  12 2.94   4 2.94   9 2.94   8 2.94   3 2.94
                             5 2.94
   7  0.000  0.667  0.217-  18 2.94   3 2.94  16 2.94   5 2.94   1 2.94  13 2.94   8 2.94   4 2.94
                             9 2.94
   8  0.333  0.667  0.217-   9 2.94  17 2.94   1 2.94   2 2.94  14 2.94  16 2.94   6 2.94   7 2.94
                             5 2.94
   9  0.667  0.667  0.217-   2 2.94   8 2.94  17 2.94   6 2.94  15 2.94   4 2.94   3 2.94  18 2.94
                             7 2.94
  10  0.111  0.111  0.316-  26 2.93  19 2.93  20 2.93  11 2.94  17 2.94   2 2.94   4 2.94   1 2.94
                            12 2.94  16 2.94  13 2.94  15 2.94
  11  0.444  0.111  0.316-  20 2.92  21 2.92  27 2.94  13 2.94   2 2.94  10 2.94  17 2.94   5 2.94
                             3 2.94  18 2.94  14 2.94  12 2.94
  12  0.778  0.111  0.316-  25 2.93  19 2.93  21 2.93  16 2.94  18 2.94   1 2.94  14 2.94  15 2.94
                             3 2.94   6 2.94  10 2.94  11 2.94
  13  0.111  0.444  0.316-  23 2.92  20 2.92  22 2.94   5 2.94  18 2.94  11 2.94   7 2.94   4 2.94
                            16 2.94  10 2.94  14 2.94  15 2.94
  14  0.444  0.444  0.316-  21 2.92  23 2.92  24 2.94  15 2.94   6 2.94  12 2.94   8 2.94  17 2.94
                             5 2.94  16 2.94  13 2.94  11 2.94
  15  0.778  0.444  0.316-  24 2.92  22 2.92  19 2.93  14 2.94   6 2.94  17 2.94  12 2.94   9 2.94
                             4 2.94  10 2.94  13 2.94  18 2.94
  16  0.111  0.778  0.316-  25 2.93  26 2.93  23 2.93  18 2.94  12 2.94   7 2.94   1 2.94   8 2.94
                            13 2.94  10 2.94  14 2.94  17 2.94
  17  0.444  0.778  0.316-  27 2.92  24 2.92  26 2.93   9 2.94  15 2.94   2 2.94  10 2.94  11 2.94
                             8 2.94  14 2.94  16 2.94  18 2.94
  18  0.778  0.778  0.316-  22 2.92  27 2.92  25 2.93  16 2.94   7 2.94  13 2.94  12 2.94   3 2.94
                            11 2.94   9 2.94  15 2.94  17 2.94
  19  0.889  0.222  0.414-  10 2.93  12 2.93  15 2.93  26 2.94  25 2.94  24 2.94  22 2.94  21 2.95
                            20 2.95  28 2.95  32 3.03  31 3.03
  20  0.223  0.223  0.414-  36 2.76  23 2.91  21 2.91  11 2.92  13 2.92  10 2.93  27 2.95  22 2.95
                            26 2.95  19 2.95  29 2.96  31 2.96
  21  0.554  0.223  0.414-  36 2.76  20 2.91  23 2.91  14 2.92  11 2.92  12 2.93  27 2.95  24 2.95
                            25 2.95  19 2.95  30 2.96  32 2.96
  22  0.887  0.556  0.414-  24 2.92  27 2.92  18 2.92  15 2.92  13 2.94  25 2.94  19 2.94  23 2.95
                            20 2.95  35 2.96  33 2.99  31 2.99
  23  0.223  0.554  0.414-  36 2.76  20 2.91  21 2.91  13 2.92  14 2.92  16 2.93  22 2.95  24 2.95
                            25 2.95  26 2.95  33 2.96  34 2.96
  24  0.556  0.556  0.414-  27 2.92  22 2.92  15 2.92  17 2.92  14 2.94  26 2.94  19 2.94  21 2.95
                            23 2.95  35 2.96  32 2.99  34 2.99
  25  0.889  0.889  0.414-  16 2.93  12 2.93  18 2.93  19 2.94  26 2.94  22 2.94  27 2.94  23 2.95
                            21 2.95  28 2.95  33 3.03  30 3.03
  26  0.222  0.889  0.414-  10 2.93  16 2.93  17 2.93  19 2.94  25 2.94  27 2.94  24 2.94  20 2.95
                            23 2.95  28 2.95  29 3.03  34 3.03
  27  0.556  0.887  0.414-  24 2.92  22 2.92  17 2.92  18 2.92  11 2.94  26 2.94  25 2.94  20 2.95
                            21 2.95  35 2.96  29 2.99  30 2.99
  28  0.000  0.000  0.514-  25 2.95  19 2.95  26 2.95  34 2.98  32 2.98  33 2.98  30 2.98  31 2.98
                            29 2.98
  29  0.334  0.009  0.515-  30 2.85  31 2.86  36 2.87  20 2.96  35 2.98  28 2.98  27 2.99  26 3.03
                            34 3.10
  30  0.657  0.009  0.515-  29 2.85  32 2.86  36 2.87  21 2.96  35 2.98  28 2.98  27 2.99  25 3.03
                            33 3.10
  31  0.009  0.334  0.515-  33 2.85  29 2.86  36 2.87  20 2.96  35 2.98  28 2.98  22 2.99  19 3.03
                            32 3.10
  32  0.657  0.334  0.515-  34 2.85  30 2.86  36 2.87  21 2.96  35 2.98  28 2.98  24 2.99  19 3.03
                            31 3.10
  33  0.009  0.657  0.515-  31 2.85  34 2.86  36 2.87  23 2.96  35 2.98  28 2.98  22 2.99  25 3.03
                            30 3.10
  34  0.334  0.657  0.515-  32 2.85  33 2.86  36 2.87  23 2.96  35 2.98  28 2.98  24 2.99  26 3.03
                            29 3.10
  35  0.667  0.667  0.514-  24 2.96  27 2.96  22 2.96  29 2.98  34 2.98  32 2.98  31 2.98  30 2.98
                            33 2.98
  36  0.333  0.333  0.504-  37 1.84  20 2.76  23 2.76  21 2.76  33 2.87  31 2.87  29 2.87  30 2.87
                            34 2.87  32 2.87
  37  0.333  0.333  0.580-  36 1.84

  LATTYP: Found a hexagonal cell.
 ALAT       =     8.8135128021
 C/A-ratio  =     2.7586513333

  Lattice vectors:

 A1 = (  -4.4067569092,  -7.6327256898,   0.0000000000)
 A2 = (   8.8135128021,   0.0000000000,   0.0000000000)
 A3 = (   0.0000000000,   0.0000000000,  24.3134088421)

Analysis of symmetry for initial positions (statically):
 Subroutine PRICEL returns:
 Original cell was already a primitive cell.

 Routine SETGRP: Setting up the symmetry group for a
 hexagonal supercell.

 Subroutine GETGRP returns: Found  6 space group operations
 (whereof  6 operations were pure point group operations)
 out of a pool of 24 trial point group operations.

The static configuration has the point symmetry C_3v.

Analysis of symmetry for dynamics (positions and initial velocities):
 Subroutine PRICEL returns:
 Original cell was already a primitive cell.

[...]

The dynamic configuration has the point symmetry C_3v.

Analysis of constrained symmetry for selective dynamics:
 Subroutine PRICEL returns:
 Original cell was already a primitive cell.

 Routine SETGRP: Setting up the symmetry group for a
 hexagonal supercell.

 Subroutine GETGRP returns: Found  6 space group operations
 (whereof  6 operations were pure point group operations)
[...]
     24      -5.7069      2.00000
     25      -5.6826      2.00000
     26      -5.6549      2.00000
     27      -5.6388      2.00000
     28      -5.5681      2.00000
     29      -5.5207      2.00000
     30      -5.4213      2.00000
     31      -5.4137      2.00000
     32      -5.3877      2.00000
     33      -5.3710      2.00000
     34      -5.3579      2.00000
     35      -5.3262      2.00000
     36      -5.2282      2.00000
     37      -5.2192      2.00000
     38      -5.1704      2.00000
     39      -5.1530      2.00000
     40      -5.1026      2.00000
     41      -5.0398      2.00000
     42      -5.0059      2.00000
     43      -4.9579      2.00000
     44      -4.9381      2.00000
     45      -4.9327      2.00000
     46      -4.9109      2.00000
     47      -4.8166      2.00000
     48      -4.7939      2.00000
     49      -4.7733      2.00000
     50      -4.7438      2.00000
     51      -4.7379      2.00000
     52      -4.7322      2.00000
     53      -4.7157      2.00000
     54      -4.6958      2.00000
     55      -4.6493      2.00000
     56      -4.6233      2.00000
     57      -4.6034      2.00000
     58      -4.6010      2.00000
     59      -4.5769      2.00000
     60      -4.5721      2.00000
[...]
    238       5.8924      0.00000
    239       5.9985      0.00000
    240       6.0147      0.00000
    241       6.1169      0.00000
    242       6.1625      0.00000
    243       6.2106      0.00000
    244       6.2461      0.00000
    245       6.4130      0.00000
    246       6.5921      0.00000
    247       6.6443      0.00000
    248       6.7363      0.00000
    249       6.8176      0.00000
    250       6.8795      0.00000
    251       6.9679      0.00000
    252       7.0539      0.00000

 soft charge-density along one line, spin component           1
         0         1         2         3         4         5         6         7         8         9
 total charge-density along one line

------------------------ aborting loop because EDIFF is reached ----------------------------------------

 total charge

# of ion       s       p       d       tot
    1        0.547   0.238   8.766   9.551
    2        0.542   0.241   8.764   9.547
    3        0.542   0.241   8.764   9.547
    4        0.542   0.241   8.764   9.547
    5        0.548   0.239   8.760   9.547
    6        0.542   0.241   8.764   9.547
    7        0.542   0.241   8.764   9.547
    8        0.542   0.241   8.764   9.547
    9        0.542   0.240   8.768   9.550
   10        0.520   0.308   8.772   9.599
   11        0.521   0.306   8.776   9.603
   12        0.520   0.308   8.772   9.599
   13        0.521   0.306   8.776   9.603
   14        0.521   0.306   8.776   9.603
   15        0.518   0.309   8.773   9.600
   16        0.520   0.308   8.772   9.599
   17        0.518   0.309   8.773   9.600
   18        0.518   0.309   8.773   9.600
   19        0.515   0.299   8.770   9.584
   20        0.553   0.324   8.752   9.629
   21        0.553   0.324   8.752   9.629
   22        0.508   0.307   8.777   9.592
   23        0.553   0.324   8.752   9.629
   24        0.508   0.307   8.777   9.592
   25        0.515   0.299   8.770   9.584
   26        0.515   0.299   8.770   9.584
   27        0.508   0.307   8.777   9.592
   28        0.542   0.224   8.763   9.529
   29        0.563   0.237   8.751   9.550
   30        0.563   0.237   8.751   9.550
   31        0.563   0.237   8.751   9.550
   32        0.563   0.237   8.751   9.550
   33        0.563   0.237   8.751   9.550
   34        0.563   0.237   8.751   9.550
   35        0.546   0.223   8.761   9.530
   36        0.480   0.629   2.695   3.804
   37        1.012   1.134   0.000   2.146
tot         20.245  11.350 309.463 341.058

  FORCE on cell =-STRESS in cart. coord.  units (eV):
  Direction    XX          YY          ZZ          XY          YZ          ZX
  Alpha Z   916.62386   916.62386   916.62386
  Ewald  147189.16976147189.17014************    -0.00033    -0.00009    -0.00015
  Hartree155416.08717155416.08716************     0.00000    -0.00002    -0.00004
  E(xc)   -1755.75269 -1755.75267 -1765.43933    -0.00001    -0.00000    -0.00000
  Local  ************************314989.87464     0.00178     0.00004     0.00007
  n-local   -71.11508   -28.40712   -33.76035    21.39350    -1.38944     1.47081
  augment  2369.96206  2369.96357  2389.41959    -0.00131     0.00002     0.00004
  Kinetic  5417.37044  5424.31512  5482.33311     4.93840    -0.05234     0.40442
  Fock        0.00000     0.00000     0.00000     0.00000     0.00000     0.00000
  Total     -20.98488   -20.98488     1.70643    -0.00000    -0.00000     0.00000
  in kB     -20.55618   -20.55618     1.67157    -0.00000    -0.00000     0.00000

 VOLUME and BASIS-vectors are now :
  energy-cutoff  :      500.00
  volume of cell :     1635.59
      direct lattice vectors                 reciprocal lattice vectors
     8.813512802  0.000000000  0.000000000     0.113462137 -0.065507406  0.000000000
     4.406756909  7.632725690  0.000000000     0.000000000  0.131014796  0.000000000
     0.000000000  0.000000000 24.313408842     0.000000000  0.000000000  0.041129568

  length of vectors
     8.813512802  8.813512802 24.313408842     0.131014796  0.131014796  0.041129568

 FORCES acting on ions
    electron-ion (+dipol)            ewald-force                    non-local-force                 convergence-correction
   -.196E-04 -.162E-04 0.262E+04   0.518E-04 0.432E-04 -.262E+04   0.501E-17 0.576E-19 -.582E+00   -.181E-03 -.118E-03 -.465E+00
   -.218E-01 -.541E+00 0.262E+04   -.103E+00 0.300E+00 -.262E+04   0.370E-01 0.120E+00 -.395E+00   0.771E-01 0.950E-01 -.511E+00
   0.217E-01 -.541E+00 0.262E+04   0.103E+00 0.300E+00 -.262E+04   -.370E-01 0.120E+00 -.395E+00   -.768E-01 0.970E-01 -.511E+00
   -.480E+00 0.252E+00 0.262E+04   0.208E+00 -.239E+00 -.262E+04   0.123E+00 -.281E-01 -.395E+00   0.121E+00 0.192E-01 -.511E+00
   0.787E-05 -.238E-04 0.262E+04   0.951E-04 0.172E-05 -.262E+04   0.229E-17 -.480E-18 -.770E-01   0.424E-02 0.258E-02 -.466E+00
   0.479E+00 0.252E+00 0.262E+04   -.208E+00 -.239E+00 -.262E+04   -.123E+00 -.281E-01 -.395E+00   -.122E+00 0.202E-01 -.511E+00
   -.458E+00 0.289E+00 0.262E+04   0.311E+00 -.609E-01 -.262E+04   0.857E-01 -.922E-01 -.395E+00   0.456E-01 -.115E+00 -.511E+00
   0.458E+00 0.289E+00 0.262E+04   -.311E+00 -.609E-01 -.262E+04   -.857E-01 -.922E-01 -.395E+00   -.437E-01 -.116E+00 -.511E+00
   0.196E-04 -.417E-04 0.262E+04   0.166E-03 -.200E-04 -.262E+04   -.256E-17 -.948E-18 -.463E+00   -.461E-02 -.238E-02 -.499E+00
   -.526E+00 -.304E+00 0.849E+03   0.565E+00 0.326E+00 -.848E+03   -.167E+00 -.962E-01 -.517E+00   0.897E-01 0.516E-01 -.437E+00
   0.142E-04 -.144E+01 0.848E+03   0.148E-03 0.135E+01 -.847E+03   -.601E-09 -.902E-02 -.366E+00   0.363E-02 0.826E-01 -.473E+00
   0.526E+00 -.304E+00 0.849E+03   -.565E+00 0.326E+00 -.848E+03   0.167E+00 -.962E-01 -.517E+00   -.908E-01 0.527E-01 -.438E+00
   -.124E+01 0.718E+00 0.848E+03   0.116E+01 -.673E+00 -.847E+03   -.781E-02 0.451E-02 -.366E+00   0.736E-01 -.379E-01 -.473E+00
   0.124E+01 0.718E+00 0.848E+03   -.117E+01 -.673E+00 -.847E+03   0.781E-02 0.451E-02 -.366E+00   -.663E-01 -.384E-01 -.474E+00
   0.325E-04 0.312E+01 0.853E+03   0.235E-03 -.311E+01 -.852E+03   0.646E-09 0.970E-02 -.614E+00   -.207E-02 -.413E-01 -.494E+00
   -.206E-04 0.607E+00 0.849E+03   0.162E-03 -.653E+00 -.848E+03   0.128E-07 0.192E+00 -.517E+00   0.355E-04 -.105E+00 -.438E+00
   0.270E+01 -.156E+01 0.853E+03   -.269E+01 0.155E+01 -.852E+03   0.840E-02 -.485E-02 -.614E+00   -.365E-01 0.193E-01 -.494E+00
   -.270E+01 -.156E+01 0.853E+03   0.269E+01 0.155E+01 -.852E+03   -.840E-02 -.485E-02 -.614E+00   0.366E-01 0.209E-01 -.494E+00
   -.422E-04 -.422E+01 -.932E+03   0.561E-04 0.425E+01 0.931E+03   0.471E-08 0.707E-01 0.818E+00   0.351E-02 -.433E-01 0.101E+00
   -.185E+02 -.107E+02 -.949E+03   0.190E+02 0.110E+02 0.950E+03   -.810E+00 -.468E+00 -.905E+00   0.615E-01 0.354E-01 0.111E+00
   0.185E+02 -.107E+02 -.949E+03   -.190E+02 0.110E+02 0.950E+03   0.810E+00 -.468E+00 -.905E+00   -.622E-01 0.364E-01 0.110E+00
   -.147E+02 0.851E+01 -.926E+03   0.144E+02 -.834E+01 0.925E+03   0.255E+00 -.147E+00 0.607E+00   0.887E-01 -.526E-01 0.678E-01
   -.788E-05 0.213E+02 -.949E+03   0.137E-03 -.220E+02 0.950E+03   0.623E-07 0.935E+00 -.905E+00   0.150E-03 -.721E-01 0.110E+00
   0.147E+02 0.851E+01 -.926E+03   -.144E+02 -.834E+01 0.925E+03   -.255E+00 -.147E+00 0.607E+00   -.890E-01 -.513E-01 0.678E-01
   0.365E+01 0.211E+01 -.932E+03   -.368E+01 -.213E+01 0.931E+03   -.612E-01 -.354E-01 0.818E+00   0.426E-01 0.245E-01 0.101E+00
   -.365E+01 0.211E+01 -.932E+03   0.368E+01 -.213E+01 0.931E+03   0.612E-01 -.354E-01 0.818E+00   -.354E-01 0.247E-01 0.101E+00
   0.765E-05 -.170E+02 -.926E+03   0.199E-03 0.167E+02 0.925E+03   0.196E-07 0.294E+00 0.607E+00   -.176E-02 0.103E+00 0.679E-01
   -.105E-04 -.110E-04 -.260E+04   0.275E-04 0.309E-04 0.260E+04   0.213E-17 0.149E-17 0.538E+00   0.298E-03 0.156E-03 0.337E+00
   -.301E+01 -.112E+02 -.261E+04   0.369E+01 0.122E+02 0.260E+04   -.797E+00 -.131E+01 0.649E+00   0.580E-01 0.140E+00 0.377E+00
   0.301E+01 -.112E+02 -.261E+04   -.369E+01 0.122E+02 0.260E+04   0.797E+00 -.131E+01 0.649E+00   -.582E-01 0.142E+00 0.378E+00
   -.112E+02 0.297E+01 -.261E+04   0.125E+02 -.293E+01 0.260E+04   -.154E+01 -.334E-01 0.649E+00   0.151E+00 -.200E-01 0.377E+00
   0.112E+02 0.297E+01 -.261E+04   -.125E+02 -.293E+01 0.260E+04   0.154E+01 -.334E-01 0.649E+00   -.151E+00 -.189E-01 0.378E+00
   -.816E+01 0.819E+01 -.261E+04   0.876E+01 -.932E+01 0.260E+04   -.739E+00 0.135E+01 0.649E+00   0.936E-01 -.121E+00 0.378E+00
   0.816E+01 0.819E+01 -.261E+04   -.876E+01 -.932E+01 0.260E+04   0.739E+00 0.135E+01 0.649E+00   -.918E-01 -.121E+00 0.378E+00
   0.327E-04 -.326E-04 -.261E+04   0.144E-03 -.462E-04 0.261E+04   0.104E-16 -.508E-17 0.567E+00   -.454E-02 -.233E-02 0.405E+00
   -.169E-04 0.175E-05 -.856E+03   0.413E-04 0.374E-05 0.855E+03   -.370E-18 0.101E-17 0.566E+00   0.339E-03 0.207E-03 0.148E+00
   0.426E-04 -.264E-04 -.110E+04   0.146E-04 0.961E-06 0.111E+04   0.559E-17 0.230E-17 -.375E+01   0.555E-03 0.338E-03 -.534E-01
   -.763E-03 -.798E-03 0.973E+01   -.533E-14 0.214E-12 -.227E-11   -.540E-15 -.176E-17 -.461E+01   0.139E-01 0.858E-02 -.477E+01

 POSITION                                       TOTAL-FORCE (eV/Angst)
      0.00000      0.00000      5.28038         0.000000     -0.000000     -0.101178
      2.93784      0.00000      5.28038        -0.009795     -0.025239     -0.029584
      5.87568      0.00000      5.28038         0.009795     -0.025239     -0.029584
      1.46892      2.54424      5.28038        -0.026755      0.004136     -0.029584
      4.40676      2.54424      5.28038        -0.000000     -0.000000     -0.058546
      7.34459      2.54424      5.28038         0.026755      0.004136     -0.029584
      2.93784      5.08848      5.28038        -0.016960      0.021102     -0.029584
      5.87568      5.08848      5.28038         0.016960      0.021102     -0.029584
      8.81351      5.08848      5.28038         0.000000     -0.000000     -0.034653
      1.46892      0.84808      7.67911        -0.036858     -0.021280      0.057085
      4.40676      0.84808      7.67911        -0.000000     -0.019405     -0.012363
      7.34459      0.84808      7.67911         0.036858     -0.021280      0.057085
      2.93784      3.39232      7.67911        -0.016805      0.009702     -0.012363
      5.87568      3.39232      7.67911         0.016805      0.009702     -0.012363
      8.81351      3.39232      7.67911        -0.000000     -0.025088      0.064177
      4.40676      5.93656      7.67911         0.000000      0.042560      0.057085
      7.34459      5.93656      7.67911        -0.021727      0.012544      0.064177
     10.28243      5.93656      7.67911         0.021727      0.012544      0.064177
      8.81351      1.69614     10.07331         0.000000      0.062131      0.160015
      2.94950      1.70289     10.06400        -0.199971     -0.115453     -0.175791
      5.86402      1.70289     10.06400         0.199971     -0.115453     -0.175791
     10.27143      4.24676     10.06599         0.048672     -0.028101      0.085054
      4.40676      4.22694     10.06400         0.000000      0.230907     -0.175791
      7.35560      4.24676     10.06599        -0.048672     -0.028101      0.085054
     11.75137      6.78466     10.07331        -0.053807     -0.031066      0.160015
      5.87566      6.78466     10.07331         0.053807     -0.031066      0.160015
      8.81351      6.77194     10.06599         0.000000      0.056201      0.085054
      0.00000      0.00000     12.49013         0.000000     -0.000000     -0.111768
      2.98093      0.06833     12.52966        -0.062076     -0.085948     -0.011321
      5.83259      0.06833     12.52966         0.062076     -0.085948     -0.011321
      1.54964      2.54739     12.52966        -0.105471     -0.010785     -0.011321
      7.26387      2.54739     12.52966         0.105471     -0.010785     -0.011321
      2.97547      5.01700     12.52966        -0.043395      0.096733     -0.011321
      5.83804      5.01700     12.52966         0.043395      0.096733     -0.011321
      8.81351      5.08848     12.50181         0.000000     -0.000000     -0.058809
      4.40676      2.54424     12.25739         0.000000     -0.000000      0.092119
      4.40676      2.54424     14.09997         0.000000     -0.000000     -0.016265
    total drift:                                0.013094      0.007779      0.352184

  FREE ENERGIE OF THE ION-ELECTRON SYSTEM (eV)
  free  energy   TOTEN  =      -119.84814118 eV

  energy  without entropy=     -119.84814118  energy(sigma->0) =     -119.84814118

 stress matrix after NEB project (eV)
    -20.98488     -0.00000      0.00000
     -0.00000    -20.98488      0.00000
      0.00000     -0.00000      1.70643
  FORCES: max atom, RMS     0.016265    0.002674
  FORCE total and by dimension    0.016265    0.016265
  Stress total and by dimension   29.726118   20.984878
|           W    W    AA    RRRRR   N    N  II  N    N   GGGG   !!!           |
|           W    W   A  A   R    R  NN   N  II  NN   N  G    G  !!!           |
|           W    W  A    A  R    R  N N  N  II  N N  N  G       !!!           |
|           W WW W  AAAAAA  RRRRR   N  N N  II  N  N N  G  GGG   !            |
|           WW  WW  A    A  R   R   N   NN  II  N   NN  G    G                |
|           W    W  A    A  R    R  N    N  II  N    N   GGGG   !!!           |
|     Tetrahedron method does not include variations of the Fermi             |
|     occupations, so forces and stress will be inaccurate. We suggest        |
|     using a different smearing scheme ISMEAR = 1 or 2 for metals in         |
|     relaxations.                                                            |

 total charge

# of ion       s       p       d       tot
    1        0.547   0.238   8.766   9.551
    2        0.542   0.241   8.764   9.547
    3        0.542   0.241   8.764   9.547
    4        0.542   0.241   8.764   9.547
    5        0.548   0.239   8.760   9.547
    6        0.542   0.241   8.764   9.547
    7        0.542   0.241   8.764   9.547
    8        0.542   0.241   8.764   9.547
    9        0.542   0.240   8.768   9.550
   10        0.520   0.308   8.772   9.599
   11        0.521   0.306   8.776   9.603
   12        0.520   0.308   8.772   9.599
   13        0.521   0.306   8.776   9.603
   14        0.521   0.306   8.776   9.603
   15        0.518   0.309   8.773   9.600
   16        0.520   0.308   8.772   9.599
   17        0.518   0.309   8.773   9.600
   18        0.518   0.309   8.773   9.600
   19        0.515   0.299   8.770   9.584
   20        0.553   0.324   8.752   9.629
   21        0.553   0.324   8.752   9.629
   22        0.508   0.307   8.777   9.592
   23        0.553   0.324   8.752   9.629
   24        0.508   0.307   8.777   9.592
   25        0.515   0.299   8.770   9.584
   26        0.515   0.299   8.770   9.584
   27        0.508   0.307   8.777   9.592
   28        0.542   0.224   8.763   9.529
   29        0.563   0.237   8.751   9.550
   30        0.563   0.237   8.751   9.550
   31        0.563   0.237   8.751   9.550
   32        0.563   0.237   8.751   9.550
   33        0.563   0.237   8.751   9.550
   34        0.563   0.237   8.751   9.550
   35        0.546   0.223   8.761   9.530
   36        0.480   0.629   2.695   3.804
   37        1.012   1.134   0.000   2.146
tot         20.245  11.350 309.463 341.058

 BZINTS: Fermi energy:    0.043322;  393.000000 electrons
         Band energy:-0.144675E+04;  BLOECHL correction:   -0.051602