 vasp.6.2.0 18Jan21 (build Jun 12 2021 23:27:24) complex

 executed on             LinuxIFC date 2022.05.30  15:53:37

 INCAR:
   ISMEAR = -5
   SIGMA = 0.1
   ISPIN = 1
   EDIFF = 1.d-5
   EDIFFG = -0.01
   NSW = 0
   NELM = 150
   ENCUT = 500
   ISIF = 2
   IBRION = 2
   LREAL = Auto
   ALGO = Fast
   ICHARG = 11
   LORBIT = 10
   LCHARG = .F.
   LWAVE = .F.

 POTCAR:    PAW_PBE Au 04Oct2007
 POTCAR:    PAW_PBE Mn 06Sep2000
 POTCAR:    PAW_PBE O 08Apr2002
|           W    W    AA    RRRRR   N    N  II  N    N   GGGG   !!!           |
|           W    W   A  A   R    R  NN   N  II  NN   N  G    G  !!!           |
|           W    W  A    A  R    R  N N  N  II  N N  N  G       !!!           |
|           W WW W  AAAAAA  RRRRR   N  N N  II  N  N N  G  GGG   !            |
|           WW  WW  A    A  R   R   N   NN  II  N   NN  G    G                |
|           W    W  A    A  R    R  N    N  II  N    N   GGGG   !!!           |
|     For optimal performance we recommend to set                             |
|       NCORE = 2 up to number-of-cores-per-socket                            |
|     This setting can greatly improve the performance of VASP for DFT.       |
|     The default, NCORE=1 might be grossly inefficient on modern             |
|     multi-core architectures or massively parallel machines. Do your        |
|     Unfortunately you need to use the default for GW and RPA                |
|     calculations (for HF NCORE is supported but not extensively tested      |
|     yet).                                                                   |

 POTCAR:    PAW_PBE Au 04Oct2007
   VRHFIN =Au: s1d10

   TITEL  = PAW_PBE Au 04Oct2007
   POMASS =  196.966; ZVAL   =   11.000    mass and valenz
   ENMAX  =  229.943; ENMIN  =  172.457 eV

 POTCAR:    PAW_PBE Mn 06Sep2000
   VRHFIN =Mn: d6 s1

   TITEL  = PAW_PBE Mn 06Sep2000
   POMASS =   54.938; ZVAL   =    7.000    mass and valenz
   ENMAX  =  269.864; ENMIN  =  202.398 eV

 POTCAR:    PAW_PBE O 08Apr2002
   VRHFIN =O: s2p4

   TITEL  = PAW_PBE O 08Apr2002
   POMASS =   16.000; ZVAL   =    6.000    mass and valenz
   ENMAX  =  400.000; ENMIN  =  300.000 eV

 Optimization of the real space projectors (new method)

 maximal supplied QI-value         = 15.12
 optimisation between [QCUT,QGAM] = [ 11.34, 22.83] = [ 36.00,145.93] Ry
 Optimized for a Real-space Cutoff    1.39 Angstroem

   l    n(q)    QCUT    max X(q) W(low)/X(q) W(high)/X(q)  e(spline)
   2      9    11.338    60.898    0.39E-03    0.42E-03    0.21E-06
   2      9    11.338    58.894    0.40E-03    0.42E-03    0.22E-06
   0      9    11.338   109.617    0.13E-03    0.20E-04    0.13E-06
   0      9    11.338    75.026    0.13E-03    0.20E-04    0.13E-06
   1      9    11.338    16.344    0.33E-04    0.24E-03    0.18E-06
   1      9    11.338    10.160    0.26E-04    0.19E-03    0.15E-06
 Optimization of the real space projectors (new method)

[...]

   l    n(q)    QCUT    max X(q) W(low)/X(q) W(high)/X(q)  e(spline)
   2      8    11.376   110.144    0.49E-03    0.27E-04    0.26E-06
   2      8    11.376   103.200    0.49E-03    0.28E-04    0.27E-06
   0      9    11.376    68.437    0.57E-04    0.92E-04    0.15E-06
   0      9    11.376    33.971    0.51E-04    0.83E-04    0.14E-06
   1      9    11.376    17.065    0.34E-03    0.68E-04    0.14E-06
   1      9    11.376    12.540    0.27E-03    0.59E-04    0.11E-06
 Optimization of the real space projectors (new method)

 maximal supplied QI-value         = 24.76
 optimisation between [QCUT,QGAM] = [ 11.39, 22.77] = [ 36.31,145.25] Ry
 Optimized for a Real-space Cutoff    1.00 Angstroem

   l    n(q)    QCUT    max X(q) W(low)/X(q) W(high)/X(q)  e(spline)
   0      7    11.387    20.381    0.39E-03    0.13E-02    0.15E-06
   0      7    11.387    15.268    0.42E-03    0.14E-02    0.17E-06
   1      6    11.387     5.964    0.41E-03    0.11E-02    0.17E-06
   1      6    11.387     5.382    0.39E-03    0.87E-03    0.15E-06
  PAW_PBE Au 04Oct2007                  :
  PAW_PBE Mn 06Sep2000                  :
  PAW_PBE O 08Apr2002                   :

 POSCAR: Au-Mn-O2
  positions in direct lattice
  velocities in cartesian coordinates
 exchange correlation table for  LEXCH =        8
   RHO(1)=    0.500       N(1)  =     2000
   RHO(2)=  100.500       N(2)  =     4000

 VTST: version 3.2, (02/03/18)

 CHAIN: initializing optimizer

 OPT: Using VASP Conjugate-Gradient optimizer
 CHAIN: Read ICHAIN            0

 POSCAR: Au-Mn-O2
  positions in direct lattice
  velocities in cartesian coordinates

 ion  position               nearest neighbor table
   1  0.000  0.000  0.217-  16 2.94  12 2.94   6 2.94   8 2.94   7 2.94   3 2.94  10 2.94   4 2.94
                             2 2.94
   2  0.333  0.000  0.217-   9 2.94  11 2.94  17 2.94  10 2.94   8 2.94   4 2.94   5 2.94   1 2.94
                             3 2.94
   3  0.667  0.000  0.217-   7 2.94  18 2.94  12 2.94   1 2.94  11 2.94   5 2.94   6 2.94   9 2.94
                             2 2.94
   4  0.000  0.333  0.217-  10 2.94   6 2.94   5 2.94  13 2.94   2 2.94  15 2.94   9 2.94   1 2.94
                             7 2.94
   5  0.333  0.333  0.217-  13 2.94   7 2.94  11 2.94   4 2.94   2 2.94  14 2.94   3 2.94   8 2.94
                             6 2.94
   6  0.667  0.333  0.217-  15 2.94  14 2.94   1 2.94  12 2.94   4 2.94   9 2.94   8 2.94   3 2.94
                             5 2.94
   7  0.000  0.667  0.217-  18 2.94   3 2.94  16 2.94   5 2.94   1 2.94  13 2.94   8 2.94   4 2.94
                             9 2.94
   8  0.333  0.667  0.217-   9 2.94  17 2.94   1 2.94   2 2.94  14 2.94  16 2.94   6 2.94   7 2.94
                             5 2.94
   9  0.667  0.667  0.217-   2 2.94   8 2.94  17 2.94   6 2.94  15 2.94   4 2.94   3 2.94  18 2.94
                             7 2.94
  10  0.111  0.111  0.316-  20 2.93  26 2.94  19 2.94  11 2.94  17 2.94   2 2.94   4 2.94   1 2.94
                            12 2.94  16 2.94  13 2.94  15 2.94
  11  0.444  0.111  0.316-  20 2.91  21 2.91  27 2.93  13 2.94   2 2.94  10 2.94  17 2.94   5 2.94
                             3 2.94  18 2.94  14 2.94  12 2.94
  12  0.778  0.111  0.316-  21 2.93  25 2.94  19 2.94  16 2.94  18 2.94   1 2.94  14 2.94  15 2.94
                             3 2.94   6 2.94  10 2.94  11 2.94
  13  0.111  0.444  0.316-  23 2.91  20 2.91  22 2.93   5 2.94  18 2.94  11 2.94   7 2.94   4 2.94
                            16 2.94  10 2.94  14 2.94  15 2.94
  14  0.444  0.444  0.316-  21 2.91  23 2.91  24 2.93  15 2.94   6 2.94  12 2.94   8 2.94  17 2.94
                             5 2.94  16 2.94  13 2.94  11 2.94
  15  0.778  0.444  0.316-  24 2.92  22 2.92  19 2.94  14 2.94   6 2.94  17 2.94  12 2.94   9 2.94
                             4 2.94  10 2.94  13 2.94  18 2.94
  16  0.111  0.778  0.316-  23 2.93  25 2.94  26 2.94  18 2.94  12 2.94   7 2.94   1 2.94   8 2.94
                            13 2.94  10 2.94  14 2.94  17 2.94
  17  0.444  0.778  0.316-  27 2.92  24 2.92  26 2.94   9 2.94  15 2.94   2 2.94  10 2.94  11 2.94
                             8 2.94  14 2.94  16 2.94  18 2.94
  18  0.778  0.778  0.316-  22 2.92  27 2.92  25 2.94  16 2.94   7 2.94  13 2.94  12 2.94   3 2.94
                            11 2.94   9 2.94  15 2.94  17 2.94
  19  0.889  0.222  0.414-  10 2.94  12 2.94  15 2.94  26 2.94  25 2.94  24 2.94  22 2.94  28 2.95
                            21 2.95  20 2.95  32 2.99  31 2.99
  20  0.223  0.223  0.413-  36 2.70  23 2.91  21 2.91  11 2.91  13 2.91  29 2.92  31 2.92  10 2.93
                            26 2.95  19 2.95  27 2.95  22 2.95
  21  0.553  0.223  0.413-  36 2.70  20 2.91  23 2.91  14 2.91  11 2.91  30 2.92  32 2.92  12 2.93
                            25 2.95  19 2.95  27 2.95  24 2.95
  22  0.886  0.557  0.414-  24 2.91  27 2.91  18 2.92  15 2.92  13 2.93  25 2.94  19 2.94  23 2.95
                            20 2.95  33 2.96  31 2.96  35 2.96
  23  0.223  0.553  0.413-  36 2.70  20 2.91  21 2.91  13 2.91  14 2.91  33 2.92  34 2.92  16 2.93
                            25 2.95  26 2.95  22 2.95  24 2.95
  24  0.557  0.557  0.414-  27 2.91  22 2.91  15 2.92  17 2.92  14 2.93  26 2.94  19 2.94  21 2.95
                            23 2.95  32 2.96  34 2.96  35 2.96
  25  0.889  0.889  0.414-  16 2.94  12 2.94  18 2.94  19 2.94  26 2.94  22 2.94  27 2.94  28 2.95
                            23 2.95  21 2.95  33 2.99  30 2.99
  26  0.222  0.889  0.414-  10 2.94  16 2.94  17 2.94  19 2.94  25 2.94  27 2.94  24 2.94  28 2.95
                            20 2.95  23 2.95  29 2.99  34 2.99
  27  0.557  0.886  0.414-  24 2.91  22 2.91  17 2.92  18 2.92  11 2.93  26 2.94  25 2.94  20 2.95
                            21 2.95  29 2.96  30 2.96  35 2.96
  28  0.000  0.000  0.514-  25 2.95  19 2.95  26 2.95  34 2.99  32 2.99  33 2.99  30 2.99  31 2.99
                            29 2.99
  29  0.334  0.010  0.513-  30 2.84  31 2.85  36 2.86  20 2.92  27 2.96  35 2.98  26 2.99  28 2.99
                            34 3.12
  30  0.656  0.010  0.513-  29 2.84  32 2.85  36 2.86  21 2.92  27 2.96  35 2.98  25 2.99  28 2.99
                            33 3.12
  31  0.010  0.334  0.513-  37 2.60  33 2.84  29 2.85  36 2.86  20 2.92  22 2.96  35 2.98  19 2.99
                            28 2.99  32 3.12
  32  0.656  0.334  0.513-  38 2.60  34 2.84  30 2.85  36 2.86  21 2.92  24 2.96  35 2.98  19 2.99
                            28 2.99  31 3.12
  33  0.010  0.656  0.513-  31 2.84  34 2.85  36 2.86  23 2.92  22 2.96  35 2.98  25 2.99  28 2.99
                            30 3.12
  34  0.334  0.656  0.513-  32 2.84  33 2.85  36 2.86  23 2.92  24 2.96  35 2.98  26 2.99  28 2.99
                            29 3.12
  35  0.667  0.667  0.514-  24 2.96  27 2.96  22 2.96  29 2.98  34 2.98  32 2.98  31 2.98  30 2.98
                            33 2.98
  36  0.333  0.333  0.500-  38 1.89  37 1.89  20 2.70  23 2.70  21 2.70  33 2.86  31 2.86  29 2.86
                            30 2.86  34 2.86  32 2.86
  37  0.255  0.333  0.573-  38 1.39  36 1.89  31 2.60
  38  0.412  0.333  0.573-  37 1.39  36 1.89  32 2.60

  LATTYP: Found a hexagonal cell.
 ALAT       =     8.8135128021
 C/A-ratio  =     2.7586513333

  Lattice vectors:

 A1 = (  -4.4067569092,  -7.6327256898,   0.0000000000)
 A2 = (   8.8135128021,   0.0000000000,   0.0000000000)
 A3 = (   0.0000000000,   0.0000000000,  24.3134088421)

Analysis of symmetry for initial positions (statically):
 Subroutine PRICEL returns:
 Original cell was already a primitive cell.

 Routine SETGRP: Setting up the symmetry group for a
 hexagonal supercell.

 Subroutine GETGRP returns: Found  2 space group operations
 (whereof  2 operations were pure point group operations)
 out of a pool of 24 trial point group operations.

The static configuration has the point symmetry C_1h.

Analysis of symmetry for dynamics (positions and initial velocities):
 Subroutine PRICEL returns:
 Original cell was already a primitive cell.

[...]

The dynamic configuration has the point symmetry C_1h.

Analysis of constrained symmetry for selective dynamics:
 Subroutine PRICEL returns:
 Original cell was already a primitive cell.

 Routine SETGRP: Setting up the symmetry group for a
[...]
     33      -5.3847      2.00000
     34      -5.2928      2.00000
     35      -5.2820      2.00000
     36      -5.2615      2.00000
     37      -5.2562      2.00000
     38      -5.2370      2.00000
     39      -5.1039      2.00000
     40      -5.0841      2.00000
     41      -5.0659      2.00000
     42      -5.0491      2.00000
     43      -5.0299      2.00000
     44      -4.9825      2.00000
     45      -4.9155      2.00000
     46      -4.8822      2.00000
     47      -4.8170      2.00000
     48      -4.8076      2.00000
     49      -4.7940      2.00000
     50      -4.7845      2.00000
     51      -4.6903      2.00000
     52      -4.6717      2.00000
     53      -4.6409      2.00000
     54      -4.6218      2.00000
     55      -4.6163      2.00000
     56      -4.6117      2.00000
     57      -4.5835      2.00000
     58      -4.5608      2.00000
     59      -4.5166      2.00000
     60      -4.4862      2.00000
[...]
    238       5.6082      0.00000
    239       5.6835      0.00000
    240       5.9280      0.00000
    241       5.9794      0.00000
    242       5.9893      0.00000
    243       6.0036      0.00000
    244       6.0643      0.00000
    245       6.2501      0.00000
    246       6.3003      0.00000
    247       6.3516      0.00000
    248       6.3632      0.00000
    249       6.4261      0.00000
    250       6.6761      0.00000
    251       6.7553      0.00000
    252       6.8326      0.00000

 soft charge-density along one line, spin component           1
         0         1         2         3         4         5         6         7         8         9
 total charge-density along one line

------------------------ aborting loop because EDIFF is reached ----------------------------------------

 total charge

# of ion       s       p       d       tot
    1        0.546   0.238   8.767   9.552
    2        0.543   0.241   8.764   9.548
    3        0.543   0.241   8.764   9.548
    4        0.544   0.241   8.764   9.549
    5        0.544   0.241   8.761   9.546
    6        0.544   0.241   8.764   9.549
    7        0.544   0.241   8.765   9.549
    8        0.544   0.241   8.765   9.549
    9        0.541   0.240   8.766   9.548
   10        0.522   0.307   8.770   9.599
   11        0.520   0.308   8.779   9.607
   12        0.522   0.307   8.770   9.599
   13        0.519   0.309   8.776   9.605
   14        0.519   0.309   8.776   9.605
   15        0.516   0.309   8.775   9.600
   16        0.522   0.309   8.766   9.597
   17        0.514   0.310   8.775   9.599
   18        0.514   0.310   8.775   9.599
   19        0.512   0.299   8.777   9.588
   20        0.550   0.332   8.751   9.633
   21        0.550   0.332   8.751   9.633
   22        0.510   0.311   8.772   9.594
   23        0.549   0.340   8.745   9.633
   24        0.510   0.311   8.772   9.594
   25        0.515   0.300   8.774   9.589
   26        0.515   0.300   8.774   9.589
   27        0.511   0.309   8.777   9.597
   28        0.540   0.221   8.769   9.530
   29        0.551   0.234   8.766   9.551
   30        0.551   0.234   8.766   9.551
   31        0.540   0.238   8.775   9.553
   32        0.540   0.238   8.775   9.553
   33        0.549   0.234   8.769   9.552
   34        0.549   0.234   8.769   9.552
   35        0.536   0.221   8.768   9.526
   36        0.284   0.335   5.102   5.721
   37        1.613   3.252   0.000   4.865
   38        1.613   3.252   0.000   4.865
tot         22.148  16.471 311.997 350.616

  FORCE on cell =-STRESS in cart. coord.  units (eV):
  Direction    XX          YY          ZZ          XY          YZ          ZX
  Alpha Z   946.36620   946.36620   946.36620
  Ewald  152196.94851151789.47368************    -0.00030     0.40972    -0.00009
  Hartree160664.56440160465.08729************     0.00001     0.39030    -0.00002
  E(xc)   -1818.58490 -1819.59647 -1826.22262    -0.00000    -0.06540     0.00000
  Local  ************************324815.86317     0.00262    -1.25206    -0.00003
  n-local  -121.41538  -126.19644  -101.54856     4.50028     0.23879     0.14162
  augment  2405.56587  2410.45736  2422.34957    -0.00134     0.19996     0.00003
  Kinetic  5654.22226  5698.95509  5726.36941     1.14547     0.33940     0.11672
  Fock        0.00000     0.00000     0.00000     0.00000     0.00000     0.00000
  Total     -15.95873   -18.17454     1.52871    -0.00000     0.26071     0.00000
  in kB     -15.63271   -17.80326     1.49748    -0.00000     0.25538     0.00000

 VOLUME and BASIS-vectors are now :
  energy-cutoff  :      500.00
  volume of cell :     1635.59
      direct lattice vectors                 reciprocal lattice vectors
     8.813512802  0.000000000  0.000000000     0.113462137 -0.065507406  0.000000000
     4.406756909  7.632725690  0.000000000     0.000000000  0.131014796  0.000000000
     0.000000000  0.000000000 24.313408842     0.000000000  0.000000000  0.041129568

  length of vectors
     8.813512802  8.813512802 24.313408842     0.131014796  0.131014796  0.041129568

 FORCES acting on ions
    electron-ion (+dipol)            ewald-force                    non-local-force                 convergence-correction
   -.199E-04 0.307E-01 0.268E+04   0.519E-04 -.303E-01 -.268E+04   0.118E-08 0.177E-01 -.800E+00   -.296E-03 -.216E-01 -.313E+00
   0.650E+00 0.424E+00 0.268E+04   -.709E+00 -.490E+00 -.268E+04   0.192E-01 0.599E-01 -.278E+00   0.405E-01 0.169E-01 -.340E+00
   -.650E+00 0.424E+00 0.268E+04   0.709E+00 -.490E+00 -.268E+04   -.192E-01 0.599E-01 -.278E+00   -.402E-01 0.188E-01 -.339E+00
   0.610E+00 0.354E+00 0.268E+04   -.754E+00 -.383E+00 -.268E+04   0.960E-01 -.245E-01 -.294E+00   0.454E-01 0.440E-01 -.326E+00
   0.823E-05 -.640E-01 0.268E+04   0.951E-04 0.125E-02 -.268E+04   0.279E-08 0.420E-01 -.234E+00   0.432E-02 0.270E-01 -.293E+00
   -.610E+00 0.354E+00 0.268E+04   0.754E+00 -.383E+00 -.268E+04   -.960E-01 -.245E-01 -.294E+00   -.469E-01 0.449E-01 -.325E+00
   0.412E-01 -.774E+00 0.268E+04   -.432E-01 0.874E+00 -.268E+04   0.178E-01 -.508E-01 -.303E+00   -.497E-03 -.463E-01 -.343E+00
   -.413E-01 -.774E+00 0.268E+04   0.431E-01 0.874E+00 -.268E+04   -.178E-01 -.508E-01 -.303E+00   0.231E-02 -.474E-01 -.343E+00
   0.196E-04 0.129E-01 0.268E+04   0.166E-03 0.291E-01 -.268E+04   -.128E-08 -.192E-01 -.506E+00   -.456E-02 -.267E-01 -.313E+00
   0.553E+01 0.336E+01 0.937E+03   -.522E+01 -.325E+01 -.936E+03   -.307E+00 -.119E+00 -.604E+00   0.748E-02 0.259E-01 -.129E+00
   0.180E-04 0.670E+01 0.947E+03   0.147E-03 -.672E+01 -.947E+03   0.151E-08 0.227E-01 -.337E+00   0.436E-02 -.768E-01 -.181E+00
   -.553E+01 0.336E+01 0.937E+03   0.522E+01 -.325E+01 -.936E+03   0.307E+00 -.119E+00 -.604E+00   -.929E-02 0.272E-01 -.128E+00
   0.552E+01 -.336E+01 0.948E+03   -.559E+01 0.341E+01 -.947E+03   0.909E-01 -.514E-01 -.338E+00   -.652E-01 0.279E-01 -.243E+00
   -.552E+01 -.336E+01 0.948E+03   0.559E+01 0.341E+01 -.947E+03   -.909E-01 -.514E-01 -.338E+00   0.729E-01 0.267E-01 -.244E+00
   0.311E-04 0.341E+01 0.941E+03   0.236E-03 -.352E+01 -.940E+03   0.105E-08 0.158E-01 -.580E+00   -.249E-02 0.640E-01 -.121E+00
   -.219E-04 -.655E+01 0.937E+03   0.163E-03 0.608E+01 -.936E+03   0.276E-07 0.415E+00 -.718E+00   -.179E-03 0.198E-01 -.180E+00
   0.313E+01 -.181E+01 0.940E+03   -.318E+01 0.192E+01 -.940E+03   -.217E-01 -.467E-01 -.458E+00   0.398E-01 -.415E-01 -.124E+00
   -.313E+01 -.181E+01 0.940E+03   0.318E+01 0.192E+01 -.940E+03   0.217E-01 -.467E-01 -.458E+00   -.392E-01 -.392E-01 -.123E+00
   -.406E-04 0.414E+01 -.841E+03   0.534E-04 -.444E+01 0.840E+03   0.100E-07 0.151E+00 0.792E+00   -.460E-02 0.106E+00 0.204E+00
   0.296E+02 0.187E+02 -.783E+03   -.285E+02 -.181E+02 0.784E+03   -.105E+01 -.594E+00 -.905E+00   -.138E+00 -.135E+00 0.283E+00
   -.296E+02 0.187E+02 -.783E+03   0.285E+02 -.181E+02 0.784E+03   0.105E+01 -.594E+00 -.905E+00   0.140E+00 -.135E+00 0.283E+00
   0.866E+01 -.648E+01 -.823E+03   -.876E+01 0.664E+01 0.822E+03   0.309E+00 -.232E+00 0.653E+00   -.127E+00 0.460E-01 0.275E+00
   -.491E-05 -.365E+02 -.786E+03   0.142E-03 0.351E+02 0.786E+03   0.839E-07 0.126E+01 -.808E+00   0.405E-03 0.118E+00 0.349E+00
   -.866E+01 -.648E+01 -.823E+03   0.876E+01 0.664E+01 0.822E+03   -.309E+00 -.232E+00 0.653E+00   0.127E+00 0.442E-01 0.275E+00
   -.295E+01 -.946E+00 -.843E+03   0.310E+01 0.108E+01 0.842E+03   -.744E-01 -.768E-01 0.705E+00   -.901E-01 -.311E-01 0.273E+00
   0.295E+01 -.946E+00 -.843E+03   -.310E+01 0.108E+01 0.842E+03   0.744E-01 -.768E-01 0.705E+00   0.838E-01 -.324E-01 0.273E+00
   0.137E-04 0.968E+01 -.825E+03   0.195E-03 -.102E+02 0.824E+03   0.396E-07 0.595E+00 0.757E+00   0.105E-02 -.391E-01 0.307E+00
   -.162E-04 0.574E+01 -.259E+04   0.315E-04 -.563E+01 0.259E+04   -.285E-08 -.428E-01 0.486E+00   -.315E-03 -.819E-01 0.528E+00
   0.520E+02 0.104E+03 -.255E+04   -.516E+02 -.104E+03 0.255E+04   -.672E+00 -.550E+00 0.793E+00   0.454E-01 -.370E-01 0.538E+00
   -.520E+02 0.104E+03 -.255E+04   0.516E+02 -.104E+03 0.255E+04   0.672E+00 -.550E+00 0.793E+00   -.447E-01 -.358E-01 0.537E+00
   0.131E+03 0.137E+01 -.253E+04   -.131E+03 -.127E+01 0.253E+04   -.327E+00 -.929E-01 0.115E+01   0.200E+00 0.109E-01 0.481E+00
   -.131E+03 0.137E+01 -.253E+04   0.131E+03 -.127E+01 0.253E+04   0.327E+00 -.929E-01 0.115E+01   -.201E+00 0.112E-01 0.480E+00
   0.489E+02 -.105E+03 -.255E+04   -.486E+02 0.105E+03 0.255E+04   -.516E+00 0.573E+00 0.799E+00   -.520E-01 -.309E-02 0.502E+00
   -.489E+02 -.105E+03 -.255E+04   0.486E+02 0.105E+03 0.255E+04   0.516E+00 0.573E+00 0.799E+00   0.534E-01 -.384E-02 0.502E+00
   0.349E-04 -.569E+01 -.260E+04   0.139E-03 0.546E+01 0.260E+04   0.718E-08 0.108E+00 0.535E+00   -.422E-02 0.121E+00 0.400E+00
   -.246E-04 -.704E+00 -.129E+04   0.740E-04 0.613E+00 0.129E+04   0.126E-07 0.189E+00 0.187E+01   0.283E-02 -.354E-02 0.561E+00
   0.214E+03 -.476E-01 -.174E+04   -.250E+03 0.737E-01 0.176E+04   0.364E+02 -.123E-01 -.167E+02   -.405E-01 -.196E-01 0.443E+00
   -.214E+03 -.477E-01 -.174E+04   0.250E+03 0.737E-01 0.176E+04   -.364E+02 -.123E-01 -.167E+02   0.410E-01 -.195E-01 0.442E+00
   -.470E-03 -.256E+00 0.278E+02   0.000E+00 0.227E-12 0.659E-11   0.215E-07 0.322E+00 -.311E+02   0.110E-02 -.771E-01 0.353E+01

 POSITION                                       TOTAL-FORCE (eV/Angst)
      0.00000      0.00000      5.28038        -0.000000     -0.003111     -0.094276
      2.93784      0.00000      5.28038         0.000167      0.011220     -0.012754
      5.87568      0.00000      5.28038        -0.000167      0.011220     -0.012754
      1.46892      2.54424      5.28038        -0.001787     -0.009429     -0.023475
      4.40676      2.54424      5.28038         0.000000      0.006548     -0.058268
      7.34459      2.54424      5.28038         0.001787     -0.009429     -0.023475
      2.93784      5.08848      5.28038         0.014487      0.002499     -0.023625
      5.87568      5.08848      5.28038        -0.014487      0.002499     -0.023625
      8.81351      5.08848      5.28038        -0.000000     -0.003609     -0.046549
      1.46892      0.84808      7.67911         0.012261      0.015107      0.074183
      4.40676      0.84808      7.67911        -0.000000     -0.073169     -0.036211
      7.34459      0.84808      7.67911        -0.012261      0.015107      0.074183
      2.93784      3.39232      7.67911        -0.049816      0.021046     -0.004049
      5.87568      3.39232      7.67911         0.049816      0.021046     -0.004049
      8.81351      3.39232      7.67911        -0.000000     -0.035018      0.051966
      4.40676      5.93656      7.67911        -0.000000     -0.027449      0.108117
      7.34459      5.93656      7.67911        -0.030714      0.019858      0.050483
     10.28243      5.93656      7.67911         0.030714      0.019858      0.050483
      8.81351      1.69603     10.07479        -0.000000     -0.050042      0.030730
      2.95306      1.70495     10.04990        -0.070530     -0.044360     -0.074500
      5.86045      1.70495     10.04990         0.070530     -0.044360     -0.074500
     10.26640      4.24966     10.05812         0.080498     -0.024632      0.069673
      4.40676      4.22282     10.04990         0.000000      0.017107     -0.014407
      7.36062      4.24966     10.05812        -0.080498     -0.024632      0.069673
     11.75147      6.78471     10.07479        -0.011183      0.020915      0.048854
      5.87556      6.78471     10.07479         0.011183      0.020915      0.048854
      8.81351      6.76613     10.05812         0.000000      0.069879      0.076988
      0.00000      0.00000     12.48774        -0.000000     -0.016588     -0.066298
      2.98478      0.07843     12.47445        -0.195216     -0.452495     -0.277934
      5.82873      0.07843     12.47445         0.195216     -0.452495     -0.277934
      1.56032      2.54568     12.47445        -0.984349      0.017223     -0.561203
      7.25320      2.54568     12.47445         0.984349      0.017223     -0.561203
      2.98229      5.00861     12.47445        -0.221107      0.438770     -0.253130
      5.83122      5.00861     12.47445         0.221107      0.438770     -0.253130
      8.81351      5.08848     12.49541        -0.000000     -0.000328      0.002318
      4.40676      2.54424     12.16834         0.000000      0.095443      2.038915
      3.71374      2.54062     13.93027         0.144413     -0.005553     -0.009037
      5.09977      2.54062     13.93027        -0.144413     -0.005553     -0.009037
    total drift:                                0.000626     -0.011011      0.183964

  FREE ENERGIE OF THE ION-ELECTRON SYSTEM (eV)
  free  energy   TOTEN  =      -124.46492831 eV

  energy  without entropy=     -124.46492831  energy(sigma->0) =     -124.46492831

 stress matrix after NEB project (eV)
    -15.95873     -0.00000      0.00000
     -0.00000    -18.17454      0.26071
      0.00000      0.26071      1.52871
  FORCES: max atom, RMS     0.144802    0.033220
  FORCE total and by dimension    0.204781    0.144413
  Stress total and by dimension   24.237735   18.174540
|           W    W    AA    RRRRR   N    N  II  N    N   GGGG   !!!           |
|           W    W   A  A   R    R  NN   N  II  NN   N  G    G  !!!           |
|           W    W  A    A  R    R  N N  N  II  N N  N  G       !!!           |
|           W WW W  AAAAAA  RRRRR   N  N N  II  N  N N  G  GGG   !            |
|           WW  WW  A    A  R   R   N   NN  II  N   NN  G    G                |
|           W    W  A    A  R    R  N    N  II  N    N   GGGG   !!!           |
|     Tetrahedron method does not include variations of the Fermi             |
|     occupations, so forces and stress will be inaccurate. We suggest        |
|     using a different smearing scheme ISMEAR = 1 or 2 for metals in         |
|     relaxations.                                                            |

 total charge

# of ion       s       p       d       tot
    1        0.546   0.238   8.767   9.552
    2        0.543   0.241   8.764   9.548
    3        0.543   0.241   8.764   9.548
    4        0.544   0.241   8.764   9.549
    5        0.544   0.241   8.761   9.546
    6        0.544   0.241   8.764   9.549
    7        0.544   0.241   8.765   9.549
    8        0.544   0.241   8.765   9.549
    9        0.541   0.240   8.766   9.548
   10        0.522   0.307   8.770   9.599
   11        0.520   0.308   8.779   9.607
   12        0.522   0.307   8.770   9.599
   13        0.519   0.309   8.776   9.605
   14        0.519   0.309   8.776   9.605
   15        0.516   0.309   8.775   9.600
   16        0.522   0.309   8.766   9.597
   17        0.514   0.310   8.775   9.599
   18        0.514   0.310   8.775   9.599
   19        0.512   0.299   8.777   9.588
   20        0.550   0.332   8.751   9.633
   21        0.550   0.332   8.751   9.633
   22        0.510   0.311   8.772   9.594
   23        0.549   0.340   8.745   9.633
   24        0.510   0.311   8.772   9.594
   25        0.515   0.300   8.774   9.589
   26        0.515   0.300   8.774   9.589
   27        0.511   0.309   8.777   9.597
   28        0.540   0.221   8.769   9.530
   29        0.551   0.234   8.766   9.551
   30        0.551   0.234   8.766   9.551
   31        0.540   0.238   8.775   9.553
   32        0.540   0.238   8.775   9.553
   33        0.549   0.234   8.769   9.552
   34        0.549   0.234   8.769   9.552
   35        0.536   0.221   8.768   9.526
   36        0.284   0.335   5.102   5.721
   37        1.613   3.252   0.000   4.865
   38        1.613   3.252   0.000   4.865
tot         22.148  16.471 311.997 350.616

 BZINTS: Fermi energy:    0.152255;  404.000000 electrons
         Band energy:-0.149907E+04;  BLOECHL correction:   -0.050900