 vasp.6.2.0 18Jan21 (build Jun 12 2021 23:27:24) complex

 executed on             LinuxIFC date 2022.05.27  05:29:05

 INCAR:
   ISMEAR = -5
   SIGMA = 0.1
   ISPIN = 1
   EDIFF = 1.d-5
   EDIFFG = -0.01
   NSW = 0
   NELM = 150
   ENCUT = 500
   ISIF = 2
   IBRION = 2
   LREAL = Auto
   ALGO = Fast
   ICHARG = 11
   LORBIT = 10
   LCHARG = .F.
   LWAVE = .F.

 POTCAR:    PAW_PBE Ag 02Apr2005
 POTCAR:    PAW_PBE Mn 06Sep2000
 POTCAR:    PAW_PBE C 08Apr2002
 POTCAR:    PAW_PBE O 08Apr2002
|           W    W    AA    RRRRR   N    N  II  N    N   GGGG   !!!           |
|           W    W   A  A   R    R  NN   N  II  NN   N  G    G  !!!           |
|           W    W  A    A  R    R  N N  N  II  N N  N  G       !!!           |
|           W WW W  AAAAAA  RRRRR   N  N N  II  N  N N  G  GGG   !            |
|           WW  WW  A    A  R   R   N   NN  II  N   NN  G    G                |
|           W    W  A    A  R    R  N    N  II  N    N   GGGG   !!!           |
|     For optimal performance we recommend to set                             |
|       NCORE = 2 up to number-of-cores-per-socket                            |
|     This setting can greatly improve the performance of VASP for DFT.       |
|     The default, NCORE=1 might be grossly inefficient on modern             |
|     multi-core architectures or massively parallel machines. Do your        |
|     Unfortunately you need to use the default for GW and RPA                |
|     calculations (for HF NCORE is supported but not extensively tested      |
|     yet).                                                                   |

 POTCAR:    PAW_PBE Ag 02Apr2005
   VRHFIN =Ag : s1 d10

   TITEL  = PAW_PBE Ag 02Apr2005
   POMASS =  107.868; ZVAL   =   11.000    mass and valenz
   ENMAX  =  249.844; ENMIN  =  187.383 eV

 POTCAR:    PAW_PBE Mn 06Sep2000
   VRHFIN =Mn: d6 s1

   TITEL  = PAW_PBE Mn 06Sep2000
   POMASS =   54.938; ZVAL   =    7.000    mass and valenz
   ENMAX  =  269.864; ENMIN  =  202.398 eV

 POTCAR:    PAW_PBE C 08Apr2002
   VRHFIN =C: s2p2

[...]

 POTCAR:    PAW_PBE O 08Apr2002
   VRHFIN =O: s2p4

   TITEL  = PAW_PBE O 08Apr2002
   POMASS =   16.000; ZVAL   =    6.000    mass and valenz
   ENMAX  =  400.000; ENMIN  =  300.000 eV

 Optimization of the real space projectors (new method)

 maximal supplied QI-value         = 15.12
 optimisation between [QCUT,QGAM] = [ 11.34, 22.83] = [ 36.00,145.93] Ry
 Optimized for a Real-space Cutoff    1.43 Angstroem

   l    n(q)    QCUT    max X(q) W(low)/X(q) W(high)/X(q)  e(spline)
   2      9    11.338    53.897    0.16E-03    0.20E-03    0.28E-06
   2      9    11.338    52.416    0.16E-03    0.20E-03    0.29E-06
   0     10    11.338   122.045    0.31E-04    0.76E-04    0.15E-06
   0     10    11.338    73.629    0.30E-04    0.72E-04    0.15E-06
   1      9    11.338    15.255    0.20E-03    0.19E-04    0.17E-06
   1      9    11.338     9.562    0.16E-03    0.15E-04    0.14E-06
 Optimization of the real space projectors (new method)

[...]

   l    n(q)    QCUT    max X(q) W(low)/X(q) W(high)/X(q)  e(spline)
   0      7    11.310   115.676    0.43E-03    0.13E-02    0.19E-06
   0      7    11.310    87.132    0.43E-03    0.13E-02    0.18E-06
   1      6    11.310     4.429    0.42E-03    0.74E-03    0.11E-06
   1      6    11.310     2.733    0.34E-03    0.55E-03    0.92E-07
 Optimization of the real space projectors (new method)

 maximal supplied QI-value         = 24.76
 optimisation between [QCUT,QGAM] = [ 11.39, 22.77] = [ 36.31,145.25] Ry
 Optimized for a Real-space Cutoff    1.00 Angstroem

   l    n(q)    QCUT    max X(q) W(low)/X(q) W(high)/X(q)  e(spline)
   0      7    11.387    20.381    0.39E-03    0.13E-02    0.15E-06
   0      7    11.387    15.268    0.42E-03    0.14E-02    0.17E-06
   1      6    11.387     5.964    0.41E-03    0.11E-02    0.17E-06
   1      6    11.387     5.382    0.39E-03    0.87E-03    0.15E-06
  PAW_PBE Ag 02Apr2005                  :
  PAW_PBE Mn 06Sep2000                  :
  PAW_PBE C 08Apr2002                   :
  PAW_PBE O 08Apr2002                   :

 POSCAR: Ag-Mn-CO
  positions in direct lattice
  velocities in cartesian coordinates
 exchange correlation table for  LEXCH =        8
   RHO(1)=    0.500       N(1)  =     2000
   RHO(2)=  100.500       N(2)  =     4000

 VTST: version 3.2, (02/03/18)

 CHAIN: initializing optimizer

 OPT: Using VASP Conjugate-Gradient optimizer
 CHAIN: Read ICHAIN            0

 POSCAR: Ag-Mn-CO
  positions in direct lattice
  velocities in cartesian coordinates

 ion  position               nearest neighbor table
   1  0.000  0.000  0.238-   2 2.93   8 2.93   7 2.93   6 2.93   4 2.93  12 2.93  16 2.93  10 2.93
                             3 2.93
   2  0.333  0.000  0.238-   1 2.93   8 2.93   9 2.93   3 2.93   4 2.93   5 2.93  10 2.93  17 2.93
                            11 2.93
   3  0.667  0.000  0.238-   9 2.93   2 2.93   5 2.93  11 2.93   7 2.93  18 2.93   1 2.93   6 2.93
                            12 2.93
   4  0.000  0.333  0.238-   5 2.93   6 2.93   2 2.93   1 2.93   7 2.93  13 2.93  15 2.93   9 2.93
                            10 2.93
   5  0.333  0.333  0.238-   4 2.93   3 2.93   7 2.93   2 2.93   8 2.93  14 2.93  13 2.93  11 2.93
                             6 2.93
   6  0.667  0.333  0.238-   4 2.93   9 2.93   1 2.93  15 2.93   8 2.93  12 2.93   3 2.93   5 2.93
                            14 2.93
   7  0.000  0.667  0.238-   8 2.93   1 2.93   5 2.93   3 2.93   4 2.93  16 2.93  18 2.93  13 2.93
                             9 2.93
   8  0.333  0.667  0.238-   7 2.93   1 2.93   2 2.93   9 2.93   5 2.93  16 2.93   6 2.93  17 2.93
                            14 2.93
   9  0.667  0.667  0.238-   3 2.93   2 2.93   8 2.93   6 2.93  17 2.93   4 2.93  15 2.93   7 2.93
                            18 2.93
  10  0.111  0.111  0.346-  20 2.92  19 2.93  26 2.93  12 2.93  16 2.93  15 2.93  17 2.93  13 2.93
                            11 2.93   2 2.93   1 2.93   4 2.93
  11  0.444  0.111  0.346-  21 2.90  20 2.90  27 2.92  14 2.93  17 2.93  18 2.93   3 2.93  12 2.93
                            13 2.93  10 2.93   5 2.93   2 2.93
  12  0.778  0.111  0.346-  21 2.92  25 2.93  19 2.93  10 2.93  16 2.93  18 2.93  15 2.93  11 2.93
                             1 2.93  14 2.93   6 2.93   3 2.93
  13  0.111  0.444  0.346-  20 2.90  23 2.90  22 2.92  15 2.93  14 2.93  18 2.93  10 2.93  11 2.93
                            16 2.93   4 2.93   5 2.93   7 2.93
  14  0.444  0.444  0.346-  23 2.90  21 2.90  24 2.92  13 2.93  11 2.93  16 2.93   5 2.93  12 2.93
                            17 2.93   8 2.93  15 2.93   6 2.93
  15  0.778  0.444  0.346-  24 2.92  22 2.92  19 2.92  13 2.93  10 2.93  12 2.93  17 2.93  18 2.93
                             4 2.93   6 2.93   9 2.93  14 2.93
  16  0.111  0.778  0.346-  23 2.92  26 2.93  25 2.93  18 2.93  12 2.93  10 2.93  14 2.93  17 2.93
                            13 2.93   7 2.93   8 2.93   1 2.93
  17  0.444  0.778  0.346-  27 2.92  24 2.92  26 2.92  11 2.93  10 2.93   9 2.93  18 2.93  15 2.93
                            16 2.93   2 2.93  14 2.93   8 2.93
  18  0.778  0.778  0.346-  22 2.92  27 2.92  25 2.92  16 2.93  12 2.93  13 2.93  11 2.93  17 2.93
                            15 2.93   7 2.93   3 2.93   9 2.93
  19  0.889  0.223  0.454-  28 2.91  15 2.92  10 2.93  12 2.93  24 2.93  22 2.93  26 2.94  25 2.94
                            20 2.94  21 2.94  32 2.95  31 2.95
  20  0.223  0.223  0.453-  36 2.71  31 2.90  29 2.90  13 2.90  11 2.90  21 2.91  23 2.91  10 2.92
                            27 2.93  22 2.93  19 2.94  26 2.94
  21  0.554  0.223  0.453-  36 2.71  30 2.90  32 2.90  11 2.90  14 2.90  20 2.91  23 2.91  12 2.92
                            27 2.93  24 2.93  25 2.94  19 2.94
  22  0.888  0.556  0.453-  35 2.91  18 2.92  15 2.92  13 2.92  24 2.93  27 2.93  33 2.93  31 2.93
                            25 2.93  19 2.93  23 2.93  20 2.93
  23  0.223  0.554  0.453-  36 2.71  34 2.90  33 2.90  14 2.90  13 2.90  21 2.91  20 2.91  16 2.92
                            22 2.93  24 2.93  26 2.94  25 2.94
  24  0.556  0.556  0.453-  35 2.91  15 2.92  17 2.92  14 2.92  27 2.93  22 2.93  32 2.93  34 2.93
                            19 2.93  26 2.93  23 2.93  21 2.93
  25  0.889  0.889  0.454-  28 2.91  18 2.92  16 2.93  12 2.93  22 2.93  27 2.93  26 2.94  19 2.94
                            23 2.94  21 2.94  33 2.95  30 2.95
  26  0.223  0.889  0.454-  28 2.91  17 2.92  16 2.93  10 2.93  27 2.93  24 2.93  25 2.94  19 2.94
                            23 2.94  20 2.94  34 2.95  29 2.95
  27  0.556  0.888  0.453-  35 2.91  17 2.92  18 2.92  11 2.92  24 2.93  22 2.93  29 2.93  30 2.93
                            26 2.93  25 2.93  20 2.93  21 2.93
  28  0.000  0.000  0.560-  26 2.91  25 2.91  19 2.91  29 2.97  34 2.97  33 2.97  32 2.97  31 2.97
                            30 2.97
  29  0.333  0.008  0.561-  31 2.86  30 2.86  36 2.87  20 2.90  27 2.93  26 2.95  28 2.97  35 2.97
                            34 3.07
  30  0.659  0.008  0.561-  32 2.86  29 2.86  36 2.87  21 2.90  27 2.93  25 2.95  28 2.97  35 2.97
                            33 3.07
  31  0.008  0.333  0.561-  29 2.86  33 2.86  36 2.87  20 2.90  22 2.93  19 2.95  28 2.97  35 2.97
                            32 3.07
  32  0.659  0.333  0.561-  30 2.86  34 2.86  36 2.87  21 2.90  24 2.93  19 2.95  28 2.97  35 2.97
                            31 3.07
  33  0.008  0.659  0.561-  34 2.86  31 2.86  36 2.87  23 2.90  22 2.93  25 2.95  28 2.97  35 2.97
                            30 3.07
  34  0.333  0.659  0.561-  33 2.86  32 2.86  36 2.87  23 2.90  24 2.93  26 2.95  28 2.97  35 2.97
                            29 3.07
  35  0.667  0.667  0.560-  24 2.91  27 2.91  22 2.91  32 2.97  30 2.97  29 2.97  34 2.97  31 2.97
                            33 2.97
  36  0.333  0.333  0.549-  37 1.78  21 2.71  20 2.71  23 2.71  31 2.87  30 2.87  33 2.87  29 2.87
                            34 2.87  32 2.87
  37  0.333  0.333  0.629-  38 1.18  36 1.78
  38  0.333  0.333  0.682-  37 1.18

  LATTYP: Found a hexagonal cell.
 ALAT       =     8.7913665772
 C/A-ratio  =     2.5227160501

  Lattice vectors:

 A1 = (  -4.3956832886,  -7.6135467898,   0.0000000000)
 A2 = (   8.7913665771,   0.0000000000,   0.0000000000)
 A3 = (   0.0000000000,   0.0000000000,  22.1781215668)

Analysis of symmetry for initial positions (statically):
 Subroutine PRICEL returns:
 Original cell was already a primitive cell.

 Routine SETGRP: Setting up the symmetry group for a
 hexagonal supercell.

 Subroutine GETGRP returns: Found  6 space group operations
 (whereof  6 operations were pure point group operations)
 out of a pool of 24 trial point group operations.

The static configuration has the point symmetry C_3v.

Analysis of symmetry for dynamics (positions and initial velocities):
 Subroutine PRICEL returns:
 Original cell was already a primitive cell.

[...]

The dynamic configuration has the point symmetry C_3v.

Analysis of constrained symmetry for selective dynamics:
 Subroutine PRICEL returns:
 Original cell was already a primitive cell.

 Routine SETGRP: Setting up the symmetry group for a
 hexagonal supercell.

[...]
     33      -4.6430      2.00000
     34      -4.6143      2.00000
     35      -4.6067      2.00000
     36      -4.5835      2.00000
     37      -4.5511      2.00000
     38      -4.5061      2.00000
     39      -4.4775      2.00000
     40      -4.4504      2.00000
     41      -4.4461      2.00000
     42      -4.4128      2.00000
     43      -4.4101      2.00000
     44      -4.4018      2.00000
     45      -4.3864      2.00000
     46      -4.3760      2.00000
     47      -4.3461      2.00000
     48      -4.2934      2.00000
     49      -4.2620      2.00000
     50      -4.2580      2.00000
     51      -4.2488      2.00000
     52      -4.2453      2.00000
     53      -4.2305      2.00000
     54      -4.2199      2.00000
     55      -4.2165      2.00000
     56      -4.2037      2.00000
     57      -4.1994      2.00000
     58      -4.1317      2.00000
     59      -4.1279      2.00000
     60      -4.1157      2.00000
[...]
    238       6.0140      0.00000
    239       6.0893      0.00000
    240       6.1568      0.00000
    241       6.2903      0.00000
    242       6.3320      0.00000
    243       6.3451      0.00000
    244       7.0856      0.00000
    245       7.1374      0.00000
    246       7.2383      0.00000
    247       7.2655      0.00000
    248       7.3120      0.00000
    249       7.3511      0.00000
    250       7.4072      0.00000
    251       7.5374      0.00000
    252       7.6310      0.00000

 soft charge-density along one line, spin component           1
         0         1         2         3         4         5         6         7         8         9
 total charge-density along one line

------------------------ aborting loop because EDIFF is reached ----------------------------------------

 total charge

# of ion       s       p       d       tot
    1        0.418   0.202   9.179   9.799
    2        0.418   0.203   9.178   9.799
    3        0.418   0.203   9.178   9.799
    4        0.418   0.203   9.178   9.799
    5        0.418   0.203   9.175   9.796
    6        0.418   0.203   9.178   9.799
    7        0.418   0.203   9.178   9.799
    8        0.418   0.203   9.178   9.799
    9        0.415   0.202   9.180   9.797
   10        0.407   0.269   9.164   9.840
   11        0.410   0.267   9.168   9.845
   12        0.407   0.269   9.164   9.840
   13        0.410   0.267   9.168   9.845
   14        0.410   0.267   9.168   9.845
   15        0.403   0.270   9.165   9.839
   16        0.407   0.269   9.164   9.840
   17        0.403   0.270   9.165   9.839
   18        0.403   0.270   9.165   9.839
   19        0.401   0.265   9.167   9.833
   20        0.431   0.293   9.146   9.869
   21        0.431   0.293   9.146   9.869
   22        0.396   0.274   9.166   9.836
   23        0.431   0.293   9.146   9.869
   24        0.396   0.274   9.166   9.836
   25        0.401   0.265   9.167   9.833
   26        0.401   0.265   9.167   9.833
   27        0.396   0.274   9.166   9.836
   28        0.413   0.194   9.181   9.788
   29        0.419   0.206   9.172   9.797
   30        0.419   0.206   9.172   9.797
   31        0.419   0.206   9.172   9.797
   32        0.419   0.206   9.172   9.797
   33        0.419   0.206   9.172   9.797
   34        0.419   0.206   9.172   9.797
   35        0.408   0.196   9.180   9.784
   36        0.322   0.320   5.151   5.793
   37        0.960   1.550   0.000   2.510
   38        1.608   3.530   0.000   5.137
tot         17.323  13.772 326.070 357.165

  FORCE on cell =-STRESS in cart. coord.  units (eV):
  Direction    XX          YY          ZZ          XY          YZ          ZX
  Alpha Z   766.09544   766.09544   766.09544
  Ewald  118958.95139118958.95143************     0.00004    -0.00000     0.00005
  Hartree129333.12362129333.12364************     0.00002    -0.00000     0.00002
  E(xc)   -2105.90730 -2105.90739 -2111.13203     0.00008    -0.00001    -0.00001
  Local  ************************259170.39718     0.00052    -0.00006    -0.00018
  n-local  -376.68379  -358.38121  -376.20387    10.37647    -0.52998     0.62279
  augment  3254.11989  3254.12001  3264.82598    -0.00010     0.00000     0.00005
  Kinetic  5028.39320  5034.60030  5033.73437     5.00954     0.77839    -0.11957
  Fock        0.00000     0.00000     0.00000     0.00000     0.00000     0.00000
  Total     -10.65044   -10.65044    -1.02893    -0.00000     0.00000    -0.00000
  in kB     -11.49502   -11.49502    -1.11053    -0.00000     0.00000    -0.00000

 VOLUME and BASIS-vectors are now :
  energy-cutoff  :      500.00
  volume of cell :     1484.46
      direct lattice vectors                 reciprocal lattice vectors
     8.791366577  0.000000000  0.000000000     0.113747958 -0.065672414  0.000000000
     4.395683289  7.613546790  0.000000000     0.000000000  0.131344829  0.000000000
     0.000000000  0.000000000 22.178121567     0.000000000  0.000000000  0.045089481

  length of vectors
     8.791366577  8.791366577 22.178121567     0.131344829  0.131344829  0.045089481

 FORCES acting on ions
    electron-ion (+dipol)            ewald-force                    non-local-force                 convergence-correction
   0.458E-04 -.283E-04 0.251E+04   -.954E-04 0.593E-04 -.251E+04   0.325E-18 -.236E-17 -.207E+01   -.105E-03 -.168E-03 0.176E+00
   0.210E+00 0.481E+00 0.251E+04   -.426E+00 -.404E+00 -.251E+04   0.803E-01 0.464E-01 -.155E+01   0.136E+00 -.104E+00 0.253E+00
   -.210E+00 0.481E+00 0.251E+04   0.426E+00 -.404E+00 -.251E+04   -.803E-01 0.464E-01 -.155E+01   -.137E+00 -.102E+00 0.254E+00
   0.522E+00 -.589E-01 0.251E+04   -.563E+00 -.167E+00 -.251E+04   0.804E-01 0.464E-01 -.155E+01   -.212E-01 0.170E+00 0.253E+00
   -.580E-05 -.188E-04 0.251E+04   0.981E-04 -.200E-05 -.251E+04   0.107E-17 -.158E-18 -.124E+01   0.624E-02 0.381E-02 0.399E+00
   -.522E+00 -.588E-01 0.251E+04   0.563E+00 -.167E+00 -.251E+04   -.804E-01 0.464E-01 -.155E+01   0.198E-01 0.171E+00 0.254E+00
   0.312E+00 -.423E+00 0.251E+04   -.137E+00 0.571E+00 -.251E+04   0.461E-04 -.928E-01 -.155E+01   -.156E+00 -.673E-01 0.254E+00
   -.312E+00 -.422E+00 0.251E+04   0.137E+00 0.570E+00 -.251E+04   -.461E-04 -.928E-01 -.155E+01   0.158E+00 -.683E-01 0.254E+00
   0.368E-04 -.128E-04 0.251E+04   0.792E-04 -.643E-04 -.251E+04   -.224E-18 -.862E-18 -.194E+01   -.666E-02 -.344E-02 0.123E+00
   0.377E+01 0.218E+01 0.863E+03   -.357E+01 -.206E+01 -.863E+03   -.306E+00 -.177E+00 -.738E+00   0.104E+00 0.602E-01 0.836E+00
   -.291E-04 0.422E+01 0.869E+03   0.415E-04 -.453E+01 -.870E+03   0.124E-11 0.189E+00 -.377E+00   0.629E-02 0.786E-01 0.832E+00
   -.377E+01 0.218E+01 0.863E+03   0.357E+01 -.206E+01 -.863E+03   0.306E+00 -.177E+00 -.738E+00   -.106E+00 0.613E-01 0.836E+00
   0.366E+01 -.211E+01 0.869E+03   -.392E+01 0.226E+01 -.870E+03   0.164E+00 -.945E-01 -.377E+00   0.711E-01 -.338E-01 0.832E+00
   -.366E+01 -.211E+01 0.869E+03   0.392E+01 0.226E+01 -.870E+03   -.164E+00 -.945E-01 -.377E+00   -.604E-01 -.347E-01 0.831E+00
   0.161E-04 0.992E+00 0.864E+03   -.108E-03 -.115E+01 -.864E+03   0.516E-12 0.786E-01 -.756E+00   -.163E-02 0.627E-01 0.799E+00
   -.777E-05 -.435E+01 0.863E+03   0.207E-04 0.412E+01 -.863E+03   0.232E-11 0.353E+00 -.738E+00   0.124E-03 -.122E+00 0.836E+00
   0.859E+00 -.496E+00 0.864E+03   -.998E+00 0.576E+00 -.864E+03   0.681E-01 -.393E-01 -.756E+00   0.534E-01 -.328E-01 0.799E+00
   -.860E+00 -.496E+00 0.864E+03   0.998E+00 0.576E+00 -.864E+03   -.681E-01 -.393E-01 -.756E+00   -.535E-01 -.309E-01 0.799E+00
   0.397E-04 0.470E+00 -.811E+03   -.128E-03 -.726E+00 0.809E+03   0.583E-12 0.887E-01 0.777E+00   -.164E-03 0.168E+00 0.105E+01
   0.134E+02 0.771E+01 -.784E+03   -.126E+02 -.728E+01 0.783E+03   -.123E+01 -.709E+00 -.972E+00   0.426E+00 0.246E+00 0.163E+01
   -.134E+02 0.771E+01 -.784E+03   0.126E+02 -.728E+01 0.783E+03   0.123E+01 -.709E+00 -.972E+00   -.426E+00 0.247E+00 0.163E+01
   0.504E+01 -.291E+01 -.800E+03   -.547E+01 0.316E+01 0.799E+03   0.248E+00 -.143E+00 0.450E+00   0.205E+00 -.118E+00 0.103E+01
   -.576E-04 -.154E+02 -.784E+03   0.429E-04 0.146E+02 0.783E+03   0.931E-11 0.142E+01 -.972E+00   0.796E-03 -.492E+00 0.163E+01
   -.504E+01 -.291E+01 -.800E+03   0.547E+01 0.316E+01 0.799E+03   -.248E+00 -.143E+00 0.450E+00   -.205E+00 -.118E+00 0.103E+01
   -.407E+00 -.235E+00 -.811E+03   0.629E+00 0.363E+00 0.809E+03   -.769E-01 -.444E-01 0.777E+00   -.145E+00 -.841E-01 0.105E+01
   0.407E+00 -.235E+00 -.811E+03   -.629E+00 0.363E+00 0.809E+03   0.769E-01 -.444E-01 0.777E+00   0.145E+00 -.844E-01 0.105E+01
   0.208E-04 0.582E+01 -.800E+03   0.110E-03 -.632E+01 0.799E+03   0.188E-11 0.287E+00 0.450E+00   -.238E-03 0.237E+00 0.103E+01
   0.545E-04 -.365E-04 -.245E+04   -.115E-03 0.779E-04 0.244E+04   -.496E-17 0.460E-18 0.209E+01   0.125E-02 0.585E-03 0.253E+00
   0.270E+02 0.456E+02 -.242E+04   -.268E+02 -.453E+02 0.242E+04   -.693E+00 -.107E+01 0.200E+01   0.430E+00 0.708E+00 0.172E+00
   -.270E+02 0.456E+02 -.242E+04   0.268E+02 -.453E+02 0.242E+04   0.693E+00 -.107E+01 0.200E+01   -.440E+00 0.709E+00 0.172E+00
   0.530E+02 0.599E+00 -.242E+04   -.526E+02 -.554E+00 0.242E+04   -.127E+01 -.649E-01 0.200E+01   0.828E+00 0.183E-01 0.172E+00
   -.530E+02 0.599E+00 -.242E+04   0.526E+02 -.554E+00 0.242E+04   0.127E+01 -.649E-01 0.200E+01   -.839E+00 0.192E-01 0.172E+00
   0.260E+02 -.462E+02 -.242E+04   -.258E+02 0.458E+02 0.242E+04   -.581E+00 0.114E+01 0.200E+01   0.395E+00 -.735E+00 0.172E+00
   -.260E+02 -.462E+02 -.242E+04   0.258E+02 0.458E+02 0.242E+04   0.581E+00 0.114E+01 0.200E+01   -.403E+00 -.736E+00 0.172E+00
   0.216E-04 -.124E-04 -.245E+04   0.106E-03 -.661E-04 0.244E+04   -.356E-17 0.430E-18 0.213E+01   -.537E-02 -.267E-02 0.223E+00
   -.303E-04 -.173E-04 -.133E+04   0.674E-04 0.931E-05 0.133E+04   -.182E-17 -.601E-18 -.252E+01   0.373E-02 0.225E-02 0.369E+00
   0.321E-05 -.766E-04 -.864E+03   0.194E-04 0.287E-06 0.848E+03   -.204E-18 -.252E-18 0.160E+02   0.140E-02 0.852E-03 -.618E+00
   0.233E-03 -.931E-04 -.154E+04   0.102E-04 0.236E-07 0.160E+04   0.370E-18 0.475E-18 -.569E+02   0.379E-02 0.232E-02 -.553E+00
   0.577E-03 -.872E-03 0.251E+02   -.542E-13 0.306E-12 0.227E-11   -.449E-15 0.515E-19 -.465E+02   -.130E-01 -.411E-02 0.214E+02

 POSITION                                       TOTAL-FORCE (eV/Angst)
      0.00000      0.00000      5.28219        -0.000000      0.000000     -0.022777
      2.93046      0.00000      5.28219         0.001840      0.021272      0.022356
      5.86091      0.00000      5.28219        -0.001840      0.021272      0.022356
      1.46523      2.53785      5.28219         0.019342     -0.009042      0.022356
      4.39568      2.53785      5.28219        -0.000000     -0.000000     -0.022590
      7.32614      2.53785      5.28219        -0.019342     -0.009042      0.022356
      2.93046      5.07570      5.28219         0.017502     -0.012230      0.022356
      5.86091      5.07570      5.28219        -0.017502     -0.012230      0.022356
      8.79137      5.07570      5.28219         0.000000      0.000000      0.013540
      1.46523      0.84595      7.67490         0.000861      0.000497     -0.003937
      4.39568      0.84595      7.67490        -0.000000     -0.040920     -0.040358
      7.32614      0.84595      7.67490        -0.000861      0.000497     -0.003937
      2.93046      3.38380      7.67490        -0.035438      0.020460     -0.040358
      5.86091      3.38380      7.67490         0.035438      0.020460     -0.040358
      8.79137      3.38380      7.67490        -0.000000     -0.018481      0.005057
      4.39568      5.92165      7.67490        -0.000000     -0.000994     -0.003937
      7.32614      5.92165      7.67490        -0.016005      0.009241      0.005057
     10.25659      5.92165      7.67490         0.016005      0.009241      0.005057
      8.79137      1.69455     10.06139         0.000000      0.000565      0.025724
      2.94158      1.69832     10.04035        -0.054802     -0.031640     -0.123059
      5.84978      1.69832     10.04035         0.054802     -0.031640     -0.123059
     10.25392      4.23129     10.05365         0.019159     -0.011062      0.002244
      4.39568      4.21690     10.04035         0.000000      0.063280     -0.123059
      7.32881      4.23129     10.05365        -0.019159     -0.011062      0.002244
     11.71953      6.76627     10.06139        -0.000489     -0.000282      0.025724
      5.86321      6.76627     10.06139         0.000489     -0.000282      0.025724
      8.79137      6.76451     10.05365         0.000000      0.022123      0.002244
      0.00000      0.00000     12.42536        -0.000000      0.000000     -0.025511
      2.96459      0.05999     12.43855        -0.010563     -0.020069     -0.018745
      5.82677      0.05999     12.43855         0.010563     -0.020069     -0.018745
      1.53425      2.53742     12.43855        -0.022661      0.000886     -0.018745
      7.25712      2.53742     12.43855         0.022661      0.000886     -0.018745
      2.96534      5.01614     12.43855        -0.012098      0.019182     -0.018745
      5.82603      5.01614     12.43855         0.012098      0.019182     -0.018745
      8.79137      5.07570     12.42471        -0.000000      0.000000     -0.023864
      4.39568      2.53785     12.16969         0.000000      0.000000      0.422254
      4.39568      2.53785     13.94516        -0.000000      0.000000      0.091147
      4.39568      2.53785     15.12570        -0.000000      0.000000     -0.050877
    total drift:                               -0.012471     -0.004978      0.012526

  FREE ENERGIE OF THE ION-ELECTRON SYSTEM (eV)
  free  energy   TOTEN  =      -111.99650186 eV

  energy  without entropy=     -111.99650186  energy(sigma->0) =     -111.99650186

 stress matrix after NEB project (eV)
    -10.65044     -0.00000     -0.00000
     -0.00000    -10.65044      0.00000
      0.00000      0.00000     -1.02893
  FORCES: max atom, RMS     0.091147    0.016934
  FORCE total and by dimension    0.104386    0.091147
  Stress total and by dimension   15.097094   10.650435
|           W    W    AA    RRRRR   N    N  II  N    N   GGGG   !!!           |
|           W    W   A  A   R    R  NN   N  II  NN   N  G    G  !!!           |
|           W    W  A    A  R    R  N N  N  II  N N  N  G       !!!           |
|           W WW W  AAAAAA  RRRRR   N  N N  II  N  N N  G  GGG   !            |
|           WW  WW  A    A  R   R   N   NN  II  N   NN  G    G                |
|           W    W  A    A  R    R  N    N  II  N    N   GGGG   !!!           |
|     Tetrahedron method does not include variations of the Fermi             |
|     occupations, so forces and stress will be inaccurate. We suggest        |
|     using a different smearing scheme ISMEAR = 1 or 2 for metals in         |
|     relaxations.                                                            |

 total charge

# of ion       s       p       d       tot
    1        0.418   0.202   9.179   9.799
    2        0.418   0.203   9.178   9.799
    3        0.418   0.203   9.178   9.799
    4        0.418   0.203   9.178   9.799
    5        0.418   0.203   9.175   9.796
    6        0.418   0.203   9.178   9.799
    7        0.418   0.203   9.178   9.799
    8        0.418   0.203   9.178   9.799
    9        0.415   0.202   9.180   9.797
   10        0.407   0.269   9.164   9.840
   11        0.410   0.267   9.168   9.845
   12        0.407   0.269   9.164   9.840
   13        0.410   0.267   9.168   9.845
   14        0.410   0.267   9.168   9.845
   15        0.403   0.270   9.165   9.839
   16        0.407   0.269   9.164   9.840
   17        0.403   0.270   9.165   9.839
   18        0.403   0.270   9.165   9.839
   19        0.401   0.265   9.167   9.833
   20        0.431   0.293   9.146   9.869
   21        0.431   0.293   9.146   9.869
   22        0.396   0.274   9.166   9.836
   23        0.431   0.293   9.146   9.869
   24        0.396   0.274   9.166   9.836
   25        0.401   0.265   9.167   9.833
   26        0.401   0.265   9.167   9.833
   27        0.396   0.274   9.166   9.836
   28        0.413   0.194   9.181   9.788
   29        0.419   0.206   9.172   9.797
   30        0.419   0.206   9.172   9.797
   31        0.419   0.206   9.172   9.797
   32        0.419   0.206   9.172   9.797
   33        0.419   0.206   9.172   9.797
   34        0.419   0.206   9.172   9.797
   35        0.408   0.196   9.180   9.784
   36        0.322   0.320   5.151   5.793
   37        0.960   1.550   0.000   2.510
   38        1.608   3.530   0.000   5.137
tot         17.323  13.772 326.070 357.165

 BZINTS: Fermi energy:    0.717612;  402.000000 electrons
         Band energy:-0.138052E+04;  BLOECHL correction:   -0.017520