 vasp.6.2.0 18Jan21 (build Jun 12 2021 23:27:24) complex

 executed on             LinuxIFC date 2022.05.27  05:01:48

 INCAR:
   ISMEAR = -5
   SIGMA = 0.1
   ISPIN = 1
   EDIFF = 1.d-5
   EDIFFG = -0.01
   NSW = 0
   NELM = 150
   ENCUT = 500
   ISIF = 2
   IBRION = 2
   LREAL = Auto
   ALGO = Fast
   ICHARG = 11
   LORBIT = 10
   LCHARG = .F.
   LWAVE = .F.

 POTCAR:    PAW_PBE Au 04Oct2007
 POTCAR:    PAW_PBE Mn 06Sep2000
 POTCAR:    PAW_PBE O 08Apr2002
 POTCAR:    PAW_PBE H 15Jun2001
|           W    W    AA    RRRRR   N    N  II  N    N   GGGG   !!!           |
|           W    W   A  A   R    R  NN   N  II  NN   N  G    G  !!!           |
|           W    W  A    A  R    R  N N  N  II  N N  N  G       !!!           |
|           W WW W  AAAAAA  RRRRR   N  N N  II  N  N N  G  GGG   !            |
|           WW  WW  A    A  R   R   N   NN  II  N   NN  G    G                |
|           W    W  A    A  R    R  N    N  II  N    N   GGGG   !!!           |
|     For optimal performance we recommend to set                             |
|       NCORE = 2 up to number-of-cores-per-socket                            |
|     This setting can greatly improve the performance of VASP for DFT.       |
|     The default, NCORE=1 might be grossly inefficient on modern             |
|     multi-core architectures or massively parallel machines. Do your        |
|     Unfortunately you need to use the default for GW and RPA                |
|     calculations (for HF NCORE is supported but not extensively tested      |
|     yet).                                                                   |

 POTCAR:    PAW_PBE Au 04Oct2007
   VRHFIN =Au: s1d10

   TITEL  = PAW_PBE Au 04Oct2007
   POMASS =  196.966; ZVAL   =   11.000    mass and valenz
   ENMAX  =  229.943; ENMIN  =  172.457 eV

 POTCAR:    PAW_PBE Mn 06Sep2000
   VRHFIN =Mn: d6 s1

   TITEL  = PAW_PBE Mn 06Sep2000
   POMASS =   54.938; ZVAL   =    7.000    mass and valenz
   ENMAX  =  269.864; ENMIN  =  202.398 eV

 POTCAR:    PAW_PBE O 08Apr2002
   VRHFIN =O: s2p4

   TITEL  = PAW_PBE O 08Apr2002
   POMASS =   16.000; ZVAL   =    6.000    mass and valenz
   ENMAX  =  400.000; ENMIN  =  300.000 eV

 POTCAR:    PAW_PBE H 15Jun2001
   VRHFIN =H: ultrasoft test

   TITEL  = PAW_PBE H 15Jun2001
   POMASS =    1.000; ZVAL   =    1.000    mass and valenz
   ENMAX  =  250.000; ENMIN  =  200.000 eV

 Optimization of the real space projectors (new method)

 maximal supplied QI-value         = 15.12
 optimisation between [QCUT,QGAM] = [ 11.34, 22.83] = [ 36.00,145.93] Ry
 Optimized for a Real-space Cutoff    1.39 Angstroem

   l    n(q)    QCUT    max X(q) W(low)/X(q) W(high)/X(q)  e(spline)
   2      9    11.338    60.898    0.39E-03    0.42E-03    0.21E-06
   2      9    11.338    58.894    0.40E-03    0.42E-03    0.22E-06
   0      9    11.338   109.617    0.13E-03    0.20E-04    0.13E-06
   0      9    11.338    75.026    0.13E-03    0.20E-04    0.13E-06
   1      9    11.338    16.344    0.33E-04    0.24E-03    0.18E-06
   1      9    11.338    10.160    0.26E-04    0.19E-03    0.15E-06
 Optimization of the real space projectors (new method)

[...]

   l    n(q)    QCUT    max X(q) W(low)/X(q) W(high)/X(q)  e(spline)
   0      7    11.387    20.381    0.39E-03    0.13E-02    0.15E-06
   0      7    11.387    15.268    0.42E-03    0.14E-02    0.17E-06
   1      6    11.387     5.964    0.41E-03    0.11E-02    0.17E-06
   1      6    11.387     5.382    0.39E-03    0.87E-03    0.15E-06
 Optimization of the real space projectors (new method)

 maximal supplied QI-value         = 34.20
 optimisation between [QCUT,QGAM] = [ 11.29, 22.57] = [ 35.68,142.71] Ry
 Optimized for a Real-space Cutoff    1.16 Angstroem

   l    n(q)    QCUT    max X(q) W(low)/X(q) W(high)/X(q)  e(spline)
   0      8    11.287    19.460    0.40E-03    0.73E-03    0.16E-06
   0      8    11.287    12.209    0.38E-03    0.70E-03    0.15E-06
   1      7    11.287     4.655    0.22E-03    0.25E-04    0.22E-06
  PAW_PBE Au 04Oct2007                  :
  PAW_PBE Mn 06Sep2000                  :
  PAW_PBE O 08Apr2002                   :
  PAW_PBE H 15Jun2001                   :

 POSCAR: Au-Mn-OH
  positions in direct lattice
  velocities in cartesian coordinates
 exchange correlation table for  LEXCH =        8
   RHO(1)=    0.500       N(1)  =     2000
   RHO(2)=  100.500       N(2)  =     4000

 VTST: version 3.2, (02/03/18)

 CHAIN: initializing optimizer

 OPT: Using VASP Conjugate-Gradient optimizer
 CHAIN: Read ICHAIN            0

 POSCAR: Au-Mn-OH
  positions in direct lattice
  velocities in cartesian coordinates

 ion  position               nearest neighbor table
   1  0.000  0.000  0.238-  16 2.94  12 2.94   6 2.94   8 2.94   7 2.94   3 2.94  10 2.94   4 2.94
                             2 2.94
   2  0.333  0.000  0.238-   9 2.94  11 2.94  17 2.94  10 2.94   8 2.94   4 2.94   5 2.94   1 2.94
                             3 2.94
   3  0.667  0.000  0.238-   7 2.94  18 2.94  12 2.94   1 2.94  11 2.94   5 2.94   6 2.94   9 2.94
                             2 2.94
   4  0.000  0.333  0.238-  10 2.94   6 2.94   5 2.94  13 2.94   2 2.94  15 2.94   9 2.94   1 2.94
                             7 2.94
   5  0.333  0.333  0.238-  13 2.94   7 2.94  11 2.94   4 2.94   2 2.94  14 2.94   3 2.94   8 2.94
                             6 2.94
   6  0.667  0.333  0.238-  15 2.94  14 2.94   1 2.94  12 2.94   4 2.94   9 2.94   8 2.94   3 2.94
                             5 2.94
   7  0.000  0.667  0.238-  18 2.94   3 2.94  16 2.94   5 2.94   1 2.94  13 2.94   8 2.94   4 2.94
                             9 2.94
   8  0.333  0.667  0.238-   9 2.94  17 2.94   1 2.94   2 2.94  14 2.94  16 2.94   6 2.94   7 2.94
                             5 2.94
   9  0.667  0.667  0.238-   2 2.94   8 2.94  17 2.94   6 2.94  15 2.94   4 2.94   3 2.94  18 2.94
                             7 2.94
  10  0.111  0.111  0.346-  20 2.93  26 2.94  19 2.94  11 2.94  17 2.94   2 2.94   4 2.94   1 2.94
                            12 2.94  16 2.94  13 2.94  15 2.94
  11  0.444  0.111  0.346-  20 2.91  21 2.91  27 2.93  13 2.94   2 2.94  10 2.94  17 2.94   5 2.94
                             3 2.94  18 2.94  14 2.94  12 2.94
  12  0.778  0.111  0.346-  21 2.93  25 2.94  19 2.94  16 2.94  18 2.94   1 2.94  14 2.94  15 2.94
                             3 2.94   6 2.94  10 2.94  11 2.94
  13  0.111  0.444  0.346-  23 2.91  20 2.91  22 2.93   5 2.94  18 2.94  11 2.94   7 2.94   4 2.94
                            16 2.94  10 2.94  14 2.94  15 2.94
  14  0.444  0.444  0.346-  21 2.91  23 2.91  24 2.93  15 2.94   6 2.94  12 2.94   8 2.94  17 2.94
                             5 2.94  16 2.94  13 2.94  11 2.94
  15  0.778  0.444  0.346-  24 2.92  22 2.92  19 2.94  14 2.94   6 2.94  17 2.94  12 2.94   9 2.94
                             4 2.94  10 2.94  13 2.94  18 2.94
  16  0.111  0.778  0.346-  23 2.93  25 2.94  26 2.94  18 2.94  12 2.94   7 2.94   1 2.94   8 2.94
                            13 2.94  10 2.94  14 2.94  17 2.94
  17  0.444  0.778  0.346-  27 2.92  24 2.92  26 2.94   9 2.94  15 2.94   2 2.94  10 2.94  11 2.94
                             8 2.94  14 2.94  16 2.94  18 2.94
  18  0.778  0.778  0.346-  22 2.92  27 2.92  25 2.94  16 2.94   7 2.94  13 2.94  12 2.94   3 2.94
                            11 2.94   9 2.94  15 2.94  17 2.94
  19  0.889  0.222  0.454-  10 2.94  12 2.94  15 2.94  26 2.94  25 2.94  24 2.94  22 2.94  28 2.95
                            21 2.95  20 2.95  32 2.99  31 2.99
  20  0.223  0.223  0.453-  36 2.70  23 2.91  21 2.91  11 2.91  13 2.91  29 2.92  31 2.92  10 2.93
                            26 2.95  19 2.95  27 2.95  22 2.95
  21  0.553  0.223  0.453-  36 2.70  20 2.91  23 2.91  14 2.91  11 2.91  30 2.92  32 2.92  12 2.93
                            25 2.95  19 2.95  27 2.95  24 2.95
  22  0.886  0.557  0.453-  24 2.91  27 2.91  18 2.92  15 2.92  13 2.93  25 2.94  19 2.94  23 2.95
                            20 2.95  33 2.96  31 2.96  35 2.96
  23  0.223  0.553  0.453-  36 2.70  20 2.91  21 2.91  13 2.91  14 2.91  33 2.92  34 2.92  16 2.93
                            25 2.95  26 2.95  22 2.95  24 2.95
  24  0.557  0.557  0.453-  27 2.91  22 2.91  15 2.92  17 2.92  14 2.93  26 2.94  19 2.94  21 2.95
                            23 2.95  32 2.96  34 2.96  35 2.96
  25  0.889  0.889  0.454-  16 2.94  12 2.94  18 2.94  19 2.94  26 2.94  22 2.94  27 2.94  28 2.95
                            23 2.95  21 2.95  33 2.99  30 2.99
  26  0.222  0.889  0.454-  10 2.94  16 2.94  17 2.94  19 2.94  25 2.94  27 2.94  24 2.94  28 2.95
                            20 2.95  23 2.95  29 2.99  34 2.99
  27  0.557  0.886  0.453-  24 2.91  22 2.91  17 2.92  18 2.92  11 2.93  26 2.94  25 2.94  20 2.95
                            21 2.95  29 2.96  30 2.96  35 2.96
  28  0.000  0.000  0.563-  25 2.95  19 2.95  26 2.95  34 2.99  32 2.99  33 2.99  30 2.99  31 2.99
                            29 2.99
  29  0.334  0.010  0.562-  30 2.84  31 2.85  36 2.86  20 2.92  27 2.96  35 2.98  26 2.99  28 2.99
                            34 3.12
  30  0.656  0.010  0.562-  29 2.84  32 2.85  36 2.86  21 2.92  27 2.96  35 2.98  25 2.99  28 2.99
                            33 3.12
  31  0.010  0.334  0.562-  33 2.84  29 2.85  36 2.86  20 2.92  22 2.96  35 2.98  19 2.99  28 2.99
                            32 3.12
  32  0.656  0.334  0.562-  34 2.84  30 2.85  36 2.86  21 2.92  24 2.96  35 2.98  19 2.99  28 2.99
                            31 3.12
  33  0.010  0.656  0.562-  31 2.84  34 2.85  36 2.86  23 2.92  22 2.96  35 2.98  25 2.99  28 2.99
                            30 3.12
  34  0.334  0.656  0.562-  32 2.84  33 2.85  36 2.86  23 2.92  24 2.96  35 2.98  26 2.99  28 2.99
                            29 3.12
  35  0.667  0.667  0.563-  24 2.96  27 2.96  22 2.96  29 2.98  34 2.98  32 2.98  31 2.98  30 2.98
                            33 2.98
  36  0.333  0.333  0.548-  37 1.75  20 2.70  23 2.70  21 2.70  33 2.86  31 2.86  29 2.86  30 2.86
                            34 2.86  32 2.86
  37  0.333  0.333  0.627-  38 0.97  36 1.75
  38  0.333  0.333  0.670-  37 0.97

  LATTYP: Found a hexagonal cell.
 ALAT       =     8.8135128021
 C/A-ratio  =     2.5184286595

  Lattice vectors:

 A1 = (  -4.4067569092,  -7.6327256898,   0.0000000000)
 A2 = (   8.8135128021,   0.0000000000,   0.0000000000)
 A3 = (   0.0000000000,   0.0000000000,  22.1962032318)

Analysis of symmetry for initial positions (statically):
 Subroutine PRICEL returns:
 Original cell was already a primitive cell.

 Routine SETGRP: Setting up the symmetry group for a
 hexagonal supercell.

 Subroutine GETGRP returns: Found  6 space group operations
 (whereof  6 operations were pure point group operations)
 out of a pool of 24 trial point group operations.

The static configuration has the point symmetry C_3v.

Analysis of symmetry for dynamics (positions and initial velocities):
 Subroutine PRICEL returns:
 Original cell was already a primitive cell.

[...]

The dynamic configuration has the point symmetry C_3v.

Analysis of constrained symmetry for selective dynamics:
 Subroutine PRICEL returns:
 Original cell was already a primitive cell.

[...]
     33      -4.5565      2.00000
     34      -4.5474      2.00000
     35      -4.5345      2.00000
     36      -4.4711      2.00000
     37      -4.3860      2.00000
     38      -4.3714      2.00000
     39      -4.3478      2.00000
     40      -4.3392      2.00000
     41      -4.2819      2.00000
     42      -4.2100      2.00000
     43      -4.1823      2.00000
     44      -4.1521      2.00000
     45      -4.1089      2.00000
     46      -4.0986      2.00000
     47      -4.0811      2.00000
     48      -3.9877      2.00000
     49      -3.9719      2.00000
     50      -3.9391      2.00000
     51      -3.9210      2.00000
     52      -3.9118      2.00000
     53      -3.9035      2.00000
     54      -3.8877      2.00000
     55      -3.8664      2.00000
     56      -3.8353      2.00000
     57      -3.7947      2.00000
     58      -3.7802      2.00000
     59      -3.7626      2.00000
     60      -3.7476      2.00000
[...]
    238       6.4984      0.00000
    239       6.6153      0.00000
    240       6.6297      0.00000
    241       6.6670      0.00000
    242       6.7069      0.00000
    243       6.9616      0.00000
    244       6.9928      0.00000
    245       7.0143      0.00000
    246       7.0879      0.00000
    247       7.3481      0.00000
    248       7.3548      0.00000
    249       7.4368      0.00000
    250       7.5706      0.00000
    251       7.6713      0.00000
    252       7.6861      0.00000

 soft charge-density along one line, spin component           1
         0         1         2         3         4         5         6         7         8         9
 total charge-density along one line

------------------------ aborting loop because EDIFF is reached ----------------------------------------

 total charge

# of ion       s       p       d       tot
    1        0.547   0.238   8.767   9.552
    2        0.544   0.241   8.764   9.550
    3        0.544   0.241   8.764   9.550
    4        0.544   0.241   8.764   9.550
    5        0.544   0.242   8.762   9.548
    6        0.544   0.241   8.764   9.550
    7        0.544   0.241   8.764   9.550
    8        0.544   0.241   8.764   9.550
    9        0.542   0.241   8.766   9.548
   10        0.523   0.308   8.770   9.601
   11        0.520   0.310   8.777   9.606
   12        0.523   0.308   8.770   9.601
   13        0.520   0.310   8.777   9.606
   14        0.520   0.310   8.777   9.606
   15        0.515   0.310   8.775   9.600
   16        0.523   0.308   8.770   9.601
   17        0.515   0.310   8.775   9.600
   18        0.515   0.310   8.775   9.600
   19        0.516   0.299   8.777   9.592
   20        0.551   0.336   8.744   9.631
   21        0.551   0.336   8.744   9.631
   22        0.509   0.310   8.776   9.595
   23        0.551   0.336   8.744   9.631
   24        0.509   0.310   8.776   9.595
   25        0.516   0.299   8.777   9.592
   26        0.516   0.299   8.777   9.592
   27        0.509   0.310   8.776   9.595
   28        0.541   0.225   8.765   9.531
   29        0.550   0.238   8.765   9.553
   30        0.550   0.238   8.765   9.553
   31        0.550   0.238   8.765   9.553
   32        0.550   0.238   8.765   9.553
   33        0.550   0.238   8.765   9.553
   34        0.550   0.238   8.765   9.553
   35        0.535   0.225   8.766   9.526
   36        0.292   0.339   5.015   5.646
   37        1.557   3.511   0.000   5.068
   38        0.603   0.125   0.000   0.728
tot         21.132  13.637 311.868 346.637

  FORCE on cell =-STRESS in cart. coord.  units (eV):
  Direction    XX          YY          ZZ          XY          YZ          ZX
  Alpha Z  1018.26903  1018.26903  1018.26903
  Ewald  119086.20761119086.20805************    -0.00031    -0.00008    -0.00012
  Hartree127956.08220127956.08221************     0.00001    -0.00002    -0.00003
  E(xc)   -1793.20292 -1793.20292 -1798.98005     0.00000     0.00000     0.00001
  Local  ************************259363.15055     0.00205     0.00001    -0.00002
  n-local  -129.89597   -81.40285   -78.35640    23.23836    -1.42849     1.39852
  augment  2404.03021  2404.03173  2413.23326    -0.00131     0.00002     0.00004
  Kinetic  5561.19975  5573.61533  5577.49230     6.69899     0.11873     0.57518
  Fock        0.00000     0.00000     0.00000     0.00000     0.00000     0.00000
  Total     -21.33476   -21.33476     1.50255    -0.00000     0.00000     0.00000
  in kB     -22.89238   -22.89238     1.61225    -0.00000     0.00000     0.00000

 VOLUME and BASIS-vectors are now :
  energy-cutoff  :      500.00
  volume of cell :     1493.16
      direct lattice vectors                 reciprocal lattice vectors
     8.813512802  0.000000000  0.000000000     0.113462137 -0.065507406  0.000000000
     4.406756909  7.632725690  0.000000000     0.000000000  0.131014796  0.000000000
     0.000000000  0.000000000 22.196203232     0.000000000  0.000000000  0.045052750

  length of vectors
     8.813512802  8.813512802 22.196203232     0.131014796  0.131014796  0.045052750

 FORCES acting on ions
    electron-ion (+dipol)            ewald-force                    non-local-force                 convergence-correction
   -.194E-04 -.161E-04 0.249E+04   0.519E-04 0.434E-04 -.249E+04   -.958E-17 -.151E-17 -.874E+00   -.296E-03 -.184E-03 -.382E+00
   0.504E+00 0.201E+00 0.249E+04   -.639E+00 -.338E+00 -.249E+04   0.409E-01 0.104E+00 -.274E+00   0.847E-01 0.390E-01 -.407E+00
   -.504E+00 0.201E+00 0.249E+04   0.639E+00 -.338E+00 -.249E+04   -.409E-01 0.104E+00 -.274E+00   -.843E-01 0.410E-01 -.406E+00
   0.426E+00 0.336E+00 0.249E+04   -.612E+00 -.384E+00 -.249E+04   0.111E+00 -.168E-01 -.274E+00   0.762E-01 0.538E-01 -.407E+00
   0.952E-05 -.228E-04 0.249E+04   0.951E-04 0.174E-05 -.249E+04   -.245E-17 0.373E-18 -.186E+00   0.432E-02 0.263E-02 -.410E+00
   -.426E+00 0.336E+00 0.249E+04   0.612E+00 -.384E+00 -.249E+04   -.111E+00 -.168E-01 -.274E+00   -.778E-01 0.546E-01 -.406E+00
   -.783E-01 -.537E+00 0.249E+04   0.265E-01 0.722E+00 -.249E+04   0.700E-01 -.876E-01 -.274E+00   -.663E-02 -.935E-01 -.406E+00
   0.783E-01 -.537E+00 0.249E+04   -.266E-01 0.722E+00 -.249E+04   -.700E-01 -.876E-01 -.274E+00   0.845E-02 -.947E-01 -.406E+00
   0.194E-04 -.416E-04 0.249E+04   0.166E-03 -.201E-04 -.249E+04   0.192E-17 0.183E-17 -.508E+00   -.456E-02 -.236E-02 -.333E+00
   0.477E+01 0.275E+01 0.843E+03   -.443E+01 -.255E+01 -.842E+03   -.365E+00 -.210E+00 -.646E+00   0.660E-01 0.380E-01 -.442E-01
   0.149E-04 0.526E+01 0.851E+03   0.147E-03 -.532E+01 -.851E+03   0.357E-08 0.536E-01 -.274E+00   0.436E-02 -.385E-01 0.543E-01
   -.477E+01 0.275E+01 0.843E+03   0.443E+01 -.255E+01 -.842E+03   0.365E+00 -.210E+00 -.646E+00   -.678E-01 0.392E-01 -.435E-01
   0.455E+01 -.263E+01 0.851E+03   -.461E+01 0.266E+01 -.851E+03   0.464E-01 -.268E-01 -.274E+00   -.308E-01 0.233E-01 0.543E-01
   -.455E+01 -.263E+01 0.851E+03   0.461E+01 0.266E+01 -.851E+03   -.464E-01 -.268E-01 -.274E+00   0.386E-01 0.221E-01 0.537E-01
   0.310E-04 0.375E+01 0.847E+03   0.236E-03 -.387E+01 -.846E+03   -.185E-09 -.278E-02 -.526E+00   -.249E-02 0.801E-01 -.461E-01
   -.215E-04 -.550E+01 0.843E+03   0.163E-03 0.511E+01 -.842E+03   0.280E-07 0.421E+00 -.646E+00   -.178E-03 -.784E-01 -.435E-01
   0.325E+01 -.188E+01 0.847E+03   -.335E+01 0.194E+01 -.846E+03   -.241E-02 0.139E-02 -.526E+00   0.684E-01 -.418E-01 -.461E-01
   -.325E+01 -.188E+01 0.847E+03   0.335E+01 0.194E+01 -.846E+03   0.241E-02 0.139E-02 -.526E+00   -.678E-01 -.394E-01 -.448E-01
   -.410E-04 0.190E+01 -.835E+03   0.542E-04 -.230E+01 0.834E+03   0.802E-08 0.121E+00 0.683E+00   -.464E-02 0.229E+00 0.459E+00
   0.221E+02 0.128E+02 -.793E+03   -.214E+02 -.123E+02 0.793E+03   -.108E+01 -.624E+00 -.961E+00   0.355E+00 0.205E+00 0.823E+00
   -.221E+02 0.128E+02 -.793E+03   0.214E+02 -.123E+02 0.793E+03   0.108E+01 -.624E+00 -.961E+00   -.352E+00 0.204E+00 0.823E+00
   0.304E+01 -.176E+01 -.819E+03   -.344E+01 0.199E+01 0.818E+03   0.382E+00 -.220E+00 0.620E+00   0.649E-01 -.356E-01 0.498E+00
   -.917E-05 -.255E+02 -.793E+03   0.141E-03 0.247E+02 0.793E+03   0.830E-07 0.125E+01 -.961E+00   0.443E-03 -.407E+00 0.823E+00
   -.304E+01 -.176E+01 -.819E+03   0.344E+01 0.199E+01 0.818E+03   -.382E+00 -.220E+00 0.620E+00   -.649E-01 -.374E-01 0.498E+00
   -.165E+01 -.952E+00 -.835E+03   0.199E+01 0.115E+01 0.834E+03   -.104E+00 -.603E-01 0.683E+00   -.203E+00 -.117E+00 0.458E+00
   0.165E+01 -.952E+00 -.835E+03   -.199E+01 0.115E+01 0.834E+03   0.104E+00 -.603E-01 0.683E+00   0.196E+00 -.119E+00 0.459E+00
   0.119E-04 0.352E+01 -.819E+03   0.196E-03 -.397E+01 0.818E+03   0.293E-07 0.441E+00 0.620E+00   0.106E-02 0.740E-01 0.498E+00
   -.131E-04 -.136E-04 -.246E+04   0.301E-04 0.345E-04 0.246E+04   -.629E-17 -.121E-17 0.407E+00   -.378E-03 -.236E-03 0.658E+00
   0.349E+02 0.572E+02 -.243E+04   -.349E+02 -.573E+02 0.243E+04   -.514E+00 -.628E+00 0.522E+00   0.311E+00 0.441E+00 0.582E+00
   -.349E+02 0.572E+02 -.243E+04   0.349E+02 -.573E+02 0.243E+04   0.514E+00 -.628E+00 0.522E+00   -.311E+00 0.443E+00 0.581E+00
   0.669E+02 0.164E+01 -.243E+04   -.671E+02 -.153E+01 0.243E+04   -.800E+00 -.131E+00 0.522E+00   0.538E+00 0.491E-01 0.582E+00
   -.669E+02 0.164E+01 -.243E+04   0.671E+02 -.153E+01 0.243E+04   0.800E+00 -.131E+00 0.522E+00   -.539E+00 0.495E-01 0.581E+00
   0.321E+02 -.588E+02 -.243E+04   -.322E+02 0.589E+02 0.243E+04   -.287E+00 0.759E+00 0.522E+00   0.228E+00 -.490E+00 0.581E+00
   -.321E+02 -.588E+02 -.243E+04   0.322E+02 0.589E+02 0.243E+04   0.287E+00 0.759E+00 0.522E+00   -.227E+00 -.492E+00 0.581E+00
   0.350E-04 -.282E-04 -.246E+04   0.141E-03 -.499E-04 0.246E+04   0.357E-17 0.692E-17 0.529E+00   -.428E-02 -.218E-02 0.484E+00
   -.303E-04 -.148E-04 -.130E+04   0.740E-04 0.688E-05 0.130E+04   -.307E-17 -.438E-17 -.542E-02   0.324E-02 0.197E-02 0.680E+00
   0.198E-03 -.922E-04 -.158E+04   0.250E-04 0.163E-05 0.156E+04   0.334E-17 -.137E-17 0.201E+02   0.378E-02 0.231E-02 -.417E+00
   0.777E-05 -.131E-04 -.318E+03   0.138E-05 0.122E-06 0.327E+03   0.890E-19 -.320E-19 -.848E+01   0.207E-03 0.126E-03 -.145E+00
   -.576E-03 -.881E-03 -.152E+02   0.659E-14 0.196E-12 0.512E-12   0.393E-17 -.554E-15 0.911E+01   0.455E-02 0.339E-02 0.642E+01

 POSITION                                       TOTAL-FORCE (eV/Angst)
      0.00000      0.00000      5.28038         0.000000      0.000000     -0.131874
      2.93784      0.00000      5.28038        -0.008593      0.007071     -0.057195
      5.87568      0.00000      5.28038         0.008593      0.007071     -0.057195
      1.46892      2.54424      5.28038         0.001827     -0.010977     -0.057195
      4.40676      2.54424      5.28038         0.000000      0.000000     -0.076189
      7.34459      2.54424      5.28038        -0.001827     -0.010977     -0.057195
      2.93784      5.08848      5.28038         0.010420      0.003906     -0.057195
      5.87568      5.08848      5.28038        -0.010420      0.003906     -0.057195
      8.81351      5.08848      5.28038         0.000000      0.000000     -0.088187
      1.46892      0.84808      7.67911         0.042881      0.024758      0.148269
      4.40676      0.84808      7.67911        -0.000000     -0.048972      0.036225
      7.34459      0.84808      7.67911        -0.042881      0.024758      0.148269
      2.93784      3.39232      7.67911        -0.042411      0.024486      0.036225
      5.87568      3.39232      7.67911         0.042411      0.024486      0.036225
      8.81351      3.39232      7.67911        -0.000000     -0.040148      0.103786
      4.40676      5.93656      7.67911        -0.000000     -0.049515      0.148269
      7.34459      5.93656      7.67911        -0.034769      0.020074      0.103786
     10.28243      5.93656      7.67911         0.034769      0.020074      0.103786
      8.81351      1.69603     10.07479        -0.000000     -0.043931     -0.013519
      2.95306      1.70495     10.04990         0.001112      0.000642     -0.017583
      5.86045      1.70495     10.04990        -0.001112      0.000642     -0.017583
     10.26640      4.24966     10.05812         0.050601     -0.029214     -0.002331
      4.40676      4.22282     10.04990        -0.000000     -0.001284     -0.017583
      7.36062      4.24966     10.05812        -0.050601     -0.029214     -0.002331
     11.75147      6.78471     10.07479         0.038045      0.021965     -0.013519
      5.87556      6.78471     10.07479        -0.038045      0.021965     -0.013519
      8.81351      6.76613     10.05812         0.000000      0.058429     -0.002331
      0.00000      0.00000     12.48774         0.000000      0.000000     -0.015591
      2.98478      0.07843     12.47445        -0.184295     -0.372307     -0.205597
      5.82873      0.07843     12.47445         0.184295     -0.372307     -0.205597
      1.56032      2.54568     12.47445        -0.414575      0.026549     -0.205597
      7.25320      2.54568     12.47445         0.414575      0.026549     -0.205597
      2.98229      5.00861     12.47445        -0.230280      0.345757     -0.205597
      5.83122      5.00861     12.47445         0.230280      0.345757     -0.205597
      8.81351      5.08848     12.49541         0.000000      0.000000      0.046936
      4.40676      2.54424     12.16834         0.000000      0.000000      1.216009
      4.40676      2.54424     13.91526         0.000000      0.000000     -0.209926
      4.40676      2.54424     14.88194         0.000000      0.000000      0.071038
    total drift:                                0.003977      0.002508      0.347625

  FREE ENERGIE OF THE ION-ELECTRON SYSTEM (eV)
  free  energy   TOTEN  =      -124.02497091 eV

  energy  without entropy=     -124.02497091  energy(sigma->0) =     -124.02497091

 stress matrix after NEB project (eV)
    -21.33476     -0.00000      0.00000
     -0.00000    -21.33476      0.00000
      0.00000      0.00000      1.50255
  FORCES: max atom, RMS     0.209926    0.035951
  FORCE total and by dimension    0.221619    0.209926
  Stress total and by dimension   30.209295   21.334759
|           W    W    AA    RRRRR   N    N  II  N    N   GGGG   !!!           |
|           W    W   A  A   R    R  NN   N  II  NN   N  G    G  !!!           |
|           W    W  A    A  R    R  N N  N  II  N N  N  G       !!!           |
|           W WW W  AAAAAA  RRRRR   N  N N  II  N  N N  G  GGG   !            |
|           WW  WW  A    A  R   R   N   NN  II  N   NN  G    G                |
|           W    W  A    A  R    R  N    N  II  N    N   GGGG   !!!           |
|     Tetrahedron method does not include variations of the Fermi             |
|     occupations, so forces and stress will be inaccurate. We suggest        |
|     using a different smearing scheme ISMEAR = 1 or 2 for metals in         |
|     relaxations.                                                            |

 total charge

# of ion       s       p       d       tot
    1        0.547   0.238   8.767   9.552
    2        0.544   0.241   8.764   9.550
    3        0.544   0.241   8.764   9.550
    4        0.544   0.241   8.764   9.550
    5        0.544   0.242   8.762   9.548
    6        0.544   0.241   8.764   9.550
    7        0.544   0.241   8.764   9.550
    8        0.544   0.241   8.764   9.550
    9        0.542   0.241   8.766   9.548
   10        0.523   0.308   8.770   9.601
   11        0.520   0.310   8.777   9.606
   12        0.523   0.308   8.770   9.601
   13        0.520   0.310   8.777   9.606
   14        0.520   0.310   8.777   9.606
   15        0.515   0.310   8.775   9.600
   16        0.523   0.308   8.770   9.601
   17        0.515   0.310   8.775   9.600
   18        0.515   0.310   8.775   9.600
   19        0.516   0.299   8.777   9.592
   20        0.551   0.336   8.744   9.631
   21        0.551   0.336   8.744   9.631
   22        0.509   0.310   8.776   9.595
   23        0.551   0.336   8.744   9.631
   24        0.509   0.310   8.776   9.595
   25        0.516   0.299   8.777   9.592
   26        0.516   0.299   8.777   9.592
   27        0.509   0.310   8.776   9.595
   28        0.541   0.225   8.765   9.531
   29        0.550   0.238   8.765   9.553
   30        0.550   0.238   8.765   9.553
   31        0.550   0.238   8.765   9.553
   32        0.550   0.238   8.765   9.553
   33        0.550   0.238   8.765   9.553
   34        0.550   0.238   8.765   9.553
   35        0.535   0.225   8.766   9.526
   36        0.292   0.339   5.015   5.646
   37        1.557   3.511   0.000   5.068
   38        0.603   0.125   0.000   0.728
tot         21.132  13.637 311.868 346.637

 BZINTS: Fermi energy:    0.889564;  399.000000 electrons
         Band energy:-0.116439E+04;  BLOECHL correction:   -0.034639