 vasp.6.2.0 18Jan21 (build Jun 12 2021 23:27:24) complex

 executed on             LinuxIFC date 2022.05.28  01:28:40

 INCAR:
   ISMEAR = -5
   SIGMA = 0.1
   ISPIN = 1
   EDIFF = 1.d-5
   EDIFFG = -0.01
   NSW = 0
   NELM = 150
   ENCUT = 500
   ISIF = 2
   IBRION = 2
   LREAL = Auto
   ALGO = Fast
   ICHARG = 11
   LORBIT = 10
   LCHARG = .F.
   LWAVE = .F.

 POTCAR:    PAW_PBE Ag 02Apr2005
 POTCAR:    PAW_PBE Cr 06Sep2000
 POTCAR:    PAW_PBE O 08Apr2002
 POTCAR:    PAW_PBE H 15Jun2001
|           W    W    AA    RRRRR   N    N  II  N    N   GGGG   !!!           |
|           W    W   A  A   R    R  NN   N  II  NN   N  G    G  !!!           |
|           W    W  A    A  R    R  N N  N  II  N N  N  G       !!!           |
|           W WW W  AAAAAA  RRRRR   N  N N  II  N  N N  G  GGG   !            |
|           WW  WW  A    A  R   R   N   NN  II  N   NN  G    G                |
|           W    W  A    A  R    R  N    N  II  N    N   GGGG   !!!           |
|     For optimal performance we recommend to set                             |
|       NCORE = 2 up to number-of-cores-per-socket                            |
|     This setting can greatly improve the performance of VASP for DFT.       |
|     The default, NCORE=1 might be grossly inefficient on modern             |
|     multi-core architectures or massively parallel machines. Do your        |
|     Unfortunately you need to use the default for GW and RPA                |
|     calculations (for HF NCORE is supported but not extensively tested      |
|     yet).                                                                   |

 POTCAR:    PAW_PBE Ag 02Apr2005
   VRHFIN =Ag : s1 d10

   TITEL  = PAW_PBE Ag 02Apr2005
   POMASS =  107.868; ZVAL   =   11.000    mass and valenz
   ENMAX  =  249.844; ENMIN  =  187.383 eV

 POTCAR:    PAW_PBE Cr 06Sep2000
   VRHFIN =Cr : d5 s1

   TITEL  = PAW_PBE Cr 06Sep2000
   POMASS =   51.996; ZVAL   =    6.000    mass and valenz
   ENMAX  =  227.080; ENMIN  =  170.310 eV

 POTCAR:    PAW_PBE O 08Apr2002
   VRHFIN =O: s2p4

   TITEL  = PAW_PBE O 08Apr2002
   POMASS =   16.000; ZVAL   =    6.000    mass and valenz
   ENMAX  =  400.000; ENMIN  =  300.000 eV

 POTCAR:    PAW_PBE H 15Jun2001
   VRHFIN =H: ultrasoft test

   TITEL  = PAW_PBE H 15Jun2001
   POMASS =    1.000; ZVAL   =    1.000    mass and valenz
   ENMAX  =  250.000; ENMIN  =  200.000 eV

 Optimization of the real space projectors (new method)

 maximal supplied QI-value         = 15.12
 optimisation between [QCUT,QGAM] = [ 11.34, 22.83] = [ 36.00,145.93] Ry
 Optimized for a Real-space Cutoff    1.43 Angstroem

   l    n(q)    QCUT    max X(q) W(low)/X(q) W(high)/X(q)  e(spline)
   2      9    11.338    53.897    0.16E-03    0.20E-03    0.28E-06
   2      9    11.338    52.416    0.16E-03    0.20E-03    0.29E-06
   0     10    11.338   122.045    0.31E-04    0.76E-04    0.15E-06
   0     10    11.338    73.629    0.30E-04    0.72E-04    0.15E-06
   1      9    11.338    15.255    0.20E-03    0.19E-04    0.17E-06
   1      9    11.338     9.562    0.16E-03    0.15E-04    0.14E-06
 Optimization of the real space projectors (new method)

[...]

   l    n(q)    QCUT    max X(q) W(low)/X(q) W(high)/X(q)  e(spline)
   0      7    11.387    20.381    0.39E-03    0.13E-02    0.15E-06
   0      7    11.387    15.268    0.42E-03    0.14E-02    0.17E-06
   1      6    11.387     5.964    0.41E-03    0.11E-02    0.17E-06
   1      6    11.387     5.382    0.39E-03    0.87E-03    0.15E-06
 Optimization of the real space projectors (new method)

 maximal supplied QI-value         = 34.20
 optimisation between [QCUT,QGAM] = [ 11.29, 22.57] = [ 35.68,142.71] Ry
 Optimized for a Real-space Cutoff    1.16 Angstroem

   l    n(q)    QCUT    max X(q) W(low)/X(q) W(high)/X(q)  e(spline)
   0      8    11.287    19.460    0.40E-03    0.73E-03    0.16E-06
   0      8    11.287    12.209    0.38E-03    0.70E-03    0.15E-06
   1      7    11.287     4.655    0.22E-03    0.25E-04    0.22E-06
  PAW_PBE Ag 02Apr2005                  :
  PAW_PBE Cr 06Sep2000                  :
  PAW_PBE O 08Apr2002                   :
  PAW_PBE H 15Jun2001                   :

 POSCAR: Ag-Cr-OOH
  positions in direct lattice
  velocities in cartesian coordinates
 exchange correlation table for  LEXCH =        8
   RHO(1)=    0.500       N(1)  =     2000
   RHO(2)=  100.500       N(2)  =     4000

 VTST: version 3.2, (02/03/18)

 CHAIN: initializing optimizer

 OPT: Using VASP Conjugate-Gradient optimizer
 CHAIN: Read ICHAIN            0

 POSCAR: Ag-Cr-OOH
  positions in direct lattice
  velocities in cartesian coordinates

 ion  position               nearest neighbor table
   1  0.000  0.000  0.204-   2 2.93   8 2.93   7 2.93   6 2.93   4 2.93  12 2.93  16 2.93  10 2.93
                             3 2.93
   2  0.333  0.000  0.204-   1 2.93   8 2.93   9 2.93   3 2.93   4 2.93   5 2.93  10 2.93  17 2.93
                            11 2.93
   3  0.667  0.000  0.204-   9 2.93   2 2.93   5 2.93  11 2.93   7 2.93  18 2.93   1 2.93   6 2.93
                            12 2.93
   4  0.000  0.333  0.204-   5 2.93   6 2.93   2 2.93   1 2.93   7 2.93  13 2.93  15 2.93   9 2.93
                            10 2.93
   5  0.333  0.333  0.204-   4 2.93   3 2.93   7 2.93   2 2.93   8 2.93  14 2.93  13 2.93  11 2.93
                             6 2.93
   6  0.667  0.333  0.204-   4 2.93   9 2.93   1 2.93  15 2.93   8 2.93  12 2.93   3 2.93   5 2.93
                            14 2.93
   7  0.000  0.667  0.204-   8 2.93   1 2.93   5 2.93   3 2.93   4 2.93  16 2.93  18 2.93  13 2.93
                             9 2.93
   8  0.333  0.667  0.204-   7 2.93   1 2.93   2 2.93   9 2.93   5 2.93  16 2.93   6 2.93  17 2.93
                            14 2.93
   9  0.667  0.667  0.204-   3 2.93   2 2.93   8 2.93   6 2.93  17 2.93   4 2.93  15 2.93   7 2.93
                            18 2.93
  10  0.111  0.111  0.296-  20 2.91  19 2.92  26 2.92  12 2.93  16 2.93  15 2.93  17 2.93  13 2.93
                            11 2.93   2 2.93   1 2.93   4 2.93
  11  0.444  0.111  0.296-  21 2.90  20 2.90  27 2.92  14 2.93  17 2.93  18 2.93   3 2.93  12 2.93
                            13 2.93  10 2.93   5 2.93   2 2.93
  12  0.778  0.111  0.296-  21 2.91  25 2.92  19 2.92  10 2.93  16 2.93  18 2.93  15 2.93  11 2.93
                             1 2.93  14 2.93   6 2.93   3 2.93
  13  0.111  0.444  0.296-  20 2.90  23 2.90  22 2.92  15 2.93  14 2.93  18 2.93  10 2.93  11 2.93
                            16 2.93   4 2.93   5 2.93   7 2.93
  14  0.444  0.444  0.296-  23 2.90  21 2.90  24 2.92  13 2.93  11 2.93  16 2.93   5 2.93  12 2.93
                            17 2.93   8 2.93  15 2.93   6 2.93
  15  0.778  0.444  0.296-  24 2.92  22 2.92  19 2.92  13 2.93  10 2.93  12 2.93  17 2.93  18 2.93
                             4 2.93   6 2.93   9 2.93  14 2.93
  16  0.111  0.778  0.296-  23 2.91  26 2.92  25 2.92  18 2.93  12 2.93  10 2.93  14 2.93  17 2.93
                            13 2.93   7 2.93   8 2.93   1 2.93
  17  0.444  0.778  0.296-  27 2.92  24 2.92  26 2.92  11 2.93  10 2.93   9 2.93  18 2.93  15 2.93
                            16 2.93   2 2.93  14 2.93   8 2.93
  18  0.778  0.778  0.296-  22 2.92  27 2.92  25 2.92  16 2.93  12 2.93  13 2.93  11 2.93  17 2.93
                            15 2.93   7 2.93   3 2.93   9 2.93
  19  0.889  0.222  0.388-  28 2.91  15 2.92  10 2.92  12 2.92  24 2.93  22 2.93  26 2.93  25 2.93
                            20 2.94  21 2.94  32 2.96  31 2.96
  20  0.223  0.223  0.387-  36 2.73  13 2.90  11 2.90  21 2.91  23 2.91  10 2.91  31 2.91  29 2.91
                            27 2.93  22 2.93  19 2.94  26 2.94
  21  0.554  0.223  0.387-  36 2.73  11 2.90  14 2.90  20 2.91  23 2.91  12 2.91  30 2.91  32 2.91
                            27 2.93  24 2.93  25 2.94  19 2.94
  22  0.888  0.556  0.388-  35 2.91  18 2.92  15 2.92  13 2.92  24 2.92  27 2.92  25 2.93  19 2.93
                            33 2.93  31 2.93  23 2.93  20 2.93
  23  0.223  0.554  0.387-  36 2.73  14 2.90  13 2.90  21 2.91  20 2.91  16 2.91  34 2.91  33 2.91
                            22 2.93  24 2.93  26 2.94  25 2.94
  24  0.556  0.556  0.388-  35 2.91  15 2.92  17 2.92  14 2.92  27 2.92  22 2.92  19 2.93  26 2.93
                            32 2.93  34 2.93  23 2.93  21 2.93
  25  0.889  0.889  0.388-  28 2.91  18 2.92  16 2.92  12 2.92  22 2.93  27 2.93  26 2.93  19 2.93
                            23 2.94  21 2.94  33 2.96  30 2.96
  26  0.222  0.889  0.388-  28 2.91  17 2.92  16 2.92  10 2.92  27 2.93  24 2.93  25 2.93  19 2.93
                            23 2.94  20 2.94  34 2.96  29 2.96
  27  0.556  0.888  0.388-  35 2.91  17 2.92  18 2.92  11 2.92  24 2.92  22 2.92  26 2.93  25 2.93
                            29 2.93  30 2.93  20 2.93  21 2.93
  28  0.000  0.000  0.480-  26 2.91  25 2.91  19 2.91  29 2.96  34 2.96  33 2.96  32 2.96  31 2.96
                            30 2.96
  29  0.333  0.007  0.480-  38 2.26  30 2.87  31 2.87  36 2.88  20 2.91  27 2.93  26 2.96  35 2.96
                            28 2.96  34 3.06
  30  0.659  0.007  0.480-  29 2.87  32 2.87  36 2.88  21 2.91  27 2.93  25 2.96  35 2.96  28 2.96
                            33 3.06
  31  0.007  0.333  0.480-  38 2.25  33 2.87  29 2.87  36 2.88  20 2.91  22 2.93  19 2.96  35 2.96
                            28 2.96  32 3.06
  32  0.659  0.333  0.480-  37 2.22  34 2.87  30 2.87  36 2.88  21 2.91  24 2.93  19 2.96  35 2.96
                            28 2.96  31 3.06
  33  0.007  0.659  0.480-  31 2.87  34 2.87  36 2.88  23 2.91  22 2.93  25 2.96  35 2.96  28 2.96
                            30 3.06
  34  0.333  0.659  0.480-  37 2.23  32 2.87  33 2.87  36 2.88  23 2.91  24 2.93  26 2.96  35 2.96
                            28 2.96  29 3.06
  35  0.667  0.667  0.480-  24 2.91  27 2.91  22 2.91  30 2.96  32 2.96  29 2.96  34 2.96  31 2.96
                            33 2.96
  36  0.333  0.333  0.470-  37 1.70  38 2.01  21 2.73  20 2.73  23 2.73  31 2.88  33 2.88  30 2.88
                            29 2.88  34 2.88  32 2.88
  37  0.408  0.406  0.520-  36 1.70  32 2.22  34 2.23
  38  0.248  0.249  0.530-  39 0.98  36 2.01  31 2.25  29 2.26
  39  0.281  0.285  0.561-  38 0.98

  LATTYP: Found a hexagonal cell.
 ALAT       =     8.7913665772
 C/A-ratio  =     2.9469639759

  Lattice vectors:

 A1 = (  -4.3956832886,  -7.6135467898,   0.0000000000)
 A2 = (   8.7913665771,   0.0000000000,   0.0000000000)
 A3 = (   0.0000000000,   0.0000000000,  25.9078406020)

Analysis of symmetry for initial positions (statically):
 Subroutine PRICEL returns:
 Original cell was already a primitive cell.

 Routine SETGRP: Setting up the symmetry group for a
 hexagonal supercell.

 Subroutine GETGRP returns: Found  1 space group operations
 (whereof  1 operations were pure point group operations)
 out of a pool of 24 trial point group operations.

The static configuration has the point symmetry C_1 .

Analysis of symmetry for dynamics (positions and initial velocities):
 Subroutine PRICEL returns:
 Original cell was already a primitive cell.

[...]

The dynamic configuration has the point symmetry C_1 .

[...]
     41      -5.0292      2.00000
     42      -5.0083      2.00000
     43      -4.9739      2.00000
     44      -4.9620      2.00000
     45      -4.9463      2.00000
     46      -4.9382      2.00000
     47      -4.9216      2.00000
     48      -4.8827      2.00000
     49      -4.8580      2.00000
     50      -4.8242      2.00000
     51      -4.8100      2.00000
     52      -4.7989      2.00000
     53      -4.7965      2.00000
     54      -4.7827      2.00000
     55      -4.7735      2.00000
     56      -4.7655      2.00000
     57      -4.7530      2.00000
     58      -4.7360      2.00000
     59      -4.6952      2.00000
     60      -4.6763      2.00000
[...]
    238       5.2508      0.00000
    239       5.3087      0.00000
    240       5.4456      0.00000
    241       5.6952      0.00000
    242       5.7551      0.00000
    243       5.7976      0.00000
    244       5.8655      0.00000
    245       5.9257      0.00000
    246       5.9643      0.00000
    247       6.1516      0.00000
    248       6.2225      0.00000
    249       6.2436      0.00000
    250       6.4843      0.00000
    251       6.5566      0.00000
    252       6.6435      0.00000

 soft charge-density along one line, spin component           1
         0         1         2         3         4         5         6         7         8         9
 total charge-density along one line

------------------------ aborting loop because EDIFF is reached ----------------------------------------

 total charge

# of ion       s       p       d       tot
    1        0.419   0.200   9.177   9.797
    2        0.415   0.204   9.176   9.795
    3        0.415   0.204   9.177   9.796
    4        0.415   0.204   9.176   9.795
    5        0.417   0.203   9.175   9.795
    6        0.418   0.202   9.177   9.797
    7        0.415   0.204   9.177   9.796
    8        0.418   0.202   9.177   9.797
    9        0.414   0.203   9.177   9.794
   10        0.410   0.266   9.164   9.840
   11        0.406   0.269   9.166   9.842
   12        0.407   0.270   9.161   9.838
   13        0.406   0.269   9.166   9.842
   14        0.404   0.269   9.167   9.841
   15        0.404   0.268   9.165   9.837
   16        0.407   0.270   9.161   9.838
   17        0.404   0.268   9.165   9.837
   18        0.400   0.271   9.164   9.835
   19        0.396   0.273   9.161   9.829
   20        0.440   0.296   9.140   9.875
   21        0.431   0.305   9.138   9.874
   22        0.395   0.275   9.165   9.835
   23        0.431   0.305   9.138   9.873
   24        0.402   0.270   9.167   9.839
   25        0.403   0.264   9.168   9.835
   26        0.396   0.273   9.161   9.829
   27        0.395   0.275   9.165   9.835
   28        0.416   0.193   9.183   9.793
   29        0.382   0.242   9.183   9.807
   30        0.408   0.207   9.187   9.802
   31        0.382   0.244   9.182   9.808
   32        0.385   0.250   9.177   9.812
   33        0.408   0.207   9.187   9.802
   34        0.384   0.248   9.178   9.811
   35        0.416   0.194   9.181   9.791
   36        0.460   0.615   4.464   5.539
   37        1.598   3.327   0.000   4.925
   38        1.563   3.520   0.000   5.082
   39        0.609   0.119   0.000   0.727
tot         18.493  16.149 325.394 360.036

  FORCE on cell =-STRESS in cart. coord.  units (eV):
  Direction    XX          YY          ZZ          XY          YZ          ZX
  Alpha Z   657.92279   657.92279   657.92279
  Ewald  179382.59629179276.25255************    87.92912    28.13375    47.32177
  Hartree189327.33093189269.59015************    47.55893     2.66666     4.35138
  E(xc)   -2118.21536 -2118.55342 -2123.53209     0.27644     0.06329     0.10683
  Local  ************************379922.31713  -127.49163   -23.59549   -39.59297
  n-local  -376.39811  -376.55706  -380.47837     0.11077     0.76401     1.37753
  augment  3260.99340  3263.01604  3269.35106    -1.67239    -1.13894    -2.02384
  Kinetic  5089.54266  5097.41562  5101.39780    -6.80861    -6.71962   -11.26094
  Fock        0.00000     0.00000     0.00000     0.00000     0.00000     0.00000
  Total      -2.61699    -2.56227    -0.22498    -0.09737     0.17365     0.27977
  in kB      -2.41790    -2.36734    -0.20787    -0.08996     0.16044     0.25849

 VOLUME and BASIS-vectors are now :
  energy-cutoff  :      500.00
  volume of cell :     1734.10
      direct lattice vectors                 reciprocal lattice vectors
     8.791366577  0.000000000  0.000000000     0.113747958 -0.065672414  0.000000000
     4.395683289  7.613546790  0.000000000     0.000000000  0.131344829  0.000000000
     0.000000000  0.000000000 25.907840602     0.000000000  0.000000000  0.038598354

  length of vectors
     8.791366577  8.791366577 25.907840602     0.131344829  0.131344829  0.038598354

 FORCES acting on ions
    electron-ion (+dipol)            ewald-force                    non-local-force                 convergence-correction
   0.758E-01 0.453E-01 0.282E+04   -.898E-01 -.531E-01 -.281E+04   -.424E-01 -.261E-01 -.199E+01   0.504E-01 0.304E-01 -.165E+00
   0.309E+00 0.291E+00 0.282E+04   -.300E+00 -.432E+00 -.281E+04   0.196E-01 0.117E+00 -.161E+01   -.257E-01 0.298E-01 -.188E+00
   -.343E+00 0.531E+00 0.282E+04   0.390E+00 -.492E+00 -.281E+04   -.637E-02 0.244E-01 -.163E+01   -.427E-01 -.483E-01 -.189E+00
   0.406E+00 0.126E+00 0.282E+04   -.523E+00 -.450E-01 -.281E+04   0.110E+00 -.429E-01 -.161E+01   0.125E-01 -.382E-01 -.187E+00
   -.147E+00 -.849E-01 0.282E+04   -.114E-01 -.684E-02 -.282E+04   0.139E+00 0.792E-01 -.143E+01   0.166E-01 0.113E-01 -.193E+00
   -.379E+00 0.384E-01 0.282E+04   0.534E+00 -.158E+00 -.281E+04   -.152E+00 0.268E-01 -.158E+01   0.148E-02 0.764E-01 -.218E+00
   0.286E+00 -.565E+00 0.282E+04   -.230E+00 0.585E+00 -.281E+04   0.174E-01 -.163E-01 -.163E+01   -.620E-01 -.128E-01 -.190E+00
   -.157E+00 -.348E+00 0.282E+04   0.131E+00 0.543E+00 -.281E+04   -.515E-01 -.145E+00 -.158E+01   0.661E-01 -.393E-01 -.220E+00
   -.350E-01 -.256E-01 0.282E+04   0.996E-01 0.589E-01 -.281E+04   -.509E-01 -.274E-01 -.186E+01   -.203E-01 -.100E-01 -.195E+00
   0.372E+01 0.215E+01 0.990E+03   -.354E+01 -.206E+01 -.989E+03   -.195E+00 -.112E+00 -.763E+00   0.441E-02 0.802E-02 -.299E+00
   -.329E+00 0.486E+01 0.995E+03   0.484E+00 -.491E+01 -.994E+03   -.650E-01 0.548E-01 -.444E+00   -.788E-01 -.433E-01 -.398E+00
   -.364E+01 0.293E+01 0.989E+03   0.305E+01 -.266E+01 -.988E+03   0.466E+00 -.213E+00 -.813E+00   0.122E+00 -.356E-01 -.332E+00
   0.403E+01 -.271E+01 0.995E+03   -.400E+01 0.288E+01 -.994E+03   0.154E-01 -.830E-01 -.443E+00   -.801E-01 -.460E-01 -.397E+00
   -.364E+01 -.211E+01 0.996E+03   0.366E+01 0.212E+01 -.995E+03   -.757E-01 -.430E-01 -.238E+00   0.753E-01 0.445E-01 -.416E+00
   -.206E+00 0.206E+00 0.990E+03   0.349E+00 -.300E+00 -.989E+03   -.139E+00 0.587E-01 -.721E+00   -.423E-02 0.214E-01 -.315E+00
   0.712E+00 -.461E+01 0.989E+03   -.769E+00 0.398E+01 -.988E+03   0.480E-01 0.512E+00 -.811E+00   0.266E-01 0.121E+00 -.331E+00
   0.761E-01 -.283E+00 0.990E+03   -.911E-01 0.461E+00 -.989E+03   -.158E-01 -.151E+00 -.719E+00   0.183E-01 -.190E-01 -.315E+00
   -.828E+00 -.480E+00 0.989E+03   0.859E+00 0.502E+00 -.987E+03   0.115E-01 0.551E-02 -.638E+00   -.427E-01 -.273E-01 -.344E+00
   0.197E+01 0.228E+01 -.863E+03   -.215E+01 -.221E+01 0.863E+03   0.184E+00 0.751E-01 0.508E+00   0.139E-01 -.586E-01 -.391E+00
   0.871E+01 0.511E+01 -.826E+03   -.790E+01 -.465E+01 0.828E+03   -.657E+00 -.380E+00 -.122E+01   -.309E+00 -.174E+00 -.728E+00
   -.115E+02 0.142E+02 -.832E+03   0.101E+02 -.130E+02 0.834E+03   0.102E+01 -.911E+00 -.122E+01   0.365E+00 -.287E+00 -.850E+00
   0.542E+01 -.863E+01 -.858E+03   -.526E+01 0.863E+01 0.858E+03   -.792E-02 -.126E+00 0.543E+00   -.125E+00 0.669E-01 -.471E+00
   0.646E+01 -.171E+02 -.832E+03   -.613E+01 0.153E+02 0.834E+03   -.283E+00 0.134E+01 -.121E+01   -.710E-01 0.457E+00 -.849E+00
   -.114E+02 -.665E+01 -.849E+03   0.111E+02 0.648E+01 0.849E+03   0.667E-01 0.366E-01 0.476E+00   0.180E+00 0.103E+00 -.443E+00
   0.173E+01 0.102E+01 -.872E+03   -.180E+01 -.106E+01 0.871E+03   0.375E-02 0.811E-03 0.701E+00   0.411E-01 0.237E-01 -.305E+00
   0.290E+01 0.612E+00 -.863E+03   -.294E+01 -.802E+00 0.863E+03   0.162E+00 0.121E+00 0.519E+00   -.440E-01 0.426E-01 -.389E+00
   -.469E+01 0.896E+01 -.858E+03   0.478E+01 -.883E+01 0.858E+03   -.115E+00 0.660E-01 0.554E+00   -.482E-02 -.145E+00 -.471E+00
   0.187E+02 0.110E+02 -.271E+04   -.189E+02 -.111E+02 0.271E+04   0.222E+00 0.127E+00 0.174E+01   -.797E-01 -.456E-01 -.819E-01
   0.277E+02 0.133E+03 -.263E+04   -.272E+02 -.135E+03 0.263E+04   -.345E+00 0.845E+00 0.262E+01   -.328E+00 -.622E+00 -.216E+00
   -.414E+02 0.677E+02 -.270E+04   0.409E+02 -.675E+02 0.270E+04   0.338E+00 -.944E-01 0.229E+01   0.412E+00 -.490E+00 -.312E-01
   0.130E+03 -.425E+02 -.263E+04   -.131E+03 0.435E+02 0.263E+04   0.537E+00 -.693E+00 0.256E+01   -.697E+00 0.314E-01 -.220E+00
   -.134E+03 0.385E+02 -.265E+04   0.135E+03 -.394E+02 0.265E+04   -.830E+00 0.587E+00 0.214E+01   0.503E+00 0.347E-01 0.134E+00
   0.374E+02 -.701E+02 -.270E+04   -.375E+02 0.696E+02 0.270E+04   0.652E-01 0.335E+00 0.229E+01   -.221E+00 0.600E+00 -.328E-01
   -.331E+02 -.135E+03 -.265E+04   0.330E+02 0.136E+03 0.265E+04   0.101E+00 -.105E+01 0.217E+01   0.283E+00 0.419E+00 0.134E+00
   -.144E+02 -.859E+01 -.271E+04   0.145E+02 0.867E+01 0.271E+04   -.640E-02 -.741E-03 0.177E+01   -.798E-01 -.478E-01 -.204E-02
   0.275E+02 0.157E+02 -.120E+04   -.275E+02 -.158E+02 0.120E+04   0.227E+00 0.135E+00 -.681E+00   0.412E-01 0.255E-01 -.956E-01
   -.369E+02 -.212E+02 -.182E+04   0.408E+02 0.234E+02 0.184E+04   -.460E+01 -.265E+01 -.233E+02   0.616E+00 0.354E+00 0.598E+00
   0.357E+02 0.214E+02 -.180E+04   -.542E+02 -.327E+02 0.178E+04   0.188E+02 0.115E+02 0.151E+02   -.379E+00 -.208E+00 0.517E+00
   -.282E+02 -.175E+02 -.366E+03   0.320E+02 0.198E+02 0.373E+03   -.380E+01 -.230E+01 -.682E+01   0.236E-01 0.150E-01 0.115E+00
   -.112E+02 -.707E+01 0.278E+02   0.604E-13 -.355E-14 0.125E-11   0.111E+02 0.697E+01 -.190E+02   0.178E+00 0.118E+00 -.897E+01

 POSITION                                       TOTAL-FORCE (eV/Angst)
      0.00000      0.00000      5.28219        -0.007069     -0.003835     -0.030288
      2.93046      0.00000      5.28219         0.001481      0.005681      0.025865
      5.86091      0.00000      5.28219        -0.002974      0.014270      0.038473
      1.46523      2.53785      5.28219         0.005281     -0.000766      0.025785
      4.39568      2.53785      5.28219        -0.003346     -0.001590      0.015650
      7.32614      2.53785      5.28219         0.002706     -0.016456      0.019191
      2.93046      5.07570      5.28219         0.010310     -0.009385      0.038509
      5.86091      5.07570      5.28219        -0.013203      0.010956      0.019686
      8.79137      5.07570      5.28219        -0.007744     -0.004450      0.011078
      1.46523      0.84595      7.67490        -0.008633     -0.005232     -0.028899
      4.39568      0.84595      7.67490         0.010583     -0.047301     -0.077408
      7.32614      0.84595      7.67490         0.001718      0.017795      0.008263
      2.93046      3.38380      7.67490        -0.035642      0.033371     -0.076997
      5.86091      3.38380      7.67490         0.009691      0.005849     -0.048062
      8.79137      3.38380      7.67490        -0.000744     -0.015067     -0.010379
      4.39568      5.92165      7.67490         0.016358     -0.006308      0.008425
      7.32614      5.92165      7.67490        -0.013537      0.007749     -0.009658
     10.25659      5.92165      7.67490        -0.001212     -0.000300      0.038563
      8.79137      1.69374     10.05841         0.016652      0.084429      0.181059
      2.93927      1.69699     10.03909        -0.158118     -0.091575     -0.186173
      5.85210      1.69699     10.03909        -0.011476     -0.023639     -0.072925
     10.25385      4.23133     10.05420         0.025451     -0.056334      0.057182
      4.39568      4.21957     10.03909        -0.024626      0.001929     -0.068668
      7.32888      4.23133     10.05420        -0.053770     -0.030808     -0.032279
     11.72023      6.76668     10.05841        -0.025033     -0.013474      0.030016
      5.86251      6.76668     10.05841         0.080026     -0.027019      0.178488
      8.79137      6.76443     10.05420        -0.035685      0.051618      0.057251
      0.00000      0.00000     12.42643        -0.042056     -0.025164     -0.040647
      2.96234      0.05459     12.44639        -0.169479     -1.030213     -0.431734
      5.82903      0.05459     12.44639         0.224896     -0.393104     -0.264292
      1.52844      2.53816     12.44639        -0.997276      0.370250     -0.442832
      7.26292      2.53816     12.44639         1.066433     -0.339133     -0.321713
      2.96179      5.02079     12.44639        -0.224209      0.394160     -0.265081
      5.82958      5.02079     12.44639         0.230109      1.072616     -0.312158
      8.79137      5.07570     12.42906         0.054690      0.033263     -0.005376
      4.39568      2.53785     12.18689         0.203701      0.115884      2.006227
      5.37053      3.09403     13.46520        -0.081096     -0.048325     -0.083655
      3.27087      1.89598     13.71946        -0.037453     -0.021728      0.083292
      3.72768      2.17291     14.53754        -0.005705     -0.008614     -0.033777
    total drift:                                0.044922      0.014012     -0.160294

  FREE ENERGIE OF THE ION-ELECTRON SYSTEM (eV)
  free  energy   TOTEN  =      -113.83334387 eV

  energy  without entropy=     -113.83334387  energy(sigma->0) =     -113.83334387

 stress matrix after NEB project (eV)
     -2.61699     -0.09737      0.27977
     -0.09737     -2.56227      0.17365
      0.27977      0.17365     -0.22498
  FORCES: max atom, RMS     0.126135    0.025805
  FORCE total and by dimension    0.161152    0.083655
  Stress total and by dimension    3.701392    2.616989
|           W    W    AA    RRRRR   N    N  II  N    N   GGGG   !!!           |
|           W    W   A  A   R    R  NN   N  II  NN   N  G    G  !!!           |
|           W    W  A    A  R    R  N N  N  II  N N  N  G       !!!           |
|           W WW W  AAAAAA  RRRRR   N  N N  II  N  N N  G  GGG   !            |
|           WW  WW  A    A  R   R   N   NN  II  N   NN  G    G                |
|           W    W  A    A  R    R  N    N  II  N    N   GGGG   !!!           |
|     Tetrahedron method does not include variations of the Fermi             |
|     occupations, so forces and stress will be inaccurate. We suggest        |
|     using a different smearing scheme ISMEAR = 1 or 2 for metals in         |
|     relaxations.                                                            |

 total charge

# of ion       s       p       d       tot
    1        0.419   0.200   9.177   9.797
    2        0.415   0.204   9.176   9.795
    3        0.415   0.204   9.177   9.796
    4        0.415   0.204   9.176   9.795
    5        0.417   0.203   9.175   9.795
    6        0.418   0.202   9.177   9.797
    7        0.415   0.204   9.177   9.796
    8        0.418   0.202   9.177   9.797
    9        0.414   0.203   9.177   9.794
   10        0.410   0.266   9.164   9.840
   11        0.406   0.269   9.166   9.842
   12        0.407   0.270   9.161   9.838
   13        0.406   0.269   9.166   9.842
   14        0.404   0.269   9.167   9.841
   15        0.404   0.268   9.165   9.837
   16        0.407   0.270   9.161   9.838
   17        0.404   0.268   9.165   9.837
   18        0.400   0.271   9.164   9.835
   19        0.396   0.273   9.161   9.829
   20        0.440   0.296   9.140   9.875
   21        0.431   0.305   9.138   9.874
   22        0.395   0.275   9.165   9.835
   23        0.431   0.305   9.138   9.873
   24        0.402   0.270   9.167   9.839
   25        0.403   0.264   9.168   9.835
   26        0.396   0.273   9.161   9.829
   27        0.395   0.275   9.165   9.835
   28        0.416   0.193   9.183   9.793
   29        0.382   0.242   9.183   9.807
   30        0.408   0.207   9.187   9.802
   31        0.382   0.244   9.182   9.808
   32        0.385   0.250   9.177   9.812
   33        0.408   0.207   9.187   9.802
   34        0.384   0.248   9.178   9.811
   35        0.416   0.194   9.181   9.791
   36        0.460   0.615   4.464   5.539
   37        1.598   3.327   0.000   4.925
   38        1.563   3.520   0.000   5.082
   39        0.609   0.119   0.000   0.727
tot         18.493  16.149 325.394 360.036

 BZINTS: Fermi energy:    0.192472;  404.000000 electrons
         Band energy:-0.164128E+04;  BLOECHL correction:   -0.022298