 vasp.6.2.0 18Jan21 (build Jun 12 2021 23:27:24) complex

 executed on             LinuxIFC date 2022.05.27  06:02:59

 INCAR:
   ISMEAR = -5
   SIGMA = 0.1
   ISPIN = 1
   EDIFF = 1.d-5
   EDIFFG = -0.01
   NSW = 0
   NELM = 150
   ENCUT = 500
   ISIF = 2
   IBRION = 2
   LREAL = Auto
   ALGO = Fast
   ICHARG = 11
   LORBIT = 10
   LCHARG = .F.
   LWAVE = .F.

 POTCAR:    PAW_PBE Cu 22Jun2005
 POTCAR:    PAW_PBE Fe 06Sep2000
 POTCAR:    PAW_PBE N 08Apr2002
|           W    W    AA    RRRRR   N    N  II  N    N   GGGG   !!!           |
|           W    W   A  A   R    R  NN   N  II  NN   N  G    G  !!!           |
|           W    W  A    A  R    R  N N  N  II  N N  N  G       !!!           |
|           W WW W  AAAAAA  RRRRR   N  N N  II  N  N N  G  GGG   !            |
|           WW  WW  A    A  R   R   N   NN  II  N   NN  G    G                |
|           W    W  A    A  R    R  N    N  II  N    N   GGGG   !!!           |
|     For optimal performance we recommend to set                             |
|       NCORE = 2 up to number-of-cores-per-socket                            |
|     This setting can greatly improve the performance of VASP for DFT.       |
|     The default, NCORE=1 might be grossly inefficient on modern             |
|     multi-core architectures or massively parallel machines. Do your        |
|     Unfortunately you need to use the default for GW and RPA                |
|     calculations (for HF NCORE is supported but not extensively tested      |
|     yet).                                                                   |

 POTCAR:    PAW_PBE Cu 22Jun2005
   VRHFIN =Cu: d10 p1

   TITEL  = PAW_PBE Cu 22Jun2005
   POMASS =   63.546; ZVAL   =   11.000    mass and valenz
   ENMAX  =  295.446; ENMIN  =  221.585 eV

 POTCAR:    PAW_PBE Fe 06Sep2000
   VRHFIN =Fe:  d7 s1

   TITEL  = PAW_PBE Fe 06Sep2000
   POMASS =   55.847; ZVAL   =    8.000    mass and valenz
   ENMAX  =  267.882; ENMIN  =  200.911 eV

 POTCAR:    PAW_PBE N 08Apr2002
   VRHFIN =N: s2p3

   TITEL  = PAW_PBE N 08Apr2002
   POMASS =   14.001; ZVAL   =    5.000    mass and valenz
   ENMAX  =  400.000; ENMIN  =  300.000 eV

 Optimization of the real space projectors (new method)

 maximal supplied QI-value         = 16.25
 optimisation between [QCUT,QGAM] = [ 11.38, 22.75] = [ 36.24,144.96] Ry
 Optimized for a Real-space Cutoff    1.52 Angstroem

   l    n(q)    QCUT    max X(q) W(low)/X(q) W(high)/X(q)  e(spline)
   2      9    11.376     4.610    0.21E-03    0.10E-03    0.26E-06
   2      9    11.376     8.522    0.33E-03    0.16E-03    0.37E-06
   0     10    11.376    51.609    0.62E-04    0.20E-04    0.13E-06
   0     10    11.376    27.747    0.54E-04    0.20E-04    0.13E-06
   1     10    11.376    20.408    0.13E-04    0.99E-04    0.19E-06
   1     10    11.376    13.425    0.12E-04    0.87E-04    0.17E-06
 Optimization of the real space projectors (new method)

[...]

   l    n(q)    QCUT    max X(q) W(low)/X(q) W(high)/X(q)  e(spline)
   2      8    11.376    80.901    0.45E-03    0.44E-04    0.21E-06
   2      8    11.376    75.754    0.45E-03    0.45E-04    0.22E-06
   0      9    11.376    58.752    0.65E-04    0.95E-04    0.17E-06
   0      9    11.376    30.679    0.59E-04    0.87E-04    0.16E-06
   1      9    11.376    17.977    0.38E-03    0.10E-03    0.14E-06
   1      9    11.376    13.559    0.31E-03    0.90E-04    0.12E-06
 Optimization of the real space projectors (new method)

 maximal supplied QI-value         = 25.13
 optimisation between [QCUT,QGAM] = [ 11.31, 22.87] = [ 35.82,146.48] Ry
 Optimized for a Real-space Cutoff    1.27 Angstroem

   l    n(q)    QCUT    max X(q) W(low)/X(q) W(high)/X(q)  e(spline)
   0      9    11.310    79.467    0.75E-04    0.16E-03    0.36E-06
   0      9    11.310    66.151    0.74E-04    0.16E-03    0.36E-06
   1      8    11.310    17.416    0.35E-03    0.12E-03    0.95E-06
   1      8    11.310    12.382    0.37E-03    0.13E-03    0.98E-06
  PAW_PBE Cu 22Jun2005                  :
  PAW_PBE Fe 06Sep2000                  :
  PAW_PBE N 08Apr2002                   :

 POSCAR: Cu-Fe-N2
  positions in direct lattice
  velocities in cartesian coordinates
 exchange correlation table for  LEXCH =        8
   RHO(1)=    0.500       N(1)  =     2000
   RHO(2)=  100.500       N(2)  =     4000

 VTST: version 3.2, (02/03/18)

 CHAIN: initializing optimizer

 OPT: Using VASP Conjugate-Gradient optimizer
 CHAIN: Read ICHAIN            0

 POSCAR: Cu-Fe-N2
  positions in direct lattice
  velocities in cartesian coordinates

 ion  position               nearest neighbor table
   1  0.000  0.000  0.252-   7 2.57   3 2.57   4 2.57   2 2.57   6 2.57   8 2.57  12 2.57  10 2.57
                            16 2.57
   2  0.333  0.000  0.252-   8 2.57   9 2.57   5 2.57   1 2.57   3 2.57  11 2.57   4 2.57  10 2.57
                            17 2.57
   3  0.667  0.000  0.252-   1 2.57   7 2.57   6 2.57   9 2.57   2 2.57  12 2.57   5 2.57  18 2.57
                            11 2.57
   4  0.000  0.333  0.252-   5 2.57   6 2.57   1 2.57   7 2.57   2 2.57  13 2.57   9 2.57  10 2.57
                            15 2.57
   5  0.333  0.333  0.252-   4 2.57   2 2.57   7 2.57  13 2.57   8 2.57   6 2.57   3 2.57  11 2.57
                            14 2.57
   6  0.667  0.333  0.252-   4 2.57   9 2.57  15 2.57   3 2.57   1 2.57   8 2.57  14 2.57   5 2.57
                            12 2.57
   7  0.000  0.667  0.252-   1 2.57   3 2.57  16 2.57  18 2.57   4 2.57   5 2.57   8 2.57   9 2.57
                            13 2.57
   8  0.333  0.667  0.252-   9 2.57   2 2.57  17 2.57   6 2.57   1 2.57   7 2.57   5 2.57  14 2.57
                            16 2.57
   9  0.667  0.667  0.252-   8 2.57   6 2.57   2 2.57  17 2.57   3 2.57   7 2.57   4 2.57  15 2.57
                            18 2.57
  10  0.111  0.111  0.351-  20 2.55  26 2.56  19 2.56  11 2.57  12 2.57  13 2.57   1 2.57   2 2.57
                             4 2.57  15 2.57  16 2.57  17 2.57
  11  0.444  0.111  0.351-  20 2.55  21 2.55  27 2.56  10 2.57  13 2.57   2 2.57  17 2.57  14 2.57
                            12 2.57   5 2.57   3 2.57  18 2.57
  12  0.778  0.111  0.351-  21 2.55  19 2.56  25 2.56  15 2.57  10 2.57  14 2.57  18 2.57   3 2.57
                             1 2.57  16 2.57  11 2.57   6 2.57
  13  0.111  0.444  0.351-  23 2.55  20 2.55  22 2.56  16 2.57  18 2.57  10 2.57  11 2.57  14 2.57
                             5 2.57   4 2.57   7 2.57  15 2.57
  14  0.444  0.444  0.351-  21 2.55  23 2.55  24 2.56  15 2.57  17 2.57  12 2.57  16 2.57  13 2.57
                            11 2.57   6 2.57   8 2.57   5 2.57
  15  0.778  0.444  0.351-  19 2.56  24 2.56  22 2.56  14 2.57  17 2.57  12 2.57   6 2.57  18 2.57
                            10 2.57   9 2.57  13 2.57   4 2.57
  16  0.111  0.778  0.351-  23 2.55  25 2.56  26 2.56  18 2.57  13 2.57   7 2.57  14 2.57  17 2.57
                            12 2.57  10 2.57   8 2.57   1 2.57
  17  0.444  0.778  0.351-  26 2.56  27 2.56  24 2.56  14 2.57  15 2.57   8 2.57   9 2.57  11 2.57
                            16 2.57  18 2.57  10 2.57   2 2.57
  18  0.778  0.778  0.351-  25 2.56  22 2.56  27 2.56  16 2.57  13 2.57   7 2.57  15 2.57  12 2.57
                            17 2.57   9 2.57   3 2.57  11 2.57
  19  0.889  0.223  0.449-  28 2.55  15 2.56  12 2.56  10 2.56  22 2.56  24 2.56  32 2.57  31 2.57
                            21 2.57  20 2.57  25 2.57  26 2.57
  20  0.222  0.222  0.448-  36 2.47  11 2.55  13 2.55  10 2.55  29 2.55  31 2.55  23 2.56  21 2.56
                            26 2.57  19 2.57  27 2.57  22 2.57
  21  0.555  0.222  0.448-  36 2.47  14 2.55  11 2.55  12 2.55  32 2.55  30 2.55  20 2.56  23 2.56
                            19 2.57  25 2.57  24 2.57  27 2.57
  22  0.888  0.556  0.449-  35 2.54  31 2.56  33 2.56  18 2.56  15 2.56  24 2.56  27 2.56  13 2.56
                            19 2.56  25 2.56  23 2.57  20 2.57
  23  0.222  0.555  0.448-  36 2.47  13 2.55  14 2.55  16 2.55  33 2.55  34 2.55  20 2.56  21 2.56
                            25 2.57  26 2.57  22 2.57  24 2.57
  24  0.556  0.556  0.449-  35 2.54  32 2.56  34 2.56  15 2.56  17 2.56  22 2.56  27 2.56  14 2.56
                            19 2.56  26 2.56  21 2.57  23 2.57
  25  0.889  0.889  0.449-  28 2.55  18 2.56  16 2.56  12 2.56  22 2.56  27 2.56  33 2.57  30 2.57
                            21 2.57  23 2.57  19 2.57  26 2.57
  26  0.223  0.889  0.449-  28 2.55  17 2.56  10 2.56  16 2.56  27 2.56  24 2.56  29 2.57  34 2.57
                            20 2.57  23 2.57  25 2.57  19 2.57
  27  0.556  0.888  0.449-  35 2.54  29 2.56  30 2.56  17 2.56  18 2.56  24 2.56  22 2.56  11 2.56
                            26 2.56  25 2.56  20 2.57  21 2.57
  28  0.000  0.000  0.546-  25 2.55  19 2.55  26 2.55  33 2.58  30 2.58  31 2.58  29 2.58  32 2.58
                            34 2.58
  29  0.333  0.003  0.547-  31 2.54  30 2.54  36 2.54  20 2.55  27 2.56  26 2.57  28 2.58  35 2.58
                            34 2.61
  30  0.664  0.003  0.547-  32 2.54  29 2.54  36 2.54  21 2.55  27 2.56  25 2.57  28 2.58  35 2.58
                            33 2.61
  31  0.003  0.333  0.547-  29 2.54  33 2.54  36 2.54  20 2.55  22 2.56  19 2.57  28 2.58  35 2.58
                            32 2.61
  32  0.664  0.333  0.547-  30 2.54  34 2.54  36 2.54  21 2.55  24 2.56  19 2.57  28 2.58  35 2.58
                            31 2.61
  33  0.003  0.664  0.547-  34 2.54  31 2.54  36 2.54  23 2.55  22 2.56  25 2.57  28 2.58  35 2.58
                            30 2.61
  34  0.333  0.664  0.547-  33 2.54  32 2.54  36 2.54  23 2.55  24 2.56  26 2.57  28 2.58  35 2.58
                            29 2.61
  35  0.667  0.667  0.546-  24 2.54  27 2.54  22 2.54  34 2.58  32 2.58  29 2.58  30 2.58  33 2.58
                            31 2.58
  36  0.333  0.333  0.541-  37 2.11  38 2.11  23 2.47  20 2.47  21 2.47  31 2.54  29 2.54  33 2.54
                            34 2.54  32 2.54  30 2.54
  37  0.259  0.331  0.636-  38 1.16  36 2.11
  38  0.410  0.331  0.636-  37 1.16  36 2.11

  LATTYP: Found a hexagonal cell.
 ALAT       =     7.6967864036
 C/A-ratio  =     2.7653617908

  Lattice vectors:

 A1 = (  -3.8483927580,  -6.6656128093,   0.0000000000)
 A2 = (   7.6967864037,   0.0000000000,   0.0000000000)
 A3 = (   0.0000000000,   0.0000000000,  21.2843990326)

Analysis of symmetry for initial positions (statically):
 Subroutine PRICEL returns:
 Original cell was already a primitive cell.

 Routine SETGRP: Setting up the symmetry group for a
 hexagonal supercell.

 Subroutine GETGRP returns: Found  2 space group operations
 (whereof  2 operations were pure point group operations)
 out of a pool of 24 trial point group operations.

The static configuration has the point symmetry C_1h.

Analysis of symmetry for dynamics (positions and initial velocities):
 Subroutine PRICEL returns:
 Original cell was already a primitive cell.

[...]

The dynamic configuration has the point symmetry C_1h.

Analysis of constrained symmetry for selective dynamics:
 Subroutine PRICEL returns:
 Original cell was already a primitive cell.

 Routine SETGRP: Setting up the symmetry group for a
 hexagonal supercell.

[...]
     33      -3.9172      2.00000
     34      -3.9052      2.00000
     35      -3.8955      2.00000
     36      -3.8772      2.00000
     37      -3.8230      2.00000
     38      -3.8170      2.00000
     39      -3.7726      2.00000
     40      -3.7022      2.00000
     41      -3.6980      2.00000
     42      -3.5994      2.00000
     43      -3.5928      2.00000
     44      -3.5144      2.00000
     45      -3.5106      2.00000
     46      -3.4944      2.00000
     47      -3.4704      2.00000
     48      -3.4677      2.00000
     49      -3.4480      2.00000
     50      -3.4361      2.00000
     51      -3.2652      2.00000
     52      -3.2463      2.00000
     53      -3.2443      2.00000
     54      -3.2371      2.00000
     55      -3.1829      2.00000
     56      -3.1780      2.00000
     57      -3.1685      2.00000
     58      -3.1442      2.00000
     59      -3.1401      2.00000
     60      -3.1147      2.00000
[...]
    238       5.8969      0.00000
    239       6.0985      0.00000
    240       6.2739      0.00000
    241       6.3217      0.00000
    242       6.4815      0.00000
    243       6.6835      0.00000
    244       6.8775      0.00000
    245       6.9285      0.00000
    246       7.0777      0.00000
    247       7.1180      0.00000
    248       7.3047      0.00000
    249       7.4262      0.00000
    250       7.4382      0.00000
    251       7.4986      0.00000
    252       7.6924      0.00000

 soft charge-density along one line, spin component           1
         0         1         2         3         4         5         6         7         8         9
 total charge-density along one line

------------------------ aborting loop because EDIFF is reached ----------------------------------------

 total charge

# of ion       s       p       d       tot
    1        0.449   0.284   9.188   9.921
    2        0.449   0.285   9.186   9.920
    3        0.449   0.285   9.186   9.920
    4        0.449   0.285   9.186   9.920
    5        0.448   0.286   9.180   9.915
    6        0.449   0.285   9.186   9.920
    7        0.449   0.285   9.186   9.920
    8        0.449   0.285   9.186   9.920
    9        0.447   0.283   9.190   9.920
   10        0.441   0.372   9.175   9.988
   11        0.444   0.366   9.184   9.994
   12        0.441   0.372   9.175   9.988
   13        0.443   0.366   9.184   9.993
   14        0.443   0.366   9.184   9.993
   15        0.439   0.370   9.178   9.987
   16        0.441   0.372   9.174   9.988
   17        0.438   0.371   9.178   9.987
   18        0.438   0.371   9.178   9.987
   19        0.439   0.370   9.182   9.990
   20        0.456   0.391   9.167  10.014
   21        0.456   0.391   9.167  10.014
   22        0.434   0.376   9.181   9.990
   23        0.456   0.394   9.163  10.013
   24        0.434   0.376   9.181   9.990
   25        0.442   0.368   9.182   9.992
   26        0.442   0.368   9.182   9.992
   27        0.435   0.374   9.182   9.991
   28        0.448   0.284   9.191   9.924
   29        0.455   0.292   9.187   9.934
   30        0.455   0.292   9.187   9.934
   31        0.447   0.295   9.185   9.927
   32        0.447   0.295   9.185   9.927
   33        0.455   0.292   9.187   9.934
   34        0.455   0.292   9.187   9.934
   35        0.443   0.288   9.190   9.920
   36        0.406   0.425   6.402   7.233
   37        1.347   2.450   0.000   3.797
   38        1.347   2.450   0.000   3.797
tot         18.702  16.954 327.773 363.429

  FORCE on cell =-STRESS in cart. coord.  units (eV):
  Direction    XX          YY          ZZ          XY          YZ          ZX
  Alpha Z   906.56909   906.56909   906.56909
  Ewald  173524.83480173209.69996************     0.00042     0.59627     0.00019
  Hartree186613.80452186497.16583************     0.00006     0.77764     0.00007
  E(xc)   -2327.52614 -2328.70010 -2332.48668    -0.00024     0.00194    -0.00004
  Local  ************************373028.84698     0.02001    -1.45568    -0.00078
  n-local  -812.83730  -802.47194  -819.37222     1.75314     0.10080     0.08803
  augment  3347.09013  3346.52604  3363.40572    -0.01810    -0.03801     0.00038
  Kinetic  3384.66276  3399.48424  3422.54159     1.30211     0.13581    -0.19570
  Fock        0.00000     0.00000     0.00000     0.00000     0.00000     0.00000
  Total      -6.92484    -6.88001    -0.05825     0.00000     0.11877    -0.00000
  in kB     -10.16037   -10.09458    -0.08547     0.00000     0.17427    -0.00000

 VOLUME and BASIS-vectors are now :
  energy-cutoff  :      500.00
  volume of cell :     1091.97
      direct lattice vectors                 reciprocal lattice vectors
     7.696786404  0.000000000  0.000000000     0.129924354 -0.075011849  0.000000000
     3.848392758  6.665612809  0.000000000     0.000000000  0.150023716  0.000000000
     0.000000000  0.000000000 21.284399033     0.000000000  0.000000000  0.046982769

  length of vectors
     7.696786404  7.696786404 21.284399033     0.150023716  0.150023716  0.046982769

 FORCES acting on ions
    electron-ion (+dipol)            ewald-force                    non-local-force                 convergence-correction
   -.406E-04 0.283E-01 0.351E+04   0.579E-04 -.186E-01 -.351E+04   -.102E-08 0.153E-01 -.287E+01   -.325E-03 -.262E-01 -.281E+00
   0.435E-01 0.200E+00 0.351E+04   -.173E+00 -.230E+00 -.351E+04   0.605E-01 0.320E-01 -.185E+01   0.755E-01 0.107E-01 -.286E+00
   -.435E-01 0.201E+00 0.351E+04   0.173E+00 -.230E+00 -.351E+04   -.605E-01 0.320E-01 -.185E+01   -.747E-01 0.131E-01 -.285E+00
   0.985E-01 -.848E-01 0.351E+04   -.270E+00 -.405E-01 -.351E+04   0.110E+00 0.231E-01 -.192E+01   0.789E-01 0.965E-01 -.287E+00
   -.623E-04 -.892E-01 0.351E+04   0.116E-03 0.355E-02 -.351E+04   -.233E-08 0.349E-01 -.171E+01   0.121E-01 0.525E-01 -.162E+00
   -.984E-01 -.847E-01 0.351E+04   0.270E+00 -.407E-01 -.351E+04   -.110E+00 0.231E-01 -.192E+01   -.804E-01 0.976E-01 -.286E+00
   0.842E-01 -.109E+00 0.351E+04   -.965E-01 0.271E+00 -.351E+04   0.350E-01 -.744E-01 -.182E+01   -.612E-02 -.950E-01 -.279E+00
   -.841E-01 -.109E+00 0.351E+04   0.962E-01 0.271E+00 -.351E+04   -.350E-01 -.744E-01 -.182E+01   0.948E-02 -.964E-01 -.279E+00
   -.143E-03 0.455E-01 0.351E+04   0.263E-03 0.151E-01 -.351E+04   0.131E-08 -.197E-01 -.242E+01   -.131E-01 -.428E-01 -.290E+00
   0.254E+01 0.149E+01 0.122E+04   -.213E+01 -.136E+01 -.122E+04   -.493E+00 -.190E+00 -.102E+01   0.810E-01 0.723E-01 -.305E+00
   -.914E-04 0.211E+01 0.122E+04   0.189E-03 -.262E+01 -.122E+04   -.183E-07 0.274E+00 -.468E+00   0.118E-01 0.171E+00 -.306E+00
   -.254E+01 0.149E+01 0.122E+04   0.213E+01 -.136E+01 -.122E+04   0.493E+00 -.190E+00 -.102E+01   -.824E-01 0.728E-01 -.306E+00
   0.176E+01 -.106E+01 0.122E+04   -.215E+01 0.135E+01 -.122E+04   0.230E+00 -.213E+00 -.482E+00   0.134E+00 -.580E-01 -.328E+00
   -.176E+01 -.106E+01 0.122E+04   0.215E+01 0.135E+01 -.122E+04   -.230E+00 -.213E+00 -.482E+00   -.111E+00 -.597E-01 -.331E+00
   -.144E-03 -.547E-01 0.122E+04   0.299E-03 -.251E+00 -.122E+04   -.127E-07 0.190E+00 -.990E+00   -.297E-02 0.101E+00 -.362E+00
   -.916E-04 -.293E+01 0.122E+04   0.185E-03 0.247E+01 -.122E+04   -.382E-07 0.574E+00 -.105E+01   -.116E-02 -.131E+00 -.308E+00
   0.185E+00 -.920E-02 0.122E+04   -.308E+00 0.204E+00 -.122E+04   0.846E-01 -.111E+00 -.860E+00   0.190E-01 -.729E-01 -.350E+00
   -.185E+00 -.916E-02 0.122E+04   0.307E+00 0.204E+00 -.122E+04   -.846E-01 -.111E+00 -.860E+00   -.174E-01 -.706E-01 -.348E+00
   -.609E-04 0.144E+01 -.110E+04   0.670E-04 -.160E+01 0.109E+04   -.943E-08 0.142E+00 0.113E+01   0.135E-02 0.170E-01 -.309E+00
   0.202E+00 0.905E+00 -.108E+04   0.936E+00 -.126E+00 0.108E+04   -.125E+01 -.793E+00 -.102E+01   0.101E+00 -.528E-02 -.312E+00
   -.202E+00 0.905E+00 -.108E+04   -.936E+00 -.126E+00 0.108E+04   0.125E+01 -.793E+00 -.102E+01   -.122E+00 -.744E-02 -.312E+00
   -.120E+01 -.175E+00 -.109E+04   0.747E+00 0.525E+00 0.109E+04   0.373E+00 -.338E+00 0.802E+00   0.142E+00 -.442E-01 -.434E+00
   -.744E-04 -.158E+01 -.108E+04   0.142E-03 0.862E-01 0.108E+04   -.103E-06 0.155E+01 -.110E+01   -.137E-01 -.782E-01 -.271E+00
   0.120E+01 -.175E+00 -.109E+04   -.747E+00 0.524E+00 0.109E+04   -.373E+00 -.338E+00 0.802E+00   -.118E+00 -.449E-01 -.435E+00
   -.957E+00 -.202E-01 -.110E+04   0.103E+01 0.674E-01 0.110E+04   -.395E-01 -.333E-02 0.102E+01   -.289E-01 -.446E-01 -.280E+00
   0.957E+00 -.202E-01 -.110E+04   -.103E+01 0.674E-01 0.110E+04   0.395E-01 -.333E-02 0.102E+01   0.280E-01 -.421E-01 -.279E+00
   -.126E-03 -.137E+01 -.109E+04   0.243E-03 0.565E+00 0.109E+04   -.434E-07 0.652E+00 0.815E+00   0.115E-01 0.206E+00 -.389E+00
   -.312E-04 0.435E+01 -.340E+04   0.309E-04 -.427E+01 0.339E+04   0.334E-08 -.502E-01 0.217E+01   0.149E-02 -.643E-01 0.198E+00
   0.185E+02 0.413E+02 -.337E+04   -.182E+02 -.415E+02 0.336E+04   -.421E+00 0.189E-01 0.274E+01   -.160E-01 -.196E-01 0.854E-01
   -.185E+02 0.413E+02 -.337E+04   0.182E+02 -.415E+02 0.336E+04   0.421E+00 0.189E-01 0.274E+01   -.520E-02 -.187E-01 0.846E-01
   0.480E+02 -.769E+00 -.335E+04   -.485E+02 0.973E+00 0.335E+04   0.215E+00 -.172E+00 0.384E+01   0.875E-01 -.212E-01 0.888E-01
   -.480E+02 -.768E+00 -.335E+04   0.485E+02 0.973E+00 0.335E+04   -.215E+00 -.172E+00 0.384E+01   -.109E+00 -.205E-01 0.899E-01
   0.179E+02 -.398E+02 -.337E+04   -.178E+02 0.399E+02 0.336E+04   -.172E+00 0.194E+00 0.272E+01   0.121E-01 0.101E-01 0.690E-01
   -.179E+02 -.398E+02 -.337E+04   0.178E+02 0.399E+02 0.336E+04   0.172E+00 0.194E+00 0.272E+01   -.315E-01 0.993E-02 0.710E-01
   -.136E-03 -.374E+01 -.340E+04   0.259E-03 0.360E+01 0.340E+04   -.808E-08 0.121E+00 0.240E+01   -.108E-01 0.546E-01 0.302E+00
   -.561E-04 -.164E+01 -.222E+04   0.105E-03 0.163E+01 0.222E+04   -.621E-08 0.933E-01 0.416E+01   0.440E-02 0.809E-02 -.102E+00
   0.215E+03 -.195E+00 -.178E+04   -.256E+03 0.194E+00 0.178E+04   0.406E+02 -.420E-02 -.822E+01   0.130E-02 -.263E-02 0.141E+00
   -.215E+03 -.195E+00 -.178E+04   0.256E+03 0.194E+00 0.178E+04   -.406E+02 -.420E-02 -.822E+01   -.800E-03 -.260E-02 0.140E+00
   -.109E-03 -.244E+00 0.193E+02   0.171E-12 0.198E-12 -.614E-11   -.210E-07 0.315E+00 -.121E+02   -.335E-01 -.747E-01 -.723E+01

 POSITION                                       TOTAL-FORCE (eV/Angst)
      0.00000      0.00000      5.37156         0.000000     -0.001084      0.006630
      2.56560      0.00000      5.37156         0.006333      0.014417      0.080769
      5.13119      0.00000      5.37156        -0.006333      0.014417      0.080769
      1.28280      2.22187      5.37156         0.018076     -0.005110      0.072972
      3.84839      2.22187      5.37156        -0.000000      0.001829      0.039166
      6.41399      2.22187      5.37156        -0.018076     -0.005110      0.072972
      2.56560      4.44374      5.37156         0.015075     -0.008005      0.072624
      5.13119      4.44374      5.37156        -0.015075     -0.008005      0.072624
      7.69679      4.44374      5.37156         0.000000     -0.001719      0.023088
      1.28280      0.74062      7.46636         0.001934      0.012496     -0.059327
      3.84839      0.74062      7.46636         0.000000     -0.057429     -0.100991
      6.41399      0.74062      7.46636        -0.001934      0.012496     -0.059327
      2.56560      2.96249      7.46636        -0.037160      0.020955     -0.088240
      5.13119      2.96249      7.46636         0.037160      0.020955     -0.088240
      7.69679      2.96249      7.46636         0.000000     -0.014295     -0.033750
      3.84839      5.18437      7.46636         0.000000     -0.018625     -0.044289
      6.41399      5.18437      7.46636        -0.019335      0.012445     -0.011666
      8.97958      5.18437      7.46636         0.019335      0.012445     -0.011666
      7.69679      1.48386      9.55425         0.000000     -0.003519      0.064027
      2.56752      1.48236      9.54187         0.004035     -0.020646     -0.111930
      5.12927      1.48236      9.54187        -0.004035     -0.020646     -0.111930
      8.97669      3.70479      9.55452         0.052714     -0.032762      0.015764
      3.84839      3.70090      9.54187         0.000000     -0.024795     -0.080031
      6.41688      3.70479      9.55452        -0.052714     -0.032762      0.015764
     10.26012      5.92368      9.55425         0.002134      0.000595      0.010205
      5.13345      5.92368      9.55425        -0.002134      0.000595      0.010205
      7.69679      5.92165      9.55452        -0.000000      0.053015     -0.003715
      0.00000      0.00000     11.62539         0.000000     -0.040226     -0.020413
      2.57645      0.02208     11.63568        -0.107362     -0.227409     -0.184480
      5.12034      0.02208     11.63568         0.107362     -0.227409     -0.184480
      1.30734      2.22023     11.63568        -0.167501      0.012094     -0.091954
      6.38944      2.22023     11.63568         0.167501      0.012094     -0.091954
      2.57929      4.42331     11.63568        -0.114511      0.219539     -0.180268
      5.11749      4.42331     11.63568         0.114511      0.219539     -0.180268
      7.69679      4.44374     11.62587        -0.000000      0.035191     -0.005824
      3.84839      2.22187     11.51524        -0.000000      0.088935      1.121138
      3.26809      2.20724     13.54065         0.031664     -0.007248     -0.006987
      4.42870      2.20724     13.54065        -0.031664     -0.007248     -0.006987
    total drift:                               -0.033596     -0.003448     -0.003334

  FREE ENERGIE OF THE ION-ELECTRON SYSTEM (eV)
  free  energy   TOTEN  =      -145.36677815 eV

  energy  without entropy=     -145.36677815  energy(sigma->0) =     -145.36677815

 stress matrix after NEB project (eV)
     -6.92484      0.00000     -0.00000
      0.00000     -6.88001      0.11877
     -0.00000      0.11877     -0.05825
  FORCES: max atom, RMS     0.033226    0.007623
  FORCE total and by dimension    0.046989    0.031664
  Stress total and by dimension    9.763169    6.924838
|           W    W    AA    RRRRR   N    N  II  N    N   GGGG   !!!           |
|           W    W   A  A   R    R  NN   N  II  NN   N  G    G  !!!           |
|           W    W  A    A  R    R  N N  N  II  N N  N  G       !!!           |
|           W WW W  AAAAAA  RRRRR   N  N N  II  N  N N  G  GGG   !            |
|           WW  WW  A    A  R   R   N   NN  II  N   NN  G    G                |
|           W    W  A    A  R    R  N    N  II  N    N   GGGG   !!!           |
|     Tetrahedron method does not include variations of the Fermi             |
|     occupations, so forces and stress will be inaccurate. We suggest        |
|     using a different smearing scheme ISMEAR = 1 or 2 for metals in         |
|     relaxations.                                                            |

 total charge

# of ion       s       p       d       tot
    1        0.449   0.284   9.188   9.921
    2        0.449   0.285   9.186   9.920
    3        0.449   0.285   9.186   9.920
    4        0.449   0.285   9.186   9.920
    5        0.448   0.286   9.180   9.915
    6        0.449   0.285   9.186   9.920
    7        0.449   0.285   9.186   9.920
    8        0.449   0.285   9.186   9.920
    9        0.447   0.283   9.190   9.920
   10        0.441   0.372   9.175   9.988
   11        0.444   0.366   9.184   9.994
   12        0.441   0.372   9.175   9.988
   13        0.443   0.366   9.184   9.993
   14        0.443   0.366   9.184   9.993
   15        0.439   0.370   9.178   9.987
   16        0.441   0.372   9.174   9.988
   17        0.438   0.371   9.178   9.987
   18        0.438   0.371   9.178   9.987
   19        0.439   0.370   9.182   9.990
   20        0.456   0.391   9.167  10.014
   21        0.456   0.391   9.167  10.014
   22        0.434   0.376   9.181   9.990
   23        0.456   0.394   9.163  10.013
   24        0.434   0.376   9.181   9.990
   25        0.442   0.368   9.182   9.992
   26        0.442   0.368   9.182   9.992
   27        0.435   0.374   9.182   9.991
   28        0.448   0.284   9.191   9.924
   29        0.455   0.292   9.187   9.934
   30        0.455   0.292   9.187   9.934
   31        0.447   0.295   9.185   9.927
   32        0.447   0.295   9.185   9.927
   33        0.455   0.292   9.187   9.934
   34        0.455   0.292   9.187   9.934
   35        0.443   0.288   9.190   9.920
   36        0.406   0.425   6.402   7.233
   37        1.347   2.450   0.000   3.797
   38        1.347   2.450   0.000   3.797
tot         18.702  16.954 327.773 363.429

 BZINTS: Fermi energy:    0.177261;  403.000000 electrons
         Band energy:-0.112056E+04;  BLOECHL correction:   -0.043909