 vasp.6.2.0 18Jan21 (build Jun 12 2021 23:27:24) complex

 executed on             LinuxIFC date 2022.05.30  16:30:26

 INCAR:
   ISMEAR = -5
   SIGMA = 0.1
   ISPIN = 1
   EDIFF = 1.d-5
   EDIFFG = -0.01
   NSW = 0
   NELM = 150
   ENCUT = 500
   ISIF = 2
   IBRION = 2
   LREAL = Auto
   ALGO = Fast
   ICHARG = 11
   LORBIT = 10
   LCHARG = .F.
   LWAVE = .F.

 POTCAR:    PAW_PBE Au 04Oct2007
 POTCAR:    PAW_PBE Ta 17Jan2003
 POTCAR:    PAW_PBE O 08Apr2002
|           W    W    AA    RRRRR   N    N  II  N    N   GGGG   !!!           |
|           W    W   A  A   R    R  NN   N  II  NN   N  G    G  !!!           |
|           W    W  A    A  R    R  N N  N  II  N N  N  G       !!!           |
|           W WW W  AAAAAA  RRRRR   N  N N  II  N  N N  G  GGG   !            |
|           WW  WW  A    A  R   R   N   NN  II  N   NN  G    G                |
|           W    W  A    A  R    R  N    N  II  N    N   GGGG   !!!           |
|     For optimal performance we recommend to set                             |
|       NCORE = 2 up to number-of-cores-per-socket                            |
|     This setting can greatly improve the performance of VASP for DFT.       |
|     The default, NCORE=1 might be grossly inefficient on modern             |
|     multi-core architectures or massively parallel machines. Do your        |
|     Unfortunately you need to use the default for GW and RPA                |
|     calculations (for HF NCORE is supported but not extensively tested      |
|     yet).                                                                   |

 POTCAR:    PAW_PBE Au 04Oct2007
   VRHFIN =Au: s1d10

   TITEL  = PAW_PBE Au 04Oct2007
   POMASS =  196.966; ZVAL   =   11.000    mass and valenz
   ENMAX  =  229.943; ENMIN  =  172.457 eV

 POTCAR:    PAW_PBE Ta 17Jan2003
   VRHFIN =Ta:  6s5d

   TITEL  = PAW_PBE Ta 17Jan2003
   POMASS =  180.948; ZVAL   =    5.000    mass and valenz
   ENMAX  =  223.667; ENMIN  =  167.750 eV

 POTCAR:    PAW_PBE O 08Apr2002
   VRHFIN =O: s2p4

   TITEL  = PAW_PBE O 08Apr2002
   POMASS =   16.000; ZVAL   =    6.000    mass and valenz
   ENMAX  =  400.000; ENMIN  =  300.000 eV

 Optimization of the real space projectors (new method)

 maximal supplied QI-value         = 15.12
 optimisation between [QCUT,QGAM] = [ 11.34, 22.83] = [ 36.00,145.93] Ry
 Optimized for a Real-space Cutoff    1.39 Angstroem

   l    n(q)    QCUT    max X(q) W(low)/X(q) W(high)/X(q)  e(spline)
   2      9    11.338    60.898    0.39E-03    0.42E-03    0.21E-06
   2      9    11.338    58.894    0.40E-03    0.42E-03    0.22E-06
   0      9    11.338   109.617    0.13E-03    0.20E-04    0.13E-06
   0      9    11.338    75.026    0.13E-03    0.20E-04    0.13E-06
   1      9    11.338    16.344    0.33E-04    0.24E-03    0.18E-06
   1      9    11.338    10.160    0.26E-04    0.19E-03    0.15E-06
 Optimization of the real space projectors (new method)

[...]

   l    n(q)    QCUT    max X(q) W(low)/X(q) W(high)/X(q)  e(spline)
   2     10    11.437    62.315    0.14E-03    0.26E-03    0.80E-06
   2     10    11.437    52.185    0.14E-03    0.26E-03    0.80E-06
   0     11    11.437   103.837    0.25E-04    0.17E-04    0.84E-07
   0     11    11.437    59.728    0.20E-04    0.15E-04    0.73E-07
   1     11    11.437    13.958    0.47E-03    0.12E-03    0.89E-06
   1     11    11.437     8.441    0.33E-03    0.88E-04    0.61E-06
 Optimization of the real space projectors (new method)

 maximal supplied QI-value         = 24.76
 optimisation between [QCUT,QGAM] = [ 11.39, 22.77] = [ 36.31,145.25] Ry
 Optimized for a Real-space Cutoff    1.00 Angstroem

   l    n(q)    QCUT    max X(q) W(low)/X(q) W(high)/X(q)  e(spline)
   0      7    11.387    20.381    0.39E-03    0.13E-02    0.15E-06
   0      7    11.387    15.268    0.42E-03    0.14E-02    0.17E-06
   1      6    11.387     5.964    0.41E-03    0.11E-02    0.17E-06
   1      6    11.387     5.382    0.39E-03    0.87E-03    0.15E-06
  PAW_PBE Au 04Oct2007                  :
  PAW_PBE Ta 17Jan2003                  :
  PAW_PBE O 08Apr2002                   :

 POSCAR: Au-Ta-O2
  positions in direct lattice
  velocities in cartesian coordinates
 exchange correlation table for  LEXCH =        8
   RHO(1)=    0.500       N(1)  =     2000
   RHO(2)=  100.500       N(2)  =     4000

 VTST: version 3.2, (02/03/18)

 CHAIN: initializing optimizer

 OPT: Using VASP Conjugate-Gradient optimizer
 CHAIN: Read ICHAIN            0

 POSCAR: Au-Ta-O2
  positions in direct lattice
  velocities in cartesian coordinates

 ion  position               nearest neighbor table
   1  0.000  0.000  0.217-  16 2.94  12 2.94   6 2.94   8 2.94   7 2.94   3 2.94  10 2.94   4 2.94
                             2 2.94
   2  0.333  0.000  0.217-   9 2.94  11 2.94  17 2.94  10 2.94   8 2.94   4 2.94   5 2.94   1 2.94
                             3 2.94
   3  0.667  0.000  0.217-   7 2.94  18 2.94  12 2.94   1 2.94  11 2.94   5 2.94   6 2.94   9 2.94
                             2 2.94
   4  0.000  0.333  0.217-  10 2.94   6 2.94   5 2.94  13 2.94   2 2.94  15 2.94   9 2.94   1 2.94
                             7 2.94
   5  0.333  0.333  0.217-  13 2.94   7 2.94  11 2.94   4 2.94   2 2.94  14 2.94   3 2.94   8 2.94
                             6 2.94
   6  0.667  0.333  0.217-  15 2.94  14 2.94   1 2.94  12 2.94   4 2.94   9 2.94   8 2.94   3 2.94
                             5 2.94
   7  0.000  0.667  0.217-  18 2.94   3 2.94  16 2.94   5 2.94   1 2.94  13 2.94   8 2.94   4 2.94
                             9 2.94
   8  0.333  0.667  0.217-   9 2.94  17 2.94   1 2.94   2 2.94  14 2.94  16 2.94   6 2.94   7 2.94
                             5 2.94
   9  0.667  0.667  0.217-   2 2.94   8 2.94  17 2.94   6 2.94  15 2.94   4 2.94   3 2.94  18 2.94
                             7 2.94
  10  0.111  0.111  0.316-  20 2.91  11 2.94  17 2.94   2 2.94   4 2.94   1 2.94  12 2.94  16 2.94
                            13 2.94  15 2.94  26 2.96  19 2.96
  11  0.444  0.111  0.316-  20 2.91  21 2.91  13 2.94   2 2.94  10 2.94  17 2.94   5 2.94   3 2.94
                            18 2.94  14 2.94  12 2.94  27 2.94
  12  0.778  0.111  0.316-  21 2.91  16 2.94  18 2.94   1 2.94  14 2.94  15 2.94   3 2.94   6 2.94
                            10 2.94  11 2.94  25 2.96  19 2.96
  13  0.111  0.444  0.316-  23 2.91  20 2.91   5 2.94  18 2.94  11 2.94   7 2.94   4 2.94  16 2.94
                            10 2.94  14 2.94  15 2.94  22 2.94
  14  0.444  0.444  0.316-  21 2.91  23 2.91  15 2.94   6 2.94  12 2.94   8 2.94  17 2.94   5 2.94
                            16 2.94  13 2.94  11 2.94  24 2.94
  15  0.778  0.444  0.316-  24 2.92  22 2.92  14 2.94   6 2.94  17 2.94  12 2.94   9 2.94   4 2.94
                            10 2.94  13 2.94  18 2.94  19 2.95
  16  0.111  0.778  0.316-  23 2.91  18 2.94  12 2.94   7 2.94   1 2.94   8 2.94  13 2.94  10 2.94
                            14 2.94  17 2.94  25 2.96  26 2.96
  17  0.444  0.778  0.316-  27 2.92  24 2.92   9 2.94  15 2.94   2 2.94  10 2.94  11 2.94   8 2.94
                            14 2.94  16 2.94  18 2.94  26 2.95
  18  0.778  0.778  0.316-  22 2.92  27 2.92  16 2.94   7 2.94  13 2.94  12 2.94   3 2.94  11 2.94
                             9 2.94  15 2.94  17 2.94  25 2.95
  19  0.888  0.223  0.415-  24 2.93  22 2.93  21 2.93  20 2.93  28 2.95  15 2.95  26 2.95  25 2.95
                            10 2.96  12 2.96  32 3.06  31 3.06
  20  0.222  0.222  0.413-  36 2.74  10 2.91  11 2.91  13 2.91  26 2.93  19 2.93  23 2.95  21 2.95
                            27 2.95  22 2.95  29 2.99  31 2.99
  21  0.556  0.222  0.413-  36 2.74  12 2.91  14 2.91  11 2.91  25 2.93  19 2.93  20 2.95  23 2.95
                            27 2.95  24 2.95  30 2.99  32 2.99
  22  0.886  0.557  0.414-  24 2.91  27 2.91  18 2.92  15 2.92  25 2.93  19 2.93  13 2.94  23 2.95
                            20 2.95  35 2.96  33 3.03  31 3.03
  23  0.222  0.556  0.413-  36 2.74  16 2.91  13 2.91  14 2.91  25 2.93  26 2.93  20 2.95  21 2.95
                            22 2.95  24 2.95  33 2.99  34 2.99
  24  0.557  0.557  0.414-  27 2.91  22 2.91  15 2.92  17 2.92  26 2.93  19 2.93  14 2.94  21 2.95
                            23 2.95  35 2.96  32 3.03  34 3.03
  25  0.888  0.888  0.415-  22 2.93  27 2.93  23 2.93  21 2.93  28 2.95  18 2.95  19 2.95  26 2.95
                            16 2.96  12 2.96  33 3.06  30 3.06
  26  0.223  0.888  0.415-  27 2.93  24 2.93  20 2.93  23 2.93  28 2.95  17 2.95  19 2.95  25 2.95
                            10 2.96  16 2.96  29 3.06  34 3.06
  27  0.557  0.886  0.414-  24 2.91  22 2.91  17 2.92  18 2.92  26 2.93  25 2.93  11 2.94  20 2.95
                            21 2.95  35 2.96  29 3.03  30 3.03
  28  0.000  0.000  0.514-  25 2.95  19 2.95  26 2.95  34 3.00  32 3.00  33 3.00  30 3.00  31 3.00
                            29 3.00
  29  0.334  0.012  0.517-  30 2.82  31 2.84  36 2.85  35 2.99  20 2.99  28 3.00  27 3.03  26 3.06
                            34 3.16
  30  0.654  0.012  0.517-  29 2.82  32 2.84  36 2.85  35 2.99  21 2.99  28 3.00  27 3.03  25 3.06
                            33 3.16
  31  0.012  0.334  0.517-  37 2.57  33 2.82  29 2.84  36 2.85  35 2.99  20 2.99  28 3.00  22 3.03
                            19 3.06  32 3.16
  32  0.654  0.334  0.517-  38 2.57  34 2.82  30 2.84  36 2.85  35 2.99  21 2.99  28 3.00  24 3.03
                            19 3.06  31 3.16
  33  0.012  0.654  0.517-  31 2.82  34 2.84  36 2.85  35 2.99  23 2.99  28 3.00  22 3.03  25 3.06
                            30 3.16
  34  0.334  0.654  0.517-  32 2.82  33 2.84  36 2.85  35 2.99  23 2.99  28 3.00  24 3.03  26 3.06
                            29 3.16
  35  0.667  0.667  0.514-  24 2.96  27 2.96  22 2.96  29 2.99  34 2.99  32 2.99  31 2.99  30 2.99
                            33 2.99
  36  0.333  0.333  0.502-  37 2.01  38 2.01  20 2.74  23 2.74  21 2.74  33 2.85  31 2.85  29 2.85
                            30 2.85  34 2.85  32 2.85
  37  0.249  0.334  0.579-  38 1.48  36 2.01  31 2.57
  38  0.417  0.334  0.579-  37 1.48  36 2.01  32 2.57

  LATTYP: Found a hexagonal cell.
 ALAT       =     8.8135128021
 C/A-ratio  =     2.7586513333

  Lattice vectors:

 A1 = (  -4.4067569092,  -7.6327256898,   0.0000000000)
 A2 = (   8.8135128021,   0.0000000000,   0.0000000000)
 A3 = (   0.0000000000,   0.0000000000,  24.3134088421)

Analysis of symmetry for initial positions (statically):
 Subroutine PRICEL returns:
 Original cell was already a primitive cell.

 Routine SETGRP: Setting up the symmetry group for a
 hexagonal supercell.

 Subroutine GETGRP returns: Found  2 space group operations
 (whereof  2 operations were pure point group operations)
 out of a pool of 24 trial point group operations.

The static configuration has the point symmetry C_1h.

Analysis of symmetry for dynamics (positions and initial velocities):
 Subroutine PRICEL returns:
 Original cell was already a primitive cell.

[...]

The dynamic configuration has the point symmetry C_1h.

Analysis of constrained symmetry for selective dynamics:
 Subroutine PRICEL returns:
 Original cell was already a primitive cell.

 Routine SETGRP: Setting up the symmetry group for a
[...]
     33      -5.4095      2.00000
     34      -5.4029      2.00000
     35      -5.3484      2.00000
     36      -5.2665      2.00000
     37      -5.2490      2.00000
     38      -5.2312      2.00000
     39      -5.2161      2.00000
     40      -5.1998      2.00000
     41      -5.1764      2.00000
     42      -5.0277      2.00000
     43      -5.0187      2.00000
     44      -4.9571      2.00000
     45      -4.9159      2.00000
     46      -4.8903      2.00000
     47      -4.8684      2.00000
     48      -4.8299      2.00000
     49      -4.8157      2.00000
     50      -4.7672      2.00000
     51      -4.7256      2.00000
     52      -4.6840      2.00000
     53      -4.6792      2.00000
     54      -4.6528      2.00000
     55      -4.6396      2.00000
     56      -4.6097      2.00000
     57      -4.5884      2.00000
     58      -4.5766      2.00000
     59      -4.5533      2.00000
     60      -4.5204      2.00000
[...]
    238       5.5857      0.00000
    239       5.7342      0.00000
    240       5.8909      0.00000
    241       5.9840      0.00000
    242       6.0547      0.00000
    243       6.0815      0.00000
    244       6.1316      0.00000
    245       6.2434      0.00000
    246       6.2732      0.00000
    247       6.3940      0.00000
    248       6.4283      0.00000
    249       6.5830      0.00000
    250       6.7509      0.00000
    251       6.7804      0.00000
    252       6.9010      0.00000

 soft charge-density along one line, spin component           1
         0         1         2         3         4         5         6         7         8         9
 total charge-density along one line

------------------------ aborting loop because EDIFF is reached ----------------------------------------

 total charge

# of ion       s       p       d       tot
    1        0.549   0.238   8.764   9.550
    2        0.541   0.241   8.764   9.547
    3        0.541   0.241   8.764   9.547
    4        0.542   0.241   8.765   9.548
    5        0.542   0.241   8.764   9.547
    6        0.542   0.241   8.765   9.548
    7        0.541   0.241   8.765   9.548
    8        0.541   0.241   8.765   9.548
    9        0.541   0.240   8.766   9.547
   10        0.524   0.305   8.772   9.601
   11        0.517   0.310   8.777   9.604
   12        0.524   0.305   8.772   9.601
   13        0.517   0.310   8.778   9.605
   14        0.517   0.310   8.778   9.605
   15        0.514   0.309   8.774   9.597
   16        0.525   0.306   8.767   9.598
   17        0.514   0.308   8.773   9.595
   18        0.514   0.308   8.773   9.595
   19        0.515   0.293   8.773   9.582
   20        0.571   0.347   8.729   9.648
   21        0.571   0.347   8.729   9.648
   22        0.510   0.306   8.772   9.589
   23        0.576   0.347   8.725   9.648
   24        0.510   0.306   8.772   9.589
   25        0.518   0.293   8.772   9.583
   26        0.518   0.293   8.772   9.583
   27        0.511   0.304   8.775   9.591
   28        0.544   0.224   8.756   9.524
   29        0.577   0.246   8.747   9.570
   30        0.577   0.246   8.747   9.570
   31        0.577   0.240   8.758   9.575
   32        0.577   0.240   8.758   9.575
   33        0.576   0.245   8.749   9.570
   34        0.576   0.245   8.749   9.570
   35        0.539   0.227   8.757   9.523
   36        0.656   0.833   3.179   4.669
   37        1.619   3.246   0.000   4.865
   38        1.619   3.246   0.000   4.865
tot         22.785  17.012 309.868 349.664

  FORCE on cell =-STRESS in cart. coord.  units (eV):
  Direction    XX          YY          ZZ          XY          YZ          ZX
  Alpha Z   949.55718   949.55718   949.55718
  Ewald  148629.65452148279.08825************    -0.00030    -0.65468    -0.00011
  Hartree156993.43198156827.09906************     0.00001    -0.51817    -0.00004
  E(xc)   -1808.68776 -1809.02556 -1817.48628     0.00000     0.07213     0.00000
  Local  ************************317560.40371     0.00256     1.49492     0.00000
  n-local   -91.68495   -93.82927   -66.52105     4.45384     0.12140     0.05351
  augment  2374.84969  2379.49356  2397.16038    -0.00131     0.07405     0.00006
  Kinetic  5635.14297  5678.50931  5716.45699     1.01559    -0.49289    -0.02735
  Fock        0.00000     0.00000     0.00000     0.00000     0.00000     0.00000
  Total     -16.05175   -17.43981     0.95949    -0.00000     0.09676     0.00000
  in kB     -15.72383   -17.08353     0.93989    -0.00000     0.09478     0.00000

 VOLUME and BASIS-vectors are now :
  energy-cutoff  :      500.00
  volume of cell :     1635.59
      direct lattice vectors                 reciprocal lattice vectors
     8.813512802  0.000000000  0.000000000     0.113462137 -0.065507406  0.000000000
     4.406756909  7.632725690  0.000000000     0.000000000  0.131014796  0.000000000
     0.000000000  0.000000000 24.313408842     0.000000000  0.000000000  0.041129568

  length of vectors
     8.813512802  8.813512802 24.313408842     0.131014796  0.131014796  0.041129568

 FORCES acting on ions
    electron-ion (+dipol)            ewald-force                    non-local-force                 convergence-correction
   -.198E-04 0.122E-01 0.265E+04   0.520E-04 -.297E-01 -.265E+04   0.170E-08 0.255E-01 -.554E+00   -.188E-03 -.180E-01 -.691E-01
   0.649E+00 0.174E+00 0.266E+04   -.626E+00 -.174E+00 -.266E+04   -.284E-01 0.505E-01 -.271E+00   0.236E-02 -.538E-01 -.103E+00
   -.649E+00 0.174E+00 0.266E+04   0.626E+00 -.174E+00 -.266E+04   0.284E-01 0.505E-01 -.271E+00   -.209E-02 -.520E-01 -.102E+00
   0.372E+00 0.511E+00 0.266E+04   -.439E+00 -.471E+00 -.266E+04   0.452E-01 -.544E-01 -.300E+00   0.187E-01 0.121E-01 -.170E+00
   0.777E-05 -.188E-01 0.266E+04   0.951E-04 -.840E-03 -.266E+04   0.399E-09 0.600E-02 -.315E+00   0.419E-02 0.120E-01 -.147E+00
   -.372E+00 0.511E+00 0.266E+04   0.439E+00 -.471E+00 -.266E+04   -.452E-01 -.544E-01 -.300E+00   -.202E-01 0.130E-01 -.170E+00
   -.203E+00 -.649E+00 0.266E+04   0.189E+00 0.645E+00 -.266E+04   0.473E-01 -.100E-01 -.285E+00   -.308E-01 0.233E-01 -.115E+00
   0.203E+00 -.649E+00 0.266E+04   -.189E+00 0.645E+00 -.266E+04   -.473E-01 -.100E-01 -.285E+00   0.326E-01 0.223E-01 -.115E+00
   0.197E-04 -.923E-01 0.266E+04   0.166E-03 0.305E-01 -.266E+04   0.502E-09 0.754E-02 -.404E+00   -.454E-02 0.532E-01 -.138E+00
   0.614E+01 0.389E+01 0.908E+03   -.580E+01 -.359E+01 -.907E+03   -.353E+00 -.177E+00 -.478E+00   -.327E-01 -.143E+00 -.212E+00
   0.174E-04 0.273E+01 0.914E+03   0.148E-03 -.273E+01 -.913E+03   0.139E-08 0.209E-01 -.260E+00   0.373E-02 -.108E+00 -.203E+00
   -.614E+01 0.389E+01 0.908E+03   0.580E+01 -.359E+01 -.907E+03   0.353E+00 -.177E+00 -.478E+00   0.316E-01 -.142E+00 -.214E+00
   0.193E+01 -.142E+01 0.914E+03   -.214E+01 0.140E+01 -.913E+03   0.894E-01 -.190E-01 -.281E+00   0.349E-01 0.871E-01 -.179E+00
   -.193E+01 -.142E+01 0.914E+03   0.214E+01 0.140E+01 -.913E+03   -.894E-01 -.190E-01 -.281E+00   -.279E-01 0.863E-01 -.181E+00
   0.315E-04 0.475E+01 0.913E+03   0.236E-03 -.486E+01 -.912E+03   -.185E-08 -.277E-01 -.406E+00   -.166E-02 0.706E-01 -.209E+00
   -.214E-04 -.718E+01 0.908E+03   0.163E-03 0.677E+01 -.907E+03   0.276E-07 0.414E+00 -.542E+00   -.240E-03 0.566E-01 -.143E+00
   0.431E+01 -.263E+01 0.912E+03   -.433E+01 0.260E+01 -.911E+03   -.134E-02 -.166E-02 -.311E+00   -.196E-01 0.557E-01 -.148E+00
   -.431E+01 -.263E+01 0.912E+03   0.433E+01 0.260E+01 -.911E+03   0.134E-02 -.166E-02 -.311E+00   0.201E-01 0.572E-01 -.147E+00
   -.435E-04 0.119E+01 -.867E+03   0.546E-04 -.119E+01 0.866E+03   0.805E-09 0.121E-01 0.830E+00   0.511E-02 -.916E-01 -.838E-01
   -.454E-01 0.157E+01 -.825E+03   0.103E+01 -.106E+01 0.826E+03   -.116E+01 -.516E+00 -.948E+00   0.915E-02 -.923E-01 -.981E-01
   0.454E-01 0.157E+01 -.825E+03   -.103E+01 -.106E+01 0.826E+03   0.116E+01 -.516E+00 -.948E+00   -.166E-01 -.926E-01 -.984E-01
   -.723E+01 0.250E+01 -.844E+03   0.682E+01 -.232E+01 0.843E+03   0.461E+00 -.314E+00 0.796E+00   0.930E-02 0.116E+00 -.134E+00
   -.457E-05 -.250E+01 -.827E+03   0.139E-03 0.101E+01 0.828E+03   0.100E-06 0.151E+01 -.108E+01   -.381E-02 0.122E+00 -.126E+00
   0.723E+01 0.250E+01 -.844E+03   -.682E+01 -.232E+01 0.843E+03   -.461E+00 -.314E+00 0.796E+00   -.789E-02 0.117E+00 -.135E+00
   -.163E+00 0.639E+00 -.869E+03   0.197E+00 -.529E+00 0.868E+03   -.258E-01 -.259E-01 0.609E+00   0.188E-01 -.396E-01 -.163E+00
   0.163E+00 0.639E+00 -.869E+03   -.197E+00 -.529E+00 0.868E+03   0.258E-01 -.259E-01 0.609E+00   -.182E-01 -.376E-01 -.163E+00
   0.128E-04 -.845E+01 -.846E+03   0.196E-03 0.788E+01 0.845E+03   0.431E-07 0.648E+00 0.915E+00   -.284E-03 -.184E-01 -.177E+00
   -.156E-04 0.600E+01 -.254E+04   0.307E-04 -.593E+01 0.254E+04   -.556E-09 -.835E-02 0.336E+00   0.157E-02 -.801E-01 0.925E-02
   0.417E+02 0.818E+02 -.253E+04   -.406E+02 -.810E+02 0.253E+04   -.140E+01 -.131E+01 0.347E+00   0.929E-02 -.647E-01 0.156E-01
   -.417E+02 0.818E+02 -.253E+04   0.406E+02 -.810E+02 0.253E+04   0.140E+01 -.131E+01 0.347E+00   -.157E-01 -.639E-01 0.160E-01
   0.108E+03 0.492E+01 -.250E+04   -.108E+03 -.475E+01 0.250E+04   -.155E+01 -.205E+00 0.862E+00   0.249E-01 0.160E-01 0.368E-01
   -.108E+03 0.492E+01 -.250E+04   0.108E+03 -.475E+01 0.250E+04   0.155E+01 -.205E+00 0.862E+00   -.312E-01 0.171E-01 0.379E-01
   0.334E+02 -.872E+02 -.253E+04   -.327E+02 0.862E+02 0.253E+04   -.960E+00 0.149E+01 0.405E+00   -.209E-01 0.418E-01 0.111E-01
   -.334E+02 -.872E+02 -.253E+04   0.327E+02 0.862E+02 0.253E+04   0.960E+00 0.149E+01 0.405E+00   0.161E-01 0.419E-01 0.117E-01
   0.345E-04 -.616E+01 -.254E+04   0.139E-03 0.608E+01 0.254E+04   0.305E-08 0.458E-01 0.408E+00   -.296E-02 0.532E-01 0.624E-01
   -.137E-04 0.257E+00 -.916E+03   0.527E-04 -.277E+00 0.918E+03   0.453E-08 0.680E-01 0.484E+00   0.433E-03 -.202E-02 0.130E-01
   0.165E+03 0.567E+00 -.166E+04   -.194E+03 -.363E+00 0.168E+04   0.295E+02 -.197E+00 -.194E+02   0.924E-02 -.571E-02 0.369E-01
   -.165E+03 0.567E+00 -.166E+04   0.194E+03 -.363E+00 0.168E+04   -.295E+02 -.197E+00 -.194E+02   -.867E-02 -.563E-02 0.362E-01
   -.490E-03 -.120E+00 0.427E+02   0.284E-13 0.273E-12 0.477E-11   0.967E-08 0.145E+00 -.390E+02   -.142E-01 -.361E-01 -.366E+01

 POSITION                                       TOTAL-FORCE (eV/Angst)
      0.00000      0.00000      5.28038        -0.000000     -0.009715     -0.117510
      2.93784      0.00000      5.28038        -0.003416     -0.002028     -0.016601
      5.87568      0.00000      5.28038         0.003416     -0.002028     -0.016601
      1.46892      2.54424      5.28038        -0.002130     -0.002040     -0.027531
      4.40676      2.54424      5.28038        -0.000000     -0.001374     -0.037580
      7.34459      2.54424      5.28038         0.002130     -0.002040     -0.027531
      2.93784      5.08848      5.28038         0.001503      0.009523     -0.013616
      5.87568      5.08848      5.28038        -0.001503      0.009523     -0.013616
      8.81351      5.08848      5.28038        -0.000000     -0.000747     -0.034384
      1.46892      0.84808      7.67911        -0.048407     -0.021544      0.047794
      4.40676      0.84808      7.67911        -0.000000     -0.090017     -0.044998
      7.34459      0.84808      7.67911         0.048407     -0.021544      0.047794
      2.93784      3.39232      7.67911        -0.088012      0.047586     -0.046087
      5.87568      3.39232      7.67911         0.088012      0.047586     -0.046087
      8.81351      3.39232      7.67911        -0.000000     -0.060044      0.108073
      4.40676      5.93656      7.67911         0.000000      0.065578      0.067672
      7.34459      5.93656      7.67911        -0.049191      0.023136      0.096987
     10.28243      5.93656      7.67911         0.049191      0.023136      0.096987
      8.81351      1.70341     10.09804        -0.000000     -0.079737     -0.028400
      2.93277      1.69323     10.04724        -0.160960     -0.100515     -0.191096
      5.88075      1.69323     10.04724         0.160960     -0.100515     -0.191096
     10.26617      4.24979     10.06844         0.060853     -0.016891      0.087332
      4.40676      4.24626     10.04724         0.000000      0.142370     -0.101283
      7.36086      4.24979     10.06844        -0.060853     -0.016891      0.087332
     11.74508      6.78102     10.09804         0.026736      0.045793     -0.017530
      5.88195      6.78102     10.09804        -0.026735      0.045793     -0.017530
      8.81351      6.76586     10.06844         0.000000      0.057978      0.080550
      0.00000      0.00000     12.50054        -0.000000     -0.020549     -0.013445
      2.99863      0.09131     12.57640        -0.277966     -0.551044     -0.393479
      5.81488      0.09131     12.57640         0.277966     -0.551044     -0.393479
      1.57839      2.55123     12.57640        -1.116061     -0.013229     -0.700962
      7.23512      2.55123     12.57640         1.116061     -0.013229     -0.700962
      2.98652      4.99018     12.57640        -0.260426      0.542390     -0.402747
      5.82700      4.99018     12.57640         0.260426      0.542390     -0.402747
      8.81351      5.08848     12.50707         0.000000      0.024371      0.037308
      4.40676      2.54424     12.20058         0.000000      0.047003      3.218057
      3.66773      2.54699     14.06723         0.023252      0.001305      0.010508
      5.14578      2.54699     14.06723        -0.023252      0.001305      0.010508
    total drift:                               -0.014722     -0.011308      0.063114

  FREE ENERGIE OF THE ION-ELECTRON SYSTEM (eV)
  free  energy   TOTEN  =      -129.55992700 eV

  energy  without entropy=     -129.55992700  energy(sigma->0) =     -129.55992700

 stress matrix after NEB project (eV)
    -16.05175     -0.00000      0.00000
     -0.00000    -17.43981      0.09676
      0.00000      0.09676      0.95949
  FORCES: max atom, RMS     0.025550    0.005861
  FORCE total and by dimension    0.036133    0.023252
  Stress total and by dimension   23.722244   17.439806
|           W    W    AA    RRRRR   N    N  II  N    N   GGGG   !!!           |
|           W    W   A  A   R    R  NN   N  II  NN   N  G    G  !!!           |
|           W    W  A    A  R    R  N N  N  II  N N  N  G       !!!           |
|           W WW W  AAAAAA  RRRRR   N  N N  II  N  N N  G  GGG   !            |
|           WW  WW  A    A  R   R   N   NN  II  N   NN  G    G                |
|           W    W  A    A  R    R  N    N  II  N    N   GGGG   !!!           |
|     Tetrahedron method does not include variations of the Fermi             |
|     occupations, so forces and stress will be inaccurate. We suggest        |
|     using a different smearing scheme ISMEAR = 1 or 2 for metals in         |
|     relaxations.                                                            |

 total charge

# of ion       s       p       d       tot
    1        0.549   0.238   8.764   9.550
    2        0.541   0.241   8.764   9.547
    3        0.541   0.241   8.764   9.547
    4        0.542   0.241   8.765   9.548
    5        0.542   0.241   8.764   9.547
    6        0.542   0.241   8.765   9.548
    7        0.541   0.241   8.765   9.548
    8        0.541   0.241   8.765   9.548
    9        0.541   0.240   8.766   9.547
   10        0.524   0.305   8.772   9.601
   11        0.517   0.310   8.777   9.604
   12        0.524   0.305   8.772   9.601
   13        0.517   0.310   8.778   9.605
   14        0.517   0.310   8.778   9.605
   15        0.514   0.309   8.774   9.597
   16        0.525   0.306   8.767   9.598
   17        0.514   0.308   8.773   9.595
   18        0.514   0.308   8.773   9.595
   19        0.515   0.293   8.773   9.582
   20        0.571   0.347   8.729   9.648
   21        0.571   0.347   8.729   9.648
   22        0.510   0.306   8.772   9.589
   23        0.576   0.347   8.725   9.648
   24        0.510   0.306   8.772   9.589
   25        0.518   0.293   8.772   9.583
   26        0.518   0.293   8.772   9.583
   27        0.511   0.304   8.775   9.591
   28        0.544   0.224   8.756   9.524
   29        0.577   0.246   8.747   9.570
   30        0.577   0.246   8.747   9.570
   31        0.577   0.240   8.758   9.575
   32        0.577   0.240   8.758   9.575
   33        0.576   0.245   8.749   9.570
   34        0.576   0.245   8.749   9.570
   35        0.539   0.227   8.757   9.523
   36        0.656   0.833   3.179   4.669
   37        1.619   3.246   0.000   4.865
   38        1.619   3.246   0.000   4.865
tot         22.785  17.012 309.868 349.664

 BZINTS: Fermi energy:    0.205776;  402.000000 electrons
         Band energy:-0.150885E+04;  BLOECHL correction:   -0.057577