 vasp.6.2.0 18Jan21 (build Jun 12 2021 23:27:24) complex

 executed on             LinuxIFC date 2022.05.26  20:25:19

 INCAR:
   ISMEAR = -5
   SIGMA = 0.1
   ISPIN = 1
   EDIFF = 1.d-5
   EDIFFG = -0.01
   NSW = 0
   NELM = 150
   ENCUT = 500
   ISIF = 2
   IBRION = 2
   LREAL = Auto
   ALGO = Fast
   ICHARG = 11
   LORBIT = 10
   LCHARG = .F.
   LWAVE = .F.

 POTCAR:    PAW_PBE Cu 22Jun2005
 POTCAR:    PAW_PBE Fe 06Sep2000
|           W    W    AA    RRRRR   N    N  II  N    N   GGGG   !!!           |
|           W    W   A  A   R    R  NN   N  II  NN   N  G    G  !!!           |
|           W    W  A    A  R    R  N N  N  II  N N  N  G       !!!           |
|           W WW W  AAAAAA  RRRRR   N  N N  II  N  N N  G  GGG   !            |
|           WW  WW  A    A  R   R   N   NN  II  N   NN  G    G                |
|           W    W  A    A  R    R  N    N  II  N    N   GGGG   !!!           |
|     For optimal performance we recommend to set                             |
|       NCORE = 2 up to number-of-cores-per-socket                            |
|     This setting can greatly improve the performance of VASP for DFT.       |
|     The default, NCORE=1 might be grossly inefficient on modern             |
|     multi-core architectures or massively parallel machines. Do your        |
|     Unfortunately you need to use the default for GW and RPA                |
|     calculations (for HF NCORE is supported but not extensively tested      |
|     yet).                                                                   |

 POTCAR:    PAW_PBE Cu 22Jun2005
   VRHFIN =Cu: d10 p1

   TITEL  = PAW_PBE Cu 22Jun2005
   POMASS =   63.546; ZVAL   =   11.000    mass and valenz
   ENMAX  =  295.446; ENMIN  =  221.585 eV

 POTCAR:    PAW_PBE Fe 06Sep2000
   VRHFIN =Fe:  d7 s1

   TITEL  = PAW_PBE Fe 06Sep2000
   POMASS =   55.847; ZVAL   =    8.000    mass and valenz
   ENMAX  =  267.882; ENMIN  =  200.911 eV

 Optimization of the real space projectors (new method)

 maximal supplied QI-value         = 16.25
 optimisation between [QCUT,QGAM] = [ 11.38, 22.75] = [ 36.24,144.96] Ry
 Optimized for a Real-space Cutoff    1.52 Angstroem

   l    n(q)    QCUT    max X(q) W(low)/X(q) W(high)/X(q)  e(spline)
   2      9    11.376     4.610    0.21E-03    0.10E-03    0.26E-06
   2      9    11.376     8.522    0.33E-03    0.16E-03    0.37E-06
   0     10    11.376    51.609    0.62E-04    0.20E-04    0.13E-06
   0     10    11.376    27.747    0.54E-04    0.20E-04    0.13E-06
   1     10    11.376    20.408    0.13E-04    0.99E-04    0.19E-06
   1     10    11.376    13.425    0.12E-04    0.87E-04    0.17E-06
 Optimization of the real space projectors (new method)

 maximal supplied QI-value         = 16.25
 optimisation between [QCUT,QGAM] = [ 11.38, 22.75] = [ 36.24,144.96] Ry
 Optimized for a Real-space Cutoff    1.39 Angstroem

   l    n(q)    QCUT    max X(q) W(low)/X(q) W(high)/X(q)  e(spline)
   2      8    11.376    80.901    0.45E-03    0.44E-04    0.21E-06
   2      8    11.376    75.754    0.45E-03    0.45E-04    0.22E-06
   0      9    11.376    58.752    0.65E-04    0.95E-04    0.17E-06
   0      9    11.376    30.679    0.59E-04    0.87E-04    0.16E-06
   1      9    11.376    17.977    0.38E-03    0.10E-03    0.14E-06
   1      9    11.376    13.559    0.31E-03    0.90E-04    0.12E-06
  PAW_PBE Cu 22Jun2005                  :
  PAW_PBE Fe 06Sep2000                  :

 POSCAR: Cu-Fe
  positions in direct lattice
  velocities in cartesian coordinates
 exchange correlation table for  LEXCH =        8
   RHO(1)=    0.500       N(1)  =     2000
   RHO(2)=  100.500       N(2)  =     4000

 VTST: version 3.2, (02/03/18)

 CHAIN: initializing optimizer

 OPT: Using VASP Conjugate-Gradient optimizer
 CHAIN: Read ICHAIN            0

 POSCAR: Cu-Fe
  positions in direct lattice
  velocities in cartesian coordinates

 ion  position               nearest neighbor table
   1  0.000  0.000  0.252-   7 2.57   3 2.57   4 2.57   2 2.57   6 2.57   8 2.57  12 2.57  10 2.57
                            16 2.57
   2  0.333  0.000  0.252-   8 2.57   9 2.57   5 2.57   1 2.57   3 2.57  11 2.57   4 2.57  10 2.57
                            17 2.57
   3  0.667  0.000  0.252-   1 2.57   7 2.57   6 2.57   9 2.57   2 2.57  12 2.57   5 2.57  18 2.57
                            11 2.57
   4  0.000  0.333  0.252-   5 2.57   6 2.57   1 2.57   7 2.57   2 2.57  13 2.57   9 2.57  10 2.57
                            15 2.57
   5  0.333  0.333  0.252-   4 2.57   2 2.57   7 2.57  13 2.57   8 2.57   6 2.57   3 2.57  11 2.57
                            14 2.57
   6  0.667  0.333  0.252-   4 2.57   9 2.57  15 2.57   3 2.57   1 2.57   8 2.57  14 2.57   5 2.57
                            12 2.57
   7  0.000  0.667  0.252-   1 2.57   3 2.57  16 2.57  18 2.57   4 2.57   5 2.57   8 2.57   9 2.57
                            13 2.57
   8  0.333  0.667  0.252-   9 2.57   2 2.57  17 2.57   6 2.57   1 2.57   7 2.57   5 2.57  14 2.57
                            16 2.57
   9  0.667  0.667  0.252-   8 2.57   6 2.57   2 2.57  17 2.57   3 2.57   7 2.57   4 2.57  15 2.57
                            18 2.57
  10  0.111  0.111  0.351-  20 2.55  26 2.56  19 2.56  11 2.57  12 2.57  13 2.57   1 2.57   2 2.57
                             4 2.57  15 2.57  16 2.57  17 2.57
  11  0.444  0.111  0.351-  20 2.55  21 2.55  27 2.56  10 2.57  13 2.57   2 2.57  17 2.57  14 2.57
                            12 2.57   5 2.57   3 2.57  18 2.57
  12  0.778  0.111  0.351-  21 2.55  19 2.56  25 2.56  15 2.57  10 2.57  14 2.57  18 2.57   3 2.57
                             1 2.57  16 2.57  11 2.57   6 2.57
  13  0.111  0.444  0.351-  23 2.55  20 2.55  22 2.56  16 2.57  18 2.57  10 2.57  11 2.57  14 2.57
                             5 2.57   4 2.57   7 2.57  15 2.57
  14  0.444  0.444  0.351-  21 2.55  23 2.55  24 2.56  15 2.57  17 2.57  12 2.57  16 2.57  13 2.57
                            11 2.57   6 2.57   8 2.57   5 2.57
  15  0.778  0.444  0.351-  19 2.56  24 2.56  22 2.56  14 2.57  17 2.57  12 2.57   6 2.57  18 2.57
                            10 2.57   9 2.57  13 2.57   4 2.57
  16  0.111  0.778  0.351-  23 2.55  25 2.56  26 2.56  18 2.57  13 2.57   7 2.57  14 2.57  17 2.57
                            12 2.57  10 2.57   8 2.57   1 2.57
  17  0.444  0.778  0.351-  26 2.56  27 2.56  24 2.56  14 2.57  15 2.57   8 2.57   9 2.57  11 2.57
                            16 2.57  18 2.57  10 2.57   2 2.57
  18  0.778  0.778  0.351-  25 2.56  22 2.56  27 2.56  16 2.57  13 2.57   7 2.57  15 2.57  12 2.57
                            17 2.57   9 2.57   3 2.57  11 2.57
  19  0.889  0.223  0.449-  28 2.55  15 2.56  12 2.56  10 2.56  22 2.56  24 2.56  32 2.57  31 2.57
                            21 2.57  20 2.57  25 2.57  26 2.57
  20  0.222  0.222  0.448-  36 2.47  11 2.55  13 2.55  10 2.55  29 2.55  31 2.55  23 2.56  21 2.56
                            26 2.57  19 2.57  27 2.57  22 2.57
  21  0.555  0.222  0.448-  36 2.47  14 2.55  11 2.55  12 2.55  32 2.55  30 2.55  20 2.56  23 2.56
                            19 2.57  25 2.57  24 2.57  27 2.57
  22  0.888  0.556  0.449-  35 2.54  31 2.56  33 2.56  18 2.56  15 2.56  24 2.56  27 2.56  13 2.56
                            19 2.56  25 2.56  23 2.57  20 2.57
  23  0.222  0.555  0.448-  36 2.47  13 2.55  14 2.55  16 2.55  33 2.55  34 2.55  20 2.56  21 2.56
                            25 2.57  26 2.57  22 2.57  24 2.57
  24  0.556  0.556  0.449-  35 2.54  32 2.56  34 2.56  15 2.56  17 2.56  22 2.56  27 2.56  14 2.56
                            19 2.56  26 2.56  21 2.57  23 2.57
  25  0.889  0.889  0.449-  28 2.55  18 2.56  16 2.56  12 2.56  22 2.56  27 2.56  33 2.57  30 2.57
                            21 2.57  23 2.57  19 2.57  26 2.57
  26  0.223  0.889  0.449-  28 2.55  17 2.56  10 2.56  16 2.56  27 2.56  24 2.56  29 2.57  34 2.57
                            20 2.57  23 2.57  25 2.57  19 2.57
  27  0.556  0.888  0.449-  35 2.54  29 2.56  30 2.56  17 2.56  18 2.56  24 2.56  22 2.56  11 2.56
                            26 2.56  25 2.56  20 2.57  21 2.57
  28  0.000  0.000  0.546-  25 2.55  19 2.55  26 2.55  33 2.58  30 2.58  31 2.58  29 2.58  32 2.58
                            34 2.58
  29  0.333  0.003  0.547-  31 2.54  30 2.54  36 2.54  20 2.55  27 2.56  26 2.57  28 2.58  35 2.58
                            34 2.61
  30  0.664  0.003  0.547-  32 2.54  29 2.54  36 2.54  21 2.55  27 2.56  25 2.57  28 2.58  35 2.58
                            33 2.61
  31  0.003  0.333  0.547-  29 2.54  33 2.54  36 2.54  20 2.55  22 2.56  19 2.57  28 2.58  35 2.58
                            32 2.61
  32  0.664  0.333  0.547-  30 2.54  34 2.54  36 2.54  21 2.55  24 2.56  19 2.57  28 2.58  35 2.58
                            31 2.61
  33  0.003  0.664  0.547-  34 2.54  31 2.54  36 2.54  23 2.55  22 2.56  25 2.57  28 2.58  35 2.58
                            30 2.61
  34  0.333  0.664  0.547-  33 2.54  32 2.54  36 2.54  23 2.55  24 2.56  26 2.57  28 2.58  35 2.58
                            29 2.61
  35  0.667  0.667  0.546-  24 2.54  27 2.54  22 2.54  34 2.58  32 2.58  29 2.58  30 2.58  33 2.58
                            31 2.58
  36  0.333  0.333  0.541-  23 2.47  20 2.47  21 2.47  31 2.54  29 2.54  33 2.54  34 2.54  32 2.54
                            30 2.54

  LATTYP: Found a hexagonal cell.
 ALAT       =     7.6967864036
 C/A-ratio  =     2.7653617908

  Lattice vectors:

 A1 = (  -3.8483927580,  -6.6656128093,   0.0000000000)
 A2 = (   7.6967864037,   0.0000000000,   0.0000000000)
 A3 = (   0.0000000000,   0.0000000000,  21.2843990326)

Analysis of symmetry for initial positions (statically):
 Subroutine PRICEL returns:
 Original cell was already a primitive cell.

 Routine SETGRP: Setting up the symmetry group for a
 hexagonal supercell.

 Subroutine GETGRP returns: Found  6 space group operations
 (whereof  6 operations were pure point group operations)
 out of a pool of 24 trial point group operations.

The static configuration has the point symmetry C_3v.

Analysis of symmetry for dynamics (positions and initial velocities):
 Subroutine PRICEL returns:
 Original cell was already a primitive cell.

[...]

The dynamic configuration has the point symmetry C_3v.

Analysis of constrained symmetry for selective dynamics:
 Subroutine PRICEL returns:
 Original cell was already a primitive cell.

 Routine SETGRP: Setting up the symmetry group for a
 hexagonal supercell.

 Subroutine GETGRP returns: Found  6 space group operations
 (whereof  6 operations were pure point group operations)
 out of a pool of 24 trial point group operations.

The constrained configuration has the point symmetry C_3v.

 Subroutine INISYM returns: Found  6 space group operations
 (whereof  6 operations are pure point group operations),
 and found     1 'primitive' translations

                                     Primitive cell

  volume of cell :    1091.9705

  direct lattice vectors                    reciprocal lattice vectors
     7.696786404  0.000000000  0.000000000     0.129924354 -0.075011849  0.000000000
     3.848392758  6.665612809  0.000000000     0.000000000  0.150023716  0.000000000
[...]
     15      -4.5213      2.00000
     16      -4.5151      2.00000
     17      -4.5110      2.00000
     18      -4.4351      2.00000
     19      -4.4279      2.00000
     20      -4.3565      2.00000
     21      -4.3467      2.00000
     22      -4.3404      2.00000
     23      -4.3243      2.00000
     24      -4.1363      2.00000
     25      -4.1267      2.00000
     26      -4.0736      2.00000
     27      -4.0661      2.00000
     28      -4.0628      2.00000
     29      -4.0500      2.00000
     30      -4.0456      2.00000
     31      -4.0309      2.00000
     32      -3.9670      2.00000
     33      -3.9647      2.00000
     34      -3.9463      2.00000
     35      -3.8496      2.00000
     36      -3.8416      2.00000
     37      -3.7451      2.00000
     38      -3.7415      2.00000
     39      -3.6619      2.00000
     40      -3.6553      2.00000
     41      -3.6399      2.00000
     42      -3.6179      2.00000
     43      -3.6142      2.00000
     44      -3.5927      2.00000
     45      -3.5800      2.00000
     46      -3.4109      2.00000
     47      -3.3932      2.00000
     48      -3.3902      2.00000
     49      -3.3812      2.00000
     50      -3.3317      2.00000
     51      -3.3228      2.00000
     52      -3.3130      2.00000
     53      -3.2913      2.00000
     54      -3.2857      2.00000
     55      -3.2588      2.00000
     56      -3.2505      2.00000
     57      -3.2474      2.00000
     58      -3.2360      2.00000
     59      -3.2263      2.00000
     60      -3.2139      2.00000
[...]
    238       6.8202      0.00000
    239       6.8300      0.00000
    240       6.9768      0.00000
    241       7.0234      0.00000
    242       7.2420      0.00000
    243       7.2526      0.00000
    244       7.2983      0.00000
    245       7.3776      0.00000
    246       7.5551      0.00000
    247       7.6541      0.00000
    248       7.8664      0.00000
    249       7.9216      0.00000
    250       8.1355      0.00000
    251       8.1937      0.00000
    252       8.3964      0.00000

 soft charge-density along one line, spin component           1
         0         1         2         3         4         5         6         7         8         9
 total charge-density along one line

------------------------ aborting loop because EDIFF is reached ----------------------------------------

 total charge

# of ion       s       p       d       tot
    1        0.449   0.284   9.188   9.921
    2        0.449   0.285   9.187   9.920
    3        0.449   0.285   9.187   9.920
    4        0.449   0.285   9.187   9.920
    5        0.446   0.288   9.181   9.915
    6        0.449   0.285   9.187   9.920
    7        0.449   0.285   9.187   9.920
    8        0.449   0.285   9.187   9.920
    9        0.449   0.282   9.189   9.920
   10        0.442   0.372   9.174   9.989
   11        0.442   0.366   9.184   9.993
   12        0.442   0.372   9.174   9.989
   13        0.442   0.366   9.184   9.993
   14        0.442   0.366   9.184   9.993
   15        0.440   0.369   9.180   9.989
   16        0.442   0.372   9.174   9.989
   17        0.440   0.369   9.180   9.989
   18        0.440   0.369   9.180   9.989
   19        0.440   0.370   9.181   9.992
   20        0.454   0.392   9.166  10.012
   21        0.454   0.392   9.166  10.012
   22        0.436   0.374   9.182   9.992
   23        0.454   0.392   9.166  10.012
   24        0.436   0.374   9.182   9.992
   25        0.440   0.370   9.181   9.992
   26        0.440   0.370   9.181   9.992
   27        0.436   0.374   9.182   9.992
   28        0.446   0.284   9.189   9.919
   29        0.457   0.296   9.175   9.928
   30        0.457   0.296   9.175   9.928
   31        0.457   0.296   9.175   9.928
   32        0.457   0.296   9.175   9.928
   33        0.457   0.296   9.175   9.928
   34        0.457   0.296   9.175   9.928
   35        0.440   0.288   9.188   9.916
   36        0.422   0.315   6.313   7.050
tot         16.048  11.963 327.623 355.634

  FORCE on cell =-STRESS in cart. coord.  units (eV):
  Direction    XX          YY          ZZ          XY          YZ          ZX
  Alpha Z   868.56248   868.56248   868.56248
  Ewald  173468.85064173468.85024************     0.00038     0.00010     0.00015
  Hartree186421.66793186421.66790************     0.00004     0.00005     0.00006
  E(xc)   -2285.08573 -2285.08526 -2289.76531    -0.00041    -0.00003    -0.00006
  Local  ************************373247.78853     0.01836    -0.00054    -0.00090
  n-local  -791.01485  -778.59393  -798.65270     6.55918     0.06093     0.00404
  augment  3345.06177  3345.08161  3364.22379    -0.01718     0.00027     0.00049
  Kinetic  3195.51601  3203.49000  3228.16263     5.16126     1.35121    -0.77181
  Fock        0.00000     0.00000     0.00000     0.00000     0.00000     0.00000
  Total      -8.45453    -8.45454     0.87343     0.00000    -0.00000     0.00000
  in kB     -12.40479   -12.40479     1.28153     0.00000    -0.00000     0.00000

 VOLUME and BASIS-vectors are now :
  energy-cutoff  :      500.00
  volume of cell :     1091.97
      direct lattice vectors                 reciprocal lattice vectors
     7.696786404  0.000000000  0.000000000     0.129924354 -0.075011849  0.000000000
     3.848392758  6.665612809  0.000000000     0.000000000  0.150023716  0.000000000
     0.000000000  0.000000000 21.284399033     0.000000000  0.000000000  0.046982769

  length of vectors
     7.696786404  7.696786404 21.284399033     0.150023716  0.150023716  0.046982769

 FORCES acting on ions
    electron-ion (+dipol)            ewald-force                    non-local-force                 convergence-correction
   -.415E-04 0.194E-06 0.346E+04   0.580E-04 -.439E-05 -.346E+04   -.448E-17 -.180E-17 -.259E+01   -.325E-03 -.155E-03 -.289E+00
   -.395E-01 0.628E-01 0.346E+04   -.533E-01 -.732E-02 -.346E+04   0.340E-01 -.215E-01 -.186E+01   0.610E-01 -.239E-01 -.268E+00
   0.395E-01 0.628E-01 0.346E+04   0.532E-01 -.736E-02 -.346E+04   -.340E-01 -.215E-01 -.186E+01   -.601E-01 -.214E-01 -.267E+00
   0.347E-01 -.656E-01 0.346E+04   -.331E-01 -.424E-01 -.346E+04   -.157E-02 0.402E-01 -.186E+01   0.990E-02 0.647E-01 -.268E+00
   -.620E-04 -.352E-05 0.346E+04   0.116E-03 -.101E-04 -.346E+04   -.198E-18 -.347E-18 -.178E+01   0.121E-01 0.738E-02 -.212E+00
   -.346E-01 -.655E-01 0.346E+04   0.329E-01 -.426E-01 -.346E+04   0.157E-02 0.402E-01 -.186E+01   -.114E-01 0.658E-01 -.267E+00
   0.741E-01 0.278E-02 0.346E+04   0.202E-01 0.498E-01 -.346E+04   -.356E-01 -.187E-01 -.186E+01   -.486E-01 -.414E-01 -.267E+00
   -.740E-01 0.277E-02 0.346E+04   -.205E-01 0.498E-01 -.346E+04   0.356E-01 -.187E-01 -.186E+01   0.520E-01 -.428E-01 -.267E+00
   -.144E-03 -.329E-04 0.346E+04   0.263E-03 0.206E-04 -.346E+04   -.137E-17 -.549E-17 -.219E+01   -.131E-01 -.675E-02 -.286E+00
   0.109E+01 0.628E+00 0.114E+04   -.843E+00 -.487E+00 -.114E+04   -.305E+00 -.176E+00 -.107E+01   0.776E-01 0.448E-01 -.457E-01
   -.903E-04 0.323E+00 0.114E+04   0.189E-03 -.627E+00 -.114E+04   -.109E-07 0.164E+00 -.422E+00   0.118E-01 0.107E+00 0.233E-01
   -.109E+01 0.628E+00 0.114E+04   0.843E+00 -.487E+00 -.114E+04   0.305E+00 -.176E+00 -.107E+01   -.790E-01 0.454E-01 -.466E-01
   0.279E+00 -.161E+00 0.114E+04   -.543E+00 0.313E+00 -.114E+04   0.142E+00 -.822E-01 -.422E+00   0.991E-01 -.425E-01 0.233E-01
   -.279E+00 -.161E+00 0.114E+04   0.543E+00 0.313E+00 -.114E+04   -.142E+00 -.822E-01 -.422E+00   -.759E-01 -.442E-01 0.203E-01
   -.143E-03 0.388E+00 0.114E+04   0.299E-03 -.665E+00 -.114E+04   -.110E-07 0.166E+00 -.878E+00   -.297E-02 0.969E-01 -.724E-01
   -.917E-04 -.126E+01 0.114E+04   0.186E-03 0.974E+00 -.114E+04   -.235E-07 0.352E+00 -.107E+01   -.116E-02 -.923E-01 -.466E-01
   0.336E+00 -.194E+00 0.114E+04   -.576E+00 0.333E+00 -.114E+04   0.144E+00 -.828E-01 -.878E+00   0.831E-01 -.510E-01 -.726E-01
   -.336E+00 -.194E+00 0.114E+04   0.576E+00 0.333E+00 -.114E+04   -.144E+00 -.828E-01 -.878E+00   -.815E-01 -.487E-01 -.704E-01
   -.598E-04 -.101E+01 -.121E+04   0.695E-04 0.921E+00 0.121E+04   0.141E-08 -.212E-01 0.650E+00   0.135E-02 0.110E+00 0.178E+00
   -.122E+02 -.704E+01 -.122E+04   0.128E+02 0.741E+01 0.122E+04   -.860E+00 -.497E+00 -.689E+00   0.213E+00 0.123E+00 0.386E+00
   0.122E+02 -.704E+01 -.122E+04   -.128E+02 0.741E+01 0.122E+04   0.860E+00 -.497E+00 -.689E+00   -.234E+00 0.121E+00 0.386E+00
   -.100E+02 0.579E+01 -.121E+04   0.938E+01 -.542E+01 0.121E+04   0.430E+00 -.248E+00 0.585E+00   0.234E+00 -.122E+00 0.997E-01
   -.791E-04 0.141E+02 -.122E+04   0.145E-03 -.148E+02 0.122E+04   -.662E-07 0.994E+00 -.689E+00   -.137E-01 -.264E+00 0.386E+00
   0.100E+02 0.579E+01 -.121E+04   -.938E+01 -.542E+01 0.121E+04   -.430E+00 -.248E+00 0.585E+00   -.210E+00 -.122E+00 0.992E-01
   0.876E+00 0.506E+00 -.121E+04   -.797E+00 -.460E+00 0.121E+04   0.183E-01 0.106E-01 0.650E+00   -.976E-01 -.563E-01 0.177E+00
   -.876E+00 0.506E+00 -.121E+04   0.797E+00 -.460E+00 0.121E+04   -.183E-01 0.106E-01 0.650E+00   0.966E-01 -.538E-01 0.179E+00
   -.126E-03 -.116E+02 -.121E+04   0.241E-03 0.108E+02 0.121E+04   -.331E-07 0.496E+00 0.585E+00   0.115E-01 0.263E+00 0.999E-01
   -.368E-04 0.150E-04 -.349E+04   0.396E-04 -.333E-04 0.349E+04   -.482E-17 -.895E-17 0.225E+01   0.148E-02 0.909E-03 0.355E+00
   -.165E+02 -.279E+02 -.350E+04   0.169E+02 0.284E+02 0.350E+04   -.692E+00 -.905E+00 0.171E+01   0.202E+00 0.331E+00 0.308E+00
   0.165E+02 -.279E+02 -.350E+04   -.169E+02 0.284E+02 0.350E+04   0.692E+00 -.905E+00 0.171E+01   -.223E+00 0.332E+00 0.307E+00
   -.324E+02 -.317E+00 -.350E+04   0.331E+02 0.441E+00 0.350E+04   -.113E+01 -.147E+00 0.171E+01   0.388E+00 0.915E-02 0.308E+00
   0.324E+02 -.317E+00 -.350E+04   -.331E+02 0.441E+00 0.350E+04   0.113E+01 -.147E+00 0.171E+01   -.410E+00 0.988E-02 0.309E+00
   -.159E+02 0.282E+02 -.350E+04   0.162E+02 -.289E+02 0.350E+04   -.438E+00 0.105E+01 0.171E+01   0.176E+00 -.360E+00 0.307E+00
   0.159E+02 0.282E+02 -.350E+04   -.162E+02 -.289E+02 0.350E+04   0.438E+00 0.105E+01 0.171E+01   -.196E+00 -.360E+00 0.309E+00
   -.125E-03 -.179E-04 -.350E+04   0.251E-03 0.550E-05 0.349E+04   0.111E-17 -.132E-17 0.258E+01   -.108E-01 -.539E-02 0.476E+00
   -.622E-04 -.109E-04 -.250E+04   0.105E-03 0.189E-04 0.249E+04   0.529E-18 -.163E-17 0.280E+01   0.441E-02 0.266E-02 0.256E+00
   -.227E-03 0.102E-04 0.305E+01   0.187E-12 0.195E-12 0.591E-11   -.553E-15 -.294E-17 -.532E+01   -.340E-01 -.226E-01 0.225E+01

 POSITION                                       TOTAL-FORCE (eV/Angst)
      0.00000      0.00000      5.37156         0.000000     -0.000000      0.029217
      2.56560      0.00000      5.37156         0.002593      0.011153      0.063114
      5.13119      0.00000      5.37156        -0.002593      0.011153      0.063114
      1.28280      2.22187      5.37156         0.010955     -0.003330      0.063114
      3.84839      2.22187      5.37156         0.000000     -0.000000      0.039243
      6.41399      2.22187      5.37156        -0.010955     -0.003330      0.063114
      2.56560      4.44374      5.37156         0.008362     -0.007822      0.063114
      5.13119      4.44374      5.37156        -0.008362     -0.007822      0.063114
      7.69679      4.44374      5.37156        -0.000000     -0.000000      0.026533
      1.28280      0.74062      7.46636         0.017734      0.010239     -0.059222
      3.84839      0.74062      7.46636         0.000000     -0.039226     -0.095107
      6.41399      0.74062      7.46636        -0.017734      0.010239     -0.059222
      2.56560      2.96249      7.46636        -0.033971      0.019613     -0.095107
      5.13119      2.96249      7.46636         0.033971      0.019613     -0.095107
      7.69679      2.96249      7.46636         0.000000     -0.015430     -0.027439
      3.84839      5.18437      7.46636         0.000000     -0.020478     -0.059222
      6.41399      5.18437      7.46636        -0.013363      0.007715     -0.027439
      8.97958      5.18437      7.46636         0.013363      0.007715     -0.027439
      7.69679      1.48386      9.55425         0.000000     -0.000526     -0.004336
      2.56752      1.48236      9.54187         0.001502      0.000867     -0.007225
      5.12927      1.48236      9.54187        -0.001502      0.000867     -0.007225
      8.97669      3.70479      9.55452         0.000494     -0.000285     -0.005542
      3.84839      3.70090      9.54187         0.000000     -0.001734     -0.007225
      6.41688      3.70479      9.55452        -0.000494     -0.000285     -0.005542
     10.26012      5.92368      9.55425         0.000456      0.000263     -0.004336
      5.13345      5.92368      9.55425        -0.000456      0.000263     -0.004336
      7.69679      5.92165      9.55452        -0.000000      0.000570     -0.005542
      0.00000      0.00000     11.62539         0.000000     -0.000000      0.031107
      2.57645      0.02208     11.63568        -0.010382     -0.002822      0.016036
      5.12034      0.02208     11.63568         0.010382     -0.002822      0.016036
      1.30734      2.22023     11.63568        -0.007635     -0.007580      0.016036
      6.38944      2.22023     11.63568         0.007635     -0.007580      0.016036
      2.57929      4.42331     11.63568         0.002747      0.010402      0.016036
      5.11749      4.42331     11.63568        -0.002747      0.010402      0.016036
      7.69679      4.44374     11.62587         0.000000     -0.000000      0.016624
      3.84839      2.22187     11.51524         0.000000      0.000000     -0.021009
    total drift:                               -0.034219     -0.022611     -0.024284

  FREE ENERGIE OF THE ION-ELECTRON SYSTEM (eV)
  free  energy   TOTEN  =      -128.64116603 eV

  energy  without entropy=     -128.64116603  energy(sigma->0) =     -128.64116603

 stress matrix after NEB project (eV)
     -8.45453      0.00000      0.00000
      0.00000     -8.45454     -0.00000
     -0.00000     -0.00000      0.87343
  FORCES: max atom, RMS     0.031107    0.010851
  FORCE total and by dimension    0.065105    0.031107
  Stress total and by dimension   11.988378    8.454535
|           W    W    AA    RRRRR   N    N  II  N    N   GGGG   !!!           |
|           W    W   A  A   R    R  NN   N  II  NN   N  G    G  !!!           |
|           W    W  A    A  R    R  N N  N  II  N N  N  G       !!!           |
|           W WW W  AAAAAA  RRRRR   N  N N  II  N  N N  G  GGG   !            |
|           WW  WW  A    A  R   R   N   NN  II  N   NN  G    G                |
|           W    W  A    A  R    R  N    N  II  N    N   GGGG   !!!           |
|     Tetrahedron method does not include variations of the Fermi             |
|     occupations, so forces and stress will be inaccurate. We suggest        |
|     using a different smearing scheme ISMEAR = 1 or 2 for metals in         |
|     relaxations.                                                            |

 total charge

# of ion       s       p       d       tot
    1        0.449   0.284   9.188   9.921
    2        0.449   0.285   9.187   9.920
    3        0.449   0.285   9.187   9.920
    4        0.449   0.285   9.187   9.920
    5        0.446   0.288   9.181   9.915
    6        0.449   0.285   9.187   9.920
    7        0.449   0.285   9.187   9.920
    8        0.449   0.285   9.187   9.920
    9        0.449   0.282   9.189   9.920
   10        0.442   0.372   9.174   9.989
   11        0.442   0.366   9.184   9.993
   12        0.442   0.372   9.174   9.989
   13        0.442   0.366   9.184   9.993
   14        0.442   0.366   9.184   9.993
   15        0.440   0.369   9.180   9.989
   16        0.442   0.372   9.174   9.989
   17        0.440   0.369   9.180   9.989
   18        0.440   0.369   9.180   9.989
   19        0.440   0.370   9.181   9.992
   20        0.454   0.392   9.166  10.012
   21        0.454   0.392   9.166  10.012
   22        0.436   0.374   9.182   9.992
   23        0.454   0.392   9.166  10.012
   24        0.436   0.374   9.182   9.992
   25        0.440   0.370   9.181   9.992
   26        0.440   0.370   9.181   9.992
   27        0.436   0.374   9.182   9.992
   28        0.446   0.284   9.189   9.919
   29        0.457   0.296   9.175   9.928
   30        0.457   0.296   9.175   9.928
   31        0.457   0.296   9.175   9.928
   32        0.457   0.296   9.175   9.928
   33        0.457   0.296   9.175   9.928
   34        0.457   0.296   9.175   9.928
   35        0.440   0.288   9.188   9.916
   36        0.422   0.315   6.313   7.050
tot         16.048  11.963 327.623 355.634

 BZINTS: Fermi energy:    0.031343;  393.000000 electrons
         Band energy:-0.107570E+04;  BLOECHL correction:   -0.040197