 vasp.6.2.0 18Jan21 (build Jun 12 2021 23:27:24) complex

 executed on             LinuxIFC date 2022.05.27  06:06:50

 INCAR:
   ISMEAR = -5
   SIGMA = 0.1
   ISPIN = 1
   EDIFF = 1.d-5
   EDIFFG = -0.01
   NSW = 0
   NELM = 150
   ENCUT = 500
   ISIF = 2
   IBRION = 2
   LREAL = Auto
   ALGO = Fast
   ICHARG = 11
   LORBIT = 10
   LCHARG = .F.
   LWAVE = .F.

 POTCAR:    PAW_PBE Cu 22Jun2005
 POTCAR:    PAW_PBE Zr_sv 04Jan2005
 POTCAR:    PAW_PBE O 08Apr2002
 POTCAR:    PAW_PBE H 15Jun2001
|           W    W    AA    RRRRR   N    N  II  N    N   GGGG   !!!           |
|           W    W   A  A   R    R  NN   N  II  NN   N  G    G  !!!           |
|           W    W  A    A  R    R  N N  N  II  N N  N  G       !!!           |
|           W WW W  AAAAAA  RRRRR   N  N N  II  N  N N  G  GGG   !            |
|           WW  WW  A    A  R   R   N   NN  II  N   NN  G    G                |
|           W    W  A    A  R    R  N    N  II  N    N   GGGG   !!!           |
|     For optimal performance we recommend to set                             |
|       NCORE = 2 up to number-of-cores-per-socket                            |
|     This setting can greatly improve the performance of VASP for DFT.       |
|     The default, NCORE=1 might be grossly inefficient on modern             |
|     multi-core architectures or massively parallel machines. Do your        |
|     Unfortunately you need to use the default for GW and RPA                |
|     calculations (for HF NCORE is supported but not extensively tested      |
|     yet).                                                                   |

 POTCAR:    PAW_PBE Cu 22Jun2005
   VRHFIN =Cu: d10 p1

   TITEL  = PAW_PBE Cu 22Jun2005
   POMASS =   63.546; ZVAL   =   11.000    mass and valenz
   ENMAX  =  295.446; ENMIN  =  221.585 eV

 POTCAR:    PAW_PBE Zr_sv 04Jan2005
   VRHFIN =Zr: 4s4p5s4d

   TITEL  = PAW_PBE Zr_sv 04Jan2005
   POMASS =   91.224; ZVAL   =   12.000    mass and valenz
   ENMAX  =  229.898; ENMIN  =  172.424 eV

 POTCAR:    PAW_PBE O 08Apr2002
   VRHFIN =O: s2p4

   TITEL  = PAW_PBE O 08Apr2002
   POMASS =   16.000; ZVAL   =    6.000    mass and valenz
   ENMAX  =  400.000; ENMIN  =  300.000 eV

 POTCAR:    PAW_PBE H 15Jun2001
   VRHFIN =H: ultrasoft test

   TITEL  = PAW_PBE H 15Jun2001
   POMASS =    1.000; ZVAL   =    1.000    mass and valenz
   ENMAX  =  250.000; ENMIN  =  200.000 eV

 Optimization of the real space projectors (new method)

 maximal supplied QI-value         = 16.25
 optimisation between [QCUT,QGAM] = [ 11.38, 22.75] = [ 36.24,144.96] Ry
 Optimized for a Real-space Cutoff    1.52 Angstroem

   l    n(q)    QCUT    max X(q) W(low)/X(q) W(high)/X(q)  e(spline)
   2      9    11.376     4.610    0.21E-03    0.10E-03    0.26E-06
   2      9    11.376     8.522    0.33E-03    0.16E-03    0.37E-06
   0     10    11.376    51.609    0.62E-04    0.20E-04    0.13E-06
   0     10    11.376    27.747    0.54E-04    0.20E-04    0.13E-06
   1     10    11.376    20.408    0.13E-04    0.99E-04    0.19E-06
   1     10    11.376    13.425    0.12E-04    0.87E-04    0.17E-06
 Optimization of the real space projectors (new method)

[...]

   l    n(q)    QCUT    max X(q) W(low)/X(q) W(high)/X(q)  e(spline)
   0      7    11.387    20.381    0.39E-03    0.13E-02    0.15E-06
   0      7    11.387    15.268    0.42E-03    0.14E-02    0.17E-06
   1      6    11.387     5.964    0.41E-03    0.11E-02    0.17E-06
   1      6    11.387     5.382    0.39E-03    0.87E-03    0.15E-06
 Optimization of the real space projectors (new method)

 maximal supplied QI-value         = 34.20
 optimisation between [QCUT,QGAM] = [ 11.29, 22.57] = [ 35.68,142.71] Ry
 Optimized for a Real-space Cutoff    1.16 Angstroem

   l    n(q)    QCUT    max X(q) W(low)/X(q) W(high)/X(q)  e(spline)
   0      8    11.287    19.460    0.40E-03    0.73E-03    0.16E-06
   0      8    11.287    12.209    0.38E-03    0.70E-03    0.15E-06
   1      7    11.287     4.655    0.22E-03    0.25E-04    0.22E-06
  PAW_PBE Cu 22Jun2005                  :
  PAW_PBE Zr_sv 04Jan2005               :
  PAW_PBE O 08Apr2002                   :
  PAW_PBE H 15Jun2001                   :

 POSCAR: Cu-Zr-OH
  positions in direct lattice
  velocities in cartesian coordinates
 exchange correlation table for  LEXCH =        8
   RHO(1)=    0.500       N(1)  =     2000
   RHO(2)=  100.500       N(2)  =     4000

 VTST: version 3.2, (02/03/18)

 CHAIN: initializing optimizer

 OPT: Using VASP Conjugate-Gradient optimizer
 CHAIN: Read ICHAIN            0

 POSCAR: Cu-Zr-OH
  positions in direct lattice
  velocities in cartesian coordinates

 ion  position               nearest neighbor table
   1  0.000  0.000  0.216-   7 2.57   3 2.57   4 2.57   2 2.57   6 2.57   8 2.57  12 2.57  10 2.57
                            16 2.57
   2  0.333  0.000  0.216-   8 2.57   9 2.57   5 2.57   1 2.57   3 2.57  11 2.57   4 2.57  10 2.57
                            17 2.57
   3  0.667  0.000  0.216-   1 2.57   7 2.57   6 2.57   9 2.57   2 2.57  12 2.57   5 2.57  18 2.57
                            11 2.57
   4  0.000  0.333  0.216-   5 2.57   6 2.57   1 2.57   7 2.57   2 2.57  13 2.57   9 2.57  10 2.57
                            15 2.57
   5  0.333  0.333  0.216-   4 2.57   2 2.57   7 2.57  13 2.57   8 2.57   6 2.57   3 2.57  11 2.57
                            14 2.57
   6  0.667  0.333  0.216-   4 2.57   9 2.57  15 2.57   3 2.57   1 2.57   8 2.57  14 2.57   5 2.57
                            12 2.57
   7  0.000  0.667  0.216-   1 2.57   3 2.57  16 2.57  18 2.57   4 2.57   5 2.57   8 2.57   9 2.57
                            13 2.57
   8  0.333  0.667  0.216-   9 2.57   2 2.57  17 2.57   6 2.57   1 2.57   7 2.57   5 2.57  14 2.57
                            16 2.57
   9  0.667  0.667  0.216-   8 2.57   6 2.57   2 2.57  17 2.57   3 2.57   7 2.57   4 2.57  15 2.57
                            18 2.57
  10  0.111  0.111  0.300-  26 2.54  19 2.54  11 2.57  12 2.57  13 2.57   1 2.57   2 2.57   4 2.57
                            15 2.57  16 2.57  17 2.57  20 2.59
  11  0.444  0.111  0.300-  27 2.56  10 2.57  13 2.57   2 2.57  17 2.57  14 2.57  12 2.57   5 2.57
                             3 2.57  18 2.57  20 2.58  21 2.58
  12  0.778  0.111  0.300-  19 2.54  25 2.54  15 2.57  10 2.57  14 2.57  18 2.57   3 2.57   1 2.57
                            16 2.57  11 2.57   6 2.57  21 2.59
  13  0.111  0.444  0.300-  22 2.56  16 2.57  18 2.57  10 2.57  11 2.57  14 2.57   5 2.57   4 2.57
                             7 2.57  15 2.57  23 2.58  20 2.58
  14  0.444  0.444  0.300-  24 2.56  15 2.57  17 2.57  12 2.57  16 2.57  13 2.57  11 2.57   6 2.57
                             8 2.57   5 2.57  21 2.58  23 2.58
  15  0.778  0.444  0.300-  19 2.54  24 2.56  22 2.56  14 2.57  17 2.57  12 2.57   6 2.57  18 2.57
                            10 2.57   9 2.57  13 2.57   4 2.57
  16  0.111  0.778  0.300-  25 2.54  26 2.54  18 2.57  13 2.57   7 2.57  14 2.57  17 2.57  12 2.57
                            10 2.57   8 2.57   1 2.57  23 2.59
  17  0.444  0.778  0.300-  26 2.54  27 2.56  24 2.56  14 2.57  15 2.57   8 2.57   9 2.57  11 2.57
                            16 2.57  18 2.57  10 2.57   2 2.57
  18  0.778  0.778  0.300-  25 2.54  22 2.56  27 2.56  16 2.57  13 2.57   7 2.57  15 2.57  12 2.57
                            17 2.57   9 2.57   3 2.57  11 2.57
  19  0.889  0.221  0.383-  12 2.54  10 2.54  15 2.54  25 2.55  26 2.55  32 2.56  31 2.56  22 2.57
                            24 2.57  28 2.57  21 2.58  20 2.58
  20  0.223  0.223  0.385-  23 2.55  21 2.55  29 2.57  31 2.57  27 2.57  22 2.57  26 2.58  19 2.58
                            11 2.58  13 2.58  10 2.59  36 2.86
  21  0.554  0.223  0.385-  20 2.55  23 2.55  32 2.57  30 2.57  24 2.57  27 2.57  19 2.58  25 2.58
                            14 2.58  11 2.58  12 2.59  36 2.86
  22  0.889  0.556  0.384-  18 2.56  15 2.56  13 2.56  31 2.56  33 2.56  24 2.57  27 2.57  23 2.57
                            20 2.57  19 2.57  25 2.57  35 2.58
  23  0.223  0.554  0.385-  20 2.55  21 2.55  33 2.57  34 2.57  22 2.57  24 2.57  25 2.58  26 2.58
                            13 2.58  14 2.58  16 2.59  36 2.86
  24  0.556  0.556  0.384-  15 2.56  17 2.56  14 2.56  32 2.56  34 2.56  22 2.57  27 2.57  21 2.57
                            23 2.57  19 2.57  26 2.57  35 2.58
  25  0.889  0.889  0.383-  12 2.54  16 2.54  18 2.54  19 2.55  26 2.55  33 2.56  30 2.56  22 2.57
                            27 2.57  28 2.57  21 2.58  23 2.58
  26  0.221  0.889  0.383-  10 2.54  16 2.54  17 2.54  25 2.55  19 2.55  29 2.56  34 2.56  27 2.57
                            24 2.57  28 2.57  20 2.58  23 2.58
  27  0.556  0.889  0.384-  17 2.56  18 2.56  11 2.56  29 2.56  30 2.56  24 2.57  22 2.57  20 2.57
                            21 2.57  26 2.57  25 2.57  35 2.58
  28  0.000  0.000  0.468-  33 2.55  30 2.55  31 2.55  29 2.55  32 2.55  34 2.55  25 2.57  19 2.57
                            26 2.57
  29  0.334  0.994  0.468-  34 2.47  35 2.54  28 2.55  27 2.56  26 2.56  20 2.57  30 2.60  31 2.62
                            36 2.64
  30  0.672  0.994  0.468-  33 2.47  35 2.54  28 2.55  27 2.56  25 2.56  21 2.57  29 2.60  32 2.62
                            36 2.64
  31  0.994  0.334  0.468-  32 2.47  35 2.54  28 2.55  22 2.56  19 2.56  20 2.57  33 2.60  29 2.62
                            36 2.64
  32  0.672  0.334  0.468-  31 2.47  35 2.54  28 2.55  24 2.56  19 2.56  21 2.57  34 2.60  30 2.62
                            36 2.64
  33  0.994  0.672  0.468-  30 2.47  35 2.54  28 2.55  22 2.56  25 2.56  23 2.57  31 2.60  34 2.62
                            36 2.64
  34  0.334  0.672  0.468-  29 2.47  35 2.54  28 2.55  24 2.56  26 2.56  23 2.57  32 2.60  33 2.62
                            36 2.64
  35  0.667  0.667  0.469-  34 2.54  32 2.54  29 2.54  30 2.54  33 2.54  31 2.54  24 2.58  27 2.58
                            22 2.58
  36  0.333  0.333  0.484-  37 1.92  31 2.64  29 2.64  33 2.64  32 2.64  34 2.64  30 2.64  23 2.86
                            20 2.86  21 2.86
  37  0.333  0.333  0.561-  38 0.97  36 1.92
  38  0.333  0.333  0.600-  37 0.97

  LATTYP: Found a hexagonal cell.
 ALAT       =     7.6967864036
 C/A-ratio  =     3.2311598803

  Lattice vectors:

 A1 = (  -3.8483927580,  -6.6656128093,   0.0000000000)
 A2 = (   7.6967864037,   0.0000000000,   0.0000000000)
 A3 = (   0.0000000000,   0.0000000000,  24.8695474348)

Analysis of symmetry for initial positions (statically):
 Subroutine PRICEL returns:
 Original cell was already a primitive cell.

 Routine SETGRP: Setting up the symmetry group for a
 hexagonal supercell.

 Subroutine GETGRP returns: Found  6 space group operations
 (whereof  6 operations were pure point group operations)
 out of a pool of 24 trial point group operations.

The static configuration has the point symmetry C_3v.

Analysis of symmetry for dynamics (positions and initial velocities):
 Subroutine PRICEL returns:
 Original cell was already a primitive cell.

[...]

The dynamic configuration has the point symmetry C_3v.

Analysis of constrained symmetry for selective dynamics:
 Subroutine PRICEL returns:
 Original cell was already a primitive cell.

[...]
     33      -4.4451      2.00000
     34      -4.4151      2.00000
     35      -4.4006      2.00000
     36      -4.3867      2.00000
     37      -4.3809      2.00000
     38      -4.3745      2.00000
     39      -4.3526      2.00000
     40      -4.3072      2.00000
     41      -4.2822      2.00000
     42      -4.2332      2.00000
     43      -4.1692      2.00000
     44      -4.1386      2.00000
     45      -4.0770      2.00000
     46      -4.0595      2.00000
     47      -4.0087      2.00000
     48      -3.9799      2.00000
     49      -3.9750      2.00000
     50      -3.9655      2.00000
     51      -3.9522      2.00000
     52      -3.9354      2.00000
     53      -3.8998      2.00000
     54      -3.8107      2.00000
     55      -3.7884      2.00000
     56      -3.7531      2.00000
     57      -3.7290      2.00000
     58      -3.6898      2.00000
     59      -3.6764      2.00000
     60      -3.6662      2.00000
[...]
    238       5.4199      0.00000
    239       5.5162      0.00000
    240       5.6535      0.00000
    241       5.6772      0.00000
    242       5.6962      0.00000
    243       5.8073      0.00000
    244       5.9202      0.00000
    245       5.9814      0.00000
    246       6.0576      0.00000
    247       6.1668      0.00000
    248       6.3620      0.00000
    249       6.4135      0.00000
    250       6.5023      0.00000
    251       6.9057      0.00000
    252       7.0576      0.00000

 soft charge-density along one line, spin component           1
         0         1         2         3         4         5         6         7         8         9
 total charge-density along one line

------------------------ aborting loop because EDIFF is reached ----------------------------------------

 total charge

# of ion       s       p       d       tot
    1        0.449   0.284   9.187   9.920
    2        0.449   0.285   9.186   9.920
    3        0.449   0.285   9.186   9.920
    4        0.449   0.285   9.186   9.920
    5        0.448   0.286   9.184   9.918
    6        0.449   0.285   9.186   9.920
    7        0.449   0.285   9.186   9.920
    8        0.449   0.285   9.186   9.920
    9        0.448   0.284   9.188   9.921
   10        0.442   0.371   9.178   9.991
   11        0.441   0.365   9.182   9.987
   12        0.442   0.371   9.178   9.991
   13        0.441   0.365   9.182   9.987
   14        0.441   0.365   9.182   9.987
   15        0.439   0.373   9.177   9.989
   16        0.442   0.371   9.178   9.991
   17        0.439   0.373   9.177   9.989
   18        0.439   0.373   9.177   9.989
   19        0.447   0.372   9.181   9.999
   20        0.454   0.378   9.167   9.999
   21        0.454   0.378   9.167   9.999
   22        0.436   0.376   9.177   9.988
   23        0.454   0.378   9.167   9.999
   24        0.436   0.376   9.177   9.988
   25        0.447   0.372   9.181   9.999
   26        0.447   0.372   9.181   9.999
   27        0.436   0.376   9.177   9.988
   28        0.446   0.300   9.178   9.924
   29        0.487   0.318   9.168   9.973
   30        0.487   0.318   9.168   9.973
   31        0.487   0.318   9.168   9.973
   32        0.487   0.318   9.168   9.973
   33        0.487   0.318   9.168   9.973
   34        0.487   0.318   9.168   9.973
   35        0.448   0.304   9.177   9.929
   36        2.236   6.008   1.618   9.862
   37        1.562   3.563   0.000   5.125
   38        0.612   0.125   0.000   0.737
tot         20.238  21.476 322.836 364.551

  FORCE on cell =-STRESS in cart. coord.  units (eV):
  Direction    XX          YY          ZZ          XY          YZ          ZX
  Alpha Z   779.96660   779.96660   779.96660
  Ewald  246779.81300246779.81256************     0.00040     0.00014     0.00022
  Hartree259767.45769259767.45766************     0.00004     0.00008     0.00007
  E(xc)   -2331.37032 -2331.36993 -2334.99679    -0.00034    -0.00004    -0.00008
  Local  ************************519850.30121     0.01850    -0.00062    -0.00100
  n-local  -799.08550  -787.55974  -802.00072     6.58989    -0.35501     0.39743
  augment  3316.04558  3316.06516  3336.17065    -0.01696     0.00025     0.00047
  Kinetic  3512.05876  3512.16911  3506.17723     0.57202     2.20724    -1.53886
  Fock        0.00000     0.00000     0.00000     0.00000     0.00000     0.00000
  Total      -3.01445    -3.01445     0.69936     0.00000    -0.00000     0.00000
  in kB      -3.78531    -3.78531     0.87821     0.00000    -0.00000     0.00000

 VOLUME and BASIS-vectors are now :
  energy-cutoff  :      500.00
  volume of cell :     1275.90
      direct lattice vectors                 reciprocal lattice vectors
     7.696786404  0.000000000  0.000000000     0.129924354 -0.075011849  0.000000000
     3.848392758  6.665612809  0.000000000     0.000000000  0.150023716  0.000000000
     0.000000000  0.000000000 24.869547435     0.000000000  0.000000000  0.040209819

  length of vectors
     7.696786404  7.696786404 24.869547435     0.150023716  0.150023716  0.040209819

 FORCES acting on ions
    electron-ion (+dipol)            ewald-force                    non-local-force                 convergence-correction
   -.413E-04 0.301E-06 0.386E+04   0.579E-04 -.430E-05 -.385E+04   0.848E-17 0.398E-17 -.217E+01   -.335E-03 -.160E-03 -.787E-01
   -.892E+00 -.897E+00 0.385E+04   0.871E+00 0.915E+00 -.385E+04   0.333E-01 0.446E-01 -.194E+01   -.119E-01 -.556E-01 -.141E-01
   0.892E+00 -.897E+00 0.385E+04   -.871E+00 0.915E+00 -.385E+04   -.333E-01 0.446E-01 -.194E+01   0.127E-01 -.530E-01 -.132E-01
   -.122E+01 -.324E+00 0.385E+04   0.123E+01 0.297E+00 -.385E+04   0.553E-01 0.660E-02 -.194E+01   -.540E-01 0.175E-01 -.141E-01
   -.652E-04 -.540E-05 0.385E+04   0.116E-03 -.101E-04 -.385E+04   -.445E-17 -.731E-18 -.197E+01   0.122E-01 0.748E-02 -.211E-01
   0.122E+01 -.324E+00 0.385E+04   -.123E+01 0.297E+00 -.385E+04   -.553E-01 0.660E-02 -.194E+01   0.523E-01 0.187E-01 -.127E-01
   -.331E+00 0.122E+01 0.385E+04   0.357E+00 -.121E+01 -.385E+04   0.219E-01 -.512E-01 -.194E+01   -.395E-01 0.374E-01 -.130E-01
   0.331E+00 0.122E+01 0.385E+04   -.357E+00 -.121E+01 -.385E+04   -.219E-01 -.512E-01 -.194E+01   0.431E-01 0.359E-01 -.127E-01
   -.144E-03 -.328E-04 0.385E+04   0.263E-03 0.205E-04 -.385E+04   0.543E-17 0.174E-17 -.209E+01   -.133E-01 -.685E-02 -.235E-01
   -.102E+02 -.591E+01 0.135E+04   0.105E+02 0.604E+01 -.135E+04   -.191E+00 -.110E+00 -.811E+00   0.657E-02 0.378E-02 -.261E+00
   -.905E-04 -.824E+01 0.134E+04   0.189E-03 0.799E+01 -.134E+04   -.166E-07 0.249E+00 -.488E+00   0.118E-01 -.448E-02 -.246E+00
   0.102E+02 -.591E+01 0.135E+04   -.105E+02 0.604E+01 -.135E+04   0.191E+00 -.110E+00 -.811E+00   -.856E-02 0.582E-02 -.260E+00
   -.714E+01 0.412E+01 0.134E+04   0.692E+01 -.400E+01 -.134E+04   0.216E+00 -.124E+00 -.488E+00   0.249E-02 0.133E-01 -.246E+00
   0.714E+01 0.412E+01 0.134E+04   -.692E+01 -.400E+01 -.134E+04   -.216E+00 -.124E+00 -.488E+00   0.219E-01 0.123E-01 -.246E+00
   -.141E-03 -.201E+01 0.135E+04   0.296E-03 0.198E+01 -.135E+04   -.275E-08 0.413E-01 -.854E+00   -.405E-02 0.956E-02 -.254E+00
   -.911E-04 0.118E+02 0.135E+04   0.186E-03 -.121E+02 -.135E+04   -.147E-07 0.221E+00 -.811E+00   -.169E-03 -.115E-01 -.260E+00
   -.174E+01 0.101E+01 0.135E+04   0.171E+01 -.988E+00 -.135E+04   0.358E-01 -.207E-01 -.854E+00   0.694E-02 -.830E-02 -.254E+00
   0.175E+01 0.101E+01 0.135E+04   -.171E+01 -.988E+00 -.135E+04   -.358E-01 -.207E-01 -.854E+00   -.618E-02 -.526E-02 -.253E+00
   -.674E-04 -.463E+01 -.115E+04   0.668E-04 0.461E+01 0.115E+04   0.108E-08 -.163E-01 0.105E+01   -.249E-02 0.180E-01 -.190E+00
   -.244E+02 -.141E+02 -.122E+04   0.253E+02 0.146E+02 0.122E+04   -.987E+00 -.570E+00 -.188E+00   -.808E-03 -.591E-03 -.262E+00
   0.244E+02 -.141E+02 -.122E+04   -.253E+02 0.146E+02 0.122E+04   0.987E+00 -.570E+00 -.188E+00   0.249E-01 0.849E-03 -.263E+00
   -.973E+01 0.562E+01 -.117E+04   0.962E+01 -.555E+01 0.117E+04   0.174E+00 -.100E+00 0.825E+00   -.400E-01 0.220E-01 -.193E+00
   -.471E-04 0.282E+02 -.122E+04   0.149E-03 -.292E+02 0.122E+04   -.759E-07 0.114E+01 -.188E+00   0.120E-01 0.199E-01 -.263E+00
   0.973E+01 0.562E+01 -.117E+04   -.962E+01 -.555E+01 0.117E+04   -.174E+00 -.100E+00 0.825E+00   0.373E-01 0.207E-01 -.193E+00
   0.401E+01 0.231E+01 -.115E+04   -.399E+01 -.230E+01 0.115E+04   0.141E-01 0.814E-02 0.105E+01   -.141E-01 -.811E-02 -.190E+00
   -.401E+01 0.231E+01 -.115E+04   0.399E+01 -.230E+01 0.115E+04   -.141E-01 0.814E-02 0.105E+01   0.147E-01 -.109E-01 -.190E+00
   -.147E-03 -.112E+02 -.117E+04   0.243E-03 0.111E+02 0.117E+04   -.134E-07 0.201E+00 0.825E+00   -.949E-03 -.457E-01 -.193E+00
   -.133E-04 0.322E-04 -.369E+04   0.376E-04 -.334E-04 0.369E+04   -.175E-17 -.921E-18 0.159E+01   -.349E-03 -.150E-03 0.167E+00
   0.801E+01 -.410E-01 -.365E+04   -.780E+01 0.654E-01 0.365E+04   -.239E+00 -.956E-01 0.119E+01   -.620E-01 -.868E-01 0.385E-02
   -.801E+01 -.406E-01 -.365E+04   0.780E+01 0.653E-01 0.365E+04   0.239E+00 -.956E-01 0.119E+01   0.630E-01 -.841E-01 0.381E-02
   0.397E+01 0.696E+01 -.365E+04   -.384E+01 -.679E+01 0.365E+04   -.202E+00 -.159E+00 0.119E+01   -.106E+00 -.103E-01 0.384E-02
   -.397E+01 0.696E+01 -.365E+04   0.384E+01 -.679E+01 0.365E+04   0.202E+00 -.159E+00 0.119E+01   0.104E+00 -.935E-02 0.301E-02
   -.404E+01 -.692E+01 -.365E+04   0.396E+01 0.672E+01 0.365E+04   0.369E-01 0.255E+00 0.119E+01   -.413E-01 0.966E-01 0.381E-02
   0.404E+01 -.692E+01 -.365E+04   -.396E+01 0.672E+01 0.365E+04   -.369E-01 0.255E+00 0.119E+01   0.447E-01 0.949E-01 0.313E-02
   -.132E-03 -.742E-05 -.372E+04   0.260E-03 0.932E-08 0.372E+04   0.356E-17 0.565E-17 0.167E+01   -.133E-01 -.688E-02 0.123E+00
   0.167E-03 -.154E-03 -.403E+04   0.122E-03 0.327E-04 0.403E+04   -.118E-17 0.945E-18 -.183E+01   0.547E-02 0.330E-02 0.369E-01
   0.201E-03 -.856E-04 -.239E+04   0.791E-05 0.469E-05 0.237E+04   0.143E-17 -.217E-18 0.215E+02   0.338E-02 0.206E-02 0.847E-01
   0.616E-05 -.131E-04 -.429E+03   0.297E-06 0.312E-06 0.438E+03   0.750E-20 -.681E-20 -.849E+01   0.183E-03 0.111E-03 0.116E-01
   0.166E-03 -.199E-03 0.174E+01   0.183E-12 0.262E-12 0.625E-11   0.392E-15 0.228E-15 0.225E+01   0.606E-01 0.321E-01 -.397E+01

 POSITION                                       TOTAL-FORCE (eV/Angst)
      0.00000      0.00000      5.37156        -0.000000      0.000000      0.014192
      2.56560      0.00000      5.37156         0.001376      0.008162      0.057751
      5.13119      0.00000      5.37156        -0.001376      0.008162      0.057751
      1.28280      2.22187      5.37156         0.007756     -0.002889      0.057751
      3.84839      2.22187      5.37156        -0.000000      0.000000      0.063677
      6.41399      2.22187      5.37156        -0.007756     -0.002889      0.057751
      2.56560      4.44374      5.37156         0.006380     -0.005272      0.057751
      5.13119      4.44374      5.37156        -0.006380     -0.005272      0.057751
      7.69679      4.44374      5.37156        -0.000000      0.000000      0.031358
      1.28280      0.74062      7.46636         0.039489      0.022799     -0.105813
      3.84839      0.74062      7.46636         0.000000     -0.011321     -0.013909
      6.41399      0.74062      7.46636        -0.039489      0.022799     -0.105813
      2.56560      2.96249      7.46636        -0.009804      0.005661     -0.013909
      5.13119      2.96249      7.46636         0.009804      0.005661     -0.013909
      7.69679      2.96249      7.46636        -0.000000      0.012042     -0.032697
      3.84839      5.18437      7.46636         0.000000     -0.045598     -0.105813
      6.41399      5.18437      7.46636         0.010429     -0.006021     -0.032697
      8.97958      5.18437      7.46636        -0.010429     -0.006021     -0.032697
      7.69679      1.47435      9.52922         0.000000     -0.017877      0.014396
      2.57570      1.48708      9.58099        -0.116623     -0.067332     -0.199299
      5.12109      1.48708      9.58099         0.116623     -0.067332     -0.199299
      8.97941      3.70322      9.55185         0.026683     -0.015405      0.021116
      3.84839      3.69145      9.58099        -0.000000      0.134665     -0.199299
      6.41416      3.70322      9.55185        -0.026683     -0.015405      0.021116
     10.26835      5.92844      9.52922         0.015482      0.008938      0.014396
      5.12522      5.92844      9.52922        -0.015482      0.008938      0.014396
      7.69679      5.92479      9.55185        -0.000000      0.030811      0.021116
      0.00000      0.00000     11.63765        -0.000000      0.000000     -0.049180
      6.39598      6.62341     11.64088        -0.089715     -0.156586     -0.150217
      8.99759      6.62341     11.64088         0.089715     -0.156586     -0.150217
      8.93403      2.22738     11.64088        -0.180464      0.000598     -0.150217
      6.45955      2.22738     11.64088         0.180464      0.000598     -0.150217
     10.23483      4.48044     11.64088        -0.090750      0.155988     -0.150217
      5.15874      4.48044     11.64088         0.090750      0.155988     -0.150217
      7.69679      4.44374     11.66679        -0.000000      0.000000     -0.037499
      3.84839      2.22187     12.03290        -0.000000      0.000000      1.477022
      3.84839      2.22187     13.95052        -0.000000      0.000000      0.006611
      3.84839      2.22187     14.91645        -0.000000      0.000000     -0.002766
    total drift:                                0.060801      0.031932      0.015647

  FREE ENERGIE OF THE ION-ELECTRON SYSTEM (eV)
  free  energy   TOTEN  =      -142.89220245 eV

  energy  without entropy=     -142.89220245  energy(sigma->0) =     -142.89220245

 stress matrix after NEB project (eV)
     -3.01445      0.00000      0.00000
      0.00000     -3.01445      0.00000
     -0.00000     -0.00000      0.69936
  FORCES: max atom, RMS     0.006611    0.001162
  FORCE total and by dimension    0.007166    0.006611
  Stress total and by dimension    4.320064    3.014453
|           W    W    AA    RRRRR   N    N  II  N    N   GGGG   !!!           |
|           W    W   A  A   R    R  NN   N  II  NN   N  G    G  !!!           |
|           W    W  A    A  R    R  N N  N  II  N N  N  G       !!!           |
|           W WW W  AAAAAA  RRRRR   N  N N  II  N  N N  G  GGG   !            |
|           WW  WW  A    A  R   R   N   NN  II  N   NN  G    G                |
|           W    W  A    A  R    R  N    N  II  N    N   GGGG   !!!           |
|     Tetrahedron method does not include variations of the Fermi             |
|     occupations, so forces and stress will be inaccurate. We suggest        |
|     using a different smearing scheme ISMEAR = 1 or 2 for metals in         |
|     relaxations.                                                            |

 total charge

# of ion       s       p       d       tot
    1        0.449   0.284   9.187   9.920
    2        0.449   0.285   9.186   9.920
    3        0.449   0.285   9.186   9.920
    4        0.449   0.285   9.186   9.920
    5        0.448   0.286   9.184   9.918
    6        0.449   0.285   9.186   9.920
    7        0.449   0.285   9.186   9.920
    8        0.449   0.285   9.186   9.920
    9        0.448   0.284   9.188   9.921
   10        0.442   0.371   9.178   9.991
   11        0.441   0.365   9.182   9.987
   12        0.442   0.371   9.178   9.991
   13        0.441   0.365   9.182   9.987
   14        0.441   0.365   9.182   9.987
   15        0.439   0.373   9.177   9.989
   16        0.442   0.371   9.178   9.991
   17        0.439   0.373   9.177   9.989
   18        0.439   0.373   9.177   9.989
   19        0.447   0.372   9.181   9.999
   20        0.454   0.378   9.167   9.999
   21        0.454   0.378   9.167   9.999
   22        0.436   0.376   9.177   9.988
   23        0.454   0.378   9.167   9.999
   24        0.436   0.376   9.177   9.988
   25        0.447   0.372   9.181   9.999
   26        0.447   0.372   9.181   9.999
   27        0.436   0.376   9.177   9.988
   28        0.446   0.300   9.178   9.924
   29        0.487   0.318   9.168   9.973
   30        0.487   0.318   9.168   9.973
   31        0.487   0.318   9.168   9.973
   32        0.487   0.318   9.168   9.973
   33        0.487   0.318   9.168   9.973
   34        0.487   0.318   9.168   9.973
   35        0.448   0.304   9.177   9.929
   36        2.236   6.008   1.618   9.862
   37        1.562   3.563   0.000   5.125
   38        0.612   0.125   0.000   0.737
tot         20.238  21.476 322.836 364.551

 BZINTS: Fermi energy:   -0.233341;  404.000000 electrons
         Band energy:-0.155079E+04;  BLOECHL correction:   -0.063942