 vasp.6.2.0 18Jan21 (build Jun 12 2021 23:27:24) complex

 executed on             LinuxIFC date 2022.05.26  19:55:39

 INCAR:
   ISMEAR = -5
   SIGMA = 0.1
   ISPIN = 1
   EDIFF = 1.d-5
   EDIFFG = -0.01
   NSW = 0
   NELM = 150
   ENCUT = 500
   ISIF = 2
   IBRION = 2
   LREAL = Auto
   ALGO = Fast
   ICHARG = 11
   LORBIT = 10
   LCHARG = .F.
   LWAVE = .F.

 POTCAR:    PAW_PBE Ag 02Apr2005
 POTCAR:    PAW_PBE Pt 04Feb2005
 POTCAR:    PAW_PBE N 08Apr2002
|           W    W    AA    RRRRR   N    N  II  N    N   GGGG   !!!           |
|           W    W   A  A   R    R  NN   N  II  NN   N  G    G  !!!           |
|           W    W  A    A  R    R  N N  N  II  N N  N  G       !!!           |
|           W WW W  AAAAAA  RRRRR   N  N N  II  N  N N  G  GGG   !            |
|           WW  WW  A    A  R   R   N   NN  II  N   NN  G    G                |
|           W    W  A    A  R    R  N    N  II  N    N   GGGG   !!!           |
|     For optimal performance we recommend to set                             |
|       NCORE = 2 up to number-of-cores-per-socket                            |
|     This setting can greatly improve the performance of VASP for DFT.       |
|     The default, NCORE=1 might be grossly inefficient on modern             |
|     multi-core architectures or massively parallel machines. Do your        |
|     Unfortunately you need to use the default for GW and RPA                |
|     calculations (for HF NCORE is supported but not extensively tested      |
|     yet).                                                                   |

 POTCAR:    PAW_PBE Ag 02Apr2005
   VRHFIN =Ag : s1 d10

   TITEL  = PAW_PBE Ag 02Apr2005
   POMASS =  107.868; ZVAL   =   11.000    mass and valenz
   ENMAX  =  249.844; ENMIN  =  187.383 eV

 POTCAR:    PAW_PBE Pt 04Feb2005
   VRHFIN =Pt: s1d9

   TITEL  = PAW_PBE Pt 04Feb2005
   POMASS =  195.080; ZVAL   =   10.000    mass and valenz
   ENMAX  =  230.283; ENMIN  =  172.712 eV

 POTCAR:    PAW_PBE N 08Apr2002
   VRHFIN =N: s2p3

   TITEL  = PAW_PBE N 08Apr2002
   POMASS =   14.001; ZVAL   =    5.000    mass and valenz
   ENMAX  =  400.000; ENMIN  =  300.000 eV

 Optimization of the real space projectors (new method)

 maximal supplied QI-value         = 15.12
 optimisation between [QCUT,QGAM] = [ 11.34, 22.83] = [ 36.00,145.93] Ry
 Optimized for a Real-space Cutoff    1.43 Angstroem

   l    n(q)    QCUT    max X(q) W(low)/X(q) W(high)/X(q)  e(spline)
   2      9    11.338    53.897    0.16E-03    0.20E-03    0.28E-06
   2      9    11.338    52.416    0.16E-03    0.20E-03    0.29E-06
   0     10    11.338   122.045    0.31E-04    0.76E-04    0.15E-06
   0     10    11.338    73.629    0.30E-04    0.72E-04    0.15E-06
   1      9    11.338    15.255    0.20E-03    0.19E-04    0.17E-06
   1      9    11.338     9.562    0.16E-03    0.15E-04    0.14E-06
 Optimization of the real space projectors (new method)

[...]

   l    n(q)    QCUT    max X(q) W(low)/X(q) W(high)/X(q)  e(spline)
   2      9    11.346    66.195    0.31E-03    0.12E-04    0.29E-06
   2      9    11.346    64.643    0.32E-03    0.12E-04    0.29E-06
   0     10    11.346    95.520    0.90E-04    0.16E-04    0.19E-06
   0     10    11.346    63.403    0.87E-04    0.15E-04    0.19E-06
   1     10    11.346    19.961    0.17E-03    0.21E-03    0.11E-06
   1     10    11.346    13.289    0.14E-03    0.18E-03    0.89E-07
 Optimization of the real space projectors (new method)

 maximal supplied QI-value         = 25.13
 optimisation between [QCUT,QGAM] = [ 11.31, 22.87] = [ 35.82,146.48] Ry
 Optimized for a Real-space Cutoff    1.27 Angstroem

   l    n(q)    QCUT    max X(q) W(low)/X(q) W(high)/X(q)  e(spline)
   0      9    11.310    79.467    0.75E-04    0.16E-03    0.36E-06
   0      9    11.310    66.151    0.74E-04    0.16E-03    0.36E-06
   1      8    11.310    17.416    0.35E-03    0.12E-03    0.95E-06
   1      8    11.310    12.382    0.37E-03    0.13E-03    0.98E-06
  PAW_PBE Ag 02Apr2005                  :
  PAW_PBE Pt 04Feb2005                  :
  PAW_PBE N 08Apr2002                   :

 POSCAR: Ag-Pt-N
  positions in direct lattice
  velocities in cartesian coordinates
 exchange correlation table for  LEXCH =        8
   RHO(1)=    0.500       N(1)  =     2000
   RHO(2)=  100.500       N(2)  =     4000

 VTST: version 3.2, (02/03/18)

 CHAIN: initializing optimizer

 OPT: Using VASP Conjugate-Gradient optimizer
 CHAIN: Read ICHAIN            0

 POSCAR: Ag-Pt-N
  positions in direct lattice
  velocities in cartesian coordinates

 ion  position               nearest neighbor table
   1  0.000  0.000  0.238-   2 2.93   8 2.93   7 2.93   6 2.93   4 2.93  12 2.93  16 2.93  10 2.93
                             3 2.93
   2  0.333  0.000  0.238-   1 2.93   8 2.93   9 2.93   3 2.93   4 2.93   5 2.93  10 2.93  17 2.93
                            11 2.93
   3  0.667  0.000  0.238-   9 2.93   2 2.93   5 2.93  11 2.93   7 2.93  18 2.93   1 2.93   6 2.93
                            12 2.93
   4  0.000  0.333  0.238-   5 2.93   6 2.93   2 2.93   1 2.93   7 2.93  13 2.93  15 2.93   9 2.93
                            10 2.93
   5  0.333  0.333  0.238-   4 2.93   3 2.93   7 2.93   2 2.93   8 2.93  14 2.93  13 2.93  11 2.93
                             6 2.93
   6  0.667  0.333  0.238-   4 2.93   9 2.93   1 2.93  15 2.93   8 2.93  12 2.93   3 2.93   5 2.93
                            14 2.93
   7  0.000  0.667  0.238-   8 2.93   1 2.93   5 2.93   3 2.93   4 2.93  16 2.93  18 2.93  13 2.93
                             9 2.93
   8  0.333  0.667  0.238-   7 2.93   1 2.93   2 2.93   9 2.93   5 2.93  16 2.93   6 2.93  17 2.93
                            14 2.93
   9  0.667  0.667  0.238-   3 2.93   2 2.93   8 2.93   6 2.93  17 2.93   4 2.93  15 2.93   7 2.93
                            18 2.93
  10  0.111  0.111  0.346-  20 2.89  19 2.93  26 2.93  12 2.93  16 2.93  15 2.93  17 2.93  13 2.93
                            11 2.93   2 2.93   1 2.93   4 2.93
  11  0.444  0.111  0.346-  21 2.90  20 2.90  27 2.91  14 2.93  17 2.93  18 2.93   3 2.93  12 2.93
                            13 2.93  10 2.93   5 2.93   2 2.93
  12  0.778  0.111  0.346-  21 2.89  25 2.93  19 2.93  10 2.93  16 2.93  18 2.93  15 2.93  11 2.93
                             1 2.93  14 2.93   6 2.93   3 2.93
  13  0.111  0.444  0.346-  20 2.90  23 2.90  22 2.91  15 2.93  14 2.93  18 2.93  10 2.93  11 2.93
                            16 2.93   4 2.93   5 2.93   7 2.93
  14  0.444  0.444  0.346-  23 2.90  21 2.90  24 2.91  13 2.93  11 2.93  16 2.93   5 2.93  12 2.93
                            17 2.93   8 2.93  15 2.93   6 2.93
  15  0.778  0.444  0.346-  24 2.91  22 2.91  19 2.92  13 2.93  10 2.93  12 2.93  17 2.93  18 2.93
                             4 2.93   6 2.93   9 2.93  14 2.93
  16  0.111  0.778  0.346-  23 2.89  26 2.93  25 2.93  18 2.93  12 2.93  10 2.93  14 2.93  17 2.93
                            13 2.93   7 2.93   8 2.93   1 2.93
  17  0.444  0.778  0.346-  27 2.91  24 2.91  26 2.92  11 2.93  10 2.93   9 2.93  18 2.93  15 2.93
                            16 2.93   2 2.93  14 2.93   8 2.93
  18  0.778  0.778  0.346-  22 2.91  27 2.91  25 2.92  16 2.93  12 2.93  13 2.93  11 2.93  17 2.93
                            15 2.93   7 2.93   3 2.93   9 2.93
  19  0.888  0.223  0.454-  28 2.91  15 2.92  20 2.92  21 2.92  24 2.92  22 2.92  10 2.93  12 2.93
                            32 2.93  31 2.93  26 2.94  25 2.94
  20  0.221  0.221  0.452-  36 2.81  10 2.89  13 2.90  11 2.90  19 2.92  26 2.92  31 2.92  29 2.92
                            27 2.93  22 2.93  21 2.95  23 2.95
  21  0.557  0.221  0.452-  36 2.81  12 2.89  11 2.90  14 2.90  25 2.92  19 2.92  30 2.92  32 2.92
                            27 2.93  24 2.93  20 2.95  23 2.95
  22  0.889  0.556  0.453-  35 2.91  18 2.91  15 2.91  13 2.91  25 2.92  19 2.92  24 2.93  27 2.93
                            33 2.93  31 2.93  23 2.93  20 2.93
  23  0.221  0.557  0.452-  36 2.81  16 2.89  14 2.90  13 2.90  26 2.92  25 2.92  34 2.92  33 2.92
                            22 2.93  24 2.93  21 2.95  20 2.95
  24  0.556  0.556  0.453-  35 2.91  15 2.91  17 2.91  14 2.91  19 2.92  26 2.92  27 2.93  22 2.93
                            32 2.93  34 2.93  23 2.93  21 2.93
  25  0.888  0.888  0.454-  28 2.91  18 2.92  23 2.92  21 2.92  22 2.92  27 2.92  16 2.93  12 2.93
                            33 2.93  30 2.93  26 2.94  19 2.94
  26  0.223  0.888  0.454-  28 2.91  17 2.92  23 2.92  20 2.92  27 2.92  24 2.92  16 2.93  10 2.93
                            34 2.93  29 2.93  25 2.94  19 2.94
  27  0.556  0.889  0.453-  35 2.91  17 2.91  18 2.91  11 2.91  26 2.92  25 2.92  24 2.93  22 2.93
                            29 2.93  30 2.93  20 2.93  21 2.93
  28  0.000  0.000  0.560-  26 2.91  25 2.91  19 2.91  29 2.95  34 2.95  33 2.95  32 2.95  31 2.95
                            30 2.95
  29  0.333  0.004  0.561-  30 2.89  31 2.89  36 2.90  20 2.92  27 2.93  26 2.93  35 2.95  28 2.95
                            34 3.00
  30  0.662  0.004  0.561-  29 2.89  32 2.89  36 2.90  21 2.92  27 2.93  25 2.93  35 2.95  28 2.95
                            33 3.00
  31  0.004  0.333  0.561-  33 2.89  29 2.89  36 2.90  20 2.92  22 2.93  19 2.93  35 2.95  28 2.95
                            32 3.00
  32  0.662  0.333  0.561-  34 2.89  30 2.89  36 2.90  21 2.92  24 2.93  19 2.93  35 2.95  28 2.95
                            31 3.00
  33  0.004  0.662  0.561-  31 2.89  34 2.89  36 2.90  23 2.92  22 2.93  25 2.93  35 2.95  28 2.95
                            30 3.00
  34  0.333  0.662  0.561-  32 2.89  33 2.89  36 2.90  23 2.92  24 2.93  26 2.93  35 2.95  28 2.95
                            29 3.00
  35  0.667  0.667  0.560-  24 2.91  27 2.91  22 2.91  30 2.95  32 2.95  29 2.95  34 2.95  31 2.95
                            33 2.95
  36  0.333  0.333  0.553-  37 1.77  21 2.81  20 2.81  23 2.81  31 2.90  33 2.90  30 2.90  29 2.90
                            34 2.90  32 2.90
  37  0.333  0.333  0.633-  36 1.77

  LATTYP: Found a hexagonal cell.
 ALAT       =     8.7913665772
 C/A-ratio  =     2.5227160501

  Lattice vectors:

 A1 = (  -4.3956832886,  -7.6135467898,   0.0000000000)
 A2 = (   8.7913665771,   0.0000000000,   0.0000000000)
 A3 = (   0.0000000000,   0.0000000000,  22.1781215668)

Analysis of symmetry for initial positions (statically):
 Subroutine PRICEL returns:
 Original cell was already a primitive cell.

 Routine SETGRP: Setting up the symmetry group for a
 hexagonal supercell.

 Subroutine GETGRP returns: Found  6 space group operations
 (whereof  6 operations were pure point group operations)
 out of a pool of 24 trial point group operations.

The static configuration has the point symmetry C_3v.

Analysis of symmetry for dynamics (positions and initial velocities):
 Subroutine PRICEL returns:
 Original cell was already a primitive cell.

[...]

The dynamic configuration has the point symmetry C_3v.

Analysis of constrained symmetry for selective dynamics:
 Subroutine PRICEL returns:
 Original cell was already a primitive cell.

 Routine SETGRP: Setting up the symmetry group for a
 hexagonal supercell.

 Subroutine GETGRP returns: Found  6 space group operations
[...]
     24      -4.6737      2.00000
     25      -4.6631      2.00000
     26      -4.6386      2.00000
     27      -4.6364      2.00000
     28      -4.6138      2.00000
     29      -4.5898      2.00000
     30      -4.5865      2.00000
     31      -4.5760      2.00000
     32      -4.5525      2.00000
     33      -4.5485      2.00000
     34      -4.5298      2.00000
     35      -4.5117      2.00000
     36      -4.4914      2.00000
     37      -4.4584      2.00000
     38      -4.4442      2.00000
     39      -4.4344      2.00000
     40      -4.4002      2.00000
     41      -4.3638      2.00000
     42      -4.3448      2.00000
     43      -4.3222      2.00000
     44      -4.2938      2.00000
     45      -4.2374      2.00000
     46      -4.2280      2.00000
     47      -4.2056      2.00000
     48      -4.1997      2.00000
     49      -4.1819      2.00000
     50      -4.1758      2.00000
     51      -4.1710      2.00000
     52      -4.1661      2.00000
     53      -4.1528      2.00000
     54      -4.1374      2.00000
     55      -4.1158      2.00000
     56      -4.0716      2.00000
     57      -4.0517      2.00000
     58      -4.0494      2.00000
     59      -4.0350      2.00000
     60      -4.0174      2.00000
[...]
    238       6.3044      0.00000
    239       6.3829      0.00000
    240       6.4506      0.00000
    241       7.1378      0.00000
    242       7.2148      0.00000
    243       7.2367      0.00000
    244       7.3630      0.00000
    245       7.3693      0.00000
    246       7.4189      0.00000
    247       7.4657      0.00000
    248       7.5461      0.00000
    249       7.6306      0.00000
    250       7.6748      0.00000
    251       7.7010      0.00000
    252       7.7993      0.00000

 soft charge-density along one line, spin component           1
         0         1         2         3         4         5         6         7         8         9
 total charge-density along one line

------------------------ aborting loop because EDIFF is reached ----------------------------------------

 total charge

# of ion       s       p       d       tot
    1        0.418   0.202   9.178   9.798
    2        0.417   0.203   9.177   9.797
    3        0.417   0.203   9.177   9.797
    4        0.417   0.203   9.177   9.797
    5        0.414   0.206   9.175   9.795
    6        0.417   0.203   9.177   9.797
    7        0.417   0.203   9.177   9.797
    8        0.417   0.203   9.177   9.797
    9        0.416   0.202   9.177   9.795
   10        0.406   0.271   9.163   9.840
   11        0.405   0.271   9.166   9.842
   12        0.406   0.271   9.163   9.840
   13        0.405   0.271   9.166   9.842
   14        0.405   0.271   9.166   9.842
   15        0.402   0.269   9.166   9.837
   16        0.406   0.271   9.163   9.840
   17        0.402   0.269   9.166   9.837
   18        0.402   0.269   9.166   9.837
   19        0.403   0.272   9.162   9.838
   20        0.420   0.291   9.156   9.867
   21        0.420   0.291   9.156   9.867
   22        0.402   0.269   9.169   9.841
   23        0.420   0.291   9.156   9.867
   24        0.402   0.269   9.169   9.841
   25        0.403   0.272   9.162   9.838
   26        0.403   0.272   9.162   9.838
   27        0.402   0.269   9.169   9.841
   28        0.419   0.197   9.182   9.798
   29        0.391   0.211   9.187   9.789
   30        0.391   0.211   9.187   9.789
   31        0.391   0.211   9.187   9.789
   32        0.391   0.211   9.187   9.789
   33        0.391   0.211   9.187   9.789
   34        0.391   0.211   9.187   9.789
   35        0.416   0.199   9.180   9.795
   36        0.771   0.678   8.019   9.468
   37        1.348   2.123   0.000   3.471
tot         16.369  11.222 329.041 356.632

  FORCE on cell =-STRESS in cart. coord.  units (eV):
  Direction    XX          YY          ZZ          XY          YZ          ZX
  Alpha Z   760.67913   760.67913   760.67913
  Ewald  121851.52535121851.52542************     0.00003     0.00000     0.00003
  Hartree132137.49236132137.49239************     0.00001     0.00000     0.00001
  E(xc)   -2094.63526 -2094.63525 -2099.63021    -0.00001    -0.00000    -0.00000
  Local  ************************265426.76094     0.00043    -0.00006    -0.00015
  n-local  -328.32803  -309.59862  -319.37206    10.94267    -0.30628     0.39505
  augment  3274.25504  3274.25530  3277.05617    -0.00022    -0.00002    -0.00003
  Kinetic  5008.23692  5009.44503  5014.77375     2.30276     1.23564    -0.39883
  Fock        0.00000     0.00000     0.00000     0.00000     0.00000     0.00000
  Total      -7.02798    -7.02798     0.74649    -0.00000     0.00000     0.00000
  in kB      -7.58531    -7.58531     0.80568    -0.00000     0.00000     0.00000

 VOLUME and BASIS-vectors are now :
  energy-cutoff  :      500.00
  volume of cell :     1484.46
      direct lattice vectors                 reciprocal lattice vectors
     8.791366577  0.000000000  0.000000000     0.113747958 -0.065672414  0.000000000
     4.395683289  7.613546790  0.000000000     0.000000000  0.131344829  0.000000000
     0.000000000  0.000000000 22.178121567     0.000000000  0.000000000  0.045089481

  length of vectors
     8.791366577  8.791366577 22.178121567     0.131344829  0.131344829  0.045089481

 FORCES acting on ions
    electron-ion (+dipol)            ewald-force                    non-local-force                 convergence-correction
   0.458E-04 -.283E-04 0.252E+04   -.954E-04 0.593E-04 -.252E+04   0.120E-17 0.159E-17 -.211E+01   -.107E-03 -.169E-03 -.424E-01
   0.279E+00 0.549E+00 0.252E+04   -.455E+00 -.403E+00 -.252E+04   0.711E-01 -.705E-02 -.161E+01   0.100E+00 -.120E+00 -.160E-01
   -.279E+00 0.549E+00 0.252E+04   0.455E+00 -.403E+00 -.252E+04   -.711E-01 -.705E-02 -.161E+01   -.101E+00 -.118E+00 -.153E-01
   0.615E+00 -.327E-01 0.252E+04   -.577E+00 -.192E+00 -.252E+04   0.294E-01 0.651E-01 -.161E+01   -.531E-01 0.147E+00 -.160E-01
   -.641E-05 -.191E-04 0.252E+04   0.981E-04 -.197E-05 -.252E+04   0.824E-18 -.177E-17 -.152E+01   0.624E-02 0.382E-02 -.213E-01
   -.615E+00 -.327E-01 0.252E+04   0.577E+00 -.192E+00 -.252E+04   -.294E-01 0.651E-01 -.161E+01   0.517E-01 0.148E+00 -.152E-01
   0.336E+00 -.516E+00 0.252E+04   -.122E+00 0.596E+00 -.252E+04   -.417E-01 -.580E-01 -.161E+01   -.152E+00 -.281E-01 -.153E-01
   -.336E+00 -.516E+00 0.252E+04   0.122E+00 0.596E+00 -.252E+04   0.417E-01 -.580E-01 -.161E+01   0.153E+00 -.291E-01 -.152E-01
   0.363E-04 -.130E-04 0.252E+04   0.792E-04 -.643E-04 -.252E+04   -.524E-18 0.592E-18 -.187E+01   -.667E-02 -.344E-02 0.489E-01
   0.577E+01 0.333E+01 0.868E+03   -.544E+01 -.314E+01 -.867E+03   -.295E+00 -.171E+00 -.866E+00   -.422E-01 -.244E-01 -.136E+00
   -.289E-04 0.362E+01 0.873E+03   0.411E-04 -.352E+01 -.872E+03   0.431E-12 0.656E-01 -.317E+00   0.629E-02 -.190E+00 -.200E+00
   -.577E+01 0.333E+01 0.868E+03   0.544E+01 -.314E+01 -.867E+03   0.295E+00 -.171E+00 -.866E+00   0.407E-01 -.233E-01 -.136E+00
   0.314E+01 -.181E+01 0.873E+03   -.305E+01 0.176E+01 -.872E+03   0.568E-01 -.328E-01 -.317E+00   -.162E+00 0.101E+00 -.200E+00
   -.314E+01 -.181E+01 0.873E+03   0.305E+01 0.176E+01 -.872E+03   -.568E-01 -.328E-01 -.317E+00   0.173E+00 0.999E-01 -.201E+00
   0.161E-04 0.108E+01 0.868E+03   -.108E-03 -.126E+01 -.867E+03   0.314E-12 0.479E-01 -.630E+00   -.166E-02 0.116E+00 -.146E+00
   -.781E-05 -.667E+01 0.868E+03   0.205E-04 0.628E+01 -.867E+03   0.224E-11 0.341E+00 -.866E+00   0.118E-03 0.468E-01 -.136E+00
   0.932E+00 -.538E+00 0.868E+03   -.109E+01 0.630E+00 -.867E+03   0.415E-01 -.239E-01 -.630E+00   0.994E-01 -.593E-01 -.146E+00
   -.932E+00 -.538E+00 0.868E+03   0.109E+01 0.630E+00 -.867E+03   -.415E-01 -.239E-01 -.630E+00   -.994E-01 -.574E-01 -.145E+00
   0.413E-04 0.443E+01 -.822E+03   -.130E-03 -.456E+01 0.822E+03   0.187E-12 0.284E-01 0.477E+00   -.647E-03 0.817E-01 -.142E+00
   0.144E+02 0.832E+01 -.780E+03   -.134E+02 -.774E+01 0.780E+03   -.807E+00 -.466E+00 -.257E+00   -.148E+00 -.851E-01 -.104E+00
   -.144E+02 0.832E+01 -.780E+03   0.134E+02 -.774E+01 0.780E+03   0.807E+00 -.466E+00 -.257E+00   0.148E+00 -.850E-01 -.105E+00
   0.637E+01 -.368E+01 -.810E+03   -.647E+01 0.373E+01 0.809E+03   0.198E+00 -.114E+00 0.838E+00   -.106E+00 0.616E-01 -.141E+00
   -.561E-04 -.166E+02 -.780E+03   0.444E-04 0.155E+02 0.780E+03   0.612E-11 0.932E+00 -.257E+00   0.527E-03 0.171E+00 -.105E+00
   -.637E+01 -.368E+01 -.810E+03   0.647E+01 0.373E+01 0.809E+03   -.198E+00 -.114E+00 0.838E+00   0.107E+00 0.616E-01 -.140E+00
   -.384E+01 -.222E+01 -.822E+03   0.395E+01 0.228E+01 0.822E+03   -.246E-01 -.142E-01 0.477E+00   -.701E-01 -.406E-01 -.142E+00
   0.384E+01 -.222E+01 -.822E+03   -.395E+01 0.228E+01 0.822E+03   0.246E-01 -.142E-01 0.477E+00   0.701E-01 -.415E-01 -.142E+00
   0.201E-04 0.735E+01 -.810E+03   0.110E-03 -.747E+01 0.809E+03   0.150E-11 0.228E+00 0.838E+00   -.553E-03 -.123E+00 -.141E+00
   0.543E-04 -.372E-04 -.249E+04   -.117E-03 0.785E-04 0.248E+04   -.554E-17 0.139E-17 0.184E+01   -.116E-02 -.808E-03 0.117E+00
   0.258E+02 0.448E+02 -.248E+04   -.261E+02 -.454E+02 0.248E+04   0.225E+00 0.520E+00 0.208E+01   -.543E-01 -.136E+00 0.481E-01
   -.258E+02 0.448E+02 -.248E+04   0.261E+02 -.454E+02 0.248E+04   -.225E+00 0.520E+00 0.208E+01   0.640E-01 -.135E+00 0.481E-01
   0.517E+02 -.755E-01 -.248E+04   -.524E+02 0.121E+00 0.248E+04   0.563E+00 -.655E-01 0.208E+01   -.145E+00 0.212E-01 0.481E-01
   -.517E+02 -.755E-01 -.248E+04   0.524E+02 0.121E+00 0.248E+04   -.563E+00 -.655E-01 0.208E+01   0.154E+00 0.221E-01 0.482E-01
   0.259E+02 -.447E+02 -.248E+04   -.263E+02 0.453E+02 0.248E+04   0.338E+00 -.455E+00 0.208E+01   -.840E-01 0.123E+00 0.481E-01
   -.259E+02 -.447E+02 -.248E+04   0.263E+02 0.453E+02 0.248E+04   -.338E+00 -.455E+00 0.208E+01   0.958E-01 0.122E+00 0.481E-01
   0.219E-04 -.106E-04 -.248E+04   0.107E-03 -.667E-04 0.248E+04   -.106E-16 0.427E-18 0.181E+01   -.778E-02 -.406E-02 0.331E-01
   0.277E-04 -.243E-04 -.199E+04   0.953E-04 0.113E-04 0.199E+04   0.636E-17 0.436E-17 -.350E+01   0.222E-02 0.139E-02 0.122E-02
   0.107E-03 -.597E-04 -.141E+04   0.225E-04 0.303E-06 0.144E+04   0.392E-18 -.147E-17 -.229E+02   0.151E-02 0.935E-03 0.577E-01
   0.533E-03 -.746E-03 0.299E+02   0.106E-12 0.209E-12 0.500E-11   0.163E-15 -.163E-15 -.277E+02   0.379E-01 0.252E-01 -.222E+01

 POSITION                                       TOTAL-FORCE (eV/Angst)
      0.00000      0.00000      5.28219         0.000000      0.000000      0.011557
      2.93046      0.00000      5.28219        -0.003675      0.020018      0.031099
      5.86091      0.00000      5.28219         0.003675      0.020018      0.031099
      1.46523      2.53785      5.28219         0.015499     -0.013192      0.031099
      4.39568      2.53785      5.28219         0.000000      0.000000      0.038280
      7.32614      2.53785      5.28219        -0.015499     -0.013192      0.031099
      2.93046      5.07570      5.28219         0.019174     -0.006826      0.031099
      5.86091      5.07570      5.28219        -0.019174     -0.006826      0.031099
      8.79137      5.07570      5.28219         0.000000      0.000000      0.014968
      1.46523      0.84595      7.67490         0.001134      0.000655     -0.005144
      4.39568      0.84595      7.67490        -0.000000     -0.024132     -0.048666
      7.32614      0.84595      7.67490        -0.001134      0.000655     -0.005144
      2.93046      3.38380      7.67490        -0.020899      0.012066     -0.048666
      5.86091      3.38380      7.67490         0.020899      0.012066     -0.048666
      8.79137      3.38380      7.67490        -0.000000     -0.020818     -0.026939
      4.39568      5.92165      7.67490        -0.000000     -0.001310     -0.005144
      7.32614      5.92165      7.67490        -0.018029      0.010409     -0.026939
     10.25659      5.92165      7.67490         0.018029      0.010409     -0.026939
      8.79137      1.70009     10.06101        -0.000000     -0.019786     -0.009578
      2.92042      1.68610     10.02751         0.048390      0.027938     -0.178412
      5.87095      1.68610     10.02751        -0.048390      0.027938     -0.178412
     10.25445      4.23098     10.04520        -0.006889      0.003977     -0.019078
      4.39568      4.24134     10.02751        -0.000000     -0.055876     -0.178412
      7.32828      4.23098     10.04520         0.006889      0.003977     -0.019078
     11.71473      6.76350     10.06101         0.017135      0.009893     -0.009578
      5.86800      6.76350     10.06101        -0.017135      0.009893     -0.009578
      8.79137      6.76512     10.04520        -0.000000     -0.007955     -0.019078
      0.00000      0.00000     12.42233         0.000000      0.000000     -0.005417
      2.94927      0.03214     12.43461        -0.138976     -0.236774     -0.029667
      5.84210      0.03214     12.43461         0.138976     -0.236774     -0.029667
      1.50247      2.53807     12.43461        -0.274540     -0.001969     -0.029667
      7.28890      2.53807     12.43461         0.274540     -0.001969     -0.029667
      2.94888      5.04334     12.43461        -0.135565      0.238743     -0.029667
      5.84248      5.04334     12.43461         0.135565      0.238743     -0.029667
      8.79137      5.07570     12.41249         0.000000      0.000000      0.006805
      4.39568      2.53785     12.25656         0.000000      0.000000      0.736632
      4.39568      2.53785     14.02772         0.000000      0.000000      0.052033
    total drift:                                0.038441      0.024449      0.046586

  FREE ENERGIE OF THE ION-ELECTRON SYSTEM (eV)
  free  energy   TOTEN  =      -100.60989025 eV

  energy  without entropy=     -100.60989025  energy(sigma->0) =     -100.60989025

 stress matrix after NEB project (eV)
     -7.02798     -0.00000      0.00000
     -0.00000     -7.02798      0.00000
     -0.00000      0.00000      0.74649
  FORCES: max atom, RMS     0.052033    0.008554
  FORCE total and by dimension    0.052033    0.052033
  Stress total and by dimension    9.967065    7.027985
|           W    W    AA    RRRRR   N    N  II  N    N   GGGG   !!!           |
|           W    W   A  A   R    R  NN   N  II  NN   N  G    G  !!!           |
|           W    W  A    A  R    R  N N  N  II  N N  N  G       !!!           |
|           W WW W  AAAAAA  RRRRR   N  N N  II  N  N N  G  GGG   !            |
|           WW  WW  A    A  R   R   N   NN  II  N   NN  G    G                |
|           W    W  A    A  R    R  N    N  II  N    N   GGGG   !!!           |
|     Tetrahedron method does not include variations of the Fermi             |
|     occupations, so forces and stress will be inaccurate. We suggest        |
|     using a different smearing scheme ISMEAR = 1 or 2 for metals in         |
|     relaxations.                                                            |

 total charge

# of ion       s       p       d       tot
    1        0.418   0.202   9.178   9.798
    2        0.417   0.203   9.177   9.797
    3        0.417   0.203   9.177   9.797
    4        0.417   0.203   9.177   9.797
    5        0.414   0.206   9.175   9.795
    6        0.417   0.203   9.177   9.797
    7        0.417   0.203   9.177   9.797
    8        0.417   0.203   9.177   9.797
    9        0.416   0.202   9.177   9.795
   10        0.406   0.271   9.163   9.840
   11        0.405   0.271   9.166   9.842
   12        0.406   0.271   9.163   9.840
   13        0.405   0.271   9.166   9.842
   14        0.405   0.271   9.166   9.842
   15        0.402   0.269   9.166   9.837
   16        0.406   0.271   9.163   9.840
   17        0.402   0.269   9.166   9.837
   18        0.402   0.269   9.166   9.837
   19        0.403   0.272   9.162   9.838
   20        0.420   0.291   9.156   9.867
   21        0.420   0.291   9.156   9.867
   22        0.402   0.269   9.169   9.841
   23        0.420   0.291   9.156   9.867
   24        0.402   0.269   9.169   9.841
   25        0.403   0.272   9.162   9.838
   26        0.403   0.272   9.162   9.838
   27        0.402   0.269   9.169   9.841
   28        0.419   0.197   9.182   9.798
   29        0.391   0.211   9.187   9.789
   30        0.391   0.211   9.187   9.789
   31        0.391   0.211   9.187   9.789
   32        0.391   0.211   9.187   9.789
   33        0.391   0.211   9.187   9.789
   34        0.391   0.211   9.187   9.789
   35        0.416   0.199   9.180   9.795
   36        0.771   0.678   8.019   9.468
   37        1.348   2.123   0.000   3.471
tot         16.369  11.222 329.041 356.632

 BZINTS: Fermi energy:    0.855071;  400.000000 electrons
         Band energy:-0.132589E+04;  BLOECHL correction:   -0.045505