 vasp.6.2.0 18Jan21 (build Jun 12 2021 23:27:24) complex

 executed on             LinuxIFC date 2022.05.28  00:42:47

 INCAR:
   ISMEAR = -5
   SIGMA = 0.1
   ISPIN = 1
   EDIFF = 1.d-5
   EDIFFG = -0.01
   NSW = 0
   NELM = 150
   ENCUT = 500
   ISIF = 2
   IBRION = 2
   LREAL = Auto
   ALGO = Fast
   ICHARG = 11
   LORBIT = 10
   LCHARG = .F.
   LWAVE = .F.

 POTCAR:    PAW_PBE Au 04Oct2007
 POTCAR:    PAW_PBE Mn 06Sep2000
 POTCAR:    PAW_PBE H 15Jun2001
 POTCAR:    PAW_PBE O 08Apr2002
|           W    W    AA    RRRRR   N    N  II  N    N   GGGG   !!!           |
|           W    W   A  A   R    R  NN   N  II  NN   N  G    G  !!!           |
|           W    W  A    A  R    R  N N  N  II  N N  N  G       !!!           |
|           W WW W  AAAAAA  RRRRR   N  N N  II  N  N N  G  GGG   !            |
|           WW  WW  A    A  R   R   N   NN  II  N   NN  G    G                |
|           W    W  A    A  R    R  N    N  II  N    N   GGGG   !!!           |
|     For optimal performance we recommend to set                             |
|       NCORE = 2 up to number-of-cores-per-socket                            |
|     This setting can greatly improve the performance of VASP for DFT.       |
|     The default, NCORE=1 might be grossly inefficient on modern             |
|     multi-core architectures or massively parallel machines. Do your        |
|     Unfortunately you need to use the default for GW and RPA                |
|     calculations (for HF NCORE is supported but not extensively tested      |
|     yet).                                                                   |

 POTCAR:    PAW_PBE Au 04Oct2007
   VRHFIN =Au: s1d10

   TITEL  = PAW_PBE Au 04Oct2007
   POMASS =  196.966; ZVAL   =   11.000    mass and valenz
   ENMAX  =  229.943; ENMIN  =  172.457 eV

 POTCAR:    PAW_PBE Mn 06Sep2000
   VRHFIN =Mn: d6 s1

   TITEL  = PAW_PBE Mn 06Sep2000
   POMASS =   54.938; ZVAL   =    7.000    mass and valenz
   ENMAX  =  269.864; ENMIN  =  202.398 eV

 POTCAR:    PAW_PBE H 15Jun2001
   VRHFIN =H: ultrasoft test

   TITEL  = PAW_PBE H 15Jun2001
   POMASS =    1.000; ZVAL   =    1.000    mass and valenz
   ENMAX  =  250.000; ENMIN  =  200.000 eV

 POTCAR:    PAW_PBE O 08Apr2002
   VRHFIN =O: s2p4

   TITEL  = PAW_PBE O 08Apr2002
   POMASS =   16.000; ZVAL   =    6.000    mass and valenz
   ENMAX  =  400.000; ENMIN  =  300.000 eV

 Optimization of the real space projectors (new method)

 maximal supplied QI-value         = 15.12
 optimisation between [QCUT,QGAM] = [ 11.34, 22.83] = [ 36.00,145.93] Ry
 Optimized for a Real-space Cutoff    1.39 Angstroem

   l    n(q)    QCUT    max X(q) W(low)/X(q) W(high)/X(q)  e(spline)
   2      9    11.338    60.898    0.39E-03    0.42E-03    0.21E-06
   2      9    11.338    58.894    0.40E-03    0.42E-03    0.22E-06
   0      9    11.338   109.617    0.13E-03    0.20E-04    0.13E-06
   0      9    11.338    75.026    0.13E-03    0.20E-04    0.13E-06
   1      9    11.338    16.344    0.33E-04    0.24E-03    0.18E-06
   1      9    11.338    10.160    0.26E-04    0.19E-03    0.15E-06
 Optimization of the real space projectors (new method)

[...]

   l    n(q)    QCUT    max X(q) W(low)/X(q) W(high)/X(q)  e(spline)
   0      8    11.287    19.460    0.40E-03    0.73E-03    0.16E-06
   0      8    11.287    12.209    0.38E-03    0.70E-03    0.15E-06
   1      7    11.287     4.655    0.22E-03    0.25E-04    0.22E-06
 Optimization of the real space projectors (new method)

 maximal supplied QI-value         = 24.76
 optimisation between [QCUT,QGAM] = [ 11.39, 22.77] = [ 36.31,145.25] Ry
 Optimized for a Real-space Cutoff    1.00 Angstroem

   l    n(q)    QCUT    max X(q) W(low)/X(q) W(high)/X(q)  e(spline)
   0      7    11.387    20.381    0.39E-03    0.13E-02    0.15E-06
   0      7    11.387    15.268    0.42E-03    0.14E-02    0.17E-06
   1      6    11.387     5.964    0.41E-03    0.11E-02    0.17E-06
   1      6    11.387     5.382    0.39E-03    0.87E-03    0.15E-06
  PAW_PBE Au 04Oct2007                  :
  PAW_PBE Mn 06Sep2000                  :
  PAW_PBE H 15Jun2001                   :
  PAW_PBE O 08Apr2002                   :

 POSCAR: Au-Mn-H2O
  positions in direct lattice
  velocities in cartesian coordinates
 exchange correlation table for  LEXCH =        8
   RHO(1)=    0.500       N(1)  =     2000
   RHO(2)=  100.500       N(2)  =     4000

 VTST: version 3.2, (02/03/18)

 CHAIN: initializing optimizer

 OPT: Using VASP Conjugate-Gradient optimizer
 CHAIN: Read ICHAIN            0

 POSCAR: Au-Mn-H2O
  positions in direct lattice
  velocities in cartesian coordinates

 ion  position               nearest neighbor table
   1  0.000  0.000  0.213-  16 2.94  12 2.94   6 2.94   8 2.94   7 2.94   3 2.94  10 2.94   4 2.94
                             2 2.94
   2  0.333  0.000  0.213-   9 2.94  11 2.94  17 2.94  10 2.94   8 2.94   4 2.94   5 2.94   1 2.94
                             3 2.94
   3  0.667  0.000  0.213-   7 2.94  18 2.94  12 2.94   1 2.94  11 2.94   5 2.94   6 2.94   9 2.94
                             2 2.94
   4  0.000  0.333  0.213-  10 2.94   6 2.94   5 2.94  13 2.94   2 2.94  15 2.94   9 2.94   1 2.94
                             7 2.94
   5  0.333  0.333  0.213-  13 2.94   7 2.94  11 2.94   4 2.94   2 2.94  14 2.94   3 2.94   8 2.94
                             6 2.94
   6  0.667  0.333  0.213-  15 2.94  14 2.94   1 2.94  12 2.94   4 2.94   9 2.94   8 2.94   3 2.94
                             5 2.94
   7  0.000  0.667  0.213-  18 2.94   3 2.94  16 2.94   5 2.94   1 2.94  13 2.94   8 2.94   4 2.94
                             9 2.94
   8  0.333  0.667  0.213-   9 2.94  17 2.94   1 2.94   2 2.94  14 2.94  16 2.94   6 2.94   7 2.94
                             5 2.94
   9  0.667  0.667  0.213-   2 2.94   8 2.94  17 2.94   6 2.94  15 2.94   4 2.94   3 2.94  18 2.94
                             7 2.94
  10  0.111  0.111  0.310-  20 2.93  26 2.94  19 2.94  11 2.94  17 2.94   2 2.94   4 2.94   1 2.94
                            12 2.94  16 2.94  13 2.94  15 2.94
  11  0.444  0.111  0.310-  20 2.91  21 2.91  27 2.93  13 2.94   2 2.94  10 2.94  17 2.94   5 2.94
                             3 2.94  18 2.94  14 2.94  12 2.94
  12  0.778  0.111  0.310-  21 2.93  25 2.94  19 2.94  16 2.94  18 2.94   1 2.94  14 2.94  15 2.94
                             3 2.94   6 2.94  10 2.94  11 2.94
  13  0.111  0.444  0.310-  23 2.91  20 2.91  22 2.93   5 2.94  18 2.94  11 2.94   7 2.94   4 2.94
                            16 2.94  10 2.94  14 2.94  15 2.94
  14  0.444  0.444  0.310-  21 2.91  23 2.91  24 2.93  15 2.94   6 2.94  12 2.94   8 2.94  17 2.94
                             5 2.94  16 2.94  13 2.94  11 2.94
  15  0.778  0.444  0.310-  24 2.92  22 2.92  19 2.94  14 2.94   6 2.94  17 2.94  12 2.94   9 2.94
                             4 2.94  10 2.94  13 2.94  18 2.94
  16  0.111  0.778  0.310-  23 2.93  25 2.94  26 2.94  18 2.94  12 2.94   7 2.94   1 2.94   8 2.94
                            13 2.94  10 2.94  14 2.94  17 2.94
  17  0.444  0.778  0.310-  27 2.92  24 2.92  26 2.94   9 2.94  15 2.94   2 2.94  10 2.94  11 2.94
                             8 2.94  14 2.94  16 2.94  18 2.94
  18  0.778  0.778  0.310-  22 2.92  27 2.92  25 2.94  16 2.94   7 2.94  13 2.94  12 2.94   3 2.94
                            11 2.94   9 2.94  15 2.94  17 2.94
  19  0.889  0.222  0.407-  10 2.94  12 2.94  15 2.94  26 2.94  25 2.94  24 2.94  22 2.94  28 2.95
                            21 2.95  20 2.95  32 2.99  31 2.99
  20  0.223  0.223  0.406-  36 2.70  23 2.91  21 2.91  11 2.91  13 2.91  29 2.92  31 2.92  10 2.93
                            26 2.95  19 2.95  27 2.95  22 2.95
  21  0.553  0.223  0.406-  36 2.70  20 2.91  23 2.91  14 2.91  11 2.91  30 2.92  32 2.92  12 2.93
                            25 2.95  19 2.95  27 2.95  24 2.95
  22  0.886  0.557  0.406-  24 2.91  27 2.91  18 2.92  15 2.92  13 2.93  25 2.94  19 2.94  23 2.95
                            20 2.95  33 2.96  31 2.96  35 2.96
  23  0.223  0.553  0.406-  36 2.70  20 2.91  21 2.91  13 2.91  14 2.91  33 2.92  34 2.92  16 2.93
                            25 2.95  26 2.95  22 2.95  24 2.95
  24  0.557  0.557  0.406-  27 2.91  22 2.91  15 2.92  17 2.92  14 2.93  26 2.94  19 2.94  21 2.95
                            23 2.95  32 2.96  34 2.96  35 2.96
  25  0.889  0.889  0.407-  16 2.94  12 2.94  18 2.94  19 2.94  26 2.94  22 2.94  27 2.94  28 2.95
                            23 2.95  21 2.95  33 2.99  30 2.99
  26  0.222  0.889  0.407-  10 2.94  16 2.94  17 2.94  19 2.94  25 2.94  27 2.94  24 2.94  28 2.95
                            20 2.95  23 2.95  29 2.99  34 2.99
  27  0.557  0.886  0.406-  24 2.91  22 2.91  17 2.92  18 2.92  11 2.93  26 2.94  25 2.94  20 2.95
                            21 2.95  29 2.96  30 2.96  35 2.96
  28  0.000  0.000  0.505-  25 2.95  19 2.95  26 2.95  34 2.99  32 2.99  33 2.99  30 2.99  31 2.99
                            29 2.99
  29  0.334  0.010  0.504-  30 2.84  31 2.85  36 2.86  20 2.92  27 2.96  35 2.98  26 2.99  28 2.99
                            34 3.12
  30  0.656  0.010  0.504-  29 2.84  32 2.85  36 2.86  21 2.92  27 2.96  35 2.98  25 2.99  28 2.99
                            33 3.12
  31  0.010  0.334  0.504-  33 2.84  29 2.85  36 2.86  20 2.92  22 2.96  35 2.98  19 2.99  28 2.99
                            32 3.12
  32  0.656  0.334  0.504-  34 2.84  30 2.85  36 2.86  21 2.92  24 2.96  35 2.98  19 2.99  28 2.99
                            31 3.12
  33  0.010  0.656  0.504-  31 2.84  34 2.85  36 2.86  23 2.92  22 2.96  35 2.98  25 2.99  28 2.99
                            30 3.12
  34  0.334  0.656  0.504-  32 2.84  33 2.85  36 2.86  23 2.92  24 2.96  35 2.98  26 2.99  28 2.99
                            29 3.12
  35  0.667  0.667  0.505-  24 2.96  27 2.96  22 2.96  29 2.98  34 2.98  32 2.98  31 2.98  30 2.98
                            33 2.98
  36  0.333  0.333  0.492-  39 2.11  20 2.70  23 2.70  21 2.70  33 2.86  31 2.86  29 2.86  30 2.86
                            34 2.86  32 2.86
  37  0.279  0.263  0.585-  39 0.98
  38  0.457  0.263  0.586-  39 0.98
  39  0.332  0.335  0.577-  37 0.98  38 0.98  36 2.11

  LATTYP: Found a hexagonal cell.
 ALAT       =     8.8135128021
 C/A-ratio  =     2.8075332270

  Lattice vectors:

 A1 = (  -4.4067569092,  -7.6327256898,   0.0000000000)
 A2 = (   8.8135128021,   0.0000000000,   0.0000000000)
 A3 = (   0.0000000000,   0.0000000000,  24.7442300386)

Analysis of symmetry for initial positions (statically):
 Subroutine PRICEL returns:
 Original cell was already a primitive cell.

 Routine SETGRP: Setting up the symmetry group for a
 hexagonal supercell.

 Subroutine GETGRP returns: Found  1 space group operations
 (whereof  1 operations were pure point group operations)
 out of a pool of 24 trial point group operations.

The static configuration has the point symmetry C_1 .

Analysis of symmetry for dynamics (positions and initial velocities):
 Subroutine PRICEL returns:
 Original cell was already a primitive cell.

[...]

The dynamic configuration has the point symmetry C_1 .

Analysis of constrained symmetry for selective dynamics:
 Subroutine PRICEL returns:
[...]
     41      -4.9097      2.00000
     42      -4.8592      2.00000
     43      -4.7855      2.00000
     44      -4.7567      2.00000
     45      -4.7375      2.00000
     46      -4.6783      2.00000
     47      -4.6710      2.00000
     48      -4.6566      2.00000
     49      -4.6374      2.00000
     50      -4.5475      2.00000
     51      -4.5212      2.00000
     52      -4.4891      2.00000
     53      -4.4818      2.00000
     54      -4.4764      2.00000
     55      -4.4716      2.00000
     56      -4.4524      2.00000
     57      -4.4187      2.00000
     58      -4.3718      2.00000
     59      -4.3559      2.00000
     60      -4.3308      2.00000
[...]
    238       5.7958      0.00000
    239       5.9881      0.00000
    240       6.0438      0.00000
    241       6.0610      0.00000
    242       6.0989      0.00000
    243       6.3135      0.00000
    244       6.3643      0.00000
    245       6.4008      0.00000
    246       6.4855      0.00000
    247       6.5627      0.00000
    248       6.6054      0.00000
    249       6.6210      0.00000
    250       6.7265      0.00000
    251       6.8280      0.00000
    252       6.8535      0.00000

 soft charge-density along one line, spin component           1
         0         1         2         3         4         5         6         7         8         9
 total charge-density along one line

------------------------ aborting loop because EDIFF is reached ----------------------------------------

 total charge

# of ion       s       p       d       tot
    1        0.547   0.238   8.767   9.552
    2        0.544   0.241   8.764   9.549
    3        0.544   0.241   8.764   9.549
    4        0.544   0.241   8.764   9.549
    5        0.544   0.241   8.760   9.545
    6        0.544   0.241   8.764   9.549
    7        0.544   0.241   8.765   9.550
    8        0.544   0.241   8.765   9.550
    9        0.542   0.239   8.769   9.550
   10        0.524   0.308   8.768   9.600
   11        0.523   0.307   8.780   9.611
   12        0.524   0.308   8.768   9.600
   13        0.522   0.308   8.780   9.611
   14        0.522   0.308   8.780   9.611
   15        0.517   0.309   8.776   9.602
   16        0.525   0.308   8.768   9.600
   17        0.516   0.309   8.776   9.602
   18        0.516   0.309   8.776   9.602
   19        0.519   0.299   8.774   9.592
   20        0.553   0.334   8.746   9.633
   21        0.553   0.334   8.746   9.633
   22        0.510   0.310   8.776   9.595
   23        0.553   0.334   8.745   9.633
   24        0.510   0.310   8.776   9.595
   25        0.517   0.299   8.775   9.591
   26        0.517   0.299   8.775   9.591
   27        0.512   0.309   8.775   9.596
   28        0.539   0.226   8.759   9.524
   29        0.570   0.247   8.745   9.562
   30        0.570   0.247   8.745   9.562
   31        0.570   0.246   8.745   9.561
   32        0.570   0.246   8.745   9.560
   33        0.563   0.239   8.750   9.552
   34        0.563   0.239   8.750   9.552
   35        0.534   0.226   8.761   9.520
   36        0.256   0.237   5.032   5.524
   37        0.600   0.118   0.000   0.718
   38        0.600   0.117   0.000   0.718
   39        1.569   3.609   0.000   5.178
tot         21.837  13.760 311.776 347.372

  FORCE on cell =-STRESS in cart. coord.  units (eV):
  Direction    XX          YY          ZZ          XY          YZ          ZX
  Alpha Z   916.28788   916.28788   916.28788
  Ewald  156813.45081156749.05795************     0.14568   -14.90461     0.33147
  Hartree165266.42265165254.52157************     0.01784     0.46894     0.15775
  E(xc)   -1795.53112 -1795.81848 -1803.02133     0.00035    -0.02925     0.00164
  Local  ************************334423.39633    -0.11154     8.01175    -0.43062
  n-local  -106.32391  -106.98970   -79.04805    -0.00980     0.09761    -0.00096
  augment  2399.55482  2400.80464  2418.22541    -0.00319     0.27195    -0.00438
  Kinetic  5548.01750  5566.61498  5626.21485    -0.04063     6.05631    -0.04825
  Fock        0.00000     0.00000     0.00000     0.00000     0.00000     0.00000
  Total     -21.37880   -21.50422     2.15610    -0.00130    -0.02729     0.00666
  in kB     -20.57743   -20.69816     2.07528    -0.00125    -0.02626     0.00641

 VOLUME and BASIS-vectors are now :
  energy-cutoff  :      500.00
  volume of cell :     1664.57
      direct lattice vectors                 reciprocal lattice vectors
     8.813512802  0.000000000  0.000000000     0.113462137 -0.065507406  0.000000000
     4.406756909  7.632725690  0.000000000     0.000000000  0.131014796  0.000000000
     0.000000000  0.000000000 24.744230039     0.000000000  0.000000000  0.040413462

  length of vectors
     8.813512802  8.813512802 24.744230039     0.131014796  0.131014796  0.040413462

 FORCES acting on ions
    electron-ion (+dipol)            ewald-force                    non-local-force                 convergence-correction
   0.292E-02 -.185E-01 0.269E+04   -.323E-03 -.106E-01 -.269E+04   0.132E-03 0.196E-01 -.757E+00   -.271E-02 0.137E-01 -.156E+00
   0.527E+00 0.212E+00 0.269E+04   -.626E+00 -.312E+00 -.269E+04   0.569E-01 0.896E-01 -.193E+00   0.365E-01 0.165E-01 -.227E+00
   -.530E+00 0.201E+00 0.269E+04   0.626E+00 -.311E+00 -.269E+04   -.569E-01 0.898E-01 -.193E+00   -.337E-01 0.275E-01 -.223E+00
   0.439E+00 0.353E+00 0.269E+04   -.574E+00 -.375E+00 -.269E+04   0.996E-01 -.882E-02 -.192E+00   0.367E-01 0.200E-01 -.239E+00
   -.156E-01 -.279E-01 0.269E+04   0.783E-03 0.175E-01 -.269E+04   -.261E-04 -.839E-03 -.585E-01   0.151E-01 0.756E-02 -.266E+00
   -.428E+00 0.349E+00 0.269E+04   0.573E+00 -.375E+00 -.269E+04   -.997E-01 -.870E-02 -.192E+00   -.472E-01 0.239E-01 -.233E+00
   -.107E+00 -.559E+00 0.269E+04   0.526E-01 0.686E+00 -.269E+04   0.553E-01 -.810E-01 -.232E+00   0.319E-02 -.416E-01 -.248E+00
   0.974E-01 -.550E+00 0.269E+04   -.525E-01 0.686E+00 -.269E+04   -.553E-01 -.810E-01 -.232E+00   0.586E-02 -.495E-01 -.247E+00
   0.137E-01 0.231E-01 0.269E+04   -.133E-03 -.663E-02 -.269E+04   0.617E-04 -.738E-02 -.454E+00   -.139E-01 -.915E-02 -.212E+00
   0.473E+01 0.271E+01 0.916E+03   -.429E+01 -.247E+01 -.915E+03   -.323E+00 -.179E+00 -.712E+00   -.834E-01 -.420E-01 0.270E-01
   -.193E-01 0.504E+01 0.924E+03   0.420E-02 -.501E+01 -.924E+03   -.883E-04 0.352E-01 -.265E+00   0.155E-01 -.117E+00 -.399E-02
   -.472E+01 0.270E+01 0.916E+03   0.428E+01 -.247E+01 -.915E+03   0.323E+00 -.179E+00 -.712E+00   0.718E-01 -.345E-01 0.306E-01
   0.436E+01 -.260E+01 0.924E+03   -.434E+01 0.261E+01 -.923E+03   0.507E-01 -.365E-01 -.294E+00   -.102E+00 0.474E-01 -.730E-02
   -.438E+01 -.259E+01 0.924E+03   0.434E+01 0.261E+01 -.923E+03   -.505E-01 -.362E-01 -.293E+00   0.125E+00 0.410E-01 -.101E-01
   0.174E-01 0.371E+01 0.919E+03   -.415E-02 -.387E+01 -.919E+03   0.213E-03 0.495E-01 -.558E+00   -.135E-01 0.701E-01 0.852E-01
   -.608E-03 -.535E+01 0.916E+03   0.744E-03 0.483E+01 -.915E+03   -.261E-04 0.373E+00 -.763E+00   -.192E-03 0.978E-01 0.270E-01
   0.335E+01 -.181E+01 0.919E+03   -.344E+01 0.188E+01 -.919E+03   0.994E-02 -.619E-02 -.579E+00   0.408E-01 -.297E-01 0.985E-01
   -.335E+01 -.183E+01 0.919E+03   0.344E+01 0.188E+01 -.919E+03   -.968E-02 -.633E-02 -.579E+00   -.396E-01 -.154E-01 0.105E+00
   0.465E-01 0.182E+01 -.890E+03   -.304E-01 -.201E+01 0.888E+03   0.385E-03 0.338E-01 0.488E+00   -.167E-01 0.112E+00 0.865E+00
   0.205E+02 0.112E+02 -.849E+03   -.194E+02 -.106E+02 0.849E+03   -.107E+01 -.592E+00 -.984E+00   -.585E-01 -.395E-01 0.107E+01
   -.205E+02 0.112E+02 -.849E+03   0.194E+02 -.106E+02 0.849E+03   0.107E+01 -.594E+00 -.985E+00   0.724E-01 -.421E-01 0.107E+01
   0.192E+01 -.142E+01 -.874E+03   -.220E+01 0.154E+01 0.872E+03   0.375E+00 -.190E+00 0.546E+00   -.820E-01 0.576E-01 0.919E+00
   -.305E-01 -.239E+02 -.851E+03   0.275E-01 0.226E+02 0.850E+03   -.384E-03 0.128E+01 -.976E+00   0.375E-02 0.789E-01 0.104E+01
   -.189E+01 -.139E+01 -.874E+03   0.217E+01 0.152E+01 0.872E+03   -.376E+00 -.190E+00 0.545E+00   0.788E-01 0.473E-01 0.919E+00
   -.199E+01 -.320E+00 -.890E+03   0.220E+01 0.469E+00 0.889E+03   -.372E-01 -.717E-01 0.575E+00   -.145E+00 -.624E-01 0.850E+00
   0.201E+01 -.281E+00 -.890E+03   -.221E+01 0.439E+00 0.889E+03   0.368E-01 -.711E-01 0.575E+00   0.129E+00 -.720E-01 0.852E+00
   -.149E-01 0.306E+01 -.873E+03   0.858E-02 -.342E+01 0.871E+03   0.133E-03 0.450E+00 0.495E+00   0.612E-02 -.650E-01 0.899E+00
   0.709E-01 0.213E+01 -.264E+04   -.677E-01 -.219E+01 0.264E+04   -.106E-03 0.314E-01 0.377E+00   -.327E-02 0.729E-02 0.540E+00
   0.357E+02 0.592E+02 -.260E+04   -.350E+02 -.580E+02 0.260E+04   -.824E+00 -.136E+01 -.316E+00   0.371E-01 -.417E-01 0.351E+00
   -.358E+02 0.589E+02 -.260E+04   0.351E+02 -.577E+02 0.260E+04   0.824E+00 -.136E+01 -.314E+00   -.330E-01 -.317E-01 0.347E+00
   0.657E+02 -.181E+01 -.261E+04   -.643E+02 0.183E+01 0.261E+04   -.163E+01 -.607E-01 -.252E+00   0.118E-01 0.737E-01 0.376E+00
   -.653E+02 -.178E+01 -.261E+04   0.639E+02 0.179E+01 0.261E+04   0.163E+01 -.610E-01 -.252E+00   -.200E-01 0.743E-01 0.373E+00
   0.277E+02 -.541E+02 -.261E+04   -.271E+02 0.531E+02 0.261E+04   -.627E+00 0.123E+01 0.227E+00   -.718E-01 -.425E-01 0.365E+00
   -.278E+02 -.539E+02 -.261E+04   0.272E+02 0.528E+02 0.261E+04   0.629E+00 0.123E+01 0.223E+00   0.789E-01 -.489E-01 0.367E+00
   0.613E-01 0.125E+01 -.264E+04   -.491E-01 -.122E+01 0.264E+04   -.434E-03 -.442E-02 0.469E+00   -.119E-01 -.288E-01 0.402E+00
   -.293E+00 -.548E+01 -.146E+04   0.286E+00 0.557E+01 0.146E+04   -.444E-02 -.715E-01 0.774E+00   0.856E-02 0.379E-02 0.206E+00
   0.671E+02 0.434E+02 -.297E+03   -.738E+02 -.478E+02 0.298E+03   0.670E+01 0.439E+01 -.172E+01   -.300E-01 -.171E-01 0.189E-02
   -.672E+02 0.431E+02 -.297E+03   0.739E+02 -.475E+02 0.298E+03   -.671E+01 0.437E+01 -.174E+01   0.306E-01 -.166E-01 0.136E-02
   -.479E-01 -.564E+02 -.168E+04   -.291E-01 0.993E+02 0.167E+04   0.638E-01 -.429E+02 0.596E+01   0.756E-02 0.112E-01 0.136E+00
   -.803E-01 0.345E+02 -.611E+01   0.142E-12 -.199E-12 -.409E-11   0.544E-01 -.345E+02 -.355E+01   0.666E-02 -.151E-01 0.103E+02

 POSITION                                       TOTAL-FORCE (eV/Angst)
      0.00000      0.00000      5.28038         0.000515      0.004324     -0.089032
      2.93784      0.00000      5.28038        -0.005348      0.006548     -0.013635
      5.87568      0.00000      5.28038         0.006358      0.006622     -0.013631
      1.46892      2.54424      5.28038         0.001746     -0.010187     -0.010724
      4.40676      2.54424      5.28038         0.000721     -0.003630     -0.042303
      7.34459      2.54424      5.28038        -0.000797     -0.010158     -0.010484
      2.93784      5.08848      5.28038         0.005020      0.005038     -0.010847
      5.87568      5.08848      5.28038        -0.003970      0.004995     -0.010655
      8.81351      5.08848      5.28038         0.000261     -0.000056     -0.036399
      1.46892      0.84808      7.67911         0.041387      0.023402      0.096660
      4.40676      0.84808      7.67911         0.000827     -0.045592     -0.001741
      7.34459      0.84808      7.67911        -0.040579      0.023394      0.096498
      2.93784      3.39232      7.67911        -0.030991      0.022486     -0.000874
      5.87568      3.39232      7.67911         0.032404      0.022329     -0.000852
      8.81351      3.39232      7.67911         0.000468     -0.045890      0.048774
      4.40676      5.93656      7.67911         0.000410     -0.050006      0.087160
      7.34459      5.93656      7.67911        -0.042988      0.025962      0.047949
     10.28243      5.93656      7.67911         0.044094      0.026037      0.047950
      8.81351      1.69603     10.07479         0.000267     -0.035150     -0.020782
      2.95306      1.70495     10.04990        -0.007330      0.000201     -0.071443
      5.86045      1.70495     10.04990         0.008747      0.000340     -0.070619
     10.26640      4.24966     10.05812         0.017155     -0.014895      0.008753
      4.40676      4.22282     10.04990         0.000876      0.019417     -0.025930
      7.36062      4.24966     10.05812        -0.016424     -0.015009      0.008703
     11.75147      6.78471     10.07479         0.032878      0.015210     -0.011413
      5.87556      6.78471     10.07479        -0.032284      0.015200     -0.011368
      8.81351      6.76613     10.05812         0.000448      0.022111     -0.004649
      0.00000      0.00000     12.48774         0.000336     -0.014592     -0.147836
      2.98478      0.07843     12.47445        -0.075255     -0.167677     -0.039774
      5.82873      0.07843     12.47445         0.075674     -0.166051     -0.038829
      1.56032      2.54568     12.47445        -0.162607      0.024844     -0.052184
      7.25320      2.54568     12.47445         0.160155      0.024994     -0.049966
      2.98229      5.00861     12.47445        -0.121314      0.135447     -0.081769
      5.83122      5.00861     12.47445         0.122005      0.133884     -0.081126
      8.81351      5.08848     12.49541         0.000350     -0.001145     -0.100107
      4.40676      2.54424     12.16834        -0.002042      0.022601      0.633628
      3.61791      2.00364     14.48617         0.006517     -0.001133     -0.000157
      5.18889      2.00658     14.48890        -0.012497      0.003917     -0.000777
      4.40264      2.55399     14.27399        -0.005196     -0.008131     -0.026167
    total drift:                               -0.019216     -0.000810      0.597725

  FREE ENERGIE OF THE ION-ELECTRON SYSTEM (eV)
  free  energy   TOTEN  =      -128.19650662 eV

  energy  without entropy=     -128.19650662  energy(sigma->0) =     -128.19650662

 stress matrix after NEB project (eV)
    -21.37880     -0.00130      0.00666
     -0.00130    -21.50422     -0.02729
      0.00666     -0.02729      2.15610
  FORCES: max atom, RMS     0.027889    0.005048
  FORCE total and by dimension    0.031523    0.026167
  Stress total and by dimension   30.399589   21.504224
|           W    W    AA    RRRRR   N    N  II  N    N   GGGG   !!!           |
|           W    W   A  A   R    R  NN   N  II  NN   N  G    G  !!!           |
|           W    W  A    A  R    R  N N  N  II  N N  N  G       !!!           |
|           W WW W  AAAAAA  RRRRR   N  N N  II  N  N N  G  GGG   !            |
|           WW  WW  A    A  R   R   N   NN  II  N   NN  G    G                |
|           W    W  A    A  R    R  N    N  II  N    N   GGGG   !!!           |
|     Tetrahedron method does not include variations of the Fermi             |
|     occupations, so forces and stress will be inaccurate. We suggest        |
|     using a different smearing scheme ISMEAR = 1 or 2 for metals in         |
|     relaxations.                                                            |

 total charge

# of ion       s       p       d       tot
    1        0.547   0.238   8.767   9.552
    2        0.544   0.241   8.764   9.549
    3        0.544   0.241   8.764   9.549
    4        0.544   0.241   8.764   9.549
    5        0.544   0.241   8.760   9.545
    6        0.544   0.241   8.764   9.549
    7        0.544   0.241   8.765   9.550
    8        0.544   0.241   8.765   9.550
    9        0.542   0.239   8.769   9.550
   10        0.524   0.308   8.768   9.600
   11        0.523   0.307   8.780   9.611
   12        0.524   0.308   8.768   9.600
   13        0.522   0.308   8.780   9.611
   14        0.522   0.308   8.780   9.611
   15        0.517   0.309   8.776   9.602
   16        0.525   0.308   8.768   9.600
   17        0.516   0.309   8.776   9.602
   18        0.516   0.309   8.776   9.602
   19        0.519   0.299   8.774   9.592
   20        0.553   0.334   8.746   9.633
   21        0.553   0.334   8.746   9.633
   22        0.510   0.310   8.776   9.595
   23        0.553   0.334   8.745   9.633
   24        0.510   0.310   8.776   9.595
   25        0.517   0.299   8.775   9.591
   26        0.517   0.299   8.775   9.591
   27        0.512   0.309   8.775   9.596
   28        0.539   0.226   8.759   9.524
   29        0.570   0.247   8.745   9.562
   30        0.570   0.247   8.745   9.562
   31        0.570   0.246   8.745   9.561
   32        0.570   0.246   8.745   9.560
   33        0.563   0.239   8.750   9.552
   34        0.563   0.239   8.750   9.552
   35        0.534   0.226   8.761   9.520
   36        0.256   0.237   5.032   5.524
   37        0.600   0.118   0.000   0.718
   38        0.600   0.117   0.000   0.718
   39        1.569   3.609   0.000   5.178
tot         21.837  13.760 311.776 347.372

 BZINTS: Fermi energy:    0.310123;  400.000000 electrons
         Band energy:-0.140981E+04;  BLOECHL correction:   -0.044816