 vasp.6.2.0 18Jan21 (build Jun 12 2021 23:27:24) complex

 executed on             LinuxIFC date 2022.05.30  16:35:14

 INCAR:
   ISMEAR = -5
   SIGMA = 0.1
   ISPIN = 1
   EDIFF = 1.d-5
   EDIFFG = -0.01
   NSW = 0
   NELM = 150
   ENCUT = 500
   ISIF = 2
   IBRION = 2
   LREAL = Auto
   ALGO = Fast
   ICHARG = 11
   LORBIT = 10
   LCHARG = .F.
   LWAVE = .F.

 POTCAR:    PAW_PBE Au 04Oct2007
 POTCAR:    PAW_PBE Re 17Jan2003
 POTCAR:    PAW_PBE C 08Apr2002
|           W    W    AA    RRRRR   N    N  II  N    N   GGGG   !!!           |
|           W    W   A  A   R    R  NN   N  II  NN   N  G    G  !!!           |
|           W    W  A    A  R    R  N N  N  II  N N  N  G       !!!           |
|           W WW W  AAAAAA  RRRRR   N  N N  II  N  N N  G  GGG   !            |
|           WW  WW  A    A  R   R   N   NN  II  N   NN  G    G                |
|           W    W  A    A  R    R  N    N  II  N    N   GGGG   !!!           |
|     For optimal performance we recommend to set                             |
|       NCORE = 2 up to number-of-cores-per-socket                            |
|     This setting can greatly improve the performance of VASP for DFT.       |
|     The default, NCORE=1 might be grossly inefficient on modern             |
|     multi-core architectures or massively parallel machines. Do your        |
|     Unfortunately you need to use the default for GW and RPA                |
|     calculations (for HF NCORE is supported but not extensively tested      |
|     yet).                                                                   |

 POTCAR:    PAW_PBE Au 04Oct2007
   VRHFIN =Au: s1d10

   TITEL  = PAW_PBE Au 04Oct2007
   POMASS =  196.966; ZVAL   =   11.000    mass and valenz
   ENMAX  =  229.943; ENMIN  =  172.457 eV

 POTCAR:    PAW_PBE Re 17Jan2003
   VRHFIN =Re: 5p6s5d

   TITEL  = PAW_PBE Re 17Jan2003
   POMASS =  186.207; ZVAL   =    7.000    mass and valenz
   ENMAX  =  226.216; ENMIN  =  169.662 eV

 POTCAR:    PAW_PBE C 08Apr2002
   VRHFIN =C: s2p2

   TITEL  = PAW_PBE C 08Apr2002
   POMASS =   12.011; ZVAL   =    4.000    mass and valenz
   ENMAX  =  400.000; ENMIN  =  300.000 eV

 Optimization of the real space projectors (new method)

 maximal supplied QI-value         = 15.12
 optimisation between [QCUT,QGAM] = [ 11.34, 22.83] = [ 36.00,145.93] Ry
 Optimized for a Real-space Cutoff    1.39 Angstroem

   l    n(q)    QCUT    max X(q) W(low)/X(q) W(high)/X(q)  e(spline)
   2      9    11.338    60.898    0.39E-03    0.42E-03    0.21E-06
   2      9    11.338    58.894    0.40E-03    0.42E-03    0.22E-06
   0      9    11.338   109.617    0.13E-03    0.20E-04    0.13E-06
   0      9    11.338    75.026    0.13E-03    0.20E-04    0.13E-06
   1      9    11.338    16.344    0.33E-04    0.24E-03    0.18E-06
   1      9    11.338    10.160    0.26E-04    0.19E-03    0.15E-06
 Optimization of the real space projectors (new method)

[...]

   l    n(q)    QCUT    max X(q) W(low)/X(q) W(high)/X(q)  e(spline)
   2     10    11.327   884.633    0.22E-03    0.51E-03    0.88E-06
   2     10    11.327   796.723    0.22E-03    0.51E-03    0.88E-06
   0     11    11.327    65.348    0.44E-04    0.11E-03    0.75E-06
   0     11    11.327    39.642    0.40E-04    0.10E-03    0.69E-06
   1     10    11.327    13.988    0.15E-03    0.10E-03    0.19E-06
   1     10    11.327     8.682    0.11E-03    0.76E-04    0.14E-06
 Optimization of the real space projectors (new method)

 maximal supplied QI-value         = 25.13
 optimisation between [QCUT,QGAM] = [ 11.31, 22.87] = [ 35.82,146.48] Ry
 Optimized for a Real-space Cutoff    1.00 Angstroem

   l    n(q)    QCUT    max X(q) W(low)/X(q) W(high)/X(q)  e(spline)
   0      7    11.310   115.676    0.43E-03    0.13E-02    0.19E-06
   0      7    11.310    87.132    0.43E-03    0.13E-02    0.18E-06
   1      6    11.310     4.429    0.42E-03    0.74E-03    0.11E-06
   1      6    11.310     2.733    0.34E-03    0.55E-03    0.92E-07
  PAW_PBE Au 04Oct2007                  :
  PAW_PBE Re 17Jan2003                  :
  PAW_PBE C 08Apr2002                   :

 POSCAR: Au-Re-C
  positions in direct lattice
  velocities in cartesian coordinates
 exchange correlation table for  LEXCH =        8
   RHO(1)=    0.500       N(1)  =     2000
   RHO(2)=  100.500       N(2)  =     4000

 VTST: version 3.2, (02/03/18)

 CHAIN: initializing optimizer

 OPT: Using VASP Conjugate-Gradient optimizer
 CHAIN: Read ICHAIN            0

 POSCAR: Au-Re-C
  positions in direct lattice
  velocities in cartesian coordinates

 ion  position               nearest neighbor table
   1  0.000  0.000  0.217-  16 2.94  12 2.94   6 2.94   8 2.94   7 2.94   3 2.94  10 2.94   4 2.94
                             2 2.94
   2  0.333  0.000  0.217-   9 2.94  11 2.94  17 2.94  10 2.94   8 2.94   4 2.94   5 2.94   1 2.94
                             3 2.94
   3  0.667  0.000  0.217-   7 2.94  18 2.94  12 2.94   1 2.94  11 2.94   5 2.94   6 2.94   9 2.94
                             2 2.94
   4  0.000  0.333  0.217-  10 2.94   6 2.94   5 2.94  13 2.94   2 2.94  15 2.94   9 2.94   1 2.94
                             7 2.94
   5  0.333  0.333  0.217-  13 2.94   7 2.94  11 2.94   4 2.94   2 2.94  14 2.94   3 2.94   8 2.94
                             6 2.94
   6  0.667  0.333  0.217-  15 2.94  14 2.94   1 2.94  12 2.94   4 2.94   9 2.94   8 2.94   3 2.94
                             5 2.94
   7  0.000  0.667  0.217-  18 2.94   3 2.94  16 2.94   5 2.94   1 2.94  13 2.94   8 2.94   4 2.94
                             9 2.94
   8  0.333  0.667  0.217-   9 2.94  17 2.94   1 2.94   2 2.94  14 2.94  16 2.94   6 2.94   7 2.94
                             5 2.94
   9  0.667  0.667  0.217-   2 2.94   8 2.94  17 2.94   6 2.94  15 2.94   4 2.94   3 2.94  18 2.94
                             7 2.94
  10  0.111  0.111  0.316-  20 2.90  11 2.94  17 2.94   2 2.94   4 2.94   1 2.94  12 2.94  16 2.94
                            13 2.94  15 2.94  26 2.96  19 2.96
  11  0.444  0.111  0.316-  20 2.91  21 2.91  13 2.94   2 2.94  10 2.94  17 2.94   5 2.94   3 2.94
                            18 2.94  14 2.94  12 2.94  27 2.94
  12  0.778  0.111  0.316-  21 2.90  16 2.94  18 2.94   1 2.94  14 2.94  15 2.94   3 2.94   6 2.94
                            10 2.94  11 2.94  25 2.96  19 2.96
  13  0.111  0.444  0.316-  23 2.91  20 2.91   5 2.94  18 2.94  11 2.94   7 2.94   4 2.94  16 2.94
                            10 2.94  14 2.94  15 2.94  22 2.94
  14  0.444  0.444  0.316-  21 2.91  23 2.91  15 2.94   6 2.94  12 2.94   8 2.94  17 2.94   5 2.94
                            16 2.94  13 2.94  11 2.94  24 2.94
  15  0.778  0.444  0.316-  24 2.92  22 2.92  14 2.94   6 2.94  17 2.94  12 2.94   9 2.94   4 2.94
                            10 2.94  13 2.94  18 2.94  19 2.95
  16  0.111  0.778  0.316-  23 2.90  18 2.94  12 2.94   7 2.94   1 2.94   8 2.94  13 2.94  10 2.94
                            14 2.94  17 2.94  25 2.96  26 2.96
  17  0.444  0.778  0.316-  27 2.92  24 2.92   9 2.94  15 2.94   2 2.94  10 2.94  11 2.94   8 2.94
                            14 2.94  16 2.94  18 2.94  26 2.95
  18  0.778  0.778  0.316-  22 2.92  27 2.92  16 2.94   7 2.94  13 2.94  12 2.94   3 2.94  11 2.94
                             9 2.94  15 2.94  17 2.94  25 2.95
  19  0.888  0.224  0.415-  24 2.93  22 2.93  21 2.93  20 2.93  28 2.94  15 2.95  26 2.96  25 2.96
                            10 2.96  12 2.96  32 3.02  31 3.02
  20  0.222  0.222  0.413-  36 2.75  10 2.90  11 2.91  13 2.91  26 2.93  19 2.93  23 2.95  21 2.95
                            27 2.96  22 2.96  29 2.97  31 2.97
  21  0.556  0.222  0.413-  36 2.75  12 2.90  14 2.91  11 2.91  25 2.93  19 2.93  20 2.95  23 2.95
                            27 2.96  24 2.96  30 2.97  32 2.97
  22  0.886  0.557  0.414-  24 2.90  27 2.90  18 2.92  15 2.92  25 2.93  19 2.93  13 2.94  35 2.95
                            23 2.96  20 2.96  33 3.00  31 3.00
  23  0.222  0.556  0.413-  36 2.75  16 2.90  13 2.91  14 2.91  25 2.93  26 2.93  20 2.95  21 2.95
                            22 2.96  24 2.96  33 2.97  34 2.97
  24  0.557  0.557  0.414-  27 2.90  22 2.90  15 2.92  17 2.92  26 2.93  19 2.93  14 2.94  35 2.95
                            21 2.96  23 2.96  32 3.00  34 3.00
  25  0.888  0.888  0.415-  22 2.93  27 2.93  23 2.93  21 2.93  28 2.94  18 2.95  19 2.96  26 2.96
                            16 2.96  12 2.96  33 3.02  30 3.02
  26  0.224  0.888  0.415-  27 2.93  24 2.93  20 2.93  23 2.93  28 2.94  17 2.95  19 2.96  25 2.96
                            10 2.96  16 2.96  29 3.02  34 3.02
  27  0.557  0.886  0.414-  24 2.90  22 2.90  17 2.92  18 2.92  26 2.93  25 2.93  11 2.94  35 2.95
                            20 2.96  21 2.96  29 3.00  30 3.00
  28  0.000  0.000  0.514-  25 2.94  19 2.94  26 2.94  34 2.99  32 2.99  33 2.99  30 2.99  31 2.99
                            29 2.99
  29  0.333  0.011  0.516-  30 2.84  31 2.84  36 2.86  20 2.97  35 2.99  28 2.99  27 3.00  26 3.02
                            34 3.14
  30  0.655  0.011  0.516-  29 2.84  32 2.84  36 2.86  21 2.97  35 2.99  28 2.99  27 3.00  25 3.02
                            33 3.14
  31  0.011  0.333  0.516-  33 2.84  29 2.84  36 2.86  20 2.97  35 2.99  28 2.99  22 3.00  19 3.02
                            32 3.14
  32  0.655  0.333  0.516-  34 2.84  30 2.84  36 2.86  21 2.97  35 2.99  28 2.99  24 3.00  19 3.02
                            31 3.14
  33  0.011  0.655  0.516-  31 2.84  34 2.84  36 2.86  23 2.97  35 2.99  28 2.99  22 3.00  25 3.02
                            30 3.14
  34  0.333  0.655  0.516-  32 2.84  33 2.84  36 2.86  23 2.97  35 2.99  28 2.99  24 3.00  26 3.02
                            29 3.14
  35  0.667  0.667  0.514-  24 2.95  27 2.95  22 2.95  29 2.99  34 2.99  32 2.99  31 2.99  30 2.99
                            33 2.99
  36  0.333  0.333  0.502-  37 1.77  20 2.75  23 2.75  21 2.75  33 2.86  31 2.86  29 2.86  30 2.86
                            34 2.86  32 2.86
  37  0.333  0.333  0.575-  36 1.77

  LATTYP: Found a hexagonal cell.
 ALAT       =     8.8135128021
 C/A-ratio  =     2.7586513333

  Lattice vectors:

 A1 = (  -4.4067569092,  -7.6327256898,   0.0000000000)
 A2 = (   8.8135128021,   0.0000000000,   0.0000000000)
 A3 = (   0.0000000000,   0.0000000000,  24.3134088421)

Analysis of symmetry for initial positions (statically):
 Subroutine PRICEL returns:
 Original cell was already a primitive cell.

 Routine SETGRP: Setting up the symmetry group for a
 hexagonal supercell.

 Subroutine GETGRP returns: Found  6 space group operations
 (whereof  6 operations were pure point group operations)
 out of a pool of 24 trial point group operations.

The static configuration has the point symmetry C_3v.

Analysis of symmetry for dynamics (positions and initial velocities):
 Subroutine PRICEL returns:
 Original cell was already a primitive cell.

[...]

The dynamic configuration has the point symmetry C_3v.

Analysis of constrained symmetry for selective dynamics:
 Subroutine PRICEL returns:
 Original cell was already a primitive cell.

 Routine SETGRP: Setting up the symmetry group for a
 hexagonal supercell.

 Subroutine GETGRP returns: Found  6 space group operations
[...]
     24      -5.6351      2.00000
     25      -5.6019      2.00000
     26      -5.5939      2.00000
     27      -5.5516      2.00000
     28      -5.4938      2.00000
     29      -5.4742      2.00000
     30      -5.4032      2.00000
     31      -5.3801      2.00000
     32      -5.3597      2.00000
     33      -5.3010      2.00000
     34      -5.2964      2.00000
     35      -5.2793      2.00000
     36      -5.2242      2.00000
     37      -5.2201      2.00000
     38      -5.1125      2.00000
     39      -5.0754      2.00000
     40      -5.0227      2.00000
     41      -4.9813      2.00000
     42      -4.9543      2.00000
     43      -4.9202      2.00000
     44      -4.9092      2.00000
     45      -4.8617      2.00000
     46      -4.8369      2.00000
     47      -4.7475      2.00000
     48      -4.7269      2.00000
     49      -4.7041      2.00000
     50      -4.6826      2.00000
     51      -4.6686      2.00000
     52      -4.6615      2.00000
     53      -4.6466      2.00000
     54      -4.6282      2.00000
     55      -4.5936      2.00000
     56      -4.5513      2.00000
     57      -4.5412      2.00000
     58      -4.5205      2.00000
     59      -4.5109      2.00000
     60      -4.4981      2.00000
[...]
    238       5.9900      0.00000
    239       6.0388      0.00000
    240       6.0891      0.00000
    241       6.2086      0.00000
    242       6.2598      0.00000
    243       6.3107      0.00000
    244       6.3480      0.00000
    245       6.4851      0.00000
    246       6.6792      0.00000
    247       6.7257      0.00000
    248       6.8180      0.00000
    249       6.8700      0.00000
    250       6.9250      0.00000
    251       7.0064      0.00000
    252       7.1069      0.00000

 soft charge-density along one line, spin component           1
         0         1         2         3         4         5         6         7         8         9
 total charge-density along one line

------------------------ aborting loop because EDIFF is reached ----------------------------------------

 total charge

# of ion       s       p       d       tot
    1        0.545   0.241   8.764   9.550
    2        0.545   0.241   8.764   9.550
    3        0.545   0.241   8.764   9.550
    4        0.545   0.241   8.764   9.550
    5        0.541   0.241   8.764   9.546
    6        0.545   0.241   8.764   9.550
    7        0.545   0.241   8.764   9.550
    8        0.545   0.241   8.764   9.550
    9        0.541   0.241   8.767   9.549
   10        0.519   0.308   8.771   9.598
   11        0.520   0.310   8.776   9.606
   12        0.519   0.308   8.771   9.598
   13        0.520   0.310   8.776   9.606
   14        0.520   0.310   8.776   9.606
   15        0.515   0.309   8.775   9.599
   16        0.519   0.308   8.771   9.598
   17        0.515   0.309   8.775   9.599
   18        0.515   0.309   8.775   9.599
   19        0.517   0.294   8.775   9.586
   20        0.547   0.337   8.752   9.637
   21        0.547   0.337   8.752   9.637
   22        0.509   0.308   8.776   9.593
   23        0.547   0.337   8.752   9.637
   24        0.509   0.308   8.776   9.593
   25        0.517   0.294   8.775   9.586
   26        0.517   0.294   8.775   9.586
   27        0.509   0.308   8.776   9.593
   28        0.542   0.225   8.760   9.527
   29        0.553   0.249   8.751   9.552
   30        0.553   0.249   8.751   9.552
   31        0.553   0.249   8.751   9.552
   32        0.553   0.249   8.751   9.552
   33        0.553   0.249   8.751   9.552
   34        0.553   0.249   8.751   9.552
   35        0.537   0.226   8.759   9.523
   36        0.575   0.511   4.978   6.063
   37        1.006   1.230   0.000   2.236
tot         20.255  11.452 311.757 343.464

  FORCE on cell =-STRESS in cart. coord.  units (eV):
  Direction    XX          YY          ZZ          XY          YZ          ZX
  Alpha Z   935.03937   935.03937   935.03937
  Ewald  149163.55113149163.55154************    -0.00032    -0.00009    -0.00015
  Hartree157448.92706157448.92707************     0.00000    -0.00002    -0.00004
  E(xc)   -1772.95438 -1772.95436 -1782.12299    -0.00001    -0.00000    -0.00000
  Local  ************************319189.83107     0.00175     0.00004     0.00006
  n-local   -95.81107   -48.34980   -49.93266    23.71174    -1.46543     1.39429
  augment  2374.11648  2374.11793  2391.78511    -0.00125     0.00002     0.00007
  Kinetic  5491.76545  5503.02284  5549.31502     6.64681     0.01969     0.47702
  Fock        0.00000     0.00000     0.00000     0.00000     0.00000     0.00000
  Total     -20.41311   -20.41311     1.94249    -0.00000     0.00000    -0.00000
  in kB     -19.99610   -19.99610     1.90281    -0.00000     0.00000    -0.00000

 VOLUME and BASIS-vectors are now :
  energy-cutoff  :      500.00
  volume of cell :     1635.59
      direct lattice vectors                 reciprocal lattice vectors
     8.813512802  0.000000000  0.000000000     0.113462137 -0.065507406  0.000000000
     4.406756909  7.632725690  0.000000000     0.000000000  0.131014796  0.000000000
     0.000000000  0.000000000 24.313408842     0.000000000  0.000000000  0.041129568

  length of vectors
     8.813512802  8.813512802 24.313408842     0.131014796  0.131014796  0.041129568

 FORCES acting on ions
    electron-ion (+dipol)            ewald-force                    non-local-force                 convergence-correction
   -.198E-04 -.163E-04 0.264E+04   0.520E-04 0.434E-04 -.264E+04   0.279E-17 0.517E-17 -.589E+00   -.160E-03 -.106E-03 -.197E+00
   0.768E+00 0.251E+00 0.264E+04   -.786E+00 -.302E+00 -.264E+04   -.301E-01 -.223E-02 -.296E+00   0.510E-01 0.477E-01 -.153E+00
   -.768E+00 0.251E+00 0.264E+04   0.786E+00 -.302E+00 -.264E+04   0.301E-01 -.223E-02 -.296E+00   -.508E-01 0.495E-01 -.153E+00
   0.601E+00 0.540E+00 0.264E+04   -.654E+00 -.529E+00 -.264E+04   -.170E-01 -.249E-01 -.296E+00   0.668E-01 0.203E-01 -.153E+00
   0.777E-05 -.237E-04 0.264E+04   0.951E-04 0.175E-05 -.264E+04   -.184E-17 -.426E-18 -.402E+00   0.418E-02 0.255E-02 -.132E+00
   -.601E+00 0.540E+00 0.264E+04   0.654E+00 -.529E+00 -.264E+04   0.170E-01 -.249E-01 -.296E+00   -.683E-01 0.212E-01 -.153E+00
   -.167E+00 -.791E+00 0.264E+04   0.131E+00 0.831E+00 -.264E+04   0.131E-01 0.272E-01 -.296E+00   0.176E-01 -.687E-01 -.153E+00
   0.167E+00 -.791E+00 0.264E+04   -.131E+00 0.831E+00 -.264E+04   -.131E-01 0.272E-01 -.296E+00   -.158E-01 -.697E-01 -.153E+00
   0.196E-04 -.415E-04 0.264E+04   0.166E-03 -.201E-04 -.264E+04   0.482E-18 0.158E-17 -.467E+00   -.457E-02 -.236E-02 -.212E+00
   0.749E+01 0.432E+01 0.873E+03   -.748E+01 -.432E+01 -.873E+03   -.202E+00 -.117E+00 -.489E+00   0.160E+00 0.925E-01 0.370E+00
   0.146E-04 0.411E+01 0.881E+03   0.148E-03 -.430E+01 -.881E+03   -.591E-09 -.888E-02 -.580E+00   0.354E-02 0.144E+00 0.434E+00
   -.749E+01 0.432E+01 0.873E+03   0.748E+01 -.432E+01 -.873E+03   0.202E+00 -.117E+00 -.489E+00   -.161E+00 0.932E-01 0.368E+00
   0.356E+01 -.205E+01 0.881E+03   -.372E+01 0.215E+01 -.881E+03   -.769E-02 0.444E-02 -.580E+00   0.127E+00 -.689E-01 0.434E+00
   -.356E+01 -.205E+01 0.881E+03   0.372E+01 0.215E+01 -.881E+03   0.769E-02 0.444E-02 -.580E+00   -.120E+00 -.695E-01 0.432E+00
   0.315E-04 0.527E+01 0.878E+03   0.236E-03 -.533E+01 -.878E+03   0.122E-08 0.184E-01 -.385E+00   -.170E-02 -.455E-02 0.329E+00
   -.214E-04 -.865E+01 0.873E+03   0.163E-03 0.864E+01 -.873E+03   0.155E-07 0.234E+00 -.489E+00   -.176E-03 -.186E+00 0.368E+00
   0.456E+01 -.263E+01 0.878E+03   -.462E+01 0.267E+01 -.878E+03   0.159E-01 -.918E-02 -.385E+00   -.455E-02 0.123E-02 0.329E+00
   -.456E+01 -.263E+01 0.878E+03   0.462E+01 0.267E+01 -.878E+03   -.159E-01 -.918E-02 -.385E+00   0.475E-02 0.249E-02 0.329E+00
   -.430E-04 0.365E+01 -.924E+03   0.546E-04 -.372E+01 0.922E+03   -.303E-08 -.456E-01 0.648E+00   0.510E-02 0.642E-01 0.894E+00
   0.592E+01 0.342E+01 -.877E+03   -.600E+01 -.346E+01 0.876E+03   -.679E+00 -.392E+00 -.573E+00   0.456E+00 0.263E+00 0.132E+01
   -.592E+01 0.342E+01 -.877E+03   0.600E+01 -.346E+01 0.876E+03   0.679E+00 -.392E+00 -.573E+00   -.464E+00 0.264E+00 0.132E+01
   -.752E+01 0.434E+01 -.902E+03   0.671E+01 -.387E+01 0.900E+03   0.538E+00 -.311E+00 0.818E+00   0.318E+00 -.185E+00 0.887E+00
   -.107E-04 -.684E+01 -.877E+03   0.140E-03 0.693E+01 0.876E+03   0.522E-07 0.784E+00 -.573E+00   -.369E-02 -.534E+00 0.132E+01
   0.752E+01 0.434E+01 -.902E+03   -.671E+01 -.387E+01 0.900E+03   -.538E+00 -.311E+00 0.818E+00   -.317E+00 -.183E+00 0.886E+00
   -.316E+01 -.183E+01 -.924E+03   0.323E+01 0.186E+01 0.922E+03   0.395E-01 0.228E-01 0.648E+00   -.512E-01 -.296E-01 0.893E+00
   0.316E+01 -.183E+01 -.924E+03   -.323E+01 0.186E+01 0.922E+03   -.395E-01 0.228E-01 0.648E+00   0.585E-01 -.276E-01 0.894E+00
   0.106E-04 -.868E+01 -.902E+03   0.198E-03 0.774E+01 0.900E+03   0.414E-07 0.622E+00 0.818E+00   -.154E-02 0.368E+00 0.887E+00
   -.132E-04 -.124E-04 -.261E+04   0.294E-04 0.329E-04 0.261E+04   -.250E-17 -.278E-17 0.505E+00   0.158E-02 0.895E-03 0.556E+00
   0.215E+02 0.364E+02 -.262E+04   -.212E+02 -.362E+02 0.262E+04   -.823E+00 -.112E+01 0.685E+00   0.317E+00 0.549E+00 0.402E+00
   -.215E+02 0.364E+02 -.262E+04   0.212E+02 -.362E+02 0.262E+04   0.823E+00 -.112E+01 0.685E+00   -.324E+00 0.550E+00 0.403E+00
   0.423E+02 0.428E+00 -.262E+04   -.419E+02 -.261E+00 0.262E+04   -.139E+01 -.150E+00 0.685E+00   0.634E+00 -.295E-04 0.402E+00
   -.423E+02 0.428E+00 -.262E+04   0.419E+02 -.261E+00 0.262E+04   0.139E+01 -.150E+00 0.685E+00   -.641E+00 0.119E-02 0.404E+00
   0.208E+02 -.369E+02 -.262E+04   -.207E+02 0.364E+02 0.262E+04   -.562E+00 0.127E+01 0.685E+00   0.315E+00 -.555E+00 0.403E+00
   -.208E+02 -.369E+02 -.262E+04   0.207E+02 0.364E+02 0.262E+04   0.562E+00 0.127E+01 0.685E+00   -.319E+00 -.555E+00 0.404E+00
   0.339E-04 -.300E-04 -.262E+04   0.141E-03 -.486E-04 0.261E+04   0.510E-17 0.700E-17 0.572E+00   -.323E-02 -.157E-02 0.610E+00
   -.102E-04 -.736E-05 -.146E+04   0.737E-04 0.671E-05 0.146E+04   0.235E-17 -.234E-17 0.125E+01   0.134E-02 0.803E-03 0.319E+00
   0.463E-04 -.289E-04 -.116E+04   0.166E-04 0.104E-05 0.117E+04   -.595E-19 -.592E-18 -.961E+01   0.836E-03 0.503E-03 -.479E+00
   -.742E-03 -.800E-03 -.632E+01   -.705E-13 0.247E-13 -.387E-11   -.215E-15 -.662E-15 -.809E+01   -.876E-02 -.448E-02 0.147E+02

 POSITION                                       TOTAL-FORCE (eV/Angst)
      0.00000      0.00000      5.28038         0.000000      0.000000     -0.042977
      2.93784      0.00000      5.28038         0.003822     -0.004494     -0.047444
      5.87568      0.00000      5.28038        -0.003822     -0.004494     -0.047444
      1.46892      2.54424      5.28038        -0.001981      0.005556     -0.047444
      4.40676      2.54424      5.28038         0.000000      0.000000     -0.086008
      7.34459      2.54424      5.28038         0.001981      0.005556     -0.047444
      2.93784      5.08848      5.28038        -0.005802     -0.001063     -0.047444
      5.87568      5.08848      5.28038         0.005802     -0.001063     -0.047444
      8.81351      5.08848      5.28038         0.000000      0.000000     -0.031068
      1.46892      0.84808      7.67911        -0.036099     -0.020842      0.114028
      4.40676      0.84808      7.67911        -0.000000     -0.058066     -0.002473
      7.34459      0.84808      7.67911         0.036099     -0.020842      0.114028
      2.93784      3.39232      7.67911        -0.050286      0.029033     -0.002473
      5.87568      3.39232      7.67911         0.050286      0.029033     -0.002473
      8.81351      3.39232      7.67911        -0.000000     -0.055544      0.101599
      4.40676      5.93656      7.67911         0.000000      0.041683      0.114028
      7.34459      5.93656      7.67911        -0.048103      0.027772      0.101599
     10.28243      5.93656      7.67911         0.048103      0.027772      0.101599
      8.81351      1.70659     10.09931        -0.000000     -0.054814     -0.014612
      2.93410      1.69400     10.03753        -0.292761     -0.169026     -0.285887
      5.87941      1.69400     10.03753         0.292761     -0.169026     -0.285887
     10.26439      4.25082     10.06692         0.041072     -0.023713      0.040849
      4.40676      4.24472     10.03753         0.000000      0.338051     -0.285887
      7.36264      4.25082     10.06692        -0.041072     -0.023713      0.040849
     11.74232      6.77943     10.09931         0.047470      0.027407     -0.014612
      5.88471      6.77943     10.09931        -0.047470      0.027407     -0.014612
      8.81351      6.76381     10.06692         0.000000      0.047426      0.040849
      0.00000      0.00000     12.49835         0.000000      0.000000     -0.082434
      2.98825      0.08685     12.53577        -0.141881     -0.284052     -0.171266
      5.82526      0.08685     12.53577         0.141881     -0.284052     -0.171266
      1.56934      2.54447     12.53577        -0.316937      0.019154     -0.171266
      7.24417      2.54447     12.53577         0.316937      0.019154     -0.171266
      2.98785      5.00140     12.53577        -0.175056      0.264898     -0.171266
      5.82567      5.00140     12.53577         0.175056      0.264898     -0.171266
      8.81351      5.08848     12.49628         0.000000      0.000000      0.003040
      4.40676      2.54424     12.20474         0.000000      0.000000      1.656317
      4.40676      2.54424     13.97702         0.000000      0.000000      0.034876
    total drift:                               -0.009502     -0.005276      0.255363

  FREE ENERGIE OF THE ION-ELECTRON SYSTEM (eV)
  free  energy   TOTEN  =      -123.54290868 eV

  energy  without entropy=     -123.54290868  energy(sigma->0) =     -123.54290868

 stress matrix after NEB project (eV)
    -20.41311     -0.00000     -0.00000
     -0.00000    -20.41311      0.00000
      0.00000      0.00000      1.94249
  FORCES: max atom, RMS     0.034876    0.005734
  FORCE total and by dimension    0.034876    0.034876
  Stress total and by dimension   28.933779   20.413113
|           W    W    AA    RRRRR   N    N  II  N    N   GGGG   !!!           |
|           W    W   A  A   R    R  NN   N  II  NN   N  G    G  !!!           |
|           W    W  A    A  R    R  N N  N  II  N N  N  G       !!!           |
|           W WW W  AAAAAA  RRRRR   N  N N  II  N  N N  G  GGG   !            |
|           WW  WW  A    A  R   R   N   NN  II  N   NN  G    G                |
|           W    W  A    A  R    R  N    N  II  N    N   GGGG   !!!           |
|     Tetrahedron method does not include variations of the Fermi             |
|     occupations, so forces and stress will be inaccurate. We suggest        |
|     using a different smearing scheme ISMEAR = 1 or 2 for metals in         |
|     relaxations.                                                            |

 total charge

# of ion       s       p       d       tot
    1        0.545   0.241   8.764   9.550
    2        0.545   0.241   8.764   9.550
    3        0.545   0.241   8.764   9.550
    4        0.545   0.241   8.764   9.550
    5        0.541   0.241   8.764   9.546
    6        0.545   0.241   8.764   9.550
    7        0.545   0.241   8.764   9.550
    8        0.545   0.241   8.764   9.550
    9        0.541   0.241   8.767   9.549
   10        0.519   0.308   8.771   9.598
   11        0.520   0.310   8.776   9.606
   12        0.519   0.308   8.771   9.598
   13        0.520   0.310   8.776   9.606
   14        0.520   0.310   8.776   9.606
   15        0.515   0.309   8.775   9.599
   16        0.519   0.308   8.771   9.598
   17        0.515   0.309   8.775   9.599
   18        0.515   0.309   8.775   9.599
   19        0.517   0.294   8.775   9.586
   20        0.547   0.337   8.752   9.637
   21        0.547   0.337   8.752   9.637
   22        0.509   0.308   8.776   9.593
   23        0.547   0.337   8.752   9.637
   24        0.509   0.308   8.776   9.593
   25        0.517   0.294   8.775   9.586
   26        0.517   0.294   8.775   9.586
   27        0.509   0.308   8.776   9.593
   28        0.542   0.225   8.760   9.527
   29        0.553   0.249   8.751   9.552
   30        0.553   0.249   8.751   9.552
   31        0.553   0.249   8.751   9.552
   32        0.553   0.249   8.751   9.552
   33        0.553   0.249   8.751   9.552
   34        0.553   0.249   8.751   9.552
   35        0.537   0.226   8.759   9.523
   36        0.575   0.511   4.978   6.063
   37        1.006   1.230   0.000   2.236
tot         20.255  11.452 311.757 343.464

 BZINTS: Fermi energy:    0.139656;  396.000000 electrons
         Band energy:-0.142943E+04;  BLOECHL correction:   -0.055612