 vasp.6.2.0 18Jan21 (build Jun 12 2021 23:27:24) complex

 executed on             LinuxIFC date 2022.05.27  05:18:11

 INCAR:
   ISMEAR = -5
   SIGMA = 0.1
   ISPIN = 1
   EDIFF = 1.d-5
   EDIFFG = -0.01
   NSW = 0
   NELM = 150
   ENCUT = 500
   ISIF = 2
   IBRION = 2
   LREAL = Auto
   ALGO = Fast
   ICHARG = 11
   LORBIT = 10
   LCHARG = .F.
   LWAVE = .F.

 POTCAR:    PAW_PBE Au 04Oct2007
 POTCAR:    PAW_PBE Ta 17Jan2003
 POTCAR:    PAW_PBE H 15Jun2001
|           W    W    AA    RRRRR   N    N  II  N    N   GGGG   !!!           |
|           W    W   A  A   R    R  NN   N  II  NN   N  G    G  !!!           |
|           W    W  A    A  R    R  N N  N  II  N N  N  G       !!!           |
|           W WW W  AAAAAA  RRRRR   N  N N  II  N  N N  G  GGG   !            |
|           WW  WW  A    A  R   R   N   NN  II  N   NN  G    G                |
|           W    W  A    A  R    R  N    N  II  N    N   GGGG   !!!           |
|     For optimal performance we recommend to set                             |
|       NCORE = 2 up to number-of-cores-per-socket                            |
|     This setting can greatly improve the performance of VASP for DFT.       |
|     The default, NCORE=1 might be grossly inefficient on modern             |
|     multi-core architectures or massively parallel machines. Do your        |
|     Unfortunately you need to use the default for GW and RPA                |
|     calculations (for HF NCORE is supported but not extensively tested      |
|     yet).                                                                   |

 POTCAR:    PAW_PBE Au 04Oct2007
   VRHFIN =Au: s1d10

   TITEL  = PAW_PBE Au 04Oct2007
   POMASS =  196.966; ZVAL   =   11.000    mass and valenz
   ENMAX  =  229.943; ENMIN  =  172.457 eV

 POTCAR:    PAW_PBE Ta 17Jan2003
   VRHFIN =Ta:  6s5d

   TITEL  = PAW_PBE Ta 17Jan2003
   POMASS =  180.948; ZVAL   =    5.000    mass and valenz
   ENMAX  =  223.667; ENMIN  =  167.750 eV

 POTCAR:    PAW_PBE H 15Jun2001
   VRHFIN =H: ultrasoft test

   TITEL  = PAW_PBE H 15Jun2001
   POMASS =    1.000; ZVAL   =    1.000    mass and valenz
   ENMAX  =  250.000; ENMIN  =  200.000 eV

 Optimization of the real space projectors (new method)

 maximal supplied QI-value         = 15.12
 optimisation between [QCUT,QGAM] = [ 11.34, 22.83] = [ 36.00,145.93] Ry
 Optimized for a Real-space Cutoff    1.39 Angstroem

   l    n(q)    QCUT    max X(q) W(low)/X(q) W(high)/X(q)  e(spline)
   2      9    11.338    60.898    0.39E-03    0.42E-03    0.21E-06
   2      9    11.338    58.894    0.40E-03    0.42E-03    0.22E-06
   0      9    11.338   109.617    0.13E-03    0.20E-04    0.13E-06
   0      9    11.338    75.026    0.13E-03    0.20E-04    0.13E-06
   1      9    11.338    16.344    0.33E-04    0.24E-03    0.18E-06
   1      9    11.338    10.160    0.26E-04    0.19E-03    0.15E-06
 Optimization of the real space projectors (new method)

[...]

   l    n(q)    QCUT    max X(q) W(low)/X(q) W(high)/X(q)  e(spline)
   2     10    11.437    62.315    0.14E-03    0.26E-03    0.80E-06
   2     10    11.437    52.185    0.14E-03    0.26E-03    0.80E-06
   0     11    11.437   103.837    0.25E-04    0.17E-04    0.84E-07
   0     11    11.437    59.728    0.20E-04    0.15E-04    0.73E-07
   1     11    11.437    13.958    0.47E-03    0.12E-03    0.89E-06
   1     11    11.437     8.441    0.33E-03    0.88E-04    0.61E-06
 Optimization of the real space projectors (new method)

 maximal supplied QI-value         = 34.20
 optimisation between [QCUT,QGAM] = [ 11.29, 22.57] = [ 35.68,142.71] Ry
 Optimized for a Real-space Cutoff    1.16 Angstroem

   l    n(q)    QCUT    max X(q) W(low)/X(q) W(high)/X(q)  e(spline)
   0      8    11.287    19.460    0.40E-03    0.73E-03    0.16E-06
   0      8    11.287    12.209    0.38E-03    0.70E-03    0.15E-06
   1      7    11.287     4.655    0.22E-03    0.25E-04    0.22E-06
  PAW_PBE Au 04Oct2007                  :
  PAW_PBE Ta 17Jan2003                  :
  PAW_PBE H 15Jun2001                   :

 POSCAR: Au-Ta-H2
  positions in direct lattice
  velocities in cartesian coordinates
 exchange correlation table for  LEXCH =        8
   RHO(1)=    0.500       N(1)  =     2000
   RHO(2)=  100.500       N(2)  =     4000

 VTST: version 3.2, (02/03/18)

 CHAIN: initializing optimizer

 OPT: Using VASP Conjugate-Gradient optimizer
 CHAIN: Read ICHAIN            0

 POSCAR: Au-Ta-H2
  positions in direct lattice
  velocities in cartesian coordinates

 ion  position               nearest neighbor table
   1  0.000  0.000  0.238-  16 2.94  12 2.94   6 2.94   8 2.94   7 2.94   3 2.94  10 2.94   4 2.94
                             2 2.94
   2  0.333  0.000  0.238-   9 2.94  11 2.94  17 2.94  10 2.94   8 2.94   4 2.94   5 2.94   1 2.94
                             3 2.94
   3  0.667  0.000  0.238-   7 2.94  18 2.94  12 2.94   1 2.94  11 2.94   5 2.94   6 2.94   9 2.94
                             2 2.94
   4  0.000  0.333  0.238-  10 2.94   6 2.94   5 2.94  13 2.94   2 2.94  15 2.94   9 2.94   1 2.94
                             7 2.94
   5  0.333  0.333  0.238-  13 2.94   7 2.94  11 2.94   4 2.94   2 2.94  14 2.94   3 2.94   8 2.94
                             6 2.94
   6  0.667  0.333  0.238-  15 2.94  14 2.94   1 2.94  12 2.94   4 2.94   9 2.94   8 2.94   3 2.94
                             5 2.94
   7  0.000  0.667  0.238-  18 2.94   3 2.94  16 2.94   5 2.94   1 2.94  13 2.94   8 2.94   4 2.94
                             9 2.94
   8  0.333  0.667  0.238-   9 2.94  17 2.94   1 2.94   2 2.94  14 2.94  16 2.94   6 2.94   7 2.94
                             5 2.94
   9  0.667  0.667  0.238-   2 2.94   8 2.94  17 2.94   6 2.94  15 2.94   4 2.94   3 2.94  18 2.94
                             7 2.94
  10  0.111  0.111  0.346-  20 2.91  11 2.94  17 2.94   2 2.94   4 2.94   1 2.94  12 2.94  16 2.94
                            13 2.94  15 2.94  26 2.96  19 2.96
  11  0.444  0.111  0.346-  20 2.91  21 2.91  13 2.94   2 2.94  10 2.94  17 2.94   5 2.94   3 2.94
                            18 2.94  14 2.94  12 2.94  27 2.94
  12  0.778  0.111  0.346-  21 2.91  16 2.94  18 2.94   1 2.94  14 2.94  15 2.94   3 2.94   6 2.94
                            10 2.94  11 2.94  25 2.96  19 2.96
  13  0.111  0.444  0.346-  23 2.91  20 2.91   5 2.94  18 2.94  11 2.94   7 2.94   4 2.94  16 2.94
                            10 2.94  14 2.94  15 2.94  22 2.94
  14  0.444  0.444  0.346-  21 2.91  23 2.91  15 2.94   6 2.94  12 2.94   8 2.94  17 2.94   5 2.94
                            16 2.94  13 2.94  11 2.94  24 2.94
  15  0.778  0.444  0.346-  24 2.92  22 2.92  14 2.94   6 2.94  17 2.94  12 2.94   9 2.94   4 2.94
                            10 2.94  13 2.94  18 2.94  19 2.95
  16  0.111  0.778  0.346-  23 2.91  18 2.94  12 2.94   7 2.94   1 2.94   8 2.94  13 2.94  10 2.94
                            14 2.94  17 2.94  25 2.96  26 2.96
  17  0.444  0.778  0.346-  27 2.92  24 2.92   9 2.94  15 2.94   2 2.94  10 2.94  11 2.94   8 2.94
                            14 2.94  16 2.94  18 2.94  26 2.95
  18  0.778  0.778  0.346-  22 2.92  27 2.92  16 2.94   7 2.94  13 2.94  12 2.94   3 2.94  11 2.94
                             9 2.94  15 2.94  17 2.94  25 2.95
  19  0.888  0.223  0.455-  24 2.93  22 2.93  21 2.93  20 2.93  28 2.95  15 2.95  26 2.95  25 2.95
                            10 2.96  12 2.96  32 3.06  31 3.06
  20  0.222  0.222  0.453-  36 2.74  10 2.91  11 2.91  13 2.91  26 2.93  19 2.93  23 2.95  21 2.95
                            27 2.95  22 2.95  29 2.99  31 2.99
  21  0.556  0.222  0.453-  36 2.74  12 2.91  14 2.91  11 2.91  25 2.93  19 2.93  20 2.95  23 2.95
                            27 2.95  24 2.95  30 2.99  32 2.99
  22  0.886  0.557  0.454-  24 2.91  27 2.91  18 2.92  15 2.92  25 2.93  19 2.93  13 2.94  23 2.95
                            20 2.95  35 2.96  33 3.03  31 3.03
  23  0.222  0.556  0.453-  36 2.74  16 2.91  13 2.91  14 2.91  25 2.93  26 2.93  20 2.95  21 2.95
                            22 2.95  24 2.95  33 2.99  34 2.99
  24  0.557  0.557  0.454-  27 2.91  22 2.91  15 2.92  17 2.92  26 2.93  19 2.93  14 2.94  21 2.95
                            23 2.95  35 2.96  32 3.03  34 3.03
  25  0.888  0.888  0.455-  22 2.93  27 2.93  23 2.93  21 2.93  28 2.95  18 2.95  19 2.95  26 2.95
                            16 2.96  12 2.96  33 3.06  30 3.06
  26  0.223  0.888  0.455-  27 2.93  24 2.93  20 2.93  23 2.93  28 2.95  17 2.95  19 2.95  25 2.95
                            10 2.96  16 2.96  29 3.06  34 3.06
  27  0.557  0.886  0.454-  24 2.91  22 2.91  17 2.92  18 2.92  26 2.93  25 2.93  11 2.94  20 2.95
                            21 2.95  35 2.96  29 3.03  30 3.03
  28  0.000  0.000  0.563-  25 2.95  19 2.95  26 2.95  34 3.00  32 3.00  33 3.00  30 3.00  31 3.00
                            29 3.00
  29  0.334  0.012  0.567-  30 2.82  31 2.84  36 2.85  35 2.99  20 2.99  28 3.00  27 3.03  26 3.06
                            34 3.16
  30  0.654  0.012  0.567-  29 2.82  32 2.84  36 2.85  35 2.99  21 2.99  28 3.00  27 3.03  25 3.06
                            33 3.16
  31  0.012  0.334  0.567-  33 2.82  29 2.84  36 2.85  35 2.99  20 2.99  28 3.00  22 3.03  19 3.06
                            32 3.16
  32  0.654  0.334  0.567-  34 2.82  30 2.84  36 2.85  35 2.99  21 2.99  28 3.00  24 3.03  19 3.06
                            31 3.16
  33  0.012  0.654  0.567-  31 2.82  34 2.84  36 2.85  35 2.99  23 2.99  28 3.00  22 3.03  25 3.06
                            30 3.16
  34  0.334  0.654  0.567-  32 2.82  33 2.84  36 2.85  35 2.99  23 2.99  28 3.00  24 3.03  26 3.06
                            29 3.16
  35  0.667  0.667  0.563-  24 2.96  27 2.96  22 2.96  29 2.99  34 2.99  32 2.99  31 2.99  30 2.99
                            33 2.99
  36  0.333  0.333  0.550-  37 1.99  38 1.99  20 2.74  23 2.74  21 2.74  33 2.85  31 2.85  29 2.85
                            30 2.85  34 2.85  32 2.85
  37  0.286  0.334  0.637-  38 0.83  36 1.99
  38  0.380  0.334  0.637-  37 0.83  36 1.99

  LATTYP: Found a hexagonal cell.
 ALAT       =     8.8135128021
 C/A-ratio  =     2.5184286595

  Lattice vectors:

 A1 = (  -4.4067569092,  -7.6327256898,   0.0000000000)
 A2 = (   8.8135128021,   0.0000000000,   0.0000000000)
 A3 = (   0.0000000000,   0.0000000000,  22.1962032318)

Analysis of symmetry for initial positions (statically):
 Subroutine PRICEL returns:
 Original cell was already a primitive cell.

 Routine SETGRP: Setting up the symmetry group for a
 hexagonal supercell.

 Subroutine GETGRP returns: Found  2 space group operations
 (whereof  2 operations were pure point group operations)
 out of a pool of 24 trial point group operations.

The static configuration has the point symmetry C_1h.

Analysis of symmetry for dynamics (positions and initial velocities):
 Subroutine PRICEL returns:
 Original cell was already a primitive cell.

[...]

The dynamic configuration has the point symmetry C_1h.

Analysis of constrained symmetry for selective dynamics:
 Subroutine PRICEL returns:
 Original cell was already a primitive cell.

 Routine SETGRP: Setting up the symmetry group for a
 hexagonal supercell.

 Subroutine GETGRP returns: Found  2 space group operations
[...]
     33      -4.6385      2.00000
     34      -4.6233      2.00000
     35      -4.6021      2.00000
     36      -4.5929      2.00000
     37      -4.5854      2.00000
     38      -4.4463      2.00000
     39      -4.4013      2.00000
     40      -4.3488      2.00000
     41      -4.3126      2.00000
     42      -4.2824      2.00000
     43      -4.2544      2.00000
     44      -4.2326      2.00000
     45      -4.2052      2.00000
     46      -4.1777      2.00000
     47      -4.0894      2.00000
     48      -4.0868      2.00000
     49      -4.0469      2.00000
     50      -4.0243      2.00000
     51      -4.0174      2.00000
     52      -4.0024      2.00000
     53      -3.9814      2.00000
     54      -3.9687      2.00000
     55      -3.9380      2.00000
     56      -3.9030      2.00000
     57      -3.8922      2.00000
     58      -3.8684      2.00000
     59      -3.8632      2.00000
     60      -3.8409      2.00000
[...]
    238       6.6901      0.00000
    239       6.7181      0.00000
    240       6.8355      0.00000
    241       6.9427      0.00000
    242       6.9481      0.00000
    243       7.0290      0.00000
    244       7.2475      0.00000
    245       7.3664      0.00000
    246       7.5055      0.00000
    247       7.5640      0.00000
    248       7.5809      0.00000
    249       7.6997      0.00000
    250       7.7287      0.00000
    251       7.8171      0.00000
    252       7.8950      0.00000

 soft charge-density along one line, spin component           1
         0         1         2         3         4         5         6         7         8         9
 total charge-density along one line

------------------------ aborting loop because EDIFF is reached ----------------------------------------

 total charge

# of ion       s       p       d       tot
    1        0.549   0.236   8.768   9.553
    2        0.541   0.241   8.764   9.547
    3        0.541   0.241   8.764   9.547
    4        0.540   0.241   8.767   9.548
    5        0.549   0.240   8.760   9.549
    6        0.540   0.241   8.767   9.548
    7        0.540   0.241   8.766   9.548
    8        0.540   0.241   8.766   9.548
    9        0.543   0.239   8.768   9.550
   10        0.528   0.306   8.767   9.600
   11        0.522   0.306   8.779   9.608
   12        0.528   0.306   8.767   9.600
   13        0.522   0.306   8.780   9.608
   14        0.522   0.306   8.780   9.608
   15        0.515   0.307   8.774   9.597
   16        0.528   0.306   8.766   9.600
   17        0.516   0.307   8.775   9.597
   18        0.516   0.307   8.775   9.597
   19        0.518   0.295   8.767   9.581
   20        0.581   0.345   8.721   9.647
   21        0.581   0.345   8.721   9.647
   22        0.506   0.305   8.778   9.589
   23        0.583   0.344   8.721   9.648
   24        0.506   0.305   8.778   9.589
   25        0.519   0.294   8.768   9.581
   26        0.519   0.294   8.768   9.581
   27        0.508   0.304   8.780   9.591
   28        0.538   0.225   8.756   9.519
   29        0.594   0.252   8.728   9.574
   30        0.594   0.252   8.728   9.574
   31        0.589   0.255   8.728   9.572
   32        0.589   0.255   8.728   9.572
   33        0.593   0.252   8.729   9.574
   34        0.593   0.252   8.729   9.574
   35        0.539   0.226   8.758   9.522
   36        0.608   0.654   3.027   4.289
   37        0.559   0.030   0.000   0.589
   38        0.559   0.030   0.000   0.589
tot         20.757  10.434 309.561 340.752

  FORCE on cell =-STRESS in cart. coord.  units (eV):
  Direction    XX          YY          ZZ          XY          YZ          ZX
  Alpha Z  1003.37689  1003.37689  1003.37689
  Ewald  116264.63894116247.42057************    -0.00033    -0.07211    -0.00017
  Hartree124769.83292124768.20495************     0.00000    -0.00661    -0.00005
  E(xc)   -1754.87716 -1754.83781 -1763.13136     0.00001     0.02063     0.00000
  Local  ************************253312.67370     0.00181     0.20794     0.00013
  n-local   -53.32524   -51.78434   -23.31897     4.64469    -0.17310     0.07027
  augment  2364.07308  2363.86875  2385.68724    -0.00129     0.01854     0.00005
  Kinetic  5408.38750  5412.02279  5477.45459     1.18457    -0.10611     0.06137
  Fock        0.00000     0.00000     0.00000     0.00000     0.00000     0.00000
  Total     -22.61356   -22.49534     2.76709    -0.00000    -0.11082    -0.00000
  in kB     -24.26454   -24.13769     2.96911    -0.00000    -0.11891    -0.00000

 VOLUME and BASIS-vectors are now :
  energy-cutoff  :      500.00
  volume of cell :     1493.16
      direct lattice vectors                 reciprocal lattice vectors
     8.813512802  0.000000000  0.000000000     0.113462137 -0.065507406  0.000000000
     4.406756909  7.632725690  0.000000000     0.000000000  0.131014796  0.000000000
     0.000000000  0.000000000 22.196203232     0.000000000  0.000000000  0.045052750

  length of vectors
     8.813512802  8.813512802 22.196203232     0.131014796  0.131014796  0.045052750

 FORCES acting on ions
    electron-ion (+dipol)            ewald-force                    non-local-force                 convergence-correction
   -.198E-04 0.139E-01 0.245E+04   0.519E-04 -.143E-02 -.245E+04   -.125E-08 -.188E-01 -.769E+00   -.188E-03 -.561E-03 -.205E+00
   0.444E+00 -.287E+00 0.245E+04   -.489E+00 0.928E-01 -.245E+04   0.587E-01 0.164E+00 -.304E+00   -.115E-01 0.142E-01 -.202E+00
   -.444E+00 -.287E+00 0.245E+04   0.489E+00 0.928E-01 -.245E+04   -.587E-01 0.164E+00 -.304E+00   0.118E-01 0.161E-01 -.201E+00
   0.336E-02 0.560E+00 0.245E+04   -.163E+00 -.471E+00 -.245E+04   0.164E+00 -.563E-01 -.347E+00   -.114E-01 -.237E-01 -.220E+00
   0.750E-05 -.112E-01 0.245E+04   0.951E-04 -.157E-03 -.245E+04   0.348E-09 0.523E-02 0.242E+00   0.419E-02 0.154E-02 -.172E+00
   -.341E-02 0.560E+00 0.245E+04   0.163E+00 -.471E+00 -.245E+04   -.164E+00 -.563E-01 -.347E+00   0.995E-02 -.228E-01 -.219E+00
   -.497E+00 -.259E+00 0.245E+04   0.326E+00 0.378E+00 -.245E+04   0.133E+00 -.121E+00 -.311E+00   0.198E-01 0.993E-02 -.214E+00
   0.497E+00 -.259E+00 0.245E+04   -.326E+00 0.378E+00 -.245E+04   -.133E+00 -.121E+00 -.311E+00   -.180E-01 0.890E-02 -.214E+00
   0.197E-04 -.376E-02 0.245E+04   0.166E-03 0.160E-02 -.245E+04   0.868E-09 0.130E-01 -.450E+00   -.454E-02 -.914E-02 -.154E+00
   0.469E+01 0.274E+01 0.785E+03   -.431E+01 -.250E+01 -.784E+03   -.405E+00 -.243E+00 -.647E+00   -.219E-01 -.180E-01 -.146E+00
   0.141E-04 0.363E+00 0.787E+03   0.148E-03 -.296E+00 -.787E+03   -.274E-08 -.412E-01 -.614E-01   0.373E-02 -.715E-01 -.117E+00
   -.469E+01 0.274E+01 0.785E+03   0.431E+01 -.250E+01 -.784E+03   0.405E+00 -.243E+00 -.647E+00   0.208E-01 -.175E-01 -.147E+00
   0.276E+00 -.171E+00 0.787E+03   -.244E+00 0.149E+00 -.787E+03   0.978E-03 0.222E-01 -.630E-01   -.676E-01 0.332E-01 -.111E+00
   -.276E+00 -.171E+00 0.787E+03   0.244E+00 0.149E+00 -.787E+03   -.978E-03 0.222E-01 -.630E-01   0.746E-01 0.324E-01 -.113E+00
   0.320E-04 0.529E+01 0.790E+03   0.235E-03 -.537E+01 -.789E+03   -.146E-08 -.220E-01 -.549E+00   -.166E-02 0.187E-01 -.130E+00
   -.210E-04 -.549E+01 0.785E+03   0.162E-03 0.498E+01 -.784E+03   0.334E-07 0.501E+00 -.578E+00   -.240E-03 0.561E-01 -.128E+00
   0.455E+01 -.265E+01 0.790E+03   -.466E+01 0.270E+01 -.789E+03   0.169E-01 0.909E-03 -.516E+00   0.219E-01 -.160E-01 -.132E+00
   -.455E+01 -.265E+01 0.790E+03   0.466E+01 0.270E+01 -.789E+03   -.169E-01 0.909E-03 -.516E+00   -.214E-01 -.145E-01 -.131E+00
   -.435E-04 -.190E+01 -.901E+03   0.560E-04 0.201E+01 0.900E+03   -.225E-08 -.339E-01 0.561E+00   0.511E-02 -.528E-01 0.102E+00
   -.138E+02 -.791E+01 -.887E+03   0.150E+02 0.860E+01 0.888E+03   -.122E+01 -.658E+00 -.164E+01   -.666E-01 -.476E-01 0.149E-01
   0.138E+02 -.791E+01 -.887E+03   -.150E+02 0.860E+01 0.888E+03   0.122E+01 -.658E+00 -.164E+01   0.591E-01 -.478E-01 0.145E-01
   -.172E+02 0.982E+01 -.883E+03   0.168E+02 -.960E+01 0.882E+03   0.438E+00 -.262E+00 0.590E+00   -.255E-01 0.243E-01 0.156E-01
   -.923E-05 0.158E+02 -.887E+03   0.137E-03 -.173E+02 0.888E+03   0.958E-07 0.144E+01 -.159E+01   -.381E-02 0.720E-01 0.171E-01
   0.172E+02 0.982E+01 -.883E+03   -.168E+02 -.960E+01 0.882E+03   -.438E+00 -.262E+00 0.590E+00   0.269E-01 0.255E-01 0.150E-01
   0.170E+01 0.998E+00 -.901E+03   -.178E+01 -.106E+01 0.900E+03   0.255E-01 0.290E-01 0.534E+00   0.445E-01 0.279E-01 0.103E+00
   -.170E+01 0.998E+00 -.901E+03   0.178E+01 -.106E+01 0.900E+03   -.255E-01 0.290E-01 0.534E+00   -.439E-01 0.299E-01 0.104E+00
   0.106E-04 -.198E+02 -.883E+03   0.198E-03 0.194E+02 0.882E+03   0.338E-07 0.508E+00 0.598E+00   -.283E-03 -.362E-01 0.208E-01
   -.106E-04 0.291E+00 -.243E+04   0.278E-04 -.294E+00 0.243E+04   -.717E-09 -.108E-01 0.603E+00   0.157E-02 -.311E-02 0.792E-01
   0.321E+01 -.376E+01 -.245E+04   -.169E+01 0.591E+01 0.245E+04   -.150E+01 -.219E+01 -.549E+00   -.740E-01 -.647E-01 0.784E-01
   -.321E+01 -.376E+01 -.245E+04   0.169E+01 0.591E+01 0.245E+04   0.150E+01 -.219E+01 -.549E+00   0.676E-01 -.639E-01 0.787E-01
   -.865E+00 0.512E+01 -.245E+04   0.341E+01 -.498E+01 0.245E+04   -.254E+01 -.105E+00 -.457E+00   -.764E-01 -.291E-01 0.812E-01
   0.865E+00 0.512E+01 -.245E+04   -.341E+01 -.498E+01 0.245E+04   0.254E+01 -.105E+00 -.457E+00   0.700E-01 -.281E-01 0.824E-01
   -.563E+01 -.140E+01 -.245E+04   0.683E+01 -.881E+00 0.245E+04   -.125E+01 0.229E+01 -.519E+00   -.163E-01 0.851E-01 0.846E-01
   0.563E+01 -.140E+01 -.245E+04   -.683E+01 -.881E+00 0.245E+04   0.125E+01 0.229E+01 -.519E+00   0.115E-01 0.852E-01 0.852E-01
   0.339E-04 -.351E+00 -.244E+04   0.142E-03 0.319E+00 0.244E+04   0.321E-08 0.483E-01 0.637E+00   -.296E-02 0.271E-02 0.898E-01
   -.222E-04 0.184E-01 -.102E+04   0.527E-04 -.544E-01 0.102E+04   -.119E-08 -.179E-01 0.955E+00   0.437E-03 0.727E-03 0.257E-01
   0.139E+02 0.363E-01 -.255E+03   -.178E+02 -.340E-01 0.256E+03   0.389E+01 -.394E-03 -.106E+01   -.587E-02 0.652E-03 0.149E-01
   -.139E+02 0.363E-01 -.255E+03   0.178E+02 -.340E-01 0.256E+03   -.389E+01 -.394E-03 -.106E+01   0.599E-02 0.659E-03 0.149E-01
   -.814E-03 -.100E+00 0.130E+02   -.462E-13 0.220E-12 -.574E-11   0.804E-08 0.121E+00 -.110E+02   -.147E-01 -.212E-01 -.183E+01

 POSITION                                       TOTAL-FORCE (eV/Angst)
      0.00000      0.00000      5.28038        -0.000000     -0.006951     -0.163414
      2.93784      0.00000      5.28038         0.001703     -0.015008     -0.053300
      5.87568      0.00000      5.28038        -0.001703     -0.015008     -0.053300
      1.46892      2.54424      5.28038        -0.006083      0.009195     -0.056884
      4.40676      2.54424      5.28038        -0.000000     -0.004532     -0.083330
      7.34459      2.54424      5.28038         0.006083      0.009195     -0.056884
      2.93784      5.08848      5.28038        -0.018959      0.007500     -0.051817
      5.87568      5.08848      5.28038         0.018959      0.007500     -0.051817
      8.81351      5.08848      5.28038         0.000000      0.001762     -0.069642
      1.46892      0.84808      7.67911        -0.042469     -0.020451      0.119752
      4.40676      0.84808      7.67911        -0.000000     -0.045340     -0.007522
      7.34459      0.84808      7.67911         0.042469     -0.020451      0.119752
      2.93784      3.39232      7.67911        -0.038686      0.032973     -0.018504
      5.87568      3.39232      7.67911         0.038686      0.032973     -0.018504
      8.81351      3.39232      7.67911        -0.000000     -0.088454      0.106775
      4.40676      5.93656      7.67911         0.000000      0.052738      0.115591
      7.34459      5.93656      7.67911        -0.073460      0.036330      0.114004
     10.28243      5.93656      7.67911         0.073460      0.036330      0.114004
      8.81351      1.70341     10.09804         0.000000      0.017277      0.047332
      2.93277      1.69323     10.04724        -0.031767     -0.019470     -0.130843
      5.88075      1.69323     10.04724         0.031767     -0.019470     -0.130843
     10.26617      4.24979     10.06844         0.006799     -0.008972      0.026611
      4.40676      4.24626     10.04724         0.000000      0.053506     -0.101980
      7.36086      4.24979     10.06844        -0.006799     -0.008972      0.026611
     11.74508      6.78102     10.09804        -0.009260     -0.001488      0.003031
      5.88195      6.78102     10.09804         0.009260     -0.001488      0.003031
      8.81351      6.76586     10.06844         0.000000      0.025775      0.022360
      0.00000      0.00000     12.50054        -0.000000     -0.016422     -0.026984
      2.99863      0.09131     12.57640        -0.047292     -0.105359     -0.048218
      5.81488      0.09131     12.57640         0.047292     -0.105359     -0.048218
      1.57839      2.55123     12.57640        -0.070604      0.007250     -0.007443
      7.23512      2.55123     12.57640         0.070604      0.007250     -0.007443
      2.98652      4.99018     12.57640        -0.063621      0.097158     -0.070903
      5.82700      4.99018     12.57640         0.063621      0.097158     -0.070903
      8.81351      5.08848     12.50707         0.000000      0.019321     -0.002280
      4.40676      2.54424     12.20058        -0.000000     -0.053126      0.535259
      3.99122      2.54739     14.14445         0.001716      0.002565     -0.011567
      4.82229      2.54739     14.14445        -0.001716      0.002565     -0.011567
    total drift:                               -0.015519     -0.000635      0.198669

  FREE ENERGIE OF THE ION-ELECTRON SYSTEM (eV)
  free  energy   TOTEN  =      -124.99243354 eV

  energy  without entropy=     -124.99243354  energy(sigma->0) =     -124.99243354

 stress matrix after NEB project (eV)
    -22.61356     -0.00000     -0.00000
     -0.00000    -22.49534     -0.11082
     -0.00000     -0.11082      2.76709
  FORCES: max atom, RMS     0.011971    0.002746
  FORCE total and by dimension    0.016930    0.011567
  Stress total and by dimension   32.017099   22.613559
|           W    W    AA    RRRRR   N    N  II  N    N   GGGG   !!!           |
|           W    W   A  A   R    R  NN   N  II  NN   N  G    G  !!!           |
|           W    W  A    A  R    R  N N  N  II  N N  N  G       !!!           |
|           W WW W  AAAAAA  RRRRR   N  N N  II  N  N N  G  GGG   !            |
|           WW  WW  A    A  R   R   N   NN  II  N   NN  G    G                |
|           W    W  A    A  R    R  N    N  II  N    N   GGGG   !!!           |
|     Tetrahedron method does not include variations of the Fermi             |
|     occupations, so forces and stress will be inaccurate. We suggest        |
|     using a different smearing scheme ISMEAR = 1 or 2 for metals in         |
|     relaxations.                                                            |

 total charge

# of ion       s       p       d       tot
    1        0.549   0.236   8.768   9.553
    2        0.541   0.241   8.764   9.547
    3        0.541   0.241   8.764   9.547
    4        0.540   0.241   8.767   9.548
    5        0.549   0.240   8.760   9.549
    6        0.540   0.241   8.767   9.548
    7        0.540   0.241   8.766   9.548
    8        0.540   0.241   8.766   9.548
    9        0.543   0.239   8.768   9.550
   10        0.528   0.306   8.767   9.600
   11        0.522   0.306   8.779   9.608
   12        0.528   0.306   8.767   9.600
   13        0.522   0.306   8.780   9.608
   14        0.522   0.306   8.780   9.608
   15        0.515   0.307   8.774   9.597
   16        0.528   0.306   8.766   9.600
   17        0.516   0.307   8.775   9.597
   18        0.516   0.307   8.775   9.597
   19        0.518   0.295   8.767   9.581
   20        0.581   0.345   8.721   9.647
   21        0.581   0.345   8.721   9.647
   22        0.506   0.305   8.778   9.589
   23        0.583   0.344   8.721   9.648
   24        0.506   0.305   8.778   9.589
   25        0.519   0.294   8.768   9.581
   26        0.519   0.294   8.768   9.581
   27        0.508   0.304   8.780   9.591
   28        0.538   0.225   8.756   9.519
   29        0.594   0.252   8.728   9.574
   30        0.594   0.252   8.728   9.574
   31        0.589   0.255   8.728   9.572
   32        0.589   0.255   8.728   9.572
   33        0.593   0.252   8.729   9.574
   34        0.593   0.252   8.729   9.574
   35        0.539   0.226   8.758   9.522
   36        0.608   0.654   3.027   4.289
   37        0.559   0.030   0.000   0.589
   38        0.559   0.030   0.000   0.589
tot         20.757  10.434 309.561 340.752

 BZINTS: Fermi energy:    0.808818;  392.000000 electrons
         Band energy:-0.116500E+04;  BLOECHL correction:   -0.034304