 vasp.6.2.0 18Jan21 (build Jun 12 2021 23:27:24) complex

 executed on             LinuxIFC date 2022.05.27  06:18:17

 INCAR:
   ISMEAR = -5
   SIGMA = 0.1
   ISPIN = 1
   EDIFF = 1.d-5
   EDIFFG = -0.01
   NSW = 0
   NELM = 150
   ENCUT = 500
   ISIF = 2
   IBRION = 2
   LREAL = Auto
   ALGO = Fast
   ICHARG = 11
   LORBIT = 10
   LCHARG = .F.
   LWAVE = .F.

 POTCAR:    PAW_PBE Cu 22Jun2005
 POTCAR:    PAW_PBE Re 17Jan2003
 POTCAR:    PAW_PBE C 08Apr2002
 POTCAR:    PAW_PBE O 08Apr2002
|           W    W    AA    RRRRR   N    N  II  N    N   GGGG   !!!           |
|           W    W   A  A   R    R  NN   N  II  NN   N  G    G  !!!           |
|           W    W  A    A  R    R  N N  N  II  N N  N  G       !!!           |
|           W WW W  AAAAAA  RRRRR   N  N N  II  N  N N  G  GGG   !            |
|           WW  WW  A    A  R   R   N   NN  II  N   NN  G    G                |
|           W    W  A    A  R    R  N    N  II  N    N   GGGG   !!!           |
|     For optimal performance we recommend to set                             |
|       NCORE = 2 up to number-of-cores-per-socket                            |
|     This setting can greatly improve the performance of VASP for DFT.       |
|     The default, NCORE=1 might be grossly inefficient on modern             |
|     multi-core architectures or massively parallel machines. Do your        |
|     Unfortunately you need to use the default for GW and RPA                |
|     calculations (for HF NCORE is supported but not extensively tested      |
|     yet).                                                                   |

 POTCAR:    PAW_PBE Cu 22Jun2005
   VRHFIN =Cu: d10 p1

   TITEL  = PAW_PBE Cu 22Jun2005
   POMASS =   63.546; ZVAL   =   11.000    mass and valenz
   ENMAX  =  295.446; ENMIN  =  221.585 eV

 POTCAR:    PAW_PBE Re 17Jan2003
   VRHFIN =Re: 5p6s5d

   TITEL  = PAW_PBE Re 17Jan2003
   POMASS =  186.207; ZVAL   =    7.000    mass and valenz
   ENMAX  =  226.216; ENMIN  =  169.662 eV

 POTCAR:    PAW_PBE C 08Apr2002
   VRHFIN =C: s2p2

   TITEL  = PAW_PBE C 08Apr2002
   POMASS =   12.011; ZVAL   =    4.000    mass and valenz
   ENMAX  =  400.000; ENMIN  =  300.000 eV

 POTCAR:    PAW_PBE O 08Apr2002
   VRHFIN =O: s2p4

   TITEL  = PAW_PBE O 08Apr2002
   POMASS =   16.000; ZVAL   =    6.000    mass and valenz
   ENMAX  =  400.000; ENMIN  =  300.000 eV

 Optimization of the real space projectors (new method)

 maximal supplied QI-value         = 16.25
 optimisation between [QCUT,QGAM] = [ 11.38, 22.75] = [ 36.24,144.96] Ry
 Optimized for a Real-space Cutoff    1.52 Angstroem

   l    n(q)    QCUT    max X(q) W(low)/X(q) W(high)/X(q)  e(spline)
   2      9    11.376     4.610    0.21E-03    0.10E-03    0.26E-06
   2      9    11.376     8.522    0.33E-03    0.16E-03    0.37E-06
   0     10    11.376    51.609    0.62E-04    0.20E-04    0.13E-06
   0     10    11.376    27.747    0.54E-04    0.20E-04    0.13E-06
   1     10    11.376    20.408    0.13E-04    0.99E-04    0.19E-06
   1     10    11.376    13.425    0.12E-04    0.87E-04    0.17E-06
 Optimization of the real space projectors (new method)

[...]

   l    n(q)    QCUT    max X(q) W(low)/X(q) W(high)/X(q)  e(spline)
   0      7    11.310   115.676    0.43E-03    0.13E-02    0.19E-06
   0      7    11.310    87.132    0.43E-03    0.13E-02    0.18E-06
   1      6    11.310     4.429    0.42E-03    0.74E-03    0.11E-06
   1      6    11.310     2.733    0.34E-03    0.55E-03    0.92E-07
 Optimization of the real space projectors (new method)

 maximal supplied QI-value         = 24.76
 optimisation between [QCUT,QGAM] = [ 11.39, 22.77] = [ 36.31,145.25] Ry
 Optimized for a Real-space Cutoff    1.00 Angstroem

   l    n(q)    QCUT    max X(q) W(low)/X(q) W(high)/X(q)  e(spline)
   0      7    11.387    20.381    0.39E-03    0.13E-02    0.15E-06
   0      7    11.387    15.268    0.42E-03    0.14E-02    0.17E-06
   1      6    11.387     5.964    0.41E-03    0.11E-02    0.17E-06
   1      6    11.387     5.382    0.39E-03    0.87E-03    0.15E-06
  PAW_PBE Cu 22Jun2005                  :
  PAW_PBE Re 17Jan2003                  :
  PAW_PBE C 08Apr2002                   :
  PAW_PBE O 08Apr2002                   :

 POSCAR: Cu-Re-CO
  positions in direct lattice
  velocities in cartesian coordinates
 exchange correlation table for  LEXCH =        8
   RHO(1)=    0.500       N(1)  =     2000
   RHO(2)=  100.500       N(2)  =     4000

 VTST: version 3.2, (02/03/18)

 CHAIN: initializing optimizer

 OPT: Using VASP Conjugate-Gradient optimizer
 CHAIN: Read ICHAIN            0

 POSCAR: Cu-Re-CO
  positions in direct lattice
  velocities in cartesian coordinates

 ion  position               nearest neighbor table
   1  0.000  0.000  0.252-   7 2.57   3 2.57   4 2.57   2 2.57   6 2.57   8 2.57  12 2.57  10 2.57
                            16 2.57
   2  0.333  0.000  0.252-   8 2.57   9 2.57   5 2.57   1 2.57   3 2.57  11 2.57   4 2.57  10 2.57
                            17 2.57
   3  0.667  0.000  0.252-   1 2.57   7 2.57   6 2.57   9 2.57   2 2.57  12 2.57   5 2.57  18 2.57
                            11 2.57
   4  0.000  0.333  0.252-   5 2.57   6 2.57   1 2.57   7 2.57   2 2.57  13 2.57   9 2.57  10 2.57
                            15 2.57
   5  0.333  0.333  0.252-   4 2.57   2 2.57   7 2.57  13 2.57   8 2.57   6 2.57   3 2.57  11 2.57
                            14 2.57
   6  0.667  0.333  0.252-   4 2.57   9 2.57  15 2.57   3 2.57   1 2.57   8 2.57  14 2.57   5 2.57
                            12 2.57
   7  0.000  0.667  0.252-   1 2.57   3 2.57  16 2.57  18 2.57   4 2.57   5 2.57   8 2.57   9 2.57
                            13 2.57
   8  0.333  0.667  0.252-   9 2.57   2 2.57  17 2.57   6 2.57   1 2.57   7 2.57   5 2.57  14 2.57
                            16 2.57
   9  0.667  0.667  0.252-   8 2.57   6 2.57   2 2.57  17 2.57   3 2.57   7 2.57   4 2.57  15 2.57
                            18 2.57
  10  0.111  0.111  0.351-  20 2.53  11 2.57  12 2.57  13 2.57   1 2.57   2 2.57   4 2.57  15 2.57
                            16 2.57  17 2.57  26 2.57  19 2.57
  11  0.444  0.111  0.351-  20 2.55  21 2.55  10 2.57  13 2.57   2 2.57  17 2.57  14 2.57  12 2.57
                             5 2.57   3 2.57  18 2.57  27 2.58
  12  0.778  0.111  0.351-  21 2.53  15 2.57  10 2.57  14 2.57  18 2.57   3 2.57   1 2.57  16 2.57
                            11 2.57   6 2.57  19 2.57  25 2.57
  13  0.111  0.444  0.351-  23 2.55  20 2.55  16 2.57  18 2.57  10 2.57  11 2.57  14 2.57   5 2.57
                             4 2.57   7 2.57  15 2.57  22 2.58
  14  0.444  0.444  0.351-  21 2.55  23 2.55  15 2.57  17 2.57  12 2.57  16 2.57  13 2.57  11 2.57
                             6 2.57   8 2.57   5 2.57  24 2.58
  15  0.778  0.444  0.351-  19 2.57  14 2.57  17 2.57  12 2.57   6 2.57  18 2.57  10 2.57   9 2.57
                            13 2.57   4 2.57  24 2.57  22 2.57
  16  0.111  0.778  0.351-  23 2.53  18 2.57  13 2.57   7 2.57  14 2.57  17 2.57  12 2.57  10 2.57
                             8 2.57   1 2.57  25 2.57  26 2.57
  17  0.444  0.778  0.351-  26 2.57  14 2.57  15 2.57   8 2.57   9 2.57  11 2.57  16 2.57  18 2.57
                            10 2.57   2 2.57  27 2.57  24 2.57
  18  0.778  0.778  0.351-  25 2.57  16 2.57  13 2.57   7 2.57  15 2.57  12 2.57  17 2.57   9 2.57
                             3 2.57  11 2.57  22 2.57  27 2.57
  19  0.889  0.223  0.449-  21 2.55  20 2.55  22 2.56  24 2.56  28 2.56  15 2.57  12 2.57  10 2.57
                            25 2.57  26 2.57  32 2.59  31 2.59
  20  0.221  0.221  0.448-  36 2.53  10 2.53  11 2.55  13 2.55  26 2.55  19 2.55  27 2.57  22 2.57
                            23 2.59  21 2.59  29 2.61  31 2.61
  21  0.558  0.221  0.448-  36 2.53  12 2.53  14 2.55  11 2.55  19 2.55  25 2.55  24 2.57  27 2.57
                            20 2.59  23 2.59  32 2.61  30 2.61
  22  0.888  0.556  0.450-  24 2.55  27 2.55  35 2.55  19 2.56  25 2.56  18 2.57  15 2.57  23 2.57
                            20 2.57  13 2.58  31 2.59  33 2.59
  23  0.221  0.558  0.448-  36 2.53  16 2.53  13 2.55  14 2.55  25 2.55  26 2.55  22 2.57  24 2.57
                            20 2.59  21 2.59  33 2.61  34 2.61
  24  0.556  0.556  0.450-  22 2.55  27 2.55  35 2.55  19 2.56  26 2.56  15 2.57  17 2.57  21 2.57
                            23 2.57  14 2.58  32 2.59  34 2.59
  25  0.889  0.889  0.449-  21 2.55  23 2.55  22 2.56  27 2.56  28 2.56  18 2.57  16 2.57  12 2.57
                            19 2.57  26 2.57  33 2.59  30 2.59
  26  0.223  0.889  0.449-  20 2.55  23 2.55  27 2.56  24 2.56  28 2.56  17 2.57  10 2.57  16 2.57
                            25 2.57  19 2.57  29 2.59  34 2.59
  27  0.556  0.888  0.450-  24 2.55  22 2.55  35 2.55  26 2.56  25 2.56  17 2.57  18 2.57  20 2.57
                            21 2.57  11 2.58  29 2.59  30 2.59
  28  0.000  0.000  0.548-  33 2.56  30 2.56  31 2.56  29 2.56  32 2.56  34 2.56  25 2.56  19 2.56
                            26 2.56
  29  0.333  0.000  0.549-  31 2.56  28 2.56  36 2.57  34 2.57  35 2.57  30 2.57  26 2.59  27 2.59
                            20 2.61
  30  0.667  0.000  0.549-  32 2.56  28 2.56  36 2.57  33 2.57  35 2.57  29 2.57  25 2.59  27 2.59
                            21 2.61
  31  0.000  0.333  0.549-  29 2.56  28 2.56  36 2.57  32 2.57  35 2.57  33 2.57  19 2.59  22 2.59
                            20 2.61
  32  0.667  0.333  0.549-  30 2.56  28 2.56  36 2.57  31 2.57  35 2.57  34 2.57  19 2.59  24 2.59
                            21 2.61
  33  0.000  0.667  0.549-  34 2.56  28 2.56  36 2.57  30 2.57  35 2.57  31 2.57  25 2.59  22 2.59
                            23 2.61
  34  0.333  0.667  0.549-  33 2.56  28 2.56  36 2.57  29 2.57  35 2.57  32 2.57  26 2.59  24 2.59
                            23 2.61
  35  0.667  0.667  0.548-  24 2.55  27 2.55  22 2.55  34 2.57  32 2.57  29 2.57  30 2.57  33 2.57
                            31 2.57
  36  0.333  0.333  0.544-  37 1.93  23 2.53  20 2.53  21 2.53  31 2.57  29 2.57  33 2.57  34 2.57
                            32 2.57  30 2.57
  37  0.333  0.333  0.635-  38 1.17  36 1.93
  38  0.333  0.333  0.690-  37 1.17

  LATTYP: Found a hexagonal cell.
 ALAT       =     7.6967864036
 C/A-ratio  =     2.7653617908

  Lattice vectors:

 A1 = (  -3.8483927580,  -6.6656128093,   0.0000000000)
 A2 = (   7.6967864037,   0.0000000000,   0.0000000000)
 A3 = (   0.0000000000,   0.0000000000,  21.2843990326)

Analysis of symmetry for initial positions (statically):
 Subroutine PRICEL returns:
 Original cell was already a primitive cell.

 Routine SETGRP: Setting up the symmetry group for a
 hexagonal supercell.

 Subroutine GETGRP returns: Found  6 space group operations
 (whereof  6 operations were pure point group operations)
 out of a pool of 24 trial point group operations.

The static configuration has the point symmetry C_3v.

Analysis of symmetry for dynamics (positions and initial velocities):
 Subroutine PRICEL returns:
 Original cell was already a primitive cell.

[...]

The dynamic configuration has the point symmetry C_3v.

Analysis of constrained symmetry for selective dynamics:
 Subroutine PRICEL returns:
[...]
     33      -4.0795      2.00000
     34      -4.0663      2.00000
     35      -4.0596      2.00000
     36      -4.0506      2.00000
     37      -4.0417      2.00000
     38      -4.0200      2.00000
     39      -3.9869      2.00000
     40      -3.9347      2.00000
     41      -3.9007      2.00000
     42      -3.7519      2.00000
     43      -3.7472      2.00000
     44      -3.6927      2.00000
     45      -3.6733      2.00000
     46      -3.6629      2.00000
     47      -3.6428      2.00000
     48      -3.6347      2.00000
     49      -3.6229      2.00000
     50      -3.6210      2.00000
     51      -3.4312      2.00000
     52      -3.4201      2.00000
     53      -3.4140      2.00000
     54      -3.3967      2.00000
     55      -3.3539      2.00000
     56      -3.3490      2.00000
     57      -3.3354      2.00000
     58      -3.3251      2.00000
     59      -3.3165      2.00000
     60      -3.3093      2.00000
[...]
    238       5.8799      0.00000
    239       6.1326      0.00000
    240       6.2068      0.00000
    241       6.2259      0.00000
    242       6.4360      0.00000
    243       6.5206      0.00000
    244       7.0823      0.00000
    245       7.0862      0.00000
    246       7.1628      0.00000
    247       7.1710      0.00000
    248       7.2764      0.00000
    249       7.4469      0.00000
    250       7.5079      0.00000
    251       7.5329      0.00000
    252       7.6684      0.00000

 soft charge-density along one line, spin component           1
         0         1         2         3         4         5         6         7         8         9
 total charge-density along one line

------------------------ aborting loop because EDIFF is reached ----------------------------------------

 total charge

# of ion       s       p       d       tot
    1        0.449   0.283   9.190   9.922
    2        0.449   0.284   9.186   9.920
    3        0.449   0.284   9.186   9.920
    4        0.449   0.284   9.186   9.920
    5        0.449   0.286   9.179   9.914
    6        0.449   0.284   9.186   9.920
    7        0.449   0.284   9.186   9.920
    8        0.449   0.284   9.186   9.920
    9        0.447   0.281   9.191   9.919
   10        0.443   0.372   9.174   9.990
   11        0.445   0.365   9.185   9.995
   12        0.443   0.372   9.174   9.990
   13        0.445   0.365   9.185   9.995
   14        0.445   0.365   9.185   9.995
   15        0.437   0.369   9.177   9.983
   16        0.443   0.372   9.174   9.990
   17        0.437   0.369   9.177   9.983
   18        0.437   0.369   9.177   9.983
   19        0.440   0.366   9.181   9.987
   20        0.466   0.402   9.164  10.032
   21        0.466   0.402   9.164  10.032
   22        0.428   0.370   9.182   9.980
   23        0.466   0.402   9.164  10.032
   24        0.428   0.370   9.182   9.980
   25        0.440   0.366   9.181   9.987
   26        0.440   0.366   9.181   9.987
   27        0.428   0.370   9.182   9.980
   28        0.446   0.287   9.187   9.921
   29        0.461   0.313   9.170   9.944
   30        0.461   0.313   9.170   9.944
   31        0.461   0.313   9.170   9.944
   32        0.461   0.313   9.170   9.944
   33        0.461   0.313   9.170   9.944
   34        0.461   0.313   9.170   9.944
   35        0.441   0.291   9.185   9.917
   36        0.617   0.574   4.967   6.158
   37        0.953   1.561   0.000   2.514
   38        1.610   3.532   0.000   5.141
tot         18.850  17.418 326.225 362.494

  FORCE on cell =-STRESS in cart. coord.  units (eV):
  Direction    XX          YY          ZZ          XY          YZ          ZX
  Alpha Z   922.53242   922.53242   922.53242
  Ewald  168936.10077168936.10036************     0.00039     0.00013     0.00017
  Hartree182066.01004182066.01003************     0.00004     0.00007     0.00006
  E(xc)   -2323.61249 -2323.61204 -2327.69579    -0.00039    -0.00003    -0.00005
  Local  ************************363760.86760     0.01873    -0.00061    -0.00096
  n-local  -804.03038  -788.41753  -815.29336     7.91923    -0.11612     0.30776
  augment  3321.34941  3321.36964  3345.44250    -0.01752     0.00031     0.00053
  Kinetic  3419.33009  3426.66271  3422.62275     4.55007     1.66093    -1.15812
  Fock        0.00000     0.00000     0.00000     0.00000     0.00000     0.00000
  Total      -5.69139    -5.69139     1.44463     0.00000     0.00000    -0.00000
  in kB      -8.35061    -8.35061     2.11961     0.00000     0.00000    -0.00000

 VOLUME and BASIS-vectors are now :
  energy-cutoff  :      500.00
  volume of cell :     1091.97
      direct lattice vectors                 reciprocal lattice vectors
     7.696786404  0.000000000  0.000000000     0.129924354 -0.075011849  0.000000000
     3.848392758  6.665612809  0.000000000     0.000000000  0.150023716  0.000000000
     0.000000000  0.000000000 21.284399033     0.000000000  0.000000000  0.046982769

  length of vectors
     7.696786404  7.696786404 21.284399033     0.150023716  0.150023716  0.046982769

 FORCES acting on ions
    electron-ion (+dipol)            ewald-force                    non-local-force                 convergence-correction
   -.415E-04 0.201E-06 0.348E+04   0.580E-04 -.433E-05 -.348E+04   -.223E-17 0.944E-18 -.285E+01   -.400E-03 -.198E-03 -.153E+00
   -.448E+00 0.139E+00 0.348E+04   0.210E+00 -.667E-01 -.348E+04   0.110E+00 0.746E-01 -.175E+01   0.136E+00 -.117E+00 -.115E+00
   0.448E+00 0.139E+00 0.348E+04   -.210E+00 -.668E-01 -.348E+04   -.110E+00 0.746E-01 -.175E+01   -.135E+00 -.114E+00 -.114E+00
   -.104E+00 -.457E+00 0.348E+04   0.470E-01 0.215E+00 -.348E+04   0.120E+00 0.582E-01 -.175E+01   -.327E-01 0.176E+00 -.115E+00
   -.647E-04 -.518E-05 0.348E+04   0.116E-03 -.101E-04 -.348E+04   0.255E-17 -.194E-17 -.140E+01   0.121E-01 0.741E-02 -.325E-01
   0.104E+00 -.457E+00 0.348E+04   -.471E-01 0.215E+00 -.348E+04   -.120E+00 0.582E-01 -.175E+01   0.312E-01 0.177E+00 -.114E+00
   0.344E+00 0.319E+00 0.348E+04   -.163E+00 -.148E+00 -.348E+04   0.948E-02 -.133E+00 -.175E+01   -.167E+00 -.602E-01 -.114E+00
   -.344E+00 0.319E+00 0.348E+04   0.162E+00 -.148E+00 -.348E+04   -.948E-02 -.133E+00 -.175E+01   0.170E+00 -.617E-01 -.114E+00
   -.144E-03 -.329E-04 0.348E+04   0.263E-03 0.205E-04 -.348E+04   0.303E-17 -.160E-17 -.252E+01   -.131E-01 -.674E-02 -.203E+00
   0.185E+01 0.107E+01 0.119E+04   -.136E+01 -.787E+00 -.119E+04   -.573E+00 -.331E+00 -.122E+01   0.627E-01 0.362E-01 -.117E+00
   -.912E-04 -.166E+00 0.118E+04   0.190E-03 -.344E+00 -.118E+04   -.262E-07 0.393E+00 -.345E+00   0.123E-01 0.555E-01 -.128E+00
   -.185E+01 0.107E+01 0.119E+04   0.136E+01 -.787E+00 -.119E+04   0.573E+00 -.331E+00 -.122E+01   -.646E-01 0.368E-01 -.117E+00
   -.143E+00 0.829E-01 0.118E+04   -.298E+00 0.172E+00 -.118E+04   0.341E+00 -.197E+00 -.345E+00   0.547E-01 -.163E-01 -.128E+00
   0.144E+00 0.829E-01 0.118E+04   0.298E+00 0.172E+00 -.118E+04   -.341E+00 -.197E+00 -.345E+00   -.313E-01 -.184E-01 -.131E+00
   -.143E-03 -.112E+01 0.119E+04   0.298E-03 0.761E+00 -.119E+04   -.130E-07 0.196E+00 -.999E+00   -.323E-02 0.152E+00 -.934E-01
   -.918E-04 -.214E+01 0.119E+04   0.186E-03 0.157E+01 -.119E+04   -.441E-07 0.662E+00 -.122E+01   -.131E-02 -.755E-01 -.117E+00
   -.972E+00 0.561E+00 0.119E+04   0.659E+00 -.380E+00 -.119E+04   0.169E+00 -.978E-01 -.999E+00   0.131E+00 -.790E-01 -.935E-01
   0.972E+00 0.561E+00 0.119E+04   -.659E+00 -.380E+00 -.119E+04   -.169E+00 -.978E-01 -.999E+00   -.129E+00 -.762E-01 -.904E-01
   -.579E-04 -.333E+01 -.112E+04   0.698E-04 0.307E+01 0.111E+04   -.326E-08 0.490E-01 0.960E+00   -.109E-01 0.185E+00 0.823E-01
   -.329E+02 -.190E+02 -.113E+04   0.340E+02 0.196E+02 0.113E+04   -.134E+01 -.773E+00 -.900E+00   0.156E-01 0.886E-02 0.740E-01
   0.329E+02 -.190E+02 -.113E+04   -.340E+02 0.196E+02 0.113E+04   0.134E+01 -.773E+00 -.900E+00   -.346E-01 0.536E-02 0.733E-01
   -.209E+02 0.121E+02 -.112E+04   0.202E+02 -.116E+02 0.112E+04   0.779E+00 -.450E+00 0.837E+00   -.311E-02 0.171E-01 -.124E-01
   -.885E-04 0.380E+02 -.113E+04   0.146E-03 -.393E+02 0.113E+04   -.103E-06 0.155E+01 -.900E+00   -.138E-01 -.339E-01 0.733E-01
   0.209E+02 0.121E+02 -.112E+04   -.202E+02 -.116E+02 0.112E+04   -.779E+00 -.450E+00 0.837E+00   0.270E-01 0.147E-01 -.123E-01
   0.288E+01 0.166E+01 -.112E+04   -.266E+01 -.154E+01 0.111E+04   -.424E-01 -.245E-01 0.960E+00   -.178E+00 -.103E+00 0.819E-01
   -.288E+01 0.166E+01 -.112E+04   0.266E+01 -.154E+01 0.111E+04   0.424E-01 -.245E-01 0.960E+00   0.155E+00 -.102E+00 0.824E-01
   -.114E-03 -.241E+02 -.112E+04   0.241E-03 0.233E+02 0.112E+04   -.599E-07 0.900E+00 0.837E+00   0.132E-01 -.113E-01 -.122E-01
   -.467E-04 0.109E-04 -.336E+04   0.372E-04 -.331E-04 0.335E+04   0.535E-17 -.440E-17 0.226E+01   -.524E-03 -.251E-03 0.313E+00
   -.147E+02 -.214E+02 -.335E+04   0.153E+02 0.222E+02 0.335E+04   -.708E+00 -.907E+00 0.166E+01   0.277E-01 -.207E-01 0.197E+00
   0.147E+02 -.214E+02 -.335E+04   -.153E+02 0.222E+02 0.335E+04   0.708E+00 -.907E+00 0.166E+01   -.266E-01 -.198E-01 0.195E+00
   -.258E+02 -.202E+01 -.335E+04   0.269E+02 0.216E+01 0.335E+04   -.114E+01 -.160E+00 0.166E+01   -.403E-02 0.343E-01 0.196E+00
   0.258E+02 -.202E+01 -.335E+04   -.269E+02 0.216E+01 0.335E+04   0.114E+01 -.160E+00 0.166E+01   0.405E-02 0.345E-01 0.197E+00
   -.112E+02 0.234E+02 -.335E+04   0.116E+02 -.244E+02 0.335E+04   -.431E+00 0.107E+01 0.166E+01   -.304E-01 -.131E-01 0.195E+00
   0.112E+02 0.234E+02 -.335E+04   -.116E+02 -.244E+02 0.335E+04   0.431E+00 0.107E+01 0.166E+01   0.327E-01 -.137E-01 0.197E+00
   -.155E-03 -.299E-04 -.336E+04   0.253E-03 0.419E-05 0.336E+04   0.874E-17 0.302E-17 0.270E+01   -.122E-01 -.620E-02 0.297E+00
   -.294E-04 -.109E-04 -.197E+04   0.892E-04 0.167E-04 0.197E+04   -.229E-19 0.305E-19 -.108E+01   0.740E-03 0.442E-03 0.988E-01
   -.582E-05 -.784E-04 -.118E+04   0.101E-04 0.492E-05 0.117E+04   -.234E-18 0.465E-19 0.149E+02   0.970E-03 0.587E-03 0.516E-01
   0.223E-03 -.748E-04 -.191E+04   0.245E-05 0.244E-05 0.197E+04   -.159E-18 -.293E-18 -.585E+02   0.321E-02 0.197E-02 0.156E-01
   -.590E-04 -.158E-03 0.518E+02   0.214E-12 0.105E-12 0.130E-10   0.832E-17 0.280E-17 -.520E+02   -.194E-02 -.408E-02 0.296E+00

 POSITION                                       TOTAL-FORCE (eV/Angst)
      0.00000      0.00000      5.37156        -0.000000      0.000000     -0.045196
      2.56560      0.00000      5.37156         0.008460      0.031017      0.049901
      5.13119      0.00000      5.37156        -0.008460      0.031017      0.049901
      1.28280      2.22187      5.37156         0.031091     -0.008182      0.049901
      3.84839      2.22187      5.37156        -0.000000      0.000000      0.000508
      6.41399      2.22187      5.37156        -0.031091     -0.008182      0.049901
      2.56560      4.44374      5.37156         0.022632     -0.022835      0.049901
      5.13119      4.44374      5.37156        -0.022632     -0.022835      0.049901
      7.69679      4.44374      5.37156        -0.000000      0.000000      0.005851
      1.28280      0.74062      7.46636        -0.021175     -0.012225     -0.063245
      3.84839      0.74062      7.46636         0.000000     -0.067709     -0.058577
      6.41399      0.74062      7.46636         0.021175     -0.012225     -0.063245
      2.56560      2.96249      7.46636        -0.058637      0.033854     -0.058577
      5.13119      2.96249      7.46636         0.058637      0.033854     -0.058577
      7.69679      2.96249      7.46636         0.000000     -0.013952      0.020110
      3.84839      5.18437      7.46636        -0.000000      0.024451     -0.063245
      6.41399      5.18437      7.46636        -0.012083      0.006976      0.020110
      8.97958      5.18437      7.46636         0.012083      0.006976      0.020110
      7.69679      1.48486      9.56345         0.000000     -0.014415      0.050943
      2.55359      1.47432      9.53212        -0.198072     -0.114357     -0.338882
      5.14319      1.47432      9.53212         0.198072     -0.114357     -0.338882
      8.97343      3.70667      9.56919         0.059718     -0.034478      0.006542
      3.84839      3.71698      9.53212        -0.000000      0.228713     -0.338882
      6.42014      3.70667      9.56919        -0.059718     -0.034478      0.006542
     10.25925      5.92318      9.56345         0.012484      0.007207      0.050943
      5.13432      5.92318      9.56345        -0.012484      0.007207      0.050943
      7.69679      5.91789      9.56919        -0.000000      0.068956      0.006542
      0.00000      0.00000     11.65394        -0.000000     -0.000000     -0.101759
      2.56263      0.00314     11.68588        -0.036715     -0.081518     -0.042823
      5.13415      0.00314     11.68588         0.036715     -0.081518     -0.042823
      1.28404      2.21774     11.68588        -0.088954      0.008963     -0.042823
      6.41275      2.21774     11.68588         0.088954      0.008963     -0.042823
      2.56979      4.44474     11.68588        -0.052240      0.072555     -0.042823
      5.12699      4.44474     11.68588         0.052240      0.072555     -0.042823
      7.69679      4.44374     11.65455        -0.000000     -0.000000     -0.080024
      3.84839      2.22187     11.57229        -0.000000      0.000000      1.317860
      3.84839      2.22187     13.50673        -0.000000      0.000000      0.008150
      3.84839      2.22187     14.68127        -0.000000      0.000000      0.001474
    total drift:                               -0.001996     -0.004235      0.054833

  FREE ENERGIE OF THE ION-ELECTRON SYSTEM (eV)
  free  energy   TOTEN  =      -149.40882151 eV

  energy  without entropy=     -149.40882151  energy(sigma->0) =     -149.40882151

 stress matrix after NEB project (eV)
     -5.69139      0.00000     -0.00000
      0.00000     -5.69139     -0.00000
     -0.00000      0.00000      1.44463
  FORCES: max atom, RMS     0.008150    0.001343
  FORCE total and by dimension    0.008282    0.008150
  Stress total and by dimension    8.177458    5.691391
|           W    W    AA    RRRRR   N    N  II  N    N   GGGG   !!!           |
|           W    W   A  A   R    R  NN   N  II  NN   N  G    G  !!!           |
|           W    W  A    A  R    R  N N  N  II  N N  N  G       !!!           |
|           W WW W  AAAAAA  RRRRR   N  N N  II  N  N N  G  GGG   !            |
|           WW  WW  A    A  R   R   N   NN  II  N   NN  G    G                |
|           W    W  A    A  R    R  N    N  II  N    N   GGGG   !!!           |
|     Tetrahedron method does not include variations of the Fermi             |
|     occupations, so forces and stress will be inaccurate. We suggest        |
|     using a different smearing scheme ISMEAR = 1 or 2 for metals in         |
|     relaxations.                                                            |

 total charge

# of ion       s       p       d       tot
    1        0.449   0.283   9.190   9.922
    2        0.449   0.284   9.186   9.920
    3        0.449   0.284   9.186   9.920
    4        0.449   0.284   9.186   9.920
    5        0.449   0.286   9.179   9.914
    6        0.449   0.284   9.186   9.920
    7        0.449   0.284   9.186   9.920
    8        0.449   0.284   9.186   9.920
    9        0.447   0.281   9.191   9.919
   10        0.443   0.372   9.174   9.990
   11        0.445   0.365   9.185   9.995
   12        0.443   0.372   9.174   9.990
   13        0.445   0.365   9.185   9.995
   14        0.445   0.365   9.185   9.995
   15        0.437   0.369   9.177   9.983
   16        0.443   0.372   9.174   9.990
   17        0.437   0.369   9.177   9.983
   18        0.437   0.369   9.177   9.983
   19        0.440   0.366   9.181   9.987
   20        0.466   0.402   9.164  10.032
   21        0.466   0.402   9.164  10.032
   22        0.428   0.370   9.182   9.980
   23        0.466   0.402   9.164  10.032
   24        0.428   0.370   9.182   9.980
   25        0.440   0.366   9.181   9.987
   26        0.440   0.366   9.181   9.987
   27        0.428   0.370   9.182   9.980
   28        0.446   0.287   9.187   9.921
   29        0.461   0.313   9.170   9.944
   30        0.461   0.313   9.170   9.944
   31        0.461   0.313   9.170   9.944
   32        0.461   0.313   9.170   9.944
   33        0.461   0.313   9.170   9.944
   34        0.461   0.313   9.170   9.944
   35        0.441   0.291   9.185   9.917
   36        0.617   0.574   4.967   6.158
   37        0.953   1.561   0.000   2.514
   38        1.610   3.532   0.000   5.141
tot         18.850  17.418 326.225 362.494

 BZINTS: Fermi energy:    0.030084;  402.000000 electrons
         Band energy:-0.118614E+04;  BLOECHL correction:   -0.034118