 vasp.6.2.0 18Jan21 (build Jun 12 2021 23:27:24) complex

 executed on             LinuxIFC date 2022.05.30  18:05:18

 INCAR:
   ISMEAR = -5
   SIGMA = 0.1
   ISPIN = 1
   EDIFF = 1.d-5
   EDIFFG = -0.01
   NSW = 0
   NELM = 150
   ENCUT = 500
   ISIF = 2
   IBRION = 2
   LREAL = Auto
   ALGO = Fast
   ICHARG = 11
   LORBIT = 10
   LCHARG = .F.
   LWAVE = .F.

 POTCAR:    PAW_PBE Cu 22Jun2005
 POTCAR:    PAW_PBE Co 02Aug2007
 POTCAR:    PAW_PBE C 08Apr2002
|           W    W    AA    RRRRR   N    N  II  N    N   GGGG   !!!           |
|           W    W   A  A   R    R  NN   N  II  NN   N  G    G  !!!           |
|           W    W  A    A  R    R  N N  N  II  N N  N  G       !!!           |
|           W WW W  AAAAAA  RRRRR   N  N N  II  N  N N  G  GGG   !            |
|           WW  WW  A    A  R   R   N   NN  II  N   NN  G    G                |
|           W    W  A    A  R    R  N    N  II  N    N   GGGG   !!!           |
|     For optimal performance we recommend to set                             |
|       NCORE = 2 up to number-of-cores-per-socket                            |
|     This setting can greatly improve the performance of VASP for DFT.       |
|     The default, NCORE=1 might be grossly inefficient on modern             |
|     multi-core architectures or massively parallel machines. Do your        |
|     Unfortunately you need to use the default for GW and RPA                |
|     calculations (for HF NCORE is supported but not extensively tested      |
|     yet).                                                                   |

 POTCAR:    PAW_PBE Cu 22Jun2005
   VRHFIN =Cu: d10 p1

   TITEL  = PAW_PBE Cu 22Jun2005
   POMASS =   63.546; ZVAL   =   11.000    mass and valenz
   ENMAX  =  295.446; ENMIN  =  221.585 eV

 POTCAR:    PAW_PBE Co 02Aug2007
   VRHFIN =Co: d8 s1

   TITEL  = PAW_PBE Co 02Aug2007
   POMASS =   58.933; ZVAL   =    9.000    mass and valenz
   ENMAX  =  267.968; ENMIN  =  200.976 eV

 POTCAR:    PAW_PBE C 08Apr2002
   VRHFIN =C: s2p2

   TITEL  = PAW_PBE C 08Apr2002
   POMASS =   12.011; ZVAL   =    4.000    mass and valenz
   ENMAX  =  400.000; ENMIN  =  300.000 eV

 Optimization of the real space projectors (new method)

 maximal supplied QI-value         = 16.25
 optimisation between [QCUT,QGAM] = [ 11.38, 22.75] = [ 36.24,144.96] Ry
 Optimized for a Real-space Cutoff    1.52 Angstroem

   l    n(q)    QCUT    max X(q) W(low)/X(q) W(high)/X(q)  e(spline)
   2      9    11.376     4.610    0.21E-03    0.10E-03    0.26E-06
   2      9    11.376     8.522    0.33E-03    0.16E-03    0.37E-06
   0     10    11.376    51.609    0.62E-04    0.20E-04    0.13E-06
   0     10    11.376    27.747    0.54E-04    0.20E-04    0.13E-06
   1     10    11.376    20.408    0.13E-04    0.99E-04    0.19E-06
   1     10    11.376    13.425    0.12E-04    0.87E-04    0.17E-06
 Optimization of the real space projectors (new method)

[...]

   l    n(q)    QCUT    max X(q) W(low)/X(q) W(high)/X(q)  e(spline)
   2      8    11.376    65.824    0.20E-03    0.32E-04    0.13E-06
   2      8    11.376    61.429    0.20E-03    0.33E-04    0.14E-06
   0      9    11.376    56.174    0.76E-04    0.11E-03    0.19E-06
   0      9    11.376    31.263    0.69E-04    0.99E-04    0.17E-06
   1      9    11.376    19.828    0.35E-03    0.11E-03    0.12E-06
   1      9    11.376    15.139    0.29E-03    0.94E-04    0.10E-06
 Optimization of the real space projectors (new method)

 maximal supplied QI-value         = 25.13
 optimisation between [QCUT,QGAM] = [ 11.31, 22.87] = [ 35.82,146.48] Ry
 Optimized for a Real-space Cutoff    1.00 Angstroem

   l    n(q)    QCUT    max X(q) W(low)/X(q) W(high)/X(q)  e(spline)
   0      7    11.310   115.676    0.43E-03    0.13E-02    0.19E-06
   0      7    11.310    87.132    0.43E-03    0.13E-02    0.18E-06
   1      6    11.310     4.429    0.42E-03    0.74E-03    0.11E-06
   1      6    11.310     2.733    0.34E-03    0.55E-03    0.92E-07
  PAW_PBE Cu 22Jun2005                  :
  PAW_PBE Co 02Aug2007                  :
  PAW_PBE C 08Apr2002                   :

 POSCAR: Cu-Co-C
  positions in direct lattice
  velocities in cartesian coordinates
 exchange correlation table for  LEXCH =        8
   RHO(1)=    0.500       N(1)  =     2000
   RHO(2)=  100.500       N(2)  =     4000

 VTST: version 3.2, (02/03/18)

 CHAIN: initializing optimizer

 OPT: Using VASP Conjugate-Gradient optimizer
 CHAIN: Read ICHAIN            0

 POSCAR: Cu-Co-C
  positions in direct lattice
  velocities in cartesian coordinates

 ion  position               nearest neighbor table
   1  0.000  0.000  0.226-   7 2.57   3 2.57   4 2.57   2 2.57   6 2.57   8 2.57  12 2.57  10 2.57
                            16 2.57
   2  0.333  0.000  0.226-   8 2.57   9 2.57   5 2.57   1 2.57   3 2.57  11 2.57   4 2.57  10 2.57
                            17 2.57
   3  0.667  0.000  0.226-   1 2.57   7 2.57   6 2.57   9 2.57   2 2.57  12 2.57   5 2.57  18 2.57
                            11 2.57
   4  0.000  0.333  0.226-   5 2.57   6 2.57   1 2.57   7 2.57   2 2.57  13 2.57   9 2.57  10 2.57
                            15 2.57
   5  0.333  0.333  0.226-   4 2.57   2 2.57   7 2.57  13 2.57   8 2.57   6 2.57   3 2.57  11 2.57
                            14 2.57
   6  0.667  0.333  0.226-   4 2.57   9 2.57  15 2.57   3 2.57   1 2.57   8 2.57  14 2.57   5 2.57
                            12 2.57
   7  0.000  0.667  0.226-   1 2.57   3 2.57  16 2.57  18 2.57   4 2.57   5 2.57   8 2.57   9 2.57
                            13 2.57
   8  0.333  0.667  0.226-   9 2.57   2 2.57  17 2.57   6 2.57   1 2.57   7 2.57   5 2.57  14 2.57
                            16 2.57
   9  0.667  0.667  0.226-   8 2.57   6 2.57   2 2.57  17 2.57   3 2.57   7 2.57   4 2.57  15 2.57
                            18 2.57
  10  0.111  0.111  0.314-  20 2.55  26 2.56  19 2.56  11 2.57  12 2.57  13 2.57   1 2.57   2 2.57
                             4 2.57  15 2.57  16 2.57  17 2.57
  11  0.444  0.111  0.314-  20 2.55  21 2.55  27 2.56  10 2.57  13 2.57   2 2.57  17 2.57  14 2.57
                            12 2.57   5 2.57   3 2.57  18 2.57
  12  0.778  0.111  0.314-  21 2.55  19 2.56  25 2.56  15 2.57  10 2.57  14 2.57  18 2.57   3 2.57
                             1 2.57  16 2.57  11 2.57   6 2.57
  13  0.111  0.444  0.314-  23 2.55  20 2.55  22 2.56  16 2.57  18 2.57  10 2.57  11 2.57  14 2.57
                             5 2.57   4 2.57   7 2.57  15 2.57
  14  0.444  0.444  0.314-  21 2.55  23 2.55  24 2.56  15 2.57  17 2.57  12 2.57  16 2.57  13 2.57
                            11 2.57   6 2.57   8 2.57   5 2.57
  15  0.778  0.444  0.314-  24 2.56  22 2.56  19 2.56  14 2.57  17 2.57  12 2.57   6 2.57  18 2.57
                            10 2.57   9 2.57  13 2.57   4 2.57
  16  0.111  0.778  0.314-  23 2.55  25 2.56  26 2.56  18 2.57  13 2.57   7 2.57  14 2.57  17 2.57
                            12 2.57  10 2.57   8 2.57   1 2.57
  17  0.444  0.778  0.314-  27 2.56  24 2.56  26 2.56  14 2.57  15 2.57   8 2.57   9 2.57  11 2.57
                            16 2.57  18 2.57  10 2.57   2 2.57
  18  0.778  0.778  0.314-  22 2.56  27 2.56  25 2.56  16 2.57  13 2.57   7 2.57  15 2.57  12 2.57
                            17 2.57   9 2.57   3 2.57  11 2.57
  19  0.889  0.223  0.402-  28 2.54  32 2.56  31 2.56  15 2.56  12 2.56  10 2.56  22 2.56  24 2.56
                            21 2.57  20 2.57  25 2.57  26 2.57
  20  0.222  0.222  0.401-  36 2.46  29 2.55  31 2.55  11 2.55  13 2.55  10 2.55  23 2.56  21 2.56
                            26 2.57  19 2.57  27 2.57  22 2.57
  21  0.555  0.222  0.401-  36 2.46  32 2.55  30 2.55  14 2.55  11 2.55  12 2.55  20 2.56  23 2.56
                            19 2.57  25 2.57  24 2.57  27 2.57
  22  0.889  0.556  0.402-  35 2.54  31 2.55  33 2.55  18 2.56  15 2.56  13 2.56  24 2.56  27 2.56
                            19 2.56  25 2.56  23 2.57  20 2.57
  23  0.222  0.555  0.401-  36 2.46  33 2.55  34 2.55  13 2.55  14 2.55  16 2.55  20 2.56  21 2.56
                            25 2.57  26 2.57  22 2.57  24 2.57
  24  0.556  0.556  0.402-  35 2.54  32 2.55  34 2.55  15 2.56  17 2.56  14 2.56  22 2.56  27 2.56
                            19 2.56  26 2.56  21 2.57  23 2.57
  25  0.889  0.889  0.402-  28 2.54  33 2.56  30 2.56  18 2.56  16 2.56  12 2.56  22 2.56  27 2.56
                            21 2.57  23 2.57  19 2.57  26 2.57
  26  0.223  0.889  0.402-  28 2.54  29 2.56  34 2.56  17 2.56  10 2.56  16 2.56  27 2.56  24 2.56
                            20 2.57  23 2.57  25 2.57  19 2.57
  27  0.556  0.889  0.402-  35 2.54  29 2.55  30 2.55  17 2.56  18 2.56  11 2.56  24 2.56  22 2.56
                            26 2.56  25 2.56  20 2.57  21 2.57
  28  0.000  0.000  0.489-  25 2.54  19 2.54  26 2.54  33 2.58  30 2.58  31 2.58  29 2.58  32 2.58
                            34 2.58
  29  0.333  0.003  0.489-  31 2.54  36 2.54  30 2.55  20 2.55  27 2.55  26 2.56  28 2.58  35 2.58
                            34 2.61
  30  0.664  0.003  0.489-  32 2.54  36 2.54  29 2.55  21 2.55  27 2.55  25 2.56  28 2.58  35 2.58
                            33 2.61
  31  0.003  0.333  0.489-  29 2.54  36 2.54  33 2.55  20 2.55  22 2.55  19 2.56  28 2.58  35 2.58
                            32 2.61
  32  0.664  0.333  0.489-  30 2.54  36 2.54  34 2.55  21 2.55  24 2.55  19 2.56  28 2.58  35 2.58
                            31 2.61
  33  0.003  0.664  0.489-  34 2.54  36 2.54  31 2.55  23 2.55  22 2.55  25 2.56  28 2.58  35 2.58
                            30 2.61
  34  0.333  0.664  0.489-  33 2.54  36 2.54  32 2.55  23 2.55  24 2.55  26 2.56  28 2.58  35 2.58
                            29 2.61
  35  0.667  0.667  0.488-  24 2.54  27 2.54  22 2.54  34 2.58  32 2.58  29 2.58  30 2.58  33 2.58
                            31 2.58
  36  0.333  0.333  0.484-  37 1.60  23 2.46  20 2.46  21 2.46  31 2.54  29 2.54  33 2.54  34 2.54
                            32 2.54  30 2.54
  37  0.333  0.333  0.551-  36 1.60

  LATTYP: Found a hexagonal cell.
 ALAT       =     7.6967864036
 C/A-ratio  =     3.0908716217

  Lattice vectors:

 A1 = (  -3.8483927580,  -6.6656128093,   0.0000000000)
 A2 = (   7.6967864037,   0.0000000000,   0.0000000000)
 A3 = (   0.0000000000,   0.0000000000,  23.7897786731)

Analysis of symmetry for initial positions (statically):
 Subroutine PRICEL returns:
 Original cell was already a primitive cell.

 Routine SETGRP: Setting up the symmetry group for a
 hexagonal supercell.

 Subroutine GETGRP returns: Found  6 space group operations
 (whereof  6 operations were pure point group operations)
 out of a pool of 24 trial point group operations.

The static configuration has the point symmetry C_3v.

Analysis of symmetry for dynamics (positions and initial velocities):
 Subroutine PRICEL returns:
 Original cell was already a primitive cell.

[...]

The dynamic configuration has the point symmetry C_3v.

Analysis of constrained symmetry for selective dynamics:
 Subroutine PRICEL returns:
 Original cell was already a primitive cell.

 Routine SETGRP: Setting up the symmetry group for a
 hexagonal supercell.

 Subroutine GETGRP returns: Found  6 space group operations
[...]
     24      -4.8074      2.00000
     25      -4.6534      2.00000
     26      -4.6199      2.00000
     27      -4.5626      2.00000
     28      -4.5565      2.00000
     29      -4.5536      2.00000
     30      -4.5395      2.00000
     31      -4.5319      2.00000
     32      -4.5173      2.00000
     33      -4.4629      2.00000
     34      -4.4445      2.00000
     35      -4.4135      2.00000
     36      -4.3313      2.00000
     37      -4.3156      2.00000
     38      -4.2487      2.00000
     39      -4.2335      2.00000
     40      -4.2018      2.00000
     41      -4.1690      2.00000
     42      -4.1410      2.00000
     43      -4.1299      2.00000
     44      -4.1168      2.00000
     45      -4.0960      2.00000
     46      -4.0870      2.00000
     47      -3.9753      2.00000
     48      -3.9141      2.00000
     49      -3.9059      2.00000
     50      -3.8818      2.00000
     51      -3.8547      2.00000
     52      -3.8528      2.00000
     53      -3.8125      2.00000
     54      -3.8098      2.00000
     55      -3.8050      2.00000
     56      -3.7586      2.00000
     57      -3.7437      2.00000
     58      -3.7403      2.00000
     59      -3.7336      2.00000
     60      -3.7236      2.00000
[...]
    238       5.7380      0.00000
    239       5.8378      0.00000
    240       5.9432      0.00000
    241       5.9848      0.00000
    242       6.0459      0.00000
    243       6.2879      0.00000
    244       6.2931      0.00000
    245       6.4776      0.00000
    246       6.6908      0.00000
    247       6.7432      0.00000
    248       6.7884      0.00000
    249       7.0289      0.00000
    250       7.2182      0.00000
    251       7.3789      0.00000
    252       7.5258      0.00000

 soft charge-density along one line, spin component           1
         0         1         2         3         4         5         6         7         8         9
 total charge-density along one line

------------------------ aborting loop because EDIFF is reached ----------------------------------------

 total charge

# of ion       s       p       d       tot
    1        0.449   0.284   9.188   9.921
    2        0.448   0.285   9.187   9.920
    3        0.448   0.285   9.187   9.920
    4        0.448   0.285   9.187   9.920
    5        0.450   0.283   9.189   9.922
    6        0.448   0.285   9.187   9.920
    7        0.448   0.285   9.187   9.920
    8        0.448   0.285   9.187   9.920
    9        0.447   0.286   9.186   9.918
   10        0.441   0.370   9.181   9.993
   11        0.439   0.373   9.179   9.992
   12        0.441   0.370   9.181   9.993
   13        0.439   0.373   9.179   9.992
   14        0.439   0.373   9.179   9.992
   15        0.440   0.370   9.181   9.991
   16        0.441   0.370   9.181   9.993
   17        0.440   0.370   9.181   9.991
   18        0.440   0.370   9.181   9.991
   19        0.443   0.369   9.181   9.993
   20        0.453   0.388   9.174  10.015
   21        0.453   0.388   9.174  10.015
   22        0.437   0.375   9.181   9.993
   23        0.453   0.388   9.174  10.015
   24        0.437   0.375   9.181   9.993
   25        0.443   0.369   9.181   9.993
   26        0.443   0.369   9.181   9.993
   27        0.437   0.375   9.181   9.993
   28        0.451   0.281   9.193   9.925
   29        0.441   0.293   9.188   9.922
   30        0.441   0.293   9.188   9.922
   31        0.441   0.293   9.188   9.922
   32        0.441   0.293   9.188   9.922
   33        0.441   0.293   9.188   9.922
   34        0.441   0.293   9.188   9.922
   35        0.448   0.281   9.194   9.924
   36        0.550   0.608   7.521   8.680
   37        1.025   1.172   0.000   2.197
tot         17.113  13.399 328.957 359.469

  FORCE on cell =-STRESS in cart. coord.  units (eV):
  Direction    XX          YY          ZZ          XY          YZ          ZX
  Alpha Z   780.85019   780.85019   780.85019
  Ewald  225512.58961225512.58916************     0.00041     0.00011     0.00019
  Hartree238322.51505238322.51500************     0.00005     0.00005     0.00008
  E(xc)   -2306.79852 -2306.79802 -2311.11516    -0.00043    -0.00004    -0.00007
  Local  ************************477242.71563     0.01844    -0.00055    -0.00095
  n-local  -766.06545  -751.94902  -770.76735     7.58202    -0.08830     0.29292
  augment  3466.95784  3466.97792  3467.99417    -0.01739     0.00034     0.00063
  Kinetic  3264.54528  3266.17833  3275.16107     2.46155     1.96928    -1.39086
  Fock        0.00000     0.00000     0.00000     0.00000     0.00000     0.00000
  Total      -4.67456    -4.67456     2.27837     0.00000     0.00000     0.00000
  in kB      -6.13637    -6.13637     2.99086     0.00000     0.00000     0.00000

 VOLUME and BASIS-vectors are now :
  energy-cutoff  :      500.00
  volume of cell :     1220.51
      direct lattice vectors                 reciprocal lattice vectors
     7.696786404  0.000000000  0.000000000     0.129924354 -0.075011849  0.000000000
     3.848392758  6.665612809  0.000000000     0.000000000  0.150023716  0.000000000
     0.000000000  0.000000000 23.789778673     0.000000000  0.000000000  0.042034859

  length of vectors
     7.696786404  7.696786404 23.789778673     0.150023716  0.150023716  0.042034859

 FORCES acting on ions
    electron-ion (+dipol)            ewald-force                    non-local-force                 convergence-correction
   -.422E-04 -.201E-06 0.374E+04   0.579E-04 -.442E-05 -.373E+04   -.238E-17 0.407E-17 -.211E+01   -.280E-03 -.129E-03 -.515E+00
   0.179E+00 0.281E+00 0.374E+04   -.242E+00 -.288E+00 -.373E+04   0.117E-01 -.126E-02 -.202E+01   0.492E-01 0.110E-01 -.521E+00
   -.179E+00 0.281E+00 0.374E+04   0.242E+00 -.288E+00 -.373E+04   -.117E-01 -.126E-02 -.202E+01   -.484E-01 0.135E-01 -.521E+00
   0.333E+00 0.143E-01 0.374E+04   -.370E+00 -.657E-01 -.373E+04   0.476E-02 0.108E-01 -.202E+01   0.342E-01 0.370E-01 -.521E+00
   -.637E-04 -.458E-05 0.374E+04   0.116E-03 -.101E-04 -.373E+04   0.542E-17 0.238E-17 -.221E+01   0.121E-01 0.740E-02 -.426E+00
   -.333E+00 0.144E-01 0.374E+04   0.370E+00 -.658E-01 -.373E+04   -.476E-02 0.108E-01 -.202E+01   -.357E-01 0.382E-01 -.520E+00
   0.154E+00 -.296E+00 0.374E+04   -.128E+00 0.354E+00 -.373E+04   -.693E-02 -.949E-02 -.202E+01   -.125E-01 -.487E-01 -.520E+00
   -.154E+00 -.296E+00 0.374E+04   0.128E+00 0.354E+00 -.373E+04   0.693E-02 -.949E-02 -.202E+01   0.159E-01 -.501E-01 -.520E+00
   -.145E-03 -.333E-04 0.374E+04   0.264E-03 0.206E-04 -.373E+04   -.583E-17 -.309E-17 -.205E+01   -.132E-01 -.680E-02 -.539E+00
   0.293E+01 0.169E+01 0.127E+04   -.282E+01 -.163E+01 -.127E+04   -.158E+00 -.911E-01 -.764E+00   0.345E-01 0.199E-01 0.270E+00
   -.884E-04 0.284E+01 0.127E+04   0.189E-03 -.306E+01 -.127E+04   -.959E-08 0.144E+00 -.752E+00   0.115E-01 0.617E-01 0.294E+00
   -.293E+01 0.169E+01 0.127E+04   0.282E+01 -.163E+01 -.127E+04   0.158E+00 -.911E-01 -.764E+00   -.359E-01 0.209E-01 0.269E+00
   0.246E+01 -.142E+01 0.127E+04   -.265E+01 0.153E+01 -.127E+04   0.125E+00 -.720E-01 -.752E+00   0.597E-01 -.201E-01 0.294E+00
   -.246E+01 -.142E+01 0.127E+04   0.265E+01 0.153E+01 -.127E+04   -.125E+00 -.720E-01 -.752E+00   -.363E-01 -.213E-01 0.292E+00
   -.141E-03 0.235E+00 0.127E+04   0.300E-03 -.358E+00 -.127E+04   -.215E-08 0.323E-01 -.645E+00   -.319E-02 0.769E-01 0.236E+00
   -.886E-04 -.338E+01 0.127E+04   0.185E-03 0.326E+01 -.127E+04   -.121E-07 0.182E+00 -.764E+00   -.759E-03 -.427E-01 0.269E+00
   0.204E+00 -.118E+00 0.127E+04   -.310E+00 0.179E+00 -.127E+04   0.279E-01 -.161E-01 -.645E+00   0.657E-01 -.412E-01 0.236E+00
   -.204E+00 -.118E+00 0.127E+04   0.309E+00 0.179E+00 -.127E+04   -.279E-01 -.161E-01 -.645E+00   -.646E-01 -.390E-01 0.237E+00
   -.551E-04 0.160E+01 -.123E+04   0.667E-04 -.160E+01 0.123E+04   0.175E-08 -.263E-01 0.664E+00   0.113E-01 0.223E-01 0.795E+00
   0.602E+01 0.348E+01 -.121E+04   -.572E+01 -.330E+01 0.121E+04   -.587E+00 -.339E+00 0.118E+00   0.182E+00 0.105E+00 0.960E+00
   -.602E+01 0.348E+01 -.121E+04   0.572E+01 -.330E+01 0.121E+04   0.587E+00 -.339E+00 0.118E+00   -.182E+00 0.104E+00 0.959E+00
   0.156E+01 -.900E+00 -.123E+04   -.201E+01 0.116E+01 0.122E+04   0.385E+00 -.222E+00 0.941E+00   0.102E+00 -.480E-01 0.705E+00
   -.758E-04 -.695E+01 -.121E+04   0.142E-03 0.661E+01 0.121E+04   -.451E-07 0.678E+00 0.118E+00   -.194E-02 -.211E+00 0.959E+00
   -.156E+01 -.900E+00 -.123E+04   0.201E+01 0.116E+01 0.122E+04   -.385E+00 -.222E+00 0.941E+00   -.805E-01 -.474E-01 0.705E+00
   -.138E+01 -.798E+00 -.123E+04   0.138E+01 0.798E+00 0.123E+04   0.228E-01 0.132E-01 0.664E+00   -.401E-02 -.230E-02 0.795E+00
   0.138E+01 -.798E+00 -.123E+04   -.138E+01 0.798E+00 0.123E+04   -.228E-01 0.132E-01 0.664E+00   0.253E-01 -.121E-02 0.795E+00
   -.127E-03 0.180E+01 -.123E+04   0.243E-03 -.232E+01 0.122E+04   -.296E-07 0.445E+00 0.941E+00   0.937E-02 0.112E+00 0.705E+00
   -.295E-04 0.189E-04 -.370E+04   0.339E-04 -.348E-04 0.370E+04   0.114E-17 -.418E-17 0.238E+01   0.566E-04 0.834E-04 0.789E+00
   0.134E+02 0.252E+02 -.369E+04   -.136E+02 -.257E+02 0.369E+04   -.731E-02 0.534E-01 0.291E+01   0.131E+00 0.273E+00 0.791E+00
   -.134E+02 0.252E+02 -.369E+04   0.136E+02 -.257E+02 0.369E+04   0.731E-02 0.534E-01 0.291E+01   -.131E+00 0.275E+00 0.791E+00
   0.286E+02 -.976E+00 -.369E+04   -.290E+02 0.103E+01 0.369E+04   0.426E-01 -.330E-01 0.291E+01   0.302E+00 -.230E-01 0.791E+00
   -.286E+02 -.976E+00 -.369E+04   0.290E+02 0.103E+01 0.369E+04   -.426E-01 -.330E-01 0.291E+01   -.303E+00 -.218E-01 0.792E+00
   0.151E+02 -.242E+02 -.369E+04   -.154E+02 0.246E+02 0.369E+04   0.499E-01 -.204E-01 0.291E+01   0.172E+00 -.251E+00 0.791E+00
   -.151E+02 -.242E+02 -.369E+04   0.154E+02 0.246E+02 0.369E+04   -.499E-01 -.204E-01 0.291E+01   -.169E+00 -.251E+00 0.792E+00
   -.131E-03 -.180E-04 -.370E+04   0.257E-03 0.675E-05 0.370E+04   -.336E-17 0.428E-19 0.253E+01   -.129E-01 -.660E-02 0.768E+00
   -.477E-04 -.115E-04 -.279E+04   0.119E-03 0.211E-04 0.278E+04   -.537E-18 -.125E-17 0.528E+01   0.507E-02 0.310E-02 0.686E+00
   0.554E-04 -.182E-04 -.169E+04   0.155E-04 0.666E-05 0.170E+04   0.626E-18 -.187E-18 -.959E+01   0.720E-03 0.432E-03 -.628E-01
   -.156E-03 -.358E-05 -.104E+02   -.605E-13 -.708E-13 0.796E-11   0.367E-17 0.203E-15 -.174E+01   0.883E-01 0.480E-01 0.121E+02

 POSITION                                       TOTAL-FORCE (eV/Angst)
      0.00000      0.00000      5.37156         0.000000     -0.000000      0.030602
      2.56560      0.00000      5.37156        -0.001952      0.003996      0.070346
      5.13119      0.00000      5.37156         0.001952      0.003996      0.070346
      1.28280      2.22187      5.37156         0.002485     -0.003688      0.070346
      3.84839      2.22187      5.37156         0.000000     -0.000000      0.036585
      6.41399      2.22187      5.37156        -0.002485     -0.003688      0.070346
      2.56560      4.44374      5.37156         0.004437     -0.000308      0.070346
      5.13119      4.44374      5.37156        -0.004437     -0.000308      0.070346
      7.69679      4.44374      5.37156         0.000000     -0.000000      0.074211
      1.28280      0.74062      7.46636        -0.013348     -0.007707     -0.041262
      3.84839      0.74062      7.46636         0.000000     -0.018406     -0.073878
      6.41399      0.74062      7.46636         0.013348     -0.007707     -0.041262
      2.56560      2.96249      7.46636        -0.015940      0.009203     -0.073878
      5.13119      2.96249      7.46636         0.015940      0.009203     -0.073878
      7.69679      2.96249      7.46636         0.000000     -0.013508     -0.040059
      3.84839      5.18437      7.46636        -0.000000      0.015413     -0.041262
      6.41399      5.18437      7.46636        -0.011698      0.006754     -0.040059
      8.97958      5.18437      7.46636         0.011698      0.006754     -0.040059
      7.69679      1.48420      9.55496         0.000000     -0.011207      0.020616
      2.56664      1.48185      9.54157        -0.103400     -0.059698     -0.176465
      5.13014      1.48185      9.54157         0.103400     -0.059698     -0.176465
      8.97778      3.70416      9.55304         0.023032     -0.013298      0.020062
      3.84839      3.70191      9.54157        -0.000000      0.119396     -0.176465
      6.41579      3.70416      9.55304        -0.023032     -0.013298      0.020062
     10.25982      5.92351      9.55496         0.009706      0.005604      0.020616
      5.13375      5.92351      9.55496        -0.009706      0.005604      0.020616
      7.69679      5.92291      9.55304        -0.000000      0.026595      0.020062
      0.00000      0.00000     11.62172         0.000000     -0.000000     -0.022238
      2.57582      0.02145     11.62841        -0.063363     -0.115704      0.001795
      5.12097      0.02145     11.62841         0.063363     -0.115704      0.001795
      1.30649      2.22000     11.62841        -0.131884      0.002978      0.001795
      6.39030      2.22000     11.62841         0.131884      0.002978      0.001795
      2.57906      4.42416     11.62841        -0.068521      0.112726      0.001795
      5.11773      4.42416     11.62841         0.068521      0.112726      0.001795
      7.69679      4.44374     11.62071         0.000000     -0.000000     -0.025219
      3.84839      2.22187     11.51210         0.000000     -0.000000      0.363676
      3.84839      2.22187     13.11152         0.000000     -0.000000     -0.017504
    total drift:                                0.088151      0.048041     -0.027477

  FREE ENERGIE OF THE ION-ELECTRON SYSTEM (eV)
  free  energy   TOTEN  =      -135.12054695 eV

  energy  without entropy=     -135.12054695  energy(sigma->0) =     -135.12054695

 stress matrix after NEB project (eV)
     -4.67456      0.00000      0.00000
      0.00000     -4.67456      0.00000
      0.00000      0.00000      2.27837
  FORCES: max atom, RMS     0.017504    0.002878
  FORCE total and by dimension    0.017504    0.017504
  Stress total and by dimension    6.992429    4.674563
|           W    W    AA    RRRRR   N    N  II  N    N   GGGG   !!!           |
|           W    W   A  A   R    R  NN   N  II  NN   N  G    G  !!!           |
|           W    W  A    A  R    R  N N  N  II  N N  N  G       !!!           |
|           W WW W  AAAAAA  RRRRR   N  N N  II  N  N N  G  GGG   !            |
|           WW  WW  A    A  R   R   N   NN  II  N   NN  G    G                |
|           W    W  A    A  R    R  N    N  II  N    N   GGGG   !!!           |
|     Tetrahedron method does not include variations of the Fermi             |
|     occupations, so forces and stress will be inaccurate. We suggest        |
|     using a different smearing scheme ISMEAR = 1 or 2 for metals in         |
|     relaxations.                                                            |

 total charge

# of ion       s       p       d       tot
    1        0.449   0.284   9.188   9.921
    2        0.448   0.285   9.187   9.920
    3        0.448   0.285   9.187   9.920
    4        0.448   0.285   9.187   9.920
    5        0.450   0.283   9.189   9.922
    6        0.448   0.285   9.187   9.920
    7        0.448   0.285   9.187   9.920
    8        0.448   0.285   9.187   9.920
    9        0.447   0.286   9.186   9.918
   10        0.441   0.370   9.181   9.993
   11        0.439   0.373   9.179   9.992
   12        0.441   0.370   9.181   9.993
   13        0.439   0.373   9.179   9.992
   14        0.439   0.373   9.179   9.992
   15        0.440   0.370   9.181   9.991
   16        0.441   0.370   9.181   9.993
   17        0.440   0.370   9.181   9.991
   18        0.440   0.370   9.181   9.991
   19        0.443   0.369   9.181   9.993
   20        0.453   0.388   9.174  10.015
   21        0.453   0.388   9.174  10.015
   22        0.437   0.375   9.181   9.993
   23        0.453   0.388   9.174  10.015
   24        0.437   0.375   9.181   9.993
   25        0.443   0.369   9.181   9.993
   26        0.443   0.369   9.181   9.993
   27        0.437   0.375   9.181   9.993
   28        0.451   0.281   9.193   9.925
   29        0.441   0.293   9.188   9.922
   30        0.441   0.293   9.188   9.922
   31        0.441   0.293   9.188   9.922
   32        0.441   0.293   9.188   9.922
   33        0.441   0.293   9.188   9.922
   34        0.441   0.293   9.188   9.922
   35        0.448   0.281   9.194   9.924
   36        0.550   0.608   7.521   8.680
   37        1.025   1.172   0.000   2.197
tot         17.113  13.399 328.957 359.469

 BZINTS: Fermi energy:   -0.465299;  398.000000 electrons
         Band energy:-0.130020E+04;  BLOECHL correction:   -0.093321