 vasp.6.2.0 18Jan21 (build Jun 12 2021 23:27:24) complex

 executed on             LinuxIFC date 2022.05.27  05:37:21

 INCAR:
   ISMEAR = -5
   SIGMA = 0.1
   ISPIN = 1
   EDIFF = 1.d-5
   EDIFFG = -0.01
   NSW = 0
   NELM = 150
   ENCUT = 500
   ISIF = 2
   IBRION = 2
   LREAL = Auto
   ALGO = Fast
   ICHARG = 11
   LORBIT = 10
   LCHARG = .F.
   LWAVE = .F.

 POTCAR:    PAW_PBE Ag 02Apr2005
 POTCAR:    PAW_PBE Mo 08Apr2002
 POTCAR:    PAW_PBE H 15Jun2001
|           W    W    AA    RRRRR   N    N  II  N    N   GGGG   !!!           |
|           W    W   A  A   R    R  NN   N  II  NN   N  G    G  !!!           |
|           W    W  A    A  R    R  N N  N  II  N N  N  G       !!!           |
|           W WW W  AAAAAA  RRRRR   N  N N  II  N  N N  G  GGG   !            |
|           WW  WW  A    A  R   R   N   NN  II  N   NN  G    G                |
|           W    W  A    A  R    R  N    N  II  N    N   GGGG   !!!           |
|     For optimal performance we recommend to set                             |
|       NCORE = 2 up to number-of-cores-per-socket                            |
|     This setting can greatly improve the performance of VASP for DFT.       |
|     The default, NCORE=1 might be grossly inefficient on modern             |
|     multi-core architectures or massively parallel machines. Do your        |
|     Unfortunately you need to use the default for GW and RPA                |
|     calculations (for HF NCORE is supported but not extensively tested      |
|     yet).                                                                   |

 POTCAR:    PAW_PBE Ag 02Apr2005
   VRHFIN =Ag : s1 d10

   TITEL  = PAW_PBE Ag 02Apr2005
   POMASS =  107.868; ZVAL   =   11.000    mass and valenz
   ENMAX  =  249.844; ENMIN  =  187.383 eV

 POTCAR:    PAW_PBE Mo 08Apr2002
   VRHFIN =Mo: 4p5s4d

   TITEL  = PAW_PBE Mo 08Apr2002
   POMASS =   95.940; ZVAL   =    6.000    mass and valenz
   ENMAX  =  224.584; ENMIN  =  168.438 eV

 POTCAR:    PAW_PBE H 15Jun2001
   VRHFIN =H: ultrasoft test

   TITEL  = PAW_PBE H 15Jun2001
   POMASS =    1.000; ZVAL   =    1.000    mass and valenz
   ENMAX  =  250.000; ENMIN  =  200.000 eV

 Optimization of the real space projectors (new method)

 maximal supplied QI-value         = 15.12
 optimisation between [QCUT,QGAM] = [ 11.34, 22.83] = [ 36.00,145.93] Ry
 Optimized for a Real-space Cutoff    1.43 Angstroem

   l    n(q)    QCUT    max X(q) W(low)/X(q) W(high)/X(q)  e(spline)
   2      9    11.338    53.897    0.16E-03    0.20E-03    0.28E-06
   2      9    11.338    52.416    0.16E-03    0.20E-03    0.29E-06
   0     10    11.338   122.045    0.31E-04    0.76E-04    0.15E-06
   0     10    11.338    73.629    0.30E-04    0.72E-04    0.15E-06
   1      9    11.338    15.255    0.20E-03    0.19E-04    0.17E-06
   1      9    11.338     9.562    0.16E-03    0.15E-04    0.14E-06
 Optimization of the real space projectors (new method)

[...]

   l    n(q)    QCUT    max X(q) W(low)/X(q) W(high)/X(q)  e(spline)
   2     10    11.429    80.908    0.27E-03    0.78E-03    0.13E-05
   2     10    11.429    79.000    0.27E-03    0.78E-03    0.13E-05
   0     11    11.429    52.066    0.33E-04    0.97E-04    0.72E-06
   0     11    11.429    24.514    0.27E-04    0.80E-04    0.60E-06
   1     10    11.429    16.033    0.31E-04    0.17E-03    0.36E-06
   1     10    11.429    11.179    0.22E-04    0.13E-03    0.29E-06
 Optimization of the real space projectors (new method)

 maximal supplied QI-value         = 34.20
 optimisation between [QCUT,QGAM] = [ 11.29, 22.57] = [ 35.68,142.71] Ry
 Optimized for a Real-space Cutoff    1.16 Angstroem

   l    n(q)    QCUT    max X(q) W(low)/X(q) W(high)/X(q)  e(spline)
   0      8    11.287    19.460    0.40E-03    0.73E-03    0.16E-06
   0      8    11.287    12.209    0.38E-03    0.70E-03    0.15E-06
   1      7    11.287     4.655    0.22E-03    0.25E-04    0.22E-06
  PAW_PBE Ag 02Apr2005                  :
  PAW_PBE Mo 08Apr2002                  :
  PAW_PBE H 15Jun2001                   :

 POSCAR: Ag-Mo-H2
  positions in direct lattice
  velocities in cartesian coordinates
 exchange correlation table for  LEXCH =        8
   RHO(1)=    0.500       N(1)  =     2000
   RHO(2)=  100.500       N(2)  =     4000

 VTST: version 3.2, (02/03/18)

 CHAIN: initializing optimizer

 OPT: Using VASP Conjugate-Gradient optimizer
 CHAIN: Read ICHAIN            0

 POSCAR: Ag-Mo-H2
  positions in direct lattice
  velocities in cartesian coordinates

 ion  position               nearest neighbor table
   1  0.000  0.000  0.238-   2 2.93   8 2.93   7 2.93   6 2.93   4 2.93  12 2.93  16 2.93  10 2.93
                             3 2.93
   2  0.333  0.000  0.238-   1 2.93   8 2.93   9 2.93   3 2.93   4 2.93   5 2.93  10 2.93  17 2.93
                            11 2.93
   3  0.667  0.000  0.238-   9 2.93   2 2.93   5 2.93  11 2.93   7 2.93  18 2.93   1 2.93   6 2.93
                            12 2.93
   4  0.000  0.333  0.238-   5 2.93   6 2.93   2 2.93   1 2.93   7 2.93  13 2.93  15 2.93   9 2.93
                            10 2.93
   5  0.333  0.333  0.238-   4 2.93   3 2.93   7 2.93   2 2.93   8 2.93  14 2.93  13 2.93  11 2.93
                             6 2.93
   6  0.667  0.333  0.238-   4 2.93   9 2.93   1 2.93  15 2.93   8 2.93  12 2.93   3 2.93   5 2.93
                            14 2.93
   7  0.000  0.667  0.238-   8 2.93   1 2.93   5 2.93   3 2.93   4 2.93  16 2.93  18 2.93  13 2.93
                             9 2.93
   8  0.333  0.667  0.238-   7 2.93   1 2.93   2 2.93   9 2.93   5 2.93  16 2.93   6 2.93  17 2.93
                            14 2.93
   9  0.667  0.667  0.238-   3 2.93   2 2.93   8 2.93   6 2.93  17 2.93   4 2.93  15 2.93   7 2.93
                            18 2.93
  10  0.111  0.111  0.346-  20 2.90  19 2.93  26 2.93  12 2.93  16 2.93  15 2.93  17 2.93  13 2.93
                            11 2.93   2 2.93   1 2.93   4 2.93
  11  0.444  0.111  0.346-  21 2.90  20 2.90  27 2.93  14 2.93  17 2.93  18 2.93   3 2.93  12 2.93
                            13 2.93  10 2.93   5 2.93   2 2.93
  12  0.778  0.111  0.346-  21 2.90  25 2.93  19 2.93  10 2.93  16 2.93  18 2.93  15 2.93  11 2.93
                             1 2.93  14 2.93   6 2.93   3 2.93
  13  0.111  0.444  0.346-  20 2.90  23 2.90  22 2.93  15 2.93  14 2.93  18 2.93  10 2.93  11 2.93
                            16 2.93   4 2.93   5 2.93   7 2.93
  14  0.444  0.444  0.346-  23 2.90  21 2.90  24 2.93  13 2.93  11 2.93  16 2.93   5 2.93  12 2.93
                            17 2.93   8 2.93  15 2.93   6 2.93
  15  0.778  0.444  0.346-  24 2.92  22 2.92  19 2.92  13 2.93  10 2.93  12 2.93  17 2.93  18 2.93
                             4 2.93   6 2.93   9 2.93  14 2.93
  16  0.111  0.778  0.346-  23 2.90  26 2.93  25 2.93  18 2.93  12 2.93  10 2.93  14 2.93  17 2.93
                            13 2.93   7 2.93   8 2.93   1 2.93
  17  0.444  0.778  0.346-  27 2.92  24 2.92  26 2.92  11 2.93  10 2.93   9 2.93  18 2.93  15 2.93
                            16 2.93   2 2.93  14 2.93   8 2.93
  18  0.778  0.778  0.346-  22 2.92  27 2.92  25 2.92  16 2.93  12 2.93  13 2.93  11 2.93  17 2.93
                            15 2.93   7 2.93   3 2.93   9 2.93
  19  0.889  0.222  0.454-  28 2.92  15 2.92  10 2.93  12 2.93  24 2.93  22 2.93  26 2.93  25 2.93
                            20 2.93  21 2.93  32 2.96  31 2.96
  20  0.222  0.222  0.452-  36 2.79  13 2.90  11 2.90  10 2.90  21 2.93  23 2.93  19 2.93  26 2.93
                            27 2.93  22 2.93  31 2.94  29 2.94
  21  0.555  0.222  0.452-  36 2.79  11 2.90  14 2.90  12 2.90  20 2.93  23 2.93  25 2.93  19 2.93
                            27 2.93  24 2.93  30 2.94  32 2.94
  22  0.888  0.556  0.454-  35 2.91  24 2.92  27 2.92  18 2.92  15 2.92  13 2.93  25 2.93  19 2.93
                            23 2.93  20 2.93  33 2.94  31 2.94
  23  0.222  0.555  0.452-  36 2.79  14 2.90  13 2.90  16 2.90  21 2.93  20 2.93  26 2.93  25 2.93
                            22 2.93  24 2.93  34 2.94  33 2.94
  24  0.556  0.556  0.454-  35 2.91  27 2.92  22 2.92  15 2.92  17 2.92  14 2.93  19 2.93  26 2.93
                            23 2.93  21 2.93  32 2.94  34 2.94
  25  0.889  0.889  0.454-  28 2.92  18 2.92  16 2.93  12 2.93  22 2.93  27 2.93  26 2.93  19 2.93
                            23 2.93  21 2.93  33 2.96  30 2.96
  26  0.222  0.889  0.454-  28 2.92  17 2.92  16 2.93  10 2.93  27 2.93  24 2.93  25 2.93  19 2.93
                            23 2.93  20 2.93  34 2.96  29 2.96
  27  0.556  0.888  0.454-  35 2.91  24 2.92  22 2.92  17 2.92  18 2.92  11 2.93  26 2.93  25 2.93
                            20 2.93  21 2.93  29 2.94  30 2.94
  28  0.000  0.000  0.561-  26 2.92  25 2.92  19 2.92  29 2.95  34 2.95  33 2.95  32 2.95  31 2.95
                            30 2.95
  29  0.333  0.005  0.562-  31 2.88  30 2.89  36 2.89  27 2.94  20 2.94  28 2.95  35 2.96  26 2.96
                            34 3.02
  30  0.662  0.005  0.562-  32 2.88  29 2.89  36 2.89  27 2.94  21 2.94  28 2.95  35 2.96  25 2.96
                            33 3.02
  31  0.005  0.333  0.562-  29 2.88  33 2.89  36 2.89  22 2.94  20 2.94  28 2.95  35 2.96  19 2.96
                            32 3.02
  32  0.662  0.333  0.562-  30 2.88  34 2.89  36 2.89  24 2.94  21 2.94  28 2.95  35 2.96  19 2.96
                            31 3.02
  33  0.005  0.662  0.562-  34 2.88  31 2.89  36 2.89  22 2.94  23 2.94  28 2.95  35 2.96  25 2.96
                            30 3.02
  34  0.333  0.662  0.562-  33 2.88  32 2.89  36 2.89  24 2.94  23 2.94  28 2.95  35 2.96  26 2.96
                            29 3.02
  35  0.667  0.667  0.561-  24 2.91  27 2.91  22 2.91  30 2.96  32 2.96  29 2.96  34 2.96  31 2.96
                            33 2.96
  36  0.333  0.333  0.552-  38 1.79  37 1.79  21 2.79  20 2.79  23 2.79  31 2.89  30 2.89  33 2.89
                            29 2.89  34 2.89  32 2.89
  37  0.282  0.328  0.630-  36 1.79
  38  0.390  0.328  0.630-  36 1.79

  LATTYP: Found a hexagonal cell.
 ALAT       =     8.7913665772
 C/A-ratio  =     2.5227160501

  Lattice vectors:

 A1 = (  -4.3956832886,  -7.6135467898,   0.0000000000)
 A2 = (   8.7913665771,   0.0000000000,   0.0000000000)
 A3 = (   0.0000000000,   0.0000000000,  22.1781215668)

Analysis of symmetry for initial positions (statically):
 Subroutine PRICEL returns:
 Original cell was already a primitive cell.

 Routine SETGRP: Setting up the symmetry group for a
 hexagonal supercell.

 Subroutine GETGRP returns: Found  2 space group operations
 (whereof  2 operations were pure point group operations)
 out of a pool of 24 trial point group operations.

The static configuration has the point symmetry C_1h.

Analysis of symmetry for dynamics (positions and initial velocities):
 Subroutine PRICEL returns:
 Original cell was already a primitive cell.

[...]

The dynamic configuration has the point symmetry C_1h.

Analysis of constrained symmetry for selective dynamics:
 Subroutine PRICEL returns:
 Original cell was already a primitive cell.

 Routine SETGRP: Setting up the symmetry group for a
 hexagonal supercell.

 Subroutine GETGRP returns: Found  2 space group operations
[...]
     33      -4.4833      2.00000
     34      -4.4462      2.00000
     35      -4.4244      2.00000
     36      -4.4019      2.00000
     37      -4.3979      2.00000
     38      -4.3596      2.00000
     39      -4.3288      2.00000
     40      -4.3249      2.00000
     41      -4.3214      2.00000
     42      -4.3062      2.00000
     43      -4.2993      2.00000
     44      -4.1990      2.00000
     45      -4.1783      2.00000
     46      -4.1645      2.00000
     47      -4.1604      2.00000
     48      -4.1581      2.00000
     49      -4.1536      2.00000
     50      -4.1407      2.00000
     51      -4.1353      2.00000
     52      -4.1262      2.00000
     53      -4.1209      2.00000
     54      -4.0481      2.00000
     55      -4.0402      2.00000
     56      -4.0311      2.00000
     57      -4.0299      2.00000
     58      -4.0143      2.00000
     59      -3.9975      2.00000
     60      -3.9688      2.00000
[...]
    238       7.0041      0.00000
    239       7.1753      0.00000
    240       7.2208      0.00000
    241       7.2366      0.00000
    242       7.2899      0.00000
    243       7.3033      0.00000
    244       7.3456      0.00000
    245       7.3713      0.00000
    246       7.4966      0.00000
    247       7.5847      0.00000
    248       7.6205      0.00000
    249       7.6592      0.00000
    250       7.8997      0.00000
    251       7.9482      0.00000
    252       8.0374      0.00000

 soft charge-density along one line, spin component           1
         0         1         2         3         4         5         6         7         8         9
 total charge-density along one line

------------------------ aborting loop because EDIFF is reached ----------------------------------------

 total charge

# of ion       s       p       d       tot
    1        0.419   0.201   9.179   9.799
    2        0.415   0.204   9.177   9.796
    3        0.415   0.204   9.177   9.796
    4        0.418   0.203   9.177   9.798
    5        0.420   0.202   9.174   9.796
    6        0.418   0.203   9.177   9.798
    7        0.415   0.203   9.178   9.796
    8        0.415   0.203   9.178   9.796
    9        0.416   0.201   9.180   9.796
   10        0.409   0.270   9.162   9.840
   11        0.410   0.265   9.169   9.844
   12        0.409   0.270   9.162   9.840
   13        0.410   0.266   9.168   9.844
   14        0.410   0.266   9.168   9.844
   15        0.403   0.268   9.165   9.837
   16        0.411   0.269   9.160   9.840
   17        0.404   0.269   9.164   9.837
   18        0.404   0.269   9.164   9.837
   19        0.401   0.265   9.166   9.833
   20        0.438   0.299   9.139   9.877
   21        0.438   0.299   9.139   9.877
   22        0.392   0.273   9.167   9.832
   23        0.444   0.297   9.138   9.879
   24        0.392   0.273   9.167   9.832
   25        0.402   0.264   9.167   9.834
   26        0.402   0.264   9.167   9.834
   27        0.393   0.272   9.168   9.833
   28        0.411   0.200   9.178   9.789
   29        0.434   0.216   9.159   9.809
   30        0.434   0.216   9.159   9.809
   31        0.430   0.218   9.159   9.807
   32        0.430   0.218   9.159   9.807
   33        0.435   0.215   9.159   9.809
   34        0.435   0.215   9.159   9.809
   35        0.405   0.201   9.180   9.785
   36        0.398   0.367   4.247   5.011
   37        0.529   0.028   0.000   0.557
   38        0.529   0.028   0.000   0.557
tot         15.991   8.866 325.060 349.917

  FORCE on cell =-STRESS in cart. coord.  units (eV):
  Direction    XX          YY          ZZ          XY          YZ          ZX
  Alpha Z   748.07356   748.07356   748.07356
  Ewald  119341.05229119323.25876************    -0.00000     0.10792    -0.00001
  Hartree129379.86623129376.51921************    -0.00000     0.76135    -0.00000
  E(xc)   -2061.74764 -2061.76251 -2068.82971    -0.00002     0.07740     0.00000
  Local  ************************259990.89354     0.00033    -0.77963    -0.00004
  n-local  -341.36881  -340.53881  -344.30224     2.46820     0.28428     0.06661
  augment  3227.54982  3227.30635  3241.56332    -0.00013    -0.09737     0.00002
  Kinetic  4854.81969  4857.38935  4891.41433     1.42652    -0.37606     0.13809
  Fock        0.00000     0.00000     0.00000     0.00000     0.00000     0.00000
  Total      -9.17412    -9.15473     0.91837    -0.00000    -0.02211    -0.00000
  in kB      -9.90164    -9.88070     0.99120    -0.00000    -0.02386    -0.00000

 VOLUME and BASIS-vectors are now :
  energy-cutoff  :      500.00
  volume of cell :     1484.46
      direct lattice vectors                 reciprocal lattice vectors
     8.791366577  0.000000000  0.000000000     0.113747958 -0.065672414  0.000000000
     4.395683289  7.613546790  0.000000000     0.000000000  0.131344829  0.000000000
     0.000000000  0.000000000 22.178121567     0.000000000  0.000000000  0.045089481

  length of vectors
     8.791366577  8.791366577 22.178121567     0.131344829  0.131344829  0.045089481

 FORCES acting on ions
    electron-ion (+dipol)            ewald-force                    non-local-force                 convergence-correction
   0.460E-04 0.529E-01 0.248E+04   -.953E-04 -.329E-02 -.248E+04   0.237E-12 0.360E-01 -.209E+01   -.832E-04 -.834E-01 0.124E+00
   -.346E+00 0.164E+00 0.248E+04   -.340E-01 -.161E+00 -.248E+04   0.198E+00 0.126E+00 -.151E+01   0.168E+00 -.116E+00 0.190E+00
   0.346E+00 0.164E+00 0.248E+04   0.341E-01 -.161E+00 -.248E+04   -.198E+00 0.126E+00 -.151E+01   -.169E+00 -.114E+00 0.190E+00
   0.129E+00 -.257E+00 0.248E+04   -.154E+00 0.517E-01 -.248E+04   0.887E-01 0.445E-01 -.148E+01   -.415E-01 0.149E+00 0.245E+00
   -.781E-05 -.116E+00 0.248E+04   0.980E-04 0.227E-02 -.248E+04   0.312E-12 0.475E-01 -.109E+01   0.618E-02 0.621E-01 0.334E+00
   -.129E+00 -.257E+00 0.248E+04   0.154E+00 0.516E-01 -.248E+04   -.887E-01 0.445E-01 -.148E+01   0.401E-01 0.150E+00 0.246E+00
   -.350E-02 0.113E+00 0.248E+04   -.120E+00 0.110E+00 -.248E+04   0.123E+00 -.188E+00 -.151E+01   -.239E-02 -.348E-01 0.175E+00
   0.353E-02 0.113E+00 0.248E+04   0.120E+00 0.109E+00 -.248E+04   -.123E+00 -.188E+00 -.151E+01   0.399E-02 -.358E-01 0.175E+00
   0.362E-04 0.153E-01 0.248E+04   0.792E-04 0.108E-02 -.248E+04   -.257E-12 -.392E-01 -.190E+01   -.663E-02 0.225E-01 0.139E+00
   0.169E+01 0.102E+01 0.812E+03   -.139E+01 -.816E+00 -.811E+03   -.417E+00 -.227E+00 -.862E+00   0.104E+00 0.241E-01 0.191E+00
   -.282E-04 0.162E+01 0.811E+03   0.405E-04 -.177E+01 -.811E+03   0.111E-11 0.168E+00 -.130E+00   0.617E-02 -.591E-01 0.219E+00
   -.169E+01 0.102E+01 0.812E+03   0.139E+01 -.816E+00 -.811E+03   0.417E+00 -.227E+00 -.862E+00   -.105E+00 0.247E-01 0.190E+00
   0.127E+01 -.788E+00 0.811E+03   -.152E+01 0.901E+00 -.811E+03   0.171E+00 -.132E+00 -.269E+00   0.418E-01 0.405E-01 0.174E+00
   -.127E+01 -.788E+00 0.811E+03   0.152E+01 0.901E+00 -.811E+03   -.171E+00 -.132E+00 -.269E+00   -.315E-01 0.396E-01 0.172E+00
   0.156E-04 -.153E+00 0.811E+03   -.108E-03 -.992E-01 -.811E+03   0.851E-12 0.130E+00 -.763E+00   -.126E-02 0.101E+00 0.188E+00
   -.807E-05 -.198E+01 0.812E+03   0.205E-04 0.159E+01 -.811E+03   0.354E-11 0.540E+00 -.814E+00   -.939E-04 -.144E+00 0.174E+00
   -.107E+00 0.234E-01 0.811E+03   -.105E+00 0.529E-01 -.810E+03   0.118E+00 -.621E-01 -.794E+00   0.760E-01 -.107E-01 0.162E+00
   0.107E+00 0.234E-01 0.811E+03   0.105E+00 0.530E-01 -.810E+03   -.118E+00 -.621E-01 -.794E+00   -.759E-01 -.915E-02 0.163E+00
   0.395E-04 -.438E+01 -.877E+03   -.126E-03 0.408E+01 0.876E+03   0.113E-11 0.173E+00 0.798E+00   0.108E-02 0.130E+00 0.247E+00
   -.160E+02 -.935E+01 -.885E+03   0.173E+02 0.995E+01 0.885E+03   -.149E+01 -.699E+00 -.125E+01   0.122E+00 0.449E-01 0.379E+00
   0.160E+02 -.935E+01 -.885E+03   -.173E+02 0.995E+01 0.885E+03   0.149E+01 -.699E+00 -.125E+01   -.133E+00 0.444E-01 0.378E+00
   -.105E+02 0.597E+01 -.876E+03   0.101E+02 -.569E+01 0.876E+03   0.337E+00 -.229E+00 0.393E+00   0.811E-01 -.534E-01 0.195E+00
   -.519E-04 0.182E+02 -.885E+03   0.383E-04 -.198E+02 0.886E+03   0.120E-10 0.183E+01 -.155E+01   -.551E-02 -.996E-01 0.364E+00
   0.105E+02 0.597E+01 -.876E+03   -.101E+02 -.569E+01 0.876E+03   -.337E+00 -.229E+00 0.393E+00   -.795E-01 -.528E-01 0.195E+00
   0.377E+01 0.232E+01 -.877E+03   -.353E+01 -.218E+01 0.877E+03   -.150E+00 -.650E-01 0.803E+00   -.952E-01 -.690E-01 0.197E+00
   -.377E+01 0.232E+01 -.877E+03   0.353E+01 -.218E+01 0.877E+03   0.150E+00 -.650E-01 0.803E+00   0.954E-01 -.680E-01 0.197E+00
   0.196E-04 -.121E+02 -.876E+03   0.110E-03 0.115E+02 0.876E+03   0.293E-11 0.446E+00 0.356E+00   -.319E-03 0.131E+00 0.155E+00
   0.537E-04 0.493E+00 -.249E+04   -.114E-03 -.575E+00 0.249E+04   0.177E-12 0.269E-01 0.198E+01   0.292E-03 0.270E-01 0.679E-01
   -.124E+02 -.211E+02 -.249E+04   0.133E+02 0.224E+02 0.249E+04   -.110E+01 -.158E+01 0.128E+01   0.237E+00 0.289E+00 0.750E-01
   0.124E+02 -.211E+02 -.249E+04   -.133E+02 0.224E+02 0.249E+04   0.110E+01 -.158E+01 0.128E+01   -.238E+00 0.290E+00 0.751E-01
   -.238E+02 -.494E-01 -.249E+04   0.255E+02 0.504E-01 0.249E+04   -.195E+01 -.536E-01 0.152E+01   0.336E+00 0.641E-01 0.824E-01
   0.238E+02 -.494E-01 -.249E+04   -.255E+02 0.503E-01 0.249E+04   0.195E+01 -.536E-01 0.152E+01   -.336E+00 0.651E-01 0.831E-01
   -.138E+02 0.217E+02 -.249E+04   0.144E+02 -.230E+02 0.249E+04   -.893E+00 0.160E+01 0.129E+01   0.202E+00 -.375E+00 0.817E-01
   0.138E+02 0.217E+02 -.249E+04   -.144E+02 -.230E+02 0.249E+04   0.893E+00 0.160E+01 0.129E+01   -.201E+00 -.375E+00 0.823E-01
   0.260E-04 -.267E+00 -.249E+04   0.104E-03 0.250E+00 0.249E+04   0.371E-12 0.564E-01 0.215E+01   -.630E-02 -.188E-01 0.984E-01
   -.231E-04 -.130E+01 -.127E+04   0.573E-04 0.115E+01 0.127E+04   0.364E-12 0.554E-01 -.865E+00   0.435E-03 0.244E-01 0.114E+00
   0.124E+02 -.141E+00 -.267E+03   -.149E+02 0.105E+00 0.269E+03   0.255E+01 0.371E-01 -.134E+01   0.814E-02 0.360E-02 -.583E-01
   -.124E+02 -.141E+00 -.267E+03   0.149E+02 0.105E+00 0.269E+03   -.255E+01 0.371E-01 -.134E+01   -.808E-02 0.361E-02 -.583E-01
   0.306E-03 -.635E+00 0.501E+01   -.391E-13 -.824E-13 -.671E-11   0.412E-11 0.627E+00 -.114E+02   -.573E-02 0.102E-01 0.640E+01

 POSITION                                       TOTAL-FORCE (eV/Angst)
      0.00000      0.00000      5.28219         0.000000      0.002157     -0.052964
      2.93046      0.00000      5.28219        -0.013538      0.014064      0.021720
      5.86091      0.00000      5.28219         0.013538      0.014064      0.021720
      1.46523      2.53785      5.28219         0.022817     -0.011006      0.010154
      4.39568      2.53785      5.28219        -0.000000     -0.004411     -0.031119
      7.32614      2.53785      5.28219        -0.022817     -0.011006      0.010154
      2.93046      5.07570      5.28219        -0.003056     -0.001280      0.024165
      5.86091      5.07570      5.28219         0.003056     -0.001280      0.024165
      8.79137      5.07570      5.28219        -0.000000     -0.000371     -0.002661
      1.46523      0.84595      7.67490        -0.007251      0.001036     -0.024676
      4.39568      0.84595      7.67490        -0.000000     -0.043110     -0.057282
      7.32614      0.84595      7.67490         0.007251      0.001036     -0.024676
      2.93046      3.38380      7.67490        -0.037487      0.020885     -0.049796
      5.86091      3.38380      7.67490         0.037487      0.020885     -0.049796
      8.79137      3.38380      7.67490        -0.000000     -0.021719      0.015921
      4.39568      5.92165      7.67490         0.000000      0.007774     -0.027376
      7.32614      5.92165      7.67490        -0.018416      0.004266      0.012792
     10.25659      5.92165      7.67490         0.018416      0.004266      0.012792
      8.79137      1.69286     10.06155        -0.000000     -0.003404      0.037781
      2.93202      1.69280     10.03008        -0.083937     -0.059267     -0.141480
      5.85935      1.69280     10.03008         0.083937     -0.059267     -0.141480
     10.25345      4.23157     10.06207         0.019185     -0.006997      0.007611
      4.39568      4.22795     10.03008         0.000000      0.129610     -0.126773
      7.32929      4.23157     10.06207        -0.019185     -0.006997      0.007611
     11.72099      6.76712     10.06155        -0.001502      0.003032      0.024705
      5.86174      6.76712     10.06155         0.001502      0.003032      0.024705
      8.79137      6.76396     10.06207         0.000000      0.026348      0.010972
      0.00000      0.00000     12.43674        -0.000000     -0.027773     -0.022107
      2.95191      0.04038     12.46589        -0.003183     -0.004350      0.017648
      5.83946      0.04038     12.46589         0.003183     -0.004350      0.017648
      1.51092      2.53624     12.46589         0.038279      0.011869      0.059280
      7.28044      2.53624     12.46589        -0.038279      0.011869      0.059280
      2.95470      5.03693     12.46589        -0.015482      0.015561      0.006990
      5.83667      5.03693     12.46589         0.015482      0.015561      0.006990
      8.79137      5.07570     12.43630         0.000000      0.021112     -0.014867
      4.39568      2.53785     12.24527        -0.000000     -0.071653      0.329013
      3.92410      2.49811     13.97211         0.026403      0.004905      0.001618
      4.86726      2.49811     13.97211        -0.026403      0.004905      0.001618
    total drift:                               -0.005420      0.002577      0.044322

  FREE ENERGIE OF THE ION-ELECTRON SYSTEM (eV)
  free  energy   TOTEN  =      -104.06788744 eV

  energy  without entropy=     -104.06788744  energy(sigma->0) =     -104.06788744

 stress matrix after NEB project (eV)
     -9.17412     -0.00000     -0.00000
     -0.00000     -9.15473     -0.02211
     -0.00000     -0.02211      0.91837
  FORCES: max atom, RMS     0.026903    0.006172
  FORCE total and by dimension    0.038047    0.026403
  Stress total and by dimension   12.992998    9.174124
|           W    W    AA    RRRRR   N    N  II  N    N   GGGG   !!!           |
|           W    W   A  A   R    R  NN   N  II  NN   N  G    G  !!!           |
|           W    W  A    A  R    R  N N  N  II  N N  N  G       !!!           |
|           W WW W  AAAAAA  RRRRR   N  N N  II  N  N N  G  GGG   !            |
|           WW  WW  A    A  R   R   N   NN  II  N   NN  G    G                |
|           W    W  A    A  R    R  N    N  II  N    N   GGGG   !!!           |
|     Tetrahedron method does not include variations of the Fermi             |
|     occupations, so forces and stress will be inaccurate. We suggest        |
|     using a different smearing scheme ISMEAR = 1 or 2 for metals in         |
|     relaxations.                                                            |

 total charge

# of ion       s       p       d       tot
    1        0.419   0.201   9.179   9.799
    2        0.415   0.204   9.177   9.796
    3        0.415   0.204   9.177   9.796
    4        0.418   0.203   9.177   9.798
    5        0.420   0.202   9.174   9.796
    6        0.418   0.203   9.177   9.798
    7        0.415   0.203   9.178   9.796
    8        0.415   0.203   9.178   9.796
    9        0.416   0.201   9.180   9.796
   10        0.409   0.270   9.162   9.840
   11        0.410   0.265   9.169   9.844
   12        0.409   0.270   9.162   9.840
   13        0.410   0.266   9.168   9.844
   14        0.410   0.266   9.168   9.844
   15        0.403   0.268   9.165   9.837
   16        0.411   0.269   9.160   9.840
   17        0.404   0.269   9.164   9.837
   18        0.404   0.269   9.164   9.837
   19        0.401   0.265   9.166   9.833
   20        0.438   0.299   9.139   9.877
   21        0.438   0.299   9.139   9.877
   22        0.392   0.273   9.167   9.832
   23        0.444   0.297   9.138   9.879
   24        0.392   0.273   9.167   9.832
   25        0.402   0.264   9.167   9.834
   26        0.402   0.264   9.167   9.834
   27        0.393   0.272   9.168   9.833
   28        0.411   0.200   9.178   9.789
   29        0.434   0.216   9.159   9.809
   30        0.434   0.216   9.159   9.809
   31        0.430   0.218   9.159   9.807
   32        0.430   0.218   9.159   9.807
   33        0.435   0.215   9.159   9.809
   34        0.435   0.215   9.159   9.809
   35        0.405   0.201   9.180   9.785
   36        0.398   0.367   4.247   5.011
   37        0.529   0.028   0.000   0.557
   38        0.529   0.028   0.000   0.557
tot         15.991   8.866 325.060 349.917

 BZINTS: Fermi energy:    0.820029;  393.000000 electrons
         Band energy:-0.127590E+04;  BLOECHL correction:   -0.019906