 vasp.6.2.0 18Jan21 (build Jun 12 2021 23:27:24) complex

 executed on             LinuxIFC date 2022.05.26  19:42:56

 INCAR:
   ISMEAR = -5
   SIGMA = 0.1
   ISPIN = 1
   EDIFF = 1.d-5
   EDIFFG = -0.01
   NSW = 0
   NELM = 150
   ENCUT = 500
   ISIF = 2
   IBRION = 2
   LREAL = Auto
   ALGO = Fast
   ICHARG = 11
   LORBIT = 10
   LCHARG = .F.
   LWAVE = .F.

 POTCAR:    PAW_PBE Ag 02Apr2005
 POTCAR:    PAW_PBE Ni 02Aug2007
 POTCAR:    PAW_PBE H 15Jun2001
|           W    W    AA    RRRRR   N    N  II  N    N   GGGG   !!!           |
|           W    W   A  A   R    R  NN   N  II  NN   N  G    G  !!!           |
|           W    W  A    A  R    R  N N  N  II  N N  N  G       !!!           |
|           W WW W  AAAAAA  RRRRR   N  N N  II  N  N N  G  GGG   !            |
|           WW  WW  A    A  R   R   N   NN  II  N   NN  G    G                |
|           W    W  A    A  R    R  N    N  II  N    N   GGGG   !!!           |
|     For optimal performance we recommend to set                             |
|       NCORE = 2 up to number-of-cores-per-socket                            |
|     This setting can greatly improve the performance of VASP for DFT.       |
|     The default, NCORE=1 might be grossly inefficient on modern             |
|     multi-core architectures or massively parallel machines. Do your        |
|     Unfortunately you need to use the default for GW and RPA                |
|     calculations (for HF NCORE is supported but not extensively tested      |
|     yet).                                                                   |

 POTCAR:    PAW_PBE Ag 02Apr2005
   VRHFIN =Ag : s1 d10

   TITEL  = PAW_PBE Ag 02Apr2005
   POMASS =  107.868; ZVAL   =   11.000    mass and valenz
   ENMAX  =  249.844; ENMIN  =  187.383 eV

 POTCAR:    PAW_PBE Ni 02Aug2007
   VRHFIN =Ni:

   TITEL  = PAW_PBE Ni 02Aug2007
   POMASS =   58.690; ZVAL   =   10.000    mass and valenz
   ENMAX  =  269.532; ENMIN  =  202.149 eV

 POTCAR:    PAW_PBE H 15Jun2001
   VRHFIN =H: ultrasoft test

   TITEL  = PAW_PBE H 15Jun2001
   POMASS =    1.000; ZVAL   =    1.000    mass and valenz
   ENMAX  =  250.000; ENMIN  =  200.000 eV

 Optimization of the real space projectors (new method)

 maximal supplied QI-value         = 15.12
 optimisation between [QCUT,QGAM] = [ 11.34, 22.83] = [ 36.00,145.93] Ry
 Optimized for a Real-space Cutoff    1.43 Angstroem

   l    n(q)    QCUT    max X(q) W(low)/X(q) W(high)/X(q)  e(spline)
   2      9    11.338    53.897    0.16E-03    0.20E-03    0.28E-06
   2      9    11.338    52.416    0.16E-03    0.20E-03    0.29E-06
   0     10    11.338   122.045    0.31E-04    0.76E-04    0.15E-06
   0     10    11.338    73.629    0.30E-04    0.72E-04    0.15E-06
   1      9    11.338    15.255    0.20E-03    0.19E-04    0.17E-06
   1      9    11.338     9.562    0.16E-03    0.15E-04    0.14E-06
 Optimization of the real space projectors (new method)

[...]

   l    n(q)    QCUT    max X(q) W(low)/X(q) W(high)/X(q)  e(spline)
   2      8    11.376    60.317    0.19E-03    0.33E-04    0.13E-06
   2      8    11.376    55.921    0.20E-03    0.34E-04    0.14E-06
   0      9    11.376    51.690    0.82E-04    0.12E-03    0.20E-06
   0      9    11.376    30.015    0.74E-04    0.11E-03    0.18E-06
   1      9    11.376    18.849    0.39E-03    0.12E-03    0.13E-06
   1      9    11.376    14.624    0.33E-03    0.10E-03    0.11E-06
 Optimization of the real space projectors (new method)

 maximal supplied QI-value         = 34.20
 optimisation between [QCUT,QGAM] = [ 11.29, 22.57] = [ 35.68,142.71] Ry
 Optimized for a Real-space Cutoff    1.16 Angstroem

   l    n(q)    QCUT    max X(q) W(low)/X(q) W(high)/X(q)  e(spline)
   0      8    11.287    19.460    0.40E-03    0.73E-03    0.16E-06
   0      8    11.287    12.209    0.38E-03    0.70E-03    0.15E-06
   1      7    11.287     4.655    0.22E-03    0.25E-04    0.22E-06
  PAW_PBE Ag 02Apr2005                  :
  PAW_PBE Ni 02Aug2007                  :
  PAW_PBE H 15Jun2001                   :

 POSCAR: Ag-Ni-H
  positions in direct lattice
  velocities in cartesian coordinates
 exchange correlation table for  LEXCH =        8
   RHO(1)=    0.500       N(1)  =     2000
   RHO(2)=  100.500       N(2)  =     4000

 VTST: version 3.2, (02/03/18)

 CHAIN: initializing optimizer

 OPT: Using VASP Conjugate-Gradient optimizer
 CHAIN: Read ICHAIN            0

 POSCAR: Ag-Ni-H
  positions in direct lattice
  velocities in cartesian coordinates

 ion  position               nearest neighbor table
   1  0.000  0.000  0.238-   2 2.93   8 2.93   7 2.93   6 2.93   4 2.93  12 2.93  16 2.93  10 2.93
                             3 2.93
   2  0.333  0.000  0.238-   1 2.93   8 2.93   9 2.93   3 2.93   4 2.93   5 2.93  10 2.93  17 2.93
                            11 2.93
   3  0.667  0.000  0.238-   9 2.93   2 2.93   5 2.93  11 2.93   7 2.93  18 2.93   1 2.93   6 2.93
                            12 2.93
   4  0.000  0.333  0.238-   5 2.93   6 2.93   2 2.93   1 2.93   7 2.93  13 2.93  15 2.93   9 2.93
                            10 2.93
   5  0.333  0.333  0.238-   4 2.93   3 2.93   7 2.93   2 2.93   8 2.93  14 2.93  13 2.93  11 2.93
                             6 2.93
   6  0.667  0.333  0.238-   4 2.93   9 2.93   1 2.93  15 2.93   8 2.93  12 2.93   3 2.93   5 2.93
                            14 2.93
   7  0.000  0.667  0.238-   8 2.93   1 2.93   5 2.93   3 2.93   4 2.93  16 2.93  18 2.93  13 2.93
                             9 2.93
   8  0.333  0.667  0.238-   7 2.93   1 2.93   2 2.93   9 2.93   5 2.93  16 2.93   6 2.93  17 2.93
                            14 2.93
   9  0.667  0.667  0.238-   3 2.93   2 2.93   8 2.93   6 2.93  17 2.93   4 2.93  15 2.93   7 2.93
                            18 2.93
  10  0.111  0.111  0.346-  20 2.91  19 2.92  26 2.92  12 2.93  16 2.93  15 2.93  17 2.93  13 2.93
                            11 2.93   2 2.93   1 2.93   4 2.93
  11  0.444  0.111  0.346-  21 2.91  20 2.91  27 2.91  14 2.93  17 2.93  18 2.93   3 2.93  12 2.93
                            13 2.93  10 2.93   5 2.93   2 2.93
  12  0.778  0.111  0.346-  21 2.91  25 2.92  19 2.92  10 2.93  16 2.93  18 2.93  15 2.93  11 2.93
                             1 2.93  14 2.93   6 2.93   3 2.93
  13  0.111  0.444  0.346-  20 2.91  23 2.91  22 2.91  15 2.93  14 2.93  18 2.93  10 2.93  11 2.93
                            16 2.93   4 2.93   5 2.93   7 2.93
  14  0.444  0.444  0.346-  23 2.91  21 2.91  24 2.91  13 2.93  11 2.93  16 2.93   5 2.93  12 2.93
                            17 2.93   8 2.93  15 2.93   6 2.93
  15  0.778  0.444  0.346-  24 2.91  22 2.91  19 2.92  13 2.93  10 2.93  12 2.93  17 2.93  18 2.93
                             4 2.93   6 2.93   9 2.93  14 2.93
  16  0.111  0.778  0.346-  23 2.91  26 2.92  25 2.92  18 2.93  12 2.93  10 2.93  14 2.93  17 2.93
                            13 2.93   7 2.93   8 2.93   1 2.93
  17  0.444  0.778  0.346-  27 2.91  24 2.91  26 2.92  11 2.93  10 2.93   9 2.93  18 2.93  15 2.93
                            16 2.93   2 2.93  14 2.93   8 2.93
  18  0.778  0.778  0.346-  22 2.91  27 2.91  25 2.92  16 2.93  12 2.93  13 2.93  11 2.93  17 2.93
                            15 2.93   7 2.93   3 2.93   9 2.93
  19  0.889  0.223  0.454-  28 2.91  15 2.92  10 2.92  12 2.92  24 2.93  22 2.93  32 2.94  31 2.94
                            26 2.94  25 2.94  20 2.94  21 2.94
  20  0.223  0.223  0.453-  36 2.69  31 2.89  29 2.89  13 2.91  11 2.91  10 2.91  21 2.92  23 2.92
                            27 2.93  22 2.93  19 2.94  26 2.94
  21  0.554  0.223  0.453-  36 2.69  30 2.89  32 2.89  11 2.91  14 2.91  12 2.91  20 2.92  23 2.92
                            27 2.93  24 2.93  25 2.94  19 2.94
  22  0.889  0.556  0.453-  18 2.91  15 2.91  35 2.91  13 2.91  33 2.91  31 2.91  24 2.93  27 2.93
                            25 2.93  19 2.93  23 2.93  20 2.93
  23  0.223  0.554  0.453-  36 2.69  34 2.89  33 2.89  14 2.91  13 2.91  16 2.91  21 2.92  20 2.92
                            22 2.93  24 2.93  26 2.94  25 2.94
  24  0.556  0.556  0.453-  15 2.91  17 2.91  35 2.91  14 2.91  32 2.91  34 2.91  27 2.93  22 2.93
                            19 2.93  26 2.93  23 2.93  21 2.93
  25  0.889  0.889  0.454-  28 2.91  18 2.92  16 2.92  12 2.92  22 2.93  27 2.93  33 2.94  30 2.94
                            26 2.94  19 2.94  23 2.94  21 2.94
  26  0.223  0.889  0.454-  28 2.91  17 2.92  16 2.92  10 2.92  27 2.93  24 2.93  34 2.94  29 2.94
                            25 2.94  19 2.94  23 2.94  20 2.94
  27  0.556  0.889  0.453-  17 2.91  18 2.91  35 2.91  11 2.91  29 2.91  30 2.91  24 2.93  22 2.93
                            26 2.93  25 2.93  20 2.93  21 2.93
  28  0.000  0.000  0.560-  26 2.91  25 2.91  19 2.91  29 2.96  34 2.96  33 2.96  32 2.96  31 2.96
                            30 2.96
  29  0.333  0.007  0.560-  30 2.87  31 2.87  36 2.88  20 2.89  27 2.91  26 2.94  35 2.96  28 2.96
                            34 3.06
  30  0.659  0.007  0.560-  29 2.87  32 2.87  36 2.88  21 2.89  27 2.91  25 2.94  35 2.96  28 2.96
                            33 3.06
  31  0.007  0.333  0.560-  33 2.87  29 2.87  36 2.88  20 2.89  22 2.91  19 2.94  35 2.96  28 2.96
                            32 3.06
  32  0.659  0.333  0.560-  34 2.87  30 2.87  36 2.88  21 2.89  24 2.91  19 2.94  35 2.96  28 2.96
                            31 3.06
  33  0.007  0.659  0.560-  31 2.87  34 2.87  36 2.88  23 2.89  22 2.91  25 2.94  35 2.96  28 2.96
                            30 3.06
  34  0.333  0.659  0.560-  32 2.87  33 2.87  36 2.88  23 2.89  24 2.91  26 2.94  35 2.96  28 2.96
                            29 3.06
  35  0.667  0.667  0.560-  24 2.91  27 2.91  22 2.91  30 2.96  32 2.96  29 2.96  34 2.96  31 2.96
                            33 2.96
  36  0.333  0.333  0.547-  37 1.48  21 2.69  20 2.69  23 2.69  31 2.88  33 2.88  30 2.88  29 2.88
                            34 2.88  32 2.88
  37  0.333  0.333  0.614-  36 1.48

  LATTYP: Found a hexagonal cell.
 ALAT       =     8.7913665772
 C/A-ratio  =     2.5227160501

  Lattice vectors:

 A1 = (  -4.3956832886,  -7.6135467898,   0.0000000000)
 A2 = (   8.7913665771,   0.0000000000,   0.0000000000)
 A3 = (   0.0000000000,   0.0000000000,  22.1781215668)

Analysis of symmetry for initial positions (statically):
 Subroutine PRICEL returns:
 Original cell was already a primitive cell.

 Routine SETGRP: Setting up the symmetry group for a
 hexagonal supercell.

 Subroutine GETGRP returns: Found  6 space group operations
 (whereof  6 operations were pure point group operations)
 out of a pool of 24 trial point group operations.

The static configuration has the point symmetry C_3v.

Analysis of symmetry for dynamics (positions and initial velocities):
 Subroutine PRICEL returns:
 Original cell was already a primitive cell.

[...]

The dynamic configuration has the point symmetry C_3v.

Analysis of constrained symmetry for selective dynamics:
 Subroutine PRICEL returns:
 Original cell was already a primitive cell.

 Routine SETGRP: Setting up the symmetry group for a
 hexagonal supercell.

 Subroutine GETGRP returns: Found  6 space group operations
 (whereof  6 operations were pure point group operations)
[...]
     24      -4.6427      2.00000
     25      -4.6093      2.00000
     26      -4.5806      2.00000
     27      -4.5743      2.00000
     28      -4.5628      2.00000
     29      -4.5606      2.00000
     30      -4.5352      2.00000
     31      -4.5272      2.00000
     32      -4.4979      2.00000
     33      -4.4742      2.00000
     34      -4.4263      2.00000
     35      -4.4012      2.00000
     36      -4.3820      2.00000
     37      -4.3682      2.00000
     38      -4.3377      2.00000
     39      -4.3250      2.00000
     40      -4.3068      2.00000
     41      -4.3011      2.00000
     42      -4.2776      2.00000
     43      -4.2271      2.00000
     44      -4.2008      2.00000
     45      -4.1866      2.00000
     46      -4.1791      2.00000
     47      -4.1692      2.00000
     48      -4.1637      2.00000
     49      -4.1465      2.00000
     50      -4.1378      2.00000
     51      -4.1182      2.00000
     52      -4.1167      2.00000
     53      -4.0576      2.00000
     54      -4.0461      2.00000
     55      -4.0327      2.00000
     56      -4.0317      2.00000
     57      -4.0132      2.00000
     58      -4.0002      2.00000
     59      -3.9621      2.00000
     60      -3.9557      2.00000
[...]
    238       7.0893      0.00000
    239       7.1710      0.00000
    240       7.1975      0.00000
    241       7.2172      0.00000
    242       7.2501      0.00000
    243       7.3021      0.00000
    244       7.3220      0.00000
    245       7.4763      0.00000
    246       7.5131      0.00000
    247       7.5434      0.00000
    248       7.5942      0.00000
    249       7.6229      0.00000
    250       7.8345      0.00000
    251       7.9107      0.00000
    252       8.1033      0.00000

 soft charge-density along one line, spin component           1
         0         1         2         3         4         5         6         7         8         9
 total charge-density along one line

------------------------ aborting loop because EDIFF is reached ----------------------------------------

 total charge

# of ion       s       p       d       tot
    1        0.417   0.201   9.179   9.798
    2        0.418   0.203   9.177   9.798
    3        0.418   0.203   9.177   9.798
    4        0.418   0.203   9.177   9.798
    5        0.419   0.204   9.175   9.798
    6        0.418   0.203   9.177   9.798
    7        0.418   0.203   9.177   9.798
    8        0.418   0.203   9.177   9.798
    9        0.415   0.203   9.179   9.797
   10        0.406   0.269   9.165   9.839
   11        0.409   0.268   9.167   9.844
   12        0.406   0.269   9.165   9.839
   13        0.409   0.268   9.167   9.844
   14        0.409   0.268   9.167   9.844
   15        0.402   0.272   9.165   9.838
   16        0.406   0.269   9.165   9.839
   17        0.402   0.272   9.165   9.838
   18        0.402   0.272   9.165   9.838
   19        0.402   0.268   9.166   9.836
   20        0.424   0.285   9.154   9.863
   21        0.424   0.285   9.154   9.863
   22        0.400   0.275   9.166   9.841
   23        0.424   0.285   9.154   9.863
   24        0.400   0.275   9.166   9.841
   25        0.402   0.268   9.166   9.836
   26        0.402   0.268   9.166   9.836
   27        0.400   0.275   9.166   9.841
   28        0.413   0.194   9.182   9.789
   29        0.409   0.201   9.180   9.790
   30        0.409   0.201   9.180   9.790
   31        0.409   0.201   9.180   9.790
   32        0.409   0.201   9.180   9.790
   33        0.409   0.201   9.180   9.790
   34        0.409   0.201   9.180   9.790
   35        0.410   0.195   9.182   9.787
   36        0.438   0.341   8.383   9.163
   37        0.502   0.016   0.000   0.518
tot         15.302   8.686 329.369 353.357

  FORCE on cell =-STRESS in cart. coord.  units (eV):
  Direction    XX          YY          ZZ          XY          YZ          ZX
  Alpha Z   736.22036   736.22036   736.22036
  Ewald  122335.29409122335.29414************     0.00002     0.00000    -0.00001
  Hartree132650.94760132650.94762************     0.00001     0.00000     0.00000
  E(xc)   -2087.20404 -2087.20402 -2092.42497    -0.00001     0.00000    -0.00000
  Local  ************************266380.90791     0.00040    -0.00004    -0.00006
  n-local  -344.24981  -326.07423  -338.61659    11.21916    -0.52136     0.57872
  augment  3398.49076  3398.49111  3400.74265    -0.00034    -0.00001    -0.00000
  Kinetic  4853.07603  4856.51937  4874.78548     4.94239     0.98612    -0.29555
  Fock        0.00000     0.00000     0.00000     0.00000     0.00000     0.00000
  Total      -9.91508    -9.91508    -1.16067    -0.00000    -0.00000     0.00000
  in kB     -10.70135   -10.70135    -1.25271    -0.00000    -0.00000     0.00000

 VOLUME and BASIS-vectors are now :
  energy-cutoff  :      500.00
  volume of cell :     1484.46
      direct lattice vectors                 reciprocal lattice vectors
     8.791366577  0.000000000  0.000000000     0.113747958 -0.065672414  0.000000000
     4.395683289  7.613546790  0.000000000     0.000000000  0.131344829  0.000000000
     0.000000000  0.000000000 22.178121567     0.000000000  0.000000000  0.045089481

  length of vectors
     8.791366577  8.791366577 22.178121567     0.131344829  0.131344829  0.045089481

 FORCES acting on ions
    electron-ion (+dipol)            ewald-force                    non-local-force                 convergence-correction
   0.460E-04 -.283E-04 0.251E+04   -.954E-04 0.593E-04 -.251E+04   -.113E-17 -.218E-17 -.222E+01   -.132E-03 -.177E-03 -.198E+00
   0.470E+00 0.402E+00 0.251E+04   -.555E+00 -.506E+00 -.251E+04   0.529E-01 0.858E-01 -.166E+01   0.401E-01 0.347E-01 -.197E+00
   -.470E+00 0.402E+00 0.251E+04   0.555E+00 -.506E+00 -.251E+04   -.529E-01 0.858E-01 -.166E+01   -.406E-01 0.367E-01 -.196E+00
   0.583E+00 0.206E+00 0.251E+04   -.716E+00 -.227E+00 -.251E+04   0.101E+00 0.293E-02 -.166E+01   0.503E-01 0.175E-01 -.197E+00
   -.783E-05 -.199E-04 0.251E+04   0.981E-04 -.200E-05 -.251E+04   -.223E-17 0.141E-17 -.136E+01   0.631E-02 0.384E-02 -.156E+00
   -.583E+00 0.206E+00 0.251E+04   0.716E+00 -.228E+00 -.251E+04   -.101E+00 0.293E-02 -.166E+01   -.518E-01 0.185E-01 -.196E+00
   0.113E+00 -.608E+00 0.251E+04   -.161E+00 0.734E+00 -.251E+04   0.479E-01 -.888E-01 -.166E+01   0.119E-01 -.530E-01 -.196E+00
   -.113E+00 -.608E+00 0.251E+04   0.161E+00 0.734E+00 -.251E+04   -.479E-01 -.888E-01 -.166E+01   -.102E-01 -.540E-01 -.196E+00
   0.364E-04 -.129E-04 0.251E+04   0.792E-04 -.643E-04 -.251E+04   -.153E-17 0.649E-18 -.203E+01   -.671E-02 -.345E-02 -.201E+00
   0.490E+01 0.283E+01 0.843E+03   -.466E+01 -.269E+01 -.843E+03   -.303E+00 -.175E+00 -.749E+00   0.642E-01 0.371E-01 0.865E-01
   -.294E-04 0.542E+01 0.852E+03   0.419E-04 -.555E+01 -.852E+03   0.634E-12 0.966E-01 -.351E+00   0.643E-02 0.237E-01 0.119E+00
   -.490E+01 0.283E+01 0.843E+03   0.466E+01 -.269E+01 -.843E+03   0.303E+00 -.175E+00 -.749E+00   -.662E-01 0.386E-01 0.872E-01
   0.469E+01 -.271E+01 0.852E+03   -.481E+01 0.278E+01 -.852E+03   0.836E-01 -.483E-01 -.351E+00   0.236E-01 -.631E-02 0.119E+00
   -.469E+01 -.271E+01 0.852E+03   0.481E+01 0.278E+01 -.852E+03   -.836E-01 -.483E-01 -.351E+00   -.126E-01 -.706E-02 0.119E+00
   0.166E-04 0.125E+01 0.845E+03   -.109E-03 -.135E+01 -.844E+03   0.212E-12 0.322E-01 -.796E+00   -.206E-02 0.496E-01 0.582E-01
   -.814E-05 -.566E+01 0.843E+03   0.208E-04 0.538E+01 -.843E+03   0.230E-11 0.350E+00 -.749E+00   0.333E-03 -.766E-01 0.871E-01
   0.109E+01 -.627E+00 0.845E+03   -.117E+01 0.677E+00 -.844E+03   0.279E-01 -.161E-01 -.796E+00   0.420E-01 -.266E-01 0.582E-01
   -.109E+01 -.627E+00 0.845E+03   0.117E+01 0.677E+00 -.844E+03   -.279E-01 -.161E-01 -.796E+00   -.421E-01 -.243E-01 0.586E-01
   0.431E-04 0.310E+01 -.858E+03   -.129E-03 -.314E+01 0.857E+03   0.193E-12 0.295E-01 0.738E+00   -.211E-02 0.216E-01 0.221E+00
   0.333E+02 0.192E+02 -.812E+03   -.325E+02 -.188E+02 0.812E+03   -.100E+01 -.580E+00 -.873E+00   0.181E+00 0.104E+00 0.351E+00
   -.333E+02 0.192E+02 -.812E+03   0.325E+02 -.188E+02 0.812E+03   0.100E+01 -.580E+00 -.873E+00   -.170E+00 0.106E+00 0.351E+00
   0.119E+02 -.689E+01 -.845E+03   -.121E+02 0.697E+01 0.844E+03   0.902E-01 -.521E-01 0.466E+00   0.772E-01 -.444E-01 0.199E+00
   -.617E-04 -.385E+02 -.812E+03   0.469E-04 0.375E+02 0.812E+03   0.762E-11 0.116E+01 -.873E+00   0.683E-02 -.200E+00 0.350E+00
   -.119E+02 -.689E+01 -.845E+03   0.121E+02 0.697E+01 0.844E+03   -.902E-01 -.521E-01 0.466E+00   -.790E-01 -.453E-01 0.200E+00
   -.268E+01 -.155E+01 -.858E+03   0.272E+01 0.157E+01 0.857E+03   -.255E-01 -.147E-01 0.738E+00   -.179E-01 -.100E-01 0.220E+00
   0.268E+01 -.155E+01 -.858E+03   -.272E+01 0.157E+01 0.857E+03   0.255E-01 -.147E-01 0.738E+00   0.177E-01 -.126E-01 0.220E+00
   0.207E-04 0.138E+02 -.845E+03   0.110E-03 -.139E+02 0.844E+03   0.684E-12 0.104E+00 0.466E+00   -.595E-03 0.896E-01 0.200E+00
   0.548E-04 -.376E-04 -.252E+04   -.114E-03 0.776E-04 0.252E+04   -.494E-17 -.488E-17 0.202E+01   -.129E-02 0.515E-03 0.305E+00
   0.200E+02 0.341E+02 -.253E+04   -.199E+02 -.340E+02 0.253E+04   -.234E+00 -.309E+00 0.225E+01   0.897E-01 0.188E+00 0.202E+00
   -.200E+02 0.341E+02 -.253E+04   0.199E+02 -.340E+02 0.253E+04   0.234E+00 -.309E+00 0.225E+01   -.795E-01 0.190E+00 0.202E+00
   0.396E+02 0.280E+00 -.253E+04   -.394E+02 -.201E+00 0.253E+04   -.384E+00 -.481E-01 0.225E+01   0.202E+00 -.261E-01 0.202E+00
   -.396E+02 0.280E+00 -.253E+04   0.394E+02 -.201E+00 0.253E+04   0.384E+00 -.481E-01 0.225E+01   -.204E+00 -.254E-01 0.201E+00
   0.196E+02 -.344E+02 -.253E+04   -.195E+02 0.342E+02 0.253E+04   -.151E+00 0.357E+00 0.225E+01   0.125E+00 -.162E+00 0.202E+00
   -.196E+02 -.344E+02 -.253E+04   0.195E+02 0.342E+02 0.253E+04   0.151E+00 0.357E+00 0.225E+01   -.113E+00 -.164E+00 0.201E+00
   0.239E-04 -.135E-04 -.252E+04   0.106E-03 -.658E-04 0.252E+04   0.249E-17 0.158E-17 0.204E+01   -.795E-02 -.276E-02 0.242E+00
   -.423E-04 -.116E-04 -.214E+04   0.957E-04 0.140E-04 0.215E+04   0.261E-17 0.323E-17 -.464E+01   0.100E-01 0.462E-02 0.210E-01
   0.398E-05 -.417E-05 -.309E+03   0.605E-05 0.125E-06 0.312E+03   -.851E-20 -.371E-19 -.218E+01   0.187E-03 0.544E-05 -.418E-01
   0.320E-03 -.717E-03 0.654E+01   0.172E-13 -.105E-12 -.222E-11   -.522E-15 -.217E-15 -.957E+01   0.474E-01 0.205E-01 0.311E+01

 POSITION                                       TOTAL-FORCE (eV/Angst)
      0.00000      0.00000      5.28219        -0.000000      0.000000      0.012351
      2.93046      0.00000      5.28219         0.008627      0.017303      0.049902
      5.86091      0.00000      5.28219        -0.008627      0.017303      0.049902
      1.46523      2.53785      5.28219         0.019299     -0.001180      0.049902
      4.39568      2.53785      5.28219        -0.000000      0.000000      0.031236
      7.32614      2.53785      5.28219        -0.019299     -0.001180      0.049902
      2.93046      5.07570      5.28219         0.010671     -0.016123      0.049902
      5.86091      5.07570      5.28219        -0.010671     -0.016123      0.049902
      8.79137      5.07570      5.28219         0.000000     -0.000000      0.033426
      1.46523      0.84595      7.67490         0.002718      0.001569     -0.011562
      4.39568      0.84595      7.67490        -0.000000     -0.014655     -0.060622
      7.32614      0.84595      7.67490        -0.002718      0.001569     -0.011562
      2.93046      3.38380      7.67490        -0.012692      0.007327     -0.060622
      5.86091      3.38380      7.67490         0.012692      0.007327     -0.060622
      8.79137      3.38380      7.67490        -0.000000     -0.019751     -0.026296
      4.39568      5.92165      7.67490        -0.000000     -0.003138     -0.011562
      7.32614      5.92165      7.67490        -0.017105      0.009875     -0.026296
     10.25659      5.92165      7.67490         0.017105      0.009875     -0.026296
      8.79137      1.69533     10.05818         0.000000      0.010826      0.028853
      2.93805      1.69629     10.04232         0.003051      0.001761     -0.115270
      5.85331      1.69629     10.04232        -0.003051      0.001761     -0.115270
     10.25424      4.23111     10.04634         0.029286     -0.016908      0.003374
      4.39568      4.22098     10.04232        -0.000000     -0.003522     -0.115270
      7.32849      4.23111     10.04634        -0.029286     -0.016908      0.003374
     11.71886      6.76588     10.05818        -0.009376     -0.005413      0.028853
      5.86388      6.76588     10.05818         0.009376     -0.005413      0.028853
      8.79137      6.76488     10.04634         0.000000      0.033817      0.003374
      0.00000      0.00000     12.42348        -0.000000      0.000000     -0.020921
      2.96241      0.05505     12.41819         0.003341     -0.010414      0.000096
      5.82895      0.05505     12.41819        -0.003341     -0.010414      0.000096
      1.52888      2.53800     12.41819        -0.007348      0.008101      0.000096
      7.26249      2.53800     12.41819         0.007348      0.008101      0.000096
      2.96215      5.02050     12.41819        -0.010690      0.002314      0.000096
      5.82922      5.02050     12.41819         0.010690      0.002314      0.000096
      8.79137      5.07570     12.42030         0.000000      0.000000     -0.008178
      4.39568      2.53785     12.13895        -0.000000     -0.000000      0.233090
      4.39568      2.53785     13.62286        -0.000000      0.000000     -0.036420
    total drift:                                0.047700      0.019753      0.077288

  FREE ENERGIE OF THE ION-ELECTRON SYSTEM (eV)
  free  energy   TOTEN  =       -96.96458956 eV

  energy  without entropy=      -96.96458956  energy(sigma->0) =      -96.96458956

 stress matrix after NEB project (eV)
     -9.91508     -0.00000      0.00000
     -0.00000     -9.91508      0.00000
      0.00000     -0.00000     -1.16067
  FORCES: max atom, RMS     0.036420    0.005987
  FORCE total and by dimension    0.036420    0.036420
  Stress total and by dimension   14.069992    9.915077
|           W    W    AA    RRRRR   N    N  II  N    N   GGGG   !!!           |
|           W    W   A  A   R    R  NN   N  II  NN   N  G    G  !!!           |
|           W    W  A    A  R    R  N N  N  II  N N  N  G       !!!           |
|           W WW W  AAAAAA  RRRRR   N  N N  II  N  N N  G  GGG   !            |
|           WW  WW  A    A  R   R   N   NN  II  N   NN  G    G                |
|           W    W  A    A  R    R  N    N  II  N    N   GGGG   !!!           |
|     Tetrahedron method does not include variations of the Fermi             |
|     occupations, so forces and stress will be inaccurate. We suggest        |
|     using a different smearing scheme ISMEAR = 1 or 2 for metals in         |
|     relaxations.                                                            |

 total charge

# of ion       s       p       d       tot
    1        0.417   0.201   9.179   9.798
    2        0.418   0.203   9.177   9.798
    3        0.418   0.203   9.177   9.798
    4        0.418   0.203   9.177   9.798
    5        0.419   0.204   9.175   9.798
    6        0.418   0.203   9.177   9.798
    7        0.418   0.203   9.177   9.798
    8        0.418   0.203   9.177   9.798
    9        0.415   0.203   9.179   9.797
   10        0.406   0.269   9.165   9.839
   11        0.409   0.268   9.167   9.844
   12        0.406   0.269   9.165   9.839
   13        0.409   0.268   9.167   9.844
   14        0.409   0.268   9.167   9.844
   15        0.402   0.272   9.165   9.838
   16        0.406   0.269   9.165   9.839
   17        0.402   0.272   9.165   9.838
   18        0.402   0.272   9.165   9.838
   19        0.402   0.268   9.166   9.836
   20        0.424   0.285   9.154   9.863
   21        0.424   0.285   9.154   9.863
   22        0.400   0.275   9.166   9.841
   23        0.424   0.285   9.154   9.863
   24        0.400   0.275   9.166   9.841
   25        0.402   0.268   9.166   9.836
   26        0.402   0.268   9.166   9.836
   27        0.400   0.275   9.166   9.841
   28        0.413   0.194   9.182   9.789
   29        0.409   0.201   9.180   9.790
   30        0.409   0.201   9.180   9.790
   31        0.409   0.201   9.180   9.790
   32        0.409   0.201   9.180   9.790
   33        0.409   0.201   9.180   9.790
   34        0.409   0.201   9.180   9.790
   35        0.410   0.195   9.182   9.787
   36        0.438   0.341   8.383   9.163
   37        0.502   0.016   0.000   0.518
tot         15.302   8.686 329.369 353.357

 BZINTS: Fermi energy:    0.797674;  396.000000 electrons
         Band energy:-0.126900E+04;  BLOECHL correction:   -0.064961