 vasp.6.2.0 18Jan21 (build Jun 12 2021 23:27:24) complex

 executed on             LinuxIFC date 2022.05.30  18:46:47

 INCAR:
   ISMEAR = -5
   SIGMA = 0.1
   ISPIN = 1
   EDIFF = 1.d-5
   EDIFFG = -0.01
   NSW = 0
   NELM = 150
   ENCUT = 500
   ISIF = 2
   IBRION = 2
   LREAL = Auto
   ALGO = Fast
   ICHARG = 11
   LORBIT = 10
   LCHARG = .F.
   LWAVE = .F.

 POTCAR:    PAW_PBE Cu 22Jun2005
 POTCAR:    PAW_PBE Ir 06Sep2000
 POTCAR:    PAW_PBE O 08Apr2002
|           W    W    AA    RRRRR   N    N  II  N    N   GGGG   !!!           |
|           W    W   A  A   R    R  NN   N  II  NN   N  G    G  !!!           |
|           W    W  A    A  R    R  N N  N  II  N N  N  G       !!!           |
|           W WW W  AAAAAA  RRRRR   N  N N  II  N  N N  G  GGG   !            |
|           WW  WW  A    A  R   R   N   NN  II  N   NN  G    G                |
|           W    W  A    A  R    R  N    N  II  N    N   GGGG   !!!           |
|     For optimal performance we recommend to set                             |
|       NCORE = 2 up to number-of-cores-per-socket                            |
|     This setting can greatly improve the performance of VASP for DFT.       |
|     The default, NCORE=1 might be grossly inefficient on modern             |
|     multi-core architectures or massively parallel machines. Do your        |
|     Unfortunately you need to use the default for GW and RPA                |
|     calculations (for HF NCORE is supported but not extensively tested      |
|     yet).                                                                   |

 POTCAR:    PAW_PBE Cu 22Jun2005
   VRHFIN =Cu: d10 p1

   TITEL  = PAW_PBE Cu 22Jun2005
   POMASS =   63.546; ZVAL   =   11.000    mass and valenz
   ENMAX  =  295.446; ENMIN  =  221.585 eV

 POTCAR:    PAW_PBE Ir 06Sep2000
   VRHFIN =Ir: s1d8

   TITEL  = PAW_PBE Ir 06Sep2000
   POMASS =  192.220; ZVAL   =    9.000    mass and valenz
   ENMAX  =  210.864; ENMIN  =  158.148 eV

 POTCAR:    PAW_PBE O 08Apr2002
   VRHFIN =O: s2p4

   TITEL  = PAW_PBE O 08Apr2002
   POMASS =   16.000; ZVAL   =    6.000    mass and valenz
   ENMAX  =  400.000; ENMIN  =  300.000 eV

 Optimization of the real space projectors (new method)

 maximal supplied QI-value         = 16.25
 optimisation between [QCUT,QGAM] = [ 11.38, 22.75] = [ 36.24,144.96] Ry
 Optimized for a Real-space Cutoff    1.52 Angstroem

   l    n(q)    QCUT    max X(q) W(low)/X(q) W(high)/X(q)  e(spline)
   2      9    11.376     4.610    0.21E-03    0.10E-03    0.26E-06
   2      9    11.376     8.522    0.33E-03    0.16E-03    0.37E-06
   0     10    11.376    51.609    0.62E-04    0.20E-04    0.13E-06
   0     10    11.376    27.747    0.54E-04    0.20E-04    0.13E-06
   1     10    11.376    20.408    0.13E-04    0.99E-04    0.19E-06
   1     10    11.376    13.425    0.12E-04    0.87E-04    0.17E-06
 Optimization of the real space projectors (new method)

[...]

   l    n(q)    QCUT    max X(q) W(low)/X(q) W(high)/X(q)  e(spline)
   2      9    11.346   134.116    0.47E-03    0.13E-03    0.92E-06
   2      9    11.346   130.192    0.47E-03    0.13E-03    0.92E-06
   0     10    11.346    60.310    0.74E-04    0.13E-03    0.69E-06
   0     10    11.346    39.218    0.68E-04    0.12E-03    0.65E-06
   1     10    11.346    18.439    0.15E-03    0.34E-04    0.20E-06
   1     10    11.346    12.760    0.12E-03    0.31E-04    0.16E-06
 Optimization of the real space projectors (new method)

 maximal supplied QI-value         = 24.76
 optimisation between [QCUT,QGAM] = [ 11.39, 22.77] = [ 36.31,145.25] Ry
 Optimized for a Real-space Cutoff    1.00 Angstroem

   l    n(q)    QCUT    max X(q) W(low)/X(q) W(high)/X(q)  e(spline)
   0      7    11.387    20.381    0.39E-03    0.13E-02    0.15E-06
   0      7    11.387    15.268    0.42E-03    0.14E-02    0.17E-06
   1      6    11.387     5.964    0.41E-03    0.11E-02    0.17E-06
   1      6    11.387     5.382    0.39E-03    0.87E-03    0.15E-06
  PAW_PBE Cu 22Jun2005                  :
  PAW_PBE Ir 06Sep2000                  :
  PAW_PBE O 08Apr2002                   :

 POSCAR: Cu-Ir-O2
  positions in direct lattice
  velocities in cartesian coordinates
 exchange correlation table for  LEXCH =        8
   RHO(1)=    0.500       N(1)  =     2000
   RHO(2)=  100.500       N(2)  =     4000

 VTST: version 3.2, (02/03/18)

 CHAIN: initializing optimizer

 OPT: Using VASP Conjugate-Gradient optimizer
 CHAIN: Read ICHAIN            0

 POSCAR: Cu-Ir-O2
  positions in direct lattice
  velocities in cartesian coordinates

 ion  position               nearest neighbor table
   1  0.000  0.000  0.226-   7 2.57   3 2.57   4 2.57   2 2.57   6 2.57   8 2.57  12 2.57  10 2.57
                            16 2.57
   2  0.333  0.000  0.226-   8 2.57   9 2.57   5 2.57   1 2.57   3 2.57  11 2.57   4 2.57  10 2.57
                            17 2.57
   3  0.667  0.000  0.226-   1 2.57   7 2.57   6 2.57   9 2.57   2 2.57  12 2.57   5 2.57  18 2.57
                            11 2.57
   4  0.000  0.333  0.226-   5 2.57   6 2.57   1 2.57   7 2.57   2 2.57  13 2.57   9 2.57  10 2.57
                            15 2.57
   5  0.333  0.333  0.226-   4 2.57   2 2.57   7 2.57  13 2.57   8 2.57   6 2.57   3 2.57  11 2.57
                            14 2.57
   6  0.667  0.333  0.226-   4 2.57   9 2.57  15 2.57   3 2.57   1 2.57   8 2.57  14 2.57   5 2.57
                            12 2.57
   7  0.000  0.667  0.226-   1 2.57   3 2.57  16 2.57  18 2.57   4 2.57   5 2.57   8 2.57   9 2.57
                            13 2.57
   8  0.333  0.667  0.226-   9 2.57   2 2.57  17 2.57   6 2.57   1 2.57   7 2.57   5 2.57  14 2.57
                            16 2.57
   9  0.667  0.667  0.226-   8 2.57   6 2.57   2 2.57  17 2.57   3 2.57   7 2.57   4 2.57  15 2.57
                            18 2.57
  10  0.111  0.111  0.314-  20 2.53  11 2.57  12 2.57  13 2.57   1 2.57   2 2.57   4 2.57  15 2.57
                            16 2.57  17 2.57  26 2.57  19 2.57
  11  0.444  0.111  0.314-  20 2.55  21 2.55  10 2.57  13 2.57   2 2.57  17 2.57  14 2.57  12 2.57
                             5 2.57   3 2.57  18 2.57  27 2.57
  12  0.778  0.111  0.314-  21 2.53  15 2.57  10 2.57  14 2.57  18 2.57   3 2.57   1 2.57  16 2.57
                            11 2.57   6 2.57  19 2.57  25 2.57
  13  0.111  0.444  0.314-  23 2.55  20 2.55  16 2.57  18 2.57  10 2.57  11 2.57  14 2.57   5 2.57
                             4 2.57   7 2.57  15 2.57  22 2.57
  14  0.444  0.444  0.314-  21 2.55  23 2.55  15 2.57  17 2.57  12 2.57  16 2.57  13 2.57  11 2.57
                             6 2.57   8 2.57   5 2.57  24 2.57
  15  0.778  0.444  0.314-  19 2.56  24 2.56  22 2.56  14 2.57  17 2.57  12 2.57   6 2.57  18 2.57
                            10 2.57   9 2.57  13 2.57   4 2.57
  16  0.111  0.778  0.314-  23 2.53  18 2.57  13 2.57   7 2.57  14 2.57  17 2.57  12 2.57  10 2.57
                             8 2.57   1 2.57  25 2.57  26 2.57
  17  0.444  0.778  0.314-  26 2.56  27 2.56  24 2.56  14 2.57  15 2.57   8 2.57   9 2.57  11 2.57
                            16 2.57  18 2.57  10 2.57   2 2.57
  18  0.778  0.778  0.314-  25 2.56  22 2.56  27 2.56  16 2.57  13 2.57   7 2.57  15 2.57  12 2.57
                            17 2.57   9 2.57   3 2.57  11 2.57
  19  0.888  0.223  0.402-  28 2.55  21 2.55  20 2.55  22 2.56  24 2.56  15 2.56  32 2.56  31 2.56
                            12 2.57  10 2.57  25 2.58  26 2.58
  20  0.221  0.221  0.401-  10 2.53  11 2.55  13 2.55  26 2.55  19 2.55  36 2.55  27 2.57  22 2.57
                            29 2.59  31 2.59  23 2.59  21 2.59
  21  0.558  0.221  0.401-  12 2.53  14 2.55  11 2.55  19 2.55  25 2.55  36 2.55  24 2.57  27 2.57
                            32 2.59  30 2.59  20 2.59  23 2.59
  22  0.888  0.556  0.402-  35 2.54  24 2.56  27 2.56  19 2.56  25 2.56  18 2.56  15 2.56  13 2.57
                            23 2.57  20 2.57  31 2.57  33 2.57
  23  0.221  0.558  0.401-  16 2.53  13 2.55  14 2.55  25 2.55  26 2.55  36 2.55  22 2.57  24 2.57
                            33 2.59  34 2.59  20 2.59  21 2.59
  24  0.556  0.556  0.402-  35 2.54  22 2.56  27 2.56  19 2.56  26 2.56  15 2.56  17 2.56  14 2.57
                            21 2.57  23 2.57  32 2.57  34 2.57
  25  0.888  0.888  0.402-  28 2.55  21 2.55  23 2.55  22 2.56  27 2.56  18 2.56  33 2.56  30 2.56
                            16 2.57  12 2.57  19 2.58  26 2.58
  26  0.223  0.888  0.402-  28 2.55  20 2.55  23 2.55  27 2.56  24 2.56  17 2.56  29 2.56  34 2.56
                            10 2.57  16 2.57  25 2.58  19 2.58
  27  0.556  0.888  0.402-  35 2.54  24 2.56  22 2.56  26 2.56  25 2.56  17 2.56  18 2.56  11 2.57
                            20 2.57  21 2.57  29 2.57  30 2.57
  28  0.000  0.000  0.489-  25 2.55  19 2.55  26 2.55  33 2.56  30 2.56  31 2.56  29 2.56  32 2.56
                            34 2.56
  29  0.333  0.999  0.490-  34 2.55  28 2.56  26 2.56  35 2.57  31 2.57  27 2.57  36 2.57  30 2.58
                            20 2.59
  30  0.668  0.999  0.490-  33 2.55  28 2.56  25 2.56  35 2.57  32 2.57  27 2.57  36 2.57  29 2.58
                            21 2.59
  31  0.999  0.333  0.490-  32 2.55  28 2.56  19 2.56  35 2.57  29 2.57  22 2.57  36 2.57  33 2.58
                            20 2.59
  32  0.668  0.333  0.490-  31 2.55  28 2.56  19 2.56  35 2.57  30 2.57  24 2.57  36 2.57  34 2.58
                            21 2.59
  33  0.999  0.668  0.490-  30 2.55  28 2.56  25 2.56  35 2.57  34 2.57  22 2.57  36 2.57  31 2.58
                            23 2.59
  34  0.333  0.668  0.490-  29 2.55  28 2.56  26 2.56  35 2.57  33 2.57  24 2.57  36 2.57  32 2.58
                            23 2.59
  35  0.667  0.667  0.489-  24 2.54  27 2.54  22 2.54  34 2.57  32 2.57  29 2.57  30 2.57  33 2.57
                            31 2.57
  36  0.333  0.333  0.488-  37 2.09  38 2.09  23 2.55  20 2.55  21 2.55  31 2.57  29 2.57  33 2.57
                            34 2.57  32 2.57  30 2.57
  37  0.245  0.329  0.570-  38 1.40  36 2.09
  38  0.427  0.329  0.570-  37 1.40  36 2.09

  LATTYP: Found a hexagonal cell.
 ALAT       =     7.6967864036
 C/A-ratio  =     3.0908716217

  Lattice vectors:

 A1 = (  -3.8483927580,  -6.6656128093,   0.0000000000)
 A2 = (   7.6967864037,   0.0000000000,   0.0000000000)
 A3 = (   0.0000000000,   0.0000000000,  23.7897786731)

Analysis of symmetry for initial positions (statically):
 Subroutine PRICEL returns:
 Original cell was already a primitive cell.

 Routine SETGRP: Setting up the symmetry group for a
 hexagonal supercell.

 Subroutine GETGRP returns: Found  2 space group operations
 (whereof  2 operations were pure point group operations)
 out of a pool of 24 trial point group operations.

The static configuration has the point symmetry C_1h.

Analysis of symmetry for dynamics (positions and initial velocities):
 Subroutine PRICEL returns:
 Original cell was already a primitive cell.

[...]

The dynamic configuration has the point symmetry C_1h.

Analysis of constrained symmetry for selective dynamics:
 Subroutine PRICEL returns:
 Original cell was already a primitive cell.

 Routine SETGRP: Setting up the symmetry group for a
 hexagonal supercell.

[...]
     33      -4.6337      2.00000
     34      -4.6094      2.00000
     35      -4.5937      2.00000
     36      -4.5870      2.00000
     37      -4.5785      2.00000
     38      -4.5652      2.00000
     39      -4.5458      2.00000
     40      -4.4929      2.00000
     41      -4.4291      2.00000
     42      -4.3238      2.00000
     43      -4.2770      2.00000
     44      -4.2732      2.00000
     45      -4.2168      2.00000
     46      -4.2020      2.00000
     47      -4.1880      2.00000
     48      -4.1614      2.00000
     49      -4.1568      2.00000
     50      -4.1462      2.00000
     51      -4.0224      2.00000
     52      -3.9748      2.00000
     53      -3.9514      2.00000
     54      -3.9366      2.00000
     55      -3.9137      2.00000
     56      -3.8811      2.00000
     57      -3.8668      2.00000
     58      -3.8572      2.00000
     59      -3.8502      2.00000
     60      -3.8418      2.00000
[...]
    238       5.3284      0.00000
    239       5.4989      0.00000
    240       5.6664      0.00000
    241       5.7673      0.00000
    242       5.9050      0.00000
    243       6.0432      0.00000
    244       6.0602      0.00000
    245       6.1710      0.00000
    246       6.2096      0.00000
    247       6.3793      0.00000
    248       6.3915      0.00000
    249       6.6215      0.00000
    250       6.7211      0.00000
    251       6.7507      0.00000
    252       6.8613      0.00000

 soft charge-density along one line, spin component           1
         0         1         2         3         4         5         6         7         8         9
 total charge-density along one line

------------------------ aborting loop because EDIFF is reached ----------------------------------------

 total charge

# of ion       s       p       d       tot
    1        0.447   0.284   9.188   9.919
    2        0.449   0.283   9.188   9.920
    3        0.449   0.283   9.188   9.920
    4        0.449   0.285   9.187   9.920
    5        0.446   0.287   9.183   9.917
    6        0.449   0.285   9.187   9.920
    7        0.450   0.285   9.186   9.920
    8        0.450   0.285   9.186   9.920
    9        0.446   0.284   9.188   9.918
   10        0.442   0.373   9.174   9.989
   11        0.443   0.367   9.183   9.994
   12        0.442   0.373   9.174   9.989
   13        0.444   0.366   9.184   9.994
   14        0.444   0.366   9.184   9.994
   15        0.437   0.371   9.178   9.986
   16        0.441   0.372   9.177   9.991
   17        0.437   0.369   9.181   9.987
   18        0.437   0.369   9.181   9.987
   19        0.440   0.368   9.186   9.994
   20        0.452   0.395   9.167  10.015
   21        0.452   0.395   9.167  10.015
   22        0.433   0.371   9.183   9.987
   23        0.446   0.400   9.166  10.012
   24        0.433   0.371   9.183   9.987
   25        0.441   0.371   9.181   9.992
   26        0.441   0.371   9.181   9.992
   27        0.433   0.370   9.184   9.987
   28        0.453   0.287   9.194   9.934
   29        0.445   0.299   9.192   9.935
   30        0.445   0.299   9.192   9.935
   31        0.439   0.303   9.192   9.935
   32        0.439   0.303   9.192   9.935
   33        0.444   0.299   9.192   9.936
   34        0.444   0.299   9.192   9.936
   35        0.447   0.289   9.195   9.930
   36        0.661   0.625   7.021   8.307
   37        1.607   3.250   0.000   4.857
   38        1.607   3.250   0.000   4.857
tot         19.405  18.802 328.456 366.663

  FORCE on cell =-STRESS in cart. coord.  units (eV):
  Direction    XX          YY          ZZ          XY          YZ          ZX
  Alpha Z   831.61004   831.61004   831.61004
  Ewald  225418.26993225027.97188************     0.00041     0.61513     0.00019
  Hartree238212.06920238025.10115************     0.00005     1.85212     0.00007
  E(xc)   -2346.94612 -2348.15556 -2351.49982    -0.00031    -0.04923    -0.00004
  Local  ************************476500.10509     0.02051    -2.86495    -0.00079
  n-local  -806.40593  -814.95773  -825.13684     1.98936     0.00776     0.06248
  augment  3355.38145  3363.57994  3373.95173    -0.01854     0.16602     0.00039
  Kinetic  3481.84132  3541.58400  3523.15071     1.17580     0.41908    -0.17095
  Fock        0.00000     0.00000     0.00000     0.00000     0.00000     0.00000
  Total      -2.67203    -3.87816    -0.35669     0.00000     0.14593    -0.00000
  in kB      -3.50762    -5.09093    -0.46824     0.00000     0.19157    -0.00000

 VOLUME and BASIS-vectors are now :
  energy-cutoff  :      500.00
  volume of cell :     1220.51
      direct lattice vectors                 reciprocal lattice vectors
     7.696786404  0.000000000  0.000000000     0.129924354 -0.075011849  0.000000000
     3.848392758  6.665612809  0.000000000     0.000000000  0.150023716  0.000000000
     0.000000000  0.000000000 23.789778673     0.000000000  0.000000000  0.042034859

  length of vectors
     7.696786404  7.696786404 23.789778673     0.150023716  0.150023716  0.042034859

 FORCES acting on ions
    electron-ion (+dipol)            ewald-force                    non-local-force                 convergence-correction
   -.415E-04 -.173E-01 0.378E+04   0.579E-04 -.324E-01 -.377E+04   -.105E-08 0.158E-01 -.312E+01   -.335E-03 0.251E-01 -.518E+00
   0.517E-01 0.319E+00 0.378E+04   -.568E-01 -.216E+00 -.377E+04   -.465E-01 -.228E-01 -.190E+01   0.553E-01 -.591E-01 -.414E+00
   -.517E-01 0.319E+00 0.378E+04   0.567E-01 -.216E+00 -.377E+04   0.465E-01 -.228E-01 -.190E+01   -.545E-01 -.565E-01 -.413E+00
   0.122E+00 -.870E-01 0.378E+04   -.188E+00 0.509E-01 -.377E+04   0.603E-01 0.209E-01 -.195E+01   0.144E-01 0.151E-01 -.489E+00
   -.639E-04 0.834E-01 0.378E+04   0.116E-03 0.870E-02 -.377E+04   0.222E-08 -.334E-01 -.176E+01   0.122E-01 -.555E-01 -.311E+00
   -.122E+00 -.869E-01 0.378E+04   0.187E+00 0.508E-01 -.377E+04   -.603E-01 0.209E-01 -.195E+01   -.161E-01 0.163E-01 -.487E+00
   0.366E+00 -.191E+00 0.378E+04   -.130E+00 0.165E+00 -.377E+04   -.851E-01 0.809E-03 -.191E+01   -.121E+00 0.147E-01 -.391E+00
   -.366E+00 -.191E+00 0.378E+04   0.130E+00 0.165E+00 -.377E+04   0.851E-01 0.809E-03 -.191E+01   0.125E+00 0.132E-01 -.390E+00
   -.144E-03 -.243E+00 0.378E+04   0.263E-03 0.238E-01 -.377E+04   -.626E-08 0.940E-01 -.245E+01   -.133E-01 0.119E+00 -.418E+00
   0.408E+01 0.258E+01 0.134E+04   -.351E+01 -.224E+01 -.134E+04   -.593E+00 -.301E+00 -.115E+01   0.314E-01 -.313E-01 -.178E+00
   -.857E-04 0.137E+01 0.133E+04   0.191E-03 -.151E+01 -.133E+04   -.590E-08 0.886E-01 -.618E+00   0.118E-01 -.912E-02 -.155E+00
   -.408E+01 0.258E+01 0.134E+04   0.351E+01 -.224E+01 -.134E+04   0.593E+00 -.301E+00 -.115E+01   -.334E-01 -.292E-01 -.177E+00
   0.987E+00 -.830E+00 0.133E+04   -.110E+01 0.843E+00 -.133E+04   0.644E-01 -.186E-03 -.504E+00   0.884E-02 0.108E-01 -.772E-01
   -.987E+00 -.830E+00 0.133E+04   0.110E+01 0.843E+00 -.133E+04   -.644E-01 -.186E-03 -.504E+00   0.156E-01 0.984E-02 -.771E-01
   -.141E-03 -.294E+00 0.134E+04   0.299E-03 0.144E+00 -.133E+04   -.594E-08 0.892E-01 -.874E+00   -.407E-02 0.515E-01 -.225E+00
   -.890E-04 -.464E+01 0.134E+04   0.186E-03 0.406E+01 -.134E+04   -.372E-07 0.559E+00 -.121E+01   -.148E-03 -.319E-02 -.140E+00
   -.979E-01 -.910E-02 0.133E+04   -.398E-01 0.485E-01 -.133E+04   0.412E-01 -.401E-01 -.695E+00   0.838E-01 0.148E-01 -.276E+00
   0.980E-01 -.907E-02 0.133E+04   0.395E-01 0.485E-01 -.133E+04   -.412E-01 -.401E-01 -.695E+00   -.831E-01 0.178E-01 -.275E+00
   -.567E-04 0.267E+01 -.113E+04   0.670E-04 -.280E+01 0.113E+04   -.736E-08 0.110E+00 0.984E+00   -.250E-02 -.197E-01 -.386E-01
   -.156E+02 -.777E+01 -.111E+04   0.165E+02 0.853E+01 0.111E+04   -.912E+00 -.815E+00 -.115E+01   0.107E+00 0.787E-01 -.803E-01
   0.156E+02 -.777E+01 -.111E+04   -.165E+02 0.853E+01 0.111E+04   0.912E+00 -.815E+00 -.115E+01   -.830E-01 0.802E-01 -.808E-01
   -.105E+02 0.455E+01 -.113E+04   0.987E+01 -.405E+01 0.113E+04   0.596E+00 -.439E+00 0.107E+01   0.952E-01 -.925E-01 -.125E+00
   -.824E-04 0.161E+02 -.111E+04   0.144E-03 -.171E+02 0.112E+04   -.630E-07 0.946E+00 -.626E+00   0.120E-01 -.117E+00 -.362E-01
   0.105E+02 0.455E+01 -.113E+04   -.987E+01 -.405E+01 0.113E+04   -.596E+00 -.439E+00 0.107E+01   -.978E-01 -.938E-01 -.125E+00
   -.200E+01 -.716E-01 -.113E+04   0.189E+01 0.830E-01 0.113E+04   0.630E-01 -.148E-01 0.806E+00   0.684E-01 0.168E-01 -.655E-01
   0.200E+01 -.716E-01 -.113E+04   -.189E+01 0.830E-01 0.113E+04   -.630E-01 -.148E-01 0.806E+00   -.677E-01 0.140E-01 -.650E-01
   -.117E-03 -.115E+02 -.113E+04   0.244E-03 0.107E+02 0.113E+04   -.494E-07 0.742E+00 0.106E+01   -.997E-03 0.859E-01 -.133E+00
   -.382E-04 0.770E+01 -.359E+04   0.324E-04 -.761E+01 0.358E+04   0.119E-07 -.179E+00 0.215E+01   -.251E-03 0.508E-01 0.104E+00
   0.972E+01 0.359E+02 -.356E+04   -.978E+01 -.373E+02 0.356E+04   -.434E-02 0.114E+01 0.284E+01   -.965E-01 -.594E-01 -.593E-01
   -.972E+01 0.359E+02 -.356E+04   0.978E+01 -.373E+02 0.356E+04   0.434E-02 0.114E+01 0.284E+01   0.975E-01 -.571E-01 -.596E-01
   0.404E+02 -.396E+01 -.354E+04   -.422E+02 0.427E+01 0.354E+04   0.145E+01 -.231E+00 0.349E+01   -.102E+00 -.505E-01 -.168E-01
   -.404E+02 -.396E+01 -.354E+04   0.422E+02 0.427E+01 0.354E+04   -.145E+01 -.231E+00 0.349E+01   0.101E+00 -.495E-01 -.181E-01
   0.116E+02 -.303E+02 -.357E+04   -.120E+02 0.313E+02 0.356E+04   0.244E+00 -.862E+00 0.266E+01   -.357E-01 0.905E-01 -.104E+00
   -.116E+02 -.303E+02 -.357E+04   0.120E+02 0.313E+02 0.356E+04   -.244E+00 -.862E+00 0.266E+01   0.390E-01 0.892E-01 -.105E+00
   -.166E-03 -.609E+01 -.359E+04   0.260E-03 0.588E+01 0.359E+04   -.179E-07 0.269E+00 0.247E+01   -.133E-01 -.276E-01 0.928E-01
   -.500E-04 -.477E+01 -.263E+04   0.113E-03 0.486E+01 0.263E+04   -.795E-08 0.119E+00 0.411E+01   0.208E-02 0.745E-02 -.589E+00
   0.217E+03 -.238E+00 -.234E+04   -.253E+03 0.196E+00 0.236E+04   0.355E+02 0.371E-01 -.170E+02   -.296E+00 -.340E-02 -.171E+00
   -.217E+03 -.238E+00 -.234E+04   0.253E+03 0.196E+00 0.236E+04   -.355E+02 0.371E-01 -.170E+02   0.297E+00 -.331E-02 -.171E+00
   0.119E-03 0.282E+00 0.377E+02   0.284E-13 -.143E-12 -.500E-11   0.153E-07 -.230E+00 -.306E+02   0.547E-01 0.413E-02 -.726E+01

 POSITION                                       TOTAL-FORCE (eV/Angst)
      0.00000      0.00000      5.37156         0.000000     -0.010169      0.047803
      2.56560      0.00000      5.37156         0.003434      0.021337      0.074674
      5.13119      0.00000      5.37156        -0.003434      0.021337      0.074674
      1.28280      2.22187      5.37156         0.009738     -0.001030      0.082638
      3.84839      2.22187      5.37156        -0.000000      0.001631      0.055612
      6.41399      2.22187      5.37156        -0.009738     -0.001030      0.082638
      2.56560      4.44374      5.37156         0.027887     -0.013192      0.076309
      5.13119      4.44374      5.37156        -0.027887     -0.013192      0.076309
      7.69679      4.44374      5.37156         0.000000     -0.008032      0.047604
      1.28280      0.74062      7.46636         0.013868      0.006893     -0.053166
      3.84839      0.74062      7.46636         0.000000     -0.056095     -0.129761
      6.41399      0.74062      7.46636        -0.013868      0.006893     -0.053166
      2.56560      2.96249      7.46636        -0.055383      0.021717     -0.127371
      5.13119      2.96249      7.46636         0.055383      0.021717     -0.127371
      7.69679      2.96249      7.46636         0.000000     -0.010824     -0.007410
      3.84839      5.18437      7.46636         0.000000     -0.026384     -0.048983
      6.41399      5.18437      7.46636        -0.012997      0.014152      0.006823
      8.97958      5.18437      7.46636         0.012997      0.014152      0.006823
      7.69679      1.48769      9.56171         0.000000     -0.036057      0.009235
      2.55203      1.47342      9.53141         0.039767      0.019186     -0.078566
      5.14476      1.47342      9.53141        -0.039767      0.019186     -0.078566
      8.97489      3.70583      9.56026         0.061166     -0.041359      0.025203
      3.84839      3.71878      9.53141         0.000000     -0.143203     -0.055766
      6.41868      3.70583      9.56026        -0.061166     -0.041359      0.025203
     10.25680      5.92177      9.56171         0.020643      0.010550     -0.001512
      5.13677      5.92177      9.56171        -0.020643      0.010550     -0.001512
      7.69679      5.91957      9.56026        -0.000000      0.013445      0.008460
      0.00000      0.00000     11.63002         0.000000     -0.044513      0.002412
      6.40663      6.66047     11.66109        -0.160976     -0.296597     -0.142254
      8.98694      6.66047     11.66109         0.160976     -0.296597     -0.142254
      8.97145      2.21807     11.66109        -0.462371      0.027764     -0.283798
      6.42212      2.21807     11.66109         0.462371      0.027764     -0.283798
     10.26160      4.45269     11.66109        -0.184236      0.276646     -0.123967
      5.13197      4.45269     11.66109         0.184236      0.276646     -0.123967
      7.69679      4.44374     11.62915        -0.000000      0.032279      0.032466
      3.84839      2.22187     11.60012        -0.000000      0.215562      1.233638
      3.14802      2.19030     13.57199        -0.121452     -0.009887     -0.052666
      4.54876      2.19030     13.57199         0.121452     -0.009887     -0.052666
    total drift:                                0.054816      0.056453     -0.129942

  FREE ENERGIE OF THE ION-ELECTRON SYSTEM (eV)
  free  energy   TOTEN  =      -140.69417000 eV

  energy  without entropy=     -140.69417000  energy(sigma->0) =     -140.69417000

 stress matrix after NEB project (eV)
     -2.67203      0.00000     -0.00000
      0.00000     -3.87816      0.14593
     -0.00000      0.14593     -0.35669
  FORCES: max atom, RMS     0.132748    0.030455
  FORCE total and by dimension    0.187734    0.121452
  Stress total and by dimension    4.727551    3.878165
|           W    W    AA    RRRRR   N    N  II  N    N   GGGG   !!!           |
|           W    W   A  A   R    R  NN   N  II  NN   N  G    G  !!!           |
|           W    W  A    A  R    R  N N  N  II  N N  N  G       !!!           |
|           W WW W  AAAAAA  RRRRR   N  N N  II  N  N N  G  GGG   !            |
|           WW  WW  A    A  R   R   N   NN  II  N   NN  G    G                |
|           W    W  A    A  R    R  N    N  II  N    N   GGGG   !!!           |
|     Tetrahedron method does not include variations of the Fermi             |
|     occupations, so forces and stress will be inaccurate. We suggest        |
|     using a different smearing scheme ISMEAR = 1 or 2 for metals in         |
|     relaxations.                                                            |

 total charge

# of ion       s       p       d       tot
    1        0.447   0.284   9.188   9.919
    2        0.449   0.283   9.188   9.920
    3        0.449   0.283   9.188   9.920
    4        0.449   0.285   9.187   9.920
    5        0.446   0.287   9.183   9.917
    6        0.449   0.285   9.187   9.920
    7        0.450   0.285   9.186   9.920
    8        0.450   0.285   9.186   9.920
    9        0.446   0.284   9.188   9.918
   10        0.442   0.373   9.174   9.989
   11        0.443   0.367   9.183   9.994
   12        0.442   0.373   9.174   9.989
   13        0.444   0.366   9.184   9.994
   14        0.444   0.366   9.184   9.994
   15        0.437   0.371   9.178   9.986
   16        0.441   0.372   9.177   9.991
   17        0.437   0.369   9.181   9.987
   18        0.437   0.369   9.181   9.987
   19        0.440   0.368   9.186   9.994
   20        0.452   0.395   9.167  10.015
   21        0.452   0.395   9.167  10.015
   22        0.433   0.371   9.183   9.987
   23        0.446   0.400   9.166  10.012
   24        0.433   0.371   9.183   9.987
   25        0.441   0.371   9.181   9.992
   26        0.441   0.371   9.181   9.992
   27        0.433   0.370   9.184   9.987
   28        0.453   0.287   9.194   9.934
   29        0.445   0.299   9.192   9.935
   30        0.445   0.299   9.192   9.935
   31        0.439   0.303   9.192   9.935
   32        0.439   0.303   9.192   9.935
   33        0.444   0.299   9.192   9.936
   34        0.444   0.299   9.192   9.936
   35        0.447   0.289   9.195   9.930
   36        0.661   0.625   7.021   8.307
   37        1.607   3.250   0.000   4.857
   38        1.607   3.250   0.000   4.857
tot         19.405  18.802 328.456 366.663

 BZINTS: Fermi energy:   -0.497124;  406.000000 electrons
         Band energy:-0.142289E+04;  BLOECHL correction:   -0.046204