 vasp.6.2.0 18Jan21 (build Jun 12 2021 23:27:24) complex

 executed on             LinuxIFC date 2022.05.28  01:05:16

 INCAR:
   ISMEAR = -5
   SIGMA = 0.1
   ISPIN = 1
   EDIFF = 1.d-5
   EDIFFG = -0.01
   NSW = 0
   NELM = 150
   ENCUT = 500
   ISIF = 2
   IBRION = 2
   LREAL = Auto
   ALGO = Fast
   ICHARG = 11
   LORBIT = 10
   LCHARG = .F.
   LWAVE = .F.

 POTCAR:    PAW_PBE Au 04Oct2007
 POTCAR:    PAW_PBE Hf 20Jan2003
 POTCAR:    PAW_PBE H 15Jun2001
 POTCAR:    PAW_PBE O 08Apr2002
|           W    W    AA    RRRRR   N    N  II  N    N   GGGG   !!!           |
|           W    W   A  A   R    R  NN   N  II  NN   N  G    G  !!!           |
|           W    W  A    A  R    R  N N  N  II  N N  N  G       !!!           |
|           W WW W  AAAAAA  RRRRR   N  N N  II  N  N N  G  GGG   !            |
|           WW  WW  A    A  R   R   N   NN  II  N   NN  G    G                |
|           W    W  A    A  R    R  N    N  II  N    N   GGGG   !!!           |
|     For optimal performance we recommend to set                             |
|       NCORE = 2 up to number-of-cores-per-socket                            |
|     This setting can greatly improve the performance of VASP for DFT.       |
|     The default, NCORE=1 might be grossly inefficient on modern             |
|     multi-core architectures or massively parallel machines. Do your        |
|     Unfortunately you need to use the default for GW and RPA                |
|     calculations (for HF NCORE is supported but not extensively tested      |
|     yet).                                                                   |

 POTCAR:    PAW_PBE Au 04Oct2007
   VRHFIN =Au: s1d10

   TITEL  = PAW_PBE Au 04Oct2007
   POMASS =  196.966; ZVAL   =   11.000    mass and valenz
   ENMAX  =  229.943; ENMIN  =  172.457 eV

 POTCAR:    PAW_PBE Hf 20Jan2003
   VRHFIN =Hf: 6s5d

   TITEL  = PAW_PBE Hf 20Jan2003
   POMASS =  178.490; ZVAL   =    4.000    mass and valenz
   ENMAX  =  220.334; ENMIN  =  165.250 eV

 POTCAR:    PAW_PBE H 15Jun2001
   VRHFIN =H: ultrasoft test

   TITEL  = PAW_PBE H 15Jun2001
   POMASS =    1.000; ZVAL   =    1.000    mass and valenz
   ENMAX  =  250.000; ENMIN  =  200.000 eV

 POTCAR:    PAW_PBE O 08Apr2002
   VRHFIN =O: s2p4

   TITEL  = PAW_PBE O 08Apr2002
   POMASS =   16.000; ZVAL   =    6.000    mass and valenz
   ENMAX  =  400.000; ENMIN  =  300.000 eV

 Optimization of the real space projectors (new method)

 maximal supplied QI-value         = 15.12
 optimisation between [QCUT,QGAM] = [ 11.34, 22.83] = [ 36.00,145.93] Ry
 Optimized for a Real-space Cutoff    1.39 Angstroem

   l    n(q)    QCUT    max X(q) W(low)/X(q) W(high)/X(q)  e(spline)
   2      9    11.338    60.898    0.39E-03    0.42E-03    0.21E-06
   2      9    11.338    58.894    0.40E-03    0.42E-03    0.22E-06
   0      9    11.338   109.617    0.13E-03    0.20E-04    0.13E-06
   0      9    11.338    75.026    0.13E-03    0.20E-04    0.13E-06
   1      9    11.338    16.344    0.33E-04    0.24E-03    0.18E-06
   1      9    11.338    10.160    0.26E-04    0.19E-03    0.15E-06
 Optimization of the real space projectors (new method)

[...]

   l    n(q)    QCUT    max X(q) W(low)/X(q) W(high)/X(q)  e(spline)
   0      8    11.287    19.460    0.40E-03    0.73E-03    0.16E-06
   0      8    11.287    12.209    0.38E-03    0.70E-03    0.15E-06
   1      7    11.287     4.655    0.22E-03    0.25E-04    0.22E-06
 Optimization of the real space projectors (new method)

 maximal supplied QI-value         = 24.76
 optimisation between [QCUT,QGAM] = [ 11.39, 22.77] = [ 36.31,145.25] Ry
 Optimized for a Real-space Cutoff    1.00 Angstroem

   l    n(q)    QCUT    max X(q) W(low)/X(q) W(high)/X(q)  e(spline)
   0      7    11.387    20.381    0.39E-03    0.13E-02    0.15E-06
   0      7    11.387    15.268    0.42E-03    0.14E-02    0.17E-06
   1      6    11.387     5.964    0.41E-03    0.11E-02    0.17E-06
   1      6    11.387     5.382    0.39E-03    0.87E-03    0.15E-06
  PAW_PBE Au 04Oct2007                  :
  PAW_PBE Hf 20Jan2003                  :
  PAW_PBE H 15Jun2001                   :
  PAW_PBE O 08Apr2002                   :

 POSCAR: Au-Hf-H2O
  positions in direct lattice
  velocities in cartesian coordinates
 exchange correlation table for  LEXCH =        8
   RHO(1)=    0.500       N(1)  =     2000
   RHO(2)=  100.500       N(2)  =     4000

 VTST: version 3.2, (02/03/18)

 CHAIN: initializing optimizer

 OPT: Using VASP Conjugate-Gradient optimizer
 CHAIN: Read ICHAIN            0

 POSCAR: Au-Hf-H2O
  positions in direct lattice
  velocities in cartesian coordinates

 ion  position               nearest neighbor table
   1  0.000  0.000  0.213-  16 2.94  12 2.94   6 2.94   8 2.94   7 2.94   3 2.94  10 2.94   4 2.94
                             2 2.94
   2  0.333  0.000  0.213-   9 2.94  11 2.94  17 2.94  10 2.94   8 2.94   4 2.94   5 2.94   1 2.94
                             3 2.94
   3  0.667  0.000  0.213-   7 2.94  18 2.94  12 2.94   1 2.94  11 2.94   5 2.94   6 2.94   9 2.94
                             2 2.94
   4  0.000  0.333  0.213-  10 2.94   6 2.94   5 2.94  13 2.94   2 2.94  15 2.94   9 2.94   1 2.94
                             7 2.94
   5  0.333  0.333  0.213-  13 2.94   7 2.94  11 2.94   4 2.94   2 2.94  14 2.94   3 2.94   8 2.94
                             6 2.94
   6  0.667  0.333  0.213-  15 2.94  14 2.94   1 2.94  12 2.94   4 2.94   9 2.94   8 2.94   3 2.94
                             5 2.94
   7  0.000  0.667  0.213-  18 2.94   3 2.94  16 2.94   5 2.94   1 2.94  13 2.94   8 2.94   4 2.94
                             9 2.94
   8  0.333  0.667  0.213-   9 2.94  17 2.94   1 2.94   2 2.94  14 2.94  16 2.94   6 2.94   7 2.94
                             5 2.94
   9  0.667  0.667  0.213-   2 2.94   8 2.94  17 2.94   6 2.94  15 2.94   4 2.94   3 2.94  18 2.94
                             7 2.94
  10  0.111  0.111  0.310-  20 2.93  26 2.94  19 2.94  11 2.94  17 2.94   2 2.94   4 2.94   1 2.94
                            12 2.94  16 2.94  13 2.94  15 2.94
  11  0.444  0.111  0.310-  20 2.92  21 2.92  13 2.94   2 2.94  10 2.94  17 2.94   5 2.94   3 2.94
                            18 2.94  14 2.94  12 2.94  27 2.94
  12  0.778  0.111  0.310-  21 2.93  25 2.94  19 2.94  16 2.94  18 2.94   1 2.94  14 2.94  15 2.94
                             3 2.94   6 2.94  10 2.94  11 2.94
  13  0.111  0.444  0.310-  23 2.92  20 2.92   5 2.94  18 2.94  11 2.94   7 2.94   4 2.94  16 2.94
                            10 2.94  14 2.94  15 2.94  22 2.94
  14  0.444  0.444  0.310-  21 2.92  23 2.92  15 2.94   6 2.94  12 2.94   8 2.94  17 2.94   5 2.94
                            16 2.94  13 2.94  11 2.94  24 2.94
  15  0.778  0.444  0.310-  24 2.93  22 2.93  19 2.94  14 2.94   6 2.94  17 2.94  12 2.94   9 2.94
                             4 2.94  10 2.94  13 2.94  18 2.94
  16  0.111  0.778  0.310-  23 2.93  25 2.94  26 2.94  18 2.94  12 2.94   7 2.94   1 2.94   8 2.94
                            13 2.94  10 2.94  14 2.94  17 2.94
  17  0.444  0.778  0.310-  27 2.93  24 2.93  26 2.94   9 2.94  15 2.94   2 2.94  10 2.94  11 2.94
                             8 2.94  14 2.94  16 2.94  18 2.94
  18  0.778  0.778  0.310-  22 2.93  27 2.93  25 2.94  16 2.94   7 2.94  13 2.94  12 2.94   3 2.94
                            11 2.94   9 2.94  15 2.94  17 2.94
  19  0.889  0.222  0.407-  15 2.94  10 2.94  12 2.94  24 2.94  22 2.94  26 2.94  25 2.94  21 2.94
                            20 2.94  28 2.96  32 3.04  31 3.04
  20  0.223  0.223  0.407-  36 2.81  11 2.92  13 2.92  23 2.93  21 2.93  10 2.93  26 2.94  19 2.94
                            27 2.95  22 2.95  29 2.99  31 2.99
  21  0.555  0.223  0.407-  36 2.81  14 2.92  11 2.92  20 2.93  23 2.93  12 2.93  25 2.94  19 2.94
                            27 2.95  24 2.95  30 2.99  32 2.99
  22  0.887  0.556  0.407-  24 2.92  27 2.92  18 2.93  15 2.93  25 2.94  19 2.94  13 2.94  23 2.95
                            20 2.95  35 2.96  33 3.01  31 3.01
  23  0.223  0.555  0.407-  36 2.81  13 2.92  14 2.92  20 2.93  21 2.93  16 2.93  25 2.94  26 2.94
                            22 2.95  24 2.95  33 2.99  34 2.99
  24  0.556  0.556  0.407-  27 2.92  22 2.92  15 2.93  17 2.93  26 2.94  19 2.94  14 2.94  21 2.95
                            23 2.95  35 2.96  32 3.01  34 3.01
  25  0.889  0.889  0.407-  18 2.94  16 2.94  12 2.94  22 2.94  27 2.94  19 2.94  26 2.94  23 2.94
                            21 2.94  28 2.96  33 3.04  30 3.04
  26  0.222  0.889  0.407-  17 2.94  10 2.94  16 2.94  27 2.94  24 2.94  19 2.94  25 2.94  20 2.94
                            23 2.94  28 2.96  29 3.04  34 3.04
  27  0.556  0.887  0.407-  24 2.92  22 2.92  17 2.93  18 2.93  26 2.94  25 2.94  11 2.94  20 2.95
                            21 2.95  35 2.96  29 3.01  30 3.01
  28  0.000  0.000  0.505-  25 2.96  19 2.96  26 2.96  34 2.98  32 2.98  33 2.98  30 2.98  31 2.98
                            29 2.98
  29  0.334  0.008  0.508-  30 2.86  31 2.87  36 2.88  35 2.97  28 2.98  20 2.99  27 3.01  26 3.04
                            34 3.08
  30  0.658  0.008  0.508-  29 2.86  32 2.87  36 2.88  35 2.97  28 2.98  21 2.99  27 3.01  25 3.04
                            33 3.08
  31  0.008  0.334  0.508-  33 2.86  29 2.87  36 2.88  35 2.97  28 2.98  20 2.99  22 3.01  19 3.04
                            32 3.08
  32  0.658  0.334  0.508-  34 2.86  30 2.87  36 2.88  35 2.97  28 2.98  21 2.99  24 3.01  19 3.04
                            31 3.08
  33  0.008  0.658  0.508-  31 2.86  34 2.87  36 2.88  35 2.97  28 2.98  23 2.99  22 3.01  25 3.04
                            30 3.08
  34  0.334  0.658  0.508-  32 2.86  33 2.87  36 2.88  35 2.97  28 2.98  23 2.99  24 3.01  26 3.04
                            29 3.08
  35  0.667  0.667  0.505-  24 2.96  27 2.96  22 2.96  29 2.97  34 2.97  32 2.97  31 2.97  30 2.97
                            33 2.97
  36  0.333  0.333  0.498-  39 2.27  20 2.81  23 2.81  21 2.81  33 2.88  31 2.88  29 2.88  30 2.88
                            34 2.88  32 2.88
  37  0.279  0.260  0.600-  39 0.98
  38  0.461  0.255  0.600-  39 0.98
  39  0.338  0.324  0.589-  38 0.98  37 0.98  36 2.27

  LATTYP: Found a hexagonal cell.
 ALAT       =     8.8135128021
 C/A-ratio  =     2.8075332270

  Lattice vectors:

 A1 = (  -4.4067569092,  -7.6327256898,   0.0000000000)
 A2 = (   8.8135128021,   0.0000000000,   0.0000000000)
 A3 = (   0.0000000000,   0.0000000000,  24.7442300386)

Analysis of symmetry for initial positions (statically):
 Subroutine PRICEL returns:
 Original cell was already a primitive cell.

 Routine SETGRP: Setting up the symmetry group for a
 hexagonal supercell.

 Subroutine GETGRP returns: Found  1 space group operations
 (whereof  1 operations were pure point group operations)
 out of a pool of 24 trial point group operations.

The static configuration has the point symmetry C_1 .

Analysis of symmetry for dynamics (positions and initial velocities):
 Subroutine PRICEL returns:
 Original cell was already a primitive cell.

[...]

The dynamic configuration has the point symmetry C_1 .

Analysis of constrained symmetry for selective dynamics:
 Subroutine PRICEL returns:
[...]
     41      -4.7664      2.00000
     42      -4.7470      2.00000
     43      -4.6833      2.00000
     44      -4.6380      2.00000
     45      -4.6130      2.00000
     46      -4.5972      2.00000
     47      -4.5665      2.00000
     48      -4.5429      2.00000
     49      -4.5176      2.00000
     50      -4.4345      2.00000
     51      -4.4277      2.00000
     52      -4.3817      2.00000
     53      -4.3617      2.00000
     54      -4.3554      2.00000
     55      -4.3483      2.00000
     56      -4.3265      2.00000
     57      -4.3004      2.00000
     58      -4.2661      2.00000
     59      -4.2277      2.00000
     60      -4.2255      2.00000
[...]
    238       5.9174      0.00000
    239       6.0324      0.00000
    240       6.0914      0.00000
    241       6.1734      0.00000
    242       6.3175      0.00000
    243       6.4035      0.00000
    244       6.4633      0.00000
    245       6.5145      0.00000
    246       6.5833      0.00000
    247       6.6327      0.00000
    248       6.6733      0.00000
    249       6.7504      0.00000
    250       6.7716      0.00000
    251       6.8656      0.00000
    252       6.9537      0.00000

 soft charge-density along one line, spin component           1
         0         1         2         3         4         5         6         7         8         9
 total charge-density along one line

------------------------ aborting loop because EDIFF is reached ----------------------------------------

 total charge

# of ion       s       p       d       tot
    1        0.551   0.238   8.766   9.554
    2        0.542   0.241   8.765   9.549
    3        0.542   0.241   8.765   9.549
    4        0.542   0.242   8.765   9.549
    5        0.543   0.242   8.762   9.547
    6        0.542   0.242   8.765   9.549
    7        0.542   0.241   8.765   9.549
    8        0.542   0.241   8.765   9.549
    9        0.545   0.240   8.766   9.551
   10        0.523   0.307   8.770   9.601
   11        0.520   0.307   8.778   9.604
   12        0.523   0.307   8.770   9.601
   13        0.518   0.307   8.778   9.604
   14        0.518   0.307   8.778   9.603
   15        0.516   0.308   8.773   9.597
   16        0.522   0.308   8.771   9.601
   17        0.516   0.309   8.772   9.597
   18        0.516   0.309   8.772   9.597
   19        0.524   0.299   8.767   9.590
   20        0.573   0.338   8.730   9.641
   21        0.573   0.338   8.730   9.641
   22        0.511   0.306   8.773   9.591
   23        0.571   0.338   8.731   9.640
   24        0.511   0.306   8.773   9.591
   25        0.523   0.298   8.769   9.590
   26        0.523   0.298   8.769   9.590
   27        0.512   0.307   8.772   9.591
   28        0.543   0.235   8.751   9.529
   29        0.605   0.257   8.724   9.586
   30        0.605   0.258   8.723   9.586
   31        0.605   0.257   8.722   9.584
   32        0.605   0.257   8.722   9.584
   33        0.601   0.251   8.728   9.579
   34        0.600   0.251   8.728   9.579
   35        0.539   0.237   8.753   9.529
   36        0.539   0.547   1.799   2.885
   37        0.594   0.117   0.000   0.710
   38        0.594   0.117   0.000   0.710
   39        1.565   3.634   0.000   5.199
tot         22.382  14.183 308.310 344.875

  FORCE on cell =-STRESS in cart. coord.  units (eV):
  Direction    XX          YY          ZZ          XY          YZ          ZX
  Alpha Z   910.29048   910.29048   910.29048
  Ewald  152496.76729152424.89927************    -1.88144    -8.97165    -0.63036
  Hartree160874.85181160862.00150************    -0.34861    10.47848     0.06663
  E(xc)   -1779.85916 -1780.11958 -1787.29351    -0.00698    -0.02228    -0.00213
  Local  ************************325483.04020     1.70262    -9.63602     0.29493
  n-local   -64.60783   -65.40175   -35.11635    -0.01288    -0.27468    -0.00629
  augment  2368.27400  2369.62724  2388.97572     0.03279     0.45481     0.01554
  Kinetic  5509.65276  5529.92034  5589.68372     0.51316     7.81955     0.25711
  Fock        0.00000     0.00000     0.00000     0.00000     0.00000     0.00000
  Total     -21.25655   -21.27815     1.88604    -0.00134    -0.15179    -0.00457
  in kB     -20.45977   -20.48056     1.81534    -0.00129    -0.14610    -0.00439

 VOLUME and BASIS-vectors are now :
  energy-cutoff  :      500.00
  volume of cell :     1664.57
      direct lattice vectors                 reciprocal lattice vectors
     8.813512802  0.000000000  0.000000000     0.113462137 -0.065507406  0.000000000
     4.406756909  7.632725690  0.000000000     0.000000000  0.131014796  0.000000000
     0.000000000  0.000000000 24.744230039     0.000000000  0.000000000  0.040413462

  length of vectors
     8.813512802  8.813512802 24.744230039     0.131014796  0.131014796  0.040413462

 FORCES acting on ions
    electron-ion (+dipol)            ewald-force                    non-local-force                 convergence-correction
   0.240E-02 0.124E-01 0.266E+04   -.305E-04 -.122E-01 -.266E+04   0.191E-03 -.397E-02 -.408E+00   -.267E-02 0.766E-02 -.868E-01
   -.201E-02 -.378E+00 0.266E+04   -.253E-01 0.280E+00 -.266E+04   -.772E-02 0.589E-01 -.285E+00   0.363E-01 0.311E-01 -.621E-01
   -.136E-02 -.393E+00 0.266E+04   0.253E-01 0.281E+00 -.266E+04   0.825E-02 0.595E-01 -.286E+00   -.333E-01 0.441E-01 -.583E-01
   -.340E+00 0.160E+00 0.266E+04   0.241E+00 -.146E+00 -.266E+04   0.499E-01 -.361E-01 -.277E+00   0.386E-01 0.224E-01 -.594E-01
   -.171E-01 -.239E-01 0.266E+04   0.435E-03 0.224E-01 -.266E+04   0.200E-03 -.496E-02 -.346E-01   0.165E-01 0.479E-02 -.714E-01
   0.352E+00 0.157E+00 0.266E+04   -.241E+00 -.146E+00 -.266E+04   -.503E-01 -.366E-01 -.277E+00   -.505E-01 0.268E-01 -.515E-01
   -.321E+00 0.221E+00 0.266E+04   0.266E+00 -.134E+00 -.266E+04   0.456E-01 -.250E-01 -.315E+00   0.248E-02 -.566E-01 -.610E-01
   0.311E+00 0.229E+00 0.266E+04   -.266E+00 -.135E+00 -.266E+04   -.458E-01 -.247E-01 -.319E+00   0.792E-02 -.649E-01 -.585E-01
   0.152E-01 0.435E-01 0.266E+04   -.875E-04 -.985E-02 -.266E+04   -.225E-04 -.817E-02 -.241E+00   -.153E-01 -.241E-01 -.793E-02
   -.467E+00 -.288E+00 0.880E+03   0.572E+00 0.349E+00 -.879E+03   -.202E+00 -.130E+00 -.571E+00   0.683E-01 0.545E-01 -.227E+00
   -.185E-01 -.173E+01 0.878E+03   0.153E-02 0.167E+01 -.877E+03   0.874E-03 -.385E-01 -.232E+00   0.162E-01 0.359E-01 -.219E+00
   0.483E+00 -.304E+00 0.880E+03   -.574E+00 0.351E+00 -.879E+03   0.201E+00 -.130E+00 -.571E+00   -.811E-01 0.675E-01 -.221E+00
   -.149E+01 0.738E+00 0.878E+03   0.144E+01 -.699E+00 -.877E+03   -.239E-01 0.130E-01 -.230E+00   0.286E-01 -.179E-01 -.222E+00
   0.146E+01 0.741E+00 0.878E+03   -.144E+01 -.699E+00 -.877E+03   0.239E-01 0.137E-01 -.231E+00   -.110E-02 -.214E-01 -.217E+00
   0.210E-01 0.236E+01 0.883E+03   -.227E-02 -.246E+01 -.882E+03   -.483E-03 0.188E-01 -.466E+00   -.184E-01 0.385E-01 -.242E+00
   -.790E-02 0.686E+00 0.880E+03   0.126E-02 -.811E+00 -.879E+03   0.156E-02 0.245E+00 -.596E+00   0.496E-02 -.893E-01 -.227E+00
   0.215E+01 -.108E+01 0.883E+03   -.224E+01 0.115E+01 -.882E+03   0.794E-02 -.852E-02 -.481E+00   0.468E-01 -.428E-01 -.247E+00
   -.214E+01 -.110E+01 0.883E+03   0.224E+01 0.115E+01 -.882E+03   -.849E-02 -.807E-02 -.481E+00   -.504E-01 -.252E-01 -.246E+00
   0.392E-01 -.560E+01 -.908E+03   -.140E-01 0.560E+01 0.908E+03   -.109E-02 -.529E-01 0.446E+00   -.244E-01 0.486E-01 0.357E-01
   -.219E+02 -.135E+02 -.925E+03   0.229E+02 0.141E+02 0.926E+03   -.109E+01 -.647E+00 -.118E+01   0.117E+00 0.684E-01 0.888E-01
   0.219E+02 -.135E+02 -.925E+03   -.229E+02 0.141E+02 0.926E+03   0.109E+01 -.645E+00 -.118E+01   -.869E-01 0.781E-01 0.832E-01
   -.168E+02 0.943E+01 -.904E+03   0.165E+02 -.926E+01 0.903E+03   0.295E+00 -.147E+00 0.597E+00   0.193E-01 -.323E-01 0.329E-01
   -.400E-01 0.252E+02 -.927E+03   0.173E-01 -.263E+02 0.928E+03   0.807E-03 0.128E+01 -.107E+01   0.221E-01 -.125E+00 0.638E-01
   0.169E+02 0.945E+01 -.904E+03   -.165E+02 -.927E+01 0.903E+03   -.295E+00 -.149E+00 0.601E+00   -.457E-01 -.418E-01 0.330E-01
   0.419E+01 0.345E+01 -.909E+03   -.421E+01 -.344E+01 0.908E+03   0.626E-01 0.120E-02 0.535E+00   -.378E-01 -.295E-02 0.383E-01
   -.418E+01 0.349E+01 -.909E+03   0.421E+01 -.346E+01 0.908E+03   -.609E-01 0.215E-02 0.540E+00   0.303E-01 -.253E-01 0.391E-01
   0.105E-01 -.183E+02 -.903E+03   -.207E-02 0.179E+02 0.902E+03   -.138E-02 0.332E+00 0.565E+00   -.706E-02 0.373E-01 0.410E-01
   0.227E-01 0.257E+01 -.258E+04   -.157E-01 -.264E+01 0.258E+04   -.439E-03 0.433E-01 0.216E+00   -.627E-02 0.162E-01 0.197E+00
   0.631E+01 0.172E+01 -.258E+04   -.517E+01 0.665E-01 0.258E+04   -.132E+01 -.202E+01 -.932E+00   0.815E-01 0.990E-01 0.209E+00
   -.637E+01 0.165E+01 -.258E+04   0.521E+01 0.135E+00 0.258E+04   0.132E+01 -.203E+01 -.956E+00   -.656E-01 0.110E+00 0.206E+00
   -.385E+00 -.235E+00 -.258E+04   0.265E+01 0.369E+00 0.258E+04   -.249E+01 -.146E+00 -.980E+00   0.119E+00 0.160E-01 0.216E+00
   0.602E+00 -.283E+00 -.258E+04   -.287E+01 0.414E+00 0.258E+04   0.248E+01 -.147E+00 -.961E+00   -.113E+00 0.198E-01 0.205E+00
   -.807E+01 0.255E+01 -.259E+04   0.902E+01 -.446E+01 0.259E+04   -.106E+01 0.212E+01 -.558E+00   0.325E-01 -.997E-01 0.206E+00
   0.799E+01 0.270E+01 -.259E+04   -.896E+01 -.459E+01 0.259E+04   0.106E+01 0.211E+01 -.547E+00   -.890E-02 -.105E+00 0.197E+00
   0.757E-01 0.200E+01 -.259E+04   -.583E-01 -.200E+01 0.259E+04   0.144E-02 0.757E-02 0.426E+00   -.195E-01 -.762E-02 0.192E+00
   -.708E-01 -.482E+01 -.847E+03   0.676E-01 0.479E+01 0.846E+03   0.297E-02 0.104E+00 0.139E+01   0.198E-02 -.734E-02 0.596E-01
   0.677E+02 0.379E+02 -.283E+03   -.745E+02 -.418E+02 0.286E+03   0.683E+01 0.392E+01 -.228E+01   0.470E-02 0.303E-02 -.559E-02
   -.659E+02 0.412E+02 -.283E+03   0.725E+02 -.454E+02 0.285E+03   -.665E+01 0.425E+01 -.225E+01   -.445E-02 0.299E-02 -.550E-02
   -.120E+01 -.557E+02 -.156E+04   0.212E+01 0.952E+02 0.155E+04   -.921E+00 -.394E+02 0.996E+01   -.528E-02 -.731E-02 -.506E-01
   0.720E+00 0.313E+02 0.517E+01   0.138E-13 -.284E-12 0.136E-11   -.732E+00 -.313E+02 -.393E+01   0.178E-01 0.363E-01 -.505E+00

 POSITION                                       TOTAL-FORCE (eV/Angst)
      0.00000      0.00000      5.28038        -0.000268      0.003042     -0.088879
      2.93784      0.00000      5.28038         0.001141     -0.008929     -0.010251
      5.87568      0.00000      5.28038        -0.001292     -0.009175     -0.010314
      1.46892      2.54424      5.28038        -0.010639     -0.000271     -0.008452
      4.40676      2.54424      5.28038        -0.000037     -0.002501      0.020749
      7.34459      2.54424      5.28038         0.010419     -0.000160     -0.008139
      2.93784      5.08848      5.28038        -0.006797      0.004418     -0.007943
      5.87568      5.08848      5.28038         0.006411      0.004225     -0.007915
      8.81351      5.08848      5.28038        -0.000318      0.000569     -0.024758
      1.46892      0.84808      7.67911        -0.028966     -0.016338      0.008506
      4.40676      0.84808      7.67911        -0.000049     -0.064172     -0.038473
      7.34459      0.84808      7.67911         0.028646     -0.016406      0.008548
      2.93784      3.39232      7.67911        -0.050072      0.033132     -0.033884
      5.87568      3.39232      7.67911         0.050311      0.033139     -0.033850
      8.81351      3.39232      7.67911        -0.000338     -0.040565      0.086417
      4.40676      5.93656      7.67911        -0.000269      0.030326      0.004083
      7.34459      5.93656      7.67911        -0.034970      0.017295      0.090465
     10.28243      5.93656      7.67911         0.034878      0.017307      0.090216
      8.81351      1.69636     10.07469        -0.000369     -0.000696     -0.027150
      2.94338      1.69936     10.06127        -0.045172     -0.026268     -0.088380
      5.87013      1.69936     10.06127         0.045489     -0.026296     -0.088897
     10.27220      4.24631     10.06987         0.012668     -0.012795     -0.016975
      4.40676      4.23400     10.06127         0.000063      0.070589     -0.080198
      7.35483      4.24631     10.06987        -0.013884     -0.013426     -0.016036
     11.75117      6.78454     10.07469         0.002267      0.004164     -0.032657
      5.87585      6.78454     10.07469        -0.003287      0.004360     -0.032994
      8.81351      6.77283     10.06987        -0.000142      0.021219     -0.020118
      0.00000      0.00000     12.49672         0.000102     -0.014169     -0.078776
      2.97727      0.06002     12.55884        -0.093338     -0.137815     -0.054111
      5.83624      0.06002     12.55884         0.092598     -0.134650     -0.050373
      1.54061      2.54838     12.55884        -0.106758      0.002994     -0.028575
      7.27290      2.54838     12.55884         0.106733      0.002394     -0.030871
      2.97010      5.02433     12.55884        -0.077904      0.108969     -0.082382
      5.84341      5.02433     12.55884         0.078704      0.110501     -0.084612
      8.81351      5.08848     12.50791        -0.000839     -0.002567      0.019084
      4.40676      2.54424     12.31155         0.001567      0.067646      0.766416
      3.60349      1.98138     14.85619        -0.000330     -0.001884     -0.006526
      5.18544      1.94292     14.85200         0.007218     -0.007654     -0.000652
      4.40626      2.47404     14.57782        -0.003178      0.000449     -0.001342
    total drift:                                0.006126      0.031687      0.732393

  FREE ENERGIE OF THE ION-ELECTRON SYSTEM (eV)
  free  energy   TOTEN  =      -133.13930343 eV

  energy  without entropy=     -133.13930343  energy(sigma->0) =     -133.13930343

 stress matrix after NEB project (eV)
    -21.25655     -0.00134     -0.00457
     -0.00134    -21.27815     -0.15179
     -0.00457     -0.15179      1.88604
  FORCES: max atom, RMS     0.010541    0.002084
  FORCE total and by dimension    0.013018    0.007654
  Stress total and by dimension   30.136418   21.278147
|           W    W    AA    RRRRR   N    N  II  N    N   GGGG   !!!           |
|           W    W   A  A   R    R  NN   N  II  NN   N  G    G  !!!           |
|           W    W  A    A  R    R  N N  N  II  N N  N  G       !!!           |
|           W WW W  AAAAAA  RRRRR   N  N N  II  N  N N  G  GGG   !            |
|           WW  WW  A    A  R   R   N   NN  II  N   NN  G    G                |
|           W    W  A    A  R    R  N    N  II  N    N   GGGG   !!!           |
|     Tetrahedron method does not include variations of the Fermi             |
|     occupations, so forces and stress will be inaccurate. We suggest        |
|     using a different smearing scheme ISMEAR = 1 or 2 for metals in         |
|     relaxations.                                                            |

 total charge

# of ion       s       p       d       tot
    1        0.551   0.238   8.766   9.554
    2        0.542   0.241   8.765   9.549
    3        0.542   0.241   8.765   9.549
    4        0.542   0.242   8.765   9.549
    5        0.543   0.242   8.762   9.547
    6        0.542   0.242   8.765   9.549
    7        0.542   0.241   8.765   9.549
    8        0.542   0.241   8.765   9.549
    9        0.545   0.240   8.766   9.551
   10        0.523   0.307   8.770   9.601
   11        0.520   0.307   8.778   9.604
   12        0.523   0.307   8.770   9.601
   13        0.518   0.307   8.778   9.604
   14        0.518   0.307   8.778   9.603
   15        0.516   0.308   8.773   9.597
   16        0.522   0.308   8.771   9.601
   17        0.516   0.309   8.772   9.597
   18        0.516   0.309   8.772   9.597
   19        0.524   0.299   8.767   9.590
   20        0.573   0.338   8.730   9.641
   21        0.573   0.338   8.730   9.641
   22        0.511   0.306   8.773   9.591
   23        0.571   0.338   8.731   9.640
   24        0.511   0.306   8.773   9.591
   25        0.523   0.298   8.769   9.590
   26        0.523   0.298   8.769   9.590
   27        0.512   0.307   8.772   9.591
   28        0.543   0.235   8.751   9.529
   29        0.605   0.257   8.724   9.586
   30        0.605   0.258   8.723   9.586
   31        0.605   0.257   8.722   9.584
   32        0.605   0.257   8.722   9.584
   33        0.601   0.251   8.728   9.579
   34        0.600   0.251   8.728   9.579
   35        0.539   0.237   8.753   9.529
   36        0.539   0.547   1.799   2.885
   37        0.594   0.117   0.000   0.710
   38        0.594   0.117   0.000   0.710
   39        1.565   3.634   0.000   5.199
tot         22.382  14.183 308.310 344.875

 BZINTS: Fermi energy:    0.507037;  397.000000 electrons
         Band energy:-0.137383E+04;  BLOECHL correction:   -0.040901