 vasp.6.2.0 18Jan21 (build Jun 12 2021 23:27:24) complex

 executed on             LinuxIFC date 2022.05.26  19:18:45

 INCAR:
   ISMEAR = -5
   SIGMA = 0.1
   ISPIN = 1
   EDIFF = 1.d-5
   EDIFFG = -0.01
   NSW = 0
   NELM = 150
   ENCUT = 500
   ISIF = 2
   IBRION = 2
   LREAL = Auto
   ALGO = Fast
   ICHARG = 11
   LORBIT = 10
   LCHARG = .F.
   LWAVE = .F.

 POTCAR:    PAW_PBE Au 04Oct2007
 POTCAR:    PAW_PBE Cr 06Sep2000
 POTCAR:    PAW_PBE H 15Jun2001
|           W    W    AA    RRRRR   N    N  II  N    N   GGGG   !!!           |
|           W    W   A  A   R    R  NN   N  II  NN   N  G    G  !!!           |
|           W    W  A    A  R    R  N N  N  II  N N  N  G       !!!           |
|           W WW W  AAAAAA  RRRRR   N  N N  II  N  N N  G  GGG   !            |
|           WW  WW  A    A  R   R   N   NN  II  N   NN  G    G                |
|           W    W  A    A  R    R  N    N  II  N    N   GGGG   !!!           |
|     For optimal performance we recommend to set                             |
|       NCORE = 2 up to number-of-cores-per-socket                            |
|     This setting can greatly improve the performance of VASP for DFT.       |
|     The default, NCORE=1 might be grossly inefficient on modern             |
|     multi-core architectures or massively parallel machines. Do your        |
|     Unfortunately you need to use the default for GW and RPA                |
|     calculations (for HF NCORE is supported but not extensively tested      |
|     yet).                                                                   |

 POTCAR:    PAW_PBE Au 04Oct2007
   VRHFIN =Au: s1d10

   TITEL  = PAW_PBE Au 04Oct2007
   POMASS =  196.966; ZVAL   =   11.000    mass and valenz
   ENMAX  =  229.943; ENMIN  =  172.457 eV

 POTCAR:    PAW_PBE Cr 06Sep2000
   VRHFIN =Cr : d5 s1

   TITEL  = PAW_PBE Cr 06Sep2000
   POMASS =   51.996; ZVAL   =    6.000    mass and valenz
   ENMAX  =  227.080; ENMIN  =  170.310 eV

 POTCAR:    PAW_PBE H 15Jun2001
   VRHFIN =H: ultrasoft test

   TITEL  = PAW_PBE H 15Jun2001
   POMASS =    1.000; ZVAL   =    1.000    mass and valenz
   ENMAX  =  250.000; ENMIN  =  200.000 eV

 Optimization of the real space projectors (new method)

 maximal supplied QI-value         = 15.12
 optimisation between [QCUT,QGAM] = [ 11.34, 22.83] = [ 36.00,145.93] Ry
 Optimized for a Real-space Cutoff    1.39 Angstroem

   l    n(q)    QCUT    max X(q) W(low)/X(q) W(high)/X(q)  e(spline)
   2      9    11.338    60.898    0.39E-03    0.42E-03    0.21E-06
   2      9    11.338    58.894    0.40E-03    0.42E-03    0.22E-06
   0      9    11.338   109.617    0.13E-03    0.20E-04    0.13E-06
   0      9    11.338    75.026    0.13E-03    0.20E-04    0.13E-06
   1      9    11.338    16.344    0.33E-04    0.24E-03    0.18E-06
   1      9    11.338    10.160    0.26E-04    0.19E-03    0.15E-06
 Optimization of the real space projectors (new method)

[...]

   l    n(q)    QCUT    max X(q) W(low)/X(q) W(high)/X(q)  e(spline)
   2      9    11.338    94.395    0.18E-03    0.10E-02    0.64E-06
   2      9    11.338    88.078    0.18E-03    0.10E-02    0.65E-06
   0     10    11.338    50.173    0.13E-03    0.16E-03    0.96E-07
   0     10    11.338    24.906    0.12E-03    0.14E-03    0.88E-07
   1      9    11.338    12.133    0.13E-03    0.15E-03    0.24E-06
   1      9    11.338     7.290    0.10E-03    0.10E-03    0.18E-06
 Optimization of the real space projectors (new method)

 maximal supplied QI-value         = 34.20
 optimisation between [QCUT,QGAM] = [ 11.29, 22.57] = [ 35.68,142.71] Ry
 Optimized for a Real-space Cutoff    1.16 Angstroem

   l    n(q)    QCUT    max X(q) W(low)/X(q) W(high)/X(q)  e(spline)
   0      8    11.287    19.460    0.40E-03    0.73E-03    0.16E-06
   0      8    11.287    12.209    0.38E-03    0.70E-03    0.15E-06
   1      7    11.287     4.655    0.22E-03    0.25E-04    0.22E-06
  PAW_PBE Au 04Oct2007                  :
  PAW_PBE Cr 06Sep2000                  :
  PAW_PBE H 15Jun2001                   :

 POSCAR: Au-Cr-H
  positions in direct lattice
  velocities in cartesian coordinates
 exchange correlation table for  LEXCH =        8
   RHO(1)=    0.500       N(1)  =     2000
   RHO(2)=  100.500       N(2)  =     4000

 VTST: version 3.2, (02/03/18)

 CHAIN: initializing optimizer

 OPT: Using VASP Conjugate-Gradient optimizer
 CHAIN: Read ICHAIN            0

 POSCAR: Au-Cr-H
  positions in direct lattice
  velocities in cartesian coordinates

 ion  position               nearest neighbor table
   1  0.000  0.000  0.238-  16 2.94  12 2.94   6 2.94   8 2.94   7 2.94   3 2.94  10 2.94   4 2.94
                             2 2.94
   2  0.333  0.000  0.238-   9 2.94  11 2.94  17 2.94  10 2.94   8 2.94   4 2.94   5 2.94   1 2.94
                             3 2.94
   3  0.667  0.000  0.238-   7 2.94  18 2.94  12 2.94   1 2.94  11 2.94   5 2.94   6 2.94   9 2.94
                             2 2.94
   4  0.000  0.333  0.238-  10 2.94   6 2.94   5 2.94  13 2.94   2 2.94  15 2.94   9 2.94   1 2.94
                             7 2.94
   5  0.333  0.333  0.238-  13 2.94   7 2.94  11 2.94   4 2.94   2 2.94  14 2.94   3 2.94   8 2.94
                             6 2.94
   6  0.667  0.333  0.238-  15 2.94  14 2.94   1 2.94  12 2.94   4 2.94   9 2.94   8 2.94   3 2.94
                             5 2.94
   7  0.000  0.667  0.238-  18 2.94   3 2.94  16 2.94   5 2.94   1 2.94  13 2.94   8 2.94   4 2.94
                             9 2.94
   8  0.333  0.667  0.238-   9 2.94  17 2.94   1 2.94   2 2.94  14 2.94  16 2.94   6 2.94   7 2.94
                             5 2.94
   9  0.667  0.667  0.238-   2 2.94   8 2.94  17 2.94   6 2.94  15 2.94   4 2.94   3 2.94  18 2.94
                             7 2.94
  10  0.111  0.111  0.346-  20 2.92  26 2.94  19 2.94  11 2.94  17 2.94   2 2.94   4 2.94   1 2.94
                            12 2.94  16 2.94  13 2.94  15 2.94
  11  0.444  0.111  0.346-  20 2.91  21 2.91  27 2.93  13 2.94   2 2.94  10 2.94  17 2.94   5 2.94
                             3 2.94  18 2.94  14 2.94  12 2.94
  12  0.778  0.111  0.346-  21 2.92  25 2.94  19 2.94  16 2.94  18 2.94   1 2.94  14 2.94  15 2.94
                             3 2.94   6 2.94  10 2.94  11 2.94
  13  0.111  0.444  0.346-  23 2.91  20 2.91  22 2.93   5 2.94  18 2.94  11 2.94   7 2.94   4 2.94
                            16 2.94  10 2.94  14 2.94  15 2.94
  14  0.444  0.444  0.346-  21 2.91  23 2.91  24 2.93  15 2.94   6 2.94  12 2.94   8 2.94  17 2.94
                             5 2.94  16 2.94  13 2.94  11 2.94
  15  0.778  0.444  0.346-  24 2.92  22 2.92  19 2.94  14 2.94   6 2.94  17 2.94  12 2.94   9 2.94
                             4 2.94  10 2.94  13 2.94  18 2.94
  16  0.111  0.778  0.346-  23 2.92  25 2.94  26 2.94  18 2.94  12 2.94   7 2.94   1 2.94   8 2.94
                            13 2.94  10 2.94  14 2.94  17 2.94
  17  0.444  0.778  0.346-  27 2.92  24 2.92  26 2.94   9 2.94  15 2.94   2 2.94  10 2.94  11 2.94
                             8 2.94  14 2.94  16 2.94  18 2.94
  18  0.778  0.778  0.346-  22 2.92  27 2.92  25 2.94  16 2.94   7 2.94  13 2.94  12 2.94   3 2.94
                            11 2.94   9 2.94  15 2.94  17 2.94
  19  0.889  0.222  0.454-  10 2.94  12 2.94  15 2.94  26 2.94  25 2.94  24 2.94  22 2.94  28 2.95
                            21 2.95  20 2.95  32 3.00  31 3.00
  20  0.223  0.223  0.453-  36 2.71  11 2.91  13 2.91  23 2.91  21 2.91  29 2.92  31 2.92  10 2.92
                            26 2.95  19 2.95  27 2.96  22 2.96
  21  0.553  0.223  0.453-  36 2.71  14 2.91  11 2.91  20 2.91  23 2.91  30 2.92  32 2.92  12 2.92
                            25 2.95  19 2.95  27 2.96  24 2.96
  22  0.886  0.557  0.453-  24 2.90  27 2.90  18 2.92  15 2.92  13 2.93  25 2.94  19 2.94  23 2.96
                            20 2.96  35 2.96  33 2.96  31 2.96
  23  0.223  0.553  0.453-  36 2.71  13 2.91  14 2.91  20 2.91  21 2.91  33 2.92  34 2.92  16 2.92
                            25 2.95  26 2.95  22 2.96  24 2.96
  24  0.557  0.557  0.453-  27 2.90  22 2.90  15 2.92  17 2.92  14 2.93  26 2.94  19 2.94  21 2.96
                            23 2.96  35 2.96  32 2.96  34 2.96
  25  0.889  0.889  0.454-  16 2.94  12 2.94  18 2.94  19 2.94  26 2.94  22 2.94  27 2.94  28 2.95
                            23 2.95  21 2.95  33 3.00  30 3.00
  26  0.222  0.889  0.454-  10 2.94  16 2.94  17 2.94  19 2.94  25 2.94  27 2.94  24 2.94  28 2.95
                            20 2.95  23 2.95  29 3.00  34 3.00
  27  0.557  0.886  0.453-  24 2.90  22 2.90  17 2.92  18 2.92  11 2.93  26 2.94  25 2.94  20 2.96
                            21 2.96  35 2.96  29 2.96  30 2.96
  28  0.000  0.000  0.563-  25 2.95  19 2.95  26 2.95  34 2.99  32 2.99  33 2.99  30 2.99  31 2.99
                            29 2.99
  29  0.334  0.011  0.562-  30 2.84  31 2.84  36 2.86  20 2.92  27 2.96  35 2.99  28 2.99  26 3.00
                            34 3.13
  30  0.655  0.011  0.562-  29 2.84  32 2.84  36 2.86  21 2.92  27 2.96  35 2.99  28 2.99  25 3.00
                            33 3.13
  31  0.011  0.334  0.562-  33 2.84  29 2.84  36 2.86  20 2.92  22 2.96  35 2.99  28 2.99  19 3.00
                            32 3.13
  32  0.655  0.334  0.562-  34 2.84  30 2.84  36 2.86  21 2.92  24 2.96  35 2.99  28 2.99  19 3.00
                            31 3.13
  33  0.011  0.655  0.562-  31 2.84  34 2.84  36 2.86  23 2.92  22 2.96  35 2.99  28 2.99  25 3.00
                            30 3.13
  34  0.334  0.655  0.562-  32 2.84  33 2.84  36 2.86  23 2.92  24 2.96  35 2.99  28 2.99  26 3.00
                            29 3.13
  35  0.667  0.667  0.563-  24 2.96  27 2.96  22 2.96  29 2.99  34 2.99  32 2.99  31 2.99  30 2.99
                            33 2.99
  36  0.333  0.333  0.549-  37 1.59  20 2.71  23 2.71  21 2.71  33 2.86  31 2.86  29 2.86  30 2.86
                            34 2.86  32 2.86
  37  0.333  0.333  0.620-  36 1.59

  LATTYP: Found a hexagonal cell.
 ALAT       =     8.8135128021
 C/A-ratio  =     2.5184286595

  Lattice vectors:

 A1 = (  -4.4067569092,  -7.6327256898,   0.0000000000)
 A2 = (   8.8135128021,   0.0000000000,   0.0000000000)
 A3 = (   0.0000000000,   0.0000000000,  22.1962032318)

Analysis of symmetry for initial positions (statically):
 Subroutine PRICEL returns:
 Original cell was already a primitive cell.

 Routine SETGRP: Setting up the symmetry group for a
 hexagonal supercell.

 Subroutine GETGRP returns: Found  6 space group operations
 (whereof  6 operations were pure point group operations)
 out of a pool of 24 trial point group operations.

The static configuration has the point symmetry C_3v.

Analysis of symmetry for dynamics (positions and initial velocities):
 Subroutine PRICEL returns:
 Original cell was already a primitive cell.

[...]

The dynamic configuration has the point symmetry C_3v.

Analysis of constrained symmetry for selective dynamics:
 Subroutine PRICEL returns:
 Original cell was already a primitive cell.

 Routine SETGRP: Setting up the symmetry group for a
 hexagonal supercell.

 Subroutine GETGRP returns: Found  6 space group operations
 (whereof  6 operations were pure point group operations)
[...]
     24      -5.1213      2.00000
     25      -5.1133      2.00000
     26      -5.0695      2.00000
     27      -4.9960      2.00000
     28      -4.9534      2.00000
     29      -4.8586      2.00000
     30      -4.8470      2.00000
     31      -4.8327      2.00000
     32      -4.8182      2.00000
     33      -4.8072      2.00000
     34      -4.7778      2.00000
     35      -4.6799      2.00000
     36      -4.6454      2.00000
     37      -4.6284      2.00000
     38      -4.6052      2.00000
     39      -4.5517      2.00000
     40      -4.4791      2.00000
     41      -4.4437      2.00000
     42      -4.3869      2.00000
     43      -4.3766      2.00000
     44      -4.3681      2.00000
     45      -4.3488      2.00000
     46      -4.2580      2.00000
     47      -4.2488      2.00000
     48      -4.2145      2.00000
     49      -4.1837      2.00000
     50      -4.1748      2.00000
     51      -4.1724      2.00000
     52      -4.1477      2.00000
     53      -4.1269      2.00000
     54      -4.0806      2.00000
     55      -4.0710      2.00000
     56      -4.0440      2.00000
     57      -4.0330      2.00000
     58      -4.0184      2.00000
     59      -4.0071      2.00000
     60      -3.9920      2.00000
[...]
    238       6.5736      0.00000
    239       6.7010      0.00000
    240       6.7292      0.00000
    241       6.7492      0.00000
    242       6.7812      0.00000
    243       7.0513      0.00000
    244       7.0970      0.00000
    245       7.2378      0.00000
    246       7.5467      0.00000
    247       7.5753      0.00000
    248       7.6388      0.00000
    249       7.7171      0.00000
    250       7.7843      0.00000
    251       7.9181      0.00000
    252       7.9897      0.00000

 soft charge-density along one line, spin component           1
         0         1         2         3         4         5         6         7         8         9
 total charge-density along one line

------------------------ aborting loop because EDIFF is reached ----------------------------------------

 total charge

# of ion       s       p       d       tot
    1        0.550   0.237   8.770   9.557
    2        0.542   0.242   8.767   9.551
    3        0.542   0.242   8.767   9.551
    4        0.542   0.242   8.767   9.551
    5        0.548   0.240   8.763   9.551
    6        0.542   0.242   8.767   9.551
    7        0.542   0.242   8.767   9.551
    8        0.542   0.242   8.767   9.551
    9        0.545   0.240   8.767   9.552
   10        0.526   0.309   8.770   9.605
   11        0.521   0.309   8.781   9.611
   12        0.526   0.309   8.770   9.605
   13        0.521   0.309   8.781   9.611
   14        0.521   0.309   8.781   9.611
   15        0.518   0.309   8.778   9.606
   16        0.526   0.309   8.770   9.605
   17        0.518   0.309   8.778   9.606
   18        0.518   0.309   8.778   9.606
   19        0.516   0.300   8.776   9.593
   20        0.563   0.334   8.742   9.639
   21        0.563   0.334   8.742   9.639
   22        0.510   0.311   8.777   9.598
   23        0.563   0.334   8.742   9.639
   24        0.510   0.311   8.777   9.598
   25        0.516   0.300   8.776   9.593
   26        0.516   0.300   8.776   9.593
   27        0.510   0.311   8.777   9.598
   28        0.540   0.224   8.758   9.522
   29        0.567   0.240   8.744   9.551
   30        0.567   0.240   8.744   9.551
   31        0.567   0.240   8.744   9.551
   32        0.567   0.240   8.744   9.551
   33        0.567   0.240   8.744   9.551
   34        0.567   0.240   8.744   9.551
   35        0.536   0.223   8.762   9.521
   36        0.401   0.444   4.087   4.933
   37        0.514   0.011   0.000   0.525
tot         19.754  10.126 310.844 340.724

  FORCE on cell =-STRESS in cart. coord.  units (eV):
  Direction    XX          YY          ZZ          XY          YZ          ZX
  Alpha Z   991.70362   991.70362   991.70362
  Ewald  118440.34378118440.34417************    -0.00032    -0.00009    -0.00016
  Hartree126973.36791126973.36791************     0.00000    -0.00002    -0.00004
  E(xc)   -1755.51668 -1755.51665 -1763.62382    -0.00002    -0.00000    -0.00000
  Local  ************************257834.11987     0.00171     0.00005     0.00009
  n-local   -86.15263   -38.11787   -34.27916    24.44444    -1.56573     1.63167
  augment  2391.06864  2391.07013  2411.00398    -0.00129     0.00002     0.00004
  Kinetic  5394.09796  5402.85864  5458.46898     5.29104    -0.10024     0.52947
  Fock        0.00000     0.00000     0.00000     0.00000     0.00000     0.00000
  Total     -23.67892   -23.67892     1.64941    -0.00000     0.00000     0.00000
  in kB     -25.40769   -25.40768     1.76983    -0.00000     0.00000     0.00000

 VOLUME and BASIS-vectors are now :
  energy-cutoff  :      500.00
  volume of cell :     1493.16
      direct lattice vectors                 reciprocal lattice vectors
     8.813512802  0.000000000  0.000000000     0.113462137 -0.065507406  0.000000000
     4.406756909  7.632725690  0.000000000     0.000000000  0.131014796  0.000000000
     0.000000000  0.000000000 22.196203232     0.000000000  0.000000000  0.045052750

  length of vectors
     8.813512802  8.813512802 22.196203232     0.131014796  0.131014796  0.045052750

 FORCES acting on ions
    electron-ion (+dipol)            ewald-force                    non-local-force                 convergence-correction
   -.198E-04 -.163E-04 0.246E+04   0.519E-04 0.433E-04 -.246E+04   0.475E-18 -.267E-17 -.692E+00   -.216E-03 -.138E-03 -.358E+00
   0.347E+00 -.130E+00 0.246E+04   -.472E+00 -.343E-01 -.246E+04   0.399E-01 0.121E+00 -.334E+00   0.787E-01 0.302E-01 -.352E+00
   -.347E+00 -.130E+00 0.246E+04   0.472E+00 -.343E-01 -.246E+04   -.399E-01 0.121E+00 -.334E+00   -.784E-01 0.320E-01 -.352E+00
   0.609E-01 0.366E+00 0.246E+04   -.266E+00 -.392E+00 -.246E+04   0.124E+00 -.257E-01 -.334E+00   0.655E-01 0.530E-01 -.352E+00
   0.728E-05 -.241E-04 0.247E+04   0.951E-04 0.174E-05 -.246E+04   -.253E-17 -.150E-17 0.378E-01   0.422E-02 0.257E-02 -.239E+00
   -.610E-01 0.366E+00 0.246E+04   0.266E+00 -.392E+00 -.246E+04   -.124E+00 -.257E-01 -.334E+00   -.670E-01 0.539E-01 -.352E+00
   -.286E+00 -.236E+00 0.246E+04   0.206E+00 0.426E+00 -.246E+04   0.845E-01 -.949E-01 -.334E+00   -.114E-01 -.839E-01 -.352E+00
   0.286E+00 -.236E+00 0.246E+04   -.206E+00 0.426E+00 -.246E+04   -.845E-01 -.949E-01 -.334E+00   0.132E-01 -.850E-01 -.352E+00
   0.198E-04 -.416E-04 0.247E+04   0.166E-03 -.200E-04 -.246E+04   -.579E-17 0.202E-17 -.404E+00   -.455E-02 -.235E-02 -.290E+00
   0.299E+01 0.173E+01 0.796E+03   -.273E+01 -.158E+01 -.796E+03   -.327E+00 -.189E+00 -.618E+00   0.579E-01 0.333E-01 0.981E+00
   0.145E-04 0.239E+01 0.800E+03   0.148E-03 -.252E+01 -.801E+03   0.112E-08 0.169E-01 -.196E+00   0.388E-02 0.747E-01 0.128E+01
   -.299E+01 0.173E+01 0.796E+03   0.273E+01 -.158E+01 -.796E+03   0.327E+00 -.189E+00 -.618E+00   -.591E-01 0.341E-01 0.980E+00
   0.207E+01 -.119E+01 0.800E+03   -.218E+01 0.126E+01 -.801E+03   0.146E-01 -.844E-02 -.196E+00   0.669E-01 -.337E-01 0.128E+01
   -.207E+01 -.119E+01 0.800E+03   0.218E+01 0.126E+01 -.801E+03   -.146E-01 -.844E-02 -.196E+00   -.598E-01 -.346E-01 0.128E+01
   0.320E-04 0.425E+01 0.801E+03   0.236E-03 -.448E+01 -.801E+03   0.268E-08 0.403E-01 -.571E+00   -.191E-02 0.127E+00 0.102E+01
   -.212E-04 -.346E+01 0.796E+03   0.162E-03 0.315E+01 -.796E+03   0.252E-07 0.378E+00 -.618E+00   -.279E-03 -.683E-01 0.980E+00
   0.368E+01 -.213E+01 0.801E+03   -.388E+01 0.224E+01 -.801E+03   0.349E-01 -.201E-01 -.571E+00   0.110E+00 -.649E-01 0.102E+01
   -.368E+01 -.213E+01 0.801E+03   0.388E+01 0.224E+01 -.801E+03   -.349E-01 -.201E-01 -.571E+00   -.109E+00 -.632E-01 0.102E+01
   -.410E-04 -.861E+00 -.895E+03   0.556E-04 0.412E+00 0.893E+03   0.645E-08 0.968E-01 0.642E+00   0.841E-03 0.333E+00 0.218E+01
   0.839E+00 0.484E+00 -.883E+03   -.111E+01 -.642E+00 0.880E+03   -.113E+01 -.652E+00 -.102E+01   0.134E+01 0.774E+00 0.388E+01
   -.839E+00 0.484E+00 -.883E+03   0.111E+01 -.642E+00 0.880E+03   0.113E+01 -.652E+00 -.102E+01   -.135E+01 0.773E+00 0.388E+01
   -.851E+01 0.492E+01 -.882E+03   0.777E+01 -.448E+01 0.879E+03   0.357E+00 -.206E+00 0.529E+00   0.422E+00 -.243E+00 0.232E+01
   -.807E-05 -.969E+00 -.883E+03   0.139E-03 0.128E+01 0.880E+03   0.868E-07 0.130E+01 -.102E+01   -.375E-02 -.155E+01 0.388E+01
   0.851E+01 0.492E+01 -.882E+03   -.777E+01 -.448E+01 0.879E+03   -.357E+00 -.206E+00 0.529E+00   -.421E+00 -.243E+00 0.232E+01
   0.746E+00 0.431E+00 -.895E+03   -.357E+00 -.206E+00 0.893E+03   -.838E-01 -.484E-01 0.642E+00   -.289E+00 -.167E+00 0.218E+01
   -.746E+00 0.431E+00 -.895E+03   0.357E+00 -.206E+00 0.893E+03   0.838E-01 -.484E-01 0.642E+00   0.289E+00 -.166E+00 0.218E+01
   0.100E-04 -.983E+01 -.882E+03   0.198E-03 0.897E+01 0.879E+03   0.274E-07 0.412E+00 0.529E+00   -.275E-03 0.487E+00 0.232E+01
   -.101E-04 -.113E-04 -.249E+04   0.279E-04 0.310E-04 0.248E+04   -.624E-17 0.350E-17 0.666E+00   0.151E-03 0.712E-04 0.116E+01
   0.173E+01 -.157E+01 -.248E+04   -.209E+01 0.942E+00 0.248E+04   -.849E+00 -.132E+01 0.181E+00   0.120E+01 0.190E+01 0.940E+00
   -.173E+01 -.157E+01 -.248E+04   0.209E+01 0.942E+00 0.248E+04   0.849E+00 -.132E+01 0.181E+00   -.120E+01 0.190E+01 0.940E+00
   -.494E+00 0.229E+01 -.248E+04   -.229E+00 -.228E+01 0.248E+04   -.157E+01 -.755E-01 0.181E+00   0.225E+01 0.849E-01 0.940E+00
   0.494E+00 0.229E+01 -.248E+04   0.229E+00 -.228E+01 0.248E+04   0.157E+01 -.755E-01 0.181E+00   -.225E+01 0.858E-01 0.941E+00
   -.223E+01 -.715E+00 -.248E+04   0.186E+01 0.134E+01 0.248E+04   -.718E+00 0.140E+01 0.181E+00   0.105E+01 -.199E+01 0.940E+00
   0.223E+01 -.715E+00 -.248E+04   -.186E+01 0.134E+01 0.248E+04   0.718E+00 0.140E+01 0.181E+00   -.105E+01 -.199E+01 0.941E+00
   0.348E-04 -.326E-04 -.249E+04   0.143E-03 -.464E-04 0.249E+04   0.351E-17 -.616E-17 0.732E+00   -.419E-02 -.212E-02 0.101E+01
   -.283E-04 0.562E-06 -.127E+04   0.635E-04 0.589E-05 0.127E+04   0.735E-17 0.112E-17 -.261E+01   0.124E-02 0.763E-03 0.924E+00
   0.509E-05 -.367E-05 -.274E+03   0.485E-05 0.310E-06 0.277E+03   -.635E-19 -.221E-19 -.216E+01   0.768E-04 0.465E-04 -.580E+00
   -.798E-03 -.777E-03 -.308E+02   -.245E-13 0.211E-12 0.989E-11   -.544E-15 -.506E-17 -.904E+01   -.503E-03 0.300E-03 0.402E+02

 POSITION                                       TOTAL-FORCE (eV/Angst)
      0.00000      0.00000      5.28038        -0.000000     -0.000000     -0.176398
      2.93784      0.00000      5.28038        -0.005598     -0.012748     -0.054729
      5.87568      0.00000      5.28038         0.005598     -0.012748     -0.054729
      1.46892      2.54424      5.28038        -0.013839      0.001526     -0.054729
      4.40676      2.54424      5.28038         0.000000     -0.000000     -0.103883
      7.34459      2.54424      5.28038         0.013839      0.001526     -0.054729
      2.93784      5.08848      5.28038        -0.008242      0.011222     -0.054729
      5.87568      5.08848      5.28038         0.008242      0.011222     -0.054729
      8.81351      5.08848      5.28038        -0.000000     -0.000000     -0.093737
      1.46892      0.84808      7.67911        -0.004998     -0.002885      0.103953
      4.40676      0.84808      7.67911        -0.000000     -0.041287      0.026032
      7.34459      0.84808      7.67911         0.004998     -0.002885      0.103953
      2.93784      3.39232      7.67911        -0.035755      0.020643      0.026032
      5.87568      3.39232      7.67911         0.035755      0.020643      0.026032
      8.81351      3.39232      7.67911        -0.000000     -0.058801      0.081173
      4.40676      5.93656      7.67911         0.000000      0.005771      0.103953
      7.34459      5.93656      7.67911        -0.050923      0.029400      0.081173
     10.28243      5.93656      7.67911         0.050923      0.029400      0.081173
      8.81351      1.69581     10.07501        -0.000000     -0.019211     -0.010317
      2.95207      1.70438     10.04871        -0.059203     -0.034181     -0.043695
      5.86144      1.70438     10.04871         0.059203     -0.034181     -0.043695
     10.26527      4.25031     10.05786         0.032983     -0.019043     -0.000496
      4.40676      4.22397     10.04871         0.000000      0.068362     -0.043695
      7.36176      4.25031     10.05786        -0.032983     -0.019043     -0.000496
     11.75166      6.78482     10.07501         0.016637      0.009605     -0.010317
      5.87537      6.78482     10.07501        -0.016637      0.009605     -0.010317
      8.81351      6.76483     10.05786         0.000000      0.038085     -0.000496
      0.00000      0.00000     12.48798        -0.000000     -0.000000      0.004660
      2.98892      0.08359     12.48152        -0.009735     -0.045239     -0.013539
      5.82460      0.08359     12.48152         0.009735     -0.045239     -0.013539
      1.56685      2.54668     12.48152        -0.044046      0.014188     -0.013539
      7.24666      2.54668     12.48152         0.044046      0.014188     -0.013539
      2.98469      5.00245     12.48152        -0.034310      0.031050     -0.013539
      5.82882      5.00245     12.48152         0.034310      0.031050     -0.013539
      8.81351      5.08848     12.49580        -0.000000     -0.000000      0.056667
      4.40676      2.54424     12.17616        -0.000000     -0.000000      0.139551
      4.40676      2.54424     13.76247        -0.000000     -0.000000      0.112800
    total drift:                               -0.001301     -0.000477      0.321282

  FREE ENERGIE OF THE ION-ELECTRON SYSTEM (eV)
  free  energy   TOTEN  =      -117.13751135 eV

  energy  without entropy=     -117.13751135  energy(sigma->0) =     -117.13751135

 stress matrix after NEB project (eV)
    -23.67892     -0.00000      0.00000
     -0.00000    -23.67892      0.00000
     -0.00000      0.00000      1.64941
  FORCES: max atom, RMS     0.112800    0.018544
  FORCE total and by dimension    0.112800    0.112800
  Stress total and by dimension   33.527648   23.678922
|           W    W    AA    RRRRR   N    N  II  N    N   GGGG   !!!           |
|           W    W   A  A   R    R  NN   N  II  NN   N  G    G  !!!           |
|           W    W  A    A  R    R  N N  N  II  N N  N  G       !!!           |
|           W WW W  AAAAAA  RRRRR   N  N N  II  N  N N  G  GGG   !            |
|           WW  WW  A    A  R   R   N   NN  II  N   NN  G    G                |
|           W    W  A    A  R    R  N    N  II  N    N   GGGG   !!!           |
|     Tetrahedron method does not include variations of the Fermi             |
|     occupations, so forces and stress will be inaccurate. We suggest        |
|     using a different smearing scheme ISMEAR = 1 or 2 for metals in         |
|     relaxations.                                                            |

 total charge

# of ion       s       p       d       tot
    1        0.550   0.237   8.770   9.557
    2        0.542   0.242   8.767   9.551
    3        0.542   0.242   8.767   9.551
    4        0.542   0.242   8.767   9.551
    5        0.548   0.240   8.763   9.551
    6        0.542   0.242   8.767   9.551
    7        0.542   0.242   8.767   9.551
    8        0.542   0.242   8.767   9.551
    9        0.545   0.240   8.767   9.552
   10        0.526   0.309   8.770   9.605
   11        0.521   0.309   8.781   9.611
   12        0.526   0.309   8.770   9.605
   13        0.521   0.309   8.781   9.611
   14        0.521   0.309   8.781   9.611
   15        0.518   0.309   8.778   9.606
   16        0.526   0.309   8.770   9.605
   17        0.518   0.309   8.778   9.606
   18        0.518   0.309   8.778   9.606
   19        0.516   0.300   8.776   9.593
   20        0.563   0.334   8.742   9.639
   21        0.563   0.334   8.742   9.639
   22        0.510   0.311   8.777   9.598
   23        0.563   0.334   8.742   9.639
   24        0.510   0.311   8.777   9.598
   25        0.516   0.300   8.776   9.593
   26        0.516   0.300   8.776   9.593
   27        0.510   0.311   8.777   9.598
   28        0.540   0.224   8.758   9.522
   29        0.567   0.240   8.744   9.551
   30        0.567   0.240   8.744   9.551
   31        0.567   0.240   8.744   9.551
   32        0.567   0.240   8.744   9.551
   33        0.567   0.240   8.744   9.551
   34        0.567   0.240   8.744   9.551
   35        0.536   0.223   8.762   9.521
   36        0.401   0.444   4.087   4.933
   37        0.514   0.011   0.000   0.525
tot         19.754  10.126 310.844 340.724

 BZINTS: Fermi energy:    0.624796;  392.000000 electrons
         Band energy:-0.120885E+04;  BLOECHL correction:   -0.024678