 vasp.6.2.0 18Jan21 (build Jun 12 2021 23:27:24) complex

 executed on             LinuxIFC date 2022.05.28  02:20:53

 INCAR:
   ISMEAR = -5
   SIGMA = 0.1
   ISPIN = 1
   EDIFF = 1.d-5
   EDIFFG = -0.01
   NSW = 0
   NELM = 150
   ENCUT = 500
   ISIF = 2
   IBRION = 2
   LREAL = Auto
   ALGO = Fast
   ICHARG = 11
   LORBIT = 10
   LCHARG = .F.
   LWAVE = .F.

 POTCAR:    PAW_PBE Cu 22Jun2005
 POTCAR:    PAW_PBE Fe 06Sep2000
 POTCAR:    PAW_PBE C 08Apr2002
 POTCAR:    PAW_PBE O 08Apr2002
|           W    W    AA    RRRRR   N    N  II  N    N   GGGG   !!!           |
|           W    W   A  A   R    R  NN   N  II  NN   N  G    G  !!!           |
|           W    W  A    A  R    R  N N  N  II  N N  N  G       !!!           |
|           W WW W  AAAAAA  RRRRR   N  N N  II  N  N N  G  GGG   !            |
|           WW  WW  A    A  R   R   N   NN  II  N   NN  G    G                |
|           W    W  A    A  R    R  N    N  II  N    N   GGGG   !!!           |
|     For optimal performance we recommend to set                             |
|       NCORE = 2 up to number-of-cores-per-socket                            |
|     This setting can greatly improve the performance of VASP for DFT.       |
|     The default, NCORE=1 might be grossly inefficient on modern             |
|     multi-core architectures or massively parallel machines. Do your        |
|     Unfortunately you need to use the default for GW and RPA                |
|     calculations (for HF NCORE is supported but not extensively tested      |
|     yet).                                                                   |

 POTCAR:    PAW_PBE Cu 22Jun2005
   VRHFIN =Cu: d10 p1

   TITEL  = PAW_PBE Cu 22Jun2005
   POMASS =   63.546; ZVAL   =   11.000    mass and valenz
   ENMAX  =  295.446; ENMIN  =  221.585 eV

 POTCAR:    PAW_PBE Fe 06Sep2000
   VRHFIN =Fe:  d7 s1

   TITEL  = PAW_PBE Fe 06Sep2000
   POMASS =   55.847; ZVAL   =    8.000    mass and valenz
   ENMAX  =  267.882; ENMIN  =  200.911 eV

 POTCAR:    PAW_PBE C 08Apr2002
   VRHFIN =C: s2p2

   TITEL  = PAW_PBE C 08Apr2002
   POMASS =   12.011; ZVAL   =    4.000    mass and valenz
   ENMAX  =  400.000; ENMIN  =  300.000 eV

 POTCAR:    PAW_PBE O 08Apr2002
   VRHFIN =O: s2p4

   TITEL  = PAW_PBE O 08Apr2002
   POMASS =   16.000; ZVAL   =    6.000    mass and valenz
   ENMAX  =  400.000; ENMIN  =  300.000 eV

 Optimization of the real space projectors (new method)

 maximal supplied QI-value         = 16.25
 optimisation between [QCUT,QGAM] = [ 11.38, 22.75] = [ 36.24,144.96] Ry
 Optimized for a Real-space Cutoff    1.52 Angstroem

   l    n(q)    QCUT    max X(q) W(low)/X(q) W(high)/X(q)  e(spline)
   2      9    11.376     4.610    0.21E-03    0.10E-03    0.26E-06
   2      9    11.376     8.522    0.33E-03    0.16E-03    0.37E-06
   0     10    11.376    51.609    0.62E-04    0.20E-04    0.13E-06
   0     10    11.376    27.747    0.54E-04    0.20E-04    0.13E-06
   1     10    11.376    20.408    0.13E-04    0.99E-04    0.19E-06
   1     10    11.376    13.425    0.12E-04    0.87E-04    0.17E-06
 Optimization of the real space projectors (new method)

[...]

   l    n(q)    QCUT    max X(q) W(low)/X(q) W(high)/X(q)  e(spline)
   0      7    11.310   115.676    0.43E-03    0.13E-02    0.19E-06
   0      7    11.310    87.132    0.43E-03    0.13E-02    0.18E-06
   1      6    11.310     4.429    0.42E-03    0.74E-03    0.11E-06
   1      6    11.310     2.733    0.34E-03    0.55E-03    0.92E-07
 Optimization of the real space projectors (new method)

 maximal supplied QI-value         = 24.76
 optimisation between [QCUT,QGAM] = [ 11.39, 22.77] = [ 36.31,145.25] Ry
 Optimized for a Real-space Cutoff    1.00 Angstroem

   l    n(q)    QCUT    max X(q) W(low)/X(q) W(high)/X(q)  e(spline)
   0      7    11.387    20.381    0.39E-03    0.13E-02    0.15E-06
   0      7    11.387    15.268    0.42E-03    0.14E-02    0.17E-06
   1      6    11.387     5.964    0.41E-03    0.11E-02    0.17E-06
   1      6    11.387     5.382    0.39E-03    0.87E-03    0.15E-06
  PAW_PBE Cu 22Jun2005                  :
  PAW_PBE Fe 06Sep2000                  :
  PAW_PBE C 08Apr2002                   :
  PAW_PBE O 08Apr2002                   :

 POSCAR: Cu-Fe-CO2
  positions in direct lattice
  velocities in cartesian coordinates
 exchange correlation table for  LEXCH =        8
   RHO(1)=    0.500       N(1)  =     2000
   RHO(2)=  100.500       N(2)  =     4000

 VTST: version 3.2, (02/03/18)

 CHAIN: initializing optimizer

 OPT: Using VASP Conjugate-Gradient optimizer
 CHAIN: Read ICHAIN            0

 POSCAR: Cu-Fe-CO2
  positions in direct lattice
  velocities in cartesian coordinates

 ion  position               nearest neighbor table
   1  0.000  0.000  0.229-   7 2.57   3 2.57   4 2.57   2 2.57   6 2.57   8 2.57  12 2.57  10 2.57
                            16 2.57
   2  0.333  0.000  0.229-   8 2.57   9 2.57   5 2.57   1 2.57   3 2.57  11 2.57   4 2.57  10 2.57
                            17 2.57
   3  0.667  0.000  0.229-   1 2.57   7 2.57   6 2.57   9 2.57   2 2.57  12 2.57   5 2.57  18 2.57
                            11 2.57
   4  0.000  0.333  0.229-   5 2.57   6 2.57   1 2.57   7 2.57   2 2.57  13 2.57   9 2.57  10 2.57
                            15 2.57
   5  0.333  0.333  0.229-   4 2.57   2 2.57   7 2.57  13 2.57   8 2.57   6 2.57   3 2.57  11 2.57
                            14 2.57
   6  0.667  0.333  0.229-   4 2.57   9 2.57  15 2.57   3 2.57   1 2.57   8 2.57  14 2.57   5 2.57
                            12 2.57
   7  0.000  0.667  0.229-   1 2.57   3 2.57  16 2.57  18 2.57   4 2.57   5 2.57   8 2.57   9 2.57
                            13 2.57
   8  0.333  0.667  0.229-   9 2.57   2 2.57  17 2.57   6 2.57   1 2.57   7 2.57   5 2.57  14 2.57
                            16 2.57
   9  0.667  0.667  0.229-   8 2.57   6 2.57   2 2.57  17 2.57   3 2.57   7 2.57   4 2.57  15 2.57
                            18 2.57
  10  0.111  0.111  0.318-  20 2.55  26 2.56  19 2.56  11 2.57  12 2.57  13 2.57   1 2.57   2 2.57
                             4 2.57  15 2.57  16 2.57  17 2.57
  11  0.444  0.111  0.318-  20 2.55  21 2.55  27 2.56  10 2.57  13 2.57   2 2.57  17 2.57  14 2.57
                            12 2.57   5 2.57   3 2.57  18 2.57
  12  0.778  0.111  0.318-  21 2.55  19 2.56  25 2.56  15 2.57  10 2.57  14 2.57  18 2.57   3 2.57
                             1 2.57  16 2.57  11 2.57   6 2.57
  13  0.111  0.444  0.318-  23 2.55  20 2.55  22 2.56  16 2.57  18 2.57  10 2.57  11 2.57  14 2.57
                             5 2.57   4 2.57   7 2.57  15 2.57
  14  0.444  0.444  0.318-  21 2.55  23 2.55  24 2.56  15 2.57  17 2.57  12 2.57  16 2.57  13 2.57
                            11 2.57   6 2.57   8 2.57   5 2.57
  15  0.778  0.444  0.318-  19 2.56  24 2.56  22 2.56  14 2.57  17 2.57  12 2.57   6 2.57  18 2.57
                            10 2.57   9 2.57  13 2.57   4 2.57
  16  0.111  0.778  0.318-  23 2.55  25 2.56  26 2.56  18 2.57  13 2.57   7 2.57  14 2.57  17 2.57
                            12 2.57  10 2.57   8 2.57   1 2.57
  17  0.444  0.778  0.318-  26 2.56  27 2.56  24 2.56  14 2.57  15 2.57   8 2.57   9 2.57  11 2.57
                            16 2.57  18 2.57  10 2.57   2 2.57
  18  0.778  0.778  0.318-  25 2.56  22 2.56  27 2.56  16 2.57  13 2.57   7 2.57  15 2.57  12 2.57
                            17 2.57   9 2.57   3 2.57  11 2.57
  19  0.889  0.223  0.407-  28 2.55  15 2.56  12 2.56  10 2.56  22 2.56  24 2.56  32 2.57  31 2.57
                            21 2.57  20 2.57  25 2.57  26 2.57
  20  0.222  0.222  0.407-  36 2.47  11 2.55  13 2.55  10 2.55  29 2.55  31 2.55  23 2.56  21 2.56
                            26 2.57  19 2.57  27 2.57  22 2.57
  21  0.555  0.222  0.407-  36 2.47  14 2.55  11 2.55  12 2.55  32 2.55  30 2.55  20 2.56  23 2.56
                            19 2.57  25 2.57  24 2.57  27 2.57
  22  0.888  0.556  0.407-  35 2.54  31 2.56  33 2.56  18 2.56  15 2.56  24 2.56  27 2.56  13 2.56
                            19 2.56  25 2.56  23 2.57  20 2.57
  23  0.222  0.555  0.407-  36 2.47  13 2.55  14 2.55  16 2.55  33 2.55  34 2.55  20 2.56  21 2.56
                            25 2.57  26 2.57  22 2.57  24 2.57
  24  0.556  0.556  0.407-  35 2.54  32 2.56  34 2.56  15 2.56  17 2.56  22 2.56  27 2.56  14 2.56
                            19 2.56  26 2.56  21 2.57  23 2.57
  25  0.889  0.889  0.407-  28 2.55  18 2.56  16 2.56  12 2.56  22 2.56  27 2.56  33 2.57  30 2.57
                            21 2.57  23 2.57  19 2.57  26 2.57
  26  0.223  0.889  0.407-  28 2.55  17 2.56  10 2.56  16 2.56  27 2.56  24 2.56  29 2.57  34 2.57
                            20 2.57  23 2.57  25 2.57  19 2.57
  27  0.556  0.888  0.407-  35 2.54  29 2.56  30 2.56  17 2.56  18 2.56  24 2.56  22 2.56  11 2.56
                            26 2.56  25 2.56  20 2.57  21 2.57
  28  0.000  0.000  0.495-  25 2.55  19 2.55  26 2.55  33 2.58  30 2.58  31 2.58  29 2.58  32 2.58
                            34 2.58
  29  0.333  0.003  0.496-  31 2.54  30 2.54  36 2.54  20 2.55  27 2.56  26 2.57  28 2.58  35 2.58
                            34 2.61
  30  0.664  0.003  0.496-  32 2.54  29 2.54  36 2.54  21 2.55  27 2.56  25 2.57  28 2.58  35 2.58
                            33 2.61
  31  0.003  0.333  0.496-  29 2.54  33 2.54  36 2.54  20 2.55  22 2.56  19 2.57  28 2.58  35 2.58
                            32 2.61
  32  0.664  0.333  0.496-  30 2.54  34 2.54  36 2.54  21 2.55  24 2.56  19 2.57  28 2.58  35 2.58
                            31 2.61
  33  0.003  0.664  0.496-  34 2.54  31 2.54  36 2.54  23 2.55  22 2.56  25 2.57  28 2.58  35 2.58
                            30 2.61
  34  0.333  0.664  0.496-  33 2.54  32 2.54  36 2.54  23 2.55  24 2.56  26 2.57  28 2.58  35 2.58
                            29 2.61
  35  0.667  0.667  0.495-  24 2.54  27 2.54  22 2.54  34 2.58  32 2.58  29 2.58  30 2.58  33 2.58
                            31 2.58
  36  0.333  0.333  0.491-  37 1.92  23 2.47  20 2.47  21 2.47  31 2.54  29 2.54  33 2.54  34 2.54
                            32 2.54  30 2.54
  37  0.332  0.336  0.573-  38 1.25  39 1.25  36 1.92
  38  0.182  0.333  0.591-  37 1.25
  39  0.486  0.333  0.591-  37 1.25

  LATTYP: Found a hexagonal cell.
 ALAT       =     7.6967864036
 C/A-ratio  =     3.0484540560

  Lattice vectors:

 A1 = (  -3.8483927580,  -6.6656128093,   0.0000000000)
 A2 = (   7.6967864037,   0.0000000000,   0.0000000000)
 A3 = (   0.0000000000,   0.0000000000,  23.4632997305)

Analysis of symmetry for initial positions (statically):
 Subroutine PRICEL returns:
 Original cell was already a primitive cell.

 Routine SETGRP: Setting up the symmetry group for a
 hexagonal supercell.

 Subroutine GETGRP returns: Found  2 space group operations
 (whereof  2 operations were pure point group operations)
 out of a pool of 24 trial point group operations.

The static configuration has the point symmetry C_1h.

Analysis of symmetry for dynamics (positions and initial velocities):
 Subroutine PRICEL returns:
 Original cell was already a primitive cell.

[...]

The dynamic configuration has the point symmetry C_1h.

Analysis of constrained symmetry for selective dynamics:
[...]
     41      -4.4319      2.00000
     42      -4.4189      2.00000
     43      -4.3191      2.00000
     44      -4.3152      2.00000
     45      -4.2357      2.00000
     46      -4.2325      2.00000
     47      -4.2155      2.00000
     48      -4.1926      2.00000
     49      -4.1877      2.00000
     50      -4.1799      2.00000
     51      -4.1611      2.00000
     52      -4.0187      2.00000
     53      -3.9794      2.00000
     54      -3.9649      2.00000
     55      -3.9562      2.00000
     56      -3.9507      2.00000
     57      -3.8992      2.00000
     58      -3.8955      2.00000
     59      -3.8844      2.00000
     60      -3.8660      2.00000
[...]
    238       5.1930      0.00000
    239       5.3231      0.00000
    240       5.4111      0.00000
    241       5.5345      0.00000
    242       5.6353      0.00000
    243       5.7208      0.00000
    244       5.8635      0.00000
    245       5.9268      0.00000
    246       5.9351      0.00000
    247       6.2749      0.00000
    248       6.3745      0.00000
    249       6.4803      0.00000
    250       6.5051      0.00000
    251       6.6838      0.00000
    252       6.7457      0.00000

 soft charge-density along one line, spin component           1
         0         1         2         3         4         5         6         7         8         9
 total charge-density along one line

------------------------ aborting loop because EDIFF is reached ----------------------------------------

 total charge

# of ion       s       p       d       tot
    1        0.449   0.284   9.188   9.920
    2        0.448   0.285   9.186   9.918
    3        0.448   0.285   9.186   9.918
    4        0.448   0.284   9.188   9.921
    5        0.449   0.284   9.185   9.919
    6        0.448   0.284   9.188   9.921
    7        0.448   0.285   9.184   9.918
    8        0.448   0.285   9.184   9.918
    9        0.447   0.284   9.187   9.918
   10        0.442   0.373   9.177   9.991
   11        0.443   0.369   9.183   9.995
   12        0.442   0.373   9.177   9.991
   13        0.442   0.370   9.181   9.992
   14        0.442   0.370   9.181   9.992
   15        0.439   0.372   9.177   9.987
   16        0.441   0.371   9.177   9.990
   17        0.440   0.369   9.180   9.989
   18        0.440   0.369   9.180   9.989
   19        0.437   0.370   9.182   9.989
   20        0.454   0.392   9.169  10.015
   21        0.454   0.392   9.169  10.015
   22        0.434   0.375   9.181   9.990
   23        0.454   0.386   9.174  10.014
   24        0.434   0.375   9.181   9.990
   25        0.440   0.368   9.183   9.990
   26        0.440   0.368   9.183   9.990
   27        0.435   0.373   9.182   9.990
   28        0.449   0.280   9.191   9.920
   29        0.452   0.289   9.184   9.926
   30        0.452   0.289   9.184   9.926
   31        0.434   0.293   9.186   9.913
   32        0.434   0.293   9.186   9.913
   33        0.453   0.290   9.184   9.927
   34        0.453   0.290   9.184   9.927
   35        0.443   0.284   9.190   9.916
   36        0.460   0.416   6.456   7.332
   37        0.887   1.689   0.000   2.576
   38        1.599   3.469   0.000   5.068
   39        1.599   3.469   0.000   5.068
tot         20.098  20.645 327.838 368.580

  FORCE on cell =-STRESS in cart. coord.  units (eV):
  Direction    XX          YY          ZZ          XY          YZ          ZX
  Alpha Z   842.69688   842.69688   842.69688
  Ewald  218166.60978217478.06249************     0.00043    -2.61288     0.00018
  Hartree230995.54216230649.59532************     0.00006    -1.48565     0.00007
  E(xc)   -2359.41714 -2361.23773 -2365.11681    -0.00027    -0.02127    -0.00004
  Local  ************************461502.92038     0.02021     4.17983    -0.00075
  n-local  -839.81215  -835.54840  -850.95968     1.81954     0.35227     0.11372
  augment  3355.15086  3358.28652  3375.81741    -0.01820    -0.06155     0.00043
  Kinetic  3497.63181  3543.98334  3561.80705     1.08569    -0.38560    -0.13465
  Fock        0.00000     0.00000     0.00000     0.00000     0.00000     0.00000
  Total      -6.97423    -6.57267    -0.35088     0.00000    -0.03485     0.00000
  in kB      -9.28257    -8.74810    -0.46701     0.00000    -0.04638     0.00000

 VOLUME and BASIS-vectors are now :
  energy-cutoff  :      500.00
  volume of cell :     1203.76
      direct lattice vectors                 reciprocal lattice vectors
     7.696786404  0.000000000  0.000000000     0.129924354 -0.075011849  0.000000000
     3.848392758  6.665612809  0.000000000     0.000000000  0.150023716  0.000000000
     0.000000000  0.000000000 23.463299730     0.000000000  0.000000000  0.042619751

  length of vectors
     7.696786404  7.696786404 23.463299730     0.150023716  0.150023716  0.042619751

 FORCES acting on ions
    electron-ion (+dipol)            ewald-force                    non-local-force                 convergence-correction
   -.417E-04 0.146E+00 0.376E+04   0.579E-04 -.560E-01 -.376E+04   0.263E-08 -.395E-01 -.231E+01   -.325E-03 -.587E-01 -.471E+00
   0.940E-01 0.417E+00 0.376E+04   -.178E+00 -.281E+00 -.376E+04   -.156E-01 -.854E-02 -.197E+01   0.960E-01 -.126E+00 -.445E+00
   -.940E-01 0.417E+00 0.376E+04   0.178E+00 -.281E+00 -.376E+04   0.156E-01 -.854E-02 -.197E+01   -.952E-01 -.123E+00 -.444E+00
   0.224E+00 -.397E-01 0.376E+04   -.284E+00 -.428E-01 -.376E+04   0.816E-01 -.606E-03 -.207E+01   -.183E-01 0.869E-01 -.429E+00
   -.634E-04 -.478E-01 0.376E+04   0.116E-03 -.104E-02 -.376E+04   -.101E-08 0.152E-01 -.181E+01   0.121E-01 0.258E-01 -.398E+00
   -.224E+00 -.396E-01 0.376E+04   0.284E+00 -.429E-01 -.376E+04   -.816E-01 -.606E-03 -.207E+01   0.168E-01 0.881E-01 -.428E+00
   0.124E+00 -.325E+00 0.376E+04   -.105E+00 0.324E+00 -.376E+04   0.312E-01 -.840E-02 -.188E+01   -.482E-01 0.157E-01 -.378E+00
   -.124E+00 -.325E+00 0.376E+04   0.105E+00 0.324E+00 -.376E+04   -.312E-01 -.840E-02 -.188E+01   0.515E-01 0.143E-01 -.378E+00
   -.144E-03 -.268E+00 0.376E+04   0.263E-03 0.571E-01 -.376E+04   -.771E-08 0.116E+00 -.213E+01   -.131E-01 0.950E-01 -.382E+00
   0.245E+01 0.203E+01 0.135E+04   -.221E+01 -.173E+01 -.135E+04   -.275E+00 -.226E+00 -.995E+00   0.240E-01 -.674E-01 -.215E-02
   -.908E-04 0.320E+01 0.135E+04   0.189E-03 -.308E+01 -.135E+04   -.863E-09 0.130E-01 -.844E+00   0.118E-01 -.125E+00 -.611E-01
   -.245E+01 0.203E+01 0.135E+04   0.221E+01 -.173E+01 -.135E+04   0.275E+00 -.226E+00 -.995E+00   -.255E-01 -.669E-01 -.307E-02
   0.217E+01 -.175E+01 0.135E+04   -.225E+01 0.160E+01 -.135E+04   0.969E-01 0.116E-01 -.675E+00   -.217E-01 0.138E+00 -.905E-02
   -.217E+01 -.175E+01 0.135E+04   0.225E+01 0.160E+01 -.135E+04   -.969E-01 0.116E-01 -.675E+00   0.448E-01 0.137E+00 -.121E-01
   -.141E-03 -.364E+00 0.135E+04   0.299E-03 -.222E-01 -.135E+04   -.109E-07 0.164E+00 -.104E+01   -.296E-02 0.205E+00 0.465E-01
   -.867E-04 -.283E+01 0.135E+04   0.185E-03 0.270E+01 -.135E+04   -.134E-07 0.201E+00 -.779E+00   -.116E-02 -.756E-01 -.259E-02
   -.316E-01 -.283E+00 0.135E+04   -.268E+00 0.326E+00 -.135E+04   0.162E+00 0.114E-01 -.737E+00   0.127E+00 -.601E-01 -.388E-01
   0.317E-01 -.283E+00 0.135E+04   0.268E+00 0.326E+00 -.135E+04   -.162E+00 0.114E-01 -.737E+00   -.126E+00 -.578E-01 -.366E-01
   -.614E-04 0.306E+01 -.109E+04   0.667E-04 -.331E+01 0.109E+04   -.116E-07 0.174E+00 0.105E+01   0.138E-02 0.776E-01 0.302E+00
   0.308E+00 0.277E+01 -.107E+04   0.489E+00 -.226E+01 0.107E+04   -.791E+00 -.459E+00 -.793E+00   -.102E+00 -.777E-01 0.275E+00
   -.308E+00 0.277E+01 -.107E+04   -.489E+00 -.226E+01 0.107E+04   0.791E+00 -.459E+00 -.793E+00   0.807E-01 -.799E-01 0.275E+00
   -.142E+00 -.294E+01 -.109E+04   -.140E+00 0.326E+01 0.109E+04   0.371E+00 -.367E+00 0.727E+00   -.247E-01 0.165E-01 0.226E+00
   -.784E-04 -.392E+01 -.108E+04   0.142E-03 0.312E+01 0.108E+04   -.498E-07 0.748E+00 -.367E+00   -.137E-01 0.135E+00 0.226E+00
   0.142E+00 -.294E+01 -.109E+04   0.140E+00 0.326E+01 0.109E+04   -.371E+00 -.367E+00 0.727E+00   0.484E-01 0.159E-01 0.225E+00
   -.114E+01 0.610E+00 -.109E+04   0.115E+01 -.505E+00 0.109E+04   0.646E-02 -.490E-01 0.927E+00   -.150E-01 -.514E-01 0.287E+00
   0.114E+01 0.610E+00 -.109E+04   -.115E+01 -.506E+00 0.109E+04   -.646E-02 -.490E-01 0.927E+00   0.141E-01 -.489E-01 0.288E+00
   -.123E-03 0.492E+00 -.109E+04   0.243E-03 -.780E+00 0.109E+04   -.257E-07 0.386E+00 0.788E+00   0.115E-01 -.392E-01 0.262E+00
   -.290E-04 0.154E+02 -.353E+04   0.289E-04 -.152E+02 0.352E+04   0.158E-07 -.237E+00 0.247E+01   0.156E-02 0.488E-02 0.354E+00
   0.187E+02 0.602E+02 -.349E+04   -.180E+02 -.605E+02 0.349E+04   -.711E+00 0.758E-01 0.291E+01   0.139E-01 -.166E-01 0.331E+00
   -.187E+02 0.602E+02 -.349E+04   0.180E+02 -.605E+02 0.349E+04   0.711E+00 0.758E-01 0.291E+01   -.352E-01 -.158E-01 0.330E+00
   0.649E+02 -.905E-01 -.345E+04   -.657E+02 0.305E+00 0.344E+04   0.783E+00 -.178E+00 0.412E+01   -.110E+00 -.349E-01 0.318E+00
   -.649E+02 -.901E-01 -.345E+04   0.657E+02 0.305E+00 0.344E+04   -.783E+00 -.178E+00 0.412E+01   0.882E-01 -.341E-01 0.318E+00
   0.197E+02 -.604E+02 -.349E+04   -.192E+02 0.604E+02 0.349E+04   -.410E+00 0.978E-01 0.281E+01   -.968E-01 0.825E-01 0.263E+00
   -.197E+02 -.604E+02 -.349E+04   0.192E+02 0.604E+02 0.349E+04   0.410E+00 0.978E-01 0.281E+01   0.774E-01 0.825E-01 0.265E+00
   -.139E-03 -.155E+02 -.353E+04   0.261E-03 0.153E+02 0.353E+04   -.152E-07 0.228E+00 0.276E+01   -.107E-01 0.858E-02 0.307E+00
   -.524E-04 0.105E+01 -.229E+04   0.105E-03 -.739E+00 0.229E+04   0.154E-07 -.231E+00 0.200E+01   0.432E-02 -.914E-01 0.204E+00
   -.209E-05 -.708E+01 -.142E+04   0.109E-04 0.738E+01 0.142E+04   0.178E-07 -.267E+00 0.607E+01   0.748E-03 -.324E-01 0.154E+00
   0.218E+03 0.278E+01 -.228E+04   -.264E+03 -.358E+01 0.230E+04   0.464E+02 0.827E+00 -.207E+02   -.688E-01 -.284E-01 0.464E-01
   -.218E+03 0.278E+01 -.228E+04   0.264E+03 -.358E+01 0.230E+04   -.464E+02 0.827E+00 -.207E+02   0.638E-01 -.284E-01 0.457E-01
   0.404E-04 -.625E+00 0.293E+02   0.568E-13 0.520E-13 -.409E-11   -.483E-07 0.725E+00 -.308E+02   -.382E-01 -.110E+00 0.143E+01

 POSITION                                       TOTAL-FORCE (eV/Angst)
      0.00000      0.00000      5.37156         0.000000     -0.008437      0.047203
      2.56560      0.00000      5.37156        -0.003563      0.003166      0.070644
      5.13119      0.00000      5.37156         0.003563      0.003166      0.070644
      1.28280      2.22187      5.37156         0.003923      0.004620      0.058108
      3.84839      2.22187      5.37156         0.000000     -0.007610      0.028914
      6.41399      2.22187      5.37156        -0.003923      0.004620      0.058108
      2.56560      4.44374      5.37156        -0.000159      0.005073      0.069127
      5.13119      4.44374      5.37156         0.000159      0.005073      0.069127
      7.69679      4.44374      5.37156        -0.000000      0.000396      0.041086
      1.28280      0.74062      7.46636        -0.007125      0.004820     -0.045668
      3.84839      0.74062      7.46636        -0.000000      0.009845     -0.078891
      6.41399      0.74062      7.46636         0.007125      0.004820     -0.045668
      2.56560      2.96249      7.46636        -0.019241      0.002127     -0.084940
      5.13119      2.96249      7.46636         0.019241      0.002127     -0.084940
      7.69679      2.96249      7.46636         0.000000     -0.016849     -0.045771
      3.84839      5.18437      7.46636        -0.000000      0.000204     -0.042163
      6.41399      5.18437      7.46636        -0.011368     -0.004364     -0.022023
      8.97958      5.18437      7.46636         0.011368     -0.004364     -0.022023
      7.69679      1.48386      9.55425         0.000000     -0.001715      0.087115
      2.56752      1.48236      9.54187        -0.085057     -0.031346     -0.054087
      5.12927      1.48236      9.54187         0.085057     -0.031346     -0.054087
      8.97669      3.70479      9.55452         0.053124     -0.030009      0.028289
      3.84839      3.70090      9.54187        -0.000000      0.087887     -0.103788
      6.41688      3.70479      9.55452        -0.053124     -0.030009      0.028289
     10.26012      5.92368      9.55425        -0.001505      0.006136      0.022822
      5.13345      5.92368      9.55425         0.001505      0.006136      0.022822
      7.69679      5.92165      9.55452        -0.000000      0.059651      0.001263
      0.00000      0.00000     11.62539         0.000000     -0.062145     -0.025853
      2.57645      0.02208     11.63568        -0.011289     -0.210122     -0.140030
      5.12034      0.02208     11.63568         0.011289     -0.210122     -0.140030
      1.30734      2.22023     11.63568        -0.114088      0.002549      0.130395
      6.38944      2.22023     11.63568         0.114088      0.002549      0.130395
      2.57929      4.42331     11.63568         0.003448      0.186232     -0.112281
      5.11749      4.42331     11.63568        -0.003448      0.186232     -0.112281
      7.69679      4.44374     11.62587        -0.000000      0.068061     -0.020355
      3.84839      2.22187     11.51524         0.000000     -0.011002      0.327472
      3.84839      2.23878     13.43648        -0.000000      0.000824     -0.059198
      2.67877      2.21743     13.87048        -0.021714      0.001566      0.001128
      5.01802      2.21743     13.87048         0.021714      0.001566      0.001128
    total drift:                               -0.038158     -0.010210     -0.102911

  FREE ENERGIE OF THE ION-ELECTRON SYSTEM (eV)
  free  energy   TOTEN  =      -151.21918186 eV

  energy  without entropy=     -151.21918186  energy(sigma->0) =     -151.21918186

 stress matrix after NEB project (eV)
     -6.97423      0.00000      0.00000
      0.00000     -6.57267     -0.03485
      0.00000     -0.03485     -0.35088
  FORCES: max atom, RMS     0.059204    0.010688
  FORCE total and by dimension    0.066750    0.059198
  Stress total and by dimension    9.589858    6.974228
|           W    W    AA    RRRRR   N    N  II  N    N   GGGG   !!!           |
|           W    W   A  A   R    R  NN   N  II  NN   N  G    G  !!!           |
|           W    W  A    A  R    R  N N  N  II  N N  N  G       !!!           |
|           W WW W  AAAAAA  RRRRR   N  N N  II  N  N N  G  GGG   !            |
|           WW  WW  A    A  R   R   N   NN  II  N   NN  G    G                |
|           W    W  A    A  R    R  N    N  II  N    N   GGGG   !!!           |
|     Tetrahedron method does not include variations of the Fermi             |
|     occupations, so forces and stress will be inaccurate. We suggest        |
|     using a different smearing scheme ISMEAR = 1 or 2 for metals in         |
|     relaxations.                                                            |

 total charge

# of ion       s       p       d       tot
    1        0.449   0.284   9.188   9.920
    2        0.448   0.285   9.186   9.918
    3        0.448   0.285   9.186   9.918
    4        0.448   0.284   9.188   9.921
    5        0.449   0.284   9.185   9.919
    6        0.448   0.284   9.188   9.921
    7        0.448   0.285   9.184   9.918
    8        0.448   0.285   9.184   9.918
    9        0.447   0.284   9.187   9.918
   10        0.442   0.373   9.177   9.991
   11        0.443   0.369   9.183   9.995
   12        0.442   0.373   9.177   9.991
   13        0.442   0.370   9.181   9.992
   14        0.442   0.370   9.181   9.992
   15        0.439   0.372   9.177   9.987
   16        0.441   0.371   9.177   9.990
   17        0.440   0.369   9.180   9.989
   18        0.440   0.369   9.180   9.989
   19        0.437   0.370   9.182   9.989
   20        0.454   0.392   9.169  10.015
   21        0.454   0.392   9.169  10.015
   22        0.434   0.375   9.181   9.990
   23        0.454   0.386   9.174  10.014
   24        0.434   0.375   9.181   9.990
   25        0.440   0.368   9.183   9.990
   26        0.440   0.368   9.183   9.990
   27        0.435   0.373   9.182   9.990
   28        0.449   0.280   9.191   9.920
   29        0.452   0.289   9.184   9.926
   30        0.452   0.289   9.184   9.926
   31        0.434   0.293   9.186   9.913
   32        0.434   0.293   9.186   9.913
   33        0.453   0.290   9.184   9.927
   34        0.453   0.290   9.184   9.927
   35        0.443   0.284   9.190   9.916
   36        0.460   0.416   6.456   7.332
   37        0.887   1.689   0.000   2.576
   38        1.599   3.469   0.000   5.068
   39        1.599   3.469   0.000   5.068
tot         20.098  20.645 327.838 368.580

 BZINTS: Fermi energy:   -0.535353;  409.000000 electrons
         Band energy:-0.146184E+04;  BLOECHL correction:   -0.044681