 vasp.6.2.0 18Jan21 (build Jun 12 2021 23:27:24) complex

 executed on             LinuxIFC date 2022.05.28  01:51:45

 INCAR:
   ISMEAR = -5
   SIGMA = 0.1
   ISPIN = 1
   EDIFF = 1.d-5
   EDIFFG = -0.01
   NSW = 0
   NELM = 150
   ENCUT = 500
   ISIF = 2
   IBRION = 2
   LREAL = Auto
   ALGO = Fast
   ICHARG = 11
   LORBIT = 10
   LCHARG = .F.
   LWAVE = .F.

 POTCAR:    PAW_PBE Ag 02Apr2005
 POTCAR:    PAW_PBE Rh 04Feb2005
 POTCAR:    PAW_PBE C 08Apr2002
 POTCAR:    PAW_PBE O 08Apr2002
|           W    W    AA    RRRRR   N    N  II  N    N   GGGG   !!!           |
|           W    W   A  A   R    R  NN   N  II  NN   N  G    G  !!!           |
|           W    W  A    A  R    R  N N  N  II  N N  N  G       !!!           |
|           W WW W  AAAAAA  RRRRR   N  N N  II  N  N N  G  GGG   !            |
|           WW  WW  A    A  R   R   N   NN  II  N   NN  G    G                |
|           W    W  A    A  R    R  N    N  II  N    N   GGGG   !!!           |
|     For optimal performance we recommend to set                             |
|       NCORE = 2 up to number-of-cores-per-socket                            |
|     This setting can greatly improve the performance of VASP for DFT.       |
|     The default, NCORE=1 might be grossly inefficient on modern             |
|     multi-core architectures or massively parallel machines. Do your        |
|     Unfortunately you need to use the default for GW and RPA                |
|     calculations (for HF NCORE is supported but not extensively tested      |
|     yet).                                                                   |

 POTCAR:    PAW_PBE Ag 02Apr2005
   VRHFIN =Ag : s1 d10

   TITEL  = PAW_PBE Ag 02Apr2005
   POMASS =  107.868; ZVAL   =   11.000    mass and valenz
   ENMAX  =  249.844; ENMIN  =  187.383 eV

 POTCAR:    PAW_PBE Rh 04Feb2005
   VRHFIN =Rh: s1 d8

   TITEL  = PAW_PBE Rh 04Feb2005
   POMASS =  102.906; ZVAL   =    9.000    mass and valenz
   ENMAX  =  228.996; ENMIN  =  171.747 eV

 POTCAR:    PAW_PBE C 08Apr2002
   VRHFIN =C: s2p2

[...]

 POTCAR:    PAW_PBE O 08Apr2002
   VRHFIN =O: s2p4

   TITEL  = PAW_PBE O 08Apr2002
   POMASS =   16.000; ZVAL   =    6.000    mass and valenz
   ENMAX  =  400.000; ENMIN  =  300.000 eV

 Optimization of the real space projectors (new method)

 maximal supplied QI-value         = 15.12
 optimisation between [QCUT,QGAM] = [ 11.34, 22.83] = [ 36.00,145.93] Ry
 Optimized for a Real-space Cutoff    1.43 Angstroem

   l    n(q)    QCUT    max X(q) W(low)/X(q) W(high)/X(q)  e(spline)
   2      9    11.338    53.897    0.16E-03    0.20E-03    0.28E-06
   2      9    11.338    52.416    0.16E-03    0.20E-03    0.29E-06
   0     10    11.338   122.045    0.31E-04    0.76E-04    0.15E-06
   0     10    11.338    73.629    0.30E-04    0.72E-04    0.15E-06
   1      9    11.338    15.255    0.20E-03    0.19E-04    0.17E-06
   1      9    11.338     9.562    0.16E-03    0.15E-04    0.14E-06
 Optimization of the real space projectors (new method)

[...]

   l    n(q)    QCUT    max X(q) W(low)/X(q) W(high)/X(q)  e(spline)
   0      7    11.310   115.676    0.43E-03    0.13E-02    0.19E-06
   0      7    11.310    87.132    0.43E-03    0.13E-02    0.18E-06
   1      6    11.310     4.429    0.42E-03    0.74E-03    0.11E-06
   1      6    11.310     2.733    0.34E-03    0.55E-03    0.92E-07
 Optimization of the real space projectors (new method)

 maximal supplied QI-value         = 24.76
 optimisation between [QCUT,QGAM] = [ 11.39, 22.77] = [ 36.31,145.25] Ry
 Optimized for a Real-space Cutoff    1.00 Angstroem

   l    n(q)    QCUT    max X(q) W(low)/X(q) W(high)/X(q)  e(spline)
   0      7    11.387    20.381    0.39E-03    0.13E-02    0.15E-06
   0      7    11.387    15.268    0.42E-03    0.14E-02    0.17E-06
   1      6    11.387     5.964    0.41E-03    0.11E-02    0.17E-06
   1      6    11.387     5.382    0.39E-03    0.87E-03    0.15E-06
  PAW_PBE Ag 02Apr2005                  :
  PAW_PBE Rh 04Feb2005                  :
  PAW_PBE C 08Apr2002                   :
  PAW_PBE O 08Apr2002                   :

 POSCAR: Ag-Rh-CO2
  positions in direct lattice
  velocities in cartesian coordinates
 exchange correlation table for  LEXCH =        8
   RHO(1)=    0.500       N(1)  =     2000
   RHO(2)=  100.500       N(2)  =     4000

 VTST: version 3.2, (02/03/18)

 CHAIN: initializing optimizer

 OPT: Using VASP Conjugate-Gradient optimizer
 CHAIN: Read ICHAIN            0

 POSCAR: Ag-Rh-CO2
  positions in direct lattice
  velocities in cartesian coordinates

 ion  position               nearest neighbor table
   1  0.000  0.000  0.217-   2 2.93   8 2.93   7 2.93   6 2.93   4 2.93  12 2.93  16 2.93  10 2.93
                             3 2.93
   2  0.333  0.000  0.217-   1 2.93   8 2.93   9 2.93   3 2.93   4 2.93   5 2.93  10 2.93  17 2.93
                            11 2.93
   3  0.667  0.000  0.217-   9 2.93   2 2.93   5 2.93  11 2.93   7 2.93  18 2.93   1 2.93   6 2.93
                            12 2.93
   4  0.000  0.333  0.217-   5 2.93   6 2.93   2 2.93   1 2.93   7 2.93  13 2.93  15 2.93   9 2.93
                            10 2.93
   5  0.333  0.333  0.217-   4 2.93   3 2.93   7 2.93   2 2.93   8 2.93  14 2.93  13 2.93  11 2.93
                             6 2.93
   6  0.667  0.333  0.217-   4 2.93   9 2.93   1 2.93  15 2.93   8 2.93  12 2.93   3 2.93   5 2.93
                            14 2.93
   7  0.000  0.667  0.217-   8 2.93   1 2.93   5 2.93   3 2.93   4 2.93  16 2.93  18 2.93  13 2.93
                             9 2.93
   8  0.333  0.667  0.217-   7 2.93   1 2.93   2 2.93   9 2.93   5 2.93  16 2.93   6 2.93  17 2.93
                            14 2.93
   9  0.667  0.667  0.217-   3 2.93   2 2.93   8 2.93   6 2.93  17 2.93   4 2.93  15 2.93   7 2.93
                            18 2.93
  10  0.111  0.111  0.315-  20 2.90  19 2.93  26 2.93  12 2.93  16 2.93  15 2.93  17 2.93  13 2.93
                            11 2.93   2 2.93   1 2.93   4 2.93
  11  0.444  0.111  0.315-  21 2.90  20 2.90  27 2.92  14 2.93  17 2.93  18 2.93   3 2.93  12 2.93
                            13 2.93  10 2.93   5 2.93   2 2.93
  12  0.778  0.111  0.315-  21 2.90  25 2.93  19 2.93  10 2.93  16 2.93  18 2.93  15 2.93  11 2.93
                             1 2.93  14 2.93   6 2.93   3 2.93
  13  0.111  0.444  0.315-  20 2.90  23 2.90  22 2.92  15 2.93  14 2.93  18 2.93  10 2.93  11 2.93
                            16 2.93   4 2.93   5 2.93   7 2.93
  14  0.444  0.444  0.315-  23 2.90  21 2.90  24 2.92  13 2.93  11 2.93  16 2.93   5 2.93  12 2.93
                            17 2.93   8 2.93  15 2.93   6 2.93
  15  0.778  0.444  0.315-  24 2.92  22 2.92  19 2.92  13 2.93  10 2.93  12 2.93  17 2.93  18 2.93
                             4 2.93   6 2.93   9 2.93  14 2.93
  16  0.111  0.778  0.315-  23 2.90  26 2.93  25 2.93  18 2.93  12 2.93  10 2.93  14 2.93  17 2.93
                            13 2.93   7 2.93   8 2.93   1 2.93
  17  0.444  0.778  0.315-  27 2.92  24 2.92  26 2.92  11 2.93  10 2.93   9 2.93  18 2.93  15 2.93
                            16 2.93   2 2.93  14 2.93   8 2.93
  18  0.778  0.778  0.315-  22 2.92  27 2.92  25 2.92  16 2.93  12 2.93  13 2.93  11 2.93  17 2.93
                            15 2.93   7 2.93   3 2.93   9 2.93
  19  0.889  0.223  0.413-  28 2.91  15 2.92  10 2.93  12 2.93  24 2.93  22 2.93  32 2.93  31 2.93
                            20 2.93  21 2.93  26 2.94  25 2.94
  20  0.222  0.222  0.412-  36 2.78  13 2.90  11 2.90  10 2.90  31 2.91  29 2.91  21 2.92  23 2.92
                            27 2.93  22 2.93  19 2.93  26 2.93
  21  0.555  0.222  0.412-  36 2.78  11 2.90  14 2.90  12 2.90  30 2.91  32 2.91  20 2.92  23 2.92
                            27 2.93  24 2.93  25 2.93  19 2.93
  22  0.889  0.556  0.413-  35 2.90  18 2.92  15 2.92  13 2.92  33 2.92  31 2.92  25 2.93  19 2.93
                            24 2.93  27 2.93  23 2.93  20 2.93
  23  0.222  0.555  0.412-  36 2.78  14 2.90  13 2.90  16 2.90  34 2.91  33 2.91  21 2.92  20 2.92
                            22 2.93  24 2.93  26 2.93  25 2.93
  24  0.556  0.556  0.413-  35 2.90  15 2.92  17 2.92  14 2.92  32 2.92  34 2.92  19 2.93  26 2.93
                            27 2.93  22 2.93  23 2.93  21 2.93
  25  0.889  0.889  0.413-  28 2.91  18 2.92  16 2.93  12 2.93  22 2.93  27 2.93  33 2.93  30 2.93
                            23 2.93  21 2.93  26 2.94  19 2.94
  26  0.223  0.889  0.413-  28 2.91  17 2.92  16 2.93  10 2.93  27 2.93  24 2.93  34 2.93  29 2.93
                            23 2.93  20 2.93  25 2.94  19 2.94
  27  0.556  0.889  0.413-  35 2.90  17 2.92  18 2.92  11 2.92  29 2.92  30 2.92  26 2.93  25 2.93
                            24 2.93  22 2.93  20 2.93  21 2.93
  28  0.000  0.000  0.510-  26 2.91  25 2.91  19 2.91  29 2.95  34 2.95  33 2.95  32 2.95  31 2.95
                            30 2.95
  29  0.333  0.005  0.510-  31 2.88  30 2.89  36 2.89  20 2.91  27 2.92  26 2.93  28 2.95  35 2.95
                            34 3.02
  30  0.662  0.005  0.510-  32 2.88  29 2.89  36 2.89  21 2.91  27 2.92  25 2.93  28 2.95  35 2.95
                            33 3.02
  31  0.005  0.333  0.510-  29 2.88  33 2.89  36 2.89  20 2.91  22 2.92  19 2.93  28 2.95  35 2.95
                            32 3.02
  32  0.662  0.333  0.510-  30 2.88  34 2.89  36 2.89  21 2.91  24 2.92  19 2.93  28 2.95  35 2.95
                            31 3.02
  33  0.005  0.662  0.510-  34 2.88  31 2.89  36 2.89  23 2.91  22 2.92  25 2.93  28 2.95  35 2.95
                            30 3.02
  34  0.333  0.662  0.510-  33 2.88  32 2.89  36 2.89  23 2.91  24 2.92  26 2.93  28 2.95  35 2.95
                            29 3.02
  35  0.667  0.667  0.510-  24 2.90  27 2.90  22 2.90  30 2.95  32 2.95  29 2.95  34 2.95  31 2.95
                            33 2.95
  36  0.333  0.333  0.502-  37 2.04  21 2.78  20 2.78  23 2.78  31 2.89  30 2.89  33 2.89  29 2.89
                            34 2.89  32 2.89
  37  0.333  0.334  0.586-  39 1.24  38 1.24  36 2.04
  38  0.201  0.333  0.604-  37 1.24
  39  0.466  0.333  0.604-  37 1.24

  LATTYP: Found a hexagonal cell.
 ALAT       =     8.7913665772
 C/A-ratio  =     2.7703738524

  Lattice vectors:

 A1 = (  -4.3956832886,  -7.6135467898,   0.0000000000)
 A2 = (   8.7913665771,   0.0000000000,   0.0000000000)
 A3 = (   0.0000000000,   0.0000000000,  24.3553720923)

Analysis of symmetry for initial positions (statically):
 Subroutine PRICEL returns:
 Original cell was already a primitive cell.

 Routine SETGRP: Setting up the symmetry group for a
 hexagonal supercell.

 Subroutine GETGRP returns: Found  1 space group operations
 (whereof  1 operations were pure point group operations)
 out of a pool of 24 trial point group operations.

The static configuration has the point symmetry C_1 .

Analysis of symmetry for dynamics (positions and initial velocities):
 Subroutine PRICEL returns:
 Original cell was already a primitive cell.

[...]

The dynamic configuration has the point symmetry C_1 .

Analysis of constrained symmetry for selective dynamics:
 Subroutine PRICEL returns:
 Original cell was already a primitive cell.

 Routine SETGRP: Setting up the symmetry group for a
[...]
     41      -4.9548      2.00000
     42      -4.9449      2.00000
     43      -4.9256      2.00000
     44      -4.8999      2.00000
     45      -4.8892      2.00000
     46      -4.8792      2.00000
     47      -4.8628      2.00000
     48      -4.8528      2.00000
     49      -4.7757      2.00000
     50      -4.7484      2.00000
     51      -4.7446      2.00000
     52      -4.7299      2.00000
     53      -4.7251      2.00000
     54      -4.7217      2.00000
     55      -4.7094      2.00000
     56      -4.7011      2.00000
     57      -4.6821      2.00000
     58      -4.6800      2.00000
     59      -4.6097      2.00000
     60      -4.6043      2.00000
[...]
    238       5.3709      0.00000
    239       5.4831      0.00000
    240       5.7021      0.00000
    241       5.7072      0.00000
    242       5.7623      0.00000
    243       5.8136      0.00000
    244       5.8880      0.00000
    245       5.9334      0.00000
    246       6.0852      0.00000
    247       6.6229      0.00000
    248       6.6549      0.00000
    249       6.6900      0.00000
    250       6.7016      0.00000
    251       6.7510      0.00000
    252       6.7853      0.00000

 soft charge-density along one line, spin component           1
         0         1         2         3         4         5         6         7         8         9
 total charge-density along one line

------------------------ aborting loop because EDIFF is reached ----------------------------------------

 total charge

# of ion       s       p       d       tot
    1        0.416   0.203   9.178   9.797
    2        0.417   0.203   9.177   9.797
    3        0.417   0.203   9.177   9.797
    4        0.417   0.203   9.178   9.797
    5        0.417   0.202   9.177   9.797
    6        0.417   0.203   9.178   9.797
    7        0.418   0.202   9.177   9.797
    8        0.418   0.202   9.177   9.797
    9        0.415   0.203   9.178   9.795
   10        0.406   0.271   9.164   9.841
   11        0.407   0.269   9.166   9.842
   12        0.406   0.271   9.164   9.841
   13        0.407   0.269   9.166   9.842
   14        0.407   0.269   9.166   9.842
   15        0.404   0.270   9.165   9.839
   16        0.404   0.270   9.165   9.839
   17        0.403   0.269   9.166   9.838
   18        0.403   0.269   9.166   9.838
   19        0.399   0.270   9.166   9.836
   20        0.415   0.287   9.159   9.861
   21        0.415   0.287   9.159   9.861
   22        0.398   0.273   9.167   9.838
   23        0.415   0.283   9.161   9.860
   24        0.398   0.273   9.167   9.838
   25        0.402   0.267   9.168   9.838
   26        0.402   0.267   9.168   9.838
   27        0.399   0.272   9.168   9.839
   28        0.418   0.194   9.183   9.795
   29        0.411   0.202   9.182   9.796
   30        0.411   0.202   9.182   9.796
   31        0.392   0.205   9.185   9.783
   32        0.392   0.205   9.185   9.782
   33        0.412   0.202   9.182   9.796
   34        0.412   0.202   9.182   9.796
   35        0.410   0.198   9.183   9.791
   36        0.396   0.316   7.638   8.350
   37        0.887   1.691   0.000   2.578
   38        1.598   3.485   0.000   5.083
   39        1.598   3.485   0.000   5.083
tot         18.776  17.323 328.666 364.766

  FORCE on cell =-STRESS in cart. coord.  units (eV):
  Direction    XX          YY          ZZ          XY          YZ          ZX
  Alpha Z   712.98133   712.98133   712.98133
  Ewald  154095.25120153377.69062************    -0.10610    -0.16727     0.78911
  Hartree164139.91237163772.89702************    -0.05412     0.01900     0.38207
  E(xc)   -2146.10892 -2148.01638 -2152.50598    -0.00047     0.00834     0.00118
  Local  ************************328520.22419     0.15366     0.20856    -1.11375
  n-local  -378.67159  -372.83156  -377.98780     0.00427     0.03986     0.01800
  augment  3290.72060  3292.96458  3300.41473    -0.00100    -0.04664    -0.00492
  Kinetic  5176.73928  5223.93636  5238.92468     0.01000    -0.16727    -0.06408
  Fock        0.00000     0.00000     0.00000     0.00000     0.00000     0.00000
  Total      -6.98454    -6.37488    -0.29598     0.00623    -0.10542     0.00761
  in kB      -6.86452    -6.26534    -0.29090     0.00612    -0.10361     0.00748

 VOLUME and BASIS-vectors are now :
  energy-cutoff  :      500.00
  volume of cell :     1630.19
      direct lattice vectors                 reciprocal lattice vectors
     8.791366577  0.000000000  0.000000000     0.113747958 -0.065672414  0.000000000
     4.395683289  7.613546790  0.000000000     0.000000000  0.131344829  0.000000000
     0.000000000  0.000000000 24.355372092     0.000000000  0.000000000  0.041058703

  length of vectors
     8.791366577  8.791366577 24.355372092     0.131344829  0.131344829  0.041058703

 FORCES acting on ions
    electron-ion (+dipol)            ewald-force                    non-local-force                 convergence-correction
   0.121E-02 0.209E+00 0.272E+04   -.841E-04 -.426E-01 -.272E+04   0.444E-03 -.735E-01 -.204E+01   -.163E-02 -.876E-01 -.375E+00
   0.406E+00 0.756E+00 0.272E+04   -.463E+00 -.613E+00 -.272E+04   -.151E-01 -.475E-01 -.176E+01   0.763E-01 -.833E-01 -.275E+00
   -.406E+00 0.746E+00 0.272E+04   0.463E+00 -.613E+00 -.272E+04   0.151E-01 -.482E-01 -.176E+01   -.757E-01 -.730E-01 -.269E+00
   0.629E+00 0.399E-01 0.272E+04   -.726E+00 -.117E+00 -.272E+04   0.451E-01 0.144E-01 -.173E+01   0.538E-01 0.609E-01 -.282E+00
   -.157E-01 -.633E-01 0.272E+04   0.103E-03 -.398E-03 -.272E+04   -.182E-02 0.294E-01 -.163E+01   0.175E-01 0.290E-01 -.213E+00
   -.618E+00 0.351E-01 0.272E+04   0.726E+00 -.117E+00 -.272E+04   -.457E-01 0.147E-01 -.173E+01   -.641E-01 0.653E-01 -.276E+00
   0.279E+00 -.766E+00 0.272E+04   -.262E+00 0.730E+00 -.272E+04   0.760E-03 0.232E-01 -.170E+01   -.152E-01 0.618E-02 -.237E+00
   -.287E+00 -.758E+00 0.272E+04   0.262E+00 0.730E+00 -.272E+04   -.116E-02 0.228E-01 -.170E+01   0.233E-01 -.148E-02 -.238E+00
   0.129E-01 -.215E+00 0.272E+04   0.653E-04 0.430E-01 -.272E+04   0.254E-02 0.697E-01 -.190E+01   -.157E-01 0.958E-01 -.258E+00
   0.497E+01 0.337E+01 0.984E+03   -.500E+01 -.323E+01 -.984E+03   -.160E+00 -.139E+00 -.725E+00   0.170E+00 0.357E-02 -.555E-01
   -.145E-01 0.599E+01 0.992E+03   0.282E-04 -.595E+01 -.991E+03   -.342E-02 -.402E-01 -.729E+00   0.182E-01 -.568E-02 -.517E-01
   -.496E+01 0.337E+01 0.984E+03   0.500E+01 -.323E+01 -.984E+03   0.162E+00 -.141E+00 -.727E+00   -.182E+00 0.883E-02 -.521E-01
   0.472E+01 -.304E+01 0.992E+03   -.484E+01 0.303E+01 -.992E+03   0.204E-01 0.694E-02 -.613E+00   0.797E-01 0.106E-01 0.105E-01
   -.474E+01 -.303E+01 0.992E+03   0.484E+01 0.303E+01 -.992E+03   -.249E-01 0.772E-02 -.613E+00   -.564E-01 0.232E-02 0.556E-02
   0.981E-02 -.190E-01 0.984E+03   -.185E-03 -.215E+00 -.984E+03   0.594E-04 0.749E-01 -.733E+00   -.973E-02 0.138E+00 -.165E-01
   0.198E-02 -.592E+01 0.984E+03   0.136E-03 0.588E+01 -.983E+03   -.239E-03 0.182E+00 -.630E+00   -.176E-02 -.139E+00 -.751E-01
   0.189E+00 -.354E+00 0.984E+03   -.374E+00 0.343E+00 -.983E+03   0.792E-01 0.156E-01 -.622E+00   0.889E-01 -.802E-02 -.105E+00
   -.192E+00 -.367E+00 0.984E+03   0.374E+00 0.343E+00 -.983E+03   -.787E-01 0.160E-01 -.622E+00   -.868E-01 0.398E-02 -.980E-01
   0.162E-01 0.468E+01 -.787E+03   0.328E-03 -.488E+01 0.786E+03   0.224E-02 0.843E-01 0.668E+00   -.188E-01 0.116E+00 0.204E+00
   0.194E+02 0.131E+02 -.742E+03   -.188E+02 -.128E+02 0.743E+03   -.739E+00 -.423E+00 -.800E+00   0.111E+00 0.129E+00 0.180E+00
   -.194E+02 0.131E+02 -.742E+03   0.188E+02 -.128E+02 0.743E+03   0.741E+00 -.424E+00 -.805E+00   -.100E+00 0.124E+00 0.176E+00
   0.104E+02 -.826E+01 -.776E+03   -.106E+02 0.849E+01 0.776E+03   0.217E+00 -.185E+00 0.557E+00   0.629E-01 -.499E-01 0.105E+00
   0.303E-02 -.251E+02 -.745E+03   0.128E-02 0.246E+02 0.745E+03   0.301E-02 0.766E+00 -.564E+00   -.723E-02 -.157E+00 0.189E+00
   -.104E+02 -.825E+01 -.776E+03   0.106E+02 0.849E+01 0.776E+03   -.218E+00 -.185E+00 0.557E+00   -.613E-01 -.600E-01 0.107E+00
   -.290E+01 -.704E+00 -.791E+03   0.298E+01 0.816E+00 0.790E+03   -.340E-01 -.368E-01 0.682E+00   -.529E-01 -.690E-01 0.203E+00
   0.291E+01 -.697E+00 -.791E+03   -.298E+01 0.816E+00 0.790E+03   0.381E-01 -.366E-01 0.682E+00   0.312E-01 -.765E-01 0.204E+00
   -.713E-02 0.124E+02 -.779E+03   -.456E-03 -.127E+02 0.779E+03   0.437E-03 0.226E+00 0.631E+00   0.701E-02 0.181E-01 0.647E-01
   -.290E-02 0.108E+02 -.257E+04   0.109E-01 -.105E+02 0.256E+04   -.771E-03 -.153E+00 0.215E+01   -.722E-02 -.951E-01 0.297E+00
   0.354E+02 0.835E+02 -.253E+04   -.348E+02 -.834E+02 0.253E+04   -.596E+00 -.345E+00 0.234E+01   -.660E-02 0.268E-01 0.248E+00
   -.354E+02 0.835E+02 -.253E+04   0.348E+02 -.834E+02 0.253E+04   0.593E+00 -.348E+00 0.234E+01   0.268E-01 0.336E-01 0.242E+00
   0.970E+02 -.159E+00 -.250E+04   -.973E+02 0.265E+00 0.249E+04   0.126E-01 -.106E+00 0.289E+01   0.136E+00 0.122E-01 0.193E+00
   -.970E+02 -.170E+00 -.250E+04   0.972E+02 0.275E+00 0.249E+04   -.945E-02 -.107E+00 0.289E+01   -.125E+00 0.127E-01 0.189E+00
   0.358E+02 -.834E+02 -.253E+04   -.355E+02 0.831E+02 0.253E+04   -.347E+00 0.425E+00 0.233E+01   0.586E-01 -.242E-01 0.211E+00
   -.358E+02 -.834E+02 -.253E+04   0.355E+02 0.831E+02 0.253E+04   0.343E+00 0.429E+00 0.233E+01   -.362E-01 -.295E-01 0.214E+00
   0.101E-01 -.107E+02 -.256E+04   0.456E-02 0.105E+02 0.256E+04   0.220E-02 0.144E+00 0.223E+01   -.170E-01 0.343E-01 0.247E+00
   -.146E-01 0.231E+00 -.179E+04   0.270E-01 -.256E+00 0.179E+04   -.173E-01 -.642E-01 -.411E+00   0.549E-02 0.342E-01 0.584E-01
   -.135E+00 -.159E+01 -.101E+04   0.151E+00 0.164E+01 0.101E+04   -.128E-01 -.543E-01 0.482E+01   0.137E-02 0.102E-02 0.760E-01
   0.233E+03 0.490E+00 -.169E+04   -.281E+03 -.661E+00 0.171E+04   0.477E+02 0.171E+00 -.201E+02   -.266E-01 -.212E-02 0.266E-01
   -.233E+03 0.561E+00 -.169E+04   0.281E+03 -.751E+00 0.171E+04   -.477E+02 0.191E+00 -.202E+02   0.276E-01 0.253E-02 0.193E-01
   -.186E-01 0.360E-01 0.360E+02   0.568E-13 0.349E-13 0.148E-10   -.477E-02 -.467E-01 -.367E+02   0.293E-01 0.753E-02 0.591E+00

 POSITION                                       TOTAL-FORCE (eV/Angst)
      0.00000      0.00000      5.28219        -0.000213      0.005705      0.048963
      2.93046      0.00000      5.28219         0.003611      0.011642      0.037650
      5.86091      0.00000      5.28219        -0.003885      0.011637      0.037485
      1.46523      2.53785      5.28219         0.001125     -0.001179      0.028825
      4.39568      2.53785      5.28219        -0.000058     -0.005191      0.000683
      7.32614      2.53785      5.28219        -0.001331     -0.001318      0.028726
      2.93046      5.07570      5.28219         0.002059     -0.006434      0.035028
      5.86091      5.07570      5.28219        -0.002397     -0.006329      0.035080
      8.79137      5.07570      5.28219        -0.000364     -0.006052      0.033504
      1.46523      0.84595      7.67490        -0.011643      0.005233     -0.001293
      4.39568      0.84595      7.67490         0.000188     -0.009740     -0.070947
      7.32614      0.84595      7.67490         0.011123      0.005450     -0.000944
      2.93046      3.38380      7.67490        -0.020705      0.012732     -0.069239
      5.86091      3.38380      7.67490         0.020907      0.012633     -0.069447
      8.79137      3.38380      7.67490        -0.000203     -0.020646     -0.012054
      4.39568      5.92165      7.67490        -0.000036      0.002651     -0.000482
      7.32614      5.92165      7.67490        -0.016720     -0.003601     -0.000384
     10.25659      5.92165      7.67490         0.016318     -0.003537     -0.000392
      8.79137      1.69615     10.06050        -0.000227     -0.002635      0.064045
      2.93321      1.69349     10.03240        -0.076268     -0.045149     -0.083262
      5.85816      1.69349     10.03240         0.074450     -0.044068     -0.081731
     10.25564      4.23030     10.05204         0.011722     -0.007121      0.015705
      4.39568      4.22657     10.03240        -0.000072      0.113011     -0.113090
      7.32709      4.23030     10.05204        -0.011828     -0.006939      0.015702
     11.71814      6.76547     10.06050        -0.003877      0.006576      0.011037
      5.86459      6.76547     10.06050         0.003252      0.006728      0.011123
      8.79137      6.76650     10.05204        -0.000291      0.032067      0.003672
      0.00000      0.00000     12.42190        -0.000135     -0.014328     -0.006608
      2.95118      0.03878     12.42853        -0.025998     -0.167055     -0.072161
      5.84018      0.03878     12.42853         0.026088     -0.166456     -0.071666
      1.50917      2.53641     12.42853        -0.127288      0.011333      0.050631
      7.28219      2.53641     12.42853         0.126529      0.011265      0.051319
      2.95367      5.03836     12.42853        -0.040738      0.153770     -0.067556
      5.83769      5.03836     12.42853         0.040771      0.153135     -0.067161
      8.79137      5.07570     12.41313        -0.000295      0.017652     -0.009897
      4.39568      2.53785     12.23685         0.000470     -0.055133      0.316375
      4.39712      2.54233     14.27631         0.004370     -0.000500     -0.052046
      3.23199      2.53801     14.69979        -0.009414     -0.002025      0.016171
      5.56099      2.53764     14.70276         0.011004      0.002216      0.008636
    total drift:                                0.005978     -0.003128     -0.139654

  FREE ENERGIE OF THE ION-ELECTRON SYSTEM (eV)
  free  energy   TOTEN  =      -118.05759754 eV

  energy  without entropy=     -118.05759754  energy(sigma->0) =     -118.05759754

 stress matrix after NEB project (eV)
     -6.98454      0.00623      0.00761
      0.00623     -6.37488     -0.10542
      0.00761     -0.10542     -0.29598
  FORCES: max atom, RMS     0.052232    0.009175
  FORCE total and by dimension    0.057297    0.052046
  Stress total and by dimension    9.462184    6.984537
|           W    W    AA    RRRRR   N    N  II  N    N   GGGG   !!!           |
|           W    W   A  A   R    R  NN   N  II  NN   N  G    G  !!!           |
|           W    W  A    A  R    R  N N  N  II  N N  N  G       !!!           |
|           W WW W  AAAAAA  RRRRR   N  N N  II  N  N N  G  GGG   !            |
|           WW  WW  A    A  R   R   N   NN  II  N   NN  G    G                |
|           W    W  A    A  R    R  N    N  II  N    N   GGGG   !!!           |
|     Tetrahedron method does not include variations of the Fermi             |
|     occupations, so forces and stress will be inaccurate. We suggest        |
|     using a different smearing scheme ISMEAR = 1 or 2 for metals in         |
|     relaxations.                                                            |

 total charge

# of ion       s       p       d       tot
    1        0.416   0.203   9.178   9.797
    2        0.417   0.203   9.177   9.797
    3        0.417   0.203   9.177   9.797
    4        0.417   0.203   9.178   9.797
    5        0.417   0.202   9.177   9.797
    6        0.417   0.203   9.178   9.797
    7        0.418   0.202   9.177   9.797
    8        0.418   0.202   9.177   9.797
    9        0.415   0.203   9.178   9.795
   10        0.406   0.271   9.164   9.841
   11        0.407   0.269   9.166   9.842
   12        0.406   0.271   9.164   9.841
   13        0.407   0.269   9.166   9.842
   14        0.407   0.269   9.166   9.842
   15        0.404   0.270   9.165   9.839
   16        0.404   0.270   9.165   9.839
   17        0.403   0.269   9.166   9.838
   18        0.403   0.269   9.166   9.838
   19        0.399   0.270   9.166   9.836
   20        0.415   0.287   9.159   9.861
   21        0.415   0.287   9.159   9.861
   22        0.398   0.273   9.167   9.838
   23        0.415   0.283   9.161   9.860
   24        0.398   0.273   9.167   9.838
   25        0.402   0.267   9.168   9.838
   26        0.402   0.267   9.168   9.838
   27        0.399   0.272   9.168   9.839
   28        0.418   0.194   9.183   9.795
   29        0.411   0.202   9.182   9.796
   30        0.411   0.202   9.182   9.796
   31        0.392   0.205   9.185   9.783
   32        0.392   0.205   9.185   9.782
   33        0.412   0.202   9.182   9.796
   34        0.412   0.202   9.182   9.796
   35        0.410   0.198   9.183   9.791
   36        0.396   0.316   7.638   8.350
   37        0.887   1.691   0.000   2.578
   38        1.598   3.485   0.000   5.083
   39        1.598   3.485   0.000   5.083
tot         18.776  17.323 328.666 364.766

 BZINTS: Fermi energy:    0.222058;  410.000000 electrons
         Band energy:-0.163488E+04;  BLOECHL correction:   -0.060180