 vasp.6.2.0 18Jan21 (build Jun 12 2021 23:27:24) complex

 executed on             LinuxIFC date 2022.05.27  05:49:09

 INCAR:
   ISMEAR = -5
   SIGMA = 0.1
   ISPIN = 1
   EDIFF = 1.d-5
   EDIFFG = -0.01
   NSW = 0
   NELM = 150
   ENCUT = 500
   ISIF = 2
   IBRION = 2
   LREAL = Auto
   ALGO = Fast
   ICHARG = 11
   LORBIT = 10
   LCHARG = .F.
   LWAVE = .F.

 POTCAR:    PAW_PBE Ag 02Apr2005
 POTCAR:    PAW_PBE Ta 17Jan2003
 POTCAR:    PAW_PBE N 08Apr2002
|           W    W    AA    RRRRR   N    N  II  N    N   GGGG   !!!           |
|           W    W   A  A   R    R  NN   N  II  NN   N  G    G  !!!           |
|           W    W  A    A  R    R  N N  N  II  N N  N  G       !!!           |
|           W WW W  AAAAAA  RRRRR   N  N N  II  N  N N  G  GGG   !            |
|           WW  WW  A    A  R   R   N   NN  II  N   NN  G    G                |
|           W    W  A    A  R    R  N    N  II  N    N   GGGG   !!!           |
|     For optimal performance we recommend to set                             |
|       NCORE = 2 up to number-of-cores-per-socket                            |
|     This setting can greatly improve the performance of VASP for DFT.       |
|     The default, NCORE=1 might be grossly inefficient on modern             |
|     multi-core architectures or massively parallel machines. Do your        |
|     Unfortunately you need to use the default for GW and RPA                |
|     calculations (for HF NCORE is supported but not extensively tested      |
|     yet).                                                                   |

 POTCAR:    PAW_PBE Ag 02Apr2005
   VRHFIN =Ag : s1 d10

   TITEL  = PAW_PBE Ag 02Apr2005
   POMASS =  107.868; ZVAL   =   11.000    mass and valenz
   ENMAX  =  249.844; ENMIN  =  187.383 eV

 POTCAR:    PAW_PBE Ta 17Jan2003
   VRHFIN =Ta:  6s5d

   TITEL  = PAW_PBE Ta 17Jan2003
   POMASS =  180.948; ZVAL   =    5.000    mass and valenz
   ENMAX  =  223.667; ENMIN  =  167.750 eV

 POTCAR:    PAW_PBE N 08Apr2002
   VRHFIN =N: s2p3

   TITEL  = PAW_PBE N 08Apr2002
   POMASS =   14.001; ZVAL   =    5.000    mass and valenz
   ENMAX  =  400.000; ENMIN  =  300.000 eV

 Optimization of the real space projectors (new method)

 maximal supplied QI-value         = 15.12
 optimisation between [QCUT,QGAM] = [ 11.34, 22.83] = [ 36.00,145.93] Ry
 Optimized for a Real-space Cutoff    1.43 Angstroem

   l    n(q)    QCUT    max X(q) W(low)/X(q) W(high)/X(q)  e(spline)
   2      9    11.338    53.897    0.16E-03    0.20E-03    0.28E-06
   2      9    11.338    52.416    0.16E-03    0.20E-03    0.29E-06
   0     10    11.338   122.045    0.31E-04    0.76E-04    0.15E-06
   0     10    11.338    73.629    0.30E-04    0.72E-04    0.15E-06
   1      9    11.338    15.255    0.20E-03    0.19E-04    0.17E-06
   1      9    11.338     9.562    0.16E-03    0.15E-04    0.14E-06
 Optimization of the real space projectors (new method)

[...]

   l    n(q)    QCUT    max X(q) W(low)/X(q) W(high)/X(q)  e(spline)
   2     10    11.437    62.315    0.14E-03    0.26E-03    0.80E-06
   2     10    11.437    52.185    0.14E-03    0.26E-03    0.80E-06
   0     11    11.437   103.837    0.25E-04    0.17E-04    0.84E-07
   0     11    11.437    59.728    0.20E-04    0.15E-04    0.73E-07
   1     11    11.437    13.958    0.47E-03    0.12E-03    0.89E-06
   1     11    11.437     8.441    0.33E-03    0.88E-04    0.61E-06
 Optimization of the real space projectors (new method)

 maximal supplied QI-value         = 25.13
 optimisation between [QCUT,QGAM] = [ 11.31, 22.87] = [ 35.82,146.48] Ry
 Optimized for a Real-space Cutoff    1.27 Angstroem

   l    n(q)    QCUT    max X(q) W(low)/X(q) W(high)/X(q)  e(spline)
   0      9    11.310    79.467    0.75E-04    0.16E-03    0.36E-06
   0      9    11.310    66.151    0.74E-04    0.16E-03    0.36E-06
   1      8    11.310    17.416    0.35E-03    0.12E-03    0.95E-06
   1      8    11.310    12.382    0.37E-03    0.13E-03    0.98E-06
  PAW_PBE Ag 02Apr2005                  :
  PAW_PBE Ta 17Jan2003                  :
  PAW_PBE N 08Apr2002                   :

 POSCAR: Ag-Ta-N2
  positions in direct lattice
  velocities in cartesian coordinates
 exchange correlation table for  LEXCH =        8
   RHO(1)=    0.500       N(1)  =     2000
   RHO(2)=  100.500       N(2)  =     4000

 VTST: version 3.2, (02/03/18)

 CHAIN: initializing optimizer

 OPT: Using VASP Conjugate-Gradient optimizer
 CHAIN: Read ICHAIN            0

 POSCAR: Ag-Ta-N2
  positions in direct lattice
  velocities in cartesian coordinates

 ion  position               nearest neighbor table
   1  0.000  0.000  0.220-   2 2.93   8 2.93   7 2.93   6 2.93   4 2.93  12 2.93  16 2.93  10 2.93
                             3 2.93
   2  0.333  0.000  0.220-   1 2.93   8 2.93   9 2.93   3 2.93   4 2.93   5 2.93  10 2.93  17 2.93
                            11 2.93
   3  0.667  0.000  0.220-   9 2.93   2 2.93   5 2.93  11 2.93   7 2.93  18 2.93   1 2.93   6 2.93
                            12 2.93
   4  0.000  0.333  0.220-   5 2.93   6 2.93   2 2.93   1 2.93   7 2.93  13 2.93  15 2.93   9 2.93
                            10 2.93
   5  0.333  0.333  0.220-   4 2.93   3 2.93   7 2.93   2 2.93   8 2.93  14 2.93  13 2.93  11 2.93
                             6 2.93
   6  0.667  0.333  0.220-   4 2.93   9 2.93   1 2.93  15 2.93   8 2.93  12 2.93   3 2.93   5 2.93
                            14 2.93
   7  0.000  0.667  0.220-   8 2.93   1 2.93   5 2.93   3 2.93   4 2.93  16 2.93  18 2.93  13 2.93
                             9 2.93
   8  0.333  0.667  0.220-   7 2.93   1 2.93   2 2.93   9 2.93   5 2.93  16 2.93   6 2.93  17 2.93
                            14 2.93
   9  0.667  0.667  0.220-   3 2.93   2 2.93   8 2.93   6 2.93  17 2.93   4 2.93  15 2.93   7 2.93
                            18 2.93
  10  0.111  0.111  0.319-  20 2.89  12 2.93  16 2.93  15 2.93  17 2.93  13 2.93  11 2.93   2 2.93
                             1 2.93   4 2.93  19 2.93  26 2.93
  11  0.444  0.111  0.319-  21 2.90  20 2.90  14 2.93  17 2.93  18 2.93   3 2.93  12 2.93  13 2.93
                            10 2.93   5 2.93   2 2.93  27 2.93
  12  0.778  0.111  0.319-  21 2.89  10 2.93  16 2.93  18 2.93  15 2.93  11 2.93   1 2.93  14 2.93
                             6 2.93   3 2.93  25 2.93  19 2.93
  13  0.111  0.444  0.319-  20 2.90  23 2.90  15 2.93  14 2.93  18 2.93  10 2.93  11 2.93  16 2.93
                             4 2.93   5 2.93   7 2.93  22 2.93
  14  0.444  0.444  0.319-  23 2.90  21 2.90  13 2.93  11 2.93  16 2.93   5 2.93  12 2.93  17 2.93
                             8 2.93  15 2.93   6 2.93  24 2.93
  15  0.778  0.444  0.319-  19 2.93  24 2.93  22 2.93  13 2.93  10 2.93  12 2.93  17 2.93  18 2.93
                             4 2.93   6 2.93   9 2.93  14 2.93
  16  0.111  0.778  0.319-  23 2.89  18 2.93  12 2.93  10 2.93  14 2.93  17 2.93  13 2.93   7 2.93
                             8 2.93   1 2.93  26 2.93  25 2.93
  17  0.444  0.778  0.319-  26 2.93  27 2.93  24 2.93  11 2.93  10 2.93   9 2.93  18 2.93  15 2.93
                            16 2.93   2 2.93  14 2.93   8 2.93
  18  0.778  0.778  0.319-  25 2.93  22 2.93  27 2.93  16 2.93  12 2.93  13 2.93  11 2.93  17 2.93
                            15 2.93   7 2.93   3 2.93   9 2.93
  19  0.889  0.223  0.419-  20 2.92  21 2.92  24 2.93  22 2.93  28 2.93  15 2.93  10 2.93  12 2.93
                            26 2.94  25 2.94  32 2.99  31 2.99
  20  0.222  0.222  0.417-  36 2.78  10 2.89  13 2.90  11 2.90  19 2.92  26 2.92  27 2.93  22 2.93
                            21 2.95  23 2.95  31 2.97  29 2.97
  21  0.557  0.222  0.417-  36 2.78  12 2.89  11 2.90  14 2.90  25 2.92  19 2.92  27 2.93  24 2.93
                            20 2.95  23 2.95  30 2.97  32 2.97
  22  0.888  0.556  0.419-  24 2.92  27 2.92  25 2.93  19 2.93  18 2.93  15 2.93  13 2.93  23 2.93
                            20 2.93  35 2.94  33 2.96  31 2.96
  23  0.222  0.557  0.417-  36 2.78  16 2.89  14 2.90  13 2.90  26 2.92  25 2.92  22 2.93  24 2.93
                            21 2.95  20 2.95  34 2.97  33 2.97
  24  0.556  0.556  0.419-  27 2.92  22 2.92  19 2.93  26 2.93  15 2.93  17 2.93  14 2.93  23 2.93
                            21 2.93  35 2.94  32 2.96  34 2.96
  25  0.889  0.889  0.419-  23 2.92  21 2.92  22 2.93  27 2.93  28 2.93  18 2.93  16 2.93  12 2.93
                            26 2.94  19 2.94  33 2.99  30 2.99
  26  0.223  0.889  0.419-  23 2.92  20 2.92  27 2.93  24 2.93  28 2.93  17 2.93  16 2.93  10 2.93
                            25 2.94  19 2.94  34 2.99  29 2.99
  27  0.556  0.888  0.419-  24 2.92  22 2.92  26 2.93  25 2.93  17 2.93  18 2.93  11 2.93  20 2.93
                            21 2.93  35 2.94  29 2.96  30 2.96
  28  0.000  0.000  0.518-  26 2.93  25 2.93  19 2.93  29 2.96  34 2.96  33 2.96  32 2.96  31 2.96
                            30 2.96
  29  0.334  0.006  0.520-  30 2.88  31 2.88  36 2.89  35 2.96  28 2.96  27 2.96  20 2.97  26 2.99
                            34 3.03
  30  0.661  0.006  0.520-  29 2.88  32 2.88  36 2.89  35 2.96  28 2.96  27 2.96  21 2.97  25 2.99
                            33 3.03
  31  0.006  0.334  0.520-  33 2.88  29 2.88  36 2.89  35 2.96  28 2.96  22 2.96  20 2.97  19 2.99
                            32 3.03
  32  0.661  0.334  0.520-  34 2.88  30 2.88  36 2.89  35 2.96  28 2.96  24 2.96  21 2.97  19 2.99
                            31 3.03
  33  0.006  0.661  0.520-  31 2.88  34 2.88  36 2.89  35 2.96  28 2.96  22 2.96  23 2.97  25 2.99
                            30 3.03
  34  0.334  0.661  0.520-  32 2.88  33 2.88  36 2.89  35 2.96  28 2.96  24 2.96  23 2.97  26 2.99
                            29 3.03
  35  0.667  0.667  0.519-  24 2.94  27 2.94  22 2.94  30 2.96  32 2.96  29 2.96  34 2.96  31 2.96
                            33 2.96
  36  0.333  0.333  0.508-  37 2.19  38 2.19  21 2.78  20 2.78  23 2.78  31 2.89  33 2.89  30 2.89
                            29 2.89  34 2.89  32 2.89
  37  0.263  0.338  0.596-  38 1.20  36 2.19
  38  0.399  0.338  0.596-  37 1.20  36 2.19

  LATTYP: Found a hexagonal cell.
 ALAT       =     8.7913665772
 C/A-ratio  =     2.7352090521

  Lattice vectors:

 A1 = (  -4.3956832886,  -7.6135467898,   0.0000000000)
 A2 = (   8.7913665771,   0.0000000000,   0.0000000000)
 A3 = (   0.0000000000,   0.0000000000,  24.0462254425)

Analysis of symmetry for initial positions (statically):
 Subroutine PRICEL returns:
 Original cell was already a primitive cell.

 Routine SETGRP: Setting up the symmetry group for a
 hexagonal supercell.

 Subroutine GETGRP returns: Found  2 space group operations
 (whereof  2 operations were pure point group operations)
 out of a pool of 24 trial point group operations.

The static configuration has the point symmetry C_1h.

Analysis of symmetry for dynamics (positions and initial velocities):
 Subroutine PRICEL returns:
 Original cell was already a primitive cell.

[...]

The dynamic configuration has the point symmetry C_1h.

Analysis of constrained symmetry for selective dynamics:
 Subroutine PRICEL returns:
 Original cell was already a primitive cell.

 Routine SETGRP: Setting up the symmetry group for a
 hexagonal supercell.

[...]
     33      -4.9640      2.00000
     34      -4.9406      2.00000
     35      -4.9219      2.00000
     36      -4.9105      2.00000
     37      -4.8867      2.00000
     38      -4.8629      2.00000
     39      -4.8368      2.00000
     40      -4.8100      2.00000
     41      -4.7990      2.00000
     42      -4.7504      2.00000
     43      -4.7398      2.00000
     44      -4.7282      2.00000
     45      -4.7209      2.00000
     46      -4.7061      2.00000
     47      -4.6912      2.00000
     48      -4.6195      2.00000
     49      -4.5957      2.00000
     50      -4.5786      2.00000
     51      -4.5698      2.00000
     52      -4.5683      2.00000
     53      -4.5632      2.00000
     54      -4.5560      2.00000
     55      -4.5532      2.00000
     56      -4.5356      2.00000
     57      -4.5216      2.00000
     58      -4.4759      2.00000
     59      -4.4652      2.00000
     60      -4.4543      2.00000
[...]
    226       4.4065      0.00000
    227       4.4759      0.00000
    228       4.5799      0.00000
    229       4.7534      0.00000
    230       5.2101      0.00000
    231       5.2619      0.00000
    232       5.2779      0.00000
    233       5.3513      0.00000
    234       5.4464      0.00000
    235       5.4995      0.00000
    236       5.5601      0.00000
    237       5.6216      0.00000
    238       5.7474      0.00000
    239       5.8334      0.00000
    240       5.9217      0.00000

 soft charge-density along one line, spin component           1
         0         1         2         3         4         5         6         7         8         9
 total charge-density along one line

------------------------ aborting loop because EDIFF is reached ----------------------------------------

 total charge

# of ion       s       p       d       tot
    1        0.421   0.201   9.177   9.799
    2        0.416   0.204   9.175   9.796
    3        0.416   0.204   9.175   9.796
    4        0.415   0.203   9.178   9.797
    5        0.418   0.202   9.177   9.796
    6        0.415   0.203   9.178   9.797
    7        0.414   0.204   9.178   9.796
    8        0.414   0.204   9.178   9.796
    9        0.414   0.203   9.178   9.795
   10        0.409   0.270   9.163   9.842
   11        0.406   0.270   9.167   9.843
   12        0.409   0.270   9.163   9.842
   13        0.405   0.269   9.169   9.843
   14        0.405   0.269   9.169   9.843
   15        0.401   0.270   9.164   9.835
   16        0.412   0.269   9.162   9.843
   17        0.402   0.269   9.165   9.836
   18        0.402   0.269   9.165   9.836
   19        0.396   0.264   9.167   9.827
   20        0.443   0.312   9.127   9.881
   21        0.443   0.312   9.127   9.881
   22        0.391   0.271   9.166   9.828
   23        0.446   0.303   9.133   9.882
   24        0.391   0.271   9.166   9.828
   25        0.405   0.261   9.167   9.833
   26        0.405   0.261   9.167   9.833
   27        0.395   0.271   9.165   9.830
   28        0.411   0.200   9.173   9.785
   29        0.442   0.222   9.153   9.817
   30        0.442   0.222   9.153   9.817
   31        0.435   0.210   9.166   9.811
   32        0.435   0.210   9.166   9.811
   33        0.441   0.221   9.155   9.817
   34        0.441   0.221   9.155   9.817
   35        0.406   0.203   9.173   9.782
   36        0.631   0.600   3.115   4.346
   37        1.338   2.431   0.000   3.769
   38        1.338   2.431   0.000   3.769
tot         17.868  13.954 323.876 355.697

  FORCE on cell =-STRESS in cart. coord.  units (eV):
  Direction    XX          YY          ZZ          XY          YZ          ZX
  Alpha Z   710.87904   710.87904   710.87904
  Ewald  145739.76383145445.48903************     0.00003    -3.52706     0.00005
  Hartree155609.70204155502.57899************     0.00001    -3.54694     0.00001
  E(xc)   -2092.86730 -2093.05332 -2099.42213     0.00002     0.03291    -0.00000
  Local  ************************312225.41895     0.00079     6.99127    -0.00015
  n-local  -347.02968  -331.64114  -342.78121     2.31055    -0.36840     0.10320
  augment  3222.83903  3221.63698  3236.31103    -0.00014     0.15010     0.00002
  Kinetic  5005.40736  5008.68933  5048.57946     0.90199    -0.03848    -0.09673
  Fock        0.00000     0.00000     0.00000     0.00000     0.00000     0.00000
  Total      -6.98374    -6.54299    -0.32376    -0.00000    -0.30658    -0.00000
  in kB      -6.95197    -6.51323    -0.32229    -0.00000    -0.30519    -0.00000

 VOLUME and BASIS-vectors are now :
  energy-cutoff  :      500.00
  volume of cell :     1609.50
      direct lattice vectors                 reciprocal lattice vectors
     8.791366577  0.000000000  0.000000000     0.113747958 -0.065672414  0.000000000
     4.395683289  7.613546790  0.000000000     0.000000000  0.131344829  0.000000000
     0.000000000  0.000000000 24.046225443     0.000000000  0.000000000  0.041586568

  length of vectors
     8.791366577  8.791366577 24.046225443     0.131344829  0.131344829  0.041586568

 FORCES acting on ions
    electron-ion (+dipol)            ewald-force                    non-local-force                 convergence-correction
   0.460E-04 0.227E-01 0.265E+04   -.953E-04 -.945E-02 -.265E+04   -.187E-12 -.284E-01 -.190E+01   -.115E-03 0.101E-01 -.106E+00
   -.177E+00 0.252E+00 0.265E+04   -.320E-01 -.297E+00 -.265E+04   0.115E+00 0.948E-01 -.153E+01   0.940E-01 -.491E-01 -.371E-01
   0.177E+00 0.252E+00 0.265E+04   0.322E-01 -.297E+00 -.265E+04   -.115E+00 0.948E-01 -.153E+01   -.946E-01 -.472E-01 -.364E-01
   0.119E+00 -.191E+00 0.265E+04   -.265E+00 0.108E+00 -.265E+04   0.122E+00 -.265E-01 -.165E+01   0.328E-01 0.980E-01 -.281E-01
   -.732E-05 -.329E-01 0.265E+04   0.980E-04 -.767E-02 -.265E+04   0.118E-12 0.180E-01 -.144E+01   0.622E-02 0.162E-01 0.818E-01
   -.119E+00 -.191E+00 0.265E+04   0.265E+00 0.108E+00 -.265E+04   -.122E+00 -.265E-01 -.165E+01   -.341E-01 0.989E-01 -.273E-01
   0.260E+00 -.495E-01 0.265E+04   -.233E+00 0.189E+00 -.265E+04   0.877E-01 -.700E-01 -.162E+01   -.112E+00 -.591E-01 -.141E+00
   -.260E+00 -.494E-01 0.265E+04   0.233E+00 0.189E+00 -.265E+04   -.877E-01 -.700E-01 -.162E+01   0.114E+00 -.601E-01 -.141E+00
   0.362E-04 0.733E-02 0.265E+04   0.792E-04 0.170E-01 -.265E+04   -.449E-13 -.683E-02 -.180E+01   -.664E-02 -.919E-02 -.142E+00
   0.303E+01 0.182E+01 0.900E+03   -.276E+01 -.171E+01 -.899E+03   -.414E+00 -.237E+00 -.740E+00   0.111E+00 0.110E+00 0.172E+00
   -.281E-04 0.221E+01 0.898E+03   0.400E-04 -.246E+01 -.898E+03   0.936E-12 0.143E+00 -.272E+00   0.620E-02 0.396E-01 0.131E+00
   -.303E+01 0.182E+01 0.900E+03   0.276E+01 -.171E+01 -.899E+03   0.414E+00 -.237E+00 -.740E+00   -.112E+00 0.111E+00 0.171E+00
   0.171E+01 -.974E+00 0.899E+03   -.203E+01 0.120E+01 -.898E+03   0.247E+00 -.918E-01 -.345E+00   0.149E-01 -.902E-01 0.135E+00
   -.171E+01 -.974E+00 0.899E+03   0.203E+01 0.120E+01 -.898E+03   -.247E+00 -.918E-01 -.345E+00   -.442E-02 -.913E-01 0.134E+00
   0.156E-04 -.509E+00 0.897E+03   -.108E-03 0.437E+00 -.897E+03   0.320E-12 0.487E-01 -.685E+00   -.156E-02 0.965E-02 0.141E+00
   -.786E-05 -.366E+01 0.899E+03   0.205E-04 0.327E+01 -.899E+03   0.327E-11 0.499E+00 -.543E+00   -.175E-03 -.690E-01 0.189E+00
   -.530E+00 0.117E+00 0.897E+03   0.356E+00 -.116E+00 -.897E+03   0.777E-01 -.643E-02 -.554E+00   0.747E-01 0.154E-02 0.128E+00
   0.530E+00 0.117E+00 0.897E+03   -.356E+00 -.116E+00 -.897E+03   -.777E-01 -.643E-02 -.554E+00   -.746E-01 0.328E-02 0.129E+00
   0.387E-04 -.340E+01 -.871E+03   -.127E-03 0.318E+01 0.869E+03   0.107E-11 0.163E+00 0.114E+01   0.431E-02 0.464E-01 0.307E+00
   -.196E+02 -.104E+02 -.863E+03   0.207E+02 0.110E+02 0.864E+03   -.133E+01 -.602E+00 -.908E+00   0.410E-01 0.195E-01 0.347E+00
   0.196E+02 -.104E+02 -.863E+03   -.207E+02 0.110E+02 0.864E+03   0.133E+01 -.602E+00 -.908E+00   -.318E-01 0.192E-01 0.347E+00
   -.799E+01 0.405E+01 -.867E+03   0.767E+01 -.378E+01 0.866E+03   0.343E+00 -.247E+00 0.657E+00   0.164E-01 -.344E-01 0.293E+00
   -.518E-04 0.218E+02 -.864E+03   0.381E-04 -.230E+02 0.864E+03   0.957E-11 0.146E+01 -.653E+00   -.760E-03 -.931E-01 0.444E+00
   0.799E+01 0.405E+01 -.867E+03   -.767E+01 -.378E+01 0.866E+03   -.343E+00 -.247E+00 0.657E+00   -.617E-02 -.346E-01 0.293E+00
   0.345E+01 0.194E+01 -.871E+03   -.334E+01 -.189E+01 0.870E+03   -.516E-01 -.377E-01 0.890E+00   -.400E-01 0.644E-02 0.339E+00
   -.345E+01 0.194E+01 -.871E+03   0.334E+01 -.189E+01 0.870E+03   0.516E-01 -.377E-01 0.890E+00   0.490E-01 0.655E-02 0.339E+00
   0.190E-04 -.954E+01 -.868E+03   0.109E-03 0.920E+01 0.868E+03   0.217E-11 0.330E+00 0.624E+00   0.431E-02 0.550E-01 0.269E+00
   0.534E-04 0.195E+01 -.257E+04   -.115E-03 -.221E+01 0.256E+04   0.140E-11 0.213E+00 0.158E+01   0.433E-04 0.300E-01 0.195E+00
   0.673E+01 0.150E+02 -.255E+04   -.578E+01 -.139E+02 0.255E+04   -.112E+01 -.135E+01 0.144E+01   0.379E-01 0.744E-01 0.129E+00
   -.673E+01 0.150E+02 -.255E+04   0.578E+01 -.139E+02 0.255E+04   0.112E+01 -.135E+01 0.144E+01   -.384E-01 0.761E-01 0.129E+00
   0.227E+02 0.382E+01 -.254E+04   -.221E+02 -.375E+01 0.254E+04   -.114E+01 -.103E+00 0.243E+01   0.124E+00 0.244E-01 0.155E+00
   -.227E+02 0.382E+01 -.254E+04   0.221E+02 -.375E+01 0.254E+04   0.114E+01 -.103E+00 0.243E+01   -.134E+00 0.251E-01 0.155E+00
   0.453E+01 -.204E+02 -.255E+04   -.399E+01 0.193E+02 0.255E+04   -.719E+00 0.143E+01 0.166E+01   0.173E-01 -.108E+00 0.156E+00
   -.453E+01 -.204E+02 -.255E+04   0.399E+01 0.193E+02 0.255E+04   0.719E+00 0.143E+01 0.166E+01   -.159E-01 -.108E+00 0.156E+00
   0.231E-04 -.328E+01 -.257E+04   0.105E-03 0.356E+01 0.257E+04   -.120E-11 -.183E+00 0.177E+01   -.638E-02 -.584E-01 0.200E+00
   -.185E-04 0.226E+01 -.998E+03   0.479E-04 -.235E+01 0.999E+03   -.651E-12 -.992E-01 0.929E+00   0.623E-03 0.579E-02 0.921E-01
   0.190E+03 0.124E+01 -.134E+04   -.228E+03 -.114E+01 0.136E+04   0.384E+02 -.107E+00 -.113E+02   0.511E-01 0.710E-02 -.400E-01
   -.190E+03 0.124E+01 -.134E+04   0.228E+03 -.114E+01 0.136E+04   -.384E+02 -.107E+00 -.113E+02   -.504E-01 0.713E-02 -.403E-01
   0.409E-03 0.151E+00 0.194E+02   0.000E+00 -.651E-13 -.250E-11   -.931E-12 -.141E+00 -.244E+02   0.339E-01 -.111E-01 0.502E+01

 POSITION                                       TOTAL-FORCE (eV/Angst)
      0.00000      0.00000      5.28219        -0.000000     -0.005044     -0.029912
      2.93046      0.00000      5.28219        -0.000192      0.001740      0.035329
      5.86091      0.00000      5.28219         0.000192      0.001740      0.035329
      1.46523      2.53785      5.28219         0.010066     -0.010670      0.023362
      4.39568      2.53785      5.28219        -0.000000     -0.006369     -0.004411
      7.32614      2.53785      5.28219        -0.010066     -0.010670      0.023362
      2.93046      5.07570      5.28219         0.002141      0.009567      0.043971
      5.86091      5.07570      5.28219        -0.002141      0.009567      0.043971
      8.79137      5.07570      5.28219         0.000000      0.008295      0.019561
      1.46523      0.84595      7.67490        -0.027331     -0.011042     -0.041807
      4.39568      0.84595      7.67490        -0.000000     -0.071921     -0.050696
      7.32614      0.84595      7.67490         0.027331     -0.011042     -0.041807
      2.93046      3.38380      7.67490        -0.061286      0.046961     -0.081510
      5.86091      3.38380      7.67490         0.061286      0.046961     -0.081510
      8.79137      3.38380      7.67490        -0.000000     -0.013021      0.033462
      4.39568      5.92165      7.67490         0.000000      0.038783     -0.048190
      7.32614      5.92165      7.67490        -0.022201     -0.003209      0.047696
     10.25659      5.92165      7.67490         0.022201     -0.003209      0.047696
      8.79137      1.69476     10.06939        -0.000000     -0.009201      0.055962
      2.92162      1.68680     10.02387        -0.104992     -0.019894     -0.123854
      5.86975      1.68680     10.02387         0.104992     -0.019894     -0.123854
     10.25272      4.23198     10.06895         0.031940     -0.015060      0.035677
      4.39568      4.23995     10.02387         0.000000      0.130701     -0.130710
      7.33001      4.23198     10.06895        -0.031940     -0.015060      0.035677
     11.71935      6.76617     10.06939         0.012203      0.016432     -0.008194
      5.86339      6.76617     10.06939        -0.012203      0.016432     -0.008194
      8.79137      6.76312     10.06895         0.000000      0.039008      0.017730
      0.00000      0.00000     12.45783        -0.000000     -0.023084     -0.017652
      2.95723      0.04373     12.49962        -0.136587     -0.233643     -0.207167
      5.83413      0.04373     12.49962         0.136587     -0.233643     -0.207167
      1.51649      2.53918     12.49962        -0.319541     -0.010689     -0.197425
      7.27488      2.53918     12.49962         0.319541     -0.010689     -0.197425
      2.95494      5.03064     12.49962        -0.157386      0.252890     -0.244490
      5.83643      5.03064     12.49962         0.157386      0.252890     -0.244490
      8.79137      5.07570     12.47105         0.000000      0.043980     -0.015678
      4.39568      2.53785     12.22632        -0.000000     -0.184435      1.617298
      3.79614      2.57500     14.33556         0.032288      0.002771     -0.004972
      4.99523      2.57500     14.33556        -0.032288      0.002771     -0.004972
    total drift:                                0.034306     -0.001277      0.009200

  FREE ENERGIE OF THE ION-ELECTRON SYSTEM (eV)
  free  energy   TOTEN  =      -114.73171218 eV

  energy  without entropy=     -114.73171218  energy(sigma->0) =     -114.73171218

 stress matrix after NEB project (eV)
     -6.98374     -0.00000     -0.00000
     -0.00000     -6.54299     -0.30658
     -0.00000     -0.30658     -0.32376
  FORCES: max atom, RMS     0.032785    0.007521
  FORCE total and by dimension    0.046366    0.032288
  Stress total and by dimension    9.585203    6.983736
|           W    W    AA    RRRRR   N    N  II  N    N   GGGG   !!!           |
|           W    W   A  A   R    R  NN   N  II  NN   N  G    G  !!!           |
|           W    W  A    A  R    R  N N  N  II  N N  N  G       !!!           |
|           W WW W  AAAAAA  RRRRR   N  N N  II  N  N N  G  GGG   !            |
|           WW  WW  A    A  R   R   N   NN  II  N   NN  G    G                |
|           W    W  A    A  R    R  N    N  II  N    N   GGGG   !!!           |
|     Tetrahedron method does not include variations of the Fermi             |
|     occupations, so forces and stress will be inaccurate. We suggest        |
|     using a different smearing scheme ISMEAR = 1 or 2 for metals in         |
|     relaxations.                                                            |

 total charge

# of ion       s       p       d       tot
    1        0.421   0.201   9.177   9.799
    2        0.416   0.204   9.175   9.796
    3        0.416   0.204   9.175   9.796
    4        0.415   0.203   9.178   9.797
    5        0.418   0.202   9.177   9.796
    6        0.415   0.203   9.178   9.797
    7        0.414   0.204   9.178   9.796
    8        0.414   0.204   9.178   9.796
    9        0.414   0.203   9.178   9.795
   10        0.409   0.270   9.163   9.842
   11        0.406   0.270   9.167   9.843
   12        0.409   0.270   9.163   9.842
   13        0.405   0.269   9.169   9.843
   14        0.405   0.269   9.169   9.843
   15        0.401   0.270   9.164   9.835
   16        0.412   0.269   9.162   9.843
   17        0.402   0.269   9.165   9.836
   18        0.402   0.269   9.165   9.836
   19        0.396   0.264   9.167   9.827
   20        0.443   0.312   9.127   9.881
   21        0.443   0.312   9.127   9.881
   22        0.391   0.271   9.166   9.828
   23        0.446   0.303   9.133   9.882
   24        0.391   0.271   9.166   9.828
   25        0.405   0.261   9.167   9.833
   26        0.405   0.261   9.167   9.833
   27        0.395   0.271   9.165   9.830
   28        0.411   0.200   9.173   9.785
   29        0.442   0.222   9.153   9.817
   30        0.442   0.222   9.153   9.817
   31        0.435   0.210   9.166   9.811
   32        0.435   0.210   9.166   9.811
   33        0.441   0.221   9.155   9.817
   34        0.441   0.221   9.155   9.817
   35        0.406   0.203   9.173   9.782
   36        0.631   0.600   3.115   4.346
   37        1.338   2.431   0.000   3.769
   38        1.338   2.431   0.000   3.769
tot         17.868  13.954 323.876 355.697

 BZINTS: Fermi energy:    0.449867;  400.000000 electrons
         Band energy:-0.152201E+04;  BLOECHL correction:   -0.029685