 vasp.6.2.0 18Jan21 (build Jun 12 2021 23:27:24) complex

 executed on             LinuxIFC date 2022.05.30  16:24:19

 INCAR:
   ISMEAR = -5
   SIGMA = 0.1
   ISPIN = 1
   EDIFF = 1.d-5
   EDIFFG = -0.01
   NSW = 0
   NELM = 150
   ENCUT = 500
   ISIF = 2
   IBRION = 2
   LREAL = Auto
   ALGO = Fast
   ICHARG = 11
   LORBIT = 10
   LCHARG = .F.
   LWAVE = .F.

 POTCAR:    PAW_PBE Au 04Oct2007
 POTCAR:    PAW_PBE Pd 04Jan2005
 POTCAR:    PAW_PBE O 08Apr2002
|           W    W    AA    RRRRR   N    N  II  N    N   GGGG   !!!           |
|           W    W   A  A   R    R  NN   N  II  NN   N  G    G  !!!           |
|           W    W  A    A  R    R  N N  N  II  N N  N  G       !!!           |
|           W WW W  AAAAAA  RRRRR   N  N N  II  N  N N  G  GGG   !            |
|           WW  WW  A    A  R   R   N   NN  II  N   NN  G    G                |
|           W    W  A    A  R    R  N    N  II  N    N   GGGG   !!!           |
|     For optimal performance we recommend to set                             |
|       NCORE = 2 up to number-of-cores-per-socket                            |
|     This setting can greatly improve the performance of VASP for DFT.       |
|     The default, NCORE=1 might be grossly inefficient on modern             |
|     multi-core architectures or massively parallel machines. Do your        |
|     Unfortunately you need to use the default for GW and RPA                |
|     calculations (for HF NCORE is supported but not extensively tested      |
|     yet).                                                                   |

 POTCAR:    PAW_PBE Au 04Oct2007
   VRHFIN =Au: s1d10

   TITEL  = PAW_PBE Au 04Oct2007
   POMASS =  196.966; ZVAL   =   11.000    mass and valenz
   ENMAX  =  229.943; ENMIN  =  172.457 eV

 POTCAR:    PAW_PBE Pd 04Jan2005
   VRHFIN =Pd : s1 d9

   TITEL  = PAW_PBE Pd 04Jan2005
   POMASS =  106.420; ZVAL   =   10.000    mass and valenz
   ENMAX  =  250.925; ENMIN  =  188.194 eV

 POTCAR:    PAW_PBE O 08Apr2002
   VRHFIN =O: s2p4

   TITEL  = PAW_PBE O 08Apr2002
   POMASS =   16.000; ZVAL   =    6.000    mass and valenz
   ENMAX  =  400.000; ENMIN  =  300.000 eV

 Optimization of the real space projectors (new method)

 maximal supplied QI-value         = 15.12
 optimisation between [QCUT,QGAM] = [ 11.34, 22.83] = [ 36.00,145.93] Ry
 Optimized for a Real-space Cutoff    1.39 Angstroem

   l    n(q)    QCUT    max X(q) W(low)/X(q) W(high)/X(q)  e(spline)
   2      9    11.338    60.898    0.39E-03    0.42E-03    0.21E-06
   2      9    11.338    58.894    0.40E-03    0.42E-03    0.22E-06
   0      9    11.338   109.617    0.13E-03    0.20E-04    0.13E-06
   0      9    11.338    75.026    0.13E-03    0.20E-04    0.13E-06
   1      9    11.338    16.344    0.33E-04    0.24E-03    0.18E-06
   1      9    11.338    10.160    0.26E-04    0.19E-03    0.15E-06
 Optimization of the real space projectors (new method)

[...]

   l    n(q)    QCUT    max X(q) W(low)/X(q) W(high)/X(q)  e(spline)
   2      9    11.346    59.108    0.74E-04    0.81E-04    0.26E-06
   2      9    11.346    58.101    0.74E-04    0.83E-04    0.27E-06
   0     10    11.346   102.235    0.26E-04    0.31E-04    0.16E-06
   0     10    11.346    58.388    0.23E-04    0.29E-04    0.15E-06
   1     10    11.346    22.191    0.23E-03    0.26E-03    0.14E-06
   1     10    11.346    15.590    0.19E-03    0.22E-03    0.12E-06
 Optimization of the real space projectors (new method)

 maximal supplied QI-value         = 24.76
 optimisation between [QCUT,QGAM] = [ 11.39, 22.77] = [ 36.31,145.25] Ry
 Optimized for a Real-space Cutoff    1.00 Angstroem

   l    n(q)    QCUT    max X(q) W(low)/X(q) W(high)/X(q)  e(spline)
   0      7    11.387    20.381    0.39E-03    0.13E-02    0.15E-06
   0      7    11.387    15.268    0.42E-03    0.14E-02    0.17E-06
   1      6    11.387     5.964    0.41E-03    0.11E-02    0.17E-06
   1      6    11.387     5.382    0.39E-03    0.87E-03    0.15E-06
  PAW_PBE Au 04Oct2007                  :
  PAW_PBE Pd 04Jan2005                  :
  PAW_PBE O 08Apr2002                   :

 POSCAR: Au-Pd-O2
  positions in direct lattice
  velocities in cartesian coordinates
 exchange correlation table for  LEXCH =        8
   RHO(1)=    0.500       N(1)  =     2000
   RHO(2)=  100.500       N(2)  =     4000

 VTST: version 3.2, (02/03/18)

 CHAIN: initializing optimizer

 OPT: Using VASP Conjugate-Gradient optimizer
 CHAIN: Read ICHAIN            0

 POSCAR: Au-Pd-O2
  positions in direct lattice
  velocities in cartesian coordinates

 ion  position               nearest neighbor table
   1  0.000  0.000  0.217-  16 2.94  12 2.94   6 2.94   8 2.94   7 2.94   3 2.94  10 2.94   4 2.94
                             2 2.94
   2  0.333  0.000  0.217-   9 2.94  11 2.94  17 2.94  10 2.94   8 2.94   4 2.94   5 2.94   1 2.94
                             3 2.94
   3  0.667  0.000  0.217-   7 2.94  18 2.94  12 2.94   1 2.94  11 2.94   5 2.94   6 2.94   9 2.94
                             2 2.94
   4  0.000  0.333  0.217-  10 2.94   6 2.94   5 2.94  13 2.94   2 2.94  15 2.94   9 2.94   1 2.94
                             7 2.94
   5  0.333  0.333  0.217-  13 2.94   7 2.94  11 2.94   4 2.94   2 2.94  14 2.94   3 2.94   8 2.94
                             6 2.94
   6  0.667  0.333  0.217-  15 2.94  14 2.94   1 2.94  12 2.94   4 2.94   9 2.94   8 2.94   3 2.94
                             5 2.94
   7  0.000  0.667  0.217-  18 2.94   3 2.94  16 2.94   5 2.94   1 2.94  13 2.94   8 2.94   4 2.94
                             9 2.94
   8  0.333  0.667  0.217-   9 2.94  17 2.94   1 2.94   2 2.94  14 2.94  16 2.94   6 2.94   7 2.94
                             5 2.94
   9  0.667  0.667  0.217-   2 2.94   8 2.94  17 2.94   6 2.94  15 2.94   4 2.94   3 2.94  18 2.94
                             7 2.94
  10  0.111  0.111  0.316-  26 2.92  19 2.92  20 2.93  11 2.94  17 2.94   2 2.94   4 2.94   1 2.94
                            12 2.94  16 2.94  13 2.94  15 2.94
  11  0.444  0.111  0.316-  27 2.93  20 2.93  21 2.93  13 2.94   2 2.94  10 2.94  17 2.94   5 2.94
                             3 2.94  18 2.94  14 2.94  12 2.94
  12  0.778  0.111  0.316-  25 2.92  19 2.92  21 2.93  16 2.94  18 2.94   1 2.94  14 2.94  15 2.94
                             3 2.94   6 2.94  10 2.94  11 2.94
  13  0.111  0.444  0.316-  22 2.93  23 2.93  20 2.93   5 2.94  18 2.94  11 2.94   7 2.94   4 2.94
                            16 2.94  10 2.94  14 2.94  15 2.94
  14  0.444  0.444  0.316-  24 2.93  21 2.93  23 2.93  15 2.94   6 2.94  12 2.94   8 2.94  17 2.94
                             5 2.94  16 2.94  13 2.94  11 2.94
  15  0.778  0.444  0.316-  19 2.93  24 2.93  22 2.93  14 2.94   6 2.94  17 2.94  12 2.94   9 2.94
                             4 2.94  10 2.94  13 2.94  18 2.94
  16  0.111  0.778  0.316-  25 2.92  26 2.92  23 2.93  18 2.94  12 2.94   7 2.94   1 2.94   8 2.94
                            13 2.94  10 2.94  14 2.94  17 2.94
  17  0.444  0.778  0.316-  26 2.93  27 2.93  24 2.93   9 2.94  15 2.94   2 2.94  10 2.94  11 2.94
                             8 2.94  14 2.94  16 2.94  18 2.94
  18  0.778  0.778  0.316-  25 2.93  22 2.93  27 2.93  16 2.94   7 2.94  13 2.94  12 2.94   3 2.94
                            11 2.94   9 2.94  15 2.94  17 2.94
  19  0.889  0.222  0.414-  10 2.92  12 2.92  15 2.93  26 2.93  25 2.93  21 2.94  20 2.94  24 2.94
                            22 2.94  28 2.96  32 2.97  31 2.97
  20  0.222  0.222  0.414-  36 2.83  10 2.93  11 2.93  13 2.93  26 2.94  19 2.94  27 2.94  22 2.94
                            23 2.94  21 2.94  29 2.95  31 2.95
  21  0.556  0.222  0.414-  36 2.83  12 2.93  14 2.93  11 2.93  25 2.94  19 2.94  24 2.94  27 2.94
                            20 2.94  23 2.94  30 2.95  32 2.95
  22  0.889  0.556  0.414-  18 2.93  15 2.93  13 2.93  24 2.94  27 2.94  23 2.94  20 2.94  25 2.94
                            19 2.94  33 2.96  31 2.96  35 2.96
  23  0.222  0.556  0.414-  36 2.83  16 2.93  13 2.93  14 2.93  25 2.94  26 2.94  22 2.94  24 2.94
                            20 2.94  21 2.94  33 2.95  34 2.95
  24  0.556  0.556  0.414-  15 2.93  17 2.93  14 2.93  27 2.94  22 2.94  21 2.94  23 2.94  26 2.94
                            19 2.94  32 2.96  34 2.96  35 2.96
  25  0.889  0.889  0.414-  16 2.92  12 2.92  18 2.93  19 2.93  26 2.93  23 2.94  21 2.94  22 2.94
                            27 2.94  28 2.96  33 2.97  30 2.97
  26  0.222  0.889  0.414-  10 2.92  16 2.92  17 2.93  19 2.93  25 2.93  20 2.94  23 2.94  27 2.94
                            24 2.94  28 2.96  29 2.97  34 2.97
  27  0.556  0.889  0.414-  17 2.93  18 2.93  11 2.93  24 2.94  22 2.94  20 2.94  21 2.94  26 2.94
                            25 2.94  29 2.96  30 2.96  35 2.96
  28  0.000  0.000  0.514-  34 2.94  32 2.94  33 2.94  30 2.94  31 2.94  29 2.94  25 2.96  19 2.96
                            26 2.96
  29  0.333  0.001  0.514-  30 2.93  31 2.93  36 2.93  35 2.94  28 2.94  20 2.95  34 2.95  27 2.96
                            26 2.97
  30  0.666  0.001  0.514-  29 2.93  32 2.93  36 2.93  35 2.94  28 2.94  21 2.95  33 2.95  27 2.96
                            25 2.97
  31  0.001  0.333  0.514-  33 2.93  29 2.93  36 2.93  35 2.94  28 2.94  20 2.95  32 2.95  22 2.96
                            19 2.97
  32  0.666  0.333  0.514-  34 2.93  30 2.93  36 2.93  35 2.94  28 2.94  21 2.95  31 2.95  24 2.96
                            19 2.97
  33  0.001  0.666  0.514-  31 2.93  34 2.93  36 2.93  35 2.94  28 2.94  23 2.95  30 2.95  22 2.96
                            25 2.97
  34  0.333  0.666  0.514-  32 2.93  33 2.93  36 2.93  35 2.94  28 2.94  23 2.95  29 2.95  24 2.96
                            26 2.97
  35  0.667  0.667  0.514-  29 2.94  34 2.94  32 2.94  31 2.94  30 2.94  33 2.94  24 2.96  27 2.96
                            22 2.96
  36  0.333  0.333  0.508-  38 2.24  37 2.24  20 2.83  23 2.83  21 2.83  33 2.93  31 2.93  29 2.93
                            30 2.93  34 2.93  32 2.93
  37  0.259  0.333  0.595-  38 1.32  36 2.24
  38  0.408  0.333  0.595-  37 1.32  36 2.24

  LATTYP: Found a hexagonal cell.
 ALAT       =     8.8135128021
 C/A-ratio  =     2.7586513333

  Lattice vectors:

 A1 = (  -4.4067569092,  -7.6327256898,   0.0000000000)
 A2 = (   8.8135128021,   0.0000000000,   0.0000000000)
 A3 = (   0.0000000000,   0.0000000000,  24.3134088421)

Analysis of symmetry for initial positions (statically):
 Subroutine PRICEL returns:
 Original cell was already a primitive cell.

 Routine SETGRP: Setting up the symmetry group for a
 hexagonal supercell.

 Subroutine GETGRP returns: Found  2 space group operations
 (whereof  2 operations were pure point group operations)
 out of a pool of 24 trial point group operations.

The static configuration has the point symmetry C_1h.

Analysis of symmetry for dynamics (positions and initial velocities):
 Subroutine PRICEL returns:
 Original cell was already a primitive cell.

[...]

The dynamic configuration has the point symmetry C_1h.

Analysis of constrained symmetry for selective dynamics:
 Subroutine PRICEL returns:
 Original cell was already a primitive cell.

 Routine SETGRP: Setting up the symmetry group for a
 hexagonal supercell.

[...]
     33      -5.3511      2.00000
     34      -5.2815      2.00000
     35      -5.2795      2.00000
     36      -5.2496      2.00000
     37      -5.2483      2.00000
     38      -5.2363      2.00000
     39      -5.1776      2.00000
     40      -5.0959      2.00000
     41      -5.0773      2.00000
     42      -5.0473      2.00000
     43      -5.0145      2.00000
     44      -4.9595      2.00000
     45      -4.9007      2.00000
     46      -4.8678      2.00000
     47      -4.8162      2.00000
     48      -4.8137      2.00000
     49      -4.7914      2.00000
     50      -4.7789      2.00000
     51      -4.6845      2.00000
     52      -4.6459      2.00000
     53      -4.6226      2.00000
     54      -4.6206      2.00000
     55      -4.6078      2.00000
     56      -4.6006      2.00000
     57      -4.5945      2.00000
     58      -4.5498      2.00000
     59      -4.5036      2.00000
     60      -4.4782      2.00000
[...]
    238       5.6043      0.00000
    239       5.7788      0.00000
    240       5.9384      0.00000
    241       5.9700      0.00000
    242       6.0241      0.00000
    243       6.0647      0.00000
    244       6.1111      0.00000
    245       6.2554      0.00000
    246       6.3186      0.00000
    247       6.3857      0.00000
    248       6.3908      0.00000
    249       6.5891      0.00000
    250       6.6740      0.00000
    251       6.7567      0.00000
    252       6.7938      0.00000

 soft charge-density along one line, spin component           1
         0         1         2         3         4         5         6         7         8         9
 total charge-density along one line

------------------------ aborting loop because EDIFF is reached ----------------------------------------

 total charge

# of ion       s       p       d       tot
    1        0.541   0.241   8.765   9.546
    2        0.545   0.240   8.764   9.550
    3        0.545   0.240   8.764   9.550
    4        0.546   0.240   8.765   9.550
    5        0.540   0.241   8.766   9.546
    6        0.546   0.240   8.765   9.550
    7        0.545   0.240   8.763   9.548
    8        0.545   0.240   8.763   9.548
    9        0.543   0.241   8.765   9.548
   10        0.519   0.309   8.770   9.597
   11        0.521   0.305   8.776   9.601
   12        0.519   0.309   8.770   9.597
   13        0.519   0.305   8.775   9.599
   14        0.519   0.305   8.775   9.599
   15        0.514   0.309   8.773   9.596
   16        0.518   0.308   8.773   9.599
   17        0.515   0.307   8.776   9.598
   18        0.515   0.307   8.776   9.598
   19        0.516   0.302   8.778   9.596
   20        0.525   0.315   8.761   9.601
   21        0.525   0.315   8.761   9.601
   22        0.512   0.305   8.772   9.589
   23        0.523   0.314   8.767   9.604
   24        0.512   0.305   8.772   9.589
   25        0.517   0.302   8.777   9.596
   26        0.517   0.302   8.777   9.596
   27        0.511   0.306   8.769   9.587
   28        0.542   0.233   8.767   9.541
   29        0.541   0.228   8.775   9.544
   30        0.541   0.228   8.775   9.544
   31        0.532   0.231   8.779   9.542
   32        0.532   0.231   8.779   9.542
   33        0.540   0.228   8.776   9.544
   34        0.540   0.228   8.776   9.544
   35        0.542   0.233   8.768   9.544
   36        0.366   0.389   8.460   9.215
   37        1.609   3.249   0.000   4.858
   38        1.609   3.249   0.000   4.858
tot         22.107  16.417 315.432 353.957

  FORCE on cell =-STRESS in cart. coord.  units (eV):
  Direction    XX          YY          ZZ          XY          YZ          ZX
  Alpha Z   949.98644   949.98644   949.98644
  Ewald  151573.52870151154.97029************    -0.00032     0.11725    -0.00010
  Hartree160151.75268159952.14434************     0.00001     0.04438    -0.00002
  E(xc)   -1838.17768 -1839.71378 -1845.54684     0.00002     0.01203    -0.00001
  Local  ************************323633.31255     0.00278    -0.15232    -0.00003
  n-local  -110.95071  -112.45164   -88.54844     3.80237    -0.22635     0.29029
  augment  2450.47170  2459.02281  2466.93470    -0.00141    -0.04790     0.00003
  Kinetic  5717.28876  5774.47750  5789.59106     0.47715     0.11069     0.10996
  Fock        0.00000     0.00000     0.00000     0.00000     0.00000     0.00000
  Total     -19.61105   -19.36980    -0.12731    -0.00000    -0.14221    -0.00000
  in kB     -19.21042   -18.97410    -0.12471    -0.00000    -0.13930    -0.00000

 VOLUME and BASIS-vectors are now :
  energy-cutoff  :      500.00
  volume of cell :     1635.59
      direct lattice vectors                 reciprocal lattice vectors
     8.813512802  0.000000000  0.000000000     0.113462137 -0.065507406  0.000000000
     4.406756909  7.632725690  0.000000000     0.000000000  0.131014796  0.000000000
     0.000000000  0.000000000 24.313408842     0.000000000  0.000000000  0.041129568

  length of vectors
     8.813512802  8.813512802 24.313408842     0.131014796  0.131014796  0.041129568

 FORCES acting on ions
    electron-ion (+dipol)            ewald-force                    non-local-force                 convergence-correction
   -.199E-04 0.338E-01 0.269E+04   0.518E-04 -.172E-01 -.269E+04   0.908E-09 0.136E-01 -.775E+00   -.253E-03 -.296E-01 -.356E+00
   0.388E-01 0.337E+00 0.269E+04   0.219E-02 -.265E+00 -.269E+04   -.158E-01 -.476E-01 -.326E+00   -.175E-01 -.213E-01 -.348E+00
   -.389E-01 0.337E+00 0.269E+04   -.225E-02 -.265E+00 -.269E+04   0.158E-01 -.476E-01 -.326E+00   0.179E-01 -.195E-01 -.347E+00
   0.143E+00 -.148E+00 0.269E+04   -.213E+00 0.126E+00 -.269E+04   0.118E-01 0.164E-02 -.340E+00   0.549E-01 0.155E-01 -.321E+00
   0.806E-05 -.137E-01 0.269E+04   0.952E-04 0.296E-04 -.269E+04   -.114E-08 -.172E-01 -.401E+00   0.420E-02 0.292E-01 -.268E+00
   -.143E+00 -.148E+00 0.269E+04   0.213E+00 0.125E+00 -.269E+04   -.118E-01 0.164E-02 -.340E+00   -.564E-01 0.164E-01 -.321E+00
   0.269E+00 -.152E+00 0.269E+04   -.215E+00 0.139E+00 -.269E+04   -.279E-01 0.837E-02 -.342E+00   -.846E-02 0.599E-02 -.371E+00
   -.269E+00 -.152E+00 0.269E+04   0.215E+00 0.139E+00 -.269E+04   0.279E-01 0.837E-02 -.342E+00   0.102E-01 0.493E-02 -.371E+00
   0.196E-04 -.864E-02 0.269E+04   0.166E-03 0.172E-01 -.269E+04   -.129E-08 -.193E-01 -.430E+00   -.449E-02 0.369E-02 -.354E+00
   0.687E+00 0.486E+00 0.958E+03   -.398E+00 -.368E+00 -.957E+03   -.184E+00 -.777E-01 -.579E+00   -.343E-01 0.211E-02 -.272E+00
   0.163E-04 0.240E+01 0.959E+03   0.148E-03 -.240E+01 -.958E+03   -.383E-08 -.576E-01 -.526E+00   0.410E-02 0.321E-01 -.245E+00
   -.687E+00 0.486E+00 0.958E+03   0.398E+00 -.368E+00 -.957E+03   0.184E+00 -.777E-01 -.579E+00   0.330E-01 0.254E-02 -.272E+00
   0.193E+01 -.113E+01 0.959E+03   -.195E+01 0.122E+01 -.959E+03   -.116E-01 -.317E-01 -.465E+00   0.230E-01 -.505E-01 -.274E+00
   -.193E+01 -.113E+01 0.959E+03   0.195E+01 0.122E+01 -.959E+03   0.116E-01 -.317E-01 -.465E+00   -.161E-01 -.518E-01 -.276E+00
   0.312E-04 -.139E+01 0.956E+03   0.236E-03 0.137E+01 -.955E+03   0.293E-08 0.440E-01 -.432E+00   -.181E-02 -.782E-02 -.307E+00
   -.214E-04 -.774E+00 0.958E+03   0.162E-03 0.500E+00 -.957E+03   0.895E-08 0.134E+00 -.589E+00   -.637E-03 0.546E-01 -.334E+00
   -.103E+01 0.552E+00 0.955E+03   0.111E+01 -.592E+00 -.955E+03   -.362E-01 0.199E-01 -.363E+00   -.316E-01 0.156E-01 -.283E+00
   0.103E+01 0.552E+00 0.955E+03   -.111E+01 -.592E+00 -.955E+03   0.362E-01 0.199E-01 -.363E+00   0.324E-01 0.173E-01 -.281E+00
   -.399E-04 0.221E+00 -.797E+03   0.524E-04 -.347E+00 0.796E+03   0.778E-08 0.117E+00 0.733E+00   0.759E-03 -.872E-02 -.762E-01
   0.173E+02 0.110E+02 -.771E+03   -.170E+02 -.107E+02 0.772E+03   -.397E+00 -.269E+00 -.482E+00   0.112E+00 0.407E-01 0.101E+00
   -.173E+02 0.110E+02 -.771E+03   0.170E+02 -.107E+02 0.772E+03   0.397E+00 -.269E+00 -.482E+00   -.119E+00 0.389E-01 0.101E+00
   0.101E+02 -.676E+01 -.796E+03   -.102E+02 0.686E+01 0.795E+03   0.181E+00 -.111E+00 0.640E+00   0.327E-01 -.231E-02 -.226E-01
   -.110E-04 -.210E+02 -.773E+03   0.145E-03 0.209E+02 0.773E+03   0.212E-07 0.319E+00 -.325E+00   -.512E-02 -.208E+00 0.138E+00
   -.101E+02 -.676E+01 -.796E+03   0.102E+02 0.686E+01 0.795E+03   -.181E+00 -.111E+00 0.640E+00   -.246E-01 -.257E-02 -.227E-01
   0.273E+00 0.512E+00 -.798E+03   -.172E+00 -.481E+00 0.798E+03   -.110E-01 -.588E-01 0.685E+00   -.626E-01 0.259E-01 -.238E-01
   -.273E+00 0.512E+00 -.798E+03   0.172E+00 -.481E+00 0.798E+03   0.110E-01 -.588E-01 0.685E+00   0.617E-01 0.276E-01 -.234E-01
   0.674E-05 0.117E+02 -.797E+03   0.199E-03 -.119E+02 0.796E+03   0.126E-07 0.189E+00 0.652E+00   0.378E-02 0.694E-01 0.205E-01
   -.133E-04 0.410E+01 -.257E+04   0.287E-04 -.395E+01 0.257E+04   -.761E-08 -.114E+00 0.299E+00   0.134E-04 -.369E-01 0.131E+00
   0.319E+02 0.631E+02 -.253E+04   -.319E+02 -.634E+02 0.253E+04   -.154E+00 0.711E-01 0.779E+00   0.755E-01 0.605E-01 0.232E-01
   -.319E+02 0.631E+02 -.253E+04   0.319E+02 -.634E+02 0.253E+04   0.154E+00 0.711E-01 0.779E+00   -.755E-01 0.610E-01 0.225E-01
   0.757E+02 0.857E+00 -.252E+04   -.765E+02 -.836E+00 0.252E+04   0.279E+00 -.778E-02 0.933E+00   0.166E+00 -.467E-02 0.605E-01
   -.757E+02 0.857E+00 -.252E+04   0.765E+02 -.836E+00 0.252E+04   -.279E+00 -.778E-02 0.933E+00   -.166E+00 -.412E-02 0.608E-01
   0.304E+02 -.640E+02 -.253E+04   -.304E+02 0.643E+02 0.253E+04   -.106E+00 -.477E-01 0.759E+00   0.293E-01 -.721E-01 0.677E-01
   -.304E+02 -.640E+02 -.253E+04   0.304E+02 0.643E+02 0.253E+04   0.106E+00 -.477E-01 0.759E+00   -.284E-01 -.721E-01 0.690E-01
   0.281E-04 -.417E+01 -.257E+04   0.147E-03 0.396E+01 0.257E+04   0.956E-08 0.144E+00 0.401E+00   -.383E-02 0.726E-01 0.135E+00
   0.255E-05 -.723E-01 -.201E+04   0.992E-04 0.180E-01 0.200E+04   -.246E-08 -.369E-01 0.267E+01   0.337E-02 0.213E-02 -.162E+00
   0.254E+03 0.965E-01 -.169E+04   -.296E+03 -.937E-03 0.170E+04   0.422E+02 -.884E-01 -.950E+01   -.849E-01 -.715E-02 -.190E+00
   -.254E+03 0.965E-01 -.169E+04   0.296E+03 -.938E-03 0.170E+04   -.422E+02 -.884E-01 -.950E+01   0.806E-01 -.712E-02 -.190E+00
   -.438E-03 0.568E+00 0.214E+02   0.000E+00 0.134E-12 0.614E-11   -.373E-07 -.560E+00 -.159E+02   0.486E-02 -.760E-02 -.538E+01

 POSITION                                       TOTAL-FORCE (eV/Angst)
      0.00000      0.00000      5.28038         0.000000      0.000661      0.017001
      2.93784      0.00000      5.28038         0.007549      0.004083     -0.040490
      5.87568      0.00000      5.28038        -0.007549      0.004083     -0.040490
      1.46892      2.54424      5.28038        -0.002692     -0.004593     -0.036586
      4.40676      2.54424      5.28038        -0.000000     -0.001697     -0.063493
      7.34459      2.54424      5.28038         0.002692     -0.004593     -0.036586
      2.93784      5.08848      5.28038         0.016574      0.001158     -0.028836
      5.87568      5.08848      5.28038        -0.016574      0.001158     -0.028836
      8.81351      5.08848      5.28038        -0.000000     -0.007064     -0.025665
      1.46892      0.84808      7.67911         0.071378      0.043310      0.080900
      4.40676      0.84808      7.67911        -0.000000     -0.024755      0.045564
      7.34459      0.84808      7.67911        -0.071378      0.043310      0.080900
      2.93784      3.39232      7.67911        -0.010599      0.009016      0.046349
      5.87568      3.39232      7.67911         0.010599      0.009016      0.046349
      8.81351      3.39232      7.67911         0.000000      0.021928      0.099107
      4.40676      5.93656      7.67911        -0.000000     -0.084769      0.066841
      7.34459      5.93656      7.67911         0.011772     -0.003046      0.090375
     10.28243      5.93656      7.67911        -0.011772     -0.003046      0.090375
      8.81351      1.69299     10.06281        -0.000000     -0.017930      0.019193
      2.93673      1.69552     10.07074         0.028974      0.037934      0.039184
      5.87678      1.69552     10.07074        -0.028974      0.037934      0.039184
     10.28200      4.24065     10.07064         0.015271     -0.015630     -0.004325
      4.40676      4.24168     10.07074         0.000000      0.008680     -0.060127
      7.34503      4.24065     10.07064        -0.015271     -0.015630     -0.004325
     11.75410      6.78623     10.06281         0.028375     -0.001258      0.027570
      5.87293      6.78623     10.06281        -0.028375     -0.001258      0.027570
      8.81351      6.78414     10.07064         0.000000      0.031372      0.014752
      0.00000      0.00000     12.49359        -0.000000     -0.006326     -0.049674
      2.94266      0.00661     12.49157        -0.074438     -0.184302     -0.131605
      5.87086      0.00661     12.49157         0.074438     -0.184302     -0.131605
      1.47706      2.54511     12.49157        -0.337766      0.008492     -0.224222
      7.33646      2.54511     12.49157         0.337766      0.008492     -0.224222
      2.94116      5.08100     12.49157        -0.102041      0.188300     -0.126744
      5.87236      5.08100     12.49157         0.102041      0.188300     -0.126744
      8.81351      5.08848     12.49778         0.000000      0.002053     -0.004335
      4.40676      2.54424     12.34091        -0.000000     -0.089053      0.676942
      3.74736      2.54412     14.47863        -0.002676     -0.000015     -0.059624
      5.06616      2.54412     14.47863         0.002676     -0.000015     -0.059624
    total drift:                                0.004418     -0.000102      0.125881

  FREE ENERGIE OF THE ION-ELECTRON SYSTEM (eV)
  free  energy   TOTEN  =      -121.17144095 eV

  energy  without entropy=     -121.17144095  energy(sigma->0) =     -121.17144095

 stress matrix after NEB project (eV)
    -19.61105     -0.00000     -0.00000
     -0.00000    -19.36980     -0.14221
     -0.00000     -0.14221     -0.12731
  FORCES: max atom, RMS     0.059684    0.013692
  FORCE total and by dimension    0.084406    0.059624
  Stress total and by dimension   27.565178   19.611052
|           W    W    AA    RRRRR   N    N  II  N    N   GGGG   !!!           |
|           W    W   A  A   R    R  NN   N  II  NN   N  G    G  !!!           |
|           W    W  A    A  R    R  N N  N  II  N N  N  G       !!!           |
|           W WW W  AAAAAA  RRRRR   N  N N  II  N  N N  G  GGG   !            |
|           WW  WW  A    A  R   R   N   NN  II  N   NN  G    G                |
|           W    W  A    A  R    R  N    N  II  N    N   GGGG   !!!           |
|     Tetrahedron method does not include variations of the Fermi             |
|     occupations, so forces and stress will be inaccurate. We suggest        |
|     using a different smearing scheme ISMEAR = 1 or 2 for metals in         |
|     relaxations.                                                            |

 total charge

# of ion       s       p       d       tot
    1        0.541   0.241   8.765   9.546
    2        0.545   0.240   8.764   9.550
    3        0.545   0.240   8.764   9.550
    4        0.546   0.240   8.765   9.550
    5        0.540   0.241   8.766   9.546
    6        0.546   0.240   8.765   9.550
    7        0.545   0.240   8.763   9.548
    8        0.545   0.240   8.763   9.548
    9        0.543   0.241   8.765   9.548
   10        0.519   0.309   8.770   9.597
   11        0.521   0.305   8.776   9.601
   12        0.519   0.309   8.770   9.597
   13        0.519   0.305   8.775   9.599
   14        0.519   0.305   8.775   9.599
   15        0.514   0.309   8.773   9.596
   16        0.518   0.308   8.773   9.599
   17        0.515   0.307   8.776   9.598
   18        0.515   0.307   8.776   9.598
   19        0.516   0.302   8.778   9.596
   20        0.525   0.315   8.761   9.601
   21        0.525   0.315   8.761   9.601
   22        0.512   0.305   8.772   9.589
   23        0.523   0.314   8.767   9.604
   24        0.512   0.305   8.772   9.589
   25        0.517   0.302   8.777   9.596
   26        0.517   0.302   8.777   9.596
   27        0.511   0.306   8.769   9.587
   28        0.542   0.233   8.767   9.541
   29        0.541   0.228   8.775   9.544
   30        0.541   0.228   8.775   9.544
   31        0.532   0.231   8.779   9.542
   32        0.532   0.231   8.779   9.542
   33        0.540   0.228   8.776   9.544
   34        0.540   0.228   8.776   9.544
   35        0.542   0.233   8.768   9.544
   36        0.366   0.389   8.460   9.215
   37        1.609   3.249   0.000   4.858
   38        1.609   3.249   0.000   4.858
tot         22.107  16.417 315.432 353.957

 BZINTS: Fermi energy:    0.143065;  407.000000 electrons
         Band energy:-0.150041E+04;  BLOECHL correction:   -0.051609