 vasp.6.2.0 18Jan21 (build Jun 12 2021 23:27:24) complex

 executed on             LinuxIFC date 2022.05.26  19:18:57

 INCAR:
   ISMEAR = -5
   SIGMA = 0.1
   ISPIN = 1
   EDIFF = 1.d-5
   EDIFFG = -0.01
   NSW = 0
   NELM = 150
   ENCUT = 500
   ISIF = 2
   IBRION = 2
   LREAL = Auto
   ALGO = Fast
   ICHARG = 11
   LORBIT = 10
   LCHARG = .F.
   LWAVE = .F.

 POTCAR:    PAW_PBE Au 04Oct2007
 POTCAR:    PAW_PBE Mn 06Sep2000
 POTCAR:    PAW_PBE H 15Jun2001
|           W    W    AA    RRRRR   N    N  II  N    N   GGGG   !!!           |
|           W    W   A  A   R    R  NN   N  II  NN   N  G    G  !!!           |
|           W    W  A    A  R    R  N N  N  II  N N  N  G       !!!           |
|           W WW W  AAAAAA  RRRRR   N  N N  II  N  N N  G  GGG   !            |
|           WW  WW  A    A  R   R   N   NN  II  N   NN  G    G                |
|           W    W  A    A  R    R  N    N  II  N    N   GGGG   !!!           |
|     For optimal performance we recommend to set                             |
|       NCORE = 2 up to number-of-cores-per-socket                            |
|     This setting can greatly improve the performance of VASP for DFT.       |
|     The default, NCORE=1 might be grossly inefficient on modern             |
|     multi-core architectures or massively parallel machines. Do your        |
|     Unfortunately you need to use the default for GW and RPA                |
|     calculations (for HF NCORE is supported but not extensively tested      |
|     yet).                                                                   |

 POTCAR:    PAW_PBE Au 04Oct2007
   VRHFIN =Au: s1d10

   TITEL  = PAW_PBE Au 04Oct2007
   POMASS =  196.966; ZVAL   =   11.000    mass and valenz
   ENMAX  =  229.943; ENMIN  =  172.457 eV

 POTCAR:    PAW_PBE Mn 06Sep2000
   VRHFIN =Mn: d6 s1

   TITEL  = PAW_PBE Mn 06Sep2000
   POMASS =   54.938; ZVAL   =    7.000    mass and valenz
   ENMAX  =  269.864; ENMIN  =  202.398 eV

 POTCAR:    PAW_PBE H 15Jun2001
   VRHFIN =H: ultrasoft test

   TITEL  = PAW_PBE H 15Jun2001
   POMASS =    1.000; ZVAL   =    1.000    mass and valenz
   ENMAX  =  250.000; ENMIN  =  200.000 eV

 Optimization of the real space projectors (new method)

 maximal supplied QI-value         = 15.12
 optimisation between [QCUT,QGAM] = [ 11.34, 22.83] = [ 36.00,145.93] Ry
 Optimized for a Real-space Cutoff    1.39 Angstroem

   l    n(q)    QCUT    max X(q) W(low)/X(q) W(high)/X(q)  e(spline)
   2      9    11.338    60.898    0.39E-03    0.42E-03    0.21E-06
   2      9    11.338    58.894    0.40E-03    0.42E-03    0.22E-06
   0      9    11.338   109.617    0.13E-03    0.20E-04    0.13E-06
   0      9    11.338    75.026    0.13E-03    0.20E-04    0.13E-06
   1      9    11.338    16.344    0.33E-04    0.24E-03    0.18E-06
   1      9    11.338    10.160    0.26E-04    0.19E-03    0.15E-06
 Optimization of the real space projectors (new method)

[...]

   l    n(q)    QCUT    max X(q) W(low)/X(q) W(high)/X(q)  e(spline)
   2      8    11.376   110.144    0.49E-03    0.27E-04    0.26E-06
   2      8    11.376   103.200    0.49E-03    0.28E-04    0.27E-06
   0      9    11.376    68.437    0.57E-04    0.92E-04    0.15E-06
   0      9    11.376    33.971    0.51E-04    0.83E-04    0.14E-06
   1      9    11.376    17.065    0.34E-03    0.68E-04    0.14E-06
   1      9    11.376    12.540    0.27E-03    0.59E-04    0.11E-06
 Optimization of the real space projectors (new method)

 maximal supplied QI-value         = 34.20
 optimisation between [QCUT,QGAM] = [ 11.29, 22.57] = [ 35.68,142.71] Ry
 Optimized for a Real-space Cutoff    1.16 Angstroem

   l    n(q)    QCUT    max X(q) W(low)/X(q) W(high)/X(q)  e(spline)
   0      8    11.287    19.460    0.40E-03    0.73E-03    0.16E-06
   0      8    11.287    12.209    0.38E-03    0.70E-03    0.15E-06
   1      7    11.287     4.655    0.22E-03    0.25E-04    0.22E-06
  PAW_PBE Au 04Oct2007                  :
  PAW_PBE Mn 06Sep2000                  :
  PAW_PBE H 15Jun2001                   :

 POSCAR: Au-Mn-H
  positions in direct lattice
  velocities in cartesian coordinates
 exchange correlation table for  LEXCH =        8
   RHO(1)=    0.500       N(1)  =     2000
   RHO(2)=  100.500       N(2)  =     4000

 VTST: version 3.2, (02/03/18)

 CHAIN: initializing optimizer

 OPT: Using VASP Conjugate-Gradient optimizer
 CHAIN: Read ICHAIN            0

 POSCAR: Au-Mn-H
  positions in direct lattice
  velocities in cartesian coordinates

 ion  position               nearest neighbor table
   1  0.000  0.000  0.238-  16 2.94  12 2.94   6 2.94   8 2.94   7 2.94   3 2.94  10 2.94   4 2.94
                             2 2.94
   2  0.333  0.000  0.238-   9 2.94  11 2.94  17 2.94  10 2.94   8 2.94   4 2.94   5 2.94   1 2.94
                             3 2.94
   3  0.667  0.000  0.238-   7 2.94  18 2.94  12 2.94   1 2.94  11 2.94   5 2.94   6 2.94   9 2.94
                             2 2.94
   4  0.000  0.333  0.238-  10 2.94   6 2.94   5 2.94  13 2.94   2 2.94  15 2.94   9 2.94   1 2.94
                             7 2.94
   5  0.333  0.333  0.238-  13 2.94   7 2.94  11 2.94   4 2.94   2 2.94  14 2.94   3 2.94   8 2.94
                             6 2.94
   6  0.667  0.333  0.238-  15 2.94  14 2.94   1 2.94  12 2.94   4 2.94   9 2.94   8 2.94   3 2.94
                             5 2.94
   7  0.000  0.667  0.238-  18 2.94   3 2.94  16 2.94   5 2.94   1 2.94  13 2.94   8 2.94   4 2.94
                             9 2.94
   8  0.333  0.667  0.238-   9 2.94  17 2.94   1 2.94   2 2.94  14 2.94  16 2.94   6 2.94   7 2.94
                             5 2.94
   9  0.667  0.667  0.238-   2 2.94   8 2.94  17 2.94   6 2.94  15 2.94   4 2.94   3 2.94  18 2.94
                             7 2.94
  10  0.111  0.111  0.346-  20 2.93  26 2.94  19 2.94  11 2.94  17 2.94   2 2.94   4 2.94   1 2.94
                            12 2.94  16 2.94  13 2.94  15 2.94
  11  0.444  0.111  0.346-  20 2.91  21 2.91  27 2.93  13 2.94   2 2.94  10 2.94  17 2.94   5 2.94
                             3 2.94  18 2.94  14 2.94  12 2.94
  12  0.778  0.111  0.346-  21 2.93  25 2.94  19 2.94  16 2.94  18 2.94   1 2.94  14 2.94  15 2.94
                             3 2.94   6 2.94  10 2.94  11 2.94
  13  0.111  0.444  0.346-  23 2.91  20 2.91  22 2.93   5 2.94  18 2.94  11 2.94   7 2.94   4 2.94
                            16 2.94  10 2.94  14 2.94  15 2.94
  14  0.444  0.444  0.346-  21 2.91  23 2.91  24 2.93  15 2.94   6 2.94  12 2.94   8 2.94  17 2.94
                             5 2.94  16 2.94  13 2.94  11 2.94
  15  0.778  0.444  0.346-  24 2.92  22 2.92  19 2.94  14 2.94   6 2.94  17 2.94  12 2.94   9 2.94
                             4 2.94  10 2.94  13 2.94  18 2.94
  16  0.111  0.778  0.346-  23 2.93  25 2.94  26 2.94  18 2.94  12 2.94   7 2.94   1 2.94   8 2.94
                            13 2.94  10 2.94  14 2.94  17 2.94
  17  0.444  0.778  0.346-  27 2.92  24 2.92  26 2.94   9 2.94  15 2.94   2 2.94  10 2.94  11 2.94
                             8 2.94  14 2.94  16 2.94  18 2.94
  18  0.778  0.778  0.346-  22 2.92  27 2.92  25 2.94  16 2.94   7 2.94  13 2.94  12 2.94   3 2.94
                            11 2.94   9 2.94  15 2.94  17 2.94
  19  0.889  0.222  0.454-  10 2.94  12 2.94  15 2.94  26 2.94  25 2.94  24 2.94  22 2.94  28 2.95
                            21 2.95  20 2.95  32 2.99  31 2.99
  20  0.223  0.223  0.453-  36 2.70  23 2.91  21 2.91  11 2.91  13 2.91  29 2.92  31 2.92  10 2.93
                            26 2.95  19 2.95  27 2.95  22 2.95
  21  0.553  0.223  0.453-  36 2.70  20 2.91  23 2.91  14 2.91  11 2.91  30 2.92  32 2.92  12 2.93
                            25 2.95  19 2.95  27 2.95  24 2.95
  22  0.886  0.557  0.453-  24 2.91  27 2.91  18 2.92  15 2.92  13 2.93  25 2.94  19 2.94  23 2.95
                            20 2.95  33 2.96  31 2.96  35 2.96
  23  0.223  0.553  0.453-  36 2.70  20 2.91  21 2.91  13 2.91  14 2.91  33 2.92  34 2.92  16 2.93
                            25 2.95  26 2.95  22 2.95  24 2.95
  24  0.557  0.557  0.453-  27 2.91  22 2.91  15 2.92  17 2.92  14 2.93  26 2.94  19 2.94  21 2.95
                            23 2.95  32 2.96  34 2.96  35 2.96
  25  0.889  0.889  0.454-  16 2.94  12 2.94  18 2.94  19 2.94  26 2.94  22 2.94  27 2.94  28 2.95
                            23 2.95  21 2.95  33 2.99  30 2.99
  26  0.222  0.889  0.454-  10 2.94  16 2.94  17 2.94  19 2.94  25 2.94  27 2.94  24 2.94  28 2.95
                            20 2.95  23 2.95  29 2.99  34 2.99
  27  0.557  0.886  0.453-  24 2.91  22 2.91  17 2.92  18 2.92  11 2.93  26 2.94  25 2.94  20 2.95
                            21 2.95  29 2.96  30 2.96  35 2.96
  28  0.000  0.000  0.563-  25 2.95  19 2.95  26 2.95  34 2.99  32 2.99  33 2.99  30 2.99  31 2.99
                            29 2.99
  29  0.334  0.010  0.562-  30 2.84  31 2.85  36 2.86  20 2.92  27 2.96  35 2.98  26 2.99  28 2.99
                            34 3.12
  30  0.656  0.010  0.562-  29 2.84  32 2.85  36 2.86  21 2.92  27 2.96  35 2.98  25 2.99  28 2.99
                            33 3.12
  31  0.010  0.334  0.562-  33 2.84  29 2.85  36 2.86  20 2.92  22 2.96  35 2.98  19 2.99  28 2.99
                            32 3.12
  32  0.656  0.334  0.562-  34 2.84  30 2.85  36 2.86  21 2.92  24 2.96  35 2.98  19 2.99  28 2.99
                            31 3.12
  33  0.010  0.656  0.562-  31 2.84  34 2.85  36 2.86  23 2.92  22 2.96  35 2.98  25 2.99  28 2.99
                            30 3.12
  34  0.334  0.656  0.562-  32 2.84  33 2.85  36 2.86  23 2.92  24 2.96  35 2.98  26 2.99  28 2.99
                            29 3.12
  35  0.667  0.667  0.563-  24 2.96  27 2.96  22 2.96  29 2.98  34 2.98  32 2.98  31 2.98  30 2.98
                            33 2.98
  36  0.333  0.333  0.548-  37 1.54  20 2.70  23 2.70  21 2.70  33 2.86  31 2.86  29 2.86  30 2.86
                            34 2.86  32 2.86
  37  0.333  0.333  0.618-  36 1.54

  LATTYP: Found a hexagonal cell.
 ALAT       =     8.8135128021
 C/A-ratio  =     2.5184286595

  Lattice vectors:

 A1 = (  -4.4067569092,  -7.6327256898,   0.0000000000)
 A2 = (   8.8135128021,   0.0000000000,   0.0000000000)
 A3 = (   0.0000000000,   0.0000000000,  22.1962032318)

Analysis of symmetry for initial positions (statically):
 Subroutine PRICEL returns:
 Original cell was already a primitive cell.

 Routine SETGRP: Setting up the symmetry group for a
 hexagonal supercell.

 Subroutine GETGRP returns: Found  6 space group operations
 (whereof  6 operations were pure point group operations)
 out of a pool of 24 trial point group operations.

The static configuration has the point symmetry C_3v.

Analysis of symmetry for dynamics (positions and initial velocities):
 Subroutine PRICEL returns:
 Original cell was already a primitive cell.

[...]

The dynamic configuration has the point symmetry C_3v.

Analysis of constrained symmetry for selective dynamics:
 Subroutine PRICEL returns:
 Original cell was already a primitive cell.

 Routine SETGRP: Setting up the symmetry group for a
 hexagonal supercell.

 Subroutine GETGRP returns: Found  6 space group operations
 (whereof  6 operations were pure point group operations)
[...]
     24      -5.1265      2.00000
     25      -5.1201      2.00000
     26      -5.0781      2.00000
     27      -5.0045      2.00000
     28      -4.9472      2.00000
     29      -4.8590      2.00000
     30      -4.8497      2.00000
     31      -4.8321      2.00000
     32      -4.8249      2.00000
     33      -4.8133      2.00000
     34      -4.7675      2.00000
     35      -4.6645      2.00000
     36      -4.6308      2.00000
     37      -4.6258      2.00000
     38      -4.6127      2.00000
     39      -4.5599      2.00000
     40      -4.4810      2.00000
     41      -4.4429      2.00000
     42      -4.3833      2.00000
     43      -4.3757      2.00000
     44      -4.3630      2.00000
     45      -4.3530      2.00000
     46      -4.2582      2.00000
     47      -4.2485      2.00000
     48      -4.2140      2.00000
     49      -4.1862      2.00000
     50      -4.1793      2.00000
     51      -4.1732      2.00000
     52      -4.1520      2.00000
     53      -4.1267      2.00000
     54      -4.0813      2.00000
     55      -4.0796      2.00000
     56      -4.0425      2.00000
     57      -4.0300      2.00000
     58      -4.0171      2.00000
     59      -4.0055      2.00000
     60      -3.9925      2.00000
[...]
    238       6.5629      0.00000
    239       6.7002      0.00000
    240       6.7308      0.00000
    241       6.7494      0.00000
    242       6.7782      0.00000
    243       7.0479      0.00000
    244       7.0888      0.00000
    245       7.2240      0.00000
    246       7.5605      0.00000
    247       7.5849      0.00000
    248       7.6380      0.00000
    249       7.7049      0.00000
    250       7.7953      0.00000
    251       7.9159      0.00000
    252       7.9567      0.00000

 soft charge-density along one line, spin component           1
         0         1         2         3         4         5         6         7         8         9
 total charge-density along one line

------------------------ aborting loop because EDIFF is reached ----------------------------------------

 total charge

# of ion       s       p       d       tot
    1        0.548   0.237   8.768   9.553
    2        0.543   0.241   8.764   9.548
    3        0.543   0.241   8.764   9.548
    4        0.543   0.241   8.764   9.548
    5        0.546   0.240   8.760   9.546
    6        0.543   0.241   8.764   9.548
    7        0.543   0.241   8.764   9.548
    8        0.543   0.241   8.764   9.548
    9        0.544   0.239   8.766   9.549
   10        0.524   0.308   8.768   9.600
   11        0.521   0.308   8.779   9.608
   12        0.524   0.308   8.768   9.600
   13        0.521   0.308   8.779   9.608
   14        0.521   0.308   8.779   9.608
   15        0.518   0.309   8.775   9.602
   16        0.524   0.308   8.768   9.600
   17        0.518   0.309   8.775   9.602
   18        0.518   0.309   8.775   9.602
   19        0.514   0.299   8.775   9.589
   20        0.556   0.331   8.745   9.633
   21        0.556   0.331   8.745   9.633
   22        0.509   0.309   8.776   9.594
   23        0.556   0.331   8.745   9.633
   24        0.509   0.309   8.776   9.594
   25        0.514   0.299   8.775   9.589
   26        0.514   0.299   8.775   9.589
   27        0.509   0.309   8.776   9.594
   28        0.538   0.224   8.759   9.521
   29        0.560   0.238   8.747   9.545
   30        0.560   0.238   8.747   9.545
   31        0.560   0.238   8.747   9.545
   32        0.560   0.238   8.747   9.545
   33        0.560   0.238   8.747   9.545
   34        0.560   0.238   8.747   9.545
   35        0.534   0.222   8.762   9.518
   36        0.297   0.275   5.057   5.629
   37        0.513   0.014   0.000   0.527
tot         19.562   9.915 311.797 341.274

  FORCE on cell =-STRESS in cart. coord.  units (eV):
  Direction    XX          YY          ZZ          XY          YZ          ZX
  Alpha Z   996.86126   996.86126   996.86126
  Ewald  119058.42849119058.42889************    -0.00032    -0.00009    -0.00016
  Hartree127614.20400127614.20401************     0.00000    -0.00002    -0.00004
  E(xc)   -1762.01794 -1762.01791 -1769.96966    -0.00002    -0.00000    -0.00000
  Local  ************************259172.07050     0.00172     0.00005     0.00009
  n-local  -106.46648   -55.53006   -52.72126    24.93332    -1.15273     1.30658
  augment  2393.29443  2393.29594  2412.67729    -0.00131     0.00001     0.00004
  Kinetic  5412.36179  5425.47163  5478.57781     6.53174    -0.73410     1.34457
  Fock        0.00000     0.00000     0.00000     0.00000     0.00000     0.00000
  Total     -23.45539   -23.45539     2.52652    -0.00000     0.00000    -0.00000
  in kB     -25.16783   -25.16783     2.71098    -0.00000     0.00000    -0.00000

 VOLUME and BASIS-vectors are now :
  energy-cutoff  :      500.00
  volume of cell :     1493.16
      direct lattice vectors                 reciprocal lattice vectors
     8.813512802  0.000000000  0.000000000     0.113462137 -0.065507406  0.000000000
     4.406756909  7.632725690  0.000000000     0.000000000  0.131014796  0.000000000
     0.000000000  0.000000000 22.196203232     0.000000000  0.000000000  0.045052750

  length of vectors
     8.813512802  8.813512802 22.196203232     0.131014796  0.131014796  0.045052750

 FORCES acting on ions
    electron-ion (+dipol)            ewald-force                    non-local-force                 convergence-correction
   -.198E-04 -.163E-04 0.247E+04   0.519E-04 0.433E-04 -.247E+04   0.258E-17 0.946E-18 -.721E+00   -.296E-03 -.184E-03 -.232E+00
   0.455E+00 0.679E-02 0.247E+04   -.541E+00 -.168E+00 -.247E+04   0.397E-01 0.106E+00 -.309E+00   0.425E-01 0.460E-01 -.274E+00
   -.455E+00 0.679E-02 0.247E+04   0.541E+00 -.168E+00 -.247E+04   -.397E-01 0.106E+00 -.309E+00   -.421E-01 0.480E-01 -.273E+00
   0.233E+00 0.391E+00 0.247E+04   -.416E+00 -.384E+00 -.247E+04   0.112E+00 -.187E-01 -.309E+00   0.611E-01 0.137E-01 -.274E+00
   0.730E-05 -.241E-04 0.247E+04   0.951E-04 0.174E-05 -.247E+04   0.248E-17 -.173E-17 -.666E-01   0.432E-02 0.262E-02 -.299E+00
   -.233E+00 0.391E+00 0.247E+04   0.416E+00 -.384E+00 -.247E+04   -.112E+00 -.187E-01 -.309E+00   -.627E-01 0.146E-01 -.273E+00
   -.222E+00 -.397E+00 0.247E+04   0.124E+00 0.553E+00 -.247E+04   0.722E-01 -.875E-01 -.309E+00   0.205E-01 -.604E-01 -.273E+00
   0.222E+00 -.397E+00 0.247E+04   -.125E+00 0.553E+00 -.247E+04   -.722E-01 -.875E-01 -.309E+00   -.187E-01 -.616E-01 -.273E+00
   0.198E-04 -.415E-04 0.247E+04   0.166E-03 -.200E-04 -.247E+04   0.887E-18 0.266E-18 -.467E+00   -.456E-02 -.236E-02 -.233E+00
   0.377E+01 0.218E+01 0.806E+03   -.340E+01 -.196E+01 -.805E+03   -.310E+00 -.179E+00 -.643E+00   -.641E-01 -.372E-01 -.435E-01
   0.149E-04 0.378E+01 0.813E+03   0.147E-03 -.379E+01 -.812E+03   0.351E-08 0.527E-01 -.236E+00   0.436E-02 -.815E-01 -.466E-01
   -.377E+01 0.218E+01 0.806E+03   0.340E+01 -.196E+01 -.805E+03   0.310E+00 -.179E+00 -.643E+00   0.623E-01 -.359E-01 -.428E-01
   0.327E+01 -.189E+01 0.813E+03   -.328E+01 0.189E+01 -.812E+03   0.456E-01 -.263E-01 -.236E+00   -.681E-01 0.448E-01 -.466E-01
   -.327E+01 -.189E+01 0.813E+03   0.328E+01 0.189E+01 -.812E+03   -.456E-01 -.263E-01 -.236E+00   0.758E-01 0.436E-01 -.472E-01
   0.317E-04 0.392E+01 0.810E+03   0.236E-03 -.413E+01 -.810E+03   0.364E-08 0.546E-01 -.563E+00   -.249E-02 0.104E+00 0.827E-01
   -.213E-04 -.436E+01 0.806E+03   0.162E-03 0.392E+01 -.805E+03   0.238E-07 0.358E+00 -.643E+00   -.179E-03 0.719E-01 -.428E-01
   0.339E+01 -.196E+01 0.810E+03   -.357E+01 0.206E+01 -.810E+03   0.473E-01 -.273E-01 -.563E+00   0.887E-01 -.535E-01 0.828E-01
   -.339E+01 -.196E+01 0.810E+03   0.357E+01 0.206E+01 -.810E+03   -.473E-01 -.273E-01 -.563E+00   -.881E-01 -.511E-01 0.840E-01
   -.407E-04 0.475E+00 -.885E+03   0.550E-04 -.826E+00 0.883E+03   0.789E-08 0.118E+00 0.634E+00   -.461E-02 0.213E+00 0.519E+00
   0.124E+02 0.717E+01 -.860E+03   -.112E+02 -.648E+01 0.861E+03   -.110E+01 -.637E+00 -.986E+00   -.116E+00 -.670E-01 0.528E+00
   -.124E+02 0.717E+01 -.860E+03   0.112E+02 -.648E+01 0.861E+03   0.110E+01 -.637E+00 -.986E+00   0.118E+00 -.674E-01 0.528E+00
   -.332E+01 0.192E+01 -.871E+03   0.315E+01 -.182E+01 0.870E+03   0.355E+00 -.205E+00 0.518E+00   -.158E+00 0.931E-01 0.536E+00
   -.881E-05 -.143E+02 -.860E+03   0.140E-03 0.130E+02 0.861E+03   0.848E-07 0.127E+01 -.986E+00   0.414E-03 0.136E+00 0.528E+00
   0.332E+01 0.192E+01 -.871E+03   -.315E+01 -.182E+01 0.870E+03   -.355E+00 -.205E+00 0.518E+00   0.158E+00 0.913E-01 0.536E+00
   -.412E+00 -.238E+00 -.885E+03   0.715E+00 0.413E+00 0.883E+03   -.103E+00 -.592E-01 0.634E+00   -.189E+00 -.109E+00 0.518E+00
   0.412E+00 -.238E+00 -.885E+03   -.716E+00 0.413E+00 0.883E+03   0.103E+00 -.592E-01 0.634E+00   0.182E+00 -.110E+00 0.519E+00
   0.103E-04 -.383E+01 -.871E+03   0.198E-03 0.364E+01 0.870E+03   0.273E-07 0.410E+00 0.518E+00   0.105E-02 -.183E+00 0.536E+00
   -.104E-04 -.118E-04 -.249E+04   0.281E-04 0.316E-04 0.249E+04   0.750E-17 0.444E-17 0.661E+00   -.328E-03 -.205E-03 0.314E+00
   0.776E+01 0.104E+02 -.249E+04   -.716E+01 -.928E+01 0.249E+04   -.711E+00 -.110E+01 0.323E+00   0.979E-01 -.327E-01 0.255E+00
   -.776E+01 0.104E+02 -.249E+04   0.716E+01 -.928E+01 0.249E+04   0.711E+00 -.110E+01 0.323E+00   -.973E-01 -.314E-01 0.254E+00
   0.129E+02 0.153E+01 -.249E+04   -.116E+02 -.156E+01 0.249E+04   -.131E+01 -.659E-01 0.323E+00   0.207E-01 0.101E+00 0.255E+00
   -.129E+02 0.153E+01 -.249E+04   0.116E+02 -.156E+01 0.249E+04   0.131E+01 -.659E-01 0.323E+00   -.215E-01 0.101E+00 0.254E+00
   0.511E+01 -.119E+02 -.249E+04   -.446E+01 0.108E+02 0.249E+04   -.597E+00 0.117E+01 0.323E+00   -.758E-01 -.685E-01 0.254E+00
   -.511E+01 -.119E+02 -.249E+04   0.446E+01 0.108E+02 0.249E+04   0.597E+00 0.117E+01 0.323E+00   0.772E-01 -.693E-01 0.254E+00
   0.346E-04 -.318E-04 -.250E+04   0.143E-03 -.469E-04 0.249E+04   0.668E-17 0.537E-17 0.703E+00   -.423E-02 -.215E-02 0.153E+00
   -.223E-04 -.829E-06 -.148E+04   0.740E-04 0.688E-05 0.148E+04   0.911E-17 -.517E-18 -.319E+01   0.291E-02 0.177E-02 0.248E+00
   0.502E-05 -.390E-05 -.283E+03   0.504E-05 0.319E-06 0.286E+03   -.110E-18 0.109E-18 -.226E+01   0.115E-03 0.690E-04 0.155E-01
   -.785E-03 -.778E-03 0.478E+01   -.137E-14 0.196E-12 0.796E-11   -.317E-15 0.227E-15 -.909E+01   0.746E-03 0.106E-02 0.458E+01

 POSITION                                       TOTAL-FORCE (eV/Angst)
      0.00000      0.00000      5.28038         0.000000     -0.000000     -0.170069
      2.93784      0.00000      5.28038        -0.003261     -0.008317     -0.060989
      5.87568      0.00000      5.28038         0.003261     -0.008317     -0.060989
      1.46892      2.54424      5.28038        -0.008833      0.001335     -0.060989
      4.40676      2.54424      5.28038         0.000000     -0.000000     -0.115904
      7.34459      2.54424      5.28038         0.008833      0.001335     -0.060989
      2.93784      5.08848      5.28038        -0.005572      0.006982     -0.060989
      5.87568      5.08848      5.28038         0.005572      0.006982     -0.060989
      8.81351      5.08848      5.28038         0.000000     -0.000000     -0.103627
      1.46892      0.84808      7.67911         0.002617      0.001511      0.119382
      4.40676      0.84808      7.67911        -0.000000     -0.038686      0.045151
      7.34459      0.84808      7.67911        -0.002617      0.001511      0.119382
      2.93784      3.39232      7.67911        -0.033503      0.019343      0.045151
      5.87568      3.39232      7.67911         0.033503      0.019343      0.045151
      8.81351      3.39232      7.67911        -0.000000     -0.052743      0.088042
      4.40676      5.93656      7.67911        -0.000000     -0.003022      0.119382
      7.34459      5.93656      7.67911        -0.045677      0.026372      0.088042
     10.28243      5.93656      7.67911         0.045677      0.026372      0.088042
      8.81351      1.69603     10.07479        -0.000000     -0.017626      0.004206
      2.95306      1.70495     10.04990        -0.034241     -0.019769     -0.028602
      5.86045      1.70495     10.04990         0.034241     -0.019769     -0.028602
     10.26640      4.24966     10.05812         0.025615     -0.014789      0.000632
      4.40676      4.22282     10.04990         0.000000      0.039538     -0.028602
      7.36062      4.24966     10.05812        -0.025615     -0.014789      0.000632
     11.75147      6.78471     10.07479         0.015265      0.008813      0.004206
      5.87556      6.78471     10.07479        -0.015265      0.008813      0.004206
      8.81351      6.76613     10.05812         0.000000      0.029578      0.000632
      0.00000      0.00000     12.48774         0.000000     -0.000000     -0.001445
      2.98478      0.07843     12.47445        -0.007894     -0.028075      0.010242
      5.82873      0.07843     12.47445         0.007894     -0.028075      0.010242
      1.56032      2.54568     12.47445        -0.028260      0.007201      0.010242
      7.25320      2.54568     12.47445         0.028260      0.007201      0.010242
      2.98229      5.00861     12.47445        -0.020366      0.020874      0.010242
      5.83122      5.00861     12.47445         0.020366      0.020874      0.010242
      8.81351      5.08848     12.49541         0.000000     -0.000000      0.022576
      4.40676      2.54424     12.16834         0.000000     -0.000000      0.052306
      4.40676      2.54424     13.71216         0.000000     -0.000000     -0.065789
    total drift:                               -0.000039      0.000285      0.273674

  FREE ENERGIE OF THE ION-ELECTRON SYSTEM (eV)
  free  energy   TOTEN  =      -116.65720130 eV

  energy  without entropy=     -116.65720130  energy(sigma->0) =     -116.65720130

 stress matrix after NEB project (eV)
    -23.45539     -0.00000     -0.00000
     -0.00000    -23.45539      0.00000
     -0.00000      0.00000      2.52652
  FORCES: max atom, RMS     0.065789    0.010816
  FORCE total and by dimension    0.065789    0.065789
  Stress total and by dimension   33.267008   23.455389
|           W    W    AA    RRRRR   N    N  II  N    N   GGGG   !!!           |
|           W    W   A  A   R    R  NN   N  II  NN   N  G    G  !!!           |
|           W    W  A    A  R    R  N N  N  II  N N  N  G       !!!           |
|           W WW W  AAAAAA  RRRRR   N  N N  II  N  N N  G  GGG   !            |
|           WW  WW  A    A  R   R   N   NN  II  N   NN  G    G                |
|           W    W  A    A  R    R  N    N  II  N    N   GGGG   !!!           |
|     Tetrahedron method does not include variations of the Fermi             |
|     occupations, so forces and stress will be inaccurate. We suggest        |
|     using a different smearing scheme ISMEAR = 1 or 2 for metals in         |
|     relaxations.                                                            |

 total charge

# of ion       s       p       d       tot
    1        0.548   0.237   8.768   9.553
    2        0.543   0.241   8.764   9.548
    3        0.543   0.241   8.764   9.548
    4        0.543   0.241   8.764   9.548
    5        0.546   0.240   8.760   9.546
    6        0.543   0.241   8.764   9.548
    7        0.543   0.241   8.764   9.548
    8        0.543   0.241   8.764   9.548
    9        0.544   0.239   8.766   9.549
   10        0.524   0.308   8.768   9.600
   11        0.521   0.308   8.779   9.608
   12        0.524   0.308   8.768   9.600
   13        0.521   0.308   8.779   9.608
   14        0.521   0.308   8.779   9.608
   15        0.518   0.309   8.775   9.602
   16        0.524   0.308   8.768   9.600
   17        0.518   0.309   8.775   9.602
   18        0.518   0.309   8.775   9.602
   19        0.514   0.299   8.775   9.589
   20        0.556   0.331   8.745   9.633
   21        0.556   0.331   8.745   9.633
   22        0.509   0.309   8.776   9.594
   23        0.556   0.331   8.745   9.633
   24        0.509   0.309   8.776   9.594
   25        0.514   0.299   8.775   9.589
   26        0.514   0.299   8.775   9.589
   27        0.509   0.309   8.776   9.594
   28        0.538   0.224   8.759   9.521
   29        0.560   0.238   8.747   9.545
   30        0.560   0.238   8.747   9.545
   31        0.560   0.238   8.747   9.545
   32        0.560   0.238   8.747   9.545
   33        0.560   0.238   8.747   9.545
   34        0.560   0.238   8.747   9.545
   35        0.534   0.222   8.762   9.518
   36        0.297   0.275   5.057   5.629
   37        0.513   0.014   0.000   0.527
tot         19.562   9.915 311.797 341.274

 BZINTS: Fermi energy:    0.597315;  393.000000 electrons
         Band energy:-0.120825E+04;  BLOECHL correction:   -0.035207