 vasp.6.2.0 18Jan21 (build Jun 12 2021 23:27:24) complex

 executed on             LinuxIFC date 2022.05.27  05:51:06

 INCAR:
   ISMEAR = -5
   SIGMA = 0.1
   ISPIN = 1
   EDIFF = 1.d-5
   EDIFFG = -0.01
   NSW = 0
   NELM = 150
   ENCUT = 500
   ISIF = 2
   IBRION = 2
   LREAL = Auto
   ALGO = Fast
   ICHARG = 11
   LORBIT = 10
   LCHARG = .F.
   LWAVE = .F.

 POTCAR:    PAW_PBE Ag 02Apr2005
 POTCAR:    PAW_PBE Re 17Jan2003
 POTCAR:    PAW_PBE C 08Apr2002
 POTCAR:    PAW_PBE O 08Apr2002
|           W    W    AA    RRRRR   N    N  II  N    N   GGGG   !!!           |
|           W    W   A  A   R    R  NN   N  II  NN   N  G    G  !!!           |
|           W    W  A    A  R    R  N N  N  II  N N  N  G       !!!           |
|           W WW W  AAAAAA  RRRRR   N  N N  II  N  N N  G  GGG   !            |
|           WW  WW  A    A  R   R   N   NN  II  N   NN  G    G                |
|           W    W  A    A  R    R  N    N  II  N    N   GGGG   !!!           |
|     For optimal performance we recommend to set                             |
|       NCORE = 2 up to number-of-cores-per-socket                            |
|     This setting can greatly improve the performance of VASP for DFT.       |
|     The default, NCORE=1 might be grossly inefficient on modern             |
|     multi-core architectures or massively parallel machines. Do your        |
|     Unfortunately you need to use the default for GW and RPA                |
|     calculations (for HF NCORE is supported but not extensively tested      |
|     yet).                                                                   |

 POTCAR:    PAW_PBE Ag 02Apr2005
   VRHFIN =Ag : s1 d10

   TITEL  = PAW_PBE Ag 02Apr2005
   POMASS =  107.868; ZVAL   =   11.000    mass and valenz
   ENMAX  =  249.844; ENMIN  =  187.383 eV

 POTCAR:    PAW_PBE Re 17Jan2003
   VRHFIN =Re: 5p6s5d

   TITEL  = PAW_PBE Re 17Jan2003
   POMASS =  186.207; ZVAL   =    7.000    mass and valenz
   ENMAX  =  226.216; ENMIN  =  169.662 eV

 POTCAR:    PAW_PBE C 08Apr2002
   VRHFIN =C: s2p2

[...]

 POTCAR:    PAW_PBE O 08Apr2002
   VRHFIN =O: s2p4

   TITEL  = PAW_PBE O 08Apr2002
   POMASS =   16.000; ZVAL   =    6.000    mass and valenz
   ENMAX  =  400.000; ENMIN  =  300.000 eV

 Optimization of the real space projectors (new method)

 maximal supplied QI-value         = 15.12
 optimisation between [QCUT,QGAM] = [ 11.34, 22.83] = [ 36.00,145.93] Ry
 Optimized for a Real-space Cutoff    1.43 Angstroem

   l    n(q)    QCUT    max X(q) W(low)/X(q) W(high)/X(q)  e(spline)
   2      9    11.338    53.897    0.16E-03    0.20E-03    0.28E-06
   2      9    11.338    52.416    0.16E-03    0.20E-03    0.29E-06
   0     10    11.338   122.045    0.31E-04    0.76E-04    0.15E-06
   0     10    11.338    73.629    0.30E-04    0.72E-04    0.15E-06
   1      9    11.338    15.255    0.20E-03    0.19E-04    0.17E-06
   1      9    11.338     9.562    0.16E-03    0.15E-04    0.14E-06
 Optimization of the real space projectors (new method)

[...]

   l    n(q)    QCUT    max X(q) W(low)/X(q) W(high)/X(q)  e(spline)
   0      7    11.310   115.676    0.43E-03    0.13E-02    0.19E-06
   0      7    11.310    87.132    0.43E-03    0.13E-02    0.18E-06
   1      6    11.310     4.429    0.42E-03    0.74E-03    0.11E-06
   1      6    11.310     2.733    0.34E-03    0.55E-03    0.92E-07
 Optimization of the real space projectors (new method)

 maximal supplied QI-value         = 24.76
 optimisation between [QCUT,QGAM] = [ 11.39, 22.77] = [ 36.31,145.25] Ry
 Optimized for a Real-space Cutoff    1.00 Angstroem

   l    n(q)    QCUT    max X(q) W(low)/X(q) W(high)/X(q)  e(spline)
   0      7    11.387    20.381    0.39E-03    0.13E-02    0.15E-06
   0      7    11.387    15.268    0.42E-03    0.14E-02    0.17E-06
   1      6    11.387     5.964    0.41E-03    0.11E-02    0.17E-06
   1      6    11.387     5.382    0.39E-03    0.87E-03    0.15E-06
  PAW_PBE Ag 02Apr2005                  :
  PAW_PBE Re 17Jan2003                  :
  PAW_PBE C 08Apr2002                   :
  PAW_PBE O 08Apr2002                   :

 POSCAR: Ag-Re-CO
  positions in direct lattice
  velocities in cartesian coordinates
 exchange correlation table for  LEXCH =        8
   RHO(1)=    0.500       N(1)  =     2000
   RHO(2)=  100.500       N(2)  =     4000

 VTST: version 3.2, (02/03/18)

 CHAIN: initializing optimizer

 OPT: Using VASP Conjugate-Gradient optimizer
 CHAIN: Read ICHAIN            0

 POSCAR: Ag-Re-CO
  positions in direct lattice
  velocities in cartesian coordinates

 ion  position               nearest neighbor table
   1  0.000  0.000  0.238-   2 2.93   8 2.93   7 2.93   6 2.93   4 2.93  12 2.93  16 2.93  10 2.93
                             3 2.93
   2  0.333  0.000  0.238-   1 2.93   8 2.93   9 2.93   3 2.93   4 2.93   5 2.93  10 2.93  17 2.93
                            11 2.93
   3  0.667  0.000  0.238-   9 2.93   2 2.93   5 2.93  11 2.93   7 2.93  18 2.93   1 2.93   6 2.93
                            12 2.93
   4  0.000  0.333  0.238-   5 2.93   6 2.93   2 2.93   1 2.93   7 2.93  13 2.93  15 2.93   9 2.93
                            10 2.93
   5  0.333  0.333  0.238-   4 2.93   3 2.93   7 2.93   2 2.93   8 2.93  14 2.93  13 2.93  11 2.93
                             6 2.93
   6  0.667  0.333  0.238-   4 2.93   9 2.93   1 2.93  15 2.93   8 2.93  12 2.93   3 2.93   5 2.93
                            14 2.93
   7  0.000  0.667  0.238-   8 2.93   1 2.93   5 2.93   3 2.93   4 2.93  16 2.93  18 2.93  13 2.93
                             9 2.93
   8  0.333  0.667  0.238-   7 2.93   1 2.93   2 2.93   9 2.93   5 2.93  16 2.93   6 2.93  17 2.93
                            14 2.93
   9  0.667  0.667  0.238-   3 2.93   2 2.93   8 2.93   6 2.93  17 2.93   4 2.93  15 2.93   7 2.93
                            18 2.93
  10  0.111  0.111  0.346-  20 2.89  12 2.93  16 2.93  15 2.93  17 2.93  13 2.93  11 2.93   2 2.93
                             1 2.93   4 2.93  19 2.93  26 2.93
  11  0.444  0.111  0.346-  21 2.89  20 2.89  27 2.93  14 2.93  17 2.93  18 2.93   3 2.93  12 2.93
                            13 2.93  10 2.93   5 2.93   2 2.93
  12  0.778  0.111  0.346-  21 2.89  10 2.93  16 2.93  18 2.93  15 2.93  11 2.93   1 2.93  14 2.93
                             6 2.93   3 2.93  25 2.93  19 2.93
  13  0.111  0.444  0.346-  20 2.89  23 2.89  22 2.93  15 2.93  14 2.93  18 2.93  10 2.93  11 2.93
                            16 2.93   4 2.93   5 2.93   7 2.93
  14  0.444  0.444  0.346-  23 2.89  21 2.89  24 2.93  13 2.93  11 2.93  16 2.93   5 2.93  12 2.93
                            17 2.93   8 2.93  15 2.93   6 2.93
  15  0.778  0.444  0.346-  24 2.92  22 2.92  19 2.93  13 2.93  10 2.93  12 2.93  17 2.93  18 2.93
                             4 2.93   6 2.93   9 2.93  14 2.93
  16  0.111  0.778  0.346-  23 2.89  18 2.93  12 2.93  10 2.93  14 2.93  17 2.93  13 2.93   7 2.93
                             8 2.93   1 2.93  26 2.93  25 2.93
  17  0.444  0.778  0.346-  27 2.92  24 2.92  26 2.93  11 2.93  10 2.93   9 2.93  18 2.93  15 2.93
                            16 2.93   2 2.93  14 2.93   8 2.93
  18  0.778  0.778  0.346-  22 2.92  27 2.92  25 2.93  16 2.93  12 2.93  13 2.93  11 2.93  17 2.93
                            15 2.93   7 2.93   3 2.93   9 2.93
  19  0.889  0.223  0.454-  28 2.91  24 2.93  22 2.93  15 2.93  20 2.93  21 2.93  10 2.93  12 2.93
                            26 2.94  25 2.94  32 2.97  31 2.97
  20  0.222  0.222  0.452-  36 2.76  10 2.89  13 2.89  11 2.89  19 2.93  26 2.93  21 2.93  23 2.93
                            27 2.94  22 2.94  31 2.94  29 2.94
  21  0.556  0.222  0.452-  36 2.76  12 2.89  11 2.89  14 2.89  25 2.93  19 2.93  20 2.93  23 2.93
                            27 2.94  24 2.94  30 2.94  32 2.94
  22  0.888  0.556  0.453-  35 2.91  24 2.92  27 2.92  18 2.92  15 2.92  13 2.93  25 2.93  19 2.93
                            23 2.94  20 2.94  33 2.95  31 2.95
  23  0.222  0.556  0.452-  36 2.76  16 2.89  14 2.89  13 2.89  26 2.93  25 2.93  21 2.93  20 2.93
                            22 2.94  24 2.94  34 2.94  33 2.94
  24  0.556  0.556  0.453-  35 2.91  27 2.92  22 2.92  15 2.92  17 2.92  14 2.93  19 2.93  26 2.93
                            23 2.94  21 2.94  32 2.95  34 2.95
  25  0.889  0.889  0.454-  28 2.91  22 2.93  27 2.93  18 2.93  23 2.93  21 2.93  16 2.93  12 2.93
                            26 2.94  19 2.94  33 2.97  30 2.97
  26  0.223  0.889  0.454-  28 2.91  27 2.93  24 2.93  17 2.93  23 2.93  20 2.93  16 2.93  10 2.93
                            25 2.94  19 2.94  34 2.97  29 2.97
  27  0.556  0.888  0.453-  35 2.91  24 2.92  22 2.92  17 2.92  18 2.92  11 2.93  26 2.93  25 2.93
                            20 2.94  21 2.94  29 2.95  30 2.95
  28  0.000  0.000  0.560-  26 2.91  25 2.91  19 2.91  29 2.96  34 2.96  33 2.96  32 2.96  31 2.96
                            30 2.96
  29  0.333  0.008  0.562-  31 2.86  30 2.87  36 2.88  20 2.94  27 2.95  28 2.96  26 2.97  35 2.97
                            34 3.06
  30  0.659  0.008  0.562-  32 2.86  29 2.87  36 2.88  21 2.94  27 2.95  28 2.96  25 2.97  35 2.97
                            33 3.06
  31  0.008  0.333  0.562-  29 2.86  33 2.87  36 2.88  20 2.94  22 2.95  28 2.96  19 2.97  35 2.97
                            32 3.06
  32  0.659  0.333  0.562-  30 2.86  34 2.87  36 2.88  21 2.94  24 2.95  28 2.96  19 2.97  35 2.97
                            31 3.06
  33  0.008  0.659  0.562-  34 2.86  31 2.87  36 2.88  23 2.94  22 2.95  28 2.96  25 2.97  35 2.97
                            30 3.06
  34  0.333  0.659  0.562-  33 2.86  32 2.87  36 2.88  23 2.94  24 2.95  28 2.96  26 2.97  35 2.97
                            29 3.06
  35  0.667  0.667  0.560-  24 2.91  27 2.91  22 2.91  30 2.97  32 2.97  29 2.97  34 2.97  31 2.97
                            33 2.97
  36  0.333  0.333  0.550-  37 1.90  21 2.76  20 2.76  23 2.76  31 2.88  30 2.88  33 2.88  29 2.88
                            34 2.88  32 2.88
  37  0.333  0.333  0.636-  38 1.18  36 1.90
  38  0.333  0.333  0.689-  37 1.18

  LATTYP: Found a hexagonal cell.
 ALAT       =     8.7913665772
 C/A-ratio  =     2.5227160501

  Lattice vectors:

 A1 = (  -4.3956832886,  -7.6135467898,   0.0000000000)
 A2 = (   8.7913665771,   0.0000000000,   0.0000000000)
 A3 = (   0.0000000000,   0.0000000000,  22.1781215668)

Analysis of symmetry for initial positions (statically):
 Subroutine PRICEL returns:
 Original cell was already a primitive cell.

 Routine SETGRP: Setting up the symmetry group for a
 hexagonal supercell.

 Subroutine GETGRP returns: Found  6 space group operations
 (whereof  6 operations were pure point group operations)
 out of a pool of 24 trial point group operations.

The static configuration has the point symmetry C_3v.

Analysis of symmetry for dynamics (positions and initial velocities):
 Subroutine PRICEL returns:
 Original cell was already a primitive cell.

[...]

The dynamic configuration has the point symmetry C_3v.

Analysis of constrained symmetry for selective dynamics:
 Subroutine PRICEL returns:
 Original cell was already a primitive cell.

 Routine SETGRP: Setting up the symmetry group for a
 hexagonal supercell.

[...]
     33      -4.6431      2.00000
     34      -4.6146      2.00000
     35      -4.6079      2.00000
     36      -4.5775      2.00000
     37      -4.5563      2.00000
     38      -4.5455      2.00000
     39      -4.4970      2.00000
     40      -4.4856      2.00000
     41      -4.4710      2.00000
     42      -4.4324      2.00000
     43      -4.4197      2.00000
     44      -4.4031      2.00000
     45      -4.3878      2.00000
     46      -4.3787      2.00000
     47      -4.3536      2.00000
     48      -4.2861      2.00000
     49      -4.2648      2.00000
     50      -4.2506      2.00000
     51      -4.2481      2.00000
     52      -4.2423      2.00000
     53      -4.2298      2.00000
     54      -4.2271      2.00000
     55      -4.2172      2.00000
     56      -4.2123      2.00000
     57      -4.2013      2.00000
     58      -4.1313      2.00000
     59      -4.1251      2.00000
     60      -4.1196      2.00000
[...]
    238       6.0966      0.00000
    239       6.1325      0.00000
    240       6.1792      0.00000
    241       6.3025      0.00000
    242       6.3718      0.00000
    243       6.4075      0.00000
    244       7.1579      0.00000
    245       7.2472      0.00000
    246       7.2575      0.00000
    247       7.3839      0.00000
    248       7.4066      0.00000
    249       7.4375      0.00000
    250       7.4496      0.00000
    251       7.5969      0.00000
    252       7.6570      0.00000

 soft charge-density along one line, spin component           1
         0         1         2         3         4         5         6         7         8         9
 total charge-density along one line

------------------------ aborting loop because EDIFF is reached ----------------------------------------

 total charge

# of ion       s       p       d       tot
    1        0.418   0.201   9.179   9.798
    2        0.418   0.203   9.177   9.798
    3        0.418   0.203   9.177   9.798
    4        0.418   0.203   9.177   9.798
    5        0.417   0.203   9.175   9.795
    6        0.418   0.203   9.177   9.798
    7        0.418   0.203   9.177   9.798
    8        0.418   0.203   9.177   9.798
    9        0.415   0.201   9.180   9.796
   10        0.408   0.270   9.163   9.841
   11        0.411   0.267   9.169   9.847
   12        0.408   0.270   9.163   9.841
   13        0.411   0.267   9.169   9.847
   14        0.411   0.267   9.169   9.847
   15        0.403   0.270   9.165   9.838
   16        0.408   0.270   9.163   9.841
   17        0.403   0.270   9.165   9.838
   18        0.403   0.270   9.165   9.838
   19        0.401   0.264   9.167   9.831
   20        0.437   0.303   9.142   9.883
   21        0.437   0.303   9.142   9.883
   22        0.392   0.273   9.168   9.833
   23        0.437   0.303   9.142   9.883
   24        0.392   0.273   9.168   9.833
   25        0.401   0.264   9.167   9.831
   26        0.401   0.264   9.167   9.831
   27        0.392   0.273   9.168   9.833
   28        0.411   0.195   9.181   9.786
   29        0.422   0.218   9.164   9.804
   30        0.422   0.218   9.164   9.804
   31        0.422   0.218   9.164   9.804
   32        0.422   0.218   9.164   9.804
   33        0.422   0.218   9.164   9.804
   34        0.422   0.218   9.164   9.804
   35        0.403   0.198   9.180   9.782
   36        0.550   0.448   4.888   5.886
   37        0.949   1.569   0.000   2.518
   38        1.606   3.533   0.000   5.140
tot         17.564  14.017 325.750 357.332

  FORCE on cell =-STRESS in cart. coord.  units (eV):
  Direction    XX          YY          ZZ          XY          YZ          ZX
  Alpha Z   781.36879   781.36879   781.36879
  Ewald  118179.08823118179.08826************     0.00004    -0.00000     0.00004
  Hartree128505.06106128505.06107************     0.00001     0.00000     0.00001
  E(xc)   -2105.53371 -2105.53378 -2111.23347     0.00006    -0.00000    -0.00001
  Local  ************************257562.19024     0.00052    -0.00006    -0.00017
  n-local  -373.52375  -353.27743  -370.38628    11.28176    -0.58013     0.71956
  augment  3234.01519  3234.01538  3245.78019    -0.00017    -0.00002    -0.00005
  Kinetic  5057.43836  5064.93476  5061.36702     5.75137     0.74395    -0.16141
  Fock        0.00000     0.00000     0.00000     0.00000     0.00000     0.00000
  Total      -8.91169    -8.91169     1.33102    -0.00000     0.00000    -0.00000
  in kB      -9.61840    -9.61840     1.43657    -0.00000     0.00000    -0.00000

 VOLUME and BASIS-vectors are now :
  energy-cutoff  :      500.00
  volume of cell :     1484.46
      direct lattice vectors                 reciprocal lattice vectors
     8.791366577  0.000000000  0.000000000     0.113747958 -0.065672414  0.000000000
     4.395683289  7.613546790  0.000000000     0.000000000  0.131344829  0.000000000
     0.000000000  0.000000000 22.178121567     0.000000000  0.000000000  0.045089481

  length of vectors
     8.791366577  8.791366577 22.178121567     0.131344829  0.131344829  0.045089481

 FORCES acting on ions
    electron-ion (+dipol)            ewald-force                    non-local-force                 convergence-correction
   0.459E-04 -.283E-04 0.251E+04   -.954E-04 0.593E-04 -.250E+04   0.142E-17 -.215E-17 -.218E+01   -.274E-04 -.123E-03 0.769E-01
   0.199E+00 0.497E+00 0.251E+04   -.426E+00 -.485E+00 -.250E+04   0.957E-01 0.614E-01 -.150E+01   0.133E+00 -.509E-01 0.149E+00
   -.199E+00 0.497E+00 0.251E+04   0.426E+00 -.485E+00 -.250E+04   -.957E-01 0.614E-01 -.150E+01   -.134E+00 -.491E-01 0.149E+00
   0.530E+00 -.764E-01 0.251E+04   -.633E+00 -.126E+00 -.250E+04   0.101E+00 0.522E-01 -.150E+01   0.227E-01 0.141E+00 0.149E+00
   -.594E-05 -.190E-04 0.251E+04   0.980E-04 -.197E-05 -.251E+04   0.412E-17 0.879E-18 -.120E+01   0.615E-02 0.376E-02 0.266E+00
   -.530E+00 -.764E-01 0.251E+04   0.633E+00 -.126E+00 -.250E+04   -.101E+00 0.522E-01 -.150E+01   -.240E-01 0.142E+00 0.149E+00
   0.331E+00 -.421E+00 0.251E+04   -.207E+00 0.612E+00 -.250E+04   0.534E-02 -.114E+00 -.150E+01   -.109E+00 -.909E-01 0.149E+00
   -.331E+00 -.421E+00 0.251E+04   0.207E+00 0.612E+00 -.250E+04   -.534E-02 -.114E+00 -.150E+01   0.111E+00 -.917E-01 0.149E+00
   0.367E-04 -.128E-04 0.251E+04   0.792E-04 -.643E-04 -.250E+04   0.508E-17 -.460E-18 -.201E+01   -.665E-02 -.343E-02 0.417E-01
   0.552E+01 0.318E+01 0.859E+03   -.517E+01 -.299E+01 -.859E+03   -.430E+00 -.248E+00 -.847E+00   0.791E-01 0.457E-01 0.499E+00
   -.285E-04 0.457E+01 0.865E+03   0.408E-04 -.491E+01 -.865E+03   0.152E-11 0.232E+00 -.353E+00   0.582E-02 0.499E-01 0.431E+00
   -.552E+01 0.318E+01 0.859E+03   0.517E+01 -.299E+01 -.859E+03   0.430E+00 -.248E+00 -.847E+00   -.800E-01 0.463E-01 0.497E+00
   0.396E+01 -.228E+01 0.865E+03   -.425E+01 0.245E+01 -.865E+03   0.201E+00 -.116E+00 -.353E+00   0.460E-01 -.199E-01 0.431E+00
   -.396E+01 -.228E+01 0.865E+03   0.425E+01 0.245E+01 -.865E+03   -.201E+00 -.116E+00 -.353E+00   -.359E-01 -.205E-01 0.429E+00
   0.159E-04 0.107E+01 0.860E+03   -.108E-03 -.126E+01 -.859E+03   0.728E-12 0.111E+00 -.798E+00   -.108E-02 0.519E-01 0.446E+00
   -.788E-05 -.637E+01 0.859E+03   0.205E-04 0.598E+01 -.859E+03   0.326E-11 0.496E+00 -.847E+00   0.535E-05 -.925E-01 0.497E+00
   0.927E+00 -.535E+00 0.860E+03   -.109E+01 0.629E+00 -.859E+03   0.960E-01 -.554E-01 -.798E+00   0.444E-01 -.269E-01 0.446E+00
   -.927E+00 -.535E+00 0.860E+03   0.109E+01 0.629E+00 -.859E+03   -.960E-01 -.554E-01 -.798E+00   -.445E-01 -.257E-01 0.446E+00
   0.383E-04 -.181E+00 -.817E+03   -.128E-03 -.480E-02 0.815E+03   0.648E-12 0.987E-01 0.800E+00   0.687E-02 0.834E-01 0.642E+00
   0.334E+01 0.193E+01 -.786E+03   -.213E+01 -.123E+01 0.787E+03   -.146E+01 -.844E+00 -.122E+01   0.106E+00 0.610E-01 0.777E+00
   -.334E+01 0.193E+01 -.786E+03   0.213E+01 -.123E+01 0.787E+03   0.146E+01 -.844E+00 -.122E+01   -.118E+00 0.611E-01 0.776E+00
   -.163E+01 0.943E+00 -.806E+03   0.116E+01 -.668E+00 0.805E+03   0.441E+00 -.255E+00 0.524E+00   0.695E-01 -.416E-01 0.602E+00
   -.531E-04 -.386E+01 -.786E+03   0.415E-04 0.246E+01 0.787E+03   0.111E-10 0.169E+01 -.122E+01   -.568E-02 -.132E+00 0.776E+00
   0.163E+01 0.943E+00 -.806E+03   -.116E+01 -.668E+00 0.805E+03   -.441E+00 -.255E+00 0.524E+00   -.681E-01 -.392E-01 0.603E+00
   0.156E+00 0.902E-01 -.817E+03   0.410E-02 0.253E-02 0.815E+03   -.855E-01 -.494E-01 0.800E+00   -.643E-01 -.373E-01 0.642E+00
   -.156E+00 0.902E-01 -.817E+03   -.418E-02 0.242E-02 0.815E+03   0.855E-01 -.494E-01 0.800E+00   0.754E-01 -.359E-01 0.642E+00
   0.202E-04 -.189E+01 -.806E+03   0.110E-03 0.134E+01 0.805E+03   0.334E-11 0.509E+00 0.524E+00   -.189E-02 0.810E-01 0.602E+00
   0.538E-04 -.360E-04 -.243E+04   -.115E-03 0.778E-04 0.243E+04   0.843E-17 -.190E-17 0.209E+01   -.670E-03 -.523E-03 0.139E+00
   0.213E+02 0.379E+02 -.242E+04   -.205E+02 -.366E+02 0.241E+04   -.102E+01 -.158E+01 0.173E+01   0.158E+00 0.241E+00 0.114E+00
   -.213E+02 0.379E+02 -.242E+04   0.205E+02 -.366E+02 0.241E+04   0.102E+01 -.158E+01 0.173E+01   -.149E+00 0.242E+00 0.115E+00
   0.435E+02 -.472E+00 -.242E+04   -.419E+02 0.561E+00 0.241E+04   -.188E+01 -.955E-01 0.173E+01   0.288E+00 0.168E-01 0.114E+00
   -.435E+02 -.472E+00 -.242E+04   0.419E+02 0.561E+00 0.241E+04   0.188E+01 -.955E-01 0.173E+01   -.278E+00 0.182E-01 0.116E+00
   0.221E+02 -.374E+02 -.242E+04   -.214E+02 0.360E+02 0.241E+04   -.856E+00 0.167E+01 0.173E+01   0.135E+00 -.250E+00 0.115E+00
   -.221E+02 -.374E+02 -.242E+04   0.214E+02 0.360E+02 0.241E+04   0.856E+00 0.167E+01 0.173E+01   -.124E+00 -.250E+00 0.116E+00
   0.219E-04 -.120E-04 -.243E+04   0.106E-03 -.658E-04 0.243E+04   -.544E-18 -.140E-18 0.221E+01   -.773E-02 -.403E-02 0.167E+00
   -.874E-05 -.965E-05 -.134E+04   0.677E-04 0.862E-05 0.135E+04   -.358E-17 -.154E-17 -.197E+01   0.360E-04 0.523E-04 0.202E+00
   0.248E-05 -.794E-04 -.835E+03   0.175E-04 0.219E-06 0.821E+03   0.440E-19 -.657E-18 0.142E+02   0.896E-03 0.558E-03 -.199E+00
   0.234E-03 -.937E-04 -.150E+04   0.909E-05 0.114E-07 0.156E+04   -.201E-18 0.320E-19 -.574E+02   0.360E-02 0.221E-02 -.224E+00
   0.594E-03 -.860E-03 0.384E+02   0.631E-13 -.885E-13 0.296E-11   0.662E-15 -.446E-15 -.506E+02   0.395E-01 0.262E-01 0.122E+02

 POSITION                                       TOTAL-FORCE (eV/Angst)
      0.00000      0.00000      5.28219         0.000000      0.000000     -0.033426
      2.93046      0.00000      5.28219         0.002240      0.023189      0.018402
      5.86091      0.00000      5.28219        -0.002240      0.023189      0.018402
      1.46523      2.53785      5.28219         0.021202     -0.009655      0.018402
      4.39568      2.53785      5.28219         0.000000      0.000000     -0.032944
      7.32614      2.53785      5.28219        -0.021202     -0.009655      0.018402
      2.93046      5.07570      5.28219         0.018962     -0.013534      0.018402
      5.86091      5.07570      5.28219        -0.018962     -0.013534      0.018402
      8.79137      5.07570      5.28219         0.000000      0.000000      0.005988
      1.46523      0.84595      7.67490        -0.009015     -0.005205     -0.014493
      4.39568      0.84595      7.67490        -0.000000     -0.060175     -0.057840
      7.32614      0.84595      7.67490         0.009015     -0.005205     -0.014493
      2.93046      3.38380      7.67490        -0.052113      0.030087     -0.057840
      5.86091      3.38380      7.67490         0.052113      0.030087     -0.057840
      8.79137      3.38380      7.67490        -0.000000     -0.025498      0.014343
      4.39568      5.92165      7.67490         0.000000      0.010409     -0.014493
      7.32614      5.92165      7.67490        -0.022082      0.012749      0.014343
     10.25659      5.92165      7.67490         0.022082      0.012749      0.014343
      8.79137      1.69725     10.06774        -0.000000     -0.006280      0.028213
      2.92950      1.69135     10.02116        -0.141934     -0.081946     -0.214223
      5.86187      1.69135     10.02116         0.141934     -0.081946     -0.214223
     10.25061      4.23320     10.05696         0.033260     -0.019202      0.005455
      4.39568      4.23086     10.02116         0.000000      0.163891     -0.214223
      7.33212      4.23320     10.05696        -0.033260     -0.019202      0.005455
     11.71719      6.76492     10.06774         0.005439      0.003140      0.028213
      5.86555      6.76492     10.06774        -0.005439      0.003140      0.028213
      8.79137      6.76069     10.05696         0.000000      0.038405      0.005455
      0.00000      0.00000     12.43040         0.000000      0.000000     -0.025909
      2.96174      0.05879     12.46433        -0.027587     -0.063197     -0.029494
      5.82963      0.05879     12.46433         0.027587     -0.063197     -0.029494
      1.53179      2.53554     12.46433        -0.068524      0.007707     -0.029494
      7.25958      2.53554     12.46433         0.068524      0.007707     -0.029494
      2.96573      5.01921     12.46433        -0.040937      0.055490     -0.029494
      5.82563      5.01921     12.46433         0.040937      0.055490     -0.029494
      8.79137      5.07570     12.42552         0.000000      0.000000     -0.023273
      4.39568      2.53785     12.19879         0.000000      0.000000      0.862173
      4.39568      2.53785     14.09626         0.000000      0.000000      0.051927
      4.39568      2.53785     15.27740         0.000000      0.000000     -0.022346
    total drift:                                0.040113      0.025319      0.014011

  FREE ENERGIE OF THE ION-ELECTRON SYSTEM (eV)
  free  energy   TOTEN  =      -114.95811718 eV

  energy  without entropy=     -114.95811718  energy(sigma->0) =     -114.95811718

 stress matrix after NEB project (eV)
     -8.91169     -0.00000     -0.00000
     -0.00000     -8.91169      0.00000
      0.00000      0.00000      1.33102
  FORCES: max atom, RMS     0.051927    0.009170
  FORCE total and by dimension    0.056531    0.051927
  Stress total and by dimension   12.673127    8.911693
|           W    W    AA    RRRRR   N    N  II  N    N   GGGG   !!!           |
|           W    W   A  A   R    R  NN   N  II  NN   N  G    G  !!!           |
|           W    W  A    A  R    R  N N  N  II  N N  N  G       !!!           |
|           W WW W  AAAAAA  RRRRR   N  N N  II  N  N N  G  GGG   !            |
|           WW  WW  A    A  R   R   N   NN  II  N   NN  G    G                |
|           W    W  A    A  R    R  N    N  II  N    N   GGGG   !!!           |
|     Tetrahedron method does not include variations of the Fermi             |
|     occupations, so forces and stress will be inaccurate. We suggest        |
|     using a different smearing scheme ISMEAR = 1 or 2 for metals in         |
|     relaxations.                                                            |

 total charge

# of ion       s       p       d       tot
    1        0.418   0.201   9.179   9.798
    2        0.418   0.203   9.177   9.798
    3        0.418   0.203   9.177   9.798
    4        0.418   0.203   9.177   9.798
    5        0.417   0.203   9.175   9.795
    6        0.418   0.203   9.177   9.798
    7        0.418   0.203   9.177   9.798
    8        0.418   0.203   9.177   9.798
    9        0.415   0.201   9.180   9.796
   10        0.408   0.270   9.163   9.841
   11        0.411   0.267   9.169   9.847
   12        0.408   0.270   9.163   9.841
   13        0.411   0.267   9.169   9.847
   14        0.411   0.267   9.169   9.847
   15        0.403   0.270   9.165   9.838
   16        0.408   0.270   9.163   9.841
   17        0.403   0.270   9.165   9.838
   18        0.403   0.270   9.165   9.838
   19        0.401   0.264   9.167   9.831
   20        0.437   0.303   9.142   9.883
   21        0.437   0.303   9.142   9.883
   22        0.392   0.273   9.168   9.833
   23        0.437   0.303   9.142   9.883
   24        0.392   0.273   9.168   9.833
   25        0.401   0.264   9.167   9.831
   26        0.401   0.264   9.167   9.831
   27        0.392   0.273   9.168   9.833
   28        0.411   0.195   9.181   9.786
   29        0.422   0.218   9.164   9.804
   30        0.422   0.218   9.164   9.804
   31        0.422   0.218   9.164   9.804
   32        0.422   0.218   9.164   9.804
   33        0.422   0.218   9.164   9.804
   34        0.422   0.218   9.164   9.804
   35        0.403   0.198   9.180   9.782
   36        0.550   0.448   4.888   5.886
   37        0.949   1.569   0.000   2.518
   38        1.606   3.533   0.000   5.140
tot         17.564  14.017 325.750 357.332

 BZINTS: Fermi energy:    0.720741;  402.000000 electrons
         Band energy:-0.138525E+04;  BLOECHL correction:   -0.024465