 vasp.6.2.0 18Jan21 (build Jun 12 2021 23:27:24) complex

 executed on             LinuxIFC date 2022.05.27  05:27:13

 INCAR:
   ISMEAR = -5
   SIGMA = 0.1
   ISPIN = 1
   EDIFF = 1.d-5
   EDIFFG = -0.01
   NSW = 0
   NELM = 150
   ENCUT = 500
   ISIF = 2
   IBRION = 2
   LREAL = Auto
   ALGO = Fast
   ICHARG = 11
   LORBIT = 10
   LCHARG = .F.
   LWAVE = .F.

 POTCAR:    PAW_PBE Ag 02Apr2005
 POTCAR:    PAW_PBE V 08Apr2002
 POTCAR:    PAW_PBE C 08Apr2002
 POTCAR:    PAW_PBE O 08Apr2002
|           W    W    AA    RRRRR   N    N  II  N    N   GGGG   !!!           |
|           W    W   A  A   R    R  NN   N  II  NN   N  G    G  !!!           |
|           W    W  A    A  R    R  N N  N  II  N N  N  G       !!!           |
|           W WW W  AAAAAA  RRRRR   N  N N  II  N  N N  G  GGG   !            |
|           WW  WW  A    A  R   R   N   NN  II  N   NN  G    G                |
|           W    W  A    A  R    R  N    N  II  N    N   GGGG   !!!           |
|     For optimal performance we recommend to set                             |
|       NCORE = 2 up to number-of-cores-per-socket                            |
|     This setting can greatly improve the performance of VASP for DFT.       |
|     The default, NCORE=1 might be grossly inefficient on modern             |
|     multi-core architectures or massively parallel machines. Do your        |
|     Unfortunately you need to use the default for GW and RPA                |
|     calculations (for HF NCORE is supported but not extensively tested      |
|     yet).                                                                   |

 POTCAR:    PAW_PBE Ag 02Apr2005
   VRHFIN =Ag : s1 d10

   TITEL  = PAW_PBE Ag 02Apr2005
   POMASS =  107.868; ZVAL   =   11.000    mass and valenz
   ENMAX  =  249.844; ENMIN  =  187.383 eV

 POTCAR:    PAW_PBE V 08Apr2002
   VRHFIN =V: p6 d4 s1

[...]

 POTCAR:    PAW_PBE C 08Apr2002
   VRHFIN =C: s2p2

[...]

 POTCAR:    PAW_PBE O 08Apr2002
   VRHFIN =O: s2p4

   TITEL  = PAW_PBE O 08Apr2002
   POMASS =   16.000; ZVAL   =    6.000    mass and valenz
   ENMAX  =  400.000; ENMIN  =  300.000 eV

 Optimization of the real space projectors (new method)

 maximal supplied QI-value         = 15.12
 optimisation between [QCUT,QGAM] = [ 11.34, 22.83] = [ 36.00,145.93] Ry
 Optimized for a Real-space Cutoff    1.43 Angstroem

   l    n(q)    QCUT    max X(q) W(low)/X(q) W(high)/X(q)  e(spline)
   2      9    11.338    53.897    0.16E-03    0.20E-03    0.28E-06
   2      9    11.338    52.416    0.16E-03    0.20E-03    0.29E-06
   0     10    11.338   122.045    0.31E-04    0.76E-04    0.15E-06
   0     10    11.338    73.629    0.30E-04    0.72E-04    0.15E-06
   1      9    11.338    15.255    0.20E-03    0.19E-04    0.17E-06
   1      9    11.338     9.562    0.16E-03    0.15E-04    0.14E-06
 Optimization of the real space projectors (new method)

[...]

   l    n(q)    QCUT    max X(q) W(low)/X(q) W(high)/X(q)  e(spline)
   0      7    11.310   115.676    0.43E-03    0.13E-02    0.19E-06
   0      7    11.310    87.132    0.43E-03    0.13E-02    0.18E-06
   1      6    11.310     4.429    0.42E-03    0.74E-03    0.11E-06
   1      6    11.310     2.733    0.34E-03    0.55E-03    0.92E-07
 Optimization of the real space projectors (new method)

 maximal supplied QI-value         = 24.76
 optimisation between [QCUT,QGAM] = [ 11.39, 22.77] = [ 36.31,145.25] Ry
 Optimized for a Real-space Cutoff    1.00 Angstroem

   l    n(q)    QCUT    max X(q) W(low)/X(q) W(high)/X(q)  e(spline)
   0      7    11.387    20.381    0.39E-03    0.13E-02    0.15E-06
   0      7    11.387    15.268    0.42E-03    0.14E-02    0.17E-06
   1      6    11.387     5.964    0.41E-03    0.11E-02    0.17E-06
   1      6    11.387     5.382    0.39E-03    0.87E-03    0.15E-06
  PAW_PBE Ag 02Apr2005                  :
  PAW_PBE V 08Apr2002                   :
  PAW_PBE C 08Apr2002                   :
  PAW_PBE O 08Apr2002                   :

 POSCAR: Ag-V-CO
  positions in direct lattice
  velocities in cartesian coordinates
 exchange correlation table for  LEXCH =        8
   RHO(1)=    0.500       N(1)  =     2000
   RHO(2)=  100.500       N(2)  =     4000

 VTST: version 3.2, (02/03/18)

 CHAIN: initializing optimizer

 OPT: Using VASP Conjugate-Gradient optimizer
 CHAIN: Read ICHAIN            0

 POSCAR: Ag-V-CO
  positions in direct lattice
  velocities in cartesian coordinates

 ion  position               nearest neighbor table
   1  0.000  0.000  0.238-   2 2.93   8 2.93   7 2.93   6 2.93   4 2.93  12 2.93  16 2.93  10 2.93
                             3 2.93
   2  0.333  0.000  0.238-   1 2.93   8 2.93   9 2.93   3 2.93   4 2.93   5 2.93  10 2.93  17 2.93
                            11 2.93
   3  0.667  0.000  0.238-   9 2.93   2 2.93   5 2.93  11 2.93   7 2.93  18 2.93   1 2.93   6 2.93
                            12 2.93
   4  0.000  0.333  0.238-   5 2.93   6 2.93   2 2.93   1 2.93   7 2.93  13 2.93  15 2.93   9 2.93
                            10 2.93
   5  0.333  0.333  0.238-   4 2.93   3 2.93   7 2.93   2 2.93   8 2.93  14 2.93  13 2.93  11 2.93
                             6 2.93
   6  0.667  0.333  0.238-   4 2.93   9 2.93   1 2.93  15 2.93   8 2.93  12 2.93   3 2.93   5 2.93
                            14 2.93
   7  0.000  0.667  0.238-   8 2.93   1 2.93   5 2.93   3 2.93   4 2.93  16 2.93  18 2.93  13 2.93
                             9 2.93
   8  0.333  0.667  0.238-   7 2.93   1 2.93   2 2.93   9 2.93   5 2.93  16 2.93   6 2.93  17 2.93
                            14 2.93
   9  0.667  0.667  0.238-   3 2.93   2 2.93   8 2.93   6 2.93  17 2.93   4 2.93  15 2.93   7 2.93
                            18 2.93
  10  0.111  0.111  0.346-  20 2.91  19 2.92  26 2.92  12 2.93  16 2.93  15 2.93  17 2.93  13 2.93
                            11 2.93   2 2.93   1 2.93   4 2.93
  11  0.444  0.111  0.346-  21 2.90  20 2.90  27 2.92  14 2.93  17 2.93  18 2.93   3 2.93  12 2.93
                            13 2.93  10 2.93   5 2.93   2 2.93
  12  0.778  0.111  0.346-  21 2.91  25 2.92  19 2.92  10 2.93  16 2.93  18 2.93  15 2.93  11 2.93
                             1 2.93  14 2.93   6 2.93   3 2.93
  13  0.111  0.444  0.346-  20 2.90  23 2.90  22 2.92  15 2.93  14 2.93  18 2.93  10 2.93  11 2.93
                            16 2.93   4 2.93   5 2.93   7 2.93
  14  0.444  0.444  0.346-  23 2.90  21 2.90  24 2.92  13 2.93  11 2.93  16 2.93   5 2.93  12 2.93
                            17 2.93   8 2.93  15 2.93   6 2.93
  15  0.778  0.444  0.346-  24 2.92  22 2.92  19 2.92  13 2.93  10 2.93  12 2.93  17 2.93  18 2.93
                             4 2.93   6 2.93   9 2.93  14 2.93
  16  0.111  0.778  0.346-  23 2.91  26 2.92  25 2.92  18 2.93  12 2.93  10 2.93  14 2.93  17 2.93
                            13 2.93   7 2.93   8 2.93   1 2.93
  17  0.444  0.778  0.346-  27 2.92  24 2.92  26 2.92  11 2.93  10 2.93   9 2.93  18 2.93  15 2.93
                            16 2.93   2 2.93  14 2.93   8 2.93
  18  0.778  0.778  0.346-  22 2.92  27 2.92  25 2.92  16 2.93  12 2.93  13 2.93  11 2.93  17 2.93
                            15 2.93   7 2.93   3 2.93   9 2.93
  19  0.889  0.222  0.453-  28 2.91  15 2.92  10 2.92  12 2.92  24 2.93  22 2.93  26 2.93  25 2.93
                            20 2.94  21 2.94  32 2.96  31 2.96
  20  0.223  0.223  0.453-  36 2.75  13 2.90  11 2.90  10 2.91  21 2.92  23 2.92  31 2.92  29 2.92
                            27 2.93  22 2.93  19 2.94  26 2.94
  21  0.555  0.223  0.453-  36 2.75  11 2.90  14 2.90  12 2.91  20 2.92  23 2.92  30 2.92  32 2.92
                            27 2.93  24 2.93  25 2.94  19 2.94
  22  0.889  0.556  0.453-  18 2.92  15 2.92  35 2.92  13 2.92  24 2.93  27 2.93  25 2.93  19 2.93
                            23 2.93  20 2.93  33 2.94  31 2.94
  23  0.223  0.555  0.453-  36 2.75  14 2.90  13 2.90  16 2.91  21 2.92  20 2.92  34 2.92  33 2.92
                            22 2.93  24 2.93  26 2.94  25 2.94
  24  0.556  0.556  0.453-  15 2.92  17 2.92  35 2.92  14 2.92  27 2.93  22 2.93  19 2.93  26 2.93
                            23 2.93  21 2.93  32 2.94  34 2.94
  25  0.889  0.889  0.453-  28 2.91  18 2.92  16 2.92  12 2.92  22 2.93  27 2.93  26 2.93  19 2.93
                            23 2.94  21 2.94  33 2.96  30 2.96
  26  0.222  0.889  0.453-  28 2.91  17 2.92  16 2.92  10 2.92  27 2.93  24 2.93  25 2.93  19 2.93
                            23 2.94  20 2.94  34 2.96  29 2.96
  27  0.556  0.889  0.453-  17 2.92  18 2.92  35 2.92  11 2.92  24 2.93  22 2.93  26 2.93  25 2.93
                            20 2.93  21 2.93  29 2.94  30 2.94
  28  0.000  0.000  0.560-  26 2.91  25 2.91  19 2.91  29 2.96  34 2.96  33 2.96  32 2.96  31 2.96
                            30 2.96
  29  0.334  0.006  0.562-  30 2.87  31 2.88  36 2.89  20 2.92  27 2.94  35 2.96  28 2.96  26 2.96
                            34 3.04
  30  0.660  0.006  0.562-  29 2.87  32 2.88  36 2.89  21 2.92  27 2.94  35 2.96  28 2.96  25 2.96
                            33 3.04
  31  0.006  0.334  0.562-  33 2.87  29 2.88  36 2.89  20 2.92  22 2.94  35 2.96  28 2.96  19 2.96
                            32 3.04
  32  0.660  0.334  0.562-  34 2.87  30 2.88  36 2.89  21 2.92  24 2.94  35 2.96  28 2.96  19 2.96
                            31 3.04
  33  0.006  0.660  0.562-  31 2.87  34 2.88  36 2.89  23 2.92  22 2.94  35 2.96  28 2.96  25 2.96
                            30 3.04
  34  0.334  0.660  0.562-  32 2.87  33 2.88  36 2.89  23 2.92  24 2.94  35 2.96  28 2.96  26 2.96
                            29 3.04
  35  0.667  0.667  0.561-  24 2.92  27 2.92  22 2.92  30 2.96  32 2.96  29 2.96  34 2.96  31 2.96
                            33 2.96
  36  0.333  0.333  0.551-  37 1.92  21 2.75  20 2.75  23 2.75  31 2.89  33 2.89  30 2.89  29 2.89
                            34 2.89  32 2.89
  37  0.333  0.333  0.638-  38 1.18  36 1.92
  38  0.333  0.333  0.691-  37 1.18

  LATTYP: Found a hexagonal cell.
 ALAT       =     8.7913665772
 C/A-ratio  =     2.5227160501

  Lattice vectors:

 A1 = (  -4.3956832886,  -7.6135467898,   0.0000000000)
 A2 = (   8.7913665771,   0.0000000000,   0.0000000000)
 A3 = (   0.0000000000,   0.0000000000,  22.1781215668)

Analysis of symmetry for initial positions (statically):
 Subroutine PRICEL returns:
 Original cell was already a primitive cell.

 Routine SETGRP: Setting up the symmetry group for a
 hexagonal supercell.

 Subroutine GETGRP returns: Found  6 space group operations
 (whereof  6 operations were pure point group operations)
 out of a pool of 24 trial point group operations.

The static configuration has the point symmetry C_3v.

Analysis of symmetry for dynamics (positions and initial velocities):
 Subroutine PRICEL returns:
 Original cell was already a primitive cell.

[...]

The dynamic configuration has the point symmetry C_3v.

Analysis of constrained symmetry for selective dynamics:
 Subroutine PRICEL returns:
 Original cell was already a primitive cell.

 Routine SETGRP: Setting up the symmetry group for a
 hexagonal supercell.

 Subroutine GETGRP returns: Found  6 space group operations
 (whereof  6 operations were pure point group operations)
[...]
     33      -4.6423      2.00000
     34      -4.6132      2.00000
     35      -4.6068      2.00000
     36      -4.5825      2.00000
     37      -4.5635      2.00000
     38      -4.5103      2.00000
     39      -4.4897      2.00000
     40      -4.4703      2.00000
     41      -4.4417      2.00000
     42      -4.4187      2.00000
     43      -4.4125      2.00000
     44      -4.4000      2.00000
     45      -4.3937      2.00000
     46      -4.3847      2.00000
     47      -4.3760      2.00000
     48      -4.2862      2.00000
     49      -4.2609      2.00000
     50      -4.2508      2.00000
     51      -4.2475      2.00000
     52      -4.2442      2.00000
     53      -4.2291      2.00000
     54      -4.2222      2.00000
     55      -4.2178      2.00000
     56      -4.2108      2.00000
     57      -4.2000      2.00000
     58      -4.1351      2.00000
     59      -4.1299      2.00000
     60      -4.1191      2.00000
[...]
    238       6.0256      0.00000
    239       6.1007      0.00000
    240       6.1606      0.00000
    241       6.3048      0.00000
    242       6.3499      0.00000
    243       6.3514      0.00000
    244       7.1015      0.00000
    245       7.1519      0.00000
    246       7.2415      0.00000
    247       7.3315      0.00000
    248       7.3421      0.00000
    249       7.3697      0.00000
    250       7.4043      0.00000
    251       7.4988      0.00000
    252       7.6228      0.00000

 soft charge-density along one line, spin component           1
         0         1         2         3         4         5         6         7         8         9
 total charge-density along one line

------------------------ aborting loop because EDIFF is reached ----------------------------------------

 total charge

# of ion       s       p       d       tot
    1        0.418   0.201   9.178   9.797
    2        0.414   0.203   9.177   9.795
    3        0.414   0.203   9.177   9.795
    4        0.414   0.203   9.177   9.795
    5        0.423   0.201   9.174   9.798
    6        0.414   0.203   9.177   9.795
    7        0.414   0.203   9.177   9.795
    8        0.414   0.203   9.177   9.795
    9        0.416   0.201   9.179   9.796
   10        0.409   0.269   9.162   9.840
   11        0.408   0.266   9.168   9.843
   12        0.409   0.269   9.162   9.840
   13        0.408   0.266   9.168   9.843
   14        0.408   0.266   9.168   9.843
   15        0.404   0.270   9.163   9.837
   16        0.409   0.269   9.162   9.840
   17        0.404   0.270   9.163   9.837
   18        0.404   0.270   9.163   9.837
   19        0.403   0.266   9.166   9.834
   20        0.437   0.295   9.139   9.871
   21        0.437   0.295   9.139   9.871
   22        0.396   0.274   9.166   9.835
   23        0.437   0.295   9.139   9.871
   24        0.396   0.274   9.166   9.835
   25        0.403   0.266   9.166   9.834
   26        0.403   0.266   9.166   9.834
   27        0.396   0.274   9.166   9.835
   28        0.407   0.197   9.178   9.783
   29        0.431   0.208   9.163   9.802
   30        0.431   0.208   9.163   9.802
   31        0.431   0.208   9.163   9.802
   32        0.431   0.208   9.163   9.802
   33        0.431   0.208   9.163   9.802
   34        0.431   0.208   9.163   9.802
   35        0.409   0.197   9.180   9.785
   36        0.445   0.538   3.434   4.417
   37        0.967   1.534   0.000   2.500
   38        1.611   3.533   0.000   5.144
tot         17.534  13.992 324.256 355.783

  FORCE on cell =-STRESS in cart. coord.  units (eV):
  Direction    XX          YY          ZZ          XY          YZ          ZX
  Alpha Z   757.73725   757.73725   757.73725
  Ewald  117216.64620117216.64616************     0.00002    -0.00001     0.00004
  Hartree127495.92041127495.92039************     0.00001    -0.00000     0.00001
  E(xc)   -2094.45722 -2094.45729 -2100.84544     0.00006    -0.00000    -0.00000
  Local  ************************255481.09195     0.00054    -0.00005    -0.00017
  n-local  -348.58227  -331.09798  -348.19035     9.97392    -0.46363     0.46834
  augment  3244.09753  3244.09771  3258.97829    -0.00016    -0.00001    -0.00001
  Kinetic  4991.48068  4993.40977  5003.03414     3.27539     0.71857     0.02692
  Fock        0.00000     0.00000     0.00000     0.00000     0.00000     0.00000
  Total      -9.21951    -9.21951    -0.41853    -0.00000     0.00000     0.00000
  in kB      -9.95062    -9.95062    -0.45172    -0.00000     0.00000     0.00000

 VOLUME and BASIS-vectors are now :
  energy-cutoff  :      500.00
  volume of cell :     1484.46
      direct lattice vectors                 reciprocal lattice vectors
     8.791366577  0.000000000  0.000000000     0.113747958 -0.065672414  0.000000000
     4.395683289  7.613546790  0.000000000     0.000000000  0.131344829  0.000000000
     0.000000000  0.000000000 22.178121567     0.000000000  0.000000000  0.045089481

  length of vectors
     8.791366577  8.791366577 22.178121567     0.131344829  0.131344829  0.045089481

 FORCES acting on ions
    electron-ion (+dipol)            ewald-force                    non-local-force                 convergence-correction
   0.459E-04 -.283E-04 0.249E+04   -.953E-04 0.593E-04 -.249E+04   -.401E-17 0.174E-17 -.195E+01   -.141E-03 -.188E-03 0.110E+00
   -.841E-01 -.207E-01 0.249E+04   -.564E-01 -.441E-01 -.249E+04   0.111E+00 0.152E+00 -.160E+01   0.291E-01 -.838E-01 0.238E+00
   0.842E-01 -.208E-01 0.249E+04   0.565E-01 -.441E-01 -.249E+04   -.111E+00 0.152E+00 -.160E+01   -.296E-01 -.819E-01 0.238E+00
   -.600E-01 -.625E-01 0.249E+04   -.665E-01 -.267E-01 -.249E+04   0.187E+00 0.196E-01 -.160E+01   -.578E-01 0.672E-01 0.238E+00
   -.605E-05 -.190E-04 0.249E+04   0.981E-04 -.200E-05 -.249E+04   0.220E-18 0.943E-18 -.108E+01   0.622E-02 0.380E-02 0.488E+00
   0.600E-01 -.625E-01 0.249E+04   0.663E-01 -.268E-01 -.249E+04   -.187E+00 0.196E-01 -.160E+01   0.565E-01 0.681E-01 0.238E+00
   0.241E-01 0.832E-01 0.249E+04   -.101E-01 0.709E-01 -.249E+04   0.767E-01 -.172E+00 -.160E+01   -.853E-01 0.159E-01 0.238E+00
   -.241E-01 0.832E-01 0.249E+04   0.101E-01 0.708E-01 -.249E+04   -.767E-01 -.172E+00 -.160E+01   0.869E-01 0.149E-01 0.238E+00
   0.369E-04 -.129E-04 0.249E+04   0.792E-04 -.642E-04 -.249E+04   -.146E-17 0.268E-17 -.178E+01   -.661E-02 -.340E-02 0.185E+00
   0.845E+00 0.488E+00 0.844E+03   -.615E+00 -.355E+00 -.843E+03   -.287E+00 -.166E+00 -.706E+00   0.371E-01 0.214E-01 0.389E-01
   -.288E-04 0.551E+00 0.844E+03   0.409E-04 -.664E+00 -.843E+03   0.929E-12 0.141E+00 -.236E+00   0.654E-02 -.520E-01 0.354E-01
   -.845E+00 0.488E+00 0.844E+03   0.615E+00 -.355E+00 -.843E+03   0.287E+00 -.166E+00 -.706E+00   -.387E-01 0.222E-01 0.389E-01
   0.478E+00 -.276E+00 0.844E+03   -.575E+00 0.332E+00 -.843E+03   0.123E+00 -.707E-01 -.236E+00   -.419E-01 0.317E-01 0.354E-01
   -.478E+00 -.276E+00 0.844E+03   0.576E+00 0.332E+00 -.843E+03   -.123E+00 -.707E-01 -.236E+00   0.523E-01 0.305E-01 0.339E-01
   0.156E-04 0.410E+00 0.844E+03   -.108E-03 -.595E+00 -.844E+03   0.538E-12 0.819E-01 -.749E+00   -.147E-02 0.780E-01 0.315E-01
   -.785E-05 -.976E+00 0.844E+03   0.207E-04 0.710E+00 -.843E+03   0.218E-11 0.332E+00 -.706E+00   -.196E-03 -.447E-01 0.389E-01
   0.355E+00 -.205E+00 0.844E+03   -.516E+00 0.298E+00 -.844E+03   0.709E-01 -.409E-01 -.749E+00   0.668E-01 -.403E-01 0.315E-01
   -.355E+00 -.205E+00 0.844E+03   0.515E+00 0.298E+00 -.844E+03   -.709E-01 -.409E-01 -.749E+00   -.664E-01 -.383E-01 0.330E-01
   0.386E-04 -.320E+01 -.824E+03   -.126E-03 0.315E+01 0.823E+03   0.520E-12 0.792E-01 0.842E+00   -.501E-02 -.227E-01 0.717E-02
   -.144E+02 -.832E+01 -.832E+03   0.158E+02 0.912E+01 0.833E+03   -.119E+01 -.688E+00 -.973E+00   -.257E+00 -.149E+00 -.196E+00
   0.144E+02 -.832E+01 -.832E+03   -.158E+02 0.912E+01 0.833E+03   0.119E+01 -.688E+00 -.973E+00   0.248E+00 -.150E+00 -.196E+00
   -.650E+01 0.375E+01 -.820E+03   0.637E+01 -.368E+01 0.820E+03   0.223E+00 -.129E+00 0.355E+00   -.750E-01 0.453E-01 -.140E+00
   -.532E-04 0.166E+02 -.832E+03   0.382E-04 -.182E+02 0.833E+03   0.904E-11 0.138E+01 -.973E+00   -.541E-02 0.290E+00 -.196E+00
   0.650E+01 0.375E+01 -.820E+03   -.637E+01 -.368E+01 0.820E+03   -.223E+00 -.129E+00 0.355E+00   0.768E-01 0.444E-01 -.139E+00
   0.277E+01 0.160E+01 -.824E+03   -.273E+01 -.157E+01 0.823E+03   -.686E-01 -.396E-01 0.842E+00   0.118E-01 0.668E-02 0.682E-02
   -.277E+01 0.160E+01 -.824E+03   0.273E+01 -.157E+01 0.823E+03   0.686E-01 -.396E-01 0.842E+00   -.225E-01 0.689E-02 0.721E-02
   0.199E-04 -.751E+01 -.820E+03   0.110E-03 0.735E+01 0.820E+03   0.169E-11 0.257E+00 0.355E+00   0.111E-02 -.876E-01 -.139E+00
   0.542E-04 -.362E-04 -.243E+04   -.114E-03 0.773E-04 0.243E+04   0.319E-17 -.800E-18 0.200E+01   -.652E-04 -.173E-03 -.214E+00
   0.579E+01 0.524E+01 -.241E+04   -.497E+01 -.388E+01 0.241E+04   -.819E+00 -.133E+01 0.155E+01   -.133E-01 -.451E-01 -.212E+00
   -.579E+01 0.524E+01 -.241E+04   0.497E+01 -.388E+01 0.241E+04   0.819E+00 -.133E+01 0.155E+01   0.129E-01 -.441E-01 -.212E+00
   0.744E+01 0.240E+01 -.241E+04   -.584E+01 -.236E+01 0.241E+04   -.156E+01 -.445E-01 0.155E+01   -.455E-01 0.112E-01 -.212E+00
   -.744E+01 0.240E+01 -.241E+04   0.584E+01 -.236E+01 0.241E+04   0.156E+01 -.445E-01 0.155E+01   0.452E-01 0.117E-01 -.211E+00
   0.164E+01 -.764E+01 -.241E+04   -.876E+00 0.624E+01 0.241E+04   -.742E+00 0.137E+01 0.155E+01   -.313E-01 0.338E-01 -.212E+00
   -.164E+01 -.764E+01 -.241E+04   0.876E+00 0.624E+01 0.241E+04   0.742E+00 0.137E+01 0.155E+01   0.324E-01 0.334E-01 -.211E+00
   0.234E-04 -.127E-04 -.243E+04   0.105E-03 -.657E-04 0.243E+04   -.253E-17 -.803E-18 0.207E+01   -.618E-02 -.314E-02 -.182E+00
   -.202E-04 -.176E-05 -.969E+03   0.479E-04 0.613E-05 0.972E+03   -.437E-17 0.228E-17 -.231E+01   0.834E-03 0.509E-03 -.960E-01
   0.127E-05 -.776E-04 -.798E+03   0.167E-04 0.202E-06 0.780E+03   -.105E-18 -.211E-19 0.177E+02   0.108E-02 0.660E-03 -.509E-01
   0.234E-03 -.937E-04 -.147E+04   0.872E-05 0.110E-07 0.153E+04   0.278E-18 0.655E-19 -.573E+02   0.367E-02 0.225E-02 0.866E-01
   0.578E-03 -.858E-03 0.476E+02   -.957E-14 -.165E-12 -.182E-11   0.326E-15 0.224E-15 -.474E+02   -.144E-01 -.494E-02 -.182E+00

 POSITION                                       TOTAL-FORCE (eV/Angst)
      0.00000      0.00000      5.28219         0.000000      0.000000     -0.027293
      2.93046      0.00000      5.28219        -0.000252      0.004663      0.026580
      5.86091      0.00000      5.28219         0.000252      0.004663      0.026580
      1.46523      2.53785      5.28219         0.003912     -0.002550      0.026580
      4.39568      2.53785      5.28219        -0.000000     -0.000000     -0.024098
      7.32614      2.53785      5.28219        -0.003912     -0.002550      0.026580
      2.93046      5.07570      5.28219         0.004164     -0.002113      0.026580
      5.86091      5.07570      5.28219        -0.004164     -0.002113      0.026580
      8.79137      5.07570      5.28219         0.000000      0.000000      0.011986
      1.46523      0.84595      7.67490        -0.018711     -0.010803     -0.035528
      4.39568      0.84595      7.67490        -0.000000     -0.026372     -0.055253
      7.32614      0.84595      7.67490         0.018711     -0.010803     -0.035528
      2.93046      3.38380      7.67490        -0.022839      0.013186     -0.055253
      5.86091      3.38380      7.67490         0.022839      0.013186     -0.055253
      8.79137      3.38380      7.67490        -0.000000     -0.026008     -0.008496
      4.39568      5.92165      7.67490         0.000000      0.021606     -0.035528
      7.32614      5.92165      7.67490        -0.022523      0.013004     -0.008496
     10.25659      5.92165      7.67490         0.022523      0.013004     -0.008496
      8.79137      1.69254     10.05636         0.000000      0.010969      0.035505
      2.93602      1.69511     10.03837        -0.061703     -0.035624     -0.063581
      5.85534      1.69511     10.03837         0.061703     -0.035624     -0.063581
     10.25423      4.23112     10.05516         0.008664     -0.005002      0.024325
      4.39568      4.22332     10.03837         0.000000      0.071248     -0.063581
      7.32851      4.23112     10.05516        -0.008664     -0.005002      0.024325
     11.72126      6.76728     10.05636        -0.009500     -0.005485      0.035505
      5.86147      6.76728     10.05636         0.009500     -0.005485      0.035505
      8.79137      6.76486     10.05516         0.000000      0.010005      0.024325
      0.00000      0.00000     12.42937         0.000000      0.000000     -0.000455
      2.95945      0.04653     12.45339        -0.003891     -0.010473      0.012878
      5.83191      0.04653     12.45339         0.003891     -0.010473      0.012878
      1.52003      2.53970     12.45339        -0.011015      0.001867      0.012878
      7.27134      2.53970     12.45339         0.011015      0.001867      0.012878
      2.95626      5.02732     12.45339        -0.007124      0.008606      0.012878
      5.83511      5.02732     12.45339         0.007124      0.008606      0.012878
      8.79137      5.07570     12.43676         0.000000      0.000000     -0.005866
      4.39568      2.53785     12.21669         0.000000      0.000000      0.230563
      4.39568      2.53785     14.13971         0.000000      0.000000     -0.126970
      4.39568      2.53785     15.31503         0.000000     -0.000000      0.014468
    total drift:                               -0.013807     -0.005799      0.002198

  FREE ENERGIE OF THE ION-ELECTRON SYSTEM (eV)
  free  energy   TOTEN  =      -112.00291074 eV

  energy  without entropy=     -112.00291074  energy(sigma->0) =     -112.00291074

 stress matrix after NEB project (eV)
     -9.21951     -0.00000      0.00000
     -0.00000     -9.21951     -0.00000
      0.00000      0.00000     -0.41853
  FORCES: max atom, RMS     0.126970    0.020730
  FORCE total and by dimension    0.127791    0.126970
  Stress total and by dimension   13.045068    9.219508
|           W    W    AA    RRRRR   N    N  II  N    N   GGGG   !!!           |
|           W    W   A  A   R    R  NN   N  II  NN   N  G    G  !!!           |
|           W    W  A    A  R    R  N N  N  II  N N  N  G       !!!           |
|           W WW W  AAAAAA  RRRRR   N  N N  II  N  N N  G  GGG   !            |
|           WW  WW  A    A  R   R   N   NN  II  N   NN  G    G                |
|           W    W  A    A  R    R  N    N  II  N    N   GGGG   !!!           |
|     Tetrahedron method does not include variations of the Fermi             |
|     occupations, so forces and stress will be inaccurate. We suggest        |
|     using a different smearing scheme ISMEAR = 1 or 2 for metals in         |
|     relaxations.                                                            |

 total charge

# of ion       s       p       d       tot
    1        0.418   0.201   9.178   9.797
    2        0.414   0.203   9.177   9.795
    3        0.414   0.203   9.177   9.795
    4        0.414   0.203   9.177   9.795
    5        0.423   0.201   9.174   9.798
    6        0.414   0.203   9.177   9.795
    7        0.414   0.203   9.177   9.795
    8        0.414   0.203   9.177   9.795
    9        0.416   0.201   9.179   9.796
   10        0.409   0.269   9.162   9.840
   11        0.408   0.266   9.168   9.843
   12        0.409   0.269   9.162   9.840
   13        0.408   0.266   9.168   9.843
   14        0.408   0.266   9.168   9.843
   15        0.404   0.270   9.163   9.837
   16        0.409   0.269   9.162   9.840
   17        0.404   0.270   9.163   9.837
   18        0.404   0.270   9.163   9.837
   19        0.403   0.266   9.166   9.834
   20        0.437   0.295   9.139   9.871
   21        0.437   0.295   9.139   9.871
   22        0.396   0.274   9.166   9.835
   23        0.437   0.295   9.139   9.871
   24        0.396   0.274   9.166   9.835
   25        0.403   0.266   9.166   9.834
   26        0.403   0.266   9.166   9.834
   27        0.396   0.274   9.166   9.835
   28        0.407   0.197   9.178   9.783
   29        0.431   0.208   9.163   9.802
   30        0.431   0.208   9.163   9.802
   31        0.431   0.208   9.163   9.802
   32        0.431   0.208   9.163   9.802
   33        0.431   0.208   9.163   9.802
   34        0.431   0.208   9.163   9.802
   35        0.409   0.197   9.180   9.785
   36        0.445   0.538   3.434   4.417
   37        0.967   1.534   0.000   2.500
   38        1.611   3.533   0.000   5.144
tot         17.534  13.992 324.256 355.783

 BZINTS: Fermi energy:    0.755592;  400.000000 electrons
         Band energy:-0.138269E+04;  BLOECHL correction:   -0.026923