 vasp.6.2.0 18Jan21 (build Jun 12 2021 23:27:24) complex

 executed on             LinuxIFC date 2022.05.28  01:19:29

 INCAR:
   ISMEAR = -5
   SIGMA = 0.1
   ISPIN = 1
   EDIFF = 1.d-5
   EDIFFG = -0.01
   NSW = 0
   NELM = 150
   ENCUT = 500
   ISIF = 2
   IBRION = 2
   LREAL = Auto
   ALGO = Fast
   ICHARG = 11
   LORBIT = 10
   LCHARG = .F.
   LWAVE = .F.

 POTCAR:    PAW_PBE Au 04Oct2007
 POTCAR:    PAW_PBE Pt 04Feb2005
 POTCAR:    PAW_PBE C 08Apr2002
 POTCAR:    PAW_PBE O 08Apr2002
|           W    W    AA    RRRRR   N    N  II  N    N   GGGG   !!!           |
|           W    W   A  A   R    R  NN   N  II  NN   N  G    G  !!!           |
|           W    W  A    A  R    R  N N  N  II  N N  N  G       !!!           |
|           W WW W  AAAAAA  RRRRR   N  N N  II  N  N N  G  GGG   !            |
|           WW  WW  A    A  R   R   N   NN  II  N   NN  G    G                |
|           W    W  A    A  R    R  N    N  II  N    N   GGGG   !!!           |
|     For optimal performance we recommend to set                             |
|       NCORE = 2 up to number-of-cores-per-socket                            |
|     This setting can greatly improve the performance of VASP for DFT.       |
|     The default, NCORE=1 might be grossly inefficient on modern             |
|     multi-core architectures or massively parallel machines. Do your        |
|     Unfortunately you need to use the default for GW and RPA                |
|     calculations (for HF NCORE is supported but not extensively tested      |
|     yet).                                                                   |

 POTCAR:    PAW_PBE Au 04Oct2007
   VRHFIN =Au: s1d10

   TITEL  = PAW_PBE Au 04Oct2007
   POMASS =  196.966; ZVAL   =   11.000    mass and valenz
   ENMAX  =  229.943; ENMIN  =  172.457 eV

 POTCAR:    PAW_PBE Pt 04Feb2005
   VRHFIN =Pt: s1d9

   TITEL  = PAW_PBE Pt 04Feb2005
   POMASS =  195.080; ZVAL   =   10.000    mass and valenz
   ENMAX  =  230.283; ENMIN  =  172.712 eV

 POTCAR:    PAW_PBE C 08Apr2002
   VRHFIN =C: s2p2

   TITEL  = PAW_PBE C 08Apr2002
   POMASS =   12.011; ZVAL   =    4.000    mass and valenz
   ENMAX  =  400.000; ENMIN  =  300.000 eV

 POTCAR:    PAW_PBE O 08Apr2002
   VRHFIN =O: s2p4

   TITEL  = PAW_PBE O 08Apr2002
   POMASS =   16.000; ZVAL   =    6.000    mass and valenz
   ENMAX  =  400.000; ENMIN  =  300.000 eV

 Optimization of the real space projectors (new method)

 maximal supplied QI-value         = 15.12
 optimisation between [QCUT,QGAM] = [ 11.34, 22.83] = [ 36.00,145.93] Ry
 Optimized for a Real-space Cutoff    1.39 Angstroem

   l    n(q)    QCUT    max X(q) W(low)/X(q) W(high)/X(q)  e(spline)
   2      9    11.338    60.898    0.39E-03    0.42E-03    0.21E-06
   2      9    11.338    58.894    0.40E-03    0.42E-03    0.22E-06
   0      9    11.338   109.617    0.13E-03    0.20E-04    0.13E-06
   0      9    11.338    75.026    0.13E-03    0.20E-04    0.13E-06
   1      9    11.338    16.344    0.33E-04    0.24E-03    0.18E-06
   1      9    11.338    10.160    0.26E-04    0.19E-03    0.15E-06
 Optimization of the real space projectors (new method)

[...]

   l    n(q)    QCUT    max X(q) W(low)/X(q) W(high)/X(q)  e(spline)
   0      7    11.310   115.676    0.43E-03    0.13E-02    0.19E-06
   0      7    11.310    87.132    0.43E-03    0.13E-02    0.18E-06
   1      6    11.310     4.429    0.42E-03    0.74E-03    0.11E-06
   1      6    11.310     2.733    0.34E-03    0.55E-03    0.92E-07
 Optimization of the real space projectors (new method)

 maximal supplied QI-value         = 24.76
 optimisation between [QCUT,QGAM] = [ 11.39, 22.77] = [ 36.31,145.25] Ry
 Optimized for a Real-space Cutoff    1.00 Angstroem

   l    n(q)    QCUT    max X(q) W(low)/X(q) W(high)/X(q)  e(spline)
   0      7    11.387    20.381    0.39E-03    0.13E-02    0.15E-06
   0      7    11.387    15.268    0.42E-03    0.14E-02    0.17E-06
   1      6    11.387     5.964    0.41E-03    0.11E-02    0.17E-06
   1      6    11.387     5.382    0.39E-03    0.87E-03    0.15E-06
  PAW_PBE Au 04Oct2007                  :
  PAW_PBE Pt 04Feb2005                  :
  PAW_PBE C 08Apr2002                   :
  PAW_PBE O 08Apr2002                   :

 POSCAR: Au-Pt-CO2
  positions in direct lattice
  velocities in cartesian coordinates
 exchange correlation table for  LEXCH =        8
   RHO(1)=    0.500       N(1)  =     2000
   RHO(2)=  100.500       N(2)  =     4000

 VTST: version 3.2, (02/03/18)

 CHAIN: initializing optimizer

 OPT: Using VASP Conjugate-Gradient optimizer
 CHAIN: Read ICHAIN            0

 POSCAR: Au-Pt-CO2
  positions in direct lattice
  velocities in cartesian coordinates

 ion  position               nearest neighbor table
   1  0.000  0.000  0.217-  16 2.94  12 2.94   6 2.94   8 2.94   7 2.94   3 2.94  10 2.94   4 2.94
                             2 2.94
   2  0.333  0.000  0.217-   9 2.94  11 2.94  17 2.94  10 2.94   8 2.94   4 2.94   5 2.94   1 2.94
                             3 2.94
   3  0.667  0.000  0.217-   7 2.94  18 2.94  12 2.94   1 2.94  11 2.94   5 2.94   6 2.94   9 2.94
                             2 2.94
   4  0.000  0.333  0.217-  10 2.94   6 2.94   5 2.94  13 2.94   2 2.94  15 2.94   9 2.94   1 2.94
                             7 2.94
   5  0.333  0.333  0.217-  13 2.94   7 2.94  11 2.94   4 2.94   2 2.94  14 2.94   3 2.94   8 2.94
                             6 2.94
   6  0.667  0.333  0.217-  15 2.94  14 2.94   1 2.94  12 2.94   4 2.94   9 2.94   8 2.94   3 2.94
                             5 2.94
   7  0.000  0.667  0.217-  18 2.94   3 2.94  16 2.94   5 2.94   1 2.94  13 2.94   8 2.94   4 2.94
                             9 2.94
   8  0.333  0.667  0.217-   9 2.94  17 2.94   1 2.94   2 2.94  14 2.94  16 2.94   6 2.94   7 2.94
                             5 2.94
   9  0.667  0.667  0.217-   2 2.94   8 2.94  17 2.94   6 2.94  15 2.94   4 2.94   3 2.94  18 2.94
                             7 2.94
  10  0.111  0.111  0.315-  20 2.91  26 2.93  19 2.93  11 2.94  17 2.94   2 2.94   4 2.94   1 2.94
                            12 2.94  16 2.94  13 2.94  15 2.94
  11  0.444  0.111  0.315-  20 2.92  21 2.92  27 2.93  13 2.94   2 2.94  10 2.94  17 2.94   5 2.94
                             3 2.94  18 2.94  14 2.94  12 2.94
  12  0.778  0.111  0.315-  21 2.91  25 2.93  19 2.93  16 2.94  18 2.94   1 2.94  14 2.94  15 2.94
                             3 2.94   6 2.94  10 2.94  11 2.94
  13  0.111  0.444  0.315-  23 2.92  20 2.92  22 2.93   5 2.94  18 2.94  11 2.94   7 2.94   4 2.94
                            16 2.94  10 2.94  14 2.94  15 2.94
  14  0.444  0.444  0.315-  21 2.92  23 2.92  24 2.93  15 2.94   6 2.94  12 2.94   8 2.94  17 2.94
                             5 2.94  16 2.94  13 2.94  11 2.94
  15  0.778  0.444  0.315-  24 2.93  22 2.93  19 2.93  14 2.94   6 2.94  17 2.94  12 2.94   9 2.94
                             4 2.94  10 2.94  13 2.94  18 2.94
  16  0.111  0.778  0.315-  23 2.91  25 2.93  26 2.93  18 2.94  12 2.94   7 2.94   1 2.94   8 2.94
                            13 2.94  10 2.94  14 2.94  17 2.94
  17  0.444  0.778  0.315-  27 2.93  24 2.93  26 2.93   9 2.94  15 2.94   2 2.94  10 2.94  11 2.94
                             8 2.94  14 2.94  16 2.94  18 2.94
  18  0.778  0.778  0.315-  22 2.93  27 2.93  25 2.93  16 2.94   7 2.94  13 2.94  12 2.94   3 2.94
                            11 2.94   9 2.94  15 2.94  17 2.94
  19  0.889  0.222  0.413-  21 2.93  20 2.93  15 2.93  10 2.93  12 2.93  24 2.94  22 2.94  26 2.94
                            25 2.94  28 2.96  32 2.96  31 2.96
  20  0.221  0.221  0.412-  36 2.82  10 2.91  11 2.92  13 2.92  26 2.93  19 2.93  27 2.94  22 2.94
                            23 2.96  21 2.96  29 2.96  31 2.96
  21  0.557  0.221  0.412-  36 2.82  12 2.91  14 2.92  11 2.92  25 2.93  19 2.93  24 2.94  27 2.94
                            20 2.96  23 2.96  30 2.96  32 2.96
  22  0.888  0.556  0.413-  18 2.93  15 2.93  24 2.93  27 2.93  13 2.93  25 2.94  19 2.94  23 2.94
                            20 2.94  35 2.96  33 2.96  31 2.96
  23  0.221  0.557  0.412-  36 2.82  16 2.91  13 2.92  14 2.92  25 2.93  26 2.93  22 2.94  24 2.94
                            20 2.96  21 2.96  33 2.96  34 2.96
  24  0.556  0.556  0.413-  15 2.93  17 2.93  27 2.93  22 2.93  14 2.93  26 2.94  19 2.94  21 2.94
                            23 2.94  35 2.96  32 2.96  34 2.96
  25  0.889  0.889  0.413-  23 2.93  21 2.93  18 2.93  16 2.93  12 2.93  22 2.94  27 2.94  19 2.94
                            26 2.94  28 2.96  33 2.96  30 2.96
  26  0.222  0.889  0.413-  20 2.93  23 2.93  17 2.93  10 2.93  16 2.93  27 2.94  24 2.94  19 2.94
                            25 2.94  28 2.96  29 2.96  34 2.96
  27  0.556  0.888  0.413-  17 2.93  18 2.93  24 2.93  22 2.93  11 2.93  26 2.94  25 2.94  20 2.94
                            21 2.94  35 2.96  29 2.96  30 2.96
  28  0.000  0.000  0.513-  34 2.95  32 2.95  33 2.95  30 2.95  31 2.95  29 2.95  25 2.96  19 2.96
                            26 2.96
  29  0.333  0.002  0.513-  30 2.92  31 2.92  36 2.93  35 2.95  28 2.95  27 2.96  20 2.96  26 2.96
                            34 2.98
  30  0.664  0.002  0.513-  29 2.92  32 2.92  36 2.93  35 2.95  28 2.95  27 2.96  21 2.96  25 2.96
                            33 2.98
  31  0.002  0.333  0.513-  33 2.92  29 2.92  36 2.93  35 2.95  28 2.95  22 2.96  20 2.96  19 2.96
                            32 2.98
  32  0.664  0.333  0.513-  34 2.92  30 2.92  36 2.93  35 2.95  28 2.95  24 2.96  21 2.96  19 2.96
                            31 2.98
  33  0.002  0.664  0.513-  31 2.92  34 2.92  36 2.93  35 2.95  28 2.95  22 2.96  23 2.96  25 2.96
                            30 2.98
  34  0.333  0.664  0.513-  32 2.92  33 2.92  36 2.93  35 2.95  28 2.95  24 2.96  23 2.96  26 2.96
                            29 2.98
  35  0.667  0.667  0.513-  29 2.95  34 2.95  32 2.95  31 2.95  30 2.95  33 2.95  24 2.96  27 2.96
                            22 2.96
  36  0.333  0.333  0.505-  20 2.82  23 2.82  21 2.82  33 2.93  31 2.93  29 2.93  30 2.93  34 2.93
                            32 2.93
  37  0.325  0.333  0.661-  39 1.18  38 1.18
  38  0.191  0.335  0.662-  37 1.18
  39  0.460  0.332  0.660-  37 1.18

  LATTYP: Found a hexagonal cell.
 ALAT       =     8.8135128021
 C/A-ratio  =     2.7649717827

  Lattice vectors:

 A1 = (  -4.4067569092,  -7.6327256898,   0.0000000000)
 A2 = (   8.8135128021,   0.0000000000,   0.0000000000)
 A3 = (   0.0000000000,   0.0000000000,  24.3691142040)

Analysis of symmetry for initial positions (statically):
 Subroutine PRICEL returns:
 Original cell was already a primitive cell.

 Routine SETGRP: Setting up the symmetry group for a
 hexagonal supercell.

 Subroutine GETGRP returns: Found  1 space group operations
 (whereof  1 operations were pure point group operations)
 out of a pool of 24 trial point group operations.

The static configuration has the point symmetry C_1 .

Analysis of symmetry for dynamics (positions and initial velocities):
 Subroutine PRICEL returns:
 Original cell was already a primitive cell.

[...]

The dynamic configuration has the point symmetry C_1 .

Analysis of constrained symmetry for selective dynamics:
 Subroutine PRICEL returns:
[...]
     41      -5.0041      2.00000
     42      -4.9763      2.00000
     43      -4.9134      2.00000
     44      -4.9090      2.00000
     45      -4.8542      2.00000
     46      -4.7707      2.00000
     47      -4.7398      2.00000
     48      -4.6940      2.00000
     49      -4.6765      2.00000
     50      -4.6611      2.00000
     51      -4.6528      2.00000
     52      -4.5609      2.00000
     53      -4.5154      2.00000
     54      -4.4938      2.00000
     55      -4.4862      2.00000
     56      -4.4784      2.00000
     57      -4.4688      2.00000
     58      -4.4638      2.00000
     59      -4.4184      2.00000
     60      -4.3776      2.00000
[...]
    238       5.0758      0.00000
    239       5.2259      0.00000
    240       5.3677      0.00000
    241       5.5745      0.00000
    242       5.7740      0.00000
    243       5.8513      0.00000
    244       5.9400      0.00000
    245       6.0635      0.00000
    246       6.0923      0.00000
    247       6.1190      0.00000
    248       6.2340      0.00000
    249       6.4001      0.00000
    250       6.4700      0.00000
    251       6.5118      0.00000
    252       6.5990      0.00000

 soft charge-density along one line, spin component           1
         0         1         2         3         4         5         6         7         8         9
 total charge-density along one line

------------------------ aborting loop because EDIFF is reached ----------------------------------------

 total charge

# of ion       s       p       d       tot
    1        0.543   0.241   8.765   9.549
    2        0.545   0.240   8.765   9.550
    3        0.545   0.240   8.765   9.550
    4        0.545   0.240   8.765   9.550
    5        0.542   0.241   8.765   9.547
    6        0.545   0.240   8.765   9.550
    7        0.545   0.240   8.765   9.550
    8        0.545   0.240   8.765   9.550
    9        0.544   0.240   8.766   9.550
   10        0.518   0.309   8.769   9.597
   11        0.520   0.306   8.776   9.602
   12        0.518   0.309   8.769   9.597
   13        0.520   0.306   8.776   9.603
   14        0.520   0.306   8.776   9.602
   15        0.516   0.306   8.775   9.598
   16        0.519   0.309   8.769   9.597
   17        0.516   0.306   8.775   9.598
   18        0.516   0.306   8.775   9.598
   19        0.516   0.302   8.775   9.594
   20        0.523   0.316   8.767   9.606
   21        0.523   0.316   8.767   9.606
   22        0.512   0.304   8.773   9.590
   23        0.523   0.316   8.767   9.606
   24        0.512   0.305   8.773   9.590
   25        0.517   0.302   8.775   9.594
   26        0.517   0.302   8.775   9.594
   27        0.512   0.304   8.774   9.590
   28        0.540   0.231   8.768   9.539
   29        0.543   0.238   8.760   9.541
   30        0.543   0.237   8.760   9.541
   31        0.542   0.237   8.761   9.539
   32        0.542   0.236   8.761   9.539
   33        0.543   0.238   8.760   9.541
   34        0.543   0.238   8.760   9.541
   35        0.538   0.232   8.769   9.539
   36        0.558   0.308   8.128   8.994
   37        0.932   1.798   0.000   2.731
   38        1.607   3.529   0.000   5.136
   39        1.607   3.530   0.000   5.136
tot         23.260  18.748 315.014 357.022

  FORCE on cell =-STRESS in cart. coord.  units (eV):
  Direction    XX          YY          ZZ          XY          YZ          ZX
  Alpha Z   969.77078   969.77078   969.77078
  Ewald  146639.07592145841.73183************    -8.08146     0.18458   -16.93558
  Hartree155155.38106154777.11734************    -3.75707     0.08593    -7.42072
  E(xc)   -1844.82555 -1846.93455 -1854.35218    -0.02193    -0.00011    -0.04792
  Local  ************************313185.32411    11.09282    -0.27032    22.70017
  n-local  -114.82217  -108.90847   -83.47409     0.07350     0.04308     0.14648
  augment  2430.58130  2433.28655  2449.46316     0.02720     0.00311     0.06258
  Kinetic  5769.87752  5835.17059  5891.15016     0.67811    -0.00459     1.50830
  Fock        0.00000     0.00000     0.00000     0.00000     0.00000     0.00000
  Total     -22.28526   -22.24712     0.36148     0.01116     0.04168     0.01333
  in kB     -21.78010   -21.74282     0.35329     0.01090     0.04074     0.01302

 VOLUME and BASIS-vectors are now :
  energy-cutoff  :      500.00
  volume of cell :     1639.34
      direct lattice vectors                 reciprocal lattice vectors
     8.813512802  0.000000000  0.000000000     0.113462137 -0.065507406  0.000000000
     4.406756909  7.632725690  0.000000000     0.000000000  0.131014796  0.000000000
     0.000000000  0.000000000 24.369114204     0.000000000  0.000000000  0.041035550

  length of vectors
     8.813512802  8.813512802 24.369114204     0.131014796  0.131014796  0.041035550

 FORCES acting on ions
    electron-ion (+dipol)            ewald-force                    non-local-force                 convergence-correction
   0.319E-02 0.141E-01 0.268E+04   -.142E-02 -.153E-01 -.267E+04   0.838E-03 -.178E-02 -.628E+00   -.235E-02 0.219E-02 0.786E-01
   0.157E+00 0.371E+00 0.268E+04   -.186E+00 -.292E+00 -.267E+04   0.112E-01 -.146E-01 -.338E+00   0.168E-01 -.631E-01 0.660E-01
   -.162E+00 0.354E+00 0.268E+04   0.187E+00 -.289E+00 -.267E+04   -.106E-01 -.145E-01 -.340E+00   -.133E-01 -.503E-01 0.671E-01
   0.388E+00 -.379E-01 0.268E+04   -.333E+00 -.240E-01 -.268E+04   -.446E-02 0.162E-01 -.346E+00   -.494E-01 0.439E-01 0.658E-01
   -.199E-01 -.663E-02 0.268E+04   0.364E-02 0.148E-03 -.268E+04   0.139E-03 0.201E-03 -.317E+00   0.161E-01 0.625E-02 0.220E-01
   -.372E+00 -.396E-01 0.268E+04   0.329E+00 -.237E-01 -.267E+04   0.417E-02 0.156E-01 -.348E+00   0.379E-01 0.461E-01 0.711E-01
   0.216E+00 -.329E+00 0.268E+04   -.144E+00 0.315E+00 -.267E+04   -.168E-01 -.125E-02 -.339E+00   -.531E-01 0.155E-01 0.702E-01
   -.226E+00 -.319E+00 0.268E+04   0.146E+00 0.313E+00 -.267E+04   0.163E-01 -.127E-02 -.338E+00   0.619E-01 0.801E-02 0.733E-01
   0.169E-01 -.959E-02 0.268E+04   -.190E-02 0.152E-01 -.267E+04   -.716E-03 0.216E-02 -.404E+00   -.146E-01 -.738E-02 0.865E-01
   0.322E+01 0.198E+01 0.954E+03   -.297E+01 -.183E+01 -.953E+03   -.129E+00 -.738E-01 -.590E+00   -.895E-01 -.503E-01 0.248E-01
   -.261E-01 0.267E+01 0.956E+03   0.149E-01 -.257E+01 -.955E+03   -.129E-02 -.318E-01 -.471E+00   0.125E-01 -.844E-01 0.582E-01
   -.320E+01 0.195E+01 0.954E+03   0.296E+01 -.182E+01 -.953E+03   0.128E+00 -.717E-01 -.593E+00   0.796E-01 -.382E-01 0.230E-01
   0.220E+01 -.136E+01 0.956E+03   -.211E+01 0.130E+01 -.955E+03   -.290E-01 0.165E-01 -.473E+00   -.694E-01 0.515E-01 0.619E-01
   -.224E+01 -.135E+01 0.956E+03   0.213E+01 0.130E+01 -.955E+03   0.274E-01 0.165E-01 -.474E+00   0.902E-01 0.478E-01 0.598E-01
   0.331E-01 0.419E+00 0.953E+03   -.206E-01 -.454E+00 -.953E+03   -.268E-04 0.506E-02 -.450E+00   -.127E-01 0.210E-01 0.377E-01
   -.128E-01 -.374E+01 0.954E+03   0.598E-02 0.346E+01 -.953E+03   0.146E-02 0.145E+00 -.586E+00   0.520E-02 0.914E-01 0.251E-01
   0.433E+00 -.265E+00 0.953E+03   -.459E+00 0.293E+00 -.952E+03   0.504E-02 -.340E-02 -.436E+00   0.150E-01 -.208E-01 0.361E-01
   -.426E+00 -.297E+00 0.953E+03   0.453E+00 0.313E+00 -.952E+03   -.240E-02 -.271E-02 -.437E+00   -.169E-01 -.940E-02 0.346E-01
   0.147E+00 0.156E+01 -.796E+03   -.139E+00 -.162E+01 0.795E+03   -.163E-02 -.661E-02 0.541E+00   -.642E-02 0.689E-01 -.491E-01
   0.676E+01 0.453E+01 -.768E+03   -.664E+01 -.447E+01 0.768E+03   -.141E+00 -.762E-01 -.378E-01   0.759E-02 0.794E-02 0.324E-01
   -.690E+01 0.445E+01 -.769E+03   0.677E+01 -.440E+01 0.769E+03   0.143E+00 -.778E-01 -.404E-01   -.562E-04 0.170E-01 0.318E-01
   0.156E+01 -.168E+01 -.790E+03   -.180E+01 0.184E+01 0.789E+03   0.210E+00 -.130E+00 0.565E+00   0.211E-01 -.269E-01 -.365E-01
   -.133E+00 -.873E+01 -.769E+03   0.123E+00 0.860E+01 0.769E+03   0.818E-04 0.159E+00 -.365E-01   0.108E-01 -.983E-02 0.330E-01
   -.142E+01 -.159E+01 -.790E+03   0.167E+01 0.175E+01 0.790E+03   -.207E+00 -.128E+00 0.567E+00   -.388E-01 -.262E-01 -.366E-01
   -.933E+00 -.314E+00 -.797E+03   0.972E+00 0.336E+00 0.797E+03   0.110E-01 0.865E-02 0.524E+00   -.483E-01 -.284E-01 -.531E-01
   0.940E+00 -.155E+00 -.797E+03   -.982E+00 0.188E+00 0.796E+03   -.138E-01 0.715E-02 0.523E+00   0.535E-01 -.385E-01 -.500E-01
   0.117E-02 0.195E+01 -.791E+03   0.982E-02 -.223E+01 0.790E+03   -.365E-04 0.245E+00 0.563E+00   -.111E-01 0.292E-01 -.372E-01
   0.422E+00 0.458E+01 -.252E+04   -.428E+00 -.458E+01 0.252E+04   0.133E-02 -.212E-02 0.486E+00   0.370E-02 0.520E-02 0.141E+00
   0.100E+02 0.236E+02 -.250E+04   -.979E+01 -.233E+02 0.250E+04   -.207E+00 -.239E+00 0.308E+00   -.287E-02 -.548E-01 0.251E-01
   -.105E+02 0.227E+02 -.250E+04   0.102E+02 -.224E+02 0.250E+04   0.205E+00 -.235E+00 0.322E+00   -.840E-02 -.418E-01 0.297E-01
   0.241E+02 0.699E+00 -.249E+04   -.237E+02 -.660E+00 0.249E+04   -.287E+00 -.542E-01 0.429E+00   -.511E-01 0.258E-01 0.261E-01
   -.229E+02 0.523E+00 -.249E+04   0.225E+02 -.489E+00 0.249E+04   0.282E+00 -.545E-01 0.434E+00   0.274E-01 0.306E-01 0.249E-01
   0.879E+01 -.242E+02 -.250E+04   -.861E+01 0.239E+02 0.250E+04   -.114E+00 0.293E+00 0.311E+00   -.443E-01 0.124E-01 0.272E-01
   -.942E+01 -.233E+02 -.250E+04   0.924E+01 0.229E+02 0.250E+04   0.112E+00 0.290E+00 0.318E+00   0.420E-01 0.587E-02 0.220E-01
   0.616E+00 -.453E+01 -.252E+04   -.606E+00 0.454E+01 0.252E+04   0.122E-03 0.237E-02 0.512E+00   -.113E-01 -.838E-02 0.340E-01
   -.853E+00 -.584E-01 -.215E+04   0.823E+00 0.512E-01 0.214E+04   0.122E-01 0.698E-03 0.155E+01   0.169E-01 0.918E-02 0.638E-01
   -.119E-01 -.316E+00 -.859E+03   -.268E-01 0.317E+00 0.859E+03   0.354E-01 -.791E-02 0.352E-01   0.233E-02 0.255E-03 -.115E-01
   0.262E+03 -.261E+01 -.129E+04   -.326E+03 0.322E+01 0.129E+04   0.636E+02 -.609E+00 -.148E+01   0.443E-02 0.215E-02 -.157E-02
   -.263E+03 0.283E+01 -.129E+04   0.326E+03 -.353E+01 0.129E+04   -.637E+02 0.703E+00 0.147E+01   -.115E-02 -.184E-02 -.236E-01
   0.345E-01 -.765E-01 -.112E+01   0.000E+00 0.265E-12 0.864E-11   -.123E-01 0.885E-01 -.438E-01   -.203E-01 -.125E-01 0.115E+01

 POSITION                                       TOTAL-FORCE (eV/Angst)
      0.00000      0.00000      5.28038         0.000200     -0.000785     -0.031931
      2.93784      0.00000      5.28038        -0.000980      0.001223     -0.068720
      5.87568      0.00000      5.28038         0.000898      0.000926     -0.068674
      1.46892      2.54424      5.28038         0.001201     -0.001733     -0.069751
      4.40676      2.54424      5.28038        -0.000055     -0.000020     -0.083098
      7.34459      2.54424      5.28038        -0.001071     -0.001570     -0.069680
      2.93784      5.08848      5.28038         0.001870      0.000686     -0.069821
      5.87568      5.08848      5.28038        -0.002017      0.000679     -0.069568
      8.81351      5.08848      5.28038        -0.000408      0.000430     -0.062345
      1.46892      0.84808      7.67911         0.031936      0.019274      0.065873
      4.40676      0.84808      7.67911        -0.000089     -0.015775      0.016279
      7.34459      0.84808      7.67911        -0.032001      0.019117      0.065239
      2.93784      3.39232      7.67911        -0.014377      0.008498      0.015416
      5.87568      3.39232      7.67911         0.014561      0.008593      0.015533
      8.81351      3.39232      7.67911        -0.000260     -0.008031      0.061541
      4.40676      5.93656      7.67911        -0.000184     -0.038123      0.065967
      7.34459      5.93656      7.67911        -0.006890      0.002985      0.062866
     10.28243      5.93656      7.67911         0.007636      0.003505      0.062738
      8.81351      1.69709     10.07334         0.000000     -0.003720      0.069475
      2.92757      1.69024     10.04824        -0.014710     -0.009472      0.016536
      5.88594      1.69024     10.04824         0.015686     -0.009384      0.015825
     10.27700      4.24354     10.06671        -0.007016      0.004181      0.012395
      4.40676      4.25225     10.04824         0.000646      0.016188      0.016949
      7.35003      4.24354     10.06671         0.005930      0.003836      0.012791
     11.75055      6.78418     10.07334         0.001618      0.002242      0.064095
      5.87648      6.78418     10.07334        -0.002286      0.002328      0.063959
      8.81351      6.77837     10.06671        -0.000151     -0.008092      0.008586
      0.00000      0.00000     12.49905        -0.000151     -0.001094     -0.040942
      2.94801      0.01573     12.49317         0.034283      0.036659     -0.004813
      5.86551      0.01573     12.49317        -0.034692      0.035813     -0.005674
      1.48763      2.54518     12.49317         0.047527      0.010104     -0.005598
      7.32589      2.54518     12.49317        -0.047294      0.010514     -0.007895
      2.94638      5.07181     12.49317         0.018116     -0.046916     -0.004429
      5.86714      5.07181     12.49317        -0.018450     -0.046875     -0.005386
      8.81351      5.08848     12.49660        -0.000523      0.001131     -0.028201
      4.40676      2.54424     12.29817        -0.000758      0.002726     -0.021899
      4.33423      2.54325     16.09637        -0.001054     -0.006532      0.002854
      3.15747      2.55465     16.12600         0.005822      0.004512      0.002192
      5.51077      2.53036     16.07159        -0.002514      0.001971      0.001315
    total drift:                                0.001924     -0.000485     -0.006968

  FREE ENERGIE OF THE ION-ELECTRON SYSTEM (eV)
  free  energy   TOTEN  =      -135.40295473 eV

  energy  without entropy=     -135.40295473  energy(sigma->0) =     -135.40295473

 stress matrix after NEB project (eV)
    -22.28526      0.01116      0.01333
      0.01116    -22.24712      0.04168
      0.01333      0.04168      0.36148
  FORCES: max atom, RMS     0.007685    0.001775
  FORCE total and by dimension    0.011086    0.006532
  Stress total and by dimension   31.491296   22.285259
|           W    W    AA    RRRRR   N    N  II  N    N   GGGG   !!!           |
|           W    W   A  A   R    R  NN   N  II  NN   N  G    G  !!!           |
|           W    W  A    A  R    R  N N  N  II  N N  N  G       !!!           |
|           W WW W  AAAAAA  RRRRR   N  N N  II  N  N N  G  GGG   !            |
|           WW  WW  A    A  R   R   N   NN  II  N   NN  G    G                |
|           W    W  A    A  R    R  N    N  II  N    N   GGGG   !!!           |
|     Tetrahedron method does not include variations of the Fermi             |
|     occupations, so forces and stress will be inaccurate. We suggest        |
|     using a different smearing scheme ISMEAR = 1 or 2 for metals in         |
|     relaxations.                                                            |

 total charge

# of ion       s       p       d       tot
    1        0.543   0.241   8.765   9.549
    2        0.545   0.240   8.765   9.550
    3        0.545   0.240   8.765   9.550
    4        0.545   0.240   8.765   9.550
    5        0.542   0.241   8.765   9.547
    6        0.545   0.240   8.765   9.550
    7        0.545   0.240   8.765   9.550
    8        0.545   0.240   8.765   9.550
    9        0.544   0.240   8.766   9.550
   10        0.518   0.309   8.769   9.597
   11        0.520   0.306   8.776   9.602
   12        0.518   0.309   8.769   9.597
   13        0.520   0.306   8.776   9.603
   14        0.520   0.306   8.776   9.602
   15        0.516   0.306   8.775   9.598
   16        0.519   0.309   8.769   9.597
   17        0.516   0.306   8.775   9.598
   18        0.516   0.306   8.775   9.598
   19        0.516   0.302   8.775   9.594
   20        0.523   0.316   8.767   9.606
   21        0.523   0.316   8.767   9.606
   22        0.512   0.304   8.773   9.590
   23        0.523   0.316   8.767   9.606
   24        0.512   0.305   8.773   9.590
   25        0.517   0.302   8.775   9.594
   26        0.517   0.302   8.775   9.594
   27        0.512   0.304   8.774   9.590
   28        0.540   0.231   8.768   9.539
   29        0.543   0.238   8.760   9.541
   30        0.543   0.237   8.760   9.541
   31        0.542   0.237   8.761   9.539
   32        0.542   0.236   8.761   9.539
   33        0.543   0.238   8.760   9.541
   34        0.543   0.238   8.760   9.541
   35        0.538   0.232   8.769   9.539
   36        0.558   0.308   8.128   8.994
   37        0.932   1.798   0.000   2.731
   38        1.607   3.529   0.000   5.136
   39        1.607   3.530   0.000   5.136
tot         23.260  18.748 315.014 357.022

 BZINTS: Fermi energy:    0.269846;  411.000000 electrons
         Band energy:-0.149468E+04;  BLOECHL correction:   -0.116297