 vasp.6.2.0 18Jan21 (build Jun 12 2021 23:27:24) complex

 executed on             LinuxIFC date 2022.05.28  01:26:26

 INCAR:
   ISMEAR = -5
   SIGMA = 0.1
   ISPIN = 1
   EDIFF = 1.d-5
   EDIFFG = -0.01
   NSW = 0
   NELM = 150
   ENCUT = 500
   ISIF = 2
   IBRION = 2
   LREAL = Auto
   ALGO = Fast
   ICHARG = 11
   LORBIT = 10
   LCHARG = .F.
   LWAVE = .F.

 POTCAR:    PAW_PBE Ag 02Apr2005
 POTCAR:    PAW_PBE V 08Apr2002
 POTCAR:    PAW_PBE O 08Apr2002
 POTCAR:    PAW_PBE H 15Jun2001
|           W    W    AA    RRRRR   N    N  II  N    N   GGGG   !!!           |
|           W    W   A  A   R    R  NN   N  II  NN   N  G    G  !!!           |
|           W    W  A    A  R    R  N N  N  II  N N  N  G       !!!           |
|           W WW W  AAAAAA  RRRRR   N  N N  II  N  N N  G  GGG   !            |
|           WW  WW  A    A  R   R   N   NN  II  N   NN  G    G                |
|           W    W  A    A  R    R  N    N  II  N    N   GGGG   !!!           |
|     For optimal performance we recommend to set                             |
|       NCORE = 2 up to number-of-cores-per-socket                            |
|     This setting can greatly improve the performance of VASP for DFT.       |
|     The default, NCORE=1 might be grossly inefficient on modern             |
|     multi-core architectures or massively parallel machines. Do your        |
|     Unfortunately you need to use the default for GW and RPA                |
|     calculations (for HF NCORE is supported but not extensively tested      |
|     yet).                                                                   |

 POTCAR:    PAW_PBE Ag 02Apr2005
   VRHFIN =Ag : s1 d10

   TITEL  = PAW_PBE Ag 02Apr2005
   POMASS =  107.868; ZVAL   =   11.000    mass and valenz
   ENMAX  =  249.844; ENMIN  =  187.383 eV

 POTCAR:    PAW_PBE V 08Apr2002
   VRHFIN =V: p6 d4 s1

[...]

 POTCAR:    PAW_PBE O 08Apr2002
   VRHFIN =O: s2p4

   TITEL  = PAW_PBE O 08Apr2002
   POMASS =   16.000; ZVAL   =    6.000    mass and valenz
   ENMAX  =  400.000; ENMIN  =  300.000 eV

 POTCAR:    PAW_PBE H 15Jun2001
   VRHFIN =H: ultrasoft test

   TITEL  = PAW_PBE H 15Jun2001
   POMASS =    1.000; ZVAL   =    1.000    mass and valenz
   ENMAX  =  250.000; ENMIN  =  200.000 eV

 Optimization of the real space projectors (new method)

 maximal supplied QI-value         = 15.12
 optimisation between [QCUT,QGAM] = [ 11.34, 22.83] = [ 36.00,145.93] Ry
 Optimized for a Real-space Cutoff    1.43 Angstroem

   l    n(q)    QCUT    max X(q) W(low)/X(q) W(high)/X(q)  e(spline)
   2      9    11.338    53.897    0.16E-03    0.20E-03    0.28E-06
   2      9    11.338    52.416    0.16E-03    0.20E-03    0.29E-06
   0     10    11.338   122.045    0.31E-04    0.76E-04    0.15E-06
   0     10    11.338    73.629    0.30E-04    0.72E-04    0.15E-06
   1      9    11.338    15.255    0.20E-03    0.19E-04    0.17E-06
   1      9    11.338     9.562    0.16E-03    0.15E-04    0.14E-06
 Optimization of the real space projectors (new method)

[...]

   l    n(q)    QCUT    max X(q) W(low)/X(q) W(high)/X(q)  e(spline)
   0      7    11.387    20.381    0.39E-03    0.13E-02    0.15E-06
   0      7    11.387    15.268    0.42E-03    0.14E-02    0.17E-06
   1      6    11.387     5.964    0.41E-03    0.11E-02    0.17E-06
   1      6    11.387     5.382    0.39E-03    0.87E-03    0.15E-06
 Optimization of the real space projectors (new method)

 maximal supplied QI-value         = 34.20
 optimisation between [QCUT,QGAM] = [ 11.29, 22.57] = [ 35.68,142.71] Ry
 Optimized for a Real-space Cutoff    1.16 Angstroem

   l    n(q)    QCUT    max X(q) W(low)/X(q) W(high)/X(q)  e(spline)
   0      8    11.287    19.460    0.40E-03    0.73E-03    0.16E-06
   0      8    11.287    12.209    0.38E-03    0.70E-03    0.15E-06
   1      7    11.287     4.655    0.22E-03    0.25E-04    0.22E-06
  PAW_PBE Ag 02Apr2005                  :
  PAW_PBE V 08Apr2002                   :
  PAW_PBE O 08Apr2002                   :
  PAW_PBE H 15Jun2001                   :

 POSCAR: Ag-V-OOH
  positions in direct lattice
  velocities in cartesian coordinates
 exchange correlation table for  LEXCH =        8
   RHO(1)=    0.500       N(1)  =     2000
   RHO(2)=  100.500       N(2)  =     4000

 VTST: version 3.2, (02/03/18)

 CHAIN: initializing optimizer

 OPT: Using VASP Conjugate-Gradient optimizer
 CHAIN: Read ICHAIN            0

 POSCAR: Ag-V-OOH
  positions in direct lattice
  velocities in cartesian coordinates

 ion  position               nearest neighbor table
   1  0.000  0.000  0.204-   2 2.93   8 2.93   7 2.93   6 2.93   4 2.93  12 2.93  16 2.93  10 2.93
                             3 2.93
   2  0.333  0.000  0.204-   1 2.93   8 2.93   9 2.93   3 2.93   4 2.93   5 2.93  10 2.93  17 2.93
                            11 2.93
   3  0.667  0.000  0.204-   9 2.93   2 2.93   5 2.93  11 2.93   7 2.93  18 2.93   1 2.93   6 2.93
                            12 2.93
   4  0.000  0.333  0.204-   5 2.93   6 2.93   2 2.93   1 2.93   7 2.93  13 2.93  15 2.93   9 2.93
                            10 2.93
   5  0.333  0.333  0.204-   4 2.93   3 2.93   7 2.93   2 2.93   8 2.93  14 2.93  13 2.93  11 2.93
                             6 2.93
   6  0.667  0.333  0.204-   4 2.93   9 2.93   1 2.93  15 2.93   8 2.93  12 2.93   3 2.93   5 2.93
                            14 2.93
   7  0.000  0.667  0.204-   8 2.93   1 2.93   5 2.93   3 2.93   4 2.93  16 2.93  18 2.93  13 2.93
                             9 2.93
   8  0.333  0.667  0.204-   7 2.93   1 2.93   2 2.93   9 2.93   5 2.93  16 2.93   6 2.93  17 2.93
                            14 2.93
   9  0.667  0.667  0.204-   3 2.93   2 2.93   8 2.93   6 2.93  17 2.93   4 2.93  15 2.93   7 2.93
                            18 2.93
  10  0.111  0.111  0.296-  20 2.91  19 2.92  26 2.92  12 2.93  16 2.93  15 2.93  17 2.93  13 2.93
                            11 2.93   2 2.93   1 2.93   4 2.93
  11  0.444  0.111  0.296-  21 2.90  20 2.90  27 2.92  14 2.93  17 2.93  18 2.93   3 2.93  12 2.93
                            13 2.93  10 2.93   5 2.93   2 2.93
  12  0.778  0.111  0.296-  21 2.91  25 2.92  19 2.92  10 2.93  16 2.93  18 2.93  15 2.93  11 2.93
                             1 2.93  14 2.93   6 2.93   3 2.93
  13  0.111  0.444  0.296-  20 2.90  23 2.90  22 2.92  15 2.93  14 2.93  18 2.93  10 2.93  11 2.93
                            16 2.93   4 2.93   5 2.93   7 2.93
  14  0.444  0.444  0.296-  23 2.90  21 2.90  24 2.92  13 2.93  11 2.93  16 2.93   5 2.93  12 2.93
                            17 2.93   8 2.93  15 2.93   6 2.93
  15  0.778  0.444  0.296-  24 2.92  22 2.92  19 2.92  13 2.93  10 2.93  12 2.93  17 2.93  18 2.93
                             4 2.93   6 2.93   9 2.93  14 2.93
  16  0.111  0.778  0.296-  23 2.91  26 2.92  25 2.92  18 2.93  12 2.93  10 2.93  14 2.93  17 2.93
                            13 2.93   7 2.93   8 2.93   1 2.93
  17  0.444  0.778  0.296-  27 2.92  24 2.92  26 2.92  11 2.93  10 2.93   9 2.93  18 2.93  15 2.93
                            16 2.93   2 2.93  14 2.93   8 2.93
  18  0.778  0.778  0.296-  22 2.92  27 2.92  25 2.92  16 2.93  12 2.93  13 2.93  11 2.93  17 2.93
                            15 2.93   7 2.93   3 2.93   9 2.93
  19  0.889  0.222  0.388-  28 2.91  15 2.92  10 2.92  12 2.92  24 2.93  22 2.93  26 2.93  25 2.93
                            20 2.94  21 2.94  32 2.96  31 2.96
  20  0.223  0.223  0.387-  36 2.75  13 2.90  11 2.90  10 2.91  21 2.92  23 2.92  31 2.92  29 2.92
                            27 2.93  22 2.93  19 2.94  26 2.94
  21  0.555  0.223  0.387-  36 2.75  11 2.90  14 2.90  12 2.91  20 2.92  23 2.92  30 2.92  32 2.92
                            27 2.93  24 2.93  25 2.94  19 2.94
  22  0.889  0.556  0.388-  18 2.92  15 2.92  35 2.92  13 2.92  24 2.93  27 2.93  25 2.93  19 2.93
                            23 2.93  20 2.93  33 2.94  31 2.94
  23  0.223  0.555  0.387-  36 2.75  14 2.90  13 2.90  16 2.91  21 2.92  20 2.92  34 2.92  33 2.92
                            22 2.93  24 2.93  26 2.94  25 2.94
  24  0.556  0.556  0.388-  15 2.92  17 2.92  35 2.92  14 2.92  27 2.93  22 2.93  19 2.93  26 2.93
                            23 2.93  21 2.93  32 2.94  34 2.94
  25  0.889  0.889  0.388-  28 2.91  18 2.92  16 2.92  12 2.92  22 2.93  27 2.93  26 2.93  19 2.93
                            23 2.94  21 2.94  33 2.96  30 2.96
  26  0.222  0.889  0.388-  28 2.91  17 2.92  16 2.92  10 2.92  27 2.93  24 2.93  25 2.93  19 2.93
                            23 2.94  20 2.94  34 2.96  29 2.96
  27  0.556  0.889  0.388-  17 2.92  18 2.92  35 2.92  11 2.92  24 2.93  22 2.93  26 2.93  25 2.93
                            20 2.93  21 2.93  29 2.94  30 2.94
  28  0.000  0.000  0.480-  26 2.91  25 2.91  19 2.91  29 2.96  34 2.96  33 2.96  32 2.96  31 2.96
                            30 2.96
  29  0.334  0.006  0.481-  38 2.26  30 2.87  31 2.88  36 2.89  20 2.92  27 2.94  35 2.96  28 2.96
                            26 2.96  34 3.04
  30  0.660  0.006  0.481-  29 2.87  32 2.88  36 2.89  21 2.92  27 2.94  35 2.96  28 2.96  25 2.96
                            33 3.04
  31  0.006  0.334  0.481-  38 2.26  33 2.87  29 2.88  36 2.89  20 2.92  22 2.94  35 2.96  28 2.96
                            19 2.96  32 3.04
  32  0.660  0.334  0.481-  37 2.24  34 2.87  30 2.88  36 2.89  21 2.92  24 2.94  35 2.96  28 2.96
                            19 2.96  31 3.04
  33  0.006  0.660  0.481-  31 2.87  34 2.88  36 2.89  23 2.92  22 2.94  35 2.96  28 2.96  25 2.96
                            30 3.04
  34  0.334  0.660  0.481-  37 2.23  32 2.87  33 2.88  36 2.89  23 2.92  24 2.94  35 2.96  28 2.96
                            26 2.96  29 3.04
  35  0.667  0.667  0.480-  24 2.92  27 2.92  22 2.92  30 2.96  32 2.96  29 2.96  34 2.96  31 2.96
                            33 2.96
  36  0.333  0.333  0.472-  37 1.71  38 1.99  21 2.75  20 2.75  23 2.75  31 2.89  33 2.89  30 2.89
                            29 2.89  34 2.89  32 2.89
  37  0.408  0.408  0.521-  36 1.71  34 2.23  32 2.24
  38  0.247  0.249  0.530-  39 0.98  36 1.99  31 2.26  29 2.26
  39  0.279  0.282  0.562-  38 0.98

  LATTYP: Found a hexagonal cell.
 ALAT       =     8.7913665772
 C/A-ratio  =     2.9469639759

  Lattice vectors:

 A1 = (  -4.3956832886,  -7.6135467898,   0.0000000000)
 A2 = (   8.7913665771,   0.0000000000,   0.0000000000)
 A3 = (   0.0000000000,   0.0000000000,  25.9078406020)

Analysis of symmetry for initial positions (statically):
 Subroutine PRICEL returns:
 Original cell was already a primitive cell.

 Routine SETGRP: Setting up the symmetry group for a
 hexagonal supercell.

 Subroutine GETGRP returns: Found  1 space group operations
 (whereof  1 operations were pure point group operations)
 out of a pool of 24 trial point group operations.

The static configuration has the point symmetry C_1 .

Analysis of symmetry for dynamics (positions and initial velocities):
 Subroutine PRICEL returns:
 Original cell was already a primitive cell.

[...]

The dynamic configuration has the point symmetry C_1 .

Analysis of constrained symmetry for selective dynamics:
 Subroutine PRICEL returns:
 Original cell was already a primitive cell.

[...]
     41      -5.0182      2.00000
     42      -4.9950      2.00000
     43      -4.9663      2.00000
     44      -4.9457      2.00000
     45      -4.9362      2.00000
     46      -4.9172      2.00000
     47      -4.9002      2.00000
     48      -4.8556      2.00000
     49      -4.8444      2.00000
     50      -4.8121      2.00000
     51      -4.7877      2.00000
     52      -4.7799      2.00000
     53      -4.7745      2.00000
     54      -4.7634      2.00000
     55      -4.7535      2.00000
     56      -4.7465      2.00000
     57      -4.7352      2.00000
     58      -4.7237      2.00000
     59      -4.6802      2.00000
     60      -4.6591      2.00000
[...]
    238       5.2763      0.00000
    239       5.3354      0.00000
    240       5.4609      0.00000
    241       5.6954      0.00000
    242       5.7574      0.00000
    243       5.8046      0.00000
    244       5.8658      0.00000
    245       5.8903      0.00000
    246       5.9062      0.00000
    247       6.1697      0.00000
    248       6.1942      0.00000
    249       6.2678      0.00000
    250       6.5223      0.00000
    251       6.5804      0.00000
    252       6.6560      0.00000

 soft charge-density along one line, spin component           1
         0         1         2         3         4         5         6         7         8         9
 total charge-density along one line

------------------------ aborting loop because EDIFF is reached ----------------------------------------

 total charge

# of ion       s       p       d       tot
    1        0.420   0.201   9.177   9.798
    2        0.415   0.205   9.177   9.796
    3        0.415   0.204   9.177   9.796
    4        0.415   0.205   9.177   9.796
    5        0.419   0.202   9.176   9.797
    6        0.417   0.203   9.177   9.797
    7        0.415   0.204   9.177   9.796
    8        0.416   0.203   9.177   9.797
    9        0.415   0.203   9.178   9.796
   10        0.409   0.267   9.165   9.842
   11        0.408   0.269   9.166   9.843
   12        0.408   0.270   9.162   9.840
   13        0.408   0.269   9.166   9.843
   14        0.404   0.270   9.168   9.841
   15        0.404   0.269   9.164   9.837
   16        0.408   0.270   9.162   9.840
   17        0.404   0.269   9.164   9.837
   18        0.400   0.272   9.163   9.835
   19        0.396   0.274   9.161   9.831
   20        0.443   0.297   9.138   9.877
   21        0.435   0.303   9.135   9.873
   22        0.396   0.275   9.165   9.836
   23        0.435   0.303   9.135   9.873
   24        0.402   0.271   9.167   9.840
   25        0.406   0.264   9.168   9.838
   26        0.396   0.274   9.161   9.831
   27        0.396   0.275   9.165   9.836
   28        0.419   0.196   9.181   9.797
   29        0.387   0.242   9.183   9.812
   30        0.417   0.212   9.180   9.808
   31        0.387   0.243   9.183   9.813
   32        0.386   0.247   9.181   9.815
   33        0.417   0.212   9.180   9.809
   34        0.386   0.247   9.181   9.815
   35        0.418   0.197   9.179   9.794
   36        0.519   0.737   3.582   4.838
   37        1.597   3.341   0.000   4.938
   38        1.563   3.520   0.000   5.083
   39        0.608   0.119   0.000   0.727
tot         18.606  16.302 324.500 359.408

  FORCE on cell =-STRESS in cart. coord.  units (eV):
  Direction    XX          YY          ZZ          XY          YZ          ZX
  Alpha Z   654.69312   654.69312   654.69312
  Ewald  178318.57665178237.31933************    69.58048    25.06059    43.23210
  Hartree188241.52579188203.11252************    32.62673     2.43960     4.79028
  E(xc)   -2114.41491 -2114.73288 -2120.09174     0.27082    -0.11700    -0.20377
  Local  ************************377766.15994   -95.10530   -21.67651   -38.25756
  n-local  -365.65683  -365.49541  -369.37948    -0.15629     0.55968     1.00943
  augment  3252.03159  3253.78008  3261.15672    -1.50194    -0.56977    -1.01192
  Kinetic  5075.76261  5082.25510  5086.91966    -5.72679    -5.43082    -9.07349
  Fock        0.00000     0.00000     0.00000     0.00000     0.00000     0.00000
  Total      -2.89477    -2.90129    -0.87151    -0.01230     0.26577     0.48506
  in kB      -2.67454    -2.68057    -0.80521    -0.01136     0.24555     0.44816

 VOLUME and BASIS-vectors are now :
  energy-cutoff  :      500.00
  volume of cell :     1734.10
      direct lattice vectors                 reciprocal lattice vectors
     8.791366577  0.000000000  0.000000000     0.113747958 -0.065672414  0.000000000
     4.395683289  7.613546790  0.000000000     0.000000000  0.131344829  0.000000000
     0.000000000  0.000000000 25.907840602     0.000000000  0.000000000  0.038598354

  length of vectors
     8.791366577  8.791366577 25.907840602     0.131344829  0.131344829  0.038598354

 FORCES acting on ions
    electron-ion (+dipol)            ewald-force                    non-local-force                 convergence-correction
   0.158E+00 0.927E-01 0.281E+04   -.920E-01 -.528E-01 -.281E+04   -.330E-01 -.199E-01 -.191E+01   -.373E-01 -.222E-01 -.140E-01
   0.617E-01 0.585E-01 0.281E+04   -.111E+00 -.253E+00 -.281E+04   0.142E-03 0.179E+00 -.158E+01   0.509E-01 0.164E-01 -.852E-02
   -.186E+00 0.253E+00 0.281E+04   0.203E+00 -.311E+00 -.281E+04   0.711E-02 0.723E-01 -.162E+01   -.263E-01 -.461E-02 -.344E-01
   0.809E-01 0.253E-01 0.281E+04   -.275E+00 0.297E-01 -.281E+04   0.155E+00 -.896E-01 -.159E+01   0.405E-01 0.365E-01 -.892E-02
   -.156E+00 -.897E-01 0.281E+04   -.720E-02 -.559E-02 -.281E+04   0.108E+00 0.622E-01 -.135E+01   0.455E-01 0.276E-01 0.191E-01
   0.192E-01 0.172E-01 0.281E+04   0.282E+00 -.833E-01 -.281E+04   -.212E+00 0.113E-01 -.156E+01   -.775E-01 0.439E-01 -.173E-01
   0.125E+00 -.289E+00 0.281E+04   -.168E+00 0.332E+00 -.281E+04   0.664E-01 -.295E-01 -.163E+01   -.158E-01 -.202E-01 -.347E-01
   0.236E-01 0.623E-02 0.281E+04   0.702E-01 0.286E+00 -.281E+04   -.951E-01 -.188E+00 -.156E+01   -.179E-02 -.888E-01 -.185E-01
   -.126E+00 -.746E-01 0.281E+04   0.978E-01 0.575E-01 -.281E+04   -.367E-02 -.194E-02 -.185E+01   0.253E-01 0.151E-01 -.122E-01
   0.230E+01 0.133E+01 0.980E+03   -.208E+01 -.121E+01 -.979E+03   -.250E+00 -.143E+00 -.625E+00   0.126E-01 0.802E-02 0.688E-01
   -.522E+00 0.278E+01 0.982E+03   0.509E+00 -.293E+01 -.981E+03   -.329E-01 0.814E-01 -.453E+00   0.516E-01 0.274E-01 0.626E-01
   -.192E+01 0.203E+01 0.979E+03   0.157E+01 -.180E+01 -.978E+03   0.414E+00 -.244E+00 -.749E+00   -.458E-01 0.163E-01 0.480E-01
   0.215E+01 -.184E+01 0.982E+03   -.228E+01 0.190E+01 -.981E+03   0.546E-01 -.693E-01 -.454E+00   0.484E-01 0.318E-01 0.621E-01
   -.187E+01 -.107E+01 0.982E+03   0.196E+01 0.112E+01 -.982E+03   -.722E-01 -.418E-01 -.184E+00   -.728E-03 0.846E-05 0.625E-01
   -.246E+00 -.112E+00 0.980E+03   0.323E+00 0.760E-02 -.979E+03   -.587E-01 0.622E-01 -.769E+00   -.189E-01 0.266E-01 -.830E-02
   0.791E+00 -.269E+01 0.979E+03   -.765E+00 0.226E+01 -.978E+03   -.499E-02 0.481E+00 -.748E+00   -.961E-02 -.484E-01 0.476E-01
   -.224E+00 -.163E+00 0.980E+03   0.172E+00 0.285E+00 -.979E+03   0.245E-01 -.832E-01 -.767E+00   0.133E-01 -.307E-01 -.764E-02
   -.533E+00 -.316E+00 0.978E+03   0.592E+00 0.352E+00 -.978E+03   -.302E-01 -.182E-01 -.638E+00   -.265E-01 -.167E-01 -.207E-01
   0.225E+01 0.161E+00 -.870E+03   -.229E+01 -.240E+00 0.870E+03   0.857E-01 0.141E+00 0.632E+00   -.310E-01 0.195E-01 -.505E-01
   -.628E+01 -.353E+01 -.851E+03   0.649E+01 0.366E+01 0.851E+03   -.520E+00 -.301E+00 -.117E+01   0.149E+00 0.845E-01 0.782E-01
   0.344E+01 0.525E+01 -.857E+03   -.418E+01 -.447E+01 0.858E+03   0.921E+00 -.888E+00 -.114E+01   -.164E+00 0.776E-01 0.113E+00
   -.384E+00 -.539E+01 -.868E+03   0.304E+00 0.543E+01 0.867E+03   0.116E-01 -.972E-01 0.570E+00   0.929E-01 0.822E-03 -.507E-01
   0.620E+01 0.351E+00 -.857E+03   -.590E+01 -.139E+01 0.858E+03   -.311E+00 0.124E+01 -.114E+01   -.142E-01 -.180E+00 0.112E+00
   -.532E+01 -.308E+01 -.860E+03   0.533E+01 0.309E+01 0.859E+03   0.416E-01 0.206E-01 0.396E+00   -.102E+00 -.585E-01 -.358E-01
   0.358E+01 0.202E+01 -.878E+03   -.349E+01 -.197E+01 0.878E+03   -.446E-01 -.257E-01 0.730E+00   -.549E-01 -.313E-01 -.877E-01
   0.120E+01 0.184E+01 -.870E+03   -.130E+01 -.184E+01 0.870E+03   0.170E+00 0.826E-02 0.636E+00   0.179E-02 -.361E-01 -.499E-01
   -.484E+01 0.229E+01 -.868E+03   0.484E+01 -.238E+01 0.867E+03   -.805E-01 0.602E-01 0.574E+00   0.458E-01 0.806E-01 -.494E-01
   0.190E+02 0.109E+02 -.270E+04   -.192E+02 -.111E+02 0.270E+04   0.198E+00 0.117E+00 0.159E+01   0.398E-01 0.230E-01 0.415E-01
   0.171E+02 0.113E+03 -.263E+04   -.171E+02 -.115E+03 0.263E+04   -.333E+00 0.110E+01 0.269E+01   0.142E+00 0.313E+00 0.122E+00
   -.310E+02 0.470E+02 -.269E+04   0.310E+02 -.474E+02 0.269E+04   0.434E+00 -.240E+00 0.214E+01   -.170E+00 0.259E+00 0.605E-01
   0.107E+03 -.412E+02 -.263E+04   -.109E+03 0.425E+02 0.263E+04   0.768E+00 -.817E+00 0.265E+01   0.341E+00 -.346E-01 0.122E+00
   -.109E+03 0.393E+02 -.265E+04   0.111E+03 -.404E+02 0.265E+04   -.852E+00 0.675E+00 0.231E+01   -.292E+00 0.608E-01 0.623E-01
   0.252E+02 -.509E+02 -.269E+04   -.256E+02 0.511E+02 0.269E+04   0.886E-02 0.481E+00 0.215E+01   0.139E+00 -.275E+00 0.612E-01
   -.208E+02 -.114E+03 -.265E+04   0.209E+02 0.117E+03 0.265E+04   0.159E+00 -.107E+01 0.231E+01   -.922E-01 -.282E+00 0.630E-01
   -.146E+02 -.863E+01 -.271E+04   0.147E+02 0.871E+01 0.271E+04   -.273E-02 0.336E-02 0.169E+01   -.678E-01 -.376E-01 0.875E-01
   0.209E+02 0.124E+02 -.100E+04   -.206E+02 -.123E+02 0.101E+04   -.186E+00 -.108E+00 -.483E+00   -.435E-02 -.346E-02 0.674E-01
   -.186E+02 -.105E+02 -.179E+04   0.238E+02 0.134E+02 0.181E+04   -.494E+01 -.284E+01 -.229E+02   -.263E+00 -.152E+00 -.275E+00
   0.217E+02 0.134E+02 -.178E+04   -.399E+02 -.244E+02 0.176E+04   0.180E+02 0.108E+02 0.160E+02   0.210E+00 0.118E+00 -.201E+00
   -.265E+02 -.162E+02 -.364E+03   0.300E+02 0.183E+02 0.371E+03   -.351E+01 -.211E+01 -.709E+01   0.210E-02 0.636E-03 -.429E-01
   -.100E+02 -.617E+01 0.164E+02   0.355E-13 -.153E-12 -.375E-11   0.100E+02 0.620E+01 -.168E+02   -.641E-01 -.356E-01 0.334E+00

 POSITION                                       TOTAL-FORCE (eV/Angst)
      0.00000      0.00000      5.28219        -0.003804     -0.002215     -0.039632
      2.93046      0.00000      5.28219         0.002520      0.000115      0.022183
      5.86091      0.00000      5.28219        -0.001882      0.010440      0.034415
      1.46523      2.53785      5.28219         0.001395      0.001859      0.022121
      4.39568      2.53785      5.28219        -0.009127     -0.005455      0.007758
      7.32614      2.53785      5.28219         0.012676     -0.010743      0.018478
      2.93046      5.07570      5.28219         0.008166     -0.007038      0.034310
      5.86091      5.07570      5.28219        -0.002701      0.016052      0.018849
      8.79137      5.07570      5.28219        -0.006240     -0.003771     -0.005851
      1.46523      0.84595      7.67490        -0.016056     -0.009674     -0.035663
      4.39568      0.84595      7.67490         0.006409     -0.034880     -0.080467
      7.32614      0.84595      7.67490         0.013173      0.006066     -0.011045
      2.93046      3.38380      7.67490        -0.026584      0.022768     -0.080686
      5.86091      3.38380      7.67490         0.016005      0.008993     -0.054143
      8.79137      3.38380      7.67490         0.000294     -0.015908     -0.012069
      4.39568      5.92165      7.67490         0.011954      0.008400     -0.011044
      7.32614      5.92165      7.67490        -0.013436      0.008182     -0.011781
     10.25659      5.92165      7.67490         0.002964      0.001621      0.037452
      8.79137      1.69254     10.05636         0.014259      0.081319      0.192227
      2.93602      1.69511     10.03837        -0.160518     -0.093071     -0.232408
      5.85534      1.69511     10.03837         0.013977     -0.029743     -0.103911
     10.25423      4.23112     10.05516         0.024759     -0.057093      0.057992
      4.39568      4.22332     10.03837        -0.018627      0.026221     -0.102868
      7.32851      4.23112     10.05516        -0.051813     -0.030110     -0.020488
     11.72126      6.76728     10.05636        -0.018681     -0.010683      0.028498
      5.86147      6.76728     10.05636         0.076939     -0.028599      0.191580
      8.79137      6.76486     10.05516        -0.036565      0.050230      0.057838
      0.00000      0.00000     12.42937        -0.049428     -0.029090     -0.039213
      2.95945      0.04653     12.45339        -0.212698     -1.099643     -0.472462
      5.83191      0.04653     12.45339         0.253403     -0.379412     -0.281239
      1.52003      2.53970     12.45339        -1.072255      0.366558     -0.480934
      7.27134      2.53970     12.45339         1.070701     -0.358383     -0.333160
      2.95626      5.02732     12.45339        -0.201943      0.413411     -0.282720
      5.83511      5.02732     12.45339         0.225314      1.107995     -0.334336
      8.79137      5.07570     12.43676         0.071770      0.042017     -0.009238
      4.39568      2.53785     12.21669         0.072818      0.040175      2.362486
      5.37768      3.10543     13.49743        -0.005649     -0.002806     -0.018505
      3.26769      1.89205     13.72722        -0.001903     -0.005291     -0.039485
      3.68767      2.14450     14.57143         0.010414      0.001190      0.007161
    total drift:                               -0.015299     -0.002731     -0.086530

  FREE ENERGIE OF THE ION-ELECTRON SYSTEM (eV)
  free  energy   TOTEN  =      -114.64231665 eV

  energy  without entropy=     -114.64231665  energy(sigma->0) =     -114.64231665

 stress matrix after NEB project (eV)
     -2.89477     -0.01229      0.48506
     -0.01230     -2.90129      0.26577
      0.48506      0.26577     -0.87151
  FORCES: max atom, RMS     0.039884    0.007397
  FORCE total and by dimension    0.046196    0.039485
  Stress total and by dimension    4.262490    2.901288
|           W    W    AA    RRRRR   N    N  II  N    N   GGGG   !!!           |
|           W    W   A  A   R    R  NN   N  II  NN   N  G    G  !!!           |
|           W    W  A    A  R    R  N N  N  II  N N  N  G       !!!           |
|           W WW W  AAAAAA  RRRRR   N  N N  II  N  N N  G  GGG   !            |
|           WW  WW  A    A  R   R   N   NN  II  N   NN  G    G                |
|           W    W  A    A  R    R  N    N  II  N    N   GGGG   !!!           |
|     Tetrahedron method does not include variations of the Fermi             |
|     occupations, so forces and stress will be inaccurate. We suggest        |
|     using a different smearing scheme ISMEAR = 1 or 2 for metals in         |
|     relaxations.                                                            |

 total charge

# of ion       s       p       d       tot
    1        0.420   0.201   9.177   9.798
    2        0.415   0.205   9.177   9.796
    3        0.415   0.204   9.177   9.796
    4        0.415   0.205   9.177   9.796
    5        0.419   0.202   9.176   9.797
    6        0.417   0.203   9.177   9.797
    7        0.415   0.204   9.177   9.796
    8        0.416   0.203   9.177   9.797
    9        0.415   0.203   9.178   9.796
   10        0.409   0.267   9.165   9.842
   11        0.408   0.269   9.166   9.843
   12        0.408   0.270   9.162   9.840
   13        0.408   0.269   9.166   9.843
   14        0.404   0.270   9.168   9.841
   15        0.404   0.269   9.164   9.837
   16        0.408   0.270   9.162   9.840
   17        0.404   0.269   9.164   9.837
   18        0.400   0.272   9.163   9.835
   19        0.396   0.274   9.161   9.831
   20        0.443   0.297   9.138   9.877
   21        0.435   0.303   9.135   9.873
   22        0.396   0.275   9.165   9.836
   23        0.435   0.303   9.135   9.873
   24        0.402   0.271   9.167   9.840
   25        0.406   0.264   9.168   9.838
   26        0.396   0.274   9.161   9.831
   27        0.396   0.275   9.165   9.836
   28        0.419   0.196   9.181   9.797
   29        0.387   0.242   9.183   9.812
   30        0.417   0.212   9.180   9.808
   31        0.387   0.243   9.183   9.813
   32        0.386   0.247   9.181   9.815
   33        0.417   0.212   9.180   9.809
   34        0.386   0.247   9.181   9.815
   35        0.418   0.197   9.179   9.794
   36        0.519   0.737   3.582   4.838
   37        1.597   3.341   0.000   4.938
   38        1.563   3.520   0.000   5.083
   39        0.608   0.119   0.000   0.727
tot         18.606  16.302 324.500 359.408

 BZINTS: Fermi energy:    0.236489;  403.000000 electrons
         Band energy:-0.163531E+04;  BLOECHL correction:   -0.023570