 vasp.6.2.0 18Jan21 (build Jun 12 2021 23:27:24) complex

 executed on             LinuxIFC date 2022.05.30  16:00:49

 INCAR:
   ISMEAR = -5
   SIGMA = 0.1
   ISPIN = 1
   EDIFF = 1.d-5
   EDIFFG = -0.01
   NSW = 0
   NELM = 150
   ENCUT = 500
   ISIF = 2
   IBRION = 2
   LREAL = Auto
   ALGO = Fast
   ICHARG = 11
   LORBIT = 10
   LCHARG = .F.
   LWAVE = .F.

 POTCAR:    PAW_PBE Au 04Oct2007
 POTCAR:    PAW_PBE Ni 02Aug2007
 POTCAR:    PAW_PBE C 08Apr2002
 POTCAR:    PAW_PBE O 08Apr2002
 POTCAR:    PAW_PBE H 15Jun2001
|           W    W    AA    RRRRR   N    N  II  N    N   GGGG   !!!           |
|           W    W   A  A   R    R  NN   N  II  NN   N  G    G  !!!           |
|           W    W  A    A  R    R  N N  N  II  N N  N  G       !!!           |
|           W WW W  AAAAAA  RRRRR   N  N N  II  N  N N  G  GGG   !            |
|           WW  WW  A    A  R   R   N   NN  II  N   NN  G    G                |
|           W    W  A    A  R    R  N    N  II  N    N   GGGG   !!!           |
|     For optimal performance we recommend to set                             |
|       NCORE = 2 up to number-of-cores-per-socket                            |
|     This setting can greatly improve the performance of VASP for DFT.       |
|     The default, NCORE=1 might be grossly inefficient on modern             |
|     multi-core architectures or massively parallel machines. Do your        |
|     Unfortunately you need to use the default for GW and RPA                |
|     calculations (for HF NCORE is supported but not extensively tested      |
|     yet).                                                                   |

 POTCAR:    PAW_PBE Au 04Oct2007
   VRHFIN =Au: s1d10

   TITEL  = PAW_PBE Au 04Oct2007
   POMASS =  196.966; ZVAL   =   11.000    mass and valenz
   ENMAX  =  229.943; ENMIN  =  172.457 eV

 POTCAR:    PAW_PBE Ni 02Aug2007
   VRHFIN =Ni:

   TITEL  = PAW_PBE Ni 02Aug2007
   POMASS =   58.690; ZVAL   =   10.000    mass and valenz
   ENMAX  =  269.532; ENMIN  =  202.149 eV

 POTCAR:    PAW_PBE C 08Apr2002
   VRHFIN =C: s2p2

   TITEL  = PAW_PBE C 08Apr2002
   POMASS =   12.011; ZVAL   =    4.000    mass and valenz
   ENMAX  =  400.000; ENMIN  =  300.000 eV

 POTCAR:    PAW_PBE O 08Apr2002
   VRHFIN =O: s2p4

   TITEL  = PAW_PBE O 08Apr2002
   POMASS =   16.000; ZVAL   =    6.000    mass and valenz
   ENMAX  =  400.000; ENMIN  =  300.000 eV

 POTCAR:    PAW_PBE H 15Jun2001
   VRHFIN =H: ultrasoft test

   TITEL  = PAW_PBE H 15Jun2001
   POMASS =    1.000; ZVAL   =    1.000    mass and valenz
   ENMAX  =  250.000; ENMIN  =  200.000 eV

 Optimization of the real space projectors (new method)

 maximal supplied QI-value         = 15.12
 optimisation between [QCUT,QGAM] = [ 11.34, 22.83] = [ 36.00,145.93] Ry
 Optimized for a Real-space Cutoff    1.39 Angstroem

   l    n(q)    QCUT    max X(q) W(low)/X(q) W(high)/X(q)  e(spline)
   2      9    11.338    60.898    0.39E-03    0.42E-03    0.21E-06
   2      9    11.338    58.894    0.40E-03    0.42E-03    0.22E-06
   0      9    11.338   109.617    0.13E-03    0.20E-04    0.13E-06
   0      9    11.338    75.026    0.13E-03    0.20E-04    0.13E-06
   1      9    11.338    16.344    0.33E-04    0.24E-03    0.18E-06
   1      9    11.338    10.160    0.26E-04    0.19E-03    0.15E-06
 Optimization of the real space projectors (new method)

[...]

   l    n(q)    QCUT    max X(q) W(low)/X(q) W(high)/X(q)  e(spline)
   0      7    11.387    20.381    0.39E-03    0.13E-02    0.15E-06
   0      7    11.387    15.268    0.42E-03    0.14E-02    0.17E-06
   1      6    11.387     5.964    0.41E-03    0.11E-02    0.17E-06
   1      6    11.387     5.382    0.39E-03    0.87E-03    0.15E-06
 Optimization of the real space projectors (new method)

 maximal supplied QI-value         = 34.20
 optimisation between [QCUT,QGAM] = [ 11.29, 22.57] = [ 35.68,142.71] Ry
 Optimized for a Real-space Cutoff    1.16 Angstroem

   l    n(q)    QCUT    max X(q) W(low)/X(q) W(high)/X(q)  e(spline)
   0      8    11.287    19.460    0.40E-03    0.73E-03    0.16E-06
   0      8    11.287    12.209    0.38E-03    0.70E-03    0.15E-06
   1      7    11.287     4.655    0.22E-03    0.25E-04    0.22E-06
  PAW_PBE Au 04Oct2007                  :
  PAW_PBE Ni 02Aug2007                  :
  PAW_PBE C 08Apr2002                   :
  PAW_PBE O 08Apr2002                   :
  PAW_PBE H 15Jun2001                   :

 POSCAR: Au-Ni-COH
  positions in direct lattice
  velocities in cartesian coordinates
 exchange correlation table for  LEXCH =        8
   RHO(1)=    0.500       N(1)  =     2000
   RHO(2)=  100.500       N(2)  =     4000

 VTST: version 3.2, (02/03/18)

 CHAIN: initializing optimizer

 OPT: Using VASP Conjugate-Gradient optimizer
 CHAIN: Read ICHAIN            0

 POSCAR: Au-Ni-COH
  positions in direct lattice
  velocities in cartesian coordinates

 ion  position               nearest neighbor table
   1  0.000  0.000  0.197-  16 2.94  12 2.94   6 2.94   8 2.94   7 2.94   3 2.94  10 2.94   4 2.94
                             2 2.94
   2  0.333  0.000  0.197-   9 2.94  11 2.94  17 2.94  10 2.94   8 2.94   4 2.94   5 2.94   1 2.94
                             3 2.94
   3  0.667  0.000  0.197-   7 2.94  18 2.94  12 2.94   1 2.94  11 2.94   5 2.94   6 2.94   9 2.94
                             2 2.94
   4  0.000  0.333  0.197-  10 2.94   6 2.94   5 2.94  13 2.94   2 2.94  15 2.94   9 2.94   1 2.94
                             7 2.94
   5  0.333  0.333  0.197-  13 2.94   7 2.94  11 2.94   4 2.94   2 2.94  14 2.94   3 2.94   8 2.94
                             6 2.94
   6  0.667  0.333  0.197-  15 2.94  14 2.94   1 2.94  12 2.94   4 2.94   9 2.94   8 2.94   3 2.94
                             5 2.94
   7  0.000  0.667  0.197-  18 2.94   3 2.94  16 2.94   5 2.94   1 2.94  13 2.94   8 2.94   4 2.94
                             9 2.94
   8  0.333  0.667  0.197-   9 2.94  17 2.94   1 2.94   2 2.94  14 2.94  16 2.94   6 2.94   7 2.94
                             5 2.94
   9  0.667  0.667  0.197-   2 2.94   8 2.94  17 2.94   6 2.94  15 2.94   4 2.94   3 2.94  18 2.94
                             7 2.94
  10  0.111  0.111  0.287-  20 2.93  26 2.93  19 2.93  11 2.94  17 2.94   2 2.94   4 2.94   1 2.94
                            12 2.94  16 2.94  13 2.94  15 2.94
  11  0.444  0.111  0.287-  20 2.92  21 2.92  27 2.93  13 2.94   2 2.94  10 2.94  17 2.94   5 2.94
                             3 2.94  18 2.94  14 2.94  12 2.94
  12  0.778  0.111  0.287-  21 2.93  25 2.93  19 2.93  16 2.94  18 2.94   1 2.94  14 2.94  15 2.94
                             3 2.94   6 2.94  10 2.94  11 2.94
  13  0.111  0.444  0.287-  23 2.92  20 2.92  22 2.93   5 2.94  18 2.94  11 2.94   7 2.94   4 2.94
                            16 2.94  10 2.94  14 2.94  15 2.94
  14  0.444  0.444  0.287-  21 2.92  23 2.92  24 2.93  15 2.94   6 2.94  12 2.94   8 2.94  17 2.94
                             5 2.94  16 2.94  13 2.94  11 2.94
  15  0.778  0.444  0.287-  24 2.92  22 2.92  19 2.93  14 2.94   6 2.94  17 2.94  12 2.94   9 2.94
                             4 2.94  10 2.94  13 2.94  18 2.94
  16  0.111  0.778  0.287-  23 2.93  25 2.93  26 2.93  18 2.94  12 2.94   7 2.94   1 2.94   8 2.94
                            13 2.94  10 2.94  14 2.94  17 2.94
  17  0.444  0.778  0.287-  27 2.92  24 2.92  26 2.93   9 2.94  15 2.94   2 2.94  10 2.94  11 2.94
                             8 2.94  14 2.94  16 2.94  18 2.94
  18  0.778  0.778  0.287-  22 2.92  27 2.92  25 2.93  16 2.94   7 2.94  13 2.94  12 2.94   3 2.94
                            11 2.94   9 2.94  15 2.94  17 2.94
  19  0.889  0.222  0.376-  10 2.93  12 2.93  15 2.93  26 2.93  25 2.93  24 2.94  22 2.94  21 2.95
                            20 2.95  28 2.95  32 2.96  31 2.96
  20  0.223  0.223  0.376-  36 2.70  29 2.91  31 2.91  11 2.92  13 2.92  23 2.92  21 2.92  10 2.93
                            27 2.95  22 2.95  26 2.95  19 2.95
  21  0.554  0.223  0.376-  36 2.70  30 2.91  32 2.91  14 2.92  11 2.92  20 2.92  23 2.92  12 2.93
                            27 2.95  24 2.95  25 2.95  19 2.95
  22  0.888  0.556  0.376-  18 2.92  15 2.92  24 2.92  27 2.92  13 2.93  25 2.94  19 2.94  33 2.94
                            31 2.94  23 2.95  20 2.95  35 2.96
  23  0.223  0.554  0.376-  36 2.70  33 2.91  34 2.91  13 2.92  14 2.92  20 2.92  21 2.92  16 2.93
                            22 2.95  24 2.95  25 2.95  26 2.95
  24  0.556  0.556  0.376-  15 2.92  17 2.92  27 2.92  22 2.92  14 2.93  26 2.94  19 2.94  32 2.94
                            34 2.94  21 2.95  23 2.95  35 2.96
  25  0.889  0.889  0.376-  16 2.93  12 2.93  18 2.93  19 2.93  26 2.93  22 2.94  27 2.94  23 2.95
                            21 2.95  28 2.95  33 2.96  30 2.96
  26  0.222  0.889  0.376-  10 2.93  16 2.93  17 2.93  19 2.93  25 2.93  27 2.94  24 2.94  20 2.95
                            23 2.95  28 2.95  29 2.96  34 2.96
  27  0.556  0.888  0.376-  17 2.92  18 2.92  24 2.92  22 2.92  11 2.93  26 2.94  25 2.94  29 2.94
                            30 2.94  20 2.95  21 2.95  35 2.96
  28  0.000  0.000  0.467-  25 2.95  19 2.95  26 2.95  34 2.97  32 2.97  33 2.97  30 2.97  31 2.97
                            29 2.97
  29  0.334  0.007  0.466-  30 2.87  31 2.88  36 2.89  20 2.91  27 2.94  26 2.96  35 2.97  28 2.97
                            34 3.06
  30  0.660  0.007  0.466-  29 2.87  32 2.88  36 2.89  21 2.91  27 2.94  25 2.96  35 2.97  28 2.97
                            33 3.06
  31  0.007  0.334  0.466-  33 2.87  29 2.88  36 2.89  20 2.91  22 2.94  19 2.96  35 2.97  28 2.97
                            32 3.06
  32  0.660  0.334  0.466-  34 2.87  30 2.88  36 2.89  21 2.91  24 2.94  19 2.96  35 2.97  28 2.97
                            31 3.06
  33  0.007  0.660  0.466-  31 2.87  34 2.88  36 2.89  23 2.91  22 2.94  25 2.96  35 2.97  28 2.97
                            30 3.06
  34  0.334  0.660  0.466-  32 2.87  33 2.88  36 2.89  23 2.91  24 2.94  26 2.96  35 2.97  28 2.97
                            29 3.06
  35  0.667  0.667  0.467-  24 2.96  27 2.96  22 2.96  29 2.97  34 2.97  32 2.97  31 2.97  30 2.97
                            33 2.97
  36  0.333  0.333  0.455-  37 1.68  20 2.70  23 2.70  21 2.70  33 2.89  31 2.89  29 2.89  30 2.89
                            34 2.89  32 2.89
  37  0.333  0.333  0.517-  38 1.24  36 1.68
  38  0.333  0.333  0.564-  39 0.97  37 1.24
  39  0.333  0.333  0.600-  38 0.97

  LATTYP: Found a hexagonal cell.
 ALAT       =     8.8135128021
 C/A-ratio  =     3.0356784858

  Lattice vectors:

 A1 = (  -4.4067569092,  -7.6327256898,   0.0000000000)
 A2 = (   8.8135128021,   0.0000000000,   0.0000000000)
 A3 = (   0.0000000000,   0.0000000000,  26.7549911976)

Analysis of symmetry for initial positions (statically):
 Subroutine PRICEL returns:
 Original cell was already a primitive cell.

 Routine SETGRP: Setting up the symmetry group for a
 hexagonal supercell.

 Subroutine GETGRP returns: Found  6 space group operations
 (whereof  6 operations were pure point group operations)
 out of a pool of 24 trial point group operations.

The static configuration has the point symmetry C_3v.

Analysis of symmetry for dynamics (positions and initial velocities):
[...]
     41      -4.8879      2.00000
     42      -4.8603      2.00000
     43      -4.8477      2.00000
     44      -4.7921      2.00000
     45      -4.7156      2.00000
     46      -4.7035      2.00000
     47      -4.6490      2.00000
     48      -4.6245      2.00000
     49      -4.6044      2.00000
     50      -4.5980      2.00000
     51      -4.4900      2.00000
     52      -4.4757      2.00000
     53      -4.4392      2.00000
     54      -4.4344      2.00000
     55      -4.4261      2.00000
     56      -4.4194      2.00000
     57      -4.3981      2.00000
     58      -4.3600      2.00000
     59      -4.3215      2.00000
     60      -4.2944      2.00000
[...]
    238       5.2166      0.00000
    239       5.2929      0.00000
    240       5.3716      0.00000
    241       5.5436      0.00000
    242       5.6207      0.00000
    243       5.8810      0.00000
    244       5.8934      0.00000
    245       5.9792      0.00000
    246       6.0341      0.00000
    247       6.0961      0.00000
    248       6.1023      0.00000
    249       6.1351      0.00000
    250       6.1973      0.00000
    251       6.3033      0.00000
    252       6.3612      0.00000

 soft charge-density along one line, spin component           1
         0         1         2         3         4         5         6         7         8         9
 total charge-density along one line

------------------------ aborting loop because EDIFF is reached ----------------------------------------

 total charge

# of ion       s       p       d       tot
    1        0.540   0.241   8.763   9.545
    2        0.545   0.241   8.765   9.550
    3        0.545   0.241   8.765   9.550
    4        0.545   0.241   8.765   9.550
    5        0.540   0.240   8.767   9.547
    6        0.545   0.241   8.765   9.550
    7        0.545   0.241   8.765   9.550
    8        0.545   0.241   8.765   9.550
    9        0.541   0.242   8.764   9.548
   10        0.521   0.307   8.773   9.601
   11        0.521   0.308   8.775   9.603
   12        0.521   0.307   8.773   9.601
   13        0.521   0.308   8.775   9.603
   14        0.521   0.308   8.775   9.603
   15        0.516   0.310   8.772   9.599
   16        0.521   0.307   8.773   9.601
   17        0.516   0.310   8.772   9.599
   18        0.516   0.310   8.772   9.599
   19        0.520   0.302   8.775   9.596
   20        0.535   0.329   8.757   9.621
   21        0.535   0.329   8.757   9.621
   22        0.517   0.310   8.773   9.600
   23        0.535   0.329   8.757   9.621
   24        0.517   0.310   8.773   9.600
   25        0.520   0.302   8.775   9.596
   26        0.520   0.302   8.775   9.596
   27        0.517   0.310   8.773   9.600
   28        0.538   0.231   8.764   9.533
   29        0.541   0.238   8.773   9.552
   30        0.541   0.238   8.773   9.552
   31        0.541   0.238   8.773   9.552
   32        0.541   0.238   8.773   9.552
   33        0.541   0.238   8.773   9.552
   34        0.541   0.238   8.773   9.552
   35        0.541   0.229   8.767   9.537
   36        0.444   0.552   8.414   9.410
   37        0.958   1.387   0.000   2.346
   38        1.536   3.753   0.000   5.289
   39        0.550   0.129   0.000   0.679
tot         22.091  15.474 315.340 352.906

  FORCE on cell =-STRESS in cart. coord.  units (eV):
  Direction    XX          YY          ZZ          XY          YZ          ZX
  Alpha Z   857.93261   857.93261   857.93261
  Ewald  190042.12752190042.12799************    -0.00031    -0.00008    -0.00011
  Hartree198822.94027198822.94029************     0.00001    -0.00002    -0.00002
  E(xc)   -1830.87358 -1830.87373 -1835.77484     0.00013    -0.00002    -0.00003
  Local  ************************400877.92681     0.00239    -0.00000    -0.00006
  n-local  -112.07697   -70.37622   -69.52136    21.48583    -1.32920     1.20817
  augment  2556.43897  2556.44076  2552.64714    -0.00155     0.00000     0.00005
  Kinetic  5643.98063  5647.62940  5623.81900     3.64200     0.61470     0.08058
  Fock        0.00000     0.00000     0.00000     0.00000     0.00000     0.00000
  Total     -18.97260   -18.97260     1.62751    -0.00000     0.00000    -0.00000
  in kB     -16.88900   -16.88900     1.44877    -0.00000     0.00000    -0.00000

 VOLUME and BASIS-vectors are now :
  energy-cutoff  :      500.00
  volume of cell :     1799.84
      direct lattice vectors                 reciprocal lattice vectors
     8.813512802  0.000000000  0.000000000     0.113462137 -0.065507406  0.000000000
     4.406756909  7.632725690  0.000000000     0.000000000  0.131014796  0.000000000
     0.000000000  0.000000000 26.754991198     0.000000000  0.000000000  0.037376204

  length of vectors
     8.813512802  8.813512802 26.754991198     0.131014796  0.131014796  0.037376204

 FORCES acting on ions
    electron-ion (+dipol)            ewald-force                    non-local-force                 convergence-correction
   -.201E-04 -.165E-04 0.285E+04   0.519E-04 0.434E-04 -.285E+04   0.596E-18 0.562E-18 -.769E+00   -.261E-03 -.164E-03 -.402E+00
   0.552E+00 0.570E+00 0.285E+04   -.603E+00 -.606E+00 -.285E+04   0.426E-02 -.202E-01 -.251E+00   0.446E-01 0.581E-01 -.411E+00
   -.552E+00 0.570E+00 0.285E+04   0.603E+00 -.606E+00 -.285E+04   -.426E-02 -.202E-01 -.251E+00   -.443E-01 0.601E-01 -.411E+00
   0.770E+00 0.193E+00 0.285E+04   -.826E+00 -.219E+00 -.285E+04   -.153E-01 0.138E-01 -.251E+00   0.727E-01 0.954E-02 -.411E+00
   0.109E-04 -.218E-04 0.286E+04   0.951E-04 0.172E-05 -.286E+04   -.233E-18 -.743E-18 -.472E+00   0.434E-02 0.264E-02 -.434E+00
   -.770E+00 0.193E+00 0.285E+04   0.826E+00 -.219E+00 -.285E+04   0.153E-01 0.138E-01 -.251E+00   -.743E-01 0.105E-01 -.410E+00
   0.218E+00 -.763E+00 0.285E+04   -.223E+00 0.825E+00 -.285E+04   -.196E-01 0.639E-02 -.251E+00   0.300E-01 -.684E-01 -.411E+00
   -.218E+00 -.763E+00 0.285E+04   0.223E+00 0.825E+00 -.285E+04   0.196E-01 0.639E-02 -.251E+00   -.281E-01 -.696E-01 -.410E+00
   0.196E-04 -.415E-04 0.285E+04   0.166E-03 -.201E-04 -.285E+04   0.365E-17 0.425E-17 -.413E+00   -.462E-02 -.239E-02 -.430E+00
   0.509E+01 0.294E+01 0.101E+04   -.484E+01 -.279E+01 -.101E+04   -.188E+00 -.109E+00 -.530E+00   -.224E-01 -.131E-01 -.357E+00
   0.154E-04 0.682E+01 0.102E+04   0.147E-03 -.697E+01 -.102E+04   0.201E-08 0.302E-01 -.442E+00   0.417E-02 0.759E-01 -.479E+00
   -.509E+01 0.294E+01 0.101E+04   0.484E+01 -.279E+01 -.101E+04   0.188E+00 -.109E+00 -.530E+00   0.208E-01 -.115E-01 -.357E+00
   0.591E+01 -.341E+01 0.102E+04   -.604E+01 0.349E+01 -.102E+04   0.261E-01 -.151E-01 -.442E+00   0.681E-01 -.341E-01 -.479E+00
   -.591E+01 -.341E+01 0.102E+04   0.604E+01 0.349E+01 -.102E+04   -.261E-01 -.151E-01 -.442E+00   -.601E-01 -.348E-01 -.478E+00
   0.310E-04 0.174E+01 0.101E+04   0.237E-03 -.169E+01 -.101E+04   -.235E-08 -.353E-01 -.319E+00   -.262E-02 -.412E-01 -.397E+00
   -.214E-04 -.587E+01 0.101E+04   0.163E-03 0.559E+01 -.101E+04   0.145E-07 0.218E+00 -.530E+00   0.190E-03 0.237E-01 -.357E+00
   0.151E+01 -.872E+00 0.101E+04   -.146E+01 0.846E+00 -.101E+04   -.306E-01 0.177E-01 -.319E+00   -.368E-01 0.188E-01 -.397E+00
   -.151E+01 -.871E+00 0.101E+04   0.146E+01 0.846E+00 -.101E+04   0.306E-01 0.177E-01 -.319E+00   0.370E-01 0.211E-01 -.397E+00
   -.403E-04 0.376E+01 -.874E+03   0.525E-04 -.370E+01 0.873E+03   0.275E-08 0.412E-01 0.499E+00   -.461E-02 -.121E+00 -.169E+00
   0.453E+02 0.261E+02 -.808E+03   -.444E+02 -.257E+02 0.809E+03   -.724E+00 -.418E+00 -.822E+00   -.126E+00 -.729E-01 -.253E+00
   -.453E+02 0.261E+02 -.808E+03   0.444E+02 -.257E+02 0.809E+03   0.724E+00 -.418E+00 -.822E+00   0.128E+00 -.716E-01 -.253E+00
   0.173E+02 -.998E+01 -.858E+03   -.175E+02 0.101E+02 0.857E+03   0.258E+00 -.149E+00 0.520E+00   -.346E-01 0.172E-01 -.134E+00
   -.154E-04 -.523E+02 -.808E+03   0.146E-03 0.513E+02 0.809E+03   0.557E-07 0.836E+00 -.822E+00   0.193E-02 0.147E+00 -.253E+00
   -.173E+02 -.998E+01 -.858E+03   0.175E+02 0.101E+02 0.857E+03   -.258E+00 -.149E+00 0.520E+00   0.278E-01 0.161E-01 -.134E+00
   -.326E+01 -.188E+01 -.874E+03   0.321E+01 0.185E+01 0.873E+03   -.357E-01 -.206E-01 0.499E+00   0.102E+00 0.586E-01 -.170E+00
   0.326E+01 -.188E+01 -.874E+03   -.321E+01 0.185E+01 0.873E+03   0.357E-01 -.206E-01 0.499E+00   -.106E+00 0.564E-01 -.169E+00
   0.971E-05 0.200E+02 -.858E+03   0.196E-03 -.202E+02 0.857E+03   0.198E-07 0.298E+00 0.520E+00   -.297E-02 -.386E-01 -.134E+00
   -.140E-04 -.152E-04 -.275E+04   0.307E-04 0.366E-04 0.275E+04   0.483E-17 0.702E-17 0.844E-01   -.233E-03 -.154E-03 0.153E+00
   0.497E+02 0.835E+02 -.272E+04   -.497E+02 -.834E+02 0.272E+04   -.123E+00 -.234E+00 0.472E+00   -.793E-01 -.135E+00 0.191E+00
   -.497E+02 0.835E+02 -.272E+04   0.497E+02 -.834E+02 0.272E+04   0.123E+00 -.234E+00 0.472E+00   0.799E-01 -.133E+00 0.191E+00
   0.972E+02 0.132E+01 -.272E+04   -.971E+02 -.132E+01 0.272E+04   -.265E+00 0.105E-01 0.472E+00   -.156E+00 -.123E-02 0.191E+00
   -.972E+02 0.132E+01 -.272E+04   0.971E+02 -.132E+01 0.272E+04   0.265E+00 0.105E-01 0.472E+00   0.155E+00 -.508E-03 0.190E+00
   0.474E+02 -.848E+02 -.272E+04   -.474E+02 0.847E+02 0.272E+04   -.141E+00 0.224E+00 0.472E+00   -.750E-01 0.136E+00 0.191E+00
   -.474E+02 -.848E+02 -.272E+04   0.474E+02 0.847E+02 0.272E+04   0.141E+00 0.224E+00 0.472E+00   0.769E-01 0.134E+00 0.190E+00
   0.344E-04 -.254E-04 -.276E+04   0.142E-03 -.520E-04 0.276E+04   0.209E-17 0.100E-16 0.391E-01   -.464E-02 -.239E-02 0.205E+00
   -.424E-04 -.211E-04 -.211E+04   0.105E-03 0.985E-05 0.211E+04   -.495E-18 -.113E-17 0.263E+01   0.104E-01 0.638E-02 0.124E+00
   -.739E-05 -.789E-04 -.112E+04   0.177E-04 0.115E-05 0.110E+04   -.227E-17 -.934E-18 0.218E+02   0.140E-02 0.855E-03 0.131E+00
   0.245E-03 -.895E-04 -.182E+04   0.654E-05 0.615E-06 0.182E+04   0.310E-18 0.358E-18 -.712E+01   0.393E-02 0.241E-02 0.146E+00
   0.630E-05 -.142E-04 -.342E+03   0.301E-06 0.457E-07 0.351E+03   -.541E-19 -.178E-20 -.840E+01   0.205E-03 0.125E-03 0.188E-01
   -.496E-03 -.945E-03 0.212E+01   -.427E-14 -.142E-12 -.762E-11   -.250E-15 0.834E-17 0.540E+01   0.535E-02 0.413E-02 -.718E+01

 POSITION                                       TOTAL-FORCE (eV/Angst)
      0.00000      0.00000      5.28038         0.000000      0.000000     -0.005205
      2.93784      0.00000      5.28038        -0.001347      0.003227     -0.047773
      5.87568      0.00000      5.28038         0.001347      0.003227     -0.047773
      1.46892      2.54424      5.28038         0.002121     -0.002780     -0.047773
      4.40676      2.54424      5.28038         0.000000      0.000000     -0.077624
      7.34459      2.54424      5.28038        -0.002121     -0.002780     -0.047773
      2.93784      5.08848      5.28038         0.003469     -0.000447     -0.047773
      5.87568      5.08848      5.28038        -0.003469     -0.000447     -0.047773
      8.81351      5.08848      5.28038         0.000000     -0.000000     -0.035041
      1.46892      0.84808      7.67911         0.040051      0.023124      0.138179
      4.40676      0.84808      7.67911        -0.000000     -0.044140      0.057438
      7.34459      0.84808      7.67911        -0.040051      0.023124      0.138179
      2.93784      3.39232      7.67911        -0.038227      0.022070      0.057438
      5.87568      3.39232      7.67911         0.038227      0.022070      0.057438
      8.81351      3.39232      7.67911        -0.000000     -0.025614      0.130495
      4.40676      5.93656      7.67911        -0.000000     -0.046247      0.138179
      7.34459      5.93656      7.67911        -0.022182      0.012807      0.130495
     10.28243      5.93656      7.67911         0.022182      0.012807      0.130495
      8.81351      1.69394     10.07055        -0.000000     -0.020148     -0.035509
      2.94670      1.70128     10.05847         0.008048      0.004646     -0.106167
      5.86681      1.70128     10.05847        -0.008048      0.004646     -0.106167
     10.27376      4.24541     10.05945         0.020098     -0.011604     -0.021438
      4.40676      4.23017     10.05847        -0.000000     -0.009293     -0.106167
      7.35327      4.24541     10.05945        -0.020098     -0.011604     -0.021438
     11.75328      6.78576     10.07055         0.017449      0.010074     -0.035509
      5.87375      6.78576     10.07055        -0.017449      0.010074     -0.035509
      8.81351      6.77463     10.05945         0.000000      0.023207     -0.021438
      0.00000      0.00000     12.48855         0.000000      0.000000     -0.092473
      2.97006      0.05170     12.45862        -0.151062     -0.291519     -0.054353
      5.84345      0.05170     12.45862         0.151062     -0.291519     -0.054353
      1.52981      2.54630     12.45862        -0.327993      0.014936     -0.054353
      7.28371      2.54630     12.45862         0.327993      0.014936     -0.054353
      2.96650      5.03473     12.45862        -0.176932      0.276582     -0.054353
      5.84701      5.03473     12.45862         0.176932      0.276582     -0.054353
      8.81351      5.08848     12.49203         0.000000     -0.000000     -0.086526
      4.40676      2.54424     12.16149         0.000000     -0.000000      0.415052
      4.40676      2.54424     13.83741         0.000000      0.000000     -0.006322
      4.40676      2.54424     15.08094         0.000000      0.000000     -0.001875
      4.40676      2.54424     16.04736         0.000000      0.000000      0.013773
    total drift:                                0.004852      0.003184      0.346853

  FREE ENERGIE OF THE ION-ELECTRON SYSTEM (eV)
  free  energy   TOTEN  =      -128.65121731 eV

  energy  without entropy=     -128.65121731  energy(sigma->0) =     -128.65121731

 stress matrix after NEB project (eV)
    -18.97260     -0.00000     -0.00000
     -0.00000    -18.97260      0.00000
      0.00000      0.00000      1.62751
  FORCES: max atom, RMS     0.013773    0.002445
  FORCE total and by dimension    0.015270    0.013773
  Stress total and by dimension   26.880618   18.972597
|           W    W    AA    RRRRR   N    N  II  N    N   GGGG   !!!           |
|           W    W   A  A   R    R  NN   N  II  NN   N  G    G  !!!           |
|           W    W  A    A  R    R  N N  N  II  N N  N  G       !!!           |
|           W WW W  AAAAAA  RRRRR   N  N N  II  N  N N  G  GGG   !            |
|           WW  WW  A    A  R   R   N   NN  II  N   NN  G    G                |
|           W    W  A    A  R    R  N    N  II  N    N   GGGG   !!!           |
|     Tetrahedron method does not include variations of the Fermi             |
|     occupations, so forces and stress will be inaccurate. We suggest        |
|     using a different smearing scheme ISMEAR = 1 or 2 for metals in         |
|     relaxations.                                                            |

 total charge

# of ion       s       p       d       tot
    1        0.540   0.241   8.763   9.545
    2        0.545   0.241   8.765   9.550
    3        0.545   0.241   8.765   9.550
    4        0.545   0.241   8.765   9.550
    5        0.540   0.240   8.767   9.547
    6        0.545   0.241   8.765   9.550
    7        0.545   0.241   8.765   9.550
    8        0.545   0.241   8.765   9.550
    9        0.541   0.242   8.764   9.548
   10        0.521   0.307   8.773   9.601
   11        0.521   0.308   8.775   9.603
   12        0.521   0.307   8.773   9.601
   13        0.521   0.308   8.775   9.603
   14        0.521   0.308   8.775   9.603
   15        0.516   0.310   8.772   9.599
   16        0.521   0.307   8.773   9.601
   17        0.516   0.310   8.772   9.599
   18        0.516   0.310   8.772   9.599
   19        0.520   0.302   8.775   9.596
   20        0.535   0.329   8.757   9.621
   21        0.535   0.329   8.757   9.621
   22        0.517   0.310   8.773   9.600
   23        0.535   0.329   8.757   9.621
   24        0.517   0.310   8.773   9.600
   25        0.520   0.302   8.775   9.596
   26        0.520   0.302   8.775   9.596
   27        0.517   0.310   8.773   9.600
   28        0.538   0.231   8.764   9.533
   29        0.541   0.238   8.773   9.552
   30        0.541   0.238   8.773   9.552
   31        0.541   0.238   8.773   9.552
   32        0.541   0.238   8.773   9.552
   33        0.541   0.238   8.773   9.552
   34        0.541   0.238   8.773   9.552
   35        0.541   0.229   8.767   9.537
   36        0.444   0.552   8.414   9.410
   37        0.958   1.387   0.000   2.346
   38        1.536   3.753   0.000   5.289
   39        0.550   0.129   0.000   0.679
tot         22.091  15.474 315.340 352.906

 BZINTS: Fermi energy:    0.352213;  406.000000 electrons
         Band energy:-0.144216E+04;  BLOECHL correction:   -0.059918