 vasp.6.2.0 18Jan21 (build Jun 12 2021 23:27:24) complex

 executed on             LinuxIFC date 2022.05.27  05:59:59

 INCAR:
   ISMEAR = -5
   SIGMA = 0.1
   ISPIN = 1
   EDIFF = 1.d-5
   EDIFFG = -0.01
   NSW = 0
   NELM = 150
   ENCUT = 500
   ISIF = 2
   IBRION = 2
   LREAL = Auto
   ALGO = Fast
   ICHARG = 11
   LORBIT = 10
   LCHARG = .F.
   LWAVE = .F.

 POTCAR:    PAW_PBE Cu 22Jun2005
 POTCAR:    PAW_PBE Cr 06Sep2000
 POTCAR:    PAW_PBE H 15Jun2001
|           W    W    AA    RRRRR   N    N  II  N    N   GGGG   !!!           |
|           W    W   A  A   R    R  NN   N  II  NN   N  G    G  !!!           |
|           W    W  A    A  R    R  N N  N  II  N N  N  G       !!!           |
|           W WW W  AAAAAA  RRRRR   N  N N  II  N  N N  G  GGG   !            |
|           WW  WW  A    A  R   R   N   NN  II  N   NN  G    G                |
|           W    W  A    A  R    R  N    N  II  N    N   GGGG   !!!           |
|     For optimal performance we recommend to set                             |
|       NCORE = 2 up to number-of-cores-per-socket                            |
|     This setting can greatly improve the performance of VASP for DFT.       |
|     The default, NCORE=1 might be grossly inefficient on modern             |
|     multi-core architectures or massively parallel machines. Do your        |
|     Unfortunately you need to use the default for GW and RPA                |
|     calculations (for HF NCORE is supported but not extensively tested      |
|     yet).                                                                   |

 POTCAR:    PAW_PBE Cu 22Jun2005
   VRHFIN =Cu: d10 p1

   TITEL  = PAW_PBE Cu 22Jun2005
   POMASS =   63.546; ZVAL   =   11.000    mass and valenz
   ENMAX  =  295.446; ENMIN  =  221.585 eV

 POTCAR:    PAW_PBE Cr 06Sep2000
   VRHFIN =Cr : d5 s1

   TITEL  = PAW_PBE Cr 06Sep2000
   POMASS =   51.996; ZVAL   =    6.000    mass and valenz
   ENMAX  =  227.080; ENMIN  =  170.310 eV

 POTCAR:    PAW_PBE H 15Jun2001
   VRHFIN =H: ultrasoft test

   TITEL  = PAW_PBE H 15Jun2001
   POMASS =    1.000; ZVAL   =    1.000    mass and valenz
   ENMAX  =  250.000; ENMIN  =  200.000 eV

 Optimization of the real space projectors (new method)

 maximal supplied QI-value         = 16.25
 optimisation between [QCUT,QGAM] = [ 11.38, 22.75] = [ 36.24,144.96] Ry
 Optimized for a Real-space Cutoff    1.52 Angstroem

   l    n(q)    QCUT    max X(q) W(low)/X(q) W(high)/X(q)  e(spline)
   2      9    11.376     4.610    0.21E-03    0.10E-03    0.26E-06
   2      9    11.376     8.522    0.33E-03    0.16E-03    0.37E-06
   0     10    11.376    51.609    0.62E-04    0.20E-04    0.13E-06
   0     10    11.376    27.747    0.54E-04    0.20E-04    0.13E-06
   1     10    11.376    20.408    0.13E-04    0.99E-04    0.19E-06
   1     10    11.376    13.425    0.12E-04    0.87E-04    0.17E-06
 Optimization of the real space projectors (new method)

[...]

   l    n(q)    QCUT    max X(q) W(low)/X(q) W(high)/X(q)  e(spline)
   2      9    11.338    94.395    0.18E-03    0.10E-02    0.64E-06
   2      9    11.338    88.078    0.18E-03    0.10E-02    0.65E-06
   0     10    11.338    50.173    0.13E-03    0.16E-03    0.96E-07
   0     10    11.338    24.906    0.12E-03    0.14E-03    0.88E-07
   1      9    11.338    12.133    0.13E-03    0.15E-03    0.24E-06
   1      9    11.338     7.290    0.10E-03    0.10E-03    0.18E-06
 Optimization of the real space projectors (new method)

 maximal supplied QI-value         = 34.20
 optimisation between [QCUT,QGAM] = [ 11.29, 22.57] = [ 35.68,142.71] Ry
 Optimized for a Real-space Cutoff    1.16 Angstroem

   l    n(q)    QCUT    max X(q) W(low)/X(q) W(high)/X(q)  e(spline)
   0      8    11.287    19.460    0.40E-03    0.73E-03    0.16E-06
   0      8    11.287    12.209    0.38E-03    0.70E-03    0.15E-06
   1      7    11.287     4.655    0.22E-03    0.25E-04    0.22E-06
  PAW_PBE Cu 22Jun2005                  :
  PAW_PBE Cr 06Sep2000                  :
  PAW_PBE H 15Jun2001                   :

 POSCAR: Cu-Cr-H2
  positions in direct lattice
  velocities in cartesian coordinates
 exchange correlation table for  LEXCH =        8
   RHO(1)=    0.500       N(1)  =     2000
   RHO(2)=  100.500       N(2)  =     4000

 VTST: version 3.2, (02/03/18)

 CHAIN: initializing optimizer

 OPT: Using VASP Conjugate-Gradient optimizer
 CHAIN: Read ICHAIN            0

 POSCAR: Cu-Cr-H2
  positions in direct lattice
  velocities in cartesian coordinates

 ion  position               nearest neighbor table
   1  0.000  0.000  0.252-   7 2.57   3 2.57   4 2.57   2 2.57   6 2.57   8 2.57  12 2.57  10 2.57
                            16 2.57
   2  0.333  0.000  0.252-   8 2.57   9 2.57   5 2.57   1 2.57   3 2.57  11 2.57   4 2.57  10 2.57
                            17 2.57
   3  0.667  0.000  0.252-   1 2.57   7 2.57   6 2.57   9 2.57   2 2.57  12 2.57   5 2.57  18 2.57
                            11 2.57
   4  0.000  0.333  0.252-   5 2.57   6 2.57   1 2.57   7 2.57   2 2.57  13 2.57   9 2.57  10 2.57
                            15 2.57
   5  0.333  0.333  0.252-   4 2.57   2 2.57   7 2.57  13 2.57   8 2.57   6 2.57   3 2.57  11 2.57
                            14 2.57
   6  0.667  0.333  0.252-   4 2.57   9 2.57  15 2.57   3 2.57   1 2.57   8 2.57  14 2.57   5 2.57
                            12 2.57
   7  0.000  0.667  0.252-   1 2.57   3 2.57  16 2.57  18 2.57   4 2.57   5 2.57   8 2.57   9 2.57
                            13 2.57
   8  0.333  0.667  0.252-   9 2.57   2 2.57  17 2.57   6 2.57   1 2.57   7 2.57   5 2.57  14 2.57
                            16 2.57
   9  0.667  0.667  0.252-   8 2.57   6 2.57   2 2.57  17 2.57   3 2.57   7 2.57   4 2.57  15 2.57
                            18 2.57
  10  0.111  0.111  0.351-  20 2.55  26 2.56  19 2.56  11 2.57  12 2.57  13 2.57   1 2.57   2 2.57
                             4 2.57  15 2.57  16 2.57  17 2.57
  11  0.444  0.111  0.351-  20 2.55  21 2.55  10 2.57  13 2.57   2 2.57  17 2.57  14 2.57  12 2.57
                             5 2.57   3 2.57  18 2.57  27 2.57
  12  0.778  0.111  0.351-  21 2.55  19 2.56  25 2.56  15 2.57  10 2.57  14 2.57  18 2.57   3 2.57
                             1 2.57  16 2.57  11 2.57   6 2.57
  13  0.111  0.444  0.351-  23 2.55  20 2.55  16 2.57  18 2.57  10 2.57  11 2.57  14 2.57   5 2.57
                             4 2.57   7 2.57  15 2.57  22 2.57
  14  0.444  0.444  0.351-  21 2.55  23 2.55  15 2.57  17 2.57  12 2.57  16 2.57  13 2.57  11 2.57
                             6 2.57   8 2.57   5 2.57  24 2.57
  15  0.778  0.444  0.351-  19 2.56  24 2.56  22 2.56  14 2.57  17 2.57  12 2.57   6 2.57  18 2.57
                            10 2.57   9 2.57  13 2.57   4 2.57
  16  0.111  0.778  0.351-  23 2.55  25 2.56  26 2.56  18 2.57  13 2.57   7 2.57  14 2.57  17 2.57
                            12 2.57  10 2.57   8 2.57   1 2.57
  17  0.444  0.778  0.351-  26 2.56  27 2.56  24 2.56  14 2.57  15 2.57   8 2.57   9 2.57  11 2.57
                            16 2.57  18 2.57  10 2.57   2 2.57
  18  0.778  0.778  0.351-  25 2.56  22 2.56  27 2.56  16 2.57  13 2.57   7 2.57  15 2.57  12 2.57
                            17 2.57   9 2.57   3 2.57  11 2.57
  19  0.889  0.222  0.449-  12 2.56  10 2.56  15 2.56  28 2.56  25 2.57  26 2.57  22 2.57  24 2.57
                            21 2.57  20 2.57  32 2.58  31 2.58
  20  0.222  0.222  0.448-  36 2.50  11 2.55  13 2.55  10 2.55  23 2.56  21 2.56  26 2.57  19 2.57
                            29 2.57  31 2.57  27 2.57  22 2.57
  21  0.555  0.222  0.448-  36 2.50  14 2.55  11 2.55  12 2.55  20 2.56  23 2.56  19 2.57  25 2.57
                            32 2.57  30 2.57  24 2.57  27 2.57
  22  0.888  0.556  0.449-  35 2.56  24 2.56  27 2.56  18 2.56  15 2.56  31 2.56  33 2.56  19 2.57
                            25 2.57  13 2.57  23 2.57  20 2.57
  23  0.222  0.555  0.448-  36 2.50  13 2.55  14 2.55  16 2.55  20 2.56  21 2.56  25 2.57  26 2.57
                            33 2.57  34 2.57  22 2.57  24 2.57
  24  0.556  0.556  0.449-  35 2.56  22 2.56  27 2.56  15 2.56  17 2.56  32 2.56  34 2.56  19 2.57
                            26 2.57  14 2.57  21 2.57  23 2.57
  25  0.889  0.889  0.449-  12 2.56  16 2.56  18 2.56  28 2.56  19 2.57  26 2.57  22 2.57  27 2.57
                            21 2.57  23 2.57  33 2.58  30 2.58
  26  0.222  0.889  0.449-  10 2.56  16 2.56  17 2.56  28 2.56  25 2.57  19 2.57  27 2.57  24 2.57
                            20 2.57  23 2.57  29 2.58  34 2.58
  27  0.556  0.888  0.449-  35 2.56  24 2.56  22 2.56  17 2.56  18 2.56  29 2.56  30 2.56  26 2.57
                            25 2.57  11 2.57  20 2.57  21 2.57
  28  0.000  0.000  0.547-  25 2.56  19 2.56  26 2.56  33 2.57  30 2.57  31 2.57  29 2.57  32 2.57
                            34 2.57
  29  0.333  0.002  0.547-  31 2.55  30 2.55  36 2.55  27 2.56  20 2.57  28 2.57  35 2.57  26 2.58
                            34 2.60
  30  0.665  0.002  0.547-  32 2.55  29 2.55  36 2.55  27 2.56  21 2.57  28 2.57  35 2.57  25 2.58
                            33 2.60
  31  0.002  0.333  0.547-  29 2.55  33 2.55  36 2.55  22 2.56  20 2.57  28 2.57  35 2.57  19 2.58
                            32 2.60
  32  0.665  0.333  0.547-  30 2.55  34 2.55  36 2.55  24 2.56  21 2.57  28 2.57  35 2.57  19 2.58
                            31 2.60
  33  0.002  0.665  0.547-  34 2.55  31 2.55  36 2.55  22 2.56  23 2.57  28 2.57  35 2.57  25 2.58
                            30 2.60
  34  0.333  0.665  0.547-  33 2.55  32 2.55  36 2.55  24 2.56  23 2.57  28 2.57  35 2.57  26 2.58
                            29 2.60
  35  0.667  0.667  0.547-  24 2.56  27 2.56  22 2.56  34 2.57  32 2.57  29 2.57  30 2.57  33 2.57
                            31 2.57
  36  0.333  0.333  0.543-  38 1.70  37 1.70  23 2.50  20 2.50  21 2.50  31 2.55  29 2.55  33 2.55
                            34 2.55  32 2.55  30 2.55
  37  0.275  0.333  0.620-  36 1.70
  38  0.392  0.333  0.620-  36 1.70

  LATTYP: Found a hexagonal cell.
 ALAT       =     7.6967864036
 C/A-ratio  =     2.7653617908

  Lattice vectors:

 A1 = (  -3.8483927580,  -6.6656128093,   0.0000000000)
 A2 = (   7.6967864037,   0.0000000000,   0.0000000000)
 A3 = (   0.0000000000,   0.0000000000,  21.2843990326)

Analysis of symmetry for initial positions (statically):
 Subroutine PRICEL returns:
 Original cell was already a primitive cell.

 Routine SETGRP: Setting up the symmetry group for a
 hexagonal supercell.

 Subroutine GETGRP returns: Found  2 space group operations
 (whereof  2 operations were pure point group operations)
 out of a pool of 24 trial point group operations.

The static configuration has the point symmetry C_1h.

Analysis of symmetry for dynamics (positions and initial velocities):
 Subroutine PRICEL returns:
 Original cell was already a primitive cell.

[...]

The dynamic configuration has the point symmetry C_1h.

Analysis of constrained symmetry for selective dynamics:
 Subroutine PRICEL returns:
 Original cell was already a primitive cell.

 Routine SETGRP: Setting up the symmetry group for a
 hexagonal supercell.

 Subroutine GETGRP returns: Found  2 space group operations
[...]
     33      -3.9051      2.00000
     34      -3.9040      2.00000
     35      -3.8718      2.00000
     36      -3.7952      2.00000
     37      -3.7787      2.00000
     38      -3.6725      2.00000
     39      -3.6657      2.00000
     40      -3.5890      2.00000
     41      -3.5828      2.00000
     42      -3.5768      2.00000
     43      -3.5488      2.00000
     44      -3.5388      2.00000
     45      -3.5297      2.00000
     46      -3.5214      2.00000
     47      -3.3412      2.00000
     48      -3.3256      2.00000
     49      -3.3189      2.00000
     50      -3.3068      2.00000
     51      -3.2616      2.00000
     52      -3.2596      2.00000
     53      -3.2419      2.00000
     54      -3.2283      2.00000
     55      -3.2247      2.00000
     56      -3.2030      2.00000
     57      -3.1824      2.00000
     58      -3.1790      2.00000
     59      -3.1699      2.00000
     60      -3.1584      2.00000
[...]
    238       6.7326      0.00000
    239       6.8432      0.00000
    240       6.9594      0.00000
    241       7.0036      0.00000
    242       7.0456      0.00000
    243       7.2156      0.00000
    244       7.2873      0.00000
    245       7.3458      0.00000
    246       7.4489      0.00000
    247       7.5220      0.00000
    248       7.6558      0.00000
    249       7.8452      0.00000
    250       8.0737      0.00000
    251       8.1614      0.00000
    252       8.3184      0.00000

 soft charge-density along one line, spin component           1
         0         1         2         3         4         5         6         7         8         9
 total charge-density along one line

------------------------ aborting loop because EDIFF is reached ----------------------------------------

 total charge

# of ion       s       p       d       tot
    1        0.450   0.283   9.190   9.923
    2        0.448   0.286   9.186   9.920
    3        0.448   0.286   9.186   9.920
    4        0.449   0.285   9.186   9.921
    5        0.450   0.285   9.181   9.916
    6        0.449   0.285   9.186   9.921
    7        0.447   0.285   9.187   9.920
    8        0.447   0.285   9.187   9.920
    9        0.448   0.282   9.191   9.921
   10        0.443   0.372   9.175   9.990
   11        0.444   0.365   9.185   9.994
   12        0.443   0.372   9.175   9.990
   13        0.444   0.366   9.184   9.994
   14        0.444   0.366   9.184   9.994
   15        0.439   0.370   9.177   9.986
   16        0.444   0.372   9.174   9.991
   17        0.439   0.371   9.177   9.987
   18        0.439   0.371   9.177   9.987
   19        0.441   0.369   9.180   9.991
   20        0.463   0.394   9.160  10.016
   21        0.463   0.394   9.160  10.016
   22        0.431   0.375   9.181   9.987
   23        0.465   0.394   9.161  10.019
   24        0.431   0.375   9.181   9.987
   25        0.442   0.368   9.182   9.992
   26        0.442   0.368   9.182   9.992
   27        0.433   0.374   9.182   9.988
   28        0.445   0.286   9.184   9.915
   29        0.465   0.300   9.170   9.935
   30        0.465   0.300   9.170   9.935
   31        0.461   0.303   9.168   9.932
   32        0.461   0.303   9.168   9.932
   33        0.464   0.299   9.171   9.935
   34        0.464   0.299   9.171   9.935
   35        0.442   0.287   9.185   9.914
   36        0.459   0.557   4.390   5.405
   37        0.540   0.029   0.000   0.569
   38        0.540   0.029   0.000   0.569
tot         17.231  12.292 325.634 355.158

  FORCE on cell =-STRESS in cart. coord.  units (eV):
  Direction    XX          YY          ZZ          XY          YZ          ZX
  Alpha Z   864.01470   864.01470   864.01470
  Ewald  171752.01729171734.09623************     0.00037     0.03912     0.00016
  Hartree184631.42878184628.39153************     0.00003     0.06389     0.00006
  E(xc)   -2277.88391 -2278.03919 -2283.14542    -0.00030     0.04373    -0.00004
  Local  ************************369523.70657     0.01957     0.23843    -0.00067
  n-local  -768.20284  -767.57666  -781.11784     1.70763     0.09940     0.03019
  augment  3334.77102  3334.36343  3358.50339    -0.01826    -0.19996     0.00026
  Kinetic  3190.94042  3194.77197  3224.01750     1.02504    -0.33047    -0.14207
  Fock        0.00000     0.00000     0.00000     0.00000     0.00000     0.00000
  Total      -7.66005    -7.77696     0.44169     0.00000    -0.04584     0.00000
  in kB     -11.23909   -11.41062     0.64806     0.00000    -0.06726     0.00000

 VOLUME and BASIS-vectors are now :
  energy-cutoff  :      500.00
  volume of cell :     1091.97
      direct lattice vectors                 reciprocal lattice vectors
     7.696786404  0.000000000  0.000000000     0.129924354 -0.075011849  0.000000000
     3.848392758  6.665612809  0.000000000     0.000000000  0.150023716  0.000000000
     0.000000000  0.000000000 21.284399033     0.000000000  0.000000000  0.046982769

  length of vectors
     7.696786404  7.696786404 21.284399033     0.150023716  0.150023716  0.046982769

 FORCES acting on ions
    electron-ion (+dipol)            ewald-force                    non-local-force                 convergence-correction
   -.408E-04 0.264E-01 0.346E+04   0.580E-04 -.282E-02 -.345E+04   -.140E-08 0.210E-01 -.255E+01   -.155E-03 -.400E-01 0.894E-01
   -.720E+00 -.347E+00 0.345E+04   0.330E+00 0.289E+00 -.345E+04   0.192E+00 0.132E+00 -.183E+01   0.195E+00 -.579E-01 0.394E-01
   0.720E+00 -.347E+00 0.345E+04   -.331E+00 0.289E+00 -.345E+04   -.192E+00 0.132E+00 -.183E+01   -.194E+00 -.553E-01 0.400E-01
   -.629E+00 -.384E+00 0.345E+04   0.418E+00 0.140E+00 -.345E+04   0.152E+00 0.444E-01 -.181E+01   0.768E-01 0.191E+00 0.113E+00
   -.616E-04 -.931E-01 0.345E+04   0.116E-03 -.110E-04 -.345E+04   -.266E-08 0.399E-01 -.133E+01   0.121E-01 0.511E-01 0.188E+00
   0.629E+00 -.384E+00 0.345E+04   -.418E+00 0.140E+00 -.345E+04   -.152E+00 0.444E-01 -.181E+01   -.783E-01 0.192E+00 0.114E+00
   -.129E+00 0.756E+00 0.345E+04   0.873E-01 -.429E+00 -.345E+04   0.127E+00 -.196E+00 -.183E+01   -.788E-01 -.138E+00 0.264E-01
   0.129E+00 0.756E+00 0.345E+04   -.875E-01 -.429E+00 -.345E+04   -.127E+00 -.196E+00 -.183E+01   0.824E-01 -.139E+00 0.267E-01
   -.143E-03 0.115E-01 0.346E+04   0.263E-03 0.284E-02 -.345E+04   0.110E-08 -.166E-01 -.226E+01   -.133E-01 -.217E-02 -.389E-02
   -.203E+01 -.119E+01 0.113E+04   0.238E+01 0.135E+01 -.113E+04   -.440E+00 -.226E+00 -.108E+01   0.796E-01 0.625E-01 0.224E+00
   -.904E-04 -.282E+01 0.112E+04   0.189E-03 0.241E+01 -.112E+04   -.176E-07 0.264E+00 -.205E+00   0.108E-01 0.104E+00 0.295E+00
   0.203E+01 -.119E+01 0.113E+04   -.238E+01 0.135E+01 -.113E+04   0.440E+00 -.226E+00 -.108E+01   -.802E-01 0.638E-01 0.222E+00
   -.246E+01 0.147E+01 0.112E+04   0.211E+01 -.120E+01 -.112E+04   0.267E+00 -.190E+00 -.296E+00   0.696E-01 -.643E-01 0.271E+00
   0.246E+01 0.147E+01 0.112E+04   -.211E+01 -.120E+01 -.112E+04   -.267E+00 -.190E+00 -.296E+00   -.459E-01 -.645E-01 0.269E+00
   -.142E-03 -.640E+00 0.113E+04   0.298E-03 0.289E+00 -.113E+04   -.123E-07 0.185E+00 -.980E+00   -.298E-02 0.150E+00 0.284E+00
   -.922E-04 0.230E+01 0.113E+04   0.186E-03 -.275E+01 -.113E+04   -.349E-07 0.525E+00 -.103E+01   -.887E-04 -.743E-01 0.140E+00
   -.481E+00 0.291E+00 0.113E+04   0.238E+00 -.129E+00 -.113E+04   0.129E+00 -.788E-01 -.981E+00   0.102E+00 -.781E-01 0.213E+00
   0.482E+00 0.291E+00 0.113E+04   -.239E+00 -.129E+00 -.113E+04   -.129E+00 -.788E-01 -.981E+00   -.102E+00 -.765E-01 0.212E+00
   -.640E-04 -.499E+01 -.120E+04   0.714E-04 0.471E+01 0.120E+04   -.249E-08 0.373E-01 0.914E+00   0.134E-01 0.240E+00 0.585E+00
   -.360E+02 -.208E+02 -.124E+04   0.370E+02 0.212E+02 0.124E+04   -.131E+01 -.644E+00 -.929E+00   0.191E+00 0.149E+00 0.811E+00
   0.360E+02 -.208E+02 -.124E+04   -.370E+02 0.212E+02 0.124E+04   0.131E+01 -.644E+00 -.929E+00   -.214E+00 0.151E+00 0.810E+00
   -.192E+02 0.111E+02 -.121E+04   0.187E+02 -.107E+02 0.121E+04   0.432E+00 -.297E+00 0.610E+00   0.469E-01 -.151E+00 0.448E+00
   -.816E-04 0.413E+02 -.124E+04   0.148E-03 -.425E+02 0.124E+04   -.106E-06 0.159E+01 -.110E+01   -.105E-01 -.322E+00 0.685E+00
   0.192E+02 0.111E+02 -.121E+04   -.187E+02 -.107E+02 0.121E+04   -.432E+00 -.297E+00 0.610E+00   -.682E-01 -.147E+00 0.448E+00
   0.442E+01 0.250E+01 -.120E+04   -.415E+01 -.246E+01 0.120E+04   -.696E-01 -.151E-01 0.954E+00   -.184E+00 -.279E-01 0.511E+00
   -.442E+01 0.250E+01 -.120E+04   0.415E+01 -.246E+01 0.120E+04   0.696E-01 -.151E-01 0.954E+00   0.209E+00 -.267E-01 0.511E+00
   -.122E-03 -.224E+02 -.121E+04   0.240E-03 0.216E+02 0.121E+04   -.400E-07 0.601E+00 0.596E+00   -.146E-01 0.156E+00 0.417E+00
   -.375E-04 0.408E+00 -.346E+04   0.413E-04 -.581E+00 0.346E+04   -.169E-08 0.254E-01 0.229E+01   0.851E-03 0.122E+00 0.296E+00
   -.288E+02 -.506E+02 -.346E+04   0.294E+02 0.512E+02 0.346E+04   -.868E+00 -.106E+01 0.148E+01   0.247E+00 0.479E+00 0.285E+00
   0.288E+02 -.506E+02 -.346E+04   -.294E+02 0.512E+02 0.346E+04   0.868E+00 -.106E+01 0.148E+01   -.248E+00 0.481E+00 0.287E+00
   -.569E+02 0.956E+00 -.346E+04   0.579E+02 -.946E+00 0.346E+04   -.147E+01 -.723E-01 0.169E+01   0.515E+00 0.718E-01 0.323E+00
   0.569E+02 0.956E+00 -.346E+04   -.579E+02 -.946E+00 0.346E+04   0.147E+01 -.723E-01 0.169E+01   -.515E+00 0.739E-01 0.324E+00
   -.306E+02 0.497E+02 -.346E+04   0.310E+02 -.502E+02 0.346E+04   -.638E+00 0.114E+01 0.157E+01   0.172E+00 -.550E+00 0.366E+00
   0.306E+02 0.497E+02 -.346E+04   -.310E+02 -.502E+02 0.346E+04   0.638E+00 0.114E+01 0.157E+01   -.168E+00 -.550E+00 0.365E+00
   -.124E-03 -.493E+00 -.347E+04   0.249E-03 0.583E+00 0.347E+04   -.455E-08 0.683E-01 0.270E+01   -.133E-01 -.125E+00 0.417E+00
   -.511E-04 -.704E-01 -.181E+04   0.773E-04 -.420E-03 0.181E+04   0.600E-09 -.901E-02 0.425E+00   0.106E-02 0.253E-02 0.202E+00
   0.131E+02 -.198E-01 -.367E+03   -.160E+02 0.569E-02 0.369E+03   0.298E+01 0.409E-02 -.124E+01   0.496E-03 0.793E-02 -.770E-01
   -.131E+02 -.198E-01 -.367E+03   0.160E+02 0.569E-02 0.369E+03   -.298E+01 0.409E-02 -.124E+01   -.384E-03 0.795E-02 -.770E-01
   -.230E-03 -.473E+00 -.795E+00   0.171E-12 0.354E-12 -.620E-11   -.270E-07 0.406E+00 -.992E+01   -.526E-02 0.656E-01 0.107E+02

 POSITION                                       TOTAL-FORCE (eV/Angst)
      0.00000      0.00000      5.37156        -0.000000      0.004658     -0.043956
      2.56560      0.00000      5.37156        -0.003005      0.017297      0.055188
      5.13119      0.00000      5.37156         0.003005      0.017297      0.055188
      1.28280      2.22187      5.37156         0.018739     -0.008211      0.046050
      3.84839      2.22187      5.37156         0.000000     -0.002068      0.024300
      6.41399      2.22187      5.37156        -0.018739     -0.008211      0.046050
      2.56560      4.44374      5.37156         0.005614     -0.007385      0.062008
      5.13119      4.44374      5.37156        -0.005614     -0.007385      0.062008
      7.69679      4.44374      5.37156         0.000000     -0.004358      0.016144
      1.28280      0.74062      7.46636        -0.008963      0.003386     -0.072254
      3.84839      0.74062      7.46636         0.000000     -0.042145     -0.064373
      6.41399      0.74062      7.46636         0.008963      0.003386     -0.072254
      2.56560      2.96249      7.46636        -0.029614      0.015760     -0.063295
      5.13119      2.96249      7.46636         0.029614      0.015760     -0.063295
      7.69679      2.96249      7.46636         0.000000     -0.016576     -0.031667
      3.84839      5.18437      7.46636        -0.000000      0.005274     -0.068994
      6.41399      5.18437      7.46636        -0.012313      0.006201     -0.025969
      8.97958      5.18437      7.46636         0.012313      0.006201     -0.025969
      7.69679      1.48113      9.55176         0.000000     -0.002715      0.056873
      2.56610      1.48154      9.54462        -0.049699     -0.028311     -0.109745
      5.13069      1.48154      9.54462         0.049699     -0.028311     -0.109745
      8.97635      3.70498      9.55922         0.020094     -0.016203      0.012676
      3.84839      3.70254      9.54462        -0.000000      0.087143     -0.093151
      6.41722      3.70498      9.55922        -0.020094     -0.016203      0.012676
     10.26248      5.92505      9.55176         0.003008     -0.000138      0.035686
      5.13109      5.92505      9.55176        -0.003008     -0.000138      0.035686
      7.69679      5.92126      9.55922        -0.000000      0.040024      0.009644
      0.00000      0.00000     11.63975         0.000000     -0.026059     -0.045081
      2.57267      0.01383     11.65039        -0.014896     -0.011251      0.000603
      5.12411      0.01383     11.65039         0.014896     -0.011251      0.000603
      1.29831      2.22109     11.65039         0.048459      0.010260      0.082629
      6.39847      2.22109     11.65039        -0.048459      0.010260      0.082629
      2.57403      4.43070     11.65039        -0.029926      0.021435     -0.017129
      5.12275      4.43070     11.65039         0.029926      0.021435     -0.017129
      7.69679      4.44374     11.64501        -0.000000      0.032512     -0.040173
      3.84839      2.22187     11.55740         0.000000     -0.077296      0.298524
      3.39799      2.22188     13.19753         0.033454     -0.002035     -0.015494
      4.29879      2.22188     13.19753        -0.033454     -0.002035     -0.015494
    total drift:                               -0.005490     -0.001691     -0.010371

  FREE ENERGIE OF THE ION-ELECTRON SYSTEM (eV)
  free  energy   TOTEN  =      -136.85902385 eV

  energy  without entropy=     -136.85902385  energy(sigma->0) =     -136.85902385

 stress matrix after NEB project (eV)
     -7.66005      0.00000      0.00000
      0.00000     -7.77696     -0.04584
      0.00000     -0.04584      0.44169
  FORCES: max atom, RMS     0.036924    0.008471
  FORCE total and by dimension    0.052219    0.033454
  Stress total and by dimension   10.925048    7.776957
|           W    W    AA    RRRRR   N    N  II  N    N   GGGG   !!!           |
|           W    W   A  A   R    R  NN   N  II  NN   N  G    G  !!!           |
|           W    W  A    A  R    R  N N  N  II  N N  N  G       !!!           |
|           W WW W  AAAAAA  RRRRR   N  N N  II  N  N N  G  GGG   !            |
|           WW  WW  A    A  R   R   N   NN  II  N   NN  G    G                |
|           W    W  A    A  R    R  N    N  II  N    N   GGGG   !!!           |
|     Tetrahedron method does not include variations of the Fermi             |
|     occupations, so forces and stress will be inaccurate. We suggest        |
|     using a different smearing scheme ISMEAR = 1 or 2 for metals in         |
|     relaxations.                                                            |

 total charge

# of ion       s       p       d       tot
    1        0.450   0.283   9.190   9.923
    2        0.448   0.286   9.186   9.920
    3        0.448   0.286   9.186   9.920
    4        0.449   0.285   9.186   9.921
    5        0.450   0.285   9.181   9.916
    6        0.449   0.285   9.186   9.921
    7        0.447   0.285   9.187   9.920
    8        0.447   0.285   9.187   9.920
    9        0.448   0.282   9.191   9.921
   10        0.443   0.372   9.175   9.990
   11        0.444   0.365   9.185   9.994
   12        0.443   0.372   9.175   9.990
   13        0.444   0.366   9.184   9.994
   14        0.444   0.366   9.184   9.994
   15        0.439   0.370   9.177   9.986
   16        0.444   0.372   9.174   9.991
   17        0.439   0.371   9.177   9.987
   18        0.439   0.371   9.177   9.987
   19        0.441   0.369   9.180   9.991
   20        0.463   0.394   9.160  10.016
   21        0.463   0.394   9.160  10.016
   22        0.431   0.375   9.181   9.987
   23        0.465   0.394   9.161  10.019
   24        0.431   0.375   9.181   9.987
   25        0.442   0.368   9.182   9.992
   26        0.442   0.368   9.182   9.992
   27        0.433   0.374   9.182   9.988
   28        0.445   0.286   9.184   9.915
   29        0.465   0.300   9.170   9.935
   30        0.465   0.300   9.170   9.935
   31        0.461   0.303   9.168   9.932
   32        0.461   0.303   9.168   9.932
   33        0.464   0.299   9.171   9.935
   34        0.464   0.299   9.171   9.935
   35        0.442   0.287   9.185   9.914
   36        0.459   0.557   4.390   5.405
   37        0.540   0.029   0.000   0.569
   38        0.540   0.029   0.000   0.569
tot         17.231  12.292 325.634 355.158

 BZINTS: Fermi energy:    0.126540;  393.000000 electrons
         Band energy:-0.106370E+04;  BLOECHL correction:   -0.019797