 vasp.6.2.0 18Jan21 (build Jun 12 2021 23:27:24) complex

 executed on             LinuxIFC date 2022.05.26  19:50:51

 INCAR:
   ISMEAR = -5
   SIGMA = 0.1
   ISPIN = 1
   EDIFF = 1.d-5
   EDIFFG = -0.01
   NSW = 0
   NELM = 150
   ENCUT = 500
   ISIF = 2
   IBRION = 2
   LREAL = Auto
   ALGO = Fast
   ICHARG = 11
   LORBIT = 10
   LCHARG = .F.
   LWAVE = .F.

 POTCAR:    PAW_PBE Ag 02Apr2005
 POTCAR:    PAW_PBE Hf 20Jan2003
 POTCAR:    PAW_PBE N 08Apr2002
|           W    W    AA    RRRRR   N    N  II  N    N   GGGG   !!!           |
|           W    W   A  A   R    R  NN   N  II  NN   N  G    G  !!!           |
|           W    W  A    A  R    R  N N  N  II  N N  N  G       !!!           |
|           W WW W  AAAAAA  RRRRR   N  N N  II  N  N N  G  GGG   !            |
|           WW  WW  A    A  R   R   N   NN  II  N   NN  G    G                |
|           W    W  A    A  R    R  N    N  II  N    N   GGGG   !!!           |
|     For optimal performance we recommend to set                             |
|       NCORE = 2 up to number-of-cores-per-socket                            |
|     This setting can greatly improve the performance of VASP for DFT.       |
|     The default, NCORE=1 might be grossly inefficient on modern             |
|     multi-core architectures or massively parallel machines. Do your        |
|     Unfortunately you need to use the default for GW and RPA                |
|     calculations (for HF NCORE is supported but not extensively tested      |
|     yet).                                                                   |

 POTCAR:    PAW_PBE Ag 02Apr2005
   VRHFIN =Ag : s1 d10

   TITEL  = PAW_PBE Ag 02Apr2005
   POMASS =  107.868; ZVAL   =   11.000    mass and valenz
   ENMAX  =  249.844; ENMIN  =  187.383 eV

 POTCAR:    PAW_PBE Hf 20Jan2003
   VRHFIN =Hf: 6s5d

   TITEL  = PAW_PBE Hf 20Jan2003
   POMASS =  178.490; ZVAL   =    4.000    mass and valenz
   ENMAX  =  220.334; ENMIN  =  165.250 eV

 POTCAR:    PAW_PBE N 08Apr2002
   VRHFIN =N: s2p3

   TITEL  = PAW_PBE N 08Apr2002
   POMASS =   14.001; ZVAL   =    5.000    mass and valenz
   ENMAX  =  400.000; ENMIN  =  300.000 eV

 Optimization of the real space projectors (new method)

 maximal supplied QI-value         = 15.12
 optimisation between [QCUT,QGAM] = [ 11.34, 22.83] = [ 36.00,145.93] Ry
 Optimized for a Real-space Cutoff    1.43 Angstroem

   l    n(q)    QCUT    max X(q) W(low)/X(q) W(high)/X(q)  e(spline)
   2      9    11.338    53.897    0.16E-03    0.20E-03    0.28E-06
   2      9    11.338    52.416    0.16E-03    0.20E-03    0.29E-06
   0     10    11.338   122.045    0.31E-04    0.76E-04    0.15E-06
   0     10    11.338    73.629    0.30E-04    0.72E-04    0.15E-06
   1      9    11.338    15.255    0.20E-03    0.19E-04    0.17E-06
   1      9    11.338     9.562    0.16E-03    0.15E-04    0.14E-06
 Optimization of the real space projectors (new method)

[...]

   l    n(q)    QCUT    max X(q) W(low)/X(q) W(high)/X(q)  e(spline)
   2     10    11.350    48.111    0.20E-03    0.11E-03    0.41E-06
   2     10    11.350    40.545    0.19E-03    0.10E-03    0.39E-06
   0     11    11.350   121.658    0.22E-04    0.19E-04    0.24E-06
   0     11    11.350    71.177    0.17E-04    0.17E-04    0.23E-06
   1     11    11.350    14.183    0.25E-03    0.43E-03    0.12E-05
   1     11    11.350     8.257    0.17E-03    0.29E-03    0.81E-06
 Optimization of the real space projectors (new method)

 maximal supplied QI-value         = 25.13
 optimisation between [QCUT,QGAM] = [ 11.31, 22.87] = [ 35.82,146.48] Ry
 Optimized for a Real-space Cutoff    1.27 Angstroem

   l    n(q)    QCUT    max X(q) W(low)/X(q) W(high)/X(q)  e(spline)
   0      9    11.310    79.467    0.75E-04    0.16E-03    0.36E-06
   0      9    11.310    66.151    0.74E-04    0.16E-03    0.36E-06
   1      8    11.310    17.416    0.35E-03    0.12E-03    0.95E-06
   1      8    11.310    12.382    0.37E-03    0.13E-03    0.98E-06
  PAW_PBE Ag 02Apr2005                  :
  PAW_PBE Hf 20Jan2003                  :
  PAW_PBE N 08Apr2002                   :

 POSCAR: Ag-Hf-N
  positions in direct lattice
  velocities in cartesian coordinates
 exchange correlation table for  LEXCH =        8
   RHO(1)=    0.500       N(1)  =     2000
   RHO(2)=  100.500       N(2)  =     4000

 VTST: version 3.2, (02/03/18)

 CHAIN: initializing optimizer

 OPT: Using VASP Conjugate-Gradient optimizer
 CHAIN: Read ICHAIN            0

 POSCAR: Ag-Hf-N
  positions in direct lattice
  velocities in cartesian coordinates

 ion  position               nearest neighbor table
   1  0.000  0.000  0.238-   2 2.93   8 2.93   7 2.93   6 2.93   4 2.93  12 2.93  16 2.93  10 2.93
                             3 2.93
   2  0.333  0.000  0.238-   1 2.93   8 2.93   9 2.93   3 2.93   4 2.93   5 2.93  10 2.93  17 2.93
                            11 2.93
   3  0.667  0.000  0.238-   9 2.93   2 2.93   5 2.93  11 2.93   7 2.93  18 2.93   1 2.93   6 2.93
                            12 2.93
   4  0.000  0.333  0.238-   5 2.93   6 2.93   2 2.93   1 2.93   7 2.93  13 2.93  15 2.93   9 2.93
                            10 2.93
   5  0.333  0.333  0.238-   4 2.93   3 2.93   7 2.93   2 2.93   8 2.93  14 2.93  13 2.93  11 2.93
                             6 2.93
   6  0.667  0.333  0.238-   4 2.93   9 2.93   1 2.93  15 2.93   8 2.93  12 2.93   3 2.93   5 2.93
                            14 2.93
   7  0.000  0.667  0.238-   8 2.93   1 2.93   5 2.93   3 2.93   4 2.93  16 2.93  18 2.93  13 2.93
                             9 2.93
   8  0.333  0.667  0.238-   7 2.93   1 2.93   2 2.93   9 2.93   5 2.93  16 2.93   6 2.93  17 2.93
                            14 2.93
   9  0.667  0.667  0.238-   3 2.93   2 2.93   8 2.93   6 2.93  17 2.93   4 2.93  15 2.93   7 2.93
                            18 2.93
  10  0.111  0.111  0.346-  20 2.90  19 2.92  26 2.92  12 2.93  16 2.93  15 2.93  17 2.93  13 2.93
                            11 2.93   2 2.93   1 2.93   4 2.93
  11  0.444  0.111  0.346-  21 2.90  20 2.90  14 2.93  17 2.93  18 2.93   3 2.93  12 2.93  13 2.93
                            10 2.93   5 2.93   2 2.93  27 2.93
  12  0.778  0.111  0.346-  21 2.90  25 2.92  19 2.92  10 2.93  16 2.93  18 2.93  15 2.93  11 2.93
                             1 2.93  14 2.93   6 2.93   3 2.93
  13  0.111  0.444  0.346-  20 2.90  23 2.90  15 2.93  14 2.93  18 2.93  10 2.93  11 2.93  16 2.93
                             4 2.93   5 2.93   7 2.93  22 2.93
  14  0.444  0.444  0.346-  23 2.90  21 2.90  13 2.93  11 2.93  16 2.93   5 2.93  12 2.93  17 2.93
                             8 2.93  15 2.93   6 2.93  24 2.93
  15  0.778  0.444  0.346-  19 2.92  24 2.93  22 2.93  13 2.93  10 2.93  12 2.93  17 2.93  18 2.93
                             4 2.93   6 2.93   9 2.93  14 2.93
  16  0.111  0.778  0.346-  23 2.90  26 2.92  25 2.92  18 2.93  12 2.93  10 2.93  14 2.93  17 2.93
                            13 2.93   7 2.93   8 2.93   1 2.93
  17  0.444  0.778  0.346-  26 2.92  27 2.93  24 2.93  11 2.93  10 2.93   9 2.93  18 2.93  15 2.93
                            16 2.93   2 2.93  14 2.93   8 2.93
  18  0.778  0.778  0.346-  25 2.92  22 2.93  27 2.93  16 2.93  12 2.93  13 2.93  11 2.93  17 2.93
                            15 2.93   7 2.93   3 2.93   9 2.93
  19  0.889  0.222  0.454-  10 2.92  12 2.92  15 2.92  20 2.93  21 2.93  26 2.93  25 2.93  24 2.93
                            22 2.93  28 2.94  32 2.98  31 2.98
  20  0.222  0.222  0.452-  36 2.86  10 2.90  13 2.90  11 2.90  19 2.93  26 2.93  27 2.93  22 2.93
                            21 2.94  23 2.94  31 2.97  29 2.97
  21  0.556  0.222  0.452-  36 2.86  12 2.90  11 2.90  14 2.90  25 2.93  19 2.93  27 2.93  24 2.93
                            20 2.94  23 2.94  30 2.97  32 2.97
  22  0.889  0.556  0.454-  24 2.93  27 2.93  18 2.93  15 2.93  25 2.93  19 2.93  13 2.93  23 2.93
                            20 2.93  35 2.94  33 2.96  31 2.96
  23  0.222  0.556  0.452-  36 2.86  16 2.90  14 2.90  13 2.90  26 2.93  25 2.93  22 2.93  24 2.93
                            21 2.94  20 2.94  34 2.97  33 2.97
  24  0.556  0.556  0.454-  27 2.93  22 2.93  15 2.93  17 2.93  19 2.93  26 2.93  14 2.93  23 2.93
                            21 2.93  35 2.94  32 2.96  34 2.96
  25  0.889  0.889  0.454-  16 2.92  12 2.92  18 2.92  23 2.93  21 2.93  26 2.93  19 2.93  22 2.93
                            27 2.93  28 2.94  33 2.98  30 2.98
  26  0.222  0.889  0.454-  16 2.92  10 2.92  17 2.92  23 2.93  20 2.93  25 2.93  19 2.93  27 2.93
                            24 2.93  28 2.94  34 2.98  29 2.98
  27  0.556  0.889  0.454-  24 2.93  22 2.93  17 2.93  18 2.93  26 2.93  25 2.93  11 2.93  20 2.93
                            21 2.93  35 2.94  29 2.96  30 2.96
  28  0.000  0.000  0.562-  26 2.94  25 2.94  19 2.94  29 2.94  34 2.94  33 2.94  32 2.94  31 2.94
                            30 2.94
  29  0.333  0.003  0.563-  30 2.90  31 2.91  36 2.91  35 2.94  28 2.94  27 2.96  20 2.97  26 2.98
                            34 2.98
  30  0.664  0.003  0.563-  29 2.90  32 2.91  36 2.91  35 2.94  28 2.94  27 2.96  21 2.97  25 2.98
                            33 2.98
  31  0.003  0.333  0.563-  33 2.90  29 2.91  36 2.91  35 2.94  28 2.94  22 2.96  20 2.97  19 2.98
                            32 2.98
  32  0.664  0.333  0.563-  34 2.90  30 2.91  36 2.91  35 2.94  28 2.94  24 2.96  21 2.97  19 2.98
                            31 2.98
  33  0.003  0.664  0.563-  31 2.90  34 2.91  36 2.91  35 2.94  28 2.94  22 2.96  23 2.97  25 2.98
                            30 2.98
  34  0.333  0.664  0.563-  32 2.90  33 2.91  36 2.91  35 2.94  28 2.94  24 2.96  23 2.97  26 2.98
                            29 2.98
  35  0.667  0.667  0.563-  30 2.94  29 2.94  32 2.94  34 2.94  31 2.94  33 2.94  24 2.94  27 2.94
                            22 2.94
  36  0.333  0.333  0.556-  37 1.82  21 2.86  20 2.86  23 2.86  31 2.91  33 2.91  30 2.91  29 2.91
                            34 2.91  32 2.91
  37  0.333  0.333  0.638-  36 1.82

  LATTYP: Found a hexagonal cell.
 ALAT       =     8.7913665772
 C/A-ratio  =     2.5227160501

  Lattice vectors:

 A1 = (  -4.3956832886,  -7.6135467898,   0.0000000000)
 A2 = (   8.7913665771,   0.0000000000,   0.0000000000)
 A3 = (   0.0000000000,   0.0000000000,  22.1781215668)

Analysis of symmetry for initial positions (statically):
 Subroutine PRICEL returns:
 Original cell was already a primitive cell.

 Routine SETGRP: Setting up the symmetry group for a
 hexagonal supercell.

 Subroutine GETGRP returns: Found  6 space group operations
 (whereof  6 operations were pure point group operations)
 out of a pool of 24 trial point group operations.

The static configuration has the point symmetry C_3v.

Analysis of symmetry for dynamics (positions and initial velocities):
 Subroutine PRICEL returns:
 Original cell was already a primitive cell.

[...]

The dynamic configuration has the point symmetry C_3v.

Analysis of constrained symmetry for selective dynamics:
 Subroutine PRICEL returns:
 Original cell was already a primitive cell.

 Routine SETGRP: Setting up the symmetry group for a
 hexagonal supercell.

 Subroutine GETGRP returns: Found  6 space group operations
[...]
     24      -4.8543      2.00000
     25      -4.8419      2.00000
     26      -4.8238      2.00000
     27      -4.8125      2.00000
     28      -4.7830      2.00000
     29      -4.7767      2.00000
     30      -4.7759      2.00000
     31      -4.7495      2.00000
     32      -4.7366      2.00000
     33      -4.7071      2.00000
     34      -4.7029      2.00000
     35      -4.6699      2.00000
     36      -4.6516      2.00000
     37      -4.6242      2.00000
     38      -4.5847      2.00000
     39      -4.5564      2.00000
     40      -4.5522      2.00000
     41      -4.5433      2.00000
     42      -4.5304      2.00000
     43      -4.5182      2.00000
     44      -4.4280      2.00000
     45      -4.4076      2.00000
     46      -4.3970      2.00000
     47      -4.3886      2.00000
     48      -4.3772      2.00000
     49      -4.3742      2.00000
     50      -4.3691      2.00000
     51      -4.3626      2.00000
     52      -4.3521      2.00000
     53      -4.3414      2.00000
     54      -4.2837      2.00000
     55      -4.2774      2.00000
     56      -4.2673      2.00000
     57      -4.2499      2.00000
     58      -4.2405      2.00000
     59      -4.2193      2.00000
     60      -4.2006      2.00000
[...]
    238       6.3652      0.00000
    239       6.3759      0.00000
    240       6.6480      0.00000
    241       7.0825      0.00000
    242       7.1517      0.00000
    243       7.2091      0.00000
    244       7.3495      0.00000
    245       7.3941      0.00000
    246       7.4267      0.00000
    247       7.4463      0.00000
    248       7.5230      0.00000
    249       7.6337      0.00000
    250       7.6664      0.00000
    251       7.7625      0.00000
    252       7.7774      0.00000

 soft charge-density along one line, spin component           1
         0         1         2         3         4         5         6         7         8         9
 total charge-density along one line

------------------------ aborting loop because EDIFF is reached ----------------------------------------

 total charge

# of ion       s       p       d       tot
    1        0.418   0.203   9.177   9.798
    2        0.415   0.204   9.177   9.795
    3        0.415   0.204   9.177   9.795
    4        0.415   0.204   9.177   9.795
    5        0.420   0.200   9.177   9.798
    6        0.415   0.204   9.177   9.795
    7        0.415   0.204   9.177   9.795
    8        0.415   0.204   9.177   9.795
    9        0.416   0.204   9.177   9.796
   10        0.406   0.271   9.164   9.841
   11        0.406   0.270   9.165   9.841
   12        0.406   0.271   9.164   9.841
   13        0.406   0.270   9.165   9.841
   14        0.406   0.270   9.165   9.841
   15        0.403   0.270   9.163   9.836
   16        0.406   0.271   9.164   9.841
   17        0.403   0.270   9.163   9.836
   18        0.403   0.270   9.163   9.836
   19        0.400   0.266   9.166   9.832
   20        0.428   0.293   9.149   9.870
   21        0.428   0.293   9.149   9.870
   22        0.395   0.270   9.164   9.830
   23        0.428   0.293   9.149   9.870
   24        0.395   0.270   9.164   9.830
   25        0.400   0.266   9.166   9.832
   26        0.400   0.266   9.166   9.832
   27        0.395   0.270   9.164   9.830
   28        0.415   0.200   9.176   9.792
   29        0.433   0.210   9.164   9.807
   30        0.433   0.210   9.164   9.807
   31        0.433   0.210   9.164   9.807
   32        0.433   0.210   9.164   9.807
   33        0.433   0.210   9.164   9.807
   34        0.433   0.210   9.164   9.807
   35        0.415   0.199   9.175   9.789
   36        0.619   0.557   2.538   3.714
   37        1.326   2.208   0.000   3.534
tot         16.422  11.172 323.383 350.977

  FORCE on cell =-STRESS in cart. coord.  units (eV):
  Direction    XX          YY          ZZ          XY          YZ          ZX
  Alpha Z   745.94518   745.94518   745.94518
  Ewald  117555.79166117555.79156************    -0.00001    -0.00001     0.00001
  Hartree127572.88072127572.88067************    -0.00001    -0.00000    -0.00000
  E(xc)   -2065.38739 -2065.38738 -2074.89675    -0.00000     0.00000     0.00000
  Local  ************************256205.37474     0.00045    -0.00004    -0.00012
  n-local  -330.58114  -315.21500  -329.28882     9.74379    -0.46023     0.52149
  augment  3219.97185  3219.97205  3234.32716    -0.00018    -0.00000     0.00000
  Kinetic  4892.02321  4893.40434  4932.22866     3.95995     0.89052    -0.31829
  Fock        0.00000     0.00000     0.00000     0.00000     0.00000     0.00000
  Total      -5.77088    -5.77088    -0.72372    -0.00000    -0.00000     0.00000
  in kB      -6.22851    -6.22851    -0.78111    -0.00000    -0.00000     0.00000

 VOLUME and BASIS-vectors are now :
  energy-cutoff  :      500.00
  volume of cell :     1484.46
      direct lattice vectors                 reciprocal lattice vectors
     8.791366577  0.000000000  0.000000000     0.113747958 -0.065672414  0.000000000
     4.395683289  7.613546790  0.000000000     0.000000000  0.131344829  0.000000000
     0.000000000  0.000000000 22.178121567     0.000000000  0.000000000  0.045089481

  length of vectors
     8.791366577  8.791366577 22.178121567     0.131344829  0.131344829  0.045089481

 FORCES acting on ions
    electron-ion (+dipol)            ewald-force                    non-local-force                 convergence-correction
   0.461E-04 -.281E-04 0.248E+04   -.953E-04 0.592E-04 -.248E+04   -.206E-17 0.224E-17 -.176E+01   -.833E-04 -.155E-03 0.104E+00
   -.481E+00 -.338E+00 0.248E+04   0.316E+00 0.101E+00 -.248E+04   0.468E-01 0.122E+00 -.167E+01   0.110E+00 0.102E+00 0.349E-01
   0.481E+00 -.338E+00 0.248E+04   -.316E+00 0.102E+00 -.248E+04   -.468E-01 0.122E+00 -.167E+01   -.111E+00 0.104E+00 0.355E-01
   -.533E+00 -.248E+00 0.248E+04   0.246E+00 0.223E+00 -.248E+04   0.129E+00 -.205E-01 -.167E+01   0.144E+00 0.446E-01 0.349E-01
   -.613E-05 -.190E-04 0.248E+04   0.980E-04 -.199E-05 -.248E+04   0.124E-17 0.126E-17 -.149E+01   0.618E-02 0.378E-02 0.561E-01
   0.533E+00 -.248E+00 0.248E+04   -.246E+00 0.223E+00 -.248E+04   -.129E+00 -.205E-01 -.167E+01   -.145E+00 0.455E-01 0.356E-01
   -.521E-01 0.586E+00 0.248E+04   -.701E-01 -.324E+00 -.248E+04   0.822E-01 -.102E+00 -.167E+01   0.353E-01 -.148E+00 0.356E-01
   0.521E-01 0.586E+00 0.248E+04   0.701E-01 -.324E+00 -.248E+04   -.822E-01 -.102E+00 -.167E+01   -.337E-01 -.149E+00 0.356E-01
   0.364E-04 -.131E-04 0.248E+04   0.792E-04 -.642E-04 -.248E+04   0.207E-17 -.310E-17 -.175E+01   -.663E-02 -.341E-02 0.109E+00
   -.116E+01 -.671E+00 0.810E+03   0.119E+01 0.686E+00 -.810E+03   -.152E+00 -.876E-01 -.534E+00   0.870E-01 0.503E-01 0.237E+00
   -.283E-04 -.131E+01 0.804E+03   0.400E-04 0.126E+01 -.804E+03   0.236E-12 0.360E-01 -.502E+00   0.617E-02 -.230E-02 0.228E+00
   0.116E+01 -.671E+00 0.810E+03   -.119E+01 0.686E+00 -.810E+03   0.152E+00 -.876E-01 -.534E+00   -.883E-01 0.509E-01 0.237E+00
   -.114E+01 0.657E+00 0.804E+03   0.109E+01 -.631E+00 -.804E+03   0.311E-01 -.180E-01 -.502E+00   0.979E-03 0.652E-02 0.228E+00
   0.114E+01 0.657E+00 0.804E+03   -.109E+01 -.631E+00 -.804E+03   -.311E-01 -.180E-01 -.502E+00   0.932E-02 0.563E-02 0.227E+00
   0.151E-04 -.111E+01 0.808E+03   -.107E-03 0.104E+01 -.808E+03   0.296E-12 0.451E-01 -.640E+00   -.126E-02 0.337E-01 0.192E+00
   -.815E-05 0.134E+01 0.810E+03   0.206E-04 -.137E+01 -.810E+03   0.115E-11 0.175E+00 -.534E+00   -.962E-04 -.102E+00 0.237E+00
   -.962E+00 0.555E+00 0.808E+03   0.896E+00 -.518E+00 -.808E+03   0.390E-01 -.225E-01 -.640E+00   0.285E-01 -.179E-01 0.192E+00
   0.962E+00 0.555E+00 0.808E+03   -.896E+00 -.518E+00 -.808E+03   -.390E-01 -.225E-01 -.640E+00   -.283E-01 -.164E-01 0.193E+00
   0.383E-04 -.689E+01 -.864E+03   -.125E-03 0.666E+01 0.864E+03   0.985E-12 0.150E+00 0.100E+01   0.109E-02 0.937E-01 0.595E-01
   -.386E+02 -.223E+02 -.899E+03   0.386E+02 0.223E+02 0.899E+03   -.305E+00 -.176E+00 -.225E-01   0.341E-01 0.197E-01 0.766E-01
   0.386E+02 -.223E+02 -.899E+03   -.386E+02 0.223E+02 0.899E+03   0.305E+00 -.176E+00 -.225E-01   -.450E-01 0.192E-01 0.759E-01
   -.170E+02 0.980E+01 -.871E+03   0.168E+02 -.967E+01 0.870E+03   0.152E+00 -.876E-01 0.554E+00   0.880E-01 -.504E-01 0.426E-01
   -.494E-04 0.445E+02 -.899E+03   0.352E-04 -.445E+02 0.899E+03   0.231E-11 0.352E+00 -.225E-01   -.555E-02 -.479E-01 0.759E-01
   0.170E+02 0.980E+01 -.871E+03   -.168E+02 -.967E+01 0.870E+03   -.152E+00 -.876E-01 0.554E+00   -.863E-01 -.498E-01 0.426E-01
   0.596E+01 0.344E+01 -.864E+03   -.577E+01 -.333E+01 0.864E+03   -.130E+00 -.750E-01 0.100E+01   -.812E-01 -.470E-01 0.592E-01
   -.596E+01 0.344E+01 -.864E+03   0.577E+01 -.333E+01 0.864E+03   0.130E+00 -.750E-01 0.100E+01   0.814E-01 -.460E-01 0.596E-01
   0.192E-04 -.196E+02 -.871E+03   0.110E-03 0.193E+02 0.870E+03   0.115E-11 0.175E+00 0.554E+00   -.311E-03 0.101E+00 0.426E-01
   0.546E-04 -.354E-04 -.245E+04   -.115E-03 0.766E-04 0.245E+04   0.674E-21 0.543E-19 0.166E+01   0.273E-03 0.231E-04 -.166E+00
   -.201E+02 -.393E+02 -.245E+04   0.204E+02 0.399E+02 0.245E+04   -.491E+00 -.753E+00 0.213E+01   0.979E-01 0.398E-01 -.200E+00
   0.201E+02 -.393E+02 -.245E+04   -.204E+02 0.399E+02 0.245E+04   0.491E+00 -.753E+00 0.213E+01   -.987E-01 0.407E-01 -.199E+00
   -.441E+02 0.227E+01 -.245E+04   0.447E+02 -.230E+01 0.245E+04   -.898E+00 -.484E-01 0.213E+01   0.836E-01 0.650E-01 -.200E+00
   0.441E+02 0.227E+01 -.245E+04   -.447E+02 -.230E+01 0.245E+04   0.898E+00 -.484E-01 0.213E+01   -.836E-01 0.660E-01 -.199E+00
   -.240E+02 0.371E+02 -.245E+04   0.243E+02 -.376E+02 0.245E+04   -.407E+00 0.802E+00 0.213E+01   -.137E-01 -.105E+00 -.199E+00
   0.240E+02 0.371E+02 -.245E+04   -.243E+02 -.376E+02 0.245E+04   0.407E+00 0.802E+00 0.213E+01   0.150E-01 -.105E+00 -.199E+00
   0.263E-04 -.128E-04 -.246E+04   0.103E-03 -.652E-04 0.246E+04   0.121E-16 -.597E-17 0.174E+01   -.632E-02 -.322E-02 -.972E-01
   -.102E-04 0.314E-06 -.792E+03   0.378E-04 0.404E-05 0.796E+03   -.638E-18 -.220E-18 -.405E+01   0.135E-03 0.853E-04 -.114E+00
   0.104E-03 -.570E-04 -.126E+04   0.211E-04 0.266E-06 0.127E+04   -.426E-18 -.179E-18 -.128E+02   0.141E-02 0.866E-03 -.259E+00
   0.445E-03 -.738E-03 0.151E+02   0.349E-13 -.295E-13 -.637E-11   0.178E-15 0.327E-15 -.161E+02   -.466E-02 0.542E-03 0.115E+01

 POSITION                                       TOTAL-FORCE (eV/Angst)
      0.00000      0.00000      5.28219        -0.000000     -0.000000     -0.001653
      2.93046      0.00000      5.28219        -0.007648     -0.011239      0.028647
      5.86091      0.00000      5.28219         0.007648     -0.011239      0.028647
      1.46523      2.53785      5.28219        -0.013557     -0.001004      0.028647
      4.39568      2.53785      5.28219        -0.000000      0.000000     -0.003885
      7.32614      2.53785      5.28219         0.013557     -0.001004      0.028647
      2.93046      5.07570      5.28219        -0.005909      0.012243      0.028647
      5.86091      5.07570      5.28219         0.005909      0.012243      0.028647
      8.79137      5.07570      5.28219        -0.000000      0.000000      0.015986
      1.46523      0.84595      7.67490        -0.038268     -0.022094     -0.037916
      4.39568      0.84595      7.67490        -0.000000     -0.021906     -0.060710
      7.32614      0.84595      7.67490         0.038268     -0.022094     -0.037916
      2.93046      3.38380      7.67490        -0.018971      0.010953     -0.060710
      5.86091      3.38380      7.67490         0.018971      0.010953     -0.060710
      8.79137      3.38380      7.67490         0.000000      0.002609      0.026316
      4.39568      5.92165      7.67490         0.000000      0.044188     -0.037916
      7.32614      5.92165      7.67490         0.002260     -0.001305      0.026316
     10.25659      5.92165      7.67490        -0.002260     -0.001305      0.026316
      8.79137      1.69178     10.05827         0.000000      0.014887      0.096847
      2.92613      1.68940     10.03306        -0.258888     -0.149469     -0.202835
      5.86523      1.68940     10.03306         0.258888     -0.149469     -0.202835
     10.25456      4.23092     10.06776         0.023646     -0.013652      0.065426
      4.39568      4.23474     10.03306         0.000000      0.298938     -0.202835
      7.32817      4.23092     10.06776        -0.023646     -0.013652      0.065426
     11.72193      6.76766     10.05827        -0.012892     -0.007443      0.096847
      5.86080      6.76766     10.05827         0.012892     -0.007443      0.096847
      8.79137      6.76525     10.06776         0.000000      0.027305      0.065426
      0.00000      0.00000     12.45716        -0.000000     -0.000000     -0.071323
      2.94326      0.02074     12.49530        -0.115267     -0.163078     -0.022502
      5.84810      0.02074     12.49530         0.115267     -0.163078     -0.022502
      1.48959      2.53857     12.49530        -0.198863     -0.018285     -0.022502
      7.30177      2.53857     12.49530         0.198863     -0.018285     -0.022502
      2.94201      5.05424     12.49530        -0.083596      0.181363     -0.022502
      5.84935      5.05424     12.49530         0.083596      0.181363     -0.022502
      8.79137      5.07570     12.47846        -0.000000      0.000000     -0.095655
      4.39568      2.53785     12.33403        -0.000000      0.000000      0.474558
      4.39568      2.53785     14.15646        -0.000000     -0.000000     -0.016283
    total drift:                               -0.004216     -0.000197      0.113429

  FREE ENERGIE OF THE ION-ELECTRON SYSTEM (eV)
  free  energy   TOTEN  =      -105.38093464 eV

  energy  without entropy=     -105.38093464  energy(sigma->0) =     -105.38093464

 stress matrix after NEB project (eV)
     -5.77088     -0.00000      0.00000
     -0.00000     -5.77088      0.00000
     -0.00000     -0.00000     -0.72372
  FORCES: max atom, RMS     0.016283    0.002677
  FORCE total and by dimension    0.016283    0.016283
  Stress total and by dimension    8.193279    5.770877
|           W    W    AA    RRRRR   N    N  II  N    N   GGGG   !!!           |
|           W    W   A  A   R    R  NN   N  II  NN   N  G    G  !!!           |
|           W    W  A    A  R    R  N N  N  II  N N  N  G       !!!           |
|           W WW W  AAAAAA  RRRRR   N  N N  II  N  N N  G  GGG   !            |
|           WW  WW  A    A  R   R   N   NN  II  N   NN  G    G                |
|           W    W  A    A  R    R  N    N  II  N    N   GGGG   !!!           |
|     Tetrahedron method does not include variations of the Fermi             |
|     occupations, so forces and stress will be inaccurate. We suggest        |
|     using a different smearing scheme ISMEAR = 1 or 2 for metals in         |
|     relaxations.                                                            |

 total charge

# of ion       s       p       d       tot
    1        0.418   0.203   9.177   9.798
    2        0.415   0.204   9.177   9.795
    3        0.415   0.204   9.177   9.795
    4        0.415   0.204   9.177   9.795
    5        0.420   0.200   9.177   9.798
    6        0.415   0.204   9.177   9.795
    7        0.415   0.204   9.177   9.795
    8        0.415   0.204   9.177   9.795
    9        0.416   0.204   9.177   9.796
   10        0.406   0.271   9.164   9.841
   11        0.406   0.270   9.165   9.841
   12        0.406   0.271   9.164   9.841
   13        0.406   0.270   9.165   9.841
   14        0.406   0.270   9.165   9.841
   15        0.403   0.270   9.163   9.836
   16        0.406   0.271   9.164   9.841
   17        0.403   0.270   9.163   9.836
   18        0.403   0.270   9.163   9.836
   19        0.400   0.266   9.166   9.832
   20        0.428   0.293   9.149   9.870
   21        0.428   0.293   9.149   9.870
   22        0.395   0.270   9.164   9.830
   23        0.428   0.293   9.149   9.870
   24        0.395   0.270   9.164   9.830
   25        0.400   0.266   9.166   9.832
   26        0.400   0.266   9.166   9.832
   27        0.395   0.270   9.164   9.830
   28        0.415   0.200   9.176   9.792
   29        0.433   0.210   9.164   9.807
   30        0.433   0.210   9.164   9.807
   31        0.433   0.210   9.164   9.807
   32        0.433   0.210   9.164   9.807
   33        0.433   0.210   9.164   9.807
   34        0.433   0.210   9.164   9.807
   35        0.415   0.199   9.175   9.789
   36        0.619   0.557   2.538   3.714
   37        1.326   2.208   0.000   3.534
tot         16.422  11.172 323.383 350.977

 BZINTS: Fermi energy:    0.665861;  394.000000 electrons
         Band energy:-0.137606E+04;  BLOECHL correction:   -0.085964