 vasp.6.2.0 18Jan21 (build Jun 12 2021 23:27:24) complex

 executed on             LinuxIFC date 2022.05.26  20:00:53

 INCAR:
   ISMEAR = -5
   SIGMA = 0.1
   ISPIN = 1
   EDIFF = 1.d-5
   EDIFFG = -0.01
   NSW = 0
   NELM = 150
   ENCUT = 500
   ISIF = 2
   IBRION = 2
   LREAL = Auto
   ALGO = Fast
   ICHARG = 11
   LORBIT = 10
   LCHARG = .F.
   LWAVE = .F.

 POTCAR:    PAW_PBE Cu 22Jun2005
 POTCAR:    PAW_PBE Ni 02Aug2007
 POTCAR:    PAW_PBE O 08Apr2002
|           W    W    AA    RRRRR   N    N  II  N    N   GGGG   !!!           |
|           W    W   A  A   R    R  NN   N  II  NN   N  G    G  !!!           |
|           W    W  A    A  R    R  N N  N  II  N N  N  G       !!!           |
|           W WW W  AAAAAA  RRRRR   N  N N  II  N  N N  G  GGG   !            |
|           WW  WW  A    A  R   R   N   NN  II  N   NN  G    G                |
|           W    W  A    A  R    R  N    N  II  N    N   GGGG   !!!           |
|     For optimal performance we recommend to set                             |
|       NCORE = 2 up to number-of-cores-per-socket                            |
|     This setting can greatly improve the performance of VASP for DFT.       |
|     The default, NCORE=1 might be grossly inefficient on modern             |
|     multi-core architectures or massively parallel machines. Do your        |
|     Unfortunately you need to use the default for GW and RPA                |
|     calculations (for HF NCORE is supported but not extensively tested      |
|     yet).                                                                   |

 POTCAR:    PAW_PBE Cu 22Jun2005
   VRHFIN =Cu: d10 p1

   TITEL  = PAW_PBE Cu 22Jun2005
   POMASS =   63.546; ZVAL   =   11.000    mass and valenz
   ENMAX  =  295.446; ENMIN  =  221.585 eV

 POTCAR:    PAW_PBE Ni 02Aug2007
   VRHFIN =Ni:

   TITEL  = PAW_PBE Ni 02Aug2007
   POMASS =   58.690; ZVAL   =   10.000    mass and valenz
   ENMAX  =  269.532; ENMIN  =  202.149 eV

 POTCAR:    PAW_PBE O 08Apr2002
   VRHFIN =O: s2p4

   TITEL  = PAW_PBE O 08Apr2002
   POMASS =   16.000; ZVAL   =    6.000    mass and valenz
   ENMAX  =  400.000; ENMIN  =  300.000 eV

 Optimization of the real space projectors (new method)

 maximal supplied QI-value         = 16.25
 optimisation between [QCUT,QGAM] = [ 11.38, 22.75] = [ 36.24,144.96] Ry
 Optimized for a Real-space Cutoff    1.52 Angstroem

   l    n(q)    QCUT    max X(q) W(low)/X(q) W(high)/X(q)  e(spline)
   2      9    11.376     4.610    0.21E-03    0.10E-03    0.26E-06
   2      9    11.376     8.522    0.33E-03    0.16E-03    0.37E-06
   0     10    11.376    51.609    0.62E-04    0.20E-04    0.13E-06
   0     10    11.376    27.747    0.54E-04    0.20E-04    0.13E-06
   1     10    11.376    20.408    0.13E-04    0.99E-04    0.19E-06
   1     10    11.376    13.425    0.12E-04    0.87E-04    0.17E-06
 Optimization of the real space projectors (new method)

[...]

   l    n(q)    QCUT    max X(q) W(low)/X(q) W(high)/X(q)  e(spline)
   2      8    11.376    60.317    0.19E-03    0.33E-04    0.13E-06
   2      8    11.376    55.921    0.20E-03    0.34E-04    0.14E-06
   0      9    11.376    51.690    0.82E-04    0.12E-03    0.20E-06
   0      9    11.376    30.015    0.74E-04    0.11E-03    0.18E-06
   1      9    11.376    18.849    0.39E-03    0.12E-03    0.13E-06
   1      9    11.376    14.624    0.33E-03    0.10E-03    0.11E-06
 Optimization of the real space projectors (new method)

 maximal supplied QI-value         = 24.76
 optimisation between [QCUT,QGAM] = [ 11.39, 22.77] = [ 36.31,145.25] Ry
 Optimized for a Real-space Cutoff    1.00 Angstroem

   l    n(q)    QCUT    max X(q) W(low)/X(q) W(high)/X(q)  e(spline)
   0      7    11.387    20.381    0.39E-03    0.13E-02    0.15E-06
   0      7    11.387    15.268    0.42E-03    0.14E-02    0.17E-06
   1      6    11.387     5.964    0.41E-03    0.11E-02    0.17E-06
   1      6    11.387     5.382    0.39E-03    0.87E-03    0.15E-06
  PAW_PBE Cu 22Jun2005                  :
  PAW_PBE Ni 02Aug2007                  :
  PAW_PBE O 08Apr2002                   :

 POSCAR: Cu-Ni-O
  positions in direct lattice
  velocities in cartesian coordinates
 exchange correlation table for  LEXCH =        8
   RHO(1)=    0.500       N(1)  =     2000
   RHO(2)=  100.500       N(2)  =     4000

 VTST: version 3.2, (02/03/18)

 CHAIN: initializing optimizer

 OPT: Using VASP Conjugate-Gradient optimizer
 CHAIN: Read ICHAIN            0

 POSCAR: Cu-Ni-O
  positions in direct lattice
  velocities in cartesian coordinates

 ion  position               nearest neighbor table
   1  0.000  0.000  0.252-   7 2.57   3 2.57   4 2.57   2 2.57   6 2.57   8 2.57  12 2.57  10 2.57
                            16 2.57
   2  0.333  0.000  0.252-   8 2.57   9 2.57   5 2.57   1 2.57   3 2.57  11 2.57   4 2.57  10 2.57
                            17 2.57
   3  0.667  0.000  0.252-   1 2.57   7 2.57   6 2.57   9 2.57   2 2.57  12 2.57   5 2.57  18 2.57
                            11 2.57
   4  0.000  0.333  0.252-   5 2.57   6 2.57   1 2.57   7 2.57   2 2.57  13 2.57   9 2.57  10 2.57
                            15 2.57
   5  0.333  0.333  0.252-   4 2.57   2 2.57   7 2.57  13 2.57   8 2.57   6 2.57   3 2.57  11 2.57
                            14 2.57
   6  0.667  0.333  0.252-   4 2.57   9 2.57  15 2.57   3 2.57   1 2.57   8 2.57  14 2.57   5 2.57
                            12 2.57
   7  0.000  0.667  0.252-   1 2.57   3 2.57  16 2.57  18 2.57   4 2.57   5 2.57   8 2.57   9 2.57
                            13 2.57
   8  0.333  0.667  0.252-   9 2.57   2 2.57  17 2.57   6 2.57   1 2.57   7 2.57   5 2.57  14 2.57
                            16 2.57
   9  0.667  0.667  0.252-   8 2.57   6 2.57   2 2.57  17 2.57   3 2.57   7 2.57   4 2.57  15 2.57
                            18 2.57
  10  0.111  0.111  0.351-  20 2.55  26 2.56  19 2.56  11 2.57  12 2.57  13 2.57   1 2.57   2 2.57
                             4 2.57  15 2.57  16 2.57  17 2.57
  11  0.444  0.111  0.351-  20 2.55  21 2.55  27 2.56  10 2.57  13 2.57   2 2.57  17 2.57  14 2.57
                            12 2.57   5 2.57   3 2.57  18 2.57
  12  0.778  0.111  0.351-  21 2.55  19 2.56  25 2.56  15 2.57  10 2.57  14 2.57  18 2.57   3 2.57
                             1 2.57  16 2.57  11 2.57   6 2.57
  13  0.111  0.444  0.351-  23 2.55  20 2.55  22 2.56  16 2.57  18 2.57  10 2.57  11 2.57  14 2.57
                             5 2.57   4 2.57   7 2.57  15 2.57
  14  0.444  0.444  0.351-  21 2.55  23 2.55  24 2.56  15 2.57  17 2.57  12 2.57  16 2.57  13 2.57
                            11 2.57   6 2.57   8 2.57   5 2.57
  15  0.778  0.444  0.351-  24 2.55  22 2.55  19 2.56  14 2.57  17 2.57  12 2.57   6 2.57  18 2.57
                            10 2.57   9 2.57  13 2.57   4 2.57
  16  0.111  0.778  0.351-  23 2.55  25 2.56  26 2.56  18 2.57  13 2.57   7 2.57  14 2.57  17 2.57
                            12 2.57  10 2.57   8 2.57   1 2.57
  17  0.444  0.778  0.351-  27 2.55  24 2.55  26 2.56  14 2.57  15 2.57   8 2.57   9 2.57  11 2.57
                            16 2.57  18 2.57  10 2.57   2 2.57
  18  0.778  0.778  0.351-  22 2.55  27 2.55  25 2.56  16 2.57  13 2.57   7 2.57  15 2.57  12 2.57
                            17 2.57   9 2.57   3 2.57  11 2.57
  19  0.889  0.223  0.449-  28 2.54  32 2.55  31 2.55  15 2.56  12 2.56  10 2.56  22 2.56  24 2.56
                            21 2.57  20 2.57  25 2.57  26 2.57
  20  0.222  0.222  0.448-  36 2.48  29 2.54  31 2.54  10 2.55  11 2.55  13 2.55  26 2.57  19 2.57
                            27 2.57  22 2.57  23 2.57  21 2.57
  21  0.556  0.222  0.448-  36 2.48  32 2.54  30 2.54  12 2.55  14 2.55  11 2.55  19 2.57  25 2.57
                            24 2.57  27 2.57  20 2.57  23 2.57
  22  0.889  0.556  0.449-  35 2.54  31 2.55  33 2.55  18 2.55  15 2.55  13 2.56  19 2.56  25 2.56
                            24 2.57  27 2.57  23 2.57  20 2.57
  23  0.222  0.556  0.448-  36 2.48  33 2.54  34 2.54  16 2.55  13 2.55  14 2.55  25 2.57  26 2.57
                            22 2.57  24 2.57  20 2.57  21 2.57
  24  0.556  0.556  0.449-  35 2.54  32 2.55  34 2.55  15 2.55  17 2.55  14 2.56  19 2.56  26 2.56
                            22 2.57  27 2.57  21 2.57  23 2.57
  25  0.889  0.889  0.449-  28 2.54  33 2.55  30 2.55  18 2.56  16 2.56  12 2.56  22 2.56  27 2.56
                            21 2.57  23 2.57  19 2.57  26 2.57
  26  0.223  0.889  0.449-  28 2.54  29 2.55  34 2.55  17 2.56  10 2.56  16 2.56  27 2.56  24 2.56
                            20 2.57  23 2.57  25 2.57  19 2.57
  27  0.556  0.889  0.449-  35 2.54  29 2.55  30 2.55  17 2.55  18 2.55  11 2.56  26 2.56  25 2.56
                            24 2.57  22 2.57  20 2.57  21 2.57
  28  0.000  0.000  0.546-  25 2.54  19 2.54  26 2.54  33 2.57  30 2.57  31 2.57  29 2.57  32 2.57
                            34 2.57
  29  0.333  0.002  0.546-  20 2.54  27 2.55  31 2.55  36 2.55  30 2.55  26 2.55  28 2.57  35 2.57
                            34 2.60
  30  0.665  0.002  0.546-  21 2.54  27 2.55  32 2.55  36 2.55  29 2.55  25 2.55  28 2.57  35 2.57
                            33 2.60
  31  0.002  0.333  0.546-  20 2.54  22 2.55  29 2.55  36 2.55  33 2.55  19 2.55  28 2.57  35 2.57
                            32 2.60
  32  0.665  0.333  0.546-  21 2.54  24 2.55  30 2.55  36 2.55  34 2.55  19 2.55  28 2.57  35 2.57
                            31 2.60
  33  0.002  0.665  0.546-  23 2.54  22 2.55  34 2.55  36 2.55  31 2.55  25 2.55  28 2.57  35 2.57
                            30 2.60
  34  0.333  0.665  0.546-  23 2.54  24 2.55  33 2.55  36 2.55  32 2.55  26 2.55  28 2.57  35 2.57
                            29 2.60
  35  0.667  0.667  0.546-  24 2.54  27 2.54  22 2.54  34 2.57  32 2.57  29 2.57  30 2.57  33 2.57
                            31 2.57
  36  0.333  0.333  0.542-  37 1.67  23 2.48  20 2.48  21 2.48  31 2.55  29 2.55  33 2.55  34 2.55
                            32 2.55  30 2.55
  37  0.333  0.333  0.621-  36 1.67

  LATTYP: Found a hexagonal cell.
 ALAT       =     7.6967864036
 C/A-ratio  =     2.7653617908

  Lattice vectors:

 A1 = (  -3.8483927580,  -6.6656128093,   0.0000000000)
 A2 = (   7.6967864037,   0.0000000000,   0.0000000000)
 A3 = (   0.0000000000,   0.0000000000,  21.2843990326)

Analysis of symmetry for initial positions (statically):
 Subroutine PRICEL returns:
 Original cell was already a primitive cell.

 Routine SETGRP: Setting up the symmetry group for a
 hexagonal supercell.

 Subroutine GETGRP returns: Found  6 space group operations
 (whereof  6 operations were pure point group operations)
 out of a pool of 24 trial point group operations.

The static configuration has the point symmetry C_3v.

Analysis of symmetry for dynamics (positions and initial velocities):
 Subroutine PRICEL returns:
 Original cell was already a primitive cell.

[...]

The dynamic configuration has the point symmetry C_3v.

Analysis of constrained symmetry for selective dynamics:
 Subroutine PRICEL returns:
 Original cell was already a primitive cell.

 Routine SETGRP: Setting up the symmetry group for a
 hexagonal supercell.

 Subroutine GETGRP returns: Found  6 space group operations
[...]
     24      -4.4367      2.00000
     25      -4.3075      2.00000
     26      -4.2407      2.00000
     27      -4.2103      2.00000
     28      -4.1781      2.00000
     29      -4.1660      2.00000
     30      -4.1561      2.00000
     31      -4.1551      2.00000
     32      -4.1388      2.00000
     33      -4.0915      2.00000
     34      -4.0751      2.00000
     35      -4.0542      2.00000
     36      -4.0146      2.00000
     37      -3.9683      2.00000
     38      -3.9403      2.00000
     39      -3.8667      2.00000
     40      -3.8478      2.00000
     41      -3.8249      2.00000
     42      -3.8051      2.00000
     43      -3.7521      2.00000
     44      -3.7431      2.00000
     45      -3.7175      2.00000
     46      -3.7064      2.00000
     47      -3.6667      2.00000
     48      -3.6446      2.00000
     49      -3.5825      2.00000
     50      -3.5020      2.00000
     51      -3.4807      2.00000
     52      -3.4797      2.00000
     53      -3.4578      2.00000
     54      -3.4216      2.00000
     55      -3.4152      2.00000
     56      -3.3911      2.00000
     57      -3.3765      2.00000
     58      -3.3675      2.00000
     59      -3.3494      2.00000
     60      -3.3399      2.00000
[...]
    238       6.2451      0.00000
    239       6.2708      0.00000
    240       6.3475      0.00000
    241       6.9274      0.00000
    242       6.9777      0.00000
    243       7.1100      0.00000
    244       7.1161      0.00000
    245       7.1358      0.00000
    246       7.1714      0.00000
    247       7.3204      0.00000
    248       7.4682      0.00000
    249       7.5101      0.00000
    250       7.6284      0.00000
    251       7.7500      0.00000
    252       7.9003      0.00000

 soft charge-density along one line, spin component           1
         0         1         2         3         4         5         6         7         8         9
 total charge-density along one line

------------------------ aborting loop because EDIFF is reached ----------------------------------------

 total charge

# of ion       s       p       d       tot
    1        0.449   0.284   9.190   9.923
    2        0.449   0.284   9.188   9.921
    3        0.449   0.284   9.188   9.921
    4        0.449   0.284   9.188   9.921
    5        0.447   0.287   9.188   9.922
    6        0.449   0.284   9.188   9.921
    7        0.449   0.284   9.188   9.921
    8        0.449   0.284   9.188   9.921
    9        0.447   0.285   9.184   9.916
   10        0.441   0.371   9.179   9.991
   11        0.441   0.369   9.180   9.990
   12        0.441   0.371   9.179   9.991
   13        0.441   0.369   9.180   9.990
   14        0.441   0.369   9.180   9.990
   15        0.440   0.369   9.181   9.990
   16        0.441   0.371   9.179   9.991
   17        0.440   0.369   9.181   9.990
   18        0.440   0.369   9.181   9.990
   19        0.440   0.377   9.175   9.991
   20        0.452   0.383   9.176  10.012
   21        0.452   0.383   9.176  10.012
   22        0.442   0.371   9.184   9.997
   23        0.452   0.383   9.176  10.012
   24        0.442   0.371   9.184   9.997
   25        0.440   0.377   9.175   9.991
   26        0.440   0.377   9.175   9.991
   27        0.442   0.371   9.184   9.997
   28        0.452   0.282   9.199   9.932
   29        0.433   0.283   9.201   9.917
   30        0.433   0.283   9.201   9.917
   31        0.433   0.283   9.201   9.917
   32        0.433   0.283   9.201   9.917
   33        0.433   0.283   9.201   9.917
   34        0.433   0.283   9.201   9.917
   35        0.449   0.285   9.191   9.924
   36        0.536   0.605   8.352   9.493
   37        1.603   3.210   0.000   4.813
tot         17.643  15.360 329.860 362.864

  FORCE on cell =-STRESS in cart. coord.  units (eV):
  Direction    XX          YY          ZZ          XY          YZ          ZX
  Alpha Z   881.75059   881.75059   881.75059
  Ewald  175794.79968175794.79920************     0.00042     0.00011     0.00020
  Hartree189017.70544189017.70537************     0.00006     0.00005     0.00009
  E(xc)   -2331.58227 -2331.58181 -2335.58477    -0.00040    -0.00003    -0.00006
  Local  ************************377999.88144     0.01894    -0.00058    -0.00104
  n-local  -793.91661  -781.02922  -799.02287     7.04743    -0.05386     0.19416
  augment  3492.72024  3492.74070  3497.08663    -0.01772     0.00026     0.00047
  Kinetic  3339.77139  3341.50507  3351.55869     2.69957     2.00192    -1.25644
  Fock        0.00000     0.00000     0.00000     0.00000     0.00000     0.00000
  Total      -4.90095    -4.90095     2.02198     0.00000     0.00000     0.00000
  in kB      -7.19085    -7.19085     2.96672     0.00000     0.00000     0.00000

 VOLUME and BASIS-vectors are now :
  energy-cutoff  :      500.00
  volume of cell :     1091.97
      direct lattice vectors                 reciprocal lattice vectors
     7.696786404  0.000000000  0.000000000     0.129924354 -0.075011849  0.000000000
     3.848392758  6.665612809  0.000000000     0.000000000  0.150023716  0.000000000
     0.000000000  0.000000000 21.284399033     0.000000000  0.000000000  0.046982769

  length of vectors
     7.696786404  7.696786404 21.284399033     0.150023716  0.150023716  0.046982769

 FORCES acting on ions
    electron-ion (+dipol)            ewald-force                    non-local-force                 convergence-correction
   -.415E-04 0.175E-06 0.351E+04   0.578E-04 -.445E-05 -.351E+04   -.209E-17 -.464E-18 -.271E+01   -.307E-03 -.144E-03 -.236E+00
   0.108E+00 0.447E+00 0.351E+04   -.257E+00 -.320E+00 -.351E+04   0.290E-01 0.770E-01 -.200E+01   0.120E+00 -.188E+00 -.187E+00
   -.108E+00 0.447E+00 0.351E+04   0.257E+00 -.320E+00 -.351E+04   -.290E-01 0.770E-01 -.200E+01   -.119E+00 -.185E+00 -.186E+00
   0.441E+00 -.131E+00 0.351E+04   -.406E+00 -.625E-01 -.351E+04   0.812E-01 -.134E-01 -.200E+01   -.103E+00 0.197E+00 -.187E+00
   -.666E-04 -.625E-05 0.351E+04   0.116E-03 -.101E-04 -.351E+04   -.277E-17 0.719E-19 -.175E+01   0.122E-01 0.744E-02 -.214E+00
   -.441E+00 -.130E+00 0.351E+04   0.406E+00 -.627E-01 -.351E+04   -.812E-01 -.134E-01 -.200E+01   0.101E+00 0.199E+00 -.186E+00
   0.334E+00 -.317E+00 0.351E+04   -.149E+00 0.383E+00 -.351E+04   0.522E-01 -.637E-01 -.200E+01   -.220E+00 -.105E-01 -.186E+00
   -.334E+00 -.317E+00 0.351E+04   0.148E+00 0.383E+00 -.351E+04   -.522E-01 -.637E-01 -.200E+01   0.223E+00 -.120E-01 -.186E+00
   -.144E-03 -.329E-04 0.351E+04   0.264E-03 0.206E-04 -.351E+04   -.255E-17 -.799E-18 -.242E+01   -.132E-01 -.683E-02 -.162E+00
   0.309E+01 0.178E+01 0.122E+04   -.283E+01 -.163E+01 -.121E+04   -.297E+00 -.172E+00 -.918E+00   0.403E-01 0.232E-01 -.243E-02
   -.900E-04 0.322E+01 0.122E+04   0.190E-03 -.305E+01 -.122E+04   -.868E-09 0.130E-01 -.370E+00   0.117E-01 -.202E+00 0.425E-01
   -.309E+01 0.178E+01 0.122E+04   0.283E+01 -.163E+01 -.121E+04   0.297E+00 -.172E+00 -.918E+00   -.418E-01 0.248E-01 -.262E-02
   0.279E+01 -.161E+01 0.122E+04   -.264E+01 0.152E+01 -.122E+04   0.113E-01 -.652E-02 -.370E+00   -.169E+00 0.112E+00 0.426E-01
   -.279E+01 -.161E+01 0.122E+04   0.264E+01 0.152E+01 -.122E+04   -.113E-01 -.652E-02 -.370E+00   0.193E+00 0.111E+00 0.416E-01
   -.143E-03 -.112E+00 0.122E+04   0.300E-03 -.790E-01 -.121E+04   -.423E-08 0.635E-01 -.895E+00   -.353E-02 0.125E+00 -.724E-01
   -.908E-04 -.357E+01 0.122E+04   0.185E-03 0.327E+01 -.121E+04   -.229E-07 0.343E+00 -.918E+00   -.354E-03 -.498E-01 -.268E-02
   -.967E-01 0.557E-01 0.122E+04   -.684E-01 0.398E-01 -.121E+04   0.550E-01 -.318E-01 -.895E+00   0.107E+00 -.654E-01 -.725E-01
   0.967E-01 0.557E-01 0.122E+04   0.682E-01 0.397E-01 -.121E+04   -.550E-01 -.318E-01 -.895E+00   -.106E+00 -.628E-01 -.717E-01
   -.545E-04 0.210E+01 -.112E+04   0.653E-04 -.241E+01 0.112E+04   -.134E-07 0.201E+00 0.831E+00   -.108E-01 0.130E+00 -.306E+00
   0.148E+02 0.852E+01 -.109E+04   -.140E+02 -.807E+01 0.109E+04   -.796E+00 -.460E+00 -.345E+00   0.598E-01 0.344E-01 -.129E+00
   -.148E+02 0.852E+01 -.109E+04   0.140E+02 -.807E+01 0.109E+04   0.796E+00 -.460E+00 -.345E+00   -.784E-01 0.350E-01 -.130E+00
   0.802E+01 -.463E+01 -.111E+04   -.800E+01 0.462E+01 0.111E+04   0.146E-01 -.842E-02 0.818E+00   -.289E-01 0.408E-02 -.325E+00
   -.714E-04 -.170E+02 -.109E+04   0.141E-03 0.161E+02 0.109E+04   -.612E-07 0.920E+00 -.345E+00   -.101E-01 -.866E-01 -.130E+00
   -.802E+01 -.463E+01 -.111E+04   0.800E+01 0.462E+01 0.111E+04   -.146E-01 -.842E-02 0.818E+00   0.790E-02 0.368E-02 -.325E+00
   -.182E+01 -.105E+01 -.112E+04   0.209E+01 0.121E+01 0.112E+04   -.174E+00 -.101E+00 0.831E+00   -.127E+00 -.735E-01 -.306E+00
   0.182E+01 -.105E+01 -.112E+04   -.209E+01 0.121E+01 0.112E+04   0.174E+00 -.101E+00 0.831E+00   0.108E+00 -.744E-01 -.306E+00
   -.132E-03 0.926E+01 -.111E+04   0.245E-03 -.924E+01 0.111E+04   -.112E-08 0.168E-01 0.818E+00   -.109E-01 -.271E-01 -.325E+00
   -.247E-04 0.213E-04 -.345E+04   0.314E-04 -.355E-04 0.345E+04   0.139E-16 -.962E-18 0.239E+01   -.504E-04 0.208E-04 0.268E+00
   0.278E+02 0.491E+02 -.343E+04   -.286E+02 -.508E+02 0.343E+04   0.690E+00 0.145E+01 0.338E+01   0.615E-01 0.712E-01 0.142E+00
   -.278E+02 0.491E+02 -.343E+04   0.286E+02 -.508E+02 0.343E+04   -.690E+00 0.145E+01 0.338E+01   -.606E-01 0.735E-01 0.142E+00
   0.564E+02 -.494E+00 -.343E+04   -.583E+02 0.602E+00 0.343E+04   0.160E+01 -.129E+00 0.338E+01   0.925E-01 0.175E-01 0.142E+00
   -.564E+02 -.494E+00 -.343E+04   0.583E+02 0.602E+00 0.343E+04   -.160E+01 -.129E+00 0.338E+01   -.937E-01 0.186E-01 0.142E+00
   0.286E+02 -.486E+02 -.343E+04   -.297E+02 0.502E+02 0.343E+04   0.912E+00 -.132E+01 0.338E+01   0.334E-01 -.893E-01 0.142E+00
   -.286E+02 -.486E+02 -.343E+04   0.297E+02 0.502E+02 0.343E+04   -.912E+00 -.132E+01 0.338E+01   -.300E-01 -.904E-01 0.142E+00
   -.135E-03 -.179E-04 -.345E+04   0.260E-03 0.688E-05 0.345E+04   0.185E-17 0.724E-18 0.228E+01   -.130E-01 -.669E-02 0.154E+00
   -.661E-04 -.277E-04 -.281E+04   0.130E-03 0.238E-04 0.282E+04   -.501E-17 0.321E-17 -.196E+01   0.900E-02 0.549E-02 0.173E+00
   0.169E-03 -.831E-04 -.232E+04   0.204E-04 0.912E-05 0.235E+04   -.130E-17 -.112E-17 -.253E+02   0.334E-02 0.203E-02 0.708E-01
   -.698E-04 -.922E-04 0.264E+02   0.860E-13 0.592E-14 -.286E-10   0.329E-15 0.447E-15 -.238E+02   -.554E-01 -.347E-01 -.259E+01

 POSITION                                       TOTAL-FORCE (eV/Angst)
      0.00000      0.00000      5.37156         0.000000     -0.000000      0.036117
      2.56560      0.00000      5.37156        -0.000180      0.017885      0.074495
      5.13119      0.00000      5.37156         0.000180      0.017885      0.074495
      1.28280      2.22187      5.37156         0.015399     -0.009098      0.074495
      3.84839      2.22187      5.37156         0.000000     -0.000000      0.106048
      6.41399      2.22187      5.37156        -0.015399     -0.009098      0.074495
      2.56560      4.44374      5.37156         0.015579     -0.008787      0.074495
      5.13119      4.44374      5.37156        -0.015579     -0.008787      0.074495
      7.69679      4.44374      5.37156         0.000000     -0.000000      0.052811
      1.28280      0.74062      7.46636         0.001675      0.000967     -0.055283
      3.84839      0.74062      7.46636         0.000000     -0.022846     -0.088274
      6.41399      0.74062      7.46636        -0.001675      0.000967     -0.055283
      2.56560      2.96249      7.46636        -0.019785      0.011423     -0.088274
      5.13119      2.96249      7.46636         0.019785      0.011423     -0.088274
      7.69679      2.96249      7.46636         0.000000     -0.002711     -0.080470
      3.84839      5.18437      7.46636         0.000000     -0.001935     -0.055283
      6.41399      5.18437      7.46636        -0.002348      0.001355     -0.080470
      8.97958      5.18437      7.46636         0.002348      0.001355     -0.080470
      7.69679      1.48353      9.55071        -0.000000      0.020448      0.042660
      2.56540      1.48114      9.54275         0.043591      0.025167     -0.177010
      5.13138      1.48114      9.54275        -0.043591      0.025167     -0.177010
      8.97935      3.70325      9.54809         0.021463     -0.012391     -0.011398
      3.84839      3.70334      9.54275         0.000000     -0.050335     -0.177010
      6.41422      3.70325      9.54809        -0.021463     -0.012391     -0.011398
     10.26040      5.92385      9.55071        -0.017709     -0.010224      0.042660
      5.13317      5.92385      9.55071         0.017709     -0.010224      0.042660
      7.69679      5.92472      9.54809        -0.000000      0.024783     -0.011398
      0.00000      0.00000     11.61525         0.000000     -0.000000     -0.038400
      2.57297      0.01446     11.62005        -0.096584     -0.160926      0.026799
      5.12381      0.01446     11.62005         0.096584     -0.160926      0.026799
      1.29901      2.22103     11.62005        -0.187658     -0.003181      0.026799
      6.39777      2.22103     11.62005         0.187658     -0.003181      0.026799
      2.57443      4.43012     11.62005        -0.091074      0.164107      0.026799
      5.12235      4.43012     11.62005         0.091074      0.164107      0.026799
      7.69679      4.44374     11.61370         0.000000     -0.000000     -0.013919
      3.84839      2.22187     11.53520        -0.000000     -0.000000      0.395687
      3.84839      2.22187     13.20979         0.000000     -0.000000     -0.036785
    total drift:                               -0.055493     -0.034836     -0.001013

  FREE ENERGIE OF THE ION-ELECTRON SYSTEM (eV)
  free  energy   TOTEN  =      -132.95602021 eV

  energy  without entropy=     -132.95602021  energy(sigma->0) =     -132.95602021

 stress matrix after NEB project (eV)
     -4.90095      0.00000      0.00000
      0.00000     -4.90095     -0.00000
     -0.00000      0.00000      2.02198
  FORCES: max atom, RMS     0.036785    0.006047
  FORCE total and by dimension    0.036785    0.036785
  Stress total and by dimension    7.219907    4.900951
|           W    W    AA    RRRRR   N    N  II  N    N   GGGG   !!!           |
|           W    W   A  A   R    R  NN   N  II  NN   N  G    G  !!!           |
|           W    W  A    A  R    R  N N  N  II  N N  N  G       !!!           |
|           W WW W  AAAAAA  RRRRR   N  N N  II  N  N N  G  GGG   !            |
|           WW  WW  A    A  R   R   N   NN  II  N   NN  G    G                |
|           W    W  A    A  R    R  N    N  II  N    N   GGGG   !!!           |
|     Tetrahedron method does not include variations of the Fermi             |
|     occupations, so forces and stress will be inaccurate. We suggest        |
|     using a different smearing scheme ISMEAR = 1 or 2 for metals in         |
|     relaxations.                                                            |

 total charge

# of ion       s       p       d       tot
    1        0.449   0.284   9.190   9.923
    2        0.449   0.284   9.188   9.921
    3        0.449   0.284   9.188   9.921
    4        0.449   0.284   9.188   9.921
    5        0.447   0.287   9.188   9.922
    6        0.449   0.284   9.188   9.921
    7        0.449   0.284   9.188   9.921
    8        0.449   0.284   9.188   9.921
    9        0.447   0.285   9.184   9.916
   10        0.441   0.371   9.179   9.991
   11        0.441   0.369   9.180   9.990
   12        0.441   0.371   9.179   9.991
   13        0.441   0.369   9.180   9.990
   14        0.441   0.369   9.180   9.990
   15        0.440   0.369   9.181   9.990
   16        0.441   0.371   9.179   9.991
   17        0.440   0.369   9.181   9.990
   18        0.440   0.369   9.181   9.990
   19        0.440   0.377   9.175   9.991
   20        0.452   0.383   9.176  10.012
   21        0.452   0.383   9.176  10.012
   22        0.442   0.371   9.184   9.997
   23        0.452   0.383   9.176  10.012
   24        0.442   0.371   9.184   9.997
   25        0.440   0.377   9.175   9.991
   26        0.440   0.377   9.175   9.991
   27        0.442   0.371   9.184   9.997
   28        0.452   0.282   9.199   9.932
   29        0.433   0.283   9.201   9.917
   30        0.433   0.283   9.201   9.917
   31        0.433   0.283   9.201   9.917
   32        0.433   0.283   9.201   9.917
   33        0.433   0.283   9.201   9.917
   34        0.433   0.283   9.201   9.917
   35        0.449   0.285   9.191   9.924
   36        0.536   0.605   8.352   9.493
   37        1.603   3.210   0.000   4.813
tot         17.643  15.360 329.860 362.864

 BZINTS: Fermi energy:   -0.062710;  401.000000 electrons
         Band energy:-0.117073E+04;  BLOECHL correction:   -0.031513