 vasp.6.2.0 18Jan21 (build Jun 12 2021 23:27:24) complex

 executed on             LinuxIFC date 2022.05.27  05:25:48

 INCAR:
   ISMEAR = -5
   SIGMA = 0.1
   ISPIN = 1
   EDIFF = 1.d-5
   EDIFFG = -0.01
   NSW = 0
   NELM = 150
   ENCUT = 500
   ISIF = 2
   IBRION = 2
   LREAL = Auto
   ALGO = Fast
   ICHARG = 11
   LORBIT = 10
   LCHARG = .F.
   LWAVE = .F.

 POTCAR:    PAW_PBE Ag 02Apr2005
 POTCAR:    PAW_PBE Ti 08Apr2002
 POTCAR:    PAW_PBE O 08Apr2002
 POTCAR:    PAW_PBE H 15Jun2001
|           W    W    AA    RRRRR   N    N  II  N    N   GGGG   !!!           |
|           W    W   A  A   R    R  NN   N  II  NN   N  G    G  !!!           |
|           W    W  A    A  R    R  N N  N  II  N N  N  G       !!!           |
|           W WW W  AAAAAA  RRRRR   N  N N  II  N  N N  G  GGG   !            |
|           WW  WW  A    A  R   R   N   NN  II  N   NN  G    G                |
|           W    W  A    A  R    R  N    N  II  N    N   GGGG   !!!           |
|     For optimal performance we recommend to set                             |
|       NCORE = 2 up to number-of-cores-per-socket                            |
|     This setting can greatly improve the performance of VASP for DFT.       |
|     The default, NCORE=1 might be grossly inefficient on modern             |
|     multi-core architectures or massively parallel machines. Do your        |
|     Unfortunately you need to use the default for GW and RPA                |
|     calculations (for HF NCORE is supported but not extensively tested      |
|     yet).                                                                   |

 POTCAR:    PAW_PBE Ag 02Apr2005
   VRHFIN =Ag : s1 d10

   TITEL  = PAW_PBE Ag 02Apr2005
   POMASS =  107.868; ZVAL   =   11.000    mass and valenz
   ENMAX  =  249.844; ENMIN  =  187.383 eV

 POTCAR:    PAW_PBE Ti 08Apr2002
   VRHFIN =Ti: d3 s1

[...]

 POTCAR:    PAW_PBE O 08Apr2002
   VRHFIN =O: s2p4

   TITEL  = PAW_PBE O 08Apr2002
   POMASS =   16.000; ZVAL   =    6.000    mass and valenz
   ENMAX  =  400.000; ENMIN  =  300.000 eV

 POTCAR:    PAW_PBE H 15Jun2001
   VRHFIN =H: ultrasoft test

   TITEL  = PAW_PBE H 15Jun2001
   POMASS =    1.000; ZVAL   =    1.000    mass and valenz
   ENMAX  =  250.000; ENMIN  =  200.000 eV

 Optimization of the real space projectors (new method)

 maximal supplied QI-value         = 15.12
 optimisation between [QCUT,QGAM] = [ 11.34, 22.83] = [ 36.00,145.93] Ry
 Optimized for a Real-space Cutoff    1.43 Angstroem

   l    n(q)    QCUT    max X(q) W(low)/X(q) W(high)/X(q)  e(spline)
   2      9    11.338    53.897    0.16E-03    0.20E-03    0.28E-06
   2      9    11.338    52.416    0.16E-03    0.20E-03    0.29E-06
   0     10    11.338   122.045    0.31E-04    0.76E-04    0.15E-06
   0     10    11.338    73.629    0.30E-04    0.72E-04    0.15E-06
   1      9    11.338    15.255    0.20E-03    0.19E-04    0.17E-06
   1      9    11.338     9.562    0.16E-03    0.15E-04    0.14E-06
 Optimization of the real space projectors (new method)

[...]

   l    n(q)    QCUT    max X(q) W(low)/X(q) W(high)/X(q)  e(spline)
   0      7    11.387    20.381    0.39E-03    0.13E-02    0.15E-06
   0      7    11.387    15.268    0.42E-03    0.14E-02    0.17E-06
   1      6    11.387     5.964    0.41E-03    0.11E-02    0.17E-06
   1      6    11.387     5.382    0.39E-03    0.87E-03    0.15E-06
 Optimization of the real space projectors (new method)

 maximal supplied QI-value         = 34.20
 optimisation between [QCUT,QGAM] = [ 11.29, 22.57] = [ 35.68,142.71] Ry
 Optimized for a Real-space Cutoff    1.16 Angstroem

   l    n(q)    QCUT    max X(q) W(low)/X(q) W(high)/X(q)  e(spline)
   0      8    11.287    19.460    0.40E-03    0.73E-03    0.16E-06
   0      8    11.287    12.209    0.38E-03    0.70E-03    0.15E-06
   1      7    11.287     4.655    0.22E-03    0.25E-04    0.22E-06
  PAW_PBE Ag 02Apr2005                  :
  PAW_PBE Ti 08Apr2002                  :
  PAW_PBE O 08Apr2002                   :
  PAW_PBE H 15Jun2001                   :

 POSCAR: Ag-Ti-OH
  positions in direct lattice
  velocities in cartesian coordinates
 exchange correlation table for  LEXCH =        8
   RHO(1)=    0.500       N(1)  =     2000
   RHO(2)=  100.500       N(2)  =     4000

 VTST: version 3.2, (02/03/18)

 CHAIN: initializing optimizer

 OPT: Using VASP Conjugate-Gradient optimizer
 CHAIN: Read ICHAIN            0

 POSCAR: Ag-Ti-OH
  positions in direct lattice
  velocities in cartesian coordinates

 ion  position               nearest neighbor table
   1  0.000  0.000  0.209-   2 2.93   8 2.93   7 2.93   6 2.93   4 2.93  12 2.93  16 2.93  10 2.93
                             3 2.93
   2  0.333  0.000  0.209-   1 2.93   8 2.93   9 2.93   3 2.93   4 2.93   5 2.93  10 2.93  17 2.93
                            11 2.93
   3  0.667  0.000  0.209-   9 2.93   2 2.93   5 2.93  11 2.93   7 2.93  18 2.93   1 2.93   6 2.93
                            12 2.93
   4  0.000  0.333  0.209-   5 2.93   6 2.93   2 2.93   1 2.93   7 2.93  13 2.93  15 2.93   9 2.93
                            10 2.93
   5  0.333  0.333  0.209-   4 2.93   3 2.93   7 2.93   2 2.93   8 2.93  14 2.93  13 2.93  11 2.93
                             6 2.93
   6  0.667  0.333  0.209-   4 2.93   9 2.93   1 2.93  15 2.93   8 2.93  12 2.93   3 2.93   5 2.93
                            14 2.93
   7  0.000  0.667  0.209-   8 2.93   1 2.93   5 2.93   3 2.93   4 2.93  16 2.93  18 2.93  13 2.93
                             9 2.93
   8  0.333  0.667  0.209-   7 2.93   1 2.93   2 2.93   9 2.93   5 2.93  16 2.93   6 2.93  17 2.93
                            14 2.93
   9  0.667  0.667  0.209-   3 2.93   2 2.93   8 2.93   6 2.93  17 2.93   4 2.93  15 2.93   7 2.93
                            18 2.93
  10  0.111  0.111  0.304-  20 2.91  19 2.92  26 2.92  12 2.93  16 2.93  15 2.93  17 2.93  13 2.93
                            11 2.93   2 2.93   1 2.93   4 2.93
  11  0.444  0.111  0.304-  21 2.91  20 2.91  27 2.92  14 2.93  17 2.93  18 2.93   3 2.93  12 2.93
                            13 2.93  10 2.93   5 2.93   2 2.93
  12  0.778  0.111  0.304-  21 2.91  25 2.92  19 2.92  10 2.93  16 2.93  18 2.93  15 2.93  11 2.93
                             1 2.93  14 2.93   6 2.93   3 2.93
  13  0.111  0.444  0.304-  20 2.91  23 2.91  22 2.92  15 2.93  14 2.93  18 2.93  10 2.93  11 2.93
                            16 2.93   4 2.93   5 2.93   7 2.93
  14  0.444  0.444  0.304-  23 2.91  21 2.91  24 2.92  13 2.93  11 2.93  16 2.93   5 2.93  12 2.93
                            17 2.93   8 2.93  15 2.93   6 2.93
  15  0.778  0.444  0.304-  19 2.92  24 2.92  22 2.92  13 2.93  10 2.93  12 2.93  17 2.93  18 2.93
                             4 2.93   6 2.93   9 2.93  14 2.93
  16  0.111  0.778  0.304-  23 2.91  26 2.92  25 2.92  18 2.93  12 2.93  10 2.93  14 2.93  17 2.93
                            13 2.93   7 2.93   8 2.93   1 2.93
  17  0.444  0.778  0.304-  26 2.92  27 2.92  24 2.92  11 2.93  10 2.93   9 2.93  18 2.93  15 2.93
                            16 2.93   2 2.93  14 2.93   8 2.93
  18  0.778  0.778  0.304-  25 2.92  22 2.92  27 2.92  16 2.93  12 2.93  13 2.93  11 2.93  17 2.93
                            15 2.93   7 2.93   3 2.93   9 2.93
  19  0.889  0.222  0.398-  10 2.92  12 2.92  15 2.92  28 2.92  26 2.93  25 2.93  24 2.93  22 2.93
                            20 2.94  21 2.94  32 2.96  31 2.96
  20  0.223  0.223  0.398-  36 2.82  13 2.91  11 2.91  10 2.91  21 2.92  23 2.92  27 2.93  22 2.93
                            19 2.94  26 2.94  31 2.94  29 2.94
  21  0.555  0.223  0.398-  36 2.82  11 2.91  14 2.91  12 2.91  20 2.92  23 2.92  27 2.93  24 2.93
                            25 2.94  19 2.94  30 2.94  32 2.94
  22  0.889  0.556  0.398-  18 2.92  15 2.92  13 2.92  24 2.93  27 2.93  25 2.93  19 2.93  35 2.93
                            23 2.93  20 2.93  33 2.94  31 2.94
  23  0.223  0.555  0.398-  36 2.82  14 2.91  13 2.91  16 2.91  21 2.92  20 2.92  22 2.93  24 2.93
                            26 2.94  25 2.94  34 2.94  33 2.94
  24  0.556  0.556  0.398-  15 2.92  17 2.92  14 2.92  27 2.93  22 2.93  19 2.93  26 2.93  35 2.93
                            23 2.93  21 2.93  32 2.94  34 2.94
  25  0.889  0.889  0.398-  16 2.92  12 2.92  18 2.92  28 2.92  26 2.93  19 2.93  22 2.93  27 2.93
                            23 2.94  21 2.94  33 2.96  30 2.96
  26  0.222  0.889  0.398-  16 2.92  10 2.92  17 2.92  28 2.92  25 2.93  19 2.93  27 2.93  24 2.93
                            23 2.94  20 2.94  34 2.96  29 2.96
  27  0.556  0.889  0.398-  17 2.92  18 2.92  11 2.92  24 2.93  22 2.93  26 2.93  25 2.93  35 2.93
                            20 2.93  21 2.93  29 2.94  30 2.94
  28  0.000  0.000  0.492-  26 2.92  25 2.92  19 2.92  29 2.95  34 2.95  33 2.95  32 2.95  31 2.95
                            30 2.95
  29  0.334  0.004  0.493-  30 2.89  31 2.90  36 2.90  20 2.94  27 2.94  35 2.95  28 2.95  26 2.96
                            34 3.00
  30  0.662  0.004  0.493-  29 2.89  32 2.90  36 2.90  21 2.94  27 2.94  35 2.95  28 2.95  25 2.96
                            33 3.00
  31  0.004  0.334  0.493-  33 2.89  29 2.90  36 2.90  20 2.94  22 2.94  35 2.95  28 2.95  19 2.96
                            32 3.00
  32  0.662  0.334  0.493-  34 2.89  30 2.90  36 2.90  21 2.94  24 2.94  35 2.95  28 2.95  19 2.96
                            31 3.00
  33  0.004  0.662  0.493-  31 2.89  34 2.90  36 2.90  23 2.94  22 2.94  35 2.95  28 2.95  25 2.96
                            30 3.00
  34  0.334  0.662  0.493-  32 2.89  33 2.90  36 2.90  23 2.94  24 2.94  35 2.95  28 2.95  26 2.96
                            29 3.00
  35  0.667  0.667  0.493-  24 2.93  27 2.93  22 2.93  30 2.95  32 2.95  29 2.95  34 2.95  31 2.95
                            33 2.95
  36  0.333  0.333  0.487-  37 1.80  21 2.82  20 2.82  23 2.82  31 2.90  33 2.90  30 2.90  29 2.90
                            34 2.90  32 2.90
  37  0.333  0.333  0.559-  38 0.97  36 1.80
  38  0.333  0.333  0.597-  37 0.97

  LATTYP: Found a hexagonal cell.
 ALAT       =     8.7913665772
 C/A-ratio  =     2.8719070141

  Lattice vectors:

 A1 = (  -4.3956832886,  -7.6135467898,   0.0000000000)
 A2 = (   8.7913665771,   0.0000000000,   0.0000000000)
 A3 = (   0.0000000000,   0.0000000000,  25.2479873362)

Analysis of symmetry for initial positions (statically):
 Subroutine PRICEL returns:
 Original cell was already a primitive cell.

 Routine SETGRP: Setting up the symmetry group for a
 hexagonal supercell.

 Subroutine GETGRP returns: Found  6 space group operations
 (whereof  6 operations were pure point group operations)
 out of a pool of 24 trial point group operations.

The static configuration has the point symmetry C_3v.

Analysis of symmetry for dynamics (positions and initial velocities):
 Subroutine PRICEL returns:
 Original cell was already a primitive cell.

[...]

The dynamic configuration has the point symmetry C_3v.

Analysis of constrained symmetry for selective dynamics:
 Subroutine PRICEL returns:
 Original cell was already a primitive cell.

 Routine SETGRP: Setting up the symmetry group for a
 hexagonal supercell.

 Subroutine GETGRP returns: Found  6 space group operations
[...]
     33      -4.9723      2.00000
     34      -4.9558      2.00000
     35      -4.9249      2.00000
     36      -4.8979      2.00000
     37      -4.8792      2.00000
     38      -4.8614      2.00000
     39      -4.8308      2.00000
     40      -4.8033      2.00000
     41      -4.7883      2.00000
     42      -4.7809      2.00000
     43      -4.7745      2.00000
     44      -4.7531      2.00000
     45      -4.6646      2.00000
     46      -4.6449      2.00000
     47      -4.6284      2.00000
     48      -4.6231      2.00000
     49      -4.6217      2.00000
     50      -4.6109      2.00000
     51      -4.6086      2.00000
     52      -4.5955      2.00000
     53      -4.5906      2.00000
     54      -4.5741      2.00000
     55      -4.5217      2.00000
     56      -4.5093      2.00000
     57      -4.5045      2.00000
     58      -4.4881      2.00000
     59      -4.4836      2.00000
     60      -4.4623      2.00000
[...]
    238       5.7303      0.00000
    239       5.8098      0.00000
    240       5.8312      0.00000
    241       5.8344      0.00000
    242       6.0148      0.00000
    243       6.2384      0.00000
    244       6.2675      0.00000
    245       6.3196      0.00000
    246       6.5290      0.00000
    247       6.6017      0.00000
    248       6.7635      0.00000
    249       6.7977      0.00000
    250       6.8222      0.00000
    251       6.9210      0.00000
    252       7.1092      0.00000

 soft charge-density along one line, spin component           1
         0         1         2         3         4         5         6         7         8         9
 total charge-density along one line

------------------------ aborting loop because EDIFF is reached ----------------------------------------

 total charge

# of ion       s       p       d       tot
    1        0.421   0.201   9.177   9.799
    2        0.417   0.204   9.177   9.798
    3        0.417   0.204   9.177   9.798
    4        0.417   0.204   9.177   9.798
    5        0.418   0.204   9.176   9.798
    6        0.417   0.204   9.177   9.798
    7        0.417   0.204   9.177   9.798
    8        0.417   0.204   9.177   9.798
    9        0.415   0.203   9.178   9.795
   10        0.409   0.269   9.163   9.841
   11        0.406   0.269   9.167   9.842
   12        0.409   0.269   9.163   9.841
   13        0.406   0.269   9.167   9.842
   14        0.406   0.269   9.167   9.842
   15        0.401   0.270   9.164   9.836
   16        0.409   0.269   9.163   9.841
   17        0.401   0.270   9.164   9.836
   18        0.401   0.270   9.164   9.836
   19        0.404   0.264   9.167   9.835
   20        0.432   0.294   9.139   9.865
   21        0.432   0.294   9.139   9.865
   22        0.397   0.274   9.163   9.834
   23        0.432   0.294   9.139   9.865
   24        0.397   0.274   9.163   9.834
   25        0.404   0.264   9.167   9.835
   26        0.404   0.264   9.167   9.835
   27        0.397   0.274   9.163   9.834
   28        0.414   0.203   9.172   9.789
   29        0.435   0.212   9.163   9.809
   30        0.435   0.212   9.163   9.809
   31        0.435   0.212   9.163   9.809
   32        0.435   0.212   9.163   9.809
   33        0.435   0.212   9.163   9.809
   34        0.435   0.212   9.163   9.809
   35        0.414   0.206   9.171   9.791
   36        0.484   0.630   2.413   3.528
   37        1.564   3.532   0.000   5.096
   38        0.609   0.124   0.000   0.733
tot         17.195  12.723 323.215 353.133

  FORCE on cell =-STRESS in cart. coord.  units (eV):
  Direction    XX          YY          ZZ          XY          YZ          ZX
  Alpha Z   660.82642   660.82642   660.82642
  Ewald  163697.79357163697.79349************     0.00000    -0.00001     0.00003
  Hartree173629.40671173629.40668************     0.00000    -0.00000     0.00001
  E(xc)   -2077.39175 -2077.39178 -2083.06143     0.00003     0.00000     0.00000
  Local  ************************348440.60869     0.00055    -0.00005    -0.00016
  n-local  -351.39496  -333.99637  -345.12689     9.80982    -0.50261     0.53830
  augment  3232.06213  3232.06233  3241.48355    -0.00017     0.00000     0.00001
  Kinetic  4937.86187  4940.08105  4935.36431     2.81980     0.97163    -0.38542
  Fock        0.00000     0.00000     0.00000     0.00000     0.00000     0.00000
  Total      -7.26668    -7.26668    -0.26706    -0.00000    -0.00000    -0.00000
  in kB      -6.88932    -6.88932    -0.25319    -0.00000    -0.00000    -0.00000

 VOLUME and BASIS-vectors are now :
  energy-cutoff  :      500.00
  volume of cell :     1689.94
      direct lattice vectors                 reciprocal lattice vectors
     8.791366577  0.000000000  0.000000000     0.113747958 -0.065672414  0.000000000
     4.395683289  7.613546790  0.000000000     0.000000000  0.131344829  0.000000000
     0.000000000  0.000000000 25.247987336     0.000000000  0.000000000  0.039607117

  length of vectors
     8.791366577  8.791366577 25.247987336     0.131344829  0.131344829  0.039607117

 FORCES acting on ions
    electron-ion (+dipol)            ewald-force                    non-local-force                 convergence-correction
   0.459E-04 -.282E-04 0.272E+04   -.953E-04 0.593E-04 -.272E+04   0.361E-17 -.294E-17 -.182E+01   -.835E-04 -.155E-03 0.303E+00
   -.287E+00 -.240E-01 0.272E+04   0.202E+00 0.178E+00 -.272E+04   0.355E-01 0.461E-01 -.159E+01   0.447E-01 -.184E+00 0.222E+00
   0.287E+00 -.240E-01 0.272E+04   -.202E+00 0.178E+00 -.272E+04   -.355E-01 0.461E-01 -.159E+01   -.452E-01 -.182E+00 0.223E+00
   -.164E+00 -.236E+00 0.272E+04   0.255E+00 0.859E-01 -.272E+04   0.576E-01 0.768E-02 -.159E+01   -.137E+00 0.131E+00 0.222E+00
   -.504E-05 -.183E-04 0.272E+04   0.981E-04 -.200E-05 -.272E+04   0.393E-18 0.165E-18 -.143E+01   0.618E-02 0.378E-02 0.294E+00
   0.164E+00 -.236E+00 0.272E+04   -.255E+00 0.858E-01 -.272E+04   -.576E-01 0.768E-02 -.159E+01   0.136E+00 0.132E+00 0.223E+00
   0.123E+00 0.260E+00 0.272E+04   0.531E-01 -.264E+00 -.272E+04   0.222E-01 -.538E-01 -.159E+01   -.180E+00 0.524E-01 0.223E+00
   -.123E+00 0.260E+00 0.272E+04   -.532E-01 -.264E+00 -.272E+04   -.222E-01 -.538E-01 -.159E+01   0.182E+00 0.515E-01 0.223E+00
   0.368E-04 -.128E-04 0.272E+04   0.791E-04 -.642E-04 -.272E+04   0.139E-17 0.838E-18 -.177E+01   -.663E-02 -.341E-02 0.159E+00
   -.119E+01 -.686E+00 0.904E+03   0.163E+01 0.939E+00 -.903E+03   -.353E+00 -.204E+00 -.668E+00   -.764E-01 -.441E-01 0.392E+00
   -.283E-04 -.164E+01 0.900E+03   0.407E-04 0.143E+01 -.900E+03   0.114E-11 0.173E+00 -.415E+00   0.612E-02 -.227E-01 0.303E+00
   0.119E+01 -.686E+00 0.904E+03   -.163E+01 0.939E+00 -.903E+03   0.353E+00 -.204E+00 -.668E+00   0.751E-01 -.435E-01 0.391E+00
   -.142E+01 0.818E+00 0.900E+03   0.124E+01 -.717E+00 -.900E+03   0.150E+00 -.865E-01 -.415E+00   -.167E-01 0.167E-01 0.303E+00
   0.142E+01 0.818E+00 0.900E+03   -.124E+01 -.717E+00 -.900E+03   -.150E+00 -.865E-01 -.415E+00   0.269E-01 0.158E-01 0.302E+00
   0.155E-04 -.562E-01 0.904E+03   -.107E-03 0.691E-01 -.903E+03   0.171E-12 0.261E-01 -.660E+00   -.132E-02 -.401E-01 0.306E+00
   -.762E-05 0.137E+01 0.904E+03   0.207E-04 -.188E+01 -.903E+03   0.268E-11 0.408E+00 -.668E+00   -.141E-03 0.867E-01 0.391E+00
   -.486E-01 0.281E-01 0.904E+03   0.598E-01 -.346E-01 -.903E+03   0.226E-01 -.130E-01 -.660E+00   -.354E-01 0.189E-01 0.306E+00
   0.486E-01 0.280E-01 0.904E+03   -.599E-01 -.345E-01 -.903E+03   -.226E-01 -.130E-01 -.660E+00   0.355E-01 0.204E-01 0.307E+00
   0.385E-04 -.526E+01 -.921E+03   -.125E-03 0.519E+01 0.921E+03   0.791E-12 0.120E+00 0.881E+00   0.564E-02 -.637E-01 0.196E-01
   -.290E+02 -.168E+02 -.952E+03   0.300E+02 0.173E+02 0.952E+03   -.951E+00 -.549E+00 -.499E+00   -.895E-01 -.516E-01 0.634E-01
   0.290E+02 -.168E+02 -.952E+03   -.300E+02 0.173E+02 0.952E+03   0.951E+00 -.549E+00 -.499E+00   0.877E-01 -.522E-01 0.627E-01
   -.124E+02 0.715E+01 -.925E+03   0.122E+02 -.707E+01 0.924E+03   0.177E+00 -.102E+00 0.615E+00   0.709E-02 0.157E-02 -.396E-01
   -.513E-04 0.335E+02 -.952E+03   0.360E-04 -.347E+02 0.952E+03   0.722E-11 0.110E+01 -.499E+00   -.976E-03 0.103E+00 0.627E-01
   0.124E+02 0.715E+01 -.925E+03   -.122E+02 -.707E+01 0.924E+03   -.177E+00 -.102E+00 0.615E+00   0.365E-02 0.221E-02 -.395E-01
   0.455E+01 0.263E+01 -.921E+03   -.450E+01 -.260E+01 0.921E+03   -.104E+00 -.602E-01 0.881E+00   0.620E-01 0.356E-01 0.193E-01
   -.455E+01 0.263E+01 -.921E+03   0.450E+01 -.260E+01 0.921E+03   0.104E+00 -.602E-01 0.881E+00   -.527E-01 0.366E-01 0.197E-01
   0.192E-04 -.143E+02 -.925E+03   0.110E-03 0.141E+02 0.924E+03   0.134E-11 0.204E+00 0.615E+00   0.424E-02 0.533E-02 -.395E-01
   0.542E-04 -.362E-04 -.268E+04   -.115E-03 0.771E-04 0.268E+04   0.111E-17 -.119E-17 0.151E+01   0.212E-03 -.127E-04 -.153E+00
   -.741E+01 -.195E+02 -.267E+04   0.810E+01 0.201E+02 0.267E+04   -.618E+00 -.753E+00 0.182E+01   -.148E+00 0.180E-01 -.191E+00
   0.741E+01 -.195E+02 -.267E+04   -.810E+01 0.201E+02 0.267E+04   0.618E+00 -.753E+00 0.182E+01   0.147E+00 0.189E-01 -.191E+00
   -.206E+02 0.332E+01 -.267E+04   0.214E+02 -.302E+01 0.267E+04   -.961E+00 -.158E+00 0.182E+01   -.583E-01 -.137E+00 -.191E+00
   0.206E+02 0.332E+01 -.267E+04   -.214E+02 -.302E+01 0.267E+04   0.961E+00 -.158E+00 0.182E+01   0.581E-01 -.136E+00 -.190E+00
   -.132E+02 0.162E+02 -.267E+04   0.133E+02 -.170E+02 0.267E+04   -.343E+00 0.911E+00 0.182E+01   0.904E-01 0.119E+00 -.191E+00
   0.132E+02 0.162E+02 -.267E+04   -.133E+02 -.170E+02 0.267E+04   0.343E+00 0.911E+00 0.182E+01   -.892E-01 0.118E+00 -.190E+00
   0.248E-04 -.127E-04 -.269E+04   0.104E-03 -.656E-04 0.269E+04   -.652E-17 -.708E-17 0.159E+01   -.637E-02 -.325E-02 -.109E+00
   -.671E-05 0.394E-05 -.854E+03   0.380E-04 0.429E-05 0.854E+03   0.747E-18 -.287E-18 0.385E+00   0.353E-03 0.219E-03 -.678E-01
   0.196E-03 -.920E-04 -.165E+04   0.257E-04 0.335E-06 0.163E+04   0.558E-18 -.418E-18 0.219E+02   0.344E-02 0.211E-02 -.801E-01
   0.822E-05 -.128E-04 -.341E+03   0.183E-05 0.700E-08 0.350E+03   0.194E-19 0.964E-20 -.850E+01   0.189E-03 0.116E-03 0.463E-02
   0.575E-03 -.774E-03 -.146E+02   0.123E-12 0.211E-12 0.115E-10   0.217E-15 -.230E-15 0.110E+02   0.378E-01 0.251E-01 0.367E+01

 POSITION                                       TOTAL-FORCE (eV/Angst)
      0.00000      0.00000      5.28219        -0.000000      0.000000     -0.031564
      2.93046      0.00000      5.28219        -0.003971      0.017079      0.029060
      5.86091      0.00000      5.28219         0.003971      0.017079      0.029060
      1.46523      2.53785      5.28219         0.012806     -0.011979      0.029060
      4.39568      2.53785      5.28219        -0.000000      0.000000      0.005127
      7.32614      2.53785      5.28219        -0.012806     -0.011979      0.029060
      2.93046      5.07570      5.28219         0.016777     -0.005101      0.029060
      5.86091      5.07570      5.28219        -0.016777     -0.005101      0.029060
      8.79137      5.07570      5.28219        -0.000000      0.000000      0.015944
      1.46523      0.84595      7.67490         0.010419      0.006015     -0.044927
      4.39568      0.84595      7.67490        -0.000000     -0.054378     -0.053937
      7.32614      0.84595      7.67490        -0.010419      0.006015     -0.044927
      2.93046      3.38380      7.67490        -0.047093      0.027189     -0.053937
      5.86091      3.38380      7.67490         0.047093      0.027189     -0.053937
      8.79137      3.38380      7.67490        -0.000000     -0.001332      0.023716
      4.39568      5.92165      7.67490        -0.000000     -0.012031     -0.044927
      7.32614      5.92165      7.67490        -0.001153      0.000666      0.023716
     10.25659      5.92165      7.67490         0.001153      0.000666      0.023716
      8.79137      1.69074     10.05145        -0.000000     -0.013941      0.011481
      2.93556      1.69484     10.04095        -0.066913     -0.038632     -0.066639
      5.85581      1.69484     10.04095         0.066913     -0.038632     -0.066639
     10.25435      4.23104     10.05745         0.033407     -0.019287      0.031144
      4.39568      4.22386     10.04095         0.000000      0.077264     -0.066639
      7.32838      4.23104     10.05745        -0.033407     -0.019287      0.031144
     11.72283      6.76818     10.05145         0.012073      0.006970      0.011481
      5.85990      6.76818     10.05145        -0.012073      0.006970      0.011481
      8.79137      6.76501     10.05745         0.000000      0.038575      0.031144
      0.00000      0.00000     12.43413        -0.000000      0.000000      0.015352
      2.95009      0.02948     12.45917        -0.077267     -0.151944     -0.154182
      5.84128      0.02948     12.45917         0.077267     -0.151944     -0.154182
      1.50057      2.54011     12.45917        -0.170221      0.009057     -0.154182
      7.29079      2.54011     12.45917         0.170221      0.009057     -0.154182
      2.94617      5.04396     12.45917        -0.092954      0.142887     -0.154182
      5.84520      5.04396     12.45917         0.092954      0.142887     -0.154182
      8.79137      5.07570     12.45428        -0.000000      0.000000     -0.002282
      4.39568      2.53785     12.30230        -0.000000      0.000000      1.038312
      4.39568      2.53785     14.10699        -0.000000      0.000000      0.016418
      4.39568      2.53785     15.07382        -0.000000      0.000000     -0.009084
    total drift:                                0.038378      0.024367      0.083893

  FREE ENERGIE OF THE ION-ELECTRON SYSTEM (eV)
  free  energy   TOTEN  =      -107.72459364 eV

  energy  without entropy=     -107.72459364  energy(sigma->0) =     -107.72459364

 stress matrix after NEB project (eV)
     -7.26668     -0.00000     -0.00000
     -0.00000     -7.26668      0.00000
     -0.00000     -0.00000     -0.26706
  FORCES: max atom, RMS     0.016418    0.003044
  FORCE total and by dimension    0.018763    0.016418
  Stress total and by dimension   10.280106    7.266680
|           W    W    AA    RRRRR   N    N  II  N    N   GGGG   !!!           |
|           W    W   A  A   R    R  NN   N  II  NN   N  G    G  !!!           |
|           W    W  A    A  R    R  N N  N  II  N N  N  G       !!!           |
|           W WW W  AAAAAA  RRRRR   N  N N  II  N  N N  G  GGG   !            |
|           WW  WW  A    A  R   R   N   NN  II  N   NN  G    G                |
|           W    W  A    A  R    R  N    N  II  N    N   GGGG   !!!           |
|     Tetrahedron method does not include variations of the Fermi             |
|     occupations, so forces and stress will be inaccurate. We suggest        |
|     using a different smearing scheme ISMEAR = 1 or 2 for metals in         |
|     relaxations.                                                            |

 total charge

# of ion       s       p       d       tot
    1        0.421   0.201   9.177   9.799
    2        0.417   0.204   9.177   9.798
    3        0.417   0.204   9.177   9.798
    4        0.417   0.204   9.177   9.798
    5        0.418   0.204   9.176   9.798
    6        0.417   0.204   9.177   9.798
    7        0.417   0.204   9.177   9.798
    8        0.417   0.204   9.177   9.798
    9        0.415   0.203   9.178   9.795
   10        0.409   0.269   9.163   9.841
   11        0.406   0.269   9.167   9.842
   12        0.409   0.269   9.163   9.841
   13        0.406   0.269   9.167   9.842
   14        0.406   0.269   9.167   9.842
   15        0.401   0.270   9.164   9.836
   16        0.409   0.269   9.163   9.841
   17        0.401   0.270   9.164   9.836
   18        0.401   0.270   9.164   9.836
   19        0.404   0.264   9.167   9.835
   20        0.432   0.294   9.139   9.865
   21        0.432   0.294   9.139   9.865
   22        0.397   0.274   9.163   9.834
   23        0.432   0.294   9.139   9.865
   24        0.397   0.274   9.163   9.834
   25        0.404   0.264   9.167   9.835
   26        0.404   0.264   9.167   9.835
   27        0.397   0.274   9.163   9.834
   28        0.414   0.203   9.172   9.789
   29        0.435   0.212   9.163   9.809
   30        0.435   0.212   9.163   9.809
   31        0.435   0.212   9.163   9.809
   32        0.435   0.212   9.163   9.809
   33        0.435   0.212   9.163   9.809
   34        0.435   0.212   9.163   9.809
   35        0.414   0.206   9.171   9.791
   36        0.484   0.630   2.413   3.528
   37        1.564   3.532   0.000   5.096
   38        0.609   0.124   0.000   0.733
tot         17.195  12.723 323.215 353.133

 BZINTS: Fermi energy:    0.401601;  396.000000 electrons
         Band energy:-0.151374E+04;  BLOECHL correction:   -0.040318