 vasp.6.2.0 18Jan21 (build Jun 12 2021 23:27:24) complex

 executed on             LinuxIFC date 2022.05.26  20:18:55

 INCAR:
   ISMEAR = -5
   SIGMA = 0.1
   ISPIN = 1
   EDIFF = 1.d-5
   EDIFFG = -0.01
   NSW = 0
   NELM = 150
   ENCUT = 500
   ISIF = 2
   IBRION = 2
   LREAL = Auto
   ALGO = Fast
   ICHARG = 11
   LORBIT = 10
   LCHARG = .F.
   LWAVE = .F.

 POTCAR:    PAW_PBE Ag 02Apr2005
 POTCAR:    PAW_PBE Fe 06Sep2000
|           W    W    AA    RRRRR   N    N  II  N    N   GGGG   !!!           |
|           W    W   A  A   R    R  NN   N  II  NN   N  G    G  !!!           |
|           W    W  A    A  R    R  N N  N  II  N N  N  G       !!!           |
|           W WW W  AAAAAA  RRRRR   N  N N  II  N  N N  G  GGG   !            |
|           WW  WW  A    A  R   R   N   NN  II  N   NN  G    G                |
|           W    W  A    A  R    R  N    N  II  N    N   GGGG   !!!           |
|     For optimal performance we recommend to set                             |
|       NCORE = 2 up to number-of-cores-per-socket                            |
|     This setting can greatly improve the performance of VASP for DFT.       |
|     The default, NCORE=1 might be grossly inefficient on modern             |
|     multi-core architectures or massively parallel machines. Do your        |
|     Unfortunately you need to use the default for GW and RPA                |
|     calculations (for HF NCORE is supported but not extensively tested      |
|     yet).                                                                   |

 POTCAR:    PAW_PBE Ag 02Apr2005
   VRHFIN =Ag : s1 d10

   TITEL  = PAW_PBE Ag 02Apr2005
   POMASS =  107.868; ZVAL   =   11.000    mass and valenz
   ENMAX  =  249.844; ENMIN  =  187.383 eV

 POTCAR:    PAW_PBE Fe 06Sep2000
   VRHFIN =Fe:  d7 s1

   TITEL  = PAW_PBE Fe 06Sep2000
   POMASS =   55.847; ZVAL   =    8.000    mass and valenz
   ENMAX  =  267.882; ENMIN  =  200.911 eV

 Optimization of the real space projectors (new method)

 maximal supplied QI-value         = 15.12
 optimisation between [QCUT,QGAM] = [ 11.34, 22.83] = [ 36.00,145.93] Ry
 Optimized for a Real-space Cutoff    1.43 Angstroem

   l    n(q)    QCUT    max X(q) W(low)/X(q) W(high)/X(q)  e(spline)
   2      9    11.338    53.897    0.16E-03    0.20E-03    0.28E-06
   2      9    11.338    52.416    0.16E-03    0.20E-03    0.29E-06
   0     10    11.338   122.045    0.31E-04    0.76E-04    0.15E-06
   0     10    11.338    73.629    0.30E-04    0.72E-04    0.15E-06
   1      9    11.338    15.255    0.20E-03    0.19E-04    0.17E-06
   1      9    11.338     9.562    0.16E-03    0.15E-04    0.14E-06
 Optimization of the real space projectors (new method)

 maximal supplied QI-value         = 16.25
 optimisation between [QCUT,QGAM] = [ 11.38, 22.75] = [ 36.24,144.96] Ry
 Optimized for a Real-space Cutoff    1.39 Angstroem

   l    n(q)    QCUT    max X(q) W(low)/X(q) W(high)/X(q)  e(spline)
   2      8    11.376    80.901    0.45E-03    0.44E-04    0.21E-06
   2      8    11.376    75.754    0.45E-03    0.45E-04    0.22E-06
   0      9    11.376    58.752    0.65E-04    0.95E-04    0.17E-06
   0      9    11.376    30.679    0.59E-04    0.87E-04    0.16E-06
   1      9    11.376    17.977    0.38E-03    0.10E-03    0.14E-06
   1      9    11.376    13.559    0.31E-03    0.90E-04    0.12E-06
  PAW_PBE Ag 02Apr2005                  :
  PAW_PBE Fe 06Sep2000                  :

 POSCAR: Ag-Fe
  positions in direct lattice
  velocities in cartesian coordinates
 exchange correlation table for  LEXCH =        8
   RHO(1)=    0.500       N(1)  =     2000
   RHO(2)=  100.500       N(2)  =     4000

 VTST: version 3.2, (02/03/18)

 CHAIN: initializing optimizer

 OPT: Using VASP Conjugate-Gradient optimizer
 CHAIN: Read ICHAIN            0

 POSCAR: Ag-Fe
  positions in direct lattice
  velocities in cartesian coordinates

 ion  position               nearest neighbor table
   1  0.000  0.000  0.238-   2 2.93   8 2.93   7 2.93   6 2.93   4 2.93  12 2.93  16 2.93  10 2.93
                             3 2.93
   2  0.333  0.000  0.238-   1 2.93   8 2.93   9 2.93   3 2.93   4 2.93   5 2.93  10 2.93  17 2.93
                            11 2.93
   3  0.667  0.000  0.238-   9 2.93   2 2.93   5 2.93  11 2.93   7 2.93  18 2.93   1 2.93   6 2.93
                            12 2.93
   4  0.000  0.333  0.238-   5 2.93   6 2.93   2 2.93   1 2.93   7 2.93  13 2.93  15 2.93   9 2.93
                            10 2.93
   5  0.333  0.333  0.238-   4 2.93   3 2.93   7 2.93   2 2.93   8 2.93  14 2.93  13 2.93  11 2.93
                             6 2.93
   6  0.667  0.333  0.238-   4 2.93   9 2.93   1 2.93  15 2.93   8 2.93  12 2.93   3 2.93   5 2.93
                            14 2.93
   7  0.000  0.667  0.238-   8 2.93   1 2.93   5 2.93   3 2.93   4 2.93  16 2.93  18 2.93  13 2.93
                             9 2.93
   8  0.333  0.667  0.238-   7 2.93   1 2.93   2 2.93   9 2.93   5 2.93  16 2.93   6 2.93  17 2.93
                            14 2.93
   9  0.667  0.667  0.238-   3 2.93   2 2.93   8 2.93   6 2.93  17 2.93   4 2.93  15 2.93   7 2.93
                            18 2.93
  10  0.111  0.111  0.346-  20 2.92  19 2.93  26 2.93  12 2.93  16 2.93  15 2.93  17 2.93  13 2.93
                            11 2.93   2 2.93   1 2.93   4 2.93
  11  0.444  0.111  0.346-  21 2.90  20 2.90  27 2.92  14 2.93  17 2.93  18 2.93   3 2.93  12 2.93
                            13 2.93  10 2.93   5 2.93   2 2.93
  12  0.778  0.111  0.346-  21 2.92  25 2.93  19 2.93  10 2.93  16 2.93  18 2.93  15 2.93  11 2.93
                             1 2.93  14 2.93   6 2.93   3 2.93
  13  0.111  0.444  0.346-  20 2.90  23 2.90  22 2.92  15 2.93  14 2.93  18 2.93  10 2.93  11 2.93
                            16 2.93   4 2.93   5 2.93   7 2.93
  14  0.444  0.444  0.346-  23 2.90  21 2.90  24 2.92  13 2.93  11 2.93  16 2.93   5 2.93  12 2.93
                            17 2.93   8 2.93  15 2.93   6 2.93
  15  0.778  0.444  0.346-  24 2.92  22 2.92  19 2.93  13 2.93  10 2.93  12 2.93  17 2.93  18 2.93
                             4 2.93   6 2.93   9 2.93  14 2.93
  16  0.111  0.778  0.346-  23 2.92  26 2.93  25 2.93  18 2.93  12 2.93  10 2.93  14 2.93  17 2.93
                            13 2.93   7 2.93   8 2.93   1 2.93
  17  0.444  0.778  0.346-  27 2.92  24 2.92  26 2.93  11 2.93  10 2.93   9 2.93  18 2.93  15 2.93
                            16 2.93   2 2.93  14 2.93   8 2.93
  18  0.778  0.778  0.346-  22 2.92  27 2.92  25 2.93  16 2.93  12 2.93  13 2.93  11 2.93  17 2.93
                            15 2.93   7 2.93   3 2.93   9 2.93
  19  0.889  0.222  0.454-  28 2.91  15 2.93  10 2.93  12 2.93  24 2.93  22 2.93  26 2.93  25 2.93
                            20 2.94  21 2.94  32 2.94  31 2.94
  20  0.223  0.223  0.453-  36 2.70  31 2.89  29 2.89  13 2.90  11 2.90  21 2.91  23 2.91  10 2.92
                            27 2.94  22 2.94  19 2.94  26 2.94
  21  0.554  0.223  0.453-  36 2.70  30 2.89  32 2.89  11 2.90  14 2.90  20 2.91  23 2.91  12 2.92
                            27 2.94  24 2.94  25 2.94  19 2.94
  22  0.888  0.556  0.453-  35 2.91  18 2.92  15 2.92  33 2.92  31 2.92  13 2.92  24 2.92  27 2.92
                            25 2.93  19 2.93  23 2.94  20 2.94
  23  0.223  0.554  0.453-  36 2.70  34 2.89  33 2.89  14 2.90  13 2.90  21 2.91  20 2.91  16 2.92
                            22 2.94  24 2.94  26 2.94  25 2.94
  24  0.556  0.556  0.453-  35 2.91  15 2.92  17 2.92  32 2.92  34 2.92  14 2.92  27 2.92  22 2.92
                            19 2.93  26 2.93  23 2.94  21 2.94
  25  0.889  0.889  0.454-  28 2.91  18 2.93  16 2.93  12 2.93  22 2.93  27 2.93  26 2.93  19 2.93
                            23 2.94  21 2.94  33 2.94  30 2.94
  26  0.222  0.889  0.454-  28 2.91  17 2.93  16 2.93  10 2.93  27 2.93  24 2.93  25 2.93  19 2.93
                            23 2.94  20 2.94  34 2.94  29 2.94
  27  0.556  0.888  0.453-  35 2.91  17 2.92  18 2.92  29 2.92  30 2.92  11 2.92  24 2.92  22 2.92
                            26 2.93  25 2.93  20 2.94  21 2.94
  28  0.000  0.000  0.560-  26 2.91  25 2.91  19 2.91  29 2.97  34 2.97  33 2.97  32 2.97  31 2.97
                            30 2.97
  29  0.333  0.008  0.560-  31 2.86  30 2.86  36 2.87  20 2.89  27 2.92  26 2.94  28 2.97  35 2.97
                            34 3.07
  30  0.659  0.008  0.560-  32 2.86  29 2.86  36 2.87  21 2.89  27 2.92  25 2.94  28 2.97  35 2.97
                            33 3.07
  31  0.008  0.333  0.560-  29 2.86  33 2.86  36 2.87  20 2.89  22 2.92  19 2.94  28 2.97  35 2.97
                            32 3.07
  32  0.659  0.333  0.560-  30 2.86  34 2.86  36 2.87  21 2.89  24 2.92  19 2.94  28 2.97  35 2.97
                            31 3.07
  33  0.008  0.659  0.560-  34 2.86  31 2.86  36 2.87  23 2.89  22 2.92  25 2.94  28 2.97  35 2.97
                            30 3.07
  34  0.333  0.659  0.560-  33 2.86  32 2.86  36 2.87  23 2.89  24 2.92  26 2.94  28 2.97  35 2.97
                            29 3.07
  35  0.667  0.667  0.560-  24 2.91  27 2.91  22 2.91  32 2.97  30 2.97  29 2.97  34 2.97  31 2.97
                            33 2.97
  36  0.333  0.333  0.548-  21 2.70  20 2.70  23 2.70  31 2.87  30 2.87  33 2.87  29 2.87  34 2.87
                            32 2.87

  LATTYP: Found a hexagonal cell.
 ALAT       =     8.7913665772
 C/A-ratio  =     2.5227160501

  Lattice vectors:

 A1 = (  -4.3956832886,  -7.6135467898,   0.0000000000)
 A2 = (   8.7913665771,   0.0000000000,   0.0000000000)
 A3 = (   0.0000000000,   0.0000000000,  22.1781215668)

Analysis of symmetry for initial positions (statically):
 Subroutine PRICEL returns:
 Original cell was already a primitive cell.

 Routine SETGRP: Setting up the symmetry group for a
 hexagonal supercell.

 Subroutine GETGRP returns: Found  6 space group operations
 (whereof  6 operations were pure point group operations)
 out of a pool of 24 trial point group operations.

The static configuration has the point symmetry C_3v.

Analysis of symmetry for dynamics (positions and initial velocities):
 Subroutine PRICEL returns:
 Original cell was already a primitive cell.

[...]

The dynamic configuration has the point symmetry C_3v.

Analysis of constrained symmetry for selective dynamics:
 Subroutine PRICEL returns:
 Original cell was already a primitive cell.

 Routine SETGRP: Setting up the symmetry group for a
 hexagonal supercell.

 Subroutine GETGRP returns: Found  6 space group operations
 (whereof  6 operations were pure point group operations)
 out of a pool of 24 trial point group operations.

The constrained configuration has the point symmetry C_3v.

 Subroutine INISYM returns: Found  6 space group operations
 (whereof  6 operations are pure point group operations),
 and found     1 'primitive' translations

                                     Primitive cell

  volume of cell :    1484.4589

  direct lattice vectors                    reciprocal lattice vectors
     8.791366577  0.000000000  0.000000000     0.113747958 -0.065672414  0.000000000
     4.395683289  7.613546790  0.000000000     0.000000000  0.131344829  0.000000000
[...]
     15      -4.7674      2.00000
     16      -4.7635      2.00000
     17      -4.7308      2.00000
     18      -4.7286      2.00000
     19      -4.7240      2.00000
     20      -4.7207      2.00000
     21      -4.7070      2.00000
     22      -4.6786      2.00000
     23      -4.6626      2.00000
     24      -4.6611      2.00000
     25      -4.6291      2.00000
     26      -4.6057      2.00000
     27      -4.5896      2.00000
     28      -4.5817      2.00000
     29      -4.5676      2.00000
     30      -4.5538      2.00000
     31      -4.5510      2.00000
     32      -4.5128      2.00000
     33      -4.4774      2.00000
     34      -4.4476      2.00000
     35      -4.4245      2.00000
     36      -4.4084      2.00000
     37      -4.3861      2.00000
     38      -4.3549      2.00000
     39      -4.3475      2.00000
     40      -4.3329      2.00000
     41      -4.3233      2.00000
     42      -4.3048      2.00000
     43      -4.2395      2.00000
     44      -4.2110      2.00000
     45      -4.2049      2.00000
     46      -4.1965      2.00000
     47      -4.1873      2.00000
     48      -4.1833      2.00000
     49      -4.1694      2.00000
     50      -4.1636      2.00000
     51      -4.1425      2.00000
     52      -4.1378      2.00000
     53      -4.0749      2.00000
     54      -4.0684      2.00000
     55      -4.0550      2.00000
     56      -4.0513      2.00000
     57      -4.0353      2.00000
     58      -4.0206      2.00000
     59      -3.9829      2.00000
     60      -3.9724      2.00000
[...]
    238       7.1711      0.00000
    239       7.1800      0.00000
    240       7.1839      0.00000
    241       7.1886      0.00000
    242       7.2673      0.00000
    243       7.2975      0.00000
    244       7.3328      0.00000
    245       7.4994      0.00000
    246       7.5138      0.00000
    247       7.5716      0.00000
    248       7.6072      0.00000
    249       7.6286      0.00000
    250       7.8921      0.00000
    251       7.9239      0.00000
    252       8.0843      0.00000

 soft charge-density along one line, spin component           1
         0         1         2         3         4         5         6         7         8         9
 total charge-density along one line

------------------------ aborting loop because EDIFF is reached ----------------------------------------

 total charge

# of ion       s       p       d       tot
    1        0.417   0.202   9.177   9.796
    2        0.417   0.203   9.177   9.797
    3        0.417   0.203   9.177   9.797
    4        0.417   0.203   9.177   9.797
    5        0.416   0.204   9.177   9.797
    6        0.417   0.203   9.177   9.797
    7        0.417   0.203   9.177   9.797
    8        0.417   0.203   9.177   9.797
    9        0.416   0.202   9.178   9.796
   10        0.407   0.268   9.162   9.838
   11        0.407   0.268   9.168   9.843
   12        0.407   0.268   9.162   9.838
   13        0.407   0.268   9.168   9.843
   14        0.407   0.268   9.168   9.843
   15        0.404   0.268   9.166   9.839
   16        0.407   0.268   9.162   9.838
   17        0.404   0.268   9.166   9.839
   18        0.404   0.268   9.166   9.839
   19        0.402   0.266   9.166   9.834
   20        0.421   0.295   9.148   9.864
   21        0.421   0.295   9.148   9.864
   22        0.399   0.274   9.167   9.839
   23        0.421   0.295   9.148   9.864
   24        0.399   0.274   9.167   9.839
   25        0.402   0.266   9.166   9.834
   26        0.402   0.266   9.166   9.834
   27        0.399   0.274   9.167   9.839
   28        0.412   0.195   9.179   9.786
   29        0.423   0.208   9.169   9.799
   30        0.423   0.208   9.169   9.799
   31        0.423   0.208   9.169   9.799
   32        0.423   0.208   9.169   9.799
   33        0.423   0.208   9.169   9.799
   34        0.423   0.208   9.169   9.799
   35        0.405   0.197   9.181   9.783
   36        0.349   0.202   6.291   6.841
tot         14.775   8.581 327.191 350.547

  FORCE on cell =-STRESS in cart. coord.  units (eV):
  Direction    XX          YY          ZZ          XY          YZ          ZX
  Alpha Z   739.36798   739.36798   739.36798
  Ewald  121007.73381121007.73379************     0.00001    -0.00000    -0.00002
  Hartree131161.17415131161.17414************     0.00000    -0.00000    -0.00001
  E(xc)   -2067.41401 -2067.41400 -2073.00978    -0.00001     0.00000     0.00000
  Local  ************************263602.90913     0.00023    -0.00003    -0.00004
  n-local  -358.16640  -340.96483  -353.61039     9.81615    -0.33652     0.24401
  augment  3256.85612  3256.85629  3266.67247    -0.00015     0.00001     0.00001
  Kinetic  4832.06171  4841.45053  4865.67559     6.37455     0.61138     0.28433
  Fock        0.00000     0.00000     0.00000     0.00000     0.00000     0.00000
  Total     -10.35531   -10.35531    -0.02812    -0.00000     0.00000     0.00000
  in kB     -11.17649   -11.17649    -0.03035    -0.00000     0.00000     0.00000

 VOLUME and BASIS-vectors are now :
  energy-cutoff  :      500.00
  volume of cell :     1484.46
      direct lattice vectors                 reciprocal lattice vectors
     8.791366577  0.000000000  0.000000000     0.113747958 -0.065672414  0.000000000
     4.395683289  7.613546790  0.000000000     0.000000000  0.131344829  0.000000000
     0.000000000  0.000000000 22.178121567     0.000000000  0.000000000  0.045089481

  length of vectors
     8.791366577  8.791366577 22.178121567     0.131344829  0.131344829  0.045089481

 FORCES acting on ions
    electron-ion (+dipol)            ewald-force                    non-local-force                 convergence-correction
   0.460E-04 -.282E-04 0.249E+04   -.954E-04 0.593E-04 -.249E+04   -.197E-17 0.266E-17 -.200E+01   -.163E-03 -.201E-03 0.411E-01
   0.456E+00 0.388E+00 0.249E+04   -.442E+00 -.349E+00 -.249E+04   0.401E-01 0.268E-01 -.158E+01   -.542E-01 -.593E-01 0.771E-01
   -.456E+00 0.388E+00 0.249E+04   0.442E+00 -.349E+00 -.249E+04   -.401E-01 0.268E-01 -.158E+01   0.537E-01 -.574E-01 0.779E-01
   0.564E+00 0.201E+00 0.249E+04   -.523E+00 -.208E+00 -.249E+04   0.433E-01 0.214E-01 -.158E+01   -.783E-01 -.171E-01 0.771E-01
   -.767E-05 -.198E-04 0.249E+04   0.981E-04 -.199E-05 -.249E+04   -.489E-18 -.119E-17 -.149E+01   0.628E-02 0.384E-02 0.789E-01
   -.564E+00 0.201E+00 0.249E+04   0.523E+00 -.208E+00 -.249E+04   -.433E-01 0.214E-01 -.158E+01   0.768E-01 -.162E-01 0.780E-01
   0.108E+00 -.589E+00 0.249E+04   -.811E-01 0.557E+00 -.249E+04   0.312E-02 -.482E-01 -.158E+01   -.224E-01 0.757E-01 0.779E-01
   -.108E+00 -.589E+00 0.249E+04   0.811E-01 0.557E+00 -.249E+04   -.312E-02 -.482E-01 -.158E+01   0.240E-01 0.747E-01 0.780E-01
   0.365E-04 -.131E-04 0.249E+04   0.791E-04 -.643E-04 -.249E+04   0.228E-17 0.137E-17 -.174E+01   -.664E-02 -.342E-02 0.280E-01
   0.383E+01 0.221E+01 0.818E+03   -.344E+01 -.199E+01 -.817E+03   -.269E+00 -.156E+00 -.747E+00   -.996E-01 -.575E-01 0.116E+00
   -.291E-04 0.435E+01 0.825E+03   0.415E-04 -.440E+01 -.824E+03   0.486E-12 0.740E-01 -.403E+00   0.665E-02 -.512E-01 0.126E+00
   -.383E+01 0.221E+01 0.818E+03   0.344E+01 -.199E+01 -.817E+03   0.269E+00 -.156E+00 -.747E+00   0.976E-01 -.563E-01 0.117E+00
   0.377E+01 -.217E+01 0.825E+03   -.381E+01 0.220E+01 -.824E+03   0.641E-01 -.370E-01 -.403E+00   -.411E-01 0.314E-01 0.126E+00
   -.377E+01 -.217E+01 0.825E+03   0.381E+01 0.220E+01 -.824E+03   -.641E-01 -.370E-01 -.403E+00   0.519E-01 0.302E-01 0.125E+00
   0.161E-04 0.172E+01 0.820E+03   -.108E-03 -.177E+01 -.819E+03   0.350E-12 0.533E-01 -.672E+00   -.185E-02 -.178E-01 0.578E-01
   -.814E-05 -.442E+01 0.818E+03   0.208E-04 0.398E+01 -.817E+03   0.204E-11 0.311E+00 -.747E+00   0.155E-04 0.113E+00 0.117E+00
   0.149E+01 -.859E+00 0.820E+03   -.154E+01 0.887E+00 -.819E+03   0.461E-01 -.266E-01 -.672E+00   -.163E-01 0.727E-02 0.578E-01
   -.149E+01 -.859E+00 0.820E+03   0.154E+01 0.887E+00 -.819E+03   -.461E-01 -.266E-01 -.672E+00   0.166E-01 0.957E-02 0.591E-01
   0.412E-04 0.330E-01 -.882E+03   -.127E-03 0.771E-02 0.882E+03   0.282E-12 0.429E-01 0.570E+00   -.645E-02 -.780E-01 0.997E-01
   0.140E+02 0.810E+01 -.860E+03   -.130E+02 -.750E+01 0.861E+03   -.969E+00 -.559E+00 -.811E+00   -.488E-01 -.281E-01 0.173E+00
   -.140E+02 0.810E+01 -.860E+03   0.130E+02 -.750E+01 0.861E+03   0.969E+00 -.559E+00 -.811E+00   0.502E-01 -.285E-01 0.172E+00
   0.169E+01 -.973E+00 -.872E+03   -.200E+01 0.116E+01 0.872E+03   0.254E+00 -.147E+00 0.394E+00   0.663E-01 -.364E-01 0.144E+00
   -.584E-04 -.162E+02 -.860E+03   0.429E-04 0.150E+02 0.861E+03   0.735E-11 0.112E+01 -.811E+00   0.736E-03 0.583E-01 0.172E+00
   -.169E+01 -.973E+00 -.872E+03   0.200E+01 0.116E+01 0.872E+03   -.254E+00 -.147E+00 0.394E+00   -.661E-01 -.381E-01 0.144E+00
   -.285E-01 -.166E-01 -.882E+03   -.674E-02 -.373E-02 0.882E+03   -.371E-01 -.214E-01 0.570E+00   0.603E-01 0.346E-01 0.993E-01
   0.286E-01 -.165E-01 -.882E+03   0.666E-02 -.384E-02 0.882E+03   0.371E-01 -.214E-01 0.570E+00   -.711E-01 0.333E-01 0.997E-01
   0.207E-04 0.195E+01 -.872E+03   0.110E-03 -.231E+01 0.872E+03   0.192E-11 0.293E+00 0.394E+00   0.102E-02 0.756E-01 0.144E+00
   0.541E-04 -.370E-04 -.252E+04   -.113E-03 0.769E-04 0.252E+04   0.145E-16 0.148E-17 0.196E+01   -.205E-03 -.252E-03 -.650E-01
   0.224E+01 0.433E+01 -.253E+04   -.161E+01 -.326E+01 0.253E+04   -.706E+00 -.109E+01 0.163E+01   0.733E-01 0.206E-01 0.759E-01
   -.224E+01 0.433E+01 -.253E+04   0.161E+01 -.326E+01 0.253E+04   0.706E+00 -.109E+01 0.163E+01   -.734E-01 0.218E-01 0.750E-01
   0.487E+01 -.223E+00 -.253E+04   -.363E+01 0.233E+00 0.253E+04   -.130E+01 -.645E-01 0.163E+01   0.547E-01 0.533E-01 0.760E-01
   -.487E+01 -.223E+00 -.253E+04   0.363E+01 0.233E+00 0.253E+04   0.130E+01 -.645E-01 0.163E+01   -.554E-01 0.538E-01 0.751E-01
   0.263E+01 -.410E+01 -.253E+04   -.202E+01 0.302E+01 0.253E+04   -.594E+00 0.116E+01 0.163E+01   -.174E-01 -.740E-01 0.749E-01
   -.263E+01 -.410E+01 -.253E+04   0.202E+01 0.302E+01 0.253E+04   0.594E+00 0.116E+01 0.163E+01   0.185E-01 -.748E-01 0.750E-01
   0.252E-04 -.146E-04 -.252E+04   0.105E-03 -.650E-04 0.252E+04   0.709E-20 -.333E-19 0.212E+01   -.635E-02 -.323E-02 0.174E+00
   -.374E-04 -.706E-05 -.177E+04   0.771E-04 0.110E-04 0.177E+04   -.539E-17 0.173E-17 0.337E+01   0.447E-02 0.273E-02 0.257E+00
   0.304E-03 -.711E-03 -.106E+01   -.455E-14 0.130E-12 -.159E-11   0.328E-15 -.442E-15 -.248E+01   -.248E-02 0.188E-02 0.358E+01

 POSITION                                       TOTAL-FORCE (eV/Angst)
      0.00000      0.00000      5.28219         0.000000      0.000000      0.004118
      2.93046      0.00000      5.28219         0.000504      0.007865      0.025292
      5.86091      0.00000      5.28219        -0.000504      0.007865      0.025292
      1.46523      2.53785      5.28219         0.007063     -0.003496      0.025292
      4.39568      2.53785      5.28219         0.000000      0.000000      0.009693
      7.32614      2.53785      5.28219        -0.007063     -0.003496      0.025292
      2.93046      5.07570      5.28219         0.006559     -0.004369      0.025292
      5.86091      5.07570      5.28219        -0.006559     -0.004369      0.025292
      8.79137      5.07570      5.28219         0.000000      0.000000      0.010983
      1.46523      0.84595      7.67490         0.020400      0.011778      0.003938
      4.39568      0.84595      7.67490        -0.000000     -0.032604     -0.062462
      7.32614      0.84595      7.67490        -0.020400      0.011778      0.003938
      2.93046      3.38380      7.67490        -0.028236      0.016302     -0.062462
      5.86091      3.38380      7.67490         0.028236      0.016302     -0.062462
      8.79137      3.38380      7.67490        -0.000000     -0.021398      0.006842
      4.39568      5.92165      7.67490        -0.000000     -0.023556      0.003938
      7.32614      5.92165      7.67490        -0.018531      0.010699      0.006842
     10.25659      5.92165      7.67490         0.018531      0.010699      0.006842
      8.79137      1.69341     10.06265         0.000000      0.008358     -0.009170
      2.94295      1.69911     10.03964         0.007158      0.004133     -0.003205
      5.84841      1.69911     10.03964        -0.007158      0.004133     -0.003205
     10.25212      4.23233     10.05217         0.002234     -0.001290     -0.011076
      4.39568      4.21532     10.03964        -0.000000     -0.008266     -0.003205
      7.33061      4.23233     10.05217        -0.002234     -0.001290     -0.011076
     11.72051      6.76684     10.06265        -0.007238     -0.004179     -0.009170
      5.86222      6.76684     10.06265         0.007238     -0.004179     -0.009170
      8.79137      6.76243     10.05217         0.000000      0.002580     -0.011076
      0.00000      0.00000     12.42704         0.000000      0.000000      0.015779
      2.96539      0.06299     12.42777        -0.002369     -0.002577      0.005072
      5.82597      0.06299     12.42777         0.002369     -0.002577      0.005072
      1.53725      2.53661     12.42777        -0.003416     -0.000763      0.005072
      7.25412      2.53661     12.42777         0.003416     -0.000763      0.005072
      2.96754      5.01395     12.42777        -0.001047      0.003340      0.005072
      5.82383      5.01395     12.42777         0.001047      0.003340      0.005072
      8.79137      5.07570     12.42264         0.000000      0.000000      0.005817
      4.39568      2.53785     12.15183         0.000000      0.000000     -0.003176
    total drift:                               -0.002173      0.001166      0.037014

  FREE ENERGIE OF THE ION-ELECTRON SYSTEM (eV)
  free  energy   TOTEN  =       -94.30915918 eV

  energy  without entropy=      -94.30915918  energy(sigma->0) =      -94.30915918

 stress matrix after NEB project (eV)
    -10.35531     -0.00000      0.00000
     -0.00000    -10.35531      0.00000
      0.00000      0.00000     -0.02812
  FORCES: max atom, RMS     0.015779    0.006680
  FORCE total and by dimension    0.040079    0.015779
  Stress total and by dimension   14.644640   10.355305
|           W    W    AA    RRRRR   N    N  II  N    N   GGGG   !!!           |
|           W    W   A  A   R    R  NN   N  II  NN   N  G    G  !!!           |
|           W    W  A    A  R    R  N N  N  II  N N  N  G       !!!           |
|           W WW W  AAAAAA  RRRRR   N  N N  II  N  N N  G  GGG   !            |
|           WW  WW  A    A  R   R   N   NN  II  N   NN  G    G                |
|           W    W  A    A  R    R  N    N  II  N    N   GGGG   !!!           |
|     Tetrahedron method does not include variations of the Fermi             |
|     occupations, so forces and stress will be inaccurate. We suggest        |
|     using a different smearing scheme ISMEAR = 1 or 2 for metals in         |
|     relaxations.                                                            |

 total charge

# of ion       s       p       d       tot
    1        0.417   0.202   9.177   9.796
    2        0.417   0.203   9.177   9.797
    3        0.417   0.203   9.177   9.797
    4        0.417   0.203   9.177   9.797
    5        0.416   0.204   9.177   9.797
    6        0.417   0.203   9.177   9.797
    7        0.417   0.203   9.177   9.797
    8        0.417   0.203   9.177   9.797
    9        0.416   0.202   9.178   9.796
   10        0.407   0.268   9.162   9.838
   11        0.407   0.268   9.168   9.843
   12        0.407   0.268   9.162   9.838
   13        0.407   0.268   9.168   9.843
   14        0.407   0.268   9.168   9.843
   15        0.404   0.268   9.166   9.839
   16        0.407   0.268   9.162   9.838
   17        0.404   0.268   9.166   9.839
   18        0.404   0.268   9.166   9.839
   19        0.402   0.266   9.166   9.834
   20        0.421   0.295   9.148   9.864
   21        0.421   0.295   9.148   9.864
   22        0.399   0.274   9.167   9.839
   23        0.421   0.295   9.148   9.864
   24        0.399   0.274   9.167   9.839
   25        0.402   0.266   9.166   9.834
   26        0.402   0.266   9.166   9.834
   27        0.399   0.274   9.167   9.839
   28        0.412   0.195   9.179   9.786
   29        0.423   0.208   9.169   9.799
   30        0.423   0.208   9.169   9.799
   31        0.423   0.208   9.169   9.799
   32        0.423   0.208   9.169   9.799
   33        0.423   0.208   9.169   9.799
   34        0.423   0.208   9.169   9.799
   35        0.405   0.197   9.181   9.783
   36        0.349   0.202   6.291   6.841
tot         14.775   8.581 327.191 350.547

 BZINTS: Fermi energy:    0.779937;  393.000000 electrons
         Band energy:-0.126918E+04;  BLOECHL correction:   -0.024108