 vasp.6.2.0 18Jan21 (build Jun 12 2021 23:27:24) complex

 executed on             LinuxIFC date 2022.05.28  00:48:16

 INCAR:
   ISMEAR = -5
   SIGMA = 0.1
   ISPIN = 1
   EDIFF = 1.d-5
   EDIFFG = -0.01
   NSW = 0
   NELM = 150
   ENCUT = 500
   ISIF = 2
   IBRION = 2
   LREAL = Auto
   ALGO = Fast
   ICHARG = 11
   LORBIT = 10
   LCHARG = .F.
   LWAVE = .F.

 POTCAR:    PAW_PBE Au 04Oct2007
 POTCAR:    PAW_PBE Ni 02Aug2007
 POTCAR:    PAW_PBE O 08Apr2002
 POTCAR:    PAW_PBE H 15Jun2001
|           W    W    AA    RRRRR   N    N  II  N    N   GGGG   !!!           |
|           W    W   A  A   R    R  NN   N  II  NN   N  G    G  !!!           |
|           W    W  A    A  R    R  N N  N  II  N N  N  G       !!!           |
|           W WW W  AAAAAA  RRRRR   N  N N  II  N  N N  G  GGG   !            |
|           WW  WW  A    A  R   R   N   NN  II  N   NN  G    G                |
|           W    W  A    A  R    R  N    N  II  N    N   GGGG   !!!           |
|     For optimal performance we recommend to set                             |
|       NCORE = 2 up to number-of-cores-per-socket                            |
|     This setting can greatly improve the performance of VASP for DFT.       |
|     The default, NCORE=1 might be grossly inefficient on modern             |
|     multi-core architectures or massively parallel machines. Do your        |
|     Unfortunately you need to use the default for GW and RPA                |
|     calculations (for HF NCORE is supported but not extensively tested      |
|     yet).                                                                   |

 POTCAR:    PAW_PBE Au 04Oct2007
   VRHFIN =Au: s1d10

   TITEL  = PAW_PBE Au 04Oct2007
   POMASS =  196.966; ZVAL   =   11.000    mass and valenz
   ENMAX  =  229.943; ENMIN  =  172.457 eV

 POTCAR:    PAW_PBE Ni 02Aug2007
   VRHFIN =Ni:

   TITEL  = PAW_PBE Ni 02Aug2007
   POMASS =   58.690; ZVAL   =   10.000    mass and valenz
   ENMAX  =  269.532; ENMIN  =  202.149 eV

 POTCAR:    PAW_PBE O 08Apr2002
   VRHFIN =O: s2p4

   TITEL  = PAW_PBE O 08Apr2002
   POMASS =   16.000; ZVAL   =    6.000    mass and valenz
   ENMAX  =  400.000; ENMIN  =  300.000 eV

 POTCAR:    PAW_PBE H 15Jun2001
   VRHFIN =H: ultrasoft test

   TITEL  = PAW_PBE H 15Jun2001
   POMASS =    1.000; ZVAL   =    1.000    mass and valenz
   ENMAX  =  250.000; ENMIN  =  200.000 eV

 Optimization of the real space projectors (new method)

 maximal supplied QI-value         = 15.12
 optimisation between [QCUT,QGAM] = [ 11.34, 22.83] = [ 36.00,145.93] Ry
 Optimized for a Real-space Cutoff    1.39 Angstroem

   l    n(q)    QCUT    max X(q) W(low)/X(q) W(high)/X(q)  e(spline)
   2      9    11.338    60.898    0.39E-03    0.42E-03    0.21E-06
   2      9    11.338    58.894    0.40E-03    0.42E-03    0.22E-06
   0      9    11.338   109.617    0.13E-03    0.20E-04    0.13E-06
   0      9    11.338    75.026    0.13E-03    0.20E-04    0.13E-06
   1      9    11.338    16.344    0.33E-04    0.24E-03    0.18E-06
   1      9    11.338    10.160    0.26E-04    0.19E-03    0.15E-06
 Optimization of the real space projectors (new method)

[...]

   l    n(q)    QCUT    max X(q) W(low)/X(q) W(high)/X(q)  e(spline)
   0      7    11.387    20.381    0.39E-03    0.13E-02    0.15E-06
   0      7    11.387    15.268    0.42E-03    0.14E-02    0.17E-06
   1      6    11.387     5.964    0.41E-03    0.11E-02    0.17E-06
   1      6    11.387     5.382    0.39E-03    0.87E-03    0.15E-06
 Optimization of the real space projectors (new method)

 maximal supplied QI-value         = 34.20
 optimisation between [QCUT,QGAM] = [ 11.29, 22.57] = [ 35.68,142.71] Ry
 Optimized for a Real-space Cutoff    1.16 Angstroem

   l    n(q)    QCUT    max X(q) W(low)/X(q) W(high)/X(q)  e(spline)
   0      8    11.287    19.460    0.40E-03    0.73E-03    0.16E-06
   0      8    11.287    12.209    0.38E-03    0.70E-03    0.15E-06
   1      7    11.287     4.655    0.22E-03    0.25E-04    0.22E-06
  PAW_PBE Au 04Oct2007                  :
  PAW_PBE Ni 02Aug2007                  :
  PAW_PBE O 08Apr2002                   :
  PAW_PBE H 15Jun2001                   :

 POSCAR: Au-Ni-OOH
  positions in direct lattice
  velocities in cartesian coordinates
 exchange correlation table for  LEXCH =        8
   RHO(1)=    0.500       N(1)  =     2000
   RHO(2)=  100.500       N(2)  =     4000

 VTST: version 3.2, (02/03/18)

 CHAIN: initializing optimizer

 OPT: Using VASP Conjugate-Gradient optimizer
 CHAIN: Read ICHAIN            0

 POSCAR: Au-Ni-OOH
  positions in direct lattice
  velocities in cartesian coordinates

 ion  position               nearest neighbor table
   1  0.000  0.000  0.204-  16 2.94  12 2.94   6 2.94   8 2.94   7 2.94   3 2.94  10 2.94   4 2.94
                             2 2.94
   2  0.333  0.000  0.204-   9 2.94  11 2.94  17 2.94  10 2.94   8 2.94   4 2.94   5 2.94   1 2.94
                             3 2.94
   3  0.667  0.000  0.204-   7 2.94  18 2.94  12 2.94   1 2.94  11 2.94   5 2.94   6 2.94   9 2.94
                             2 2.94
   4  0.000  0.333  0.204-  10 2.94   6 2.94   5 2.94  13 2.94   2 2.94  15 2.94   9 2.94   1 2.94
                             7 2.94
   5  0.333  0.333  0.204-  13 2.94   7 2.94  11 2.94   4 2.94   2 2.94  14 2.94   3 2.94   8 2.94
                             6 2.94
   6  0.667  0.333  0.204-  15 2.94  14 2.94   1 2.94  12 2.94   4 2.94   9 2.94   8 2.94   3 2.94
                             5 2.94
   7  0.000  0.667  0.204-  18 2.94   3 2.94  16 2.94   5 2.94   1 2.94  13 2.94   8 2.94   4 2.94
                             9 2.94
   8  0.333  0.667  0.204-   9 2.94  17 2.94   1 2.94   2 2.94  14 2.94  16 2.94   6 2.94   7 2.94
                             5 2.94
   9  0.667  0.667  0.204-   2 2.94   8 2.94  17 2.94   6 2.94  15 2.94   4 2.94   3 2.94  18 2.94
                             7 2.94
  10  0.111  0.111  0.296-  20 2.93  26 2.93  19 2.93  11 2.94  17 2.94   2 2.94   4 2.94   1 2.94
                            12 2.94  16 2.94  13 2.94  15 2.94
  11  0.444  0.111  0.296-  20 2.92  21 2.92  27 2.93  13 2.94   2 2.94  10 2.94  17 2.94   5 2.94
                             3 2.94  18 2.94  14 2.94  12 2.94
  12  0.778  0.111  0.296-  21 2.93  25 2.93  19 2.93  16 2.94  18 2.94   1 2.94  14 2.94  15 2.94
                             3 2.94   6 2.94  10 2.94  11 2.94
  13  0.111  0.444  0.296-  23 2.92  20 2.92  22 2.93   5 2.94  18 2.94  11 2.94   7 2.94   4 2.94
                            16 2.94  10 2.94  14 2.94  15 2.94
  14  0.444  0.444  0.296-  21 2.92  23 2.92  24 2.93  15 2.94   6 2.94  12 2.94   8 2.94  17 2.94
                             5 2.94  16 2.94  13 2.94  11 2.94
  15  0.778  0.444  0.296-  24 2.92  22 2.92  19 2.93  14 2.94   6 2.94  17 2.94  12 2.94   9 2.94
                             4 2.94  10 2.94  13 2.94  18 2.94
  16  0.111  0.778  0.296-  23 2.93  25 2.93  26 2.93  18 2.94  12 2.94   7 2.94   1 2.94   8 2.94
                            13 2.94  10 2.94  14 2.94  17 2.94
  17  0.444  0.778  0.296-  27 2.92  24 2.92  26 2.93   9 2.94  15 2.94   2 2.94  10 2.94  11 2.94
                             8 2.94  14 2.94  16 2.94  18 2.94
  18  0.778  0.778  0.296-  22 2.92  27 2.92  25 2.93  16 2.94   7 2.94  13 2.94  12 2.94   3 2.94
                            11 2.94   9 2.94  15 2.94  17 2.94
  19  0.889  0.222  0.388-  10 2.93  12 2.93  15 2.93  26 2.93  25 2.93  24 2.94  22 2.94  21 2.95
                            20 2.95  28 2.95  32 2.96  31 2.96
  20  0.223  0.223  0.388-  36 2.70  29 2.91  31 2.91  11 2.92  13 2.92  23 2.92  21 2.92  10 2.93
                            27 2.95  22 2.95  26 2.95  19 2.95
  21  0.554  0.223  0.388-  36 2.70  30 2.91  32 2.91  14 2.92  11 2.92  20 2.92  23 2.92  12 2.93
                            27 2.95  24 2.95  25 2.95  19 2.95
  22  0.888  0.556  0.388-  18 2.92  15 2.92  24 2.92  27 2.92  13 2.93  25 2.94  19 2.94  33 2.94
                            31 2.94  23 2.95  20 2.95  35 2.96
  23  0.223  0.554  0.388-  36 2.70  33 2.91  34 2.91  13 2.92  14 2.92  20 2.92  21 2.92  16 2.93
                            22 2.95  24 2.95  25 2.95  26 2.95
  24  0.556  0.556  0.388-  15 2.92  17 2.92  27 2.92  22 2.92  14 2.93  26 2.94  19 2.94  32 2.94
                            34 2.94  21 2.95  23 2.95  35 2.96
  25  0.889  0.889  0.388-  16 2.93  12 2.93  18 2.93  19 2.93  26 2.93  22 2.94  27 2.94  23 2.95
                            21 2.95  28 2.95  33 2.96  30 2.96
  26  0.222  0.889  0.388-  10 2.93  16 2.93  17 2.93  19 2.93  25 2.93  27 2.94  24 2.94  20 2.95
                            23 2.95  28 2.95  29 2.96  34 2.96
  27  0.556  0.888  0.388-  17 2.92  18 2.92  24 2.92  22 2.92  11 2.93  26 2.94  25 2.94  29 2.94
                            30 2.94  20 2.95  21 2.95  35 2.96
  28  0.000  0.000  0.482-  25 2.95  19 2.95  26 2.95  34 2.97  32 2.97  33 2.97  30 2.97  31 2.97
                            29 2.97
  29  0.334  0.007  0.481-  30 2.87  31 2.88  36 2.89  20 2.91  27 2.94  26 2.96  35 2.97  28 2.97
                            34 3.06
  30  0.660  0.007  0.481-  29 2.87  32 2.88  36 2.89  21 2.91  27 2.94  25 2.96  35 2.97  28 2.97
                            33 3.06
  31  0.007  0.334  0.481-  33 2.87  29 2.88  36 2.89  20 2.91  22 2.94  19 2.96  35 2.97  28 2.97
                            32 3.06
  32  0.660  0.334  0.481-  34 2.87  30 2.88  36 2.89  21 2.91  24 2.94  19 2.96  35 2.97  28 2.97
                            31 3.06
  33  0.007  0.660  0.481-  31 2.87  34 2.88  36 2.89  23 2.91  22 2.94  25 2.96  35 2.97  28 2.97
                            30 3.06
  34  0.334  0.660  0.481-  32 2.87  33 2.88  36 2.89  23 2.91  24 2.94  26 2.96  35 2.97  28 2.97
                            29 3.06
  35  0.667  0.667  0.482-  24 2.96  27 2.96  22 2.96  29 2.97  34 2.97  32 2.97  31 2.97  30 2.97
                            33 2.97
  36  0.333  0.333  0.469-  37 1.85  20 2.70  23 2.70  21 2.70  33 2.89  31 2.89  29 2.89  30 2.89
                            34 2.89  32 2.89
  37  0.363  0.363  0.538-  38 1.48  36 1.85
  38  0.290  0.289  0.575-  39 0.98  37 1.48
  39  0.345  0.299  0.607-  38 0.98

  LATTYP: Found a hexagonal cell.
 ALAT       =     8.8135128021
 C/A-ratio  =     2.9412617888

  Lattice vectors:

 A1 = (  -4.4067569092,  -7.6327256898,   0.0000000000)
 A2 = (   8.8135128021,   0.0000000000,   0.0000000000)
 A3 = (   0.0000000000,   0.0000000000,  25.9228484302)

Analysis of symmetry for initial positions (statically):
 Subroutine PRICEL returns:
 Original cell was already a primitive cell.

 Routine SETGRP: Setting up the symmetry group for a
 hexagonal supercell.

 Subroutine GETGRP returns: Found  1 space group operations
 (whereof  1 operations were pure point group operations)
 out of a pool of 24 trial point group operations.

The static configuration has the point symmetry C_1 .

Analysis of symmetry for dynamics (positions and initial velocities):
 Subroutine PRICEL returns:
 Original cell was already a primitive cell.

[...]

The dynamic configuration has the point symmetry C_1 .

Analysis of constrained symmetry for selective dynamics:
 Subroutine PRICEL returns:
 Original cell was already a primitive cell.

[...]
     41      -5.2131      2.00000
     42      -5.1927      2.00000
     43      -5.1494      2.00000
     44      -5.0663      2.00000
     45      -5.0327      2.00000
     46      -4.9943      2.00000
     47      -4.9566      2.00000
     48      -4.9504      2.00000
     49      -4.9398      2.00000
     50      -4.8511      2.00000
     51      -4.8312      2.00000
     52      -4.8084      2.00000
     53      -4.7779      2.00000
     54      -4.7711      2.00000
     55      -4.7641      2.00000
     56      -4.7587      2.00000
     57      -4.7361      2.00000
     58      -4.7028      2.00000
     59      -4.6583      2.00000
     60      -4.6396      2.00000
[...]
    238       5.2547      0.00000
    239       5.3852      0.00000
    240       5.4836      0.00000
    241       5.5677      0.00000
    242       5.7036      0.00000
    243       5.7772      0.00000
    244       5.8020      0.00000
    245       5.8511      0.00000
    246       5.8795      0.00000
    247       6.1362      0.00000
    248       6.1532      0.00000
    249       6.1886      0.00000
    250       6.2107      0.00000
    251       6.2965      0.00000
    252       6.4131      0.00000

 soft charge-density along one line, spin component           1
         0         1         2         3         4         5         6         7         8         9
 total charge-density along one line

------------------------ aborting loop because EDIFF is reached ----------------------------------------

 total charge

# of ion       s       p       d       tot
    1        0.544   0.240   8.770   9.553
    2        0.545   0.241   8.764   9.551
    3        0.545   0.241   8.765   9.551
    4        0.546   0.241   8.764   9.551
    5        0.543   0.241   8.764   9.548
    6        0.544   0.240   8.766   9.551
    7        0.545   0.241   8.765   9.551
    8        0.544   0.240   8.767   9.551
    9        0.541   0.240   8.767   9.549
   10        0.523   0.307   8.774   9.604
   11        0.520   0.308   8.777   9.605
   12        0.519   0.308   8.772   9.600
   13        0.519   0.308   8.777   9.605
   14        0.520   0.308   8.776   9.604
   15        0.517   0.309   8.778   9.603
   16        0.519   0.308   8.772   9.600
   17        0.517   0.309   8.778   9.603
   18        0.516   0.309   8.777   9.602
   19        0.515   0.303   8.775   9.593
   20        0.539   0.325   8.756   9.620
   21        0.535   0.325   8.759   9.620
   22        0.515   0.308   8.777   9.600
   23        0.536   0.325   8.759   9.620
   24        0.514   0.310   8.773   9.597
   25        0.515   0.303   8.775   9.594
   26        0.515   0.304   8.775   9.593
   27        0.515   0.308   8.777   9.600
   28        0.542   0.224   8.770   9.536
   29        0.544   0.229   8.770   9.543
   30        0.538   0.230   8.776   9.543
   31        0.545   0.229   8.771   9.544
   32        0.538   0.229   8.776   9.543
   33        0.537   0.229   8.777   9.543
   34        0.538   0.228   8.777   9.542
   35        0.538   0.227   8.768   9.532
   36        0.387   0.381   8.287   9.055
   37        1.600   3.233   0.000   4.833
   38        1.591   3.385   0.000   4.977
   39        0.620   0.113   0.000   0.733
tot         22.781  16.689 315.271 354.742

  FORCE on cell =-STRESS in cart. coord.  units (eV):
  Direction    XX          YY          ZZ          XY          YZ          ZX
  Alpha Z   890.44837   890.44837   890.44837
  Ewald  177740.65124177608.70481************    99.57959   -67.86931   -79.39468
  Hartree186447.53379186382.44436************    54.40371   -39.99956   -60.07472
  E(xc)   -1845.14372 -1845.46371 -1851.01790     0.19457    -0.11121    -0.03505
  Local  ************************376001.49537  -142.31878   100.21406   135.27253
  n-local  -118.19756  -120.03454   -97.26155     1.98173    -1.64493    -2.81186
  augment  2559.32594  2560.63246  2561.97066    -1.03272     0.45282    -0.13586
  Kinetic  5697.56858  5716.63861  5719.98848   -12.52412     8.85583     7.06559
  Fock        0.00000     0.00000     0.00000     0.00000     0.00000     0.00000
  Total     -23.12466   -23.38587    -1.26700     0.28397    -0.10230    -0.11404
  in kB     -21.24587   -21.48585    -1.16406     0.26090    -0.09399    -0.10478

 VOLUME and BASIS-vectors are now :
  energy-cutoff  :      500.00
  volume of cell :     1743.86
      direct lattice vectors                 reciprocal lattice vectors
     8.813512802  0.000000000  0.000000000     0.113462137 -0.065507406  0.000000000
     4.406756909  7.632725690  0.000000000     0.000000000  0.131014796  0.000000000
     0.000000000  0.000000000 25.922848430     0.000000000  0.000000000  0.038576008

  length of vectors
     8.813512802  8.813512802 25.922848430     0.131014796  0.131014796  0.038576008

 FORCES acting on ions
    electron-ion (+dipol)            ewald-force                    non-local-force                 convergence-correction
   0.120E+00 0.401E-01 0.281E+04   0.927E-04 -.547E-03 -.281E+04   -.538E-01 -.186E-01 -.826E+00   -.551E-01 -.154E-01 -.527E+00
   0.456E+00 0.596E+00 0.281E+04   -.624E+00 -.643E+00 -.281E+04   0.568E-01 0.535E-01 -.296E+00   0.996E-01 0.140E-01 -.533E+00
   -.543E+00 0.554E+00 0.281E+04   0.624E+00 -.668E+00 -.281E+04   -.233E-01 0.516E-01 -.326E+00   -.614E-01 0.673E-01 -.525E+00
   0.771E+00 0.971E-01 0.281E+04   -.868E+00 -.218E+00 -.281E+04   0.667E-01 0.244E-01 -.280E+00   0.424E-01 0.754E-01 -.522E+00
   -.314E-01 -.243E-01 0.281E+04   -.226E-01 -.116E-01 -.281E+04   -.823E-02 0.635E-02 -.337E+00   0.709E-01 0.343E-01 -.385E+00
   -.792E+00 0.217E+00 0.281E+04   0.891E+00 -.231E+00 -.281E+04   -.181E-01 -.132E-01 -.410E+00   -.941E-01 0.258E-01 -.518E+00
   0.224E+00 -.740E+00 0.281E+04   -.266E+00 0.874E+00 -.281E+04   0.268E-01 -.541E-01 -.310E+00   0.195E-01 -.836E-01 -.523E+00
   -.205E+00 -.769E+00 0.281E+04   0.244E+00 0.887E+00 -.281E+04   -.227E-01 -.191E-01 -.406E+00   -.241E-01 -.108E+00 -.517E+00
   -.389E-01 -.857E-03 0.281E+04   0.216E-01 0.115E-01 -.281E+04   0.143E-01 -.294E-02 -.517E+00   0.108E-01 -.265E-02 -.554E+00
   0.522E+01 0.299E+01 0.101E+04   -.506E+01 -.292E+01 -.101E+04   -.183E+00 -.958E-01 -.665E+00   0.705E-01 0.520E-01 0.168E+00
   -.819E-01 0.721E+01 0.102E+04   -.687E-01 -.747E+01 -.102E+04   0.555E-01 0.606E-01 -.298E+00   0.955E-01 0.162E+00 0.216E+00
   -.530E+01 0.311E+01 0.101E+04   0.513E+01 -.309E+01 -.101E+04   0.249E+00 -.102E+00 -.527E+00   -.112E+00 0.936E-01 0.162E+00
   0.620E+01 -.366E+01 0.102E+04   -.650E+01 0.368E+01 -.102E+04   0.825E-01 0.652E-02 -.283E+00   0.192E+00 -.106E-01 0.210E+00
   -.613E+01 -.353E+01 0.102E+04   0.633E+01 0.366E+01 -.102E+04   -.524E-01 -.391E-01 -.425E+00   -.113E+00 -.774E-01 0.208E+00
   -.498E-01 0.165E+01 0.101E+04   0.175E+00 -.160E+01 -.101E+04   -.517E-01 -.412E-01 -.462E+00   -.754E-01 -.234E-01 0.910E-01
   0.507E-01 -.615E+01 0.101E+04   -.116E+00 0.598E+01 -.101E+04   0.338E-01 0.281E+00 -.553E+00   0.185E-01 -.135E+00 0.155E+00
   0.141E+01 -.867E+00 0.101E+04   -.130E+01 0.944E+00 -.101E+04   -.688E-01 -.200E-01 -.473E+00   -.469E-01 -.520E-01 0.949E-01
   -.134E+01 -.777E+00 0.101E+04   0.142E+01 0.810E+00 -.101E+04   -.509E-01 -.261E-01 -.457E+00   -.147E-01 0.156E-02 0.768E-01
   -.525E+00 0.422E+01 -.840E+03   0.556E+00 -.441E+01 0.838E+03   0.591E-01 0.145E+00 0.638E+00   -.785E-01 0.481E-01 0.933E+00
   0.473E+02 0.273E+02 -.771E+03   -.470E+02 -.271E+02 0.770E+03   -.839E+00 -.499E+00 -.719E+00   0.602E+00 0.335E+00 0.158E+01
   -.468E+02 0.288E+02 -.769E+03   0.466E+02 -.287E+02 0.768E+03   0.716E+00 -.393E+00 -.531E+00   -.555E+00 0.351E+00 0.155E+01
   0.186E+02 -.111E+02 -.824E+03   -.189E+02 0.114E+02 0.822E+03   0.229E+00 -.132E+00 0.546E+00   0.203E+00 -.128E+00 0.959E+00
   0.158E+01 -.549E+02 -.769E+03   -.165E+01 0.547E+02 0.768E+03   0.286E-01 0.836E+00 -.569E+00   0.367E-01 -.679E+00 0.156E+01
   -.200E+02 -.116E+02 -.822E+03   0.205E+02 0.118E+02 0.820E+03   -.263E+00 -.150E+00 0.591E+00   -.272E+00 -.158E+00 0.949E+00
   -.321E+01 -.181E+01 -.841E+03   0.323E+01 0.180E+01 0.839E+03   -.381E-01 -.285E-01 0.684E+00   0.233E-01 0.369E-01 0.923E+00
   0.341E+01 -.253E+01 -.840E+03   -.359E+01 0.265E+01 0.838E+03   0.161E+00 -.281E-01 0.642E+00   0.238E-01 -.819E-01 0.944E+00
   -.340E+00 0.217E+02 -.824E+03   0.360E+00 -.221E+02 0.822E+03   -.475E-02 0.277E+00 0.550E+00   -.882E-02 0.259E+00 0.968E+00
   0.230E+01 0.146E+01 -.269E+04   -.234E+01 -.151E+01 0.269E+04   0.499E-01 0.415E-01 0.408E+00   -.142E-01 -.153E-02 0.816E+00
   0.541E+02 0.968E+02 -.264E+04   -.543E+02 -.971E+02 0.264E+04   -.313E+00 -.416E+00 0.866E+00   0.401E+00 0.643E+00 0.756E+00
   -.566E+02 0.983E+02 -.265E+04   0.568E+02 -.991E+02 0.265E+04   0.235E+00 -.171E+00 0.867E+00   -.400E+00 0.727E+00 0.775E+00
   0.111E+03 -.191E+01 -.264E+04   -.111E+03 0.194E+01 0.264E+04   -.526E+00 -.513E-01 0.834E+00   0.764E+00 0.569E-02 0.743E+00
   -.124E+03 0.583E+01 -.264E+04   0.125E+03 -.569E+01 0.264E+04   0.143E+00 -.134E+00 0.111E+01   -.842E+00 -.494E-02 0.786E+00
   0.566E+02 -.975E+02 -.265E+04   -.572E+02 0.982E+02 0.265E+04   0.127E-02 0.228E+00 0.918E+00   0.442E+00 -.705E+00 0.774E+00
   -.565E+02 -.110E+03 -.264E+04   0.571E+02 0.111E+03 0.264E+04   -.592E-01 0.183E+00 0.113E+01   -.416E+00 -.725E+00 0.799E+00
   -.250E+01 -.123E+01 -.270E+04   0.248E+01 0.120E+01 0.269E+04   0.312E-01 0.115E-01 0.341E+00   -.175E-01 0.121E-01 0.817E+00
   0.317E+02 0.177E+02 -.202E+04   -.321E+02 -.180E+02 0.202E+04   0.250E+00 0.200E+00 -.223E+01   0.101E+00 0.480E-01 0.926E+00
   -.143E+03 -.850E+02 -.173E+04   0.169E+03 0.100E+03 0.173E+04   -.249E+02 -.152E+02 0.315E+01   -.359E+00 -.263E+00 -.102E+01
   0.155E+03 0.785E+02 -.178E+04   -.196E+03 -.927E+02 0.176E+04   0.409E+02 0.140E+02 0.136E+02   0.371E+00 0.167E+00 -.624E+00
   -.389E+02 -.735E+00 -.340E+03   0.432E+02 0.131E+01 0.347E+03   -.438E+01 -.602E+00 -.691E+01   0.145E-01 0.148E-01 -.665E-01
   -.115E+02 0.189E+01 -.205E+02   0.355E-13 -.480E-13 -.978E-11   0.115E+02 -.176E+01 0.803E+01   0.423E-01 -.836E-01 0.126E+02

 POSITION                                       TOTAL-FORCE (eV/Angst)
      0.00000      0.00000      5.28038         0.009511      0.004313     -0.055134
      2.93784      0.00000      5.28038        -0.014160      0.019061     -0.031480
      5.87568      0.00000      5.28038        -0.004961      0.004120     -0.032332
      1.46892      2.54424      5.28038         0.009796     -0.022552     -0.029399
      4.40676      2.54424      5.28038         0.006603      0.003607     -0.059931
      7.34459      2.54424      5.28038        -0.014898     -0.002640     -0.031999
      2.93784      5.08848      5.28038         0.002126     -0.005381     -0.031865
      5.87568      5.08848      5.28038        -0.010026     -0.010180     -0.036238
      8.81351      5.08848      5.28038         0.005735      0.003808     -0.051471
      1.46892      0.84808      7.67911         0.039466      0.023353      0.100662
      4.40676      0.84808      7.67911        -0.001606     -0.041446      0.044682
      7.34459      0.84808      7.67911        -0.031444      0.000616      0.109854
      2.93784      3.39232      7.67911        -0.034553      0.018352      0.045453
      5.87568      3.39232      7.67911         0.029745      0.016100      0.035609
      8.81351      3.39232      7.67911        -0.004321     -0.011893      0.081888
      4.40676      5.93656      7.67911        -0.015187     -0.025664      0.107978
      7.34459      5.93656      7.67911        -0.013719      0.003712      0.081449
     10.28243      5.93656      7.67911         0.010294      0.006910      0.091443
      8.81351      1.69394     10.07055         0.009661      0.000163     -0.005080
      2.94670      1.70128     10.05847         0.018102      0.014187     -0.053500
      5.86681      1.70128     10.05847        -0.023766      0.012290     -0.048648
     10.27376      4.24541     10.05945         0.066393     -0.031822     -0.007509
      4.40676      4.23017     10.05847        -0.005309     -0.021244     -0.056395
      7.35327      4.24541     10.05945        -0.087326     -0.050593      0.027159
     11.75328      6.78576     10.07055         0.002985     -0.003956      0.000581
      5.87375      6.78576     10.07055         0.002017      0.006307     -0.004873
      8.81351      6.77463     10.05945         0.004754      0.069237     -0.007035
      0.00000      0.00000     12.48855        -0.005220     -0.008928     -0.077636
      2.97006      0.05170     12.45862        -0.103978     -0.149608     -0.084079
      5.84345      0.05170     12.45862         0.098988     -0.240577     -0.119368
      1.52981      2.54630     12.45862        -0.197365     -0.013826     -0.090200
      7.28371      2.54630     12.45862         0.329444      0.006679     -0.149121
      2.96650      5.03473     12.45862        -0.166180      0.222336     -0.117860
      5.84701      5.03473     12.45862         0.173468      0.289829     -0.150036
      8.81351      5.08848     12.49203        -0.009194     -0.009498     -0.068291
      4.40676      2.54424     12.16149        -0.077701     -0.078817      0.812334
      4.79605      2.76977     13.95087         0.009257      0.007882     -0.114513
      3.82701      2.20878     14.91294        -0.011001      0.005079     -0.016530
      4.36082      2.28553     15.73286         0.003569     -0.009318     -0.008570
    total drift:                                0.080985      0.047942      0.100478

  FREE ENERGIE OF THE ION-ELECTRON SYSTEM (eV)
  free  energy   TOTEN  =      -125.80647958 eV

  energy  without entropy=     -125.80647958  energy(sigma->0) =     -125.80647958

 stress matrix after NEB project (eV)
    -23.12466      0.28397     -0.11404
      0.28397    -23.38587     -0.10230
     -0.11404     -0.10230     -1.26700
  FORCES: max atom, RMS     0.115157    0.018848
  FORCE total and by dimension    0.117704    0.114513
  Stress total and by dimension   32.915989   23.385865
|           W    W    AA    RRRRR   N    N  II  N    N   GGGG   !!!           |
|           W    W   A  A   R    R  NN   N  II  NN   N  G    G  !!!           |
|           W    W  A    A  R    R  N N  N  II  N N  N  G       !!!           |
|           W WW W  AAAAAA  RRRRR   N  N N  II  N  N N  G  GGG   !            |
|           WW  WW  A    A  R   R   N   NN  II  N   NN  G    G                |
|           W    W  A    A  R    R  N    N  II  N    N   GGGG   !!!           |
|     Tetrahedron method does not include variations of the Fermi             |
|     occupations, so forces and stress will be inaccurate. We suggest        |
|     using a different smearing scheme ISMEAR = 1 or 2 for metals in         |
|     relaxations.                                                            |

 total charge

# of ion       s       p       d       tot
    1        0.544   0.240   8.770   9.553
    2        0.545   0.241   8.764   9.551
    3        0.545   0.241   8.765   9.551
    4        0.546   0.241   8.764   9.551
    5        0.543   0.241   8.764   9.548
    6        0.544   0.240   8.766   9.551
    7        0.545   0.241   8.765   9.551
    8        0.544   0.240   8.767   9.551
    9        0.541   0.240   8.767   9.549
   10        0.523   0.307   8.774   9.604
   11        0.520   0.308   8.777   9.605
   12        0.519   0.308   8.772   9.600
   13        0.519   0.308   8.777   9.605
   14        0.520   0.308   8.776   9.604
   15        0.517   0.309   8.778   9.603
   16        0.519   0.308   8.772   9.600
   17        0.517   0.309   8.778   9.603
   18        0.516   0.309   8.777   9.602
   19        0.515   0.303   8.775   9.593
   20        0.539   0.325   8.756   9.620
   21        0.535   0.325   8.759   9.620
   22        0.515   0.308   8.777   9.600
   23        0.536   0.325   8.759   9.620
   24        0.514   0.310   8.773   9.597
   25        0.515   0.303   8.775   9.594
   26        0.515   0.304   8.775   9.593
   27        0.515   0.308   8.777   9.600
   28        0.542   0.224   8.770   9.536
   29        0.544   0.229   8.770   9.543
   30        0.538   0.230   8.776   9.543
   31        0.545   0.229   8.771   9.544
   32        0.538   0.229   8.776   9.543
   33        0.537   0.229   8.777   9.543
   34        0.538   0.228   8.777   9.542
   35        0.538   0.227   8.768   9.532
   36        0.387   0.381   8.287   9.055
   37        1.600   3.233   0.000   4.833
   38        1.591   3.385   0.000   4.977
   39        0.620   0.113   0.000   0.733
tot         22.781  16.689 315.271 354.742

 BZINTS: Fermi energy:   -0.011943;  408.000000 electrons
         Band energy:-0.155957E+04;  BLOECHL correction:   -0.052165