 vasp.6.2.0 18Jan21 (build Jun 12 2021 23:27:24) complex

 executed on             LinuxIFC date 2022.05.30  17:43:06

 INCAR:
   ISMEAR = -5
   SIGMA = 0.1
   ISPIN = 1
   EDIFF = 1.d-5
   EDIFFG = -0.01
   NSW = 0
   NELM = 150
   ENCUT = 500
   ISIF = 2
   IBRION = 2
   LREAL = Auto
   ALGO = Fast
   ICHARG = 11
   LORBIT = 10
   LCHARG = .F.
   LWAVE = .F.

 POTCAR:    PAW_PBE Ag 02Apr2005
 POTCAR:    PAW_PBE Os 17Jan2003
 POTCAR:    PAW_PBE O 08Apr2002
|           W    W    AA    RRRRR   N    N  II  N    N   GGGG   !!!           |
|           W    W   A  A   R    R  NN   N  II  NN   N  G    G  !!!           |
|           W    W  A    A  R    R  N N  N  II  N N  N  G       !!!           |
|           W WW W  AAAAAA  RRRRR   N  N N  II  N  N N  G  GGG   !            |
|           WW  WW  A    A  R   R   N   NN  II  N   NN  G    G                |
|           W    W  A    A  R    R  N    N  II  N    N   GGGG   !!!           |
|     For optimal performance we recommend to set                             |
|       NCORE = 2 up to number-of-cores-per-socket                            |
|     This setting can greatly improve the performance of VASP for DFT.       |
|     The default, NCORE=1 might be grossly inefficient on modern             |
|     multi-core architectures or massively parallel machines. Do your        |
|     Unfortunately you need to use the default for GW and RPA                |
|     calculations (for HF NCORE is supported but not extensively tested      |
|     yet).                                                                   |

 POTCAR:    PAW_PBE Ag 02Apr2005
   VRHFIN =Ag : s1 d10

   TITEL  = PAW_PBE Ag 02Apr2005
   POMASS =  107.868; ZVAL   =   11.000    mass and valenz
   ENMAX  =  249.844; ENMIN  =  187.383 eV

 POTCAR:    PAW_PBE Os 17Jan2003
   VRHFIN =Os: 6s5d

   TITEL  = PAW_PBE Os 17Jan2003
   POMASS =  190.200; ZVAL   =    8.000    mass and valenz
   ENMAX  =  228.022; ENMIN  =  171.017 eV

 POTCAR:    PAW_PBE O 08Apr2002
   VRHFIN =O: s2p4

   TITEL  = PAW_PBE O 08Apr2002
   POMASS =   16.000; ZVAL   =    6.000    mass and valenz
   ENMAX  =  400.000; ENMIN  =  300.000 eV

 Optimization of the real space projectors (new method)

 maximal supplied QI-value         = 15.12
 optimisation between [QCUT,QGAM] = [ 11.34, 22.83] = [ 36.00,145.93] Ry
 Optimized for a Real-space Cutoff    1.43 Angstroem

   l    n(q)    QCUT    max X(q) W(low)/X(q) W(high)/X(q)  e(spline)
   2      9    11.338    53.897    0.16E-03    0.20E-03    0.28E-06
   2      9    11.338    52.416    0.16E-03    0.20E-03    0.29E-06
   0     10    11.338   122.045    0.31E-04    0.76E-04    0.15E-06
   0     10    11.338    73.629    0.30E-04    0.72E-04    0.15E-06
   1      9    11.338    15.255    0.20E-03    0.19E-04    0.17E-06
   1      9    11.338     9.562    0.16E-03    0.15E-04    0.14E-06
 Optimization of the real space projectors (new method)

[...]

   l    n(q)    QCUT    max X(q) W(low)/X(q) W(high)/X(q)  e(spline)
   2     10    11.327   152.873    0.32E-03    0.72E-03    0.11E-05
   2     10    11.327   151.010    0.32E-03    0.72E-03    0.11E-05
   0     11    11.327    72.114    0.43E-04    0.61E-04    0.13E-06
   0     11    11.327    44.596    0.40E-04    0.57E-04    0.12E-06
   1     10    11.327    13.742    0.16E-03    0.10E-03    0.19E-06
   1     10    11.327     8.461    0.12E-03    0.78E-04    0.15E-06
 Optimization of the real space projectors (new method)

 maximal supplied QI-value         = 24.76
 optimisation between [QCUT,QGAM] = [ 11.39, 22.77] = [ 36.31,145.25] Ry
 Optimized for a Real-space Cutoff    1.00 Angstroem

   l    n(q)    QCUT    max X(q) W(low)/X(q) W(high)/X(q)  e(spline)
   0      7    11.387    20.381    0.39E-03    0.13E-02    0.15E-06
   0      7    11.387    15.268    0.42E-03    0.14E-02    0.17E-06
   1      6    11.387     5.964    0.41E-03    0.11E-02    0.17E-06
   1      6    11.387     5.382    0.39E-03    0.87E-03    0.15E-06
  PAW_PBE Ag 02Apr2005                  :
  PAW_PBE Os 17Jan2003                  :
  PAW_PBE O 08Apr2002                   :

 POSCAR: Ag-Os-O2
  positions in direct lattice
  velocities in cartesian coordinates
 exchange correlation table for  LEXCH =        8
   RHO(1)=    0.500       N(1)  =     2000
   RHO(2)=  100.500       N(2)  =     4000

 VTST: version 3.2, (02/03/18)

 CHAIN: initializing optimizer

 OPT: Using VASP Conjugate-Gradient optimizer
 CHAIN: Read ICHAIN            0

 POSCAR: Ag-Os-O2
  positions in direct lattice
  velocities in cartesian coordinates

 ion  position               nearest neighbor table
   1  0.000  0.000  0.217-   2 2.93   8 2.93   7 2.93   6 2.93   4 2.93  12 2.93  16 2.93  10 2.93
                             3 2.93
   2  0.333  0.000  0.217-   1 2.93   8 2.93   9 2.93   3 2.93   4 2.93   5 2.93  10 2.93  17 2.93
                            11 2.93
   3  0.667  0.000  0.217-   9 2.93   2 2.93   5 2.93  11 2.93   7 2.93  18 2.93   1 2.93   6 2.93
                            12 2.93
   4  0.000  0.333  0.217-   5 2.93   6 2.93   2 2.93   1 2.93   7 2.93  13 2.93  15 2.93   9 2.93
                            10 2.93
   5  0.333  0.333  0.217-   4 2.93   3 2.93   7 2.93   2 2.93   8 2.93  14 2.93  13 2.93  11 2.93
                             6 2.93
   6  0.667  0.333  0.217-   4 2.93   9 2.93   1 2.93  15 2.93   8 2.93  12 2.93   3 2.93   5 2.93
                            14 2.93
   7  0.000  0.667  0.217-   8 2.93   1 2.93   5 2.93   3 2.93   4 2.93  16 2.93  18 2.93  13 2.93
                             9 2.93
   8  0.333  0.667  0.217-   7 2.93   1 2.93   2 2.93   9 2.93   5 2.93  16 2.93   6 2.93  17 2.93
                            14 2.93
   9  0.667  0.667  0.217-   3 2.93   2 2.93   8 2.93   6 2.93  17 2.93   4 2.93  15 2.93   7 2.93
                            18 2.93
  10  0.111  0.111  0.315-  20 2.89  12 2.93  16 2.93  15 2.93  17 2.93  13 2.93  11 2.93   2 2.93
                             1 2.93   4 2.93  19 2.93  26 2.93
  11  0.444  0.111  0.315-  21 2.89  20 2.89  27 2.92  14 2.93  17 2.93  18 2.93   3 2.93  12 2.93
                            13 2.93  10 2.93   5 2.93   2 2.93
  12  0.778  0.111  0.315-  21 2.89  10 2.93  16 2.93  18 2.93  15 2.93  11 2.93   1 2.93  14 2.93
                             6 2.93   3 2.93  25 2.93  19 2.93
  13  0.111  0.444  0.315-  20 2.89  23 2.89  22 2.92  15 2.93  14 2.93  18 2.93  10 2.93  11 2.93
                            16 2.93   4 2.93   5 2.93   7 2.93
  14  0.444  0.444  0.315-  23 2.89  21 2.89  24 2.92  13 2.93  11 2.93  16 2.93   5 2.93  12 2.93
                            17 2.93   8 2.93  15 2.93   6 2.93
  15  0.778  0.444  0.315-  24 2.92  22 2.92  19 2.93  13 2.93  10 2.93  12 2.93  17 2.93  18 2.93
                             4 2.93   6 2.93   9 2.93  14 2.93
  16  0.111  0.778  0.315-  23 2.89  18 2.93  12 2.93  10 2.93  14 2.93  17 2.93  13 2.93   7 2.93
                             8 2.93   1 2.93  26 2.93  25 2.93
  17  0.444  0.778  0.315-  27 2.92  24 2.92  26 2.93  11 2.93  10 2.93   9 2.93  18 2.93  15 2.93
                            16 2.93   2 2.93  14 2.93   8 2.93
  18  0.778  0.778  0.315-  22 2.92  27 2.92  25 2.93  16 2.93  12 2.93  13 2.93  11 2.93  17 2.93
                            15 2.93   7 2.93   3 2.93   9 2.93
  19  0.888  0.223  0.413-  28 2.90  24 2.93  22 2.93  15 2.93  20 2.93  21 2.93  10 2.93  12 2.93
                            26 2.94  25 2.94  32 2.95  31 2.95
  20  0.222  0.222  0.411-  36 2.76  13 2.89  11 2.89  10 2.89  31 2.93  29 2.93  21 2.93  23 2.93
                            19 2.93  26 2.93  27 2.94  22 2.94
  21  0.556  0.222  0.411-  36 2.76  11 2.89  14 2.89  12 2.89  30 2.93  32 2.93  20 2.93  23 2.93
                            25 2.93  19 2.93  27 2.94  24 2.94
  22  0.888  0.556  0.413-  35 2.90  18 2.92  15 2.92  24 2.92  27 2.92  13 2.92  25 2.93  19 2.93
                            33 2.94  31 2.94  23 2.94  20 2.94
  23  0.222  0.556  0.411-  36 2.76  14 2.89  13 2.89  16 2.89  34 2.93  33 2.93  21 2.93  20 2.93
                            26 2.93  25 2.93  22 2.94  24 2.94
  24  0.556  0.556  0.413-  35 2.90  15 2.92  17 2.92  27 2.92  22 2.92  14 2.92  19 2.93  26 2.93
                            32 2.94  34 2.94  23 2.94  21 2.94
  25  0.888  0.888  0.413-  28 2.90  22 2.93  27 2.93  18 2.93  23 2.93  21 2.93  16 2.93  12 2.93
                            26 2.94  19 2.94  33 2.95  30 2.95
  26  0.223  0.888  0.413-  28 2.90  27 2.93  24 2.93  17 2.93  23 2.93  20 2.93  16 2.93  10 2.93
                            25 2.94  19 2.94  34 2.95  29 2.95
  27  0.556  0.888  0.413-  35 2.90  17 2.92  18 2.92  24 2.92  22 2.92  11 2.92  26 2.93  25 2.93
                            29 2.94  30 2.94  20 2.94  21 2.94
  28  0.000  0.000  0.510-  26 2.90  25 2.90  19 2.90  29 2.96  34 2.96  33 2.96  32 2.96  31 2.96
                            30 2.96
  29  0.333  0.008  0.511-  31 2.86  30 2.87  36 2.88  20 2.93  27 2.94  26 2.95  28 2.96  35 2.97
                            34 3.06
  30  0.659  0.008  0.511-  32 2.86  29 2.87  36 2.88  21 2.93  27 2.94  25 2.95  28 2.96  35 2.97
                            33 3.06
  31  0.008  0.333  0.511-  37 2.72  29 2.86  33 2.87  36 2.88  20 2.93  22 2.94  19 2.95  28 2.96
                            35 2.97  32 3.06
  32  0.659  0.333  0.511-  38 2.72  30 2.86  34 2.87  36 2.88  21 2.93  24 2.94  19 2.95  28 2.96
                            35 2.97  31 3.06
  33  0.008  0.659  0.511-  34 2.86  31 2.87  36 2.88  23 2.93  22 2.94  25 2.95  28 2.96  35 2.97
                            30 3.06
  34  0.333  0.659  0.511-  33 2.86  32 2.87  36 2.88  23 2.93  24 2.94  26 2.95  28 2.96  35 2.97
                            29 3.06
  35  0.667  0.667  0.510-  24 2.90  27 2.90  22 2.90  30 2.97  32 2.97  29 2.97  34 2.97  31 2.97
                            33 2.97
  36  0.333  0.333  0.501-  38 2.04  37 2.04  21 2.76  20 2.76  23 2.76  31 2.88  30 2.88  33 2.88
                            29 2.88  34 2.88  32 2.88
  37  0.254  0.329  0.579-  38 1.42  36 2.04  31 2.72
  38  0.416  0.329  0.579-  37 1.42  36 2.04  32 2.72

  LATTYP: Found a hexagonal cell.
 ALAT       =     8.7913665772
 C/A-ratio  =     2.7711238095

  Lattice vectors:

 A1 = (  -4.3956832886,  -7.6135467898,   0.0000000000)
 A2 = (   8.7913665771,   0.0000000000,   0.0000000000)
 A3 = (   0.0000000000,   0.0000000000,  24.3619652401)

Analysis of symmetry for initial positions (statically):
 Subroutine PRICEL returns:
 Original cell was already a primitive cell.

 Routine SETGRP: Setting up the symmetry group for a
 hexagonal supercell.

 Subroutine GETGRP returns: Found  2 space group operations
 (whereof  2 operations were pure point group operations)
 out of a pool of 24 trial point group operations.

The static configuration has the point symmetry C_1h.

Analysis of symmetry for dynamics (positions and initial velocities):
 Subroutine PRICEL returns:
 Original cell was already a primitive cell.

[...]

The dynamic configuration has the point symmetry C_1h.

Analysis of constrained symmetry for selective dynamics:
 Subroutine PRICEL returns:
 Original cell was already a primitive cell.

 Routine SETGRP: Setting up the symmetry group for a
[...]
     33      -5.0679      2.00000
     34      -5.0527      2.00000
     35      -5.0378      2.00000
     36      -5.0240      2.00000
     37      -4.9802      2.00000
     38      -4.9645      2.00000
     39      -4.9379      2.00000
     40      -4.9185      2.00000
     41      -4.9129      2.00000
     42      -4.8667      2.00000
     43      -4.8451      2.00000
     44      -4.8341      2.00000
     45      -4.8250      2.00000
     46      -4.8134      2.00000
     47      -4.7926      2.00000
     48      -4.7198      2.00000
     49      -4.6948      2.00000
     50      -4.6812      2.00000
     51      -4.6741      2.00000
     52      -4.6700      2.00000
     53      -4.6665      2.00000
     54      -4.6575      2.00000
     55      -4.6505      2.00000
     56      -4.6458      2.00000
     57      -4.6330      2.00000
     58      -4.5572      2.00000
     59      -4.5529      2.00000
     60      -4.5459      2.00000
[...]
    238       5.5652      0.00000
    239       5.6750      0.00000
    240       5.7344      0.00000
    241       5.8344      0.00000
    242       5.9211      0.00000
    243       5.9321      0.00000
    244       6.1387      0.00000
    245       6.4646      0.00000
    246       6.4922      0.00000
    247       6.6610      0.00000
    248       6.6661      0.00000
    249       6.7306      0.00000
    250       6.7598      0.00000
    251       6.8137      0.00000
    252       6.8797      0.00000

 soft charge-density along one line, spin component           1
         0         1         2         3         4         5         6         7         8         9
 total charge-density along one line

------------------------ aborting loop because EDIFF is reached ----------------------------------------

 total charge

# of ion       s       p       d       tot
    1        0.418   0.201   9.178   9.797
    2        0.417   0.203   9.178   9.798
    3        0.417   0.203   9.178   9.798
    4        0.417   0.203   9.177   9.797
    5        0.417   0.204   9.175   9.796
    6        0.417   0.203   9.177   9.797
    7        0.418   0.203   9.177   9.798
    8        0.418   0.203   9.177   9.798
    9        0.413   0.203   9.179   9.795
   10        0.409   0.269   9.162   9.840
   11        0.408   0.268   9.169   9.845
   12        0.409   0.269   9.162   9.840
   13        0.408   0.269   9.169   9.845
   14        0.408   0.269   9.169   9.845
   15        0.401   0.269   9.165   9.836
   16        0.407   0.270   9.163   9.840
   17        0.401   0.269   9.166   9.837
   18        0.401   0.269   9.166   9.837
   19        0.400   0.264   9.170   9.834
   20        0.432   0.303   9.142   9.878
   21        0.432   0.303   9.142   9.878
   22        0.393   0.274   9.167   9.835
   23        0.427   0.314   9.135   9.877
   24        0.393   0.274   9.167   9.835
   25        0.401   0.266   9.166   9.834
   26        0.401   0.266   9.166   9.834
   27        0.394   0.270   9.171   9.836
   28        0.416   0.195   9.181   9.791
   29        0.407   0.212   9.179   9.799
   30        0.407   0.212   9.179   9.799
   31        0.402   0.217   9.182   9.800
   32        0.402   0.217   9.182   9.800
   33        0.407   0.212   9.179   9.799
   34        0.407   0.212   9.179   9.799
   35        0.409   0.197   9.181   9.787
   36        0.557   0.485   5.964   7.006
   37        1.607   3.253   0.000   4.860
   38        1.607   3.253   0.000   4.860
tot         18.109  15.446 326.920 360.474

  FORCE on cell =-STRESS in cart. coord.  units (eV):
  Direction    XX          YY          ZZ          XY          YZ          ZX
  Alpha Z   717.29451   717.29451   717.29451
  Ewald  154567.88434154174.47276************     0.00006     0.29879     0.00008
  Hartree164589.02148164396.03973************     0.00003     1.44511     0.00003
  E(xc)   -2124.44111 -2125.64572 -2129.94120    -0.00002    -0.08305     0.00000
  Local  ************************330007.87142     0.00107    -2.19563    -0.00021
  n-local  -386.77285  -396.29114  -393.90458     2.78067     0.05624     0.10884
  augment  3245.90910  3252.33003  3257.52480    -0.00009     0.03730     0.00006
  Kinetic  5120.48150  5176.52204  5161.84475     1.42939     0.73791     0.04516
  Fock        0.00000     0.00000     0.00000     0.00000     0.00000     0.00000
  Total      -5.67686    -7.20451    -0.48102    -0.00000     0.29665     0.00000
  in kB      -5.57780    -7.07880    -0.47263    -0.00000     0.29148     0.00000

 VOLUME and BASIS-vectors are now :
  energy-cutoff  :      500.00
  volume of cell :     1630.63
      direct lattice vectors                 reciprocal lattice vectors
     8.791366577  0.000000000  0.000000000     0.113747958 -0.065672414  0.000000000
     4.395683289  7.613546790  0.000000000     0.000000000  0.131344829  0.000000000
     0.000000000  0.000000000 24.361965240     0.000000000  0.000000000  0.041047592

  length of vectors
     8.791366577  8.791366577 24.361965240     0.131344829  0.131344829  0.041047592

 FORCES acting on ions
    electron-ion (+dipol)            ewald-force                    non-local-force                 convergence-correction
   0.461E-04 0.115E-01 0.271E+04   -.954E-04 -.311E-01 -.271E+04   0.230E-12 0.350E-01 -.231E+01   -.125E-03 -.188E-01 -.790E-01
   0.634E+00 0.676E+00 0.271E+04   -.636E+00 -.709E+00 -.271E+04   0.433E-02 0.710E-01 -.159E+01   0.567E-02 -.229E-01 -.730E-01
   -.634E+00 0.676E+00 0.271E+04   0.637E+00 -.709E+00 -.271E+04   -.433E-02 0.710E-01 -.159E+01   -.619E-02 -.209E-01 -.722E-01
   0.726E+00 0.145E+00 0.271E+04   -.906E+00 -.204E+00 -.271E+04   0.146E+00 0.410E-02 -.162E+01   0.411E-01 0.495E-01 -.588E-01
   -.781E-05 -.654E-01 0.271E+04   0.980E-04 0.885E-02 -.271E+04   0.144E-12 0.219E-01 -.142E+01   0.630E-02 0.335E-01 -.270E-01
   -.726E+00 0.145E+00 0.271E+04   0.906E+00 -.204E+00 -.271E+04   -.146E+00 0.410E-02 -.162E+01   -.425E-01 0.505E-01 -.579E-01
   0.311E+00 -.786E+00 0.271E+04   -.268E+00 0.913E+00 -.271E+04   0.704E-02 -.105E+00 -.158E+01   -.278E-01 -.301E-01 -.611E-01
   -.311E+00 -.786E+00 0.271E+04   0.268E+00 0.913E+00 -.271E+04   -.704E-02 -.105E+00 -.158E+01   0.294E-01 -.311E-01 -.609E-01
   0.362E-04 -.189E-01 0.271E+04   0.792E-04 0.224E-01 -.271E+04   0.293E-13 0.446E-02 -.199E+01   -.670E-02 -.108E-01 -.464E-01
   0.756E+01 0.448E+01 0.954E+03   -.702E+01 -.425E+01 -.954E+03   -.522E+00 -.253E+00 -.839E+00   -.129E-01 0.299E-01 0.170E+00
   -.267E-04 0.692E+01 0.963E+03   0.411E-04 -.714E+01 -.963E+03   0.118E-11 0.179E+00 -.314E+00   0.644E-02 -.239E-01 0.171E+00
   -.756E+01 0.448E+01 0.954E+03   0.702E+01 -.425E+01 -.954E+03   0.522E+00 -.253E+00 -.839E+00   0.111E-01 0.314E-01 0.171E+00
   0.588E+01 -.359E+01 0.963E+03   -.599E+01 0.366E+01 -.963E+03   0.115E+00 -.842E-01 -.311E+00   -.465E-01 0.378E-01 0.164E+00
   -.588E+01 -.359E+01 0.963E+03   0.599E+01 0.366E+01 -.963E+03   -.115E+00 -.842E-01 -.311E+00   0.576E-01 0.371E-01 0.164E+00
   0.160E-04 0.136E+01 0.955E+03   -.109E-03 -.142E+01 -.954E+03   -.817E-13 -.124E-01 -.810E+00   -.195E-02 0.525E-01 0.148E+00
   -.832E-05 -.872E+01 0.954E+03   0.205E-04 0.810E+01 -.953E+03   0.417E-11 0.634E+00 -.978E+00   0.386E-03 -.373E-01 0.137E+00
   0.129E+01 -.692E+00 0.954E+03   -.139E+01 0.824E+00 -.954E+03   0.332E-01 -.579E-01 -.662E+00   0.492E-01 -.571E-01 0.142E+00
   -.129E+01 -.692E+00 0.954E+03   0.139E+01 0.824E+00 -.954E+03   -.332E-01 -.579E-01 -.662E+00   -.492E-01 -.549E-01 0.143E+00
   0.404E-04 0.390E+01 -.836E+03   -.130E-03 -.407E+01 0.835E+03   0.782E-12 0.119E+00 0.759E+00   -.613E-02 0.411E-01 0.250E+00
   0.189E+02 0.119E+02 -.779E+03   -.175E+02 -.111E+02 0.780E+03   -.144E+01 -.898E+00 -.146E+01   0.574E-01 0.401E-01 0.356E+00
   -.189E+02 0.119E+02 -.779E+03   0.175E+02 -.111E+02 0.780E+03   0.144E+01 -.898E+00 -.146E+01   -.560E-01 0.414E-01 0.356E+00
   0.735E+01 -.568E+01 -.821E+03   -.758E+01 0.590E+01 0.820E+03   0.291E+00 -.222E+00 0.656E+00   -.233E-02 -.309E-01 0.200E+00
   -.494E-04 -.239E+02 -.782E+03   0.441E-04 0.221E+02 0.783E+03   0.123E-10 0.187E+01 -.146E+01   0.228E-02 -.937E-01 0.404E+00
   -.735E+01 -.568E+01 -.821E+03   0.758E+01 0.590E+01 0.820E+03   -.291E+00 -.222E+00 0.656E+00   -.827E-02 -.321E-01 0.199E+00
   -.299E+01 -.800E+00 -.839E+03   0.307E+01 0.796E+00 0.838E+03   -.394E-01 0.218E-01 0.700E+00   -.391E-01 -.862E-02 0.298E+00
   0.299E+01 -.800E+00 -.839E+03   -.307E+01 0.796E+00 0.838E+03   0.394E-01 0.218E-01 0.700E+00   0.297E-01 -.104E-01 0.299E+00
   0.199E-04 0.870E+01 -.823E+03   0.110E-03 -.927E+01 0.822E+03   0.387E-11 0.589E+00 0.715E+00   -.489E-02 0.184E-01 0.223E+00
   0.538E-04 0.602E+01 -.260E+04   -.117E-03 -.603E+01 0.260E+04   0.231E-13 0.352E-02 0.189E+01   0.120E-02 -.104E-01 0.127E+00
   0.421E+02 0.890E+02 -.257E+04   -.416E+02 -.890E+02 0.257E+04   -.567E+00 -.296E+00 0.233E+01   -.252E-02 0.367E-01 0.928E-01
   -.421E+02 0.890E+02 -.257E+04   0.416E+02 -.890E+02 0.257E+04   0.567E+00 -.296E+00 0.233E+01   -.804E-02 0.385E-01 0.925E-01
   0.107E+03 -.210E+01 -.256E+04   -.108E+03 0.232E+01 0.255E+04   -.347E+00 -.173E+00 0.270E+01   0.139E+00 -.252E-01 0.697E-01
   -.107E+03 -.210E+01 -.256E+04   0.108E+03 0.232E+01 0.255E+04   0.347E+00 -.173E+00 0.270E+01   -.151E+00 -.244E-01 0.686E-01
   0.406E+02 -.849E+02 -.258E+04   -.405E+02 0.848E+02 0.257E+04   -.364E+00 0.475E+00 0.225E+01   0.385E-01 -.667E-01 0.613E-01
   -.406E+02 -.849E+02 -.258E+04   0.405E+02 0.848E+02 0.257E+04   0.364E+00 0.475E+00 0.225E+01   -.471E-01 -.677E-01 0.605E-01
   0.192E-04 -.477E+01 -.260E+04   0.107E-03 0.461E+01 0.260E+04   0.778E-12 0.119E+00 0.204E+01   -.546E-02 0.456E-01 0.128E+00
   -.106E-04 -.473E+01 -.155E+04   0.774E-04 0.464E+01 0.155E+04   0.189E-11 0.287E+00 0.240E+01   0.245E-02 0.385E-01 -.320E-01
   0.209E+03 -.468E+00 -.174E+04   -.243E+03 0.360E+00 0.175E+04   0.341E+02 0.914E-01 -.186E+02   -.608E-01 0.137E-01 -.665E-01
   -.209E+03 -.468E+00 -.174E+04   0.243E+03 0.360E+00 0.175E+04   -.341E+02 0.914E-01 -.186E+02   0.617E-01 0.138E-01 -.675E-01
   0.693E-03 -.918E+00 0.334E+02   0.000E+00 0.642E-13 0.227E-12   0.655E-11 0.998E+00 -.375E+02   -.453E-01 -.281E-01 0.399E+01

 POSITION                                       TOTAL-FORCE (eV/Angst)
      0.00000      0.00000      5.28219        -0.000000     -0.004815     -0.015102
      2.93046      0.00000      5.28219         0.007598      0.014951      0.032971
      5.86091      0.00000      5.28219        -0.007598      0.014951      0.032971
      1.46523      2.53785      5.28219         0.008288     -0.005603      0.031171
      4.39568      2.53785      5.28219        -0.000000     -0.002544      0.006546
      7.32614      2.53785      5.28219        -0.008288     -0.005603      0.031171
      2.93046      5.07570      5.28219         0.020784     -0.009733      0.028968
      5.86091      5.07570      5.28219        -0.020784     -0.009733      0.028968
      8.79137      5.07570      5.28219        -0.000000     -0.004174      0.010029
      1.46523      0.84595      7.67490         0.006121     -0.001946     -0.006231
      4.39568      0.84595      7.67490        -0.000000     -0.067624     -0.115149
      7.32614      0.84595      7.67490        -0.006121     -0.001946     -0.006231
      2.93046      3.38380      7.67490        -0.050666      0.029136     -0.088725
      5.86091      3.38380      7.67490         0.050666      0.029136     -0.088725
      8.79137      3.38380      7.67490        -0.000000     -0.024187      0.011011
      4.39568      5.92165      7.67490        -0.000000     -0.018278      0.023524
      7.32614      5.92165      7.67490        -0.021221      0.016614      0.018534
     10.25659      5.92165      7.67490         0.021221      0.016614      0.018534
      8.79137      1.69824     10.07044        -0.000000     -0.020480      0.013388
      2.93075      1.69207     10.02201        -0.011697     -0.042721     -0.112763
      5.86061      1.69207     10.02201         0.011697     -0.042721     -0.112763
     10.25044      4.23330     10.05478         0.058419     -0.028829      0.019804
      4.39568      4.22940     10.02201        -0.000000     -0.059291     -0.065263
      7.33230      4.23330     10.05478        -0.058419     -0.028829      0.019804
     11.71633      6.76443     10.07044         0.003984      0.006506      0.003889
      5.86640      6.76443     10.07044        -0.003984      0.006506      0.003889
      8.79137      6.76048     10.05478         0.000000      0.029125      0.001024
      0.00000      0.00000     12.42728        -0.000000     -0.022932      0.038838
      2.96092      0.05748     12.44843        -0.142536     -0.306813     -0.159087
      5.83045      0.05748     12.44843         0.142536     -0.306813     -0.159087
      1.53024      2.53549     12.44843        -0.566550      0.028830     -0.334354
      7.26113      2.53549     12.44843         0.566550      0.028830     -0.334354
      2.96500      5.02058     12.44843        -0.157918      0.282216     -0.132902
      5.82636      5.02058     12.44843         0.157918      0.282216     -0.132902
      8.79137      5.07570     12.42122         0.000000      0.003567      0.041792
      4.39568      2.53785     12.20312         0.000000      0.234125      1.458552
      3.68384      2.50766     14.11165         0.002101     -0.003856     -0.005868
      5.10752      2.50766     14.11165        -0.002101     -0.003856     -0.005868
    total drift:                               -0.044646      0.052142     -0.105715

  FREE ENERGIE OF THE ION-ELECTRON SYSTEM (eV)
  free  energy   TOTEN  =      -108.04590850 eV

  energy  without entropy=     -108.04590850  energy(sigma->0) =     -108.04590850

 stress matrix after NEB project (eV)
     -5.67686     -0.00000      0.00000
     -0.00000     -7.20451      0.29665
      0.00000      0.29665     -0.48102
  FORCES: max atom, RMS     0.007329    0.001681
  FORCE total and by dimension    0.010365    0.005868
  Stress total and by dimension    9.194518    7.204515
|           W    W    AA    RRRRR   N    N  II  N    N   GGGG   !!!           |
|           W    W   A  A   R    R  NN   N  II  NN   N  G    G  !!!           |
|           W    W  A    A  R    R  N N  N  II  N N  N  G       !!!           |
|           W WW W  AAAAAA  RRRRR   N  N N  II  N  N N  G  GGG   !            |
|           WW  WW  A    A  R   R   N   NN  II  N   NN  G    G                |
|           W    W  A    A  R    R  N    N  II  N    N   GGGG   !!!           |
|     Tetrahedron method does not include variations of the Fermi             |
|     occupations, so forces and stress will be inaccurate. We suggest        |
|     using a different smearing scheme ISMEAR = 1 or 2 for metals in         |
|     relaxations.                                                            |

 total charge

# of ion       s       p       d       tot
    1        0.418   0.201   9.178   9.797
    2        0.417   0.203   9.178   9.798
    3        0.417   0.203   9.178   9.798
    4        0.417   0.203   9.177   9.797
    5        0.417   0.204   9.175   9.796
    6        0.417   0.203   9.177   9.797
    7        0.418   0.203   9.177   9.798
    8        0.418   0.203   9.177   9.798
    9        0.413   0.203   9.179   9.795
   10        0.409   0.269   9.162   9.840
   11        0.408   0.268   9.169   9.845
   12        0.409   0.269   9.162   9.840
   13        0.408   0.269   9.169   9.845
   14        0.408   0.269   9.169   9.845
   15        0.401   0.269   9.165   9.836
   16        0.407   0.270   9.163   9.840
   17        0.401   0.269   9.166   9.837
   18        0.401   0.269   9.166   9.837
   19        0.400   0.264   9.170   9.834
   20        0.432   0.303   9.142   9.878
   21        0.432   0.303   9.142   9.878
   22        0.393   0.274   9.167   9.835
   23        0.427   0.314   9.135   9.877
   24        0.393   0.274   9.167   9.835
   25        0.401   0.266   9.166   9.834
   26        0.401   0.266   9.166   9.834
   27        0.394   0.270   9.171   9.836
   28        0.416   0.195   9.181   9.791
   29        0.407   0.212   9.179   9.799
   30        0.407   0.212   9.179   9.799
   31        0.402   0.217   9.182   9.800
   32        0.402   0.217   9.182   9.800
   33        0.407   0.212   9.179   9.799
   34        0.407   0.212   9.179   9.799
   35        0.409   0.197   9.181   9.787
   36        0.557   0.485   5.964   7.006
   37        1.607   3.253   0.000   4.860
   38        1.607   3.253   0.000   4.860
tot         18.109  15.446 326.920 360.474

 BZINTS: Fermi energy:    0.309885;  405.000000 electrons
         Band energy:-0.158431E+04;  BLOECHL correction:   -0.042372