 vasp.6.2.0 18Jan21 (build Jun 12 2021 23:27:24) complex

 executed on             LinuxIFC date 2022.05.27  05:10:54

 INCAR:
   ISMEAR = -5
   SIGMA = 0.1
   ISPIN = 1
   EDIFF = 1.d-5
   EDIFFG = -0.01
   NSW = 0
   NELM = 150
   ENCUT = 500
   ISIF = 2
   IBRION = 2
   LREAL = Auto
   ALGO = Fast
   ICHARG = 11
   LORBIT = 10
   LCHARG = .F.
   LWAVE = .F.

 POTCAR:    PAW_PBE Au 04Oct2007
 POTCAR:    PAW_PBE Rh 04Feb2005
 POTCAR:    PAW_PBE O 08Apr2002
 POTCAR:    PAW_PBE H 15Jun2001
|           W    W    AA    RRRRR   N    N  II  N    N   GGGG   !!!           |
|           W    W   A  A   R    R  NN   N  II  NN   N  G    G  !!!           |
|           W    W  A    A  R    R  N N  N  II  N N  N  G       !!!           |
|           W WW W  AAAAAA  RRRRR   N  N N  II  N  N N  G  GGG   !            |
|           WW  WW  A    A  R   R   N   NN  II  N   NN  G    G                |
|           W    W  A    A  R    R  N    N  II  N    N   GGGG   !!!           |
|     For optimal performance we recommend to set                             |
|       NCORE = 2 up to number-of-cores-per-socket                            |
|     This setting can greatly improve the performance of VASP for DFT.       |
|     The default, NCORE=1 might be grossly inefficient on modern             |
|     multi-core architectures or massively parallel machines. Do your        |
|     Unfortunately you need to use the default for GW and RPA                |
|     calculations (for HF NCORE is supported but not extensively tested      |
|     yet).                                                                   |

 POTCAR:    PAW_PBE Au 04Oct2007
   VRHFIN =Au: s1d10

   TITEL  = PAW_PBE Au 04Oct2007
   POMASS =  196.966; ZVAL   =   11.000    mass and valenz
   ENMAX  =  229.943; ENMIN  =  172.457 eV

 POTCAR:    PAW_PBE Rh 04Feb2005
   VRHFIN =Rh: s1 d8

   TITEL  = PAW_PBE Rh 04Feb2005
   POMASS =  102.906; ZVAL   =    9.000    mass and valenz
   ENMAX  =  228.996; ENMIN  =  171.747 eV

 POTCAR:    PAW_PBE O 08Apr2002
   VRHFIN =O: s2p4

   TITEL  = PAW_PBE O 08Apr2002
   POMASS =   16.000; ZVAL   =    6.000    mass and valenz
   ENMAX  =  400.000; ENMIN  =  300.000 eV

 POTCAR:    PAW_PBE H 15Jun2001
   VRHFIN =H: ultrasoft test

   TITEL  = PAW_PBE H 15Jun2001
   POMASS =    1.000; ZVAL   =    1.000    mass and valenz
   ENMAX  =  250.000; ENMIN  =  200.000 eV

 Optimization of the real space projectors (new method)

 maximal supplied QI-value         = 15.12
 optimisation between [QCUT,QGAM] = [ 11.34, 22.83] = [ 36.00,145.93] Ry
 Optimized for a Real-space Cutoff    1.39 Angstroem

   l    n(q)    QCUT    max X(q) W(low)/X(q) W(high)/X(q)  e(spline)
   2      9    11.338    60.898    0.39E-03    0.42E-03    0.21E-06
   2      9    11.338    58.894    0.40E-03    0.42E-03    0.22E-06
   0      9    11.338   109.617    0.13E-03    0.20E-04    0.13E-06
   0      9    11.338    75.026    0.13E-03    0.20E-04    0.13E-06
   1      9    11.338    16.344    0.33E-04    0.24E-03    0.18E-06
   1      9    11.338    10.160    0.26E-04    0.19E-03    0.15E-06
 Optimization of the real space projectors (new method)

[...]

   l    n(q)    QCUT    max X(q) W(low)/X(q) W(high)/X(q)  e(spline)
   0      7    11.387    20.381    0.39E-03    0.13E-02    0.15E-06
   0      7    11.387    15.268    0.42E-03    0.14E-02    0.17E-06
   1      6    11.387     5.964    0.41E-03    0.11E-02    0.17E-06
   1      6    11.387     5.382    0.39E-03    0.87E-03    0.15E-06
 Optimization of the real space projectors (new method)

 maximal supplied QI-value         = 34.20
 optimisation between [QCUT,QGAM] = [ 11.29, 22.57] = [ 35.68,142.71] Ry
 Optimized for a Real-space Cutoff    1.16 Angstroem

   l    n(q)    QCUT    max X(q) W(low)/X(q) W(high)/X(q)  e(spline)
   0      8    11.287    19.460    0.40E-03    0.73E-03    0.16E-06
   0      8    11.287    12.209    0.38E-03    0.70E-03    0.15E-06
   1      7    11.287     4.655    0.22E-03    0.25E-04    0.22E-06
  PAW_PBE Au 04Oct2007                  :
  PAW_PBE Rh 04Feb2005                  :
  PAW_PBE O 08Apr2002                   :
  PAW_PBE H 15Jun2001                   :

 POSCAR: Au-Rh-OH
  positions in direct lattice
  velocities in cartesian coordinates
 exchange correlation table for  LEXCH =        8
   RHO(1)=    0.500       N(1)  =     2000
   RHO(2)=  100.500       N(2)  =     4000

 VTST: version 3.2, (02/03/18)

 CHAIN: initializing optimizer

 OPT: Using VASP Conjugate-Gradient optimizer
 CHAIN: Read ICHAIN            0

 POSCAR: Au-Rh-OH
  positions in direct lattice
  velocities in cartesian coordinates

 ion  position               nearest neighbor table
   1  0.000  0.000  0.238-  16 2.94  12 2.94   6 2.94   8 2.94   7 2.94   3 2.94  10 2.94   4 2.94
                             2 2.94
   2  0.333  0.000  0.238-   9 2.94  11 2.94  17 2.94  10 2.94   8 2.94   4 2.94   5 2.94   1 2.94
                             3 2.94
   3  0.667  0.000  0.238-   7 2.94  18 2.94  12 2.94   1 2.94  11 2.94   5 2.94   6 2.94   9 2.94
                             2 2.94
   4  0.000  0.333  0.238-  10 2.94   6 2.94   5 2.94  13 2.94   2 2.94  15 2.94   9 2.94   1 2.94
                             7 2.94
   5  0.333  0.333  0.238-  13 2.94   7 2.94  11 2.94   4 2.94   2 2.94  14 2.94   3 2.94   8 2.94
                             6 2.94
   6  0.667  0.333  0.238-  15 2.94  14 2.94   1 2.94  12 2.94   4 2.94   9 2.94   8 2.94   3 2.94
                             5 2.94
   7  0.000  0.667  0.238-  18 2.94   3 2.94  16 2.94   5 2.94   1 2.94  13 2.94   8 2.94   4 2.94
                             9 2.94
   8  0.333  0.667  0.238-   9 2.94  17 2.94   1 2.94   2 2.94  14 2.94  16 2.94   6 2.94   7 2.94
                             5 2.94
   9  0.667  0.667  0.238-   2 2.94   8 2.94  17 2.94   6 2.94  15 2.94   4 2.94   3 2.94  18 2.94
                             7 2.94
  10  0.111  0.111  0.346-  20 2.91  26 2.93  19 2.93  11 2.94  17 2.94   2 2.94   4 2.94   1 2.94
                            12 2.94  16 2.94  13 2.94  15 2.94
  11  0.444  0.111  0.346-  20 2.91  21 2.91  27 2.93  13 2.94   2 2.94  10 2.94  17 2.94   5 2.94
                             3 2.94  18 2.94  14 2.94  12 2.94
  12  0.778  0.111  0.346-  21 2.91  25 2.93  19 2.93  16 2.94  18 2.94   1 2.94  14 2.94  15 2.94
                             3 2.94   6 2.94  10 2.94  11 2.94
  13  0.111  0.444  0.346-  23 2.91  20 2.91  22 2.93   5 2.94  18 2.94  11 2.94   7 2.94   4 2.94
                            16 2.94  10 2.94  14 2.94  15 2.94
  14  0.444  0.444  0.346-  21 2.91  23 2.91  24 2.93  15 2.94   6 2.94  12 2.94   8 2.94  17 2.94
                             5 2.94  16 2.94  13 2.94  11 2.94
  15  0.778  0.444  0.346-  24 2.93  22 2.93  19 2.93  14 2.94   6 2.94  17 2.94  12 2.94   9 2.94
                             4 2.94  10 2.94  13 2.94  18 2.94
  16  0.111  0.778  0.346-  23 2.91  25 2.93  26 2.93  18 2.94  12 2.94   7 2.94   1 2.94   8 2.94
                            13 2.94  10 2.94  14 2.94  17 2.94
  17  0.444  0.778  0.346-  27 2.93  24 2.93  26 2.93   9 2.94  15 2.94   2 2.94  10 2.94  11 2.94
                             8 2.94  14 2.94  16 2.94  18 2.94
  18  0.778  0.778  0.346-  22 2.93  27 2.93  25 2.93  16 2.94   7 2.94  13 2.94  12 2.94   3 2.94
                            11 2.94   9 2.94  15 2.94  17 2.94
  19  0.889  0.222  0.454-  15 2.93  10 2.93  12 2.93  21 2.94  20 2.94  24 2.94  22 2.94  26 2.94
                            25 2.94  28 2.96  32 2.96  31 2.96
  20  0.222  0.222  0.453-  36 2.79  10 2.91  11 2.91  13 2.91  26 2.94  19 2.94  23 2.94  21 2.94
                            27 2.94  22 2.94  29 2.95  31 2.95
  21  0.556  0.222  0.453-  36 2.79  12 2.91  14 2.91  11 2.91  25 2.94  19 2.94  20 2.94  23 2.94
                            27 2.94  24 2.94  30 2.95  32 2.95
  22  0.888  0.556  0.454-  24 2.92  27 2.92  18 2.93  15 2.93  13 2.93  25 2.94  19 2.94  23 2.94
                            20 2.94  33 2.95  31 2.95  35 2.96
  23  0.222  0.556  0.453-  36 2.79  16 2.91  13 2.91  14 2.91  25 2.94  26 2.94  20 2.94  21 2.94
                            22 2.94  24 2.94  33 2.95  34 2.95
  24  0.556  0.556  0.454-  27 2.92  22 2.92  15 2.93  17 2.93  14 2.93  26 2.94  19 2.94  21 2.94
                            23 2.94  32 2.95  34 2.95  35 2.96
  25  0.889  0.889  0.454-  18 2.93  16 2.93  12 2.93  23 2.94  21 2.94  22 2.94  27 2.94  19 2.94
                            26 2.94  28 2.96  33 2.96  30 2.96
  26  0.222  0.889  0.454-  17 2.93  10 2.93  16 2.93  20 2.94  23 2.94  27 2.94  24 2.94  19 2.94
                            25 2.94  28 2.96  29 2.96  34 2.96
  27  0.556  0.888  0.454-  24 2.92  22 2.92  17 2.93  18 2.93  11 2.93  26 2.94  25 2.94  20 2.94
                            21 2.94  29 2.95  30 2.95  35 2.96
  28  0.000  0.000  0.563-  34 2.95  32 2.95  33 2.95  30 2.95  31 2.95  29 2.95  25 2.96  19 2.96
                            26 2.96
  29  0.333  0.004  0.562-  31 2.90  30 2.90  36 2.91  20 2.95  27 2.95  28 2.95  35 2.96  26 2.96
                            34 3.01
  30  0.663  0.004  0.562-  32 2.90  29 2.90  36 2.91  21 2.95  27 2.95  28 2.95  35 2.96  25 2.96
                            33 3.01
  31  0.004  0.333  0.562-  29 2.90  33 2.90  36 2.91  20 2.95  22 2.95  28 2.95  35 2.96  19 2.96
                            32 3.01
  32  0.663  0.333  0.562-  30 2.90  34 2.90  36 2.91  21 2.95  24 2.95  28 2.95  35 2.96  19 2.96
                            31 3.01
  33  0.004  0.663  0.562-  34 2.90  31 2.90  36 2.91  23 2.95  22 2.95  28 2.95  35 2.96  25 2.96
                            30 3.01
  34  0.333  0.663  0.562-  33 2.90  32 2.90  36 2.91  23 2.95  24 2.95  28 2.95  35 2.96  26 2.96
                            29 3.01
  35  0.667  0.667  0.563-  29 2.96  34 2.96  32 2.96  31 2.96  30 2.96  33 2.96  24 2.96  27 2.96
                            22 2.96
  36  0.333  0.333  0.552-  37 1.95  20 2.79  23 2.79  21 2.79  33 2.91  31 2.91  29 2.91  30 2.91
                            34 2.91  32 2.91
  37  0.333  0.333  0.640-  38 0.97  36 1.95
  38  0.333  0.333  0.684-  37 0.97

  LATTYP: Found a hexagonal cell.
 ALAT       =     8.8135128021
 C/A-ratio  =     2.5184286595

  Lattice vectors:

 A1 = (  -4.4067569092,  -7.6327256898,   0.0000000000)
 A2 = (   8.8135128021,   0.0000000000,   0.0000000000)
 A3 = (   0.0000000000,   0.0000000000,  22.1962032318)

Analysis of symmetry for initial positions (statically):
 Subroutine PRICEL returns:
 Original cell was already a primitive cell.

 Routine SETGRP: Setting up the symmetry group for a
 hexagonal supercell.

 Subroutine GETGRP returns: Found  6 space group operations
 (whereof  6 operations were pure point group operations)
 out of a pool of 24 trial point group operations.

The static configuration has the point symmetry C_3v.

Analysis of symmetry for dynamics (positions and initial velocities):
 Subroutine PRICEL returns:
 Original cell was already a primitive cell.

[...]

The dynamic configuration has the point symmetry C_3v.

Analysis of constrained symmetry for selective dynamics:
 Subroutine PRICEL returns:
 Original cell was already a primitive cell.

[...]
     33      -4.5918      2.00000
     34      -4.5875      2.00000
     35      -4.5768      2.00000
     36      -4.5291      2.00000
     37      -4.4303      2.00000
     38      -4.4222      2.00000
     39      -4.3855      2.00000
     40      -4.3588      2.00000
     41      -4.3020      2.00000
     42      -4.2418      2.00000
     43      -4.2199      2.00000
     44      -4.1764      2.00000
     45      -4.1504      2.00000
     46      -4.1329      2.00000
     47      -4.1204      2.00000
     48      -4.0218      2.00000
     49      -3.9900      2.00000
     50      -3.9639      2.00000
     51      -3.9606      2.00000
     52      -3.9527      2.00000
     53      -3.9457      2.00000
     54      -3.9285      2.00000
     55      -3.8891      2.00000
     56      -3.8516      2.00000
     57      -3.8199      2.00000
     58      -3.7931      2.00000
     59      -3.7825      2.00000
     60      -3.7815      2.00000
[...]
    238       6.5587      0.00000
    239       6.5976      0.00000
    240       6.6438      0.00000
    241       6.6704      0.00000
    242       6.7346      0.00000
    243       6.9357      0.00000
    244       7.0006      0.00000
    245       7.0148      0.00000
    246       7.1870      0.00000
    247       7.3354      0.00000
    248       7.3939      0.00000
    249       7.4470      0.00000
    250       7.6084      0.00000
    251       7.7332      0.00000
    252       7.7496      0.00000

 soft charge-density along one line, spin component           1
         0         1         2         3         4         5         6         7         8         9
 total charge-density along one line

------------------------ aborting loop because EDIFF is reached ----------------------------------------

 total charge

# of ion       s       p       d       tot
    1        0.544   0.238   8.769   9.551
    2        0.545   0.241   8.763   9.549
    3        0.545   0.241   8.763   9.549
    4        0.545   0.241   8.763   9.549
    5        0.542   0.243   8.761   9.545
    6        0.545   0.241   8.763   9.549
    7        0.545   0.241   8.763   9.549
    8        0.545   0.241   8.763   9.549
    9        0.541   0.240   8.765   9.546
   10        0.521   0.310   8.767   9.598
   11        0.520   0.307   8.776   9.603
   12        0.521   0.310   8.767   9.598
   13        0.520   0.307   8.776   9.603
   14        0.520   0.307   8.776   9.603
   15        0.514   0.307   8.776   9.598
   16        0.521   0.310   8.767   9.598
   17        0.514   0.307   8.776   9.598
   18        0.514   0.307   8.776   9.598
   19        0.515   0.304   8.773   9.592
   20        0.539   0.325   8.755   9.619
   21        0.539   0.325   8.755   9.619
   22        0.509   0.307   8.774   9.590
   23        0.539   0.325   8.755   9.619
   24        0.509   0.307   8.774   9.590
   25        0.515   0.304   8.773   9.592
   26        0.515   0.304   8.773   9.592
   27        0.509   0.307   8.774   9.590
   28        0.543   0.230   8.769   9.542
   29        0.538   0.234   8.768   9.540
   30        0.538   0.234   8.768   9.540
   31        0.538   0.234   8.768   9.540
   32        0.538   0.234   8.768   9.540
   33        0.538   0.234   8.768   9.540
   34        0.538   0.234   8.768   9.540
   35        0.536   0.232   8.767   9.535
   36        0.374   0.430   7.339   8.142
   37        1.541   3.521   0.000   5.062
   38        0.605   0.128   0.000   0.733
tot         21.086  13.687 314.223 348.996

  FORCE on cell =-STRESS in cart. coord.  units (eV):
  Direction    XX          YY          ZZ          XY          YZ          ZX
  Alpha Z  1018.74278  1018.74278  1018.74278
  Ewald  119280.79831119280.79873************    -0.00033    -0.00008    -0.00012
  Hartree128162.80598128162.80598************     0.00001    -0.00002    -0.00003
  E(xc)   -1803.63968 -1803.63971 -1809.34886     0.00003    -0.00000    -0.00000
  Local  ************************259814.30064     0.00208     0.00000    -0.00003
  n-local  -113.38482   -58.84020   -59.62908    24.79067    -1.22149     1.49534
  augment  2434.92336  2434.92491  2444.30549    -0.00134     0.00003     0.00004
  Kinetic  5602.24232  5620.33519  5624.78757     7.83066     0.04319     0.43477
  Fock        0.00000     0.00000     0.00000     0.00000     0.00000     0.00000
  Total     -21.06905   -21.06904     1.11945    -0.00000     0.00000     0.00000
  in kB     -22.60727   -22.60727     1.20118    -0.00000     0.00000     0.00000

 VOLUME and BASIS-vectors are now :
  energy-cutoff  :      500.00
  volume of cell :     1493.16
      direct lattice vectors                 reciprocal lattice vectors
     8.813512802  0.000000000  0.000000000     0.113462137 -0.065507406  0.000000000
     4.406756909  7.632725690  0.000000000     0.000000000  0.131014796  0.000000000
     0.000000000  0.000000000 22.196203232     0.000000000  0.000000000  0.045052750

  length of vectors
     8.813512802  8.813512802 22.196203232     0.131014796  0.131014796  0.045052750

 FORCES acting on ions
    electron-ion (+dipol)            ewald-force                    non-local-force                 convergence-correction
   -.195E-04 -.161E-04 0.250E+04   0.519E-04 0.433E-04 -.249E+04   0.698E-17 0.365E-17 -.105E+01   -.203E-03 -.131E-03 -.199E+00
   0.188E+00 0.387E+00 0.250E+04   -.305E+00 -.420E+00 -.250E+04   0.389E-01 0.606E-01 -.272E+00   0.729E-01 -.104E-01 -.271E+00
   -.188E+00 0.387E+00 0.250E+04   0.305E+00 -.420E+00 -.250E+04   -.389E-01 0.606E-01 -.272E+00   -.726E-01 -.838E-02 -.271E+00
   0.429E+00 -.309E-01 0.250E+04   -.516E+00 -.539E-01 -.250E+04   0.720E-01 0.340E-02 -.272E+00   0.275E-01 0.683E-01 -.271E+00
   0.894E-05 -.230E-04 0.250E+04   0.951E-04 0.171E-05 -.250E+04   0.224E-17 0.927E-18 -.199E+00   0.430E-02 0.262E-02 -.207E+00
   -.429E+00 -.309E-01 0.250E+04   0.516E+00 -.540E-01 -.250E+04   -.720E-01 0.340E-02 -.272E+00   -.291E-01 0.692E-01 -.270E+00
   0.241E+00 -.356E+00 0.250E+04   -.211E+00 0.474E+00 -.250E+04   0.330E-01 -.640E-01 -.272E+00   -.435E-01 -.587E-01 -.271E+00
   -.241E+00 -.356E+00 0.250E+04   0.211E+00 0.474E+00 -.250E+04   -.330E-01 -.640E-01 -.272E+00   0.454E-01 -.598E-01 -.270E+00
   0.192E-04 -.416E-04 0.250E+04   0.166E-03 -.201E-04 -.250E+04   0.424E-17 0.851E-20 -.584E+00   -.464E-02 -.240E-02 -.232E+00
   0.405E+01 0.234E+01 0.859E+03   -.359E+01 -.207E+01 -.858E+03   -.365E+00 -.211E+00 -.727E+00   -.311E-01 -.181E-01 -.195E+00
   0.141E-04 0.438E+01 0.863E+03   0.148E-03 -.439E+01 -.863E+03   0.259E-08 0.388E-01 -.264E+00   0.380E-02 -.730E-01 -.219E+00
   -.405E+01 0.234E+01 0.859E+03   0.359E+01 -.207E+01 -.858E+03   0.365E+00 -.211E+00 -.727E+00   0.298E-01 -.166E-01 -.195E+00
   0.379E+01 -.219E+01 0.863E+03   -.380E+01 0.219E+01 -.863E+03   0.336E-01 -.194E-01 -.264E+00   -.610E-01 0.401E-01 -.219E+00
   -.379E+01 -.219E+01 0.863E+03   0.380E+01 0.219E+01 -.863E+03   -.336E-01 -.194E-01 -.264E+00   0.688E-01 0.396E-01 -.219E+00
   0.308E-04 0.538E+00 0.858E+03   0.236E-03 -.648E+00 -.858E+03   0.139E-08 0.209E-01 -.478E+00   -.240E-02 0.753E-01 -.191E+00
   -.215E-04 -.468E+01 0.859E+03   0.163E-03 0.415E+01 -.858E+03   0.281E-07 0.422E+00 -.727E+00   0.295E-03 0.341E-01 -.195E+00
   0.466E+00 -.269E+00 0.858E+03   -.561E+00 0.324E+00 -.858E+03   0.181E-01 -.105E-01 -.478E+00   0.642E-01 -.393E-01 -.191E+00
   -.466E+00 -.269E+00 0.858E+03   0.561E+00 0.324E+00 -.858E+03   -.181E-01 -.105E-01 -.478E+00   -.643E-01 -.374E-01 -.191E+00
   -.406E-04 0.148E+01 -.809E+03   0.532E-04 -.181E+01 0.808E+03   0.863E-08 0.130E+00 0.646E+00   -.534E-03 0.172E+00 -.799E-01
   0.147E+02 0.846E+01 -.774E+03   -.137E+02 -.789E+01 0.775E+03   -.843E+00 -.487E+00 -.792E+00   -.751E-01 -.435E-01 -.426E-01
   -.147E+02 0.846E+01 -.774E+03   0.137E+02 -.789E+01 0.775E+03   0.843E+00 -.487E+00 -.792E+00   0.760E-01 -.415E-01 -.429E-01
   0.503E+01 -.290E+01 -.802E+03   -.523E+01 0.302E+01 0.801E+03   0.297E+00 -.172E+00 0.611E+00   -.644E-01 0.327E-01 -.527E-01
   -.135E-04 -.169E+02 -.774E+03   0.144E-03 0.158E+02 0.775E+03   0.648E-07 0.973E+00 -.792E+00   0.178E-02 0.866E-01 -.428E-01
   -.503E+01 -.290E+01 -.802E+03   0.523E+01 0.302E+01 0.801E+03   -.297E+00 -.172E+00 0.611E+00   0.574E-01 0.332E-01 -.526E-01
   -.128E+01 -.742E+00 -.809E+03   0.157E+01 0.905E+00 0.808E+03   -.112E+00 -.648E-01 0.646E+00   -.147E+00 -.848E-01 -.802E-01
   0.128E+01 -.742E+00 -.809E+03   -.157E+01 0.905E+00 0.808E+03   0.112E+00 -.648E-01 0.646E+00   0.149E+00 -.863E-01 -.798E-01
   0.760E-05 0.581E+01 -.802E+03   0.200E-03 -.604E+01 0.801E+03   0.229E-07 0.343E+00 0.611E+00   -.438E-02 -.721E-01 -.526E-01
   -.113E-04 -.127E-04 -.245E+04   0.283E-04 0.342E-04 0.245E+04   0.195E-18 -.408E-17 0.373E+00   0.104E-03 0.416E-04 0.228E+00
   0.231E+02 0.394E+02 -.243E+04   -.230E+02 -.395E+02 0.242E+04   -.165E+00 -.673E-01 0.729E+00   -.358E-01 -.804E-01 0.910E-01
   -.231E+02 0.394E+02 -.243E+04   0.230E+02 -.395E+02 0.242E+04   0.165E+00 -.673E-01 0.729E+00   0.359E-01 -.783E-01 0.918E-01
   0.457E+02 0.283E+00 -.243E+04   -.457E+02 -.155E+00 0.242E+04   -.141E+00 -.109E+00 0.729E+00   -.874E-01 0.912E-02 0.911E-01
   -.457E+02 0.283E+00 -.243E+04   0.457E+02 -.155E+00 0.242E+04   0.141E+00 -.109E+00 0.729E+00   0.860E-01 0.102E-01 0.910E-01
   0.226E+02 -.397E+02 -.243E+04   -.227E+02 0.396E+02 0.242E+04   0.240E-01 0.176E+00 0.729E+00   -.498E-01 0.702E-01 0.917E-01
   -.226E+02 -.397E+02 -.243E+04   0.227E+02 0.396E+02 0.242E+04   -.240E-01 0.176E+00 0.729E+00   0.519E-01 0.693E-01 0.910E-01
   0.299E-04 -.282E-04 -.245E+04   0.146E-03 -.494E-04 0.245E+04   0.811E-17 0.855E-18 0.521E+00   -.477E-02 -.246E-02 0.690E-01
   0.171E-04 -.306E-05 -.174E+04   0.917E-04 0.821E-05 0.174E+04   0.180E-17 0.191E-17 -.760E+00   0.337E-02 0.205E-02 -.111E+00
   0.197E-03 -.963E-04 -.155E+04   0.189E-04 0.125E-05 0.153E+04   -.201E-17 0.861E-18 0.212E+02   0.374E-02 0.229E-02 -.585E-01
   0.780E-05 -.134E-04 -.310E+03   0.103E-05 0.930E-07 0.318E+03   0.156E-18 0.246E-18 -.836E+01   0.207E-03 0.126E-03 0.724E-01
   -.484E-03 -.844E-03 -.621E+01   -.750E-13 0.269E-12 0.585E-11   0.164E-15 -.107E-15 0.109E+02   0.443E-02 0.331E-02 -.385E+01

 POSITION                                       TOTAL-FORCE (eV/Angst)
      0.00000      0.00000      5.28038        -0.000000      0.000000     -0.089175
      2.93784      0.00000      5.28038        -0.004783      0.018064     -0.067461
      5.87568      0.00000      5.28038         0.004783      0.018064     -0.067461
      1.46892      2.54424      5.28038         0.013252     -0.013174     -0.067461
      4.40676      2.54424      5.28038        -0.000000      0.000000     -0.096058
      7.34459      2.54424      5.28038        -0.013252     -0.013174     -0.067461
      2.93784      5.08848      5.28038         0.018036     -0.004890     -0.067461
      5.87568      5.08848      5.28038        -0.018036     -0.004890     -0.067461
      8.81351      5.08848      5.28038        -0.000000      0.000000     -0.092660
      1.46892      0.84808      7.67911         0.062971      0.036357      0.129719
      4.40676      0.84808      7.67911        -0.000000     -0.048857      0.047138
      7.34459      0.84808      7.67911        -0.062971      0.036357      0.129719
      2.93784      3.39232      7.67911        -0.042311      0.024428      0.047138
      5.87568      3.39232      7.67911         0.042311      0.024428      0.047138
      8.81351      3.39232      7.67911        -0.000000     -0.013827      0.113372
      4.40676      5.93656      7.67911        -0.000000     -0.072713      0.129719
      7.34459      5.93656      7.67911        -0.011975      0.006913      0.113372
     10.28243      5.93656      7.67911         0.011975      0.006913      0.113372
      8.81351      1.69621     10.07295        -0.000000     -0.026197     -0.026922
      2.93663      1.69546     10.04742         0.062398      0.036025     -0.071459
      5.87688      1.69546     10.04742        -0.062398      0.036025     -0.071459
     10.27557      4.24437     10.06760         0.031084     -0.017946     -0.025505
      4.40676      4.24180     10.04742        -0.000000     -0.072051     -0.071459
      7.35146      4.24437     10.06760        -0.031084     -0.017946     -0.025505
     11.75131      6.78462     10.07295         0.022687      0.013099     -0.026922
      5.87571      6.78462     10.07295        -0.022687      0.013099     -0.026922
      8.81351      6.77672     10.06760         0.000000      0.035892     -0.025505
      0.00000      0.00000     12.49471        -0.000000      0.000000     -0.012109
      2.95476      0.03042     12.47845        -0.100618     -0.230192     -0.078530
      5.85875      0.03042     12.47845         0.100618     -0.230192     -0.078530
      1.50372      2.54369     12.47845        -0.249661      0.027958     -0.078530
      7.30979      2.54369     12.47845         0.249661      0.027958     -0.078530
      2.95572      5.05862     12.47845        -0.149043      0.202234     -0.078530
      5.85780      5.05862     12.47845         0.149043      0.202234     -0.078530
      8.81351      5.08848     12.49462        -0.000000      0.000000      0.030847
      4.40676      2.54424     12.26123        -0.000000      0.000000      0.612027
      4.40676      2.54424     14.20809        -0.000000      0.000000      0.093061
      4.40676      2.54424     15.17321        -0.000000      0.000000     -0.069010
    total drift:                                0.003945      0.002465      0.817225

  FREE ENERGIE OF THE ION-ELECTRON SYSTEM (eV)
  free  energy   TOTEN  =      -122.61788945 eV

  energy  without entropy=     -122.61788945  energy(sigma->0) =     -122.61788945

 stress matrix after NEB project (eV)
    -21.06905     -0.00000      0.00000
     -0.00000    -21.06904      0.00000
      0.00000      0.00000      1.11945
  FORCES: max atom, RMS     0.093061    0.018794
  FORCE total and by dimension    0.115857    0.093061
  Stress total and by dimension   29.817152   21.069046
|           W    W    AA    RRRRR   N    N  II  N    N   GGGG   !!!           |
|           W    W   A  A   R    R  NN   N  II  NN   N  G    G  !!!           |
|           W    W  A    A  R    R  N N  N  II  N N  N  G       !!!           |
|           W WW W  AAAAAA  RRRRR   N  N N  II  N  N N  G  GGG   !            |
|           WW  WW  A    A  R   R   N   NN  II  N   NN  G    G                |
|           W    W  A    A  R    R  N    N  II  N    N   GGGG   !!!           |
|     Tetrahedron method does not include variations of the Fermi             |
|     occupations, so forces and stress will be inaccurate. We suggest        |
|     using a different smearing scheme ISMEAR = 1 or 2 for metals in         |
|     relaxations.                                                            |

 total charge

# of ion       s       p       d       tot
    1        0.544   0.238   8.769   9.551
    2        0.545   0.241   8.763   9.549
    3        0.545   0.241   8.763   9.549
    4        0.545   0.241   8.763   9.549
    5        0.542   0.243   8.761   9.545
    6        0.545   0.241   8.763   9.549
    7        0.545   0.241   8.763   9.549
    8        0.545   0.241   8.763   9.549
    9        0.541   0.240   8.765   9.546
   10        0.521   0.310   8.767   9.598
   11        0.520   0.307   8.776   9.603
   12        0.521   0.310   8.767   9.598
   13        0.520   0.307   8.776   9.603
   14        0.520   0.307   8.776   9.603
   15        0.514   0.307   8.776   9.598
   16        0.521   0.310   8.767   9.598
   17        0.514   0.307   8.776   9.598
   18        0.514   0.307   8.776   9.598
   19        0.515   0.304   8.773   9.592
   20        0.539   0.325   8.755   9.619
   21        0.539   0.325   8.755   9.619
   22        0.509   0.307   8.774   9.590
   23        0.539   0.325   8.755   9.619
   24        0.509   0.307   8.774   9.590
   25        0.515   0.304   8.773   9.592
   26        0.515   0.304   8.773   9.592
   27        0.509   0.307   8.774   9.590
   28        0.543   0.230   8.769   9.542
   29        0.538   0.234   8.768   9.540
   30        0.538   0.234   8.768   9.540
   31        0.538   0.234   8.768   9.540
   32        0.538   0.234   8.768   9.540
   33        0.538   0.234   8.768   9.540
   34        0.538   0.234   8.768   9.540
   35        0.536   0.232   8.767   9.535
   36        0.374   0.430   7.339   8.142
   37        1.541   3.521   0.000   5.062
   38        0.605   0.128   0.000   0.733
tot         21.086  13.687 314.223 348.996

 BZINTS: Fermi energy:    0.829977;  401.000000 electrons
         Band energy:-0.117212E+04;  BLOECHL correction:   -0.074117