 vasp.6.2.0 18Jan21 (build Jun 12 2021 23:27:24) complex

 executed on             LinuxIFC date 2022.05.26  19:50:04

 INCAR:
   ISMEAR = -5
   SIGMA = 0.1
   ISPIN = 1
   EDIFF = 1.d-5
   EDIFFG = -0.01
   NSW = 0
   NELM = 150
   ENCUT = 500
   ISIF = 2
   IBRION = 2
   LREAL = Auto
   ALGO = Fast
   ICHARG = 11
   LORBIT = 10
   LCHARG = .F.
   LWAVE = .F.

 POTCAR:    PAW_PBE Ag 02Apr2005
 POTCAR:    PAW_PBE Hf 20Jan2003
 POTCAR:    PAW_PBE H 15Jun2001
|           W    W    AA    RRRRR   N    N  II  N    N   GGGG   !!!           |
|           W    W   A  A   R    R  NN   N  II  NN   N  G    G  !!!           |
|           W    W  A    A  R    R  N N  N  II  N N  N  G       !!!           |
|           W WW W  AAAAAA  RRRRR   N  N N  II  N  N N  G  GGG   !            |
|           WW  WW  A    A  R   R   N   NN  II  N   NN  G    G                |
|           W    W  A    A  R    R  N    N  II  N    N   GGGG   !!!           |
|     For optimal performance we recommend to set                             |
|       NCORE = 2 up to number-of-cores-per-socket                            |
|     This setting can greatly improve the performance of VASP for DFT.       |
|     The default, NCORE=1 might be grossly inefficient on modern             |
|     multi-core architectures or massively parallel machines. Do your        |
|     Unfortunately you need to use the default for GW and RPA                |
|     calculations (for HF NCORE is supported but not extensively tested      |
|     yet).                                                                   |

 POTCAR:    PAW_PBE Ag 02Apr2005
   VRHFIN =Ag : s1 d10

   TITEL  = PAW_PBE Ag 02Apr2005
   POMASS =  107.868; ZVAL   =   11.000    mass and valenz
   ENMAX  =  249.844; ENMIN  =  187.383 eV

 POTCAR:    PAW_PBE Hf 20Jan2003
   VRHFIN =Hf: 6s5d

   TITEL  = PAW_PBE Hf 20Jan2003
   POMASS =  178.490; ZVAL   =    4.000    mass and valenz
   ENMAX  =  220.334; ENMIN  =  165.250 eV

 POTCAR:    PAW_PBE H 15Jun2001
   VRHFIN =H: ultrasoft test

   TITEL  = PAW_PBE H 15Jun2001
   POMASS =    1.000; ZVAL   =    1.000    mass and valenz
   ENMAX  =  250.000; ENMIN  =  200.000 eV

 Optimization of the real space projectors (new method)

 maximal supplied QI-value         = 15.12
 optimisation between [QCUT,QGAM] = [ 11.34, 22.83] = [ 36.00,145.93] Ry
 Optimized for a Real-space Cutoff    1.43 Angstroem

   l    n(q)    QCUT    max X(q) W(low)/X(q) W(high)/X(q)  e(spline)
   2      9    11.338    53.897    0.16E-03    0.20E-03    0.28E-06
   2      9    11.338    52.416    0.16E-03    0.20E-03    0.29E-06
   0     10    11.338   122.045    0.31E-04    0.76E-04    0.15E-06
   0     10    11.338    73.629    0.30E-04    0.72E-04    0.15E-06
   1      9    11.338    15.255    0.20E-03    0.19E-04    0.17E-06
   1      9    11.338     9.562    0.16E-03    0.15E-04    0.14E-06
 Optimization of the real space projectors (new method)

[...]

   l    n(q)    QCUT    max X(q) W(low)/X(q) W(high)/X(q)  e(spline)
   2     10    11.350    48.111    0.20E-03    0.11E-03    0.41E-06
   2     10    11.350    40.545    0.19E-03    0.10E-03    0.39E-06
   0     11    11.350   121.658    0.22E-04    0.19E-04    0.24E-06
   0     11    11.350    71.177    0.17E-04    0.17E-04    0.23E-06
   1     11    11.350    14.183    0.25E-03    0.43E-03    0.12E-05
   1     11    11.350     8.257    0.17E-03    0.29E-03    0.81E-06
 Optimization of the real space projectors (new method)

 maximal supplied QI-value         = 34.20
 optimisation between [QCUT,QGAM] = [ 11.29, 22.57] = [ 35.68,142.71] Ry
 Optimized for a Real-space Cutoff    1.16 Angstroem

   l    n(q)    QCUT    max X(q) W(low)/X(q) W(high)/X(q)  e(spline)
   0      8    11.287    19.460    0.40E-03    0.73E-03    0.16E-06
   0      8    11.287    12.209    0.38E-03    0.70E-03    0.15E-06
   1      7    11.287     4.655    0.22E-03    0.25E-04    0.22E-06
  PAW_PBE Ag 02Apr2005                  :
  PAW_PBE Hf 20Jan2003                  :
  PAW_PBE H 15Jun2001                   :

 POSCAR: Ag-Hf-H
  positions in direct lattice
  velocities in cartesian coordinates
 exchange correlation table for  LEXCH =        8
   RHO(1)=    0.500       N(1)  =     2000
   RHO(2)=  100.500       N(2)  =     4000

 VTST: version 3.2, (02/03/18)

 CHAIN: initializing optimizer

 OPT: Using VASP Conjugate-Gradient optimizer
 CHAIN: Read ICHAIN            0

 POSCAR: Ag-Hf-H
  positions in direct lattice
  velocities in cartesian coordinates

 ion  position               nearest neighbor table
   1  0.000  0.000  0.238-   2 2.93   8 2.93   7 2.93   6 2.93   4 2.93  12 2.93  16 2.93  10 2.93
                             3 2.93
   2  0.333  0.000  0.238-   1 2.93   8 2.93   9 2.93   3 2.93   4 2.93   5 2.93  10 2.93  17 2.93
                            11 2.93
   3  0.667  0.000  0.238-   9 2.93   2 2.93   5 2.93  11 2.93   7 2.93  18 2.93   1 2.93   6 2.93
                            12 2.93
   4  0.000  0.333  0.238-   5 2.93   6 2.93   2 2.93   1 2.93   7 2.93  13 2.93  15 2.93   9 2.93
                            10 2.93
   5  0.333  0.333  0.238-   4 2.93   3 2.93   7 2.93   2 2.93   8 2.93  14 2.93  13 2.93  11 2.93
                             6 2.93
   6  0.667  0.333  0.238-   4 2.93   9 2.93   1 2.93  15 2.93   8 2.93  12 2.93   3 2.93   5 2.93
                            14 2.93
   7  0.000  0.667  0.238-   8 2.93   1 2.93   5 2.93   3 2.93   4 2.93  16 2.93  18 2.93  13 2.93
                             9 2.93
   8  0.333  0.667  0.238-   7 2.93   1 2.93   2 2.93   9 2.93   5 2.93  16 2.93   6 2.93  17 2.93
                            14 2.93
   9  0.667  0.667  0.238-   3 2.93   2 2.93   8 2.93   6 2.93  17 2.93   4 2.93  15 2.93   7 2.93
                            18 2.93
  10  0.111  0.111  0.346-  20 2.90  19 2.92  26 2.92  12 2.93  16 2.93  15 2.93  17 2.93  13 2.93
                            11 2.93   2 2.93   1 2.93   4 2.93
  11  0.444  0.111  0.346-  21 2.90  20 2.90  14 2.93  17 2.93  18 2.93   3 2.93  12 2.93  13 2.93
                            10 2.93   5 2.93   2 2.93  27 2.93
  12  0.778  0.111  0.346-  21 2.90  25 2.92  19 2.92  10 2.93  16 2.93  18 2.93  15 2.93  11 2.93
                             1 2.93  14 2.93   6 2.93   3 2.93
  13  0.111  0.444  0.346-  20 2.90  23 2.90  15 2.93  14 2.93  18 2.93  10 2.93  11 2.93  16 2.93
                             4 2.93   5 2.93   7 2.93  22 2.93
  14  0.444  0.444  0.346-  23 2.90  21 2.90  13 2.93  11 2.93  16 2.93   5 2.93  12 2.93  17 2.93
                             8 2.93  15 2.93   6 2.93  24 2.93
  15  0.778  0.444  0.346-  19 2.92  24 2.93  22 2.93  13 2.93  10 2.93  12 2.93  17 2.93  18 2.93
                             4 2.93   6 2.93   9 2.93  14 2.93
  16  0.111  0.778  0.346-  23 2.90  26 2.92  25 2.92  18 2.93  12 2.93  10 2.93  14 2.93  17 2.93
                            13 2.93   7 2.93   8 2.93   1 2.93
  17  0.444  0.778  0.346-  26 2.92  27 2.93  24 2.93  11 2.93  10 2.93   9 2.93  18 2.93  15 2.93
                            16 2.93   2 2.93  14 2.93   8 2.93
  18  0.778  0.778  0.346-  25 2.92  22 2.93  27 2.93  16 2.93  12 2.93  13 2.93  11 2.93  17 2.93
                            15 2.93   7 2.93   3 2.93   9 2.93
  19  0.889  0.222  0.454-  10 2.92  12 2.92  15 2.92  20 2.93  21 2.93  26 2.93  25 2.93  24 2.93
                            22 2.93  28 2.94  32 2.98  31 2.98
  20  0.222  0.222  0.452-  36 2.86  10 2.90  13 2.90  11 2.90  19 2.93  26 2.93  27 2.93  22 2.93
                            21 2.94  23 2.94  31 2.97  29 2.97
  21  0.556  0.222  0.452-  36 2.86  12 2.90  11 2.90  14 2.90  25 2.93  19 2.93  27 2.93  24 2.93
                            20 2.94  23 2.94  30 2.97  32 2.97
  22  0.889  0.556  0.454-  24 2.93  27 2.93  18 2.93  15 2.93  25 2.93  19 2.93  13 2.93  23 2.93
                            20 2.93  35 2.94  33 2.96  31 2.96
  23  0.222  0.556  0.452-  36 2.86  16 2.90  14 2.90  13 2.90  26 2.93  25 2.93  22 2.93  24 2.93
                            21 2.94  20 2.94  34 2.97  33 2.97
  24  0.556  0.556  0.454-  27 2.93  22 2.93  15 2.93  17 2.93  19 2.93  26 2.93  14 2.93  23 2.93
                            21 2.93  35 2.94  32 2.96  34 2.96
  25  0.889  0.889  0.454-  16 2.92  12 2.92  18 2.92  23 2.93  21 2.93  26 2.93  19 2.93  22 2.93
                            27 2.93  28 2.94  33 2.98  30 2.98
  26  0.222  0.889  0.454-  16 2.92  10 2.92  17 2.92  23 2.93  20 2.93  25 2.93  19 2.93  27 2.93
                            24 2.93  28 2.94  34 2.98  29 2.98
  27  0.556  0.889  0.454-  24 2.93  22 2.93  17 2.93  18 2.93  26 2.93  25 2.93  11 2.93  20 2.93
                            21 2.93  35 2.94  29 2.96  30 2.96
  28  0.000  0.000  0.562-  26 2.94  25 2.94  19 2.94  29 2.94  34 2.94  33 2.94  32 2.94  31 2.94
                            30 2.94
  29  0.333  0.003  0.563-  30 2.90  31 2.91  36 2.91  35 2.94  28 2.94  27 2.96  20 2.97  26 2.98
                            34 2.98
  30  0.664  0.003  0.563-  29 2.90  32 2.91  36 2.91  35 2.94  28 2.94  27 2.96  21 2.97  25 2.98
                            33 2.98
  31  0.003  0.333  0.563-  33 2.90  29 2.91  36 2.91  35 2.94  28 2.94  22 2.96  20 2.97  19 2.98
                            32 2.98
  32  0.664  0.333  0.563-  34 2.90  30 2.91  36 2.91  35 2.94  28 2.94  24 2.96  21 2.97  19 2.98
                            31 2.98
  33  0.003  0.664  0.563-  31 2.90  34 2.91  36 2.91  35 2.94  28 2.94  22 2.96  23 2.97  25 2.98
                            30 2.98
  34  0.333  0.664  0.563-  32 2.90  33 2.91  36 2.91  35 2.94  28 2.94  24 2.96  23 2.97  26 2.98
                            29 2.98
  35  0.667  0.667  0.563-  30 2.94  29 2.94  32 2.94  34 2.94  31 2.94  33 2.94  24 2.94  27 2.94
                            22 2.94
  36  0.333  0.333  0.556-  37 1.85  21 2.86  20 2.86  23 2.86  31 2.91  33 2.91  30 2.91  29 2.91
                            34 2.91  32 2.91
  37  0.333  0.333  0.639-  36 1.85

  LATTYP: Found a hexagonal cell.
 ALAT       =     8.7913665772
 C/A-ratio  =     2.5227160501

  Lattice vectors:

 A1 = (  -4.3956832886,  -7.6135467898,   0.0000000000)
 A2 = (   8.7913665771,   0.0000000000,   0.0000000000)
 A3 = (   0.0000000000,   0.0000000000,  22.1781215668)

Analysis of symmetry for initial positions (statically):
 Subroutine PRICEL returns:
 Original cell was already a primitive cell.

 Routine SETGRP: Setting up the symmetry group for a
 hexagonal supercell.

 Subroutine GETGRP returns: Found  6 space group operations
 (whereof  6 operations were pure point group operations)
 out of a pool of 24 trial point group operations.

The static configuration has the point symmetry C_3v.

Analysis of symmetry for dynamics (positions and initial velocities):
 Subroutine PRICEL returns:
 Original cell was already a primitive cell.

[...]

The dynamic configuration has the point symmetry C_3v.

Analysis of constrained symmetry for selective dynamics:
 Subroutine PRICEL returns:
 Original cell was already a primitive cell.

 Routine SETGRP: Setting up the symmetry group for a
 hexagonal supercell.

 Subroutine GETGRP returns: Found  6 space group operations
 (whereof  6 operations were pure point group operations)
[...]
     24      -4.7348      2.00000
     25      -4.7216      2.00000
     26      -4.7151      2.00000
     27      -4.6871      2.00000
     28      -4.6751      2.00000
     29      -4.6662      2.00000
     30      -4.6515      2.00000
     31      -4.6271      2.00000
     32      -4.6009      2.00000
     33      -4.5959      2.00000
     34      -4.5682      2.00000
     35      -4.5568      2.00000
     36      -4.5172      2.00000
     37      -4.4812      2.00000
     38      -4.4499      2.00000
     39      -4.4472      2.00000
     40      -4.4391      2.00000
     41      -4.4257      2.00000
     42      -4.4136      2.00000
     43      -4.3287      2.00000
     44      -4.3143      2.00000
     45      -4.3030      2.00000
     46      -4.2831      2.00000
     47      -4.2762      2.00000
     48      -4.2712      2.00000
     49      -4.2609      2.00000
     50      -4.2558      2.00000
     51      -4.2449      2.00000
     52      -4.2379      2.00000
     53      -4.1870      2.00000
     54      -4.1772      2.00000
     55      -4.1645      2.00000
     56      -4.1444      2.00000
     57      -4.1346      2.00000
     58      -4.1137      2.00000
     59      -4.1021      2.00000
     60      -4.0728      2.00000
[...]
    238       7.1634      0.00000
    239       7.2116      0.00000
    240       7.2309      0.00000
    241       7.2980      0.00000
    242       7.3172      0.00000
    243       7.3449      0.00000
    244       7.4009      0.00000
    245       7.4947      0.00000
    246       7.5517      0.00000
    247       7.6163      0.00000
    248       7.6970      0.00000
    249       7.7366      0.00000
    250       7.9034      0.00000
    251       7.9904      0.00000
    252       8.1025      0.00000

 soft charge-density along one line, spin component           1
         0         1         2         3         4         5         6         7         8         9
 total charge-density along one line

------------------------ aborting loop because EDIFF is reached ----------------------------------------

 total charge

# of ion       s       p       d       tot
    1        0.422   0.201   9.177   9.800
    2        0.415   0.204   9.177   9.796
    3        0.415   0.204   9.177   9.796
    4        0.415   0.204   9.177   9.796
    5        0.418   0.202   9.177   9.796
    6        0.415   0.204   9.177   9.796
    7        0.415   0.204   9.177   9.796
    8        0.415   0.204   9.177   9.796
    9        0.417   0.203   9.177   9.797
   10        0.411   0.269   9.163   9.842
   11        0.404   0.269   9.168   9.841
   12        0.411   0.269   9.163   9.842
   13        0.404   0.269   9.168   9.841
   14        0.404   0.269   9.168   9.841
   15        0.402   0.269   9.165   9.836
   16        0.411   0.269   9.163   9.842
   17        0.402   0.269   9.165   9.836
   18        0.402   0.269   9.165   9.836
   19        0.404   0.264   9.166   9.833
   20        0.441   0.297   9.135   9.872
   21        0.441   0.297   9.135   9.872
   22        0.396   0.272   9.163   9.831
   23        0.441   0.297   9.135   9.872
   24        0.396   0.272   9.163   9.831
   25        0.404   0.264   9.166   9.833
   26        0.404   0.264   9.166   9.833
   27        0.396   0.272   9.163   9.831
   28        0.410   0.205   9.171   9.786
   29        0.453   0.218   9.146   9.817
   30        0.453   0.218   9.146   9.817
   31        0.453   0.218   9.146   9.817
   32        0.453   0.218   9.146   9.817
   33        0.453   0.218   9.146   9.817
   34        0.453   0.218   9.146   9.817
   35        0.407   0.207   9.172   9.786
   36        0.596   0.494   1.799   2.889
   37        0.536   0.006   0.000   0.542
tot         15.783   8.968 322.491 347.242

  FORCE on cell =-STRESS in cart. coord.  units (eV):
  Direction    XX          YY          ZZ          XY          YZ          ZX
  Alpha Z   733.35072   733.35072   733.35072
  Ewald  117606.49723117606.49707************    -0.00003    -0.00001    -0.00002
  Hartree127555.81585127555.81577************    -0.00001    -0.00001    -0.00001
  E(xc)   -2047.07096 -2047.07095 -2053.89357    -0.00001     0.00000     0.00000
  Local  ************************256174.44978     0.00027    -0.00002    -0.00004
  n-local  -317.25978  -299.82873  -311.93476     9.66674    -0.52454     0.52602
  augment  3218.99800  3218.99818  3233.02115    -0.00016     0.00001     0.00000
  Kinetic  4801.92166  4803.62048  4840.97317     1.93784     0.83792    -0.35725
  Fock        0.00000     0.00000     0.00000     0.00000     0.00000     0.00000
  Total      -7.43495    -7.43495     0.12707    -0.00000    -0.00000    -0.00000
  in kB      -8.02454    -8.02454     0.13714    -0.00000    -0.00000    -0.00000

 VOLUME and BASIS-vectors are now :
  energy-cutoff  :      500.00
  volume of cell :     1484.46
      direct lattice vectors                 reciprocal lattice vectors
     8.791366577  0.000000000  0.000000000     0.113747958 -0.065672414  0.000000000
     4.395683289  7.613546790  0.000000000     0.000000000  0.131344829  0.000000000
     0.000000000  0.000000000 22.178121567     0.000000000  0.000000000  0.045089481

  length of vectors
     8.791366577  8.791366577 22.178121567     0.131344829  0.131344829  0.045089481

 FORCES acting on ions
    electron-ion (+dipol)            ewald-force                    non-local-force                 convergence-correction
   0.461E-04 -.281E-04 0.247E+04   -.953E-04 0.592E-04 -.247E+04   0.502E-17 0.174E-17 -.164E+01   -.831E-04 -.155E-03 0.110E+00
   -.476E+00 -.296E+00 0.247E+04   0.376E+00 0.207E+00 -.246E+04   0.224E-01 0.933E-01 -.167E+01   0.716E-01 -.511E-02 0.751E-01
   0.476E+00 -.296E+00 0.247E+04   -.376E+00 0.207E+00 -.246E+04   -.224E-01 0.933E-01 -.167E+01   -.721E-01 -.324E-02 0.758E-01
   -.494E+00 -.264E+00 0.247E+04   0.367E+00 0.223E+00 -.246E+04   0.920E-01 -.273E-01 -.167E+01   0.316E-01 0.647E-01 0.752E-01
   -.796E-05 -.200E-04 0.246E+04   0.980E-04 -.199E-05 -.246E+04   -.240E-17 -.155E-17 -.148E+01   0.618E-02 0.378E-02 0.213E+00
   0.494E+00 -.264E+00 0.247E+04   -.367E+00 0.223E+00 -.246E+04   -.920E-01 -.273E-01 -.167E+01   -.329E-01 0.656E-01 0.759E-01
   -.185E-01 0.560E+00 0.247E+04   -.949E-02 -.429E+00 -.246E+04   0.696E-01 -.660E-01 -.167E+01   -.384E-01 -.603E-01 0.758E-01
   0.185E-01 0.560E+00 0.247E+04   0.942E-02 -.429E+00 -.246E+04   -.696E-01 -.660E-01 -.167E+01   0.400E-01 -.613E-01 0.759E-01
   0.364E-04 -.131E-04 0.247E+04   0.792E-04 -.642E-04 -.246E+04   -.540E-18 -.824E-19 -.160E+01   -.663E-02 -.341E-02 0.504E-01
   -.159E+01 -.917E+00 0.786E+03   0.183E+01 0.105E+01 -.786E+03   -.261E+00 -.151E+00 -.567E+00   -.129E-01 -.744E-02 0.279E+00
   -.281E-04 -.262E+01 0.778E+03   0.399E-04 0.221E+01 -.778E+03   0.121E-11 0.185E+00 -.302E+00   0.617E-02 0.160E+00 0.212E+00
   0.159E+01 -.917E+00 0.786E+03   -.183E+01 0.105E+01 -.786E+03   0.261E+00 -.151E+00 -.567E+00   0.117E-01 -.679E-02 0.278E+00
   -.227E+01 0.131E+01 0.778E+03   0.191E+01 -.110E+01 -.778E+03   0.160E+00 -.924E-01 -.302E+00   0.141E+00 -.745E-01 0.212E+00
   0.227E+01 0.131E+01 0.778E+03   -.191E+01 -.110E+01 -.778E+03   -.160E+00 -.924E-01 -.302E+00   -.131E+00 -.754E-01 0.210E+00
   0.151E-04 -.853E+00 0.784E+03   -.107E-03 0.877E+00 -.784E+03   0.317E-13 0.482E-02 -.586E+00   -.126E-02 -.263E-01 0.224E+00
   -.827E-05 0.183E+01 0.786E+03   0.205E-04 -.211E+01 -.786E+03   0.198E-11 0.302E+00 -.567E+00   -.967E-04 0.134E-01 0.278E+00
   -.739E+00 0.427E+00 0.784E+03   0.759E+00 -.438E+00 -.784E+03   0.418E-02 -.241E-02 -.586E+00   -.234E-01 0.120E-01 0.224E+00
   0.739E+00 0.427E+00 0.784E+03   -.759E+00 -.438E+00 -.784E+03   -.418E-02 -.241E-02 -.586E+00   0.236E-01 0.136E-01 0.224E+00
   0.385E-04 -.762E+01 -.898E+03   -.124E-03 0.758E+01 0.897E+03   0.420E-12 0.639E-01 0.868E+00   0.111E-02 -.507E-01 0.931E-01
   -.440E+02 -.254E+02 -.942E+03   0.448E+02 0.258E+02 0.943E+03   -.870E+00 -.502E+00 -.341E+00   -.866E-03 -.465E-03 0.699E-01
   0.440E+02 -.254E+02 -.942E+03   -.448E+02 0.258E+02 0.943E+03   0.870E+00 -.502E+00 -.341E+00   -.100E-01 -.102E-02 0.691E-01
   -.211E+02 0.122E+02 -.906E+03   0.210E+02 -.121E+02 0.905E+03   0.142E+00 -.820E-01 0.529E+00   0.606E-02 -.310E-02 0.518E-01
   -.482E-04 0.508E+02 -.942E+03   0.340E-04 -.517E+02 0.943E+03   0.659E-11 0.100E+01 -.341E+00   -.557E-02 -.754E-02 0.691E-01
   0.211E+02 0.122E+02 -.906E+03   -.210E+02 -.121E+02 0.905E+03   -.142E+00 -.820E-01 0.529E+00   -.440E-02 -.244E-02 0.518E-01
   0.660E+01 0.381E+01 -.898E+03   -.657E+01 -.379E+01 0.897E+03   -.554E-01 -.320E-01 0.868E+00   0.438E-01 0.252E-01 0.927E-01
   -.660E+01 0.381E+01 -.898E+03   0.657E+01 -.379E+01 0.897E+03   0.554E-01 -.320E-01 0.868E+00   -.437E-01 0.262E-01 0.931E-01
   0.189E-04 -.243E+02 -.906E+03   0.110E-03 0.242E+02 0.905E+03   0.108E-11 0.164E+00 0.529E+00   -.315E-03 0.677E-02 0.518E-01
   0.542E-04 -.355E-04 -.248E+04   -.114E-03 0.761E-04 0.247E+04   0.354E-17 0.151E-17 0.150E+01   0.305E-03 0.431E-04 -.784E-01
   -.367E+02 -.686E+02 -.249E+04   0.376E+02 0.697E+02 0.248E+04   -.902E+00 -.122E+01 0.130E+01   -.189E-01 0.282E-01 -.608E-01
   0.367E+02 -.686E+02 -.249E+04   -.376E+02 0.697E+02 0.248E+04   0.902E+00 -.122E+01 0.130E+01   0.181E-01 0.289E-01 -.606E-01
   -.778E+02 0.252E+01 -.249E+04   0.792E+02 -.231E+01 0.248E+04   -.151E+01 -.170E+00 0.130E+01   0.151E-01 -.303E-01 -.608E-01
   0.778E+02 0.252E+01 -.249E+04   -.792E+02 -.231E+01 0.248E+04   0.151E+01 -.170E+00 0.130E+01   -.148E-01 -.294E-01 -.600E-01
   -.411E+02 0.661E+02 -.249E+04   0.416E+02 -.674E+02 0.248E+04   -.607E+00 0.139E+01 0.130E+01   0.345E-01 0.173E-02 -.607E-01
   0.411E+02 0.661E+02 -.249E+04   -.416E+02 -.674E+02 0.248E+04   0.607E+00 0.139E+01 0.130E+01   -.332E-01 0.190E-02 -.600E-01
   0.280E-04 -.139E-04 -.248E+04   0.102E-03 -.646E-04 0.248E+04   0.314E-17 0.697E-17 0.167E+01   -.628E-02 -.320E-02 -.224E-01
   -.222E-04 0.201E-06 -.867E+03   0.378E-04 0.404E-05 0.869E+03   0.205E-17 0.126E-17 -.117E+01   0.468E-04 0.311E-04 -.560E-02
   0.543E-05 -.407E-05 -.251E+03   0.414E-05 0.508E-07 0.253E+03   0.982E-20 0.161E-19 -.185E+01   0.416E-04 0.256E-04 0.259E-02
   0.283E-03 -.715E-03 0.488E+01   0.384E-13 -.251E-13 -.307E-11   0.116E-15 -.658E-15 -.796E+01   -.587E-02 -.199E-03 0.314E+01

 POSITION                                       TOTAL-FORCE (eV/Angst)
      0.00000      0.00000      5.28219        -0.000000      0.000000     -0.025832
      2.93046      0.00000      5.28219        -0.004681     -0.000365      0.037874
      5.86091      0.00000      5.28219         0.004681     -0.000365      0.037874
      1.46523      2.53785      5.28219        -0.002657     -0.003871      0.037874
      4.39568      2.53785      5.28219        -0.000000      0.000000      0.017221
      7.32614      2.53785      5.28219         0.002657     -0.003871      0.037874
      2.93046      5.07570      5.28219         0.002024      0.004236      0.037874
      5.86091      5.07570      5.28219        -0.002024      0.004236      0.037874
      8.79137      5.07570      5.28219        -0.000000      0.000000      0.013375
      1.46523      0.84595      7.67490        -0.035675     -0.020597     -0.078820
      4.39568      0.84595      7.67490        -0.000000     -0.074186     -0.071743
      7.32614      0.84595      7.67490         0.035675     -0.020597     -0.078820
      2.93046      3.38380      7.67490        -0.064247      0.037093     -0.071743
      5.86091      3.38380      7.67490         0.064247      0.037093     -0.071743
      8.79137      3.38380      7.67490         0.000000      0.001755      0.032397
      4.39568      5.92165      7.67490         0.000000      0.041194     -0.078820
      7.32614      5.92165      7.67490         0.001520     -0.000878      0.032397
     10.25659      5.92165      7.67490        -0.001520     -0.000878      0.032397
      8.79137      1.69178     10.05827        -0.000000     -0.022834      0.008776
      2.92613      1.68940     10.03306        -0.120550     -0.069600     -0.116096
      5.86523      1.68940     10.03306         0.120550     -0.069600     -0.116096
     10.25456      4.23092     10.06776         0.031461     -0.018164      0.044476
      4.39568      4.23474     10.03306         0.000000      0.139199     -0.116096
      7.32817      4.23092     10.06776        -0.031461     -0.018164      0.044476
     11.72193      6.76766     10.05827         0.019775      0.011417      0.008776
      5.86080      6.76766     10.05827        -0.019775      0.011417      0.008776
      8.79137      6.76525     10.06776         0.000000      0.036328      0.044476
      0.00000      0.00000     12.45716        -0.000000      0.000000      0.019144
      2.94326      0.02074     12.49530        -0.048251     -0.106239     -0.107475
      5.84810      0.02074     12.49530         0.048251     -0.106239     -0.107475
      1.48959      2.53857     12.49530        -0.116131      0.011333     -0.107475
      7.30177      2.53857     12.49530         0.116131      0.011333     -0.107475
      2.94201      5.05424     12.49530        -0.067880      0.094906     -0.107475
      5.84935      5.05424     12.49530         0.067880      0.094906     -0.107475
      8.79137      5.07570     12.47846        -0.000000      0.000000      0.010851
      4.39568      2.53785     12.33403        -0.000000      0.000000      0.951621
      4.39568      2.53785     14.18165        -0.000000      0.000000     -0.025750
    total drift:                               -0.005585     -0.000914      0.069763

  FREE ENERGIE OF THE ION-ELECTRON SYSTEM (eV)
  free  energy   TOTEN  =      -101.18965146 eV

  energy  without entropy=     -101.18965146  energy(sigma->0) =     -101.18965146

 stress matrix after NEB project (eV)
     -7.43495     -0.00000     -0.00000
     -0.00000     -7.43495     -0.00000
     -0.00000     -0.00000      0.12707
  FORCES: max atom, RMS     0.025750    0.004233
  FORCE total and by dimension    0.025750    0.025750
  Stress total and by dimension   10.515369    7.434946
|           W    W    AA    RRRRR   N    N  II  N    N   GGGG   !!!           |
|           W    W   A  A   R    R  NN   N  II  NN   N  G    G  !!!           |
|           W    W  A    A  R    R  N N  N  II  N N  N  G       !!!           |
|           W WW W  AAAAAA  RRRRR   N  N N  II  N  N N  G  GGG   !            |
|           WW  WW  A    A  R   R   N   NN  II  N   NN  G    G                |
|           W    W  A    A  R    R  N    N  II  N    N   GGGG   !!!           |
|     Tetrahedron method does not include variations of the Fermi             |
|     occupations, so forces and stress will be inaccurate. We suggest        |
|     using a different smearing scheme ISMEAR = 1 or 2 for metals in         |
|     relaxations.                                                            |

 total charge

# of ion       s       p       d       tot
    1        0.422   0.201   9.177   9.800
    2        0.415   0.204   9.177   9.796
    3        0.415   0.204   9.177   9.796
    4        0.415   0.204   9.177   9.796
    5        0.418   0.202   9.177   9.796
    6        0.415   0.204   9.177   9.796
    7        0.415   0.204   9.177   9.796
    8        0.415   0.204   9.177   9.796
    9        0.417   0.203   9.177   9.797
   10        0.411   0.269   9.163   9.842
   11        0.404   0.269   9.168   9.841
   12        0.411   0.269   9.163   9.842
   13        0.404   0.269   9.168   9.841
   14        0.404   0.269   9.168   9.841
   15        0.402   0.269   9.165   9.836
   16        0.411   0.269   9.163   9.842
   17        0.402   0.269   9.165   9.836
   18        0.402   0.269   9.165   9.836
   19        0.404   0.264   9.166   9.833
   20        0.441   0.297   9.135   9.872
   21        0.441   0.297   9.135   9.872
   22        0.396   0.272   9.163   9.831
   23        0.441   0.297   9.135   9.872
   24        0.396   0.272   9.163   9.831
   25        0.404   0.264   9.166   9.833
   26        0.404   0.264   9.166   9.833
   27        0.396   0.272   9.163   9.831
   28        0.410   0.205   9.171   9.786
   29        0.453   0.218   9.146   9.817
   30        0.453   0.218   9.146   9.817
   31        0.453   0.218   9.146   9.817
   32        0.453   0.218   9.146   9.817
   33        0.453   0.218   9.146   9.817
   34        0.453   0.218   9.146   9.817
   35        0.407   0.207   9.172   9.786
   36        0.596   0.494   1.799   2.889
   37        0.536   0.006   0.000   0.542
tot         15.783   8.968 322.491 347.242

 BZINTS: Fermi energy:    0.773768;  390.000000 electrons
         Band energy:-0.131490E+04;  BLOECHL correction:   -0.048235