 vasp.6.2.0 18Jan21 (build Jun 12 2021 23:27:24) complex

 executed on             LinuxIFC date 2022.05.28  01:26:33

 INCAR:
   ISMEAR = -5
   SIGMA = 0.1
   ISPIN = 1
   EDIFF = 1.d-5
   EDIFFG = -0.01
   NSW = 0
   NELM = 150
   ENCUT = 500
   ISIF = 2
   IBRION = 2
   LREAL = Auto
   ALGO = Fast
   ICHARG = 11
   LORBIT = 10
   LCHARG = .F.
   LWAVE = .F.

 POTCAR:    PAW_PBE Ag 02Apr2005
 POTCAR:    PAW_PBE Cr 06Sep2000
 POTCAR:    PAW_PBE C 08Apr2002
 POTCAR:    PAW_PBE O 08Apr2002
|           W    W    AA    RRRRR   N    N  II  N    N   GGGG   !!!           |
|           W    W   A  A   R    R  NN   N  II  NN   N  G    G  !!!           |
|           W    W  A    A  R    R  N N  N  II  N N  N  G       !!!           |
|           W WW W  AAAAAA  RRRRR   N  N N  II  N  N N  G  GGG   !            |
|           WW  WW  A    A  R   R   N   NN  II  N   NN  G    G                |
|           W    W  A    A  R    R  N    N  II  N    N   GGGG   !!!           |
|     For optimal performance we recommend to set                             |
|       NCORE = 2 up to number-of-cores-per-socket                            |
|     This setting can greatly improve the performance of VASP for DFT.       |
|     The default, NCORE=1 might be grossly inefficient on modern             |
|     multi-core architectures or massively parallel machines. Do your        |
|     Unfortunately you need to use the default for GW and RPA                |
|     calculations (for HF NCORE is supported but not extensively tested      |
|     yet).                                                                   |

 POTCAR:    PAW_PBE Ag 02Apr2005
   VRHFIN =Ag : s1 d10

   TITEL  = PAW_PBE Ag 02Apr2005
   POMASS =  107.868; ZVAL   =   11.000    mass and valenz
   ENMAX  =  249.844; ENMIN  =  187.383 eV

 POTCAR:    PAW_PBE Cr 06Sep2000
   VRHFIN =Cr : d5 s1

   TITEL  = PAW_PBE Cr 06Sep2000
   POMASS =   51.996; ZVAL   =    6.000    mass and valenz
   ENMAX  =  227.080; ENMIN  =  170.310 eV

 POTCAR:    PAW_PBE C 08Apr2002
   VRHFIN =C: s2p2

[...]

 POTCAR:    PAW_PBE O 08Apr2002
   VRHFIN =O: s2p4

   TITEL  = PAW_PBE O 08Apr2002
   POMASS =   16.000; ZVAL   =    6.000    mass and valenz
   ENMAX  =  400.000; ENMIN  =  300.000 eV

 Optimization of the real space projectors (new method)

 maximal supplied QI-value         = 15.12
 optimisation between [QCUT,QGAM] = [ 11.34, 22.83] = [ 36.00,145.93] Ry
 Optimized for a Real-space Cutoff    1.43 Angstroem

   l    n(q)    QCUT    max X(q) W(low)/X(q) W(high)/X(q)  e(spline)
   2      9    11.338    53.897    0.16E-03    0.20E-03    0.28E-06
   2      9    11.338    52.416    0.16E-03    0.20E-03    0.29E-06
   0     10    11.338   122.045    0.31E-04    0.76E-04    0.15E-06
   0     10    11.338    73.629    0.30E-04    0.72E-04    0.15E-06
   1      9    11.338    15.255    0.20E-03    0.19E-04    0.17E-06
   1      9    11.338     9.562    0.16E-03    0.15E-04    0.14E-06
 Optimization of the real space projectors (new method)

[...]

   l    n(q)    QCUT    max X(q) W(low)/X(q) W(high)/X(q)  e(spline)
   0      7    11.310   115.676    0.43E-03    0.13E-02    0.19E-06
   0      7    11.310    87.132    0.43E-03    0.13E-02    0.18E-06
   1      6    11.310     4.429    0.42E-03    0.74E-03    0.11E-06
   1      6    11.310     2.733    0.34E-03    0.55E-03    0.92E-07
 Optimization of the real space projectors (new method)

 maximal supplied QI-value         = 24.76
 optimisation between [QCUT,QGAM] = [ 11.39, 22.77] = [ 36.31,145.25] Ry
 Optimized for a Real-space Cutoff    1.00 Angstroem

   l    n(q)    QCUT    max X(q) W(low)/X(q) W(high)/X(q)  e(spline)
   0      7    11.387    20.381    0.39E-03    0.13E-02    0.15E-06
   0      7    11.387    15.268    0.42E-03    0.14E-02    0.17E-06
   1      6    11.387     5.964    0.41E-03    0.11E-02    0.17E-06
   1      6    11.387     5.382    0.39E-03    0.87E-03    0.15E-06
  PAW_PBE Ag 02Apr2005                  :
  PAW_PBE Cr 06Sep2000                  :
  PAW_PBE C 08Apr2002                   :
  PAW_PBE O 08Apr2002                   :

 POSCAR: Ag-Cr-CO2
  positions in direct lattice
  velocities in cartesian coordinates
 exchange correlation table for  LEXCH =        8
   RHO(1)=    0.500       N(1)  =     2000
   RHO(2)=  100.500       N(2)  =     4000

 VTST: version 3.2, (02/03/18)

 CHAIN: initializing optimizer

 OPT: Using VASP Conjugate-Gradient optimizer
 CHAIN: Read ICHAIN            0

 POSCAR: Ag-Cr-CO2
  positions in direct lattice
  velocities in cartesian coordinates

 ion  position               nearest neighbor table
   1  0.000  0.000  0.217-   2 2.93   8 2.93   7 2.93   6 2.93   4 2.93  12 2.93  16 2.93  10 2.93
                             3 2.93
   2  0.333  0.000  0.217-   1 2.93   8 2.93   9 2.93   3 2.93   4 2.93   5 2.93  10 2.93  17 2.93
                            11 2.93
   3  0.667  0.000  0.217-   9 2.93   2 2.93   5 2.93  11 2.93   7 2.93  18 2.93   1 2.93   6 2.93
                            12 2.93
   4  0.000  0.333  0.217-   5 2.93   6 2.93   2 2.93   1 2.93   7 2.93  13 2.93  15 2.93   9 2.93
                            10 2.93
   5  0.333  0.333  0.217-   4 2.93   3 2.93   7 2.93   2 2.93   8 2.93  14 2.93  13 2.93  11 2.93
                             6 2.93
   6  0.667  0.333  0.217-   4 2.93   9 2.93   1 2.93  15 2.93   8 2.93  12 2.93   3 2.93   5 2.93
                            14 2.93
   7  0.000  0.667  0.217-   8 2.93   1 2.93   5 2.93   3 2.93   4 2.93  16 2.93  18 2.93  13 2.93
                             9 2.93
   8  0.333  0.667  0.217-   7 2.93   1 2.93   2 2.93   9 2.93   5 2.93  16 2.93   6 2.93  17 2.93
                            14 2.93
   9  0.667  0.667  0.217-   3 2.93   2 2.93   8 2.93   6 2.93  17 2.93   4 2.93  15 2.93   7 2.93
                            18 2.93
  10  0.111  0.111  0.315-  20 2.91  19 2.92  26 2.92  12 2.93  16 2.93  15 2.93  17 2.93  13 2.93
                            11 2.93   2 2.93   1 2.93   4 2.93
  11  0.444  0.111  0.315-  21 2.90  20 2.90  27 2.92  14 2.93  17 2.93  18 2.93   3 2.93  12 2.93
                            13 2.93  10 2.93   5 2.93   2 2.93
  12  0.778  0.111  0.315-  21 2.91  25 2.92  19 2.92  10 2.93  16 2.93  18 2.93  15 2.93  11 2.93
                             1 2.93  14 2.93   6 2.93   3 2.93
  13  0.111  0.444  0.315-  20 2.90  23 2.90  22 2.92  15 2.93  14 2.93  18 2.93  10 2.93  11 2.93
                            16 2.93   4 2.93   5 2.93   7 2.93
  14  0.444  0.444  0.315-  23 2.90  21 2.90  24 2.92  13 2.93  11 2.93  16 2.93   5 2.93  12 2.93
                            17 2.93   8 2.93  15 2.93   6 2.93
  15  0.778  0.444  0.315-  24 2.92  22 2.92  19 2.92  13 2.93  10 2.93  12 2.93  17 2.93  18 2.93
                             4 2.93   6 2.93   9 2.93  14 2.93
  16  0.111  0.778  0.315-  23 2.91  26 2.92  25 2.92  18 2.93  12 2.93  10 2.93  14 2.93  17 2.93
                            13 2.93   7 2.93   8 2.93   1 2.93
  17  0.444  0.778  0.315-  27 2.92  24 2.92  26 2.92  11 2.93  10 2.93   9 2.93  18 2.93  15 2.93
                            16 2.93   2 2.93  14 2.93   8 2.93
  18  0.778  0.778  0.315-  22 2.92  27 2.92  25 2.92  16 2.93  12 2.93  13 2.93  11 2.93  17 2.93
                            15 2.93   7 2.93   3 2.93   9 2.93
  19  0.889  0.222  0.413-  28 2.91  15 2.92  10 2.92  12 2.92  24 2.93  22 2.93  26 2.93  25 2.93
                            20 2.94  21 2.94  32 2.96  31 2.96
  20  0.223  0.223  0.412-  36 2.73  13 2.90  11 2.90  21 2.91  23 2.91  10 2.91  31 2.91  29 2.91
                            27 2.93  22 2.93  19 2.94  26 2.94
  21  0.554  0.223  0.412-  36 2.73  11 2.90  14 2.90  20 2.91  23 2.91  12 2.91  30 2.91  32 2.91
                            27 2.93  24 2.93  25 2.94  19 2.94
  22  0.888  0.556  0.413-  35 2.91  18 2.92  15 2.92  13 2.92  24 2.92  27 2.92  25 2.93  19 2.93
                            33 2.93  31 2.93  23 2.93  20 2.93
  23  0.223  0.554  0.412-  36 2.73  14 2.90  13 2.90  21 2.91  20 2.91  16 2.91  34 2.91  33 2.91
                            22 2.93  24 2.93  26 2.94  25 2.94
  24  0.556  0.556  0.413-  35 2.91  15 2.92  17 2.92  14 2.92  27 2.92  22 2.92  19 2.93  26 2.93
                            32 2.93  34 2.93  23 2.93  21 2.93
  25  0.889  0.889  0.413-  28 2.91  18 2.92  16 2.92  12 2.92  22 2.93  27 2.93  26 2.93  19 2.93
                            23 2.94  21 2.94  33 2.96  30 2.96
  26  0.222  0.889  0.413-  28 2.91  17 2.92  16 2.92  10 2.92  27 2.93  24 2.93  25 2.93  19 2.93
                            23 2.94  20 2.94  34 2.96  29 2.96
  27  0.556  0.888  0.413-  35 2.91  17 2.92  18 2.92  11 2.92  24 2.92  22 2.92  26 2.93  25 2.93
                            29 2.93  30 2.93  20 2.93  21 2.93
  28  0.000  0.000  0.510-  26 2.91  25 2.91  19 2.91  29 2.96  34 2.96  33 2.96  32 2.96  31 2.96
                            30 2.96
  29  0.333  0.007  0.511-  37 2.77  30 2.87  31 2.87  36 2.88  20 2.91  27 2.93  26 2.96  35 2.96
                            28 2.96  34 3.06
  30  0.659  0.007  0.511-  29 2.87  32 2.87  36 2.88  21 2.91  27 2.93  25 2.96  35 2.96  28 2.96
                            33 3.06
  31  0.007  0.333  0.511-  37 2.62  33 2.87  29 2.87  36 2.88  20 2.91  22 2.93  19 2.96  35 2.96
                            28 2.96  32 3.06
  32  0.659  0.333  0.511-  34 2.87  30 2.87  36 2.88  21 2.91  24 2.93  19 2.96  35 2.96  28 2.96
                            31 3.06
  33  0.007  0.659  0.511-  31 2.87  34 2.87  36 2.88  23 2.91  22 2.93  25 2.96  35 2.96  28 2.96
                            30 3.06
  34  0.333  0.659  0.511-  32 2.87  33 2.87  36 2.88  23 2.91  24 2.93  26 2.96  35 2.96  28 2.96
                            29 3.06
  35  0.667  0.667  0.510-  24 2.91  27 2.91  22 2.91  30 2.96  32 2.96  29 2.96  34 2.96  31 2.96
                            33 2.96
  36  0.333  0.333  0.500-  39 1.93  37 1.98  21 2.73  20 2.73  23 2.73  31 2.88  33 2.88  30 2.88
                            29 2.88  34 2.88  32 2.88
  37  0.265  0.296  0.574-  38 1.23  39 1.32  36 1.98  31 2.62  29 2.77
  38  0.190  0.261  0.610-  37 1.23
  39  0.374  0.359  0.577-  37 1.32  36 1.93

  LATTYP: Found a hexagonal cell.
 ALAT       =     8.7913665772
 C/A-ratio  =     2.7703738524

  Lattice vectors:

 A1 = (  -4.3956832886,  -7.6135467898,   0.0000000000)
 A2 = (   8.7913665771,   0.0000000000,   0.0000000000)
 A3 = (   0.0000000000,   0.0000000000,  24.3553720923)

Analysis of symmetry for initial positions (statically):
 Subroutine PRICEL returns:
 Original cell was already a primitive cell.

 Routine SETGRP: Setting up the symmetry group for a
 hexagonal supercell.

 Subroutine GETGRP returns: Found  1 space group operations
 (whereof  1 operations were pure point group operations)
 out of a pool of 24 trial point group operations.

The static configuration has the point symmetry C_1 .

Analysis of symmetry for dynamics (positions and initial velocities):
 Subroutine PRICEL returns:
 Original cell was already a primitive cell.

[...]

The dynamic configuration has the point symmetry C_1 .

Analysis of constrained symmetry for selective dynamics:
 Subroutine PRICEL returns:
 Original cell was already a primitive cell.

[...]
     41      -4.9708      2.00000
     42      -4.9532      2.00000
     43      -4.9350      2.00000
     44      -4.9036      2.00000
     45      -4.8985      2.00000
     46      -4.8853      2.00000
     47      -4.8765      2.00000
     48      -4.8622      2.00000
     49      -4.7875      2.00000
     50      -4.7568      2.00000
     51      -4.7494      2.00000
     52      -4.7437      2.00000
     53      -4.7406      2.00000
     54      -4.7389      2.00000
     55      -4.7193      2.00000
     56      -4.7143      2.00000
     57      -4.7024      2.00000
     58      -4.6951      2.00000
     59      -4.6318      2.00000
     60      -4.6219      2.00000
[...]
    238       5.3289      0.00000
    239       5.4631      0.00000
    240       5.6553      0.00000
    241       5.6892      0.00000
    242       5.7485      0.00000
    243       5.7868      0.00000
    244       5.8698      0.00000
    245       5.9232      0.00000
    246       6.0314      0.00000
    247       6.5549      0.00000
    248       6.5598      0.00000
    249       6.6425      0.00000
    250       6.6968      0.00000
    251       6.7283      0.00000
    252       6.7397      0.00000

 soft charge-density along one line, spin component           1
         0         1         2         3         4         5         6         7         8         9
 total charge-density along one line

------------------------ aborting loop because EDIFF is reached ----------------------------------------

 total charge

# of ion       s       p       d       tot
    1        0.419   0.200   9.179   9.798
    2        0.417   0.203   9.177   9.796
    3        0.415   0.204   9.176   9.796
    4        0.418   0.203   9.177   9.797
    5        0.418   0.202   9.175   9.796
    6        0.417   0.203   9.177   9.797
    7        0.415   0.204   9.177   9.796
    8        0.416   0.203   9.177   9.796
    9        0.412   0.203   9.178   9.794
   10        0.407   0.268   9.165   9.840
   11        0.407   0.268   9.168   9.843
   12        0.408   0.269   9.163   9.839
   13        0.406   0.269   9.168   9.843
   14        0.404   0.270   9.168   9.841
   15        0.403   0.270   9.165   9.837
   16        0.408   0.269   9.162   9.839
   17        0.402   0.270   9.165   9.837
   18        0.402   0.271   9.164   9.837
   19        0.398   0.267   9.166   9.831
   20        0.431   0.300   9.140   9.871
   21        0.434   0.296   9.141   9.872
   22        0.394   0.276   9.165   9.835
   23        0.435   0.297   9.140   9.872
   24        0.395   0.277   9.163   9.835
   25        0.403   0.263   9.169   9.835
   26        0.400   0.266   9.167   9.833
   27        0.395   0.275   9.166   9.836
   28        0.417   0.192   9.181   9.790
   29        0.406   0.217   9.177   9.801
   30        0.420   0.207   9.177   9.803
   31        0.393   0.223   9.181   9.797
   32        0.418   0.202   9.179   9.798
   33        0.421   0.207   9.177   9.805
   34        0.416   0.205   9.177   9.799
   35        0.408   0.198   9.179   9.786
   36        0.410   0.489   4.386   5.285
   37        0.876   1.652   0.000   2.528
   38        1.598   3.510   0.000   5.108
   39        1.594   3.453   0.000   5.047
tot         18.854  17.519 325.313 361.686

  FORCE on cell =-STRESS in cart. coord.  units (eV):
  Direction    XX          YY          ZZ          XY          YZ          ZX
  Alpha Z   709.57636   709.57636   709.57636
  Ewald  152820.18279152394.87143************   169.89349   -45.43414  -120.77532
  Hartree162850.62628162636.90213************    84.97430   -19.35817   -47.79708
  E(xc)   -2129.36741 -2130.21720 -2134.88557     0.32215     0.05583     0.03819
  Local  ************************326120.99296  -246.25370    60.38116   155.71743
  n-local  -380.71487  -376.11514  -383.94375    -1.94383     0.46163     1.35327
  augment  3260.80325  3260.48745  3269.50412     0.30569    -0.49126    -0.90100
  Kinetic  5128.56592  5148.26686  5164.65360    -7.46546     4.36299    12.38504
  Fock        0.00000     0.00000     0.00000     0.00000     0.00000     0.00000
  Total      -7.00488    -7.14127    -0.90504    -0.16736    -0.02196     0.02053
  in kB      -6.88451    -7.01856    -0.88949    -0.16449    -0.02159     0.02018

 VOLUME and BASIS-vectors are now :
  energy-cutoff  :      500.00
  volume of cell :     1630.19
      direct lattice vectors                 reciprocal lattice vectors
     8.791366577  0.000000000  0.000000000     0.113747958 -0.065672414  0.000000000
     4.395683289  7.613546790  0.000000000     0.000000000  0.131344829  0.000000000
     0.000000000  0.000000000 24.355372092     0.000000000  0.000000000  0.041058703

  length of vectors
     8.791366577  8.791366577 24.355372092     0.131344829  0.131344829  0.041058703

 FORCES acting on ions
    electron-ion (+dipol)            ewald-force                    non-local-force                 convergence-correction
   0.164E-01 0.253E-01 0.271E+04   -.879E-01 -.602E-01 -.271E+04   0.364E-01 0.216E-01 -.208E+01   0.272E-01 0.736E-02 -.128E+00
   0.179E+00 0.413E+00 0.271E+04   -.272E+00 -.428E+00 -.271E+04   0.592E-01 0.868E-01 -.167E+01   0.363E-01 -.570E-01 -.161E+00
   -.193E+00 0.244E+00 0.271E+04   0.360E+00 -.352E+00 -.271E+04   -.982E-01 0.129E+00 -.158E+01   -.658E-01 -.124E-01 -.153E+00
   0.492E+00 -.136E-01 0.271E+04   -.499E+00 -.541E-01 -.271E+04   0.637E-01 0.729E-03 -.166E+01   -.389E-01 0.623E-01 -.145E+00
   -.140E+00 -.478E-01 0.271E+04   0.110E+00 0.356E-01 -.271E+04   0.314E-01 0.206E-01 -.143E+01   0.129E-02 -.771E-02 -.632E-01
   -.345E+00 0.131E+00 0.271E+04   0.390E+00 -.936E-01 -.271E+04   -.105E+00 -.544E-01 -.160E+01   0.403E-01 0.148E-01 -.107E+00
   0.950E-01 -.351E+00 0.271E+04   -.117E+00 0.521E+00 -.271E+04   0.762E-01 -.131E+00 -.162E+01   -.482E-01 -.392E-01 -.167E+00
   -.832E-01 -.383E+00 0.271E+04   0.137E+00 0.407E+00 -.271E+04   -.100E+00 -.728E-01 -.159E+01   0.405E-01 0.364E-01 -.133E+00
   0.130E-01 0.420E-06 0.271E+04   -.207E-01 0.248E-01 -.271E+04   0.568E-02 -.157E-01 -.191E+01   -.362E-03 -.770E-02 -.184E+00
   0.364E+01 0.235E+01 0.962E+03   -.329E+01 -.212E+01 -.961E+03   -.344E+00 -.203E+00 -.823E+00   -.594E-02 -.150E-01 -.954E-01
   -.755E+00 0.379E+01 0.966E+03   0.786E+00 -.404E+01 -.965E+03   -.557E-01 0.158E+00 -.375E+00   0.241E-01 0.377E-01 -.838E-01
   -.294E+01 0.204E+01 0.960E+03   0.250E+01 -.181E+01 -.959E+03   0.447E+00 -.221E+00 -.745E+00   -.101E-01 0.428E-02 -.652E-01
   0.267E+01 -.242E+01 0.966E+03   -.291E+01 0.257E+01 -.966E+03   0.145E+00 -.118E+00 -.442E+00   0.561E-01 -.279E-02 -.884E-01
   -.323E+01 -.180E+01 0.965E+03   0.354E+01 0.201E+01 -.964E+03   -.214E+00 -.144E+00 -.371E+00   -.489E-01 -.474E-01 -.127E+00
   0.639E+00 0.284E+00 0.961E+03   -.627E+00 -.373E+00 -.960E+03   -.154E-01 0.521E-01 -.779E+00   0.180E-03 0.196E-01 -.827E-01
   0.134E+00 -.375E+01 0.960E+03   -.131E+00 0.321E+01 -.959E+03   0.666E-02 0.530E+00 -.740E+00   -.512E-02 0.116E-01 -.702E-01
   0.526E+00 0.151E+00 0.961E+03   -.611E+00 -.117E+00 -.960E+03   0.498E-01 -.374E-01 -.752E+00   0.187E-01 0.432E-02 -.101E+00
   -.703E+00 -.631E+00 0.961E+03   0.741E+00 0.674E+00 -.960E+03   -.202E-01 -.341E-01 -.682E+00   -.416E-02 -.185E-02 -.632E-01
   0.594E+01 0.465E+00 -.810E+03   -.584E+01 -.566E+00 0.809E+03   -.497E-01 0.110E+00 0.882E+00   -.297E-01 -.232E-03 0.994E-01
   0.387E+01 0.450E+01 -.778E+03   -.278E+01 -.389E+01 0.779E+03   -.117E+01 -.621E+00 -.102E+01   0.396E-01 0.230E-02 0.199E-01
   -.986E+01 0.445E+01 -.792E+03   0.860E+01 -.385E+01 0.793E+03   0.131E+01 -.634E+00 -.987E+00   -.170E-01 -.148E-01 0.487E-01
   0.536E+01 -.743E+01 -.801E+03   -.554E+01 0.755E+01 0.800E+03   0.262E+00 -.185E+00 0.494E+00   -.161E-01 0.302E-01 0.365E-01
   -.280E+01 -.111E+02 -.790E+03   0.270E+01 0.967E+01 0.791E+03   0.103E+00 0.152E+01 -.105E+01   -.251E-02 -.133E-01 0.598E-01
   -.286E+01 -.253E+01 -.806E+03   0.278E+01 0.255E+01 0.805E+03   0.737E-02 -.399E-01 0.554E+00   0.332E-01 0.109E-02 0.671E-01
   0.986E+00 -.155E+00 -.817E+03   -.944E+00 0.149E+00 0.816E+03   -.450E-01 -.112E-01 0.912E+00   -.906E-02 0.148E-01 0.862E-01
   0.181E+01 0.487E+01 -.812E+03   -.181E+01 -.478E+01 0.811E+03   0.437E-01 -.651E-01 0.844E+00   -.358E-01 -.169E-01 0.542E-01
   -.276E+01 0.665E+01 -.804E+03   0.275E+01 -.690E+01 0.804E+03   -.215E-01 0.322E+00 0.569E+00   0.406E-01 -.869E-02 0.292E-01
   0.215E+02 0.149E+02 -.256E+04   -.215E+02 -.150E+02 0.256E+04   0.138E-01 0.754E-01 0.203E+01   -.855E-01 0.444E-02 0.164E+00
   0.214E+02 0.107E+03 -.249E+04   -.205E+02 -.107E+03 0.249E+04   -.960E+00 -.322E+00 0.261E+01   0.166E-01 -.114E+00 0.148E+00
   -.438E+02 0.571E+02 -.254E+04   0.432E+02 -.569E+02 0.254E+04   0.623E+00 -.518E+00 0.222E+01   0.555E-01 0.428E-01 0.204E+00
   0.115E+03 -.249E+02 -.246E+04   -.115E+03 0.254E+02 0.245E+04   -.584E+00 -.499E+00 0.315E+01   -.175E+00 0.832E-01 0.143E+00
   -.604E+02 0.298E+01 -.254E+04   0.604E+02 -.279E+01 0.253E+04   0.336E+00 -.136E+00 0.280E+01   0.434E-01 -.821E-01 0.172E+00
   0.233E+02 -.799E+02 -.253E+04   -.232E+02 0.794E+02 0.253E+04   -.312E+00 0.790E+00 0.219E+01   0.391E-01 0.142E-02 0.223E+00
   -.305E+02 -.570E+02 -.254E+04   0.306E+02 0.569E+02 0.254E+04   0.940E-01 0.384E+00 0.266E+01   -.636E-01 0.286E-01 0.183E+00
   0.449E+01 -.580E+01 -.257E+04   -.458E+01 0.582E+01 0.257E+04   0.423E-01 0.264E-01 0.199E+01   0.266E-01 -.264E-01 0.189E+00
   -.218E+02 -.645E+01 -.113E+04   0.210E+02 0.605E+01 0.113E+04   0.681E+00 0.298E+00 0.805E+00   0.491E-01 0.252E-01 0.141E+00
   0.105E+02 0.125E+02 -.986E+03   -.143E+02 -.144E+02 0.979E+03   0.360E+01 0.173E+01 0.698E+01   0.157E+00 0.825E-01 0.344E-01
   0.166E+03 0.587E+02 -.174E+04   -.202E+03 -.706E+02 0.178E+04   0.352E+02 0.119E+02 -.388E+02   0.740E-01 0.382E-01 0.302E-01
   -.205E+03 -.772E+02 -.168E+04   0.245E+03 0.927E+02 0.170E+04   -.399E+02 -.156E+02 -.173E+02   -.639E-01 -.125E-01 -.121E-01
   0.621E+00 0.144E+01 0.482E+02   -.568E-13 0.270E-12 -.591E-11   -.717E+00 -.151E+01 -.484E+02   0.933E-01 0.731E-01 0.103E+00

 POSITION                                       TOTAL-FORCE (eV/Angst)
      0.00000      0.00000      5.28219        -0.007914     -0.006143     -0.041458
      2.93046      0.00000      5.28219         0.002586      0.013661      0.026530
      5.86091      0.00000      5.28219         0.003797      0.007505      0.038586
      1.46523      2.53785      5.28219         0.017122     -0.004954      0.023023
      4.39568      2.53785      5.28219         0.002454      0.000494     -0.007086
      7.32614      2.53785      5.28219        -0.019710     -0.002764      0.016438
      2.93046      5.07570      5.28219         0.006325     -0.000597      0.033626
      5.86091      5.07570      5.28219        -0.005268     -0.012061      0.023375
      8.79137      5.07570      5.28219        -0.002362      0.001131      0.012232
      1.46523      0.84595      7.67490         0.006552      0.007400     -0.022834
      4.39568      0.84595      7.67490        -0.000198     -0.052839     -0.065027
      7.32614      0.84595      7.67490        -0.000704      0.007668     -0.009789
      2.93046      3.38380      7.67490        -0.041784      0.025985     -0.066224
      5.86091      3.38380      7.67490         0.042026      0.024110     -0.042840
      8.79137      3.38380      7.67490        -0.003725     -0.018359      0.001644
      4.39568      5.92165      7.67490         0.005495     -0.005535     -0.008782
      7.32614      5.92165      7.67490        -0.016395      0.000732      0.010079
     10.25659      5.92165      7.67490         0.013792      0.007110      0.016252
      8.79137      1.69374     10.05841         0.016516      0.008764      0.077909
      2.93927      1.69699     10.03909        -0.046541     -0.010201     -0.066811
      5.85210      1.69699     10.03909         0.027494     -0.042469     -0.091098
     10.25385      4.23133     10.05420         0.060543     -0.032424      0.039408
      4.39568      4.21957     10.03909         0.000510      0.039514     -0.068262
      7.32888      4.23133     10.05420        -0.038719     -0.021122      0.042692
     11.72023      6.76668     10.05841        -0.011183     -0.002813      0.025391
      5.86251      6.76668     10.05841         0.009395      0.006731      0.061288
      8.79137      6.76443     10.05420         0.007027      0.060866      0.026711
      0.00000      0.00000     12.42643        -0.040056     -0.042272     -0.013677
      2.96234      0.05459     12.44639        -0.026020     -0.230239     -0.174014
      5.82903      0.05459     12.44639         0.128766     -0.236851     -0.202451
      1.52844      2.53816     12.44639        -0.309666      0.088452     -0.193625
      7.26292      2.53816     12.44639         0.317816     -0.025927     -0.215203
      2.96179      5.02079     12.44639        -0.134602      0.245287     -0.218981
      5.82958      5.02079     12.44639         0.124525      0.267496     -0.198083
      8.79137      5.07570     12.42906        -0.024968      0.017765      0.006634
      4.39568      2.53785     12.18689        -0.066082     -0.071613      1.293350
      3.63113      2.25537     13.98979        -0.025358     -0.016703     -0.006462
      2.81536      1.98587     14.86513         0.001736      0.001433     -0.006027
      4.86253      2.72964     14.05013         0.026776      0.003780     -0.056434
    total drift:                               -0.002247      0.010000     -0.036169

  FREE ENERGIE OF THE ION-ELECTRON SYSTEM (eV)
  free  energy   TOTEN  =      -118.56580811 eV

  energy  without entropy=     -118.56580811  energy(sigma->0) =     -118.56580811

 stress matrix after NEB project (eV)
     -7.00488     -0.16736      0.02053
     -0.16736     -7.14127     -0.02196
      0.02053     -0.02196     -0.90504
  FORCES: max atom, RMS     0.062578    0.011233
  FORCE total and by dimension    0.070151    0.056434
  Stress total and by dimension   10.047040    7.141268
|           W    W    AA    RRRRR   N    N  II  N    N   GGGG   !!!           |
|           W    W   A  A   R    R  NN   N  II  NN   N  G    G  !!!           |
|           W    W  A    A  R    R  N N  N  II  N N  N  G       !!!           |
|           W WW W  AAAAAA  RRRRR   N  N N  II  N  N N  G  GGG   !            |
|           WW  WW  A    A  R   R   N   NN  II  N   NN  G    G                |
|           W    W  A    A  R    R  N    N  II  N    N   GGGG   !!!           |
|     Tetrahedron method does not include variations of the Fermi             |
|     occupations, so forces and stress will be inaccurate. We suggest        |
|     using a different smearing scheme ISMEAR = 1 or 2 for metals in         |
|     relaxations.                                                            |

 total charge

# of ion       s       p       d       tot
    1        0.419   0.200   9.179   9.798
    2        0.417   0.203   9.177   9.796
    3        0.415   0.204   9.176   9.796
    4        0.418   0.203   9.177   9.797
    5        0.418   0.202   9.175   9.796
    6        0.417   0.203   9.177   9.797
    7        0.415   0.204   9.177   9.796
    8        0.416   0.203   9.177   9.796
    9        0.412   0.203   9.178   9.794
   10        0.407   0.268   9.165   9.840
   11        0.407   0.268   9.168   9.843
   12        0.408   0.269   9.163   9.839
   13        0.406   0.269   9.168   9.843
   14        0.404   0.270   9.168   9.841
   15        0.403   0.270   9.165   9.837
   16        0.408   0.269   9.162   9.839
   17        0.402   0.270   9.165   9.837
   18        0.402   0.271   9.164   9.837
   19        0.398   0.267   9.166   9.831
   20        0.431   0.300   9.140   9.871
   21        0.434   0.296   9.141   9.872
   22        0.394   0.276   9.165   9.835
   23        0.435   0.297   9.140   9.872
   24        0.395   0.277   9.163   9.835
   25        0.403   0.263   9.169   9.835
   26        0.400   0.266   9.167   9.833
   27        0.395   0.275   9.166   9.836
   28        0.417   0.192   9.181   9.790
   29        0.406   0.217   9.177   9.801
   30        0.420   0.207   9.177   9.803
   31        0.393   0.223   9.181   9.797
   32        0.418   0.202   9.179   9.798
   33        0.421   0.207   9.177   9.805
   34        0.416   0.205   9.177   9.799
   35        0.408   0.198   9.179   9.786
   36        0.410   0.489   4.386   5.285
   37        0.876   1.652   0.000   2.528
   38        1.598   3.510   0.000   5.108
   39        1.594   3.453   0.000   5.047
tot         18.854  17.519 325.313 361.686

 BZINTS: Fermi energy:    0.236240;  407.000000 electrons
         Band energy:-0.164314E+04;  BLOECHL correction:   -0.018390