 vasp.6.2.0 18Jan21 (build Jun 12 2021 23:27:24) complex

 executed on             LinuxIFC date 2022.05.27  06:09:07

 INCAR:
   ISMEAR = -5
   SIGMA = 0.1
   ISPIN = 1
   EDIFF = 1.d-5
   EDIFFG = -0.01
   NSW = 0
   NELM = 150
   ENCUT = 500
   ISIF = 2
   IBRION = 2
   LREAL = Auto
   ALGO = Fast
   ICHARG = 11
   LORBIT = 10
   LCHARG = .F.
   LWAVE = .F.

 POTCAR:    PAW_PBE Cu 22Jun2005
 POTCAR:    PAW_PBE Nb_sv 25May2007
 POTCAR:    PAW_PBE H 15Jun2001
|           W    W    AA    RRRRR   N    N  II  N    N   GGGG   !!!           |
|           W    W   A  A   R    R  NN   N  II  NN   N  G    G  !!!           |
|           W    W  A    A  R    R  N N  N  II  N N  N  G       !!!           |
|           W WW W  AAAAAA  RRRRR   N  N N  II  N  N N  G  GGG   !            |
|           WW  WW  A    A  R   R   N   NN  II  N   NN  G    G                |
|           W    W  A    A  R    R  N    N  II  N    N   GGGG   !!!           |
|     For optimal performance we recommend to set                             |
|       NCORE = 2 up to number-of-cores-per-socket                            |
|     This setting can greatly improve the performance of VASP for DFT.       |
|     The default, NCORE=1 might be grossly inefficient on modern             |
|     multi-core architectures or massively parallel machines. Do your        |
|     Unfortunately you need to use the default for GW and RPA                |
|     calculations (for HF NCORE is supported but not extensively tested      |
|     yet).                                                                   |

 POTCAR:    PAW_PBE Cu 22Jun2005
   VRHFIN =Cu: d10 p1

   TITEL  = PAW_PBE Cu 22Jun2005
   POMASS =   63.546; ZVAL   =   11.000    mass and valenz
   ENMAX  =  295.446; ENMIN  =  221.585 eV

 POTCAR:    PAW_PBE Nb_sv 25May2007
   VRHFIN =Nb: 4p5s4d

   TITEL  = PAW_PBE Nb_sv 25May2007
   POMASS =   92.910; ZVAL   =   13.000    mass and valenz
   ENMAX  =  293.235; ENMIN  =  219.927 eV

 POTCAR:    PAW_PBE H 15Jun2001
   VRHFIN =H: ultrasoft test

   TITEL  = PAW_PBE H 15Jun2001
   POMASS =    1.000; ZVAL   =    1.000    mass and valenz
   ENMAX  =  250.000; ENMIN  =  200.000 eV

 Optimization of the real space projectors (new method)

 maximal supplied QI-value         = 16.25
 optimisation between [QCUT,QGAM] = [ 11.38, 22.75] = [ 36.24,144.96] Ry
 Optimized for a Real-space Cutoff    1.52 Angstroem

   l    n(q)    QCUT    max X(q) W(low)/X(q) W(high)/X(q)  e(spline)
   2      9    11.376     4.610    0.21E-03    0.10E-03    0.26E-06
   2      9    11.376     8.522    0.33E-03    0.16E-03    0.37E-06
   0     10    11.376    51.609    0.62E-04    0.20E-04    0.13E-06
   0     10    11.376    27.747    0.54E-04    0.20E-04    0.13E-06
   1     10    11.376    20.408    0.13E-04    0.99E-04    0.19E-06
   1     10    11.376    13.425    0.12E-04    0.87E-04    0.17E-06
 Optimization of the real space projectors (new method)

[...]

   l    n(q)    QCUT    max X(q) W(low)/X(q) W(high)/X(q)  e(spline)
   0     11    11.450    10.201    0.21E-04    0.96E-05    0.78E-07
   0     11    11.450     8.174    0.31E-04    0.18E-04    0.14E-06
   1     10    11.450     3.488    0.27E-04    0.12E-04    0.96E-07
   1     10    11.450     4.917    0.11E-03    0.11E-03    0.37E-06
   2     10    11.450   153.744    0.37E-03    0.81E-03    0.10E-05
   2     10    11.450   126.342    0.37E-03    0.81E-03    0.10E-05
 Optimization of the real space projectors (new method)

 maximal supplied QI-value         = 34.20
 optimisation between [QCUT,QGAM] = [ 11.29, 22.57] = [ 35.68,142.71] Ry
 Optimized for a Real-space Cutoff    1.16 Angstroem

   l    n(q)    QCUT    max X(q) W(low)/X(q) W(high)/X(q)  e(spline)
   0      8    11.287    19.460    0.40E-03    0.73E-03    0.16E-06
   0      8    11.287    12.209    0.38E-03    0.70E-03    0.15E-06
   1      7    11.287     4.655    0.22E-03    0.25E-04    0.22E-06
  PAW_PBE Cu 22Jun2005                  :
  PAW_PBE Nb_sv 25May2007               :
  PAW_PBE H 15Jun2001                   :

 POSCAR: Cu-Nb-H2
  positions in direct lattice
  velocities in cartesian coordinates
 exchange correlation table for  LEXCH =        8
   RHO(1)=    0.500       N(1)  =     2000
   RHO(2)=  100.500       N(2)  =     4000

 VTST: version 3.2, (02/03/18)

 CHAIN: initializing optimizer

 OPT: Using VASP Conjugate-Gradient optimizer
 CHAIN: Read ICHAIN            0

 POSCAR: Cu-Nb-H2
  positions in direct lattice
  velocities in cartesian coordinates

 ion  position               nearest neighbor table
   1  0.000  0.000  0.252-   7 2.57   3 2.57   4 2.57   2 2.57   6 2.57   8 2.57  12 2.57  10 2.57
                            16 2.57
   2  0.333  0.000  0.252-   8 2.57   9 2.57   5 2.57   1 2.57   3 2.57  11 2.57   4 2.57  10 2.57
                            17 2.57
   3  0.667  0.000  0.252-   1 2.57   7 2.57   6 2.57   9 2.57   2 2.57  12 2.57   5 2.57  18 2.57
                            11 2.57
   4  0.000  0.333  0.252-   5 2.57   6 2.57   1 2.57   7 2.57   2 2.57  13 2.57   9 2.57  10 2.57
                            15 2.57
   5  0.333  0.333  0.252-   4 2.57   2 2.57   7 2.57  13 2.57   8 2.57   6 2.57   3 2.57  11 2.57
                            14 2.57
   6  0.667  0.333  0.252-   4 2.57   9 2.57  15 2.57   3 2.57   1 2.57   8 2.57  14 2.57   5 2.57
                            12 2.57
   7  0.000  0.667  0.252-   1 2.57   3 2.57  16 2.57  18 2.57   4 2.57   5 2.57   8 2.57   9 2.57
                            13 2.57
   8  0.333  0.667  0.252-   9 2.57   2 2.57  17 2.57   6 2.57   1 2.57   7 2.57   5 2.57  14 2.57
                            16 2.57
   9  0.667  0.667  0.252-   8 2.57   6 2.57   2 2.57  17 2.57   3 2.57   7 2.57   4 2.57  15 2.57
                            18 2.57
  10  0.111  0.111  0.351-  26 2.55  19 2.55  11 2.57  12 2.57  13 2.57   1 2.57   2 2.57   4 2.57
                            15 2.57  16 2.57  17 2.57  20 2.57
  11  0.444  0.111  0.351-  20 2.57  21 2.57  10 2.57  13 2.57   2 2.57  17 2.57  14 2.57  12 2.57
                             5 2.57   3 2.57  18 2.57  27 2.57
  12  0.778  0.111  0.351-  19 2.55  25 2.55  15 2.57  10 2.57  14 2.57  18 2.57   3 2.57   1 2.57
                            16 2.57  11 2.57   6 2.57  21 2.57
  13  0.111  0.444  0.351-  23 2.57  20 2.57  16 2.57  18 2.57  10 2.57  11 2.57  14 2.57   5 2.57
                             4 2.57   7 2.57  15 2.57  22 2.57
  14  0.444  0.444  0.351-  21 2.57  23 2.57  15 2.57  17 2.57  12 2.57  16 2.57  13 2.57  11 2.57
                             6 2.57   8 2.57   5 2.57  24 2.57
  15  0.778  0.444  0.351-  19 2.55  14 2.57  17 2.57  12 2.57   6 2.57  18 2.57  10 2.57   9 2.57
                            13 2.57   4 2.57  24 2.57  22 2.57
  16  0.111  0.778  0.351-  25 2.55  26 2.55  18 2.57  13 2.57   7 2.57  14 2.57  17 2.57  12 2.57
                            10 2.57   8 2.57   1 2.57  23 2.57
  17  0.444  0.778  0.351-  26 2.55  14 2.57  15 2.57   8 2.57   9 2.57  11 2.57  16 2.57  18 2.57
                            10 2.57   2 2.57  27 2.57  24 2.57
  18  0.778  0.778  0.351-  25 2.55  16 2.57  13 2.57   7 2.57  15 2.57  12 2.57  17 2.57   9 2.57
                             3 2.57  11 2.57  22 2.57  27 2.57
  19  0.889  0.222  0.448-  12 2.55  10 2.55  15 2.55  25 2.56  26 2.56  21 2.57  20 2.57  22 2.57
                            24 2.57  28 2.57  32 2.58  31 2.58
  20  0.222  0.222  0.449-  23 2.56  21 2.56  11 2.57  13 2.57  10 2.57  26 2.57  19 2.57  27 2.57
                            22 2.57  29 2.59  31 2.59  36 2.66
  21  0.555  0.222  0.449-  20 2.56  23 2.56  14 2.57  11 2.57  12 2.57  19 2.57  25 2.57  24 2.57
                            27 2.57  32 2.59  30 2.59  36 2.66
  22  0.889  0.556  0.449-  24 2.56  27 2.56  18 2.57  15 2.57  23 2.57  20 2.57  19 2.57  25 2.57
                            13 2.57  35 2.57  31 2.57  33 2.57
  23  0.222  0.555  0.449-  20 2.56  21 2.56  13 2.57  14 2.57  16 2.57  25 2.57  26 2.57  22 2.57
                            24 2.57  33 2.59  34 2.59  36 2.66
  24  0.556  0.556  0.449-  22 2.56  27 2.56  15 2.57  17 2.57  21 2.57  23 2.57  19 2.57  26 2.57
                            14 2.57  35 2.57  32 2.57  34 2.57
  25  0.889  0.889  0.448-  12 2.55  16 2.55  18 2.55  19 2.56  26 2.56  21 2.57  23 2.57  22 2.57
                            27 2.57  28 2.57  33 2.58  30 2.58
  26  0.222  0.889  0.448-  10 2.55  16 2.55  17 2.55  25 2.56  19 2.56  20 2.57  23 2.57  27 2.57
                            24 2.57  28 2.57  29 2.58  34 2.58
  27  0.556  0.889  0.449-  24 2.56  22 2.56  17 2.57  18 2.57  20 2.57  21 2.57  26 2.57  25 2.57
                            11 2.57  35 2.57  29 2.57  30 2.57
  28  0.000  0.000  0.547-  33 2.55  30 2.55  31 2.55  29 2.55  32 2.55  34 2.55  25 2.57  19 2.57
                            26 2.57
  29  0.334  0.996  0.548-  34 2.51  35 2.55  28 2.55  27 2.57  26 2.58  20 2.59  30 2.59  36 2.60
                            31 2.60
  30  0.670  0.996  0.548-  33 2.51  35 2.55  28 2.55  27 2.57  25 2.58  21 2.59  29 2.59  36 2.60
                            32 2.60
  31  0.996  0.334  0.548-  32 2.51  35 2.55  28 2.55  22 2.57  19 2.58  20 2.59  33 2.59  36 2.60
                            29 2.60
  32  0.670  0.334  0.548-  31 2.51  35 2.55  28 2.55  24 2.57  19 2.58  21 2.59  34 2.59  36 2.60
                            30 2.60
  33  0.996  0.670  0.548-  30 2.51  35 2.55  28 2.55  22 2.57  25 2.58  23 2.59  31 2.59  36 2.60
                            34 2.60
  34  0.334  0.670  0.548-  29 2.51  35 2.55  28 2.55  24 2.57  26 2.58  23 2.59  32 2.59  36 2.60
                            33 2.60
  35  0.667  0.667  0.548-  34 2.55  32 2.55  29 2.55  30 2.55  33 2.55  31 2.55  24 2.57  27 2.57
                            22 2.57
  36  0.333  0.333  0.553-  31 2.60  29 2.60  33 2.60  32 2.60  34 2.60  30 2.60  23 2.66  20 2.66
                            21 2.66
  37  0.280  0.334  0.646-  38 0.82
  38  0.386  0.334  0.646-  37 0.82

  LATTYP: Found a hexagonal cell.
 ALAT       =     7.6967864036
 C/A-ratio  =     2.7653617908

  Lattice vectors:

 A1 = (  -3.8483927580,  -6.6656128093,   0.0000000000)
 A2 = (   7.6967864037,   0.0000000000,   0.0000000000)
 A3 = (   0.0000000000,   0.0000000000,  21.2843990326)

Analysis of symmetry for initial positions (statically):
 Subroutine PRICEL returns:
 Original cell was already a primitive cell.

 Routine SETGRP: Setting up the symmetry group for a
 hexagonal supercell.

 Subroutine GETGRP returns: Found  2 space group operations
 (whereof  2 operations were pure point group operations)
 out of a pool of 24 trial point group operations.

The static configuration has the point symmetry C_1h.

Analysis of symmetry for dynamics (positions and initial velocities):
 Subroutine PRICEL returns:
 Original cell was already a primitive cell.

[...]

The dynamic configuration has the point symmetry C_1h.

Analysis of constrained symmetry for selective dynamics:
 Subroutine PRICEL returns:
 Original cell was already a primitive cell.

 Routine SETGRP: Setting up the symmetry group for a
 hexagonal supercell.

 Subroutine GETGRP returns: Found  2 space group operations
[...]
     33      -3.8552      2.00000
     34      -3.8401      2.00000
     35      -3.8388      2.00000
     36      -3.8315      2.00000
     37      -3.8215      2.00000
     38      -3.7893      2.00000
     39      -3.7347      2.00000
     40      -3.7018      2.00000
     41      -3.6669      2.00000
     42      -3.5267      2.00000
     43      -3.5184      2.00000
     44      -3.4721      2.00000
     45      -3.4512      2.00000
     46      -3.4345      2.00000
     47      -3.4214      2.00000
     48      -3.4123      2.00000
     49      -3.4055      2.00000
     50      -3.3993      2.00000
     51      -3.2425      2.00000
     52      -3.2129      2.00000
     53      -3.2016      2.00000
     54      -3.1877      2.00000
     55      -3.1353      2.00000
     56      -3.1267      2.00000
     57      -3.1137      2.00000
     58      -3.1110      2.00000
     59      -3.1011      2.00000
     60      -3.0950      2.00000
[...]
    238       6.3220      0.00000
    239       6.3491      0.00000
    240       6.6675      0.00000
    241       6.7590      0.00000
    242       6.8215      0.00000
    243       6.9430      0.00000
    244       6.9823      0.00000
    245       7.1230      0.00000
    246       7.1693      0.00000
    247       7.3054      0.00000
    248       7.4865      0.00000
    249       7.5290      0.00000
    250       7.6432      0.00000
    251       7.6532      0.00000
    252       7.9084      0.00000

 soft charge-density along one line, spin component           1
         0         1         2         3         4         5         6         7         8         9
 total charge-density along one line

------------------------ aborting loop because EDIFF is reached ----------------------------------------

 total charge

# of ion       s       p       d       tot
    1        0.449   0.282   9.190   9.921
    2        0.447   0.286   9.185   9.918
    3        0.447   0.286   9.185   9.918
    4        0.446   0.285   9.187   9.919
    5        0.450   0.286   9.181   9.916
    6        0.446   0.285   9.187   9.919
    7        0.446   0.286   9.186   9.918
    8        0.446   0.286   9.186   9.918
    9        0.449   0.283   9.189   9.920
   10        0.444   0.372   9.175   9.990
   11        0.443   0.364   9.183   9.989
   12        0.444   0.372   9.175   9.990
   13        0.443   0.364   9.182   9.989
   14        0.443   0.364   9.182   9.989
   15        0.439   0.371   9.175   9.986
   16        0.443   0.372   9.174   9.989
   17        0.439   0.371   9.176   9.986
   18        0.439   0.371   9.176   9.986
   19        0.443   0.371   9.178   9.992
   20        0.464   0.391   9.158  10.013
   21        0.464   0.391   9.158  10.013
   22        0.430   0.374   9.179   9.983
   23        0.466   0.389   9.160  10.015
   24        0.430   0.374   9.179   9.983
   25        0.444   0.370   9.178   9.992
   26        0.444   0.370   9.178   9.992
   27        0.431   0.373   9.181   9.985
   28        0.443   0.295   9.182   9.919
   29        0.482   0.317   9.159   9.959
   30        0.482   0.317   9.159   9.959
   31        0.480   0.317   9.161   9.958
   32        0.480   0.317   9.161   9.958
   33        0.482   0.317   9.160   9.958
   34        0.482   0.317   9.160   9.958
   35        0.439   0.299   9.183   9.921
   36        2.198   5.997   2.447  10.642
   37        0.565   0.029   0.000   0.593
   38        0.565   0.029   0.000   0.593
tot         19.116  17.835 323.594 360.546

  FORCE on cell =-STRESS in cart. coord.  units (eV):
  Direction    XX          YY          ZZ          XY          YZ          ZX
  Alpha Z   896.17181   896.17181   896.17181
  Ewald  174796.48073174774.66188************     0.00040     0.12129     0.00019
  Hartree187953.60695187946.44243************     0.00004     0.10475     0.00007
  E(xc)   -2311.14194 -2311.43752 -2315.94750    -0.00032    -0.00036    -0.00004
  Local  ************************376450.98003     0.01953    -0.19367    -0.00072
  n-local  -768.76998  -768.40883  -771.89386     1.42523    -0.04612    -0.01842
  augment  3326.80934  3326.31310  3349.82344    -0.01812     0.00797     0.00032
  Kinetic  3394.31050  3396.48042  3419.89379     0.77850    -0.10028    -0.10720
  Fock        0.00000     0.00000     0.00000     0.00000     0.00000     0.00000
  Total      -7.22811    -7.13511    -1.91907     0.00000    -0.10641     0.00000
  in kB     -10.60534   -10.46889    -2.81573     0.00000    -0.15613     0.00000

 VOLUME and BASIS-vectors are now :
  energy-cutoff  :      500.00
  volume of cell :     1091.97
      direct lattice vectors                 reciprocal lattice vectors
     7.696786404  0.000000000  0.000000000     0.129924354 -0.075011849  0.000000000
     3.848392758  6.665612809  0.000000000     0.000000000  0.150023716  0.000000000
     0.000000000  0.000000000 21.284399033     0.000000000  0.000000000  0.046982769

  length of vectors
     7.696786404  7.696786404 21.284399033     0.150023716  0.150023716  0.046982769

 FORCES acting on ions
    electron-ion (+dipol)            ewald-force                    non-local-force                 convergence-correction
   -.404E-04 0.605E-01 0.350E+04   0.578E-04 -.133E-02 -.350E+04   0.178E-08 -.267E-01 -.249E+01   -.335E-03 -.366E-01 0.785E-01
   -.609E+00 -.120E+00 0.350E+04   0.457E+00 0.483E-01 -.350E+04   0.160E+00 0.194E+00 -.180E+01   0.151E-02 -.109E+00 0.110E+00
   0.609E+00 -.120E+00 0.350E+04   -.457E+00 0.482E-01 -.350E+04   -.160E+00 0.194E+00 -.180E+01   -.671E-03 -.107E+00 0.111E+00
   -.388E+00 -.440E+00 0.350E+04   0.271E+00 0.371E+00 -.350E+04   0.221E+00 -.466E-02 -.188E+01   -.799E-01 0.731E-01 0.112E+00
   -.617E-04 -.813E-01 0.350E+04   0.116E-03 -.171E-03 -.350E+04   -.128E-10 0.193E-03 -.123E+01   0.122E-01 0.759E-01 0.285E+00
   0.388E+00 -.440E+00 0.350E+04   -.272E+00 0.371E+00 -.350E+04   -.221E+00 -.466E-02 -.188E+01   0.782E-01 0.743E-01 0.113E+00
   0.497E-01 0.584E+00 0.350E+04   -.186E+00 -.419E+00 -.350E+04   0.160E+00 -.201E+00 -.186E+01   -.213E-01 0.222E-01 0.863E-01
   -.496E-01 0.584E+00 0.350E+04   0.185E+00 -.419E+00 -.350E+04   -.160E+00 -.201E+00 -.186E+01   0.248E-01 0.207E-01 0.866E-01
   -.143E-03 -.172E-01 0.350E+04   0.263E-03 0.151E-02 -.350E+04   -.234E-08 0.351E-01 -.219E+01   -.133E-01 -.127E-01 0.478E-01
   -.326E+01 -.186E+01 0.120E+04   0.372E+01 0.213E+01 -.120E+04   -.419E+00 -.256E+00 -.106E+01   -.287E-01 -.135E-01 -.113E+00
   -.905E-04 -.397E+00 0.120E+04   0.190E-03 0.631E-01 -.120E+04   -.182E-07 0.273E+00 0.366E-02   0.118E-01 0.353E-01 -.113E+00
   0.326E+01 -.186E+01 0.120E+04   -.372E+01 0.213E+01 -.120E+04   0.419E+00 -.256E+00 -.106E+01   0.267E-01 -.114E-01 -.113E+00
   -.384E+00 0.111E+00 0.120E+04   0.651E-01 -.308E-01 -.120E+04   0.269E+00 -.123E+00 -.809E-01   0.376E-01 0.604E-01 -.126E+00
   0.385E+00 0.111E+00 0.120E+04   -.654E-01 -.308E-01 -.120E+04   -.269E+00 -.123E+00 -.809E-01   -.132E-01 0.595E-01 -.126E+00
   -.142E-03 -.329E+01 0.120E+04   0.297E-03 0.308E+01 -.120E+04   -.888E-08 0.133E+00 -.109E+01   -.407E-02 0.640E-01 -.165E+00
   -.916E-04 0.385E+01 0.120E+04   0.186E-03 -.429E+01 -.120E+04   -.320E-07 0.481E+00 -.927E+00   -.152E-03 -.484E-01 -.953E-01
   -.284E+01 0.166E+01 0.120E+04   0.266E+01 -.153E+01 -.120E+04   0.147E+00 -.705E-01 -.100E+01   0.288E-01 -.642E-01 -.153E+00
   0.284E+01 0.166E+01 0.120E+04   -.266E+01 -.153E+01 -.120E+04   -.147E+00 -.705E-01 -.100E+01   -.281E-01 -.612E-01 -.152E+00
   -.653E-04 -.274E+01 -.111E+04   0.648E-04 0.282E+01 0.111E+04   0.310E-08 -.466E-01 0.958E+00   -.234E-02 -.333E-01 -.213E+00
   0.418E+01 0.234E+01 -.112E+04   -.257E+01 -.156E+01 0.112E+04   -.150E+01 -.739E+00 -.114E+01   -.159E+00 -.676E-01 -.343E+00
   -.418E+01 0.234E+01 -.112E+04   0.257E+01 -.156E+01 0.112E+04   0.150E+01 -.739E+00 -.114E+01   0.183E+00 -.658E-01 -.343E+00
   -.175E+01 0.940E+00 -.112E+04   0.135E+01 -.701E+00 0.112E+04   0.457E+00 -.290E+00 0.622E+00   -.447E-01 0.381E-01 -.242E+00
   -.582E-04 -.485E+01 -.112E+04   0.142E-03 0.307E+01 0.112E+04   -.112E-06 0.169E+01 -.113E+01   0.123E-01 0.193E+00 -.354E+00
   0.175E+01 0.940E+00 -.112E+04   -.135E+01 -.701E+00 0.112E+04   -.457E+00 -.290E+00 0.622E+00   0.419E-01 0.363E-01 -.242E+00
   0.243E+01 0.142E+01 -.111E+04   -.249E+01 -.146E+01 0.111E+04   0.268E-01 0.409E-01 0.103E+01   0.269E-01 0.414E-02 -.164E+00
   -.243E+01 0.142E+01 -.111E+04   0.249E+01 -.146E+01 0.111E+04   -.268E-01 0.409E-01 0.103E+01   -.264E-01 0.155E-02 -.163E+00
   -.132E-03 -.194E+01 -.112E+04   0.243E-03 0.155E+01 0.112E+04   -.331E-07 0.497E+00 0.650E+00   -.711E-03 -.842E-01 -.213E+00
   -.295E-04 0.283E+00 -.343E+04   0.370E-04 -.335E+00 0.343E+04   -.543E-08 0.815E-01 0.200E+01   0.126E-02 -.315E-01 -.239E-01
   0.130E+02 0.143E+02 -.343E+04   -.122E+02 -.134E+02 0.343E+04   -.690E+00 -.730E+00 0.319E+00   -.122E+00 -.152E+00 -.840E-01
   -.130E+02 0.143E+02 -.343E+04   0.122E+02 -.134E+02 0.343E+04   0.690E+00 -.730E+00 0.319E+00   0.101E+00 -.149E+00 -.843E-01
   0.193E+02 0.448E+01 -.343E+04   -.180E+02 -.426E+01 0.343E+04   -.107E+01 -.182E+00 0.397E+00   -.142E+00 -.253E-01 -.611E-01
   -.193E+02 0.448E+01 -.343E+04   0.180E+02 -.426E+01 0.343E+04   0.107E+01 -.182E+00 0.397E+00   0.119E+00 -.243E-01 -.623E-01
   0.529E+01 -.188E+02 -.343E+04   -.490E+01 0.177E+02 0.343E+04   -.347E+00 0.930E+00 0.409E+00   -.766E-01 0.141E+00 -.840E-01
   -.529E+01 -.188E+02 -.343E+04   0.490E+01 0.177E+02 0.343E+04   0.347E+00 0.930E+00 0.409E+00   0.581E-01 0.140E+00 -.849E-01
   -.146E-03 -.309E+00 -.345E+04   0.258E-03 0.373E+00 0.345E+04   0.480E-08 -.721E-01 0.257E+01   -.117E-01 0.169E-01 0.164E-02
   0.123E-03 0.640E-01 -.406E+04   0.151E-03 -.165E+00 0.406E+04   0.438E-10 -.657E-03 0.262E+01   0.824E-02 0.285E-01 -.128E+00
   0.210E+02 -.248E-01 -.366E+03   -.249E+02 0.310E-01 0.367E+03   0.398E+01 -.139E-02 -.898E+00   -.845E-02 0.756E-03 0.197E-01
   -.210E+02 -.248E-01 -.366E+03   0.249E+02 0.310E-01 0.367E+03   -.398E+01 -.139E-02 -.898E+00   0.864E-02 0.764E-03 0.196E-01
   -.355E-04 -.168E+00 0.171E+02   0.160E-12 0.963E-13 -.847E-11   -.119E-07 0.179E+00 -.141E+02   -.177E-02 -.106E-01 -.297E+01

 POSITION                                       TOTAL-FORCE (eV/Angst)
      0.00000      0.00000      5.37156         0.000000     -0.004096     -0.039460
      2.56560      0.00000      5.37156         0.009650      0.013757      0.056156
      5.13119      0.00000      5.37156        -0.009650      0.013757      0.056156
      1.28280      2.22187      5.37156         0.025870     -0.000121      0.047246
      3.84839      2.22187      5.37156         0.000000     -0.005417      0.052002
      6.41399      2.22187      5.37156        -0.025870     -0.000121      0.047246
      2.56560      4.44374      5.37156         0.000609     -0.014722      0.057494
      5.13119      4.44374      5.37156        -0.000609     -0.014722      0.057494
      7.69679      4.44374      5.37156        -0.000000      0.006784      0.013020
      1.28280      0.74062      7.46636         0.005132      0.004321     -0.098070
      3.84839      0.74062      7.46636         0.000000     -0.025638     -0.029053
      6.41399      0.74062      7.46636        -0.005132      0.004321     -0.098070
      2.56560      2.96249      7.46636        -0.025055      0.017072     -0.038107
      5.13119      2.96249      7.46636         0.025055      0.017072     -0.038107
      7.69679      2.96249      7.46636         0.000000     -0.012738     -0.034852
      3.84839      5.18437      7.46636        -0.000000      0.000435     -0.091934
      6.41399      5.18437      7.46636        -0.004607     -0.000491     -0.021619
      8.97958      5.18437      7.46636         0.004607     -0.000491     -0.021619
      7.69679      1.47855      9.54201        -0.000000      0.003417      0.051352
      2.56706      1.48209      9.56134        -0.067759     -0.024866     -0.110748
      5.12972      1.48209      9.56134         0.067759     -0.024866     -0.110748
      8.97774      3.70418      9.56312         0.008625     -0.013669      0.014564
      3.84839      3.70142      9.56134        -0.000000      0.102116     -0.113622
      6.41583      3.70418      9.56312        -0.008625     -0.013669      0.014564
     10.26471      5.92634      9.54201         0.001046      0.004323      0.022796
      5.12886      5.92634      9.54201        -0.001046      0.004323      0.022796
      7.69679      5.92286      9.56312        -0.000000      0.027888      0.015030
      0.00000      0.00000     11.64396         0.000000     -0.001613      0.004414
      6.40056      6.63873     11.66709        -0.007740     -0.010371      0.008258
      8.99302      6.63873     11.66709         0.007740     -0.010371      0.008258
      8.94959      2.22368     11.66709         0.034869      0.006780      0.093110
      6.44399      2.22368     11.66709        -0.034869      0.006780      0.093110
     10.24582      4.46882     11.66709        -0.019728     -0.000861     -0.005570
      5.14776      4.46882     11.66709         0.019728     -0.000861     -0.005570
      7.69679      4.44374     11.66626        -0.000000      0.008656     -0.000182
      3.84839      2.22187     11.77465         0.000000     -0.073302      0.166514
      3.43746      2.22582     13.75006        -0.017116      0.005603     -0.022125
      4.25932      2.22582     13.75006         0.017116      0.005603     -0.022125
    total drift:                               -0.001803      0.000234     -0.016233

  FREE ENERGIE OF THE ION-ELECTRON SYSTEM (eV)
  free  energy   TOTEN  =      -138.13949824 eV

  energy  without entropy=     -138.13949824  energy(sigma->0) =     -138.13949824

 stress matrix after NEB project (eV)
     -7.22811      0.00000      0.00000
      0.00000     -7.13511     -0.10641
      0.00000     -0.10641     -1.91907
  FORCES: max atom, RMS     0.028529    0.006545
  FORCE total and by dimension    0.040345    0.022125
  Stress total and by dimension   10.337357    7.228114
|           W    W    AA    RRRRR   N    N  II  N    N   GGGG   !!!           |
|           W    W   A  A   R    R  NN   N  II  NN   N  G    G  !!!           |
|           W    W  A    A  R    R  N N  N  II  N N  N  G       !!!           |
|           W WW W  AAAAAA  RRRRR   N  N N  II  N  N N  G  GGG   !            |
|           WW  WW  A    A  R   R   N   NN  II  N   NN  G    G                |
|           W    W  A    A  R    R  N    N  II  N    N   GGGG   !!!           |
|     Tetrahedron method does not include variations of the Fermi             |
|     occupations, so forces and stress will be inaccurate. We suggest        |
|     using a different smearing scheme ISMEAR = 1 or 2 for metals in         |
|     relaxations.                                                            |

 total charge

# of ion       s       p       d       tot
    1        0.449   0.282   9.190   9.921
    2        0.447   0.286   9.185   9.918
    3        0.447   0.286   9.185   9.918
    4        0.446   0.285   9.187   9.919
    5        0.450   0.286   9.181   9.916
    6        0.446   0.285   9.187   9.919
    7        0.446   0.286   9.186   9.918
    8        0.446   0.286   9.186   9.918
    9        0.449   0.283   9.189   9.920
   10        0.444   0.372   9.175   9.990
   11        0.443   0.364   9.183   9.989
   12        0.444   0.372   9.175   9.990
   13        0.443   0.364   9.182   9.989
   14        0.443   0.364   9.182   9.989
   15        0.439   0.371   9.175   9.986
   16        0.443   0.372   9.174   9.989
   17        0.439   0.371   9.176   9.986
   18        0.439   0.371   9.176   9.986
   19        0.443   0.371   9.178   9.992
   20        0.464   0.391   9.158  10.013
   21        0.464   0.391   9.158  10.013
   22        0.430   0.374   9.179   9.983
   23        0.466   0.389   9.160  10.015
   24        0.430   0.374   9.179   9.983
   25        0.444   0.370   9.178   9.992
   26        0.444   0.370   9.178   9.992
   27        0.431   0.373   9.181   9.985
   28        0.443   0.295   9.182   9.919
   29        0.482   0.317   9.159   9.959
   30        0.482   0.317   9.159   9.959
   31        0.480   0.317   9.161   9.958
   32        0.480   0.317   9.161   9.958
   33        0.482   0.317   9.160   9.958
   34        0.482   0.317   9.160   9.958
   35        0.439   0.299   9.183   9.921
   36        2.198   5.997   2.447  10.642
   37        0.565   0.029   0.000   0.593
   38        0.565   0.029   0.000   0.593
tot         19.116  17.835 323.594 360.546

 BZINTS: Fermi energy:    0.296130;  400.000000 electrons
         Band energy:-0.131096E+04;  BLOECHL correction:   -0.023154