 vasp.6.2.0 18Jan21 (build Jun 12 2021 23:27:24) complex

 executed on             LinuxIFC date 2022.05.26  20:06:51

 INCAR:
   ISMEAR = -5
   SIGMA = 0.1
   ISPIN = 1
   EDIFF = 1.d-5
   EDIFFG = -0.01
   NSW = 0
   NELM = 150
   ENCUT = 500
   ISIF = 2
   IBRION = 2
   LREAL = Auto
   ALGO = Fast
   ICHARG = 11
   LORBIT = 10
   LCHARG = .F.
   LWAVE = .F.

 POTCAR:    PAW_PBE Cu 22Jun2005
 POTCAR:    PAW_PBE Ta 17Jan2003
 POTCAR:    PAW_PBE H 15Jun2001
|           W    W    AA    RRRRR   N    N  II  N    N   GGGG   !!!           |
|           W    W   A  A   R    R  NN   N  II  NN   N  G    G  !!!           |
|           W    W  A    A  R    R  N N  N  II  N N  N  G       !!!           |
|           W WW W  AAAAAA  RRRRR   N  N N  II  N  N N  G  GGG   !            |
|           WW  WW  A    A  R   R   N   NN  II  N   NN  G    G                |
|           W    W  A    A  R    R  N    N  II  N    N   GGGG   !!!           |
|     For optimal performance we recommend to set                             |
|       NCORE = 2 up to number-of-cores-per-socket                            |
|     This setting can greatly improve the performance of VASP for DFT.       |
|     The default, NCORE=1 might be grossly inefficient on modern             |
|     multi-core architectures or massively parallel machines. Do your        |
|     Unfortunately you need to use the default for GW and RPA                |
|     calculations (for HF NCORE is supported but not extensively tested      |
|     yet).                                                                   |

 POTCAR:    PAW_PBE Cu 22Jun2005
   VRHFIN =Cu: d10 p1

   TITEL  = PAW_PBE Cu 22Jun2005
   POMASS =   63.546; ZVAL   =   11.000    mass and valenz
   ENMAX  =  295.446; ENMIN  =  221.585 eV

 POTCAR:    PAW_PBE Ta 17Jan2003
   VRHFIN =Ta:  6s5d

   TITEL  = PAW_PBE Ta 17Jan2003
   POMASS =  180.948; ZVAL   =    5.000    mass and valenz
   ENMAX  =  223.667; ENMIN  =  167.750 eV

 POTCAR:    PAW_PBE H 15Jun2001
   VRHFIN =H: ultrasoft test

   TITEL  = PAW_PBE H 15Jun2001
   POMASS =    1.000; ZVAL   =    1.000    mass and valenz
   ENMAX  =  250.000; ENMIN  =  200.000 eV

 Optimization of the real space projectors (new method)

 maximal supplied QI-value         = 16.25
 optimisation between [QCUT,QGAM] = [ 11.38, 22.75] = [ 36.24,144.96] Ry
 Optimized for a Real-space Cutoff    1.52 Angstroem

   l    n(q)    QCUT    max X(q) W(low)/X(q) W(high)/X(q)  e(spline)
   2      9    11.376     4.610    0.21E-03    0.10E-03    0.26E-06
   2      9    11.376     8.522    0.33E-03    0.16E-03    0.37E-06
   0     10    11.376    51.609    0.62E-04    0.20E-04    0.13E-06
   0     10    11.376    27.747    0.54E-04    0.20E-04    0.13E-06
   1     10    11.376    20.408    0.13E-04    0.99E-04    0.19E-06
   1     10    11.376    13.425    0.12E-04    0.87E-04    0.17E-06
 Optimization of the real space projectors (new method)

[...]

   l    n(q)    QCUT    max X(q) W(low)/X(q) W(high)/X(q)  e(spline)
   2     10    11.437    62.315    0.14E-03    0.26E-03    0.80E-06
   2     10    11.437    52.185    0.14E-03    0.26E-03    0.80E-06
   0     11    11.437   103.837    0.25E-04    0.17E-04    0.84E-07
   0     11    11.437    59.728    0.20E-04    0.15E-04    0.73E-07
   1     11    11.437    13.958    0.47E-03    0.12E-03    0.89E-06
   1     11    11.437     8.441    0.33E-03    0.88E-04    0.61E-06
 Optimization of the real space projectors (new method)

 maximal supplied QI-value         = 34.20
 optimisation between [QCUT,QGAM] = [ 11.29, 22.57] = [ 35.68,142.71] Ry
 Optimized for a Real-space Cutoff    1.16 Angstroem

   l    n(q)    QCUT    max X(q) W(low)/X(q) W(high)/X(q)  e(spline)
   0      8    11.287    19.460    0.40E-03    0.73E-03    0.16E-06
   0      8    11.287    12.209    0.38E-03    0.70E-03    0.15E-06
   1      7    11.287     4.655    0.22E-03    0.25E-04    0.22E-06
  PAW_PBE Cu 22Jun2005                  :
  PAW_PBE Ta 17Jan2003                  :
  PAW_PBE H 15Jun2001                   :

 POSCAR: Cu-Ta-H
  positions in direct lattice
  velocities in cartesian coordinates
 exchange correlation table for  LEXCH =        8
   RHO(1)=    0.500       N(1)  =     2000
   RHO(2)=  100.500       N(2)  =     4000

 VTST: version 3.2, (02/03/18)

 CHAIN: initializing optimizer

 OPT: Using VASP Conjugate-Gradient optimizer
 CHAIN: Read ICHAIN            0

 POSCAR: Cu-Ta-H
  positions in direct lattice
  velocities in cartesian coordinates

 ion  position               nearest neighbor table
   1  0.000  0.000  0.252-   7 2.57   3 2.57   4 2.57   2 2.57   6 2.57   8 2.57  12 2.57  10 2.57
                            16 2.57
   2  0.333  0.000  0.252-   8 2.57   9 2.57   5 2.57   1 2.57   3 2.57  11 2.57   4 2.57  10 2.57
                            17 2.57
   3  0.667  0.000  0.252-   1 2.57   7 2.57   6 2.57   9 2.57   2 2.57  12 2.57   5 2.57  18 2.57
                            11 2.57
   4  0.000  0.333  0.252-   5 2.57   6 2.57   1 2.57   7 2.57   2 2.57  13 2.57   9 2.57  10 2.57
                            15 2.57
   5  0.333  0.333  0.252-   4 2.57   2 2.57   7 2.57  13 2.57   8 2.57   6 2.57   3 2.57  11 2.57
                            14 2.57
   6  0.667  0.333  0.252-   4 2.57   9 2.57  15 2.57   3 2.57   1 2.57   8 2.57  14 2.57   5 2.57
                            12 2.57
   7  0.000  0.667  0.252-   1 2.57   3 2.57  16 2.57  18 2.57   4 2.57   5 2.57   8 2.57   9 2.57
                            13 2.57
   8  0.333  0.667  0.252-   9 2.57   2 2.57  17 2.57   6 2.57   1 2.57   7 2.57   5 2.57  14 2.57
                            16 2.57
   9  0.667  0.667  0.252-   8 2.57   6 2.57   2 2.57  17 2.57   3 2.57   7 2.57   4 2.57  15 2.57
                            18 2.57
  10  0.111  0.111  0.351-  20 2.55  26 2.56  19 2.56  11 2.57  12 2.57  13 2.57   1 2.57   2 2.57
                             4 2.57  15 2.57  16 2.57  17 2.57
  11  0.444  0.111  0.351-  20 2.56  21 2.56  10 2.57  13 2.57   2 2.57  17 2.57  14 2.57  12 2.57
                             5 2.57   3 2.57  18 2.57  27 2.57
  12  0.778  0.111  0.351-  21 2.55  19 2.56  25 2.56  15 2.57  10 2.57  14 2.57  18 2.57   3 2.57
                             1 2.57  16 2.57  11 2.57   6 2.57
  13  0.111  0.444  0.351-  23 2.56  20 2.56  16 2.57  18 2.57  10 2.57  11 2.57  14 2.57   5 2.57
                             4 2.57   7 2.57  15 2.57  22 2.57
  14  0.444  0.444  0.351-  21 2.56  23 2.56  15 2.57  17 2.57  12 2.57  16 2.57  13 2.57  11 2.57
                             6 2.57   8 2.57   5 2.57  24 2.57
  15  0.778  0.444  0.351-  19 2.56  14 2.57  17 2.57  12 2.57   6 2.57  18 2.57  10 2.57   9 2.57
                            13 2.57   4 2.57  24 2.57  22 2.57
  16  0.111  0.778  0.351-  23 2.55  25 2.56  26 2.56  18 2.57  13 2.57   7 2.57  14 2.57  17 2.57
                            12 2.57  10 2.57   8 2.57   1 2.57
  17  0.444  0.778  0.351-  26 2.56  14 2.57  15 2.57   8 2.57   9 2.57  11 2.57  16 2.57  18 2.57
                            10 2.57   2 2.57  27 2.57  24 2.57
  18  0.778  0.778  0.351-  25 2.56  16 2.57  13 2.57   7 2.57  15 2.57  12 2.57  17 2.57   9 2.57
                             3 2.57  11 2.57  22 2.57  27 2.57
  19  0.889  0.222  0.449-  12 2.56  10 2.56  15 2.56  21 2.56  20 2.56  25 2.56  26 2.56  22 2.57
                            24 2.57  28 2.57  32 2.59  31 2.59
  20  0.222  0.222  0.449-  10 2.55  11 2.56  13 2.56  26 2.56  19 2.56  27 2.57  22 2.57  23 2.58
                            21 2.58  36 2.61  29 2.61  31 2.61
  21  0.557  0.222  0.449-  12 2.55  14 2.56  11 2.56  19 2.56  25 2.56  24 2.57  27 2.57  20 2.58
                            23 2.58  36 2.61  32 2.61  30 2.61
  22  0.888  0.556  0.450-  24 2.56  27 2.56  19 2.57  25 2.57  23 2.57  20 2.57  18 2.57  15 2.57
                            35 2.57  13 2.57  31 2.59  33 2.59
  23  0.222  0.557  0.449-  16 2.55  13 2.56  14 2.56  25 2.56  26 2.56  22 2.57  24 2.57  20 2.58
                            21 2.58  36 2.61  33 2.61  34 2.61
  24  0.556  0.556  0.450-  22 2.56  27 2.56  19 2.57  26 2.57  21 2.57  23 2.57  15 2.57  17 2.57
                            35 2.57  14 2.57  32 2.59  34 2.59
  25  0.889  0.889  0.449-  12 2.56  16 2.56  18 2.56  21 2.56  23 2.56  19 2.56  26 2.56  22 2.57
                            27 2.57  28 2.57  33 2.59  30 2.59
  26  0.222  0.889  0.449-  10 2.56  16 2.56  17 2.56  20 2.56  23 2.56  25 2.56  19 2.56  27 2.57
                            24 2.57  28 2.57  29 2.59  34 2.59
  27  0.556  0.888  0.450-  24 2.56  22 2.56  26 2.57  25 2.57  20 2.57  21 2.57  17 2.57  18 2.57
                            35 2.57  11 2.57  29 2.59  30 2.59
  28  0.000  0.000  0.548-  33 2.55  30 2.55  31 2.55  29 2.55  32 2.55  34 2.55  25 2.57  19 2.57
                            26 2.57
  29  0.333  0.997  0.549-  34 2.52  35 2.55  28 2.55  31 2.59  27 2.59  36 2.59  30 2.59  26 2.59
                            20 2.61
  30  0.670  0.997  0.549-  33 2.52  35 2.55  28 2.55  32 2.59  27 2.59  36 2.59  29 2.59  25 2.59
                            21 2.61
  31  0.997  0.333  0.549-  32 2.52  35 2.55  28 2.55  29 2.59  22 2.59  36 2.59  33 2.59  19 2.59
                            20 2.61
  32  0.670  0.333  0.549-  31 2.52  35 2.55  28 2.55  30 2.59  24 2.59  36 2.59  34 2.59  19 2.59
                            21 2.61
  33  0.997  0.670  0.549-  30 2.52  35 2.55  28 2.55  34 2.59  22 2.59  36 2.59  31 2.59  25 2.59
                            23 2.61
  34  0.333  0.670  0.549-  29 2.52  35 2.55  28 2.55  33 2.59  24 2.59  36 2.59  32 2.59  26 2.59
                            23 2.61
  35  0.667  0.667  0.549-  34 2.55  32 2.55  29 2.55  30 2.55  33 2.55  31 2.55  24 2.57  27 2.57
                            22 2.57
  36  0.333  0.333  0.549-  37 1.79  31 2.59  29 2.59  33 2.59  34 2.59  32 2.59  30 2.59  23 2.61
                            20 2.61  21 2.61
  37  0.333  0.333  0.634-  36 1.79

  LATTYP: Found a hexagonal cell.
 ALAT       =     7.6967864036
 C/A-ratio  =     2.7653617908

  Lattice vectors:

 A1 = (  -3.8483927580,  -6.6656128093,   0.0000000000)
 A2 = (   7.6967864037,   0.0000000000,   0.0000000000)
 A3 = (   0.0000000000,   0.0000000000,  21.2843990326)

Analysis of symmetry for initial positions (statically):
 Subroutine PRICEL returns:
 Original cell was already a primitive cell.

 Routine SETGRP: Setting up the symmetry group for a
 hexagonal supercell.

 Subroutine GETGRP returns: Found  6 space group operations
 (whereof  6 operations were pure point group operations)
 out of a pool of 24 trial point group operations.

The static configuration has the point symmetry C_3v.

Analysis of symmetry for dynamics (positions and initial velocities):
 Subroutine PRICEL returns:
 Original cell was already a primitive cell.

[...]

The dynamic configuration has the point symmetry C_3v.

Analysis of constrained symmetry for selective dynamics:
 Subroutine PRICEL returns:
 Original cell was already a primitive cell.

 Routine SETGRP: Setting up the symmetry group for a
 hexagonal supercell.

 Subroutine GETGRP returns: Found  6 space group operations
 (whereof  6 operations were pure point group operations)
[...]
     24      -4.3296      2.00000
     25      -4.2666      2.00000
     26      -4.2431      2.00000
     27      -4.2324      2.00000
     28      -4.1921      2.00000
     29      -4.1666      2.00000
     30      -4.1622      2.00000
     31      -4.1519      2.00000
     32      -4.1363      2.00000
     33      -4.1308      2.00000
     34      -4.0984      2.00000
     35      -4.0211      2.00000
     36      -3.9966      2.00000
     37      -3.8743      2.00000
     38      -3.8473      2.00000
     39      -3.7929      2.00000
     40      -3.7792      2.00000
     41      -3.7652      2.00000
     42      -3.7485      2.00000
     43      -3.7339      2.00000
     44      -3.7229      2.00000
     45      -3.7191      2.00000
     46      -3.5787      2.00000
     47      -3.5432      2.00000
     48      -3.5344      2.00000
     49      -3.5124      2.00000
     50      -3.4814      2.00000
     51      -3.4682      2.00000
     52      -3.4479      2.00000
     53      -3.4381      2.00000
     54      -3.4212      2.00000
     55      -3.4152      2.00000
     56      -3.3874      2.00000
     57      -3.3788      2.00000
     58      -3.3768      2.00000
     59      -3.3626      2.00000
     60      -3.3475      2.00000
[...]
    238       6.9517      0.00000
    239       6.9644      0.00000
    240       7.0365      0.00000
    241       7.0986      0.00000
    242       7.2241      0.00000
    243       7.3091      0.00000
    244       7.3564      0.00000
    245       7.4099      0.00000
    246       7.4882      0.00000
    247       7.6421      0.00000
    248       7.7453      0.00000
    249       7.9543      0.00000
    250       8.0793      0.00000
    251       8.1812      0.00000
    252       8.4642      0.00000

 soft charge-density along one line, spin component           1
         0         1         2         3         4         5         6         7         8         9
 total charge-density along one line

------------------------ aborting loop because EDIFF is reached ----------------------------------------

 total charge

# of ion       s       p       d       tot
    1        0.451   0.281   9.190   9.921
    2        0.447   0.286   9.186   9.919
    3        0.447   0.286   9.186   9.919
    4        0.447   0.286   9.186   9.919
    5        0.450   0.285   9.182   9.917
    6        0.447   0.286   9.186   9.919
    7        0.447   0.286   9.186   9.919
    8        0.447   0.286   9.186   9.919
    9        0.450   0.284   9.187   9.920
   10        0.444   0.370   9.176   9.990
   11        0.441   0.366   9.182   9.988
   12        0.444   0.370   9.176   9.990
   13        0.441   0.366   9.182   9.988
   14        0.441   0.366   9.182   9.988
   15        0.438   0.369   9.177   9.984
   16        0.444   0.370   9.176   9.990
   17        0.438   0.369   9.177   9.984
   18        0.438   0.369   9.177   9.984
   19        0.442   0.367   9.180   9.989
   20        0.471   0.394   9.160  10.025
   21        0.471   0.394   9.160  10.025
   22        0.430   0.372   9.178   9.980
   23        0.471   0.394   9.160  10.025
   24        0.430   0.372   9.178   9.980
   25        0.442   0.367   9.180   9.989
   26        0.442   0.367   9.180   9.989
   27        0.430   0.372   9.178   9.980
   28        0.446   0.294   9.179   9.919
   29        0.483   0.316   9.157   9.956
   30        0.483   0.316   9.157   9.956
   31        0.483   0.316   9.157   9.956
   32        0.483   0.316   9.157   9.956
   33        0.483   0.316   9.157   9.956
   34        0.483   0.316   9.157   9.956
   35        0.440   0.298   9.179   9.917
   36        0.755   0.705   3.159   4.618
   37        0.532   0.008   0.000   0.540
tot         17.098  12.476 324.298 353.872

  FORCE on cell =-STRESS in cart. coord.  units (eV):
  Direction    XX          YY          ZZ          XY          YZ          ZX
  Alpha Z   873.79440   873.79440   873.79440
  Ewald  169579.91200169579.91167************     0.00034     0.00012     0.00014
  Hartree182312.27112182312.27115************     0.00001     0.00006     0.00005
  E(xc)   -2271.17451 -2271.17402 -2276.18220    -0.00043    -0.00003    -0.00005
  Local  ************************364803.67975     0.01845    -0.00057    -0.00087
  n-local  -763.67142  -750.07142  -769.12684     7.12648    -0.27561     0.28131
  augment  3310.07866  3310.09879  3333.78677    -0.01742     0.00030     0.00047
  Kinetic  3187.66921  3189.60187  3222.90744     1.71012     1.88112    -1.40849
  Fock        0.00000     0.00000     0.00000     0.00000     0.00000     0.00000
  Total      -5.77478    -5.77479    -0.60212     0.00000    -0.00000    -0.00000
  in kB      -8.47297    -8.47297    -0.88346     0.00000    -0.00000    -0.00000

 VOLUME and BASIS-vectors are now :
  energy-cutoff  :      500.00
  volume of cell :     1091.97
      direct lattice vectors                 reciprocal lattice vectors
     7.696786404  0.000000000  0.000000000     0.129924354 -0.075011849  0.000000000
     3.848392758  6.665612809  0.000000000     0.000000000  0.150023716  0.000000000
     0.000000000  0.000000000 21.284399033     0.000000000  0.000000000  0.046982769

  length of vectors
     7.696786404  7.696786404 21.284399033     0.150023716  0.150023716  0.046982769

 FORCES acting on ions
    electron-ion (+dipol)            ewald-force                    non-local-force                 convergence-correction
   -.415E-04 0.215E-06 0.343E+04   0.582E-04 -.425E-05 -.343E+04   0.675E-17 -.343E-18 -.229E+01   -.363E-03 -.175E-03 0.420E-01
   -.879E+00 -.859E+00 0.343E+04   0.871E+00 0.727E+00 -.343E+04   0.268E-01 0.168E+00 -.196E+01   -.826E-02 -.345E-01 0.155E+00
   0.879E+00 -.859E+00 0.343E+04   -.872E+00 0.727E+00 -.343E+04   -.268E-01 0.168E+00 -.196E+01   0.913E-02 -.321E-01 0.156E+00
   -.118E+01 -.332E+00 0.343E+04   0.107E+01 0.391E+00 -.343E+04   0.159E+00 -.610E-01 -.196E+01   -.340E-01 0.101E-01 0.156E+00
   -.612E-04 -.310E-05 0.343E+04   0.116E-03 -.101E-04 -.343E+04   0.878E-17 0.178E-17 -.155E+01   0.121E-01 0.742E-02 0.209E+00
   0.118E+01 -.332E+00 0.343E+04   -.107E+01 0.391E+00 -.343E+04   -.159E+00 -.610E-01 -.196E+01   0.325E-01 0.112E-01 0.157E+00
   -.304E+00 0.119E+01 0.343E+04   0.194E+00 -.112E+01 -.343E+04   0.132E+00 -.107E+00 -.196E+01   -.233E-01 0.239E-01 0.157E+00
   0.304E+00 0.119E+01 0.343E+04   -.194E+00 -.112E+01 -.343E+04   -.132E+00 -.107E+00 -.196E+01   0.266E-01 0.225E-01 0.157E+00
   -.143E-03 -.327E-04 0.343E+04   0.263E-03 0.204E-04 -.343E+04   -.100E-17 0.133E-17 -.198E+01   -.131E-01 -.679E-02 0.130E+00
   -.614E+01 -.355E+01 0.110E+04   0.645E+01 0.372E+01 -.110E+04   -.351E+00 -.203E+00 -.864E+00   0.888E-02 0.548E-02 -.205E+00
   -.913E-04 -.736E+01 0.109E+04   0.190E-03 0.705E+01 -.109E+04   -.185E-07 0.278E+00 -.172E+00   0.120E-01 -.142E-01 -.204E+00
   0.614E+01 -.355E+01 0.110E+04   -.645E+01 0.372E+01 -.110E+04   0.351E+00 -.203E+00 -.864E+00   -.107E-01 0.582E-02 -.206E+00
   -.638E+01 0.368E+01 0.109E+04   0.611E+01 -.353E+01 -.109E+04   0.240E+00 -.139E+00 -.172E+00   -.608E-02 0.184E-01 -.203E+00
   0.638E+01 0.368E+01 0.109E+04   -.611E+01 -.353E+01 -.109E+04   -.240E+00 -.139E+00 -.172E+00   0.292E-01 0.165E-01 -.207E+00
   -.140E-03 -.197E+01 0.110E+04   0.296E-03 0.179E+01 -.110E+04   -.756E-08 0.114E+00 -.916E+00   -.291E-02 0.732E-01 -.191E+00
   -.926E-04 0.709E+01 0.110E+04   0.187E-03 -.744E+01 -.110E+04   -.270E-07 0.406E+00 -.864E+00   -.126E-02 -.134E-01 -.205E+00
   -.171E+01 0.985E+00 0.110E+04   0.155E+01 -.892E+00 -.110E+04   0.983E-01 -.568E-01 -.916E+00   0.627E-01 -.396E-01 -.192E+00
   0.171E+01 0.985E+00 0.110E+04   -.155E+01 -.892E+00 -.110E+04   -.983E-01 -.568E-01 -.916E+00   -.607E-01 -.370E-01 -.189E+00
   -.672E-04 -.911E+01 -.121E+04   0.735E-04 0.917E+01 0.121E+04   0.339E-08 -.509E-01 0.110E+01   0.919E-03 -.330E-01 -.208E+00
   -.664E+02 -.383E+02 -.130E+04   0.673E+02 0.388E+02 0.130E+04   -.914E+00 -.528E+00 -.473E+00   -.144E+00 -.821E-01 -.412E+00
   0.664E+02 -.383E+02 -.130E+04   -.673E+02 0.388E+02 0.130E+04   0.914E+00 -.528E+00 -.473E+00   0.123E+00 -.861E-01 -.413E+00
   -.355E+02 0.205E+02 -.124E+04   0.352E+02 -.203E+02 0.124E+04   0.433E+00 -.250E+00 0.756E+00   -.101E+00 0.712E-01 -.317E+00
   -.866E-04 0.766E+02 -.130E+04   0.153E-03 -.777E+02 0.130E+04   -.703E-07 0.106E+01 -.473E+00   -.143E-01 0.149E+00 -.413E+00
   0.355E+02 0.205E+02 -.124E+04   -.352E+02 -.203E+02 0.124E+04   -.433E+00 -.250E+00 0.756E+00   0.125E+00 0.702E-01 -.316E+00
   0.789E+01 0.455E+01 -.121E+04   -.794E+01 -.458E+01 0.121E+04   0.441E-01 0.254E-01 0.110E+01   0.278E-01 0.151E-01 -.208E+00
   -.789E+01 0.455E+01 -.121E+04   0.794E+01 -.458E+01 0.121E+04   -.441E-01 0.254E-01 0.110E+01   -.509E-01 0.171E-01 -.208E+00
   -.119E-03 -.410E+02 -.124E+04   0.238E-03 0.407E+02 0.124E+04   -.333E-07 0.500E+00 0.756E+00   0.127E-01 -.123E+00 -.316E+00
   -.469E-04 0.118E-04 -.344E+04   0.488E-04 -.302E-04 0.344E+04   0.443E-17 0.750E-18 0.172E+01   -.170E-02 -.119E-02 -.485E-01
   -.605E+02 -.110E+03 -.345E+04   0.612E+02 0.111E+03 0.345E+04   -.708E+00 -.691E+00 0.800E+00   -.638E-01 -.127E+00 -.382E-01
   0.605E+02 -.110E+03 -.345E+04   -.612E+02 0.111E+03 0.345E+04   0.708E+00 -.691E+00 0.800E+00   0.864E-01 -.127E+00 -.397E-01
   -.126E+03 0.271E+01 -.345E+04   0.127E+03 -.243E+01 0.345E+04   -.952E+00 -.268E+00 0.800E+00   -.142E+00 0.843E-02 -.391E-01
   0.126E+03 0.271E+01 -.345E+04   -.127E+03 -.243E+01 0.345E+04   0.952E+00 -.268E+00 0.800E+00   0.165E+00 0.900E-02 -.380E-01
   -.652E+02 0.107E+03 -.345E+04   0.654E+02 -.108E+03 0.345E+04   -.244E+00 0.959E+00 0.800E+00   -.664E-01 0.138E+00 -.400E-01
   0.652E+02 0.107E+03 -.345E+04   -.654E+02 -.108E+03 0.345E+04   0.244E+00 0.959E+00 0.800E+00   0.904E-01 0.138E+00 -.378E-01
   -.139E-03 -.233E-04 -.346E+04   0.245E-03 -.814E-06 0.345E+04   0.967E-17 -.181E-18 0.220E+01   -.136E-01 -.739E-02 -.471E-01
   -.427E-04 -.952E-05 -.155E+04   0.604E-04 0.127E-04 0.155E+04   -.156E-17 -.291E-17 -.561E+00   -.438E-03 -.182E-03 0.472E-01
   0.448E-05 -.491E-05 -.348E+03   0.265E-05 0.124E-05 0.350E+03   0.598E-20 0.784E-20 -.206E+01   0.349E-05 0.573E-05 0.127E-01
   -.241E-03 0.113E-04 0.168E+02   0.372E-13 0.341E-12 0.138E-10   -.242E-15 0.441E-15 -.132E+02   0.654E-01 0.461E-01 -.356E+01

 POSITION                                       TOTAL-FORCE (eV/Angst)
      0.00000      0.00000      5.37156        -0.000000      0.000000     -0.014282
      2.56560      0.00000      5.37156         0.011368      0.003665      0.059368
      5.13119      0.00000      5.37156        -0.011368      0.003665      0.059368
      1.28280      2.22187      5.37156         0.008858      0.008013      0.059368
      3.84839      2.22187      5.37156         0.000000      0.000000      0.055969
      6.41399      2.22187      5.37156        -0.008858      0.008013      0.059368
      2.56560      4.44374      5.37156        -0.002510     -0.011677      0.059368
      5.13119      4.44374      5.37156         0.002510     -0.011677      0.059368
      7.69679      4.44374      5.37156         0.000000      0.000000      0.022029
      1.28280      0.74062      7.46636        -0.039577     -0.022850     -0.099890
      3.84839      0.74062      7.46636         0.000000     -0.050104     -0.049877
      6.41399      0.74062      7.46636         0.039577     -0.022850     -0.099890
      2.56560      2.96249      7.46636        -0.043391      0.025052     -0.049877
      5.13119      2.96249      7.46636         0.043391      0.025052     -0.049877
      7.69679      2.96249      7.46636        -0.000000      0.001629      0.015244
      3.84839      5.18437      7.46636        -0.000000      0.045700     -0.099890
      6.41399      5.18437      7.46636         0.001411     -0.000815      0.015244
      8.97958      5.18437      7.46636        -0.001411     -0.000815      0.015244
      7.69679      1.48082      9.55187         0.000000     -0.027349      0.009081
      2.55960      1.47778      9.55047        -0.168957     -0.097547     -0.241059
      5.13719      1.47778      9.55047         0.168957     -0.097547     -0.241059
      8.97653      3.70488      9.56926         0.059243     -0.034204      0.028301
      3.84839      3.71005      9.55047        -0.000000      0.195095     -0.241059
      6.41705      3.70488      9.56926        -0.059243     -0.034204      0.028301
     10.26275      5.92520      9.55187         0.023685      0.013674      0.009081
      5.13082      5.92520      9.55187        -0.023685      0.013674      0.009081
      7.69679      5.92146      9.56926        -0.000000      0.068408      0.028301
      0.00000      0.00000     11.65662        -0.000000      0.000000      0.017527
      6.40243      6.64574     11.69071        -0.020492     -0.068834     -0.116657
      8.99114      6.64574     11.69071         0.020492     -0.068834     -0.116657
      8.95659      2.22180     11.69071        -0.069858      0.016671     -0.116657
      6.43698      2.22180     11.69071         0.069858      0.016671     -0.116657
     10.25095      4.46369     11.69071        -0.049366      0.052163     -0.116657
      5.14262      4.46369     11.69071         0.049366      0.052163     -0.116657
      7.69679      4.44374     11.67656         0.000000      0.000000      0.035657
      3.84839      2.22187     11.69355        -0.000000      0.000000      1.260865
      3.84839      2.22187     13.48714        -0.000000      0.000000     -0.019431
    total drift:                                0.065164      0.046075     -0.044785

  FREE ENERGIE OF THE ION-ELECTRON SYSTEM (eV)
  free  energy   TOTEN  =      -135.83874561 eV

  energy  without entropy=     -135.83874561  energy(sigma->0) =     -135.83874561

 stress matrix after NEB project (eV)
     -5.77478      0.00000     -0.00000
      0.00000     -5.77479      0.00000
      0.00000     -0.00000     -0.60212
  FORCES: max atom, RMS     0.019431    0.003194
  FORCE total and by dimension    0.019431    0.019431
  Stress total and by dimension    8.188946    5.774785
|           W    W    AA    RRRRR   N    N  II  N    N   GGGG   !!!           |
|           W    W   A  A   R    R  NN   N  II  NN   N  G    G  !!!           |
|           W    W  A    A  R    R  N N  N  II  N N  N  G       !!!           |
|           W WW W  AAAAAA  RRRRR   N  N N  II  N  N N  G  GGG   !            |
|           WW  WW  A    A  R   R   N   NN  II  N   NN  G    G                |
|           W    W  A    A  R    R  N    N  II  N    N   GGGG   !!!           |
|     Tetrahedron method does not include variations of the Fermi             |
|     occupations, so forces and stress will be inaccurate. We suggest        |
|     using a different smearing scheme ISMEAR = 1 or 2 for metals in         |
|     relaxations.                                                            |

 total charge

# of ion       s       p       d       tot
    1        0.451   0.281   9.190   9.921
    2        0.447   0.286   9.186   9.919
    3        0.447   0.286   9.186   9.919
    4        0.447   0.286   9.186   9.919
    5        0.450   0.285   9.182   9.917
    6        0.447   0.286   9.186   9.919
    7        0.447   0.286   9.186   9.919
    8        0.447   0.286   9.186   9.919
    9        0.450   0.284   9.187   9.920
   10        0.444   0.370   9.176   9.990
   11        0.441   0.366   9.182   9.988
   12        0.444   0.370   9.176   9.990
   13        0.441   0.366   9.182   9.988
   14        0.441   0.366   9.182   9.988
   15        0.438   0.369   9.177   9.984
   16        0.444   0.370   9.176   9.990
   17        0.438   0.369   9.177   9.984
   18        0.438   0.369   9.177   9.984
   19        0.442   0.367   9.180   9.989
   20        0.471   0.394   9.160  10.025
   21        0.471   0.394   9.160  10.025
   22        0.430   0.372   9.178   9.980
   23        0.471   0.394   9.160  10.025
   24        0.430   0.372   9.178   9.980
   25        0.442   0.367   9.180   9.989
   26        0.442   0.367   9.180   9.989
   27        0.430   0.372   9.178   9.980
   28        0.446   0.294   9.179   9.919
   29        0.483   0.316   9.157   9.956
   30        0.483   0.316   9.157   9.956
   31        0.483   0.316   9.157   9.956
   32        0.483   0.316   9.157   9.956
   33        0.483   0.316   9.157   9.956
   34        0.483   0.316   9.157   9.956
   35        0.440   0.298   9.179   9.917
   36        0.755   0.705   3.159   4.618
   37        0.532   0.008   0.000   0.540
tot         17.098  12.476 324.298 353.872

 BZINTS: Fermi energy:    0.019288;  391.000000 electrons
         Band energy:-0.113185E+04;  BLOECHL correction:   -0.024126