 vasp.6.2.0 18Jan21 (build Jun 12 2021 23:27:24) complex

 executed on             LinuxIFC date 2022.05.27  06:13:05

 INCAR:
   ISMEAR = -5
   SIGMA = 0.1
   ISPIN = 1
   EDIFF = 1.d-5
   EDIFFG = -0.01
   NSW = 0
   NELM = 150
   ENCUT = 500
   ISIF = 2
   IBRION = 2
   LREAL = Auto
   ALGO = Fast
   ICHARG = 11
   LORBIT = 10
   LCHARG = .F.
   LWAVE = .F.

 POTCAR:    PAW_PBE Cu 22Jun2005
 POTCAR:    PAW_PBE Rh 04Feb2005
 POTCAR:    PAW_PBE N 08Apr2002
|           W    W    AA    RRRRR   N    N  II  N    N   GGGG   !!!           |
|           W    W   A  A   R    R  NN   N  II  NN   N  G    G  !!!           |
|           W    W  A    A  R    R  N N  N  II  N N  N  G       !!!           |
|           W WW W  AAAAAA  RRRRR   N  N N  II  N  N N  G  GGG   !            |
|           WW  WW  A    A  R   R   N   NN  II  N   NN  G    G                |
|           W    W  A    A  R    R  N    N  II  N    N   GGGG   !!!           |
|     For optimal performance we recommend to set                             |
|       NCORE = 2 up to number-of-cores-per-socket                            |
|     This setting can greatly improve the performance of VASP for DFT.       |
|     The default, NCORE=1 might be grossly inefficient on modern             |
|     multi-core architectures or massively parallel machines. Do your        |
|     Unfortunately you need to use the default for GW and RPA                |
|     calculations (for HF NCORE is supported but not extensively tested      |
|     yet).                                                                   |

 POTCAR:    PAW_PBE Cu 22Jun2005
   VRHFIN =Cu: d10 p1

   TITEL  = PAW_PBE Cu 22Jun2005
   POMASS =   63.546; ZVAL   =   11.000    mass and valenz
   ENMAX  =  295.446; ENMIN  =  221.585 eV

 POTCAR:    PAW_PBE Rh 04Feb2005
   VRHFIN =Rh: s1 d8

   TITEL  = PAW_PBE Rh 04Feb2005
   POMASS =  102.906; ZVAL   =    9.000    mass and valenz
   ENMAX  =  228.996; ENMIN  =  171.747 eV

 POTCAR:    PAW_PBE N 08Apr2002
   VRHFIN =N: s2p3

   TITEL  = PAW_PBE N 08Apr2002
   POMASS =   14.001; ZVAL   =    5.000    mass and valenz
   ENMAX  =  400.000; ENMIN  =  300.000 eV

 Optimization of the real space projectors (new method)

 maximal supplied QI-value         = 16.25
 optimisation between [QCUT,QGAM] = [ 11.38, 22.75] = [ 36.24,144.96] Ry
 Optimized for a Real-space Cutoff    1.52 Angstroem

   l    n(q)    QCUT    max X(q) W(low)/X(q) W(high)/X(q)  e(spline)
   2      9    11.376     4.610    0.21E-03    0.10E-03    0.26E-06
   2      9    11.376     8.522    0.33E-03    0.16E-03    0.37E-06
   0     10    11.376    51.609    0.62E-04    0.20E-04    0.13E-06
   0     10    11.376    27.747    0.54E-04    0.20E-04    0.13E-06
   1     10    11.376    20.408    0.13E-04    0.99E-04    0.19E-06
   1     10    11.376    13.425    0.12E-04    0.87E-04    0.17E-06
 Optimization of the real space projectors (new method)

[...]

   l    n(q)    QCUT    max X(q) W(low)/X(q) W(high)/X(q)  e(spline)
   2      9    11.327    59.645    0.31E-03    0.12E-04    0.28E-06
   2      9    11.327    58.460    0.31E-03    0.12E-04    0.29E-06
   0     10    11.327    97.683    0.32E-04    0.83E-04    0.31E-06
   0     10    11.327    53.223    0.30E-04    0.78E-04    0.29E-06
   1     10    11.327    13.596    0.49E-03    0.95E-03    0.55E-06
   1     10    11.327     7.885    0.36E-03    0.71E-03    0.41E-06
 Optimization of the real space projectors (new method)

 maximal supplied QI-value         = 25.13
 optimisation between [QCUT,QGAM] = [ 11.31, 22.87] = [ 35.82,146.48] Ry
 Optimized for a Real-space Cutoff    1.27 Angstroem

   l    n(q)    QCUT    max X(q) W(low)/X(q) W(high)/X(q)  e(spline)
   0      9    11.310    79.467    0.75E-04    0.16E-03    0.36E-06
   0      9    11.310    66.151    0.74E-04    0.16E-03    0.36E-06
   1      8    11.310    17.416    0.35E-03    0.12E-03    0.95E-06
   1      8    11.310    12.382    0.37E-03    0.13E-03    0.98E-06
  PAW_PBE Cu 22Jun2005                  :
  PAW_PBE Rh 04Feb2005                  :
  PAW_PBE N 08Apr2002                   :

 POSCAR: Cu-Rh-N2
  positions in direct lattice
  velocities in cartesian coordinates
 exchange correlation table for  LEXCH =        8
   RHO(1)=    0.500       N(1)  =     2000
   RHO(2)=  100.500       N(2)  =     4000

 VTST: version 3.2, (02/03/18)

 CHAIN: initializing optimizer

 OPT: Using VASP Conjugate-Gradient optimizer
 CHAIN: Read ICHAIN            0

 POSCAR: Cu-Rh-N2
  positions in direct lattice
  velocities in cartesian coordinates

 ion  position               nearest neighbor table
   1  0.000  0.000  0.252-   7 2.57   3 2.57   4 2.57   2 2.57   6 2.57   8 2.57  12 2.57  10 2.57
                            16 2.57
   2  0.333  0.000  0.252-   8 2.57   9 2.57   5 2.57   1 2.57   3 2.57  11 2.57   4 2.57  10 2.57
                            17 2.57
   3  0.667  0.000  0.252-   1 2.57   7 2.57   6 2.57   9 2.57   2 2.57  12 2.57   5 2.57  18 2.57
                            11 2.57
   4  0.000  0.333  0.252-   5 2.57   6 2.57   1 2.57   7 2.57   2 2.57  13 2.57   9 2.57  10 2.57
                            15 2.57
   5  0.333  0.333  0.252-   4 2.57   2 2.57   7 2.57  13 2.57   8 2.57   6 2.57   3 2.57  11 2.57
                            14 2.57
   6  0.667  0.333  0.252-   4 2.57   9 2.57  15 2.57   3 2.57   1 2.57   8 2.57  14 2.57   5 2.57
                            12 2.57
   7  0.000  0.667  0.252-   1 2.57   3 2.57  16 2.57  18 2.57   4 2.57   5 2.57   8 2.57   9 2.57
                            13 2.57
   8  0.333  0.667  0.252-   9 2.57   2 2.57  17 2.57   6 2.57   1 2.57   7 2.57   5 2.57  14 2.57
                            16 2.57
   9  0.667  0.667  0.252-   8 2.57   6 2.57   2 2.57  17 2.57   3 2.57   7 2.57   4 2.57  15 2.57
                            18 2.57
  10  0.111  0.111  0.351-  20 2.55  26 2.56  19 2.56  11 2.57  12 2.57  13 2.57   1 2.57   2 2.57
                             4 2.57  15 2.57  16 2.57  17 2.57
  11  0.444  0.111  0.351-  20 2.55  21 2.55  27 2.56  10 2.57  13 2.57   2 2.57  17 2.57  14 2.57
                            12 2.57   5 2.57   3 2.57  18 2.57
  12  0.778  0.111  0.351-  21 2.55  19 2.56  25 2.56  15 2.57  10 2.57  14 2.57  18 2.57   3 2.57
                             1 2.57  16 2.57  11 2.57   6 2.57
  13  0.111  0.444  0.351-  23 2.55  20 2.55  22 2.56  16 2.57  18 2.57  10 2.57  11 2.57  14 2.57
                             5 2.57   4 2.57   7 2.57  15 2.57
  14  0.444  0.444  0.351-  21 2.55  23 2.55  24 2.56  15 2.57  17 2.57  12 2.57  16 2.57  13 2.57
                            11 2.57   6 2.57   8 2.57   5 2.57
  15  0.778  0.444  0.351-  19 2.56  24 2.56  22 2.56  14 2.57  17 2.57  12 2.57   6 2.57  18 2.57
                            10 2.57   9 2.57  13 2.57   4 2.57
  16  0.111  0.778  0.351-  23 2.55  25 2.56  26 2.56  18 2.57  13 2.57   7 2.57  14 2.57  17 2.57
                            12 2.57  10 2.57   8 2.57   1 2.57
  17  0.444  0.778  0.351-  26 2.56  27 2.56  24 2.56  14 2.57  15 2.57   8 2.57   9 2.57  11 2.57
                            16 2.57  18 2.57  10 2.57   2 2.57
  18  0.778  0.778  0.351-  25 2.56  22 2.56  27 2.56  16 2.57  13 2.57   7 2.57  15 2.57  12 2.57
                            17 2.57   9 2.57   3 2.57  11 2.57
  19  0.889  0.223  0.449-  28 2.55  32 2.55  31 2.55  15 2.56  12 2.56  10 2.56  21 2.56  20 2.56
                            22 2.56  24 2.56  25 2.57  26 2.57
  20  0.222  0.222  0.448-  10 2.55  11 2.55  13 2.55  26 2.56  19 2.56  27 2.57  22 2.57  36 2.57
                            29 2.58  31 2.58  23 2.58  21 2.58
  21  0.557  0.222  0.448-  12 2.55  14 2.55  11 2.55  19 2.56  25 2.56  24 2.57  27 2.57  36 2.57
                            32 2.58  30 2.58  20 2.58  23 2.58
  22  0.889  0.556  0.449-  35 2.54  31 2.56  33 2.56  18 2.56  15 2.56  19 2.56  25 2.56  13 2.56
                            24 2.56  27 2.56  23 2.57  20 2.57
  23  0.222  0.557  0.448-  16 2.55  13 2.55  14 2.55  25 2.56  26 2.56  22 2.57  24 2.57  36 2.57
                            33 2.58  34 2.58  20 2.58  21 2.58
  24  0.556  0.556  0.449-  35 2.54  32 2.56  34 2.56  15 2.56  17 2.56  19 2.56  26 2.56  14 2.56
                            22 2.56  27 2.56  21 2.57  23 2.57
  25  0.889  0.889  0.449-  28 2.55  33 2.55  30 2.55  18 2.56  16 2.56  12 2.56  21 2.56  23 2.56
                            22 2.56  27 2.56  19 2.57  26 2.57
  26  0.223  0.889  0.449-  28 2.55  29 2.55  34 2.55  17 2.56  10 2.56  16 2.56  20 2.56  23 2.56
                            27 2.56  24 2.56  25 2.57  19 2.57
  27  0.556  0.889  0.449-  35 2.54  29 2.56  30 2.56  17 2.56  18 2.56  26 2.56  25 2.56  11 2.56
                            24 2.56  22 2.56  20 2.57  21 2.57
  28  0.000  0.000  0.546-  25 2.55  19 2.55  26 2.55  33 2.56  30 2.56  31 2.56  29 2.56  32 2.56
                            34 2.56
  29  0.333  0.998  0.547-  34 2.54  26 2.55  28 2.56  27 2.56  35 2.56  31 2.58  20 2.58  36 2.58
                            30 2.59
  30  0.669  0.998  0.547-  33 2.54  25 2.55  28 2.56  27 2.56  35 2.56  32 2.58  21 2.58  36 2.58
                            29 2.59
  31  0.998  0.333  0.547-  32 2.54  19 2.55  28 2.56  22 2.56  35 2.56  29 2.58  20 2.58  36 2.58
                            33 2.59
  32  0.669  0.333  0.547-  31 2.54  19 2.55  28 2.56  24 2.56  35 2.56  30 2.58  21 2.58  36 2.58
                            34 2.59
  33  0.998  0.669  0.547-  30 2.54  25 2.55  28 2.56  22 2.56  35 2.56  34 2.58  23 2.58  36 2.58
                            31 2.59
  34  0.333  0.669  0.547-  29 2.54  26 2.55  28 2.56  24 2.56  35 2.56  33 2.58  23 2.58  36 2.58
                            32 2.59
  35  0.667  0.667  0.546-  24 2.54  27 2.54  22 2.54  34 2.56  32 2.56  29 2.56  30 2.56  33 2.56
                            31 2.56
  36  0.333  0.333  0.547-  23 2.57  20 2.57  21 2.57  31 2.58  29 2.58  33 2.58  34 2.58  32 2.58
                            30 2.58
  37  0.264  0.328  0.732-  38 1.11
  38  0.408  0.328  0.732-  37 1.11

  LATTYP: Found a hexagonal cell.
 ALAT       =     7.6967864036
 C/A-ratio  =     2.7653617908

  Lattice vectors:

 A1 = (  -3.8483927580,  -6.6656128093,   0.0000000000)
 A2 = (   7.6967864037,   0.0000000000,   0.0000000000)
 A3 = (   0.0000000000,   0.0000000000,  21.2843990326)

Analysis of symmetry for initial positions (statically):
 Subroutine PRICEL returns:
 Original cell was already a primitive cell.

 Routine SETGRP: Setting up the symmetry group for a
 hexagonal supercell.

 Subroutine GETGRP returns: Found  2 space group operations
 (whereof  2 operations were pure point group operations)
 out of a pool of 24 trial point group operations.

The static configuration has the point symmetry C_1h.

Analysis of symmetry for dynamics (positions and initial velocities):
 Subroutine PRICEL returns:
 Original cell was already a primitive cell.

[...]

The dynamic configuration has the point symmetry C_1h.

Analysis of constrained symmetry for selective dynamics:
 Subroutine PRICEL returns:
 Original cell was already a primitive cell.

 Routine SETGRP: Setting up the symmetry group for a
 hexagonal supercell.

[...]
     33      -3.8313      2.00000
     34      -3.8237      2.00000
     35      -3.8167      2.00000
     36      -3.7933      2.00000
     37      -3.7771      2.00000
     38      -3.7731      2.00000
     39      -3.7091      2.00000
     40      -3.6694      2.00000
     41      -3.5973      2.00000
     42      -3.5020      2.00000
     43      -3.4989      2.00000
     44      -3.4332      2.00000
     45      -3.4227      2.00000
     46      -3.4119      2.00000
     47      -3.3871      2.00000
     48      -3.3802      2.00000
     49      -3.3732      2.00000
     50      -3.3716      2.00000
     51      -3.1723      2.00000
     52      -3.1635      2.00000
     53      -3.1572      2.00000
     54      -3.1525      2.00000
     55      -3.0890      2.00000
     56      -3.0836      2.00000
     57      -3.0803      2.00000
     58      -3.0675      2.00000
     59      -3.0598      2.00000
     60      -3.0408      2.00000
[...]
    238       5.9825      0.00000
    239       6.0380      0.00000
    240       6.3139      0.00000
    241       6.3433      0.00000
    242       6.6242      0.00000
    243       6.6927      0.00000
    244       6.8415      0.00000
    245       6.8916      0.00000
    246       7.0114      0.00000
    247       7.0672      0.00000
    248       7.2137      0.00000
    249       7.3844      0.00000
    250       7.5154      0.00000
    251       7.5392      0.00000
    252       7.6634      0.00000

 soft charge-density along one line, spin component           1
         0         1         2         3         4         5         6         7         8         9
 total charge-density along one line

------------------------ aborting loop because EDIFF is reached ----------------------------------------

 total charge

# of ion       s       p       d       tot
    1        0.446   0.287   9.188   9.921
    2        0.450   0.284   9.187   9.921
    3        0.450   0.284   9.187   9.921
    4        0.450   0.284   9.187   9.921
    5        0.444   0.288   9.182   9.914
    6        0.450   0.284   9.187   9.921
    7        0.450   0.284   9.187   9.921
    8        0.450   0.284   9.187   9.921
    9        0.448   0.283   9.189   9.920
   10        0.441   0.374   9.173   9.989
   11        0.444   0.365   9.184   9.993
   12        0.441   0.374   9.173   9.989
   13        0.444   0.365   9.184   9.993
   14        0.444   0.365   9.184   9.993
   15        0.439   0.369   9.180   9.988
   16        0.441   0.374   9.173   9.989
   17        0.439   0.369   9.180   9.988
   18        0.439   0.369   9.180   9.988
   19        0.443   0.372   9.182   9.997
   20        0.444   0.381   9.176  10.001
   21        0.444   0.381   9.176  10.001
   22        0.436   0.372   9.182   9.990
   23        0.444   0.381   9.175  10.000
   24        0.436   0.372   9.182   9.990
   25        0.443   0.372   9.183   9.997
   26        0.443   0.372   9.183   9.997
   27        0.436   0.372   9.182   9.990
   28        0.451   0.291   9.192   9.934
   29        0.454   0.298   9.183   9.935
   30        0.454   0.298   9.183   9.935
   31        0.454   0.298   9.183   9.935
   32        0.454   0.298   9.183   9.935
   33        0.454   0.298   9.183   9.935
   34        0.454   0.298   9.183   9.935
   35        0.445   0.293   9.192   9.931
   36        0.452   0.343   7.531   8.326
   37        1.373   2.468   0.000   3.841
   38        1.373   2.468   0.000   3.841
tot         18.793  16.918 328.920 364.631

  FORCE on cell =-STRESS in cart. coord.  units (eV):
  Direction    XX          YY          ZZ          XY          YZ          ZX
  Alpha Z   899.65582   899.65582   899.65582
  Ewald  167751.32541167430.31356************     0.00038     0.46641     0.00016
  Hartree180847.86598180733.98649************     0.00004     0.48529     0.00006
  E(xc)   -2330.72436 -2331.96684 -2336.76713    -0.00033    -0.00020    -0.00004
  Local  ************************361405.87590     0.02022    -0.95613    -0.00073
  n-local  -784.03989  -771.50506  -788.63656     2.08212    -0.00013     0.16945
  augment  3367.46421  3367.18580  3386.85526    -0.01849     0.00064     0.00031
  Kinetic  3417.52149  3435.61074  3464.87687     1.10089     0.00729    -0.12344
  Fock        0.00000     0.00000     0.00000     0.00000     0.00000     0.00000
  Total      -5.38674    -5.40062     1.03074     0.00000     0.00316    -0.00000
  in kB      -7.90361    -7.92398     1.51233     0.00000     0.00463    -0.00000

 VOLUME and BASIS-vectors are now :
  energy-cutoff  :      500.00
  volume of cell :     1091.97
      direct lattice vectors                 reciprocal lattice vectors
     7.696786404  0.000000000  0.000000000     0.129924354 -0.075011849  0.000000000
     3.848392758  6.665612809  0.000000000     0.000000000  0.150023716  0.000000000
     0.000000000  0.000000000 21.284399033     0.000000000  0.000000000  0.046982769

  length of vectors
     7.696786404  7.696786404 21.284399033     0.150023716  0.150023716  0.046982769

 FORCES acting on ions
    electron-ion (+dipol)            ewald-force                    non-local-force                 convergence-correction
   -.406E-04 -.955E-04 0.348E+04   0.580E-04 -.418E-02 -.348E+04   0.622E-10 -.935E-03 -.265E+01   -.410E-03 0.478E-02 -.347E+00
   -.341E+00 0.345E-01 0.348E+04   0.256E+00 0.138E+00 -.348E+04   -.260E-02 -.121E+00 -.188E+01   0.878E-01 -.444E-01 -.220E+00
   0.341E+00 0.346E-01 0.348E+04   -.256E+00 0.138E+00 -.348E+04   0.260E-02 -.121E+00 -.188E+01   -.869E-01 -.418E-01 -.219E+00
   -.146E+00 -.323E+00 0.348E+04   0.251E+00 0.153E+00 -.348E+04   -.104E+00 0.577E-01 -.189E+01   0.513E-02 0.108E+00 -.220E+00
   -.616E-04 -.962E-02 0.348E+04   0.116E-03 0.184E-02 -.348E+04   0.367E-09 -.551E-02 -.199E+01   0.123E-01 0.134E-01 -.179E+00
   0.146E+00 -.323E+00 0.348E+04   -.251E+00 0.153E+00 -.348E+04   0.104E+00 0.577E-01 -.189E+01   -.687E-02 0.109E+00 -.218E+00
   0.207E+00 0.288E+00 0.348E+04   -.504E-02 -.291E+00 -.348E+04   -.104E+00 0.626E-01 -.188E+01   -.885E-01 -.636E-01 -.214E+00
   -.207E+00 0.288E+00 0.348E+04   0.477E-02 -.291E+00 -.348E+04   0.104E+00 0.626E-01 -.188E+01   0.920E-01 -.652E-01 -.214E+00
   -.143E-03 0.116E-01 0.348E+04   0.263E-03 0.236E-02 -.348E+04   -.321E-09 0.481E-02 -.226E+01   -.132E-01 -.187E-01 -.263E+00
   -.735E+00 -.416E+00 0.120E+04   0.863E+00 0.481E+00 -.119E+04   -.213E+00 -.123E+00 -.997E+00   0.123E+00 0.785E-01 -.844E-01
   -.922E-04 -.189E+01 0.119E+04   0.190E-03 0.171E+01 -.119E+04   -.195E-08 0.293E-01 -.676E+00   0.123E-01 0.122E+00 -.318E-01
   0.736E+00 -.416E+00 0.120E+04   -.863E+00 0.481E+00 -.119E+04   0.213E+00 -.123E+00 -.997E+00   -.125E+00 0.806E-01 -.825E-01
   -.165E+01 0.928E+00 0.119E+04   0.149E+01 -.843E+00 -.119E+04   0.304E-01 -.233E-01 -.676E+00   0.103E+00 -.432E-01 -.263E-01
   0.165E+01 0.928E+00 0.119E+04   -.149E+01 -.843E+00 -.119E+04   -.304E-01 -.233E-01 -.676E+00   -.783E-01 -.446E-01 -.259E-01
   -.142E-03 -.115E+01 0.119E+04   0.298E-03 0.959E+00 -.119E+04   -.823E-08 0.124E+00 -.734E+00   -.433E-02 0.630E-01 -.145E+00
   -.920E-04 0.860E+00 0.120E+04   0.186E-03 -.999E+00 -.119E+04   -.165E-07 0.248E+00 -.995E+00   -.287E-03 -.154E+00 -.811E-01
   -.974E+00 0.575E+00 0.119E+04   0.814E+00 -.472E+00 -.119E+04   0.108E+00 -.602E-01 -.728E+00   0.506E-01 -.438E-01 -.145E+00
   0.974E+00 0.575E+00 0.119E+04   -.814E+00 -.472E+00 -.119E+04   -.108E+00 -.602E-01 -.728E+00   -.495E-01 -.403E-01 -.144E+00
   -.622E-04 -.138E+01 -.110E+04   0.692E-04 0.141E+01 0.110E+04   0.512E-08 -.768E-01 0.566E+00   -.145E-01 0.447E-01 -.402E-01
   -.264E+02 -.152E+02 -.113E+04   0.266E+02 0.153E+02 0.113E+04   -.468E+00 -.274E+00 -.467E+00   0.233E+00 0.150E+00 0.925E-01
   0.264E+02 -.152E+02 -.113E+04   -.266E+02 0.153E+02 0.113E+04   0.468E+00 -.274E+00 -.467E+00   -.207E+00 0.151E+00 0.920E-01
   -.155E+02 0.881E+01 -.111E+04   0.148E+02 -.838E+01 0.111E+04   0.492E+00 -.287E+00 0.766E+00   0.233E+00 -.136E+00 -.107E+00
   -.800E-04 0.303E+02 -.113E+04   0.147E-03 -.306E+02 0.113E+04   -.354E-07 0.531E+00 -.464E+00   0.121E-01 -.252E+00 0.958E-01
   0.155E+02 0.881E+01 -.111E+04   -.148E+02 -.838E+01 0.111E+04   -.492E+00 -.287E+00 0.766E+00   -.235E+00 -.139E+00 -.107E+00
   0.122E+01 0.824E+00 -.110E+04   -.125E+01 -.831E+00 0.110E+04   0.720E-01 0.476E-01 0.563E+00   -.457E-01 -.372E-01 -.391E-01
   -.122E+01 0.824E+00 -.110E+04   0.125E+01 -.831E+00 0.110E+04   -.720E-01 0.476E-01 0.563E+00   0.239E-01 -.410E-01 -.386E-01
   -.126E-03 -.178E+02 -.111E+04   0.244E-03 0.169E+02 0.111E+04   -.380E-07 0.571E+00 0.765E+00   0.854E-03 0.258E+00 -.105E+00
   -.345E-04 0.950E+00 -.337E+04   0.409E-04 -.952E+00 0.336E+04   -.853E-10 0.128E-02 0.220E+01   -.662E-03 -.760E-03 0.362E+00
   -.226E+02 -.353E+02 -.337E+04   0.229E+02 0.354E+02 0.337E+04   -.355E+00 -.280E+00 0.179E+01   0.125E+00 0.260E+00 0.248E+00
   0.226E+02 -.353E+02 -.337E+04   -.229E+02 0.354E+02 0.337E+04   0.355E+00 -.280E+00 0.179E+01   -.124E+00 0.262E+00 0.247E+00
   -.426E+02 -.177E+01 -.337E+04   0.427E+02 0.195E+01 0.337E+04   -.418E+00 -.165E+00 0.183E+01   0.293E+00 -.863E-02 0.245E+00
   0.426E+02 -.177E+01 -.337E+04   -.427E+02 0.195E+01 0.337E+04   0.418E+00 -.165E+00 0.183E+01   -.295E+00 -.817E-02 0.243E+00
   -.204E+02 0.372E+02 -.337E+04   0.203E+02 -.374E+02 0.337E+04   -.708E-01 0.444E+00 0.179E+01   0.161E+00 -.251E+00 0.242E+00
   0.204E+02 0.372E+02 -.337E+04   -.203E+02 -.374E+02 0.337E+04   0.708E-01 0.444E+00 0.179E+01   -.158E+00 -.253E+00 0.241E+00
   -.151E-03 -.548E+00 -.337E+04   0.254E-03 0.564E+00 0.337E+04   -.298E-09 0.448E-02 0.255E+01   -.130E-01 -.186E-01 0.320E+00
   -.531E-04 -.458E+00 -.273E+04   0.111E-03 0.448E+00 0.272E+04   -.104E-10 0.157E-03 0.398E+01   0.305E-02 0.984E-02 0.179E+00
   0.239E+03 -.595E-01 -.116E+04   -.284E+03 0.583E-01 0.116E+04   0.456E+02 -.114E-02 -.248E-01   0.921E-02 0.100E-02 -.234E-01
   -.239E+03 -.595E-01 -.116E+04   0.284E+03 0.583E-01 0.116E+04   -.456E+02 -.114E-02 -.248E-01   -.919E-02 0.101E-02 -.235E-01
   -.668E-04 -.346E-03 0.407E+01   0.114E-12 -.188E-13 -.148E-10   0.892E-09 -.134E-01 -.332E+01   0.250E-01 0.116E-01 -.736E+00

 POSITION                                       TOTAL-FORCE (eV/Angst)
      0.00000      0.00000      5.37156         0.000000     -0.000368      0.087580
      2.56560      0.00000      5.37156         0.000362      0.008701      0.060620
      5.13119      0.00000      5.37156        -0.000362      0.008701      0.060620
      1.28280      2.22187      5.37156         0.007743     -0.004474      0.060509
      3.84839      2.22187      5.37156        -0.000000      0.000187      0.037434
      6.41399      2.22187      5.37156        -0.007743     -0.004474      0.060509
      2.56560      4.44374      5.37156         0.007861     -0.004161      0.060404
      5.13119      4.44374      5.37156        -0.007861     -0.004161      0.060404
      7.69679      4.44374      5.37156        -0.000000      0.000203      0.044947
      1.28280      0.74062      7.46636         0.038113      0.022450     -0.063444
      3.84839      0.74062      7.46636         0.000000     -0.034751     -0.101284
      6.41399      0.74062      7.46636        -0.038113      0.022450     -0.063444
      2.56560      2.96249      7.46636        -0.030314      0.018177     -0.101243
      5.13119      2.96249      7.46636         0.030314      0.018177     -0.101243
      7.69679      2.96249      7.46636         0.000000     -0.002166     -0.018844
      3.84839      5.18437      7.46636         0.000000     -0.044462     -0.063067
      6.41399      5.18437      7.46636        -0.002009      0.000997     -0.018041
      8.97958      5.18437      7.46636         0.002009      0.000997     -0.018041
      7.69679      1.48472      9.55134         0.000000     -0.003706     -0.010039
      2.55991      1.47796      9.54139         0.000232     -0.000218     -0.011829
      5.13688      1.47796      9.54139        -0.000232     -0.000218     -0.011829
      8.97851      3.70374      9.55759        -0.010857      0.006092     -0.010183
      3.84839      3.70969      9.54139         0.000000     -0.000095     -0.011626
      6.41506      3.70374      9.55759         0.010857      0.006092     -0.010183
     10.25938      5.92325      9.55134         0.002933      0.001487     -0.012023
      5.13420      5.92325      9.55134        -0.002933      0.001487     -0.012023
      7.69679      5.92375      9.55759         0.000000     -0.011782     -0.011237
      0.00000      0.00000     11.61948         0.000000     -0.001303      0.026906
      6.40389      6.65412     11.64269        -0.003061     -0.007708      0.009427
      8.98968      6.65412     11.64269         0.003061     -0.007708      0.009427
      8.96459      2.21887     11.64269        -0.007092      0.000621      0.011823
      6.42899      2.21887     11.64269         0.007092      0.000621      0.011823
     10.25748      4.45823     11.64269        -0.003836      0.007333      0.010113
      5.13610      4.45823     11.64269         0.003836      0.007333      0.010113
      7.69679      4.44374     11.62337        -0.000000      0.001285      0.009948
      3.84839      2.22187     11.63466        -0.000000      0.000827      0.007715
      3.29150      2.18555     15.56962        -0.008528     -0.001233      0.004651
      4.40529      2.18555     15.56962         0.008528     -0.001233      0.004651
    total drift:                                0.024976     -0.002116      0.019352

  FREE ENERGIE OF THE ION-ELECTRON SYSTEM (eV)
  free  energy   TOTEN  =      -145.88224583 eV

  energy  without entropy=     -145.88224583  energy(sigma->0) =     -145.88224583

 stress matrix after NEB project (eV)
     -5.38674      0.00000     -0.00000
      0.00000     -5.40062      0.00316
     -0.00000      0.00316      1.03074
  FORCES: max atom, RMS     0.009792    0.002246
  FORCE total and by dimension    0.013848    0.008528
  Stress total and by dimension    7.697148    5.400623
|           W    W    AA    RRRRR   N    N  II  N    N   GGGG   !!!           |
|           W    W   A  A   R    R  NN   N  II  NN   N  G    G  !!!           |
|           W    W  A    A  R    R  N N  N  II  N N  N  G       !!!           |
|           W WW W  AAAAAA  RRRRR   N  N N  II  N  N N  G  GGG   !            |
|           WW  WW  A    A  R   R   N   NN  II  N   NN  G    G                |
|           W    W  A    A  R    R  N    N  II  N    N   GGGG   !!!           |
|     Tetrahedron method does not include variations of the Fermi             |
|     occupations, so forces and stress will be inaccurate. We suggest        |
|     using a different smearing scheme ISMEAR = 1 or 2 for metals in         |
|     relaxations.                                                            |

 total charge

# of ion       s       p       d       tot
    1        0.446   0.287   9.188   9.921
    2        0.450   0.284   9.187   9.921
    3        0.450   0.284   9.187   9.921
    4        0.450   0.284   9.187   9.921
    5        0.444   0.288   9.182   9.914
    6        0.450   0.284   9.187   9.921
    7        0.450   0.284   9.187   9.921
    8        0.450   0.284   9.187   9.921
    9        0.448   0.283   9.189   9.920
   10        0.441   0.374   9.173   9.989
   11        0.444   0.365   9.184   9.993
   12        0.441   0.374   9.173   9.989
   13        0.444   0.365   9.184   9.993
   14        0.444   0.365   9.184   9.993
   15        0.439   0.369   9.180   9.988
   16        0.441   0.374   9.173   9.989
   17        0.439   0.369   9.180   9.988
   18        0.439   0.369   9.180   9.988
   19        0.443   0.372   9.182   9.997
   20        0.444   0.381   9.176  10.001
   21        0.444   0.381   9.176  10.001
   22        0.436   0.372   9.182   9.990
   23        0.444   0.381   9.175  10.000
   24        0.436   0.372   9.182   9.990
   25        0.443   0.372   9.183   9.997
   26        0.443   0.372   9.183   9.997
   27        0.436   0.372   9.182   9.990
   28        0.451   0.291   9.192   9.934
   29        0.454   0.298   9.183   9.935
   30        0.454   0.298   9.183   9.935
   31        0.454   0.298   9.183   9.935
   32        0.454   0.298   9.183   9.935
   33        0.454   0.298   9.183   9.935
   34        0.454   0.298   9.183   9.935
   35        0.445   0.293   9.192   9.931
   36        0.452   0.343   7.531   8.326
   37        1.373   2.468   0.000   3.841
   38        1.373   2.468   0.000   3.841
tot         18.793  16.918 328.920 364.631

 BZINTS: Fermi energy:    0.260938;  404.000000 electrons
         Band energy:-0.108679E+04;  BLOECHL correction:   -0.070677