 vasp.6.2.0 18Jan21 (build Jun 12 2021 23:27:24) complex

 executed on             LinuxIFC date 2022.05.30  17:45:37

 INCAR:
   ISMEAR = -5
   SIGMA = 0.1
   ISPIN = 1
   EDIFF = 1.d-5
   EDIFFG = -0.01
   NSW = 0
   NELM = 150
   ENCUT = 500
   ISIF = 2
   IBRION = 2
   LREAL = Auto
   ALGO = Fast
   ICHARG = 11
   LORBIT = 10
   LCHARG = .F.
   LWAVE = .F.

 POTCAR:    PAW_PBE Ag 02Apr2005
 POTCAR:    PAW_PBE Ir 06Sep2000
 POTCAR:    PAW_PBE C 08Apr2002
|           W    W    AA    RRRRR   N    N  II  N    N   GGGG   !!!           |
|           W    W   A  A   R    R  NN   N  II  NN   N  G    G  !!!           |
|           W    W  A    A  R    R  N N  N  II  N N  N  G       !!!           |
|           W WW W  AAAAAA  RRRRR   N  N N  II  N  N N  G  GGG   !            |
|           WW  WW  A    A  R   R   N   NN  II  N   NN  G    G                |
|           W    W  A    A  R    R  N    N  II  N    N   GGGG   !!!           |
|     For optimal performance we recommend to set                             |
|       NCORE = 2 up to number-of-cores-per-socket                            |
|     This setting can greatly improve the performance of VASP for DFT.       |
|     The default, NCORE=1 might be grossly inefficient on modern             |
|     multi-core architectures or massively parallel machines. Do your        |
|     Unfortunately you need to use the default for GW and RPA                |
|     calculations (for HF NCORE is supported but not extensively tested      |
|     yet).                                                                   |

 POTCAR:    PAW_PBE Ag 02Apr2005
   VRHFIN =Ag : s1 d10

   TITEL  = PAW_PBE Ag 02Apr2005
   POMASS =  107.868; ZVAL   =   11.000    mass and valenz
   ENMAX  =  249.844; ENMIN  =  187.383 eV

 POTCAR:    PAW_PBE Ir 06Sep2000
   VRHFIN =Ir: s1d8

   TITEL  = PAW_PBE Ir 06Sep2000
   POMASS =  192.220; ZVAL   =    9.000    mass and valenz
   ENMAX  =  210.864; ENMIN  =  158.148 eV

 POTCAR:    PAW_PBE C 08Apr2002
   VRHFIN =C: s2p2

   TITEL  = PAW_PBE C 08Apr2002
   POMASS =   12.011; ZVAL   =    4.000    mass and valenz
   ENMAX  =  400.000; ENMIN  =  300.000 eV

 Optimization of the real space projectors (new method)

 maximal supplied QI-value         = 15.12
 optimisation between [QCUT,QGAM] = [ 11.34, 22.83] = [ 36.00,145.93] Ry
 Optimized for a Real-space Cutoff    1.43 Angstroem

   l    n(q)    QCUT    max X(q) W(low)/X(q) W(high)/X(q)  e(spline)
   2      9    11.338    53.897    0.16E-03    0.20E-03    0.28E-06
   2      9    11.338    52.416    0.16E-03    0.20E-03    0.29E-06
   0     10    11.338   122.045    0.31E-04    0.76E-04    0.15E-06
   0     10    11.338    73.629    0.30E-04    0.72E-04    0.15E-06
   1      9    11.338    15.255    0.20E-03    0.19E-04    0.17E-06
   1      9    11.338     9.562    0.16E-03    0.15E-04    0.14E-06
 Optimization of the real space projectors (new method)

[...]

   l    n(q)    QCUT    max X(q) W(low)/X(q) W(high)/X(q)  e(spline)
   2      9    11.346   134.116    0.47E-03    0.13E-03    0.92E-06
   2      9    11.346   130.192    0.47E-03    0.13E-03    0.92E-06
   0     10    11.346    60.310    0.74E-04    0.13E-03    0.69E-06
   0     10    11.346    39.218    0.68E-04    0.12E-03    0.65E-06
   1     10    11.346    18.439    0.15E-03    0.34E-04    0.20E-06
   1     10    11.346    12.760    0.12E-03    0.31E-04    0.16E-06
 Optimization of the real space projectors (new method)

 maximal supplied QI-value         = 25.13
 optimisation between [QCUT,QGAM] = [ 11.31, 22.87] = [ 35.82,146.48] Ry
 Optimized for a Real-space Cutoff    1.00 Angstroem

   l    n(q)    QCUT    max X(q) W(low)/X(q) W(high)/X(q)  e(spline)
   0      7    11.310   115.676    0.43E-03    0.13E-02    0.19E-06
   0      7    11.310    87.132    0.43E-03    0.13E-02    0.18E-06
   1      6    11.310     4.429    0.42E-03    0.74E-03    0.11E-06
   1      6    11.310     2.733    0.34E-03    0.55E-03    0.92E-07
  PAW_PBE Ag 02Apr2005                  :
  PAW_PBE Ir 06Sep2000                  :
  PAW_PBE C 08Apr2002                   :

 POSCAR: Ag-Ir-C
  positions in direct lattice
  velocities in cartesian coordinates
 exchange correlation table for  LEXCH =        8
   RHO(1)=    0.500       N(1)  =     2000
   RHO(2)=  100.500       N(2)  =     4000

 VTST: version 3.2, (02/03/18)

 CHAIN: initializing optimizer

 OPT: Using VASP Conjugate-Gradient optimizer
 CHAIN: Read ICHAIN            0

 POSCAR: Ag-Ir-C
  positions in direct lattice
  velocities in cartesian coordinates

 ion  position               nearest neighbor table
   1  0.000  0.000  0.217-   2 2.93   8 2.93   7 2.93   6 2.93   4 2.93  12 2.93  16 2.93  10 2.93
                             3 2.93
   2  0.333  0.000  0.217-   1 2.93   8 2.93   9 2.93   3 2.93   4 2.93   5 2.93  10 2.93  17 2.93
                            11 2.93
   3  0.667  0.000  0.217-   9 2.93   2 2.93   5 2.93  11 2.93   7 2.93  18 2.93   1 2.93   6 2.93
                            12 2.93
   4  0.000  0.333  0.217-   5 2.93   6 2.93   2 2.93   1 2.93   7 2.93  13 2.93  15 2.93   9 2.93
                            10 2.93
   5  0.333  0.333  0.217-   4 2.93   3 2.93   7 2.93   2 2.93   8 2.93  14 2.93  13 2.93  11 2.93
                             6 2.93
   6  0.667  0.333  0.217-   4 2.93   9 2.93   1 2.93  15 2.93   8 2.93  12 2.93   3 2.93   5 2.93
                            14 2.93
   7  0.000  0.667  0.217-   8 2.93   1 2.93   5 2.93   3 2.93   4 2.93  16 2.93  18 2.93  13 2.93
                             9 2.93
   8  0.333  0.667  0.217-   7 2.93   1 2.93   2 2.93   9 2.93   5 2.93  16 2.93   6 2.93  17 2.93
                            14 2.93
   9  0.667  0.667  0.217-   3 2.93   2 2.93   8 2.93   6 2.93  17 2.93   4 2.93  15 2.93   7 2.93
                            18 2.93
  10  0.111  0.111  0.315-  20 2.89  12 2.93  16 2.93  15 2.93  17 2.93  13 2.93  11 2.93   2 2.93
                             1 2.93   4 2.93  19 2.93  26 2.93
  11  0.444  0.111  0.315-  21 2.90  20 2.90  27 2.92  14 2.93  17 2.93  18 2.93   3 2.93  12 2.93
                            13 2.93  10 2.93   5 2.93   2 2.93
  12  0.778  0.111  0.315-  21 2.89  10 2.93  16 2.93  18 2.93  15 2.93  11 2.93   1 2.93  14 2.93
                             6 2.93   3 2.93  25 2.93  19 2.93
  13  0.111  0.444  0.315-  20 2.90  23 2.90  22 2.92  15 2.93  14 2.93  18 2.93  10 2.93  11 2.93
                            16 2.93   4 2.93   5 2.93   7 2.93
  14  0.444  0.444  0.315-  23 2.90  21 2.90  24 2.92  13 2.93  11 2.93  16 2.93   5 2.93  12 2.93
                            17 2.93   8 2.93  15 2.93   6 2.93
  15  0.778  0.444  0.315-  24 2.92  22 2.92  19 2.93  13 2.93  10 2.93  12 2.93  17 2.93  18 2.93
                             4 2.93   6 2.93   9 2.93  14 2.93
  16  0.111  0.778  0.315-  23 2.89  18 2.93  12 2.93  10 2.93  14 2.93  17 2.93  13 2.93   7 2.93
                             8 2.93   1 2.93  26 2.93  25 2.93
  17  0.444  0.778  0.315-  27 2.92  24 2.92  26 2.93  11 2.93  10 2.93   9 2.93  18 2.93  15 2.93
                            16 2.93   2 2.93  14 2.93   8 2.93
  18  0.778  0.778  0.315-  22 2.92  27 2.92  25 2.93  16 2.93  12 2.93  13 2.93  11 2.93  17 2.93
                            15 2.93   7 2.93   3 2.93   9 2.93
  19  0.888  0.223  0.413-  28 2.90  24 2.92  22 2.92  15 2.93  20 2.93  21 2.93  10 2.93  12 2.93
                            32 2.94  31 2.94  26 2.94  25 2.94
  20  0.222  0.222  0.411-  36 2.77  10 2.89  13 2.90  11 2.90  31 2.92  29 2.92  19 2.93  26 2.93
                            27 2.93  22 2.93  21 2.94  23 2.94
  21  0.556  0.222  0.411-  36 2.77  12 2.89  11 2.90  14 2.90  30 2.92  32 2.92  25 2.93  19 2.93
                            27 2.93  24 2.93  20 2.94  23 2.94
  22  0.888  0.556  0.413-  35 2.90  18 2.92  15 2.92  13 2.92  24 2.92  27 2.92  25 2.92  19 2.92
                            33 2.93  31 2.93  23 2.93  20 2.93
  23  0.222  0.556  0.411-  36 2.77  16 2.89  14 2.90  13 2.90  34 2.92  33 2.92  26 2.93  25 2.93
                            22 2.93  24 2.93  21 2.94  20 2.94
  24  0.556  0.556  0.413-  35 2.90  15 2.92  17 2.92  14 2.92  27 2.92  22 2.92  19 2.92  26 2.92
                            32 2.93  34 2.93  23 2.93  21 2.93
  25  0.888  0.888  0.413-  28 2.90  22 2.92  27 2.92  18 2.93  23 2.93  21 2.93  16 2.93  12 2.93
                            33 2.94  30 2.94  26 2.94  19 2.94
  26  0.223  0.888  0.413-  28 2.90  27 2.92  24 2.92  17 2.93  23 2.93  20 2.93  16 2.93  10 2.93
                            34 2.94  29 2.94  25 2.94  19 2.94
  27  0.556  0.888  0.413-  35 2.90  17 2.92  18 2.92  11 2.92  24 2.92  22 2.92  26 2.92  25 2.92
                            29 2.93  30 2.93  20 2.93  21 2.93
  28  0.000  0.000  0.510-  26 2.90  25 2.90  19 2.90  29 2.96  34 2.96  33 2.96  32 2.96  31 2.96
                            30 2.96
  29  0.333  0.007  0.511-  31 2.87  30 2.88  36 2.88  20 2.92  27 2.93  26 2.94  28 2.96  35 2.96
                            34 3.04
  30  0.660  0.007  0.511-  32 2.87  29 2.88  36 2.88  21 2.92  27 2.93  25 2.94  28 2.96  35 2.96
                            33 3.04
  31  0.007  0.333  0.511-  29 2.87  33 2.88  36 2.88  20 2.92  22 2.93  19 2.94  28 2.96  35 2.96
                            32 3.04
  32  0.660  0.333  0.511-  30 2.87  34 2.88  36 2.88  21 2.92  24 2.93  19 2.94  28 2.96  35 2.96
                            31 3.04
  33  0.007  0.660  0.511-  34 2.87  31 2.88  36 2.88  23 2.92  22 2.93  25 2.94  28 2.96  35 2.96
                            30 3.04
  34  0.333  0.660  0.511-  33 2.87  32 2.88  36 2.88  23 2.92  24 2.93  26 2.94  28 2.96  35 2.96
                            29 3.04
  35  0.667  0.667  0.509-  24 2.90  27 2.90  22 2.90  30 2.96  32 2.96  29 2.96  34 2.96  31 2.96
                            33 2.96
  36  0.333  0.333  0.501-  37 1.73  21 2.77  20 2.77  23 2.77  31 2.88  30 2.88  33 2.88  29 2.88
                            34 2.88  32 2.88
  37  0.333  0.333  0.573-  36 1.73

  LATTYP: Found a hexagonal cell.
 ALAT       =     8.7913665772
 C/A-ratio  =     2.7711238095

  Lattice vectors:

 A1 = (  -4.3956832886,  -7.6135467898,   0.0000000000)
 A2 = (   8.7913665771,   0.0000000000,   0.0000000000)
 A3 = (   0.0000000000,   0.0000000000,  24.3619652401)

Analysis of symmetry for initial positions (statically):
 Subroutine PRICEL returns:
 Original cell was already a primitive cell.

 Routine SETGRP: Setting up the symmetry group for a
 hexagonal supercell.

 Subroutine GETGRP returns: Found  6 space group operations
 (whereof  6 operations were pure point group operations)
 out of a pool of 24 trial point group operations.

The static configuration has the point symmetry C_3v.

Analysis of symmetry for dynamics (positions and initial velocities):
 Subroutine PRICEL returns:
 Original cell was already a primitive cell.

[...]

The dynamic configuration has the point symmetry C_3v.

Analysis of constrained symmetry for selective dynamics:
 Subroutine PRICEL returns:
 Original cell was already a primitive cell.

 Routine SETGRP: Setting up the symmetry group for a
 hexagonal supercell.

 Subroutine GETGRP returns: Found  6 space group operations
[...]
     24      -5.1420      2.00000
     25      -5.1166      2.00000
     26      -5.0925      2.00000
     27      -5.0850      2.00000
     28      -5.0558      2.00000
     29      -5.0541      2.00000
     30      -5.0386      2.00000
     31      -5.0207      2.00000
     32      -5.0127      2.00000
     33      -4.9924      2.00000
     34      -4.9736      2.00000
     35      -4.9263      2.00000
     36      -4.9073      2.00000
     37      -4.9004      2.00000
     38      -4.8820      2.00000
     39      -4.8659      2.00000
     40      -4.8406      2.00000
     41      -4.8277      2.00000
     42      -4.8080      2.00000
     43      -4.7882      2.00000
     44      -4.7188      2.00000
     45      -4.6762      2.00000
     46      -4.6708      2.00000
     47      -4.6664      2.00000
     48      -4.6578      2.00000
     49      -4.6498      2.00000
     50      -4.6417      2.00000
     51      -4.6336      2.00000
     52      -4.6297      2.00000
     53      -4.6186      2.00000
     54      -4.5634      2.00000
     55      -4.5430      2.00000
     56      -4.5311      2.00000
     57      -4.5222      2.00000
     58      -4.5160      2.00000
     59      -4.4989      2.00000
     60      -4.4774      2.00000
[...]
    238       5.8161      0.00000
    239       5.9274      0.00000
    240       5.9632      0.00000
    241       6.4401      0.00000
    242       6.4523      0.00000
    243       6.6394      0.00000
    244       6.6579      0.00000
    245       6.7423      0.00000
    246       6.7635      0.00000
    247       6.7994      0.00000
    248       6.8873      0.00000
    249       6.9642      0.00000
    250       7.1287      0.00000
    251       7.2055      0.00000
    252       7.2365      0.00000

 soft charge-density along one line, spin component           1
         0         1         2         3         4         5         6         7         8         9
 total charge-density along one line

------------------------ aborting loop because EDIFF is reached ----------------------------------------

 total charge

# of ion       s       p       d       tot
    1        0.417   0.203   9.177   9.796
    2        0.415   0.204   9.177   9.796
    3        0.415   0.204   9.177   9.796
    4        0.415   0.204   9.177   9.796
    5        0.420   0.202   9.177   9.799
    6        0.415   0.204   9.177   9.796
    7        0.415   0.204   9.177   9.796
    8        0.415   0.204   9.177   9.796
    9        0.413   0.205   9.176   9.794
   10        0.407   0.268   9.165   9.840
   11        0.403   0.274   9.164   9.841
   12        0.407   0.268   9.165   9.840
   13        0.403   0.274   9.164   9.841
   14        0.403   0.274   9.164   9.841
   15        0.403   0.270   9.165   9.837
   16        0.407   0.268   9.165   9.840
   17        0.403   0.270   9.165   9.837
   18        0.403   0.270   9.165   9.837
   19        0.405   0.266   9.166   9.837
   20        0.424   0.296   9.154   9.873
   21        0.424   0.296   9.154   9.873
   22        0.397   0.275   9.166   9.838
   23        0.424   0.296   9.154   9.873
   24        0.397   0.275   9.166   9.838
   25        0.405   0.266   9.166   9.837
   26        0.405   0.266   9.166   9.837
   27        0.397   0.275   9.166   9.838
   28        0.418   0.195   9.182   9.795
   29        0.403   0.216   9.181   9.799
   30        0.403   0.216   9.181   9.799
   31        0.403   0.216   9.181   9.799
   32        0.403   0.216   9.181   9.799
   33        0.403   0.216   9.181   9.799
   34        0.403   0.216   9.181   9.799
   35        0.416   0.195   9.183   9.795
   36        0.732   0.580   7.234   8.545
   37        1.018   1.212   0.000   2.230
tot         16.058  10.254 328.212 354.524

  FORCE on cell =-STRESS in cart. coord.  units (eV):
  Direction    XX          YY          ZZ          XY          YZ          ZX
  Alpha Z   696.50223   696.50223   696.50223
  Ewald  154162.79873154162.79877************     0.00003     0.00000     0.00002
  Hartree164096.29931164096.29932************     0.00001    -0.00000     0.00001
  E(xc)   -2084.50075 -2084.50074 -2089.89728    -0.00001     0.00000     0.00000
  Local  ************************329813.49208     0.00023    -0.00004    -0.00010
  n-local  -335.77257  -317.27024  -328.09397    11.47988    -0.40433     0.57785
  augment  3261.04338  3261.04354  3262.76386    -0.00014    -0.00001     0.00004
  Kinetic  4944.08043  4946.12721  4949.40504     4.14824     1.12443    -0.43517
  Fock        0.00000     0.00000     0.00000     0.00000     0.00000     0.00000
  Total      -6.39997    -6.39997     0.04226    -0.00000    -0.00000    -0.00000
  in kB      -6.28829    -6.28829     0.04152    -0.00000    -0.00000    -0.00000

 VOLUME and BASIS-vectors are now :
  energy-cutoff  :      500.00
  volume of cell :     1630.63
      direct lattice vectors                 reciprocal lattice vectors
     8.791366577  0.000000000  0.000000000     0.113747958 -0.065672414  0.000000000
     4.395683289  7.613546790  0.000000000     0.000000000  0.131344829  0.000000000
     0.000000000  0.000000000 24.361965240     0.000000000  0.000000000  0.041047592

  length of vectors
     8.791366577  8.791366577 24.361965240     0.131344829  0.131344829  0.041047592

 FORCES acting on ions
    electron-ion (+dipol)            ewald-force                    non-local-force                 convergence-correction
   0.462E-04 -.281E-04 0.268E+04   -.954E-04 0.593E-04 -.268E+04   0.439E-17 0.255E-17 -.182E+01   -.127E-03 -.180E-03 0.626E-01
   0.527E+00 0.506E+00 0.268E+04   -.561E+00 -.538E+00 -.268E+04   0.185E-01 0.497E-01 -.167E+01   0.189E-01 -.137E-01 0.755E-01
   -.527E+00 0.506E+00 0.268E+04   0.561E+00 -.538E+00 -.268E+04   -.185E-01 0.497E-01 -.167E+01   -.194E-01 -.117E-01 0.762E-01
   0.702E+00 0.204E+00 0.268E+04   -.747E+00 -.217E+00 -.268E+04   0.523E-01 -.882E-02 -.167E+01   -.222E-02 0.234E-01 0.755E-01
   -.723E-05 -.197E-04 0.269E+04   0.981E-04 -.197E-05 -.268E+04   0.920E-18 0.130E-17 -.173E+01   0.630E-02 0.385E-02 0.150E+00
   -.702E+00 0.204E+00 0.268E+04   0.747E+00 -.217E+00 -.268E+04   -.523E-01 -.882E-02 -.167E+01   0.758E-03 0.243E-01 0.764E-01
   0.175E+00 -.710E+00 0.268E+04   -.186E+00 0.755E+00 -.268E+04   0.338E-01 -.409E-01 -.167E+01   -.194E-01 -.104E-01 0.762E-01
   -.175E+00 -.710E+00 0.268E+04   0.186E+00 0.755E+00 -.268E+04   -.338E-01 -.409E-01 -.167E+01   0.211E-01 -.115E-01 0.765E-01
   0.363E-04 -.130E-04 0.268E+04   0.792E-04 -.643E-04 -.268E+04   -.356E-17 -.149E-17 -.169E+01   -.670E-02 -.346E-02 0.683E-01
   0.661E+01 0.382E+01 0.910E+03   -.640E+01 -.370E+01 -.909E+03   -.228E+00 -.132E+00 -.605E+00   -.840E-02 -.482E-02 0.106E+00
   -.285E-04 0.522E+01 0.917E+03   0.410E-04 -.532E+01 -.917E+03   0.724E-12 0.110E+00 -.550E+00   0.644E-02 -.412E-01 0.895E-01
   -.661E+01 0.382E+01 0.910E+03   0.640E+01 -.370E+01 -.909E+03   0.228E+00 -.132E+00 -.605E+00   0.664E-02 -.333E-02 0.107E+00
   0.452E+01 -.261E+01 0.917E+03   -.460E+01 0.266E+01 -.917E+03   0.955E-01 -.551E-01 -.550E+00   -.325E-01 0.262E-01 0.894E-01
   -.452E+01 -.261E+01 0.917E+03   0.460E+01 0.266E+01 -.917E+03   -.955E-01 -.551E-01 -.550E+00   0.437E-01 0.255E-01 0.896E-01
   0.164E-04 0.155E+01 0.910E+03   -.109E-03 -.160E+01 -.910E+03   -.111E-12 -.169E-01 -.538E+00   -.196E-02 0.433E-01 0.599E-01
   -.781E-05 -.763E+01 0.910E+03   0.205E-04 0.739E+01 -.909E+03   0.173E-11 0.264E+00 -.605E+00   0.386E-03 0.734E-02 0.107E+00
   0.135E+01 -.777E+00 0.910E+03   -.139E+01 0.802E+00 -.910E+03   -.147E-01 0.846E-02 -.538E+00   0.365E-01 -.234E-01 0.599E-01
   -.135E+01 -.777E+00 0.910E+03   0.139E+01 0.802E+00 -.910E+03   0.147E-01 0.846E-02 -.538E+00   -.366E-01 -.211E-01 0.604E-01
   0.398E-04 0.389E+01 -.899E+03   -.129E-03 -.368E+01 0.898E+03   -.816E-12 -.124E+00 0.506E+00   -.640E-02 -.905E-01 -.357E-01
   0.136E+02 0.784E+01 -.854E+03   -.130E+02 -.750E+01 0.854E+03   -.670E+00 -.387E+00 -.234E+00   -.797E-01 -.460E-01 -.568E-01
   -.136E+02 0.784E+01 -.854E+03   0.130E+02 -.750E+01 0.854E+03   0.670E+00 -.387E+00 -.234E+00   0.813E-01 -.448E-01 -.571E-01
   0.392E+01 -.227E+01 -.885E+03   -.421E+01 0.243E+01 0.884E+03   0.334E+00 -.193E+00 0.746E+00   -.398E-01 0.180E-01 -.657E-01
   -.549E-04 -.157E+02 -.854E+03   0.437E-04 0.150E+02 0.854E+03   0.508E-11 0.774E+00 -.234E+00   0.218E-02 0.935E-01 -.571E-01
   -.392E+01 -.227E+01 -.885E+03   0.421E+01 0.243E+01 0.884E+03   -.334E+00 -.193E+00 0.746E+00   0.292E-01 0.170E-01 -.656E-01
   -.336E+01 -.194E+01 -.899E+03   0.319E+01 0.184E+01 0.898E+03   0.108E+00 0.621E-01 0.506E+00   0.726E-01 0.417E-01 -.360E-01
   0.336E+01 -.194E+01 -.899E+03   -.319E+01 0.184E+01 0.898E+03   -.108E+00 0.621E-01 0.506E+00   -.819E-01 0.396E-01 -.356E-01
   0.198E-04 0.453E+01 -.885E+03   0.110E-03 -.486E+01 0.884E+03   0.253E-11 0.386E+00 0.746E+00   -.504E-02 -.435E-01 -.657E-01
   0.539E-04 -.369E-04 -.266E+04   -.115E-03 0.780E-04 0.266E+04   0.112E-16 0.189E-17 0.195E+01   -.495E-04 -.165E-03 -.615E-01
   0.211E+02 0.379E+02 -.266E+04   -.209E+02 -.377E+02 0.266E+04   -.316E+00 -.479E+00 0.216E+01   -.881E-02 0.855E-02 -.806E-01
   -.211E+02 0.379E+02 -.266E+04   0.209E+02 -.377E+02 0.266E+04   0.316E+00 -.479E+00 0.216E+01   0.855E-02 0.104E-01 -.808E-01
   0.434E+02 -.727E+00 -.266E+04   -.431E+02 0.785E+00 0.266E+04   -.573E+00 -.343E-01 0.216E+01   0.322E-02 -.117E-01 -.806E-01
   -.434E+02 -.727E+00 -.266E+04   0.431E+02 0.785E+00 0.266E+04   0.573E+00 -.343E-01 0.216E+01   -.452E-02 -.109E-01 -.815E-01
   0.223E+02 -.372E+02 -.266E+04   -.222E+02 0.369E+02 0.266E+04   -.257E+00 0.513E+00 0.216E+01   0.138E-01 0.272E-02 -.808E-01
   -.223E+02 -.372E+02 -.266E+04   0.222E+02 0.369E+02 0.266E+04   0.257E+00 0.513E+00 0.216E+01   -.121E-01 0.162E-02 -.815E-01
   0.226E-04 -.120E-04 -.266E+04   0.106E-03 -.660E-04 0.266E+04   -.105E-16 0.172E-17 0.203E+01   -.671E-02 -.344E-02 -.783E-01
   -.138E-04 -.224E-04 -.194E+04   0.867E-04 0.108E-04 0.194E+04   -.709E-17 -.135E-17 0.470E+00   0.260E-02 0.157E-02 -.184E+00
   0.472E-04 -.288E-04 -.122E+04   0.193E-04 0.279E-06 0.123E+04   -.270E-18 -.691E-19 -.128E+02   0.811E-03 0.495E-03 -.138E+00
   0.398E-03 -.732E-03 0.125E+02   0.277E-13 -.242E-12 0.477E-11   0.204E-15 0.333E-15 -.127E+02   -.175E-01 -.684E-02 0.833E-01

 POSITION                                       TOTAL-FORCE (eV/Angst)
      0.00000      0.00000      5.28219         0.000000     -0.000000      0.003991
      2.93046      0.00000      5.28219         0.004089      0.004624      0.028406
      5.86091      0.00000      5.28219        -0.004089      0.004624      0.028406
      1.46523      2.53785      5.28219         0.006049      0.001229      0.028406
      4.39568      2.53785      5.28219         0.000000     -0.000000     -0.000998
      7.32614      2.53785      5.28219        -0.006049      0.001229      0.028406
      2.93046      5.07570      5.28219         0.001960     -0.005853      0.028406
      5.86091      5.07570      5.28219        -0.001960     -0.005853      0.028406
      8.79137      5.07570      5.28219         0.000000     -0.000000      0.029718
      1.46523      0.84595      7.67490        -0.025217     -0.014559     -0.004469
      4.39568      0.84595      7.67490        -0.000000     -0.032622     -0.061203
      7.32614      0.84595      7.67490         0.025217     -0.014559     -0.004469
      2.93046      3.38380      7.67490        -0.028252      0.016311     -0.061203
      5.86091      3.38380      7.67490         0.028252      0.016311     -0.061203
      8.79137      3.38380      7.67490        -0.000000     -0.022775     -0.003774
      4.39568      5.92165      7.67490         0.000000      0.029119     -0.004469
      7.32614      5.92165      7.67490        -0.019724      0.011387     -0.003774
     10.25659      5.92165      7.67490         0.019724      0.011387     -0.003774
      8.79137      1.70006     10.06849        -0.000000     -0.005901     -0.006011
      2.92657      1.68966     10.02287        -0.151429     -0.087428     -0.217848
      5.86479      1.68966     10.02287         0.151429     -0.087428     -0.217848
     10.25237      4.23218     10.05185         0.010437     -0.006026     -0.006282
      4.39568      4.23423     10.02287         0.000000      0.174855     -0.217848
      7.33036      4.23218     10.05185        -0.010437     -0.006026     -0.006282
     11.71475      6.76352     10.06849         0.005111      0.002951     -0.006011
      5.86798      6.76352     10.06849        -0.005111      0.002951     -0.006011
      8.79137      6.76272     10.05185         0.000000      0.012052     -0.006282
      0.00000      0.00000     12.42216         0.000000     -0.000000      0.026239
      2.95716      0.04978     12.43839        -0.129501     -0.247349     -0.079467
      5.83420      0.04978     12.43839         0.129501     -0.247349     -0.079467
      1.52169      2.53609     12.43839        -0.278961      0.011523     -0.079467
      7.26967      2.53609     12.43839         0.278961      0.011523     -0.079467
      2.96021      5.02768     12.43839        -0.149460      0.235825     -0.079467
      5.83115      5.02768     12.43839         0.149460      0.235825     -0.079467
      8.79137      5.07570     12.41166         0.000000     -0.000000      0.026866
      4.39568      2.53785     12.21369         0.000000     -0.000000      1.134911
      4.39568      2.53785     13.94744         0.000000     -0.000000     -0.015599
    total drift:                               -0.017069     -0.007571     -0.085141

  FREE ENERGIE OF THE ION-ELECTRON SYSTEM (eV)
  free  energy   TOTEN  =      -103.64010054 eV

  energy  without entropy=     -103.64010054  energy(sigma->0) =     -103.64010054

 stress matrix after NEB project (eV)
     -6.39997     -0.00000     -0.00000
     -0.00000     -6.39997     -0.00000
     -0.00000     -0.00000      0.04226
  FORCES: max atom, RMS     0.015599    0.002564
  FORCE total and by dimension    0.015599    0.015599
  Stress total and by dimension    9.051021    6.399968
|           W    W    AA    RRRRR   N    N  II  N    N   GGGG   !!!           |
|           W    W   A  A   R    R  NN   N  II  NN   N  G    G  !!!           |
|           W    W  A    A  R    R  N N  N  II  N N  N  G       !!!           |
|           W WW W  AAAAAA  RRRRR   N  N N  II  N  N N  G  GGG   !            |
|           WW  WW  A    A  R   R   N   NN  II  N   NN  G    G                |
|           W    W  A    A  R    R  N    N  II  N    N   GGGG   !!!           |
|     Tetrahedron method does not include variations of the Fermi             |
|     occupations, so forces and stress will be inaccurate. We suggest        |
|     using a different smearing scheme ISMEAR = 1 or 2 for metals in         |
|     relaxations.                                                            |

 total charge

# of ion       s       p       d       tot
    1        0.417   0.203   9.177   9.796
    2        0.415   0.204   9.177   9.796
    3        0.415   0.204   9.177   9.796
    4        0.415   0.204   9.177   9.796
    5        0.420   0.202   9.177   9.799
    6        0.415   0.204   9.177   9.796
    7        0.415   0.204   9.177   9.796
    8        0.415   0.204   9.177   9.796
    9        0.413   0.205   9.176   9.794
   10        0.407   0.268   9.165   9.840
   11        0.403   0.274   9.164   9.841
   12        0.407   0.268   9.165   9.840
   13        0.403   0.274   9.164   9.841
   14        0.403   0.274   9.164   9.841
   15        0.403   0.270   9.165   9.837
   16        0.407   0.268   9.165   9.840
   17        0.403   0.270   9.165   9.837
   18        0.403   0.270   9.165   9.837
   19        0.405   0.266   9.166   9.837
   20        0.424   0.296   9.154   9.873
   21        0.424   0.296   9.154   9.873
   22        0.397   0.275   9.166   9.838
   23        0.424   0.296   9.154   9.873
   24        0.397   0.275   9.166   9.838
   25        0.405   0.266   9.166   9.837
   26        0.405   0.266   9.166   9.837
   27        0.397   0.275   9.166   9.838
   28        0.418   0.195   9.182   9.795
   29        0.403   0.216   9.181   9.799
   30        0.403   0.216   9.181   9.799
   31        0.403   0.216   9.181   9.799
   32        0.403   0.216   9.181   9.799
   33        0.403   0.216   9.181   9.799
   34        0.403   0.216   9.181   9.799
   35        0.416   0.195   9.183   9.795
   36        0.732   0.580   7.234   8.545
   37        1.018   1.212   0.000   2.230
tot         16.058  10.254 328.212 354.524

 BZINTS: Fermi energy:    0.345802;  398.000000 electrons
         Band energy:-0.149382E+04;  BLOECHL correction:   -0.094275