 vasp.6.2.0 18Jan21 (build Jun 12 2021 23:27:24) complex

 executed on             LinuxIFC date 2022.05.27  05:55:55

 INCAR:
   ISMEAR = -5
   SIGMA = 0.1
   ISPIN = 1
   EDIFF = 1.d-5
   EDIFFG = -0.01
   NSW = 0
   NELM = 150
   ENCUT = 500
   ISIF = 2
   IBRION = 2
   LREAL = Auto
   ALGO = Fast
   ICHARG = 11
   LORBIT = 10
   LCHARG = .F.
   LWAVE = .F.

 POTCAR:    PAW_PBE Ag 02Apr2005
 POTCAR:    PAW_PBE Pt 04Feb2005
 POTCAR:    PAW_PBE H 15Jun2001
|           W    W    AA    RRRRR   N    N  II  N    N   GGGG   !!!           |
|           W    W   A  A   R    R  NN   N  II  NN   N  G    G  !!!           |
|           W    W  A    A  R    R  N N  N  II  N N  N  G       !!!           |
|           W WW W  AAAAAA  RRRRR   N  N N  II  N  N N  G  GGG   !            |
|           WW  WW  A    A  R   R   N   NN  II  N   NN  G    G                |
|           W    W  A    A  R    R  N    N  II  N    N   GGGG   !!!           |
|     For optimal performance we recommend to set                             |
|       NCORE = 2 up to number-of-cores-per-socket                            |
|     This setting can greatly improve the performance of VASP for DFT.       |
|     The default, NCORE=1 might be grossly inefficient on modern             |
|     multi-core architectures or massively parallel machines. Do your        |
|     Unfortunately you need to use the default for GW and RPA                |
|     calculations (for HF NCORE is supported but not extensively tested      |
|     yet).                                                                   |

 POTCAR:    PAW_PBE Ag 02Apr2005
   VRHFIN =Ag : s1 d10

   TITEL  = PAW_PBE Ag 02Apr2005
   POMASS =  107.868; ZVAL   =   11.000    mass and valenz
   ENMAX  =  249.844; ENMIN  =  187.383 eV

 POTCAR:    PAW_PBE Pt 04Feb2005
   VRHFIN =Pt: s1d9

   TITEL  = PAW_PBE Pt 04Feb2005
   POMASS =  195.080; ZVAL   =   10.000    mass and valenz
   ENMAX  =  230.283; ENMIN  =  172.712 eV

 POTCAR:    PAW_PBE H 15Jun2001
   VRHFIN =H: ultrasoft test

   TITEL  = PAW_PBE H 15Jun2001
   POMASS =    1.000; ZVAL   =    1.000    mass and valenz
   ENMAX  =  250.000; ENMIN  =  200.000 eV

 Optimization of the real space projectors (new method)

 maximal supplied QI-value         = 15.12
 optimisation between [QCUT,QGAM] = [ 11.34, 22.83] = [ 36.00,145.93] Ry
 Optimized for a Real-space Cutoff    1.43 Angstroem

   l    n(q)    QCUT    max X(q) W(low)/X(q) W(high)/X(q)  e(spline)
   2      9    11.338    53.897    0.16E-03    0.20E-03    0.28E-06
   2      9    11.338    52.416    0.16E-03    0.20E-03    0.29E-06
   0     10    11.338   122.045    0.31E-04    0.76E-04    0.15E-06
   0     10    11.338    73.629    0.30E-04    0.72E-04    0.15E-06
   1      9    11.338    15.255    0.20E-03    0.19E-04    0.17E-06
   1      9    11.338     9.562    0.16E-03    0.15E-04    0.14E-06
 Optimization of the real space projectors (new method)

[...]

   l    n(q)    QCUT    max X(q) W(low)/X(q) W(high)/X(q)  e(spline)
   2      9    11.346    66.195    0.31E-03    0.12E-04    0.29E-06
   2      9    11.346    64.643    0.32E-03    0.12E-04    0.29E-06
   0     10    11.346    95.520    0.90E-04    0.16E-04    0.19E-06
   0     10    11.346    63.403    0.87E-04    0.15E-04    0.19E-06
   1     10    11.346    19.961    0.17E-03    0.21E-03    0.11E-06
   1     10    11.346    13.289    0.14E-03    0.18E-03    0.89E-07
 Optimization of the real space projectors (new method)

 maximal supplied QI-value         = 34.20
 optimisation between [QCUT,QGAM] = [ 11.29, 22.57] = [ 35.68,142.71] Ry
 Optimized for a Real-space Cutoff    1.16 Angstroem

   l    n(q)    QCUT    max X(q) W(low)/X(q) W(high)/X(q)  e(spline)
   0      8    11.287    19.460    0.40E-03    0.73E-03    0.16E-06
   0      8    11.287    12.209    0.38E-03    0.70E-03    0.15E-06
   1      7    11.287     4.655    0.22E-03    0.25E-04    0.22E-06
  PAW_PBE Ag 02Apr2005                  :
  PAW_PBE Pt 04Feb2005                  :
  PAW_PBE H 15Jun2001                   :

 POSCAR: Ag-Pt-H2
  positions in direct lattice
  velocities in cartesian coordinates
 exchange correlation table for  LEXCH =        8
   RHO(1)=    0.500       N(1)  =     2000
   RHO(2)=  100.500       N(2)  =     4000

 VTST: version 3.2, (02/03/18)

 CHAIN: initializing optimizer

 OPT: Using VASP Conjugate-Gradient optimizer
 CHAIN: Read ICHAIN            0

 POSCAR: Ag-Pt-H2
  positions in direct lattice
  velocities in cartesian coordinates

 ion  position               nearest neighbor table
   1  0.000  0.000  0.238-   2 2.93   8 2.93   7 2.93   6 2.93   4 2.93  12 2.93  16 2.93  10 2.93
                             3 2.93
   2  0.333  0.000  0.238-   1 2.93   8 2.93   9 2.93   3 2.93   4 2.93   5 2.93  10 2.93  17 2.93
                            11 2.93
   3  0.667  0.000  0.238-   9 2.93   2 2.93   5 2.93  11 2.93   7 2.93  18 2.93   1 2.93   6 2.93
                            12 2.93
   4  0.000  0.333  0.238-   5 2.93   6 2.93   2 2.93   1 2.93   7 2.93  13 2.93  15 2.93   9 2.93
                            10 2.93
   5  0.333  0.333  0.238-   4 2.93   3 2.93   7 2.93   2 2.93   8 2.93  14 2.93  13 2.93  11 2.93
                             6 2.93
   6  0.667  0.333  0.238-   4 2.93   9 2.93   1 2.93  15 2.93   8 2.93  12 2.93   3 2.93   5 2.93
                            14 2.93
   7  0.000  0.667  0.238-   8 2.93   1 2.93   5 2.93   3 2.93   4 2.93  16 2.93  18 2.93  13 2.93
                             9 2.93
   8  0.333  0.667  0.238-   7 2.93   1 2.93   2 2.93   9 2.93   5 2.93  16 2.93   6 2.93  17 2.93
                            14 2.93
   9  0.667  0.667  0.238-   3 2.93   2 2.93   8 2.93   6 2.93  17 2.93   4 2.93  15 2.93   7 2.93
                            18 2.93
  10  0.111  0.111  0.346-  20 2.89  19 2.93  26 2.93  12 2.93  16 2.93  15 2.93  17 2.93  13 2.93
                            11 2.93   2 2.93   1 2.93   4 2.93
  11  0.444  0.111  0.346-  21 2.90  20 2.90  27 2.91  14 2.93  17 2.93  18 2.93   3 2.93  12 2.93
                            13 2.93  10 2.93   5 2.93   2 2.93
  12  0.778  0.111  0.346-  21 2.89  25 2.93  19 2.93  10 2.93  16 2.93  18 2.93  15 2.93  11 2.93
                             1 2.93  14 2.93   6 2.93   3 2.93
  13  0.111  0.444  0.346-  20 2.90  23 2.90  22 2.91  15 2.93  14 2.93  18 2.93  10 2.93  11 2.93
                            16 2.93   4 2.93   5 2.93   7 2.93
  14  0.444  0.444  0.346-  23 2.90  21 2.90  24 2.91  13 2.93  11 2.93  16 2.93   5 2.93  12 2.93
                            17 2.93   8 2.93  15 2.93   6 2.93
  15  0.778  0.444  0.346-  24 2.91  22 2.91  19 2.92  13 2.93  10 2.93  12 2.93  17 2.93  18 2.93
                             4 2.93   6 2.93   9 2.93  14 2.93
  16  0.111  0.778  0.346-  23 2.89  26 2.93  25 2.93  18 2.93  12 2.93  10 2.93  14 2.93  17 2.93
                            13 2.93   7 2.93   8 2.93   1 2.93
  17  0.444  0.778  0.346-  27 2.91  24 2.91  26 2.92  11 2.93  10 2.93   9 2.93  18 2.93  15 2.93
                            16 2.93   2 2.93  14 2.93   8 2.93
  18  0.778  0.778  0.346-  22 2.91  27 2.91  25 2.92  16 2.93  12 2.93  13 2.93  11 2.93  17 2.93
                            15 2.93   7 2.93   3 2.93   9 2.93
  19  0.888  0.223  0.454-  28 2.91  15 2.92  20 2.92  21 2.92  24 2.92  22 2.92  10 2.93  12 2.93
                            32 2.93  31 2.93  26 2.94  25 2.94
  20  0.221  0.221  0.452-  36 2.81  10 2.89  13 2.90  11 2.90  19 2.92  26 2.92  31 2.92  29 2.92
                            27 2.93  22 2.93  21 2.95  23 2.95
  21  0.557  0.221  0.452-  36 2.81  12 2.89  11 2.90  14 2.90  25 2.92  19 2.92  30 2.92  32 2.92
                            27 2.93  24 2.93  20 2.95  23 2.95
  22  0.889  0.556  0.453-  35 2.91  18 2.91  15 2.91  13 2.91  25 2.92  19 2.92  24 2.93  27 2.93
                            33 2.93  31 2.93  23 2.93  20 2.93
  23  0.221  0.557  0.452-  36 2.81  16 2.89  14 2.90  13 2.90  26 2.92  25 2.92  34 2.92  33 2.92
                            22 2.93  24 2.93  21 2.95  20 2.95
  24  0.556  0.556  0.453-  35 2.91  15 2.91  17 2.91  14 2.91  19 2.92  26 2.92  27 2.93  22 2.93
                            32 2.93  34 2.93  23 2.93  21 2.93
  25  0.888  0.888  0.454-  28 2.91  18 2.92  23 2.92  21 2.92  22 2.92  27 2.92  16 2.93  12 2.93
                            33 2.93  30 2.93  26 2.94  19 2.94
  26  0.223  0.888  0.454-  28 2.91  17 2.92  23 2.92  20 2.92  27 2.92  24 2.92  16 2.93  10 2.93
                            34 2.93  29 2.93  25 2.94  19 2.94
  27  0.556  0.889  0.453-  35 2.91  17 2.91  18 2.91  11 2.91  26 2.92  25 2.92  24 2.93  22 2.93
                            29 2.93  30 2.93  20 2.93  21 2.93
  28  0.000  0.000  0.560-  26 2.91  25 2.91  19 2.91  29 2.95  34 2.95  33 2.95  32 2.95  31 2.95
                            30 2.95
  29  0.333  0.004  0.561-  30 2.89  31 2.89  36 2.90  20 2.92  27 2.93  26 2.93  35 2.95  28 2.95
                            34 3.00
  30  0.662  0.004  0.561-  29 2.89  32 2.89  36 2.90  21 2.92  27 2.93  25 2.93  35 2.95  28 2.95
                            33 3.00
  31  0.004  0.333  0.561-  37 2.11  33 2.89  29 2.89  36 2.90  20 2.92  22 2.93  19 2.93  35 2.95
                            28 2.95  32 3.00
  32  0.662  0.333  0.561-  38 2.11  34 2.89  30 2.89  36 2.90  21 2.92  24 2.93  19 2.93  35 2.95
                            28 2.95  31 3.00
  33  0.004  0.662  0.561-  31 2.89  34 2.89  36 2.90  23 2.92  22 2.93  25 2.93  35 2.95  28 2.95
                            30 3.00
  34  0.333  0.662  0.561-  32 2.89  33 2.89  36 2.90  23 2.92  24 2.93  26 2.93  35 2.95  28 2.95
                            29 3.00
  35  0.667  0.667  0.560-  24 2.91  27 2.91  22 2.91  30 2.95  32 2.95  29 2.95  34 2.95  31 2.95
                            33 2.95
  36  0.333  0.333  0.553-  38 1.63  37 1.63  21 2.81  20 2.81  23 2.81  31 2.90  33 2.90  30 2.90
                            29 2.90  34 2.90  32 2.90
  37  0.216  0.325  0.608-  36 1.63  31 2.11
  38  0.459  0.325  0.608-  36 1.63  32 2.11

  LATTYP: Found a hexagonal cell.
 ALAT       =     8.7913665772
 C/A-ratio  =     2.5227160501

  Lattice vectors:

 A1 = (  -4.3956832886,  -7.6135467898,   0.0000000000)
 A2 = (   8.7913665771,   0.0000000000,   0.0000000000)
 A3 = (   0.0000000000,   0.0000000000,  22.1781215668)

Analysis of symmetry for initial positions (statically):
 Subroutine PRICEL returns:
 Original cell was already a primitive cell.

 Routine SETGRP: Setting up the symmetry group for a
 hexagonal supercell.

 Subroutine GETGRP returns: Found  2 space group operations
 (whereof  2 operations were pure point group operations)
 out of a pool of 24 trial point group operations.

The static configuration has the point symmetry C_1h.

Analysis of symmetry for dynamics (positions and initial velocities):
 Subroutine PRICEL returns:
 Original cell was already a primitive cell.

[...]

The dynamic configuration has the point symmetry C_1h.

Analysis of constrained symmetry for selective dynamics:
 Subroutine PRICEL returns:
 Original cell was already a primitive cell.

 Routine SETGRP: Setting up the symmetry group for a
 hexagonal supercell.

[...]
     33      -4.4121      2.00000
     34      -4.3927      2.00000
     35      -4.3466      2.00000
     36      -4.3361      2.00000
     37      -4.3156      2.00000
     38      -4.2892      2.00000
     39      -4.2523      2.00000
     40      -4.2427      2.00000
     41      -4.2361      2.00000
     42      -4.2098      2.00000
     43      -4.1921      2.00000
     44      -4.1370      2.00000
     45      -4.1162      2.00000
     46      -4.0841      2.00000
     47      -4.0805      2.00000
     48      -4.0716      2.00000
     49      -4.0677      2.00000
     50      -4.0589      2.00000
     51      -4.0511      2.00000
     52      -4.0442      2.00000
     53      -4.0354      2.00000
     54      -4.0236      2.00000
     55      -3.9556      2.00000
     56      -3.9361      2.00000
     57      -3.9310      2.00000
     58      -3.9223      2.00000
     59      -3.9202      2.00000
     60      -3.8987      2.00000
[...]
    238       6.8950      0.00000
    239       7.1998      0.00000
    240       7.2405      0.00000
    241       7.2705      0.00000
    242       7.3157      0.00000
    243       7.3704      0.00000
    244       7.3784      0.00000
    245       7.4145      0.00000
    246       7.5648      0.00000
    247       7.5900      0.00000
    248       7.6495      0.00000
    249       7.6895      0.00000
    250       7.9450      0.00000
    251       8.0231      0.00000
    252       8.0260      0.00000

 soft charge-density along one line, spin component           1
         0         1         2         3         4         5         6         7         8         9
 total charge-density along one line

------------------------ aborting loop because EDIFF is reached ----------------------------------------

 total charge

# of ion       s       p       d       tot
    1        0.415   0.203   9.179   9.797
    2        0.419   0.202   9.177   9.799
    3        0.419   0.202   9.177   9.799
    4        0.419   0.203   9.177   9.799
    5        0.418   0.205   9.174   9.797
    6        0.419   0.203   9.177   9.799
    7        0.418   0.203   9.177   9.798
    8        0.418   0.203   9.177   9.798
    9        0.414   0.204   9.178   9.796
   10        0.406   0.271   9.163   9.840
   11        0.411   0.268   9.166   9.845
   12        0.406   0.271   9.163   9.840
   13        0.409   0.269   9.166   9.844
   14        0.409   0.269   9.166   9.844
   15        0.402   0.272   9.164   9.838
   16        0.406   0.270   9.164   9.840
   17        0.400   0.272   9.166   9.837
   18        0.400   0.272   9.166   9.837
   19        0.404   0.271   9.164   9.839
   20        0.420   0.287   9.157   9.864
   21        0.420   0.287   9.157   9.864
   22        0.397   0.275   9.166   9.838
   23        0.415   0.288   9.158   9.861
   24        0.397   0.275   9.166   9.838
   25        0.403   0.270   9.165   9.838
   26        0.403   0.270   9.165   9.838
   27        0.398   0.276   9.164   9.838
   28        0.418   0.197   9.182   9.798
   29        0.401   0.211   9.185   9.797
   30        0.401   0.211   9.185   9.797
   31        0.399   0.240   9.168   9.807
   32        0.399   0.240   9.168   9.807
   33        0.402   0.210   9.185   9.796
   34        0.402   0.210   9.185   9.796
   35        0.417   0.199   9.182   9.797
   36        0.676   0.597   8.138   9.410
   37        0.497   0.024   0.000   0.522
   38        0.497   0.024   0.000   0.522
tot         15.975   9.126 329.115 354.217

  FORCE on cell =-STRESS in cart. coord.  units (eV):
  Direction    XX          YY          ZZ          XY          YZ          ZX
  Alpha Z   750.51402   750.51402   750.51402
  Ewald  122161.61195122092.88542************     0.00002    -1.91445     0.00001
  Hartree132341.57845132322.16351************     0.00001    -0.08776     0.00000
  E(xc)   -2079.80058 -2080.27355 -2085.61732    -0.00003    -0.01622     0.00000
  Local  ************************266062.83035     0.00034     1.11480    -0.00005
  n-local  -317.06379  -316.50343  -321.82971     2.33635     0.05819     0.05423
  augment  3271.78183  3274.82936  3279.97290    -0.00021     0.14955    -0.00004
  Kinetic  4926.13489  4936.96127  4950.49545     1.03545     0.77771     0.00969
  Fock        0.00000     0.00000     0.00000     0.00000     0.00000     0.00000
  Total      -6.64568    -6.47051    -0.19999    -0.00000     0.08182     0.00000
  in kB      -7.17269    -6.98362    -0.21585    -0.00000     0.08830     0.00000

 VOLUME and BASIS-vectors are now :
  energy-cutoff  :      500.00
  volume of cell :     1484.46
      direct lattice vectors                 reciprocal lattice vectors
     8.791366577  0.000000000  0.000000000     0.113747958 -0.065672414  0.000000000
     4.395683289  7.613546790  0.000000000     0.000000000  0.131344829  0.000000000
     0.000000000  0.000000000 22.178121567     0.000000000  0.000000000  0.045089481

  length of vectors
     8.791366577  8.791366577 22.178121567     0.131344829  0.131344829  0.045089481

 FORCES acting on ions
    electron-ion (+dipol)            ewald-force                    non-local-force                 convergence-correction
   0.460E-04 -.293E-01 0.251E+04   -.954E-04 -.189E-01 -.251E+04   0.229E-12 0.348E-01 -.244E+01   -.107E-03 0.173E-01 -.610E-01
   0.425E+00 0.387E+00 0.251E+04   -.410E+00 -.341E+00 -.251E+04   0.153E-01 -.344E-02 -.167E+01   -.158E-01 -.205E-01 0.285E-01
   -.425E+00 0.387E+00 0.251E+04   0.410E+00 -.341E+00 -.251E+04   -.153E-01 -.344E-02 -.167E+01   0.152E-01 -.186E-01 0.292E-01
   0.551E+00 0.162E+00 0.251E+04   -.485E+00 -.189E+00 -.251E+04   -.117E-01 0.155E-01 -.161E+01   -.318E-01 0.116E-01 -.221E-01
   -.788E-05 0.467E-01 0.251E+04   0.981E-04 0.512E-02 -.251E+04   -.332E-12 -.505E-01 -.145E+01   0.624E-02 -.374E-02 0.401E-01
   -.551E+00 0.162E+00 0.251E+04   0.485E+00 -.189E+00 -.251E+04   0.117E-01 0.155E-01 -.161E+01   0.304E-01 0.125E-01 -.212E-01
   0.126E+00 -.541E+00 0.251E+04   -.737E-01 0.531E+00 -.251E+04   -.565E-02 -.237E-01 -.167E+01   -.329E-01 0.939E-02 0.139E-02
   -.126E+00 -.541E+00 0.251E+04   0.736E-01 0.530E+00 -.251E+04   0.565E-02 -.237E-01 -.167E+01   0.345E-01 0.839E-02 0.155E-02
   0.361E-04 0.602E-02 0.251E+04   0.792E-04 0.139E-01 -.251E+04   0.192E-14 0.292E-03 -.207E+01   -.667E-02 -.223E-01 0.263E-01
   0.518E+01 0.325E+01 0.850E+03   -.497E+01 -.299E+01 -.849E+03   -.303E+00 -.272E+00 -.887E+00   0.853E-01 0.177E-01 0.899E-01
   -.285E-04 0.282E+01 0.855E+03   0.411E-04 -.292E+01 -.854E+03   0.358E-12 0.545E-01 -.537E+00   0.629E-02 0.165E-01 0.786E-01
   -.518E+01 0.325E+01 0.850E+03   0.497E+01 -.299E+01 -.849E+03   0.303E+00 -.272E+00 -.887E+00   -.868E-01 0.187E-01 0.898E-01
   0.236E+01 -.145E+01 0.855E+03   -.241E+01 0.152E+01 -.854E+03   0.902E-02 -.460E-01 -.490E+00   0.183E-01 -.555E-02 0.100E+00
   -.236E+01 -.145E+01 0.855E+03   0.241E+01 0.152E+01 -.854E+03   -.902E-02 -.460E-01 -.490E+00   -.764E-02 -.636E-02 0.994E-01
   0.162E-04 0.113E+01 0.851E+03   -.108E-03 -.128E+01 -.850E+03   0.618E-12 0.941E-01 -.694E+00   -.166E-02 0.340E-01 0.107E+00
   -.797E-05 -.603E+01 0.850E+03   0.205E-04 0.574E+01 -.849E+03   0.237E-11 0.360E+00 -.933E+00   0.117E-03 -.757E-01 0.109E+00
   0.119E+01 -.738E+00 0.851E+03   -.121E+01 0.712E+00 -.850E+03   0.275E-02 0.368E-01 -.762E+00   0.291E-02 0.135E-03 0.849E-01
   -.119E+01 -.738E+00 0.851E+03   0.121E+01 0.712E+00 -.850E+03   -.275E-02 0.368E-01 -.762E+00   -.291E-02 0.205E-02 0.855E-01
   0.422E-04 0.444E+01 -.846E+03   -.130E-03 -.434E+01 0.845E+03   -.545E-12 -.829E-01 0.404E+00   -.622E-03 -.114E-01 0.838E-01
   0.922E+01 0.619E+01 -.811E+03   -.852E+01 -.569E+01 0.811E+03   -.731E+00 -.557E+00 -.911E+00   0.316E-01 0.458E-01 0.135E+00
   -.922E+01 0.619E+01 -.811E+03   0.852E+01 -.569E+01 0.811E+03   0.731E+00 -.557E+00 -.911E+00   -.316E-01 0.459E-01 0.134E+00
   0.304E+01 -.274E+01 -.835E+03   -.341E+01 0.288E+01 0.834E+03   0.299E+00 -.144E+00 0.693E+00   0.901E-01 -.136E-01 0.738E-01
   -.545E-04 -.119E+02 -.813E+03   0.434E-04 0.110E+02 0.813E+03   0.556E-11 0.847E+00 -.792E+00   0.502E-03 -.106E-01 0.131E+00
   -.304E+01 -.274E+01 -.835E+03   0.341E+01 0.288E+01 0.834E+03   -.299E+00 -.144E+00 0.693E+00   -.900E-01 -.135E-01 0.744E-01
   -.361E+01 -.140E+01 -.847E+03   0.348E+01 0.145E+01 0.847E+03   0.111E+00 -.644E-02 0.633E+00   0.298E-01 -.398E-01 0.754E-01
   0.361E+01 -.140E+01 -.847E+03   -.348E+01 0.145E+01 0.847E+03   -.111E+00 -.644E-02 0.633E+00   -.298E-01 -.407E-01 0.753E-01
   0.192E-04 0.398E+01 -.836E+03   0.110E-03 -.416E+01 0.835E+03   0.118E-11 0.180E+00 0.682E+00   -.559E-03 0.386E-01 0.669E-01
   0.542E-04 0.292E+01 -.251E+04   -.116E-03 -.286E+01 0.250E+04   -.963E-12 -.147E+00 0.190E+01   -.112E-02 0.583E-01 0.144E+00
   0.113E+02 0.272E+02 -.251E+04   -.110E+02 -.276E+02 0.251E+04   -.291E+00 0.200E+00 0.220E+01   -.564E-01 0.314E-01 0.133E+00
   -.113E+02 0.272E+02 -.251E+04   0.110E+02 -.276E+02 0.251E+04   0.291E+00 0.200E+00 0.220E+01   0.661E-01 0.329E-01 0.133E+00
   0.387E+02 -.121E+01 -.250E+04   -.388E+02 0.126E+01 0.250E+04   -.161E+00 -.490E-01 0.165E+01   -.116E-01 0.204E-01 0.169E+00
   -.387E+02 -.121E+01 -.250E+04   0.388E+02 0.126E+01 0.250E+04   0.161E+00 -.490E-01 0.165E+01   0.211E-01 0.212E-01 0.169E+00
   0.105E+02 -.251E+02 -.251E+04   -.103E+02 0.254E+02 0.251E+04   -.234E+00 -.501E-01 0.215E+01   -.291E-01 -.321E-01 0.124E+00
   -.105E+02 -.251E+02 -.251E+04   0.103E+02 0.254E+02 0.251E+04   0.234E+00 -.501E-01 0.215E+01   0.408E-01 -.327E-01 0.124E+00
   0.235E-04 -.226E+01 -.250E+04   0.106E-03 0.220E+01 0.250E+04   0.114E-11 0.174E+00 0.193E+01   -.774E-02 -.932E-01 0.154E+00
   -.752E-05 -.439E+01 -.214E+04   0.953E-04 0.421E+01 0.214E+04   0.115E-11 0.175E+00 -.433E+01   0.180E-02 0.275E-01 0.741E-02
   0.962E+01 0.640E+00 -.294E+03   -.108E+02 -.730E+00 0.296E+03   0.114E+01 0.838E-01 -.191E+01   -.379E-03 0.224E-02 -.496E-02
   -.962E+01 0.640E+00 -.294E+03   0.108E+02 -.730E+00 0.296E+03   -.114E+01 0.838E-01 -.191E+01   0.295E-03 0.227E-02 -.503E-02
   0.352E-03 -.423E-01 0.107E+02   0.107E-12 0.201E-12 0.364E-11   0.486E-13 0.737E-02 -.135E+02   0.362E-01 0.346E-01 0.286E+01

 POSITION                                       TOTAL-FORCE (eV/Angst)
      0.00000      0.00000      5.28219         0.000000      0.003941      0.058690
      2.93046      0.00000      5.28219         0.014177      0.022828      0.041071
      5.86091      0.00000      5.28219        -0.014177      0.022828      0.041071
      1.46523      2.53785      5.28219         0.023856      0.000300      0.049457
      4.39568      2.53785      5.28219        -0.000000     -0.002449      0.022874
      7.32614      2.53785      5.28219        -0.023856      0.000300      0.049457
      2.93046      5.07570      5.28219         0.013413     -0.025568      0.046699
      5.86091      5.07570      5.28219        -0.013413     -0.025568      0.046699
      8.79137      5.07570      5.28219        -0.000000     -0.002052      0.049679
      1.46523      0.84595      7.67490        -0.008079      0.003345     -0.013177
      4.39568      0.84595      7.67490        -0.000000     -0.033538     -0.088954
      7.32614      0.84595      7.67490         0.008079      0.003345     -0.013177
      2.93046      3.38380      7.67490        -0.028759      0.013258     -0.089103
      5.86091      3.38380      7.67490         0.028759      0.013258     -0.089103
      8.79137      3.38380      7.67490        -0.000000     -0.027189     -0.024518
      4.39568      5.92165      7.67490        -0.000000     -0.009536     -0.018201
      7.32614      5.92165      7.67490        -0.013705      0.012121     -0.012636
     10.25659      5.92165      7.67490         0.013705      0.012121     -0.012636
      8.79137      1.70009     10.06101         0.000000      0.006216      0.019749
      2.92042      1.68610     10.02751         0.000458     -0.002922     -0.165307
      5.87095      1.68610     10.02751        -0.000458     -0.002922     -0.165307
     10.25445      4.23098     10.04520         0.013125     -0.023068      0.005094
      4.39568      4.24134     10.02751         0.000000      0.002628     -0.185563
      7.32828      4.23098     10.04520        -0.013125     -0.023068      0.005094
     11.71473      6.76350     10.06101         0.008783      0.001701      0.005250
      5.86800      6.76350     10.06101        -0.008783      0.001701      0.005250
      8.79137      6.76512     10.04520         0.000000      0.038620      0.022659
      0.00000      0.00000     12.42233        -0.000000     -0.027152     -0.009992
      2.94927      0.03214     12.43461        -0.069367     -0.188214     -0.049620
      5.84210      0.03214     12.43461         0.069367     -0.188214     -0.049620
      1.50247      2.53807     12.43461        -0.244240      0.017318     -0.021390
      7.28890      2.53807     12.43461         0.244240      0.017318     -0.021390
      2.94888      5.04334     12.43461        -0.073584      0.179064     -0.034097
      5.84248      5.04334     12.43461         0.073584      0.179064     -0.034097
      8.79137      5.07570     12.41249         0.000000      0.020425     -0.017634
      4.39568      2.53785     12.25656         0.000000      0.017345      0.661491
      3.32637      2.47244     13.48470        -0.011709     -0.003793     -0.007381
      5.46500      2.47244     13.48470         0.011709     -0.003793     -0.007381
    total drift:                                0.036583     -0.000313      0.058715

  FREE ENERGIE OF THE ION-ELECTRON SYSTEM (eV)
  free  energy   TOTEN  =      -102.22198184 eV

  energy  without entropy=     -102.22198184  energy(sigma->0) =     -102.22198184

 stress matrix after NEB project (eV)
     -6.64568     -0.00000      0.00000
     -0.00000     -6.47051      0.08182
      0.00000      0.08182     -0.19999
  FORCES: max atom, RMS     0.014351    0.003292
  FORCE total and by dimension    0.020296    0.011709
  Stress total and by dimension    9.278252    6.645683
|           W    W    AA    RRRRR   N    N  II  N    N   GGGG   !!!           |
|           W    W   A  A   R    R  NN   N  II  NN   N  G    G  !!!           |
|           W    W  A    A  R    R  N N  N  II  N N  N  G       !!!           |
|           W WW W  AAAAAA  RRRRR   N  N N  II  N  N N  G  GGG   !            |
|           WW  WW  A    A  R   R   N   NN  II  N   NN  G    G                |
|           W    W  A    A  R    R  N    N  II  N    N   GGGG   !!!           |
|     Tetrahedron method does not include variations of the Fermi             |
|     occupations, so forces and stress will be inaccurate. We suggest        |
|     using a different smearing scheme ISMEAR = 1 or 2 for metals in         |
|     relaxations.                                                            |

 total charge

# of ion       s       p       d       tot
    1        0.415   0.203   9.179   9.797
    2        0.419   0.202   9.177   9.799
    3        0.419   0.202   9.177   9.799
    4        0.419   0.203   9.177   9.799
    5        0.418   0.205   9.174   9.797
    6        0.419   0.203   9.177   9.799
    7        0.418   0.203   9.177   9.798
    8        0.418   0.203   9.177   9.798
    9        0.414   0.204   9.178   9.796
   10        0.406   0.271   9.163   9.840
   11        0.411   0.268   9.166   9.845
   12        0.406   0.271   9.163   9.840
   13        0.409   0.269   9.166   9.844
   14        0.409   0.269   9.166   9.844
   15        0.402   0.272   9.164   9.838
   16        0.406   0.270   9.164   9.840
   17        0.400   0.272   9.166   9.837
   18        0.400   0.272   9.166   9.837
   19        0.404   0.271   9.164   9.839
   20        0.420   0.287   9.157   9.864
   21        0.420   0.287   9.157   9.864
   22        0.397   0.275   9.166   9.838
   23        0.415   0.288   9.158   9.861
   24        0.397   0.275   9.166   9.838
   25        0.403   0.270   9.165   9.838
   26        0.403   0.270   9.165   9.838
   27        0.398   0.276   9.164   9.838
   28        0.418   0.197   9.182   9.798
   29        0.401   0.211   9.185   9.797
   30        0.401   0.211   9.185   9.797
   31        0.399   0.240   9.168   9.807
   32        0.399   0.240   9.168   9.807
   33        0.402   0.210   9.185   9.796
   34        0.402   0.210   9.185   9.796
   35        0.417   0.199   9.182   9.797
   36        0.676   0.597   8.138   9.410
   37        0.497   0.024   0.000   0.522
   38        0.497   0.024   0.000   0.522
tot         15.975   9.126 329.115 354.217

 BZINTS: Fermi energy:    0.955890;  397.000000 electrons
         Band energy:-0.125506E+04;  BLOECHL correction:   -0.067364