 vasp.6.2.0 18Jan21 (build Jun 12 2021 23:27:24) complex

 executed on             LinuxIFC date 2022.05.28  01:35:22

 INCAR:
   ISMEAR = -5
   SIGMA = 0.1
   ISPIN = 1
   EDIFF = 1.d-5
   EDIFFG = -0.01
   NSW = 0
   NELM = 150
   ENCUT = 500
   ISIF = 2
   IBRION = 2
   LREAL = Auto
   ALGO = Fast
   ICHARG = 11
   LORBIT = 10
   LCHARG = .F.
   LWAVE = .F.

 POTCAR:    PAW_PBE Ag 02Apr2005
 POTCAR:    PAW_PBE Co 02Aug2007
 POTCAR:    PAW_PBE H 15Jun2001
 POTCAR:    PAW_PBE O 08Apr2002
|           W    W    AA    RRRRR   N    N  II  N    N   GGGG   !!!           |
|           W    W   A  A   R    R  NN   N  II  NN   N  G    G  !!!           |
|           W    W  A    A  R    R  N N  N  II  N N  N  G       !!!           |
|           W WW W  AAAAAA  RRRRR   N  N N  II  N  N N  G  GGG   !            |
|           WW  WW  A    A  R   R   N   NN  II  N   NN  G    G                |
|           W    W  A    A  R    R  N    N  II  N    N   GGGG   !!!           |
|     For optimal performance we recommend to set                             |
|       NCORE = 2 up to number-of-cores-per-socket                            |
|     This setting can greatly improve the performance of VASP for DFT.       |
|     The default, NCORE=1 might be grossly inefficient on modern             |
|     multi-core architectures or massively parallel machines. Do your        |
|     Unfortunately you need to use the default for GW and RPA                |
|     calculations (for HF NCORE is supported but not extensively tested      |
|     yet).                                                                   |

 POTCAR:    PAW_PBE Ag 02Apr2005
   VRHFIN =Ag : s1 d10

   TITEL  = PAW_PBE Ag 02Apr2005
   POMASS =  107.868; ZVAL   =   11.000    mass and valenz
   ENMAX  =  249.844; ENMIN  =  187.383 eV

 POTCAR:    PAW_PBE Co 02Aug2007
   VRHFIN =Co: d8 s1

   TITEL  = PAW_PBE Co 02Aug2007
   POMASS =   58.933; ZVAL   =    9.000    mass and valenz
   ENMAX  =  267.968; ENMIN  =  200.976 eV

 POTCAR:    PAW_PBE H 15Jun2001
   VRHFIN =H: ultrasoft test

   TITEL  = PAW_PBE H 15Jun2001
   POMASS =    1.000; ZVAL   =    1.000    mass and valenz
   ENMAX  =  250.000; ENMIN  =  200.000 eV

 POTCAR:    PAW_PBE O 08Apr2002
   VRHFIN =O: s2p4

   TITEL  = PAW_PBE O 08Apr2002
   POMASS =   16.000; ZVAL   =    6.000    mass and valenz
   ENMAX  =  400.000; ENMIN  =  300.000 eV

 Optimization of the real space projectors (new method)

 maximal supplied QI-value         = 15.12
 optimisation between [QCUT,QGAM] = [ 11.34, 22.83] = [ 36.00,145.93] Ry
 Optimized for a Real-space Cutoff    1.43 Angstroem

   l    n(q)    QCUT    max X(q) W(low)/X(q) W(high)/X(q)  e(spline)
   2      9    11.338    53.897    0.16E-03    0.20E-03    0.28E-06
   2      9    11.338    52.416    0.16E-03    0.20E-03    0.29E-06
   0     10    11.338   122.045    0.31E-04    0.76E-04    0.15E-06
   0     10    11.338    73.629    0.30E-04    0.72E-04    0.15E-06
   1      9    11.338    15.255    0.20E-03    0.19E-04    0.17E-06
   1      9    11.338     9.562    0.16E-03    0.15E-04    0.14E-06
 Optimization of the real space projectors (new method)

[...]

   l    n(q)    QCUT    max X(q) W(low)/X(q) W(high)/X(q)  e(spline)
   0      8    11.287    19.460    0.40E-03    0.73E-03    0.16E-06
   0      8    11.287    12.209    0.38E-03    0.70E-03    0.15E-06
   1      7    11.287     4.655    0.22E-03    0.25E-04    0.22E-06
 Optimization of the real space projectors (new method)

 maximal supplied QI-value         = 24.76
 optimisation between [QCUT,QGAM] = [ 11.39, 22.77] = [ 36.31,145.25] Ry
 Optimized for a Real-space Cutoff    1.00 Angstroem

   l    n(q)    QCUT    max X(q) W(low)/X(q) W(high)/X(q)  e(spline)
   0      7    11.387    20.381    0.39E-03    0.13E-02    0.15E-06
   0      7    11.387    15.268    0.42E-03    0.14E-02    0.17E-06
   1      6    11.387     5.964    0.41E-03    0.11E-02    0.17E-06
   1      6    11.387     5.382    0.39E-03    0.87E-03    0.15E-06
  PAW_PBE Ag 02Apr2005                  :
  PAW_PBE Co 02Aug2007                  :
  PAW_PBE H 15Jun2001                   :
  PAW_PBE O 08Apr2002                   :

 POSCAR: Ag-Co-H2O
  positions in direct lattice
  velocities in cartesian coordinates
 exchange correlation table for  LEXCH =        8
   RHO(1)=    0.500       N(1)  =     2000
   RHO(2)=  100.500       N(2)  =     4000

 VTST: version 3.2, (02/03/18)

 CHAIN: initializing optimizer

 OPT: Using VASP Conjugate-Gradient optimizer
 CHAIN: Read ICHAIN            0

 POSCAR: Ag-Co-H2O
  positions in direct lattice
  velocities in cartesian coordinates

 ion  position               nearest neighbor table
   1  0.000  0.000  0.212-   2 2.93   8 2.93   7 2.93   6 2.93   4 2.93  12 2.93  16 2.93  10 2.93
                             3 2.93
   2  0.333  0.000  0.212-   1 2.93   8 2.93   9 2.93   3 2.93   4 2.93   5 2.93  10 2.93  17 2.93
                            11 2.93
   3  0.667  0.000  0.212-   9 2.93   2 2.93   5 2.93  11 2.93   7 2.93  18 2.93   1 2.93   6 2.93
                            12 2.93
   4  0.000  0.333  0.212-   5 2.93   6 2.93   2 2.93   1 2.93   7 2.93  13 2.93  15 2.93   9 2.93
                            10 2.93
   5  0.333  0.333  0.212-   4 2.93   3 2.93   7 2.93   2 2.93   8 2.93  14 2.93  13 2.93  11 2.93
                             6 2.93
   6  0.667  0.333  0.212-   4 2.93   9 2.93   1 2.93  15 2.93   8 2.93  12 2.93   3 2.93   5 2.93
                            14 2.93
   7  0.000  0.667  0.212-   8 2.93   1 2.93   5 2.93   3 2.93   4 2.93  16 2.93  18 2.93  13 2.93
                             9 2.93
   8  0.333  0.667  0.212-   7 2.93   1 2.93   2 2.93   9 2.93   5 2.93  16 2.93   6 2.93  17 2.93
                            14 2.93
   9  0.667  0.667  0.212-   3 2.93   2 2.93   8 2.93   6 2.93  17 2.93   4 2.93  15 2.93   7 2.93
                            18 2.93
  10  0.111  0.111  0.308-  20 2.92  19 2.93  26 2.93  12 2.93  16 2.93  15 2.93  17 2.93  13 2.93
                            11 2.93   2 2.93   1 2.93   4 2.93
  11  0.444  0.111  0.308-  21 2.90  20 2.90  27 2.92  14 2.93  17 2.93  18 2.93   3 2.93  12 2.93
                            13 2.93  10 2.93   5 2.93   2 2.93
  12  0.778  0.111  0.308-  21 2.92  25 2.93  19 2.93  10 2.93  16 2.93  18 2.93  15 2.93  11 2.93
                             1 2.93  14 2.93   6 2.93   3 2.93
  13  0.111  0.444  0.308-  20 2.90  23 2.90  22 2.92  15 2.93  14 2.93  18 2.93  10 2.93  11 2.93
                            16 2.93   4 2.93   5 2.93   7 2.93
  14  0.444  0.444  0.308-  23 2.90  21 2.90  24 2.92  13 2.93  11 2.93  16 2.93   5 2.93  12 2.93
                            17 2.93   8 2.93  15 2.93   6 2.93
  15  0.778  0.444  0.308-  24 2.91  22 2.91  19 2.92  13 2.93  10 2.93  12 2.93  17 2.93  18 2.93
                             4 2.93   6 2.93   9 2.93  14 2.93
  16  0.111  0.778  0.308-  23 2.92  26 2.93  25 2.93  18 2.93  12 2.93  10 2.93  14 2.93  17 2.93
                            13 2.93   7 2.93   8 2.93   1 2.93
  17  0.444  0.778  0.308-  27 2.91  24 2.91  26 2.92  11 2.93  10 2.93   9 2.93  18 2.93  15 2.93
                            16 2.93   2 2.93  14 2.93   8 2.93
  18  0.778  0.778  0.308-  22 2.91  27 2.91  25 2.92  16 2.93  12 2.93  13 2.93  11 2.93  17 2.93
                            15 2.93   7 2.93   3 2.93   9 2.93
  19  0.889  0.222  0.403-  28 2.91  15 2.92  10 2.93  12 2.93  24 2.93  22 2.93  26 2.93  25 2.93
                            32 2.94  31 2.94  20 2.94  21 2.94
  20  0.223  0.223  0.402-  36 2.69  31 2.89  29 2.89  13 2.90  11 2.90  21 2.91  23 2.91  10 2.92
                            27 2.93  22 2.93  19 2.94  26 2.94
  21  0.554  0.223  0.402-  36 2.69  30 2.89  32 2.89  11 2.90  14 2.90  20 2.91  23 2.91  12 2.92
                            27 2.93  24 2.93  25 2.94  19 2.94
  22  0.888  0.556  0.403-  35 2.91  33 2.91  31 2.91  18 2.91  15 2.91  13 2.92  24 2.92  27 2.92
                            25 2.93  19 2.93  23 2.93  20 2.93
  23  0.223  0.554  0.402-  36 2.69  34 2.89  33 2.89  14 2.90  13 2.90  21 2.91  20 2.91  16 2.92
                            22 2.93  24 2.93  26 2.94  25 2.94
  24  0.556  0.556  0.403-  35 2.91  32 2.91  34 2.91  15 2.91  17 2.91  14 2.92  27 2.92  22 2.92
                            19 2.93  26 2.93  23 2.93  21 2.93
  25  0.889  0.889  0.403-  28 2.91  18 2.92  16 2.93  12 2.93  22 2.93  27 2.93  26 2.93  19 2.93
                            33 2.94  30 2.94  23 2.94  21 2.94
  26  0.222  0.889  0.403-  28 2.91  17 2.92  16 2.93  10 2.93  27 2.93  24 2.93  25 2.93  19 2.93
                            34 2.94  29 2.94  23 2.94  20 2.94
  27  0.556  0.888  0.403-  35 2.91  29 2.91  30 2.91  17 2.91  18 2.91  11 2.92  24 2.92  22 2.92
                            26 2.93  25 2.93  20 2.93  21 2.93
  28  0.000  0.000  0.498-  26 2.91  25 2.91  19 2.91  29 2.97  34 2.97  33 2.97  32 2.97  31 2.97
                            30 2.97
  29  0.333  0.008  0.498-  31 2.86  30 2.86  36 2.87  20 2.89  27 2.91  26 2.94  28 2.97  35 2.97
                            34 3.07
  30  0.659  0.008  0.498-  32 2.86  29 2.86  36 2.87  21 2.89  27 2.91  25 2.94  28 2.97  35 2.97
                            33 3.07
  31  0.008  0.333  0.498-  29 2.86  33 2.86  36 2.87  20 2.89  22 2.91  19 2.94  28 2.97  35 2.97
                            32 3.07
  32  0.659  0.333  0.498-  30 2.86  34 2.86  36 2.87  21 2.89  24 2.91  19 2.94  28 2.97  35 2.97
                            31 3.07
  33  0.008  0.659  0.498-  34 2.86  31 2.86  36 2.87  23 2.89  22 2.91  25 2.94  28 2.97  35 2.97
                            30 3.07
  34  0.333  0.659  0.498-  33 2.86  32 2.86  36 2.87  23 2.89  24 2.91  26 2.94  28 2.97  35 2.97
                            29 3.07
  35  0.667  0.667  0.498-  24 2.91  27 2.91  22 2.91  32 2.97  30 2.97  29 2.97  34 2.97  31 2.97
                            33 2.97
  36  0.333  0.333  0.486-  39 2.14  21 2.69  20 2.69  23 2.69  31 2.87  30 2.87  33 2.87  29 2.87
                            34 2.87  32 2.87
  37  0.274  0.280  0.581-  39 0.98
  38  0.455  0.273  0.580-  39 0.98
  39  0.330  0.348  0.572-  37 0.98  38 0.98  36 2.14

  LATTYP: Found a hexagonal cell.
 ALAT       =     8.7913665772
 C/A-ratio  =     2.8382349142

  Lattice vectors:

 A1 = (  -4.3956832886,  -7.6135467898,   0.0000000000)
 A2 = (   8.7913665771,   0.0000000000,   0.0000000000)
 A3 = (   0.0000000000,   0.0000000000,  24.9519635625)

Analysis of symmetry for initial positions (statically):
 Subroutine PRICEL returns:
 Original cell was already a primitive cell.

 Routine SETGRP: Setting up the symmetry group for a
 hexagonal supercell.

 Subroutine GETGRP returns: Found  1 space group operations
 (whereof  1 operations were pure point group operations)
 out of a pool of 24 trial point group operations.

The static configuration has the point symmetry C_1 .

Analysis of symmetry for dynamics (positions and initial velocities):
 Subroutine PRICEL returns:
 Original cell was already a primitive cell.

[...]

The dynamic configuration has the point symmetry C_1 .

Analysis of constrained symmetry for selective dynamics:
 Subroutine PRICEL returns:
[...]
     41      -4.6686      2.00000
     42      -4.6595      2.00000
     43      -4.6563      2.00000
     44      -4.6307      2.00000
     45      -4.6219      2.00000
     46      -4.6101      2.00000
     47      -4.5512      2.00000
     48      -4.5180      2.00000
     49      -4.5151      2.00000
     50      -4.4999      2.00000
     51      -4.4933      2.00000
     52      -4.4904      2.00000
     53      -4.4779      2.00000
     54      -4.4690      2.00000
     55      -4.4546      2.00000
     56      -4.4466      2.00000
     57      -4.3779      2.00000
     58      -4.3770      2.00000
     59      -4.3637      2.00000
     60      -4.3592      2.00000
[...]
    238       5.7175      0.00000
    239       5.8072      0.00000
    240       5.8588      0.00000
    241       5.9902      0.00000
    242       6.1366      0.00000
    243       6.2060      0.00000
    244       6.3007      0.00000
    245       6.3931      0.00000
    246       6.4197      0.00000
    247       6.6262      0.00000
    248       6.7016      0.00000
    249       6.8507      0.00000
    250       6.8774      0.00000
    251       6.9526      0.00000
    252       7.1281      0.00000

 soft charge-density along one line, spin component           1
         0         1         2         3         4         5         6         7         8         9
 total charge-density along one line

------------------------ aborting loop because EDIFF is reached ----------------------------------------

 total charge

# of ion       s       p       d       tot
    1        0.416   0.203   9.178   9.797
    2        0.419   0.203   9.177   9.800
    3        0.419   0.203   9.177   9.800
    4        0.419   0.203   9.177   9.800
    5        0.416   0.205   9.177   9.798
    6        0.419   0.203   9.177   9.800
    7        0.419   0.203   9.178   9.800
    8        0.419   0.203   9.178   9.800
    9        0.414   0.203   9.179   9.797
   10        0.407   0.268   9.164   9.839
   11        0.409   0.267   9.168   9.844
   12        0.407   0.268   9.164   9.838
   13        0.408   0.268   9.168   9.844
   14        0.408   0.268   9.168   9.844
   15        0.402   0.270   9.166   9.837
   16        0.407   0.268   9.164   9.839
   17        0.402   0.270   9.166   9.837
   18        0.402   0.270   9.166   9.837
   19        0.406   0.266   9.166   9.838
   20        0.422   0.292   9.149   9.864
   21        0.422   0.292   9.150   9.864
   22        0.400   0.275   9.166   9.841
   23        0.421   0.293   9.150   9.864
   24        0.400   0.275   9.166   9.841
   25        0.404   0.266   9.166   9.837
   26        0.404   0.266   9.166   9.837
   27        0.401   0.274   9.166   9.842
   28        0.412   0.197   9.179   9.789
   29        0.424   0.212   9.171   9.807
   30        0.425   0.212   9.171   9.808
   31        0.425   0.211   9.172   9.808
   32        0.426   0.211   9.172   9.809
   33        0.418   0.204   9.178   9.801
   34        0.418   0.204   9.179   9.801
   35        0.408   0.199   9.180   9.787
   36        0.336   0.255   7.317   7.908
   37        0.605   0.118   0.000   0.723
   38        0.605   0.118   0.000   0.722
   39        1.569   3.596   0.000   5.165
tot         17.565  12.483 328.256 358.304

  FORCE on cell =-STRESS in cart. coord.  units (eV):
  Direction    XX          YY          ZZ          XY          YZ          ZX
  Alpha Z   669.50512   669.50512   669.50512
  Ewald  163665.66227163600.23665************    -2.56345   -18.30725    -2.19968
  Hartree173800.89222173788.34871************    -0.49564    -1.69781    -0.39187
  E(xc)   -2111.08625 -2111.35819 -2116.27824    -0.00949    -0.04210    -0.00557
  Local  ************************348604.91958     2.32710    13.67632     1.98215
  n-local  -358.73894  -359.55456  -364.69371    -0.03629    -0.02349    -0.02407
  augment  3384.22045  3385.71187  3388.88897     0.04377     0.15314    -0.01654
  Kinetic  4979.42630  4997.73651  5023.93929     0.71470     6.18136     0.59994
  Fock        0.00000     0.00000     0.00000     0.00000     0.00000     0.00000
  Total      -9.90138   -10.18804    -1.21679    -0.01930    -0.05983    -0.05565
  in kB      -9.49857    -9.77357    -1.16729    -0.01851    -0.05740    -0.05339

 VOLUME and BASIS-vectors are now :
  energy-cutoff  :      500.00
  volume of cell :     1670.12
      direct lattice vectors                 reciprocal lattice vectors
     8.791366577  0.000000000  0.000000000     0.113747958 -0.065672414  0.000000000
     4.395683289  7.613546790  0.000000000     0.000000000  0.131344829  0.000000000
     0.000000000  0.000000000 24.951963562     0.000000000  0.000000000  0.040077006

  length of vectors
     8.791366577  8.791366577 24.951963562     0.131344829  0.131344829  0.040077006

 FORCES acting on ions
    electron-ion (+dipol)            ewald-force                    non-local-force                 convergence-correction
   0.251E-02 0.608E-02 0.274E+04   0.306E-02 -.209E-02 -.274E+04   -.216E-02 0.517E-02 -.226E+01   -.312E-02 -.540E-02 -.935E-01
   0.606E+00 0.681E+00 0.274E+04   -.638E+00 -.646E+00 -.274E+04   0.496E-01 0.181E-01 -.158E+01   -.133E-01 -.335E-01 -.111E+00
   -.609E+00 0.688E+00 0.274E+04   0.635E+00 -.651E+00 -.274E+04   -.462E-01 0.159E-01 -.158E+01   0.156E-01 -.337E-01 -.107E+00
   0.890E+00 0.174E+00 0.274E+04   -.876E+00 -.229E+00 -.274E+04   0.349E-01 0.287E-01 -.160E+01   -.333E-01 0.185E-01 -.128E+00
   -.251E-02 0.826E-02 0.274E+04   -.592E-02 -.518E-03 -.274E+04   -.442E-02 -.156E-01 -.157E+01   0.128E-01 0.367E-02 -.993E-01
   -.889E+00 0.163E+00 0.274E+04   0.881E+00 -.228E+00 -.274E+04   -.357E-01 0.297E-01 -.160E+01   0.272E-01 0.276E-01 -.124E+00
   0.286E+00 -.871E+00 0.274E+04   -.243E+00 0.875E+00 -.274E+04   -.128E-02 -.430E-01 -.164E+01   -.296E-01 0.271E-01 -.116E+00
   -.289E+00 -.857E+00 0.274E+04   0.240E+00 0.880E+00 -.274E+04   0.144E-02 -.477E-01 -.164E+01   0.354E-01 0.140E-01 -.118E+00
   0.720E-02 0.653E-02 0.274E+04   0.281E-02 0.250E-02 -.274E+04   0.334E-02 0.641E-02 -.197E+01   -.132E-01 -.143E-01 -.155E+00
   0.581E+01 0.335E+01 0.950E+03   -.542E+01 -.315E+01 -.950E+03   -.334E+00 -.194E+00 -.741E+00   -.272E-01 0.228E-02 0.220E+00
   0.207E-01 0.704E+01 0.961E+03   -.347E-01 -.716E+01 -.961E+03   -.174E-02 0.845E-01 -.391E+00   0.159E-01 0.114E-01 0.297E+00
   -.583E+01 0.338E+01 0.950E+03   0.545E+01 -.317E+01 -.950E+03   0.331E+00 -.192E+00 -.738E+00   0.181E-01 -.299E-02 0.220E+00
   0.609E+01 -.352E+01 0.961E+03   -.621E+01 0.357E+01 -.961E+03   0.864E-01 -.486E-01 -.449E+00   -.238E-04 0.126E-01 0.292E+00
   -.607E+01 -.353E+01 0.961E+03   0.617E+01 0.359E+01 -.961E+03   -.880E-01 -.471E-01 -.451E+00   0.183E-01 0.713E-02 0.286E+00
   -.329E-01 0.143E+01 0.951E+03   0.386E-01 -.141E+01 -.951E+03   -.162E-03 0.393E-02 -.662E+00   -.538E-02 -.365E-01 0.155E+00
   0.132E-01 -.669E+01 0.950E+03   -.607E-02 0.629E+01 -.950E+03   0.507E-03 0.364E+00 -.790E+00   -.741E-02 0.118E-01 0.219E+00
   0.124E+01 -.738E+00 0.951E+03   -.123E+01 0.742E+00 -.951E+03   -.885E-04 0.603E-02 -.686E+00   -.294E-01 -.106E-02 0.149E+00
   -.125E+01 -.710E+00 0.951E+03   0.124E+01 0.701E+00 -.951E+03   -.165E-02 0.646E-02 -.680E+00   0.367E-01 0.111E-01 0.160E+00
   -.246E+00 0.313E+01 -.876E+03   0.263E+00 -.318E+01 0.876E+03   -.186E-02 0.698E-01 0.545E+00   -.161E-01 -.244E-01 0.241E+00
   0.348E+02 0.201E+02 -.822E+03   -.341E+02 -.197E+02 0.822E+03   -.112E+01 -.631E+00 -.102E+01   0.390E+00 0.235E+00 0.736E+00
   -.345E+02 0.202E+02 -.821E+03   0.338E+02 -.198E+02 0.821E+03   0.111E+01 -.622E+00 -.101E+01   -.383E+00 0.230E+00 0.745E+00
   0.136E+02 -.794E+01 -.861E+03   -.140E+02 0.814E+01 0.860E+03   0.264E+00 -.120E+00 0.458E+00   0.150E+00 -.905E-01 0.272E+00
   0.243E+00 -.402E+02 -.822E+03   -.246E+00 0.394E+02 0.822E+03   0.190E-02 0.127E+01 -.101E+01   -.613E-03 -.481E+00 0.711E+00
   -.138E+02 -.815E+01 -.861E+03   0.142E+02 0.836E+01 0.860E+03   -.263E+00 -.115E+00 0.458E+00   -.133E+00 -.106E+00 0.276E+00
   -.270E+01 -.132E+01 -.877E+03   0.272E+01 0.137E+01 0.876E+03   -.183E-01 -.767E-01 0.609E+00   0.305E-02 0.287E-01 0.228E+00
   0.265E+01 -.158E+01 -.877E+03   -.265E+01 0.163E+01 0.876E+03   0.262E-01 -.813E-01 0.613E+00   -.326E-01 0.259E-01 0.228E+00
   0.526E-01 0.158E+02 -.861E+03   -.689E-01 -.162E+02 0.860E+03   -.508E-02 0.304E+00 0.419E+00   0.218E-01 0.182E+00 0.277E+00
   -.542E+00 0.654E+00 -.268E+04   0.555E+00 -.718E+00 0.268E+04   0.242E-03 0.409E-01 0.190E+01   -.130E-01 0.283E-01 0.432E+00
   0.388E+02 0.681E+02 -.266E+04   -.384E+02 -.677E+02 0.266E+04   -.527E+00 -.853E+00 0.152E+01   0.130E+00 0.321E+00 0.343E+00
   -.383E+02 0.703E+02 -.266E+04   0.380E+02 -.699E+02 0.266E+04   0.525E+00 -.859E+00 0.150E+01   -.117E+00 0.323E+00 0.341E+00
   0.784E+02 -.549E+00 -.266E+04   -.779E+02 0.641E+00 0.266E+04   -.105E+01 -.374E-01 0.156E+01   0.320E+00 -.571E-01 0.356E+00
   -.815E+02 -.748E+00 -.266E+04   0.810E+02 0.820E+00 0.265E+04   0.101E+01 -.228E-01 0.160E+01   -.342E+00 -.547E-01 0.360E+00
   0.395E+02 -.679E+02 -.266E+04   -.395E+02 0.676E+02 0.266E+04   -.259E+00 0.707E+00 0.210E+01   0.183E+00 -.252E+00 0.347E+00
   -.391E+02 -.698E+02 -.266E+04   0.392E+02 0.696E+02 0.266E+04   0.243E+00 0.657E+00 0.216E+01   -.183E+00 -.283E+00 0.354E+00
   -.442E+00 -.392E+00 -.268E+04   0.445E+00 0.398E+00 0.268E+04   0.759E-02 0.108E-01 0.200E+01   -.101E-01 -.148E-01 0.468E+00
   0.309E+01 0.235E+01 -.192E+04   -.314E+01 -.236E+01 0.192E+04   0.416E-01 0.568E-01 0.207E+01   0.285E-01 -.256E-01 -.111E+00
   0.698E+02 0.421E+02 -.306E+03   -.767E+02 -.463E+02 0.308E+03   0.680E+01 0.414E+01 -.193E+01   0.430E-01 0.247E-01 -.381E-01
   -.671E+02 0.469E+02 -.304E+03   0.737E+02 -.515E+02 0.306E+03   -.655E+01 0.461E+01 -.170E+01   -.415E-01 0.282E-01 -.370E-01
   -.137E+01 -.563E+02 -.174E+04   0.279E+01 0.994E+02 0.173E+04   -.142E+01 -.430E+02 0.910E+01   -.177E-02 -.722E-01 -.489E+00
   0.122E+01 0.347E+02 -.797E+01   0.426E-13 0.412E-12 0.796E-11   -.120E+01 -.346E+02 0.899E+00   0.140E-01 -.148E-01 0.699E+01

 POSITION                                       TOTAL-FORCE (eV/Angst)
      0.00000      0.00000      5.28219        -0.000512      0.002708      0.026591
      2.93046      0.00000      5.28219         0.003396      0.017994      0.036661
      5.86091      0.00000      5.28219        -0.005294      0.018284      0.036823
      1.46523      2.53785      5.28219         0.015210     -0.008672      0.039760
      4.39568      2.53785      5.28219        -0.000839     -0.005277      0.018312
      7.32614      2.53785      5.28219        -0.016823     -0.009160      0.039651
      2.93046      5.07570      5.28219         0.011051     -0.012873      0.038545
      5.86091      5.07570      5.28219        -0.012987     -0.012266      0.038190
      8.79137      5.07570      5.28219        -0.000649      0.000131      0.032699
      1.46523      0.84595      7.67490         0.024225      0.009719     -0.007558
      4.39568      0.84595      7.67490        -0.000681     -0.031907     -0.078509
      7.32614      0.84595      7.67490        -0.026119      0.010319     -0.007606
      2.93046      3.38380      7.67490        -0.028525      0.015574     -0.080135
      5.86091      3.38380      7.67490         0.027739      0.015737     -0.079607
      8.79137      3.38380      7.67490        -0.000623     -0.015989     -0.008888
      4.39568      5.92165      7.67490        -0.000571     -0.029918     -0.015397
      7.32614      5.92165      7.67490        -0.018102      0.008337     -0.007586
     10.25659      5.92165      7.67490         0.016348      0.007887     -0.007432
      8.79137      1.69398     10.06180        -0.001771     -0.004784     -0.024810
      2.94231      1.69874     10.03918         0.013859      0.007466     -0.064502
      5.84906      1.69874     10.03918        -0.014720      0.005746     -0.070007
     10.25255      4.23208     10.04993         0.014151     -0.007573     -0.004152
      4.39568      4.21606     10.03918        -0.002369     -0.008631     -0.050199
      7.33018      4.23208     10.04993        -0.015036     -0.007976     -0.002414
     11.72002      6.76656     10.06180         0.007725     -0.004788     -0.008066
      5.86271      6.76656     10.06180        -0.010369     -0.005316     -0.006508
      8.79137      6.76293     10.04993        -0.000281      0.014485     -0.017014
      0.00000      0.00000     12.42562        -0.000748      0.003783      0.017818
      2.96563      0.06260     12.41952        -0.058228     -0.105312     -0.054441
      5.82574      0.06260     12.41952         0.059315     -0.115231     -0.061751
      1.53702      2.53701     12.41952        -0.139571     -0.003443     -0.079390
      7.25434      2.53701     12.41952         0.160238     -0.006312     -0.097636
      2.96708      5.01394     12.41952        -0.100966      0.115344     -0.086309
      5.82429      5.01394     12.41952         0.098298      0.124361     -0.090041
      8.79137      5.07570     12.42127        -0.000851      0.000439      0.007615
      4.39568      2.53785     12.13550         0.012385      0.019333      0.804486
      3.63727      2.13404     14.50860        -0.022346     -0.018704     -0.001547
      5.19924      2.07880     14.48118         0.017089     -0.021254     -0.003872
      4.43349      2.65329     14.26950        -0.002048      0.037742     -0.121772
    total drift:                                0.031663      0.041159     -0.079775

  FREE ENERGIE OF THE ION-ELECTRON SYSTEM (eV)
  free  energy   TOTEN  =      -108.62794956 eV

  energy  without entropy=     -108.62794956  energy(sigma->0) =     -108.62794956

 stress matrix after NEB project (eV)
     -9.90138     -0.01930     -0.05565
     -0.01930    -10.18804     -0.05983
     -0.05565     -0.05983     -1.21679
  FORCES: max atom, RMS     0.127503    0.021404
  FORCE total and by dimension    0.133669    0.121772
  Stress total and by dimension   14.259319   10.188042
|           W    W    AA    RRRRR   N    N  II  N    N   GGGG   !!!           |
|           W    W   A  A   R    R  NN   N  II  NN   N  G    G  !!!           |
|           W    W  A    A  R    R  N N  N  II  N N  N  G       !!!           |
|           W WW W  AAAAAA  RRRRR   N  N N  II  N  N N  G  GGG   !            |
|           WW  WW  A    A  R   R   N   NN  II  N   NN  G    G                |
|           W    W  A    A  R    R  N    N  II  N    N   GGGG   !!!           |
|     Tetrahedron method does not include variations of the Fermi             |
|     occupations, so forces and stress will be inaccurate. We suggest        |
|     using a different smearing scheme ISMEAR = 1 or 2 for metals in         |
|     relaxations.                                                            |

 total charge

# of ion       s       p       d       tot
    1        0.416   0.203   9.178   9.797
    2        0.419   0.203   9.177   9.800
    3        0.419   0.203   9.177   9.800
    4        0.419   0.203   9.177   9.800
    5        0.416   0.205   9.177   9.798
    6        0.419   0.203   9.177   9.800
    7        0.419   0.203   9.178   9.800
    8        0.419   0.203   9.178   9.800
    9        0.414   0.203   9.179   9.797
   10        0.407   0.268   9.164   9.839
   11        0.409   0.267   9.168   9.844
   12        0.407   0.268   9.164   9.838
   13        0.408   0.268   9.168   9.844
   14        0.408   0.268   9.168   9.844
   15        0.402   0.270   9.166   9.837
   16        0.407   0.268   9.164   9.839
   17        0.402   0.270   9.166   9.837
   18        0.402   0.270   9.166   9.837
   19        0.406   0.266   9.166   9.838
   20        0.422   0.292   9.149   9.864
   21        0.422   0.292   9.150   9.864
   22        0.400   0.275   9.166   9.841
   23        0.421   0.293   9.150   9.864
   24        0.400   0.275   9.166   9.841
   25        0.404   0.266   9.166   9.837
   26        0.404   0.266   9.166   9.837
   27        0.401   0.274   9.166   9.842
   28        0.412   0.197   9.179   9.789
   29        0.424   0.212   9.171   9.807
   30        0.425   0.212   9.171   9.808
   31        0.425   0.211   9.172   9.808
   32        0.426   0.211   9.172   9.809
   33        0.418   0.204   9.178   9.801
   34        0.418   0.204   9.179   9.801
   35        0.408   0.199   9.180   9.787
   36        0.336   0.255   7.317   7.908
   37        0.605   0.118   0.000   0.723
   38        0.605   0.118   0.000   0.722
   39        1.569   3.596   0.000   5.165
tot         17.565  12.483 328.256 358.304

 BZINTS: Fermi energy:    0.479580;  402.000000 electrons
         Band energy:-0.147858E+04;  BLOECHL correction:   -0.038724