 vasp.6.2.0 18Jan21 (build Jun 12 2021 23:27:24) complex

 executed on             LinuxIFC date 2022.05.30  17:05:00

 INCAR:
   ISMEAR = -5
   SIGMA = 0.1
   ISPIN = 1
   EDIFF = 1.d-5
   EDIFFG = -0.01
   NSW = 0
   NELM = 150
   ENCUT = 500
   ISIF = 2
   IBRION = 2
   LREAL = Auto
   ALGO = Fast
   ICHARG = 11
   LORBIT = 10
   LCHARG = .F.
   LWAVE = .F.

 POTCAR:    PAW_PBE Ag 02Apr2005
 POTCAR:    PAW_PBE Ni 02Aug2007
 POTCAR:    PAW_PBE C 08Apr2002
 POTCAR:    PAW_PBE O 08Apr2002
 POTCAR:    PAW_PBE H 15Jun2001
|           W    W    AA    RRRRR   N    N  II  N    N   GGGG   !!!           |
|           W    W   A  A   R    R  NN   N  II  NN   N  G    G  !!!           |
|           W    W  A    A  R    R  N N  N  II  N N  N  G       !!!           |
|           W WW W  AAAAAA  RRRRR   N  N N  II  N  N N  G  GGG   !            |
|           WW  WW  A    A  R   R   N   NN  II  N   NN  G    G                |
|           W    W  A    A  R    R  N    N  II  N    N   GGGG   !!!           |
|     For optimal performance we recommend to set                             |
|       NCORE = 2 up to number-of-cores-per-socket                            |
|     This setting can greatly improve the performance of VASP for DFT.       |
|     The default, NCORE=1 might be grossly inefficient on modern             |
|     multi-core architectures or massively parallel machines. Do your        |
|     Unfortunately you need to use the default for GW and RPA                |
|     calculations (for HF NCORE is supported but not extensively tested      |
|     yet).                                                                   |

 POTCAR:    PAW_PBE Ag 02Apr2005
   VRHFIN =Ag : s1 d10

   TITEL  = PAW_PBE Ag 02Apr2005
   POMASS =  107.868; ZVAL   =   11.000    mass and valenz
   ENMAX  =  249.844; ENMIN  =  187.383 eV

 POTCAR:    PAW_PBE Ni 02Aug2007
   VRHFIN =Ni:

   TITEL  = PAW_PBE Ni 02Aug2007
   POMASS =   58.690; ZVAL   =   10.000    mass and valenz
   ENMAX  =  269.532; ENMIN  =  202.149 eV

 POTCAR:    PAW_PBE C 08Apr2002
   VRHFIN =C: s2p2

[...]

 POTCAR:    PAW_PBE O 08Apr2002
   VRHFIN =O: s2p4

   TITEL  = PAW_PBE O 08Apr2002
   POMASS =   16.000; ZVAL   =    6.000    mass and valenz
   ENMAX  =  400.000; ENMIN  =  300.000 eV

 POTCAR:    PAW_PBE H 15Jun2001
   VRHFIN =H: ultrasoft test

   TITEL  = PAW_PBE H 15Jun2001
   POMASS =    1.000; ZVAL   =    1.000    mass and valenz
   ENMAX  =  250.000; ENMIN  =  200.000 eV

 Optimization of the real space projectors (new method)

 maximal supplied QI-value         = 15.12
 optimisation between [QCUT,QGAM] = [ 11.34, 22.83] = [ 36.00,145.93] Ry
 Optimized for a Real-space Cutoff    1.43 Angstroem

   l    n(q)    QCUT    max X(q) W(low)/X(q) W(high)/X(q)  e(spline)
   2      9    11.338    53.897    0.16E-03    0.20E-03    0.28E-06
   2      9    11.338    52.416    0.16E-03    0.20E-03    0.29E-06
   0     10    11.338   122.045    0.31E-04    0.76E-04    0.15E-06
   0     10    11.338    73.629    0.30E-04    0.72E-04    0.15E-06
   1      9    11.338    15.255    0.20E-03    0.19E-04    0.17E-06
   1      9    11.338     9.562    0.16E-03    0.15E-04    0.14E-06
 Optimization of the real space projectors (new method)

[...]

   l    n(q)    QCUT    max X(q) W(low)/X(q) W(high)/X(q)  e(spline)
   0      7    11.387    20.381    0.39E-03    0.13E-02    0.15E-06
   0      7    11.387    15.268    0.42E-03    0.14E-02    0.17E-06
   1      6    11.387     5.964    0.41E-03    0.11E-02    0.17E-06
   1      6    11.387     5.382    0.39E-03    0.87E-03    0.15E-06
 Optimization of the real space projectors (new method)

 maximal supplied QI-value         = 34.20
 optimisation between [QCUT,QGAM] = [ 11.29, 22.57] = [ 35.68,142.71] Ry
 Optimized for a Real-space Cutoff    1.16 Angstroem

   l    n(q)    QCUT    max X(q) W(low)/X(q) W(high)/X(q)  e(spline)
   0      8    11.287    19.460    0.40E-03    0.73E-03    0.16E-06
   0      8    11.287    12.209    0.38E-03    0.70E-03    0.15E-06
   1      7    11.287     4.655    0.22E-03    0.25E-04    0.22E-06
  PAW_PBE Ag 02Apr2005                  :
  PAW_PBE Ni 02Aug2007                  :
  PAW_PBE C 08Apr2002                   :
  PAW_PBE O 08Apr2002                   :
  PAW_PBE H 15Jun2001                   :

 POSCAR: Ag-Ni-COH
  positions in direct lattice
  velocities in cartesian coordinates
 exchange correlation table for  LEXCH =        8
   RHO(1)=    0.500       N(1)  =     2000
   RHO(2)=  100.500       N(2)  =     4000

 VTST: version 3.2, (02/03/18)

 CHAIN: initializing optimizer

 OPT: Using VASP Conjugate-Gradient optimizer
 CHAIN: Read ICHAIN            0

 POSCAR: Ag-Ni-COH
  positions in direct lattice
  velocities in cartesian coordinates

 ion  position               nearest neighbor table
   1  0.000  0.000  0.199-   2 2.93   8 2.93   7 2.93   6 2.93   4 2.93  12 2.93  16 2.93  10 2.93
                             3 2.93
   2  0.333  0.000  0.199-   1 2.93   8 2.93   9 2.93   3 2.93   4 2.93   5 2.93  10 2.93  17 2.93
                            11 2.93
   3  0.667  0.000  0.199-   9 2.93   2 2.93   5 2.93  11 2.93   7 2.93  18 2.93   1 2.93   6 2.93
                            12 2.93
   4  0.000  0.333  0.199-   5 2.93   6 2.93   2 2.93   1 2.93   7 2.93  13 2.93  15 2.93   9 2.93
                            10 2.93
   5  0.333  0.333  0.199-   4 2.93   3 2.93   7 2.93   2 2.93   8 2.93  14 2.93  13 2.93  11 2.93
                             6 2.93
   6  0.667  0.333  0.199-   4 2.93   9 2.93   1 2.93  15 2.93   8 2.93  12 2.93   3 2.93   5 2.93
                            14 2.93
   7  0.000  0.667  0.199-   8 2.93   1 2.93   5 2.93   3 2.93   4 2.93  16 2.93  18 2.93  13 2.93
                             9 2.93
   8  0.333  0.667  0.199-   7 2.93   1 2.93   2 2.93   9 2.93   5 2.93  16 2.93   6 2.93  17 2.93
                            14 2.93
   9  0.667  0.667  0.199-   3 2.93   2 2.93   8 2.93   6 2.93  17 2.93   4 2.93  15 2.93   7 2.93
                            18 2.93
  10  0.111  0.111  0.289-  20 2.91  19 2.92  26 2.92  12 2.93  16 2.93  15 2.93  17 2.93  13 2.93
                            11 2.93   2 2.93   1 2.93   4 2.93
  11  0.444  0.111  0.289-  21 2.91  20 2.91  27 2.91  14 2.93  17 2.93  18 2.93   3 2.93  12 2.93
                            13 2.93  10 2.93   5 2.93   2 2.93
  12  0.778  0.111  0.289-  21 2.91  25 2.92  19 2.92  10 2.93  16 2.93  18 2.93  15 2.93  11 2.93
                             1 2.93  14 2.93   6 2.93   3 2.93
  13  0.111  0.444  0.289-  20 2.91  23 2.91  22 2.91  15 2.93  14 2.93  18 2.93  10 2.93  11 2.93
                            16 2.93   4 2.93   5 2.93   7 2.93
  14  0.444  0.444  0.289-  23 2.91  21 2.91  24 2.91  13 2.93  11 2.93  16 2.93   5 2.93  12 2.93
                            17 2.93   8 2.93  15 2.93   6 2.93
  15  0.778  0.444  0.289-  24 2.91  22 2.91  19 2.92  13 2.93  10 2.93  12 2.93  17 2.93  18 2.93
                             4 2.93   6 2.93   9 2.93  14 2.93
  16  0.111  0.778  0.289-  23 2.91  26 2.92  25 2.92  18 2.93  12 2.93  10 2.93  14 2.93  17 2.93
                            13 2.93   7 2.93   8 2.93   1 2.93
  17  0.444  0.778  0.289-  27 2.91  24 2.91  26 2.92  11 2.93  10 2.93   9 2.93  18 2.93  15 2.93
                            16 2.93   2 2.93  14 2.93   8 2.93
  18  0.778  0.778  0.289-  22 2.91  27 2.91  25 2.92  16 2.93  12 2.93  13 2.93  11 2.93  17 2.93
                            15 2.93   7 2.93   3 2.93   9 2.93
  19  0.889  0.223  0.378-  28 2.91  15 2.92  10 2.92  12 2.92  24 2.93  22 2.93  32 2.94  31 2.94
                            26 2.94  25 2.94  20 2.94  21 2.94
  20  0.223  0.223  0.378-  36 2.69  31 2.89  29 2.89  13 2.91  11 2.91  10 2.91  21 2.92  23 2.92
                            27 2.93  22 2.93  19 2.94  26 2.94
  21  0.554  0.223  0.378-  36 2.69  30 2.89  32 2.89  11 2.91  14 2.91  12 2.91  20 2.92  23 2.92
                            27 2.93  24 2.93  25 2.94  19 2.94
  22  0.889  0.556  0.378-  18 2.91  15 2.91  35 2.91  13 2.91  33 2.91  31 2.91  24 2.93  27 2.93
                            25 2.93  19 2.93  23 2.93  20 2.93
  23  0.223  0.554  0.378-  36 2.69  34 2.89  33 2.89  14 2.91  13 2.91  16 2.91  21 2.92  20 2.92
                            22 2.93  24 2.93  26 2.94  25 2.94
  24  0.556  0.556  0.378-  15 2.91  17 2.91  35 2.91  14 2.91  32 2.91  34 2.91  27 2.93  22 2.93
                            19 2.93  26 2.93  23 2.93  21 2.93
  25  0.889  0.889  0.378-  28 2.91  18 2.92  16 2.92  12 2.92  22 2.93  27 2.93  33 2.94  30 2.94
                            26 2.94  19 2.94  23 2.94  21 2.94
  26  0.223  0.889  0.378-  28 2.91  17 2.92  16 2.92  10 2.92  27 2.93  24 2.93  34 2.94  29 2.94
                            25 2.94  19 2.94  23 2.94  20 2.94
  27  0.556  0.889  0.378-  17 2.91  18 2.91  35 2.91  11 2.91  29 2.91  30 2.91  24 2.93  22 2.93
                            26 2.93  25 2.93  20 2.93  21 2.93
  28  0.000  0.000  0.467-  26 2.91  25 2.91  19 2.91  29 2.96  34 2.96  33 2.96  32 2.96  31 2.96
                            30 2.96
  29  0.333  0.007  0.467-  30 2.87  31 2.87  36 2.88  20 2.89  27 2.91  26 2.94  35 2.96  28 2.96
                            34 3.06
  30  0.659  0.007  0.467-  29 2.87  32 2.87  36 2.88  21 2.89  27 2.91  25 2.94  35 2.96  28 2.96
                            33 3.06
  31  0.007  0.333  0.467-  33 2.87  29 2.87  36 2.88  20 2.89  22 2.91  19 2.94  35 2.96  28 2.96
                            32 3.06
  32  0.659  0.333  0.467-  34 2.87  30 2.87  36 2.88  21 2.89  24 2.91  19 2.94  35 2.96  28 2.96
                            31 3.06
  33  0.007  0.659  0.467-  31 2.87  34 2.87  36 2.88  23 2.89  22 2.91  25 2.94  35 2.96  28 2.96
                            30 3.06
  34  0.333  0.659  0.467-  32 2.87  33 2.87  36 2.88  23 2.89  24 2.91  26 2.94  35 2.96  28 2.96
                            29 3.06
  35  0.667  0.667  0.467-  24 2.91  27 2.91  22 2.91  30 2.96  32 2.96  29 2.96  34 2.96  31 2.96
                            33 2.96
  36  0.333  0.333  0.457-  37 1.68  21 2.69  20 2.69  23 2.69  31 2.88  33 2.88  30 2.88  29 2.88
                            34 2.88  32 2.88
  37  0.333  0.333  0.520-  38 1.26  36 1.68
  38  0.333  0.333  0.567-  39 0.96  37 1.26
  39  0.333  0.333  0.604-  38 0.96

  LATTYP: Found a hexagonal cell.
 ALAT       =     8.7913665772
 C/A-ratio  =     3.0233954145

  Lattice vectors:

 A1 = (  -4.3956832886,  -7.6135467898,   0.0000000000)
 A2 = (   8.7913665771,   0.0000000000,   0.0000000000)
 A3 = (   0.0000000000,   0.0000000000,  26.5797773968)

Analysis of symmetry for initial positions (statically):
 Subroutine PRICEL returns:
 Original cell was already a primitive cell.

 Routine SETGRP: Setting up the symmetry group for a
 hexagonal supercell.

 Subroutine GETGRP returns: Found  6 space group operations
 (whereof  6 operations were pure point group operations)
 out of a pool of 24 trial point group operations.

The static configuration has the point symmetry C_3v.

Analysis of symmetry for dynamics (positions and initial velocities):
 Subroutine PRICEL returns:
 Original cell was already a primitive cell.

[...]

[...]
     41      -4.6869      2.00000
     42      -4.6729      2.00000
     43      -4.6321      2.00000
     44      -4.6303      2.00000
     45      -4.6221      2.00000
     46      -4.6034      2.00000
     47      -4.5942      2.00000
     48      -4.5227      2.00000
     49      -4.4880      2.00000
     50      -4.4813      2.00000
     51      -4.4749      2.00000
     52      -4.4663      2.00000
     53      -4.4649      2.00000
     54      -4.4488      2.00000
     55      -4.4415      2.00000
     56      -4.4255      2.00000
     57      -4.4208      2.00000
     58      -4.3527      2.00000
     59      -4.3442      2.00000
     60      -4.3341      2.00000
[...]
    238       5.2475      0.00000
    239       5.3212      0.00000
    240       5.4512      0.00000
    241       5.5588      0.00000
    242       5.7070      0.00000
    243       5.7467      0.00000
    244       5.7670      0.00000
    245       5.7968      0.00000
    246       5.8551      0.00000
    247       5.8773      0.00000
    248       5.8970      0.00000
    249       6.0210      0.00000
    250       6.1232      0.00000
    251       6.5512      0.00000
    252       6.7906      0.00000

 soft charge-density along one line, spin component           1
         0         1         2         3         4         5         6         7         8         9
 total charge-density along one line

------------------------ aborting loop because EDIFF is reached ----------------------------------------

 total charge

# of ion       s       p       d       tot
    1        0.413   0.205   9.177   9.795
    2        0.418   0.203   9.177   9.798
    3        0.418   0.203   9.177   9.798
    4        0.418   0.203   9.177   9.798
    5        0.413   0.205   9.177   9.795
    6        0.418   0.203   9.177   9.798
    7        0.418   0.203   9.177   9.798
    8        0.418   0.203   9.177   9.798
    9        0.413   0.206   9.176   9.795
   10        0.407   0.269   9.163   9.840
   11        0.408   0.269   9.165   9.842
   12        0.407   0.269   9.163   9.840
   13        0.408   0.269   9.165   9.842
   14        0.408   0.269   9.165   9.842
   15        0.403   0.270   9.165   9.838
   16        0.407   0.269   9.163   9.840
   17        0.403   0.270   9.165   9.838
   18        0.403   0.270   9.165   9.838
   19        0.407   0.267   9.166   9.839
   20        0.418   0.293   9.151   9.861
   21        0.418   0.293   9.151   9.861
   22        0.402   0.275   9.164   9.841
   23        0.418   0.293   9.151   9.861
   24        0.402   0.275   9.164   9.841
   25        0.407   0.267   9.166   9.839
   26        0.407   0.267   9.166   9.839
   27        0.402   0.275   9.164   9.841
   28        0.414   0.199   9.177   9.791
   29        0.405   0.208   9.181   9.794
   30        0.405   0.208   9.181   9.794
   31        0.405   0.208   9.181   9.794
   32        0.405   0.208   9.181   9.794
   33        0.405   0.208   9.181   9.794
   34        0.405   0.208   9.181   9.794
   35        0.416   0.199   9.178   9.792
   36        0.458   0.548   8.408   9.414
   37        0.946   1.386   0.000   2.332
   38        1.532   3.744   0.000   5.276
   39        0.556   0.130   0.000   0.687
tot         17.836  14.216 329.363 361.415

  FORCE on cell =-STRESS in cart. coord.  units (eV):
  Direction    XX          YY          ZZ          XY          YZ          ZX
  Alpha Z   639.78542   639.78542   639.78542
  Ewald  189475.64557189475.64571************     0.00006     0.00000     0.00006
  Hartree199836.07547199836.07554************     0.00003    -0.00000     0.00003
  E(xc)   -2132.11665 -2132.11684 -2135.73031     0.00016    -0.00002    -0.00003
  Local  ************************400137.44048     0.00081    -0.00008    -0.00022
  n-local  -364.07004  -348.60174  -358.53632     9.69204    -0.30605     0.30080
  augment  3408.49722  3408.49763  3401.37778    -0.00038    -0.00005    -0.00005
  Kinetic  5063.08909  5061.94395  5022.15978     2.32246     1.39460    -0.70208
  Fock        0.00000     0.00000     0.00000     0.00000     0.00000     0.00000
  Total      -8.78117    -8.78117     0.07255    -0.00000     0.00000    -0.00000
  in kB      -7.90803    -7.90803     0.06534    -0.00000     0.00000    -0.00000

 VOLUME and BASIS-vectors are now :
  energy-cutoff  :      500.00
  volume of cell :     1779.08
      direct lattice vectors                 reciprocal lattice vectors
     8.791366577  0.000000000  0.000000000     0.113747958 -0.065672414  0.000000000
     4.395683289  7.613546790  0.000000000     0.000000000  0.131344829  0.000000000
     0.000000000  0.000000000 26.579777397     0.000000000  0.000000000  0.037622587

  length of vectors
     8.791366577  8.791366577 26.579777397     0.131344829  0.131344829  0.037622587

 FORCES acting on ions
    electron-ion (+dipol)            ewald-force                    non-local-force                 convergence-correction
   0.457E-04 -.284E-04 0.287E+04   -.954E-04 0.593E-04 -.286E+04   -.215E-17 -.315E-18 -.209E+01   -.132E-03 -.177E-03 0.133E-01
   0.628E+00 0.723E+00 0.287E+04   -.655E+00 -.679E+00 -.286E+04   -.307E-01 -.973E-01 -.148E+01   0.596E-01 0.608E-01 0.454E-01
   -.628E+00 0.723E+00 0.287E+04   0.655E+00 -.679E+00 -.286E+04   0.307E-01 -.973E-01 -.148E+01   -.602E-01 0.628E-01 0.462E-01
   0.940E+00 0.182E+00 0.287E+04   -.915E+00 -.227E+00 -.286E+04   -.996E-01 0.221E-01 -.148E+01   0.827E-01 0.214E-01 0.454E-01
   -.377E-05 -.175E-04 0.287E+04   0.981E-04 -.200E-05 -.287E+04   -.943E-19 -.161E-17 -.165E+01   0.631E-02 0.384E-02 0.847E-02
   -.940E+00 0.182E+00 0.287E+04   0.915E+00 -.228E+00 -.286E+04   0.996E-01 0.221E-01 -.148E+01   -.841E-01 0.224E-01 0.464E-01
   0.313E+00 -.905E+00 0.287E+04   -.261E+00 0.906E+00 -.286E+04   -.689E-01 0.752E-01 -.148E+01   0.247E-01 -.829E-01 0.462E-01
   -.313E+00 -.905E+00 0.287E+04   0.261E+00 0.906E+00 -.286E+04   0.689E-01 0.752E-01 -.148E+01   -.230E-01 -.840E-01 0.464E-01
   0.369E-04 -.127E-04 0.287E+04   0.792E-04 -.643E-04 -.286E+04   0.303E-17 -.186E-17 -.174E+01   -.671E-02 -.345E-02 0.120E+00
   0.587E+01 0.339E+01 0.101E+04   -.573E+01 -.331E+01 -.101E+04   -.211E+00 -.122E+00 -.709E+00   0.865E-01 0.500E-01 0.220E+00
   -.298E-04 0.704E+01 0.103E+04   0.420E-04 -.714E+01 -.103E+04   0.908E-13 0.138E-01 -.642E+00   0.643E-02 0.566E-01 0.189E+00
   -.587E+01 0.339E+01 0.101E+04   0.573E+01 -.331E+01 -.101E+04   0.211E+00 -.122E+00 -.709E+00   -.884E-01 0.515E-01 0.220E+00
   0.609E+01 -.352E+01 0.103E+04   -.618E+01 0.357E+01 -.103E+04   0.120E-01 -.691E-02 -.642E+00   0.521E-01 -.228E-01 0.188E+00
   -.609E+01 -.352E+01 0.103E+04   0.618E+01 0.357E+01 -.103E+04   -.120E-01 -.691E-02 -.642E+00   -.410E-01 -.235E-01 0.189E+00
   0.161E-04 0.105E+01 0.102E+04   -.109E-03 -.109E+01 -.102E+04   -.859E-13 -.131E-01 -.470E+00   -.206E-02 0.309E-01 0.189E+00
   -.758E-05 -.678E+01 0.101E+04   0.208E-04 0.662E+01 -.101E+04   0.160E-11 0.244E+00 -.709E+00   0.334E-03 -.102E+00 0.220E+00
   0.912E+00 -.527E+00 0.102E+04   -.941E+00 0.543E+00 -.102E+04   -.113E-01 0.654E-02 -.470E+00   0.257E-01 -.172E-01 0.189E+00
   -.912E+00 -.527E+00 0.102E+04   0.941E+00 0.543E+00 -.102E+04   0.113E-01 0.654E-02 -.470E+00   -.259E-01 -.149E-01 0.189E+00
   0.430E-04 0.468E+01 -.875E+03   -.131E-03 -.474E+01 0.875E+03   0.281E-12 0.428E-01 0.492E+00   -.214E-02 0.102E-01 0.452E-01
   0.436E+02 0.252E+02 -.809E+03   -.429E+02 -.247E+02 0.810E+03   -.812E+00 -.469E+00 -.940E+00   0.717E-01 0.410E-01 0.634E-01
   -.436E+02 0.252E+02 -.809E+03   0.429E+02 -.247E+02 0.810E+03   0.812E+00 -.469E+00 -.940E+00   -.607E-01 0.423E-01 0.636E-01
   0.188E+02 -.108E+02 -.858E+03   -.191E+02 0.110E+02 0.858E+03   0.293E+00 -.169E+00 0.586E+00   0.908E-01 -.522E-01 0.382E-01
   -.625E-04 -.504E+02 -.809E+03   0.488E-04 0.495E+02 0.810E+03   0.616E-11 0.938E+00 -.940E+00   0.686E-02 -.734E-01 0.627E-01
   -.188E+02 -.108E+02 -.858E+03   0.191E+02 0.110E+02 0.858E+03   -.293E+00 -.169E+00 0.586E+00   -.926E-01 -.532E-01 0.391E-01
   -.405E+01 -.234E+01 -.875E+03   0.410E+01 0.237E+01 0.875E+03   -.371E-01 -.214E-01 0.492E+00   -.805E-02 -.433E-02 0.448E-01
   0.405E+01 -.234E+01 -.875E+03   -.410E+01 0.237E+01 0.875E+03   0.371E-01 -.214E-01 0.492E+00   0.785E-02 -.696E-02 0.448E-01
   0.207E-04 0.217E+02 -.858E+03   0.109E-03 -.221E+02 0.858E+03   0.222E-11 0.338E+00 0.586E+00   -.588E-03 0.105E+00 0.391E-01
   0.544E-04 -.380E-04 -.276E+04   -.116E-03 0.786E-04 0.276E+04   0.576E-18 -.767E-18 0.152E+01   -.136E-02 0.478E-03 -.702E-02
   0.495E+02 0.853E+02 -.274E+04   -.495E+02 -.854E+02 0.273E+04   -.447E-01 -.102E+00 0.202E+01   0.100E-02 0.425E-01 0.136E-01
   -.495E+02 0.853E+02 -.274E+04   0.495E+02 -.854E+02 0.273E+04   0.447E-01 -.102E+00 0.202E+01   0.917E-02 0.453E-01 0.135E-01
   0.986E+02 0.221E+00 -.274E+04   -.987E+02 -.197E+00 0.273E+04   -.110E+00 0.121E-01 0.202E+01   0.318E-01 -.302E-01 0.136E-01
   -.986E+02 0.221E+00 -.274E+04   0.987E+02 -.198E+00 0.273E+04   0.110E+00 0.121E-01 0.202E+01   -.340E-01 -.294E-01 0.128E-01
   0.491E+02 -.855E+02 -.274E+04   -.492E+02 0.856E+02 0.273E+04   -.657E-01 0.896E-01 0.202E+01   0.435E-01 -.128E-01 0.134E-01
   -.491E+02 -.855E+02 -.274E+04   0.492E+02 0.856E+02 0.273E+04   0.657E-01 0.896E-01 0.202E+01   -.314E-01 -.148E-01 0.128E-01
   0.210E-04 -.112E-04 -.276E+04   0.107E-03 -.669E-04 0.276E+04   0.753E-17 0.737E-17 0.152E+01   -.801E-02 -.280E-02 -.180E-01
   -.516E-04 -.311E-04 -.213E+04   0.957E-04 0.140E-04 0.213E+04   -.101E-16 0.204E-18 0.304E+01   0.104E-01 0.486E-02 -.291E-01
   -.345E-06 -.727E-04 -.113E+04   0.211E-04 0.359E-06 0.111E+04   -.906E-18 -.564E-18 0.209E+02   0.144E-02 0.487E-03 -.186E-01
   0.240E-03 -.901E-04 -.181E+04   0.105E-04 0.273E-07 0.181E+04   0.152E-18 0.262E-18 -.493E+01   0.397E-02 0.219E-02 -.672E-01
   0.650E-05 -.140E-04 -.342E+03   0.710E-06 -.280E-08 0.350E+03   -.839E-20 -.183E-19 -.840E+01   0.212E-03 0.111E-03 -.698E-02
   0.601E-03 -.883E-03 -.880E+01   -.730E-13 -.989E-15 -.409E-11   -.184E-15 0.160E-15 0.636E+01   0.528E-01 0.233E-01 0.258E+01

 POSITION                                       TOTAL-FORCE (eV/Angst)
      0.00000      0.00000      5.28219        -0.000000      0.000000      0.060074
      2.93046      0.00000      5.28219         0.002637      0.009095      0.013958
      5.86091      0.00000      5.28219        -0.002637      0.009095      0.013958
      1.46523      2.53785      5.28219         0.009195     -0.002263      0.013958
      4.39568      2.53785      5.28219        -0.000000      0.000000     -0.014923
      7.32614      2.53785      5.28219        -0.009195     -0.002263      0.013958
      2.93046      5.07570      5.28219         0.006557     -0.006831      0.013958
      5.86091      5.07570      5.28219        -0.006557     -0.006831      0.013958
      8.79137      5.07570      5.28219        -0.000000      0.000000      0.038848
      1.46523      0.84595      7.67490         0.015393      0.008887      0.000503
      4.39568      0.84595      7.67490        -0.000000     -0.034965     -0.092919
      7.32614      0.84595      7.67490        -0.015393      0.008887      0.000503
      2.93046      3.38380      7.67490        -0.030281      0.017483     -0.092919
      5.86091      3.38380      7.67490         0.030281      0.017483     -0.092919
      8.79137      3.38380      7.67490        -0.000000     -0.015533     -0.002805
      4.39568      5.92165      7.67490        -0.000000     -0.017774      0.000503
      7.32614      5.92165      7.67490        -0.013452      0.007767     -0.002805
     10.25659      5.92165      7.67490         0.013452      0.007767     -0.002805
      8.79137      1.69533     10.05818        -0.000000     -0.009384     -0.005010
      2.93805      1.69629     10.04232         0.000491      0.000284     -0.106059
      5.85331      1.69629     10.04232        -0.000491      0.000284     -0.106059
     10.25424      4.23111     10.04634         0.010740     -0.006201      0.007028
      4.39568      4.22098     10.04232        -0.000000     -0.000567     -0.106059
      7.32849      4.23111     10.04634        -0.010740     -0.006201      0.007028
     11.71886      6.76588     10.05818         0.008126      0.004692     -0.005010
      5.86388      6.76588     10.05818        -0.008126      0.004692     -0.005010
      8.79137      6.76488     10.04634         0.000000      0.012402      0.007028
      0.00000      0.00000     12.42348        -0.000000      0.000000      0.001017
      2.96241      0.05505     12.41819        -0.090771     -0.174744     -0.016466
      5.82895      0.05505     12.41819         0.090771     -0.174744     -0.016466
      1.52888      2.53800     12.41819        -0.196718      0.008762     -0.016466
      7.26249      2.53800     12.41819         0.196718      0.008762     -0.016466
      2.96215      5.02050     12.41819        -0.105947      0.165982     -0.016466
      5.82922      5.02050     12.41819         0.105947      0.165982     -0.016466
      8.79137      5.07570     12.42030        -0.000000      0.000000     -0.000803
      4.39568      2.53785     12.13895        -0.000000      0.000000      0.500470
      4.39568      2.53785     13.81618        -0.000000      0.000000      0.027801
      4.39568      2.53785     15.07814        -0.000000      0.000000     -0.017055
      4.39568      2.53785     16.04272        -0.000000      0.000000      0.017404
    total drift:                                0.053448      0.022388      0.144303

  FREE ENERGIE OF THE ION-ELECTRON SYSTEM (eV)
  free  energy   TOTEN  =      -110.85707597 eV

  energy  without entropy=     -110.85707597  energy(sigma->0) =     -110.85707597

 stress matrix after NEB project (eV)
     -8.78117     -0.00000     -0.00000
     -0.00000     -8.78117      0.00000
     -0.00000      0.00000      0.07255
  FORCES: max atom, RMS     0.027801    0.005920
  FORCE total and by dimension    0.036968    0.027801
  Stress total and by dimension   12.418668    8.781174
|           W    W    AA    RRRRR   N    N  II  N    N   GGGG   !!!           |
|           W    W   A  A   R    R  NN   N  II  NN   N  G    G  !!!           |
|           W    W  A    A  R    R  N N  N  II  N N  N  G       !!!           |
|           W WW W  AAAAAA  RRRRR   N  N N  II  N  N N  G  GGG   !            |
|           WW  WW  A    A  R   R   N   NN  II  N   NN  G    G                |
|           W    W  A    A  R    R  N    N  II  N    N   GGGG   !!!           |
|     Tetrahedron method does not include variations of the Fermi             |
|     occupations, so forces and stress will be inaccurate. We suggest        |
|     using a different smearing scheme ISMEAR = 1 or 2 for metals in         |
|     relaxations.                                                            |

 total charge

# of ion       s       p       d       tot
    1        0.413   0.205   9.177   9.795
    2        0.418   0.203   9.177   9.798
    3        0.418   0.203   9.177   9.798
    4        0.418   0.203   9.177   9.798
    5        0.413   0.205   9.177   9.795
    6        0.418   0.203   9.177   9.798
    7        0.418   0.203   9.177   9.798
    8        0.418   0.203   9.177   9.798
    9        0.413   0.206   9.176   9.795
   10        0.407   0.269   9.163   9.840
   11        0.408   0.269   9.165   9.842
   12        0.407   0.269   9.163   9.840
   13        0.408   0.269   9.165   9.842
   14        0.408   0.269   9.165   9.842
   15        0.403   0.270   9.165   9.838
   16        0.407   0.269   9.163   9.840
   17        0.403   0.270   9.165   9.838
   18        0.403   0.270   9.165   9.838
   19        0.407   0.267   9.166   9.839
   20        0.418   0.293   9.151   9.861
   21        0.418   0.293   9.151   9.861
   22        0.402   0.275   9.164   9.841
   23        0.418   0.293   9.151   9.861
   24        0.402   0.275   9.164   9.841
   25        0.407   0.267   9.166   9.839
   26        0.407   0.267   9.166   9.839
   27        0.402   0.275   9.164   9.841
   28        0.414   0.199   9.177   9.791
   29        0.405   0.208   9.181   9.794
   30        0.405   0.208   9.181   9.794
   31        0.405   0.208   9.181   9.794
   32        0.405   0.208   9.181   9.794
   33        0.405   0.208   9.181   9.794
   34        0.405   0.208   9.181   9.794
   35        0.416   0.199   9.178   9.792
   36        0.458   0.548   8.408   9.414
   37        0.946   1.386   0.000   2.332
   38        1.532   3.744   0.000   5.276
   39        0.556   0.130   0.000   0.687
tot         17.836  14.216 329.363 361.415

 BZINTS: Fermi energy:    0.532614;  406.000000 electrons
         Band energy:-0.151799E+04;  BLOECHL correction:   -0.046851