 vasp.6.2.0 18Jan21 (build Jun 12 2021 23:27:24) complex

 executed on             LinuxIFC date 2022.05.30  18:11:08

 INCAR:
   ISMEAR = -5
   SIGMA = 0.1
   ISPIN = 1
   EDIFF = 1.d-5
   EDIFFG = -0.01
   NSW = 0
   NELM = 150
   ENCUT = 500
   ISIF = 2
   IBRION = 2
   LREAL = Auto
   ALGO = Fast
   ICHARG = 11
   LORBIT = 10
   LCHARG = .F.
   LWAVE = .F.

 POTCAR:    PAW_PBE Cu 22Jun2005
 POTCAR:    PAW_PBE Mo 08Apr2002
 POTCAR:    PAW_PBE O 08Apr2002
|           W    W    AA    RRRRR   N    N  II  N    N   GGGG   !!!           |
|           W    W   A  A   R    R  NN   N  II  NN   N  G    G  !!!           |
|           W    W  A    A  R    R  N N  N  II  N N  N  G       !!!           |
|           W WW W  AAAAAA  RRRRR   N  N N  II  N  N N  G  GGG   !            |
|           WW  WW  A    A  R   R   N   NN  II  N   NN  G    G                |
|           W    W  A    A  R    R  N    N  II  N    N   GGGG   !!!           |
|     For optimal performance we recommend to set                             |
|       NCORE = 2 up to number-of-cores-per-socket                            |
|     This setting can greatly improve the performance of VASP for DFT.       |
|     The default, NCORE=1 might be grossly inefficient on modern             |
|     multi-core architectures or massively parallel machines. Do your        |
|     Unfortunately you need to use the default for GW and RPA                |
|     calculations (for HF NCORE is supported but not extensively tested      |
|     yet).                                                                   |

 POTCAR:    PAW_PBE Cu 22Jun2005
   VRHFIN =Cu: d10 p1

   TITEL  = PAW_PBE Cu 22Jun2005
   POMASS =   63.546; ZVAL   =   11.000    mass and valenz
   ENMAX  =  295.446; ENMIN  =  221.585 eV

 POTCAR:    PAW_PBE Mo 08Apr2002
   VRHFIN =Mo: 4p5s4d

   TITEL  = PAW_PBE Mo 08Apr2002
   POMASS =   95.940; ZVAL   =    6.000    mass and valenz
   ENMAX  =  224.584; ENMIN  =  168.438 eV

 POTCAR:    PAW_PBE O 08Apr2002
   VRHFIN =O: s2p4

   TITEL  = PAW_PBE O 08Apr2002
   POMASS =   16.000; ZVAL   =    6.000    mass and valenz
   ENMAX  =  400.000; ENMIN  =  300.000 eV

 Optimization of the real space projectors (new method)

 maximal supplied QI-value         = 16.25
 optimisation between [QCUT,QGAM] = [ 11.38, 22.75] = [ 36.24,144.96] Ry
 Optimized for a Real-space Cutoff    1.52 Angstroem

   l    n(q)    QCUT    max X(q) W(low)/X(q) W(high)/X(q)  e(spline)
   2      9    11.376     4.610    0.21E-03    0.10E-03    0.26E-06
   2      9    11.376     8.522    0.33E-03    0.16E-03    0.37E-06
   0     10    11.376    51.609    0.62E-04    0.20E-04    0.13E-06
   0     10    11.376    27.747    0.54E-04    0.20E-04    0.13E-06
   1     10    11.376    20.408    0.13E-04    0.99E-04    0.19E-06
   1     10    11.376    13.425    0.12E-04    0.87E-04    0.17E-06
 Optimization of the real space projectors (new method)

[...]

   l    n(q)    QCUT    max X(q) W(low)/X(q) W(high)/X(q)  e(spline)
   2     10    11.429    80.908    0.27E-03    0.78E-03    0.13E-05
   2     10    11.429    79.000    0.27E-03    0.78E-03    0.13E-05
   0     11    11.429    52.066    0.33E-04    0.97E-04    0.72E-06
   0     11    11.429    24.514    0.27E-04    0.80E-04    0.60E-06
   1     10    11.429    16.033    0.31E-04    0.17E-03    0.36E-06
   1     10    11.429    11.179    0.22E-04    0.13E-03    0.29E-06
 Optimization of the real space projectors (new method)

 maximal supplied QI-value         = 24.76
 optimisation between [QCUT,QGAM] = [ 11.39, 22.77] = [ 36.31,145.25] Ry
 Optimized for a Real-space Cutoff    1.00 Angstroem

   l    n(q)    QCUT    max X(q) W(low)/X(q) W(high)/X(q)  e(spline)
   0      7    11.387    20.381    0.39E-03    0.13E-02    0.15E-06
   0      7    11.387    15.268    0.42E-03    0.14E-02    0.17E-06
   1      6    11.387     5.964    0.41E-03    0.11E-02    0.17E-06
   1      6    11.387     5.382    0.39E-03    0.87E-03    0.15E-06
  PAW_PBE Cu 22Jun2005                  :
  PAW_PBE Mo 08Apr2002                  :
  PAW_PBE O 08Apr2002                   :

 POSCAR: Cu-Mo-O2
  positions in direct lattice
  velocities in cartesian coordinates
 exchange correlation table for  LEXCH =        8
   RHO(1)=    0.500       N(1)  =     2000
   RHO(2)=  100.500       N(2)  =     4000

 VTST: version 3.2, (02/03/18)

 CHAIN: initializing optimizer

 OPT: Using VASP Conjugate-Gradient optimizer
 CHAIN: Read ICHAIN            0

 POSCAR: Cu-Mo-O2
  positions in direct lattice
  velocities in cartesian coordinates

 ion  position               nearest neighbor table
   1  0.000  0.000  0.226-   7 2.57   3 2.57   4 2.57   2 2.57   6 2.57   8 2.57  12 2.57  10 2.57
                            16 2.57
   2  0.333  0.000  0.226-   8 2.57   9 2.57   5 2.57   1 2.57   3 2.57  11 2.57   4 2.57  10 2.57
                            17 2.57
   3  0.667  0.000  0.226-   1 2.57   7 2.57   6 2.57   9 2.57   2 2.57  12 2.57   5 2.57  18 2.57
                            11 2.57
   4  0.000  0.333  0.226-   5 2.57   6 2.57   1 2.57   7 2.57   2 2.57  13 2.57   9 2.57  10 2.57
                            15 2.57
   5  0.333  0.333  0.226-   4 2.57   2 2.57   7 2.57  13 2.57   8 2.57   6 2.57   3 2.57  11 2.57
                            14 2.57
   6  0.667  0.333  0.226-   4 2.57   9 2.57  15 2.57   3 2.57   1 2.57   8 2.57  14 2.57   5 2.57
                            12 2.57
   7  0.000  0.667  0.226-   1 2.57   3 2.57  16 2.57  18 2.57   4 2.57   5 2.57   8 2.57   9 2.57
                            13 2.57
   8  0.333  0.667  0.226-   9 2.57   2 2.57  17 2.57   6 2.57   1 2.57   7 2.57   5 2.57  14 2.57
                            16 2.57
   9  0.667  0.667  0.226-   8 2.57   6 2.57   2 2.57  17 2.57   3 2.57   7 2.57   4 2.57  15 2.57
                            18 2.57
  10  0.111  0.111  0.314-  20 2.55  26 2.56  19 2.56  11 2.57  12 2.57  13 2.57   1 2.57   2 2.57
                             4 2.57  15 2.57  16 2.57  17 2.57
  11  0.444  0.111  0.314-  20 2.56  21 2.56  10 2.57  13 2.57   2 2.57  17 2.57  14 2.57  12 2.57
                             5 2.57   3 2.57  18 2.57  27 2.57
  12  0.778  0.111  0.314-  21 2.55  19 2.56  25 2.56  15 2.57  10 2.57  14 2.57  18 2.57   3 2.57
                             1 2.57  16 2.57  11 2.57   6 2.57
  13  0.111  0.444  0.314-  23 2.56  20 2.56  16 2.57  18 2.57  10 2.57  11 2.57  14 2.57   5 2.57
                             4 2.57   7 2.57  15 2.57  22 2.57
  14  0.444  0.444  0.314-  21 2.56  23 2.56  15 2.57  17 2.57  12 2.57  16 2.57  13 2.57  11 2.57
                             6 2.57   8 2.57   5 2.57  24 2.57
  15  0.778  0.444  0.314-  19 2.56  14 2.57  17 2.57  12 2.57   6 2.57  18 2.57  10 2.57   9 2.57
                            13 2.57   4 2.57  24 2.57  22 2.57
  16  0.111  0.778  0.314-  23 2.55  25 2.56  26 2.56  18 2.57  13 2.57   7 2.57  14 2.57  17 2.57
                            12 2.57  10 2.57   8 2.57   1 2.57
  17  0.444  0.778  0.314-  26 2.56  14 2.57  15 2.57   8 2.57   9 2.57  11 2.57  16 2.57  18 2.57
                            10 2.57   2 2.57  27 2.57  24 2.57
  18  0.778  0.778  0.314-  25 2.56  16 2.57  13 2.57   7 2.57  15 2.57  12 2.57  17 2.57   9 2.57
                             3 2.57  11 2.57  22 2.57  27 2.57
  19  0.889  0.222  0.401-  15 2.56  12 2.56  10 2.56  21 2.56  20 2.56  22 2.57  24 2.57  25 2.57
                            26 2.57  28 2.57  32 2.58  31 2.58
  20  0.222  0.222  0.401-  10 2.55  11 2.56  13 2.56  26 2.56  19 2.56  27 2.57  22 2.57  23 2.57
                            21 2.57  36 2.58  29 2.60  31 2.60
  21  0.556  0.222  0.401-  12 2.55  14 2.56  11 2.56  19 2.56  25 2.56  24 2.57  27 2.57  20 2.57
                            23 2.57  36 2.58  32 2.60  30 2.60
  22  0.888  0.556  0.402-  24 2.56  27 2.56  35 2.56  19 2.57  25 2.57  23 2.57  20 2.57  18 2.57
                            15 2.57  13 2.57  31 2.58  33 2.58
  23  0.222  0.556  0.401-  16 2.55  13 2.56  14 2.56  25 2.56  26 2.56  22 2.57  24 2.57  20 2.57
                            21 2.57  36 2.58  33 2.60  34 2.60
  24  0.556  0.556  0.402-  22 2.56  27 2.56  35 2.56  19 2.57  26 2.57  21 2.57  23 2.57  15 2.57
                            17 2.57  14 2.57  32 2.58  34 2.58
  25  0.889  0.889  0.401-  18 2.56  12 2.56  16 2.56  21 2.56  23 2.56  22 2.57  27 2.57  19 2.57
                            26 2.57  28 2.57  33 2.58  30 2.58
  26  0.222  0.889  0.401-  17 2.56  10 2.56  16 2.56  20 2.56  23 2.56  27 2.57  24 2.57  25 2.57
                            19 2.57  28 2.57  29 2.58  34 2.58
  27  0.556  0.888  0.402-  24 2.56  22 2.56  35 2.56  26 2.57  25 2.57  20 2.57  21 2.57  17 2.57
                            18 2.57  11 2.57  29 2.58  30 2.58
  28  0.000  0.000  0.490-  33 2.56  30 2.56  31 2.56  29 2.56  32 2.56  34 2.56  25 2.57  19 2.57
                            26 2.57
  29  0.333  0.998  0.491-  34 2.54  28 2.56  35 2.56  27 2.58  31 2.58  26 2.58  36 2.58  30 2.58
                            20 2.60
  30  0.669  0.998  0.491-  33 2.54  28 2.56  35 2.56  27 2.58  32 2.58  25 2.58  36 2.58  29 2.58
                            21 2.60
  31  0.998  0.333  0.491-  32 2.54  28 2.56  35 2.56  22 2.58  29 2.58  19 2.58  36 2.58  33 2.58
                            20 2.60
  32  0.669  0.333  0.491-  31 2.54  28 2.56  35 2.56  24 2.58  30 2.58  19 2.58  36 2.58  34 2.58
                            21 2.60
  33  0.998  0.669  0.491-  30 2.54  28 2.56  35 2.56  22 2.58  34 2.58  25 2.58  36 2.58  31 2.58
                            23 2.60
  34  0.333  0.669  0.491-  29 2.54  28 2.56  35 2.56  24 2.58  33 2.58  26 2.58  36 2.58  32 2.58
                            23 2.60
  35  0.667  0.667  0.490-  34 2.56  32 2.56  29 2.56  30 2.56  33 2.56  31 2.56  24 2.56  27 2.56
                            22 2.56
  36  0.333  0.333  0.490-  37 2.00  38 2.00  23 2.58  20 2.58  21 2.58  31 2.58  29 2.58  33 2.58
                            34 2.58  32 2.58  30 2.58
  37  0.240  0.333  0.568-  38 1.45  36 2.00
  38  0.428  0.333  0.568-  37 1.45  36 2.00

  LATTYP: Found a hexagonal cell.
 ALAT       =     7.6967864036
 C/A-ratio  =     3.0908716217

  Lattice vectors:

 A1 = (  -3.8483927580,  -6.6656128093,   0.0000000000)
 A2 = (   7.6967864037,   0.0000000000,   0.0000000000)
 A3 = (   0.0000000000,   0.0000000000,  23.7897786731)

Analysis of symmetry for initial positions (statically):
 Subroutine PRICEL returns:
 Original cell was already a primitive cell.

 Routine SETGRP: Setting up the symmetry group for a
 hexagonal supercell.

 Subroutine GETGRP returns: Found  2 space group operations
 (whereof  2 operations were pure point group operations)
 out of a pool of 24 trial point group operations.

The static configuration has the point symmetry C_1h.

Analysis of symmetry for dynamics (positions and initial velocities):
 Subroutine PRICEL returns:
 Original cell was already a primitive cell.

[...]

The dynamic configuration has the point symmetry C_1h.

Analysis of constrained symmetry for selective dynamics:
 Subroutine PRICEL returns:
 Original cell was already a primitive cell.

 Routine SETGRP: Setting up the symmetry group for a
 hexagonal supercell.

[...]
     33      -4.6198      2.00000
     34      -4.6122      2.00000
     35      -4.6032      2.00000
     36      -4.5949      2.00000
     37      -4.5775      2.00000
     38      -4.5516      2.00000
     39      -4.5238      2.00000
     40      -4.4857      2.00000
     41      -4.4261      2.00000
     42      -4.2963      2.00000
     43      -4.2853      2.00000
     44      -4.2717      2.00000
     45      -4.2162      2.00000
     46      -4.2139      2.00000
     47      -4.1977      2.00000
     48      -4.1733      2.00000
     49      -4.1682      2.00000
     50      -4.1583      2.00000
     51      -4.0031      2.00000
     52      -3.9750      2.00000
     53      -3.9640      2.00000
     54      -3.9585      2.00000
     55      -3.9296      2.00000
     56      -3.8978      2.00000
     57      -3.8896      2.00000
     58      -3.8706      2.00000
     59      -3.8670      2.00000
     60      -3.8611      2.00000
[...]
    238       5.3578      0.00000
    239       5.4887      0.00000
    240       5.6567      0.00000
    241       5.7603      0.00000
    242       5.8876      0.00000
    243       6.0158      0.00000
    244       6.0446      0.00000
    245       6.1430      0.00000
    246       6.2095      0.00000
    247       6.3560      0.00000
    248       6.4357      0.00000
    249       6.6101      0.00000
    250       6.7351      0.00000
    251       6.8534      0.00000
    252       6.8944      0.00000

 soft charge-density along one line, spin component           1
         0         1         2         3         4         5         6         7         8         9
 total charge-density along one line

------------------------ aborting loop because EDIFF is reached ----------------------------------------

 total charge

# of ion       s       p       d       tot
    1        0.451   0.282   9.189   9.922
    2        0.448   0.286   9.187   9.920
    3        0.448   0.286   9.187   9.920
    4        0.448   0.285   9.186   9.920
    5        0.449   0.285   9.183   9.917
    6        0.448   0.285   9.186   9.920
    7        0.448   0.285   9.187   9.920
    8        0.448   0.285   9.187   9.920
    9        0.448   0.284   9.188   9.921
   10        0.443   0.370   9.178   9.992
   11        0.441   0.366   9.183   9.990
   12        0.443   0.370   9.178   9.992
   13        0.441   0.366   9.183   9.990
   14        0.441   0.366   9.183   9.990
   15        0.438   0.369   9.179   9.985
   16        0.444   0.371   9.177   9.991
   17        0.437   0.369   9.179   9.985
   18        0.437   0.369   9.179   9.985
   19        0.442   0.366   9.184   9.991
   20        0.466   0.396   9.160  10.022
   21        0.466   0.396   9.160  10.022
   22        0.430   0.373   9.178   9.981
   23        0.469   0.401   9.154  10.024
   24        0.430   0.373   9.178   9.981
   25        0.441   0.367   9.183   9.991
   26        0.441   0.367   9.183   9.991
   27        0.431   0.369   9.184   9.983
   28        0.455   0.289   9.185   9.929
   29        0.463   0.308   9.176   9.947
   30        0.463   0.308   9.176   9.947
   31        0.461   0.310   9.179   9.951
   32        0.461   0.310   9.179   9.951
   33        0.461   0.308   9.178   9.948
   34        0.461   0.308   9.178   9.948
   35        0.448   0.293   9.185   9.926
   36        0.506   0.564   4.338   5.408
   37        1.611   3.240   0.000   4.851
   38        1.611   3.240   0.000   4.851
tot         19.422  18.764 325.639 363.826

  FORCE on cell =-STRESS in cart. coord.  units (eV):
  Direction    XX          YY          ZZ          XY          YZ          ZX
  Alpha Z   821.40738   821.40738   821.40738
  Ewald  222272.55242221914.89282************     0.00039     0.74030     0.00018
  Hartree234990.67688234817.09344************     0.00004     1.28087     0.00006
  E(xc)   -2333.90526 -2334.17629 -2338.43963    -0.00032     0.12943    -0.00004
  Local  ************************469987.59468     0.02046    -1.60411    -0.00076
  n-local  -810.82298  -816.72978  -825.45951     1.69965     0.45923     0.09411
  augment  3326.49774  3329.97511  3348.78544    -0.01858    -0.11036     0.00037
  Kinetic  3443.99625  3487.23635  3487.23623     0.94193    -0.85773    -0.31515
  Fock        0.00000     0.00000     0.00000     0.00000     0.00000     0.00000
  Total      -1.69656    -2.58895     0.94070     0.00000     0.03763    -0.00000
  in kB      -2.22710    -3.39856     1.23487     0.00000     0.04940    -0.00000

 VOLUME and BASIS-vectors are now :
  energy-cutoff  :      500.00
  volume of cell :     1220.51
      direct lattice vectors                 reciprocal lattice vectors
     7.696786404  0.000000000  0.000000000     0.129924354 -0.075011849  0.000000000
     3.848392758  6.665612809  0.000000000     0.000000000  0.150023716  0.000000000
     0.000000000  0.000000000 23.789778673     0.000000000  0.000000000  0.042034859

  length of vectors
     7.696786404  7.696786404 23.789778673     0.150023716  0.150023716  0.042034859

 FORCES acting on ions
    electron-ion (+dipol)            ewald-force                    non-local-force                 convergence-correction
   -.415E-04 -.394E-01 0.375E+04   0.580E-04 -.323E-01 -.375E+04   -.374E-08 0.561E-01 -.258E+01   -.354E-03 0.128E-01 -.212E+00
   -.642E+00 -.352E+00 0.375E+04   0.587E+00 0.229E+00 -.374E+04   0.417E-01 0.118E+00 -.189E+01   0.155E-01 0.166E-01 -.162E+00
   0.642E+00 -.352E+00 0.375E+04   -.587E+00 0.229E+00 -.374E+04   -.417E-01 0.118E+00 -.189E+01   -.147E-01 0.191E-01 -.162E+00
   -.680E+00 -.393E+00 0.375E+04   0.519E+00 0.379E+00 -.374E+04   0.112E+00 -.488E-01 -.195E+01   0.603E-01 0.589E-01 -.214E+00
   -.638E-04 -.165E+00 0.374E+04   0.116E-03 0.135E-02 -.374E+04   -.353E-08 0.530E-01 -.173E+01   0.121E-01 0.107E+00 -.125E+00
   0.680E+00 -.393E+00 0.375E+04   -.519E+00 0.379E+00 -.374E+04   -.112E+00 -.488E-01 -.195E+01   -.619E-01 0.601E-01 -.213E+00
   -.657E-01 0.832E+00 0.375E+04   -.669E-01 -.608E+00 -.374E+04   0.122E+00 -.115E+00 -.184E+01   0.213E-01 -.112E+00 -.181E+00
   0.658E-01 0.832E+00 0.375E+04   0.666E-01 -.608E+00 -.374E+04   -.122E+00 -.115E+00 -.184E+01   -.179E-01 -.113E+00 -.181E+00
   -.144E-03 0.207E-01 0.375E+04   0.263E-03 0.310E-01 -.374E+04   0.248E-09 -.373E-02 -.223E+01   -.131E-01 -.517E-01 -.169E+00
   -.298E+01 -.159E+01 0.130E+04   0.340E+01 0.171E+01 -.130E+04   -.510E+00 -.191E+00 -.942E+00   0.652E-01 0.620E-01 0.338E-01
   -.839E-04 -.279E+01 0.129E+04   0.190E-03 0.236E+01 -.129E+04   -.200E-07 0.301E+00 -.228E+00   0.120E-01 0.657E-01 0.641E-01
   0.298E+01 -.159E+01 0.130E+04   -.340E+01 0.171E+01 -.130E+04   0.510E+00 -.191E+00 -.942E+00   -.669E-01 0.630E-01 0.338E-01
   -.268E+01 0.139E+01 0.129E+04   0.228E+01 -.113E+01 -.129E+04   0.291E+00 -.196E+00 -.325E+00   0.710E-01 -.388E-01 0.182E-01
   0.268E+01 0.139E+01 0.129E+04   -.228E+01 -.113E+01 -.129E+04   -.291E+00 -.196E+00 -.325E+00   -.473E-01 -.404E-01 0.162E-01
   -.139E-03 -.260E+01 0.130E+04   0.297E-03 0.251E+01 -.130E+04   -.333E-08 0.500E-01 -.939E+00   -.337E-02 0.286E-01 -.354E-01
   -.903E-04 0.334E+01 0.130E+04   0.186E-03 -.386E+01 -.130E+04   -.422E-07 0.634E+00 -.103E+01   -.836E-03 -.893E-01 0.404E-01
   -.214E+01 0.123E+01 0.130E+04   0.203E+01 -.109E+01 -.130E+04   0.811E-01 -.131E+00 -.841E+00   0.306E-01 -.210E-01 0.195E-01
   0.214E+01 0.123E+01 0.130E+04   -.203E+01 -.109E+01 -.130E+04   -.811E-01 -.131E+00 -.841E+00   -.290E-01 -.183E-01 0.215E-01
   -.655E-04 -.428E+01 -.115E+04   0.696E-04 0.423E+01 0.115E+04   0.119E-08 -.179E-01 0.127E+01   -.108E-01 0.286E-01 0.407E-01
   -.410E+02 -.224E+02 -.119E+04   0.420E+02 0.227E+02 0.119E+04   -.120E+01 -.450E+00 -.546E+00   0.895E-01 -.105E-02 0.752E-01
   0.410E+02 -.224E+02 -.119E+04   -.420E+02 0.227E+02 0.119E+04   0.120E+01 -.450E+00 -.546E+00   -.108E+00 -.265E-02 0.744E-01
   -.198E+02 0.979E+01 -.117E+04   0.195E+02 -.948E+01 0.117E+04   0.325E+00 -.319E+00 0.902E+00   0.332E-01 -.192E-01 0.305E-01
   -.742E-04 0.448E+02 -.119E+04   0.149E-03 -.463E+02 0.120E+04   -.114E-06 0.171E+01 -.103E+01   -.121E-01 -.799E-01 -.108E-01
   0.198E+02 0.979E+01 -.117E+04   -.195E+02 -.948E+01 0.117E+04   -.325E+00 -.319E+00 0.902E+00   -.316E-01 -.205E-01 0.305E-01
   0.471E+01 0.337E+01 -.115E+04   -.451E+01 -.336E+01 0.115E+04   -.128E+00 0.353E-01 0.111E+01   -.912E-01 -.264E-01 0.459E-01
   -.471E+01 0.337E+01 -.115E+04   0.451E+01 -.336E+01 0.115E+04   0.128E+00 0.353E-01 0.111E+01   0.699E-01 -.262E-01 0.464E-01
   -.122E-03 -.231E+02 -.117E+04   0.241E-03 0.222E+02 0.117E+04   -.570E-07 0.856E+00 0.103E+01   0.109E-02 0.980E-01 0.499E-01
   -.355E-04 0.767E+01 -.358E+04   0.369E-04 -.768E+01 0.358E+04   -.234E-08 0.352E-01 0.175E+01   -.186E-03 -.329E-01 0.272E+00
   -.159E+02 -.127E+02 -.355E+04   0.159E+02 0.117E+02 0.355E+04   -.196E+00 0.618E+00 0.245E+01   0.101E+00 0.142E+00 0.227E+00
   0.159E+02 -.127E+02 -.355E+04   -.159E+02 0.117E+02 0.355E+04   0.196E+00 0.618E+00 0.245E+01   -.100E+00 0.143E+00 0.226E+00
   -.108E+02 0.788E+00 -.353E+04   0.969E+01 -.544E+00 0.353E+04   0.385E+00 -.284E+00 0.339E+01   0.197E+00 0.339E-01 0.305E+00
   0.108E+02 0.788E+00 -.353E+04   -.969E+01 -.544E+00 0.353E+04   -.385E+00 -.284E+00 0.339E+01   -.197E+00 0.345E-01 0.305E+00
   -.180E+02 0.123E+02 -.355E+04   0.176E+02 -.115E+02 0.355E+04   0.265E+00 -.399E+00 0.255E+01   0.122E-01 -.136E+00 0.341E+00
   0.180E+02 0.123E+02 -.355E+04   -.176E+02 -.115E+02 0.355E+04   -.265E+00 -.399E+00 0.255E+01   -.948E-02 -.137E+00 0.342E+00
   -.150E-03 -.762E+01 -.359E+04   0.256E-03 0.747E+01 0.359E+04   -.876E-08 0.132E+00 0.223E+01   -.125E-01 0.293E-01 0.421E+00
   -.380E-04 -.596E+00 -.175E+04   0.738E-04 0.558E+00 0.175E+04   -.343E-08 0.516E-01 0.129E+01   0.491E-03 -.254E-01 0.241E+00
   0.185E+03 -.981E-01 -.230E+04   -.218E+03 0.159E+00 0.232E+04   0.328E+02 -.797E-01 -.186E+02   0.160E+00 0.247E-01 0.536E-01
   -.185E+03 -.981E-01 -.230E+04   0.218E+03 0.159E+00 0.232E+04   -.328E+02 -.797E-01 -.186E+02   -.160E+00 0.248E-01 0.533E-01
   0.680E-04 -.104E+01 0.333E+02   -.114E-12 -.280E-12 0.318E-11   -.647E-07 0.972E+00 -.352E+02   -.357E-01 0.601E-01 0.176E+01

 POSITION                                       TOTAL-FORCE (eV/Angst)
      0.00000      0.00000      5.37156         0.000000     -0.002648     -0.017682
      2.56560      0.00000      5.37156         0.001421      0.013205      0.074614
      5.13119      0.00000      5.37156        -0.001421      0.013205      0.074614
      1.28280      2.22187      5.37156         0.012015     -0.003476      0.065527
      3.84839      2.22187      5.37156         0.000000     -0.003708      0.051146
      6.41399      2.22187      5.37156        -0.012015     -0.003476      0.065527
      2.56560      4.44374      5.37156         0.009411     -0.003334      0.071288
      5.13119      4.44374      5.37156        -0.009411     -0.003334      0.071288
      7.69679      4.44374      5.37156         0.000000     -0.003662      0.017167
      1.28280      0.74062      7.46636        -0.019016     -0.004598     -0.092622
      3.84839      0.74062      7.46636         0.000000     -0.062952     -0.077826
      6.41399      0.74062      7.46636         0.019016     -0.004598     -0.092622
      2.56560      2.96249      7.46636        -0.049361      0.026759     -0.055594
      5.13119      2.96249      7.46636         0.049361      0.026759     -0.055594
      7.69679      2.96249      7.46636         0.000000     -0.009400      0.020393
      3.84839      5.18437      7.46636        -0.000000      0.026414     -0.067154
      6.41399      5.18437      7.46636        -0.000255     -0.001888      0.017902
      8.97958      5.18437      7.46636         0.000255     -0.001888      0.017902
      7.69679      1.48128      9.55134         0.000000     -0.043406      0.054109
      2.56091      1.47854      9.54628        -0.101590     -0.092540     -0.267005
      5.13587      1.47854      9.54628         0.101590     -0.092540     -0.267005
      8.97673      3.70477      9.56818         0.066915     -0.028007      0.047874
      3.84839      3.70853      9.54628        -0.000000      0.129287     -0.175133
      6.41684      3.70477      9.56818        -0.066915     -0.028007      0.047874
     10.26235      5.92497      9.55134        -0.008176      0.024532      0.049314
      5.13122      5.92497      9.55134         0.008176      0.024532      0.049314
      7.69679      5.92169      9.56818        -0.000000      0.102663      0.021015
      0.00000      0.00000     11.64671         0.000000     -0.002329     -0.040500
      6.40484      6.65345     11.67351        -0.113940     -0.290868     -0.252586
      8.98873      6.65345     11.67351         0.113940     -0.290868     -0.252586
      8.96447      2.22003     11.67351        -0.475566     -0.005547     -0.364754
      6.42910      2.22003     11.67351         0.475566     -0.005547     -0.364754
     10.25642      4.45775     11.67351        -0.107985      0.297090     -0.277588
      5.13715      4.45775     11.67351         0.107985      0.297090     -0.277588
      7.69679      4.44374     11.65978        -0.000000      0.008129     -0.008140
      3.84839      2.22187     11.64991         0.000000     -0.012502      2.216668
      3.12448      2.21716     13.51767         0.018212      0.005729     -0.013401
      4.57231      2.21716     13.51767        -0.018212      0.005729     -0.013401
    total drift:                               -0.035654     -0.004966     -0.129702

  FREE ENERGIE OF THE ION-ELECTRON SYSTEM (eV)
  free  energy   TOTEN  =      -142.91628502 eV

  energy  without entropy=     -142.91628502  energy(sigma->0) =     -142.91628502

 stress matrix after NEB project (eV)
     -1.69656      0.00000     -0.00000
      0.00000     -2.58895      0.03763
     -0.00000      0.03763      0.94070
  FORCES: max atom, RMS     0.023326    0.005351
  FORCE total and by dimension    0.032988    0.018212
  Stress total and by dimension    3.235545    2.588955
|           W    W    AA    RRRRR   N    N  II  N    N   GGGG   !!!           |
|           W    W   A  A   R    R  NN   N  II  NN   N  G    G  !!!           |
|           W    W  A    A  R    R  N N  N  II  N N  N  G       !!!           |
|           W WW W  AAAAAA  RRRRR   N  N N  II  N  N N  G  GGG   !            |
|           WW  WW  A    A  R   R   N   NN  II  N   NN  G    G                |
|           W    W  A    A  R    R  N    N  II  N    N   GGGG   !!!           |
|     Tetrahedron method does not include variations of the Fermi             |
|     occupations, so forces and stress will be inaccurate. We suggest        |
|     using a different smearing scheme ISMEAR = 1 or 2 for metals in         |
|     relaxations.                                                            |

 total charge

# of ion       s       p       d       tot
    1        0.451   0.282   9.189   9.922
    2        0.448   0.286   9.187   9.920
    3        0.448   0.286   9.187   9.920
    4        0.448   0.285   9.186   9.920
    5        0.449   0.285   9.183   9.917
    6        0.448   0.285   9.186   9.920
    7        0.448   0.285   9.187   9.920
    8        0.448   0.285   9.187   9.920
    9        0.448   0.284   9.188   9.921
   10        0.443   0.370   9.178   9.992
   11        0.441   0.366   9.183   9.990
   12        0.443   0.370   9.178   9.992
   13        0.441   0.366   9.183   9.990
   14        0.441   0.366   9.183   9.990
   15        0.438   0.369   9.179   9.985
   16        0.444   0.371   9.177   9.991
   17        0.437   0.369   9.179   9.985
   18        0.437   0.369   9.179   9.985
   19        0.442   0.366   9.184   9.991
   20        0.466   0.396   9.160  10.022
   21        0.466   0.396   9.160  10.022
   22        0.430   0.373   9.178   9.981
   23        0.469   0.401   9.154  10.024
   24        0.430   0.373   9.178   9.981
   25        0.441   0.367   9.183   9.991
   26        0.441   0.367   9.183   9.991
   27        0.431   0.369   9.184   9.983
   28        0.455   0.289   9.185   9.929
   29        0.463   0.308   9.176   9.947
   30        0.463   0.308   9.176   9.947
   31        0.461   0.310   9.179   9.951
   32        0.461   0.310   9.179   9.951
   33        0.461   0.308   9.178   9.948
   34        0.461   0.308   9.178   9.948
   35        0.448   0.293   9.185   9.926
   36        0.506   0.564   4.338   5.408
   37        1.611   3.240   0.000   4.851
   38        1.611   3.240   0.000   4.851
tot         19.422  18.764 325.639 363.826

 BZINTS: Fermi energy:   -0.476411;  403.000000 electrons
         Band energy:-0.142575E+04;  BLOECHL correction:   -0.027188