 vasp.6.2.0 18Jan21 (build Jun 12 2021 23:27:24) complex

 executed on             LinuxIFC date 2022.05.26  19:21:46

 INCAR:
   ISMEAR = -5
   SIGMA = 0.1
   ISPIN = 1
   EDIFF = 1.d-5
   EDIFFG = -0.01
   NSW = 0
   NELM = 150
   ENCUT = 500
   ISIF = 2
   IBRION = 2
   LREAL = Auto
   ALGO = Fast
   ICHARG = 11
   LORBIT = 10
   LCHARG = .F.
   LWAVE = .F.

 POTCAR:    PAW_PBE Au 04Oct2007
 POTCAR:    PAW_PBE Co 02Aug2007
 POTCAR:    PAW_PBE O 08Apr2002
|           W    W    AA    RRRRR   N    N  II  N    N   GGGG   !!!           |
|           W    W   A  A   R    R  NN   N  II  NN   N  G    G  !!!           |
|           W    W  A    A  R    R  N N  N  II  N N  N  G       !!!           |
|           W WW W  AAAAAA  RRRRR   N  N N  II  N  N N  G  GGG   !            |
|           WW  WW  A    A  R   R   N   NN  II  N   NN  G    G                |
|           W    W  A    A  R    R  N    N  II  N    N   GGGG   !!!           |
|     For optimal performance we recommend to set                             |
|       NCORE = 2 up to number-of-cores-per-socket                            |
|     This setting can greatly improve the performance of VASP for DFT.       |
|     The default, NCORE=1 might be grossly inefficient on modern             |
|     multi-core architectures or massively parallel machines. Do your        |
|     Unfortunately you need to use the default for GW and RPA                |
|     calculations (for HF NCORE is supported but not extensively tested      |
|     yet).                                                                   |

 POTCAR:    PAW_PBE Au 04Oct2007
   VRHFIN =Au: s1d10

   TITEL  = PAW_PBE Au 04Oct2007
   POMASS =  196.966; ZVAL   =   11.000    mass and valenz
   ENMAX  =  229.943; ENMIN  =  172.457 eV

 POTCAR:    PAW_PBE Co 02Aug2007
   VRHFIN =Co: d8 s1

   TITEL  = PAW_PBE Co 02Aug2007
   POMASS =   58.933; ZVAL   =    9.000    mass and valenz
   ENMAX  =  267.968; ENMIN  =  200.976 eV

 POTCAR:    PAW_PBE O 08Apr2002
   VRHFIN =O: s2p4

   TITEL  = PAW_PBE O 08Apr2002
   POMASS =   16.000; ZVAL   =    6.000    mass and valenz
   ENMAX  =  400.000; ENMIN  =  300.000 eV

 Optimization of the real space projectors (new method)

 maximal supplied QI-value         = 15.12
 optimisation between [QCUT,QGAM] = [ 11.34, 22.83] = [ 36.00,145.93] Ry
 Optimized for a Real-space Cutoff    1.39 Angstroem

   l    n(q)    QCUT    max X(q) W(low)/X(q) W(high)/X(q)  e(spline)
   2      9    11.338    60.898    0.39E-03    0.42E-03    0.21E-06
   2      9    11.338    58.894    0.40E-03    0.42E-03    0.22E-06
   0      9    11.338   109.617    0.13E-03    0.20E-04    0.13E-06
   0      9    11.338    75.026    0.13E-03    0.20E-04    0.13E-06
   1      9    11.338    16.344    0.33E-04    0.24E-03    0.18E-06
   1      9    11.338    10.160    0.26E-04    0.19E-03    0.15E-06
 Optimization of the real space projectors (new method)

[...]

   l    n(q)    QCUT    max X(q) W(low)/X(q) W(high)/X(q)  e(spline)
   2      8    11.376    65.824    0.20E-03    0.32E-04    0.13E-06
   2      8    11.376    61.429    0.20E-03    0.33E-04    0.14E-06
   0      9    11.376    56.174    0.76E-04    0.11E-03    0.19E-06
   0      9    11.376    31.263    0.69E-04    0.99E-04    0.17E-06
   1      9    11.376    19.828    0.35E-03    0.11E-03    0.12E-06
   1      9    11.376    15.139    0.29E-03    0.94E-04    0.10E-06
 Optimization of the real space projectors (new method)

 maximal supplied QI-value         = 24.76
 optimisation between [QCUT,QGAM] = [ 11.39, 22.77] = [ 36.31,145.25] Ry
 Optimized for a Real-space Cutoff    1.00 Angstroem

   l    n(q)    QCUT    max X(q) W(low)/X(q) W(high)/X(q)  e(spline)
   0      7    11.387    20.381    0.39E-03    0.13E-02    0.15E-06
   0      7    11.387    15.268    0.42E-03    0.14E-02    0.17E-06
   1      6    11.387     5.964    0.41E-03    0.11E-02    0.17E-06
   1      6    11.387     5.382    0.39E-03    0.87E-03    0.15E-06
  PAW_PBE Au 04Oct2007                  :
  PAW_PBE Co 02Aug2007                  :
  PAW_PBE O 08Apr2002                   :

 POSCAR: Au-Co-O
  positions in direct lattice
  velocities in cartesian coordinates
 exchange correlation table for  LEXCH =        8
   RHO(1)=    0.500       N(1)  =     2000
   RHO(2)=  100.500       N(2)  =     4000

 VTST: version 3.2, (02/03/18)

 CHAIN: initializing optimizer

 OPT: Using VASP Conjugate-Gradient optimizer
 CHAIN: Read ICHAIN            0

 POSCAR: Au-Co-O
  positions in direct lattice
  velocities in cartesian coordinates

 ion  position               nearest neighbor table
   1  0.000  0.000  0.238-  16 2.94  12 2.94   6 2.94   8 2.94   7 2.94   3 2.94  10 2.94   4 2.94
                             2 2.94
   2  0.333  0.000  0.238-   9 2.94  11 2.94  17 2.94  10 2.94   8 2.94   4 2.94   5 2.94   1 2.94
                             3 2.94
   3  0.667  0.000  0.238-   7 2.94  18 2.94  12 2.94   1 2.94  11 2.94   5 2.94   6 2.94   9 2.94
                             2 2.94
   4  0.000  0.333  0.238-  10 2.94   6 2.94   5 2.94  13 2.94   2 2.94  15 2.94   9 2.94   1 2.94
                             7 2.94
   5  0.333  0.333  0.238-  13 2.94   7 2.94  11 2.94   4 2.94   2 2.94  14 2.94   3 2.94   8 2.94
                             6 2.94
   6  0.667  0.333  0.238-  15 2.94  14 2.94   1 2.94  12 2.94   4 2.94   9 2.94   8 2.94   3 2.94
                             5 2.94
   7  0.000  0.667  0.238-  18 2.94   3 2.94  16 2.94   5 2.94   1 2.94  13 2.94   8 2.94   4 2.94
                             9 2.94
   8  0.333  0.667  0.238-   9 2.94  17 2.94   1 2.94   2 2.94  14 2.94  16 2.94   6 2.94   7 2.94
                             5 2.94
   9  0.667  0.667  0.238-   2 2.94   8 2.94  17 2.94   6 2.94  15 2.94   4 2.94   3 2.94  18 2.94
                             7 2.94
  10  0.111  0.111  0.346-  20 2.92  26 2.93  19 2.93  11 2.94  17 2.94   2 2.94   4 2.94   1 2.94
                            12 2.94  16 2.94  13 2.94  15 2.94
  11  0.444  0.111  0.346-  20 2.91  21 2.91  27 2.93  13 2.94   2 2.94  10 2.94  17 2.94   5 2.94
                             3 2.94  18 2.94  14 2.94  12 2.94
  12  0.778  0.111  0.346-  21 2.92  25 2.93  19 2.93  16 2.94  18 2.94   1 2.94  14 2.94  15 2.94
                             3 2.94   6 2.94  10 2.94  11 2.94
  13  0.111  0.444  0.346-  23 2.91  20 2.91  22 2.93   5 2.94  18 2.94  11 2.94   7 2.94   4 2.94
                            16 2.94  10 2.94  14 2.94  15 2.94
  14  0.444  0.444  0.346-  21 2.91  23 2.91  24 2.93  15 2.94   6 2.94  12 2.94   8 2.94  17 2.94
                             5 2.94  16 2.94  13 2.94  11 2.94
  15  0.778  0.444  0.346-  24 2.92  22 2.92  19 2.93  14 2.94   6 2.94  17 2.94  12 2.94   9 2.94
                             4 2.94  10 2.94  13 2.94  18 2.94
  16  0.111  0.778  0.346-  23 2.92  25 2.93  26 2.93  18 2.94  12 2.94   7 2.94   1 2.94   8 2.94
                            13 2.94  10 2.94  14 2.94  17 2.94
  17  0.444  0.778  0.346-  27 2.92  24 2.92  26 2.93   9 2.94  15 2.94   2 2.94  10 2.94  11 2.94
                             8 2.94  14 2.94  16 2.94  18 2.94
  18  0.778  0.778  0.346-  22 2.92  27 2.92  25 2.93  16 2.94   7 2.94  13 2.94  12 2.94   3 2.94
                            11 2.94   9 2.94  15 2.94  17 2.94
  19  0.889  0.222  0.454-  10 2.93  12 2.93  15 2.93  26 2.94  25 2.94  24 2.94  22 2.94  28 2.94
                            21 2.95  20 2.95  32 2.96  31 2.96
  20  0.223  0.223  0.453-  36 2.69  29 2.91  31 2.91  11 2.91  13 2.91  23 2.91  21 2.91  10 2.92
                            27 2.95  22 2.95  26 2.95  19 2.95
  21  0.554  0.223  0.453-  36 2.69  30 2.91  32 2.91  14 2.91  11 2.91  20 2.91  23 2.91  12 2.92
                            27 2.95  24 2.95  25 2.95  19 2.95
  22  0.887  0.557  0.453-  24 2.91  27 2.91  18 2.92  15 2.92  13 2.93  25 2.94  19 2.94  33 2.94
                            31 2.94  23 2.95  20 2.95  35 2.96
  23  0.223  0.554  0.453-  36 2.69  33 2.91  34 2.91  13 2.91  14 2.91  20 2.91  21 2.91  16 2.92
                            22 2.95  24 2.95  25 2.95  26 2.95
  24  0.557  0.557  0.453-  27 2.91  22 2.91  15 2.92  17 2.92  14 2.93  26 2.94  19 2.94  32 2.94
                            34 2.94  21 2.95  23 2.95  35 2.96
  25  0.889  0.889  0.454-  16 2.93  12 2.93  18 2.93  19 2.94  26 2.94  22 2.94  27 2.94  28 2.94
                            23 2.95  21 2.95  33 2.96  30 2.96
  26  0.222  0.889  0.454-  10 2.93  16 2.93  17 2.93  19 2.94  25 2.94  27 2.94  24 2.94  28 2.94
                            20 2.95  23 2.95  29 2.96  34 2.96
  27  0.557  0.887  0.453-  24 2.91  22 2.91  17 2.92  18 2.92  11 2.93  26 2.94  25 2.94  29 2.94
                            30 2.94  20 2.95  21 2.95  35 2.96
  28  0.000  0.000  0.562-  25 2.94  19 2.94  26 2.94  34 2.98  32 2.98  33 2.98  30 2.98  31 2.98
                            29 2.98
  29  0.334  0.008  0.561-  30 2.86  31 2.87  36 2.88  20 2.91  27 2.94  26 2.96  35 2.98  28 2.98
                            34 3.09
  30  0.658  0.008  0.561-  29 2.86  32 2.87  36 2.88  21 2.91  27 2.94  25 2.96  35 2.98  28 2.98
                            33 3.09
  31  0.008  0.334  0.561-  33 2.86  29 2.87  36 2.88  20 2.91  22 2.94  19 2.96  35 2.98  28 2.98
                            32 3.09
  32  0.658  0.334  0.561-  34 2.86  30 2.87  36 2.88  21 2.91  24 2.94  19 2.96  35 2.98  28 2.98
                            31 3.09
  33  0.008  0.658  0.561-  31 2.86  34 2.87  36 2.88  23 2.91  22 2.94  25 2.96  35 2.98  28 2.98
                            30 3.09
  34  0.334  0.658  0.561-  32 2.86  33 2.87  36 2.88  23 2.91  24 2.94  26 2.96  35 2.98  28 2.98
                            29 3.09
  35  0.667  0.667  0.563-  24 2.96  27 2.96  22 2.96  29 2.98  34 2.98  32 2.98  31 2.98  30 2.98
                            33 2.98
  36  0.333  0.333  0.547-  37 1.62  20 2.69  23 2.69  21 2.69  33 2.88  31 2.88  29 2.88  30 2.88
                            34 2.88  32 2.88
  37  0.333  0.333  0.621-  36 1.62

  LATTYP: Found a hexagonal cell.
 ALAT       =     8.8135128021
 C/A-ratio  =     2.5184286595

  Lattice vectors:

 A1 = (  -4.4067569092,  -7.6327256898,   0.0000000000)
 A2 = (   8.8135128021,   0.0000000000,   0.0000000000)
 A3 = (   0.0000000000,   0.0000000000,  22.1962032318)

Analysis of symmetry for initial positions (statically):
 Subroutine PRICEL returns:
 Original cell was already a primitive cell.

 Routine SETGRP: Setting up the symmetry group for a
 hexagonal supercell.

 Subroutine GETGRP returns: Found  6 space group operations
 (whereof  6 operations were pure point group operations)
 out of a pool of 24 trial point group operations.

The static configuration has the point symmetry C_3v.

Analysis of symmetry for dynamics (positions and initial velocities):
 Subroutine PRICEL returns:
 Original cell was already a primitive cell.

[...]

The dynamic configuration has the point symmetry C_3v.

Analysis of constrained symmetry for selective dynamics:
 Subroutine PRICEL returns:
 Original cell was already a primitive cell.

 Routine SETGRP: Setting up the symmetry group for a
 hexagonal supercell.

 Subroutine GETGRP returns: Found  6 space group operations
[...]
     24      -5.1329      2.00000
     25      -5.1127      2.00000
     26      -5.1023      2.00000
     27      -5.0561      2.00000
     28      -4.9781      2.00000
     29      -4.9346      2.00000
     30      -4.8294      2.00000
     31      -4.8230      2.00000
     32      -4.8119      2.00000
     33      -4.8089      2.00000
     34      -4.7967      2.00000
     35      -4.7182      2.00000
     36      -4.6417      2.00000
     37      -4.6225      2.00000
     38      -4.6092      2.00000
     39      -4.5987      2.00000
     40      -4.5466      2.00000
     41      -4.4606      2.00000
     42      -4.4329      2.00000
     43      -4.3905      2.00000
     44      -4.3567      2.00000
     45      -4.3513      2.00000
     46      -4.3326      2.00000
     47      -4.2375      2.00000
     48      -4.2302      2.00000
     49      -4.1898      2.00000
     50      -4.1754      2.00000
     51      -4.1671      2.00000
     52      -4.1517      2.00000
     53      -4.1391      2.00000
     54      -4.1088      2.00000
     55      -4.0753      2.00000
     56      -4.0516      2.00000
     57      -4.0266      2.00000
     58      -4.0052      2.00000
     59      -3.9900      2.00000
     60      -3.9825      2.00000
[...]
    238       6.4228      0.00000
    239       6.4892      0.00000
    240       6.5069      0.00000
    241       6.5849      0.00000
    242       6.7553      0.00000
    243       6.7989      0.00000
    244       6.8195      0.00000
    245       6.8663      0.00000
    246       7.1122      0.00000
    247       7.1357      0.00000
    248       7.2762      0.00000
    249       7.4400      0.00000
    250       7.6502      0.00000
    251       7.7419      0.00000
    252       7.8184      0.00000

 soft charge-density along one line, spin component           1
         0         1         2         3         4         5         6         7         8         9
 total charge-density along one line

------------------------ aborting loop because EDIFF is reached ----------------------------------------

 total charge

# of ion       s       p       d       tot
    1        0.544   0.238   8.770   9.553
    2        0.544   0.241   8.764   9.548
    3        0.544   0.241   8.764   9.548
    4        0.544   0.241   8.764   9.548
    5        0.543   0.241   8.763   9.547
    6        0.544   0.241   8.764   9.548
    7        0.544   0.241   8.764   9.548
    8        0.544   0.241   8.764   9.548
    9        0.540   0.241   8.763   9.544
   10        0.522   0.309   8.773   9.604
   11        0.518   0.311   8.775   9.604
   12        0.522   0.309   8.773   9.604
   13        0.518   0.311   8.775   9.604
   14        0.518   0.311   8.775   9.604
   15        0.517   0.309   8.778   9.605
   16        0.522   0.309   8.773   9.604
   17        0.517   0.309   8.778   9.605
   18        0.517   0.309   8.778   9.605
   19        0.515   0.305   8.772   9.591
   20        0.542   0.330   8.756   9.629
   21        0.542   0.330   8.756   9.629
   22        0.514   0.309   8.776   9.599
   23        0.542   0.330   8.756   9.629
   24        0.514   0.309   8.776   9.599
   25        0.515   0.305   8.772   9.591
   26        0.515   0.305   8.772   9.591
   27        0.514   0.309   8.776   9.599
   28        0.540   0.223   8.773   9.536
   29        0.531   0.233   8.774   9.537
   30        0.531   0.233   8.774   9.537
   31        0.531   0.233   8.774   9.537
   32        0.531   0.233   8.774   9.537
   33        0.531   0.233   8.774   9.537
   34        0.531   0.233   8.774   9.537
   35        0.536   0.224   8.768   9.527
   36        0.430   0.519   7.332   8.281
   37        1.611   3.213   0.000   4.824
tot         20.577  13.357 314.290 348.224

  FORCE on cell =-STRESS in cart. coord.  units (eV):
  Direction    XX          YY          ZZ          XY          YZ          ZX
  Alpha Z  1011.64869  1011.64869  1011.64869
  Ewald  120852.43803120852.43848************    -0.00031    -0.00008    -0.00012
  Hartree129710.20548129710.20550************     0.00001    -0.00003    -0.00002
  E(xc)   -1803.11224 -1803.11221 -1809.34264    -0.00003     0.00000     0.00001
  Local  ************************262879.92032     0.00209     0.00002    -0.00003
  n-local  -111.49035   -63.80241   -61.73885    23.66950    -1.30587     1.54451
  augment  2533.87509  2533.87666  2532.53155    -0.00136     0.00003     0.00008
  Kinetic  5553.86387  5562.43624  5589.05296     4.83081     0.57292     0.29518
  Fock        0.00000     0.00000     0.00000     0.00000     0.00000     0.00000
  Total     -21.50562   -21.50562     1.43831    -0.00000     0.00000     0.00000
  in kB     -23.07571   -23.07571     1.54332    -0.00000     0.00000     0.00000

 VOLUME and BASIS-vectors are now :
  energy-cutoff  :      500.00
  volume of cell :     1493.16
      direct lattice vectors                 reciprocal lattice vectors
     8.813512802  0.000000000  0.000000000     0.113462137 -0.065507406  0.000000000
     4.406756909  7.632725690  0.000000000     0.000000000  0.131014796  0.000000000
     0.000000000  0.000000000 22.196203232     0.000000000  0.000000000  0.045052750

  length of vectors
     8.813512802  8.813512802 22.196203232     0.131014796  0.131014796  0.045052750

 FORCES acting on ions
    electron-ion (+dipol)            ewald-force                    non-local-force                 convergence-correction
   -.195E-04 -.162E-04 0.250E+04   0.519E-04 0.434E-04 -.250E+04   0.729E-17 -.418E-17 -.770E+00   -.175E-03 -.113E-03 -.713E+00
   0.557E+00 0.546E+00 0.250E+04   -.696E+00 -.579E+00 -.250E+04   0.328E-01 0.595E-01 -.334E+00   0.104E+00 -.162E-01 -.656E+00
   -.557E+00 0.546E+00 0.250E+04   0.696E+00 -.579E+00 -.250E+04   -.328E-01 0.595E-01 -.334E+00   -.104E+00 -.143E-01 -.656E+00
   0.751E+00 0.209E+00 0.250E+04   -.849E+00 -.313E+00 -.250E+04   0.679E-01 -.132E-02 -.334E+00   0.380E-01 0.981E-01 -.656E+00
   0.949E-05 -.227E-04 0.250E+04   0.951E-04 0.173E-05 -.250E+04   0.656E-18 -.413E-18 -.298E+00   0.427E-02 0.263E-02 -.552E+00
   -.751E+00 0.209E+00 0.250E+04   0.849E+00 -.313E+00 -.250E+04   -.679E-01 -.132E-02 -.334E+00   -.395E-01 0.991E-01 -.655E+00
   0.194E+00 -.755E+00 0.250E+04   -.154E+00 0.892E+00 -.250E+04   0.351E-01 -.581E-01 -.334E+00   -.641E-01 -.827E-01 -.656E+00
   -.195E+00 -.755E+00 0.250E+04   0.153E+00 0.892E+00 -.250E+04   -.351E-01 -.581E-01 -.334E+00   0.660E-01 -.837E-01 -.655E+00
   0.195E-04 -.415E-04 0.250E+04   0.166E-03 -.201E-04 -.250E+04   0.938E-18 -.264E-17 -.482E+00   -.464E-02 -.244E-02 -.641E+00
   0.546E+01 0.315E+01 0.858E+03   -.534E+01 -.308E+01 -.858E+03   -.226E+00 -.131E+00 -.595E+00   0.114E+00 0.657E-01 0.202E-01
   0.151E-04 0.712E+01 0.869E+03   0.147E-03 -.726E+01 -.869E+03   0.397E-08 0.596E-01 -.280E+00   0.365E-02 0.396E-01 0.178E-01
   -.546E+01 0.315E+01 0.858E+03   0.534E+01 -.308E+01 -.858E+03   0.226E+00 -.131E+00 -.595E+00   -.115E+00 0.670E-01 0.192E-01
   0.617E+01 -.356E+01 0.869E+03   -.629E+01 0.363E+01 -.869E+03   0.516E-01 -.298E-01 -.280E+00   0.362E-01 -.163E-01 0.180E-01
   -.617E+01 -.356E+01 0.869E+03   0.629E+01 0.363E+01 -.869E+03   -.516E-01 -.298E-01 -.280E+00   -.285E-01 -.166E-01 0.177E-01
   0.307E-04 0.267E+01 0.861E+03   0.237E-03 -.277E+01 -.860E+03   -.143E-09 -.215E-02 -.484E+00   -.217E-02 0.776E-01 -.523E-01
   -.216E-04 -.630E+01 0.858E+03   0.163E-03 0.616E+01 -.858E+03   0.174E-07 0.261E+00 -.595E+00   0.341E-03 -.133E+00 0.197E-01
   0.231E+01 -.133E+01 0.861E+03   -.240E+01 0.139E+01 -.860E+03   -.186E-02 0.108E-02 -.484E+00   0.664E-01 -.406E-01 -.529E-01
   -.231E+01 -.133E+01 0.861E+03   0.240E+01 0.139E+01 -.860E+03   0.186E-02 0.108E-02 -.484E+00   -.665E-01 -.388E-01 -.532E-01
   -.401E-04 0.304E+01 -.824E+03   0.532E-04 -.326E+01 0.823E+03   0.845E-08 0.127E+00 0.620E+00   0.344E-02 0.996E-01 0.875E+00
   0.399E+02 0.230E+02 -.764E+03   -.393E+02 -.227E+02 0.763E+03   -.857E+00 -.495E+00 -.562E+00   0.303E+00 0.176E+00 0.122E+01
   -.399E+02 0.230E+02 -.764E+03   0.393E+02 -.227E+02 0.763E+03   0.857E+00 -.495E+00 -.562E+00   -.303E+00 0.178E+00 0.122E+01
   0.125E+02 -.724E+01 -.808E+03   -.129E+02 0.745E+01 0.807E+03   0.266E+00 -.154E+00 0.620E+00   0.129E+00 -.806E-01 0.915E+00
   -.121E-04 -.461E+02 -.764E+03   0.144E-03 0.454E+02 0.763E+03   0.659E-07 0.989E+00 -.562E+00   0.168E-02 -.351E+00 0.122E+01
   -.125E+02 -.724E+01 -.808E+03   0.129E+02 0.745E+01 0.807E+03   -.266E+00 -.154E+00 0.620E+00   -.136E+00 -.794E-01 0.915E+00
   -.263E+01 -.152E+01 -.824E+03   0.282E+01 0.163E+01 0.823E+03   -.110E+00 -.635E-01 0.620E+00   -.791E-01 -.465E-01 0.874E+00
   0.263E+01 -.152E+01 -.824E+03   -.282E+01 0.163E+01 0.823E+03   0.110E+00 -.635E-01 0.620E+00   0.810E-01 -.472E-01 0.875E+00
   0.117E-04 0.145E+02 -.808E+03   0.196E-03 -.149E+02 0.807E+03   0.204E-07 0.307E+00 0.620E+00   -.451E-02 0.152E+00 0.915E+00
   -.130E-04 -.142E-04 -.248E+04   0.301E-04 0.351E-04 0.248E+04   -.143E-17 -.730E-18 0.603E+00   0.345E-03 -.210E-04 0.830E+00
   0.427E+02 0.716E+02 -.246E+04   -.430E+02 -.721E+02 0.245E+04   -.158E+00 -.976E-01 0.918E+00   0.252E+00 0.363E+00 0.729E+00
   -.427E+02 0.716E+02 -.246E+04   0.430E+02 -.721E+02 0.245E+04   0.158E+00 -.976E-01 0.918E+00   -.252E+00 0.365E+00 0.730E+00
   0.833E+02 0.125E+01 -.246E+04   -.840E+02 -.118E+01 0.245E+04   -.164E+00 -.882E-01 0.918E+00   0.440E+00 0.370E-01 0.729E+00
   -.833E+02 0.125E+01 -.246E+04   0.840E+02 -.118E+01 0.245E+04   0.164E+00 -.882E-01 0.918E+00   -.441E+00 0.384E-01 0.729E+00
   0.406E+02 -.728E+02 -.246E+04   -.410E+02 0.733E+02 0.245E+04   -.543E-02 0.186E+00 0.918E+00   0.190E+00 -.401E+00 0.730E+00
   -.406E+02 -.728E+02 -.246E+04   0.410E+02 0.733E+02 0.245E+04   0.543E-02 0.186E+00 0.918E+00   -.188E+00 -.402E+00 0.729E+00
   0.344E-04 -.274E-04 -.248E+04   0.142E-03 -.506E-04 0.248E+04   -.660E-18 -.408E-18 0.529E+00   -.474E-02 -.272E-02 0.744E+00
   -.187E-04 -.102E-04 -.166E+04   0.951E-04 0.891E-05 0.166E+04   0.128E-16 -.271E-17 -.124E+01   0.649E-02 0.410E-02 0.928E+00
   0.181E-03 -.961E-04 -.173E+04   0.281E-04 0.181E-05 0.175E+04   0.242E-17 0.202E-18 -.269E+02   0.379E-02 0.235E-02 -.453E+00
   -.554E-03 -.856E-03 0.180E+02   -.159E-13 -.525E-13 0.523E-11   0.250E-16 -.225E-15 -.271E+02   0.981E-02 0.939E-02 0.958E+01

 POSITION                                       TOTAL-FORCE (eV/Angst)
      0.00000      0.00000      5.28038        -0.000000     -0.000000     -0.093858
      2.93784      0.00000      5.28038        -0.001535      0.011532     -0.054016
      5.87568      0.00000      5.28038         0.001535      0.011532     -0.054016
      1.46892      2.54424      5.28038         0.009219     -0.007096     -0.054016
      4.40676      2.54424      5.28038        -0.000000      0.000000     -0.069219
      7.34459      2.54424      5.28038        -0.009219     -0.007096     -0.054016
      2.93784      5.08848      5.28038         0.010755     -0.004436     -0.054016
      5.87568      5.08848      5.28038        -0.010755     -0.004436     -0.054016
      8.81351      5.08848      5.28038        -0.000000     -0.000000     -0.080314
      1.46892      0.84808      7.67911         0.010980      0.006339      0.136599
      4.40676      0.84808      7.67911        -0.000000     -0.047373      0.053959
      7.34459      0.84808      7.67911        -0.010980      0.006339      0.136599
      2.93784      3.39232      7.67911        -0.041026      0.023686      0.053959
      5.87568      3.39232      7.67911         0.041026      0.023686      0.053959
      8.81351      3.39232      7.67911        -0.000000     -0.032778      0.087713
      4.40676      5.93656      7.67911        -0.000000     -0.012678      0.136599
      7.34459      5.93656      7.67911        -0.028386      0.016389      0.087713
     10.28243      5.93656      7.67911         0.028386      0.016389      0.087713
      8.81351      1.69524     10.07173         0.000000      0.004585      0.001257
      2.95099      1.70376     10.05075         0.024777      0.014305     -0.120156
      5.86252      1.70376     10.05075        -0.024777      0.014305     -0.120156
     10.26977      4.24772     10.05674         0.028872     -0.016669     -0.025134
      4.40676      4.22522     10.05075        -0.000000     -0.028610     -0.120156
      7.35726      4.24772     10.05674        -0.028872     -0.016669     -0.025134
     11.75215      6.78511     10.07173        -0.003971     -0.002293      0.001257
      5.87488      6.78511     10.07173         0.003971     -0.002293      0.001257
      8.81351      6.77002     10.05674         0.000000      0.033339     -0.025134
      0.00000      0.00000     12.47665        -0.000000     -0.000000     -0.013829
      2.97645      0.06424     12.45579        -0.163908     -0.303391     -0.101207
      5.83706      0.06424     12.45579         0.163908     -0.303391     -0.101207
      1.54386      2.54556     12.45579        -0.344698      0.009747     -0.101207
      7.26966      2.54556     12.45579         0.344698      0.009747     -0.101207
      2.97417      5.02293     12.45579        -0.180790      0.293644     -0.101207
      5.83935      5.02293     12.45579         0.180790      0.293644     -0.101207
      8.81351      5.08848     12.49078        -0.000000     -0.000000     -0.004229
      4.40676      2.54424     12.15093        -0.000000      0.000000      0.762863
      4.40676      2.54424     13.77551        -0.000000     -0.000000      0.027207
    total drift:                                0.009257      0.008534      0.508098

  FREE ENERGIE OF THE ION-ELECTRON SYSTEM (eV)
  free  energy   TOTEN  =      -118.07307251 eV

  energy  without entropy=     -118.07307251  energy(sigma->0) =     -118.07307251

 stress matrix after NEB project (eV)
    -21.50562     -0.00000      0.00000
     -0.00000    -21.50562      0.00000
      0.00000      0.00000      1.43831
  FORCES: max atom, RMS     0.027207    0.004473
  FORCE total and by dimension    0.027207    0.027207
  Stress total and by dimension   30.447525   21.505617
|           W    W    AA    RRRRR   N    N  II  N    N   GGGG   !!!           |
|           W    W   A  A   R    R  NN   N  II  NN   N  G    G  !!!           |
|           W    W  A    A  R    R  N N  N  II  N N  N  G       !!!           |
|           W WW W  AAAAAA  RRRRR   N  N N  II  N  N N  G  GGG   !            |
|           WW  WW  A    A  R   R   N   NN  II  N   NN  G    G                |
|           W    W  A    A  R    R  N    N  II  N    N   GGGG   !!!           |
|     Tetrahedron method does not include variations of the Fermi             |
|     occupations, so forces and stress will be inaccurate. We suggest        |
|     using a different smearing scheme ISMEAR = 1 or 2 for metals in         |
|     relaxations.                                                            |

 total charge

# of ion       s       p       d       tot
    1        0.544   0.238   8.770   9.553
    2        0.544   0.241   8.764   9.548
    3        0.544   0.241   8.764   9.548
    4        0.544   0.241   8.764   9.548
    5        0.543   0.241   8.763   9.547
    6        0.544   0.241   8.764   9.548
    7        0.544   0.241   8.764   9.548
    8        0.544   0.241   8.764   9.548
    9        0.540   0.241   8.763   9.544
   10        0.522   0.309   8.773   9.604
   11        0.518   0.311   8.775   9.604
   12        0.522   0.309   8.773   9.604
   13        0.518   0.311   8.775   9.604
   14        0.518   0.311   8.775   9.604
   15        0.517   0.309   8.778   9.605
   16        0.522   0.309   8.773   9.604
   17        0.517   0.309   8.778   9.605
   18        0.517   0.309   8.778   9.605
   19        0.515   0.305   8.772   9.591
   20        0.542   0.330   8.756   9.629
   21        0.542   0.330   8.756   9.629
   22        0.514   0.309   8.776   9.599
   23        0.542   0.330   8.756   9.629
   24        0.514   0.309   8.776   9.599
   25        0.515   0.305   8.772   9.591
   26        0.515   0.305   8.772   9.591
   27        0.514   0.309   8.776   9.599
   28        0.540   0.223   8.773   9.536
   29        0.531   0.233   8.774   9.537
   30        0.531   0.233   8.774   9.537
   31        0.531   0.233   8.774   9.537
   32        0.531   0.233   8.774   9.537
   33        0.531   0.233   8.774   9.537
   34        0.531   0.233   8.774   9.537
   35        0.536   0.224   8.768   9.527
   36        0.430   0.519   7.332   8.281
   37        1.611   3.213   0.000   4.824
tot         20.577  13.357 314.290 348.224

 BZINTS: Fermi energy:    0.628895;  400.000000 electrons
         Band energy:-0.124812E+04;  BLOECHL correction:   -0.049075