 vasp.6.2.0 18Jan21 (build Jun 12 2021 23:27:24) complex

 executed on             LinuxIFC date 2022.05.27  05:00:22

 INCAR:
   ISMEAR = -5
   SIGMA = 0.1
   ISPIN = 1
   EDIFF = 1.d-5
   EDIFFG = -0.01
   NSW = 0
   NELM = 150
   ENCUT = 500
   ISIF = 2
   IBRION = 2
   LREAL = Auto
   ALGO = Fast
   ICHARG = 11
   LORBIT = 10
   LCHARG = .F.
   LWAVE = .F.

 POTCAR:    PAW_PBE Au 04Oct2007
 POTCAR:    PAW_PBE V 08Apr2002
 POTCAR:    PAW_PBE N 08Apr2002
|           W    W    AA    RRRRR   N    N  II  N    N   GGGG   !!!           |
|           W    W   A  A   R    R  NN   N  II  NN   N  G    G  !!!           |
|           W    W  A    A  R    R  N N  N  II  N N  N  G       !!!           |
|           W WW W  AAAAAA  RRRRR   N  N N  II  N  N N  G  GGG   !            |
|           WW  WW  A    A  R   R   N   NN  II  N   NN  G    G                |
|           W    W  A    A  R    R  N    N  II  N    N   GGGG   !!!           |
|     For optimal performance we recommend to set                             |
|       NCORE = 2 up to number-of-cores-per-socket                            |
|     This setting can greatly improve the performance of VASP for DFT.       |
|     The default, NCORE=1 might be grossly inefficient on modern             |
|     multi-core architectures or massively parallel machines. Do your        |
|     Unfortunately you need to use the default for GW and RPA                |
|     calculations (for HF NCORE is supported but not extensively tested      |
|     yet).                                                                   |

 POTCAR:    PAW_PBE Au 04Oct2007
   VRHFIN =Au: s1d10

   TITEL  = PAW_PBE Au 04Oct2007
   POMASS =  196.966; ZVAL   =   11.000    mass and valenz
   ENMAX  =  229.943; ENMIN  =  172.457 eV

 POTCAR:    PAW_PBE V 08Apr2002
   VRHFIN =V: p6 d4 s1

   TITEL  = PAW_PBE V 08Apr2002
   POMASS =   50.941; ZVAL   =    5.000    mass and valenz
   ENMAX  =  192.543; ENMIN  =  144.408 eV

 POTCAR:    PAW_PBE N 08Apr2002
   VRHFIN =N: s2p3

   TITEL  = PAW_PBE N 08Apr2002
   POMASS =   14.001; ZVAL   =    5.000    mass and valenz
   ENMAX  =  400.000; ENMIN  =  300.000 eV

 Optimization of the real space projectors (new method)

 maximal supplied QI-value         = 15.12
 optimisation between [QCUT,QGAM] = [ 11.34, 22.83] = [ 36.00,145.93] Ry
 Optimized for a Real-space Cutoff    1.39 Angstroem

   l    n(q)    QCUT    max X(q) W(low)/X(q) W(high)/X(q)  e(spline)
   2      9    11.338    60.898    0.39E-03    0.42E-03    0.21E-06
   2      9    11.338    58.894    0.40E-03    0.42E-03    0.22E-06
   0      9    11.338   109.617    0.13E-03    0.20E-04    0.13E-06
   0      9    11.338    75.026    0.13E-03    0.20E-04    0.13E-06
   1      9    11.338    16.344    0.33E-04    0.24E-03    0.18E-06
   1      9    11.338    10.160    0.26E-04    0.19E-03    0.15E-06
 Optimization of the real space projectors (new method)

[...]

   l    n(q)    QCUT    max X(q) W(low)/X(q) W(high)/X(q)  e(spline)
   2     10    11.327    96.114    0.36E-03    0.35E-03    0.42E-06
   2     10    11.327    88.986    0.37E-03    0.35E-03    0.42E-06
   0     11    11.327    20.919    0.40E-04    0.56E-04    0.79E-06
   0     11    11.327     9.593    0.30E-04    0.41E-04    0.60E-06
   1     10    11.327    11.615    0.15E-03    0.10E-03    0.19E-06
   1     10    11.327     7.031    0.11E-03    0.73E-04    0.14E-06
 Optimization of the real space projectors (new method)

 maximal supplied QI-value         = 25.13
 optimisation between [QCUT,QGAM] = [ 11.31, 22.87] = [ 35.82,146.48] Ry
 Optimized for a Real-space Cutoff    1.27 Angstroem

   l    n(q)    QCUT    max X(q) W(low)/X(q) W(high)/X(q)  e(spline)
   0      9    11.310    79.467    0.75E-04    0.16E-03    0.36E-06
   0      9    11.310    66.151    0.74E-04    0.16E-03    0.36E-06
   1      8    11.310    17.416    0.35E-03    0.12E-03    0.95E-06
   1      8    11.310    12.382    0.37E-03    0.13E-03    0.98E-06
  PAW_PBE Au 04Oct2007                  :
  PAW_PBE V 08Apr2002                   :
  PAW_PBE N 08Apr2002                   :

 POSCAR: Au-V-N2
  positions in direct lattice
  velocities in cartesian coordinates
 exchange correlation table for  LEXCH =        8
   RHO(1)=    0.500       N(1)  =     2000
   RHO(2)=  100.500       N(2)  =     4000

 VTST: version 3.2, (02/03/18)

 CHAIN: initializing optimizer

 OPT: Using VASP Conjugate-Gradient optimizer
 CHAIN: Read ICHAIN            0

 POSCAR: Au-V-N2
  positions in direct lattice
  velocities in cartesian coordinates

 ion  position               nearest neighbor table
   1  0.000  0.000  0.207-  16 2.94  12 2.94   6 2.94   8 2.94   7 2.94   3 2.94  10 2.94   4 2.94
                             2 2.94
   2  0.333  0.000  0.207-   9 2.94  11 2.94  17 2.94  10 2.94   8 2.94   4 2.94   5 2.94   1 2.94
                             3 2.94
   3  0.667  0.000  0.207-   7 2.94  18 2.94  12 2.94   1 2.94  11 2.94   5 2.94   6 2.94   9 2.94
                             2 2.94
   4  0.000  0.333  0.207-  10 2.94   6 2.94   5 2.94  13 2.94   2 2.94  15 2.94   9 2.94   1 2.94
                             7 2.94
   5  0.333  0.333  0.207-  13 2.94   7 2.94  11 2.94   4 2.94   2 2.94  14 2.94   3 2.94   8 2.94
                             6 2.94
   6  0.667  0.333  0.207-  15 2.94  14 2.94   1 2.94  12 2.94   4 2.94   9 2.94   8 2.94   3 2.94
                             5 2.94
   7  0.000  0.667  0.207-  18 2.94   3 2.94  16 2.94   5 2.94   1 2.94  13 2.94   8 2.94   4 2.94
                             9 2.94
   8  0.333  0.667  0.207-   9 2.94  17 2.94   1 2.94   2 2.94  14 2.94  16 2.94   6 2.94   7 2.94
                             5 2.94
   9  0.667  0.667  0.207-   2 2.94   8 2.94  17 2.94   6 2.94  15 2.94   4 2.94   3 2.94  18 2.94
                             7 2.94
  10  0.111  0.111  0.301-  20 2.93  26 2.94  19 2.94  11 2.94  17 2.94   2 2.94   4 2.94   1 2.94
                            12 2.94  16 2.94  13 2.94  15 2.94
  11  0.444  0.111  0.301-  20 2.92  21 2.92  27 2.94  13 2.94   2 2.94  10 2.94  17 2.94   5 2.94
                             3 2.94  18 2.94  14 2.94  12 2.94
  12  0.778  0.111  0.301-  21 2.93  25 2.94  19 2.94  16 2.94  18 2.94   1 2.94  14 2.94  15 2.94
                             3 2.94   6 2.94  10 2.94  11 2.94
  13  0.111  0.444  0.301-  23 2.92  20 2.92  22 2.94   5 2.94  18 2.94  11 2.94   7 2.94   4 2.94
                            16 2.94  10 2.94  14 2.94  15 2.94
  14  0.444  0.444  0.301-  21 2.92  23 2.92  24 2.94  15 2.94   6 2.94  12 2.94   8 2.94  17 2.94
                             5 2.94  16 2.94  13 2.94  11 2.94
  15  0.778  0.444  0.301-  24 2.92  22 2.92  19 2.93  14 2.94   6 2.94  17 2.94  12 2.94   9 2.94
                             4 2.94  10 2.94  13 2.94  18 2.94
  16  0.111  0.778  0.301-  23 2.93  25 2.94  26 2.94  18 2.94  12 2.94   7 2.94   1 2.94   8 2.94
                            13 2.94  10 2.94  14 2.94  17 2.94
  17  0.444  0.778  0.301-  27 2.92  24 2.92  26 2.93   9 2.94  15 2.94   2 2.94  10 2.94  11 2.94
                             8 2.94  14 2.94  16 2.94  18 2.94
  18  0.778  0.778  0.301-  22 2.92  27 2.92  25 2.93  16 2.94   7 2.94  13 2.94  12 2.94   3 2.94
                            11 2.94   9 2.94  15 2.94  17 2.94
  19  0.889  0.222  0.395-  15 2.93  10 2.94  12 2.94  24 2.94  22 2.94  28 2.94  26 2.94  25 2.94
                            21 2.95  20 2.95  32 3.03  31 3.03
  20  0.223  0.223  0.394-  36 2.72  23 2.92  21 2.92  11 2.92  13 2.92  10 2.93  29 2.95  31 2.95
                            26 2.95  19 2.95  27 2.95  22 2.95
  21  0.554  0.223  0.394-  36 2.72  20 2.92  23 2.92  14 2.92  11 2.92  12 2.93  30 2.95  32 2.95
                            25 2.95  19 2.95  27 2.95  24 2.95
  22  0.887  0.557  0.395-  24 2.91  27 2.91  18 2.92  15 2.92  25 2.94  19 2.94  13 2.94  23 2.95
                            20 2.95  35 2.96  33 2.99  31 2.99
  23  0.223  0.554  0.394-  36 2.72  20 2.92  21 2.92  13 2.92  14 2.92  16 2.93  33 2.95  34 2.95
                            25 2.95  26 2.95  22 2.95  24 2.95
  24  0.557  0.557  0.395-  27 2.91  22 2.91  15 2.92  17 2.92  26 2.94  19 2.94  14 2.94  21 2.95
                            23 2.95  35 2.96  32 2.99  34 2.99
  25  0.889  0.889  0.395-  18 2.93  16 2.94  12 2.94  22 2.94  27 2.94  28 2.94  19 2.94  26 2.94
                            23 2.95  21 2.95  33 3.03  30 3.03
  26  0.222  0.889  0.395-  17 2.93  10 2.94  16 2.94  27 2.94  24 2.94  28 2.94  19 2.94  25 2.94
                            20 2.95  23 2.95  29 3.03  34 3.03
  27  0.557  0.887  0.395-  24 2.91  22 2.91  17 2.92  18 2.92  26 2.94  25 2.94  11 2.94  20 2.95
                            21 2.95  35 2.96  29 2.99  30 2.99
  28  0.000  0.000  0.489-  25 2.94  19 2.94  26 2.94  34 2.99  32 2.99  33 2.99  30 2.99  31 2.99
                            29 2.99
  29  0.334  0.011  0.491-  30 2.83  31 2.85  36 2.86  20 2.95  35 2.98  27 2.99  28 2.99  26 3.03
                            34 3.13
  30  0.655  0.011  0.491-  29 2.83  32 2.85  36 2.86  21 2.95  35 2.98  27 2.99  28 2.99  25 3.03
                            33 3.13
  31  0.011  0.334  0.491-  33 2.83  29 2.85  36 2.86  20 2.95  35 2.98  22 2.99  28 2.99  19 3.03
                            32 3.13
  32  0.655  0.334  0.491-  34 2.83  30 2.85  36 2.86  21 2.95  35 2.98  24 2.99  28 2.99  19 3.03
                            31 3.13
  33  0.011  0.655  0.491-  31 2.83  34 2.85  36 2.86  23 2.95  35 2.98  22 2.99  28 2.99  25 3.03
                            30 3.13
  34  0.334  0.655  0.491-  32 2.83  33 2.85  36 2.86  23 2.95  35 2.98  24 2.99  28 2.99  26 3.03
                            29 3.13
  35  0.667  0.667  0.490-  24 2.96  27 2.96  22 2.96  29 2.98  34 2.98  32 2.98  31 2.98  30 2.98
                            33 2.98
  36  0.333  0.333  0.478-  20 2.72  23 2.72  21 2.72  33 2.86  31 2.86  29 2.86  30 2.86  34 2.86
                            32 2.86
  37  0.267  0.339  0.638-  38 1.11
  38  0.394  0.339  0.638-  37 1.11

  LATTYP: Found a hexagonal cell.
 ALAT       =     8.8135128021
 C/A-ratio  =     2.8941119251

  Lattice vectors:

 A1 = (  -4.4067569092,  -7.6327256898,   0.0000000000)
 A2 = (   8.8135128021,   0.0000000000,   0.0000000000)
 A3 = (   0.0000000000,   0.0000000000,  25.5072925022)

Analysis of symmetry for initial positions (statically):
 Subroutine PRICEL returns:
 Original cell was already a primitive cell.

 Routine SETGRP: Setting up the symmetry group for a
 hexagonal supercell.

 Subroutine GETGRP returns: Found  2 space group operations
 (whereof  2 operations were pure point group operations)
 out of a pool of 24 trial point group operations.

The static configuration has the point symmetry C_1h.

Analysis of symmetry for dynamics (positions and initial velocities):
 Subroutine PRICEL returns:
 Original cell was already a primitive cell.

[...]

The dynamic configuration has the point symmetry C_1h.

Analysis of constrained symmetry for selective dynamics:
 Subroutine PRICEL returns:
 Original cell was already a primitive cell.

 Routine SETGRP: Setting up the symmetry group for a
 hexagonal supercell.

[...]
     33      -5.4440      2.00000
     34      -5.4369      2.00000
     35      -5.4240      2.00000
     36      -5.4030      2.00000
     37      -5.3853      2.00000
     38      -5.3801      2.00000
     39      -5.2947      2.00000
     40      -5.2688      2.00000
     41      -5.2016      2.00000
     42      -5.1846      2.00000
     43      -5.1289      2.00000
     44      -5.0772      2.00000
     45      -5.0637      2.00000
     46      -5.0359      2.00000
     47      -4.9893      2.00000
     48      -4.9682      2.00000
     49      -4.9591      2.00000
     50      -4.9357      2.00000
     51      -4.8375      2.00000
     52      -4.8357      2.00000
     53      -4.8000      2.00000
     54      -4.7692      2.00000
     55      -4.7665      2.00000
     56      -4.7625      2.00000
     57      -4.7350      2.00000
     58      -4.7191      2.00000
     59      -4.6707      2.00000
     60      -4.6497      2.00000
[...]
    226       3.0446      0.00000
    227       3.4499      0.00000
    228       3.5018      0.00000
    229       3.6021      0.00000
    230       3.8897      0.00000
    231       4.1606      0.00000
    232       4.3870      0.00000
    233       4.7104      0.00000
    234       4.7537      0.00000
    235       4.9607      0.00000
    236       5.0411      0.00000
    237       5.1717      0.00000
    238       5.3730      0.00000
    239       5.4822      0.00000
    240       5.6546      0.00000

 soft charge-density along one line, spin component           1
         0         1         2         3         4         5         6         7         8         9
 total charge-density along one line

------------------------ aborting loop because EDIFF is reached ----------------------------------------

 total charge

# of ion       s       p       d       tot
    1        0.548   0.238   8.766   9.551
    2        0.542   0.241   8.765   9.548
    3        0.542   0.241   8.765   9.548
    4        0.542   0.241   8.765   9.548
    5        0.546   0.241   8.762   9.548
    6        0.542   0.241   8.765   9.548
    7        0.542   0.241   8.765   9.548
    8        0.542   0.241   8.765   9.548
    9        0.544   0.239   8.767   9.550
   10        0.526   0.307   8.768   9.601
   11        0.520   0.307   8.781   9.607
   12        0.526   0.307   8.768   9.601
   13        0.520   0.307   8.781   9.607
   14        0.520   0.307   8.781   9.607
   15        0.517   0.308   8.775   9.600
   16        0.526   0.307   8.768   9.601
   17        0.517   0.308   8.775   9.601
   18        0.517   0.308   8.775   9.601
   19        0.518   0.298   8.772   9.588
   20        0.562   0.335   8.734   9.631
   21        0.562   0.335   8.734   9.631
   22        0.509   0.306   8.778   9.594
   23        0.562   0.335   8.734   9.631
   24        0.509   0.306   8.778   9.594
   25        0.518   0.298   8.772   9.588
   26        0.518   0.298   8.772   9.588
   27        0.509   0.306   8.778   9.594
   28        0.539   0.227   8.755   9.521
   29        0.579   0.242   8.736   9.557
   30        0.579   0.242   8.736   9.557
   31        0.578   0.242   8.737   9.557
   32        0.578   0.242   8.737   9.557
   33        0.579   0.242   8.736   9.557
   34        0.579   0.242   8.736   9.557
   35        0.538   0.226   8.758   9.522
   36        0.390   0.391   3.164   3.945
   37        1.373   2.468   0.000   3.841
   38        1.373   2.468   0.000   3.841
tot         22.031  14.981 309.804 346.817

  FORCE on cell =-STRESS in cart. coord.  units (eV):
  Direction    XX          YY          ZZ          XY          YZ          ZX
  Alpha Z   888.45552   888.45552   888.45552
  Ewald  161711.04742161392.14898************    -0.00032    -1.58936    -0.00017
  Hartree169911.08220169799.12024************     0.00001    -1.45038    -0.00005
  E(xc)   -1789.31221 -1790.55252 -1798.20018    -0.00001    -0.00007    -0.00000
  Local  ************************343438.91074     0.00242     3.04990     0.00008
  n-local   -78.47278   -65.91132   -39.00093     4.79304     0.00170     0.16816
  augment  2384.56963  2384.25936  2404.57620    -0.00138    -0.00136     0.00002
  Kinetic  5549.09986  5567.16900  5629.70238     1.19466    -0.01174     0.01473
  Fock        0.00000     0.00000     0.00000     0.00000     0.00000     0.00000
  Total     -24.21777   -24.20186     1.35408    -0.00000    -0.00130    -0.00000
  in kB     -22.61266   -22.59780     1.26433    -0.00000    -0.00122    -0.00000

 VOLUME and BASIS-vectors are now :
  energy-cutoff  :      500.00
  volume of cell :     1715.90
      direct lattice vectors                 reciprocal lattice vectors
     8.813512802  0.000000000  0.000000000     0.113462137 -0.065507406  0.000000000
     4.406756909  7.632725690  0.000000000     0.000000000  0.131014796  0.000000000
     0.000000000  0.000000000 25.507292502     0.000000000  0.000000000  0.039204475

  length of vectors
     8.813512802  8.813512802 25.507292502     0.131014796  0.131014796  0.039204475

 FORCES acting on ions
    electron-ion (+dipol)            ewald-force                    non-local-force                 convergence-correction
   -.200E-04 0.297E-02 0.271E+04   0.518E-04 -.149E-02 -.271E+04   -.389E-10 -.584E-03 -.679E+00   -.238E-03 -.112E-02 -.259E+00
   0.186E+00 -.352E+00 0.271E+04   -.222E+00 0.213E+00 -.271E+04   0.426E-01 0.111E+00 -.310E+00   -.127E-01 0.181E-01 -.268E+00
   -.186E+00 -.352E+00 0.271E+04   0.222E+00 0.213E+00 -.271E+04   -.426E-01 0.111E+00 -.310E+00   0.130E-01 0.200E-01 -.267E+00
   -.214E+00 0.335E+00 0.271E+04   0.746E-01 -.302E+00 -.271E+04   0.118E+00 -.190E-01 -.313E+00   0.964E-02 -.164E-01 -.267E+00
   0.731E-05 -.529E-02 0.271E+04   0.951E-04 -.189E-02 -.271E+04   -.188E-10 -.282E-03 0.260E-01   0.428E-02 0.771E-02 -.156E+00
   0.214E+00 0.335E+00 0.271E+04   -.747E-01 -.302E+00 -.271E+04   -.118E+00 -.190E-01 -.313E+00   -.112E-01 -.155E-01 -.266E+00
   -.400E+00 0.160E-01 0.271E+04   0.297E+00 0.887E-01 -.271E+04   0.750E-01 -.916E-01 -.310E+00   0.246E-01 -.207E-02 -.265E+00
   0.400E+00 0.160E-01 0.271E+04   -.297E+00 0.887E-01 -.271E+04   -.750E-01 -.916E-01 -.310E+00   -.227E-01 -.317E-02 -.264E+00
   0.197E-04 0.302E-02 0.271E+04   0.166E-03 0.340E-02 -.271E+04   0.459E-10 0.690E-03 -.386E+00   -.458E-02 -.705E-02 -.224E+00
   0.976E+00 0.584E+00 0.904E+03   -.578E+00 -.355E+00 -.904E+03   -.307E+00 -.177E+00 -.638E+00   -.674E-01 -.383E-01 0.149E+00
   0.144E-04 -.300E+00 0.905E+03   0.148E-03 0.296E+00 -.905E+03   -.855E-10 -.128E-02 -.122E+00   0.399E-02 -.344E-01 0.245E+00
   -.976E+00 0.584E+00 0.904E+03   0.578E+00 -.355E+00 -.904E+03   0.307E+00 -.177E+00 -.638E+00   0.659E-01 -.371E-01 0.149E+00
   -.276E+00 0.148E+00 0.905E+03   0.275E+00 -.156E+00 -.905E+03   -.105E-02 0.927E-03 -.123E+00   -.294E-01 0.272E-01 0.243E+00
   0.276E+00 0.148E+00 0.905E+03   -.276E+00 -.156E+00 -.905E+03   0.105E-02 0.927E-03 -.123E+00   0.369E-01 0.264E-01 0.242E+00
   0.322E-04 0.353E+01 0.909E+03   0.235E-03 -.365E+01 -.908E+03   0.972E-09 0.146E-01 -.521E+00   -.228E-02 0.490E-01 0.162E+00
   -.209E-04 -.114E+01 0.904E+03   0.162E-03 0.685E+00 -.904E+03   0.236E-07 0.354E+00 -.636E+00   -.724E-04 0.714E-01 0.148E+00
   0.306E+01 -.178E+01 0.908E+03   -.316E+01 0.184E+01 -.908E+03   0.129E-01 -.786E-02 -.517E+00   0.376E-01 -.291E-01 0.163E+00
   -.306E+01 -.178E+01 0.908E+03   0.316E+01 0.184E+01 -.908E+03   -.129E-01 -.786E-02 -.517E+00   -.373E-01 -.271E-01 0.163E+00
   -.421E-04 -.364E+01 -.916E+03   0.563E-04 0.363E+01 0.915E+03   0.810E-09 0.122E-01 0.517E+00   -.530E-03 0.110E-01 0.829E+00
   -.105E+02 -.589E+01 -.921E+03   0.111E+02 0.624E+01 0.920E+03   -.103E+01 -.593E+00 -.103E+01   0.408E+00 0.237E+00 0.145E+01
   0.105E+02 -.589E+01 -.921E+03   -.111E+02 0.624E+01 0.920E+03   0.103E+01 -.593E+00 -.103E+01   -.407E+00 0.238E+00 0.145E+01
   -.129E+02 0.733E+01 -.907E+03   0.125E+02 -.708E+01 0.906E+03   0.325E+00 -.190E+00 0.554E+00   0.127E+00 -.734E-01 0.860E+00
   -.976E-05 0.120E+02 -.921E+03   0.138E-03 -.127E+02 0.920E+03   0.791E-07 0.119E+01 -.103E+01   0.254E-03 -.470E+00 0.145E+01
   0.129E+02 0.733E+01 -.907E+03   -.125E+02 -.708E+01 0.906E+03   -.325E+00 -.190E+00 0.554E+00   -.127E+00 -.736E-01 0.860E+00
   0.328E+01 0.186E+01 -.917E+03   -.328E+01 -.186E+01 0.915E+03   -.793E-02 -.400E-02 0.511E+00   -.670E-02 -.607E-02 0.828E+00
   -.328E+01 0.186E+01 -.917E+03   0.328E+01 -.186E+01 0.915E+03   0.793E-02 -.400E-02 0.511E+00   0.711E-02 -.664E-02 0.829E+00
   0.100E-04 -.150E+02 -.907E+03   0.198E-03 0.144E+02 0.906E+03   0.250E-07 0.376E+00 0.551E+00   -.361E-03 0.145E+00 0.861E+00
   -.111E-04 0.506E+00 -.262E+04   0.284E-04 -.506E+00 0.262E+04   -.277E-10 -.416E-03 0.540E+00   0.124E-04 -.392E-03 0.557E+00
   0.421E+00 -.670E+01 -.263E+04   0.315E+00 0.775E+01 0.263E+04   -.112E+01 -.172E+01 -.243E+00   0.386E+00 0.675E+00 0.437E+00
   -.421E+00 -.670E+01 -.263E+04   -.315E+00 0.775E+01 0.263E+04   0.112E+01 -.172E+01 -.243E+00   -.386E+00 0.676E+00 0.437E+00
   -.553E+01 0.483E+01 -.263E+04   0.680E+01 -.473E+01 0.263E+04   -.204E+01 -.111E+00 -.204E+00   0.776E+00 -.121E-02 0.436E+00
   0.553E+01 0.483E+01 -.263E+04   -.680E+01 -.473E+01 0.263E+04   0.204E+01 -.111E+00 -.204E+00   -.777E+00 -.421E-03 0.436E+00
   -.676E+01 0.175E+01 -.263E+04   0.731E+01 -.292E+01 0.263E+04   -.929E+00 0.183E+01 -.243E+00   0.392E+00 -.673E+00 0.436E+00
   0.676E+01 0.175E+01 -.263E+04   -.731E+01 -.292E+01 0.263E+04   0.929E+00 0.183E+01 -.243E+00   -.390E+00 -.673E+00 0.436E+00
   0.343E-04 -.103E+01 -.263E+04   0.142E-03 0.103E+01 0.263E+04   0.627E-10 0.942E-03 0.585E+00   -.436E-02 -.582E-02 0.550E+00
   -.272E-04 0.297E+00 -.113E+04   0.526E-04 -.298E+00 0.112E+04   0.607E-10 0.911E-03 0.235E+01   0.728E-03 0.904E-03 0.309E+00
   0.238E+03 0.229E+00 -.108E+04   -.284E+03 -.225E+00 0.108E+04   0.456E+02 -.192E-02 -.137E+00   0.152E-01 -.122E-02 -.173E+00
   -.238E+03 0.229E+00 -.108E+04   0.284E+03 -.225E+00 0.108E+04   -.456E+02 -.192E-02 -.137E+00   -.152E-01 -.121E-02 -.173E+00
   -.734E-03 -.174E-02 -.750E+01   -.568E-13 0.216E-12 -.102E-10   -.997E-11 -.150E-03 -.481E+01   0.630E-02 0.438E-02 0.125E+02

 POSITION                                       TOTAL-FORCE (eV/Angst)
      0.00000      0.00000      5.28038        -0.000000     -0.000293     -0.140855
      2.93784      0.00000      5.28038        -0.006958     -0.009150     -0.049684
      5.87568      0.00000      5.28038         0.006958     -0.009150     -0.049684
      1.46892      2.54424      5.28038        -0.011044     -0.001564     -0.050030
      4.40676      2.54424      5.28038         0.000000      0.000191     -0.065542
      7.34459      2.54424      5.28038         0.011044     -0.001564     -0.050030
      2.93784      5.08848      5.28038        -0.004289      0.010449     -0.050041
      5.87568      5.08848      5.28038         0.004289      0.010449     -0.050041
      8.81351      5.08848      5.28038        -0.000000     -0.000010     -0.071813
      1.46892      0.84808      7.67911         0.024872      0.014527      0.115534
      4.40676      0.84808      7.67911        -0.000000     -0.039333      0.035780
      7.34459      0.84808      7.67911        -0.024872      0.014527      0.115534
      2.93784      3.39232      7.67911        -0.034327      0.019899      0.035601
      5.87568      3.39232      7.67911         0.034327      0.019899      0.035601
      8.81351      3.39232      7.67911        -0.000000     -0.057324      0.097018
      4.40676      5.93656      7.67911        -0.000000     -0.028952      0.115690
      7.34459      5.93656      7.67911        -0.049651      0.028366      0.097249
     10.28243      5.93656      7.67911         0.049651      0.028366      0.097249
      8.81351      1.69782     10.07545         0.000000      0.016800     -0.006378
      2.94790      1.70197     10.06171        -0.015120     -0.008933     -0.019172
      5.86562      1.70197     10.06171         0.015120     -0.008933     -0.019172
     10.26824      4.24860     10.06503         0.010726     -0.006077      0.010252
      4.40676      4.22879     10.06171         0.000000      0.017322     -0.020435
      7.35878      4.24860     10.06503        -0.010726     -0.006077      0.010252
     11.74991      6.78381     10.07545        -0.014793     -0.008521     -0.007817
      5.87712      6.78381     10.07545         0.014793     -0.008521     -0.007817
      8.81351      6.76826     10.06503         0.000000      0.012116      0.008984
      0.00000      0.00000     12.47281        -0.000000     -0.000416     -0.004470
      2.99055      0.08121     12.52138         0.001416      0.010965     -0.002500
      5.82296      0.08121     12.52138        -0.001416      0.010965     -0.002500
      1.56560      2.54929     12.52138         0.011002     -0.004492     -0.002332
      7.24791      2.54929     12.52138        -0.011002     -0.004492     -0.002332
      2.98181      5.00223     12.52138         0.009147     -0.006688     -0.002839
      5.83171      5.00223     12.52138        -0.009147     -0.006688     -0.002839
      8.81351      5.08848     12.50032         0.000000      0.000231     -0.056631
      4.40676      2.54424     12.20130         0.000000      0.000847     -0.046386
      3.84975      2.58663     16.26141         0.000865      0.000631      0.003297
      4.96376      2.58663     16.26141        -0.000865      0.000631      0.003297
    total drift:                                0.005564      0.002493      0.220381

  FREE ENERGIE OF THE ION-ELECTRON SYSTEM (eV)
  free  energy   TOTEN  =      -131.00909827 eV

  energy  without entropy=     -131.00909827  energy(sigma->0) =     -131.00909827

 stress matrix after NEB project (eV)
    -24.21777     -0.00000     -0.00000
     -0.00000    -24.20186     -0.00130
     -0.00000     -0.00130      1.35408
  FORCES: max atom, RMS     0.003467    0.000795
  FORCE total and by dimension    0.004903    0.003297
  Stress total and by dimension   34.264617   24.217772
|           W    W    AA    RRRRR   N    N  II  N    N   GGGG   !!!           |
|           W    W   A  A   R    R  NN   N  II  NN   N  G    G  !!!           |
|           W    W  A    A  R    R  N N  N  II  N N  N  G       !!!           |
|           W WW W  AAAAAA  RRRRR   N  N N  II  N  N N  G  GGG   !            |
|           WW  WW  A    A  R   R   N   NN  II  N   NN  G    G                |
|           W    W  A    A  R    R  N    N  II  N    N   GGGG   !!!           |
|     Tetrahedron method does not include variations of the Fermi             |
|     occupations, so forces and stress will be inaccurate. We suggest        |
|     using a different smearing scheme ISMEAR = 1 or 2 for metals in         |
|     relaxations.                                                            |

 total charge

# of ion       s       p       d       tot
    1        0.548   0.238   8.766   9.551
    2        0.542   0.241   8.765   9.548
    3        0.542   0.241   8.765   9.548
    4        0.542   0.241   8.765   9.548
    5        0.546   0.241   8.762   9.548
    6        0.542   0.241   8.765   9.548
    7        0.542   0.241   8.765   9.548
    8        0.542   0.241   8.765   9.548
    9        0.544   0.239   8.767   9.550
   10        0.526   0.307   8.768   9.601
   11        0.520   0.307   8.781   9.607
   12        0.526   0.307   8.768   9.601
   13        0.520   0.307   8.781   9.607
   14        0.520   0.307   8.781   9.607
   15        0.517   0.308   8.775   9.600
   16        0.526   0.307   8.768   9.601
   17        0.517   0.308   8.775   9.601
   18        0.517   0.308   8.775   9.601
   19        0.518   0.298   8.772   9.588
   20        0.562   0.335   8.734   9.631
   21        0.562   0.335   8.734   9.631
   22        0.509   0.306   8.778   9.594
   23        0.562   0.335   8.734   9.631
   24        0.509   0.306   8.778   9.594
   25        0.518   0.298   8.772   9.588
   26        0.518   0.298   8.772   9.588
   27        0.509   0.306   8.778   9.594
   28        0.539   0.227   8.755   9.521
   29        0.579   0.242   8.736   9.557
   30        0.579   0.242   8.736   9.557
   31        0.578   0.242   8.737   9.557
   32        0.578   0.242   8.737   9.557
   33        0.579   0.242   8.736   9.557
   34        0.579   0.242   8.736   9.557
   35        0.538   0.226   8.758   9.522
   36        0.390   0.391   3.164   3.945
   37        1.373   2.468   0.000   3.841
   38        1.373   2.468   0.000   3.841
tot         22.031  14.981 309.804 346.817

 BZINTS: Fermi energy:    0.029755;  400.000000 electrons
         Band energy:-0.153905E+04;  BLOECHL correction:   -0.025391