 vasp.6.2.0 18Jan21 (build Jun 12 2021 23:27:24) complex

 executed on             LinuxIFC date 2022.05.27  05:44:19

 INCAR:
   ISMEAR = -5
   SIGMA = 0.1
   ISPIN = 1
   EDIFF = 1.d-5
   EDIFFG = -0.01
   NSW = 0
   NELM = 150
   ENCUT = 500
   ISIF = 2
   IBRION = 2
   LREAL = Auto
   ALGO = Fast
   ICHARG = 11
   LORBIT = 10
   LCHARG = .F.
   LWAVE = .F.

 POTCAR:    PAW_PBE Ag 02Apr2005
 POTCAR:    PAW_PBE Rh 04Feb2005
 POTCAR:    PAW_PBE H 15Jun2001
|           W    W    AA    RRRRR   N    N  II  N    N   GGGG   !!!           |
|           W    W   A  A   R    R  NN   N  II  NN   N  G    G  !!!           |
|           W    W  A    A  R    R  N N  N  II  N N  N  G       !!!           |
|           W WW W  AAAAAA  RRRRR   N  N N  II  N  N N  G  GGG   !            |
|           WW  WW  A    A  R   R   N   NN  II  N   NN  G    G                |
|           W    W  A    A  R    R  N    N  II  N    N   GGGG   !!!           |
|     For optimal performance we recommend to set                             |
|       NCORE = 2 up to number-of-cores-per-socket                            |
|     This setting can greatly improve the performance of VASP for DFT.       |
|     The default, NCORE=1 might be grossly inefficient on modern             |
|     multi-core architectures or massively parallel machines. Do your        |
|     Unfortunately you need to use the default for GW and RPA                |
|     calculations (for HF NCORE is supported but not extensively tested      |
|     yet).                                                                   |

 POTCAR:    PAW_PBE Ag 02Apr2005
   VRHFIN =Ag : s1 d10

   TITEL  = PAW_PBE Ag 02Apr2005
   POMASS =  107.868; ZVAL   =   11.000    mass and valenz
   ENMAX  =  249.844; ENMIN  =  187.383 eV

 POTCAR:    PAW_PBE Rh 04Feb2005
   VRHFIN =Rh: s1 d8

   TITEL  = PAW_PBE Rh 04Feb2005
   POMASS =  102.906; ZVAL   =    9.000    mass and valenz
   ENMAX  =  228.996; ENMIN  =  171.747 eV

 POTCAR:    PAW_PBE H 15Jun2001
   VRHFIN =H: ultrasoft test

   TITEL  = PAW_PBE H 15Jun2001
   POMASS =    1.000; ZVAL   =    1.000    mass and valenz
   ENMAX  =  250.000; ENMIN  =  200.000 eV

 Optimization of the real space projectors (new method)

 maximal supplied QI-value         = 15.12
 optimisation between [QCUT,QGAM] = [ 11.34, 22.83] = [ 36.00,145.93] Ry
 Optimized for a Real-space Cutoff    1.43 Angstroem

   l    n(q)    QCUT    max X(q) W(low)/X(q) W(high)/X(q)  e(spline)
   2      9    11.338    53.897    0.16E-03    0.20E-03    0.28E-06
   2      9    11.338    52.416    0.16E-03    0.20E-03    0.29E-06
   0     10    11.338   122.045    0.31E-04    0.76E-04    0.15E-06
   0     10    11.338    73.629    0.30E-04    0.72E-04    0.15E-06
   1      9    11.338    15.255    0.20E-03    0.19E-04    0.17E-06
   1      9    11.338     9.562    0.16E-03    0.15E-04    0.14E-06
 Optimization of the real space projectors (new method)

[...]

   l    n(q)    QCUT    max X(q) W(low)/X(q) W(high)/X(q)  e(spline)
   2      9    11.327    59.645    0.31E-03    0.12E-04    0.28E-06
   2      9    11.327    58.460    0.31E-03    0.12E-04    0.29E-06
   0     10    11.327    97.683    0.32E-04    0.83E-04    0.31E-06
   0     10    11.327    53.223    0.30E-04    0.78E-04    0.29E-06
   1     10    11.327    13.596    0.49E-03    0.95E-03    0.55E-06
   1     10    11.327     7.885    0.36E-03    0.71E-03    0.41E-06
 Optimization of the real space projectors (new method)

 maximal supplied QI-value         = 34.20
 optimisation between [QCUT,QGAM] = [ 11.29, 22.57] = [ 35.68,142.71] Ry
 Optimized for a Real-space Cutoff    1.16 Angstroem

   l    n(q)    QCUT    max X(q) W(low)/X(q) W(high)/X(q)  e(spline)
   0      8    11.287    19.460    0.40E-03    0.73E-03    0.16E-06
   0      8    11.287    12.209    0.38E-03    0.70E-03    0.15E-06
   1      7    11.287     4.655    0.22E-03    0.25E-04    0.22E-06
  PAW_PBE Ag 02Apr2005                  :
  PAW_PBE Rh 04Feb2005                  :
  PAW_PBE H 15Jun2001                   :

 POSCAR: Ag-Rh-H2
  positions in direct lattice
  velocities in cartesian coordinates
 exchange correlation table for  LEXCH =        8
   RHO(1)=    0.500       N(1)  =     2000
   RHO(2)=  100.500       N(2)  =     4000

 VTST: version 3.2, (02/03/18)

 CHAIN: initializing optimizer

 OPT: Using VASP Conjugate-Gradient optimizer
 CHAIN: Read ICHAIN            0

 POSCAR: Ag-Rh-H2
  positions in direct lattice
  velocities in cartesian coordinates

 ion  position               nearest neighbor table
   1  0.000  0.000  0.238-   2 2.93   8 2.93   7 2.93   6 2.93   4 2.93  12 2.93  16 2.93  10 2.93
                             3 2.93
   2  0.333  0.000  0.238-   1 2.93   8 2.93   9 2.93   3 2.93   4 2.93   5 2.93  10 2.93  17 2.93
                            11 2.93
   3  0.667  0.000  0.238-   9 2.93   2 2.93   5 2.93  11 2.93   7 2.93  18 2.93   1 2.93   6 2.93
                            12 2.93
   4  0.000  0.333  0.238-   5 2.93   6 2.93   2 2.93   1 2.93   7 2.93  13 2.93  15 2.93   9 2.93
                            10 2.93
   5  0.333  0.333  0.238-   4 2.93   3 2.93   7 2.93   2 2.93   8 2.93  14 2.93  13 2.93  11 2.93
                             6 2.93
   6  0.667  0.333  0.238-   4 2.93   9 2.93   1 2.93  15 2.93   8 2.93  12 2.93   3 2.93   5 2.93
                            14 2.93
   7  0.000  0.667  0.238-   8 2.93   1 2.93   5 2.93   3 2.93   4 2.93  16 2.93  18 2.93  13 2.93
                             9 2.93
   8  0.333  0.667  0.238-   7 2.93   1 2.93   2 2.93   9 2.93   5 2.93  16 2.93   6 2.93  17 2.93
                            14 2.93
   9  0.667  0.667  0.238-   3 2.93   2 2.93   8 2.93   6 2.93  17 2.93   4 2.93  15 2.93   7 2.93
                            18 2.93
  10  0.111  0.111  0.346-  20 2.90  19 2.93  26 2.93  12 2.93  16 2.93  15 2.93  17 2.93  13 2.93
                            11 2.93   2 2.93   1 2.93   4 2.93
  11  0.444  0.111  0.346-  21 2.90  20 2.90  27 2.92  14 2.93  17 2.93  18 2.93   3 2.93  12 2.93
                            13 2.93  10 2.93   5 2.93   2 2.93
  12  0.778  0.111  0.346-  21 2.90  25 2.93  19 2.93  10 2.93  16 2.93  18 2.93  15 2.93  11 2.93
                             1 2.93  14 2.93   6 2.93   3 2.93
  13  0.111  0.444  0.346-  20 2.90  23 2.90  22 2.92  15 2.93  14 2.93  18 2.93  10 2.93  11 2.93
                            16 2.93   4 2.93   5 2.93   7 2.93
  14  0.444  0.444  0.346-  23 2.90  21 2.90  24 2.92  13 2.93  11 2.93  16 2.93   5 2.93  12 2.93
                            17 2.93   8 2.93  15 2.93   6 2.93
  15  0.778  0.444  0.346-  24 2.92  22 2.92  19 2.92  13 2.93  10 2.93  12 2.93  17 2.93  18 2.93
                             4 2.93   6 2.93   9 2.93  14 2.93
  16  0.111  0.778  0.346-  23 2.90  26 2.93  25 2.93  18 2.93  12 2.93  10 2.93  14 2.93  17 2.93
                            13 2.93   7 2.93   8 2.93   1 2.93
  17  0.444  0.778  0.346-  27 2.92  24 2.92  26 2.92  11 2.93  10 2.93   9 2.93  18 2.93  15 2.93
                            16 2.93   2 2.93  14 2.93   8 2.93
  18  0.778  0.778  0.346-  22 2.92  27 2.92  25 2.92  16 2.93  12 2.93  13 2.93  11 2.93  17 2.93
                            15 2.93   7 2.93   3 2.93   9 2.93
  19  0.889  0.223  0.454-  28 2.91  15 2.92  10 2.93  12 2.93  24 2.93  22 2.93  32 2.93  31 2.93
                            20 2.93  21 2.93  26 2.94  25 2.94
  20  0.222  0.222  0.452-  36 2.78  13 2.90  11 2.90  10 2.90  31 2.91  29 2.91  21 2.92  23 2.92
                            27 2.93  22 2.93  19 2.93  26 2.93
  21  0.555  0.222  0.452-  36 2.78  11 2.90  14 2.90  12 2.90  30 2.91  32 2.91  20 2.92  23 2.92
                            27 2.93  24 2.93  25 2.93  19 2.93
  22  0.889  0.556  0.453-  35 2.90  18 2.92  15 2.92  13 2.92  33 2.92  31 2.92  25 2.93  19 2.93
                            24 2.93  27 2.93  23 2.93  20 2.93
  23  0.222  0.555  0.452-  36 2.78  14 2.90  13 2.90  16 2.90  34 2.91  33 2.91  21 2.92  20 2.92
                            22 2.93  24 2.93  26 2.93  25 2.93
  24  0.556  0.556  0.453-  35 2.90  15 2.92  17 2.92  14 2.92  32 2.92  34 2.92  19 2.93  26 2.93
                            27 2.93  22 2.93  23 2.93  21 2.93
  25  0.889  0.889  0.454-  28 2.91  18 2.92  16 2.93  12 2.93  22 2.93  27 2.93  33 2.93  30 2.93
                            23 2.93  21 2.93  26 2.94  19 2.94
  26  0.223  0.889  0.454-  28 2.91  17 2.92  16 2.93  10 2.93  27 2.93  24 2.93  34 2.93  29 2.93
                            23 2.93  20 2.93  25 2.94  19 2.94
  27  0.556  0.889  0.453-  35 2.90  17 2.92  18 2.92  11 2.92  29 2.92  30 2.92  26 2.93  25 2.93
                            24 2.93  22 2.93  20 2.93  21 2.93
  28  0.000  0.000  0.560-  26 2.91  25 2.91  19 2.91  29 2.95  34 2.95  33 2.95  32 2.95  31 2.95
                            30 2.95
  29  0.333  0.005  0.560-  31 2.88  30 2.89  36 2.89  20 2.91  27 2.92  26 2.93  28 2.95  35 2.95
                            34 3.02
  30  0.662  0.005  0.560-  32 2.88  29 2.89  36 2.89  21 2.91  27 2.92  25 2.93  28 2.95  35 2.95
                            33 3.02
  31  0.005  0.333  0.560-  29 2.88  33 2.89  36 2.89  20 2.91  22 2.92  19 2.93  28 2.95  35 2.95
                            32 3.02
  32  0.662  0.333  0.560-  30 2.88  34 2.89  36 2.89  21 2.91  24 2.92  19 2.93  28 2.95  35 2.95
                            31 3.02
  33  0.005  0.662  0.560-  34 2.88  31 2.89  36 2.89  23 2.91  22 2.92  25 2.93  28 2.95  35 2.95
                            30 3.02
  34  0.333  0.662  0.560-  33 2.88  32 2.89  36 2.89  23 2.91  24 2.92  26 2.93  28 2.95  35 2.95
                            29 3.02
  35  0.667  0.667  0.560-  24 2.90  27 2.90  22 2.90  30 2.95  32 2.95  29 2.95  34 2.95  31 2.95
                            33 2.95
  36  0.333  0.333  0.552-  38 1.65  37 1.65  21 2.78  20 2.78  23 2.78  31 2.89  30 2.89  33 2.89
                            29 2.89  34 2.89  32 2.89
  37  0.279  0.329  0.622-  36 1.65
  38  0.393  0.329  0.622-  36 1.65

  LATTYP: Found a hexagonal cell.
 ALAT       =     8.7913665772
 C/A-ratio  =     2.5227160501

  Lattice vectors:

 A1 = (  -4.3956832886,  -7.6135467898,   0.0000000000)
 A2 = (   8.7913665771,   0.0000000000,   0.0000000000)
 A3 = (   0.0000000000,   0.0000000000,  22.1781215668)

Analysis of symmetry for initial positions (statically):
 Subroutine PRICEL returns:
 Original cell was already a primitive cell.

 Routine SETGRP: Setting up the symmetry group for a
 hexagonal supercell.

 Subroutine GETGRP returns: Found  2 space group operations
 (whereof  2 operations were pure point group operations)
 out of a pool of 24 trial point group operations.

The static configuration has the point symmetry C_1h.

Analysis of symmetry for dynamics (positions and initial velocities):
 Subroutine PRICEL returns:
 Original cell was already a primitive cell.

[...]

The dynamic configuration has the point symmetry C_1h.

Analysis of constrained symmetry for selective dynamics:
 Subroutine PRICEL returns:
 Original cell was already a primitive cell.

 Routine SETGRP: Setting up the symmetry group for a
 hexagonal supercell.

 Subroutine GETGRP returns: Found  2 space group operations
[...]
     33      -4.3579      2.00000
     34      -4.2967      2.00000
     35      -4.2946      2.00000
     36      -4.2589      2.00000
     37      -4.2484      2.00000
     38      -4.2366      2.00000
     39      -4.2030      2.00000
     40      -4.1932      2.00000
     41      -4.1904      2.00000
     42      -4.1674      2.00000
     43      -4.1561      2.00000
     44      -4.0813      2.00000
     45      -4.0534      2.00000
     46      -4.0468      2.00000
     47      -4.0313      2.00000
     48      -4.0302      2.00000
     49      -4.0257      2.00000
     50      -4.0081      2.00000
     51      -4.0045      2.00000
     52      -3.9874      2.00000
     53      -3.9848      2.00000
     54      -3.9154      2.00000
     55      -3.9076      2.00000
     56      -3.9021      2.00000
     57      -3.8968      2.00000
     58      -3.8813      2.00000
     59      -3.8666      2.00000
     60      -3.8321      2.00000
[...]
    238       7.0145      0.00000
    239       7.1551      0.00000
    240       7.2379      0.00000
    241       7.3018      0.00000
    242       7.3478      0.00000
    243       7.3592      0.00000
    244       7.3925      0.00000
    245       7.4371      0.00000
    246       7.5177      0.00000
    247       7.5858      0.00000
    248       7.6797      0.00000
    249       7.6937      0.00000
    250       7.9543      0.00000
    251       8.0333      0.00000
    252       8.1083      0.00000

 soft charge-density along one line, spin component           1
         0         1         2         3         4         5         6         7         8         9
 total charge-density along one line

------------------------ aborting loop because EDIFF is reached ----------------------------------------

 total charge

# of ion       s       p       d       tot
    1        0.416   0.203   9.179   9.797
    2        0.419   0.203   9.177   9.799
    3        0.419   0.203   9.177   9.799
    4        0.419   0.203   9.177   9.799
    5        0.418   0.205   9.175   9.798
    6        0.419   0.203   9.177   9.799
    7        0.419   0.203   9.177   9.799
    8        0.419   0.203   9.177   9.799
    9        0.414   0.203   9.179   9.796
   10        0.406   0.269   9.164   9.839
   11        0.410   0.267   9.168   9.845
   12        0.406   0.269   9.164   9.839
   13        0.410   0.267   9.168   9.844
   14        0.410   0.267   9.168   9.844
   15        0.400   0.271   9.165   9.836
   16        0.406   0.269   9.164   9.839
   17        0.400   0.271   9.165   9.836
   18        0.400   0.271   9.165   9.836
   19        0.404   0.268   9.167   9.838
   20        0.424   0.286   9.155   9.865
   21        0.424   0.286   9.155   9.865
   22        0.397   0.276   9.165   9.837
   23        0.423   0.289   9.154   9.865
   24        0.397   0.276   9.165   9.837
   25        0.404   0.268   9.166   9.838
   26        0.404   0.268   9.166   9.838
   27        0.397   0.275   9.165   9.837
   28        0.418   0.196   9.182   9.796
   29        0.411   0.209   9.180   9.800
   30        0.411   0.209   9.180   9.800
   31        0.409   0.213   9.178   9.799
   32        0.409   0.213   9.178   9.799
   33        0.411   0.208   9.180   9.800
   34        0.411   0.208   9.180   9.800
   35        0.413   0.198   9.183   9.794
   36        0.421   0.453   7.580   8.453
   37        0.513   0.031   0.000   0.544
   38        0.513   0.031   0.000   0.544
tot         15.822   8.910 328.564 353.295

  FORCE on cell =-STRESS in cart. coord.  units (eV):
  Direction    XX          YY          ZZ          XY          YZ          ZX
  Alpha Z   739.70505   739.70505   739.70505
  Ewald  121564.17765121540.00958************     0.00001    -1.17734     0.00000
  Hartree131776.21431131770.40671************     0.00001    -0.16821     0.00000
  E(xc)   -2078.29280 -2078.60892 -2083.57232    -0.00003    -0.02036    -0.00000
  Local  ************************264831.72588     0.00030     0.89226    -0.00005
  n-local  -324.23431  -324.76513  -327.54436     2.36069    -0.06196     0.11314
  augment  3280.32657  3281.52707  3284.07771    -0.00018     0.14968    -0.00003
  Kinetic  4899.88941  4905.65036  4913.16132     1.24082     0.49360     0.00887
  Fock        0.00000     0.00000     0.00000     0.00000     0.00000     0.00000
  Total      -7.59802    -7.51241    -0.28869    -0.00000     0.10766     0.00000
  in kB      -8.20055    -8.10815    -0.31158    -0.00000     0.11620     0.00000

 VOLUME and BASIS-vectors are now :
  energy-cutoff  :      500.00
  volume of cell :     1484.46
      direct lattice vectors                 reciprocal lattice vectors
     8.791366577  0.000000000  0.000000000     0.113747958 -0.065672414  0.000000000
     4.395683289  7.613546790  0.000000000     0.000000000  0.131344829  0.000000000
     0.000000000  0.000000000 22.178121567     0.000000000  0.000000000  0.045089481

  length of vectors
     8.791366577  8.791366577 22.178121567     0.131344829  0.131344829  0.045089481

 FORCES acting on ions
    electron-ion (+dipol)            ewald-force                    non-local-force                 convergence-correction
   0.458E-04 -.660E-02 0.251E+04   -.954E-04 -.393E-02 -.250E+04   0.391E-13 0.595E-02 -.247E+01   -.171E-03 0.505E-02 -.196E+00
   0.341E+00 0.401E+00 0.251E+04   -.372E+00 -.413E+00 -.250E+04   0.415E-01 0.578E-01 -.166E+01   -.161E-04 -.259E-01 -.189E+00
   -.341E+00 0.401E+00 0.251E+04   0.372E+00 -.413E+00 -.250E+04   -.415E-01 0.578E-01 -.166E+01   -.466E-03 -.240E-01 -.188E+00
   0.509E+00 0.820E-01 0.251E+04   -.540E+00 -.115E+00 -.250E+04   0.854E-01 0.128E-01 -.166E+01   -.334E-01 0.180E-01 -.180E+00
   -.791E-05 0.270E-02 0.251E+04   0.981E-04 0.226E-02 -.251E+04   -.617E-13 -.940E-02 -.141E+01   0.625E-02 0.559E-02 -.139E+00
   -.509E+00 0.821E-01 0.251E+04   0.540E+00 -.115E+00 -.250E+04   -.854E-01 0.128E-01 -.166E+01   0.320E-01 0.188E-01 -.179E+00
   0.186E+00 -.488E+00 0.251E+04   -.168E+00 0.528E+00 -.250E+04   0.206E-01 -.708E-01 -.166E+01   -.216E-01 0.112E-01 -.186E+00
   -.186E+00 -.488E+00 0.251E+04   0.168E+00 0.528E+00 -.250E+04   -.206E-01 -.708E-01 -.166E+01   0.232E-01 0.102E-01 -.186E+00
   0.362E-04 0.129E-01 0.251E+04   0.792E-04 0.173E-02 -.250E+04   0.483E-14 0.735E-03 -.215E+01   -.661E-02 -.159E-01 -.201E+00
   0.438E+01 0.254E+01 0.841E+03   -.399E+01 -.232E+01 -.840E+03   -.396E+00 -.226E+00 -.820E+00   0.100E-01 0.113E-01 0.679E-02
   -.287E-04 0.407E+01 0.846E+03   0.413E-04 -.416E+01 -.846E+03   0.602E-12 0.917E-01 -.414E+00   0.660E-02 -.377E-01 0.576E-01
   -.438E+01 0.254E+01 0.841E+03   0.399E+01 -.232E+01 -.840E+03   0.396E+00 -.226E+00 -.820E+00   -.119E-01 0.123E-01 0.751E-02
   0.349E+01 -.205E+01 0.846E+03   -.358E+01 0.210E+01 -.846E+03   0.815E-01 -.609E-01 -.408E+00   -.190E-01 0.271E-01 0.383E-01
   -.349E+01 -.205E+01 0.846E+03   0.358E+01 0.210E+01 -.846E+03   -.815E-01 -.609E-01 -.408E+00   0.298E-01 0.257E-01 0.370E-01
   0.163E-04 0.598E+00 0.841E+03   -.108E-03 -.676E+00 -.840E+03   0.191E-12 0.291E-01 -.789E+00   -.170E-02 0.331E-01 -.156E-01
   -.797E-05 -.504E+01 0.841E+03   0.206E-04 0.460E+01 -.840E+03   0.301E-11 0.459E+00 -.841E+00   -.239E-03 -.272E-01 0.358E-02
   0.531E+00 -.319E+00 0.841E+03   -.608E+00 0.345E+00 -.840E+03   0.212E-01 -.316E-02 -.774E+00   0.385E-01 -.156E-01 -.256E-02
   -.531E+00 -.319E+00 0.841E+03   0.608E+00 0.345E+00 -.840E+03   -.212E-01 -.316E-02 -.774E+00   -.380E-01 -.135E-01 -.105E-02
   0.417E-04 0.178E+01 -.853E+03   -.128E-03 -.180E+01 0.852E+03   0.760E-13 0.116E-01 0.678E+00   -.654E-02 0.230E-01 0.339E-01
   0.110E+02 0.647E+01 -.827E+03   -.996E+01 -.582E+01 0.828E+03   -.110E+01 -.688E+00 -.114E+01   0.537E-01 0.101E-01 0.112E+00
   -.110E+02 0.647E+01 -.827E+03   0.996E+01 -.582E+01 0.828E+03   0.110E+01 -.688E+00 -.114E+01   -.522E-01 0.869E-02 0.111E+00
   0.333E+01 -.208E+01 -.845E+03   -.352E+01 0.220E+01 0.844E+03   0.216E+00 -.129E+00 0.551E+00   0.451E-02 -.126E-01 0.458E-01
   -.563E-04 -.129E+02 -.827E+03   0.432E-04 0.117E+02 0.828E+03   0.879E-11 0.134E+01 -.115E+01   -.547E-02 -.737E-01 0.116E+00
   -.333E+01 -.208E+01 -.845E+03   0.352E+01 0.220E+01 0.844E+03   -.216E+00 -.129E+00 0.551E+00   -.293E-02 -.141E-01 0.464E-01
   -.155E+01 -.745E+00 -.853E+03   0.155E+01 0.739E+00 0.852E+03   0.145E-01 0.468E-02 0.690E+00   -.312E-01 -.376E-02 0.361E-01
   0.155E+01 -.745E+00 -.853E+03   -.155E+01 0.739E+00 0.852E+03   -.145E-01 0.468E-02 0.690E+00   0.204E-01 -.463E-02 0.361E-01
   0.198E-04 0.388E+01 -.845E+03   0.110E-03 -.417E+01 0.844E+03   0.184E-11 0.280E+00 0.548E+00   0.985E-03 0.312E-01 0.404E-01
   0.541E-04 0.682E+00 -.251E+04   -.116E-03 -.643E+00 0.251E+04   -.252E-12 -.383E-01 0.203E+01   -.144E-02 -.102E-01 0.284E+00
   0.903E+01 0.176E+02 -.251E+04   -.866E+01 -.172E+02 0.251E+04   -.464E+00 -.537E+00 0.212E+01   0.590E-01 0.906E-01 0.205E+00
   -.903E+01 0.176E+02 -.251E+04   0.866E+01 -.172E+02 0.251E+04   0.464E+00 -.537E+00 0.212E+01   -.489E-01 0.916E-01 0.204E+00
   0.207E+02 -.556E+00 -.251E+04   -.202E+02 0.686E+00 0.251E+04   -.709E+00 -.102E+00 0.214E+01   0.943E-01 -.135E-01 0.193E+00
   -.207E+02 -.556E+00 -.251E+04   0.202E+02 0.686E+00 0.251E+04   0.709E+00 -.102E+00 0.214E+01   -.844E-01 -.132E-01 0.192E+00
   0.888E+01 -.166E+02 -.251E+04   -.866E+01 0.160E+02 0.251E+04   -.342E+00 0.657E+00 0.209E+01   0.712E-01 -.605E-01 0.200E+00
   -.888E+01 -.166E+02 -.251E+04   0.866E+01 0.160E+02 0.251E+04   0.342E+00 0.657E+00 0.209E+01   -.599E-01 -.610E-01 0.201E+00
   0.237E-04 -.393E+00 -.251E+04   0.106E-03 0.343E+00 0.250E+04   0.301E-12 0.458E-01 0.214E+01   -.738E-02 0.706E-02 0.204E+00
   -.164E-04 -.199E+01 -.191E+04   0.860E-04 0.195E+01 0.191E+04   0.610E-12 0.929E-01 -.285E+01   0.167E-02 -.989E-02 0.149E+00
   0.167E+02 0.280E+00 -.290E+03   -.189E+02 -.311E+00 0.291E+03   0.220E+01 0.317E-01 -.161E+01   0.101E-01 -.567E-03 -.100E-01
   -.167E+02 0.280E+00 -.290E+03   0.189E+02 -.311E+00 0.291E+03   -.220E+01 0.317E-01 -.161E+01   -.102E-01 -.563E-03 -.101E-01
   0.340E-03 -.207E+00 0.102E+02   0.178E-13 0.111E-12 0.449E-11   0.133E-11 0.203E+00 -.110E+02   0.187E-01 0.279E-02 0.877E+00

 POSITION                                       TOTAL-FORCE (eV/Angst)
      0.00000      0.00000      5.28219         0.000000      0.000499      0.039741
      2.93046      0.00000      5.28219         0.010607      0.021161      0.054310
      5.86091      0.00000      5.28219        -0.010607      0.021161      0.054310
      1.46523      2.53785      5.28219         0.021983     -0.001913      0.055084
      4.39568      2.53785      5.28219         0.000000      0.001176      0.030302
      7.32614      2.53785      5.28219        -0.021983     -0.001913      0.055084
      2.93046      5.07570      5.28219         0.015493     -0.019569      0.055096
      5.86091      5.07570      5.28219        -0.015493     -0.019569      0.055096
      8.79137      5.07570      5.28219        -0.000000     -0.000457      0.048637
      1.46523      0.84595      7.67490         0.010122      0.005879     -0.019202
      4.39568      0.84595      7.67490        -0.000000     -0.037143     -0.091293
      7.32614      0.84595      7.67490        -0.010122      0.005879     -0.019202
      2.93046      3.38380      7.67490        -0.032590      0.018597     -0.088095
      5.86091      3.38380      7.67490         0.032590      0.018597     -0.088095
      8.79137      3.38380      7.67490        -0.000000     -0.016274     -0.009312
      4.39568      5.92165      7.67490        -0.000000     -0.016034     -0.015546
      7.32614      5.92165      7.67490        -0.017180      0.007954     -0.006032
     10.25659      5.92165      7.67490         0.017180      0.007954     -0.006032
      8.79137      1.69615     10.06050         0.000000      0.010244      0.016100
      2.93321      1.69349     10.03240        -0.043025     -0.027921     -0.193036
      5.85816      1.69349     10.03240         0.043025     -0.027921     -0.193036
     10.25564      4.23030     10.05204         0.028192     -0.016902     -0.007229
      4.39568      4.22657     10.03240         0.000000      0.027334     -0.174593
      7.32709      4.23030     10.05204        -0.028192     -0.016902     -0.007229
     11.71814      6.76547     10.06050        -0.008531     -0.005739      0.005943
      5.86459      6.76547     10.06050         0.008531     -0.005739      0.005943
      8.79137      6.76650     10.05204         0.000000      0.024375     -0.009097
      0.00000      0.00000     12.42190        -0.000000     -0.008946     -0.015852
      2.95118      0.03878     12.42853        -0.039247     -0.086379     -0.035751
      5.84018      0.03878     12.42853         0.039247     -0.086379     -0.035751
      1.50917      2.53641     12.42853        -0.076988      0.014484     -0.014108
      7.28219      2.53641     12.42853         0.076988      0.014484     -0.014108
      2.95367      5.03836     12.42853        -0.052555      0.074339     -0.026238
      5.83769      5.03836     12.42853         0.052555      0.074339     -0.026238
      8.79137      5.07570     12.41313         0.000000      0.002859     -0.012476
      4.39568      2.53785     12.23685         0.000000      0.044812      0.673352
      3.89551      2.50315     13.80375        -0.013651     -0.000212     -0.020723
      4.89585      2.50315     13.80375         0.013651     -0.000212     -0.020723
    total drift:                                0.019077     -0.001149      0.099169

  FREE ENERGIE OF THE ION-ELECTRON SYSTEM (eV)
  free  energy   TOTEN  =      -102.79149304 eV

  energy  without entropy=     -102.79149304  energy(sigma->0) =     -102.79149304

 stress matrix after NEB project (eV)
     -7.59802     -0.00000      0.00000
     -0.00000     -7.51241      0.10766
      0.00000      0.10766     -0.28869
  FORCES: max atom, RMS     0.024816    0.005693
  FORCE total and by dimension    0.035095    0.020723
  Stress total and by dimension   10.689847    7.598022
|           W    W    AA    RRRRR   N    N  II  N    N   GGGG   !!!           |
|           W    W   A  A   R    R  NN   N  II  NN   N  G    G  !!!           |
|           W    W  A    A  R    R  N N  N  II  N N  N  G       !!!           |
|           W WW W  AAAAAA  RRRRR   N  N N  II  N  N N  G  GGG   !            |
|           WW  WW  A    A  R   R   N   NN  II  N   NN  G    G                |
|           W    W  A    A  R    R  N    N  II  N    N   GGGG   !!!           |
|     Tetrahedron method does not include variations of the Fermi             |
|     occupations, so forces and stress will be inaccurate. We suggest        |
|     using a different smearing scheme ISMEAR = 1 or 2 for metals in         |
|     relaxations.                                                            |

 total charge

# of ion       s       p       d       tot
    1        0.416   0.203   9.179   9.797
    2        0.419   0.203   9.177   9.799
    3        0.419   0.203   9.177   9.799
    4        0.419   0.203   9.177   9.799
    5        0.418   0.205   9.175   9.798
    6        0.419   0.203   9.177   9.799
    7        0.419   0.203   9.177   9.799
    8        0.419   0.203   9.177   9.799
    9        0.414   0.203   9.179   9.796
   10        0.406   0.269   9.164   9.839
   11        0.410   0.267   9.168   9.845
   12        0.406   0.269   9.164   9.839
   13        0.410   0.267   9.168   9.844
   14        0.410   0.267   9.168   9.844
   15        0.400   0.271   9.165   9.836
   16        0.406   0.269   9.164   9.839
   17        0.400   0.271   9.165   9.836
   18        0.400   0.271   9.165   9.836
   19        0.404   0.268   9.167   9.838
   20        0.424   0.286   9.155   9.865
   21        0.424   0.286   9.155   9.865
   22        0.397   0.276   9.165   9.837
   23        0.423   0.289   9.154   9.865
   24        0.397   0.276   9.165   9.837
   25        0.404   0.268   9.166   9.838
   26        0.404   0.268   9.166   9.838
   27        0.397   0.275   9.165   9.837
   28        0.418   0.196   9.182   9.796
   29        0.411   0.209   9.180   9.800
   30        0.411   0.209   9.180   9.800
   31        0.409   0.213   9.178   9.799
   32        0.409   0.213   9.178   9.799
   33        0.411   0.208   9.180   9.800
   34        0.411   0.208   9.180   9.800
   35        0.413   0.198   9.183   9.794
   36        0.421   0.453   7.580   8.453
   37        0.513   0.031   0.000   0.544
   38        0.513   0.031   0.000   0.544
tot         15.822   8.910 328.564 353.295

 BZINTS: Fermi energy:    0.929072;  396.000000 electrons
         Band energy:-0.122950E+04;  BLOECHL correction:   -0.058226