 vasp.6.2.0 18Jan21 (build Jun 12 2021 23:27:24) complex

 executed on             LinuxIFC date 2022.05.26  20:05:37

 INCAR:
   ISMEAR = -5
   SIGMA = 0.1
   ISPIN = 1
   EDIFF = 1.d-5
   EDIFFG = -0.01
   NSW = 0
   NELM = 150
   ENCUT = 500
   ISIF = 2
   IBRION = 2
   LREAL = Auto
   ALGO = Fast
   ICHARG = 11
   LORBIT = 10
   LCHARG = .F.
   LWAVE = .F.

 POTCAR:    PAW_PBE Cu 22Jun2005
 POTCAR:    PAW_PBE Pd 04Jan2005
 POTCAR:    PAW_PBE N 08Apr2002
|           W    W    AA    RRRRR   N    N  II  N    N   GGGG   !!!           |
|           W    W   A  A   R    R  NN   N  II  NN   N  G    G  !!!           |
|           W    W  A    A  R    R  N N  N  II  N N  N  G       !!!           |
|           W WW W  AAAAAA  RRRRR   N  N N  II  N  N N  G  GGG   !            |
|           WW  WW  A    A  R   R   N   NN  II  N   NN  G    G                |
|           W    W  A    A  R    R  N    N  II  N    N   GGGG   !!!           |
|     For optimal performance we recommend to set                             |
|       NCORE = 2 up to number-of-cores-per-socket                            |
|     This setting can greatly improve the performance of VASP for DFT.       |
|     The default, NCORE=1 might be grossly inefficient on modern             |
|     multi-core architectures or massively parallel machines. Do your        |
|     Unfortunately you need to use the default for GW and RPA                |
|     calculations (for HF NCORE is supported but not extensively tested      |
|     yet).                                                                   |

 POTCAR:    PAW_PBE Cu 22Jun2005
   VRHFIN =Cu: d10 p1

   TITEL  = PAW_PBE Cu 22Jun2005
   POMASS =   63.546; ZVAL   =   11.000    mass and valenz
   ENMAX  =  295.446; ENMIN  =  221.585 eV

 POTCAR:    PAW_PBE Pd 04Jan2005
   VRHFIN =Pd : s1 d9

   TITEL  = PAW_PBE Pd 04Jan2005
   POMASS =  106.420; ZVAL   =   10.000    mass and valenz
   ENMAX  =  250.925; ENMIN  =  188.194 eV

 POTCAR:    PAW_PBE N 08Apr2002
   VRHFIN =N: s2p3

   TITEL  = PAW_PBE N 08Apr2002
   POMASS =   14.001; ZVAL   =    5.000    mass and valenz
   ENMAX  =  400.000; ENMIN  =  300.000 eV

 Optimization of the real space projectors (new method)

 maximal supplied QI-value         = 16.25
 optimisation between [QCUT,QGAM] = [ 11.38, 22.75] = [ 36.24,144.96] Ry
 Optimized for a Real-space Cutoff    1.52 Angstroem

   l    n(q)    QCUT    max X(q) W(low)/X(q) W(high)/X(q)  e(spline)
   2      9    11.376     4.610    0.21E-03    0.10E-03    0.26E-06
   2      9    11.376     8.522    0.33E-03    0.16E-03    0.37E-06
   0     10    11.376    51.609    0.62E-04    0.20E-04    0.13E-06
   0     10    11.376    27.747    0.54E-04    0.20E-04    0.13E-06
   1     10    11.376    20.408    0.13E-04    0.99E-04    0.19E-06
   1     10    11.376    13.425    0.12E-04    0.87E-04    0.17E-06
 Optimization of the real space projectors (new method)

[...]

   l    n(q)    QCUT    max X(q) W(low)/X(q) W(high)/X(q)  e(spline)
   2      9    11.346    59.108    0.74E-04    0.81E-04    0.26E-06
   2      9    11.346    58.101    0.74E-04    0.83E-04    0.27E-06
   0     10    11.346   102.235    0.26E-04    0.31E-04    0.16E-06
   0     10    11.346    58.388    0.23E-04    0.29E-04    0.15E-06
   1     10    11.346    22.191    0.23E-03    0.26E-03    0.14E-06
   1     10    11.346    15.590    0.19E-03    0.22E-03    0.12E-06
 Optimization of the real space projectors (new method)

 maximal supplied QI-value         = 25.13
 optimisation between [QCUT,QGAM] = [ 11.31, 22.87] = [ 35.82,146.48] Ry
 Optimized for a Real-space Cutoff    1.27 Angstroem

   l    n(q)    QCUT    max X(q) W(low)/X(q) W(high)/X(q)  e(spline)
   0      9    11.310    79.467    0.75E-04    0.16E-03    0.36E-06
   0      9    11.310    66.151    0.74E-04    0.16E-03    0.36E-06
   1      8    11.310    17.416    0.35E-03    0.12E-03    0.95E-06
   1      8    11.310    12.382    0.37E-03    0.13E-03    0.98E-06
  PAW_PBE Cu 22Jun2005                  :
  PAW_PBE Pd 04Jan2005                  :
  PAW_PBE N 08Apr2002                   :

 POSCAR: Cu-Pd-N
  positions in direct lattice
  velocities in cartesian coordinates
 exchange correlation table for  LEXCH =        8
   RHO(1)=    0.500       N(1)  =     2000
   RHO(2)=  100.500       N(2)  =     4000

 VTST: version 3.2, (02/03/18)

 CHAIN: initializing optimizer

 OPT: Using VASP Conjugate-Gradient optimizer
 CHAIN: Read ICHAIN            0

 POSCAR: Cu-Pd-N
  positions in direct lattice
  velocities in cartesian coordinates

 ion  position               nearest neighbor table
   1  0.000  0.000  0.252-   7 2.57   3 2.57   4 2.57   2 2.57   6 2.57   8 2.57  12 2.57  10 2.57
                            16 2.57
   2  0.333  0.000  0.252-   8 2.57   9 2.57   5 2.57   1 2.57   3 2.57  11 2.57   4 2.57  10 2.57
                            17 2.57
   3  0.667  0.000  0.252-   1 2.57   7 2.57   6 2.57   9 2.57   2 2.57  12 2.57   5 2.57  18 2.57
                            11 2.57
   4  0.000  0.333  0.252-   5 2.57   6 2.57   1 2.57   7 2.57   2 2.57  13 2.57   9 2.57  10 2.57
                            15 2.57
   5  0.333  0.333  0.252-   4 2.57   2 2.57   7 2.57  13 2.57   8 2.57   6 2.57   3 2.57  11 2.57
                            14 2.57
   6  0.667  0.333  0.252-   4 2.57   9 2.57  15 2.57   3 2.57   1 2.57   8 2.57  14 2.57   5 2.57
                            12 2.57
   7  0.000  0.667  0.252-   1 2.57   3 2.57  16 2.57  18 2.57   4 2.57   5 2.57   8 2.57   9 2.57
                            13 2.57
   8  0.333  0.667  0.252-   9 2.57   2 2.57  17 2.57   6 2.57   1 2.57   7 2.57   5 2.57  14 2.57
                            16 2.57
   9  0.667  0.667  0.252-   8 2.57   6 2.57   2 2.57  17 2.57   3 2.57   7 2.57   4 2.57  15 2.57
                            18 2.57
  10  0.111  0.111  0.351-  20 2.54  26 2.55  19 2.55  11 2.57  12 2.57  13 2.57   1 2.57   2 2.57
                             4 2.57  15 2.57  16 2.57  17 2.57
  11  0.444  0.111  0.351-  20 2.55  21 2.55  27 2.55  10 2.57  13 2.57   2 2.57  17 2.57  14 2.57
                            12 2.57   5 2.57   3 2.57  18 2.57
  12  0.778  0.111  0.351-  21 2.54  19 2.55  25 2.55  15 2.57  10 2.57  14 2.57  18 2.57   3 2.57
                             1 2.57  16 2.57  11 2.57   6 2.57
  13  0.111  0.444  0.351-  23 2.55  20 2.55  22 2.55  16 2.57  18 2.57  10 2.57  11 2.57  14 2.57
                             5 2.57   4 2.57   7 2.57  15 2.57
  14  0.444  0.444  0.351-  21 2.55  23 2.55  24 2.55  15 2.57  17 2.57  12 2.57  16 2.57  13 2.57
                            11 2.57   6 2.57   8 2.57   5 2.57
  15  0.778  0.444  0.351-  19 2.55  24 2.55  22 2.55  14 2.57  17 2.57  12 2.57   6 2.57  18 2.57
                            10 2.57   9 2.57  13 2.57   4 2.57
  16  0.111  0.778  0.351-  23 2.54  25 2.55  26 2.55  18 2.57  13 2.57   7 2.57  14 2.57  17 2.57
                            12 2.57  10 2.57   8 2.57   1 2.57
  17  0.444  0.778  0.351-  26 2.55  27 2.55  24 2.55  14 2.57  15 2.57   8 2.57   9 2.57  11 2.57
                            16 2.57  18 2.57  10 2.57   2 2.57
  18  0.778  0.778  0.351-  25 2.55  22 2.55  27 2.55  16 2.57  13 2.57   7 2.57  15 2.57  12 2.57
                            17 2.57   9 2.57   3 2.57  11 2.57
  19  0.889  0.222  0.448-  32 2.54  31 2.54  28 2.55  15 2.55  12 2.55  10 2.55  21 2.56  20 2.56
                            22 2.56  24 2.56  25 2.57  26 2.57
  20  0.222  0.222  0.448-  10 2.54  11 2.55  13 2.55  26 2.56  19 2.56  27 2.56  22 2.56  29 2.57
                            31 2.57  23 2.58  21 2.58  36 2.62
  21  0.557  0.222  0.448-  12 2.54  14 2.55  11 2.55  19 2.56  25 2.56  24 2.56  27 2.56  32 2.57
                            30 2.57  20 2.58  23 2.58  36 2.62
  22  0.889  0.555  0.449-  35 2.54  31 2.55  33 2.55  13 2.55  18 2.55  15 2.55  23 2.56  20 2.56
                            19 2.56  25 2.56  24 2.57  27 2.57
  23  0.222  0.557  0.448-  16 2.54  13 2.55  14 2.55  25 2.56  26 2.56  22 2.56  24 2.56  33 2.57
                            34 2.57  20 2.58  21 2.58  36 2.62
  24  0.555  0.555  0.449-  35 2.54  32 2.55  34 2.55  14 2.55  15 2.55  17 2.55  21 2.56  23 2.56
                            19 2.56  26 2.56  22 2.57  27 2.57
  25  0.889  0.889  0.448-  33 2.54  30 2.54  28 2.55  18 2.55  16 2.55  12 2.55  21 2.56  23 2.56
                            22 2.56  27 2.56  19 2.57  26 2.57
  26  0.222  0.889  0.448-  29 2.54  34 2.54  28 2.55  17 2.55  10 2.55  16 2.55  20 2.56  23 2.56
                            27 2.56  24 2.56  25 2.57  19 2.57
  27  0.555  0.889  0.449-  35 2.54  29 2.55  30 2.55  11 2.55  17 2.55  18 2.55  20 2.56  21 2.56
                            26 2.56  25 2.56  24 2.57  22 2.57
  28  0.000  0.000  0.545-  25 2.55  19 2.55  26 2.55  33 2.55  30 2.55  31 2.55  29 2.55  32 2.55
                            34 2.55
  29  0.333  0.996  0.546-  34 2.51  26 2.54  28 2.55  27 2.55  35 2.55  20 2.57  31 2.59  36 2.60
                            30 2.60
  30  0.671  0.996  0.546-  33 2.51  25 2.54  28 2.55  27 2.55  35 2.55  21 2.57  32 2.59  36 2.60
                            29 2.60
  31  0.996  0.333  0.546-  32 2.51  19 2.54  28 2.55  22 2.55  35 2.55  20 2.57  29 2.59  36 2.60
                            33 2.60
  32  0.671  0.333  0.546-  31 2.51  19 2.54  28 2.55  24 2.55  35 2.55  21 2.57  30 2.59  36 2.60
                            34 2.60
  33  0.996  0.671  0.546-  30 2.51  25 2.54  28 2.55  22 2.55  35 2.55  23 2.57  34 2.59  36 2.60
                            31 2.60
  34  0.333  0.671  0.546-  29 2.51  26 2.54  28 2.55  24 2.55  35 2.55  23 2.57  33 2.59  36 2.60
                            32 2.60
  35  0.667  0.667  0.546-  24 2.54  27 2.54  22 2.54  34 2.55  32 2.55  29 2.55  30 2.55  33 2.55
                            31 2.55
  36  0.333  0.333  0.549-  37 1.77  31 2.60  29 2.60  33 2.60  34 2.60  32 2.60  30 2.60  23 2.62
                            20 2.62  21 2.62
  37  0.333  0.333  0.633-  36 1.77

  LATTYP: Found a hexagonal cell.
 ALAT       =     7.6967864036
 C/A-ratio  =     2.7653617908

  Lattice vectors:

 A1 = (  -3.8483927580,  -6.6656128093,   0.0000000000)
 A2 = (   7.6967864037,   0.0000000000,   0.0000000000)
 A3 = (   0.0000000000,   0.0000000000,  21.2843990326)

Analysis of symmetry for initial positions (statically):
 Subroutine PRICEL returns:
 Original cell was already a primitive cell.

 Routine SETGRP: Setting up the symmetry group for a
 hexagonal supercell.

 Subroutine GETGRP returns: Found  6 space group operations
 (whereof  6 operations were pure point group operations)
 out of a pool of 24 trial point group operations.

The static configuration has the point symmetry C_3v.

Analysis of symmetry for dynamics (positions and initial velocities):
 Subroutine PRICEL returns:
 Original cell was already a primitive cell.

[...]

The dynamic configuration has the point symmetry C_3v.

Analysis of constrained symmetry for selective dynamics:
 Subroutine PRICEL returns:
 Original cell was already a primitive cell.

 Routine SETGRP: Setting up the symmetry group for a
 hexagonal supercell.

 Subroutine GETGRP returns: Found  6 space group operations
[...]
     24      -4.3915      2.00000
     25      -4.3696      2.00000
     26      -4.3562      2.00000
     27      -4.2926      2.00000
     28      -4.2614      2.00000
     29      -4.2495      2.00000
     30      -4.1430      2.00000
     31      -4.1030      2.00000
     32      -4.0864      2.00000
     33      -4.0758      2.00000
     34      -4.0661      2.00000
     35      -4.0545      2.00000
     36      -4.0016      2.00000
     37      -3.9913      2.00000
     38      -3.9386      2.00000
     39      -3.8953      2.00000
     40      -3.8640      2.00000
     41      -3.7592      2.00000
     42      -3.7507      2.00000
     43      -3.7029      2.00000
     44      -3.6732      2.00000
     45      -3.6580      2.00000
     46      -3.6506      2.00000
     47      -3.6047      2.00000
     48      -3.5759      2.00000
     49      -3.5606      2.00000
     50      -3.5111      2.00000
     51      -3.4338      2.00000
     52      -3.4184      2.00000
     53      -3.3908      2.00000
     54      -3.3594      2.00000
     55      -3.3459      2.00000
     56      -3.3322      2.00000
     57      -3.3249      2.00000
     58      -3.3036      2.00000
     59      -3.2956      2.00000
     60      -3.2642      2.00000
[...]
    238       6.3117      0.00000
    239       6.3748      0.00000
    240       6.4534      0.00000
    241       7.0330      0.00000
    242       7.0534      0.00000
    243       7.1731      0.00000
    244       7.1929      0.00000
    245       7.2412      0.00000
    246       7.2985      0.00000
    247       7.4161      0.00000
    248       7.5344      0.00000
    249       7.5871      0.00000
    250       7.7296      0.00000
    251       7.8361      0.00000
    252       7.9922      0.00000

 soft charge-density along one line, spin component           1
         0         1         2         3         4         5         6         7         8         9
 total charge-density along one line

------------------------ aborting loop because EDIFF is reached ----------------------------------------

 total charge

# of ion       s       p       d       tot
    1        0.450   0.283   9.189   9.922
    2        0.449   0.284   9.187   9.920
    3        0.449   0.284   9.187   9.920
    4        0.449   0.284   9.187   9.920
    5        0.448   0.287   9.186   9.920
    6        0.449   0.284   9.187   9.920
    7        0.449   0.284   9.187   9.920
    8        0.449   0.284   9.187   9.920
    9        0.447   0.284   9.183   9.914
   10        0.443   0.372   9.181   9.995
   11        0.441   0.371   9.179   9.992
   12        0.443   0.372   9.181   9.995
   13        0.441   0.371   9.179   9.992
   14        0.441   0.371   9.179   9.992
   15        0.440   0.368   9.183   9.992
   16        0.443   0.372   9.181   9.995
   17        0.440   0.368   9.183   9.992
   18        0.440   0.368   9.183   9.992
   19        0.443   0.380   9.177  10.000
   20        0.449   0.376   9.182  10.007
   21        0.449   0.376   9.182  10.007
   22        0.441   0.371   9.185   9.997
   23        0.449   0.376   9.182  10.007
   24        0.441   0.371   9.185   9.997
   25        0.443   0.380   9.177  10.000
   26        0.443   0.380   9.177  10.000
   27        0.441   0.371   9.185   9.997
   28        0.458   0.289   9.198   9.945
   29        0.438   0.297   9.198   9.932
   30        0.438   0.297   9.198   9.932
   31        0.438   0.297   9.198   9.932
   32        0.438   0.297   9.198   9.932
   33        0.438   0.297   9.198   9.932
   34        0.438   0.297   9.198   9.932
   35        0.455   0.291   9.194   9.940
   36        0.651   0.776   8.442   9.869
   37        1.352   2.070   0.000   3.422
tot         17.555  14.480 329.961 361.996

  FORCE on cell =-STRESS in cart. coord.  units (eV):
  Direction    XX          YY          ZZ          XY          YZ          ZX
  Alpha Z   884.15474   884.15474   884.15474
  Ewald  174746.77898174746.77854************     0.00039     0.00012     0.00019
  Hartree187849.78918187849.78914************     0.00004     0.00006     0.00008
  E(xc)   -2320.58907 -2320.58861 -2324.42422    -0.00040    -0.00003    -0.00006
  Local  ************************375977.90218     0.01869    -0.00058    -0.00099
  n-local  -766.37694  -752.38895  -767.32855     7.93046    -0.12570     0.32773
  augment  3383.62384  3383.64392  3393.10021    -0.01739     0.00024     0.00044
  Kinetic  3360.94982  3361.79250  3369.56279     1.63970     2.01270    -1.20614
  Fock        0.00000     0.00000     0.00000     0.00000     0.00000     0.00000
  Total      -1.58819    -1.58819     3.87883     0.00000     0.00000    -0.00000
  in kB      -2.33024    -2.33024     5.69115     0.00000     0.00000    -0.00000

 VOLUME and BASIS-vectors are now :
  energy-cutoff  :      500.00
  volume of cell :     1091.97
      direct lattice vectors                 reciprocal lattice vectors
     7.696786404  0.000000000  0.000000000     0.129924354 -0.075011849  0.000000000
     3.848392758  6.665612809  0.000000000     0.000000000  0.150023716  0.000000000
     0.000000000  0.000000000 21.284399033     0.000000000  0.000000000  0.046982769

  length of vectors
     7.696786404  7.696786404 21.284399033     0.150023716  0.150023716  0.046982769

 FORCES acting on ions
    electron-ion (+dipol)            ewald-force                    non-local-force                 convergence-correction
   -.413E-04 0.348E-06 0.351E+04   0.579E-04 -.442E-05 -.350E+04   -.324E-18 -.291E-17 -.255E+01   -.259E-03 -.117E-03 -.493E+00
   -.513E+00 0.523E-01 0.350E+04   0.352E+00 0.205E+00 -.350E+04   0.469E-01 -.306E-01 -.200E+01   0.113E+00 -.200E+00 -.367E+00
   0.513E+00 0.523E-01 0.350E+04   -.352E+00 0.205E+00 -.350E+04   -.469E-01 -.306E-01 -.200E+01   -.113E+00 -.198E+00 -.367E+00
   -.211E+00 -.471E+00 0.350E+04   0.354E+00 0.203E+00 -.350E+04   -.306E-02 0.559E-01 -.200E+01   -.117E+00 0.198E+00 -.367E+00
   -.646E-04 -.507E-05 0.350E+04   0.116E-03 -.101E-04 -.350E+04   -.321E-17 0.265E-18 -.178E+01   0.122E-01 0.746E-02 -.344E+00
   0.211E+00 -.470E+00 0.350E+04   -.354E+00 0.202E+00 -.350E+04   0.306E-02 0.559E-01 -.200E+01   0.115E+00 0.200E+00 -.366E+00
   0.302E+00 0.418E+00 0.350E+04   0.139E-02 -.408E+00 -.350E+04   -.500E-01 -.253E-01 -.200E+01   -.227E+00 0.126E-02 -.367E+00
   -.302E+00 0.418E+00 0.350E+04   -.166E-02 -.408E+00 -.350E+04   0.500E-01 -.253E-01 -.200E+01   0.231E+00 -.165E-03 -.366E+00
   -.144E-03 -.329E-04 0.350E+04   0.263E-03 0.206E-04 -.350E+04   -.802E-19 -.833E-18 -.222E+01   -.133E-01 -.687E-02 -.304E+00
   -.176E+01 -.102E+01 0.121E+04   0.199E+01 0.115E+01 -.121E+04   -.229E+00 -.132E+00 -.105E+01   0.126E-01 0.724E-02 -.158E+00
   -.915E-04 -.242E+01 0.120E+04   0.191E-03 0.258E+01 -.120E+04   -.342E-09 0.514E-02 -.473E+00   0.113E-01 -.180E+00 -.148E+00
   0.176E+01 -.102E+01 0.121E+04   -.199E+01 0.115E+01 -.121E+04   0.229E+00 -.132E+00 -.105E+01   -.141E-01 0.920E-02 -.158E+00
   -.209E+01 0.121E+01 0.120E+04   0.223E+01 -.129E+01 -.120E+04   0.445E-02 -.257E-02 -.473E+00   -.150E+00 0.101E+00 -.148E+00
   0.209E+01 0.121E+01 0.120E+04   -.223E+01 -.129E+01 -.120E+04   -.445E-02 -.257E-02 -.473E+00   0.174E+00 0.100E+00 -.148E+00
   -.142E-03 -.178E+01 0.120E+04   0.298E-03 0.151E+01 -.120E+04   -.217E-08 0.325E-01 -.797E+00   -.380E-02 0.238E+00 -.248E+00
   -.917E-04 0.203E+01 0.121E+04   0.186E-03 -.229E+01 -.121E+04   -.176E-07 0.265E+00 -.105E+01   -.155E-04 -.180E-01 -.158E+00
   -.154E+01 0.888E+00 0.120E+04   0.131E+01 -.754E+00 -.120E+04   0.282E-01 -.163E-01 -.797E+00   0.205E+00 -.122E+00 -.248E+00
   0.154E+01 0.888E+00 0.120E+04   -.131E+01 -.755E+00 -.120E+04   -.282E-01 -.163E-01 -.797E+00   -.205E+00 -.120E+00 -.248E+00
   -.578E-04 -.112E+01 -.111E+04   0.679E-04 0.997E+00 0.111E+04   -.501E-08 0.753E-01 0.581E+00   0.953E-02 0.620E-01 0.580E-01
   -.220E+02 -.127E+02 -.114E+04   0.225E+02 0.130E+02 0.114E+04   -.515E+00 -.298E+00 0.464E+00   0.740E-01 0.426E-01 0.210E+00
   0.220E+02 -.127E+02 -.114E+04   -.225E+02 0.130E+02 0.114E+04   0.515E+00 -.298E+00 0.464E+00   -.519E-01 0.451E-01 0.210E+00
   -.909E+01 0.525E+01 -.112E+04   0.903E+01 -.522E+01 0.112E+04   0.408E-01 -.236E-01 0.105E+01   0.110E-01 -.953E-02 0.953E-02
   -.747E-04 0.254E+02 -.114E+04   0.148E-03 -.259E+02 0.114E+04   -.396E-07 0.595E+00 0.464E+00   0.119E-01 -.687E-01 0.210E+00
   0.909E+01 0.525E+01 -.112E+04   -.903E+01 -.522E+01 0.112E+04   -.408E-01 -.236E-01 0.105E+01   -.139E-01 -.888E-02 0.961E-02
   0.972E+00 0.561E+00 -.111E+04   -.864E+00 -.499E+00 0.111E+04   -.652E-01 -.376E-01 0.581E+00   -.357E-01 -.206E-01 0.575E-01
   -.972E+00 0.561E+00 -.111E+04   0.863E+00 -.499E+00 0.111E+04   0.652E-01 -.376E-01 0.581E+00   0.588E-01 -.225E-01 0.580E-01
   -.133E-03 -.105E+02 -.112E+04   0.246E-03 0.104E+02 0.112E+04   -.314E-08 0.472E-01 0.105E+01   -.282E-02 0.142E-01 0.968E-02
   -.199E-04 0.265E-04 -.344E+04   0.389E-04 -.336E-04 0.344E+04   0.175E-17 -.559E-17 0.227E+01   0.824E-04 0.997E-04 0.401E+00
   -.713E+01 -.105E+02 -.342E+04   0.608E+01 0.859E+01 0.342E+04   0.833E+00 0.163E+01 0.266E+01   0.126E+00 0.147E+00 0.391E+00
   0.713E+01 -.105E+02 -.342E+04   -.608E+01 0.859E+01 0.342E+04   -.833E+00 0.163E+01 0.266E+01   -.126E+00 0.149E+00 0.392E+00
   -.127E+02 -.914E+00 -.342E+04   0.105E+02 0.970E+00 0.342E+04   0.183E+01 -.942E-01 0.266E+01   0.190E+00 0.359E-01 0.391E+00
   0.127E+02 -.915E+00 -.342E+04   -.105E+02 0.970E+00 0.342E+04   -.183E+01 -.942E-01 0.266E+01   -.192E+00 0.374E-01 0.391E+00
   -.554E+01 0.114E+02 -.342E+04   0.440E+01 -.956E+01 0.342E+04   0.996E+00 -.154E+01 0.266E+01   0.665E-01 -.184E+00 0.392E+00
   0.554E+01 0.114E+02 -.342E+04   -.440E+01 -.956E+01 0.342E+04   -.996E+00 -.154E+01 0.266E+01   -.628E-01 -.185E+00 0.391E+00
   -.151E-03 -.246E-04 -.344E+04   0.258E-03 0.262E-05 0.344E+04   0.300E-17 0.111E-17 0.220E+01   -.135E-01 -.699E-02 0.451E+00
   -.368E-04 -.422E-04 -.295E+04   0.120E-03 0.255E-04 0.296E+04   -.551E-17 -.297E-18 -.397E+01   0.428E-02 0.259E-02 0.651E+00
   0.105E-03 -.495E-04 -.186E+04   0.126E-04 0.598E-05 0.188E+04   -.106E-18 0.177E-17 -.198E+02   0.157E-02 0.948E-03 0.541E-01
   -.150E-03 -.815E-04 0.228E+02   0.133E-12 0.243E-12 -.100E-10   0.219E-15 0.447E-15 -.226E+02   0.877E-01 0.477E-01 -.268E+00

 POSITION                                       TOTAL-FORCE (eV/Angst)
      0.00000      0.00000      5.37156         0.000000      0.000000      0.033768
      2.56560      0.00000      5.37156        -0.000061      0.027638      0.061505
      5.13119      0.00000      5.37156         0.000061      0.027638      0.061505
      1.28280      2.22187      5.37156         0.023905     -0.013872      0.061505
      3.84839      2.22187      5.37156         0.000000     -0.000000      0.075984
      6.41399      2.22187      5.37156        -0.023905     -0.013872      0.061505
      2.56560      4.44374      5.37156         0.023965     -0.013766      0.061505
      5.13119      4.44374      5.37156        -0.023965     -0.013766      0.061505
      7.69679      4.44374      5.37156         0.000000      0.000000      0.056670
      1.28280      0.74062      7.46636         0.010023      0.005787     -0.091625
      3.84839      0.74062      7.46636         0.000000     -0.019194     -0.059131
      6.41399      0.74062      7.46636        -0.010023      0.005787     -0.091625
      2.56560      2.96249      7.46636        -0.016623      0.009597     -0.059131
      5.13119      2.96249      7.46636         0.016622      0.009597     -0.059131
      7.69679      2.96249      7.46636        -0.000000      0.004311     -0.081187
      3.84839      5.18437      7.46636         0.000000     -0.011574     -0.091625
      6.41399      5.18437      7.46636         0.003733     -0.002155     -0.081187
      8.97958      5.18437      7.46636        -0.003733     -0.002155     -0.081187
      7.69679      1.48223      9.53996        -0.000000      0.005254      0.010578
      2.55948      1.47772      9.53985         0.030158      0.017412     -0.209143
      5.13731      1.47772      9.53985        -0.030158      0.017412     -0.209143
      8.98047      3.70261      9.54732        -0.000465      0.000269     -0.015846
      3.84839      3.71018      9.53985         0.000000     -0.034824     -0.209143
      6.41310      3.70261      9.54732         0.000465      0.000269     -0.015846
     10.26153      5.92450      9.53996        -0.004550     -0.002627      0.010578
      5.13204      5.92450      9.53996         0.004550     -0.002627      0.010578
      7.69679      5.92601      9.54732         0.000000     -0.000537     -0.015846
      0.00000      0.00000     11.61018         0.000000      0.000000     -0.021216
      6.39795      6.64100     11.62214        -0.085594     -0.142653      0.027113
      8.99562      6.64100     11.62214         0.085594     -0.142653      0.027113
      8.95025      2.22029     11.62214        -0.166338     -0.002800      0.027113
      6.44333      2.22029     11.62214         0.166338     -0.002800      0.027113
     10.24908      4.46994     11.62214        -0.080744      0.145453      0.027113
      5.14449      4.46994     11.62214         0.080744      0.145453      0.027113
      7.69679      4.44374     11.61116         0.000000     -0.000000      0.006541
      3.84839      2.22187     11.69545         0.000000     -0.000000      0.663848
      3.84839      2.22187     13.46907         0.000000     -0.000000     -0.008244
    total drift:                                0.087555      0.047585     -0.025941

  FREE ENERGIE OF THE ION-ELECTRON SYSTEM (eV)
  free  energy   TOTEN  =      -132.65746828 eV

  energy  without entropy=     -132.65746828  energy(sigma->0) =     -132.65746828

 stress matrix after NEB project (eV)
     -1.58819      0.00000     -0.00000
      0.00000     -1.58819      0.00000
     -0.00000      0.00000      3.87883
  FORCES: max atom, RMS     0.008244    0.001355
  FORCE total and by dimension    0.008244    0.008244
  Stress total and by dimension    4.482185    3.878828
|           W    W    AA    RRRRR   N    N  II  N    N   GGGG   !!!           |
|           W    W   A  A   R    R  NN   N  II  NN   N  G    G  !!!           |
|           W    W  A    A  R    R  N N  N  II  N N  N  G       !!!           |
|           W WW W  AAAAAA  RRRRR   N  N N  II  N  N N  G  GGG   !            |
|           WW  WW  A    A  R   R   N   NN  II  N   NN  G    G                |
|           W    W  A    A  R    R  N    N  II  N    N   GGGG   !!!           |
|     Tetrahedron method does not include variations of the Fermi             |
|     occupations, so forces and stress will be inaccurate. We suggest        |
|     using a different smearing scheme ISMEAR = 1 or 2 for metals in         |
|     relaxations.                                                            |

 total charge

# of ion       s       p       d       tot
    1        0.450   0.283   9.189   9.922
    2        0.449   0.284   9.187   9.920
    3        0.449   0.284   9.187   9.920
    4        0.449   0.284   9.187   9.920
    5        0.448   0.287   9.186   9.920
    6        0.449   0.284   9.187   9.920
    7        0.449   0.284   9.187   9.920
    8        0.449   0.284   9.187   9.920
    9        0.447   0.284   9.183   9.914
   10        0.443   0.372   9.181   9.995
   11        0.441   0.371   9.179   9.992
   12        0.443   0.372   9.181   9.995
   13        0.441   0.371   9.179   9.992
   14        0.441   0.371   9.179   9.992
   15        0.440   0.368   9.183   9.992
   16        0.443   0.372   9.181   9.995
   17        0.440   0.368   9.183   9.992
   18        0.440   0.368   9.183   9.992
   19        0.443   0.380   9.177  10.000
   20        0.449   0.376   9.182  10.007
   21        0.449   0.376   9.182  10.007
   22        0.441   0.371   9.185   9.997
   23        0.449   0.376   9.182  10.007
   24        0.441   0.371   9.185   9.997
   25        0.443   0.380   9.177  10.000
   26        0.443   0.380   9.177  10.000
   27        0.441   0.371   9.185   9.997
   28        0.458   0.289   9.198   9.945
   29        0.438   0.297   9.198   9.932
   30        0.438   0.297   9.198   9.932
   31        0.438   0.297   9.198   9.932
   32        0.438   0.297   9.198   9.932
   33        0.438   0.297   9.198   9.932
   34        0.438   0.297   9.198   9.932
   35        0.455   0.291   9.194   9.940
   36        0.651   0.776   8.442   9.869
   37        1.352   2.070   0.000   3.422
tot         17.555  14.480 329.961 361.996

 BZINTS: Fermi energy:    0.043554;  400.000000 electrons
         Band energy:-0.114260E+04;  BLOECHL correction:   -0.043619