 vasp.6.2.0 18Jan21 (build Jun 12 2021 23:27:24) complex

 executed on             LinuxIFC date 2022.05.26  20:27:51

 INCAR:
   ISMEAR = -5
   SIGMA = 0.1
   ISPIN = 1
   EDIFF = 1.d-5
   EDIFFG = -0.01
   NSW = 0
   NELM = 150
   ENCUT = 500
   ISIF = 2
   IBRION = 2
   LREAL = Auto
   ALGO = Fast
   ICHARG = 11
   LORBIT = 10
   LCHARG = .F.
   LWAVE = .F.

 POTCAR:    PAW_PBE Cu 22Jun2005
 POTCAR:    PAW_PBE Pd 04Jan2005
|           W    W    AA    RRRRR   N    N  II  N    N   GGGG   !!!           |
|           W    W   A  A   R    R  NN   N  II  NN   N  G    G  !!!           |
|           W    W  A    A  R    R  N N  N  II  N N  N  G       !!!           |
|           W WW W  AAAAAA  RRRRR   N  N N  II  N  N N  G  GGG   !            |
|           WW  WW  A    A  R   R   N   NN  II  N   NN  G    G                |
|           W    W  A    A  R    R  N    N  II  N    N   GGGG   !!!           |
|     For optimal performance we recommend to set                             |
|       NCORE = 2 up to number-of-cores-per-socket                            |
|     This setting can greatly improve the performance of VASP for DFT.       |
|     The default, NCORE=1 might be grossly inefficient on modern             |
|     multi-core architectures or massively parallel machines. Do your        |
|     Unfortunately you need to use the default for GW and RPA                |
|     calculations (for HF NCORE is supported but not extensively tested      |
|     yet).                                                                   |

 POTCAR:    PAW_PBE Cu 22Jun2005
   VRHFIN =Cu: d10 p1

   TITEL  = PAW_PBE Cu 22Jun2005
   POMASS =   63.546; ZVAL   =   11.000    mass and valenz
   ENMAX  =  295.446; ENMIN  =  221.585 eV

 POTCAR:    PAW_PBE Pd 04Jan2005
   VRHFIN =Pd : s1 d9

   TITEL  = PAW_PBE Pd 04Jan2005
   POMASS =  106.420; ZVAL   =   10.000    mass and valenz
   ENMAX  =  250.925; ENMIN  =  188.194 eV

 Optimization of the real space projectors (new method)

 maximal supplied QI-value         = 16.25
 optimisation between [QCUT,QGAM] = [ 11.38, 22.75] = [ 36.24,144.96] Ry
 Optimized for a Real-space Cutoff    1.52 Angstroem

   l    n(q)    QCUT    max X(q) W(low)/X(q) W(high)/X(q)  e(spline)
   2      9    11.376     4.610    0.21E-03    0.10E-03    0.26E-06
   2      9    11.376     8.522    0.33E-03    0.16E-03    0.37E-06
   0     10    11.376    51.609    0.62E-04    0.20E-04    0.13E-06
   0     10    11.376    27.747    0.54E-04    0.20E-04    0.13E-06
   1     10    11.376    20.408    0.13E-04    0.99E-04    0.19E-06
   1     10    11.376    13.425    0.12E-04    0.87E-04    0.17E-06
 Optimization of the real space projectors (new method)

 maximal supplied QI-value         = 14.36
 optimisation between [QCUT,QGAM] = [ 11.35, 22.84] = [ 36.05,146.02] Ry
 Optimized for a Real-space Cutoff    1.47 Angstroem

   l    n(q)    QCUT    max X(q) W(low)/X(q) W(high)/X(q)  e(spline)
   2      9    11.346    59.108    0.74E-04    0.81E-04    0.26E-06
   2      9    11.346    58.101    0.74E-04    0.83E-04    0.27E-06
   0     10    11.346   102.235    0.26E-04    0.31E-04    0.16E-06
   0     10    11.346    58.388    0.23E-04    0.29E-04    0.15E-06
   1     10    11.346    22.191    0.23E-03    0.26E-03    0.14E-06
   1     10    11.346    15.590    0.19E-03    0.22E-03    0.12E-06
  PAW_PBE Cu 22Jun2005                  :
  PAW_PBE Pd 04Jan2005                  :

 POSCAR: Cu-Pd
  positions in direct lattice
  velocities in cartesian coordinates
 exchange correlation table for  LEXCH =        8
   RHO(1)=    0.500       N(1)  =     2000
   RHO(2)=  100.500       N(2)  =     4000

 VTST: version 3.2, (02/03/18)

 CHAIN: initializing optimizer

 OPT: Using VASP Conjugate-Gradient optimizer
 CHAIN: Read ICHAIN            0

 POSCAR: Cu-Pd
  positions in direct lattice
  velocities in cartesian coordinates

 ion  position               nearest neighbor table
   1  0.000  0.000  0.252-   7 2.57   3 2.57   4 2.57   2 2.57   6 2.57   8 2.57  12 2.57  10 2.57
                            16 2.57
   2  0.333  0.000  0.252-   8 2.57   9 2.57   5 2.57   1 2.57   3 2.57  11 2.57   4 2.57  10 2.57
                            17 2.57
   3  0.667  0.000  0.252-   1 2.57   7 2.57   6 2.57   9 2.57   2 2.57  12 2.57   5 2.57  18 2.57
                            11 2.57
   4  0.000  0.333  0.252-   5 2.57   6 2.57   1 2.57   7 2.57   2 2.57  13 2.57   9 2.57  10 2.57
                            15 2.57
   5  0.333  0.333  0.252-   4 2.57   2 2.57   7 2.57  13 2.57   8 2.57   6 2.57   3 2.57  11 2.57
                            14 2.57
   6  0.667  0.333  0.252-   4 2.57   9 2.57  15 2.57   3 2.57   1 2.57   8 2.57  14 2.57   5 2.57
                            12 2.57
   7  0.000  0.667  0.252-   1 2.57   3 2.57  16 2.57  18 2.57   4 2.57   5 2.57   8 2.57   9 2.57
                            13 2.57
   8  0.333  0.667  0.252-   9 2.57   2 2.57  17 2.57   6 2.57   1 2.57   7 2.57   5 2.57  14 2.57
                            16 2.57
   9  0.667  0.667  0.252-   8 2.57   6 2.57   2 2.57  17 2.57   3 2.57   7 2.57   4 2.57  15 2.57
                            18 2.57
  10  0.111  0.111  0.351-  20 2.54  26 2.55  19 2.55  11 2.57  12 2.57  13 2.57   1 2.57   2 2.57
                             4 2.57  15 2.57  16 2.57  17 2.57
  11  0.444  0.111  0.351-  20 2.55  21 2.55  27 2.55  10 2.57  13 2.57   2 2.57  17 2.57  14 2.57
                            12 2.57   5 2.57   3 2.57  18 2.57
  12  0.778  0.111  0.351-  21 2.54  19 2.55  25 2.55  15 2.57  10 2.57  14 2.57  18 2.57   3 2.57
                             1 2.57  16 2.57  11 2.57   6 2.57
  13  0.111  0.444  0.351-  23 2.55  20 2.55  22 2.55  16 2.57  18 2.57  10 2.57  11 2.57  14 2.57
                             5 2.57   4 2.57   7 2.57  15 2.57
  14  0.444  0.444  0.351-  21 2.55  23 2.55  24 2.55  15 2.57  17 2.57  12 2.57  16 2.57  13 2.57
                            11 2.57   6 2.57   8 2.57   5 2.57
  15  0.778  0.444  0.351-  19 2.55  24 2.55  22 2.55  14 2.57  17 2.57  12 2.57   6 2.57  18 2.57
                            10 2.57   9 2.57  13 2.57   4 2.57
  16  0.111  0.778  0.351-  23 2.54  25 2.55  26 2.55  18 2.57  13 2.57   7 2.57  14 2.57  17 2.57
                            12 2.57  10 2.57   8 2.57   1 2.57
  17  0.444  0.778  0.351-  26 2.55  27 2.55  24 2.55  14 2.57  15 2.57   8 2.57   9 2.57  11 2.57
                            16 2.57  18 2.57  10 2.57   2 2.57
  18  0.778  0.778  0.351-  25 2.55  22 2.55  27 2.55  16 2.57  13 2.57   7 2.57  15 2.57  12 2.57
                            17 2.57   9 2.57   3 2.57  11 2.57
  19  0.889  0.222  0.448-  32 2.54  31 2.54  28 2.55  15 2.55  12 2.55  10 2.55  21 2.56  20 2.56
                            22 2.56  24 2.56  25 2.57  26 2.57
  20  0.222  0.222  0.448-  10 2.54  11 2.55  13 2.55  26 2.56  19 2.56  27 2.56  22 2.56  29 2.57
                            31 2.57  23 2.58  21 2.58  36 2.62
  21  0.557  0.222  0.448-  12 2.54  14 2.55  11 2.55  19 2.56  25 2.56  24 2.56  27 2.56  32 2.57
                            30 2.57  20 2.58  23 2.58  36 2.62
  22  0.889  0.555  0.449-  35 2.54  31 2.55  33 2.55  13 2.55  18 2.55  15 2.55  23 2.56  20 2.56
                            19 2.56  25 2.56  24 2.57  27 2.57
  23  0.222  0.557  0.448-  16 2.54  13 2.55  14 2.55  25 2.56  26 2.56  22 2.56  24 2.56  33 2.57
                            34 2.57  20 2.58  21 2.58  36 2.62
  24  0.555  0.555  0.449-  35 2.54  32 2.55  34 2.55  14 2.55  15 2.55  17 2.55  21 2.56  23 2.56
                            19 2.56  26 2.56  22 2.57  27 2.57
  25  0.889  0.889  0.448-  33 2.54  30 2.54  28 2.55  18 2.55  16 2.55  12 2.55  21 2.56  23 2.56
                            22 2.56  27 2.56  19 2.57  26 2.57
  26  0.222  0.889  0.448-  29 2.54  34 2.54  28 2.55  17 2.55  10 2.55  16 2.55  20 2.56  23 2.56
                            27 2.56  24 2.56  25 2.57  19 2.57
  27  0.555  0.889  0.449-  35 2.54  29 2.55  30 2.55  11 2.55  17 2.55  18 2.55  20 2.56  21 2.56
                            26 2.56  25 2.56  24 2.57  22 2.57
  28  0.000  0.000  0.545-  25 2.55  19 2.55  26 2.55  33 2.55  30 2.55  31 2.55  29 2.55  32 2.55
                            34 2.55
  29  0.333  0.996  0.546-  34 2.51  26 2.54  28 2.55  27 2.55  35 2.55  20 2.57  31 2.59  36 2.60
                            30 2.60
  30  0.671  0.996  0.546-  33 2.51  25 2.54  28 2.55  27 2.55  35 2.55  21 2.57  32 2.59  36 2.60
                            29 2.60
  31  0.996  0.333  0.546-  32 2.51  19 2.54  28 2.55  22 2.55  35 2.55  20 2.57  29 2.59  36 2.60
                            33 2.60
  32  0.671  0.333  0.546-  31 2.51  19 2.54  28 2.55  24 2.55  35 2.55  21 2.57  30 2.59  36 2.60
                            34 2.60
  33  0.996  0.671  0.546-  30 2.51  25 2.54  28 2.55  22 2.55  35 2.55  23 2.57  34 2.59  36 2.60
                            31 2.60
  34  0.333  0.671  0.546-  29 2.51  26 2.54  28 2.55  24 2.55  35 2.55  23 2.57  33 2.59  36 2.60
                            32 2.60
  35  0.667  0.667  0.546-  24 2.54  27 2.54  22 2.54  34 2.55  32 2.55  29 2.55  30 2.55  33 2.55
                            31 2.55
  36  0.333  0.333  0.549-  31 2.60  29 2.60  33 2.60  34 2.60  32 2.60  30 2.60  23 2.62  20 2.62
                            21 2.62

  LATTYP: Found a hexagonal cell.
 ALAT       =     7.6967864036
 C/A-ratio  =     2.7653617908

  Lattice vectors:

 A1 = (  -3.8483927580,  -6.6656128093,   0.0000000000)
 A2 = (   7.6967864037,   0.0000000000,   0.0000000000)
 A3 = (   0.0000000000,   0.0000000000,  21.2843990326)

Analysis of symmetry for initial positions (statically):
 Subroutine PRICEL returns:
 Original cell was already a primitive cell.

 Routine SETGRP: Setting up the symmetry group for a
 hexagonal supercell.

 Subroutine GETGRP returns: Found  6 space group operations
 (whereof  6 operations were pure point group operations)
 out of a pool of 24 trial point group operations.

The static configuration has the point symmetry C_3v.

Analysis of symmetry for dynamics (positions and initial velocities):
 Subroutine PRICEL returns:
 Original cell was already a primitive cell.

[...]

The dynamic configuration has the point symmetry C_3v.

Analysis of constrained symmetry for selective dynamics:
 Subroutine PRICEL returns:
 Original cell was already a primitive cell.

 Routine SETGRP: Setting up the symmetry group for a
 hexagonal supercell.

 Subroutine GETGRP returns: Found  6 space group operations
 (whereof  6 operations were pure point group operations)
 out of a pool of 24 trial point group operations.

The constrained configuration has the point symmetry C_3v.

 Subroutine INISYM returns: Found  6 space group operations
 (whereof  6 operations are pure point group operations),
 and found     1 'primitive' translations

                                     Primitive cell

  volume of cell :    1091.9705

  direct lattice vectors                    reciprocal lattice vectors
     7.696786404  0.000000000  0.000000000     0.129924354 -0.075011849  0.000000000
     3.848392758  6.665612809  0.000000000     0.000000000  0.150023716  0.000000000
[...]
     15      -4.4395      2.00000
     16      -4.4349      2.00000
     17      -4.4178      2.00000
     18      -4.3549      2.00000
     19      -4.3393      2.00000
     20      -4.2879      2.00000
     21      -4.2777      2.00000
     22      -4.2486      2.00000
     23      -4.2238      2.00000
     24      -4.0763      2.00000
     25      -4.0387      2.00000
     26      -4.0257      2.00000
     27      -4.0063      2.00000
     28      -3.9751      2.00000
     29      -3.9649      2.00000
     30      -3.9611      2.00000
     31      -3.9450      2.00000
     32      -3.9400      2.00000
     33      -3.9089      2.00000
     34      -3.8477      2.00000
     35      -3.8143      2.00000
     36      -3.7487      2.00000
     37      -3.6457      2.00000
     38      -3.6416      2.00000
     39      -3.5855      2.00000
     40      -3.5673      2.00000
     41      -3.5572      2.00000
     42      -3.5398      2.00000
     43      -3.5256      2.00000
     44      -3.5180      2.00000
     45      -3.5154      2.00000
     46      -3.3204      2.00000
     47      -3.3180      2.00000
     48      -3.3044      2.00000
     49      -3.2952      2.00000
     50      -3.2406      2.00000
     51      -3.2321      2.00000
     52      -3.2171      2.00000
     53      -3.2118      2.00000
     54      -3.2070      2.00000
     55      -3.1896      2.00000
     56      -3.1579      2.00000
     57      -3.1554      2.00000
     58      -3.1475      2.00000
     59      -3.1415      2.00000
     60      -3.1400      2.00000
[...]
    238       6.8840      0.00000
    239       6.9384      0.00000
    240       7.0814      0.00000
    241       7.1208      0.00000
    242       7.3247      0.00000
    243       7.3568      0.00000
    244       7.4303      0.00000
    245       7.4856      0.00000
    246       7.6772      0.00000
    247       7.7606      0.00000
    248       7.9689      0.00000
    249       8.0523      0.00000
    250       8.2484      0.00000
    251       8.3158      0.00000
    252       8.4826      0.00000

 soft charge-density along one line, spin component           1
         0         1         2         3         4         5         6         7         8         9
 total charge-density along one line

------------------------ aborting loop because EDIFF is reached ----------------------------------------

 total charge

# of ion       s       p       d       tot
    1        0.447   0.286   9.188   9.921
    2        0.450   0.284   9.189   9.922
    3        0.450   0.284   9.189   9.922
    4        0.450   0.284   9.189   9.922
    5        0.445   0.287   9.186   9.918
    6        0.450   0.284   9.189   9.922
    7        0.450   0.284   9.189   9.922
    8        0.450   0.284   9.189   9.922
    9        0.448   0.283   9.187   9.919
   10        0.441   0.374   9.177   9.992
   11        0.443   0.369   9.181   9.993
   12        0.441   0.374   9.177   9.992
   13        0.443   0.369   9.181   9.993
   14        0.443   0.369   9.181   9.993
   15        0.439   0.371   9.180   9.990
   16        0.441   0.374   9.177   9.992
   17        0.439   0.371   9.180   9.990
   18        0.439   0.371   9.180   9.990
   19        0.444   0.376   9.184  10.005
   20        0.439   0.372   9.183   9.994
   21        0.439   0.372   9.183   9.994
   22        0.441   0.375   9.179   9.994
   23        0.439   0.372   9.183   9.994
   24        0.441   0.375   9.179   9.994
   25        0.444   0.376   9.184  10.005
   26        0.444   0.376   9.184  10.005
   27        0.441   0.375   9.179   9.994
   28        0.454   0.292   9.194   9.940
   29        0.453   0.293   9.192   9.938
   30        0.453   0.293   9.192   9.938
   31        0.453   0.293   9.192   9.938
   32        0.453   0.293   9.192   9.938
   33        0.453   0.293   9.192   9.938
   34        0.453   0.293   9.192   9.938
   35        0.451   0.295   9.193   9.939
   36        0.503   0.376   8.576   9.455
tot         16.104  11.993 330.062 358.159

  FORCE on cell =-STRESS in cart. coord.  units (eV):
  Direction    XX          YY          ZZ          XY          YZ          ZX
  Alpha Z   865.30779   865.30779   865.30779
  Ewald  174768.76357174768.76316************     0.00037     0.00011     0.00017
  Hartree187800.43119187800.43117************     0.00003     0.00005     0.00007
  E(xc)   -2299.76837 -2299.76791 -2304.59698    -0.00040    -0.00003    -0.00006
  Local  ************************376090.55754     0.01851    -0.00054    -0.00090
  n-local  -764.75428  -748.82119  -774.52057     8.03999    -0.07744     0.23512
  augment  3381.70479  3381.72486  3398.88654    -0.01737     0.00025     0.00042
  Kinetic  3264.38871  3269.25885  3292.51947     3.67462     1.69748    -1.25608
  Fock        0.00000     0.00000     0.00000     0.00000     0.00000     0.00000
  Total       0.46754     0.46754     5.91421    -0.00000    -0.00000    -0.00000
  in kB       0.68599     0.68599     8.67754    -0.00000    -0.00000    -0.00000

 VOLUME and BASIS-vectors are now :
  energy-cutoff  :      500.00
  volume of cell :     1091.97
      direct lattice vectors                 reciprocal lattice vectors
     7.696786404  0.000000000  0.000000000     0.129924354 -0.075011849  0.000000000
     3.848392758  6.665612809  0.000000000     0.000000000  0.150023716  0.000000000
     0.000000000  0.000000000 21.284399033     0.000000000  0.000000000  0.046982769

  length of vectors
     7.696786404  7.696786404 21.284399033     0.150023716  0.150023716  0.046982769

 FORCES acting on ions
    electron-ion (+dipol)            ewald-force                    non-local-force                 convergence-correction
   -.413E-04 0.357E-06 0.348E+04   0.579E-04 -.440E-05 -.348E+04   -.220E-16 -.260E-17 -.235E+01   -.259E-03 -.117E-03 -.941E+00
   -.484E+00 -.827E-02 0.348E+04   0.423E+00 0.328E+00 -.348E+04   -.116E-01 -.101E+00 -.203E+01   0.705E-01 -.213E+00 -.697E+00
   0.484E+00 -.825E-02 0.348E+04   -.423E+00 0.328E+00 -.348E+04   0.116E-01 -.101E+00 -.203E+01   -.698E-01 -.211E+00 -.696E+00
   -.249E+00 -.415E+00 0.348E+04   0.496E+00 0.203E+00 -.348E+04   -.934E-01 0.405E-01 -.203E+01   -.149E+00 0.168E+00 -.697E+00
   -.620E-04 -.343E-05 0.348E+04   0.116E-03 -.101E-04 -.348E+04   0.255E-17 -.219E-17 -.217E+01   0.122E-01 0.746E-02 -.693E+00
   0.249E+00 -.415E+00 0.348E+04   -.496E+00 0.202E+00 -.348E+04   0.934E-01 0.405E-01 -.203E+01   0.148E+00 0.169E+00 -.695E+00
   0.235E+00 0.424E+00 0.348E+04   0.724E-01 -.531E+00 -.348E+04   -.818E-01 0.606E-01 -.203E+01   -.217E+00 0.448E-01 -.696E+00
   -.235E+00 0.424E+00 0.348E+04   -.727E-01 -.531E+00 -.348E+04   0.818E-01 0.606E-01 -.203E+01   0.221E+00 0.434E-01 -.695E+00
   -.144E-03 -.329E-04 0.348E+04   0.263E-03 0.205E-04 -.348E+04   -.439E-17 0.416E-18 -.222E+01   -.133E-01 -.687E-02 -.687E+00
   -.279E+01 -.161E+01 0.116E+04   0.275E+01 0.159E+01 -.116E+04   -.222E-01 -.128E-01 -.816E+00   0.976E-01 0.563E-01 -.278E+00
   -.916E-04 -.375E+01 0.116E+04   0.191E-03 0.370E+01 -.116E+04   0.283E-08 -.425E-01 -.867E+00   0.113E-01 0.851E-01 -.120E+00
   0.279E+01 -.161E+01 0.116E+04   -.275E+01 0.159E+01 -.116E+04   0.222E-01 -.128E-01 -.816E+00   -.991E-01 0.583E-01 -.278E+00
   -.325E+01 0.188E+01 0.116E+04   0.320E+01 -.185E+01 -.116E+04   -.368E-01 0.213E-01 -.867E+00   0.798E-01 -.319E-01 -.119E+00
   0.325E+01 0.188E+01 0.116E+04   -.320E+01 -.185E+01 -.116E+04   0.368E-01 0.213E-01 -.867E+00   -.556E-01 -.325E-01 -.120E+00
   -.141E-03 -.155E+01 0.116E+04   0.298E-03 0.132E+01 -.116E+04   -.335E-08 0.503E-01 -.688E+00   -.380E-02 0.187E+00 -.331E+00
   -.918E-04 0.322E+01 0.116E+04   0.186E-03 -.317E+01 -.116E+04   -.171E-08 0.256E-01 -.816E+00   -.161E-04 -.116E+00 -.278E+00
   -.134E+01 0.774E+00 0.116E+04   0.114E+01 -.659E+00 -.116E+04   0.436E-01 -.252E-01 -.688E+00   0.160E+00 -.966E-01 -.331E+00
   0.134E+01 0.774E+00 0.116E+04   -.114E+01 -.659E+00 -.116E+04   -.436E-01 -.252E-01 -.688E+00   -.160E+00 -.941E-01 -.332E+00
   -.588E-04 -.229E+01 -.117E+04   0.693E-04 0.214E+01 0.117E+04   0.286E-08 -.429E-01 0.565E+00   0.955E-02 0.191E+00 -.248E+00
   -.302E+02 -.174E+02 -.121E+04   0.298E+02 0.172E+02 0.121E+04   0.828E-01 0.478E-01 0.397E+00   0.373E+00 0.215E+00 -.221E+00
   0.302E+02 -.174E+02 -.121E+04   -.298E+02 0.172E+02 0.121E+04   -.828E-01 0.478E-01 0.397E+00   -.351E+00 0.218E+00 -.222E+00
   -.145E+02 0.837E+01 -.118E+04   0.141E+02 -.815E+01 0.118E+04   0.223E+00 -.129E+00 0.803E+00   0.136E+00 -.818E-01 -.340E+00
   -.754E-04 0.349E+02 -.121E+04   0.149E-03 -.344E+02 0.121E+04   0.637E-08 -.957E-01 0.397E+00   0.119E-01 -.414E+00 -.222E+00
   0.145E+02 0.837E+01 -.118E+04   -.141E+02 -.815E+01 0.118E+04   -.223E+00 -.129E+00 0.803E+00   -.139E+00 -.811E-01 -.340E+00
   0.198E+01 0.114E+01 -.117E+04   -.186E+01 -.107E+01 0.117E+04   0.372E-01 0.215E-01 0.565E+00   -.148E+00 -.852E-01 -.249E+00
   -.198E+01 0.114E+01 -.117E+04   0.186E+01 -.107E+01 0.117E+04   -.372E-01 0.215E-01 0.565E+00   0.171E+00 -.871E-01 -.248E+00
   -.132E-03 -.167E+02 -.118E+04   0.245E-03 0.163E+02 0.118E+04   -.172E-07 0.258E+00 0.803E+00   -.282E-02 0.159E+00 -.340E+00
   -.227E-04 0.249E-04 -.349E+04   0.436E-04 -.325E-04 0.348E+04   -.104E-17 0.318E-17 0.219E+01   0.127E-03 0.127E-03 0.707E+00
   -.264E+02 -.440E+02 -.349E+04   0.265E+02 0.438E+02 0.349E+04   -.384E-01 0.170E+00 0.206E+01   0.213E-01 0.300E-01 0.549E+00
   0.264E+02 -.440E+02 -.349E+04   -.265E+02 0.438E+02 0.349E+04   0.384E-01 0.170E+00 0.206E+01   -.208E-01 0.325E-01 0.550E+00
   -.514E+02 -.880E+00 -.349E+04   0.512E+02 0.997E+00 0.349E+04   0.128E+00 -.118E+00 0.206E+01   0.367E-01 0.337E-02 0.549E+00
   0.514E+02 -.880E+00 -.349E+04   -.512E+02 0.997E+00 0.349E+04   -.128E+00 -.118E+00 0.206E+01   -.380E-01 0.487E-02 0.549E+00
   -.249E+02 0.449E+02 -.349E+04   0.247E+02 -.448E+02 0.349E+04   0.166E+00 -.517E-01 0.206E+01   0.177E-01 -.343E-01 0.550E+00
   0.249E+02 0.449E+02 -.349E+04   -.247E+02 -.448E+02 0.349E+04   -.166E+00 -.517E-01 0.206E+01   -.141E-01 -.353E-01 0.549E+00
   -.145E-03 -.242E-04 -.349E+04   0.253E-03 0.158E-05 0.349E+04   -.431E-18 -.686E-18 0.236E+01   -.135E-01 -.697E-02 0.660E+00
   -.709E-04 -.467E-04 -.320E+04   0.120E-03 0.255E-04 0.320E+04   -.332E-17 0.694E-18 0.290E+01   0.391E-02 0.236E-02 0.457E+00
   -.239E-03 -.170E-04 0.685E+01   0.129E-12 0.236E-12 0.773E-11   -.375E-17 -.694E-16 -.896E+00   0.860E-01 0.467E-01 -.599E+01

 POSITION                                       TOTAL-FORCE (eV/Angst)
      0.00000      0.00000      5.37156        -0.000000      0.000000      0.119683
      2.56560      0.00000      5.37156        -0.001687      0.006556      0.077210
      5.13119      0.00000      5.37156         0.001687      0.006556      0.077210
      1.28280      2.22187      5.37156         0.004834     -0.004739      0.077210
      3.84839      2.22187      5.37156         0.000000      0.000000      0.069630
      6.41399      2.22187      5.37156        -0.004834     -0.004739      0.077210
      2.56560      4.44374      5.37156         0.006521     -0.001817      0.077210
      5.13119      4.44374      5.37156        -0.006521     -0.001817      0.077210
      7.69679      4.44374      5.37156         0.000000      0.000000      0.070160
      1.28280      0.74062      7.46636         0.033415      0.019292     -0.106849
      3.84839      0.74062      7.46636         0.000000     -0.018718     -0.117516
      6.41399      0.74062      7.46636        -0.033415      0.019292     -0.106849
      2.56560      2.96249      7.46636        -0.016211      0.009359     -0.117516
      5.13119      2.96249      7.46636         0.016211      0.009359     -0.117516
      7.69679      2.96249      7.46636        -0.000000      0.006048     -0.070202
      3.84839      5.18437      7.46636         0.000000     -0.038585     -0.106849
      6.41399      5.18437      7.46636         0.005237     -0.003024     -0.070202
      8.97958      5.18437      7.46636        -0.005237     -0.003024     -0.070202
      7.69679      1.48223      9.53996         0.000000     -0.004238      0.003390
      2.55948      1.47772      9.53985        -0.013711     -0.007916      0.003642
      5.13731      1.47772      9.53985         0.013711     -0.007916      0.003642
      8.98047      3.70261      9.54732        -0.011354      0.006555      0.008405
      3.84839      3.71018      9.53985        -0.000000      0.015832      0.003642
      6.41310      3.70261      9.54732         0.011354      0.006555      0.008405
     10.26153      5.92450      9.53996         0.003670      0.002119      0.003390
      5.13204      5.92450      9.53996        -0.003670      0.002119      0.003390
      7.69679      5.92601      9.54732         0.000000     -0.013110      0.008405
      0.00000      0.00000     11.61018        -0.000000      0.000000     -0.000367
      6.39795      6.64100     11.62214         0.001326     -0.003023      0.013923
      8.99562      6.64100     11.62214        -0.001326     -0.003023      0.013923
      8.95025      2.22029     11.62214        -0.001955      0.002659      0.013923
      6.44333      2.22029     11.62214         0.001955      0.002659      0.013923
     10.24908      4.46994     11.62214        -0.003281      0.000363      0.013923
      5.14449      4.46994     11.62214         0.003281      0.000363      0.013923
      7.69679      4.44374     11.61116        -0.000000      0.000000      0.000138
      3.84839      2.22187     11.69545         0.000000      0.000000      0.031346
    total drift:                                0.085805      0.046643     -0.037790

  FREE ENERGIE OF THE ION-ELECTRON SYSTEM (eV)
  free  energy   TOTEN  =      -127.81804938 eV

  energy  without entropy=     -127.81804938  energy(sigma->0) =     -127.81804938

 stress matrix after NEB project (eV)
      0.46754     -0.00000     -0.00000
     -0.00000      0.46754     -0.00000
      0.00000     -0.00000      5.91421
  FORCES: max atom, RMS     0.031346    0.010299
  FORCE total and by dimension    0.061796    0.031346
  Stress total and by dimension    5.951056    5.914211
|           W    W    AA    RRRRR   N    N  II  N    N   GGGG   !!!           |
|           W    W   A  A   R    R  NN   N  II  NN   N  G    G  !!!           |
|           W    W  A    A  R    R  N N  N  II  N N  N  G       !!!           |
|           W WW W  AAAAAA  RRRRR   N  N N  II  N  N N  G  GGG   !            |
|           WW  WW  A    A  R   R   N   NN  II  N   NN  G    G                |
|           W    W  A    A  R    R  N    N  II  N    N   GGGG   !!!           |
|     Tetrahedron method does not include variations of the Fermi             |
|     occupations, so forces and stress will be inaccurate. We suggest        |
|     using a different smearing scheme ISMEAR = 1 or 2 for metals in         |
|     relaxations.                                                            |

 total charge

# of ion       s       p       d       tot
    1        0.447   0.286   9.188   9.921
    2        0.450   0.284   9.189   9.922
    3        0.450   0.284   9.189   9.922
    4        0.450   0.284   9.189   9.922
    5        0.445   0.287   9.186   9.918
    6        0.450   0.284   9.189   9.922
    7        0.450   0.284   9.189   9.922
    8        0.450   0.284   9.189   9.922
    9        0.448   0.283   9.187   9.919
   10        0.441   0.374   9.177   9.992
   11        0.443   0.369   9.181   9.993
   12        0.441   0.374   9.177   9.992
   13        0.443   0.369   9.181   9.993
   14        0.443   0.369   9.181   9.993
   15        0.439   0.371   9.180   9.990
   16        0.441   0.374   9.177   9.992
   17        0.439   0.371   9.180   9.990
   18        0.439   0.371   9.180   9.990
   19        0.444   0.376   9.184  10.005
   20        0.439   0.372   9.183   9.994
   21        0.439   0.372   9.183   9.994
   22        0.441   0.375   9.179   9.994
   23        0.439   0.372   9.183   9.994
   24        0.441   0.375   9.179   9.994
   25        0.444   0.376   9.184  10.005
   26        0.444   0.376   9.184  10.005
   27        0.441   0.375   9.179   9.994
   28        0.454   0.292   9.194   9.940
   29        0.453   0.293   9.192   9.938
   30        0.453   0.293   9.192   9.938
   31        0.453   0.293   9.192   9.938
   32        0.453   0.293   9.192   9.938
   33        0.453   0.293   9.192   9.938
   34        0.453   0.293   9.192   9.938
   35        0.451   0.295   9.193   9.939
   36        0.503   0.376   8.576   9.455
tot         16.104  11.993 330.062 358.159

 BZINTS: Fermi energy:    0.101195;  395.000000 electrons
         Band energy:-0.104695E+04;  BLOECHL correction:   -0.073711