 vasp.6.2.0 18Jan21 (build Jun 12 2021 23:27:24) complex

 executed on             LinuxIFC date 2022.05.26  20:23:48

 INCAR:
   ISMEAR = -5
   SIGMA = 0.1
   ISPIN = 1
   EDIFF = 1.d-5
   EDIFFG = -0.01
   NSW = 0
   NELM = 150
   ENCUT = 500
   ISIF = 2
   IBRION = 2
   LREAL = Auto
   ALGO = Fast
   ICHARG = 11
   LORBIT = 10
   LCHARG = .F.
   LWAVE = .F.

 POTCAR:    PAW_PBE Ag 02Apr2005
 POTCAR:    PAW_PBE Pt 04Feb2005
|           W    W    AA    RRRRR   N    N  II  N    N   GGGG   !!!           |
|           W    W   A  A   R    R  NN   N  II  NN   N  G    G  !!!           |
|           W    W  A    A  R    R  N N  N  II  N N  N  G       !!!           |
|           W WW W  AAAAAA  RRRRR   N  N N  II  N  N N  G  GGG   !            |
|           WW  WW  A    A  R   R   N   NN  II  N   NN  G    G                |
|           W    W  A    A  R    R  N    N  II  N    N   GGGG   !!!           |
|     For optimal performance we recommend to set                             |
|       NCORE = 2 up to number-of-cores-per-socket                            |
|     This setting can greatly improve the performance of VASP for DFT.       |
|     The default, NCORE=1 might be grossly inefficient on modern             |
|     multi-core architectures or massively parallel machines. Do your        |
|     Unfortunately you need to use the default for GW and RPA                |
|     calculations (for HF NCORE is supported but not extensively tested      |
|     yet).                                                                   |

 POTCAR:    PAW_PBE Ag 02Apr2005
   VRHFIN =Ag : s1 d10

   TITEL  = PAW_PBE Ag 02Apr2005
   POMASS =  107.868; ZVAL   =   11.000    mass and valenz
   ENMAX  =  249.844; ENMIN  =  187.383 eV

 POTCAR:    PAW_PBE Pt 04Feb2005
   VRHFIN =Pt: s1d9

   TITEL  = PAW_PBE Pt 04Feb2005
   POMASS =  195.080; ZVAL   =   10.000    mass and valenz
   ENMAX  =  230.283; ENMIN  =  172.712 eV

 Optimization of the real space projectors (new method)

 maximal supplied QI-value         = 15.12
 optimisation between [QCUT,QGAM] = [ 11.34, 22.83] = [ 36.00,145.93] Ry
 Optimized for a Real-space Cutoff    1.43 Angstroem

   l    n(q)    QCUT    max X(q) W(low)/X(q) W(high)/X(q)  e(spline)
   2      9    11.338    53.897    0.16E-03    0.20E-03    0.28E-06
   2      9    11.338    52.416    0.16E-03    0.20E-03    0.29E-06
   0     10    11.338   122.045    0.31E-04    0.76E-04    0.15E-06
   0     10    11.338    73.629    0.30E-04    0.72E-04    0.15E-06
   1      9    11.338    15.255    0.20E-03    0.19E-04    0.17E-06
   1      9    11.338     9.562    0.16E-03    0.15E-04    0.14E-06
 Optimization of the real space projectors (new method)

 maximal supplied QI-value         = 14.36
 optimisation between [QCUT,QGAM] = [ 11.35, 22.84] = [ 36.05,146.02] Ry
 Optimized for a Real-space Cutoff    1.47 Angstroem

   l    n(q)    QCUT    max X(q) W(low)/X(q) W(high)/X(q)  e(spline)
   2      9    11.346    66.195    0.31E-03    0.12E-04    0.29E-06
   2      9    11.346    64.643    0.32E-03    0.12E-04    0.29E-06
   0     10    11.346    95.520    0.90E-04    0.16E-04    0.19E-06
   0     10    11.346    63.403    0.87E-04    0.15E-04    0.19E-06
   1     10    11.346    19.961    0.17E-03    0.21E-03    0.11E-06
   1     10    11.346    13.289    0.14E-03    0.18E-03    0.89E-07
  PAW_PBE Ag 02Apr2005                  :
  PAW_PBE Pt 04Feb2005                  :

 POSCAR: Ag-Pt
  positions in direct lattice
  velocities in cartesian coordinates
 exchange correlation table for  LEXCH =        8
   RHO(1)=    0.500       N(1)  =     2000
   RHO(2)=  100.500       N(2)  =     4000

 VTST: version 3.2, (02/03/18)

 CHAIN: initializing optimizer

 OPT: Using VASP Conjugate-Gradient optimizer
 CHAIN: Read ICHAIN            0

 POSCAR: Ag-Pt
  positions in direct lattice
  velocities in cartesian coordinates

 ion  position               nearest neighbor table
   1  0.000  0.000  0.238-   2 2.93   8 2.93   7 2.93   6 2.93   4 2.93  12 2.93  16 2.93  10 2.93
                             3 2.93
   2  0.333  0.000  0.238-   1 2.93   8 2.93   9 2.93   3 2.93   4 2.93   5 2.93  10 2.93  17 2.93
                            11 2.93
   3  0.667  0.000  0.238-   9 2.93   2 2.93   5 2.93  11 2.93   7 2.93  18 2.93   1 2.93   6 2.93
                            12 2.93
   4  0.000  0.333  0.238-   5 2.93   6 2.93   2 2.93   1 2.93   7 2.93  13 2.93  15 2.93   9 2.93
                            10 2.93
   5  0.333  0.333  0.238-   4 2.93   3 2.93   7 2.93   2 2.93   8 2.93  14 2.93  13 2.93  11 2.93
                             6 2.93
   6  0.667  0.333  0.238-   4 2.93   9 2.93   1 2.93  15 2.93   8 2.93  12 2.93   3 2.93   5 2.93
                            14 2.93
   7  0.000  0.667  0.238-   8 2.93   1 2.93   5 2.93   3 2.93   4 2.93  16 2.93  18 2.93  13 2.93
                             9 2.93
   8  0.333  0.667  0.238-   7 2.93   1 2.93   2 2.93   9 2.93   5 2.93  16 2.93   6 2.93  17 2.93
                            14 2.93
   9  0.667  0.667  0.238-   3 2.93   2 2.93   8 2.93   6 2.93  17 2.93   4 2.93  15 2.93   7 2.93
                            18 2.93
  10  0.111  0.111  0.346-  20 2.89  19 2.93  26 2.93  12 2.93  16 2.93  15 2.93  17 2.93  13 2.93
                            11 2.93   2 2.93   1 2.93   4 2.93
  11  0.444  0.111  0.346-  21 2.90  20 2.90  27 2.91  14 2.93  17 2.93  18 2.93   3 2.93  12 2.93
                            13 2.93  10 2.93   5 2.93   2 2.93
  12  0.778  0.111  0.346-  21 2.89  25 2.93  19 2.93  10 2.93  16 2.93  18 2.93  15 2.93  11 2.93
                             1 2.93  14 2.93   6 2.93   3 2.93
  13  0.111  0.444  0.346-  20 2.90  23 2.90  22 2.91  15 2.93  14 2.93  18 2.93  10 2.93  11 2.93
                            16 2.93   4 2.93   5 2.93   7 2.93
  14  0.444  0.444  0.346-  23 2.90  21 2.90  24 2.91  13 2.93  11 2.93  16 2.93   5 2.93  12 2.93
                            17 2.93   8 2.93  15 2.93   6 2.93
  15  0.778  0.444  0.346-  24 2.91  22 2.91  19 2.92  13 2.93  10 2.93  12 2.93  17 2.93  18 2.93
                             4 2.93   6 2.93   9 2.93  14 2.93
  16  0.111  0.778  0.346-  23 2.89  26 2.93  25 2.93  18 2.93  12 2.93  10 2.93  14 2.93  17 2.93
                            13 2.93   7 2.93   8 2.93   1 2.93
  17  0.444  0.778  0.346-  27 2.91  24 2.91  26 2.92  11 2.93  10 2.93   9 2.93  18 2.93  15 2.93
                            16 2.93   2 2.93  14 2.93   8 2.93
  18  0.778  0.778  0.346-  22 2.91  27 2.91  25 2.92  16 2.93  12 2.93  13 2.93  11 2.93  17 2.93
                            15 2.93   7 2.93   3 2.93   9 2.93
  19  0.888  0.223  0.454-  28 2.91  15 2.92  20 2.92  21 2.92  24 2.92  22 2.92  10 2.93  12 2.93
                            32 2.93  31 2.93  26 2.94  25 2.94
  20  0.221  0.221  0.452-  36 2.81  10 2.89  13 2.90  11 2.90  19 2.92  26 2.92  31 2.92  29 2.92
                            27 2.93  22 2.93  21 2.95  23 2.95
  21  0.557  0.221  0.452-  36 2.81  12 2.89  11 2.90  14 2.90  25 2.92  19 2.92  30 2.92  32 2.92
                            27 2.93  24 2.93  20 2.95  23 2.95
  22  0.889  0.556  0.453-  35 2.91  18 2.91  15 2.91  13 2.91  25 2.92  19 2.92  24 2.93  27 2.93
                            33 2.93  31 2.93  23 2.93  20 2.93
  23  0.221  0.557  0.452-  36 2.81  16 2.89  14 2.90  13 2.90  26 2.92  25 2.92  34 2.92  33 2.92
                            22 2.93  24 2.93  21 2.95  20 2.95
  24  0.556  0.556  0.453-  35 2.91  15 2.91  17 2.91  14 2.91  19 2.92  26 2.92  27 2.93  22 2.93
                            32 2.93  34 2.93  23 2.93  21 2.93
  25  0.888  0.888  0.454-  28 2.91  18 2.92  23 2.92  21 2.92  22 2.92  27 2.92  16 2.93  12 2.93
                            33 2.93  30 2.93  26 2.94  19 2.94
  26  0.223  0.888  0.454-  28 2.91  17 2.92  23 2.92  20 2.92  27 2.92  24 2.92  16 2.93  10 2.93
                            34 2.93  29 2.93  25 2.94  19 2.94
  27  0.556  0.889  0.453-  35 2.91  17 2.91  18 2.91  11 2.91  26 2.92  25 2.92  24 2.93  22 2.93
                            29 2.93  30 2.93  20 2.93  21 2.93
  28  0.000  0.000  0.560-  26 2.91  25 2.91  19 2.91  29 2.95  34 2.95  33 2.95  32 2.95  31 2.95
                            30 2.95
  29  0.333  0.004  0.561-  30 2.89  31 2.89  36 2.90  20 2.92  27 2.93  26 2.93  35 2.95  28 2.95
                            34 3.00
  30  0.662  0.004  0.561-  29 2.89  32 2.89  36 2.90  21 2.92  27 2.93  25 2.93  35 2.95  28 2.95
                            33 3.00
  31  0.004  0.333  0.561-  33 2.89  29 2.89  36 2.90  20 2.92  22 2.93  19 2.93  35 2.95  28 2.95
                            32 3.00
  32  0.662  0.333  0.561-  34 2.89  30 2.89  36 2.90  21 2.92  24 2.93  19 2.93  35 2.95  28 2.95
                            31 3.00
  33  0.004  0.662  0.561-  31 2.89  34 2.89  36 2.90  23 2.92  22 2.93  25 2.93  35 2.95  28 2.95
                            30 3.00
  34  0.333  0.662  0.561-  32 2.89  33 2.89  36 2.90  23 2.92  24 2.93  26 2.93  35 2.95  28 2.95
                            29 3.00
  35  0.667  0.667  0.560-  24 2.91  27 2.91  22 2.91  30 2.95  32 2.95  29 2.95  34 2.95  31 2.95
                            33 2.95
  36  0.333  0.333  0.553-  21 2.81  20 2.81  23 2.81  31 2.90  33 2.90  30 2.90  29 2.90  34 2.90
                            32 2.90

  LATTYP: Found a hexagonal cell.
 ALAT       =     8.7913665772
 C/A-ratio  =     2.5227160501

  Lattice vectors:

 A1 = (  -4.3956832886,  -7.6135467898,   0.0000000000)
 A2 = (   8.7913665771,   0.0000000000,   0.0000000000)
 A3 = (   0.0000000000,   0.0000000000,  22.1781215668)

Analysis of symmetry for initial positions (statically):
 Subroutine PRICEL returns:
 Original cell was already a primitive cell.

 Routine SETGRP: Setting up the symmetry group for a
 hexagonal supercell.

 Subroutine GETGRP returns: Found  6 space group operations
 (whereof  6 operations were pure point group operations)
 out of a pool of 24 trial point group operations.

The static configuration has the point symmetry C_3v.

Analysis of symmetry for dynamics (positions and initial velocities):
 Subroutine PRICEL returns:
 Original cell was already a primitive cell.

[...]

The dynamic configuration has the point symmetry C_3v.

Analysis of constrained symmetry for selective dynamics:
 Subroutine PRICEL returns:
 Original cell was already a primitive cell.

 Routine SETGRP: Setting up the symmetry group for a
 hexagonal supercell.

 Subroutine GETGRP returns: Found  6 space group operations
 (whereof  6 operations were pure point group operations)
 out of a pool of 24 trial point group operations.

The constrained configuration has the point symmetry C_3v.

 Subroutine INISYM returns: Found  6 space group operations
 (whereof  6 operations are pure point group operations),
 and found     1 'primitive' translations

                                     Primitive cell

  volume of cell :    1484.4589

  direct lattice vectors                    reciprocal lattice vectors
     8.791366577  0.000000000  0.000000000     0.113747958 -0.065672414  0.000000000
     4.395683289  7.613546790  0.000000000     0.000000000  0.131344829  0.000000000
[...]
     15      -4.7206      2.00000
     16      -4.7074      2.00000
     17      -4.6941      2.00000
     18      -4.6686      2.00000
     19      -4.6649      2.00000
     20      -4.6618      2.00000
     21      -4.6573      2.00000
     22      -4.6330      2.00000
     23      -4.6181      2.00000
     24      -4.6024      2.00000
     25      -4.5646      2.00000
     26      -4.5468      2.00000
     27      -4.5366      2.00000
     28      -4.5259      2.00000
     29      -4.5220      2.00000
     30      -4.4927      2.00000
     31      -4.4902      2.00000
     32      -4.4604      2.00000
     33      -4.4477      2.00000
     34      -4.3899      2.00000
     35      -4.3758      2.00000
     36      -4.3592      2.00000
     37      -4.3282      2.00000
     38      -4.2966      2.00000
     39      -4.2912      2.00000
     40      -4.2839      2.00000
     41      -4.2644      2.00000
     42      -4.2568      2.00000
     43      -4.1828      2.00000
     44      -4.1518      2.00000
     45      -4.1416      2.00000
     46      -4.1310      2.00000
     47      -4.1261      2.00000
     48      -4.1217      2.00000
     49      -4.1136      2.00000
     50      -4.0999      2.00000
     51      -4.0863      2.00000
     52      -4.0781      2.00000
     53      -4.0082      2.00000
     54      -3.9996      2.00000
     55      -3.9977      2.00000
     56      -3.9910      2.00000
     57      -3.9731      2.00000
     58      -3.9616      2.00000
     59      -3.9227      2.00000
     60      -3.9168      2.00000
[...]
    238       7.2566      0.00000
    239       7.2582      0.00000
    240       7.2623      0.00000
    241       7.2947      0.00000
    242       7.3410      0.00000
    243       7.3859      0.00000
    244       7.4241      0.00000
    245       7.5843      0.00000
    246       7.5971      0.00000
    247       7.6532      0.00000
    248       7.6795      0.00000
    249       7.7529      0.00000
    250       7.9833      0.00000
    251       8.0359      0.00000
    252       8.1738      0.00000

 soft charge-density along one line, spin component           1
         0         1         2         3         4         5         6         7         8         9
 total charge-density along one line

------------------------ aborting loop because EDIFF is reached ----------------------------------------

 total charge

# of ion       s       p       d       tot
    1        0.413   0.204   9.177   9.795
    2        0.418   0.202   9.177   9.798
    3        0.418   0.202   9.177   9.798
    4        0.418   0.202   9.177   9.798
    5        0.416   0.203   9.178   9.796
    6        0.418   0.202   9.177   9.798
    7        0.418   0.202   9.177   9.798
    8        0.418   0.202   9.177   9.798
    9        0.416   0.203   9.177   9.797
   10        0.405   0.271   9.164   9.840
   11        0.407   0.269   9.166   9.843
   12        0.405   0.271   9.164   9.840
   13        0.407   0.269   9.166   9.843
   14        0.407   0.269   9.166   9.843
   15        0.404   0.269   9.166   9.840
   16        0.405   0.271   9.164   9.840
   17        0.404   0.269   9.166   9.840
   18        0.404   0.269   9.166   9.840
   19        0.403   0.268   9.166   9.838
   20        0.407   0.283   9.164   9.854
   21        0.407   0.283   9.164   9.854
   22        0.402   0.271   9.168   9.841
   23        0.407   0.283   9.164   9.854
   24        0.402   0.271   9.168   9.841
   25        0.403   0.268   9.166   9.838
   26        0.403   0.268   9.166   9.838
   27        0.402   0.271   9.168   9.841
   28        0.414   0.197   9.181   9.792
   29        0.410   0.208   9.176   9.794
   30        0.410   0.208   9.176   9.794
   31        0.410   0.208   9.176   9.794
   32        0.410   0.208   9.176   9.794
   33        0.410   0.208   9.176   9.794
   34        0.410   0.208   9.176   9.794
   35        0.412   0.199   9.181   9.792
   36        0.617   0.268   8.177   9.063
tot         14.940   8.633 329.176 352.749

  FORCE on cell =-STRESS in cart. coord.  units (eV):
  Direction    XX          YY          ZZ          XY          YZ          ZX
  Alpha Z   745.43661   745.43661   745.43661
  Ewald  121752.12649121752.12649************     0.00001     0.00000    -0.00001
  Hartree131936.06590131936.06590************     0.00000     0.00000    -0.00000
  E(xc)   -2073.77286 -2073.77284 -2079.54753    -0.00002    -0.00000    -0.00000
  Local  ************************265269.25234     0.00025    -0.00004    -0.00005
  n-local  -332.22166  -310.47810  -326.33745    12.39409    -0.56448     0.71354
  augment  3272.54750  3272.54774  3282.42046    -0.00021    -0.00002    -0.00005
  Kinetic  4910.08769  4915.91860  4941.65925     5.36257     0.82692    -0.13379
  Fock        0.00000     0.00000     0.00000     0.00000     0.00000     0.00000
  Total      -8.61983    -8.61983    -0.72410    -0.00000    -0.00000     0.00000
  in kB      -9.30339    -9.30339    -0.78152    -0.00000    -0.00000     0.00000

 VOLUME and BASIS-vectors are now :
  energy-cutoff  :      500.00
  volume of cell :     1484.46
      direct lattice vectors                 reciprocal lattice vectors
     8.791366577  0.000000000  0.000000000     0.113747958 -0.065672414  0.000000000
     4.395683289  7.613546790  0.000000000     0.000000000  0.131344829  0.000000000
     0.000000000  0.000000000 22.178121567     0.000000000  0.000000000  0.045089481

  length of vectors
     8.791366577  8.791366577 22.178121567     0.131344829  0.131344829  0.045089481

 FORCES acting on ions
    electron-ion (+dipol)            ewald-force                    non-local-force                 convergence-correction
   0.460E-04 -.282E-04 0.250E+04   -.954E-04 0.593E-04 -.250E+04   0.487E-17 0.266E-17 -.198E+01   -.107E-03 -.169E-03 -.202E+00
   0.281E+00 0.220E+00 0.250E+04   -.372E+00 -.259E+00 -.250E+04   0.473E-01 0.854E-02 -.167E+01   0.393E-01 0.279E-01 -.124E+00
   -.281E+00 0.220E+00 0.250E+04   0.372E+00 -.259E+00 -.250E+04   -.473E-01 0.854E-02 -.167E+01   -.399E-01 0.298E-01 -.124E+00
   0.331E+00 0.134E+00 0.250E+04   -.410E+00 -.192E+00 -.250E+04   0.311E-01 0.367E-01 -.167E+01   0.440E-01 0.203E-01 -.124E+00
   -.776E-05 -.199E-04 0.251E+04   0.981E-04 -.197E-05 -.250E+04   -.170E-17 -.489E-18 -.162E+01   0.624E-02 0.381E-02 -.146E+00
   -.331E+00 0.134E+00 0.250E+04   0.410E+00 -.192E+00 -.250E+04   -.311E-01 0.367E-01 -.167E+01   -.454E-01 0.212E-01 -.124E+00
   0.496E-01 -.353E+00 0.250E+04   -.384E-01 0.451E+00 -.250E+04   -.163E-01 -.453E-01 -.167E+01   0.631E-02 -.489E-01 -.124E+00
   -.496E-01 -.353E+00 0.250E+04   0.383E-01 0.451E+00 -.250E+04   0.163E-01 -.453E-01 -.167E+01   -.467E-02 -.499E-01 -.124E+00
   0.365E-04 -.130E-04 0.250E+04   0.792E-04 -.643E-04 -.250E+04   -.294E-17 0.270E-17 -.177E+01   -.667E-02 -.344E-02 -.109E+00
   0.476E+01 0.275E+01 0.836E+03   -.456E+01 -.263E+01 -.835E+03   -.141E+00 -.816E-01 -.672E+00   -.511E-01 -.295E-01 0.270E-01
   -.287E-04 0.227E+01 0.840E+03   0.410E-04 -.221E+01 -.839E+03   -.334E-12 -.509E-01 -.575E+00   0.629E-02 -.151E-01 0.435E-01
   -.476E+01 0.275E+01 0.836E+03   0.456E+01 -.263E+01 -.835E+03   0.141E+00 -.816E-01 -.672E+00   0.495E-01 -.284E-01 0.268E-01
   0.196E+01 -.113E+01 0.840E+03   -.191E+01 0.110E+01 -.839E+03   -.441E-01 0.254E-01 -.575E+00   -.101E-01 0.130E-01 0.435E-01
   -.196E+01 -.113E+01 0.840E+03   0.191E+01 0.110E+01 -.839E+03   0.441E-01 0.254E-01 -.575E+00   0.207E-01 0.122E-01 0.428E-01
   0.159E-04 0.144E+01 0.837E+03   -.108E-03 -.148E+01 -.836E+03   0.661E-13 0.101E-01 -.624E+00   -.166E-02 0.721E-02 0.149E-01
   -.808E-05 -.549E+01 0.836E+03   0.205E-04 0.526E+01 -.835E+03   0.107E-11 0.163E+00 -.672E+00   0.117E-03 0.570E-01 0.268E-01
   0.125E+01 -.722E+00 0.837E+03   -.128E+01 0.739E+00 -.836E+03   0.871E-02 -.503E-02 -.624E+00   0.539E-02 -.505E-02 0.149E-01
   -.125E+01 -.722E+00 0.837E+03   0.128E+01 0.739E+00 -.836E+03   -.871E-02 -.503E-02 -.624E+00   -.539E-02 -.314E-02 0.155E-01
   0.416E-04 0.345E+01 -.864E+03   -.129E-03 -.331E+01 0.864E+03   -.539E-12 -.821E-01 0.492E+00   -.622E-03 -.563E-01 0.872E-01
   0.502E+01 0.290E+01 -.837E+03   -.481E+01 -.277E+01 0.837E+03   -.239E+00 -.138E+00 -.253E+00   0.312E-01 0.180E-01 0.108E+00
   -.502E+01 0.290E+01 -.837E+03   0.481E+01 -.277E+01 0.837E+03   0.239E+00 -.138E+00 -.253E+00   -.312E-01 0.182E-01 0.107E+00
   0.551E+00 -.318E+00 -.854E+03   -.779E+00 0.450E+00 0.853E+03   0.204E+00 -.118E+00 0.576E+00   0.137E-01 -.778E-02 0.979E-01
   -.553E-04 -.580E+01 -.837E+03   0.429E-04 0.555E+01 0.837E+03   0.181E-11 0.276E+00 -.253E+00   0.503E-03 -.354E-01 0.107E+00
   -.551E+00 -.318E+00 -.854E+03   0.779E+00 0.450E+00 0.853E+03   -.204E+00 -.118E+00 0.576E+00   -.136E-01 -.776E-02 0.986E-01
   -.299E+01 -.172E+01 -.864E+03   0.287E+01 0.166E+01 0.864E+03   0.711E-01 0.411E-01 0.492E+00   0.494E-01 0.284E-01 0.873E-01
   0.299E+01 -.172E+01 -.864E+03   -.287E+01 0.166E+01 0.864E+03   -.711E-01 0.411E-01 0.492E+00   -.493E-01 0.275E-01 0.873E-01
   0.195E-04 0.636E+00 -.854E+03   0.110E-03 -.900E+00 0.853E+03   0.155E-11 0.235E+00 0.576E+00   -.559E-03 0.157E-01 0.980E-01
   0.542E-04 -.373E-04 -.252E+04   -.116E-03 0.778E-04 0.251E+04   0.198E-17 0.156E-17 0.201E+01   -.112E-02 -.782E-03 0.221E+00
   0.392E+01 0.696E+01 -.253E+04   -.356E+01 -.639E+01 0.252E+04   -.374E+00 -.523E+00 0.179E+01   0.153E-01 -.456E-01 0.149E+00
   -.392E+01 0.696E+01 -.253E+04   0.356E+01 -.639E+01 0.252E+04   0.374E+00 -.523E+00 0.179E+01   -.565E-02 -.442E-01 0.149E+00
   0.799E+01 -.884E-01 -.253E+04   -.732E+01 0.117E+00 0.252E+04   -.640E+00 -.627E-01 0.179E+01   -.316E-01 0.362E-01 0.149E+00
   -.799E+01 -.883E-01 -.253E+04   0.732E+01 0.117E+00 0.252E+04   0.640E+00 -.627E-01 0.179E+01   0.412E-01 0.371E-01 0.149E+00
   0.407E+01 -.688E+01 -.253E+04   -.376E+01 0.628E+01 0.252E+04   -.265E+00 0.585E+00 0.179E+01   -.406E-01 0.177E-01 0.149E+00
   -.407E+01 -.688E+01 -.253E+04   0.376E+01 0.628E+01 0.252E+04   0.265E+00 0.585E+00 0.179E+01   0.523E-01 0.172E-01 0.149E+00
   0.244E-04 -.122E-04 -.251E+04   0.105E-03 -.659E-04 0.251E+04   -.149E-17 0.654E-18 0.200E+01   -.774E-02 -.404E-02 0.133E+00
   -.420E-05 -.253E-04 -.223E+04   0.953E-04 0.113E-04 0.223E+04   0.113E-17 0.373E-17 0.187E+01   0.179E-02 0.113E-02 0.131E+00
   0.347E-03 -.715E-03 0.675E+00   0.110E-12 0.196E-12 -.123E-10   -.111E-15 0.115E-15 -.193E+01   0.363E-01 0.242E-01 0.131E+01

 POSITION                                       TOTAL-FORCE (eV/Angst)
      0.00000      0.00000      5.28219        -0.000000      0.000000      0.062715
      2.93046      0.00000      5.28219        -0.002924     -0.001645      0.031688
      5.86091      0.00000      5.28219         0.002924     -0.001645      0.031688
      1.46523      2.53785      5.28219        -0.002887     -0.001710      0.031688
      4.39568      2.53785      5.28219         0.000000      0.000000      0.028150
      7.32614      2.53785      5.28219         0.002887     -0.001710      0.031688
      2.93046      5.07570      5.28219         0.000037      0.003355      0.031688
      5.86091      5.07570      5.28219        -0.000037      0.003355      0.031688
      8.79137      5.07570      5.28219        -0.000000     -0.000000      0.039387
      1.46523      0.84595      7.67490         0.008910      0.005144     -0.011301
      4.39568      0.84595      7.67490        -0.000000     -0.009625     -0.071229
      7.32614      0.84595      7.67490        -0.008910      0.005144     -0.011301
      2.93046      3.38380      7.67490        -0.008335      0.004812     -0.071229
      5.86091      3.38380      7.67490         0.008335      0.004812     -0.071229
      8.79137      3.38380      7.67490        -0.000000     -0.016218     -0.028237
      4.39568      5.92165      7.67490        -0.000000     -0.010288     -0.011301
      7.32614      5.92165      7.67490        -0.014045      0.008109     -0.028237
     10.25659      5.92165      7.67490         0.014045      0.008109     -0.028237
      8.79137      1.70009     10.06101        -0.000000     -0.004246      0.006146
      2.92042      1.68610     10.02751         0.007635      0.004408      0.003404
      5.87095      1.68610     10.02751        -0.007635      0.004408      0.003404
     10.25445      4.23098     10.04520        -0.011314      0.006532      0.004692
      4.39568      4.24134     10.02751        -0.000000     -0.008817      0.003404
      7.32828      4.23098     10.04520         0.011314      0.006532      0.004692
     11.71473      6.76350     10.06101         0.003677      0.002123      0.006146
      5.86800      6.76350     10.06101        -0.003677      0.002123      0.006146
      8.79137      6.76512     10.04520        -0.000000     -0.013065      0.004692
      0.00000      0.00000     12.42233        -0.000000      0.000000      0.002360
      2.94927      0.03214     12.43461        -0.001162     -0.000532     -0.006841
      5.84210      0.03214     12.43461         0.001162     -0.000532     -0.006841
      1.50247      2.53807     12.43461        -0.001042     -0.000741     -0.006841
      7.28890      2.53807     12.43461         0.001042     -0.000741     -0.006841
      2.94888      5.04334     12.43461         0.000121      0.001272     -0.006841
      5.84248      5.04334     12.43461        -0.000121      0.001272     -0.006841
      8.79137      5.07570     12.41249        -0.000000      0.000000     -0.002423
      4.39568      2.53785     12.25656        -0.000000     -0.000000      0.010304
    total drift:                                0.036646      0.023485      0.054111

  FREE ENERGIE OF THE ION-ELECTRON SYSTEM (eV)
  free  energy   TOTEN  =       -94.91972683 eV

  energy  without entropy=      -94.91972683  energy(sigma->0) =      -94.91972683

 stress matrix after NEB project (eV)
     -8.61983     -0.00000      0.00000
     -0.00000     -8.61983      0.00000
      0.00000     -0.00000     -0.72410
  FORCES: max atom, RMS     0.013882    0.006284
  FORCE total and by dimension    0.037706    0.013065
  Stress total and by dimension   12.211771    8.619832
|           W    W    AA    RRRRR   N    N  II  N    N   GGGG   !!!           |
|           W    W   A  A   R    R  NN   N  II  NN   N  G    G  !!!           |
|           W    W  A    A  R    R  N N  N  II  N N  N  G       !!!           |
|           W WW W  AAAAAA  RRRRR   N  N N  II  N  N N  G  GGG   !            |
|           WW  WW  A    A  R   R   N   NN  II  N   NN  G    G                |
|           W    W  A    A  R    R  N    N  II  N    N   GGGG   !!!           |
|     Tetrahedron method does not include variations of the Fermi             |
|     occupations, so forces and stress will be inaccurate. We suggest        |
|     using a different smearing scheme ISMEAR = 1 or 2 for metals in         |
|     relaxations.                                                            |

 total charge

# of ion       s       p       d       tot
    1        0.413   0.204   9.177   9.795
    2        0.418   0.202   9.177   9.798
    3        0.418   0.202   9.177   9.798
    4        0.418   0.202   9.177   9.798
    5        0.416   0.203   9.178   9.796
    6        0.418   0.202   9.177   9.798
    7        0.418   0.202   9.177   9.798
    8        0.418   0.202   9.177   9.798
    9        0.416   0.203   9.177   9.797
   10        0.405   0.271   9.164   9.840
   11        0.407   0.269   9.166   9.843
   12        0.405   0.271   9.164   9.840
   13        0.407   0.269   9.166   9.843
   14        0.407   0.269   9.166   9.843
   15        0.404   0.269   9.166   9.840
   16        0.405   0.271   9.164   9.840
   17        0.404   0.269   9.166   9.840
   18        0.404   0.269   9.166   9.840
   19        0.403   0.268   9.166   9.838
   20        0.407   0.283   9.164   9.854
   21        0.407   0.283   9.164   9.854
   22        0.402   0.271   9.168   9.841
   23        0.407   0.283   9.164   9.854
   24        0.402   0.271   9.168   9.841
   25        0.403   0.268   9.166   9.838
   26        0.403   0.268   9.166   9.838
   27        0.402   0.271   9.168   9.841
   28        0.414   0.197   9.181   9.792
   29        0.410   0.208   9.176   9.794
   30        0.410   0.208   9.176   9.794
   31        0.410   0.208   9.176   9.794
   32        0.410   0.208   9.176   9.794
   33        0.410   0.208   9.176   9.794
   34        0.410   0.208   9.176   9.794
   35        0.412   0.199   9.181   9.792
   36        0.617   0.268   8.177   9.063
tot         14.940   8.633 329.176 352.749

 BZINTS: Fermi energy:    0.826369;  395.000000 electrons
         Band energy:-0.125526E+04;  BLOECHL correction:   -0.088148