 vasp.6.2.0 18Jan21 (build Jun 12 2021 23:27:24) complex

 executed on             LinuxIFC date 2022.05.30  18:41:35

 INCAR:
   ISMEAR = -5
   SIGMA = 0.1
   ISPIN = 1
   EDIFF = 1.d-5
   EDIFFG = -0.01
   NSW = 0
   NELM = 150
   ENCUT = 500
   ISIF = 2
   IBRION = 2
   LREAL = Auto
   ALGO = Fast
   ICHARG = 11
   LORBIT = 10
   LCHARG = .F.
   LWAVE = .F.

 POTCAR:    PAW_PBE Cu 22Jun2005
 POTCAR:    PAW_PBE Os 17Jan2003
 POTCAR:    PAW_PBE C 08Apr2002
 POTCAR:    PAW_PBE O 08Apr2002
 POTCAR:    PAW_PBE H 15Jun2001
|           W    W    AA    RRRRR   N    N  II  N    N   GGGG   !!!           |
|           W    W   A  A   R    R  NN   N  II  NN   N  G    G  !!!           |
|           W    W  A    A  R    R  N N  N  II  N N  N  G       !!!           |
|           W WW W  AAAAAA  RRRRR   N  N N  II  N  N N  G  GGG   !            |
|           WW  WW  A    A  R   R   N   NN  II  N   NN  G    G                |
|           W    W  A    A  R    R  N    N  II  N    N   GGGG   !!!           |
|     For optimal performance we recommend to set                             |
|       NCORE = 2 up to number-of-cores-per-socket                            |
|     This setting can greatly improve the performance of VASP for DFT.       |
|     The default, NCORE=1 might be grossly inefficient on modern             |
|     multi-core architectures or massively parallel machines. Do your        |
|     Unfortunately you need to use the default for GW and RPA                |
|     calculations (for HF NCORE is supported but not extensively tested      |
|     yet).                                                                   |

 POTCAR:    PAW_PBE Cu 22Jun2005
   VRHFIN =Cu: d10 p1

   TITEL  = PAW_PBE Cu 22Jun2005
   POMASS =   63.546; ZVAL   =   11.000    mass and valenz
   ENMAX  =  295.446; ENMIN  =  221.585 eV

 POTCAR:    PAW_PBE Os 17Jan2003
   VRHFIN =Os: 6s5d

   TITEL  = PAW_PBE Os 17Jan2003
   POMASS =  190.200; ZVAL   =    8.000    mass and valenz
   ENMAX  =  228.022; ENMIN  =  171.017 eV

 POTCAR:    PAW_PBE C 08Apr2002
   VRHFIN =C: s2p2

   TITEL  = PAW_PBE C 08Apr2002
   POMASS =   12.011; ZVAL   =    4.000    mass and valenz
   ENMAX  =  400.000; ENMIN  =  300.000 eV

 POTCAR:    PAW_PBE O 08Apr2002
   VRHFIN =O: s2p4

   TITEL  = PAW_PBE O 08Apr2002
   POMASS =   16.000; ZVAL   =    6.000    mass and valenz
   ENMAX  =  400.000; ENMIN  =  300.000 eV

 POTCAR:    PAW_PBE H 15Jun2001
   VRHFIN =H: ultrasoft test

   TITEL  = PAW_PBE H 15Jun2001
   POMASS =    1.000; ZVAL   =    1.000    mass and valenz
   ENMAX  =  250.000; ENMIN  =  200.000 eV

 Optimization of the real space projectors (new method)

 maximal supplied QI-value         = 16.25
 optimisation between [QCUT,QGAM] = [ 11.38, 22.75] = [ 36.24,144.96] Ry
 Optimized for a Real-space Cutoff    1.52 Angstroem

   l    n(q)    QCUT    max X(q) W(low)/X(q) W(high)/X(q)  e(spline)
   2      9    11.376     4.610    0.21E-03    0.10E-03    0.26E-06
   2      9    11.376     8.522    0.33E-03    0.16E-03    0.37E-06
   0     10    11.376    51.609    0.62E-04    0.20E-04    0.13E-06
   0     10    11.376    27.747    0.54E-04    0.20E-04    0.13E-06
   1     10    11.376    20.408    0.13E-04    0.99E-04    0.19E-06
   1     10    11.376    13.425    0.12E-04    0.87E-04    0.17E-06
 Optimization of the real space projectors (new method)

[...]

   l    n(q)    QCUT    max X(q) W(low)/X(q) W(high)/X(q)  e(spline)
   0      7    11.387    20.381    0.39E-03    0.13E-02    0.15E-06
   0      7    11.387    15.268    0.42E-03    0.14E-02    0.17E-06
   1      6    11.387     5.964    0.41E-03    0.11E-02    0.17E-06
   1      6    11.387     5.382    0.39E-03    0.87E-03    0.15E-06
 Optimization of the real space projectors (new method)

 maximal supplied QI-value         = 34.20
 optimisation between [QCUT,QGAM] = [ 11.29, 22.57] = [ 35.68,142.71] Ry
 Optimized for a Real-space Cutoff    1.16 Angstroem

   l    n(q)    QCUT    max X(q) W(low)/X(q) W(high)/X(q)  e(spline)
   0      8    11.287    19.460    0.40E-03    0.73E-03    0.16E-06
   0      8    11.287    12.209    0.38E-03    0.70E-03    0.15E-06
   1      7    11.287     4.655    0.22E-03    0.25E-04    0.22E-06
  PAW_PBE Cu 22Jun2005                  :
  PAW_PBE Os 17Jan2003                  :
  PAW_PBE C 08Apr2002                   :
  PAW_PBE O 08Apr2002                   :
  PAW_PBE H 15Jun2001                   :

 POSCAR: Cu-Os-COH
  positions in direct lattice
  velocities in cartesian coordinates
 exchange correlation table for  LEXCH =        8
   RHO(1)=    0.500       N(1)  =     2000
   RHO(2)=  100.500       N(2)  =     4000

 VTST: version 3.2, (02/03/18)

 CHAIN: initializing optimizer

 OPT: Using VASP Conjugate-Gradient optimizer
 CHAIN: Read ICHAIN            0

 POSCAR: Cu-Os-COH
  positions in direct lattice
  velocities in cartesian coordinates

 ion  position               nearest neighbor table
   1  0.000  0.000  0.206-   7 2.57   3 2.57   4 2.57   2 2.57   6 2.57   8 2.57  12 2.57  10 2.57
                            16 2.57
   2  0.333  0.000  0.206-   8 2.57   9 2.57   5 2.57   1 2.57   3 2.57  11 2.57   4 2.57  10 2.57
                            17 2.57
   3  0.667  0.000  0.206-   1 2.57   7 2.57   6 2.57   9 2.57   2 2.57  12 2.57   5 2.57  18 2.57
                            11 2.57
   4  0.000  0.333  0.206-   5 2.57   6 2.57   1 2.57   7 2.57   2 2.57  13 2.57   9 2.57  10 2.57
                            15 2.57
   5  0.333  0.333  0.206-   4 2.57   2 2.57   7 2.57  13 2.57   8 2.57   6 2.57   3 2.57  11 2.57
                            14 2.57
   6  0.667  0.333  0.206-   4 2.57   9 2.57  15 2.57   3 2.57   1 2.57   8 2.57  14 2.57   5 2.57
                            12 2.57
   7  0.000  0.667  0.206-   1 2.57   3 2.57  16 2.57  18 2.57   4 2.57   5 2.57   8 2.57   9 2.57
                            13 2.57
   8  0.333  0.667  0.206-   9 2.57   2 2.57  17 2.57   6 2.57   1 2.57   7 2.57   5 2.57  14 2.57
                            16 2.57
   9  0.667  0.667  0.206-   8 2.57   6 2.57   2 2.57  17 2.57   3 2.57   7 2.57   4 2.57  15 2.57
                            18 2.57
  10  0.111  0.111  0.286-  20 2.53  11 2.57  12 2.57  13 2.57   1 2.57   2 2.57   4 2.57  15 2.57
                            16 2.57  17 2.57  26 2.57  19 2.57
  11  0.444  0.111  0.286-  20 2.54  21 2.54  10 2.57  13 2.57   2 2.57  17 2.57  14 2.57  12 2.57
                             5 2.57   3 2.57  18 2.57  27 2.57
  12  0.778  0.111  0.286-  21 2.53  15 2.57  10 2.57  14 2.57  18 2.57   3 2.57   1 2.57  16 2.57
                            11 2.57   6 2.57  19 2.57  25 2.57
  13  0.111  0.444  0.286-  23 2.54  20 2.54  16 2.57  18 2.57  10 2.57  11 2.57  14 2.57   5 2.57
                             4 2.57   7 2.57  15 2.57  22 2.57
  14  0.444  0.444  0.286-  21 2.54  23 2.54  15 2.57  17 2.57  12 2.57  16 2.57  13 2.57  11 2.57
                             6 2.57   8 2.57   5 2.57  24 2.57
  15  0.778  0.444  0.286-  19 2.56  14 2.57  17 2.57  12 2.57   6 2.57  18 2.57  10 2.57   9 2.57
                            13 2.57   4 2.57  24 2.57  22 2.57
  16  0.111  0.778  0.286-  23 2.53  18 2.57  13 2.57   7 2.57  14 2.57  17 2.57  12 2.57  10 2.57
                             8 2.57   1 2.57  25 2.57  26 2.57
  17  0.444  0.778  0.286-  26 2.56  14 2.57  15 2.57   8 2.57   9 2.57  11 2.57  16 2.57  18 2.57
                            10 2.57   2 2.57  27 2.57  24 2.57
  18  0.778  0.778  0.286-  25 2.56  16 2.57  13 2.57   7 2.57  15 2.57  12 2.57  17 2.57   9 2.57
                             3 2.57  11 2.57  22 2.57  27 2.57
  19  0.888  0.223  0.366-  21 2.55  20 2.55  28 2.55  22 2.56  24 2.56  15 2.56  12 2.57  10 2.57
                            32 2.57  31 2.57  25 2.57  26 2.57
  20  0.221  0.221  0.365-  10 2.53  36 2.53  11 2.54  13 2.54  26 2.55  19 2.55  27 2.57  22 2.57
                            23 2.59  21 2.59  29 2.60  31 2.60
  21  0.558  0.221  0.365-  12 2.53  36 2.53  14 2.54  11 2.54  19 2.55  25 2.55  24 2.57  27 2.57
                            20 2.59  23 2.59  32 2.60  30 2.60
  22  0.888  0.556  0.366-  35 2.55  24 2.55  27 2.55  19 2.56  25 2.56  18 2.57  15 2.57  23 2.57
                            20 2.57  13 2.57  31 2.58  33 2.58
  23  0.221  0.558  0.365-  16 2.53  36 2.53  13 2.54  14 2.54  25 2.55  26 2.55  22 2.57  24 2.57
                            20 2.59  21 2.59  33 2.60  34 2.60
  24  0.556  0.556  0.366-  35 2.55  22 2.55  27 2.55  19 2.56  26 2.56  15 2.57  17 2.57  21 2.57
                            23 2.57  14 2.57  32 2.58  34 2.58
  25  0.888  0.888  0.366-  21 2.55  23 2.55  28 2.55  22 2.56  27 2.56  18 2.56  16 2.57  12 2.57
                            33 2.57  30 2.57  19 2.57  26 2.57
  26  0.223  0.888  0.366-  20 2.55  23 2.55  28 2.55  27 2.56  24 2.56  17 2.56  10 2.57  16 2.57
                            29 2.57  34 2.57  25 2.57  19 2.57
  27  0.556  0.888  0.366-  35 2.55  24 2.55  22 2.55  26 2.56  25 2.56  17 2.57  18 2.57  20 2.57
                            21 2.57  11 2.57  29 2.58  30 2.58
  28  0.000  0.000  0.446-  25 2.55  19 2.55  26 2.55  33 2.56  30 2.56  31 2.56  29 2.56  32 2.56
                            34 2.56
  29  0.333  0.000  0.447-  31 2.56  28 2.56  34 2.57  36 2.57  35 2.57  30 2.57  26 2.57  27 2.58
                            20 2.60
  30  0.667  0.000  0.447-  32 2.56  28 2.56  33 2.57  36 2.57  35 2.57  29 2.57  25 2.57  27 2.58
                            21 2.60
  31  0.000  0.333  0.447-  29 2.56  28 2.56  32 2.57  36 2.57  35 2.57  33 2.57  19 2.57  22 2.58
                            20 2.60
  32  0.667  0.333  0.447-  30 2.56  28 2.56  31 2.57  36 2.57  35 2.57  34 2.57  19 2.57  24 2.58
                            21 2.60
  33  0.000  0.667  0.447-  34 2.56  28 2.56  30 2.57  36 2.57  35 2.57  31 2.57  25 2.57  22 2.58
                            23 2.60
  34  0.333  0.667  0.447-  33 2.56  28 2.56  29 2.57  36 2.57  35 2.57  32 2.57  26 2.57  24 2.58
                            23 2.60
  35  0.667  0.667  0.445-  24 2.55  27 2.55  22 2.55  34 2.57  32 2.57  29 2.57  30 2.57  33 2.57
                            31 2.57
  36  0.333  0.333  0.443-  37 1.79  23 2.53  20 2.53  21 2.53  31 2.57  29 2.57  33 2.57  34 2.57
                            32 2.57  30 2.57
  37  0.333  0.333  0.511-  38 1.26  36 1.79
  38  0.333  0.333  0.560-  39 0.96  37 1.26
  39  0.333  0.333  0.596-  38 0.96

  LATTYP: Found a hexagonal cell.
 ALAT       =     7.6967864036
 C/A-ratio  =     3.3950614187

  Lattice vectors:

 A1 = (  -3.8483927580,  -6.6656128093,   0.0000000000)
 A2 = (   7.6967864037,   0.0000000000,   0.0000000000)
 A3 = (   0.0000000000,   0.0000000000,  26.1310625667)

Analysis of symmetry for initial positions (statically):
 Subroutine PRICEL returns:
 Original cell was already a primitive cell.

 Routine SETGRP: Setting up the symmetry group for a
 hexagonal supercell.

 Subroutine GETGRP returns: Found  6 space group operations
 (whereof  6 operations were pure point group operations)
 out of a pool of 24 trial point group operations.

The static configuration has the point symmetry C_3v.

Analysis of symmetry for dynamics (positions and initial velocities):
[...]
     41      -3.9226      2.00000
     42      -3.8116      2.00000
     43      -3.7783      2.00000
     44      -3.7758      2.00000
     45      -3.7619      2.00000
     46      -3.6970      2.00000
     47      -3.6844      2.00000
     48      -3.6669      2.00000
     49      -3.6517      2.00000
     50      -3.6470      2.00000
     51      -3.4840      2.00000
     52      -3.4650      2.00000
     53      -3.4430      2.00000
     54      -3.4328      2.00000
     55      -3.4179      2.00000
     56      -3.3869      2.00000
     57      -3.3799      2.00000
     58      -3.3683      2.00000
     59      -3.3461      2.00000
     60      -3.3360      2.00000
[...]
    238       5.1872      0.00000
    239       5.4169      0.00000
    240       5.4781      0.00000
    241       5.4963      0.00000
    242       5.5402      0.00000
    243       5.6552      0.00000
    244       5.6816      0.00000
    245       5.8504      0.00000
    246       5.8758      0.00000
    247       5.9244      0.00000
    248       6.0364      0.00000
    249       6.2212      0.00000
    250       6.3346      0.00000
    251       6.6567      0.00000
    252       6.8707      0.00000

 soft charge-density along one line, spin component           1
         0         1         2         3         4         5         6         7         8         9
 total charge-density along one line

------------------------ aborting loop because EDIFF is reached ----------------------------------------

 total charge

# of ion       s       p       d       tot
    1        0.449   0.284   9.189   9.921
    2        0.450   0.286   9.186   9.921
    3        0.450   0.286   9.186   9.921
    4        0.450   0.286   9.186   9.921
    5        0.448   0.288   9.183   9.919
    6        0.450   0.286   9.186   9.921
    7        0.450   0.286   9.186   9.921
    8        0.450   0.286   9.186   9.921
    9        0.446   0.286   9.188   9.919
   10        0.441   0.372   9.176   9.989
   11        0.443   0.368   9.182   9.994
   12        0.441   0.372   9.176   9.989
   13        0.443   0.368   9.182   9.994
   14        0.443   0.368   9.182   9.994
   15        0.436   0.370   9.178   9.983
   16        0.441   0.372   9.176   9.989
   17        0.436   0.370   9.178   9.983
   18        0.436   0.370   9.178   9.983
   19        0.442   0.367   9.180   9.989
   20        0.461   0.402   9.168  10.030
   21        0.461   0.402   9.168  10.030
   22        0.430   0.374   9.179   9.983
   23        0.461   0.402   9.168  10.030
   24        0.430   0.374   9.179   9.983
   25        0.442   0.367   9.180   9.989
   26        0.442   0.367   9.180   9.989
   27        0.430   0.374   9.179   9.983
   28        0.453   0.289   9.191   9.932
   29        0.447   0.317   9.182   9.946
   30        0.447   0.317   9.182   9.946
   31        0.447   0.317   9.182   9.946
   32        0.447   0.317   9.182   9.946
   33        0.447   0.317   9.182   9.946
   34        0.447   0.317   9.182   9.946
   35        0.447   0.291   9.191   9.929
   36        0.694   0.743   6.217   7.653
   37        0.916   1.475   0.000   2.391
   38        1.523   3.767   0.000   5.290
   39        0.561   0.135   0.000   0.696
tot         19.275  17.928 327.552 364.756

  FORCE on cell =-STRESS in cart. coord.  units (eV):
  Direction    XX          YY          ZZ          XY          YZ          ZX
  Alpha Z   755.90915   755.90915   755.90915
  Ewald  270399.14853270399.14810************     0.00040     0.00012     0.00018
  Hartree283400.70537283400.70535************     0.00004     0.00006     0.00006
  E(xc)   -2332.17740 -2332.17702 -2335.08651    -0.00033    -0.00003    -0.00005
  Local  ************************566773.93998     0.01887    -0.00061    -0.00098
  n-local  -813.26729  -799.24606  -817.36792     7.75050     0.00031     0.12853
  augment  3333.66903  3333.68940  3345.04920    -0.01764     0.00036     0.00069
  Kinetic  3468.79109  3473.05921  3415.80638     3.86154     1.76990    -1.50011
  Fock        0.00000     0.00000     0.00000     0.00000     0.00000     0.00000
  Total      -3.81346    -3.81346     0.76657     0.00000    -0.00000    -0.00000
  in kB      -4.55746    -4.55746     0.91612     0.00000    -0.00000    -0.00000

 VOLUME and BASIS-vectors are now :
  energy-cutoff  :      500.00
  volume of cell :     1340.62
      direct lattice vectors                 reciprocal lattice vectors
     7.696786404  0.000000000  0.000000000     0.129924354 -0.075011849  0.000000000
     3.848392758  6.665612809  0.000000000     0.000000000  0.150023716  0.000000000
     0.000000000  0.000000000 26.131062567     0.000000000  0.000000000  0.038268631

  length of vectors
     7.696786404  7.696786404 26.131062567     0.150023716  0.150023716  0.038268631

 FORCES acting on ions
    electron-ion (+dipol)            ewald-force                    non-local-force                 convergence-correction
   -.437E-04 -.106E-05 0.394E+04   0.580E-04 -.436E-05 -.394E+04   -.335E-17 -.451E-17 -.298E+01   -.344E-03 -.219E-03 -.241E+00
   0.226E-01 0.195E+00 0.394E+04   0.125E-01 -.183E+00 -.394E+04   0.110E-01 0.883E-01 -.191E+01   -.376E-01 -.782E-01 -.186E+00
   -.226E-01 0.195E+00 0.394E+04   -.126E-01 -.183E+00 -.394E+04   -.110E-01 0.883E-01 -.191E+01   0.384E-01 -.757E-01 -.185E+00
   0.180E+00 -.777E-01 0.394E+04   -.152E+00 0.102E+00 -.394E+04   0.820E-01 -.346E-01 -.191E+01   -.864E-01 0.652E-02 -.186E+00
   -.697E-04 -.807E-05 0.394E+04   0.116E-03 -.101E-04 -.394E+04   0.476E-17 0.331E-17 -.167E+01   0.122E-01 0.745E-02 -.201E+00
   -.180E+00 -.776E-01 0.394E+04   0.152E+00 0.102E+00 -.394E+04   -.820E-01 -.346E-01 -.191E+01   0.848E-01 0.770E-02 -.185E+00
   0.157E+00 -.117E+00 0.394E+04   -.165E+00 0.805E-01 -.394E+04   0.710E-01 -.537E-01 -.191E+01   -.463E-01 0.711E-01 -.185E+00
   -.157E+00 -.117E+00 0.394E+04   0.164E+00 0.805E-01 -.394E+04   -.710E-01 -.537E-01 -.191E+01   0.497E-01 0.696E-01 -.185E+00
   -.145E-03 -.337E-04 0.394E+04   0.263E-03 0.206E-04 -.394E+04   0.220E-18 0.260E-17 -.255E+01   -.132E-01 -.677E-02 -.182E+00
   0.359E+01 0.207E+01 0.137E+04   -.301E+01 -.174E+01 -.137E+04   -.560E+00 -.323E+00 -.109E+01   -.409E-01 -.239E-01 -.222E+00
   -.901E-04 0.163E+01 0.137E+04   0.190E-03 -.158E+01 -.137E+04   -.754E-08 0.113E+00 -.571E+00   0.121E-01 -.212E+00 -.213E+00
   -.359E+01 0.207E+01 0.137E+04   0.301E+01 -.174E+01 -.137E+04   0.560E+00 -.323E+00 -.109E+01   0.392E-01 -.226E-01 -.222E+00
   0.142E+01 -.817E+00 0.137E+04   -.137E+01 0.789E+00 -.137E+04   0.980E-01 -.566E-01 -.571E+00   -.177E+00 0.117E+00 -.213E+00
   -.141E+01 -.817E+00 0.137E+04   0.137E+01 0.789E+00 -.137E+04   -.980E-01 -.566E-01 -.571E+00   0.201E+00 0.116E+00 -.214E+00
   -.142E-03 -.251E+00 0.137E+04   0.299E-03 0.111E+00 -.137E+04   -.470E-08 0.707E-01 -.941E+00   -.359E-02 0.540E-01 -.250E+00
   -.918E-04 -.414E+01 0.137E+04   0.186E-03 0.347E+01 -.137E+04   -.430E-07 0.646E+00 -.109E+01   -.506E-03 0.437E-01 -.222E+00
   -.218E+00 0.126E+00 0.137E+04   0.966E-01 -.555E-01 -.137E+04   0.612E-01 -.353E-01 -.941E+00   0.454E-01 -.300E-01 -.250E+00
   0.218E+00 0.126E+00 0.137E+04   -.968E-01 -.555E-01 -.137E+04   -.612E-01 -.353E-01 -.941E+00   -.441E-01 -.271E-01 -.248E+00
   -.574E-04 -.218E+00 -.122E+04   0.686E-04 0.282E+00 0.122E+04   0.336E-08 -.504E-01 0.834E+00   -.110E-01 -.314E-01 -.268E+00
   -.225E+02 -.130E+02 -.121E+04   0.235E+02 0.136E+02 0.121E+04   -.103E+01 -.593E+00 -.865E+00   -.166E+00 -.966E-01 -.353E+00
   0.225E+02 -.130E+02 -.121E+04   -.235E+02 0.136E+02 0.121E+04   0.103E+01 -.593E+00 -.865E+00   0.147E+00 -.972E-01 -.354E+00
   -.160E+02 0.925E+01 -.122E+04   0.155E+02 -.897E+01 0.122E+04   0.658E+00 -.380E+00 0.948E+00   -.102E+00 0.600E-01 -.281E+00
   -.915E-04 0.260E+02 -.121E+04   0.144E-03 -.272E+02 0.121E+04   -.789E-07 0.119E+01 -.865E+00   0.288E-04 0.194E+00 -.354E+00
   0.160E+02 0.925E+01 -.122E+04   -.155E+02 -.897E+01 0.122E+04   -.658E+00 -.380E+00 0.948E+00   0.101E+00 0.587E-01 -.281E+00
   0.189E+00 0.109E+00 -.122E+04   -.244E+00 -.141E+00 0.122E+04   0.437E-01 0.252E-01 0.834E+00   0.116E-01 0.575E-02 -.268E+00
   -.189E+00 0.109E+00 -.122E+04   0.244E+00 -.141E+00 0.122E+04   -.437E-01 0.252E-01 0.834E+00   -.329E-01 0.489E-02 -.268E+00
   -.121E-03 -.185E+02 -.122E+04   0.242E-03 0.179E+02 0.122E+04   -.506E-07 0.760E+00 0.948E+00   0.938E-03 -.117E+00 -.281E+00
   -.447E-04 0.120E-04 -.376E+04   0.355E-04 -.338E-04 0.376E+04   0.468E-17 0.272E-17 0.195E+01   -.232E-03 -.450E-03 0.229E+00
   -.440E+01 -.249E+01 -.376E+04   0.446E+01 0.214E+01 0.375E+04   -.133E+00 0.193E+00 0.232E+01   -.709E-01 -.123E+00 0.200E+00
   0.440E+01 -.249E+01 -.376E+04   -.446E+01 0.214E+01 0.375E+04   0.133E+00 0.193E+00 0.232E+01   0.719E-01 -.121E+00 0.199E+00
   -.435E+01 -.256E+01 -.376E+04   0.409E+01 0.279E+01 0.375E+04   0.101E+00 -.212E+00 0.232E+01   -.141E+00 -.271E-03 0.200E+00
   0.435E+01 -.256E+01 -.376E+04   -.409E+01 0.279E+01 0.375E+04   -.101E+00 -.212E+00 0.232E+01   0.141E+00 0.588E-03 0.200E+00
   0.435E-01 0.505E+01 -.376E+04   -.372E+00 -.493E+01 0.375E+04   0.234E+00 0.182E-01 0.232E+01   -.684E-01 0.123E+00 0.199E+00
   -.434E-01 0.505E+01 -.376E+04   0.372E+00 -.493E+01 0.375E+04   -.234E+00 0.182E-01 0.232E+01   0.713E-01 0.122E+00 0.200E+00
   -.159E-03 -.307E-04 -.377E+04   0.256E-03 0.495E-05 0.377E+04   -.254E-17 0.120E-17 0.238E+01   -.128E-01 -.639E-02 0.264E+00
   -.309E-04 -.186E-04 -.252E+04   0.102E-03 0.192E-04 0.252E+04   0.604E-17 -.102E-16 0.176E+01   0.161E-02 0.769E-03 0.891E-01
   -.574E-05 -.747E-04 -.149E+04   0.121E-04 0.551E-05 0.148E+04   -.164E-17 -.938E-18 0.185E+02   0.103E-02 0.623E-03 0.855E-01
   0.230E-03 -.710E-04 -.231E+04   0.267E-05 0.256E-05 0.232E+04   0.862E-19 0.368E-19 -.573E+01   0.335E-02 0.205E-02 0.106E+00
   0.296E-05 -.143E-04 -.416E+03   0.769E-07 0.169E-06 0.424E+03   0.712E-20 -.170E-19 -.860E+01   0.175E-03 0.107E-03 0.161E-01
   -.826E-04 -.191E-03 0.415E+01   -.115E-12 0.631E-13 0.728E-11   -.442E-15 0.431E-15 0.398E+00   -.214E-01 -.369E-02 -.451E+01

 POSITION                                       TOTAL-FORCE (eV/Angst)
      0.00000      0.00000      5.37156         0.000000     -0.000000      0.010985
      2.56560      0.00000      5.37156         0.008968      0.023023      0.080733
      5.13119      0.00000      5.37156        -0.008968      0.023023      0.080733
      1.28280      2.22187      5.37156         0.024423     -0.003745      0.080733
      3.84839      2.22187      5.37156         0.000000     -0.000000      0.083672
      6.41399      2.22187      5.37156        -0.024423     -0.003745      0.080733
      2.56560      4.44374      5.37156         0.015454     -0.019278      0.080733
      5.13119      4.44374      5.37156        -0.015454     -0.019278      0.080733
      7.69679      4.44374      5.37156         0.000000     -0.000000      0.045786
      1.28280      0.74062      7.46636        -0.021004     -0.012127     -0.067492
      3.84839      0.74062      7.46636         0.000000     -0.049522     -0.114951
      6.41399      0.74062      7.46636         0.021004     -0.012127     -0.067492
      2.56560      2.96249      7.46636        -0.042887      0.024761     -0.114951
      5.13119      2.96249      7.46636         0.042887      0.024761     -0.114951
      7.69679      2.96249      7.46636         0.000000     -0.015854      0.006036
      3.84839      5.18437      7.46636        -0.000000      0.024253     -0.067492
      6.41399      5.18437      7.46636        -0.013730      0.007927      0.006036
      8.97958      5.18437      7.46636         0.013730      0.007927      0.006036
      7.69679      1.48657      9.56400         0.000000     -0.011937      0.035034
      2.55408      1.47460      9.52990        -0.137477     -0.079373     -0.381244
      5.14271      1.47460      9.52990         0.137477     -0.079373     -0.381244
      8.97350      3.70663      9.56526         0.069468     -0.040107      0.012935
      3.84839      3.71642      9.52990        -0.000000      0.158745     -0.381244
      6.42007      3.70663      9.56526        -0.069468     -0.040107      0.012935
     10.25777      5.92233      9.56400         0.010338      0.005968      0.035034
      5.13580      5.92233      9.56400        -0.010338      0.005968      0.035034
      7.69679      5.91797      9.56526        -0.000000      0.080214      0.012935
      0.00000      0.00000     11.64184         0.000000     -0.000000     -0.066349
      2.56182      0.00242     11.67254        -0.142316     -0.272807     -0.134532
      5.13496      0.00242     11.67254         0.142316     -0.272807     -0.134532
      1.28301      2.21740     11.67254        -0.307416      0.013154     -0.134532
      6.41378      2.21740     11.67254         0.307416      0.013154     -0.134532
      2.56958      4.44580     11.67254        -0.165099      0.259653     -0.134532
      5.12721      4.44580     11.67254         0.165099      0.259653     -0.134532
      7.69679      4.44374     11.64035         0.000000      0.000000     -0.019456
      3.84839      2.22187     11.57579         0.000000     -0.000000      1.812396
      3.84839      2.22187     13.36292         0.000000     -0.000000      0.011786
      3.84839      2.22187     14.62289         0.000000      0.000000     -0.013675
      3.84839      2.22187     15.58190         0.000000     -0.000000     -0.013307
    total drift:                               -0.021453     -0.003881      0.039502

  FREE ENERGIE OF THE ION-ELECTRON SYSTEM (eV)
  free  energy   TOTEN  =      -150.30829301 eV

  energy  without entropy=     -150.30829301  energy(sigma->0) =     -150.30829301

 stress matrix after NEB project (eV)
     -3.81346      0.00000     -0.00000
      0.00000     -3.81346     -0.00000
      0.00000     -0.00000      0.76657
  FORCES: max atom, RMS     0.013675    0.003591
  FORCE total and by dimension    0.022427    0.013675
  Stress total and by dimension    5.447249    3.813456
|           W    W    AA    RRRRR   N    N  II  N    N   GGGG   !!!           |
|           W    W   A  A   R    R  NN   N  II  NN   N  G    G  !!!           |
|           W    W  A    A  R    R  N N  N  II  N N  N  G       !!!           |
|           W WW W  AAAAAA  RRRRR   N  N N  II  N  N N  G  GGG   !            |
|           WW  WW  A    A  R   R   N   NN  II  N   NN  G    G                |
|           W    W  A    A  R    R  N    N  II  N    N   GGGG   !!!           |
|     Tetrahedron method does not include variations of the Fermi             |
|     occupations, so forces and stress will be inaccurate. We suggest        |
|     using a different smearing scheme ISMEAR = 1 or 2 for metals in         |
|     relaxations.                                                            |

 total charge

# of ion       s       p       d       tot
    1        0.449   0.284   9.189   9.921
    2        0.450   0.286   9.186   9.921
    3        0.450   0.286   9.186   9.921
    4        0.450   0.286   9.186   9.921
    5        0.448   0.288   9.183   9.919
    6        0.450   0.286   9.186   9.921
    7        0.450   0.286   9.186   9.921
    8        0.450   0.286   9.186   9.921
    9        0.446   0.286   9.188   9.919
   10        0.441   0.372   9.176   9.989
   11        0.443   0.368   9.182   9.994
   12        0.441   0.372   9.176   9.989
   13        0.443   0.368   9.182   9.994
   14        0.443   0.368   9.182   9.994
   15        0.436   0.370   9.178   9.983
   16        0.441   0.372   9.176   9.989
   17        0.436   0.370   9.178   9.983
   18        0.436   0.370   9.178   9.983
   19        0.442   0.367   9.180   9.989
   20        0.461   0.402   9.168  10.030
   21        0.461   0.402   9.168  10.030
   22        0.430   0.374   9.179   9.983
   23        0.461   0.402   9.168  10.030
   24        0.430   0.374   9.179   9.983
   25        0.442   0.367   9.180   9.989
   26        0.442   0.367   9.180   9.989
   27        0.430   0.374   9.179   9.983
   28        0.453   0.289   9.191   9.932
   29        0.447   0.317   9.182   9.946
   30        0.447   0.317   9.182   9.946
   31        0.447   0.317   9.182   9.946
   32        0.447   0.317   9.182   9.946
   33        0.447   0.317   9.182   9.946
   34        0.447   0.317   9.182   9.946
   35        0.447   0.291   9.191   9.929
   36        0.694   0.743   6.217   7.653
   37        0.916   1.475   0.000   2.391
   38        1.523   3.767   0.000   5.290
   39        0.561   0.135   0.000   0.696
tot         19.275  17.928 327.552 364.756

 BZINTS: Fermi energy:    0.002810;  404.000000 electrons
         Band energy:-0.123411E+04;  BLOECHL correction:   -0.054536