 vasp.6.2.0 18Jan21 (build Jun 12 2021 23:27:24) complex

 executed on             LinuxIFC date 2022.05.28  00:37:34

 INCAR:
   ISMEAR = -5
   SIGMA = 0.1
   ISPIN = 1
   EDIFF = 1.d-5
   EDIFFG = -0.01
   NSW = 0
   NELM = 150
   ENCUT = 500
   ISIF = 2
   IBRION = 2
   LREAL = Auto
   ALGO = Fast
   ICHARG = 11
   LORBIT = 10
   LCHARG = .F.
   LWAVE = .F.

 POTCAR:    PAW_PBE Au 04Oct2007
 POTCAR:    PAW_PBE V 08Apr2002
 POTCAR:    PAW_PBE C 08Apr2002
 POTCAR:    PAW_PBE O 08Apr2002
|           W    W    AA    RRRRR   N    N  II  N    N   GGGG   !!!           |
|           W    W   A  A   R    R  NN   N  II  NN   N  G    G  !!!           |
|           W    W  A    A  R    R  N N  N  II  N N  N  G       !!!           |
|           W WW W  AAAAAA  RRRRR   N  N N  II  N  N N  G  GGG   !            |
|           WW  WW  A    A  R   R   N   NN  II  N   NN  G    G                |
|           W    W  A    A  R    R  N    N  II  N    N   GGGG   !!!           |
|     For optimal performance we recommend to set                             |
|       NCORE = 2 up to number-of-cores-per-socket                            |
|     This setting can greatly improve the performance of VASP for DFT.       |
|     The default, NCORE=1 might be grossly inefficient on modern             |
|     multi-core architectures or massively parallel machines. Do your        |
|     Unfortunately you need to use the default for GW and RPA                |
|     calculations (for HF NCORE is supported but not extensively tested      |
|     yet).                                                                   |

 POTCAR:    PAW_PBE Au 04Oct2007
   VRHFIN =Au: s1d10

   TITEL  = PAW_PBE Au 04Oct2007
   POMASS =  196.966; ZVAL   =   11.000    mass and valenz
   ENMAX  =  229.943; ENMIN  =  172.457 eV

 POTCAR:    PAW_PBE V 08Apr2002
   VRHFIN =V: p6 d4 s1

   TITEL  = PAW_PBE V 08Apr2002
   POMASS =   50.941; ZVAL   =    5.000    mass and valenz
   ENMAX  =  192.543; ENMIN  =  144.408 eV

 POTCAR:    PAW_PBE C 08Apr2002
   VRHFIN =C: s2p2

[...]

 POTCAR:    PAW_PBE O 08Apr2002
   VRHFIN =O: s2p4

   TITEL  = PAW_PBE O 08Apr2002
   POMASS =   16.000; ZVAL   =    6.000    mass and valenz
   ENMAX  =  400.000; ENMIN  =  300.000 eV

 Optimization of the real space projectors (new method)

 maximal supplied QI-value         = 15.12
 optimisation between [QCUT,QGAM] = [ 11.34, 22.83] = [ 36.00,145.93] Ry
 Optimized for a Real-space Cutoff    1.39 Angstroem

   l    n(q)    QCUT    max X(q) W(low)/X(q) W(high)/X(q)  e(spline)
   2      9    11.338    60.898    0.39E-03    0.42E-03    0.21E-06
   2      9    11.338    58.894    0.40E-03    0.42E-03    0.22E-06
   0      9    11.338   109.617    0.13E-03    0.20E-04    0.13E-06
   0      9    11.338    75.026    0.13E-03    0.20E-04    0.13E-06
   1      9    11.338    16.344    0.33E-04    0.24E-03    0.18E-06
   1      9    11.338    10.160    0.26E-04    0.19E-03    0.15E-06
 Optimization of the real space projectors (new method)

[...]

   l    n(q)    QCUT    max X(q) W(low)/X(q) W(high)/X(q)  e(spline)
   0      7    11.310   115.676    0.43E-03    0.13E-02    0.19E-06
   0      7    11.310    87.132    0.43E-03    0.13E-02    0.18E-06
   1      6    11.310     4.429    0.42E-03    0.74E-03    0.11E-06
   1      6    11.310     2.733    0.34E-03    0.55E-03    0.92E-07
 Optimization of the real space projectors (new method)

 maximal supplied QI-value         = 24.76
 optimisation between [QCUT,QGAM] = [ 11.39, 22.77] = [ 36.31,145.25] Ry
 Optimized for a Real-space Cutoff    1.00 Angstroem

   l    n(q)    QCUT    max X(q) W(low)/X(q) W(high)/X(q)  e(spline)
   0      7    11.387    20.381    0.39E-03    0.13E-02    0.15E-06
   0      7    11.387    15.268    0.42E-03    0.14E-02    0.17E-06
   1      6    11.387     5.964    0.41E-03    0.11E-02    0.17E-06
   1      6    11.387     5.382    0.39E-03    0.87E-03    0.15E-06
  PAW_PBE Au 04Oct2007                  :
  PAW_PBE V 08Apr2002                   :
  PAW_PBE C 08Apr2002                   :
  PAW_PBE O 08Apr2002                   :

 POSCAR: Au-V-CO2
  positions in direct lattice
  velocities in cartesian coordinates
 exchange correlation table for  LEXCH =        8
   RHO(1)=    0.500       N(1)  =     2000
   RHO(2)=  100.500       N(2)  =     4000

 VTST: version 3.2, (02/03/18)

 CHAIN: initializing optimizer

 OPT: Using VASP Conjugate-Gradient optimizer
 CHAIN: Read ICHAIN            0

 POSCAR: Au-V-CO2
  positions in direct lattice
  velocities in cartesian coordinates

 ion  position               nearest neighbor table
   1  0.000  0.000  0.217-  16 2.94  12 2.94   6 2.94   8 2.94   7 2.94   3 2.94  10 2.94   4 2.94
                             2 2.94
   2  0.333  0.000  0.217-   9 2.94  11 2.94  17 2.94  10 2.94   8 2.94   4 2.94   5 2.94   1 2.94
                             3 2.94
   3  0.667  0.000  0.217-   7 2.94  18 2.94  12 2.94   1 2.94  11 2.94   5 2.94   6 2.94   9 2.94
                             2 2.94
   4  0.000  0.333  0.217-  10 2.94   6 2.94   5 2.94  13 2.94   2 2.94  15 2.94   9 2.94   1 2.94
                             7 2.94
   5  0.333  0.333  0.217-  13 2.94   7 2.94  11 2.94   4 2.94   2 2.94  14 2.94   3 2.94   8 2.94
                             6 2.94
   6  0.667  0.333  0.217-  15 2.94  14 2.94   1 2.94  12 2.94   4 2.94   9 2.94   8 2.94   3 2.94
                             5 2.94
   7  0.000  0.667  0.217-  18 2.94   3 2.94  16 2.94   5 2.94   1 2.94  13 2.94   8 2.94   4 2.94
                             9 2.94
   8  0.333  0.667  0.217-   9 2.94  17 2.94   1 2.94   2 2.94  14 2.94  16 2.94   6 2.94   7 2.94
                             5 2.94
   9  0.667  0.667  0.217-   2 2.94   8 2.94  17 2.94   6 2.94  15 2.94   4 2.94   3 2.94  18 2.94
                             7 2.94
  10  0.111  0.111  0.315-  20 2.93  26 2.94  19 2.94  11 2.94  17 2.94   2 2.94   4 2.94   1 2.94
                            12 2.94  16 2.94  13 2.94  15 2.94
  11  0.444  0.111  0.315-  20 2.92  21 2.92  27 2.94  13 2.94   2 2.94  10 2.94  17 2.94   5 2.94
                             3 2.94  18 2.94  14 2.94  12 2.94
  12  0.778  0.111  0.315-  21 2.93  25 2.94  19 2.94  16 2.94  18 2.94   1 2.94  14 2.94  15 2.94
                             3 2.94   6 2.94  10 2.94  11 2.94
  13  0.111  0.444  0.315-  23 2.92  20 2.92  22 2.94   5 2.94  18 2.94  11 2.94   7 2.94   4 2.94
                            16 2.94  10 2.94  14 2.94  15 2.94
  14  0.444  0.444  0.315-  21 2.92  23 2.92  24 2.94  15 2.94   6 2.94  12 2.94   8 2.94  17 2.94
                             5 2.94  16 2.94  13 2.94  11 2.94
  15  0.778  0.444  0.315-  24 2.92  22 2.92  19 2.93  14 2.94   6 2.94  17 2.94  12 2.94   9 2.94
                             4 2.94  10 2.94  13 2.94  18 2.94
  16  0.111  0.778  0.315-  23 2.93  25 2.94  26 2.94  18 2.94  12 2.94   7 2.94   1 2.94   8 2.94
                            13 2.94  10 2.94  14 2.94  17 2.94
  17  0.444  0.778  0.315-  27 2.92  24 2.92  26 2.93   9 2.94  15 2.94   2 2.94  10 2.94  11 2.94
                             8 2.94  14 2.94  16 2.94  18 2.94
  18  0.778  0.778  0.315-  22 2.92  27 2.92  25 2.93  16 2.94   7 2.94  13 2.94  12 2.94   3 2.94
                            11 2.94   9 2.94  15 2.94  17 2.94
  19  0.889  0.222  0.413-  15 2.93  10 2.94  12 2.94  24 2.94  22 2.94  28 2.94  26 2.94  25 2.94
                            21 2.95  20 2.95  32 3.03  31 3.03
  20  0.223  0.223  0.413-  36 2.72  23 2.92  21 2.92  11 2.92  13 2.92  10 2.93  29 2.95  31 2.95
                            26 2.95  19 2.95  27 2.95  22 2.95
  21  0.554  0.223  0.413-  36 2.72  20 2.92  23 2.92  14 2.92  11 2.92  12 2.93  30 2.95  32 2.95
                            25 2.95  19 2.95  27 2.95  24 2.95
  22  0.887  0.557  0.413-  24 2.91  27 2.91  18 2.92  15 2.92  25 2.94  19 2.94  13 2.94  23 2.95
                            20 2.95  35 2.96  33 2.99  31 2.99
  23  0.223  0.554  0.413-  36 2.72  20 2.92  21 2.92  13 2.92  14 2.92  16 2.93  33 2.95  34 2.95
                            25 2.95  26 2.95  22 2.95  24 2.95
  24  0.557  0.557  0.413-  27 2.91  22 2.91  15 2.92  17 2.92  26 2.94  19 2.94  14 2.94  21 2.95
                            23 2.95  35 2.96  32 2.99  34 2.99
  25  0.889  0.889  0.413-  18 2.93  16 2.94  12 2.94  22 2.94  27 2.94  28 2.94  19 2.94  26 2.94
                            23 2.95  21 2.95  33 3.03  30 3.03
  26  0.222  0.889  0.413-  17 2.93  10 2.94  16 2.94  27 2.94  24 2.94  28 2.94  19 2.94  25 2.94
                            20 2.95  23 2.95  29 3.03  34 3.03
  27  0.557  0.887  0.413-  24 2.91  22 2.91  17 2.92  18 2.92  26 2.94  25 2.94  11 2.94  20 2.95
                            21 2.95  35 2.96  29 2.99  30 2.99
  28  0.000  0.000  0.512-  25 2.94  19 2.94  26 2.94  34 2.99  32 2.99  33 2.99  30 2.99  31 2.99
                            29 2.99
  29  0.334  0.011  0.514-  30 2.83  31 2.85  36 2.86  20 2.95  35 2.98  27 2.99  28 2.99  26 3.03
                            34 3.13
  30  0.655  0.011  0.514-  29 2.83  32 2.85  36 2.86  21 2.95  35 2.98  27 2.99  28 2.99  25 3.03
                            33 3.13
  31  0.011  0.334  0.514-  33 2.83  29 2.85  36 2.86  20 2.95  35 2.98  22 2.99  28 2.99  19 3.03
                            32 3.13
  32  0.655  0.334  0.514-  34 2.83  30 2.85  36 2.86  21 2.95  35 2.98  24 2.99  28 2.99  19 3.03
                            31 3.13
  33  0.011  0.655  0.514-  31 2.83  34 2.85  36 2.86  23 2.95  35 2.98  22 2.99  28 2.99  25 3.03
                            30 3.13
  34  0.334  0.655  0.514-  32 2.83  33 2.85  36 2.86  23 2.95  35 2.98  24 2.99  28 2.99  26 3.03
                            29 3.13
  35  0.667  0.667  0.513-  24 2.96  27 2.96  22 2.96  29 2.98  34 2.98  32 2.98  31 2.98  30 2.98
                            33 2.98
  36  0.333  0.333  0.501-  20 2.72  23 2.72  21 2.72  33 2.86  31 2.86  29 2.86  30 2.86  34 2.86
                            32 2.86
  37  0.338  0.333  0.672-  38 1.18  39 1.18
  38  0.205  0.333  0.674-  37 1.18
  39  0.472  0.333  0.669-  37 1.18

  LATTYP: Found a hexagonal cell.
 ALAT       =     8.8135128021
 C/A-ratio  =     2.7649717827

  Lattice vectors:

 A1 = (  -4.4067569092,  -7.6327256898,   0.0000000000)
 A2 = (   8.8135128021,   0.0000000000,   0.0000000000)
 A3 = (   0.0000000000,   0.0000000000,  24.3691142040)

Analysis of symmetry for initial positions (statically):
 Subroutine PRICEL returns:
 Original cell was already a primitive cell.

 Routine SETGRP: Setting up the symmetry group for a
 hexagonal supercell.

 Subroutine GETGRP returns: Found  1 space group operations
 (whereof  1 operations were pure point group operations)
 out of a pool of 24 trial point group operations.

The static configuration has the point symmetry C_1 .

Analysis of symmetry for dynamics (positions and initial velocities):
 Subroutine PRICEL returns:
 Original cell was already a primitive cell.

[...]

The dynamic configuration has the point symmetry C_1 .

Analysis of constrained symmetry for selective dynamics:
 Subroutine PRICEL returns:
 Original cell was already a primitive cell.

 Routine SETGRP: Setting up the symmetry group for a
 hexagonal supercell.

[...]
     41      -5.0124      2.00000
     42      -4.9863      2.00000
     43      -4.9180      2.00000
     44      -4.9011      2.00000
     45      -4.8452      2.00000
     46      -4.7803      2.00000
     47      -4.7528      2.00000
     48      -4.7066      2.00000
     49      -4.6855      2.00000
     50      -4.6757      2.00000
     51      -4.6525      2.00000
     52      -4.5549      2.00000
     53      -4.5527      2.00000
     54      -4.5169      2.00000
     55      -4.4862      2.00000
     56      -4.4837      2.00000
     57      -4.4797      2.00000
     58      -4.4517      2.00000
     59      -4.4357      2.00000
     60      -4.3874      2.00000
[...]
    238       5.0374      0.00000
    239       5.2833      0.00000
    240       5.3137      0.00000
    241       5.5256      0.00000
    242       5.7040      0.00000
    243       5.7796      0.00000
    244       5.8909      0.00000
    245       6.0410      0.00000
    246       6.0593      0.00000
    247       6.0917      0.00000
    248       6.1683      0.00000
    249       6.3743      0.00000
    250       6.3942      0.00000
    251       6.4359      0.00000
    252       6.5644      0.00000

 soft charge-density along one line, spin component           1
         0         1         2         3         4         5         6         7         8         9
 total charge-density along one line

------------------------ aborting loop because EDIFF is reached ----------------------------------------

 total charge

# of ion       s       p       d       tot
    1        0.548   0.238   8.766   9.551
    2        0.542   0.241   8.765   9.548
    3        0.542   0.241   8.765   9.548
    4        0.542   0.241   8.765   9.548
    5        0.545   0.241   8.762   9.548
    6        0.542   0.241   8.765   9.548
    7        0.542   0.241   8.765   9.548
    8        0.542   0.241   8.765   9.548
    9        0.544   0.239   8.767   9.550
   10        0.526   0.307   8.767   9.600
   11        0.519   0.306   8.780   9.606
   12        0.526   0.307   8.767   9.600
   13        0.520   0.306   8.780   9.606
   14        0.520   0.306   8.780   9.606
   15        0.517   0.308   8.775   9.599
   16        0.526   0.307   8.767   9.600
   17        0.517   0.308   8.775   9.600
   18        0.517   0.308   8.775   9.600
   19        0.517   0.298   8.772   9.587
   20        0.562   0.335   8.733   9.630
   21        0.562   0.335   8.733   9.630
   22        0.509   0.306   8.777   9.593
   23        0.562   0.335   8.733   9.630
   24        0.509   0.306   8.777   9.593
   25        0.518   0.298   8.771   9.587
   26        0.518   0.298   8.771   9.587
   27        0.509   0.306   8.778   9.593
   28        0.539   0.227   8.755   9.521
   29        0.578   0.242   8.736   9.557
   30        0.578   0.242   8.736   9.557
   31        0.577   0.241   8.737   9.555
   32        0.577   0.241   8.737   9.555
   33        0.578   0.242   8.736   9.557
   34        0.578   0.242   8.736   9.557
   35        0.538   0.225   8.758   9.522
   36        0.391   0.391   3.191   3.973
   37        0.933   1.801   0.000   2.734
   38        1.607   3.528   0.000   5.136
   39        1.607   3.528   0.000   5.135
tot         23.426  18.899 309.816 352.141

  FORCE on cell =-STRESS in cart. coord.  units (eV):
  Direction    XX          YY          ZZ          XY          YZ          ZX
  Alpha Z   949.78434   949.78434   949.78434
  Ewald  142332.72127141547.25339************     0.14875    -0.53792   -47.99905
  Hartree150724.12371150356.70335************     0.11959    -0.50122   -23.45765
  E(xc)   -1821.17709 -1823.28457 -1830.94724    -0.00046    -0.00219    -0.12068
  Local  ************************304098.54773    -0.26430     1.02340    67.34863
  n-local  -104.19573   -98.24078   -71.66782     0.00103     0.01619     0.34203
  augment  2393.63786  2396.35865  2416.71887     0.00003     0.00505     0.15051
  Kinetic  5650.45660  5715.66021  5778.13189     0.00009     0.00840     3.72779
  Fock        0.00000     0.00000     0.00000     0.00000     0.00000     0.00000
  Total     -24.05323   -24.05600     1.17579     0.00473     0.01171    -0.00844
  in kB     -23.50799   -23.51070     1.14914     0.00462     0.01144    -0.00824

 VOLUME and BASIS-vectors are now :
  energy-cutoff  :      500.00
  volume of cell :     1639.34
      direct lattice vectors                 reciprocal lattice vectors
     8.813512802  0.000000000  0.000000000     0.113462137 -0.065507406  0.000000000
     4.406756909  7.632725690  0.000000000     0.000000000  0.131014796  0.000000000
     0.000000000  0.000000000 24.369114204     0.000000000  0.000000000  0.041035550

  length of vectors
     8.813512802  8.813512802 24.369114204     0.131014796  0.131014796  0.041035550

 FORCES acting on ions
    electron-ion (+dipol)            ewald-force                    non-local-force                 convergence-correction
   -.679E-03 0.171E-01 0.264E+04   0.242E-02 -.130E-01 -.264E+04   0.115E-03 -.122E-02 -.698E+00   -.183E-02 -.313E-02 -.772E-01
   0.199E+00 -.320E+00 0.264E+04   -.233E+00 0.190E+00 -.264E+04   0.430E-01 0.111E+00 -.326E+00   -.165E-01 0.105E-01 -.957E-01
   -.198E+00 -.327E+00 0.264E+04   0.230E+00 0.186E+00 -.264E+04   -.434E-01 0.111E+00 -.328E+00   0.183E-01 0.214E-01 -.924E-01
   -.191E+00 0.339E+00 0.264E+04   0.604E-01 -.301E+00 -.264E+04   0.119E+00 -.184E-01 -.331E+00   0.148E-02 -.216E-01 -.942E-01
   -.104E-01 -.514E-02 0.264E+04   -.468E-02 0.117E-04 -.264E+04   0.199E-03 -.511E-03 0.113E-01   0.149E-01 0.618E-02 0.634E-02
   0.197E+00 0.334E+00 0.264E+04   -.557E-01 -.301E+00 -.264E+04   -.119E+00 -.181E-01 -.333E+00   -.115E-01 -.169E-01 -.895E-01
   -.397E+00 -.170E-01 0.264E+04   0.288E+00 0.111E+00 -.264E+04   0.755E-01 -.920E-01 -.325E+00   0.289E-01 0.824E-02 -.895E-01
   0.390E+00 -.141E-01 0.264E+04   -.291E+00 0.115E+00 -.264E+04   -.755E-01 -.918E-01 -.327E+00   -.196E-01 0.118E-02 -.886E-01
   0.120E-01 -.853E-02 0.264E+04   0.254E-02 0.130E-01 -.264E+04   -.357E-03 0.117E-02 -.405E+00   -.142E-01 -.545E-02 -.466E-01
   0.106E+01 0.698E+00 0.900E+03   -.623E+00 -.447E+00 -.899E+03   -.308E+00 -.176E+00 -.693E+00   -.101E+00 -.603E-01 0.260E-01
   0.137E-01 -.108E+00 0.900E+03   -.269E-01 0.151E+00 -.900E+03   0.527E-03 -.156E-02 -.170E+00   0.128E-01 -.795E-01 0.737E-01
   -.108E+01 0.714E+00 0.900E+03   0.650E+00 -.470E+00 -.899E+03   0.308E+00 -.176E+00 -.695E+00   0.930E-01 -.531E-01 0.249E-01
   -.165E+00 0.335E-01 0.900E+03   0.195E+00 -.674E-01 -.900E+03   -.362E-02 0.200E-02 -.174E+00   -.605E-01 0.512E-01 0.742E-01
   0.178E+00 0.257E-01 0.900E+03   -.228E+00 -.550E-01 -.900E+03   0.331E-02 0.160E-02 -.175E+00   0.813E-01 0.470E-01 0.702E-01
   -.207E-01 0.346E+01 0.904E+03   0.331E-01 -.358E+01 -.903E+03   -.483E-03 0.137E-01 -.578E+00   -.120E-01 0.548E-01 0.542E-01
   0.467E-02 -.125E+01 0.900E+03   -.598E-02 0.765E+00 -.899E+03   0.173E-03 0.353E+00 -.691E+00   0.115E-02 0.107E+00 0.239E-01
   0.305E+01 -.180E+01 0.904E+03   -.315E+01 0.187E+01 -.903E+03   0.123E-01 -.863E-02 -.571E+00   0.417E-01 -.354E-01 0.532E-01
   -.305E+01 -.178E+01 0.904E+03   0.316E+01 0.184E+01 -.903E+03   -.124E-01 -.801E-02 -.571E+00   -.428E-01 -.240E-01 0.560E-01
   -.227E+00 -.321E+01 -.851E+03   0.233E+00 0.322E+01 0.850E+03   -.169E-02 0.691E-02 0.585E+00   -.405E-02 -.837E-02 0.504E+00
   -.961E+01 -.522E+01 -.855E+03   0.105E+02 0.574E+01 0.855E+03   -.103E+01 -.592E+00 -.102E+01   0.105E+00 0.603E-01 0.765E+00
   0.984E+01 -.512E+01 -.854E+03   -.108E+02 0.564E+01 0.854E+03   0.103E+01 -.592E+00 -.101E+01   -.100E+00 0.624E-01 0.761E+00
   -.125E+02 0.661E+01 -.843E+03   0.122E+02 -.643E+01 0.842E+03   0.322E+00 -.190E+00 0.567E+00   -.493E-03 0.599E-03 0.494E+00
   0.192E+00 0.105E+02 -.855E+03   -.195E+00 -.116E+02 0.855E+03   0.203E-03 0.118E+01 -.102E+01   0.323E-02 -.118E+00 0.761E+00
   0.123E+02 0.644E+01 -.842E+03   -.120E+02 -.626E+01 0.841E+03   -.322E+00 -.191E+00 0.570E+00   -.284E-02 -.115E-02 0.493E+00
   0.310E+01 0.216E+01 -.852E+03   -.312E+01 -.217E+01 0.851E+03   -.130E-02 0.141E-02 0.568E+00   0.106E-01 0.522E-02 0.502E+00
   -.314E+01 0.193E+01 -.852E+03   0.316E+01 -.193E+01 0.851E+03   0.117E-02 0.290E-03 0.567E+00   -.914E-02 0.534E-03 0.504E+00
   0.431E-01 -.141E+02 -.843E+03   -.421E-01 0.138E+02 0.842E+03   0.339E-03 0.370E+00 0.562E+00   -.134E-02 -.715E-03 0.493E+00
   -.689E+00 0.371E+01 -.249E+04   0.688E+00 -.371E+01 0.249E+04   0.454E-03 -.231E-02 0.545E+00   0.165E-03 -.398E-03 0.303E+00
   0.278E+01 -.117E-01 -.250E+04   -.181E+01 0.147E+01 0.250E+04   -.111E+01 -.172E+01 -.262E+00   0.164E+00 0.277E+00 0.236E+00
   -.196E+01 0.166E+01 -.249E+04   0.993E+00 -.214E+00 0.249E+04   0.111E+01 -.172E+01 -.255E+00   -.163E+00 0.283E+00 0.235E+00
   -.107E+01 0.445E+01 -.249E+04   0.281E+01 -.435E+01 0.249E+04   -.204E+01 -.102E+00 -.175E+00   0.320E+00 0.211E-02 0.234E+00
   -.110E+01 0.444E+01 -.249E+04   -.628E+00 -.434E+01 0.249E+04   0.203E+01 -.102E+00 -.150E+00   -.322E+00 0.549E-02 0.233E+00
   -.497E+01 -.447E+01 -.250E+04   0.576E+01 0.291E+01 0.250E+04   -.936E+00 0.182E+01 -.264E+00   0.162E+00 -.280E+00 0.234E+00
   0.578E+01 -.616E+01 -.249E+04   -.657E+01 0.460E+01 0.249E+04   0.936E+00 0.182E+01 -.257E+00   -.155E+00 -.281E+00 0.233E+00
   -.690E+00 -.378E+01 -.251E+04   0.701E+00 0.378E+01 0.250E+04   0.388E-03 0.229E-02 0.643E+00   -.118E-01 -.593E-02 0.319E+00
   0.792E+00 0.140E-02 -.107E+04   -.797E+00 0.133E-02 0.106E+04   0.451E-02 0.249E-02 0.229E+01   0.190E-02 0.378E-03 0.207E+00
   -.768E-01 -.130E+00 -.794E+03   0.866E-01 0.128E+00 0.794E+03   -.767E-02 -.385E-02 -.953E-01   -.994E-03 0.129E-02 -.720E-01
   0.260E+03 0.126E+00 -.119E+04   -.324E+03 -.147E+00 0.120E+04   0.638E+02 0.240E-01 -.346E+01   0.142E-01 0.220E-02 -.979E-01
   -.259E+03 0.125E+00 -.119E+04   0.323E+03 -.141E+00 0.119E+04   -.638E+02 0.135E-01 0.386E+01   -.179E-01 0.306E-02 -.107E+00
   -.600E-01 -.468E-01 -.265E+01   -.568E-13 -.422E-13 0.227E-11   0.507E-01 0.351E-01 -.459E+01   0.435E-02 0.143E-01 0.702E+01

 POSITION                                       TOTAL-FORCE (eV/Angst)
      0.00000      0.00000      5.28038         0.000161     -0.000262     -0.146985
      2.93784      0.00000      5.28038        -0.006907     -0.008901     -0.055127
      5.87568      0.00000      5.28038         0.007079     -0.008999     -0.055050
      1.46892      2.54424      5.28038        -0.010456     -0.001679     -0.056056
      4.40676      2.54424      5.28038         0.000167      0.000477     -0.069615
      7.34459      2.54424      5.28038         0.010883     -0.001732     -0.055653
      2.93784      5.08848      5.28038        -0.003803      0.010110     -0.056149
      5.87568      5.08848      5.28038         0.003948      0.010297     -0.055917
      8.81351      5.08848      5.28038         0.000040      0.000101     -0.077785
      1.46892      0.84808      7.67911         0.024956      0.014194      0.073980
      4.40676      0.84808      7.67911         0.000283     -0.038582     -0.005269
      7.34459      0.84808      7.67911        -0.024494      0.014144      0.073895
      2.93784      3.39232      7.67911        -0.033726      0.019215     -0.005574
      5.87568      3.39232      7.67911         0.034421      0.019233     -0.005529
      8.81351      3.39232      7.67911        -0.000003     -0.056554      0.055527
      4.40676      5.93656      7.67911         0.000144     -0.029004      0.074525
      7.34459      5.93656      7.67911        -0.049120      0.028045      0.055332
     10.28243      5.93656      7.67911         0.049383      0.028145      0.055331
      8.81351      1.69782     10.07545         0.000152      0.010586      0.066052
      2.94790      1.70197     10.06171        -0.015098     -0.009441      0.004221
      5.86562      1.70197     10.06171         0.015801     -0.009654      0.003813
     10.26824      4.24860     10.06503         0.012203     -0.006075      0.035552
      4.40676      4.22879     10.06171         0.000052      0.015496      0.001002
      7.35878      4.24860     10.06503        -0.012119     -0.006179      0.036146
     11.74991      6.78381     10.07545        -0.010292     -0.005800      0.064358
      5.87712      6.78381     10.07545         0.010693     -0.005731      0.064221
      8.81351      6.76826     10.06503         0.000071      0.012105      0.032211
      0.00000      0.00000     12.47281         0.000050     -0.000103     -0.000054
      2.99055      0.08121     12.52138         0.014516      0.013956      0.005686
      5.82296      0.08121     12.52138        -0.014332      0.012684      0.003989
      1.56560      2.54929     12.52138         0.016625      0.004647      0.003023
      7.24791      2.54929     12.52138        -0.014005      0.005113     -0.000409
      2.98181      5.00223     12.52138         0.007601     -0.018723      0.006713
      5.83171      5.00223     12.52138        -0.007131     -0.017865      0.005075
      8.81351      5.08848     12.50032        -0.000205     -0.000260     -0.002041
      4.40676      2.54424     12.20130         0.001552      0.005527     -0.085214
      4.45034      2.54432     16.36533         0.001276     -0.004126      0.007716
      3.27534      2.54397     16.42814        -0.002406      0.005309      0.003175
      5.62508      2.54406     16.29259        -0.007962      0.000285      0.000885
    total drift:                               -0.005018      0.002660     -0.221506

  FREE ENERGIE OF THE ION-ELECTRON SYSTEM (eV)
  free  energy   TOTEN  =      -137.30669603 eV

  energy  without entropy=     -137.30669603  energy(sigma->0) =     -137.30669603

 stress matrix after NEB project (eV)
    -24.05323      0.00473     -0.00844
      0.00473    -24.05600      0.01171
     -0.00844      0.01171      1.17579
  FORCES: max atom, RMS     0.008842    0.002187
  FORCE total and by dimension    0.013657    0.007962
  Stress total and by dimension   34.038683   24.056001
|           W    W    AA    RRRRR   N    N  II  N    N   GGGG   !!!           |
|           W    W   A  A   R    R  NN   N  II  NN   N  G    G  !!!           |
|           W    W  A    A  R    R  N N  N  II  N N  N  G       !!!           |
|           W WW W  AAAAAA  RRRRR   N  N N  II  N  N N  G  GGG   !            |
|           WW  WW  A    A  R   R   N   NN  II  N   NN  G    G                |
|           W    W  A    A  R    R  N    N  II  N    N   GGGG   !!!           |
|     Tetrahedron method does not include variations of the Fermi             |
|     occupations, so forces and stress will be inaccurate. We suggest        |
|     using a different smearing scheme ISMEAR = 1 or 2 for metals in         |
|     relaxations.                                                            |

 total charge

# of ion       s       p       d       tot
    1        0.548   0.238   8.766   9.551
    2        0.542   0.241   8.765   9.548
    3        0.542   0.241   8.765   9.548
    4        0.542   0.241   8.765   9.548
    5        0.545   0.241   8.762   9.548
    6        0.542   0.241   8.765   9.548
    7        0.542   0.241   8.765   9.548
    8        0.542   0.241   8.765   9.548
    9        0.544   0.239   8.767   9.550
   10        0.526   0.307   8.767   9.600
   11        0.519   0.306   8.780   9.606
   12        0.526   0.307   8.767   9.600
   13        0.520   0.306   8.780   9.606
   14        0.520   0.306   8.780   9.606
   15        0.517   0.308   8.775   9.599
   16        0.526   0.307   8.767   9.600
   17        0.517   0.308   8.775   9.600
   18        0.517   0.308   8.775   9.600
   19        0.517   0.298   8.772   9.587
   20        0.562   0.335   8.733   9.630
   21        0.562   0.335   8.733   9.630
   22        0.509   0.306   8.777   9.593
   23        0.562   0.335   8.733   9.630
   24        0.509   0.306   8.777   9.593
   25        0.518   0.298   8.771   9.587
   26        0.518   0.298   8.771   9.587
   27        0.509   0.306   8.778   9.593
   28        0.539   0.227   8.755   9.521
   29        0.578   0.242   8.736   9.557
   30        0.578   0.242   8.736   9.557
   31        0.577   0.241   8.737   9.555
   32        0.577   0.241   8.737   9.555
   33        0.578   0.242   8.736   9.557
   34        0.578   0.242   8.736   9.557
   35        0.538   0.225   8.758   9.522
   36        0.391   0.391   3.191   3.973
   37        0.933   1.801   0.000   2.734
   38        1.607   3.528   0.000   5.136
   39        1.607   3.528   0.000   5.135
tot         23.426  18.899 309.816 352.141

 BZINTS: Fermi energy:    0.309801;  406.000000 electrons
         Band energy:-0.149674E+04;  BLOECHL correction:   -0.025140