 vasp.6.2.0 18Jan21 (build Jun 12 2021 23:27:24) complex

 executed on             LinuxIFC date 2022.05.26  19:57:23

 INCAR:
   ISMEAR = -5
   SIGMA = 0.1
   ISPIN = 1
   EDIFF = 1.d-5
   EDIFFG = -0.01
   NSW = 0
   NELM = 150
   ENCUT = 500
   ISIF = 2
   IBRION = 2
   LREAL = Auto
   ALGO = Fast
   ICHARG = 11
   LORBIT = 10
   LCHARG = .F.
   LWAVE = .F.

 POTCAR:    PAW_PBE Cu 22Jun2005
 POTCAR:    PAW_PBE V 08Apr2002
 POTCAR:    PAW_PBE N 08Apr2002
|           W    W    AA    RRRRR   N    N  II  N    N   GGGG   !!!           |
|           W    W   A  A   R    R  NN   N  II  NN   N  G    G  !!!           |
|           W    W  A    A  R    R  N N  N  II  N N  N  G       !!!           |
|           W WW W  AAAAAA  RRRRR   N  N N  II  N  N N  G  GGG   !            |
|           WW  WW  A    A  R   R   N   NN  II  N   NN  G    G                |
|           W    W  A    A  R    R  N    N  II  N    N   GGGG   !!!           |
|     For optimal performance we recommend to set                             |
|       NCORE = 2 up to number-of-cores-per-socket                            |
|     This setting can greatly improve the performance of VASP for DFT.       |
|     The default, NCORE=1 might be grossly inefficient on modern             |
|     multi-core architectures or massively parallel machines. Do your        |
|     Unfortunately you need to use the default for GW and RPA                |
|     calculations (for HF NCORE is supported but not extensively tested      |
|     yet).                                                                   |

 POTCAR:    PAW_PBE Cu 22Jun2005
   VRHFIN =Cu: d10 p1

   TITEL  = PAW_PBE Cu 22Jun2005
   POMASS =   63.546; ZVAL   =   11.000    mass and valenz
   ENMAX  =  295.446; ENMIN  =  221.585 eV

 POTCAR:    PAW_PBE V 08Apr2002
   VRHFIN =V: p6 d4 s1

   TITEL  = PAW_PBE V 08Apr2002
   POMASS =   50.941; ZVAL   =    5.000    mass and valenz
   ENMAX  =  192.543; ENMIN  =  144.408 eV

 POTCAR:    PAW_PBE N 08Apr2002
   VRHFIN =N: s2p3

   TITEL  = PAW_PBE N 08Apr2002
   POMASS =   14.001; ZVAL   =    5.000    mass and valenz
   ENMAX  =  400.000; ENMIN  =  300.000 eV

 Optimization of the real space projectors (new method)

 maximal supplied QI-value         = 16.25
 optimisation between [QCUT,QGAM] = [ 11.38, 22.75] = [ 36.24,144.96] Ry
 Optimized for a Real-space Cutoff    1.52 Angstroem

   l    n(q)    QCUT    max X(q) W(low)/X(q) W(high)/X(q)  e(spline)
   2      9    11.376     4.610    0.21E-03    0.10E-03    0.26E-06
   2      9    11.376     8.522    0.33E-03    0.16E-03    0.37E-06
   0     10    11.376    51.609    0.62E-04    0.20E-04    0.13E-06
   0     10    11.376    27.747    0.54E-04    0.20E-04    0.13E-06
   1     10    11.376    20.408    0.13E-04    0.99E-04    0.19E-06
   1     10    11.376    13.425    0.12E-04    0.87E-04    0.17E-06
 Optimization of the real space projectors (new method)

[...]

   l    n(q)    QCUT    max X(q) W(low)/X(q) W(high)/X(q)  e(spline)
   2     10    11.327    96.114    0.36E-03    0.35E-03    0.42E-06
   2     10    11.327    88.986    0.37E-03    0.35E-03    0.42E-06
   0     11    11.327    20.919    0.40E-04    0.56E-04    0.79E-06
   0     11    11.327     9.593    0.30E-04    0.41E-04    0.60E-06
   1     10    11.327    11.615    0.15E-03    0.10E-03    0.19E-06
   1     10    11.327     7.031    0.11E-03    0.73E-04    0.14E-06
 Optimization of the real space projectors (new method)

 maximal supplied QI-value         = 25.13
 optimisation between [QCUT,QGAM] = [ 11.31, 22.87] = [ 35.82,146.48] Ry
 Optimized for a Real-space Cutoff    1.27 Angstroem

   l    n(q)    QCUT    max X(q) W(low)/X(q) W(high)/X(q)  e(spline)
   0      9    11.310    79.467    0.75E-04    0.16E-03    0.36E-06
   0      9    11.310    66.151    0.74E-04    0.16E-03    0.36E-06
   1      8    11.310    17.416    0.35E-03    0.12E-03    0.95E-06
   1      8    11.310    12.382    0.37E-03    0.13E-03    0.98E-06
  PAW_PBE Cu 22Jun2005                  :
  PAW_PBE V 08Apr2002                   :
  PAW_PBE N 08Apr2002                   :

 POSCAR: Cu-V-N
  positions in direct lattice
  velocities in cartesian coordinates
 exchange correlation table for  LEXCH =        8
   RHO(1)=    0.500       N(1)  =     2000
   RHO(2)=  100.500       N(2)  =     4000

 VTST: version 3.2, (02/03/18)

 CHAIN: initializing optimizer

 OPT: Using VASP Conjugate-Gradient optimizer
 CHAIN: Read ICHAIN            0

 POSCAR: Cu-V-N
  positions in direct lattice
  velocities in cartesian coordinates

 ion  position               nearest neighbor table
   1  0.000  0.000  0.252-   7 2.57   3 2.57   4 2.57   2 2.57   6 2.57   8 2.57  12 2.57  10 2.57
                            16 2.57
   2  0.333  0.000  0.252-   8 2.57   9 2.57   5 2.57   1 2.57   3 2.57  11 2.57   4 2.57  10 2.57
                            17 2.57
   3  0.667  0.000  0.252-   1 2.57   7 2.57   6 2.57   9 2.57   2 2.57  12 2.57   5 2.57  18 2.57
                            11 2.57
   4  0.000  0.333  0.252-   5 2.57   6 2.57   1 2.57   7 2.57   2 2.57  13 2.57   9 2.57  10 2.57
                            15 2.57
   5  0.333  0.333  0.252-   4 2.57   2 2.57   7 2.57  13 2.57   8 2.57   6 2.57   3 2.57  11 2.57
                            14 2.57
   6  0.667  0.333  0.252-   4 2.57   9 2.57  15 2.57   3 2.57   1 2.57   8 2.57  14 2.57   5 2.57
                            12 2.57
   7  0.000  0.667  0.252-   1 2.57   3 2.57  16 2.57  18 2.57   4 2.57   5 2.57   8 2.57   9 2.57
                            13 2.57
   8  0.333  0.667  0.252-   9 2.57   2 2.57  17 2.57   6 2.57   1 2.57   7 2.57   5 2.57  14 2.57
                            16 2.57
   9  0.667  0.667  0.252-   8 2.57   6 2.57   2 2.57  17 2.57   3 2.57   7 2.57   4 2.57  15 2.57
                            18 2.57
  10  0.111  0.111  0.351-  26 2.56  19 2.56  20 2.56  11 2.57  12 2.57  13 2.57   1 2.57   2 2.57
                             4 2.57  15 2.57  16 2.57  17 2.57
  11  0.444  0.111  0.351-  20 2.56  21 2.56  10 2.57  13 2.57   2 2.57  17 2.57  14 2.57  12 2.57
                             5 2.57   3 2.57  18 2.57  27 2.57
  12  0.778  0.111  0.351-  19 2.56  25 2.56  21 2.56  15 2.57  10 2.57  14 2.57  18 2.57   3 2.57
                             1 2.57  16 2.57  11 2.57   6 2.57
  13  0.111  0.444  0.351-  23 2.56  20 2.56  16 2.57  18 2.57  10 2.57  11 2.57  14 2.57   5 2.57
                             4 2.57   7 2.57  15 2.57  22 2.57
  14  0.444  0.444  0.351-  21 2.56  23 2.56  15 2.57  17 2.57  12 2.57  16 2.57  13 2.57  11 2.57
                             6 2.57   8 2.57   5 2.57  24 2.57
  15  0.778  0.444  0.351-  19 2.56  24 2.57  22 2.57  14 2.57  17 2.57  12 2.57   6 2.57  18 2.57
                            10 2.57   9 2.57  13 2.57   4 2.57
  16  0.111  0.778  0.351-  25 2.56  26 2.56  23 2.56  18 2.57  13 2.57   7 2.57  14 2.57  17 2.57
                            12 2.57  10 2.57   8 2.57   1 2.57
  17  0.444  0.778  0.351-  26 2.56  27 2.57  24 2.57  14 2.57  15 2.57   8 2.57   9 2.57  11 2.57
                            16 2.57  18 2.57  10 2.57   2 2.57
  18  0.778  0.778  0.351-  25 2.56  22 2.57  27 2.57  16 2.57  13 2.57   7 2.57  15 2.57  12 2.57
                            17 2.57   9 2.57   3 2.57  11 2.57
  19  0.889  0.222  0.449-  12 2.56  10 2.56  15 2.56  28 2.56  25 2.56  26 2.56  21 2.57  20 2.57
                            22 2.57  24 2.57  32 2.58  31 2.58
  20  0.222  0.222  0.449-  36 2.54  11 2.56  13 2.56  10 2.56  23 2.56  21 2.56  26 2.57  19 2.57
                            27 2.57  22 2.57  29 2.57  31 2.57
  21  0.555  0.222  0.449-  36 2.54  14 2.56  11 2.56  12 2.56  20 2.56  23 2.56  19 2.57  25 2.57
                            24 2.57  27 2.57  32 2.57  30 2.57
  22  0.888  0.556  0.449-  24 2.56  27 2.56  35 2.56  18 2.57  15 2.57  19 2.57  25 2.57  31 2.57
                            33 2.57  13 2.57  23 2.57  20 2.57
  23  0.222  0.555  0.449-  36 2.54  13 2.56  14 2.56  16 2.56  20 2.56  21 2.56  25 2.57  26 2.57
                            22 2.57  24 2.57  33 2.57  34 2.57
  24  0.556  0.556  0.449-  22 2.56  27 2.56  35 2.56  15 2.57  17 2.57  19 2.57  26 2.57  32 2.57
                            34 2.57  14 2.57  21 2.57  23 2.57
  25  0.889  0.889  0.449-  12 2.56  16 2.56  18 2.56  28 2.56  19 2.56  26 2.56  21 2.57  23 2.57
                            22 2.57  27 2.57  33 2.58  30 2.58
  26  0.222  0.889  0.449-  10 2.56  16 2.56  17 2.56  28 2.56  25 2.56  19 2.56  20 2.57  23 2.57
                            27 2.57  24 2.57  29 2.58  34 2.58
  27  0.556  0.888  0.449-  24 2.56  22 2.56  35 2.56  17 2.57  18 2.57  26 2.57  25 2.57  29 2.57
                            30 2.57  11 2.57  20 2.57  21 2.57
  28  0.000  0.000  0.547-  25 2.56  19 2.56  26 2.56  33 2.57  30 2.57  31 2.57  29 2.57  32 2.57
                            34 2.57
  29  0.333  0.000  0.548-  30 2.56  36 2.56  31 2.56  27 2.57  35 2.57  28 2.57  20 2.57  34 2.57
                            26 2.58
  30  0.666  0.000  0.548-  29 2.56  36 2.56  32 2.56  27 2.57  35 2.57  28 2.57  21 2.57  33 2.57
                            25 2.58
  31  0.000  0.333  0.548-  33 2.56  36 2.56  29 2.56  22 2.57  35 2.57  28 2.57  20 2.57  32 2.57
                            19 2.58
  32  0.666  0.333  0.548-  34 2.56  36 2.56  30 2.56  24 2.57  35 2.57  28 2.57  21 2.57  31 2.57
                            19 2.58
  33  0.000  0.666  0.548-  31 2.56  36 2.56  34 2.56  22 2.57  35 2.57  28 2.57  23 2.57  30 2.57
                            25 2.58
  34  0.333  0.666  0.548-  32 2.56  36 2.56  33 2.56  24 2.57  35 2.57  28 2.57  23 2.57  29 2.57
                            26 2.58
  35  0.667  0.667  0.548-  24 2.56  27 2.56  22 2.56  34 2.57  32 2.57  29 2.57  30 2.57  33 2.57
                            31 2.57
  36  0.333  0.333  0.546-  37 1.63  23 2.54  20 2.54  21 2.54  31 2.56  29 2.56  33 2.56  32 2.56
                            34 2.56  30 2.56
  37  0.333  0.333  0.623-  36 1.63

  LATTYP: Found a hexagonal cell.
 ALAT       =     7.6967864036
 C/A-ratio  =     2.7653617908

  Lattice vectors:

 A1 = (  -3.8483927580,  -6.6656128093,   0.0000000000)
 A2 = (   7.6967864037,   0.0000000000,   0.0000000000)
 A3 = (   0.0000000000,   0.0000000000,  21.2843990326)

Analysis of symmetry for initial positions (statically):
 Subroutine PRICEL returns:
 Original cell was already a primitive cell.

 Routine SETGRP: Setting up the symmetry group for a
 hexagonal supercell.

 Subroutine GETGRP returns: Found  6 space group operations
 (whereof  6 operations were pure point group operations)
 out of a pool of 24 trial point group operations.

The static configuration has the point symmetry C_3v.

Analysis of symmetry for dynamics (positions and initial velocities):
 Subroutine PRICEL returns:
 Original cell was already a primitive cell.

[...]

The dynamic configuration has the point symmetry C_3v.

Analysis of constrained symmetry for selective dynamics:
 Subroutine PRICEL returns:
 Original cell was already a primitive cell.

 Routine SETGRP: Setting up the symmetry group for a
 hexagonal supercell.

 Subroutine GETGRP returns: Found  6 space group operations
[...]
     24      -4.4176      2.00000
     25      -4.2624      2.00000
     26      -4.2404      2.00000
     27      -4.1941      2.00000
     28      -4.1791      2.00000
     29      -4.1738      2.00000
     30      -4.1711      2.00000
     31      -4.1643      2.00000
     32      -4.1510      2.00000
     33      -4.1156      2.00000
     34      -4.1021      2.00000
     35      -4.0770      2.00000
     36      -4.0016      2.00000
     37      -3.9813      2.00000
     38      -3.8604      2.00000
     39      -3.8572      2.00000
     40      -3.7915      2.00000
     41      -3.7778      2.00000
     42      -3.7683      2.00000
     43      -3.7468      2.00000
     44      -3.7368      2.00000
     45      -3.7276      2.00000
     46      -3.7222      2.00000
     47      -3.5430      2.00000
     48      -3.5272      2.00000
     49      -3.5168      2.00000
     50      -3.4987      2.00000
     51      -3.4586      2.00000
     52      -3.4516      2.00000
     53      -3.4398      2.00000
     54      -3.4345      2.00000
     55      -3.4189      2.00000
     56      -3.4094      2.00000
     57      -3.3968      2.00000
     58      -3.3743      2.00000
     59      -3.3679      2.00000
     60      -3.3631      2.00000
[...]
    238       6.2734      0.00000
    239       6.3187      0.00000
    240       6.3664      0.00000
    241       6.9954      0.00000
    242       6.9998      0.00000
    243       7.0839      0.00000
    244       7.1188      0.00000
    245       7.1903      0.00000
    246       7.2598      0.00000
    247       7.3628      0.00000
    248       7.4530      0.00000
    249       7.5242      0.00000
    250       7.7122      0.00000
    251       7.7846      0.00000
    252       7.8928      0.00000

 soft charge-density along one line, spin component           1
         0         1         2         3         4         5         6         7         8         9
 total charge-density along one line

------------------------ aborting loop because EDIFF is reached ----------------------------------------

 total charge

# of ion       s       p       d       tot
    1        0.448   0.284   9.187   9.920
    2        0.449   0.285   9.186   9.919
    3        0.449   0.285   9.186   9.919
    4        0.449   0.285   9.186   9.919
    5        0.448   0.285   9.185   9.918
    6        0.449   0.285   9.186   9.919
    7        0.449   0.285   9.186   9.919
    8        0.449   0.285   9.186   9.919
    9        0.447   0.284   9.187   9.919
   10        0.441   0.371   9.178   9.990
   11        0.441   0.368   9.181   9.990
   12        0.441   0.371   9.178   9.990
   13        0.441   0.368   9.181   9.990
   14        0.441   0.368   9.181   9.990
   15        0.438   0.370   9.177   9.986
   16        0.441   0.371   9.178   9.990
   17        0.438   0.370   9.177   9.986
   18        0.438   0.370   9.177   9.986
   19        0.441   0.366   9.183   9.991
   20        0.456   0.387   9.170  10.012
   21        0.456   0.387   9.170  10.012
   22        0.434   0.375   9.178   9.986
   23        0.456   0.387   9.170  10.012
   24        0.434   0.375   9.178   9.986
   25        0.441   0.366   9.183   9.991
   26        0.441   0.366   9.183   9.991
   27        0.434   0.375   9.178   9.986
   28        0.448   0.287   9.184   9.920
   29        0.462   0.295   9.177   9.934
   30        0.462   0.295   9.177   9.934
   31        0.462   0.295   9.177   9.934
   32        0.462   0.295   9.177   9.934
   33        0.462   0.295   9.177   9.934
   34        0.462   0.295   9.177   9.934
   35        0.450   0.290   9.181   9.921
   36        0.613   0.812   3.972   5.397
   37        1.343   2.196   0.000   3.539
tot         17.612  14.628 325.276 357.516

  FORCE on cell =-STRESS in cart. coord.  units (eV):
  Direction    XX          YY          ZZ          XY          YZ          ZX
  Alpha Z   871.95204   871.95204   871.95204
  Ewald  170928.50679170928.50643************     0.00037     0.00013     0.00017
  Hartree183812.36805183812.36805************     0.00003     0.00006     0.00006
  E(xc)   -2289.24652 -2289.24603 -2296.22047    -0.00042    -0.00004    -0.00006
  Local  ************************367785.15578     0.01868    -0.00061    -0.00096
  n-local  -769.73068  -757.71512  -777.18030     6.42691    -0.12049     0.26340
  augment  3326.21002  3326.23038  3348.87632    -0.01763     0.00023     0.00036
  Kinetic  3257.54443  3259.07437  3282.69299     2.30817     1.89313    -1.28369
  Fock        0.00000     0.00000     0.00000     0.00000     0.00000     0.00000
  Total      -5.81720    -5.81720    -0.75204     0.00000    -0.00000    -0.00000
  in kB      -8.53520    -8.53520    -1.10342     0.00000    -0.00000    -0.00000

 VOLUME and BASIS-vectors are now :
  energy-cutoff  :      500.00
  volume of cell :     1091.97
      direct lattice vectors                 reciprocal lattice vectors
     7.696786404  0.000000000  0.000000000     0.129924354 -0.075011849  0.000000000
     3.848392758  6.665612809  0.000000000     0.000000000  0.150023716  0.000000000
     0.000000000  0.000000000 21.284399033     0.000000000  0.000000000  0.046982769

  length of vectors
     7.696786404  7.696786404 21.284399033     0.150023716  0.150023716  0.046982769

 FORCES acting on ions
    electron-ion (+dipol)            ewald-force                    non-local-force                 convergence-correction
   -.416E-04 0.132E-06 0.346E+04   0.581E-04 -.431E-05 -.346E+04   -.219E-17 -.535E-18 -.219E+01   -.278E-03 -.128E-03 -.168E+00
   -.628E+00 -.459E+00 0.346E+04   0.561E+00 0.501E+00 -.346E+04   0.131E-01 0.217E-01 -.191E+01   0.520E-01 -.604E-01 -.103E+00
   0.628E+00 -.459E+00 0.346E+04   -.561E+00 0.501E+00 -.346E+04   -.131E-01 0.217E-01 -.191E+01   -.512E-01 -.579E-01 -.103E+00
   -.711E+00 -.314E+00 0.346E+04   0.714E+00 0.235E+00 -.346E+04   0.254E-01 0.473E-03 -.191E+01   -.262E-01 0.752E-01 -.103E+00
   -.650E-04 -.524E-05 0.346E+04   0.116E-03 -.101E-04 -.346E+04   -.496E-17 -.371E-17 -.198E+01   0.121E-01 0.740E-02 -.138E+00
   0.712E+00 -.314E+00 0.346E+04   -.715E+00 0.235E+00 -.346E+04   -.254E-01 0.473E-03 -.191E+01   0.247E-01 0.764E-01 -.102E+00
   -.835E-01 0.773E+00 0.346E+04   0.154E+00 -.736E+00 -.346E+04   0.123E-01 -.222E-01 -.191E+01   -.757E-01 -.155E-01 -.103E+00
   0.836E-01 0.773E+00 0.346E+04   -.154E+00 -.736E+00 -.346E+04   -.123E-01 -.222E-01 -.191E+01   0.792E-01 -.168E-01 -.102E+00
   -.144E-03 -.329E-04 0.346E+04   0.263E-03 0.205E-04 -.346E+04   -.367E-17 -.976E-18 -.216E+01   -.132E-01 -.680E-02 -.120E+00
   -.453E+01 -.261E+01 0.114E+04   0.468E+01 0.270E+01 -.114E+04   -.202E+00 -.117E+00 -.716E+00   0.475E-01 0.274E-01 -.129E+00
   -.906E-04 -.473E+01 0.113E+04   0.189E-03 0.458E+01 -.113E+04   -.119E-07 0.179E+00 -.684E+00   0.115E-01 -.466E-01 -.142E+00
   0.453E+01 -.261E+01 0.114E+04   -.468E+01 0.270E+01 -.114E+04   0.202E+00 -.117E+00 -.716E+00   -.487E-01 0.284E-01 -.130E+00
   -.409E+01 0.236E+01 0.113E+04   0.397E+01 -.229E+01 -.113E+04   0.155E+00 -.894E-01 -.684E+00   -.342E-01 0.341E-01 -.142E+00
   0.409E+01 0.236E+01 0.113E+04   -.397E+01 -.229E+01 -.113E+04   -.155E+00 -.894E-01 -.684E+00   0.577E-01 0.329E-01 -.145E+00
   -.141E-03 -.113E+01 0.114E+04   0.297E-03 0.100E+01 -.114E+04   -.434E-08 0.652E-01 -.776E+00   -.312E-02 0.693E-01 -.169E+00
   -.919E-04 0.523E+01 0.114E+04   0.186E-03 -.540E+01 -.114E+04   -.156E-07 0.234E+00 -.716E+00   -.702E-03 -.576E-01 -.130E+00
   -.978E+00 0.565E+00 0.114E+04   0.867E+00 -.500E+00 -.114E+04   0.565E-01 -.326E-01 -.776E+00   0.591E-01 -.373E-01 -.169E+00
   0.978E+00 0.565E+00 0.114E+04   -.867E+00 -.500E+00 -.114E+04   -.565E-01 -.326E-01 -.776E+00   -.579E-01 -.351E-01 -.168E+00
   -.658E-04 -.645E+01 -.117E+04   0.716E-04 0.631E+01 0.117E+04   -.565E-08 0.848E-01 0.124E+01   0.101E-02 0.478E-01 -.129E+00
   -.474E+02 -.273E+02 -.123E+04   0.474E+02 0.274E+02 0.123E+04   -.344E+00 -.199E+00 0.371E+00   0.253E-01 0.145E-01 -.146E+00
   0.474E+02 -.273E+02 -.123E+04   -.474E+02 0.274E+02 0.123E+04   0.344E+00 -.199E+00 0.371E+00   -.459E-01 0.135E-01 -.147E+00
   -.218E+02 0.126E+02 -.119E+04   0.215E+02 -.124E+02 0.119E+04   0.393E+00 -.227E+00 0.981E+00   0.120E-01 -.799E-02 -.242E+00
   -.803E-04 0.547E+02 -.123E+04   0.150E-03 -.547E+02 0.123E+04   -.265E-07 0.398E+00 0.371E+00   -.124E-01 -.478E-01 -.147E+00
   0.218E+02 0.126E+02 -.119E+04   -.215E+02 -.124E+02 0.119E+04   -.393E+00 -.227E+00 0.981E+00   -.105E-01 -.696E-02 -.242E+00
   0.559E+01 0.322E+01 -.117E+04   -.546E+01 -.315E+01 0.117E+04   -.735E-01 -.424E-01 0.124E+01   -.411E-01 -.237E-01 -.129E+00
   -.559E+01 0.322E+01 -.117E+04   0.546E+01 -.315E+01 0.117E+04   0.735E-01 -.424E-01 0.124E+01   0.423E-01 -.228E-01 -.129E+00
   -.125E-03 -.252E+02 -.119E+04   0.239E-03 0.248E+02 0.119E+04   -.302E-07 0.454E+00 0.981E+00   -.980E-03 0.143E-01 -.242E+00
   -.376E-04 0.160E-04 -.343E+04   0.411E-04 -.326E-04 0.343E+04   -.700E-18 -.975E-18 0.199E+01   -.139E-02 -.747E-03 0.169E+00
   -.260E+02 -.511E+02 -.342E+04   0.262E+02 0.512E+02 0.342E+04   -.259E+00 -.264E+00 0.291E+01   -.201E-01 0.252E-01 0.336E-01
   0.260E+02 -.511E+02 -.342E+04   -.262E+02 0.512E+02 0.342E+04   0.259E+00 -.264E+00 0.291E+01   0.423E-01 0.266E-01 0.339E-01
   -.573E+02 0.303E+01 -.342E+04   0.575E+02 -.290E+01 0.342E+04   -.358E+00 -.923E-01 0.291E+01   0.118E-01 -.301E-01 0.336E-01
   0.573E+02 0.303E+01 -.342E+04   -.575E+02 -.290E+01 0.342E+04   0.358E+00 -.923E-01 0.291E+01   0.101E-01 -.290E-01 0.348E-01
   -.313E+02 0.481E+02 -.342E+04   0.312E+02 -.483E+02 0.342E+04   -.991E-01 0.356E+00 0.291E+01   0.441E-01 0.233E-01 0.339E-01
   0.313E+02 0.481E+02 -.342E+04   -.312E+02 -.483E+02 0.342E+04   0.991E-01 0.356E+00 0.291E+01   -.193E-01 0.232E-01 0.349E-01
   -.126E-03 -.158E-04 -.344E+04   0.251E-03 0.306E-05 0.344E+04   0.681E-17 0.303E-18 0.218E+01   -.143E-01 -.743E-02 0.185E+00
   -.472E-04 -.168E-04 -.143E+04   0.627E-04 0.126E-04 0.143E+04   0.110E-17 -.224E-18 0.572E+00   0.101E-03 0.742E-04 0.207E-01
   0.103E-03 -.477E-04 -.180E+04   0.169E-04 0.748E-05 0.181E+04   -.140E-17 0.117E-18 -.160E+02   0.108E-02 0.659E-03 0.218E-01
   -.204E-03 -.742E-04 0.137E+02   0.136E-12 0.543E-12 0.182E-11   0.173E-15 -.553E-16 -.104E+02   0.565E-01 0.296E-01 -.332E+01

 POSITION                                       TOTAL-FORCE (eV/Angst)
      0.00000      0.00000      5.37156        -0.000000     -0.000000      0.022835
      2.56560      0.00000      5.37156        -0.001727      0.004676      0.051449
      5.13119      0.00000      5.37156         0.001727      0.004676      0.051449
      1.28280      2.22187      5.37156         0.003186     -0.003833      0.051449
      3.84839      2.22187      5.37156        -0.000000     -0.000000      0.033347
      6.41399      2.22187      5.37156        -0.003186     -0.003833      0.051449
      2.56560      4.44374      5.37156         0.004913     -0.000842      0.051449
      5.13119      4.44374      5.37156        -0.004913     -0.000842      0.051449
      7.69679      4.44374      5.37156         0.000000     -0.000000      0.030458
      1.28280      0.74062      7.46636        -0.003799     -0.002194     -0.067270
      3.84839      0.74062      7.46636         0.000000     -0.021904     -0.050538
      6.41399      0.74062      7.46636         0.003799     -0.002194     -0.067270
      2.56560      2.96249      7.46636        -0.018969      0.010952     -0.050538
      5.13119      2.96249      7.46636         0.018969      0.010952     -0.050538
      7.69679      2.96249      7.46636        -0.000000      0.005959      0.014205
      3.84839      5.18437      7.46636        -0.000000      0.004387     -0.067270
      6.41399      5.18437      7.46636         0.005161     -0.002979      0.014205
      8.97958      5.18437      7.46636        -0.005161     -0.002979      0.014205
      7.69679      1.48017      9.54910         0.000000     -0.009642      0.068690
      2.56637      1.48170      9.55121        -0.250506     -0.144629     -0.242361
      5.13041      1.48170      9.55121         0.250506     -0.144629     -0.242361
      8.97729      3.70444      9.56154         0.051083     -0.029493      0.036766
      3.84839      3.70222      9.55121        -0.000000      0.289259     -0.242361
      6.41628      3.70444      9.56154        -0.051083     -0.029493      0.036766
     10.26332      5.92553      9.54910         0.008350      0.004821      0.068690
      5.13026      5.92553      9.54910        -0.008350      0.004821      0.068690
      7.69679      5.92234      9.56154        -0.000000      0.058985      0.036766
      0.00000      0.00000     11.64072        -0.000000     -0.000000     -0.077892
      2.56831      0.00307     11.65724        -0.076834     -0.138107     -0.045044
      5.12847      0.00307     11.65724         0.076834     -0.138107     -0.045044
      1.28681      2.22269     11.65724        -0.158022      0.002513     -0.045044
      6.40997      2.22269     11.65724         0.158022      0.002513     -0.045044
      2.56689      4.43985     11.65724        -0.081187      0.135594     -0.045044
      5.12989      4.43985     11.65724         0.081187      0.135594     -0.045044
      7.69679      4.44374     11.65596        -0.000000     -0.000000     -0.084368
      3.84839      2.22187     11.62023        -0.000000     -0.000000      0.789527
      3.84839      2.22187     13.25211        -0.000000     -0.000000     -0.030812
    total drift:                                0.056289      0.029494      0.011706

  FREE ENERGIE OF THE ION-ELECTRON SYSTEM (eV)
  free  energy   TOTEN  =      -138.03393547 eV

  energy  without entropy=     -138.03393547  energy(sigma->0) =     -138.03393547

 stress matrix after NEB project (eV)
     -5.81720      0.00000     -0.00000
      0.00000     -5.81720      0.00000
      0.00000     -0.00000     -0.75204
  FORCES: max atom, RMS     0.030812    0.005065
  FORCE total and by dimension    0.030812    0.030812
  Stress total and by dimension    8.261064    5.817200
|           W    W    AA    RRRRR   N    N  II  N    N   GGGG   !!!           |
|           W    W   A  A   R    R  NN   N  II  NN   N  G    G  !!!           |
|           W    W  A    A  R    R  N N  N  II  N N  N  G       !!!           |
|           W WW W  AAAAAA  RRRRR   N  N N  II  N  N N  G  GGG   !            |
|           WW  WW  A    A  R   R   N   NN  II  N   NN  G    G                |
|           W    W  A    A  R    R  N    N  II  N    N   GGGG   !!!           |
|     Tetrahedron method does not include variations of the Fermi             |
|     occupations, so forces and stress will be inaccurate. We suggest        |
|     using a different smearing scheme ISMEAR = 1 or 2 for metals in         |
|     relaxations.                                                            |

 total charge

# of ion       s       p       d       tot
    1        0.448   0.284   9.187   9.920
    2        0.449   0.285   9.186   9.919
    3        0.449   0.285   9.186   9.919
    4        0.449   0.285   9.186   9.919
    5        0.448   0.285   9.185   9.918
    6        0.449   0.285   9.186   9.919
    7        0.449   0.285   9.186   9.919
    8        0.449   0.285   9.186   9.919
    9        0.447   0.284   9.187   9.919
   10        0.441   0.371   9.178   9.990
   11        0.441   0.368   9.181   9.990
   12        0.441   0.371   9.178   9.990
   13        0.441   0.368   9.181   9.990
   14        0.441   0.368   9.181   9.990
   15        0.438   0.370   9.177   9.986
   16        0.441   0.371   9.178   9.990
   17        0.438   0.370   9.177   9.986
   18        0.438   0.370   9.177   9.986
   19        0.441   0.366   9.183   9.991
   20        0.456   0.387   9.170  10.012
   21        0.456   0.387   9.170  10.012
   22        0.434   0.375   9.178   9.986
   23        0.456   0.387   9.170  10.012
   24        0.434   0.375   9.178   9.986
   25        0.441   0.366   9.183   9.991
   26        0.441   0.366   9.183   9.991
   27        0.434   0.375   9.178   9.986
   28        0.448   0.287   9.184   9.920
   29        0.462   0.295   9.177   9.934
   30        0.462   0.295   9.177   9.934
   31        0.462   0.295   9.177   9.934
   32        0.462   0.295   9.177   9.934
   33        0.462   0.295   9.177   9.934
   34        0.462   0.295   9.177   9.934
   35        0.450   0.290   9.181   9.921
   36        0.613   0.812   3.972   5.397
   37        1.343   2.196   0.000   3.539
tot         17.612  14.628 325.276 357.516

 BZINTS: Fermi energy:   -0.043558;  395.000000 electrons
         Band energy:-0.115909E+04;  BLOECHL correction:   -0.057089