 vasp.6.2.0 18Jan21 (build Jun 12 2021 23:27:24) complex

 executed on             LinuxIFC date 2022.05.26  19:36:58

 INCAR:
   ISMEAR = -5
   SIGMA = 0.1
   ISPIN = 1
   EDIFF = 1.d-5
   EDIFFG = -0.01
   NSW = 0
   NELM = 150
   ENCUT = 500
   ISIF = 2
   IBRION = 2
   LREAL = Auto
   ALGO = Fast
   ICHARG = 11
   LORBIT = 10
   LCHARG = .F.
   LWAVE = .F.

 POTCAR:    PAW_PBE Ag 02Apr2005
 POTCAR:    PAW_PBE Ti 08Apr2002
 POTCAR:    PAW_PBE H 15Jun2001
|           W    W    AA    RRRRR   N    N  II  N    N   GGGG   !!!           |
|           W    W   A  A   R    R  NN   N  II  NN   N  G    G  !!!           |
|           W    W  A    A  R    R  N N  N  II  N N  N  G       !!!           |
|           W WW W  AAAAAA  RRRRR   N  N N  II  N  N N  G  GGG   !            |
|           WW  WW  A    A  R   R   N   NN  II  N   NN  G    G                |
|           W    W  A    A  R    R  N    N  II  N    N   GGGG   !!!           |
|     For optimal performance we recommend to set                             |
|       NCORE = 2 up to number-of-cores-per-socket                            |
|     This setting can greatly improve the performance of VASP for DFT.       |
|     The default, NCORE=1 might be grossly inefficient on modern             |
|     multi-core architectures or massively parallel machines. Do your        |
|     Unfortunately you need to use the default for GW and RPA                |
|     calculations (for HF NCORE is supported but not extensively tested      |
|     yet).                                                                   |

 POTCAR:    PAW_PBE Ag 02Apr2005
   VRHFIN =Ag : s1 d10

   TITEL  = PAW_PBE Ag 02Apr2005
   POMASS =  107.868; ZVAL   =   11.000    mass and valenz
   ENMAX  =  249.844; ENMIN  =  187.383 eV

 POTCAR:    PAW_PBE Ti 08Apr2002
   VRHFIN =Ti: d3 s1

   TITEL  = PAW_PBE Ti 08Apr2002
   POMASS =   47.880; ZVAL   =    4.000    mass and valenz
   ENMAX  =  178.330; ENMIN  =  133.747 eV

 POTCAR:    PAW_PBE H 15Jun2001
   VRHFIN =H: ultrasoft test

   TITEL  = PAW_PBE H 15Jun2001
   POMASS =    1.000; ZVAL   =    1.000    mass and valenz
   ENMAX  =  250.000; ENMIN  =  200.000 eV

 Optimization of the real space projectors (new method)

 maximal supplied QI-value         = 15.12
 optimisation between [QCUT,QGAM] = [ 11.34, 22.83] = [ 36.00,145.93] Ry
 Optimized for a Real-space Cutoff    1.43 Angstroem

   l    n(q)    QCUT    max X(q) W(low)/X(q) W(high)/X(q)  e(spline)
   2      9    11.338    53.897    0.16E-03    0.20E-03    0.28E-06
   2      9    11.338    52.416    0.16E-03    0.20E-03    0.29E-06
   0     10    11.338   122.045    0.31E-04    0.76E-04    0.15E-06
   0     10    11.338    73.629    0.30E-04    0.72E-04    0.15E-06
   1      9    11.338    15.255    0.20E-03    0.19E-04    0.17E-06
   1      9    11.338     9.562    0.16E-03    0.15E-04    0.14E-06
 Optimization of the real space projectors (new method)

[...]

   l    n(q)    QCUT    max X(q) W(low)/X(q) W(high)/X(q)  e(spline)
   2     10    11.404    49.363    0.27E-03    0.67E-03    0.76E-06
   2     10    11.404    47.669    0.26E-03    0.65E-03    0.73E-06
   0     11    11.404    26.374    0.17E-03    0.20E-03    0.34E-06
   0     11    11.404    11.549    0.14E-03    0.16E-03    0.29E-06
   1     10    11.404     9.492    0.33E-04    0.56E-04    0.16E-06
 Optimization of the real space projectors (new method)

 maximal supplied QI-value         = 34.20
 optimisation between [QCUT,QGAM] = [ 11.29, 22.57] = [ 35.68,142.71] Ry
 Optimized for a Real-space Cutoff    1.16 Angstroem

   l    n(q)    QCUT    max X(q) W(low)/X(q) W(high)/X(q)  e(spline)
   0      8    11.287    19.460    0.40E-03    0.73E-03    0.16E-06
   0      8    11.287    12.209    0.38E-03    0.70E-03    0.15E-06
   1      7    11.287     4.655    0.22E-03    0.25E-04    0.22E-06
  PAW_PBE Ag 02Apr2005                  :
  PAW_PBE Ti 08Apr2002                  :
  PAW_PBE H 15Jun2001                   :

 POSCAR: Ag-Ti-H
  positions in direct lattice
  velocities in cartesian coordinates
 exchange correlation table for  LEXCH =        8
   RHO(1)=    0.500       N(1)  =     2000
   RHO(2)=  100.500       N(2)  =     4000

 VTST: version 3.2, (02/03/18)

 CHAIN: initializing optimizer

 OPT: Using VASP Conjugate-Gradient optimizer
 CHAIN: Read ICHAIN            0

 POSCAR: Ag-Ti-H
  positions in direct lattice
  velocities in cartesian coordinates

 ion  position               nearest neighbor table
   1  0.000  0.000  0.238-   2 2.93   8 2.93   7 2.93   6 2.93   4 2.93  12 2.93  16 2.93  10 2.93
                             3 2.93
   2  0.333  0.000  0.238-   1 2.93   8 2.93   9 2.93   3 2.93   4 2.93   5 2.93  10 2.93  17 2.93
                            11 2.93
   3  0.667  0.000  0.238-   9 2.93   2 2.93   5 2.93  11 2.93   7 2.93  18 2.93   1 2.93   6 2.93
                            12 2.93
   4  0.000  0.333  0.238-   5 2.93   6 2.93   2 2.93   1 2.93   7 2.93  13 2.93  15 2.93   9 2.93
                            10 2.93
   5  0.333  0.333  0.238-   4 2.93   3 2.93   7 2.93   2 2.93   8 2.93  14 2.93  13 2.93  11 2.93
                             6 2.93
   6  0.667  0.333  0.238-   4 2.93   9 2.93   1 2.93  15 2.93   8 2.93  12 2.93   3 2.93   5 2.93
                            14 2.93
   7  0.000  0.667  0.238-   8 2.93   1 2.93   5 2.93   3 2.93   4 2.93  16 2.93  18 2.93  13 2.93
                             9 2.93
   8  0.333  0.667  0.238-   7 2.93   1 2.93   2 2.93   9 2.93   5 2.93  16 2.93   6 2.93  17 2.93
                            14 2.93
   9  0.667  0.667  0.238-   3 2.93   2 2.93   8 2.93   6 2.93  17 2.93   4 2.93  15 2.93   7 2.93
                            18 2.93
  10  0.111  0.111  0.346-  20 2.91  19 2.92  26 2.92  12 2.93  16 2.93  15 2.93  17 2.93  13 2.93
                            11 2.93   2 2.93   1 2.93   4 2.93
  11  0.444  0.111  0.346-  21 2.91  20 2.91  27 2.92  14 2.93  17 2.93  18 2.93   3 2.93  12 2.93
                            13 2.93  10 2.93   5 2.93   2 2.93
  12  0.778  0.111  0.346-  21 2.91  25 2.92  19 2.92  10 2.93  16 2.93  18 2.93  15 2.93  11 2.93
                             1 2.93  14 2.93   6 2.93   3 2.93
  13  0.111  0.444  0.346-  20 2.91  23 2.91  22 2.92  15 2.93  14 2.93  18 2.93  10 2.93  11 2.93
                            16 2.93   4 2.93   5 2.93   7 2.93
  14  0.444  0.444  0.346-  23 2.91  21 2.91  24 2.92  13 2.93  11 2.93  16 2.93   5 2.93  12 2.93
                            17 2.93   8 2.93  15 2.93   6 2.93
  15  0.778  0.444  0.346-  19 2.92  24 2.92  22 2.92  13 2.93  10 2.93  12 2.93  17 2.93  18 2.93
                             4 2.93   6 2.93   9 2.93  14 2.93
  16  0.111  0.778  0.346-  23 2.91  26 2.92  25 2.92  18 2.93  12 2.93  10 2.93  14 2.93  17 2.93
                            13 2.93   7 2.93   8 2.93   1 2.93
  17  0.444  0.778  0.346-  26 2.92  27 2.92  24 2.92  11 2.93  10 2.93   9 2.93  18 2.93  15 2.93
                            16 2.93   2 2.93  14 2.93   8 2.93
  18  0.778  0.778  0.346-  25 2.92  22 2.92  27 2.92  16 2.93  12 2.93  13 2.93  11 2.93  17 2.93
                            15 2.93   7 2.93   3 2.93   9 2.93
  19  0.889  0.222  0.453-  10 2.92  12 2.92  15 2.92  28 2.92  26 2.93  25 2.93  24 2.93  22 2.93
                            20 2.94  21 2.94  32 2.96  31 2.96
  20  0.223  0.223  0.453-  36 2.82  13 2.91  11 2.91  10 2.91  21 2.92  23 2.92  27 2.93  22 2.93
                            19 2.94  26 2.94  31 2.94  29 2.94
  21  0.555  0.223  0.453-  36 2.82  11 2.91  14 2.91  12 2.91  20 2.92  23 2.92  27 2.93  24 2.93
                            25 2.94  19 2.94  30 2.94  32 2.94
  22  0.889  0.556  0.453-  18 2.92  15 2.92  13 2.92  24 2.93  27 2.93  25 2.93  19 2.93  35 2.93
                            23 2.93  20 2.93  33 2.94  31 2.94
  23  0.223  0.555  0.453-  36 2.82  14 2.91  13 2.91  16 2.91  21 2.92  20 2.92  22 2.93  24 2.93
                            26 2.94  25 2.94  34 2.94  33 2.94
  24  0.556  0.556  0.453-  15 2.92  17 2.92  14 2.92  27 2.93  22 2.93  19 2.93  26 2.93  35 2.93
                            23 2.93  21 2.93  32 2.94  34 2.94
  25  0.889  0.889  0.453-  16 2.92  12 2.92  18 2.92  28 2.92  26 2.93  19 2.93  22 2.93  27 2.93
                            23 2.94  21 2.94  33 2.96  30 2.96
  26  0.222  0.889  0.453-  16 2.92  10 2.92  17 2.92  28 2.92  25 2.93  19 2.93  27 2.93  24 2.93
                            23 2.94  20 2.94  34 2.96  29 2.96
  27  0.556  0.889  0.453-  17 2.92  18 2.92  11 2.92  24 2.93  22 2.93  26 2.93  25 2.93  35 2.93
                            20 2.93  21 2.93  29 2.94  30 2.94
  28  0.000  0.000  0.561-  26 2.92  25 2.92  19 2.92  29 2.95  34 2.95  33 2.95  32 2.95  31 2.95
                            30 2.95
  29  0.334  0.004  0.562-  30 2.89  31 2.90  36 2.90  20 2.94  27 2.94  35 2.95  28 2.95  26 2.96
                            34 3.00
  30  0.662  0.004  0.562-  29 2.89  32 2.90  36 2.90  21 2.94  27 2.94  35 2.95  28 2.95  25 2.96
                            33 3.00
  31  0.004  0.334  0.562-  33 2.89  29 2.90  36 2.90  20 2.94  22 2.94  35 2.95  28 2.95  19 2.96
                            32 3.00
  32  0.662  0.334  0.562-  34 2.89  30 2.90  36 2.90  21 2.94  24 2.94  35 2.95  28 2.95  19 2.96
                            31 3.00
  33  0.004  0.662  0.562-  31 2.89  34 2.90  36 2.90  23 2.94  22 2.94  35 2.95  28 2.95  25 2.96
                            30 3.00
  34  0.334  0.662  0.562-  32 2.89  33 2.90  36 2.90  23 2.94  24 2.94  35 2.95  28 2.95  26 2.96
                            29 3.00
  35  0.667  0.667  0.562-  24 2.93  27 2.93  22 2.93  30 2.95  32 2.95  29 2.95  34 2.95  31 2.95
                            33 2.95
  36  0.333  0.333  0.555-  37 1.73  21 2.82  20 2.82  23 2.82  31 2.90  33 2.90  30 2.90  29 2.90
                            34 2.90  32 2.90
  37  0.333  0.333  0.633-  36 1.73

  LATTYP: Found a hexagonal cell.
 ALAT       =     8.7913665772
 C/A-ratio  =     2.5227160501

  Lattice vectors:

 A1 = (  -4.3956832886,  -7.6135467898,   0.0000000000)
 A2 = (   8.7913665771,   0.0000000000,   0.0000000000)
 A3 = (   0.0000000000,   0.0000000000,  22.1781215668)

Analysis of symmetry for initial positions (statically):
 Subroutine PRICEL returns:
 Original cell was already a primitive cell.

 Routine SETGRP: Setting up the symmetry group for a
 hexagonal supercell.

 Subroutine GETGRP returns: Found  6 space group operations
 (whereof  6 operations were pure point group operations)
 out of a pool of 24 trial point group operations.

The static configuration has the point symmetry C_3v.

Analysis of symmetry for dynamics (positions and initial velocities):
 Subroutine PRICEL returns:
 Original cell was already a primitive cell.

[...]

The dynamic configuration has the point symmetry C_3v.

Analysis of constrained symmetry for selective dynamics:
 Subroutine PRICEL returns:
 Original cell was already a primitive cell.

 Routine SETGRP: Setting up the symmetry group for a
 hexagonal supercell.

 Subroutine GETGRP returns: Found  6 space group operations
 (whereof  6 operations were pure point group operations)
 out of a pool of 24 trial point group operations.

[...]
     24      -4.7518      2.00000
     25      -4.7268      2.00000
     26      -4.7086      2.00000
     27      -4.6877      2.00000
     28      -4.6857      2.00000
     29      -4.6749      2.00000
     30      -4.6621      2.00000
     31      -4.6485      2.00000
     32      -4.6190      2.00000
     33      -4.6012      2.00000
     34      -4.5665      2.00000
     35      -4.5396      2.00000
     36      -4.5324      2.00000
     37      -4.4907      2.00000
     38      -4.4585      2.00000
     39      -4.4560      2.00000
     40      -4.4481      2.00000
     41      -4.4435      2.00000
     42      -4.4275      2.00000
     43      -4.3360      2.00000
     44      -4.3128      2.00000
     45      -4.3064      2.00000
     46      -4.2961      2.00000
     47      -4.2886      2.00000
     48      -4.2813      2.00000
     49      -4.2786      2.00000
     50      -4.2674      2.00000
     51      -4.2621      2.00000
     52      -4.2475      2.00000
     53      -4.1875      2.00000
     54      -4.1777      2.00000
     55      -4.1720      2.00000
     56      -4.1572      2.00000
     57      -4.1458      2.00000
     58      -4.1303      2.00000
     59      -4.0990      2.00000
     60      -4.0782      2.00000
[...]
    238       7.0402      0.00000
    239       7.1118      0.00000
    240       7.1736      0.00000
    241       7.2218      0.00000
    242       7.2549      0.00000
    243       7.2828      0.00000
    244       7.2986      0.00000
    245       7.3830      0.00000
    246       7.4802      0.00000
    247       7.5029      0.00000
    248       7.5685      0.00000
    249       7.5807      0.00000
    250       7.7718      0.00000
    251       7.8470      0.00000
    252       8.0031      0.00000

 soft charge-density along one line, spin component           1
         0         1         2         3         4         5         6         7         8         9
 total charge-density along one line

------------------------ aborting loop because EDIFF is reached ----------------------------------------

 total charge

# of ion       s       p       d       tot
    1        0.421   0.201   9.178   9.800
    2        0.415   0.204   9.177   9.797
    3        0.415   0.204   9.177   9.797
    4        0.415   0.204   9.177   9.797
    5        0.419   0.202   9.177   9.798
    6        0.415   0.204   9.177   9.797
    7        0.415   0.204   9.177   9.797
    8        0.415   0.204   9.177   9.797
    9        0.416   0.203   9.177   9.797
   10        0.410   0.269   9.163   9.842
   11        0.404   0.269   9.168   9.841
   12        0.410   0.269   9.163   9.842
   13        0.404   0.269   9.168   9.841
   14        0.404   0.269   9.168   9.841
   15        0.403   0.270   9.165   9.838
   16        0.410   0.269   9.163   9.842
   17        0.403   0.270   9.165   9.838
   18        0.403   0.270   9.165   9.838
   19        0.404   0.265   9.167   9.836
   20        0.434   0.291   9.140   9.864
   21        0.434   0.291   9.140   9.864
   22        0.397   0.274   9.163   9.835
   23        0.434   0.291   9.140   9.864
   24        0.397   0.274   9.163   9.835
   25        0.404   0.265   9.167   9.836
   26        0.404   0.265   9.167   9.836
   27        0.397   0.274   9.163   9.835
   28        0.411   0.202   9.174   9.787
   29        0.441   0.210   9.156   9.807
   30        0.441   0.210   9.156   9.807
   31        0.441   0.210   9.156   9.807
   32        0.441   0.210   9.156   9.807
   33        0.441   0.210   9.156   9.807
   34        0.441   0.210   9.156   9.807
   35        0.408   0.204   9.175   9.787
   36        0.465   0.521   2.218   3.203
   37        0.520   0.006   0.000   0.526
tot         15.554   8.938 322.992 347.484

  FORCE on cell =-STRESS in cart. coord.  units (eV):
  Direction    XX          YY          ZZ          XY          YZ          ZX
  Alpha Z   734.81429   734.81429   734.81429
  Ewald  118364.57424118364.57409************    -0.00002    -0.00001    -0.00002
  Hartree128340.45936128340.45929************    -0.00001    -0.00001    -0.00001
  E(xc)   -2046.33730 -2046.33729 -2052.87153    -0.00001     0.00000     0.00000
  Local  ************************257775.14470     0.00027    -0.00002    -0.00004
  n-local  -326.74487  -309.01638  -320.98626     9.91880    -0.53854     0.53437
  augment  3224.27780  3224.27798  3237.34568    -0.00015    -0.00000    -0.00001
  Kinetic  4793.14981  4795.65298  4827.65253     2.49316     0.77732    -0.27196
  Fock        0.00000     0.00000     0.00000     0.00000     0.00000     0.00000
  Total      -8.34492    -8.34492     0.19647    -0.00000     0.00000     0.00000
  in kB      -9.00668    -9.00668     0.21205    -0.00000     0.00000     0.00000

 VOLUME and BASIS-vectors are now :
  energy-cutoff  :      500.00
  volume of cell :     1484.46
      direct lattice vectors                 reciprocal lattice vectors
     8.791366577  0.000000000  0.000000000     0.113747958 -0.065672414  0.000000000
     4.395683289  7.613546790  0.000000000     0.000000000  0.131344829  0.000000000
     0.000000000  0.000000000 22.178121567     0.000000000  0.000000000  0.045089481

  length of vectors
     8.791366577  8.791366577 22.178121567     0.131344829  0.131344829  0.045089481

 FORCES acting on ions
    electron-ion (+dipol)            ewald-force                    non-local-force                 convergence-correction
   0.462E-04 -.281E-04 0.247E+04   -.953E-04 0.593E-04 -.247E+04   -.969E-18 0.235E-17 -.172E+01   -.832E-04 -.155E-03 0.126E+00
   -.383E+00 -.366E+00 0.247E+04   0.285E+00 0.322E+00 -.247E+04   0.350E-01 0.951E-01 -.166E+01   0.586E-01 -.496E-01 0.898E-01
   0.383E+00 -.366E+00 0.247E+04   -.285E+00 0.322E+00 -.247E+04   -.350E-01 0.951E-01 -.166E+01   -.592E-01 -.477E-01 0.905E-01
   -.509E+00 -.148E+00 0.247E+04   0.421E+00 0.859E-01 -.247E+04   0.999E-01 -.173E-01 -.166E+01   -.134E-01 0.758E-01 0.898E-01
   -.800E-05 -.200E-04 0.247E+04   0.981E-04 -.200E-05 -.247E+04   0.441E-17 0.186E-17 -.146E+01   0.618E-02 0.378E-02 0.242E+00
   0.509E+00 -.148E+00 0.247E+04   -.421E+00 0.858E-01 -.247E+04   -.999E-01 -.173E-01 -.166E+01   0.121E-01 0.767E-01 0.905E-01
   -.126E+00 0.515E+00 0.247E+04   0.136E+00 -.408E+00 -.247E+04   0.649E-01 -.779E-01 -.166E+01   -.705E-01 -.269E-01 0.905E-01
   0.126E+00 0.515E+00 0.247E+04   -.136E+00 -.408E+00 -.247E+04   -.649E-01 -.779E-01 -.166E+01   0.721E-01 -.278E-01 0.906E-01
   0.365E-04 -.131E-04 0.247E+04   0.791E-04 -.642E-04 -.247E+04   -.113E-17 -.186E-18 -.164E+01   -.663E-02 -.341E-02 0.487E-01
   -.225E+01 -.130E+01 0.789E+03   0.252E+01 0.145E+01 -.789E+03   -.270E+00 -.156E+00 -.612E+00   -.127E-01 -.731E-02 0.405E+00
   -.284E-04 -.311E+01 0.783E+03   0.405E-04 0.275E+01 -.783E+03   0.124E-11 0.189E+00 -.359E+00   0.611E-02 0.118E+00 0.368E+00
   0.225E+01 -.130E+01 0.789E+03   -.252E+01 0.145E+01 -.789E+03   0.270E+00 -.156E+00 -.612E+00   0.113E-01 -.666E-02 0.404E+00
   -.270E+01 0.156E+01 0.783E+03   0.238E+01 -.138E+01 -.783E+03   0.164E+00 -.945E-01 -.359E+00   0.105E+00 -.537E-01 0.368E+00
   0.270E+01 0.156E+01 0.783E+03   -.238E+01 -.138E+01 -.783E+03   -.164E+00 -.945E-01 -.359E+00   -.950E-01 -.546E-01 0.367E+00
   0.151E-04 0.162E+00 0.790E+03   -.107E-03 -.152E+00 -.789E+03   0.102E-12 0.156E-01 -.649E+00   -.131E-02 -.296E-01 0.353E+00
   -.820E-05 0.260E+01 0.789E+03   0.206E-04 -.291E+01 -.789E+03   0.204E-11 0.311E+00 -.612E+00   -.142E-03 0.131E-01 0.404E+00
   0.140E+00 -.810E-01 0.790E+03   -.132E+00 0.759E-01 -.789E+03   0.135E-01 -.779E-02 -.649E+00   -.263E-01 0.137E-01 0.353E+00
   -.140E+00 -.811E-01 0.790E+03   0.132E+00 0.760E-01 -.789E+03   -.135E-01 -.779E-02 -.649E+00   0.264E-01 0.152E-01 0.354E+00
   0.385E-04 -.655E+01 -.896E+03   -.124E-03 0.648E+01 0.895E+03   0.524E-12 0.798E-01 0.849E+00   0.566E-02 -.260E-01 0.300E+00
   -.379E+02 -.219E+02 -.943E+03   0.387E+02 0.223E+02 0.942E+03   -.929E+00 -.536E+00 -.469E+00   0.805E-01 0.465E-01 0.410E+00
   0.379E+02 -.219E+02 -.943E+03   -.387E+02 0.223E+02 0.942E+03   0.929E+00 -.536E+00 -.469E+00   -.823E-01 0.460E-01 0.409E+00
   -.183E+02 0.105E+02 -.902E+03   0.181E+02 -.104E+02 0.901E+03   0.142E+00 -.822E-01 0.494E+00   0.499E-01 -.232E-01 0.277E+00
   -.501E-04 0.438E+02 -.943E+03   0.344E-04 -.447E+02 0.942E+03   0.704E-11 0.107E+01 -.469E+00   -.100E-02 -.936E-01 0.409E+00
   0.183E+02 0.105E+02 -.902E+03   -.181E+02 -.104E+02 0.901E+03   -.142E+00 -.822E-01 0.494E+00   -.392E-01 -.225E-01 0.277E+00
   0.567E+01 0.327E+01 -.896E+03   -.562E+01 -.324E+01 0.895E+03   -.691E-01 -.399E-01 0.849E+00   0.293E-01 0.167E-01 0.300E+00
   -.567E+01 0.327E+01 -.896E+03   0.562E+01 -.324E+01 0.895E+03   0.691E-01 -.399E-01 0.849E+00   -.200E-01 0.178E-01 0.300E+00
   0.192E-04 -.211E+02 -.902E+03   0.110E-03 0.209E+02 0.901E+03   0.108E-11 0.164E+00 0.494E+00   0.424E-02 0.548E-01 0.277E+00
   0.537E-04 -.363E-04 -.249E+04   -.113E-03 0.763E-04 0.249E+04   0.115E-17 0.233E-17 0.169E+01   0.258E-03 0.156E-04 -.252E-01
   -.313E+02 -.607E+02 -.250E+04   0.320E+02 0.615E+02 0.250E+04   -.782E+00 -.105E+01 0.156E+01   0.527E-01 0.145E+00 0.469E-02
   0.313E+02 -.607E+02 -.250E+04   -.320E+02 0.615E+02 0.250E+04   0.782E+00 -.105E+01 0.156E+01   -.537E-01 0.146E+00 0.483E-02
   -.682E+02 0.324E+01 -.250E+04   0.693E+02 -.306E+01 0.250E+04   -.130E+01 -.152E+00 0.156E+01   0.152E+00 -.269E-01 0.471E-02
   0.682E+02 0.324E+01 -.250E+04   -.693E+02 -.306E+01 0.250E+04   0.130E+01 -.152E+00 0.156E+01   -.152E+00 -.259E-01 0.552E-02
   -.369E+02 0.574E+02 -.250E+04   0.373E+02 -.585E+02 0.250E+04   -.518E+00 0.120E+01 0.156E+01   0.100E+00 -.119E+00 0.479E-02
   0.369E+02 0.574E+02 -.250E+04   -.373E+02 -.585E+02 0.250E+04   0.518E+00 0.120E+01 0.156E+01   -.990E-01 -.119E+00 0.546E-02
   0.275E-04 -.143E-04 -.250E+04   0.103E-03 -.647E-04 0.250E+04   -.270E-22 0.543E-17 0.182E+01   -.633E-02 -.322E-02 0.302E-01
   -.238E-04 0.111E-06 -.872E+03   0.380E-04 0.429E-05 0.873E+03   0.179E-17 0.120E-17 -.130E+01   0.208E-03 0.130E-03 0.543E-01
   0.475E-05 -.390E-05 -.257E+03   0.456E-05 0.641E-07 0.259E+03   0.306E-19 -.494E-19 -.177E+01   0.471E-04 0.291E-04 -.269E-01
   0.286E-03 -.716E-03 -.394E-01   0.384E-13 0.237E-13 0.284E-11   -.553E-15 0.657E-17 -.722E+01   0.344E-01 0.231E-01 0.736E+01

 POSITION                                       TOTAL-FORCE (eV/Angst)
      0.00000      0.00000      5.28219         0.000000     -0.000000     -0.025521
      2.93046      0.00000      5.28219        -0.003725      0.001796      0.036132
      5.86091      0.00000      5.28219         0.003725      0.001796      0.036132
      1.46523      2.53785      5.28219        -0.000307     -0.004124      0.036132
      4.39568      2.53785      5.28219        -0.000000     -0.000000      0.010728
      7.32614      2.53785      5.28219         0.000307     -0.004124      0.036132
      2.93046      5.07570      5.28219         0.003418      0.002328      0.036132
      5.86091      5.07570      5.28219        -0.003418      0.002328      0.036132
      8.79137      5.07570      5.28219        -0.000000     -0.000000      0.012704
      1.46523      0.84595      7.67490        -0.012713     -0.007340     -0.062954
      4.39568      0.84595      7.67490        -0.000000     -0.056682     -0.062555
      7.32614      0.84595      7.67490         0.012713     -0.007340     -0.062954
      2.93046      3.38380      7.67490        -0.049088      0.028341     -0.062555
      5.86091      3.38380      7.67490         0.049088      0.028341     -0.062555
      8.79137      3.38380      7.67490        -0.000000     -0.004200      0.009995
      4.39568      5.92165      7.67490         0.000000      0.014679     -0.062954
      7.32614      5.92165      7.67490        -0.003637      0.002100      0.009995
     10.25659      5.92165      7.67490         0.003637      0.002100      0.009995
      8.79137      1.69074     10.05145        -0.000000     -0.013827      0.011239
      2.93556      1.69484     10.04095        -0.080421     -0.046431     -0.081304
      5.85581      1.69484     10.04095         0.080421     -0.046431     -0.081304
     10.25435      4.23104     10.05745         0.027605     -0.015938      0.027621
      4.39568      4.22386     10.04095         0.000000      0.092862     -0.081304
      7.32838      4.23104     10.05745        -0.027605     -0.015938      0.027621
     11.72283      6.76818     10.05145         0.011975      0.006914      0.011239
      5.85990      6.76818     10.05145        -0.011975      0.006914      0.011239
      8.79137      6.76501     10.05745         0.000000      0.031875      0.027621
      0.00000      0.00000     12.43413         0.000000     -0.000000      0.025288
      2.95009      0.02948     12.45917        -0.024428     -0.056256     -0.051851
      5.84128      0.02948     12.45917         0.024428     -0.056256     -0.051851
      1.50057      2.54011     12.45917        -0.060933      0.006972     -0.051851
      7.29079      2.54011     12.45917         0.060933      0.006972     -0.051851
      2.94617      5.04396     12.45917        -0.036505      0.049283     -0.051851
      5.84520      5.04396     12.45917         0.036505      0.049283     -0.051851
      8.79137      5.07570     12.45428         0.000000     -0.000000      0.022214
      4.39568      2.53785     12.30230         0.000000     -0.000000      0.546530
      4.39568      2.53785     14.02891         0.000000     -0.000000     -0.023761
    total drift:                                0.034698      0.022344      0.096255

  FREE ENERGIE OF THE ION-ELECTRON SYSTEM (eV)
  free  energy   TOTEN  =       -98.75095716 eV

  energy  without entropy=      -98.75095716  energy(sigma->0) =      -98.75095716

 stress matrix after NEB project (eV)
     -8.34492     -0.00000      0.00000
     -0.00000     -8.34492      0.00000
     -0.00000      0.00000      0.19647
  FORCES: max atom, RMS     0.023761    0.003906
  FORCE total and by dimension    0.023761    0.023761
  Stress total and by dimension   11.803141    8.344924
|           W    W    AA    RRRRR   N    N  II  N    N   GGGG   !!!           |
|           W    W   A  A   R    R  NN   N  II  NN   N  G    G  !!!           |
|           W    W  A    A  R    R  N N  N  II  N N  N  G       !!!           |
|           W WW W  AAAAAA  RRRRR   N  N N  II  N  N N  G  GGG   !            |
|           WW  WW  A    A  R   R   N   NN  II  N   NN  G    G                |
|           W    W  A    A  R    R  N    N  II  N    N   GGGG   !!!           |
|     Tetrahedron method does not include variations of the Fermi             |
|     occupations, so forces and stress will be inaccurate. We suggest        |
|     using a different smearing scheme ISMEAR = 1 or 2 for metals in         |
|     relaxations.                                                            |

 total charge

# of ion       s       p       d       tot
    1        0.421   0.201   9.178   9.800
    2        0.415   0.204   9.177   9.797
    3        0.415   0.204   9.177   9.797
    4        0.415   0.204   9.177   9.797
    5        0.419   0.202   9.177   9.798
    6        0.415   0.204   9.177   9.797
    7        0.415   0.204   9.177   9.797
    8        0.415   0.204   9.177   9.797
    9        0.416   0.203   9.177   9.797
   10        0.410   0.269   9.163   9.842
   11        0.404   0.269   9.168   9.841
   12        0.410   0.269   9.163   9.842
   13        0.404   0.269   9.168   9.841
   14        0.404   0.269   9.168   9.841
   15        0.403   0.270   9.165   9.838
   16        0.410   0.269   9.163   9.842
   17        0.403   0.270   9.165   9.838
   18        0.403   0.270   9.165   9.838
   19        0.404   0.265   9.167   9.836
   20        0.434   0.291   9.140   9.864
   21        0.434   0.291   9.140   9.864
   22        0.397   0.274   9.163   9.835
   23        0.434   0.291   9.140   9.864
   24        0.397   0.274   9.163   9.835
   25        0.404   0.265   9.167   9.836
   26        0.404   0.265   9.167   9.836
   27        0.397   0.274   9.163   9.835
   28        0.411   0.202   9.174   9.787
   29        0.441   0.210   9.156   9.807
   30        0.441   0.210   9.156   9.807
   31        0.441   0.210   9.156   9.807
   32        0.441   0.210   9.156   9.807
   33        0.441   0.210   9.156   9.807
   34        0.441   0.210   9.156   9.807
   35        0.408   0.204   9.175   9.787
   36        0.465   0.521   2.218   3.203
   37        0.520   0.006   0.000   0.526
tot         15.554   8.938 322.992 347.484

 BZINTS: Fermi energy:    0.729262;  390.000000 electrons
         Band energy:-0.131722E+04;  BLOECHL correction:   -0.038707