 vasp.6.2.0 18Jan21 (build Jun 12 2021 23:27:24) complex

 executed on             LinuxIFC date 2022.05.26  20:21:23

 INCAR:
   ISMEAR = -5
   SIGMA = 0.1
   ISPIN = 1
   EDIFF = 1.d-5
   EDIFFG = -0.01
   NSW = 0
   NELM = 150
   ENCUT = 500
   ISIF = 2
   IBRION = 2
   LREAL = Auto
   ALGO = Fast
   ICHARG = 11
   LORBIT = 10
   LCHARG = .F.
   LWAVE = .F.

 POTCAR:    PAW_PBE Ag 02Apr2005
 POTCAR:    PAW_PBE Pd 04Jan2005
|           W    W    AA    RRRRR   N    N  II  N    N   GGGG   !!!           |
|           W    W   A  A   R    R  NN   N  II  NN   N  G    G  !!!           |
|           W    W  A    A  R    R  N N  N  II  N N  N  G       !!!           |
|           W WW W  AAAAAA  RRRRR   N  N N  II  N  N N  G  GGG   !            |
|           WW  WW  A    A  R   R   N   NN  II  N   NN  G    G                |
|           W    W  A    A  R    R  N    N  II  N    N   GGGG   !!!           |
|     For optimal performance we recommend to set                             |
|       NCORE = 2 up to number-of-cores-per-socket                            |
|     This setting can greatly improve the performance of VASP for DFT.       |
|     The default, NCORE=1 might be grossly inefficient on modern             |
|     multi-core architectures or massively parallel machines. Do your        |
|     Unfortunately you need to use the default for GW and RPA                |
|     calculations (for HF NCORE is supported but not extensively tested      |
|     yet).                                                                   |

 POTCAR:    PAW_PBE Ag 02Apr2005
   VRHFIN =Ag : s1 d10

   TITEL  = PAW_PBE Ag 02Apr2005
   POMASS =  107.868; ZVAL   =   11.000    mass and valenz
   ENMAX  =  249.844; ENMIN  =  187.383 eV

 POTCAR:    PAW_PBE Pd 04Jan2005
   VRHFIN =Pd : s1 d9

   TITEL  = PAW_PBE Pd 04Jan2005
   POMASS =  106.420; ZVAL   =   10.000    mass and valenz
   ENMAX  =  250.925; ENMIN  =  188.194 eV

 Optimization of the real space projectors (new method)

 maximal supplied QI-value         = 15.12
 optimisation between [QCUT,QGAM] = [ 11.34, 22.83] = [ 36.00,145.93] Ry
 Optimized for a Real-space Cutoff    1.43 Angstroem

   l    n(q)    QCUT    max X(q) W(low)/X(q) W(high)/X(q)  e(spline)
   2      9    11.338    53.897    0.16E-03    0.20E-03    0.28E-06
   2      9    11.338    52.416    0.16E-03    0.20E-03    0.29E-06
   0     10    11.338   122.045    0.31E-04    0.76E-04    0.15E-06
   0     10    11.338    73.629    0.30E-04    0.72E-04    0.15E-06
   1      9    11.338    15.255    0.20E-03    0.19E-04    0.17E-06
   1      9    11.338     9.562    0.16E-03    0.15E-04    0.14E-06
 Optimization of the real space projectors (new method)

 maximal supplied QI-value         = 14.36
 optimisation between [QCUT,QGAM] = [ 11.35, 22.84] = [ 36.05,146.02] Ry
 Optimized for a Real-space Cutoff    1.47 Angstroem

   l    n(q)    QCUT    max X(q) W(low)/X(q) W(high)/X(q)  e(spline)
   2      9    11.346    59.108    0.74E-04    0.81E-04    0.26E-06
   2      9    11.346    58.101    0.74E-04    0.83E-04    0.27E-06
   0     10    11.346   102.235    0.26E-04    0.31E-04    0.16E-06
   0     10    11.346    58.388    0.23E-04    0.29E-04    0.15E-06
   1     10    11.346    22.191    0.23E-03    0.26E-03    0.14E-06
   1     10    11.346    15.590    0.19E-03    0.22E-03    0.12E-06
  PAW_PBE Ag 02Apr2005                  :
  PAW_PBE Pd 04Jan2005                  :

 POSCAR: Ag-Pd
  positions in direct lattice
  velocities in cartesian coordinates
 exchange correlation table for  LEXCH =        8
   RHO(1)=    0.500       N(1)  =     2000
   RHO(2)=  100.500       N(2)  =     4000

 VTST: version 3.2, (02/03/18)

 CHAIN: initializing optimizer

 OPT: Using VASP Conjugate-Gradient optimizer
 CHAIN: Read ICHAIN            0

 POSCAR: Ag-Pd
  positions in direct lattice
  velocities in cartesian coordinates

 ion  position               nearest neighbor table
   1  0.000  0.000  0.238-   2 2.93   8 2.93   7 2.93   6 2.93   4 2.93  12 2.93  16 2.93  10 2.93
                             3 2.93
   2  0.333  0.000  0.238-   1 2.93   8 2.93   9 2.93   3 2.93   4 2.93   5 2.93  10 2.93  17 2.93
                            11 2.93
   3  0.667  0.000  0.238-   9 2.93   2 2.93   5 2.93  11 2.93   7 2.93  18 2.93   1 2.93   6 2.93
                            12 2.93
   4  0.000  0.333  0.238-   5 2.93   6 2.93   2 2.93   1 2.93   7 2.93  13 2.93  15 2.93   9 2.93
                            10 2.93
   5  0.333  0.333  0.238-   4 2.93   3 2.93   7 2.93   2 2.93   8 2.93  14 2.93  13 2.93  11 2.93
                             6 2.93
   6  0.667  0.333  0.238-   4 2.93   9 2.93   1 2.93  15 2.93   8 2.93  12 2.93   3 2.93   5 2.93
                            14 2.93
   7  0.000  0.667  0.238-   8 2.93   1 2.93   5 2.93   3 2.93   4 2.93  16 2.93  18 2.93  13 2.93
                             9 2.93
   8  0.333  0.667  0.238-   7 2.93   1 2.93   2 2.93   9 2.93   5 2.93  16 2.93   6 2.93  17 2.93
                            14 2.93
   9  0.667  0.667  0.238-   3 2.93   2 2.93   8 2.93   6 2.93  17 2.93   4 2.93  15 2.93   7 2.93
                            18 2.93
  10  0.111  0.111  0.346-  20 2.91  19 2.92  26 2.92  12 2.93  16 2.93  15 2.93  17 2.93  13 2.93
                            11 2.93   2 2.93   1 2.93   4 2.93
  11  0.444  0.111  0.346-  21 2.91  20 2.91  27 2.91  14 2.93  17 2.93  18 2.93   3 2.93  12 2.93
                            13 2.93  10 2.93   5 2.93   2 2.93
  12  0.778  0.111  0.346-  21 2.91  25 2.92  19 2.92  10 2.93  16 2.93  18 2.93  15 2.93  11 2.93
                             1 2.93  14 2.93   6 2.93   3 2.93
  13  0.111  0.444  0.346-  20 2.91  23 2.91  22 2.91  15 2.93  14 2.93  18 2.93  10 2.93  11 2.93
                            16 2.93   4 2.93   5 2.93   7 2.93
  14  0.444  0.444  0.346-  23 2.91  21 2.91  24 2.91  13 2.93  11 2.93  16 2.93   5 2.93  12 2.93
                            17 2.93   8 2.93  15 2.93   6 2.93
  15  0.778  0.444  0.346-  24 2.91  22 2.91  19 2.92  13 2.93  10 2.93  12 2.93  17 2.93  18 2.93
                             4 2.93   6 2.93   9 2.93  14 2.93
  16  0.111  0.778  0.346-  23 2.91  26 2.92  25 2.92  18 2.93  12 2.93  10 2.93  14 2.93  17 2.93
                            13 2.93   7 2.93   8 2.93   1 2.93
  17  0.444  0.778  0.346-  27 2.91  24 2.91  26 2.92  11 2.93  10 2.93   9 2.93  18 2.93  15 2.93
                            16 2.93   2 2.93  14 2.93   8 2.93
  18  0.778  0.778  0.346-  22 2.91  27 2.91  25 2.92  16 2.93  12 2.93  13 2.93  11 2.93  17 2.93
                            15 2.93   7 2.93   3 2.93   9 2.93
  19  0.889  0.223  0.453-  28 2.91  15 2.92  10 2.92  12 2.92  32 2.92  31 2.92  20 2.93  21 2.93
                            24 2.93  22 2.93  26 2.93  25 2.93
  20  0.222  0.222  0.453-  36 2.81  10 2.91  13 2.91  11 2.91  31 2.91  29 2.91  19 2.93  26 2.93
                            27 2.93  22 2.93  21 2.94  23 2.94
  21  0.556  0.222  0.453-  36 2.81  12 2.91  11 2.91  14 2.91  30 2.91  32 2.91  25 2.93  19 2.93
                            27 2.93  24 2.93  20 2.94  23 2.94
  22  0.889  0.556  0.453-  35 2.91  18 2.91  15 2.91  13 2.91  33 2.92  31 2.92  25 2.93  19 2.93
                            24 2.93  27 2.93  23 2.93  20 2.93
  23  0.222  0.556  0.453-  36 2.81  16 2.91  14 2.91  13 2.91  34 2.91  33 2.91  26 2.93  25 2.93
                            22 2.93  24 2.93  21 2.94  20 2.94
  24  0.556  0.556  0.453-  35 2.91  15 2.91  17 2.91  14 2.91  32 2.92  34 2.92  19 2.93  26 2.93
                            27 2.93  22 2.93  23 2.93  21 2.93
  25  0.889  0.889  0.453-  28 2.91  18 2.92  16 2.92  12 2.92  33 2.92  30 2.92  23 2.93  21 2.93
                            22 2.93  27 2.93  26 2.93  19 2.93
  26  0.223  0.889  0.453-  28 2.91  17 2.92  16 2.92  10 2.92  34 2.92  29 2.92  23 2.93  20 2.93
                            27 2.93  24 2.93  25 2.93  19 2.93
  27  0.556  0.889  0.453-  35 2.91  17 2.91  18 2.91  11 2.91  29 2.92  30 2.92  26 2.93  25 2.93
                            24 2.93  22 2.93  20 2.93  21 2.93
  28  0.000  0.000  0.560-  26 2.91  25 2.91  19 2.91  29 2.94  34 2.94  33 2.94  32 2.94  31 2.94
                            30 2.94
  29  0.333  0.003  0.560-  30 2.91  31 2.91  36 2.91  20 2.91  27 2.92  26 2.92  35 2.94  28 2.94
                            34 2.98
  30  0.664  0.003  0.560-  29 2.91  32 2.91  36 2.91  21 2.91  27 2.92  25 2.92  35 2.94  28 2.94
                            33 2.98
  31  0.003  0.333  0.560-  33 2.91  29 2.91  36 2.91  20 2.91  22 2.92  19 2.92  35 2.94  28 2.94
                            32 2.98
  32  0.664  0.333  0.560-  34 2.91  30 2.91  36 2.91  21 2.91  24 2.92  19 2.92  35 2.94  28 2.94
                            31 2.98
  33  0.003  0.664  0.560-  31 2.91  34 2.91  36 2.91  23 2.91  22 2.92  25 2.92  35 2.94  28 2.94
                            30 2.98
  34  0.333  0.664  0.560-  32 2.91  33 2.91  36 2.91  23 2.91  24 2.92  26 2.92  35 2.94  28 2.94
                            29 2.98
  35  0.667  0.667  0.560-  24 2.91  27 2.91  22 2.91  30 2.94  29 2.94  32 2.94  34 2.94  31 2.94
                            33 2.94
  36  0.333  0.333  0.554-  21 2.81  20 2.81  23 2.81  31 2.91  33 2.91  30 2.91  29 2.91  34 2.91
                            32 2.91

  LATTYP: Found a hexagonal cell.
 ALAT       =     8.7913665772
 C/A-ratio  =     2.5227160501

  Lattice vectors:

 A1 = (  -4.3956832886,  -7.6135467898,   0.0000000000)
 A2 = (   8.7913665771,   0.0000000000,   0.0000000000)
 A3 = (   0.0000000000,   0.0000000000,  22.1781215668)

Analysis of symmetry for initial positions (statically):
 Subroutine PRICEL returns:
 Original cell was already a primitive cell.

 Routine SETGRP: Setting up the symmetry group for a
 hexagonal supercell.

 Subroutine GETGRP returns: Found  6 space group operations
 (whereof  6 operations were pure point group operations)
 out of a pool of 24 trial point group operations.

The static configuration has the point symmetry C_3v.

Analysis of symmetry for dynamics (positions and initial velocities):
 Subroutine PRICEL returns:
 Original cell was already a primitive cell.

[...]

The dynamic configuration has the point symmetry C_3v.

Analysis of constrained symmetry for selective dynamics:
 Subroutine PRICEL returns:
 Original cell was already a primitive cell.

 Routine SETGRP: Setting up the symmetry group for a
 hexagonal supercell.

 Subroutine GETGRP returns: Found  6 space group operations
 (whereof  6 operations were pure point group operations)
 out of a pool of 24 trial point group operations.

The constrained configuration has the point symmetry C_3v.

 Subroutine INISYM returns: Found  6 space group operations
 (whereof  6 operations are pure point group operations),
 and found     1 'primitive' translations

                                     Primitive cell

  volume of cell :    1484.4589

  direct lattice vectors                    reciprocal lattice vectors
     8.791366577  0.000000000  0.000000000     0.113747958 -0.065672414  0.000000000
     4.395683289  7.613546790  0.000000000     0.000000000  0.131344829  0.000000000
[...]
     15      -4.7020      2.00000
     16      -4.6976      2.00000
     17      -4.6646      2.00000
     18      -4.6616      2.00000
     19      -4.6545      2.00000
     20      -4.6540      2.00000
     21      -4.6364      2.00000
     22      -4.6119      2.00000
     23      -4.6007      2.00000
     24      -4.5796      2.00000
     25      -4.5580      2.00000
     26      -4.5389      2.00000
     27      -4.5228      2.00000
     28      -4.5160      2.00000
     29      -4.4920      2.00000
     30      -4.4869      2.00000
     31      -4.4820      2.00000
     32      -4.4557      2.00000
     33      -4.4005      2.00000
     34      -4.3833      2.00000
     35      -4.3537      2.00000
     36      -4.3453      2.00000
     37      -4.3216      2.00000
     38      -4.2944      2.00000
     39      -4.2829      2.00000
     40      -4.2770      2.00000
     41      -4.2561      2.00000
     42      -4.2449      2.00000
     43      -4.1721      2.00000
     44      -4.1399      2.00000
     45      -4.1381      2.00000
     46      -4.1276      2.00000
     47      -4.1205      2.00000
     48      -4.1152      2.00000
     49      -4.1046      2.00000
     50      -4.0916      2.00000
     51      -4.0681      2.00000
     52      -4.0647      2.00000
     53      -4.0038      2.00000
     54      -3.9965      2.00000
     55      -3.9887      2.00000
     56      -3.9813      2.00000
     57      -3.9673      2.00000
     58      -3.9541      2.00000
     59      -3.9121      2.00000
     60      -3.9078      2.00000
[...]
    238       7.2426      0.00000
    239       7.2554      0.00000
    240       7.2573      0.00000
    241       7.3041      0.00000
    242       7.3348      0.00000
    243       7.3747      0.00000
    244       7.4124      0.00000
    245       7.5704      0.00000
    246       7.5917      0.00000
    247       7.6462      0.00000
    248       7.6770      0.00000
    249       7.7282      0.00000
    250       7.9889      0.00000
    251       8.0317      0.00000
    252       8.1511      0.00000

 soft charge-density along one line, spin component           1
         0         1         2         3         4         5         6         7         8         9
 total charge-density along one line

------------------------ aborting loop because EDIFF is reached ----------------------------------------

 total charge

# of ion       s       p       d       tot
    1        0.415   0.204   9.177   9.796
    2        0.418   0.203   9.177   9.798
    3        0.418   0.203   9.177   9.798
    4        0.418   0.203   9.177   9.798
    5        0.414   0.204   9.178   9.795
    6        0.418   0.203   9.177   9.798
    7        0.418   0.203   9.177   9.798
    8        0.418   0.203   9.177   9.798
    9        0.417   0.203   9.177   9.797
   10        0.406   0.270   9.164   9.840
   11        0.407   0.268   9.166   9.841
   12        0.406   0.270   9.164   9.840
   13        0.407   0.268   9.166   9.841
   14        0.407   0.268   9.166   9.841
   15        0.404   0.270   9.166   9.840
   16        0.406   0.270   9.164   9.840
   17        0.404   0.270   9.166   9.840
   18        0.404   0.270   9.166   9.840
   19        0.405   0.269   9.168   9.841
   20        0.408   0.278   9.163   9.849
   21        0.408   0.278   9.163   9.849
   22        0.403   0.272   9.166   9.840
   23        0.408   0.278   9.163   9.849
   24        0.403   0.272   9.166   9.840
   25        0.405   0.269   9.168   9.841
   26        0.405   0.269   9.168   9.841
   27        0.403   0.272   9.166   9.840
   28        0.417   0.199   9.180   9.796
   29        0.415   0.203   9.178   9.796
   30        0.415   0.203   9.178   9.796
   31        0.415   0.203   9.178   9.796
   32        0.415   0.203   9.178   9.796
   33        0.415   0.203   9.178   9.796
   34        0.415   0.203   9.178   9.796
   35        0.415   0.201   9.180   9.796
   36        0.403   0.238   8.613   9.254
tot         14.773   8.562 329.617 352.952

  FORCE on cell =-STRESS in cart. coord.  units (eV):
  Direction    XX          YY          ZZ          XY          YZ          ZX
  Alpha Z   737.48503   737.48503   737.48503
  Ewald  121813.24873121813.24873************     0.00000     0.00000    -0.00001
  Hartree132035.78698132035.78698************     0.00000     0.00000    -0.00000
  E(xc)   -2081.97079 -2081.97077 -2087.65583    -0.00002     0.00000     0.00000
  Local  ************************265410.21103     0.00026    -0.00004    -0.00006
  n-local  -339.29670  -318.50555  -335.28245    11.95220    -0.50936     0.66943
  augment  3293.85838  3293.85859  3303.62055    -0.00019    -0.00001    -0.00001
  Kinetic  4901.27907  4906.73920  4931.43122     5.33071     0.90202    -0.14951
  Fock        0.00000     0.00000     0.00000     0.00000     0.00000     0.00000
  Total      -7.95615    -7.95615    -0.71907    -0.00000     0.00000     0.00000
  in kB      -8.58707    -8.58707    -0.77610    -0.00000     0.00000     0.00000

 VOLUME and BASIS-vectors are now :
  energy-cutoff  :      500.00
  volume of cell :     1484.46
      direct lattice vectors                 reciprocal lattice vectors
     8.791366577  0.000000000  0.000000000     0.113747958 -0.065672414  0.000000000
     4.395683289  7.613546790  0.000000000     0.000000000  0.131344829  0.000000000
     0.000000000  0.000000000 22.178121567     0.000000000  0.000000000  0.045089481

  length of vectors
     8.791366577  8.791366577 22.178121567     0.131344829  0.131344829  0.045089481

 FORCES acting on ions
    electron-ion (+dipol)            ewald-force                    non-local-force                 convergence-correction
   0.461E-04 -.282E-04 0.250E+04   -.954E-04 0.593E-04 -.250E+04   -.800E-17 0.713E-19 -.191E+01   -.843E-04 -.156E-03 -.144E+00
   0.120E+00 0.248E+00 0.250E+04   -.158E+00 -.150E+00 -.250E+04   0.176E-01 -.466E-01 -.167E+01   0.175E-01 -.481E-01 -.110E+00
   -.120E+00 0.248E+00 0.250E+04   0.159E+00 -.150E+00 -.250E+04   -.176E-01 -.466E-01 -.167E+01   -.181E-01 -.462E-01 -.109E+00
   0.275E+00 -.202E-01 0.250E+04   -.210E+00 -.619E-01 -.250E+04   -.316E-01 0.386E-01 -.167E+01   -.327E-01 0.394E-01 -.110E+00
   -.772E-05 -.198E-04 0.251E+04   0.981E-04 -.199E-05 -.250E+04   0.209E-17 -.389E-18 -.171E+01   0.618E-02 0.378E-02 -.176E+00
   -.275E+00 -.201E-01 0.250E+04   0.209E+00 -.620E-01 -.250E+04   0.316E-01 0.386E-01 -.167E+01   0.313E-01 0.403E-01 -.109E+00
   0.155E+00 -.228E+00 0.250E+04   -.512E-01 0.212E+00 -.250E+04   -.492E-01 0.808E-02 -.167E+01   -.486E-01 0.794E-02 -.109E+00
   -.155E+00 -.228E+00 0.250E+04   0.511E-01 0.212E+00 -.250E+04   0.492E-01 0.808E-02 -.167E+01   0.502E-01 0.700E-02 -.109E+00
   0.365E-04 -.131E-04 0.250E+04   0.792E-04 -.643E-04 -.250E+04   0.544E-19 -.934E-18 -.174E+01   -.663E-02 -.341E-02 -.809E-01
   0.197E+01 0.113E+01 0.837E+03   -.185E+01 -.107E+01 -.836E+03   -.948E-01 -.547E-01 -.649E+00   -.934E-02 -.537E-02 0.243E-01
   -.290E-04 0.131E+01 0.839E+03   0.413E-04 -.137E+01 -.839E+03   -.447E-13 -.680E-02 -.594E+00   0.619E-02 0.491E-01 0.626E-01
   -.197E+01 0.113E+01 0.837E+03   0.185E+01 -.107E+01 -.836E+03   0.948E-01 -.547E-01 -.649E+00   0.806E-02 -.471E-02 0.234E-01
   0.114E+01 -.657E+00 0.839E+03   -.119E+01 0.684E+00 -.839E+03   -.589E-02 0.340E-02 -.594E+00   0.455E-01 -.192E-01 0.626E-01
   -.114E+01 -.657E+00 0.839E+03   0.119E+01 0.684E+00 -.839E+03   0.589E-02 0.340E-02 -.594E+00   -.352E-01 -.201E-01 0.610E-01
   0.158E-04 0.438E+00 0.837E+03   -.108E-03 -.409E+00 -.837E+03   -.134E-13 -.204E-02 -.565E+00   -.128E-02 -.273E-01 0.415E-01
   -.825E-05 -.227E+01 0.837E+03   0.206E-04 0.213E+01 -.836E+03   0.719E-12 0.109E+00 -.649E+00   -.896E-04 0.926E-02 0.234E-01
   0.379E+00 -.219E+00 0.837E+03   -.354E+00 0.204E+00 -.837E+03   -.176E-02 0.102E-02 -.565E+00   -.243E-01 0.125E-01 0.415E-01
   -.379E+00 -.219E+00 0.837E+03   0.354E+00 0.204E+00 -.837E+03   0.176E-02 0.102E-02 -.565E+00   0.245E-01 0.141E-01 0.423E-01
   0.418E-04 0.867E+00 -.857E+03   -.129E-03 -.905E+00 0.856E+03   -.297E-13 -.452E-02 0.518E+00   0.102E-02 0.331E-01 0.506E-01
   0.501E+01 0.289E+01 -.844E+03   -.473E+01 -.273E+01 0.844E+03   -.332E+00 -.192E+00 -.273E+00   0.506E-01 0.293E-01 0.976E-01
   -.501E+01 0.289E+01 -.844E+03   0.473E+01 -.273E+01 0.844E+03   0.332E+00 -.192E+00 -.273E+00   -.615E-01 0.289E-01 0.973E-01
   0.135E+01 -.779E+00 -.852E+03   -.152E+01 0.876E+00 0.851E+03   0.154E+00 -.889E-01 0.556E+00   0.114E-01 -.617E-02 0.884E-01
   -.567E-04 -.578E+01 -.844E+03   0.429E-04 0.546E+01 0.844E+03   0.252E-11 0.384E+00 -.273E+00   -.541E-02 -.671E-01 0.973E-01
   -.135E+01 -.779E+00 -.852E+03   0.152E+01 0.875E+00 0.851E+03   -.154E+00 -.889E-01 0.556E+00   -.988E-02 -.561E-02 0.886E-01
   -.750E+00 -.433E+00 -.857E+03   0.784E+00 0.453E+00 0.856E+03   0.391E-02 0.226E-02 0.518E+00   -.287E-01 -.167E-01 0.503E-01
   0.751E+00 -.433E+00 -.857E+03   -.784E+00 0.452E+00 0.856E+03   -.391E-02 0.226E-02 0.518E+00   0.289E-01 -.158E-01 0.507E-01
   0.195E-04 0.156E+01 -.852E+03   0.110E-03 -.175E+01 0.851E+03   0.117E-11 0.178E+00 0.556E+00   -.297E-03 0.129E-01 0.885E-01
   0.545E-04 -.378E-04 -.252E+04   -.116E-03 0.779E-04 0.252E+04   0.363E-17 0.135E-17 0.191E+01   0.249E-03 0.734E-05 0.197E+00
   0.791E+00 0.112E+00 -.252E+04   -.499E+00 0.332E+00 0.252E+04   -.317E+00 -.427E+00 0.185E+01   0.203E-01 -.199E-01 0.168E+00
   -.791E+00 0.112E+00 -.252E+04   0.499E+00 0.332E+00 0.252E+04   0.317E+00 -.427E+00 0.185E+01   -.211E-01 -.187E-01 0.168E+00
   0.492E+00 0.629E+00 -.252E+04   0.379E-01 -.598E+00 0.252E+04   -.528E+00 -.612E-01 0.185E+01   -.688E-02 0.277E-01 0.168E+00
   -.492E+00 0.629E+00 -.252E+04   -.380E-01 -.598E+00 0.252E+04   0.528E+00 -.612E-01 0.185E+01   0.646E-02 0.286E-01 0.168E+00
   -.298E+00 -.741E+00 -.252E+04   0.536E+00 0.266E+00 0.252E+04   -.211E+00 0.488E+00 0.185E+01   -.263E-01 -.841E-02 0.168E+00
   0.298E+00 -.741E+00 -.252E+04   -.536E+00 0.266E+00 0.252E+04   0.211E+00 0.488E+00 0.185E+01   0.276E-01 -.865E-02 0.168E+00
   0.244E-04 -.123E-04 -.252E+04   0.105E-03 -.662E-04 0.251E+04   0.102E-17 0.119E-17 0.195E+01   -.634E-02 -.323E-02 0.149E+00
   -.810E-05 -.225E-04 -.225E+04   0.943E-04 0.110E-04 0.225E+04   -.379E-17 -.383E-17 0.230E+01   0.398E-02 0.244E-02 0.210E+00
   0.337E-03 -.721E-03 -.441E+00   -.113E-13 -.227E-13 -.500E-11   -.142E-15 0.108E-15 -.114E+01   -.284E-02 0.165E-02 0.160E+01

 POSITION                                       TOTAL-FORCE (eV/Angst)
      0.00000      0.00000      5.28219         0.000000      0.000000      0.061053
      2.93046      0.00000      5.28219        -0.002794      0.003677      0.033832
      5.86091      0.00000      5.28219         0.002794      0.003677      0.033832
      1.46523      2.53785      5.28219         0.001787     -0.004259      0.033832
      4.39568      2.53785      5.28219         0.000000      0.000000      0.025440
      7.32614      2.53785      5.28219        -0.001787     -0.004259      0.033832
      2.93046      5.07570      5.28219         0.004582      0.000582      0.033832
      5.86091      5.07570      5.28219        -0.004582      0.000582      0.033832
      8.79137      5.07570      5.28219        -0.000000     -0.000000      0.041531
      1.46523      0.84595      7.67490         0.015285      0.008825     -0.024844
      4.39568      0.84595      7.67490        -0.000000     -0.014970     -0.057730
      7.32614      0.84595      7.67490        -0.015285      0.008825     -0.024844
      2.93046      3.38380      7.67490        -0.012964      0.007485     -0.057730
      5.86091      3.38380      7.67490         0.012964      0.007485     -0.057730
      8.79137      3.38380      7.67490        -0.000000     -0.000864     -0.018545
      4.39568      5.92165      7.67490        -0.000000     -0.017650     -0.024844
      7.32614      5.92165      7.67490        -0.000748      0.000432     -0.018545
     10.25659      5.92165      7.67490         0.000748      0.000432     -0.018545
      8.79137      1.69432     10.05238        -0.000000     -0.009693     -0.001678
      2.92802      1.69049     10.04000         0.002239      0.001293     -0.005221
      5.86334      1.69049     10.04000        -0.002239      0.001293     -0.005221
     10.25637      4.22988     10.04709        -0.003327      0.001921      0.008085
      4.39568      4.23256     10.04000        -0.000000     -0.002586     -0.005221
      7.32637      4.22988     10.04709         0.003327      0.001921      0.008085
     11.71973      6.76639     10.05238         0.008394      0.004847     -0.001678
      5.86300      6.76639     10.05238        -0.008394      0.004847     -0.001678
      8.79137      6.76733     10.04709        -0.000000     -0.003842      0.008085
      0.00000      0.00000     12.42253         0.000000      0.000000      0.002263
      2.94245      0.01904     12.42445        -0.003973     -0.002306     -0.007080
      5.84892      0.01904     12.42445         0.003973     -0.002306     -0.007080
      1.48772      2.53872     12.42445        -0.003983     -0.002288     -0.007080
      7.30365      2.53872     12.42445         0.003983     -0.002288     -0.007080
      2.94095      5.05579     12.42445        -0.000010      0.004594     -0.007080
      5.85042      5.05579     12.42445         0.000010      0.004594     -0.007080
      8.79137      5.07570     12.41807        -0.000000     -0.000000      0.002577
      4.39568      2.53785     12.28633        -0.000000     -0.000000      0.006426
    total drift:                               -0.002504      0.000930      0.021433

  FREE ENERGIE OF THE ION-ELECTRON SYSTEM (eV)
  free  energy   TOTEN  =       -94.25640248 eV

  energy  without entropy=      -94.25640248  energy(sigma->0) =      -94.25640248

 stress matrix after NEB project (eV)
     -7.95615     -0.00000      0.00000
     -0.00000     -7.95615      0.00000
     -0.00000      0.00000     -0.71907
  FORCES: max atom, RMS     0.009837    0.005560
  FORCE total and by dimension    0.033361    0.009693
  Stress total and by dimension   11.274645    7.956147
|           W    W    AA    RRRRR   N    N  II  N    N   GGGG   !!!           |
|           W    W   A  A   R    R  NN   N  II  NN   N  G    G  !!!           |
|           W    W  A    A  R    R  N N  N  II  N N  N  G       !!!           |
|           W WW W  AAAAAA  RRRRR   N  N N  II  N  N N  G  GGG   !            |
|           WW  WW  A    A  R   R   N   NN  II  N   NN  G    G                |
|           W    W  A    A  R    R  N    N  II  N    N   GGGG   !!!           |
|     Tetrahedron method does not include variations of the Fermi             |
|     occupations, so forces and stress will be inaccurate. We suggest        |
|     using a different smearing scheme ISMEAR = 1 or 2 for metals in         |
|     relaxations.                                                            |

 total charge

# of ion       s       p       d       tot
    1        0.415   0.204   9.177   9.796
    2        0.418   0.203   9.177   9.798
    3        0.418   0.203   9.177   9.798
    4        0.418   0.203   9.177   9.798
    5        0.414   0.204   9.178   9.795
    6        0.418   0.203   9.177   9.798
    7        0.418   0.203   9.177   9.798
    8        0.418   0.203   9.177   9.798
    9        0.417   0.203   9.177   9.797
   10        0.406   0.270   9.164   9.840
   11        0.407   0.268   9.166   9.841
   12        0.406   0.270   9.164   9.840
   13        0.407   0.268   9.166   9.841
   14        0.407   0.268   9.166   9.841
   15        0.404   0.270   9.166   9.840
   16        0.406   0.270   9.164   9.840
   17        0.404   0.270   9.166   9.840
   18        0.404   0.270   9.166   9.840
   19        0.405   0.269   9.168   9.841
   20        0.408   0.278   9.163   9.849
   21        0.408   0.278   9.163   9.849
   22        0.403   0.272   9.166   9.840
   23        0.408   0.278   9.163   9.849
   24        0.403   0.272   9.166   9.840
   25        0.405   0.269   9.168   9.841
   26        0.405   0.269   9.168   9.841
   27        0.403   0.272   9.166   9.840
   28        0.417   0.199   9.180   9.796
   29        0.415   0.203   9.178   9.796
   30        0.415   0.203   9.178   9.796
   31        0.415   0.203   9.178   9.796
   32        0.415   0.203   9.178   9.796
   33        0.415   0.203   9.178   9.796
   34        0.415   0.203   9.178   9.796
   35        0.415   0.201   9.180   9.796
   36        0.403   0.238   8.613   9.254
tot         14.773   8.562 329.617 352.952

 BZINTS: Fermi energy:    0.829811;  395.000000 electrons
         Band energy:-0.125157E+04;  BLOECHL correction:   -0.086938