 vasp.6.2.0 18Jan21 (build Jun 12 2021 23:27:24) complex

 executed on             LinuxIFC date 2022.05.30  16:21:27

 INCAR:
   ISMEAR = -5
   SIGMA = 0.1
   ISPIN = 1
   EDIFF = 1.d-5
   EDIFFG = -0.01
   NSW = 0
   NELM = 150
   ENCUT = 500
   ISIF = 2
   IBRION = 2
   LREAL = Auto
   ALGO = Fast
   ICHARG = 11
   LORBIT = 10
   LCHARG = .F.
   LWAVE = .F.

 POTCAR:    PAW_PBE Au 04Oct2007
 POTCAR:    PAW_PBE Pd 04Jan2005
 POTCAR:    PAW_PBE C 08Apr2002
 POTCAR:    PAW_PBE O 08Apr2002
 POTCAR:    PAW_PBE H 15Jun2001
|           W    W    AA    RRRRR   N    N  II  N    N   GGGG   !!!           |
|           W    W   A  A   R    R  NN   N  II  NN   N  G    G  !!!           |
|           W    W  A    A  R    R  N N  N  II  N N  N  G       !!!           |
|           W WW W  AAAAAA  RRRRR   N  N N  II  N  N N  G  GGG   !            |
|           WW  WW  A    A  R   R   N   NN  II  N   NN  G    G                |
|           W    W  A    A  R    R  N    N  II  N    N   GGGG   !!!           |
|     For optimal performance we recommend to set                             |
|       NCORE = 2 up to number-of-cores-per-socket                            |
|     This setting can greatly improve the performance of VASP for DFT.       |
|     The default, NCORE=1 might be grossly inefficient on modern             |
|     multi-core architectures or massively parallel machines. Do your        |
|     Unfortunately you need to use the default for GW and RPA                |
|     calculations (for HF NCORE is supported but not extensively tested      |
|     yet).                                                                   |

 POTCAR:    PAW_PBE Au 04Oct2007
   VRHFIN =Au: s1d10

   TITEL  = PAW_PBE Au 04Oct2007
   POMASS =  196.966; ZVAL   =   11.000    mass and valenz
   ENMAX  =  229.943; ENMIN  =  172.457 eV

 POTCAR:    PAW_PBE Pd 04Jan2005
   VRHFIN =Pd : s1 d9

   TITEL  = PAW_PBE Pd 04Jan2005
   POMASS =  106.420; ZVAL   =   10.000    mass and valenz
   ENMAX  =  250.925; ENMIN  =  188.194 eV

 POTCAR:    PAW_PBE C 08Apr2002
   VRHFIN =C: s2p2

   TITEL  = PAW_PBE C 08Apr2002
   POMASS =   12.011; ZVAL   =    4.000    mass and valenz
   ENMAX  =  400.000; ENMIN  =  300.000 eV

 POTCAR:    PAW_PBE O 08Apr2002
   VRHFIN =O: s2p4

   TITEL  = PAW_PBE O 08Apr2002
   POMASS =   16.000; ZVAL   =    6.000    mass and valenz
   ENMAX  =  400.000; ENMIN  =  300.000 eV

 POTCAR:    PAW_PBE H 15Jun2001
   VRHFIN =H: ultrasoft test

   TITEL  = PAW_PBE H 15Jun2001
   POMASS =    1.000; ZVAL   =    1.000    mass and valenz
   ENMAX  =  250.000; ENMIN  =  200.000 eV

 Optimization of the real space projectors (new method)

 maximal supplied QI-value         = 15.12
 optimisation between [QCUT,QGAM] = [ 11.34, 22.83] = [ 36.00,145.93] Ry
 Optimized for a Real-space Cutoff    1.39 Angstroem

   l    n(q)    QCUT    max X(q) W(low)/X(q) W(high)/X(q)  e(spline)
   2      9    11.338    60.898    0.39E-03    0.42E-03    0.21E-06
   2      9    11.338    58.894    0.40E-03    0.42E-03    0.22E-06
   0      9    11.338   109.617    0.13E-03    0.20E-04    0.13E-06
   0      9    11.338    75.026    0.13E-03    0.20E-04    0.13E-06
   1      9    11.338    16.344    0.33E-04    0.24E-03    0.18E-06
   1      9    11.338    10.160    0.26E-04    0.19E-03    0.15E-06
 Optimization of the real space projectors (new method)

[...]

   l    n(q)    QCUT    max X(q) W(low)/X(q) W(high)/X(q)  e(spline)
   0      7    11.387    20.381    0.39E-03    0.13E-02    0.15E-06
   0      7    11.387    15.268    0.42E-03    0.14E-02    0.17E-06
   1      6    11.387     5.964    0.41E-03    0.11E-02    0.17E-06
   1      6    11.387     5.382    0.39E-03    0.87E-03    0.15E-06
 Optimization of the real space projectors (new method)

 maximal supplied QI-value         = 34.20
 optimisation between [QCUT,QGAM] = [ 11.29, 22.57] = [ 35.68,142.71] Ry
 Optimized for a Real-space Cutoff    1.16 Angstroem

   l    n(q)    QCUT    max X(q) W(low)/X(q) W(high)/X(q)  e(spline)
   0      8    11.287    19.460    0.40E-03    0.73E-03    0.16E-06
   0      8    11.287    12.209    0.38E-03    0.70E-03    0.15E-06
   1      7    11.287     4.655    0.22E-03    0.25E-04    0.22E-06
  PAW_PBE Au 04Oct2007                  :
  PAW_PBE Pd 04Jan2005                  :
  PAW_PBE C 08Apr2002                   :
  PAW_PBE O 08Apr2002                   :
  PAW_PBE H 15Jun2001                   :

 POSCAR: Au-Pd-COH
  positions in direct lattice
  velocities in cartesian coordinates
 exchange correlation table for  LEXCH =        8
   RHO(1)=    0.500       N(1)  =     2000
   RHO(2)=  100.500       N(2)  =     4000

 VTST: version 3.2, (02/03/18)

 CHAIN: initializing optimizer

 OPT: Using VASP Conjugate-Gradient optimizer
 CHAIN: Read ICHAIN            0

 POSCAR: Au-Pd-COH
  positions in direct lattice
  velocities in cartesian coordinates

 ion  position               nearest neighbor table
   1  0.000  0.000  0.197-  16 2.94  12 2.94   6 2.94   8 2.94   7 2.94   3 2.94  10 2.94   4 2.94
                             2 2.94
   2  0.333  0.000  0.197-   9 2.94  11 2.94  17 2.94  10 2.94   8 2.94   4 2.94   5 2.94   1 2.94
                             3 2.94
   3  0.667  0.000  0.197-   7 2.94  18 2.94  12 2.94   1 2.94  11 2.94   5 2.94   6 2.94   9 2.94
                             2 2.94
   4  0.000  0.333  0.197-  10 2.94   6 2.94   5 2.94  13 2.94   2 2.94  15 2.94   9 2.94   1 2.94
                             7 2.94
   5  0.333  0.333  0.197-  13 2.94   7 2.94  11 2.94   4 2.94   2 2.94  14 2.94   3 2.94   8 2.94
                             6 2.94
   6  0.667  0.333  0.197-  15 2.94  14 2.94   1 2.94  12 2.94   4 2.94   9 2.94   8 2.94   3 2.94
                             5 2.94
   7  0.000  0.667  0.197-  18 2.94   3 2.94  16 2.94   5 2.94   1 2.94  13 2.94   8 2.94   4 2.94
                             9 2.94
   8  0.333  0.667  0.197-   9 2.94  17 2.94   1 2.94   2 2.94  14 2.94  16 2.94   6 2.94   7 2.94
                             5 2.94
   9  0.667  0.667  0.197-   2 2.94   8 2.94  17 2.94   6 2.94  15 2.94   4 2.94   3 2.94  18 2.94
                             7 2.94
  10  0.111  0.111  0.287-  26 2.92  19 2.92  20 2.93  11 2.94  17 2.94   2 2.94   4 2.94   1 2.94
                            12 2.94  16 2.94  13 2.94  15 2.94
  11  0.444  0.111  0.287-  27 2.93  20 2.93  21 2.93  13 2.94   2 2.94  10 2.94  17 2.94   5 2.94
                             3 2.94  18 2.94  14 2.94  12 2.94
  12  0.778  0.111  0.287-  25 2.92  19 2.92  21 2.93  16 2.94  18 2.94   1 2.94  14 2.94  15 2.94
                             3 2.94   6 2.94  10 2.94  11 2.94
  13  0.111  0.444  0.287-  22 2.93  23 2.93  20 2.93   5 2.94  18 2.94  11 2.94   7 2.94   4 2.94
                            16 2.94  10 2.94  14 2.94  15 2.94
  14  0.444  0.444  0.287-  24 2.93  21 2.93  23 2.93  15 2.94   6 2.94  12 2.94   8 2.94  17 2.94
                             5 2.94  16 2.94  13 2.94  11 2.94
  15  0.778  0.444  0.287-  19 2.93  24 2.93  22 2.93  14 2.94   6 2.94  17 2.94  12 2.94   9 2.94
                             4 2.94  10 2.94  13 2.94  18 2.94
  16  0.111  0.778  0.287-  25 2.92  26 2.92  23 2.93  18 2.94  12 2.94   7 2.94   1 2.94   8 2.94
                            13 2.94  10 2.94  14 2.94  17 2.94
  17  0.444  0.778  0.287-  26 2.93  27 2.93  24 2.93   9 2.94  15 2.94   2 2.94  10 2.94  11 2.94
                             8 2.94  14 2.94  16 2.94  18 2.94
  18  0.778  0.778  0.287-  25 2.93  22 2.93  27 2.93  16 2.94   7 2.94  13 2.94  12 2.94   3 2.94
                            11 2.94   9 2.94  15 2.94  17 2.94
  19  0.889  0.222  0.376-  10 2.92  12 2.92  15 2.93  26 2.93  25 2.93  21 2.94  20 2.94  24 2.94
                            22 2.94  28 2.96  32 2.97  31 2.97
  20  0.222  0.222  0.376-  36 2.83  10 2.93  11 2.93  13 2.93  26 2.94  19 2.94  27 2.94  22 2.94
                            23 2.94  21 2.94  29 2.95  31 2.95
  21  0.556  0.222  0.376-  36 2.83  12 2.93  14 2.93  11 2.93  25 2.94  19 2.94  24 2.94  27 2.94
                            20 2.94  23 2.94  30 2.95  32 2.95
  22  0.889  0.556  0.376-  18 2.93  15 2.93  13 2.93  24 2.94  27 2.94  23 2.94  20 2.94  25 2.94
                            19 2.94  33 2.96  31 2.96  35 2.96
  23  0.222  0.556  0.376-  36 2.83  16 2.93  13 2.93  14 2.93  25 2.94  26 2.94  22 2.94  24 2.94
                            20 2.94  21 2.94  33 2.95  34 2.95
  24  0.556  0.556  0.376-  15 2.93  17 2.93  14 2.93  27 2.94  22 2.94  21 2.94  23 2.94  26 2.94
                            19 2.94  32 2.96  34 2.96  35 2.96
  25  0.889  0.889  0.376-  16 2.92  12 2.92  18 2.93  19 2.93  26 2.93  23 2.94  21 2.94  22 2.94
                            27 2.94  28 2.96  33 2.97  30 2.97
  26  0.222  0.889  0.376-  10 2.92  16 2.92  17 2.93  19 2.93  25 2.93  20 2.94  23 2.94  27 2.94
                            24 2.94  28 2.96  29 2.97  34 2.97
  27  0.556  0.889  0.376-  17 2.93  18 2.93  11 2.93  24 2.94  22 2.94  20 2.94  21 2.94  26 2.94
                            25 2.94  29 2.96  30 2.96  35 2.96
  28  0.000  0.000  0.467-  34 2.94  32 2.94  33 2.94  30 2.94  31 2.94  29 2.94  25 2.96  19 2.96
                            26 2.96
  29  0.333  0.001  0.467-  30 2.93  31 2.93  36 2.93  35 2.94  28 2.94  20 2.95  34 2.95  27 2.96
                            26 2.97
  30  0.666  0.001  0.467-  29 2.93  32 2.93  36 2.93  35 2.94  28 2.94  21 2.95  33 2.95  27 2.96
                            25 2.97
  31  0.001  0.333  0.467-  33 2.93  29 2.93  36 2.93  35 2.94  28 2.94  20 2.95  32 2.95  22 2.96
                            19 2.97
  32  0.666  0.333  0.467-  34 2.93  30 2.93  36 2.93  35 2.94  28 2.94  21 2.95  31 2.95  24 2.96
                            19 2.97
  33  0.001  0.666  0.467-  31 2.93  34 2.93  36 2.93  35 2.94  28 2.94  23 2.95  30 2.95  22 2.96
                            25 2.97
  34  0.333  0.666  0.467-  32 2.93  33 2.93  36 2.93  35 2.94  28 2.94  23 2.95  29 2.95  24 2.96
                            26 2.97
  35  0.667  0.667  0.467-  29 2.94  34 2.94  32 2.94  31 2.94  30 2.94  33 2.94  24 2.96  27 2.96
                            22 2.96
  36  0.333  0.333  0.461-  37 1.81  20 2.83  23 2.83  21 2.83  33 2.93  31 2.93  29 2.93  30 2.93
                            34 2.93  32 2.93
  37  0.333  0.333  0.529-  38 1.24  36 1.81
  38  0.333  0.333  0.575-  39 0.97  37 1.24
  39  0.333  0.333  0.612-  38 0.97

  LATTYP: Found a hexagonal cell.
 ALAT       =     8.8135128021
 C/A-ratio  =     3.0356784858

  Lattice vectors:

 A1 = (  -4.4067569092,  -7.6327256898,   0.0000000000)
 A2 = (   8.8135128021,   0.0000000000,   0.0000000000)
 A3 = (   0.0000000000,   0.0000000000,  26.7549911976)

Analysis of symmetry for initial positions (statically):
 Subroutine PRICEL returns:
 Original cell was already a primitive cell.

 Routine SETGRP: Setting up the symmetry group for a
 hexagonal supercell.

 Subroutine GETGRP returns: Found  6 space group operations
 (whereof  6 operations were pure point group operations)
 out of a pool of 24 trial point group operations.

The static configuration has the point symmetry C_3v.

Analysis of symmetry for dynamics (positions and initial velocities):
[...]
     41      -4.8568      2.00000
     42      -4.7526      2.00000
     43      -4.7349      2.00000
     44      -4.6790      2.00000
     45      -4.6499      2.00000
     46      -4.6145      2.00000
     47      -4.5954      2.00000
     48      -4.5742      2.00000
     49      -4.5024      2.00000
     50      -4.4998      2.00000
     51      -4.3969      2.00000
     52      -4.3727      2.00000
     53      -4.3474      2.00000
     54      -4.3420      2.00000
     55      -4.3327      2.00000
     56      -4.3286      2.00000
     57      -4.3131      2.00000
     58      -4.2645      2.00000
     59      -4.2383      2.00000
     60      -4.1985      2.00000
[...]
    238       5.2018      0.00000
    239       5.2996      0.00000
    240       5.3214      0.00000
    241       5.5470      0.00000
    242       5.6775      0.00000
    243       5.9036      0.00000
    244       5.9091      0.00000
    245       5.9677      0.00000
    246       6.0867      0.00000
    247       6.1318      0.00000
    248       6.1520      0.00000
    249       6.2099      0.00000
    250       6.2498      0.00000
    251       6.3509      0.00000
    252       6.4184      0.00000

 soft charge-density along one line, spin component           1
         0         1         2         3         4         5         6         7         8         9
 total charge-density along one line

------------------------ aborting loop because EDIFF is reached ----------------------------------------

 total charge

# of ion       s       p       d       tot
    1        0.539   0.242   8.764   9.545
    2        0.545   0.240   8.765   9.550
    3        0.545   0.240   8.765   9.550
    4        0.545   0.240   8.765   9.550
    5        0.539   0.241   8.768   9.547
    6        0.545   0.240   8.765   9.550
    7        0.545   0.240   8.765   9.550
    8        0.545   0.240   8.765   9.550
    9        0.540   0.242   8.764   9.546
   10        0.521   0.308   8.774   9.602
   11        0.520   0.306   8.775   9.601
   12        0.521   0.308   8.774   9.602
   13        0.520   0.306   8.775   9.601
   14        0.520   0.306   8.775   9.601
   15        0.516   0.309   8.774   9.600
   16        0.521   0.308   8.774   9.602
   17        0.516   0.309   8.774   9.600
   18        0.516   0.309   8.774   9.600
   19        0.521   0.302   8.775   9.598
   20        0.529   0.319   8.761   9.610
   21        0.529   0.319   8.761   9.610
   22        0.516   0.306   8.772   9.594
   23        0.529   0.319   8.761   9.610
   24        0.516   0.306   8.772   9.594
   25        0.521   0.302   8.775   9.598
   26        0.521   0.302   8.775   9.598
   27        0.516   0.306   8.772   9.594
   28        0.543   0.238   8.763   9.544
   29        0.538   0.238   8.776   9.552
   30        0.538   0.238   8.776   9.552
   31        0.538   0.238   8.776   9.552
   32        0.538   0.238   8.776   9.552
   33        0.538   0.238   8.776   9.552
   34        0.538   0.238   8.776   9.552
   35        0.545   0.238   8.765   9.548
   36        0.496   0.647   8.487   9.630
   37        0.959   1.363   0.000   2.323
   38        1.542   3.737   0.000   5.279
   39        0.545   0.124   0.000   0.668
tot         22.116  15.494 315.451 353.061

  FORCE on cell =-STRESS in cart. coord.  units (eV):
  Direction    XX          YY          ZZ          XY          YZ          ZX
  Alpha Z   861.13033   861.13033   861.13033
  Ewald  188034.19129188034.19173************    -0.00033    -0.00008    -0.00011
  Hartree196786.38409196786.38410************     0.00001    -0.00002    -0.00003
  E(xc)   -1828.29541 -1828.29554 -1832.95276     0.00011    -0.00001    -0.00001
  Local  ************************396991.48453     0.00219    -0.00000    -0.00005
  n-local  -106.75205   -61.94142   -60.13728    22.31376    -1.26900     1.21641
  augment  2452.08860  2452.09021  2455.35876    -0.00139     0.00002     0.00004
  Kinetic  5701.47738  5706.52509  5677.94343     3.87272     0.59785     0.09469
  Fock        0.00000     0.00000     0.00000     0.00000     0.00000     0.00000
  Total     -18.04428   -18.04428     1.51050    -0.00000     0.00000     0.00000
  in kB     -16.06263   -16.06263     1.34461    -0.00000     0.00000     0.00000

 VOLUME and BASIS-vectors are now :
  energy-cutoff  :      500.00
  volume of cell :     1799.84
      direct lattice vectors                 reciprocal lattice vectors
     8.813512802  0.000000000  0.000000000     0.113462137 -0.065507406  0.000000000
     4.406756909  7.632725690  0.000000000     0.000000000  0.131014796  0.000000000
     0.000000000  0.000000000 26.754991198     0.000000000  0.000000000  0.037376204

  length of vectors
     8.813512802  8.813512802 26.754991198     0.131014796  0.131014796  0.037376204

 FORCES acting on ions
    electron-ion (+dipol)            ewald-force                    non-local-force                 convergence-correction
   -.201E-04 -.165E-04 0.285E+04   0.518E-04 0.433E-04 -.285E+04   -.122E-17 -.757E-18 -.770E+00   -.254E-03 -.160E-03 -.673E+00
   -.788E-01 0.178E+00 0.285E+04   0.301E-01 -.199E+00 -.285E+04   -.190E-02 -.289E-01 -.254E+00   0.480E-01 0.507E-01 -.657E+00
   0.788E-01 0.178E+00 0.285E+04   -.302E-01 -.199E+00 -.285E+04   0.190E-02 -.289E-01 -.254E+00   -.477E-01 0.525E-01 -.656E+00
   0.115E+00 -.157E+00 0.285E+04   -.157E+00 0.125E+00 -.285E+04   -.260E-01 0.128E-01 -.254E+00   0.680E-01 0.162E-01 -.657E+00
   0.102E-04 -.221E-04 0.285E+04   0.952E-04 0.169E-05 -.285E+04   0.342E-18 0.181E-17 -.494E+00   0.420E-02 0.256E-02 -.624E+00
   -.115E+00 -.157E+00 0.285E+04   0.157E+00 0.125E+00 -.285E+04   0.260E-01 0.128E-01 -.254E+00   -.694E-01 0.170E-01 -.656E+00
   0.193E+00 -.206E-01 0.285E+04   -.187E+00 0.732E-01 -.285E+04   -.241E-01 0.161E-01 -.254E+00   0.217E-01 -.676E-01 -.656E+00
   -.193E+00 -.206E-01 0.285E+04   0.187E+00 0.732E-01 -.285E+04   0.241E-01 0.161E-01 -.254E+00   -.199E-01 -.686E-01 -.656E+00
   0.193E-04 -.416E-04 0.285E+04   0.166E-03 -.200E-04 -.284E+04   -.531E-17 0.285E-18 -.421E+00   -.449E-02 -.232E-02 -.715E+00
   0.323E+00 0.187E+00 0.101E+04   -.949E-01 -.547E-01 -.100E+04   -.155E+00 -.895E-01 -.503E+00   -.122E-01 -.718E-02 -.387E+00
   0.143E-04 0.167E+01 0.101E+04   0.148E-03 -.182E+01 -.101E+04   0.668E-09 0.100E-01 -.417E+00   0.411E-02 0.107E+00 -.495E+00
   -.323E+00 0.187E+00 0.101E+04   0.948E-01 -.547E-01 -.100E+04   0.155E+00 -.895E-01 -.503E+00   0.109E-01 -.674E-02 -.388E+00
   0.145E+01 -.837E+00 0.101E+04   -.158E+01 0.912E+00 -.101E+04   0.869E-02 -.502E-02 -.417E+00   0.952E-01 -.498E-01 -.495E+00
   -.145E+01 -.837E+00 0.101E+04   0.158E+01 0.912E+00 -.101E+04   -.869E-02 -.502E-02 -.417E+00   -.883E-01 -.511E-01 -.497E+00
   0.319E-04 -.110E+01 0.100E+04   0.236E-03 0.121E+01 -.100E+04   -.213E-08 -.319E-01 -.271E+00   -.182E-02 -.714E-01 -.471E+00
   -.206E-04 -.374E+00 0.101E+04   0.162E-03 0.109E+00 -.100E+04   0.119E-07 0.179E+00 -.503E+00   -.635E-03 0.128E-01 -.388E+00
   -.952E+00 0.549E+00 0.100E+04   0.104E+01 -.603E+00 -.100E+04   -.277E-01 0.160E-01 -.271E+00   -.625E-01 0.345E-01 -.471E+00
   0.952E+00 0.549E+00 0.100E+04   -.105E+01 -.603E+00 -.100E+04   0.277E-01 0.160E-01 -.271E+00   0.633E-01 0.363E-01 -.469E+00
   -.412E-04 -.614E+00 -.859E+03   0.527E-04 0.716E+00 0.858E+03   0.364E-08 0.547E-01 0.562E+00   0.689E-03 -.144E+00 0.157E+00
   0.149E+02 0.863E+01 -.839E+03   -.144E+02 -.830E+01 0.839E+03   -.510E+00 -.295E+00 -.613E+00   -.644E-01 -.373E-01 0.130E+00
   -.149E+02 0.863E+01 -.839E+03   0.144E+02 -.830E+01 0.839E+03   0.510E+00 -.295E+00 -.613E+00   0.582E-01 -.392E-01 0.130E+00
   0.790E+01 -.456E+01 -.858E+03   -.809E+01 0.467E+01 0.858E+03   0.174E+00 -.100E+00 0.542E+00   0.189E-01 -.587E-02 0.193E+00
   -.151E-04 -.173E+02 -.839E+03   0.145E-03 0.166E+02 0.839E+03   0.392E-07 0.589E+00 -.613E+00   -.505E-02 0.700E-01 0.130E+00
   -.790E+01 -.456E+01 -.858E+03   0.809E+01 0.467E+01 0.858E+03   -.174E+00 -.100E+00 0.542E+00   -.108E-01 -.619E-02 0.193E+00
   0.531E+00 0.307E+00 -.859E+03   -.620E+00 -.358E+00 0.858E+03   -.474E-01 -.274E-01 0.562E+00   0.123E+00 0.710E-01 0.157E+00
   -.531E+00 0.307E+00 -.859E+03   0.620E+00 -.358E+00 0.858E+03   0.474E-01 -.274E-01 0.562E+00   -.124E+00 0.726E-01 0.157E+00
   0.527E-05 0.912E+01 -.858E+03   0.200E-03 -.934E+01 0.858E+03   0.134E-07 0.201E+00 0.542E+00   0.379E-02 0.192E-01 0.193E+00
   -.122E-04 -.134E-04 -.272E+04   0.282E-04 0.351E-04 0.272E+04   -.126E-17 0.150E-17 -.782E-01   -.141E-03 -.101E-03 0.496E+00
   0.253E+02 0.420E+02 -.270E+04   -.255E+02 -.424E+02 0.270E+04   0.635E-01 0.118E+00 0.348E+00   -.661E-01 -.378E-01 0.552E+00
   -.253E+02 0.420E+02 -.270E+04   0.255E+02 -.424E+02 0.270E+04   -.635E-01 0.118E+00 0.348E+00   0.663E-01 -.367E-01 0.551E+00
   0.490E+02 0.904E+00 -.270E+04   -.494E+02 -.854E+00 0.270E+04   0.134E+00 -.387E-02 0.348E+00   -.657E-01 -.384E-01 0.552E+00
   -.490E+02 0.904E+00 -.270E+04   0.494E+02 -.854E+00 0.270E+04   -.134E+00 -.387E-02 0.348E+00   0.650E-01 -.379E-01 0.553E+00
   0.237E+02 -.429E+02 -.270E+04   -.240E+02 0.432E+02 0.270E+04   0.702E-01 -.114E+00 0.348E+00   0.137E-02 0.757E-01 0.551E+00
   -.237E+02 -.429E+02 -.270E+04   0.240E+02 0.432E+02 0.270E+04   -.702E-01 -.114E+00 0.348E+00   -.266E-03 0.753E-01 0.553E+00
   0.286E-04 -.268E-04 -.273E+04   0.148E-03 -.502E-04 0.273E+04   -.442E-17 0.307E-17 -.443E-01   -.399E-02 -.201E-02 0.569E+00
   0.258E-04 -.163E-04 -.219E+04   0.992E-04 0.867E-05 0.219E+04   0.452E-17 0.488E-17 -.333E+01   0.425E-02 0.261E-02 0.472E+00
   -.491E-05 -.809E-04 -.107E+04   0.136E-04 0.888E-06 0.105E+04   0.350E-17 0.129E-17 0.209E+02   0.121E-02 0.743E-03 0.119E+00
   0.246E-03 -.908E-04 -.175E+04   0.501E-05 0.475E-06 0.176E+04   -.189E-17 -.832E-18 -.751E+01   0.385E-02 0.236E-02 0.521E-01
   0.651E-05 -.140E-04 -.330E+03   0.247E-06 0.353E-07 0.338E+03   0.883E-19 -.163E-19 -.818E+01   0.198E-03 0.121E-03 0.100E-02
   -.434E-03 -.934E-03 0.504E+01   0.628E-14 -.883E-13 -.232E-10   -.953E-16 -.228E-15 -.145E+01   0.144E-01 0.919E-02 -.355E+01

 POSITION                                       TOTAL-FORCE (eV/Angst)
      0.00000      0.00000      5.28038         0.000000     -0.000000      0.023238
      2.93784      0.00000      5.28038        -0.002128      0.001801     -0.042792
      5.87568      0.00000      5.28038         0.002128      0.001801     -0.042792
      1.46892      2.54424      5.28038         0.000496     -0.002743     -0.042792
      4.40676      2.54424      5.28038         0.000000      0.000000     -0.061272
      7.34459      2.54424      5.28038        -0.000496     -0.002743     -0.042792
      2.93784      5.08848      5.28038         0.002624      0.000942     -0.042792
      5.87568      5.08848      5.28038        -0.002624      0.000942     -0.042792
      8.81351      5.08848      5.28038         0.000000     -0.000000     -0.016194
      1.46892      0.84808      7.67911         0.062228      0.035927      0.134841
      4.40676      0.84808      7.67911        -0.000000     -0.034388      0.100483
      7.34459      0.84808      7.67911        -0.062228      0.035927      0.134841
      2.93784      3.39232      7.67911        -0.029781      0.017194      0.100483
      5.87568      3.39232      7.67911         0.029781      0.017194      0.100483
      8.81351      3.39232      7.67911         0.000000      0.003919      0.161911
      4.40676      5.93656      7.67911        -0.000000     -0.071855      0.134841
      7.34459      5.93656      7.67911         0.003394     -0.001960      0.161911
     10.28243      5.93656      7.67911        -0.003394     -0.001960      0.161911
      8.81351      1.69299     10.06281         0.000000      0.013383     -0.016808
      2.93673      1.69552     10.07074         0.000999      0.000577     -0.106174
      5.87678      1.69552     10.07074        -0.000999      0.000577     -0.106174
     10.28200      4.24065     10.07064        -0.001956      0.001130     -0.035015
      4.40676      4.24168     10.07074        -0.000000     -0.001154     -0.106174
      7.34503      4.24065     10.07064         0.001956      0.001130     -0.035015
     11.75410      6.78623     10.06281        -0.011590     -0.006691     -0.016808
      5.87293      6.78623     10.06281         0.011590     -0.006691     -0.016808
      8.81351      6.78414     10.07064        -0.000000     -0.002259     -0.035015
      0.00000      0.00000     12.49359         0.000000     -0.000000     -0.071139
      2.94266      0.00661     12.49157        -0.154279     -0.283267     -0.107489
      5.87086      0.00661     12.49157         0.154279     -0.283267     -0.107489
      1.47706      2.54511     12.49157        -0.322456      0.008024     -0.107489
      7.33646      2.54511     12.49157         0.322456      0.008024     -0.107489
      2.94116      5.08100     12.49157        -0.168177      0.275243     -0.107489
      5.87236      5.08100     12.49157         0.168177      0.275243     -0.107489
      8.81351      5.08848     12.49778         0.000000      0.000000     -0.081977
      4.40676      2.54424     12.34091         0.000000      0.000000      0.367288
      4.40676      2.54424     14.14859         0.000000     -0.000000      0.013033
      4.40676      2.54424     15.38985         0.000000     -0.000000     -0.022613
      4.40676      2.54424     16.36198         0.000000      0.000000      0.033611
    total drift:                                0.014011      0.008254      0.048278

  FREE ENERGIE OF THE ION-ELECTRON SYSTEM (eV)
  free  energy   TOTEN  =      -128.37612643 eV

  energy  without entropy=     -128.37612643  energy(sigma->0) =     -128.37612643

 stress matrix after NEB project (eV)
    -18.04428     -0.00000      0.00000
     -0.00000    -18.04428      0.00000
      0.00000      0.00000      1.51050
  FORCES: max atom, RMS     0.033611    0.006814
  FORCE total and by dimension    0.042554    0.033611
  Stress total and by dimension   25.563133   18.044282
|           W    W    AA    RRRRR   N    N  II  N    N   GGGG   !!!           |
|           W    W   A  A   R    R  NN   N  II  NN   N  G    G  !!!           |
|           W    W  A    A  R    R  N N  N  II  N N  N  G       !!!           |
|           W WW W  AAAAAA  RRRRR   N  N N  II  N  N N  G  GGG   !            |
|           WW  WW  A    A  R   R   N   NN  II  N   NN  G    G                |
|           W    W  A    A  R    R  N    N  II  N    N   GGGG   !!!           |
|     Tetrahedron method does not include variations of the Fermi             |
|     occupations, so forces and stress will be inaccurate. We suggest        |
|     using a different smearing scheme ISMEAR = 1 or 2 for metals in         |
|     relaxations.                                                            |

 total charge

# of ion       s       p       d       tot
    1        0.539   0.242   8.764   9.545
    2        0.545   0.240   8.765   9.550
    3        0.545   0.240   8.765   9.550
    4        0.545   0.240   8.765   9.550
    5        0.539   0.241   8.768   9.547
    6        0.545   0.240   8.765   9.550
    7        0.545   0.240   8.765   9.550
    8        0.545   0.240   8.765   9.550
    9        0.540   0.242   8.764   9.546
   10        0.521   0.308   8.774   9.602
   11        0.520   0.306   8.775   9.601
   12        0.521   0.308   8.774   9.602
   13        0.520   0.306   8.775   9.601
   14        0.520   0.306   8.775   9.601
   15        0.516   0.309   8.774   9.600
   16        0.521   0.308   8.774   9.602
   17        0.516   0.309   8.774   9.600
   18        0.516   0.309   8.774   9.600
   19        0.521   0.302   8.775   9.598
   20        0.529   0.319   8.761   9.610
   21        0.529   0.319   8.761   9.610
   22        0.516   0.306   8.772   9.594
   23        0.529   0.319   8.761   9.610
   24        0.516   0.306   8.772   9.594
   25        0.521   0.302   8.775   9.598
   26        0.521   0.302   8.775   9.598
   27        0.516   0.306   8.772   9.594
   28        0.543   0.238   8.763   9.544
   29        0.538   0.238   8.776   9.552
   30        0.538   0.238   8.776   9.552
   31        0.538   0.238   8.776   9.552
   32        0.538   0.238   8.776   9.552
   33        0.538   0.238   8.776   9.552
   34        0.538   0.238   8.776   9.552
   35        0.545   0.238   8.765   9.548
   36        0.496   0.647   8.487   9.630
   37        0.959   1.363   0.000   2.323
   38        1.542   3.737   0.000   5.279
   39        0.545   0.124   0.000   0.668
tot         22.116  15.494 315.451 353.061

 BZINTS: Fermi energy:    0.445426;  406.000000 electrons
         Band energy:-0.141675E+04;  BLOECHL correction:   -0.061995