 vasp.6.2.0 18Jan21 (build Jun 12 2021 23:27:24) complex

 executed on             LinuxIFC date 2022.05.26  19:28:42

 INCAR:
   ISMEAR = -5
   SIGMA = 0.1
   ISPIN = 1
   EDIFF = 1.d-5
   EDIFFG = -0.01
   NSW = 0
   NELM = 150
   ENCUT = 500
   ISIF = 2
   IBRION = 2
   LREAL = Auto
   ALGO = Fast
   ICHARG = 11
   LORBIT = 10
   LCHARG = .F.
   LWAVE = .F.

 POTCAR:    PAW_PBE Au 04Oct2007
 POTCAR:    PAW_PBE Rh 04Feb2005
 POTCAR:    PAW_PBE O 08Apr2002
|           W    W    AA    RRRRR   N    N  II  N    N   GGGG   !!!           |
|           W    W   A  A   R    R  NN   N  II  NN   N  G    G  !!!           |
|           W    W  A    A  R    R  N N  N  II  N N  N  G       !!!           |
|           W WW W  AAAAAA  RRRRR   N  N N  II  N  N N  G  GGG   !            |
|           WW  WW  A    A  R   R   N   NN  II  N   NN  G    G                |
|           W    W  A    A  R    R  N    N  II  N    N   GGGG   !!!           |
|     For optimal performance we recommend to set                             |
|       NCORE = 2 up to number-of-cores-per-socket                            |
|     This setting can greatly improve the performance of VASP for DFT.       |
|     The default, NCORE=1 might be grossly inefficient on modern             |
|     multi-core architectures or massively parallel machines. Do your        |
|     Unfortunately you need to use the default for GW and RPA                |
|     calculations (for HF NCORE is supported but not extensively tested      |
|     yet).                                                                   |

 POTCAR:    PAW_PBE Au 04Oct2007
   VRHFIN =Au: s1d10

   TITEL  = PAW_PBE Au 04Oct2007
   POMASS =  196.966; ZVAL   =   11.000    mass and valenz
   ENMAX  =  229.943; ENMIN  =  172.457 eV

 POTCAR:    PAW_PBE Rh 04Feb2005
   VRHFIN =Rh: s1 d8

   TITEL  = PAW_PBE Rh 04Feb2005
   POMASS =  102.906; ZVAL   =    9.000    mass and valenz
   ENMAX  =  228.996; ENMIN  =  171.747 eV

 POTCAR:    PAW_PBE O 08Apr2002
   VRHFIN =O: s2p4

   TITEL  = PAW_PBE O 08Apr2002
   POMASS =   16.000; ZVAL   =    6.000    mass and valenz
   ENMAX  =  400.000; ENMIN  =  300.000 eV

 Optimization of the real space projectors (new method)

 maximal supplied QI-value         = 15.12
 optimisation between [QCUT,QGAM] = [ 11.34, 22.83] = [ 36.00,145.93] Ry
 Optimized for a Real-space Cutoff    1.39 Angstroem

   l    n(q)    QCUT    max X(q) W(low)/X(q) W(high)/X(q)  e(spline)
   2      9    11.338    60.898    0.39E-03    0.42E-03    0.21E-06
   2      9    11.338    58.894    0.40E-03    0.42E-03    0.22E-06
   0      9    11.338   109.617    0.13E-03    0.20E-04    0.13E-06
   0      9    11.338    75.026    0.13E-03    0.20E-04    0.13E-06
   1      9    11.338    16.344    0.33E-04    0.24E-03    0.18E-06
   1      9    11.338    10.160    0.26E-04    0.19E-03    0.15E-06
 Optimization of the real space projectors (new method)

[...]

   l    n(q)    QCUT    max X(q) W(low)/X(q) W(high)/X(q)  e(spline)
   2      9    11.327    59.645    0.31E-03    0.12E-04    0.28E-06
   2      9    11.327    58.460    0.31E-03    0.12E-04    0.29E-06
   0     10    11.327    97.683    0.32E-04    0.83E-04    0.31E-06
   0     10    11.327    53.223    0.30E-04    0.78E-04    0.29E-06
   1     10    11.327    13.596    0.49E-03    0.95E-03    0.55E-06
   1     10    11.327     7.885    0.36E-03    0.71E-03    0.41E-06
 Optimization of the real space projectors (new method)

 maximal supplied QI-value         = 24.76
 optimisation between [QCUT,QGAM] = [ 11.39, 22.77] = [ 36.31,145.25] Ry
 Optimized for a Real-space Cutoff    1.00 Angstroem

   l    n(q)    QCUT    max X(q) W(low)/X(q) W(high)/X(q)  e(spline)
   0      7    11.387    20.381    0.39E-03    0.13E-02    0.15E-06
   0      7    11.387    15.268    0.42E-03    0.14E-02    0.17E-06
   1      6    11.387     5.964    0.41E-03    0.11E-02    0.17E-06
   1      6    11.387     5.382    0.39E-03    0.87E-03    0.15E-06
  PAW_PBE Au 04Oct2007                  :
  PAW_PBE Rh 04Feb2005                  :
  PAW_PBE O 08Apr2002                   :

 POSCAR: Au-Rh-O
  positions in direct lattice
  velocities in cartesian coordinates
 exchange correlation table for  LEXCH =        8
   RHO(1)=    0.500       N(1)  =     2000
   RHO(2)=  100.500       N(2)  =     4000

 VTST: version 3.2, (02/03/18)

 CHAIN: initializing optimizer

 OPT: Using VASP Conjugate-Gradient optimizer
 CHAIN: Read ICHAIN            0

 POSCAR: Au-Rh-O
  positions in direct lattice
  velocities in cartesian coordinates

 ion  position               nearest neighbor table
   1  0.000  0.000  0.238-  16 2.94  12 2.94   6 2.94   8 2.94   7 2.94   3 2.94  10 2.94   4 2.94
                             2 2.94
   2  0.333  0.000  0.238-   9 2.94  11 2.94  17 2.94  10 2.94   8 2.94   4 2.94   5 2.94   1 2.94
                             3 2.94
   3  0.667  0.000  0.238-   7 2.94  18 2.94  12 2.94   1 2.94  11 2.94   5 2.94   6 2.94   9 2.94
                             2 2.94
   4  0.000  0.333  0.238-  10 2.94   6 2.94   5 2.94  13 2.94   2 2.94  15 2.94   9 2.94   1 2.94
                             7 2.94
   5  0.333  0.333  0.238-  13 2.94   7 2.94  11 2.94   4 2.94   2 2.94  14 2.94   3 2.94   8 2.94
                             6 2.94
   6  0.667  0.333  0.238-  15 2.94  14 2.94   1 2.94  12 2.94   4 2.94   9 2.94   8 2.94   3 2.94
                             5 2.94
   7  0.000  0.667  0.238-  18 2.94   3 2.94  16 2.94   5 2.94   1 2.94  13 2.94   8 2.94   4 2.94
                             9 2.94
   8  0.333  0.667  0.238-   9 2.94  17 2.94   1 2.94   2 2.94  14 2.94  16 2.94   6 2.94   7 2.94
                             5 2.94
   9  0.667  0.667  0.238-   2 2.94   8 2.94  17 2.94   6 2.94  15 2.94   4 2.94   3 2.94  18 2.94
                             7 2.94
  10  0.111  0.111  0.346-  20 2.91  26 2.93  19 2.93  11 2.94  17 2.94   2 2.94   4 2.94   1 2.94
                            12 2.94  16 2.94  13 2.94  15 2.94
  11  0.444  0.111  0.346-  20 2.91  21 2.91  27 2.93  13 2.94   2 2.94  10 2.94  17 2.94   5 2.94
                             3 2.94  18 2.94  14 2.94  12 2.94
  12  0.778  0.111  0.346-  21 2.91  25 2.93  19 2.93  16 2.94  18 2.94   1 2.94  14 2.94  15 2.94
                             3 2.94   6 2.94  10 2.94  11 2.94
  13  0.111  0.444  0.346-  23 2.91  20 2.91  22 2.93   5 2.94  18 2.94  11 2.94   7 2.94   4 2.94
                            16 2.94  10 2.94  14 2.94  15 2.94
  14  0.444  0.444  0.346-  21 2.91  23 2.91  24 2.93  15 2.94   6 2.94  12 2.94   8 2.94  17 2.94
                             5 2.94  16 2.94  13 2.94  11 2.94
  15  0.778  0.444  0.346-  24 2.93  22 2.93  19 2.93  14 2.94   6 2.94  17 2.94  12 2.94   9 2.94
                             4 2.94  10 2.94  13 2.94  18 2.94
  16  0.111  0.778  0.346-  23 2.91  25 2.93  26 2.93  18 2.94  12 2.94   7 2.94   1 2.94   8 2.94
                            13 2.94  10 2.94  14 2.94  17 2.94
  17  0.444  0.778  0.346-  27 2.93  24 2.93  26 2.93   9 2.94  15 2.94   2 2.94  10 2.94  11 2.94
                             8 2.94  14 2.94  16 2.94  18 2.94
  18  0.778  0.778  0.346-  22 2.93  27 2.93  25 2.93  16 2.94   7 2.94  13 2.94  12 2.94   3 2.94
                            11 2.94   9 2.94  15 2.94  17 2.94
  19  0.889  0.222  0.454-  15 2.93  10 2.93  12 2.93  21 2.94  20 2.94  24 2.94  22 2.94  26 2.94
                            25 2.94  28 2.96  32 2.96  31 2.96
  20  0.222  0.222  0.453-  36 2.79  10 2.91  11 2.91  13 2.91  26 2.94  19 2.94  23 2.94  21 2.94
                            27 2.94  22 2.94  29 2.95  31 2.95
  21  0.556  0.222  0.453-  36 2.79  12 2.91  14 2.91  11 2.91  25 2.94  19 2.94  20 2.94  23 2.94
                            27 2.94  24 2.94  30 2.95  32 2.95
  22  0.888  0.556  0.454-  24 2.92  27 2.92  18 2.93  15 2.93  13 2.93  25 2.94  19 2.94  23 2.94
                            20 2.94  33 2.95  31 2.95  35 2.96
  23  0.222  0.556  0.453-  36 2.79  16 2.91  13 2.91  14 2.91  25 2.94  26 2.94  20 2.94  21 2.94
                            22 2.94  24 2.94  33 2.95  34 2.95
  24  0.556  0.556  0.454-  27 2.92  22 2.92  15 2.93  17 2.93  14 2.93  26 2.94  19 2.94  21 2.94
                            23 2.94  32 2.95  34 2.95  35 2.96
  25  0.889  0.889  0.454-  18 2.93  16 2.93  12 2.93  23 2.94  21 2.94  22 2.94  27 2.94  19 2.94
                            26 2.94  28 2.96  33 2.96  30 2.96
  26  0.222  0.889  0.454-  17 2.93  10 2.93  16 2.93  20 2.94  23 2.94  27 2.94  24 2.94  19 2.94
                            25 2.94  28 2.96  29 2.96  34 2.96
  27  0.556  0.888  0.454-  24 2.92  22 2.92  17 2.93  18 2.93  11 2.93  26 2.94  25 2.94  20 2.94
                            21 2.94  29 2.95  30 2.95  35 2.96
  28  0.000  0.000  0.563-  34 2.95  32 2.95  33 2.95  30 2.95  31 2.95  29 2.95  25 2.96  19 2.96
                            26 2.96
  29  0.333  0.004  0.562-  31 2.90  30 2.90  36 2.91  20 2.95  27 2.95  28 2.95  35 2.96  26 2.96
                            34 3.01
  30  0.663  0.004  0.562-  32 2.90  29 2.90  36 2.91  21 2.95  27 2.95  28 2.95  35 2.96  25 2.96
                            33 3.01
  31  0.004  0.333  0.562-  29 2.90  33 2.90  36 2.91  20 2.95  22 2.95  28 2.95  35 2.96  19 2.96
                            32 3.01
  32  0.663  0.333  0.562-  30 2.90  34 2.90  36 2.91  21 2.95  24 2.95  28 2.95  35 2.96  19 2.96
                            31 3.01
  33  0.004  0.663  0.562-  34 2.90  31 2.90  36 2.91  23 2.95  22 2.95  28 2.95  35 2.96  25 2.96
                            30 3.01
  34  0.333  0.663  0.562-  33 2.90  32 2.90  36 2.91  23 2.95  24 2.95  28 2.95  35 2.96  26 2.96
                            29 3.01
  35  0.667  0.667  0.563-  29 2.96  34 2.96  32 2.96  31 2.96  30 2.96  33 2.96  24 2.96  27 2.96
                            22 2.96
  36  0.333  0.333  0.552-  37 1.76  20 2.79  23 2.79  21 2.79  33 2.91  31 2.91  29 2.91  30 2.91
                            34 2.91  32 2.91
  37  0.333  0.333  0.632-  36 1.76

  LATTYP: Found a hexagonal cell.
 ALAT       =     8.8135128021
 C/A-ratio  =     2.5184286595

  Lattice vectors:

 A1 = (  -4.4067569092,  -7.6327256898,   0.0000000000)
 A2 = (   8.8135128021,   0.0000000000,   0.0000000000)
 A3 = (   0.0000000000,   0.0000000000,  22.1962032318)

Analysis of symmetry for initial positions (statically):
 Subroutine PRICEL returns:
 Original cell was already a primitive cell.

 Routine SETGRP: Setting up the symmetry group for a
 hexagonal supercell.

 Subroutine GETGRP returns: Found  6 space group operations
 (whereof  6 operations were pure point group operations)
 out of a pool of 24 trial point group operations.

The static configuration has the point symmetry C_3v.

Analysis of symmetry for dynamics (positions and initial velocities):
 Subroutine PRICEL returns:
 Original cell was already a primitive cell.

[...]

The dynamic configuration has the point symmetry C_3v.

Analysis of constrained symmetry for selective dynamics:
 Subroutine PRICEL returns:
 Original cell was already a primitive cell.

 Routine SETGRP: Setting up the symmetry group for a
 hexagonal supercell.

 Subroutine GETGRP returns: Found  6 space group operations
[...]
     24      -5.1114      2.00000
     25      -5.0882      2.00000
     26      -5.0742      2.00000
     27      -5.0331      2.00000
     28      -4.9638      2.00000
     29      -4.9213      2.00000
     30      -4.8159      2.00000
     31      -4.8112      2.00000
     32      -4.7886      2.00000
     33      -4.7842      2.00000
     34      -4.7755      2.00000
     35      -4.7502      2.00000
     36      -4.6526      2.00000
     37      -4.6411      2.00000
     38      -4.6117      2.00000
     39      -4.5679      2.00000
     40      -4.5270      2.00000
     41      -4.4639      2.00000
     42      -4.4291      2.00000
     43      -4.4264      2.00000
     44      -4.3891      2.00000
     45      -4.3364      2.00000
     46      -4.3152      2.00000
     47      -4.2591      2.00000
     48      -4.2075      2.00000
     49      -4.1828      2.00000
     50      -4.1650      2.00000
     51      -4.1544      2.00000
     52      -4.1454      2.00000
     53      -4.1356      2.00000
     54      -4.0881      2.00000
     55      -4.0701      2.00000
     56      -4.0303      2.00000
     57      -4.0067      2.00000
     58      -3.9913      2.00000
     59      -3.9809      2.00000
     60      -3.9747      2.00000
[...]
    238       6.4811      0.00000
    239       6.5396      0.00000
    240       6.5696      0.00000
    241       6.6645      0.00000
    242       6.7567      0.00000
    243       6.8228      0.00000
    244       6.8528      0.00000
    245       6.9356      0.00000
    246       7.1537      0.00000
    247       7.1917      0.00000
    248       7.3187      0.00000
    249       7.5084      0.00000
    250       7.6978      0.00000
    251       7.7916      0.00000
    252       7.8757      0.00000

 soft charge-density along one line, spin component           1
         0         1         2         3         4         5         6         7         8         9
 total charge-density along one line

------------------------ aborting loop because EDIFF is reached ----------------------------------------

 total charge

# of ion       s       p       d       tot
    1        0.546   0.238   8.770   9.554
    2        0.544   0.241   8.765   9.550
    3        0.544   0.241   8.765   9.550
    4        0.544   0.241   8.765   9.550
    5        0.544   0.242   8.762   9.547
    6        0.544   0.241   8.765   9.550
    7        0.544   0.241   8.765   9.550
    8        0.544   0.241   8.765   9.550
    9        0.541   0.241   8.764   9.545
   10        0.523   0.310   8.771   9.604
   11        0.518   0.311   8.776   9.604
   12        0.523   0.310   8.771   9.604
   13        0.518   0.311   8.776   9.604
   14        0.518   0.311   8.776   9.604
   15        0.516   0.308   8.779   9.602
   16        0.523   0.310   8.771   9.604
   17        0.516   0.308   8.779   9.602
   18        0.516   0.308   8.779   9.602
   19        0.515   0.305   8.774   9.593
   20        0.543   0.326   8.755   9.624
   21        0.543   0.326   8.755   9.624
   22        0.511   0.306   8.775   9.593
   23        0.543   0.326   8.755   9.624
   24        0.511   0.306   8.775   9.593
   25        0.515   0.305   8.774   9.593
   26        0.515   0.305   8.774   9.593
   27        0.511   0.306   8.775   9.593
   28        0.545   0.227   8.770   9.542
   29        0.534   0.235   8.771   9.539
   30        0.534   0.235   8.771   9.539
   31        0.534   0.235   8.771   9.539
   32        0.534   0.235   8.771   9.539
   33        0.534   0.235   8.771   9.539
   34        0.534   0.235   8.771   9.539
   35        0.538   0.230   8.766   9.534
   36        0.451   0.555   7.368   8.375
   37        1.608   3.192   0.000   4.800
tot         20.615  13.373 314.304 348.293

  FORCE on cell =-STRESS in cart. coord.  units (eV):
  Direction    XX          YY          ZZ          XY          YZ          ZX
  Alpha Z  1015.54965  1015.54965  1015.54965
  Ewald  119830.83125119830.83168************    -0.00033    -0.00008    -0.00012
  Hartree128637.63006128637.63007************     0.00001    -0.00002    -0.00003
  E(xc)   -1800.04352 -1800.04352 -1806.35043     0.00000    -0.00000    -0.00000
  Local  ************************260927.06196     0.00204     0.00001    -0.00003
  n-local  -104.53060   -53.14671   -45.06261    25.03319    -1.29804     1.64219
  augment  2434.92313  2434.92468  2440.73729    -0.00134     0.00002     0.00006
  Kinetic  5589.74385  5600.50905  5620.83995     5.31634     0.46838     0.27321
  Fock        0.00000     0.00000     0.00000     0.00000     0.00000     0.00000
  Total     -20.33335   -20.33335     2.20495    -0.00000     0.00000     0.00000
  in kB     -21.81786   -21.81786     2.36593    -0.00000     0.00000     0.00000

 VOLUME and BASIS-vectors are now :
  energy-cutoff  :      500.00
  volume of cell :     1493.16
      direct lattice vectors                 reciprocal lattice vectors
     8.813512802  0.000000000  0.000000000     0.113462137 -0.065507406  0.000000000
     4.406756909  7.632725690  0.000000000     0.000000000  0.131014796  0.000000000
     0.000000000  0.000000000 22.196203232     0.000000000  0.000000000  0.045052750

  length of vectors
     8.813512802  8.813512802 22.196203232     0.131014796  0.131014796  0.045052750

 FORCES acting on ions
    electron-ion (+dipol)            ewald-force                    non-local-force                 convergence-correction
   -.196E-04 -.162E-04 0.250E+04   0.519E-04 0.433E-04 -.249E+04   0.660E-17 0.268E-18 -.817E+00   -.203E-03 -.131E-03 -.514E+00
   0.183E+00 0.360E+00 0.250E+04   -.311E+00 -.431E+00 -.250E+04   0.360E-01 0.787E-01 -.306E+00   0.887E-01 0.332E-02 -.518E+00
   -.183E+00 0.360E+00 0.250E+04   0.311E+00 -.431E+00 -.250E+04   -.360E-01 0.787E-01 -.306E+00   -.884E-01 0.530E-02 -.517E+00
   0.404E+00 -.216E-01 0.250E+04   -.529E+00 -.539E-01 -.250E+04   0.862E-01 -.822E-02 -.306E+00   0.473E-01 0.751E-01 -.518E+00
   0.908E-05 -.230E-04 0.250E+04   0.951E-04 0.171E-05 -.250E+04   0.267E-17 -.425E-18 -.251E+00   0.430E-02 0.262E-02 -.453E+00
   -.404E+00 -.216E-01 0.250E+04   0.529E+00 -.540E-01 -.250E+04   -.862E-01 -.822E-02 -.306E+00   -.488E-01 0.760E-01 -.517E+00
   0.220E+00 -.339E+00 0.250E+04   -.218E+00 0.485E+00 -.250E+04   0.502E-01 -.705E-01 -.306E+00   -.395E-01 -.792E-01 -.517E+00
   -.221E+00 -.339E+00 0.250E+04   0.218E+00 0.485E+00 -.250E+04   -.502E-01 -.705E-01 -.306E+00   0.414E-01 -.803E-01 -.517E+00
   0.192E-04 -.417E-04 0.250E+04   0.166E-03 -.201E-04 -.250E+04   -.655E-19 0.198E-18 -.507E+00   -.464E-02 -.240E-02 -.489E+00
   0.397E+01 0.229E+01 0.855E+03   -.367E+01 -.212E+01 -.855E+03   -.293E+00 -.169E+00 -.643E+00   0.208E-01 0.119E-01 0.299E+00
   0.141E-04 0.440E+01 0.860E+03   0.148E-03 -.452E+01 -.860E+03   0.455E-08 0.683E-01 -.220E+00   0.380E-02 -.217E-02 0.317E+00
   -.397E+01 0.229E+01 0.855E+03   0.367E+01 -.212E+01 -.855E+03   0.293E+00 -.169E+00 -.643E+00   -.221E-01 0.134E-01 0.298E+00
   0.381E+01 -.220E+01 0.860E+03   -.391E+01 0.226E+01 -.860E+03   0.592E-01 -.342E-01 -.220E+00   0.309E-03 0.465E-02 0.317E+00
   -.381E+01 -.220E+01 0.860E+03   0.391E+01 0.226E+01 -.860E+03   -.592E-01 -.342E-01 -.220E+00   0.753E-02 0.420E-02 0.317E+00
   0.308E-04 0.516E+00 0.854E+03   0.236E-03 -.630E+00 -.854E+03   0.973E-09 0.146E-01 -.453E+00   -.241E-02 0.788E-01 0.265E+00
   -.212E-04 -.458E+01 0.855E+03   0.163E-03 0.424E+01 -.855E+03   0.225E-07 0.338E+00 -.643E+00   0.295E-03 -.258E-01 0.298E+00
   0.447E+00 -.258E+00 0.854E+03   -.546E+00 0.315E+00 -.854E+03   0.127E-01 -.731E-02 -.453E+00   0.673E-01 -.411E-01 0.265E+00
   -.447E+00 -.258E+00 0.854E+03   0.545E+00 0.315E+00 -.854E+03   -.127E-01 -.731E-02 -.453E+00   -.673E-01 -.391E-01 0.265E+00
   -.409E-04 0.158E+01 -.817E+03   0.532E-04 -.188E+01 0.815E+03   0.726E-08 0.109E+00 0.622E+00   -.536E-03 0.155E+00 0.112E+01
   0.153E+02 0.884E+01 -.782E+03   -.146E+02 -.845E+01 0.781E+03   -.828E+00 -.478E+00 -.526E+00   0.198E+00 0.114E+00 0.146E+01
   -.153E+02 0.884E+01 -.782E+03   0.146E+02 -.845E+01 0.781E+03   0.828E+00 -.478E+00 -.526E+00   -.197E+00 0.116E+00 0.146E+01
   0.536E+01 -.310E+01 -.810E+03   -.567E+01 0.327E+01 0.808E+03   0.263E+00 -.152E+00 0.647E+00   0.603E-01 -.392E-01 0.119E+01
   -.136E-04 -.177E+02 -.782E+03   0.144E-03 0.169E+02 0.781E+03   0.637E-07 0.956E+00 -.526E+00   0.178E-02 -.229E+00 0.146E+01
   -.536E+01 -.310E+01 -.810E+03   0.567E+01 0.327E+01 0.808E+03   -.263E+00 -.152E+00 0.647E+00   -.673E-01 -.388E-01 0.119E+01
   -.137E+01 -.792E+00 -.817E+03   0.163E+01 0.939E+00 0.815E+03   -.944E-01 -.545E-01 0.622E+00   -.132E+00 -.765E-01 0.112E+01
   0.137E+01 -.792E+00 -.817E+03   -.163E+01 0.939E+00 0.815E+03   0.944E-01 -.545E-01 0.622E+00   0.134E+00 -.779E-01 0.112E+01
   0.756E-05 0.619E+01 -.810E+03   0.200E-03 -.654E+01 0.808E+03   0.202E-07 0.304E+00 0.647E+00   -.438E-02 0.718E-01 0.119E+01
   -.110E-04 -.124E-04 -.246E+04   0.281E-04 0.340E-04 0.246E+04   -.183E-16 -.576E-18 0.483E+00   0.106E-03 0.426E-04 0.960E+00
   0.232E+02 0.398E+02 -.244E+04   -.236E+02 -.405E+02 0.244E+04   -.127E+00 -.181E-01 0.710E+00   0.300E+00 0.433E+00 0.942E+00
   -.232E+02 0.398E+02 -.244E+04   0.236E+02 -.405E+02 0.244E+04   0.127E+00 -.181E-01 0.710E+00   -.300E+00 0.435E+00 0.943E+00
   0.461E+02 0.236E+00 -.244E+04   -.469E+02 -.155E+00 0.244E+04   -.790E-01 -.101E+00 0.710E+00   0.525E+00 0.430E-01 0.942E+00
   -.461E+02 0.236E+00 -.244E+04   0.469E+02 -.156E+00 0.244E+04   0.790E-01 -.101E+00 0.710E+00   -.527E+00 0.441E-01 0.942E+00
   0.228E+02 -.400E+02 -.244E+04   -.233E+02 0.407E+02 0.244E+04   0.477E-01 0.119E+00 0.710E+00   0.227E+00 -.477E+00 0.942E+00
   -.228E+02 -.400E+02 -.244E+04   0.233E+02 0.407E+02 0.244E+04   -.477E-01 0.119E+00 0.710E+00   -.225E+00 -.478E+00 0.942E+00
   0.296E-04 -.285E-04 -.246E+04   0.146E-03 -.493E-04 0.246E+04   0.595E-17 0.161E-17 0.592E+00   -.477E-02 -.246E-02 0.841E+00
   0.237E-04 -.420E-05 -.171E+04   0.917E-04 0.821E-05 0.172E+04   0.111E-16 -.155E-17 -.460E+01   0.346E-02 0.211E-02 0.148E+01
   0.180E-03 -.995E-04 -.166E+04   0.228E-04 0.146E-05 0.168E+04   0.767E-18 -.253E-17 -.277E+02   0.367E-02 0.224E-02 -.339E+00
   -.496E-03 -.832E-03 0.150E+02   -.799E-13 0.261E-12 0.341E-11   0.178E-16 0.530E-16 -.321E+02   0.421E-02 0.318E-02 0.180E+02

 POSITION                                       TOTAL-FORCE (eV/Angst)
      0.00000      0.00000      5.28038        -0.000000     -0.000000     -0.115104
      2.93784      0.00000      5.28038        -0.002990      0.012206     -0.067668
      5.87568      0.00000      5.28038         0.002990      0.012206     -0.067668
      1.46892      2.54424      5.28038         0.009075     -0.008692     -0.067668
      4.40676      2.54424      5.28038         0.000000     -0.000000     -0.086741
      7.34459      2.54424      5.28038        -0.009075     -0.008692     -0.067668
      2.93784      5.08848      5.28038         0.012066     -0.003513     -0.067668
      5.87568      5.08848      5.28038        -0.012066     -0.003513     -0.067668
      8.81351      5.08848      5.28038        -0.000000     -0.000000     -0.095975
      1.46892      0.84808      7.67911         0.024735      0.014281      0.121290
      4.40676      0.84808      7.67911        -0.000000     -0.049322      0.067887
      7.34459      0.84808      7.67911        -0.024735      0.014281      0.121290
      2.93784      3.39232      7.67911        -0.042714      0.024661      0.067887
      5.87568      3.39232      7.67911         0.042714      0.024661      0.067887
      8.81351      3.39232      7.67911        -0.000000     -0.021016      0.107278
      4.40676      5.93656      7.67911        -0.000000     -0.028562      0.121290
      7.34459      5.93656      7.67911        -0.018200      0.010508      0.107278
     10.28243      5.93656      7.67911         0.018200      0.010508      0.107278
      8.81351      1.69621     10.07295        -0.000000     -0.031092     -0.042142
      2.93663      1.69546     10.04742         0.043862      0.025324     -0.114675
      5.87688      1.69546     10.04742        -0.043862      0.025324     -0.114675
     10.27557      4.24437     10.06760         0.021292     -0.012293     -0.040394
      4.40676      4.24180     10.04742        -0.000000     -0.050648     -0.114675
      7.35146      4.24437     10.06760        -0.021292     -0.012293     -0.040394
     11.75131      6.78462     10.07295         0.026927      0.015546     -0.042142
      5.87571      6.78462     10.07295        -0.026927      0.015546     -0.042142
      8.81351      6.77672     10.06760         0.000000      0.024586     -0.040394
      0.00000      0.00000     12.49471        -0.000000     -0.000000     -0.017294
      2.95476      0.03042     12.47845        -0.150457     -0.305432     -0.092330
      5.85875      0.03042     12.47845         0.150457     -0.305432     -0.092330
      1.50372      2.54369     12.47845        -0.339740      0.022417     -0.092330
      7.30979      2.54369     12.47845         0.339740      0.022417     -0.092330
      2.95572      5.05862     12.47845        -0.189283      0.283015     -0.092330
      5.85780      5.05862     12.47845         0.189283      0.283015     -0.092330
      8.81351      5.08848     12.49462        -0.000000      0.000000      0.030964
      4.40676      2.54424     12.26123         0.000000      0.000000      0.972260
      4.40676      2.54424     14.02170         0.000000      0.000000     -0.025851
    total drift:                                0.003715      0.002343      0.817259

  FREE ENERGIE OF THE ION-ELECTRON SYSTEM (eV)
  free  energy   TOTEN  =      -118.43426613 eV

  energy  without entropy=     -118.43426613  energy(sigma->0) =     -118.43426613

 stress matrix after NEB project (eV)
    -20.33335     -0.00000      0.00000
     -0.00000    -20.33335      0.00000
     -0.00000      0.00000      2.20495
  FORCES: max atom, RMS     0.025851    0.004250
  FORCE total and by dimension    0.025851    0.025851
  Stress total and by dimension   28.840111   20.333351
|           W    W    AA    RRRRR   N    N  II  N    N   GGGG   !!!           |
|           W    W   A  A   R    R  NN   N  II  NN   N  G    G  !!!           |
|           W    W  A    A  R    R  N N  N  II  N N  N  G       !!!           |
|           W WW W  AAAAAA  RRRRR   N  N N  II  N  N N  G  GGG   !            |
|           WW  WW  A    A  R   R   N   NN  II  N   NN  G    G                |
|           W    W  A    A  R    R  N    N  II  N    N   GGGG   !!!           |
|     Tetrahedron method does not include variations of the Fermi             |
|     occupations, so forces and stress will be inaccurate. We suggest        |
|     using a different smearing scheme ISMEAR = 1 or 2 for metals in         |
|     relaxations.                                                            |

 total charge

# of ion       s       p       d       tot
    1        0.546   0.238   8.770   9.554
    2        0.544   0.241   8.765   9.550
    3        0.544   0.241   8.765   9.550
    4        0.544   0.241   8.765   9.550
    5        0.544   0.242   8.762   9.547
    6        0.544   0.241   8.765   9.550
    7        0.544   0.241   8.765   9.550
    8        0.544   0.241   8.765   9.550
    9        0.541   0.241   8.764   9.545
   10        0.523   0.310   8.771   9.604
   11        0.518   0.311   8.776   9.604
   12        0.523   0.310   8.771   9.604
   13        0.518   0.311   8.776   9.604
   14        0.518   0.311   8.776   9.604
   15        0.516   0.308   8.779   9.602
   16        0.523   0.310   8.771   9.604
   17        0.516   0.308   8.779   9.602
   18        0.516   0.308   8.779   9.602
   19        0.515   0.305   8.774   9.593
   20        0.543   0.326   8.755   9.624
   21        0.543   0.326   8.755   9.624
   22        0.511   0.306   8.775   9.593
   23        0.543   0.326   8.755   9.624
   24        0.511   0.306   8.775   9.593
   25        0.515   0.305   8.774   9.593
   26        0.515   0.305   8.774   9.593
   27        0.511   0.306   8.775   9.593
   28        0.545   0.227   8.770   9.542
   29        0.534   0.235   8.771   9.539
   30        0.534   0.235   8.771   9.539
   31        0.534   0.235   8.771   9.539
   32        0.534   0.235   8.771   9.539
   33        0.534   0.235   8.771   9.539
   34        0.534   0.235   8.771   9.539
   35        0.538   0.230   8.766   9.534
   36        0.451   0.555   7.368   8.375
   37        1.608   3.192   0.000   4.800
tot         20.615  13.373 314.304 348.293

 BZINTS: Fermi energy:    0.655429;  400.000000 electrons
         Band energy:-0.124545E+04;  BLOECHL correction:   -0.059128