 vasp.6.2.0 18Jan21 (build Jun 12 2021 23:27:24) complex

 executed on             LinuxIFC date 2022.05.26  19:49:59

 INCAR:
   ISMEAR = -5
   SIGMA = 0.1
   ISPIN = 1
   EDIFF = 1.d-5
   EDIFFG = -0.01
   NSW = 0
   NELM = 150
   ENCUT = 500
   ISIF = 2
   IBRION = 2
   LREAL = Auto
   ALGO = Fast
   ICHARG = 11
   LORBIT = 10
   LCHARG = .F.
   LWAVE = .F.

 POTCAR:    PAW_PBE Ag 02Apr2005
 POTCAR:    PAW_PBE Pd 04Jan2005
 POTCAR:    PAW_PBE O 08Apr2002
|           W    W    AA    RRRRR   N    N  II  N    N   GGGG   !!!           |
|           W    W   A  A   R    R  NN   N  II  NN   N  G    G  !!!           |
|           W    W  A    A  R    R  N N  N  II  N N  N  G       !!!           |
|           W WW W  AAAAAA  RRRRR   N  N N  II  N  N N  G  GGG   !            |
|           WW  WW  A    A  R   R   N   NN  II  N   NN  G    G                |
|           W    W  A    A  R    R  N    N  II  N    N   GGGG   !!!           |
|     For optimal performance we recommend to set                             |
|       NCORE = 2 up to number-of-cores-per-socket                            |
|     This setting can greatly improve the performance of VASP for DFT.       |
|     The default, NCORE=1 might be grossly inefficient on modern             |
|     multi-core architectures or massively parallel machines. Do your        |
|     Unfortunately you need to use the default for GW and RPA                |
|     calculations (for HF NCORE is supported but not extensively tested      |
|     yet).                                                                   |

 POTCAR:    PAW_PBE Ag 02Apr2005
   VRHFIN =Ag : s1 d10

   TITEL  = PAW_PBE Ag 02Apr2005
   POMASS =  107.868; ZVAL   =   11.000    mass and valenz
   ENMAX  =  249.844; ENMIN  =  187.383 eV

 POTCAR:    PAW_PBE Pd 04Jan2005
   VRHFIN =Pd : s1 d9

   TITEL  = PAW_PBE Pd 04Jan2005
   POMASS =  106.420; ZVAL   =   10.000    mass and valenz
   ENMAX  =  250.925; ENMIN  =  188.194 eV

 POTCAR:    PAW_PBE O 08Apr2002
   VRHFIN =O: s2p4

   TITEL  = PAW_PBE O 08Apr2002
   POMASS =   16.000; ZVAL   =    6.000    mass and valenz
   ENMAX  =  400.000; ENMIN  =  300.000 eV

 Optimization of the real space projectors (new method)

 maximal supplied QI-value         = 15.12
 optimisation between [QCUT,QGAM] = [ 11.34, 22.83] = [ 36.00,145.93] Ry
 Optimized for a Real-space Cutoff    1.43 Angstroem

   l    n(q)    QCUT    max X(q) W(low)/X(q) W(high)/X(q)  e(spline)
   2      9    11.338    53.897    0.16E-03    0.20E-03    0.28E-06
   2      9    11.338    52.416    0.16E-03    0.20E-03    0.29E-06
   0     10    11.338   122.045    0.31E-04    0.76E-04    0.15E-06
   0     10    11.338    73.629    0.30E-04    0.72E-04    0.15E-06
   1      9    11.338    15.255    0.20E-03    0.19E-04    0.17E-06
   1      9    11.338     9.562    0.16E-03    0.15E-04    0.14E-06
 Optimization of the real space projectors (new method)

[...]

   l    n(q)    QCUT    max X(q) W(low)/X(q) W(high)/X(q)  e(spline)
   2      9    11.346    59.108    0.74E-04    0.81E-04    0.26E-06
   2      9    11.346    58.101    0.74E-04    0.83E-04    0.27E-06
   0     10    11.346   102.235    0.26E-04    0.31E-04    0.16E-06
   0     10    11.346    58.388    0.23E-04    0.29E-04    0.15E-06
   1     10    11.346    22.191    0.23E-03    0.26E-03    0.14E-06
   1     10    11.346    15.590    0.19E-03    0.22E-03    0.12E-06
 Optimization of the real space projectors (new method)

 maximal supplied QI-value         = 24.76
 optimisation between [QCUT,QGAM] = [ 11.39, 22.77] = [ 36.31,145.25] Ry
 Optimized for a Real-space Cutoff    1.00 Angstroem

   l    n(q)    QCUT    max X(q) W(low)/X(q) W(high)/X(q)  e(spline)
   0      7    11.387    20.381    0.39E-03    0.13E-02    0.15E-06
   0      7    11.387    15.268    0.42E-03    0.14E-02    0.17E-06
   1      6    11.387     5.964    0.41E-03    0.11E-02    0.17E-06
   1      6    11.387     5.382    0.39E-03    0.87E-03    0.15E-06
  PAW_PBE Ag 02Apr2005                  :
  PAW_PBE Pd 04Jan2005                  :
  PAW_PBE O 08Apr2002                   :

 POSCAR: Ag-Pd-O
  positions in direct lattice
  velocities in cartesian coordinates
 exchange correlation table for  LEXCH =        8
   RHO(1)=    0.500       N(1)  =     2000
   RHO(2)=  100.500       N(2)  =     4000

 VTST: version 3.2, (02/03/18)

 CHAIN: initializing optimizer

 OPT: Using VASP Conjugate-Gradient optimizer
 CHAIN: Read ICHAIN            0

 POSCAR: Ag-Pd-O
  positions in direct lattice
  velocities in cartesian coordinates

 ion  position               nearest neighbor table
   1  0.000  0.000  0.238-   2 2.93   8 2.93   7 2.93   6 2.93   4 2.93  12 2.93  16 2.93  10 2.93
                             3 2.93
   2  0.333  0.000  0.238-   1 2.93   8 2.93   9 2.93   3 2.93   4 2.93   5 2.93  10 2.93  17 2.93
                            11 2.93
   3  0.667  0.000  0.238-   9 2.93   2 2.93   5 2.93  11 2.93   7 2.93  18 2.93   1 2.93   6 2.93
                            12 2.93
   4  0.000  0.333  0.238-   5 2.93   6 2.93   2 2.93   1 2.93   7 2.93  13 2.93  15 2.93   9 2.93
                            10 2.93
   5  0.333  0.333  0.238-   4 2.93   3 2.93   7 2.93   2 2.93   8 2.93  14 2.93  13 2.93  11 2.93
                             6 2.93
   6  0.667  0.333  0.238-   4 2.93   9 2.93   1 2.93  15 2.93   8 2.93  12 2.93   3 2.93   5 2.93
                            14 2.93
   7  0.000  0.667  0.238-   8 2.93   1 2.93   5 2.93   3 2.93   4 2.93  16 2.93  18 2.93  13 2.93
                             9 2.93
   8  0.333  0.667  0.238-   7 2.93   1 2.93   2 2.93   9 2.93   5 2.93  16 2.93   6 2.93  17 2.93
                            14 2.93
   9  0.667  0.667  0.238-   3 2.93   2 2.93   8 2.93   6 2.93  17 2.93   4 2.93  15 2.93   7 2.93
                            18 2.93
  10  0.111  0.111  0.346-  20 2.91  19 2.92  26 2.92  12 2.93  16 2.93  15 2.93  17 2.93  13 2.93
                            11 2.93   2 2.93   1 2.93   4 2.93
  11  0.444  0.111  0.346-  21 2.91  20 2.91  27 2.91  14 2.93  17 2.93  18 2.93   3 2.93  12 2.93
                            13 2.93  10 2.93   5 2.93   2 2.93
  12  0.778  0.111  0.346-  21 2.91  25 2.92  19 2.92  10 2.93  16 2.93  18 2.93  15 2.93  11 2.93
                             1 2.93  14 2.93   6 2.93   3 2.93
  13  0.111  0.444  0.346-  20 2.91  23 2.91  22 2.91  15 2.93  14 2.93  18 2.93  10 2.93  11 2.93
                            16 2.93   4 2.93   5 2.93   7 2.93
  14  0.444  0.444  0.346-  23 2.91  21 2.91  24 2.91  13 2.93  11 2.93  16 2.93   5 2.93  12 2.93
                            17 2.93   8 2.93  15 2.93   6 2.93
  15  0.778  0.444  0.346-  24 2.91  22 2.91  19 2.92  13 2.93  10 2.93  12 2.93  17 2.93  18 2.93
                             4 2.93   6 2.93   9 2.93  14 2.93
  16  0.111  0.778  0.346-  23 2.91  26 2.92  25 2.92  18 2.93  12 2.93  10 2.93  14 2.93  17 2.93
                            13 2.93   7 2.93   8 2.93   1 2.93
  17  0.444  0.778  0.346-  27 2.91  24 2.91  26 2.92  11 2.93  10 2.93   9 2.93  18 2.93  15 2.93
                            16 2.93   2 2.93  14 2.93   8 2.93
  18  0.778  0.778  0.346-  22 2.91  27 2.91  25 2.92  16 2.93  12 2.93  13 2.93  11 2.93  17 2.93
                            15 2.93   7 2.93   3 2.93   9 2.93
  19  0.889  0.223  0.453-  28 2.91  15 2.92  10 2.92  12 2.92  32 2.92  31 2.92  20 2.93  21 2.93
                            24 2.93  22 2.93  26 2.93  25 2.93
  20  0.222  0.222  0.453-  36 2.81  10 2.91  13 2.91  11 2.91  31 2.91  29 2.91  19 2.93  26 2.93
                            27 2.93  22 2.93  21 2.94  23 2.94
  21  0.556  0.222  0.453-  36 2.81  12 2.91  11 2.91  14 2.91  30 2.91  32 2.91  25 2.93  19 2.93
                            27 2.93  24 2.93  20 2.94  23 2.94
  22  0.889  0.556  0.453-  35 2.91  18 2.91  15 2.91  13 2.91  33 2.92  31 2.92  25 2.93  19 2.93
                            24 2.93  27 2.93  23 2.93  20 2.93
  23  0.222  0.556  0.453-  36 2.81  16 2.91  14 2.91  13 2.91  34 2.91  33 2.91  26 2.93  25 2.93
                            22 2.93  24 2.93  21 2.94  20 2.94
  24  0.556  0.556  0.453-  35 2.91  15 2.91  17 2.91  14 2.91  32 2.92  34 2.92  19 2.93  26 2.93
                            27 2.93  22 2.93  23 2.93  21 2.93
  25  0.889  0.889  0.453-  28 2.91  18 2.92  16 2.92  12 2.92  33 2.92  30 2.92  23 2.93  21 2.93
                            22 2.93  27 2.93  26 2.93  19 2.93
  26  0.223  0.889  0.453-  28 2.91  17 2.92  16 2.92  10 2.92  34 2.92  29 2.92  23 2.93  20 2.93
                            27 2.93  24 2.93  25 2.93  19 2.93
  27  0.556  0.889  0.453-  35 2.91  17 2.91  18 2.91  11 2.91  29 2.92  30 2.92  26 2.93  25 2.93
                            24 2.93  22 2.93  20 2.93  21 2.93
  28  0.000  0.000  0.560-  26 2.91  25 2.91  19 2.91  29 2.94  34 2.94  33 2.94  32 2.94  31 2.94
                            30 2.94
  29  0.333  0.003  0.560-  30 2.91  31 2.91  36 2.91  20 2.91  27 2.92  26 2.92  35 2.94  28 2.94
                            34 2.98
  30  0.664  0.003  0.560-  29 2.91  32 2.91  36 2.91  21 2.91  27 2.92  25 2.92  35 2.94  28 2.94
                            33 2.98
  31  0.003  0.333  0.560-  33 2.91  29 2.91  36 2.91  20 2.91  22 2.92  19 2.92  35 2.94  28 2.94
                            32 2.98
  32  0.664  0.333  0.560-  34 2.91  30 2.91  36 2.91  21 2.91  24 2.92  19 2.92  35 2.94  28 2.94
                            31 2.98
  33  0.003  0.664  0.560-  31 2.91  34 2.91  36 2.91  23 2.91  22 2.92  25 2.92  35 2.94  28 2.94
                            30 2.98
  34  0.333  0.664  0.560-  32 2.91  33 2.91  36 2.91  23 2.91  24 2.92  26 2.92  35 2.94  28 2.94
                            29 2.98
  35  0.667  0.667  0.560-  24 2.91  27 2.91  22 2.91  30 2.94  29 2.94  32 2.94  34 2.94  31 2.94
                            33 2.94
  36  0.333  0.333  0.554-  37 1.85  21 2.81  20 2.81  23 2.81  31 2.91  33 2.91  30 2.91  29 2.91
                            34 2.91  32 2.91
  37  0.333  0.333  0.638-  36 1.85

  LATTYP: Found a hexagonal cell.
 ALAT       =     8.7913665772
 C/A-ratio  =     2.5227160501

  Lattice vectors:

 A1 = (  -4.3956832886,  -7.6135467898,   0.0000000000)
 A2 = (   8.7913665771,   0.0000000000,   0.0000000000)
 A3 = (   0.0000000000,   0.0000000000,  22.1781215668)

Analysis of symmetry for initial positions (statically):
 Subroutine PRICEL returns:
 Original cell was already a primitive cell.

 Routine SETGRP: Setting up the symmetry group for a
 hexagonal supercell.

 Subroutine GETGRP returns: Found  6 space group operations
 (whereof  6 operations were pure point group operations)
 out of a pool of 24 trial point group operations.

The static configuration has the point symmetry C_3v.

Analysis of symmetry for dynamics (positions and initial velocities):
 Subroutine PRICEL returns:
 Original cell was already a primitive cell.

[...]

The dynamic configuration has the point symmetry C_3v.

Analysis of constrained symmetry for selective dynamics:
 Subroutine PRICEL returns:
 Original cell was already a primitive cell.

 Routine SETGRP: Setting up the symmetry group for a
 hexagonal supercell.

 Subroutine GETGRP returns: Found  6 space group operations
[...]
     24      -4.7550      2.00000
     25      -4.7348      2.00000
     26      -4.7118      2.00000
     27      -4.6933      2.00000
     28      -4.6754      2.00000
     29      -4.6700      2.00000
     30      -4.6530      2.00000
     31      -4.6458      2.00000
     32      -4.6402      2.00000
     33      -4.6134      2.00000
     34      -4.5730      2.00000
     35      -4.5475      2.00000
     36      -4.5139      2.00000
     37      -4.5120      2.00000
     38      -4.4913      2.00000
     39      -4.4550      2.00000
     40      -4.4486      2.00000
     41      -4.4416      2.00000
     42      -4.4277      2.00000
     43      -4.4113      2.00000
     44      -4.3348      2.00000
     45      -4.2992      2.00000
     46      -4.2934      2.00000
     47      -4.2878      2.00000
     48      -4.2807      2.00000
     49      -4.2693      2.00000
     50      -4.2635      2.00000
     51      -4.2604      2.00000
     52      -4.2501      2.00000
     53      -4.2399      2.00000
     54      -4.1653      2.00000
     55      -4.1555      2.00000
     56      -4.1475      2.00000
     57      -4.1402      2.00000
     58      -4.1255      2.00000
     59      -4.1181      2.00000
     60      -4.0849      2.00000
[...]
    238       6.2748      0.00000
    239       6.3113      0.00000
    240       6.4877      0.00000
    241       6.9840      0.00000
    242       7.1179      0.00000
    243       7.1906      0.00000
    244       7.3475      0.00000
    245       7.3733      0.00000
    246       7.4120      0.00000
    247       7.4592      0.00000
    248       7.4801      0.00000
    249       7.5614      0.00000
    250       7.6603      0.00000
    251       7.6870      0.00000
    252       7.7838      0.00000

 soft charge-density along one line, spin component           1
         0         1         2         3         4         5         6         7         8         9
 total charge-density along one line

------------------------ aborting loop because EDIFF is reached ----------------------------------------

 total charge

# of ion       s       p       d       tot
    1        0.417   0.202   9.179   9.798
    2        0.417   0.203   9.177   9.797
    3        0.417   0.203   9.177   9.797
    4        0.417   0.203   9.177   9.797
    5        0.416   0.204   9.175   9.795
    6        0.417   0.203   9.177   9.797
    7        0.417   0.203   9.177   9.797
    8        0.417   0.203   9.177   9.797
    9        0.415   0.202   9.179   9.796
   10        0.405   0.271   9.165   9.840
   11        0.407   0.268   9.168   9.843
   12        0.405   0.271   9.165   9.840
   13        0.407   0.268   9.168   9.843
   14        0.407   0.268   9.168   9.843
   15        0.403   0.271   9.166   9.839
   16        0.405   0.271   9.165   9.840
   17        0.403   0.271   9.166   9.839
   18        0.403   0.271   9.166   9.839
   19        0.402   0.274   9.163   9.839
   20        0.417   0.281   9.159   9.857
   21        0.417   0.281   9.159   9.857
   22        0.403   0.270   9.168   9.841
   23        0.417   0.281   9.159   9.857
   24        0.403   0.270   9.168   9.841
   25        0.402   0.274   9.163   9.839
   26        0.402   0.274   9.163   9.839
   27        0.403   0.270   9.168   9.841
   28        0.420   0.196   9.182   9.798
   29        0.396   0.201   9.188   9.786
   30        0.396   0.201   9.188   9.786
   31        0.396   0.201   9.188   9.786
   32        0.396   0.201   9.188   9.786
   33        0.396   0.201   9.188   9.786
   34        0.396   0.201   9.188   9.786
   35        0.415   0.200   9.179   9.795
   36        0.509   0.507   8.441   9.457
   37        1.600   3.193   0.000   4.793
tot         16.382  12.029 329.494 357.904

  FORCE on cell =-STRESS in cart. coord.  units (eV):
  Direction    XX          YY          ZZ          XY          YZ          ZX
  Alpha Z   754.94334   754.94334   754.94334
  Ewald  121754.85943121754.85950************     0.00003     0.00000     0.00004
  Hartree132111.97014132111.97017************     0.00001    -0.00000     0.00002
  E(xc)   -2111.52883 -2111.52886 -2115.96362     0.00002    -0.00000    -0.00000
  Local  ************************265190.40608     0.00052    -0.00006    -0.00018
  n-local  -356.98248  -338.37433  -348.09874    10.55476    -0.36765     0.40857
  augment  3302.18011  3302.18034  3305.27523    -0.00019     0.00001     0.00001
  Kinetic  5035.05863  5039.98493  5043.65582     4.77090     1.21439    -0.37696
  Fock        0.00000     0.00000     0.00000     0.00000     0.00000     0.00000
  Total      -7.24539    -7.24539    -0.23879    -0.00000    -0.00000     0.00000
  in kB      -7.81995    -7.81995    -0.25772    -0.00000    -0.00000     0.00000

 VOLUME and BASIS-vectors are now :
  energy-cutoff  :      500.00
  volume of cell :     1484.46
      direct lattice vectors                 reciprocal lattice vectors
     8.791366577  0.000000000  0.000000000     0.113747958 -0.065672414  0.000000000
     4.395683289  7.613546790  0.000000000     0.000000000  0.131344829  0.000000000
     0.000000000  0.000000000 22.178121567     0.000000000  0.000000000  0.045089481

  length of vectors
     8.791366577  8.791366577 22.178121567     0.131344829  0.131344829  0.045089481

 FORCES acting on ions
    electron-ion (+dipol)            ewald-force                    non-local-force                 convergence-correction
   0.459E-04 -.283E-04 0.252E+04   -.954E-04 0.593E-04 -.252E+04   -.288E-17 -.106E-17 -.218E+01   -.847E-04 -.156E-03 -.216E+00
   0.140E+00 0.254E+00 0.252E+04   -.250E+00 -.309E+00 -.252E+04   0.421E-01 0.645E-01 -.167E+01   0.713E-01 0.405E-02 -.208E+00
   -.140E+00 0.254E+00 0.252E+04   0.250E+00 -.309E+00 -.252E+04   -.421E-01 0.645E-01 -.167E+01   -.719E-01 0.592E-02 -.207E+00
   0.290E+00 -.535E-02 0.252E+04   -.393E+00 -.619E-01 -.252E+04   0.769E-01 0.418E-02 -.167E+01   0.394E-01 0.599E-01 -.208E+00
   -.563E-05 -.186E-04 0.252E+04   0.981E-04 -.199E-05 -.252E+04   -.357E-17 -.557E-18 -.145E+01   0.618E-02 0.378E-02 -.178E+00
   -.290E+00 -.532E-02 0.252E+04   0.393E+00 -.620E-01 -.252E+04   -.769E-01 0.418E-02 -.167E+01   -.407E-01 0.608E-01 -.207E+00
   0.150E+00 -.249E+00 0.252E+04   -.143E+00 0.371E+00 -.252E+04   0.348E-01 -.687E-01 -.167E+01   -.304E-01 -.647E-01 -.207E+00
   -.150E+00 -.249E+00 0.252E+04   0.143E+00 0.371E+00 -.252E+04   -.348E-01 -.687E-01 -.167E+01   0.320E-01 -.656E-01 -.207E+00
   0.363E-04 -.130E-04 0.252E+04   0.792E-04 -.643E-04 -.252E+04   -.268E-17 0.615E-18 -.205E+01   -.663E-02 -.341E-02 -.234E+00
   0.302E+01 0.174E+01 0.874E+03   -.281E+01 -.162E+01 -.873E+03   -.236E+00 -.136E+00 -.768E+00   0.376E-01 0.217E-01 -.387E-01
   -.290E-04 0.274E+01 0.878E+03   0.414E-04 -.280E+01 -.877E+03   0.427E-12 0.649E-01 -.287E+00   0.619E-02 -.173E-01 -.510E-01
   -.302E+01 0.174E+01 0.874E+03   0.281E+01 -.162E+01 -.873E+03   0.236E+00 -.136E+00 -.768E+00   -.388E-01 0.224E-01 -.396E-01
   0.237E+01 -.137E+01 0.878E+03   -.243E+01 0.140E+01 -.877E+03   0.562E-01 -.325E-01 -.287E+00   -.120E-01 0.140E-01 -.510E-01
   -.237E+01 -.137E+01 0.878E+03   0.243E+01 0.140E+01 -.877E+03   -.562E-01 -.325E-01 -.287E+00   0.223E-01 0.131E-01 -.526E-01
   0.161E-04 0.263E-01 0.874E+03   -.108E-03 -.169E+00 -.873E+03   0.432E-12 0.658E-01 -.736E+00   -.128E-02 0.585E-01 -.750E-01
   -.763E-05 -.348E+01 0.874E+03   0.206E-04 0.325E+01 -.873E+03   0.179E-11 0.272E+00 -.768E+00   -.887E-04 -.449E-01 -.395E-01
   0.228E-01 -.131E-01 0.874E+03   -.147E+00 0.846E-01 -.873E+03   0.570E-01 -.329E-01 -.736E+00   0.500E-01 -.304E-01 -.750E-01
   -.228E-01 -.132E-01 0.874E+03   0.147E+00 0.846E-01 -.873E+03   -.570E-01 -.329E-01 -.736E+00   -.499E-01 -.288E-01 -.742E-01
   0.417E-04 0.221E+01 -.807E+03   -.130E-03 -.230E+01 0.806E+03   0.557E-12 0.848E-01 0.670E+00   0.992E-03 0.208E-01 0.176E+00
   0.149E+02 0.862E+01 -.777E+03   -.142E+02 -.818E+01 0.777E+03   -.796E+00 -.459E+00 -.455E+00   0.865E-01 0.500E-01 0.290E+00
   -.149E+02 0.862E+01 -.777E+03   0.142E+02 -.818E+01 0.777E+03   0.796E+00 -.459E+00 -.455E+00   -.974E-01 0.496E-01 0.290E+00
   0.777E+01 -.449E+01 -.800E+03   -.781E+01 0.451E+01 0.799E+03   0.281E-01 -.162E-01 0.620E+00   0.226E-01 -.126E-01 0.166E+00
   -.578E-04 -.172E+02 -.777E+03   0.446E-04 0.164E+02 0.777E+03   0.603E-11 0.919E+00 -.455E+00   -.538E-02 -.109E+00 0.290E+00
   -.777E+01 -.449E+01 -.800E+03   0.781E+01 0.451E+01 0.799E+03   -.281E-01 -.162E-01 0.620E+00   -.211E-01 -.121E-01 0.166E+00
   -.191E+01 -.110E+01 -.807E+03   0.199E+01 0.115E+01 0.806E+03   -.735E-01 -.424E-01 0.670E+00   -.180E-01 -.106E-01 0.175E+00
   0.191E+01 -.110E+01 -.807E+03   -.199E+01 0.115E+01 0.806E+03   0.735E-01 -.424E-01 0.670E+00   0.182E-01 -.966E-02 0.176E+00
   0.201E-04 0.898E+01 -.800E+03   0.110E-03 -.902E+01 0.799E+03   0.213E-12 0.325E-01 0.620E+00   -.291E-03 0.258E-01 0.166E+00
   0.550E-04 -.377E-04 -.248E+04   -.118E-03 0.787E-04 0.248E+04   0.670E-17 0.889E-18 0.198E+01   0.201E-03 -.224E-04 0.302E+00
   0.252E+02 0.422E+02 -.247E+04   -.254E+02 -.428E+02 0.246E+04   0.165E+00 0.540E+00 0.239E+01   0.544E-02 0.618E-01 0.145E+00
   -.252E+02 0.422E+02 -.247E+04   0.254E+02 -.428E+02 0.246E+04   -.165E+00 0.540E+00 0.239E+01   -.630E-02 0.632E-01 0.145E+00
   0.491E+02 0.735E+00 -.247E+04   -.498E+02 -.582E+00 0.246E+04   0.550E+00 -.127E+00 0.239E+01   0.564E-01 -.260E-01 0.145E+00
   -.491E+02 0.735E+00 -.247E+04   0.498E+02 -.582E+00 0.246E+04   -.550E+00 -.127E+00 0.239E+01   -.572E-01 -.250E-01 0.146E+00
   0.239E+02 -.429E+02 -.247E+04   -.244E+02 0.434E+02 0.246E+04   0.385E+00 -.413E+00 0.239E+01   0.520E-01 -.365E-01 0.145E+00
   -.239E+02 -.429E+02 -.247E+04   0.244E+02 0.434E+02 0.246E+04   -.385E+00 -.413E+00 0.239E+01   -.507E-01 -.369E-01 0.146E+00
   0.216E-04 -.105E-04 -.248E+04   0.107E-03 -.671E-04 0.248E+04   0.690E-19 0.166E-17 0.194E+01   -.639E-02 -.326E-02 0.208E+00
   0.302E-04 -.174E-04 -.198E+04   0.943E-04 0.110E-04 0.198E+04   0.519E-17 -.698E-18 -.412E+01   0.446E-02 0.273E-02 -.329E-01
   0.182E-03 -.976E-04 -.166E+04   0.244E-04 0.306E-06 0.169E+04   -.117E-17 -.256E-18 -.234E+02   0.358E-02 0.219E-02 -.101E+00
   0.629E-03 -.773E-03 0.271E+02   -.149E-13 -.326E-13 0.109E-10   0.115E-15 -.221E-15 -.279E+02   0.858E-03 0.392E-02 0.775E+00

 POSITION                                       TOTAL-FORCE (eV/Angst)
      0.00000      0.00000      5.28219         0.000000     -0.000000      0.027160
      2.93046      0.00000      5.28219         0.004300      0.014020      0.046656
      5.86091      0.00000      5.28219        -0.004300      0.014020      0.046656
      1.46523      2.53785      5.28219         0.014292     -0.003286      0.046656
      4.39568      2.53785      5.28219         0.000000     -0.000000      0.055183
      7.32614      2.53785      5.28219        -0.014292     -0.003286      0.046656
      2.93046      5.07570      5.28219         0.009992     -0.010734      0.046656
      5.86091      5.07570      5.28219        -0.009992     -0.010734      0.046656
      8.79137      5.07570      5.28219         0.000000      0.000000      0.033186
      1.46523      0.84595      7.67490         0.005872      0.003390     -0.010164
      4.39568      0.84595      7.67490        -0.000000     -0.019802     -0.047264
      7.32614      0.84595      7.67490        -0.005872      0.003390     -0.010164
      2.93046      3.38380      7.67490        -0.017149      0.009901     -0.047264
      5.86091      3.38380      7.67490         0.017149      0.009901     -0.047264
      8.79137      3.38380      7.67490        -0.000000     -0.018950     -0.035136
      4.39568      5.92165      7.67490        -0.000000     -0.006781     -0.010164
      7.32614      5.92165      7.67490        -0.016411      0.009475     -0.035136
     10.25659      5.92165      7.67490         0.016411      0.009475     -0.035136
      8.79137      1.69432     10.05238         0.000000      0.017861      0.023729
      2.92802      1.69049     10.04000         0.051749      0.029878     -0.133662
      5.86334      1.69049     10.04000        -0.051749      0.029878     -0.133662
     10.25637      4.22988     10.04709         0.015185     -0.008767     -0.012292
      4.39568      4.23256     10.04000        -0.000000     -0.059755     -0.133662
      7.32637      4.22988     10.04709        -0.015185     -0.008767     -0.012292
     11.71973      6.76639     10.05238        -0.015468     -0.008930      0.023729
      5.86300      6.76639     10.05238         0.015468     -0.008930      0.023729
      8.79137      6.76733     10.04709         0.000000      0.017534     -0.012292
      0.00000      0.00000     12.42253         0.000000     -0.000000     -0.033872
      2.94245      0.01904     12.42445        -0.052403     -0.092681      0.004470
      5.84892      0.01904     12.42445         0.052403     -0.092681      0.004470
      1.48772      2.53872     12.42445        -0.106466      0.000958      0.004470
      7.30365      2.53872     12.42445         0.106466      0.000958      0.004470
      2.94095      5.05579     12.42445        -0.054062      0.091723      0.004470
      5.85042      5.05579     12.42445         0.054062      0.091723      0.004470
      8.79137      5.07570     12.41807         0.000000      0.000000     -0.009602
      4.39568      2.53785     12.28633         0.000000     -0.000000      0.308048
      4.39568      2.53785     14.13917         0.000000      0.000000     -0.042486
    total drift:                                0.001486      0.003146      0.015677

  FREE ENERGIE OF THE ION-ELECTRON SYSTEM (eV)
  free  energy   TOTEN  =       -98.88069320 eV

  energy  without entropy=      -98.88069320  energy(sigma->0) =      -98.88069320

 stress matrix after NEB project (eV)
     -7.24539     -0.00000      0.00000
     -0.00000     -7.24539      0.00000
      0.00000     -0.00000     -0.23879
  FORCES: max atom, RMS     0.042486    0.006985
  FORCE total and by dimension    0.042486    0.042486
  Stress total and by dimension   10.249307    7.245387
|           W    W    AA    RRRRR   N    N  II  N    N   GGGG   !!!           |
|           W    W   A  A   R    R  NN   N  II  NN   N  G    G  !!!           |
|           W    W  A    A  R    R  N N  N  II  N N  N  G       !!!           |
|           W WW W  AAAAAA  RRRRR   N  N N  II  N  N N  G  GGG   !            |
|           WW  WW  A    A  R   R   N   NN  II  N   NN  G    G                |
|           W    W  A    A  R    R  N    N  II  N    N   GGGG   !!!           |
|     Tetrahedron method does not include variations of the Fermi             |
|     occupations, so forces and stress will be inaccurate. We suggest        |
|     using a different smearing scheme ISMEAR = 1 or 2 for metals in         |
|     relaxations.                                                            |

 total charge

# of ion       s       p       d       tot
    1        0.417   0.202   9.179   9.798
    2        0.417   0.203   9.177   9.797
    3        0.417   0.203   9.177   9.797
    4        0.417   0.203   9.177   9.797
    5        0.416   0.204   9.175   9.795
    6        0.417   0.203   9.177   9.797
    7        0.417   0.203   9.177   9.797
    8        0.417   0.203   9.177   9.797
    9        0.415   0.202   9.179   9.796
   10        0.405   0.271   9.165   9.840
   11        0.407   0.268   9.168   9.843
   12        0.405   0.271   9.165   9.840
   13        0.407   0.268   9.168   9.843
   14        0.407   0.268   9.168   9.843
   15        0.403   0.271   9.166   9.839
   16        0.405   0.271   9.165   9.840
   17        0.403   0.271   9.166   9.839
   18        0.403   0.271   9.166   9.839
   19        0.402   0.274   9.163   9.839
   20        0.417   0.281   9.159   9.857
   21        0.417   0.281   9.159   9.857
   22        0.403   0.270   9.168   9.841
   23        0.417   0.281   9.159   9.857
   24        0.403   0.270   9.168   9.841
   25        0.402   0.274   9.163   9.839
   26        0.402   0.274   9.163   9.839
   27        0.403   0.270   9.168   9.841
   28        0.420   0.196   9.182   9.798
   29        0.396   0.201   9.188   9.786
   30        0.396   0.201   9.188   9.786
   31        0.396   0.201   9.188   9.786
   32        0.396   0.201   9.188   9.786
   33        0.396   0.201   9.188   9.786
   34        0.396   0.201   9.188   9.786
   35        0.415   0.200   9.179   9.795
   36        0.509   0.507   8.441   9.457
   37        1.600   3.193   0.000   4.793
tot         16.382  12.029 329.494 357.904

 BZINTS: Fermi energy:    0.699744;  401.000000 electrons
         Band energy:-0.135958E+04;  BLOECHL correction:   -0.033387