 vasp.6.2.0 18Jan21 (build Jun 12 2021 23:27:24) complex

 executed on             LinuxIFC date 2022.05.28  02:17:52

 INCAR:
   ISMEAR = -5
   SIGMA = 0.1
   ISPIN = 1
   EDIFF = 1.d-5
   EDIFFG = -0.01
   NSW = 0
   NELM = 150
   ENCUT = 500
   ISIF = 2
   IBRION = 2
   LREAL = Auto
   ALGO = Fast
   ICHARG = 11
   LORBIT = 10
   LCHARG = .F.
   LWAVE = .F.

 POTCAR:    PAW_PBE Cu 22Jun2005
 POTCAR:    PAW_PBE Cr 06Sep2000
 POTCAR:    PAW_PBE C 08Apr2002
 POTCAR:    PAW_PBE O 08Apr2002
|           W    W    AA    RRRRR   N    N  II  N    N   GGGG   !!!           |
|           W    W   A  A   R    R  NN   N  II  NN   N  G    G  !!!           |
|           W    W  A    A  R    R  N N  N  II  N N  N  G       !!!           |
|           W WW W  AAAAAA  RRRRR   N  N N  II  N  N N  G  GGG   !            |
|           WW  WW  A    A  R   R   N   NN  II  N   NN  G    G                |
|           W    W  A    A  R    R  N    N  II  N    N   GGGG   !!!           |
|     For optimal performance we recommend to set                             |
|       NCORE = 2 up to number-of-cores-per-socket                            |
|     This setting can greatly improve the performance of VASP for DFT.       |
|     The default, NCORE=1 might be grossly inefficient on modern             |
|     multi-core architectures or massively parallel machines. Do your        |
|     Unfortunately you need to use the default for GW and RPA                |
|     calculations (for HF NCORE is supported but not extensively tested      |
|     yet).                                                                   |

 POTCAR:    PAW_PBE Cu 22Jun2005
   VRHFIN =Cu: d10 p1

   TITEL  = PAW_PBE Cu 22Jun2005
   POMASS =   63.546; ZVAL   =   11.000    mass and valenz
   ENMAX  =  295.446; ENMIN  =  221.585 eV

 POTCAR:    PAW_PBE Cr 06Sep2000
   VRHFIN =Cr : d5 s1

   TITEL  = PAW_PBE Cr 06Sep2000
   POMASS =   51.996; ZVAL   =    6.000    mass and valenz
   ENMAX  =  227.080; ENMIN  =  170.310 eV

 POTCAR:    PAW_PBE C 08Apr2002
   VRHFIN =C: s2p2

   TITEL  = PAW_PBE C 08Apr2002
   POMASS =   12.011; ZVAL   =    4.000    mass and valenz
   ENMAX  =  400.000; ENMIN  =  300.000 eV

 POTCAR:    PAW_PBE O 08Apr2002
   VRHFIN =O: s2p4

   TITEL  = PAW_PBE O 08Apr2002
   POMASS =   16.000; ZVAL   =    6.000    mass and valenz
   ENMAX  =  400.000; ENMIN  =  300.000 eV

 Optimization of the real space projectors (new method)

 maximal supplied QI-value         = 16.25
 optimisation between [QCUT,QGAM] = [ 11.38, 22.75] = [ 36.24,144.96] Ry
 Optimized for a Real-space Cutoff    1.52 Angstroem

   l    n(q)    QCUT    max X(q) W(low)/X(q) W(high)/X(q)  e(spline)
   2      9    11.376     4.610    0.21E-03    0.10E-03    0.26E-06
   2      9    11.376     8.522    0.33E-03    0.16E-03    0.37E-06
   0     10    11.376    51.609    0.62E-04    0.20E-04    0.13E-06
   0     10    11.376    27.747    0.54E-04    0.20E-04    0.13E-06
   1     10    11.376    20.408    0.13E-04    0.99E-04    0.19E-06
   1     10    11.376    13.425    0.12E-04    0.87E-04    0.17E-06
 Optimization of the real space projectors (new method)

[...]

   l    n(q)    QCUT    max X(q) W(low)/X(q) W(high)/X(q)  e(spline)
   0      7    11.310   115.676    0.43E-03    0.13E-02    0.19E-06
   0      7    11.310    87.132    0.43E-03    0.13E-02    0.18E-06
   1      6    11.310     4.429    0.42E-03    0.74E-03    0.11E-06
   1      6    11.310     2.733    0.34E-03    0.55E-03    0.92E-07
 Optimization of the real space projectors (new method)

 maximal supplied QI-value         = 24.76
 optimisation between [QCUT,QGAM] = [ 11.39, 22.77] = [ 36.31,145.25] Ry
 Optimized for a Real-space Cutoff    1.00 Angstroem

   l    n(q)    QCUT    max X(q) W(low)/X(q) W(high)/X(q)  e(spline)
   0      7    11.387    20.381    0.39E-03    0.13E-02    0.15E-06
   0      7    11.387    15.268    0.42E-03    0.14E-02    0.17E-06
   1      6    11.387     5.964    0.41E-03    0.11E-02    0.17E-06
   1      6    11.387     5.382    0.39E-03    0.87E-03    0.15E-06
  PAW_PBE Cu 22Jun2005                  :
  PAW_PBE Cr 06Sep2000                  :
  PAW_PBE C 08Apr2002                   :
  PAW_PBE O 08Apr2002                   :

 POSCAR: Cu-Cr-CO2
  positions in direct lattice
  velocities in cartesian coordinates
 exchange correlation table for  LEXCH =        8
   RHO(1)=    0.500       N(1)  =     2000
   RHO(2)=  100.500       N(2)  =     4000

 VTST: version 3.2, (02/03/18)

 CHAIN: initializing optimizer

 OPT: Using VASP Conjugate-Gradient optimizer
 CHAIN: Read ICHAIN            0

 POSCAR: Cu-Cr-CO2
  positions in direct lattice
  velocities in cartesian coordinates

 ion  position               nearest neighbor table
   1  0.000  0.000  0.229-   7 2.57   3 2.57   4 2.57   2 2.57   6 2.57   8 2.57  12 2.57  10 2.57
                            16 2.57
   2  0.333  0.000  0.229-   8 2.57   9 2.57   5 2.57   1 2.57   3 2.57  11 2.57   4 2.57  10 2.57
                            17 2.57
   3  0.667  0.000  0.229-   1 2.57   7 2.57   6 2.57   9 2.57   2 2.57  12 2.57   5 2.57  18 2.57
                            11 2.57
   4  0.000  0.333  0.229-   5 2.57   6 2.57   1 2.57   7 2.57   2 2.57  13 2.57   9 2.57  10 2.57
                            15 2.57
   5  0.333  0.333  0.229-   4 2.57   2 2.57   7 2.57  13 2.57   8 2.57   6 2.57   3 2.57  11 2.57
                            14 2.57
   6  0.667  0.333  0.229-   4 2.57   9 2.57  15 2.57   3 2.57   1 2.57   8 2.57  14 2.57   5 2.57
                            12 2.57
   7  0.000  0.667  0.229-   1 2.57   3 2.57  16 2.57  18 2.57   4 2.57   5 2.57   8 2.57   9 2.57
                            13 2.57
   8  0.333  0.667  0.229-   9 2.57   2 2.57  17 2.57   6 2.57   1 2.57   7 2.57   5 2.57  14 2.57
                            16 2.57
   9  0.667  0.667  0.229-   8 2.57   6 2.57   2 2.57  17 2.57   3 2.57   7 2.57   4 2.57  15 2.57
                            18 2.57
  10  0.111  0.111  0.318-  20 2.55  26 2.56  19 2.56  11 2.57  12 2.57  13 2.57   1 2.57   2 2.57
                             4 2.57  15 2.57  16 2.57  17 2.57
  11  0.444  0.111  0.318-  20 2.55  21 2.55  10 2.57  13 2.57   2 2.57  17 2.57  14 2.57  12 2.57
                             5 2.57   3 2.57  18 2.57  27 2.57
  12  0.778  0.111  0.318-  21 2.55  19 2.56  25 2.56  15 2.57  10 2.57  14 2.57  18 2.57   3 2.57
                             1 2.57  16 2.57  11 2.57   6 2.57
  13  0.111  0.444  0.318-  23 2.55  20 2.55  16 2.57  18 2.57  10 2.57  11 2.57  14 2.57   5 2.57
                             4 2.57   7 2.57  15 2.57  22 2.57
  14  0.444  0.444  0.318-  21 2.55  23 2.55  15 2.57  17 2.57  12 2.57  16 2.57  13 2.57  11 2.57
                             6 2.57   8 2.57   5 2.57  24 2.57
  15  0.778  0.444  0.318-  19 2.56  24 2.56  22 2.56  14 2.57  17 2.57  12 2.57   6 2.57  18 2.57
                            10 2.57   9 2.57  13 2.57   4 2.57
  16  0.111  0.778  0.318-  23 2.55  25 2.56  26 2.56  18 2.57  13 2.57   7 2.57  14 2.57  17 2.57
                            12 2.57  10 2.57   8 2.57   1 2.57
  17  0.444  0.778  0.318-  26 2.56  27 2.56  24 2.56  14 2.57  15 2.57   8 2.57   9 2.57  11 2.57
                            16 2.57  18 2.57  10 2.57   2 2.57
  18  0.778  0.778  0.318-  25 2.56  22 2.56  27 2.56  16 2.57  13 2.57   7 2.57  15 2.57  12 2.57
                            17 2.57   9 2.57   3 2.57  11 2.57
  19  0.889  0.222  0.407-  12 2.56  10 2.56  15 2.56  28 2.56  25 2.57  26 2.57  22 2.57  24 2.57
                            21 2.57  20 2.57  32 2.58  31 2.58
  20  0.222  0.222  0.407-  36 2.50  11 2.55  13 2.55  10 2.55  23 2.56  21 2.56  26 2.57  19 2.57
                            29 2.57  31 2.57  27 2.57  22 2.57
  21  0.555  0.222  0.407-  36 2.50  14 2.55  11 2.55  12 2.55  20 2.56  23 2.56  19 2.57  25 2.57
                            32 2.57  30 2.57  24 2.57  27 2.57
  22  0.888  0.556  0.407-  35 2.56  24 2.56  27 2.56  18 2.56  15 2.56  31 2.56  33 2.56  19 2.57
                            25 2.57  13 2.57  23 2.57  20 2.57
  23  0.222  0.555  0.407-  36 2.50  13 2.55  14 2.55  16 2.55  20 2.56  21 2.56  25 2.57  26 2.57
                            33 2.57  34 2.57  22 2.57  24 2.57
  24  0.556  0.556  0.407-  35 2.56  22 2.56  27 2.56  15 2.56  17 2.56  32 2.56  34 2.56  19 2.57
                            26 2.57  14 2.57  21 2.57  23 2.57
  25  0.889  0.889  0.407-  12 2.56  16 2.56  18 2.56  28 2.56  19 2.57  26 2.57  22 2.57  27 2.57
                            21 2.57  23 2.57  33 2.58  30 2.58
  26  0.222  0.889  0.407-  10 2.56  16 2.56  17 2.56  28 2.56  25 2.57  19 2.57  27 2.57  24 2.57
                            20 2.57  23 2.57  29 2.58  34 2.58
  27  0.556  0.888  0.407-  35 2.56  24 2.56  22 2.56  17 2.56  18 2.56  29 2.56  30 2.56  26 2.57
                            25 2.57  11 2.57  20 2.57  21 2.57
  28  0.000  0.000  0.496-  25 2.56  19 2.56  26 2.56  33 2.57  30 2.57  31 2.57  29 2.57  32 2.57
                            34 2.57
  29  0.333  0.002  0.497-  31 2.55  30 2.55  36 2.55  27 2.56  20 2.57  28 2.57  35 2.57  26 2.58
                            34 2.60
  30  0.665  0.002  0.497-  32 2.55  29 2.55  36 2.55  27 2.56  21 2.57  28 2.57  35 2.57  25 2.58
                            33 2.60
  31  0.002  0.333  0.497-  29 2.55  33 2.55  36 2.55  22 2.56  20 2.57  28 2.57  35 2.57  19 2.58
                            32 2.60
  32  0.665  0.333  0.497-  30 2.55  34 2.55  36 2.55  24 2.56  21 2.57  28 2.57  35 2.57  19 2.58
                            31 2.60
  33  0.002  0.665  0.497-  34 2.55  31 2.55  36 2.55  22 2.56  23 2.57  28 2.57  35 2.57  25 2.58
                            30 2.60
  34  0.333  0.665  0.497-  33 2.55  32 2.55  36 2.55  24 2.56  23 2.57  28 2.57  35 2.57  26 2.58
                            29 2.60
  35  0.667  0.667  0.496-  24 2.56  27 2.56  22 2.56  34 2.57  32 2.57  29 2.57  30 2.57  33 2.57
                            31 2.57
  36  0.333  0.333  0.493-  37 2.01  23 2.50  20 2.50  21 2.50  31 2.55  29 2.55  33 2.55  34 2.55
                            32 2.55  30 2.55
  37  0.333  0.335  0.578-  38 1.24  39 1.24  36 2.01
  38  0.182  0.331  0.596-  37 1.24
  39  0.487  0.331  0.596-  37 1.24

  LATTYP: Found a hexagonal cell.
 ALAT       =     7.6967864036
 C/A-ratio  =     3.0484540560

  Lattice vectors:

 A1 = (  -3.8483927580,  -6.6656128093,   0.0000000000)
 A2 = (   7.6967864037,   0.0000000000,   0.0000000000)
 A3 = (   0.0000000000,   0.0000000000,  23.4632997305)

Analysis of symmetry for initial positions (statically):
 Subroutine PRICEL returns:
 Original cell was already a primitive cell.

 Routine SETGRP: Setting up the symmetry group for a
 hexagonal supercell.

 Subroutine GETGRP returns: Found  2 space group operations
 (whereof  2 operations were pure point group operations)
 out of a pool of 24 trial point group operations.

The static configuration has the point symmetry C_1h.

Analysis of symmetry for dynamics (positions and initial velocities):
 Subroutine PRICEL returns:
 Original cell was already a primitive cell.

[...]

The dynamic configuration has the point symmetry C_1h.

Analysis of constrained symmetry for selective dynamics:
[...]
     41      -4.4229      2.00000
     42      -4.4002      2.00000
     43      -4.2831      2.00000
     44      -4.2785      2.00000
     45      -4.2053      2.00000
     46      -4.1973      2.00000
     47      -4.1919      2.00000
     48      -4.1670      2.00000
     49      -4.1594      2.00000
     50      -4.1493      2.00000
     51      -4.1405      2.00000
     52      -4.0254      2.00000
     53      -3.9527      2.00000
     54      -3.9394      2.00000
     55      -3.9291      2.00000
     56      -3.9228      2.00000
     57      -3.8729      2.00000
     58      -3.8698      2.00000
     59      -3.8529      2.00000
     60      -3.8458      2.00000
[...]
    238       5.2135      0.00000
    239       5.3603      0.00000
    240       5.4137      0.00000
    241       5.5346      0.00000
    242       5.6498      0.00000
    243       5.7346      0.00000
    244       5.8791      0.00000
    245       5.9277      0.00000
    246       5.9595      0.00000
    247       6.3168      0.00000
    248       6.3985      0.00000
    249       6.4736      0.00000
    250       6.5210      0.00000
    251       6.7397      0.00000
    252       6.8379      0.00000

 soft charge-density along one line, spin component           1
         0         1         2         3         4         5         6         7         8         9
 total charge-density along one line

------------------------ aborting loop because EDIFF is reached ----------------------------------------

 total charge

# of ion       s       p       d       tot
    1        0.449   0.283   9.190   9.922
    2        0.448   0.285   9.187   9.920
    3        0.448   0.285   9.187   9.920
    4        0.448   0.285   9.188   9.921
    5        0.450   0.284   9.187   9.921
    6        0.448   0.285   9.188   9.921
    7        0.449   0.285   9.186   9.920
    8        0.449   0.285   9.186   9.920
    9        0.449   0.285   9.187   9.920
   10        0.443   0.372   9.178   9.993
   11        0.442   0.369   9.183   9.993
   12        0.443   0.372   9.178   9.993
   13        0.441   0.369   9.183   9.993
   14        0.441   0.369   9.183   9.993
   15        0.439   0.370   9.180   9.989
   16        0.443   0.371   9.178   9.992
   17        0.440   0.369   9.180   9.988
   18        0.440   0.369   9.180   9.988
   19        0.438   0.367   9.184   9.990
   20        0.459   0.395   9.162  10.015
   21        0.459   0.395   9.162  10.015
   22        0.432   0.375   9.179   9.987
   23        0.459   0.392   9.165  10.016
   24        0.432   0.375   9.179   9.987
   25        0.441   0.367   9.184   9.991
   26        0.441   0.367   9.184   9.991
   27        0.434   0.372   9.182   9.988
   28        0.449   0.282   9.185   9.916
   29        0.464   0.296   9.176   9.936
   30        0.464   0.296   9.176   9.936
   31        0.447   0.298   9.179   9.924
   32        0.447   0.298   9.179   9.924
   33        0.464   0.296   9.175   9.935
   34        0.464   0.296   9.175   9.935
   35        0.443   0.286   9.187   9.916
   36        0.486   0.487   4.385   5.358
   37        0.890   1.703   0.000   2.593
   38        1.601   3.467   0.000   5.068
   39        1.601   3.467   0.000   5.068
tot         20.222  20.772 325.706 366.700

  FORCE on cell =-STRESS in cart. coord.  units (eV):
  Direction    XX          YY          ZZ          XY          YZ          ZX
  Alpha Z   832.65632   832.65632   832.65632
  Ewald  215075.12069214400.04213************     0.00040    -2.65157     0.00016
  Hartree227816.26149227490.58538************     0.00005    -1.16394     0.00006
  E(xc)   -2345.77662 -2347.91936 -2351.85307    -0.00027    -0.04298    -0.00005
  Local  ************************455122.08108     0.02028     4.04900    -0.00072
  n-local  -815.84855  -810.81210  -826.27570     1.87238     0.53008     0.11995
  augment  3345.73555  3349.05693  3367.85246    -0.01842    -0.08913     0.00037
  Kinetic  3470.75224  3518.58065  3537.48697     1.17007    -0.51051    -0.15272
  Fock        0.00000     0.00000     0.00000     0.00000     0.00000     0.00000
  Total      -4.28839    -4.39803     1.66781     0.00000     0.12095    -0.00000
  in kB      -5.70776    -5.85369     2.21982     0.00000     0.16098    -0.00000

 VOLUME and BASIS-vectors are now :
  energy-cutoff  :      500.00
  volume of cell :     1203.76
      direct lattice vectors                 reciprocal lattice vectors
     7.696786404  0.000000000  0.000000000     0.129924354 -0.075011849  0.000000000
     3.848392758  6.665612809  0.000000000     0.000000000  0.150023716  0.000000000
     0.000000000  0.000000000 23.463299730     0.000000000  0.000000000  0.042619751

  length of vectors
     7.696786404  7.696786404 23.463299730     0.150023716  0.150023716  0.042619751

 FORCES acting on ions
    electron-ion (+dipol)            ewald-force                    non-local-force                 convergence-correction
   -.418E-04 0.196E+00 0.374E+04   0.580E-04 -.522E-01 -.373E+04   0.479E-08 -.720E-01 -.229E+01   -.155E-03 -.765E-01 -.361E+00
   -.347E+00 -.299E-01 0.374E+04   0.253E+00 0.105E+00 -.373E+04   0.482E-02 0.184E-01 -.196E+01   0.839E-01 -.101E+00 -.297E+00
   0.347E+00 -.299E-01 0.374E+04   -.253E+00 0.105E+00 -.373E+04   -.482E-02 0.184E-01 -.196E+01   -.833E-01 -.987E-01 -.296E+00
   -.344E+00 -.184E+00 0.374E+04   0.262E+00 0.142E+00 -.373E+04   0.128E+00 -.140E-01 -.213E+01   -.450E-01 0.606E-01 -.250E+00
   -.636E-04 -.120E+00 0.373E+04   0.116E-03 0.191E-02 -.373E+04   -.427E-08 0.641E-01 -.177E+01   0.121E-01 0.506E-01 -.225E+00
   0.344E+00 -.184E+00 0.374E+04   -.262E+00 0.142E+00 -.373E+04   -.128E+00 -.140E-01 -.213E+01   0.435E-01 0.620E-01 -.249E+00
   -.164E+00 0.252E+00 0.373E+04   0.104E-01 -.247E+00 -.373E+04   0.118E+00 -.276E-01 -.188E+01   0.265E-01 0.321E-01 -.264E+00
   0.164E+00 0.252E+00 0.373E+04   -.106E-01 -.247E+00 -.373E+04   -.118E+00 -.276E-01 -.188E+01   -.230E-01 0.308E-01 -.264E+00
   -.144E-03 -.173E+00 0.374E+04   0.263E-03 0.503E-01 -.373E+04   -.466E-08 0.699E-01 -.201E+01   -.133E-01 0.481E-01 -.179E+00
   -.118E+01 -.333E+00 0.132E+04   0.153E+01 0.470E+00 -.132E+04   -.372E+00 -.147E+00 -.995E+00   0.151E-01 0.115E-01 0.529E+00
   -.910E-04 -.777E+00 0.131E+04   0.189E-03 0.796E+00 -.131E+04   -.100E-08 0.150E-01 -.709E+00   0.108E-01 -.456E-01 0.631E+00
   0.118E+01 -.333E+00 0.132E+04   -.153E+01 0.470E+00 -.132E+04   0.372E+00 -.147E+00 -.995E+00   -.157E-01 0.128E-01 0.527E+00
   -.117E+01 0.304E+00 0.131E+04   0.106E+01 -.320E+00 -.131E+04   0.896E-01 -.284E-01 -.593E+00   0.667E-02 0.509E-01 0.589E+00
   0.117E+01 0.304E+00 0.131E+04   -.106E+01 -.320E+00 -.131E+04   -.896E-01 -.284E-01 -.593E+00   0.170E-01 0.506E-01 0.587E+00
   -.140E-03 -.102E+01 0.132E+04   0.298E-03 0.769E+00 -.132E+04   -.642E-08 0.964E-01 -.104E+01   -.298E-02 0.147E+00 0.552E+00
   -.872E-04 0.145E+01 0.132E+04   0.186E-03 -.164E+01 -.132E+04   -.176E-07 0.264E+00 -.720E+00   -.890E-04 -.638E-01 0.529E+00
   -.699E+00 0.188E+00 0.132E+04   0.426E+00 -.110E+00 -.132E+04   0.130E+00 -.115E-01 -.742E+00   0.125E+00 -.707E-01 0.502E+00
   0.699E+00 0.189E+00 0.132E+04   -.426E+00 -.110E+00 -.132E+04   -.130E+00 -.115E-01 -.742E+00   -.125E+00 -.691E-01 0.501E+00
   -.636E-04 -.183E+01 -.111E+04   0.696E-04 0.156E+01 0.111E+04   -.108E-07 0.162E+00 0.127E+01   0.134E-01 0.921E-01 0.851E+00
   -.294E+02 -.147E+02 -.113E+04   0.295E+02 0.149E+02 0.113E+04   -.670E+00 -.494E+00 -.634E+00   0.425E+00 0.269E+00 0.136E+01
   0.294E+02 -.147E+02 -.113E+04   -.295E+02 0.149E+02 0.113E+04   0.670E+00 -.494E+00 -.634E+00   -.448E+00 0.272E+00 0.136E+01
   -.130E+02 0.485E+01 -.112E+04   0.127E+02 -.440E+01 0.111E+04   0.310E+00 -.350E+00 0.803E+00   0.952E-01 -.136E+00 0.787E+00
   -.834E-04 0.306E+02 -.114E+04   0.147E-03 -.308E+02 0.114E+04   -.484E-07 0.727E+00 -.325E+00   -.105E-01 -.470E+00 0.124E+01
   0.130E+02 0.485E+01 -.112E+04   -.127E+02 -.440E+01 0.111E+04   -.310E+00 -.350E+00 0.803E+00   -.117E+00 -.132E+00 0.787E+00
   0.282E+01 0.285E+01 -.111E+04   -.283E+01 -.282E+01 0.111E+04   0.135E-01 0.379E-02 0.986E+00   0.158E-02 -.211E-01 0.827E+00
   -.282E+01 0.285E+01 -.111E+04   0.283E+01 -.282E+01 0.111E+04   -.135E-01 0.379E-02 0.986E+00   0.239E-01 -.199E-01 0.827E+00
   -.121E-03 -.145E+02 -.112E+04   0.241E-03 0.139E+02 0.112E+04   -.302E-07 0.454E+00 0.756E+00   -.146E-01 0.193E+00 0.722E+00
   -.316E-04 0.147E+02 -.351E+04   0.334E-04 -.146E+02 0.351E+04   0.170E-07 -.256E+00 0.223E+01   0.875E-03 0.476E-01 0.698E+00
   -.582E+01 0.121E+02 -.348E+04   0.651E+01 -.126E+02 0.347E+04   -.895E+00 -.305E+00 0.230E+01   0.205E+00 0.539E+00 0.610E+00
   0.582E+01 0.121E+02 -.348E+04   -.651E+01 -.126E+02 0.347E+04   0.895E+00 -.305E+00 0.230E+01   -.206E+00 0.541E+00 0.612E+00
   0.828E+01 0.597E+00 -.344E+04   -.958E+01 -.349E+00 0.343E+04   0.473E+00 -.223E+00 0.384E+01   0.657E+00 -.149E-01 0.683E+00
   -.828E+01 0.597E+00 -.344E+04   0.958E+01 -.349E+00 0.343E+04   -.473E+00 -.223E+00 0.384E+01   -.657E+00 -.128E-01 0.684E+00
   -.822E+01 -.125E+02 -.348E+04   0.839E+01 0.128E+02 0.347E+04   -.514E+00 0.482E+00 0.216E+01   0.344E+00 -.580E+00 0.645E+00
   0.822E+01 -.125E+02 -.348E+04   -.839E+01 0.128E+02 0.347E+04   0.514E+00 0.482E+00 0.216E+01   -.340E+00 -.580E+00 0.644E+00
   -.134E-03 -.143E+02 -.352E+04   0.257E-03 0.141E+02 0.352E+04   -.206E-07 0.309E+00 0.257E+01   -.133E-01 -.692E-01 0.710E+00
   -.466E-04 -.318E+00 -.173E+04   0.773E-04 0.362E+00 0.173E+04   0.114E-08 -.172E-01 0.198E+01   0.981E-03 0.489E-01 0.446E+00
   -.835E-05 -.865E+01 -.137E+04   0.962E-05 0.903E+01 0.136E+04   0.252E-07 -.379E+00 0.599E+01   0.112E-03 0.118E-01 -.371E+00
   0.213E+03 0.332E+01 -.222E+04   -.261E+03 -.430E+01 0.224E+04   0.481E+02 0.971E+00 -.197E+02   0.247E+00 0.724E-02 -.323E+00
   -.213E+03 0.332E+01 -.222E+04   0.261E+03 -.430E+01 0.224E+04   -.481E+02 0.971E+00 -.197E+02   -.247E+00 0.739E-02 -.323E+00
   0.270E-04 -.120E+01 0.150E+02   0.114E-12 0.728E-13 0.296E-10   -.791E-07 0.119E+01 -.311E+02   -.526E-02 0.249E-01 0.160E+02

 POSITION                                       TOTAL-FORCE (eV/Angst)
      0.00000      0.00000      5.37156         0.000000     -0.004513      0.042259
      2.56560      0.00000      5.37156        -0.005991     -0.006464      0.072352
      5.13119      0.00000      5.37156         0.005991     -0.006464      0.072352
      1.28280      2.22187      5.37156         0.002072      0.004793      0.055883
      3.84839      2.22187      5.37156         0.000000     -0.003767      0.042502
      6.41399      2.22187      5.37156        -0.002072      0.004793      0.055883
      2.56560      4.44374      5.37156        -0.010680      0.008171      0.072574
      5.13119      4.44374      5.37156         0.010680      0.008171      0.072574
      7.69679      4.44374      5.37156         0.000000     -0.004603      0.039014
      1.28280      0.74062      7.46636        -0.006774      0.001007     -0.074242
      3.84839      0.74062      7.46636         0.000000     -0.012420     -0.091544
      6.41399      0.74062      7.46636         0.006774      0.001007     -0.074242
      2.56560      2.96249      7.46636        -0.028763      0.006089     -0.080329
      5.13119      2.96249      7.46636         0.028763      0.006089     -0.080329
      7.69679      2.96249      7.46636         0.000000     -0.006622     -0.025065
      3.84839      5.18437      7.46636        -0.000000      0.006606     -0.061797
      6.41399      5.18437      7.46636        -0.017574     -0.002886     -0.008019
      8.97958      5.18437      7.46636         0.017574     -0.002886     -0.008019
      7.69679      1.48113      9.55176         0.000000     -0.016665      0.093674
      2.56610      1.48154      9.54462        -0.108534     -0.078824     -0.076960
      5.13069      1.48154      9.54462         0.108534     -0.078824     -0.076960
      8.97635      3.70498      9.55922         0.066765     -0.030676      0.038591
      3.84839      3.70254      9.54462        -0.000000      0.101362     -0.085298
      6.41722      3.70498      9.55922        -0.066765     -0.030676      0.038591
     10.26248      5.92505      9.55176        -0.006578      0.011705      0.019972
      5.13109      5.92505      9.55176         0.006578      0.011705      0.019972
      7.69679      5.92126      9.55922        -0.000000      0.044446     -0.005403
      0.00000      0.00000     11.63975         0.000000     -0.068208     -0.048192
      2.57267      0.01383     11.65039        -0.000126     -0.210746     -0.171768
      5.12411      0.01383     11.65039         0.000126     -0.210746     -0.171768
      1.29831      2.22109     11.65039        -0.168518      0.010166     -0.006390
      6.39847      2.22109     11.65039         0.168518      0.010166     -0.006390
      2.57403      4.43070     11.65039        -0.007190      0.195086     -0.148655
      5.12275      4.43070     11.65039         0.007190      0.195086     -0.148655
      7.69679      4.44374     11.64501        -0.000000      0.063576     -0.019305
      3.84839      2.22187     11.55740        -0.000000      0.075317      0.710305
      3.84839      2.23124     13.57226        -0.000000      0.012223      0.092846
      2.67611      2.20524     13.97878         0.008446     -0.000786     -0.035008
      5.02067      2.20524     13.97878        -0.008446     -0.000786     -0.035008
    total drift:                               -0.005237      0.007913     -0.101285

  FREE ENERGIE OF THE ION-ELECTRON SYSTEM (eV)
  free  energy   TOTEN  =      -151.79384875 eV

  energy  without entropy=     -151.79384875  energy(sigma->0) =     -151.79384875

 stress matrix after NEB project (eV)
     -4.28839      0.00000     -0.00000
      0.00000     -4.39803      0.12095
     -0.00000      0.12095      1.66781
  FORCES: max atom, RMS     0.093648    0.017071
  FORCE total and by dimension    0.106606    0.092846
  Stress total and by dimension    6.367395    4.398026
|           W    W    AA    RRRRR   N    N  II  N    N   GGGG   !!!           |
|           W    W   A  A   R    R  NN   N  II  NN   N  G    G  !!!           |
|           W    W  A    A  R    R  N N  N  II  N N  N  G       !!!           |
|           W WW W  AAAAAA  RRRRR   N  N N  II  N  N N  G  GGG   !            |
|           WW  WW  A    A  R   R   N   NN  II  N   NN  G    G                |
|           W    W  A    A  R    R  N    N  II  N    N   GGGG   !!!           |
|     Tetrahedron method does not include variations of the Fermi             |
|     occupations, so forces and stress will be inaccurate. We suggest        |
|     using a different smearing scheme ISMEAR = 1 or 2 for metals in         |
|     relaxations.                                                            |

 total charge

# of ion       s       p       d       tot
    1        0.449   0.283   9.190   9.922
    2        0.448   0.285   9.187   9.920
    3        0.448   0.285   9.187   9.920
    4        0.448   0.285   9.188   9.921
    5        0.450   0.284   9.187   9.921
    6        0.448   0.285   9.188   9.921
    7        0.449   0.285   9.186   9.920
    8        0.449   0.285   9.186   9.920
    9        0.449   0.285   9.187   9.920
   10        0.443   0.372   9.178   9.993
   11        0.442   0.369   9.183   9.993
   12        0.443   0.372   9.178   9.993
   13        0.441   0.369   9.183   9.993
   14        0.441   0.369   9.183   9.993
   15        0.439   0.370   9.180   9.989
   16        0.443   0.371   9.178   9.992
   17        0.440   0.369   9.180   9.988
   18        0.440   0.369   9.180   9.988
   19        0.438   0.367   9.184   9.990
   20        0.459   0.395   9.162  10.015
   21        0.459   0.395   9.162  10.015
   22        0.432   0.375   9.179   9.987
   23        0.459   0.392   9.165  10.016
   24        0.432   0.375   9.179   9.987
   25        0.441   0.367   9.184   9.991
   26        0.441   0.367   9.184   9.991
   27        0.434   0.372   9.182   9.988
   28        0.449   0.282   9.185   9.916
   29        0.464   0.296   9.176   9.936
   30        0.464   0.296   9.176   9.936
   31        0.447   0.298   9.179   9.924
   32        0.447   0.298   9.179   9.924
   33        0.464   0.296   9.175   9.935
   34        0.464   0.296   9.175   9.935
   35        0.443   0.286   9.187   9.916
   36        0.486   0.487   4.385   5.358
   37        0.890   1.703   0.000   2.593
   38        1.601   3.467   0.000   5.068
   39        1.601   3.467   0.000   5.068
tot         20.222  20.772 325.706 366.700

 BZINTS: Fermi energy:   -0.477539;  407.000000 electrons
         Band energy:-0.145122E+04;  BLOECHL correction:   -0.026862