 vasp.6.2.0 18Jan21 (build Jun 12 2021 23:27:24) complex

 executed on             LinuxIFC date 2022.05.26  20:29:43

 INCAR:
   ISMEAR = -5
   SIGMA = 0.1
   ISPIN = 1
   EDIFF = 1.d-5
   EDIFFG = -0.01
   NSW = 0
   NELM = 150
   ENCUT = 500
   ISIF = 2
   IBRION = 2
   LREAL = Auto
   ALGO = Fast
   ICHARG = 11
   LORBIT = 10
   LCHARG = .F.
   LWAVE = .F.

 POTCAR:    PAW_PBE Cu 22Jun2005
 POTCAR:    PAW_PBE Ir 06Sep2000
|           W    W    AA    RRRRR   N    N  II  N    N   GGGG   !!!           |
|           W    W   A  A   R    R  NN   N  II  NN   N  G    G  !!!           |
|           W    W  A    A  R    R  N N  N  II  N N  N  G       !!!           |
|           W WW W  AAAAAA  RRRRR   N  N N  II  N  N N  G  GGG   !            |
|           WW  WW  A    A  R   R   N   NN  II  N   NN  G    G                |
|           W    W  A    A  R    R  N    N  II  N    N   GGGG   !!!           |
|     For optimal performance we recommend to set                             |
|       NCORE = 2 up to number-of-cores-per-socket                            |
|     This setting can greatly improve the performance of VASP for DFT.       |
|     The default, NCORE=1 might be grossly inefficient on modern             |
|     multi-core architectures or massively parallel machines. Do your        |
|     Unfortunately you need to use the default for GW and RPA                |
|     calculations (for HF NCORE is supported but not extensively tested      |
|     yet).                                                                   |

 POTCAR:    PAW_PBE Cu 22Jun2005
   VRHFIN =Cu: d10 p1

   TITEL  = PAW_PBE Cu 22Jun2005
   POMASS =   63.546; ZVAL   =   11.000    mass and valenz
   ENMAX  =  295.446; ENMIN  =  221.585 eV

 POTCAR:    PAW_PBE Ir 06Sep2000
   VRHFIN =Ir: s1d8

   TITEL  = PAW_PBE Ir 06Sep2000
   POMASS =  192.220; ZVAL   =    9.000    mass and valenz
   ENMAX  =  210.864; ENMIN  =  158.148 eV

 Optimization of the real space projectors (new method)

 maximal supplied QI-value         = 16.25
 optimisation between [QCUT,QGAM] = [ 11.38, 22.75] = [ 36.24,144.96] Ry
 Optimized for a Real-space Cutoff    1.52 Angstroem

   l    n(q)    QCUT    max X(q) W(low)/X(q) W(high)/X(q)  e(spline)
   2      9    11.376     4.610    0.21E-03    0.10E-03    0.26E-06
   2      9    11.376     8.522    0.33E-03    0.16E-03    0.37E-06
   0     10    11.376    51.609    0.62E-04    0.20E-04    0.13E-06
   0     10    11.376    27.747    0.54E-04    0.20E-04    0.13E-06
   1     10    11.376    20.408    0.13E-04    0.99E-04    0.19E-06
   1     10    11.376    13.425    0.12E-04    0.87E-04    0.17E-06
 Optimization of the real space projectors (new method)

 maximal supplied QI-value         = 14.36
 optimisation between [QCUT,QGAM] = [ 11.35, 22.84] = [ 36.05,146.02] Ry
 Optimized for a Real-space Cutoff    1.52 Angstroem

   l    n(q)    QCUT    max X(q) W(low)/X(q) W(high)/X(q)  e(spline)
   2      9    11.346   134.116    0.47E-03    0.13E-03    0.92E-06
   2      9    11.346   130.192    0.47E-03    0.13E-03    0.92E-06
   0     10    11.346    60.310    0.74E-04    0.13E-03    0.69E-06
   0     10    11.346    39.218    0.68E-04    0.12E-03    0.65E-06
   1     10    11.346    18.439    0.15E-03    0.34E-04    0.20E-06
   1     10    11.346    12.760    0.12E-03    0.31E-04    0.16E-06
  PAW_PBE Cu 22Jun2005                  :
  PAW_PBE Ir 06Sep2000                  :

 POSCAR: Cu-Ir
  positions in direct lattice
  velocities in cartesian coordinates
 exchange correlation table for  LEXCH =        8
   RHO(1)=    0.500       N(1)  =     2000
   RHO(2)=  100.500       N(2)  =     4000

 VTST: version 3.2, (02/03/18)

 CHAIN: initializing optimizer

 OPT: Using VASP Conjugate-Gradient optimizer
 CHAIN: Read ICHAIN            0

 POSCAR: Cu-Ir
  positions in direct lattice
  velocities in cartesian coordinates

 ion  position               nearest neighbor table
   1  0.000  0.000  0.252-   7 2.57   3 2.57   4 2.57   2 2.57   6 2.57   8 2.57  12 2.57  10 2.57
                            16 2.57
   2  0.333  0.000  0.252-   8 2.57   9 2.57   5 2.57   1 2.57   3 2.57  11 2.57   4 2.57  10 2.57
                            17 2.57
   3  0.667  0.000  0.252-   1 2.57   7 2.57   6 2.57   9 2.57   2 2.57  12 2.57   5 2.57  18 2.57
                            11 2.57
   4  0.000  0.333  0.252-   5 2.57   6 2.57   1 2.57   7 2.57   2 2.57  13 2.57   9 2.57  10 2.57
                            15 2.57
   5  0.333  0.333  0.252-   4 2.57   2 2.57   7 2.57  13 2.57   8 2.57   6 2.57   3 2.57  11 2.57
                            14 2.57
   6  0.667  0.333  0.252-   4 2.57   9 2.57  15 2.57   3 2.57   1 2.57   8 2.57  14 2.57   5 2.57
                            12 2.57
   7  0.000  0.667  0.252-   1 2.57   3 2.57  16 2.57  18 2.57   4 2.57   5 2.57   8 2.57   9 2.57
                            13 2.57
   8  0.333  0.667  0.252-   9 2.57   2 2.57  17 2.57   6 2.57   1 2.57   7 2.57   5 2.57  14 2.57
                            16 2.57
   9  0.667  0.667  0.252-   8 2.57   6 2.57   2 2.57  17 2.57   3 2.57   7 2.57   4 2.57  15 2.57
                            18 2.57
  10  0.111  0.111  0.351-  20 2.53  11 2.57  12 2.57  13 2.57   1 2.57   2 2.57   4 2.57  15 2.57
                            16 2.57  17 2.57  26 2.57  19 2.57
  11  0.444  0.111  0.351-  20 2.55  21 2.55  10 2.57  13 2.57   2 2.57  17 2.57  14 2.57  12 2.57
                             5 2.57   3 2.57  18 2.57  27 2.57
  12  0.778  0.111  0.351-  21 2.53  15 2.57  10 2.57  14 2.57  18 2.57   3 2.57   1 2.57  16 2.57
                            11 2.57   6 2.57  19 2.57  25 2.57
  13  0.111  0.444  0.351-  23 2.55  20 2.55  16 2.57  18 2.57  10 2.57  11 2.57  14 2.57   5 2.57
                             4 2.57   7 2.57  15 2.57  22 2.57
  14  0.444  0.444  0.351-  21 2.55  23 2.55  15 2.57  17 2.57  12 2.57  16 2.57  13 2.57  11 2.57
                             6 2.57   8 2.57   5 2.57  24 2.57
  15  0.778  0.444  0.351-  19 2.56  24 2.56  22 2.56  14 2.57  17 2.57  12 2.57   6 2.57  18 2.57
                            10 2.57   9 2.57  13 2.57   4 2.57
  16  0.111  0.778  0.351-  23 2.53  18 2.57  13 2.57   7 2.57  14 2.57  17 2.57  12 2.57  10 2.57
                             8 2.57   1 2.57  25 2.57  26 2.57
  17  0.444  0.778  0.351-  26 2.56  27 2.56  24 2.56  14 2.57  15 2.57   8 2.57   9 2.57  11 2.57
                            16 2.57  18 2.57  10 2.57   2 2.57
  18  0.778  0.778  0.351-  25 2.56  22 2.56  27 2.56  16 2.57  13 2.57   7 2.57  15 2.57  12 2.57
                            17 2.57   9 2.57   3 2.57  11 2.57
  19  0.888  0.223  0.449-  28 2.55  21 2.55  20 2.55  22 2.56  24 2.56  15 2.56  32 2.56  31 2.56
                            12 2.57  10 2.57  25 2.58  26 2.58
  20  0.221  0.221  0.448-  10 2.53  11 2.55  13 2.55  26 2.55  19 2.55  36 2.55  27 2.57  22 2.57
                            29 2.59  31 2.59  23 2.59  21 2.59
  21  0.558  0.221  0.448-  12 2.53  14 2.55  11 2.55  19 2.55  25 2.55  36 2.55  24 2.57  27 2.57
                            32 2.59  30 2.59  20 2.59  23 2.59
  22  0.888  0.556  0.449-  35 2.54  24 2.56  27 2.56  19 2.56  25 2.56  18 2.56  15 2.56  13 2.57
                            23 2.57  20 2.57  31 2.57  33 2.57
  23  0.221  0.558  0.448-  16 2.53  13 2.55  14 2.55  25 2.55  26 2.55  36 2.55  22 2.57  24 2.57
                            33 2.59  34 2.59  20 2.59  21 2.59
  24  0.556  0.556  0.449-  35 2.54  22 2.56  27 2.56  19 2.56  26 2.56  15 2.56  17 2.56  14 2.57
                            21 2.57  23 2.57  32 2.57  34 2.57
  25  0.888  0.888  0.449-  28 2.55  21 2.55  23 2.55  22 2.56  27 2.56  18 2.56  33 2.56  30 2.56
                            16 2.57  12 2.57  19 2.58  26 2.58
  26  0.223  0.888  0.449-  28 2.55  20 2.55  23 2.55  27 2.56  24 2.56  17 2.56  29 2.56  34 2.56
                            10 2.57  16 2.57  25 2.58  19 2.58
  27  0.556  0.888  0.449-  35 2.54  24 2.56  22 2.56  26 2.56  25 2.56  17 2.56  18 2.56  11 2.57
                            20 2.57  21 2.57  29 2.57  30 2.57
  28  0.000  0.000  0.546-  25 2.55  19 2.55  26 2.55  33 2.56  30 2.56  31 2.56  29 2.56  32 2.56
                            34 2.56
  29  0.333  0.999  0.548-  34 2.55  28 2.56  26 2.56  35 2.57  31 2.57  27 2.57  36 2.57  30 2.58
                            20 2.59
  30  0.668  0.999  0.548-  33 2.55  28 2.56  25 2.56  35 2.57  32 2.57  27 2.57  36 2.57  29 2.58
                            21 2.59
  31  0.999  0.333  0.548-  32 2.55  28 2.56  19 2.56  35 2.57  29 2.57  22 2.57  36 2.57  33 2.58
                            20 2.59
  32  0.668  0.333  0.548-  31 2.55  28 2.56  19 2.56  35 2.57  30 2.57  24 2.57  36 2.57  34 2.58
                            21 2.59
  33  0.999  0.668  0.548-  30 2.55  28 2.56  25 2.56  35 2.57  34 2.57  22 2.57  36 2.57  31 2.58
                            23 2.59
  34  0.333  0.668  0.548-  29 2.55  28 2.56  26 2.56  35 2.57  33 2.57  24 2.57  36 2.57  32 2.58
                            23 2.59
  35  0.667  0.667  0.546-  24 2.54  27 2.54  22 2.54  34 2.57  32 2.57  29 2.57  30 2.57  33 2.57
                            31 2.57
  36  0.333  0.333  0.545-  23 2.55  20 2.55  21 2.55  31 2.57  29 2.57  33 2.57  34 2.57  32 2.57
                            30 2.57

  LATTYP: Found a hexagonal cell.
 ALAT       =     7.6967864036
 C/A-ratio  =     2.7653617908

  Lattice vectors:

 A1 = (  -3.8483927580,  -6.6656128093,   0.0000000000)
 A2 = (   7.6967864037,   0.0000000000,   0.0000000000)
 A3 = (   0.0000000000,   0.0000000000,  21.2843990326)

Analysis of symmetry for initial positions (statically):
 Subroutine PRICEL returns:
 Original cell was already a primitive cell.

 Routine SETGRP: Setting up the symmetry group for a
 hexagonal supercell.

 Subroutine GETGRP returns: Found  6 space group operations
 (whereof  6 operations were pure point group operations)
 out of a pool of 24 trial point group operations.

The static configuration has the point symmetry C_3v.

Analysis of symmetry for dynamics (positions and initial velocities):
 Subroutine PRICEL returns:
 Original cell was already a primitive cell.

[...]

The dynamic configuration has the point symmetry C_3v.

Analysis of constrained symmetry for selective dynamics:
 Subroutine PRICEL returns:
 Original cell was already a primitive cell.

 Routine SETGRP: Setting up the symmetry group for a
 hexagonal supercell.

 Subroutine GETGRP returns: Found  6 space group operations
 (whereof  6 operations were pure point group operations)
 out of a pool of 24 trial point group operations.

The constrained configuration has the point symmetry C_3v.

 Subroutine INISYM returns: Found  6 space group operations
 (whereof  6 operations are pure point group operations),
 and found     1 'primitive' translations

                                     Primitive cell

  volume of cell :    1091.9705

  direct lattice vectors                    reciprocal lattice vectors
     7.696786404  0.000000000  0.000000000     0.129924354 -0.075011849  0.000000000
     3.848392758  6.665612809  0.000000000     0.000000000  0.150023716  0.000000000
[...]
     15      -4.4996      2.00000
     16      -4.4922      2.00000
     17      -4.4724      2.00000
     18      -4.4199      2.00000
     19      -4.3893      2.00000
     20      -4.3503      2.00000
     21      -4.3470      2.00000
     22      -4.3236      2.00000
     23      -4.2942      2.00000
     24      -4.1599      2.00000
     25      -4.1129      2.00000
     26      -4.0875      2.00000
     27      -4.0752      2.00000
     28      -4.0243      2.00000
     29      -4.0145      2.00000
     30      -4.0104      2.00000
     31      -4.0016      2.00000
     32      -3.9908      2.00000
     33      -3.9778      2.00000
     34      -3.9383      2.00000
     35      -3.8844      2.00000
     36      -3.8445      2.00000
     37      -3.7022      2.00000
     38      -3.6891      2.00000
     39      -3.6462      2.00000
     40      -3.6203      2.00000
     41      -3.6084      2.00000
     42      -3.5963      2.00000
     43      -3.5785      2.00000
     44      -3.5710      2.00000
     45      -3.5675      2.00000
     46      -3.3769      2.00000
     47      -3.3671      2.00000
     48      -3.3557      2.00000
     49      -3.3428      2.00000
     50      -3.2912      2.00000
     51      -3.2805      2.00000
     52      -3.2760      2.00000
     53      -3.2689      2.00000
     54      -3.2620      2.00000
     55      -3.2468      2.00000
     56      -3.2103      2.00000
     57      -3.2071      2.00000
     58      -3.1983      2.00000
     59      -3.1937      2.00000
     60      -3.1916      2.00000
[...]
    238       6.8871      0.00000
    239       6.9219      0.00000
    240       7.0352      0.00000
    241       7.1034      0.00000
    242       7.3192      0.00000
    243       7.3264      0.00000
    244       7.3947      0.00000
    245       7.4735      0.00000
    246       7.6556      0.00000
    247       7.7381      0.00000
    248       7.9232      0.00000
    249       8.0548      0.00000
    250       8.2091      0.00000
    251       8.3234      0.00000
    252       8.4884      0.00000

 soft charge-density along one line, spin component           1
         0         1         2         3         4         5         6         7         8         9
 total charge-density along one line

------------------------ aborting loop because EDIFF is reached ----------------------------------------

 total charge

# of ion       s       p       d       tot
    1        0.446   0.286   9.188   9.920
    2        0.450   0.284   9.187   9.921
    3        0.450   0.284   9.187   9.921
    4        0.450   0.284   9.187   9.921
    5        0.444   0.289   9.183   9.915
    6        0.450   0.284   9.187   9.921
    7        0.450   0.284   9.187   9.921
    8        0.450   0.284   9.187   9.921
    9        0.448   0.283   9.189   9.920
   10        0.441   0.374   9.173   9.988
   11        0.444   0.366   9.185   9.995
   12        0.441   0.374   9.173   9.988
   13        0.444   0.366   9.185   9.995
   14        0.444   0.366   9.185   9.995
   15        0.439   0.368   9.180   9.987
   16        0.441   0.374   9.173   9.988
   17        0.439   0.368   9.180   9.987
   18        0.439   0.368   9.180   9.987
   19        0.441   0.371   9.182   9.994
   20        0.445   0.389   9.174  10.008
   21        0.445   0.389   9.174  10.008
   22        0.434   0.370   9.184   9.988
   23        0.445   0.389   9.174  10.008
   24        0.434   0.370   9.184   9.988
   25        0.441   0.371   9.182   9.994
   26        0.441   0.371   9.182   9.994
   27        0.434   0.370   9.184   9.988
   28        0.449   0.290   9.193   9.931
   29        0.453   0.306   9.177   9.936
   30        0.453   0.306   9.177   9.936
   31        0.453   0.306   9.177   9.936
   32        0.453   0.306   9.177   9.936
   33        0.453   0.306   9.177   9.936
   34        0.453   0.306   9.177   9.936
   35        0.443   0.293   9.192   9.928
   36        0.674   0.400   7.104   8.178
tot         16.253  12.099 328.466 356.818

  FORCE on cell =-STRESS in cart. coord.  units (eV):
  Direction    XX          YY          ZZ          XY          YZ          ZX
  Alpha Z   885.31341   885.31341   885.31341
  Ewald  173349.25071173349.25030************     0.00037     0.00010     0.00015
  Hartree186262.42361186262.42359************     0.00003     0.00005     0.00006
  E(xc)   -2287.72912 -2287.72863 -2292.66851    -0.00042    -0.00003    -0.00006
  Local  ************************373041.19906     0.01845    -0.00055    -0.00089
  n-local  -774.51277  -758.61532  -782.43959     8.63668    -0.09837     0.29629
  augment  3346.23044  3346.25071  3366.87835    -0.01755     0.00023     0.00040
  Kinetic  3240.85933  3247.95357  3275.91468     4.64951     1.35394    -0.98338
  Fock        0.00000     0.00000     0.00000     0.00000     0.00000     0.00000
  Total      -5.37143    -5.37143     1.57251     0.00000    -0.00000    -0.00000
  in kB      -7.88114    -7.88114     2.30724     0.00000    -0.00000    -0.00000

 VOLUME and BASIS-vectors are now :
  energy-cutoff  :      500.00
  volume of cell :     1091.97
      direct lattice vectors                 reciprocal lattice vectors
     7.696786404  0.000000000  0.000000000     0.129924354 -0.075011849  0.000000000
     3.848392758  6.665612809  0.000000000     0.000000000  0.150023716  0.000000000
     0.000000000  0.000000000 21.284399033     0.000000000  0.000000000  0.046982769

  length of vectors
     7.696786404  7.696786404 21.284399033     0.150023716  0.150023716  0.046982769

 FORCES acting on ions
    electron-ion (+dipol)            ewald-force                    non-local-force                 convergence-correction
   -.416E-04 0.180E-06 0.347E+04   0.580E-04 -.436E-05 -.347E+04   -.292E-17 -.415E-17 -.274E+01   -.335E-03 -.161E-03 -.367E+00
   -.126E+00 0.170E+00 0.347E+04   0.755E-01 0.386E-01 -.347E+04   0.175E-01 -.963E-01 -.186E+01   0.354E-01 -.103E+00 -.185E+00
   0.126E+00 0.170E+00 0.347E+04   -.756E-01 0.386E-01 -.347E+04   -.175E-01 -.963E-01 -.186E+01   -.346E-01 -.101E+00 -.184E+00
   0.838E-01 -.194E+00 0.347E+04   0.711E-01 0.461E-01 -.347E+04   -.746E-01 0.633E-01 -.186E+01   -.716E-01 0.822E-01 -.185E+00
   -.618E-04 -.335E-05 0.347E+04   0.116E-03 -.101E-04 -.347E+04   0.407E-17 -.446E-18 -.181E+01   0.122E-01 0.749E-02 -.159E+00
   -.838E-01 -.194E+00 0.347E+04   -.712E-01 0.460E-01 -.347E+04   0.746E-01 0.633E-01 -.186E+01   0.699E-01 0.834E-01 -.183E+00
   0.210E+00 0.244E-01 0.347E+04   -.440E-02 -.847E-01 -.347E+04   -.921E-01 0.329E-01 -.186E+01   -.104E+00 0.203E-01 -.184E+00
   -.210E+00 0.244E-01 0.347E+04   0.413E-02 -.847E-01 -.347E+04   0.921E-01 0.329E-01 -.186E+01   0.108E+00 0.188E-01 -.183E+00
   -.144E-03 -.330E-04 0.347E+04   0.263E-03 0.206E-04 -.347E+04   0.521E-17 -.138E-17 -.225E+01   -.133E-01 -.685E-02 -.266E+00
   0.233E+01 0.134E+01 0.115E+04   -.208E+01 -.120E+01 -.115E+04   -.271E+00 -.156E+00 -.109E+01   0.460E-01 0.265E-01 0.150E+00
   -.912E-04 -.797E+00 0.114E+04   0.190E-03 0.752E+00 -.114E+04   0.340E-09 -.511E-02 -.606E+00   0.118E-01 0.209E-01 0.260E+00
   -.233E+01 0.134E+01 0.115E+04   0.208E+01 -.120E+01 -.115E+04   0.271E+00 -.156E+00 -.109E+01   -.480E-01 0.286E-01 0.151E+00
   -.691E+00 0.399E+00 0.114E+04   0.651E+00 -.376E+00 -.114E+04   -.443E-02 0.256E-02 -.606E+00   0.244E-01 0.580E-03 0.260E+00
   0.691E+00 0.399E+00 0.114E+04   -.651E+00 -.376E+00 -.114E+04   0.443E-02 0.256E-02 -.606E+00   -.995E-06 -.373E-03 0.261E+00
   -.142E-03 0.219E+00 0.115E+04   0.298E-03 -.373E+00 -.114E+04   -.903E-08 0.136E+00 -.788E+00   -.407E-02 0.106E-01 0.800E-01
   -.919E-04 -.269E+01 0.115E+04   0.186E-03 0.240E+01 -.115E+04   -.208E-07 0.312E+00 -.109E+01   -.148E-03 -.571E-01 0.151E+00
   0.189E+00 -.110E+00 0.115E+04   -.323E+00 0.187E+00 -.114E+04   0.117E+00 -.678E-01 -.788E+00   0.781E-02 -.882E-02 0.798E-01
   -.189E+00 -.110E+00 0.115E+04   0.323E+00 0.187E+00 -.114E+04   -.117E+00 -.678E-01 -.788E+00   -.707E-02 -.577E-02 0.804E-01
   -.554E-04 -.160E+00 -.119E+04   0.699E-04 0.299E+00 0.119E+04   0.101E-07 -.151E+00 0.561E+00   -.250E-02 0.106E-01 0.127E+00
   -.295E+02 -.170E+02 -.120E+04   0.294E+02 0.170E+02 0.120E+04   -.251E+00 -.145E+00 -.385E+00   0.332E+00 0.192E+00 0.476E+00
   0.295E+02 -.170E+02 -.120E+04   -.294E+02 0.170E+02 0.120E+04   0.251E+00 -.145E+00 -.385E+00   -.308E+00 0.193E+00 0.476E+00
   -.203E+02 0.117E+02 -.120E+04   0.194E+02 -.112E+02 0.120E+04   0.617E+00 -.356E+00 0.790E+00   0.283E+00 -.165E+00 0.178E+00
   -.853E-04 0.341E+02 -.120E+04   0.147E-03 -.340E+02 0.120E+04   -.193E-07 0.290E+00 -.385E+00   0.120E-01 -.365E+00 0.476E+00
   0.203E+02 0.117E+02 -.120E+04   -.194E+02 -.112E+02 0.120E+04   -.617E+00 -.356E+00 0.790E+00   -.286E+00 -.166E+00 0.178E+00
   0.139E+00 0.800E-01 -.119E+04   -.259E+00 -.149E+00 0.119E+04   0.131E+00 0.755E-01 0.561E+00   -.765E-02 -.440E-02 0.127E+00
   -.138E+00 0.800E-01 -.119E+04   0.259E+00 -.149E+00 0.119E+04   -.131E+00 0.755E-01 0.561E+00   0.829E-02 -.727E-02 0.127E+00
   -.119E-03 -.235E+02 -.120E+04   0.243E-03 0.224E+02 0.120E+04   -.475E-07 0.713E+00 0.790E+00   -.997E-03 0.327E+00 0.178E+00
   -.454E-04 0.117E-04 -.347E+04   0.425E-04 -.323E-04 0.347E+04   -.163E-17 -.112E-17 0.223E+01   -.255E-03 -.940E-04 0.492E+00
   -.285E+02 -.442E+02 -.349E+04   0.288E+02 0.442E+02 0.349E+04   -.443E+00 -.394E+00 0.153E+01   0.184E+00 0.413E+00 0.427E+00
   0.285E+02 -.442E+02 -.349E+04   -.288E+02 0.442E+02 0.349E+04   0.443E+00 -.394E+00 0.153E+01   -.183E+00 0.415E+00 0.427E+00
   -.525E+02 -.262E+01 -.349E+04   0.526E+02 0.286E+01 0.349E+04   -.563E+00 -.186E+00 0.153E+01   0.450E+00 -.472E-01 0.427E+00
   0.525E+02 -.262E+01 -.349E+04   -.526E+02 0.286E+01 0.349E+04   0.563E+00 -.186E+00 0.153E+01   -.451E+00 -.462E-01 0.426E+00
   -.240E+02 0.468E+02 -.349E+04   0.238E+02 -.470E+02 0.349E+04   -.120E+00 0.580E+00 0.153E+01   0.268E+00 -.366E+00 0.427E+00
   0.240E+02 0.468E+02 -.349E+04   -.238E+02 -.470E+02 0.349E+04   0.120E+00 0.580E+00 0.153E+01   -.265E+00 -.367E+00 0.426E+00
   -.155E-03 -.318E-04 -.348E+04   0.251E-03 0.305E-05 0.347E+04   0.445E-19 -.713E-18 0.257E+01   -.133E-01 -.683E-02 0.364E+00
   -.558E-04 -.216E-04 -.282E+04   0.113E-03 0.218E-04 0.281E+04   0.586E-18 0.135E-17 0.174E+01   0.209E-02 0.124E-02 0.377E+00
   -.211E-03 0.207E-04 0.109E+01   0.222E-13 0.403E-12 -.864E-11   -.180E-15 0.112E-15 -.679E+01   0.543E-01 0.283E-01 0.571E+01

 POSITION                                       TOTAL-FORCE (eV/Angst)
      0.00000      0.00000      5.37156         0.000000     -0.000000      0.079609
      2.56560      0.00000      5.37156         0.002700      0.009893      0.055233
      5.13119      0.00000      5.37156        -0.002700      0.009893      0.055233
      1.28280      2.22187      5.37156         0.009917     -0.002608      0.055233
      3.84839      2.22187      5.37156         0.000000      0.000000      0.040283
      6.41399      2.22187      5.37156        -0.009917     -0.002608      0.055233
      2.56560      4.44374      5.37156         0.007217     -0.007285      0.055233
      5.13119      4.44374      5.37156        -0.007217     -0.007285      0.055233
      7.69679      4.44374      5.37156         0.000000      0.000000      0.039538
      1.28280      0.74062      7.46636         0.025980      0.015000     -0.050740
      3.84839      0.74062      7.46636         0.000000     -0.036867     -0.109967
      6.41399      0.74062      7.46636        -0.025980      0.015000     -0.050740
      2.56560      2.96249      7.46636        -0.031927      0.018433     -0.109967
      5.13119      2.96249      7.46636         0.031927      0.018433     -0.109967
      7.69679      2.96249      7.46636         0.000000     -0.008276     -0.005543
      3.84839      5.18437      7.46636         0.000000     -0.029999     -0.050740
      6.41399      5.18437      7.46636        -0.007167      0.004138     -0.005543
      8.97958      5.18437      7.46636         0.007167      0.004138     -0.005543
      7.69679      1.48769      9.56171         0.000000     -0.002317     -0.011574
      2.55203      1.47342      9.53141         0.001887      0.001089     -0.006915
      5.14476      1.47342      9.53141        -0.001887      0.001089     -0.006915
      8.97489      3.70583      9.56026        -0.010960      0.006328     -0.010595
      3.84839      3.71878      9.53141         0.000000     -0.002178     -0.006915
      6.41868      3.70583      9.56026         0.010960      0.006328     -0.010595
     10.25680      5.92177      9.56171         0.002006      0.001158     -0.011574
      5.13677      5.92177      9.56171        -0.002006      0.001158     -0.011574
      7.69679      5.91957      9.56026         0.000000     -0.012656     -0.010595
      0.00000      0.00000     11.63002         0.000000      0.000000      0.024068
      6.40663      6.66047     11.66109        -0.002183     -0.011487      0.010462
      8.98694      6.66047     11.66109         0.002183     -0.011487      0.010462
      8.97145      2.21807     11.66109        -0.011039      0.003853      0.010462
      6.42212      2.21807     11.66109         0.011039      0.003853      0.010462
     10.26160      4.45269     11.66109        -0.008856      0.007634      0.010462
      5.13197      4.45269     11.66109         0.008856      0.007634      0.010462
      7.69679      4.44374     11.62915         0.000000     -0.000000      0.014668
      3.84839      2.22187     11.60012         0.000000      0.000000     -0.006329
    total drift:                                0.054070      0.028282      0.007216

  FREE ENERGIE OF THE ION-ELECTRON SYSTEM (eV)
  free  energy   TOTEN  =      -130.47953188 eV

  energy  without entropy=     -130.47953188  energy(sigma->0) =     -130.47953188

 stress matrix after NEB project (eV)
     -5.37143      0.00000     -0.00000
      0.00000     -5.37143     -0.00000
     -0.00000     -0.00000      1.57251
  FORCES: max atom, RMS     0.024068    0.010144
  FORCE total and by dimension    0.060863    0.024068
  Stress total and by dimension    7.757398    5.371426
|           W    W    AA    RRRRR   N    N  II  N    N   GGGG   !!!           |
|           W    W   A  A   R    R  NN   N  II  NN   N  G    G  !!!           |
|           W    W  A    A  R    R  N N  N  II  N N  N  G       !!!           |
|           W WW W  AAAAAA  RRRRR   N  N N  II  N  N N  G  GGG   !            |
|           WW  WW  A    A  R   R   N   NN  II  N   NN  G    G                |
|           W    W  A    A  R    R  N    N  II  N    N   GGGG   !!!           |
|     Tetrahedron method does not include variations of the Fermi             |
|     occupations, so forces and stress will be inaccurate. We suggest        |
|     using a different smearing scheme ISMEAR = 1 or 2 for metals in         |
|     relaxations.                                                            |

 total charge

# of ion       s       p       d       tot
    1        0.446   0.286   9.188   9.920
    2        0.450   0.284   9.187   9.921
    3        0.450   0.284   9.187   9.921
    4        0.450   0.284   9.187   9.921
    5        0.444   0.289   9.183   9.915
    6        0.450   0.284   9.187   9.921
    7        0.450   0.284   9.187   9.921
    8        0.450   0.284   9.187   9.921
    9        0.448   0.283   9.189   9.920
   10        0.441   0.374   9.173   9.988
   11        0.444   0.366   9.185   9.995
   12        0.441   0.374   9.173   9.988
   13        0.444   0.366   9.185   9.995
   14        0.444   0.366   9.185   9.995
   15        0.439   0.368   9.180   9.987
   16        0.441   0.374   9.173   9.988
   17        0.439   0.368   9.180   9.987
   18        0.439   0.368   9.180   9.987
   19        0.441   0.371   9.182   9.994
   20        0.445   0.389   9.174  10.008
   21        0.445   0.389   9.174  10.008
   22        0.434   0.370   9.184   9.988
   23        0.445   0.389   9.174  10.008
   24        0.434   0.370   9.184   9.988
   25        0.441   0.371   9.182   9.994
   26        0.441   0.371   9.182   9.994
   27        0.434   0.370   9.184   9.988
   28        0.449   0.290   9.193   9.931
   29        0.453   0.306   9.177   9.936
   30        0.453   0.306   9.177   9.936
   31        0.453   0.306   9.177   9.936
   32        0.453   0.306   9.177   9.936
   33        0.453   0.306   9.177   9.936
   34        0.453   0.306   9.177   9.936
   35        0.443   0.293   9.192   9.928
   36        0.674   0.400   7.104   8.178
tot         16.253  12.099 328.466 356.818

 BZINTS: Fermi energy:    0.076610;  394.000000 electrons
         Band energy:-0.106658E+04;  BLOECHL correction:   -0.064215