 vasp.6.2.0 18Jan21 (build Jun 12 2021 23:27:24) complex

 executed on             LinuxIFC date 2022.05.26  20:25:10

 INCAR:
   ISMEAR = -5
   SIGMA = 0.1
   ISPIN = 1
   EDIFF = 1.d-5
   EDIFFG = -0.01
   NSW = 0
   NELM = 150
   ENCUT = 500
   ISIF = 2
   IBRION = 2
   LREAL = Auto
   ALGO = Fast
   ICHARG = 11
   LORBIT = 10
   LCHARG = .F.
   LWAVE = .F.

 POTCAR:    PAW_PBE Cu 22Jun2005
 POTCAR:    PAW_PBE Mn 06Sep2000
|           W    W    AA    RRRRR   N    N  II  N    N   GGGG   !!!           |
|           W    W   A  A   R    R  NN   N  II  NN   N  G    G  !!!           |
|           W    W  A    A  R    R  N N  N  II  N N  N  G       !!!           |
|           W WW W  AAAAAA  RRRRR   N  N N  II  N  N N  G  GGG   !            |
|           WW  WW  A    A  R   R   N   NN  II  N   NN  G    G                |
|           W    W  A    A  R    R  N    N  II  N    N   GGGG   !!!           |
|     For optimal performance we recommend to set                             |
|       NCORE = 2 up to number-of-cores-per-socket                            |
|     This setting can greatly improve the performance of VASP for DFT.       |
|     The default, NCORE=1 might be grossly inefficient on modern             |
|     multi-core architectures or massively parallel machines. Do your        |
|     Unfortunately you need to use the default for GW and RPA                |
|     calculations (for HF NCORE is supported but not extensively tested      |
|     yet).                                                                   |

 POTCAR:    PAW_PBE Cu 22Jun2005
   VRHFIN =Cu: d10 p1

   TITEL  = PAW_PBE Cu 22Jun2005
   POMASS =   63.546; ZVAL   =   11.000    mass and valenz
   ENMAX  =  295.446; ENMIN  =  221.585 eV

 POTCAR:    PAW_PBE Mn 06Sep2000
   VRHFIN =Mn: d6 s1

   TITEL  = PAW_PBE Mn 06Sep2000
   POMASS =   54.938; ZVAL   =    7.000    mass and valenz
   ENMAX  =  269.864; ENMIN  =  202.398 eV

 Optimization of the real space projectors (new method)

 maximal supplied QI-value         = 16.25
 optimisation between [QCUT,QGAM] = [ 11.38, 22.75] = [ 36.24,144.96] Ry
 Optimized for a Real-space Cutoff    1.52 Angstroem

   l    n(q)    QCUT    max X(q) W(low)/X(q) W(high)/X(q)  e(spline)
   2      9    11.376     4.610    0.21E-03    0.10E-03    0.26E-06
   2      9    11.376     8.522    0.33E-03    0.16E-03    0.37E-06
   0     10    11.376    51.609    0.62E-04    0.20E-04    0.13E-06
   0     10    11.376    27.747    0.54E-04    0.20E-04    0.13E-06
   1     10    11.376    20.408    0.13E-04    0.99E-04    0.19E-06
   1     10    11.376    13.425    0.12E-04    0.87E-04    0.17E-06
 Optimization of the real space projectors (new method)

 maximal supplied QI-value         = 16.25
 optimisation between [QCUT,QGAM] = [ 11.38, 22.75] = [ 36.24,144.96] Ry
 Optimized for a Real-space Cutoff    1.39 Angstroem

   l    n(q)    QCUT    max X(q) W(low)/X(q) W(high)/X(q)  e(spline)
   2      8    11.376   110.144    0.49E-03    0.27E-04    0.26E-06
   2      8    11.376   103.200    0.49E-03    0.28E-04    0.27E-06
   0      9    11.376    68.437    0.57E-04    0.92E-04    0.15E-06
   0      9    11.376    33.971    0.51E-04    0.83E-04    0.14E-06
   1      9    11.376    17.065    0.34E-03    0.68E-04    0.14E-06
   1      9    11.376    12.540    0.27E-03    0.59E-04    0.11E-06
  PAW_PBE Cu 22Jun2005                  :
  PAW_PBE Mn 06Sep2000                  :

 POSCAR: Cu-Mn
  positions in direct lattice
  velocities in cartesian coordinates
 exchange correlation table for  LEXCH =        8
   RHO(1)=    0.500       N(1)  =     2000
   RHO(2)=  100.500       N(2)  =     4000

 VTST: version 3.2, (02/03/18)

 CHAIN: initializing optimizer

 OPT: Using VASP Conjugate-Gradient optimizer
 CHAIN: Read ICHAIN            0

 POSCAR: Cu-Mn
  positions in direct lattice
  velocities in cartesian coordinates

 ion  position               nearest neighbor table
   1  0.000  0.000  0.252-   7 2.57   3 2.57   4 2.57   2 2.57   6 2.57   8 2.57  12 2.57  10 2.57
                            16 2.57
   2  0.333  0.000  0.252-   8 2.57   9 2.57   5 2.57   1 2.57   3 2.57  11 2.57   4 2.57  10 2.57
                            17 2.57
   3  0.667  0.000  0.252-   1 2.57   7 2.57   6 2.57   9 2.57   2 2.57  12 2.57   5 2.57  18 2.57
                            11 2.57
   4  0.000  0.333  0.252-   5 2.57   6 2.57   1 2.57   7 2.57   2 2.57  13 2.57   9 2.57  10 2.57
                            15 2.57
   5  0.333  0.333  0.252-   4 2.57   2 2.57   7 2.57  13 2.57   8 2.57   6 2.57   3 2.57  11 2.57
                            14 2.57
   6  0.667  0.333  0.252-   4 2.57   9 2.57  15 2.57   3 2.57   1 2.57   8 2.57  14 2.57   5 2.57
                            12 2.57
   7  0.000  0.667  0.252-   1 2.57   3 2.57  16 2.57  18 2.57   4 2.57   5 2.57   8 2.57   9 2.57
                            13 2.57
   8  0.333  0.667  0.252-   9 2.57   2 2.57  17 2.57   6 2.57   1 2.57   7 2.57   5 2.57  14 2.57
                            16 2.57
   9  0.667  0.667  0.252-   8 2.57   6 2.57   2 2.57  17 2.57   3 2.57   7 2.57   4 2.57  15 2.57
                            18 2.57
  10  0.111  0.111  0.351-  20 2.55  26 2.56  19 2.56  11 2.57  12 2.57  13 2.57   1 2.57   2 2.57
                             4 2.57  15 2.57  16 2.57  17 2.57
  11  0.444  0.111  0.351-  20 2.55  21 2.55  27 2.56  10 2.57  13 2.57   2 2.57  17 2.57  14 2.57
                            12 2.57   5 2.57   3 2.57  18 2.57
  12  0.778  0.111  0.351-  21 2.55  19 2.56  25 2.56  15 2.57  10 2.57  14 2.57  18 2.57   3 2.57
                             1 2.57  16 2.57  11 2.57   6 2.57
  13  0.111  0.444  0.351-  23 2.55  20 2.55  22 2.56  16 2.57  18 2.57  10 2.57  11 2.57  14 2.57
                             5 2.57   4 2.57   7 2.57  15 2.57
  14  0.444  0.444  0.351-  21 2.55  23 2.55  24 2.56  15 2.57  17 2.57  12 2.57  16 2.57  13 2.57
                            11 2.57   6 2.57   8 2.57   5 2.57
  15  0.778  0.444  0.351-  19 2.56  24 2.56  22 2.56  14 2.57  17 2.57  12 2.57   6 2.57  18 2.57
                            10 2.57   9 2.57  13 2.57   4 2.57
  16  0.111  0.778  0.351-  23 2.55  25 2.56  26 2.56  18 2.57  13 2.57   7 2.57  14 2.57  17 2.57
                            12 2.57  10 2.57   8 2.57   1 2.57
  17  0.444  0.778  0.351-  26 2.56  27 2.56  24 2.56  14 2.57  15 2.57   8 2.57   9 2.57  11 2.57
                            16 2.57  18 2.57  10 2.57   2 2.57
  18  0.778  0.778  0.351-  25 2.56  22 2.56  27 2.56  16 2.57  13 2.57   7 2.57  15 2.57  12 2.57
                            17 2.57   9 2.57   3 2.57  11 2.57
  19  0.889  0.222  0.449-  28 2.55  15 2.56  12 2.56  10 2.56  22 2.56  24 2.56  21 2.57  20 2.57
                            25 2.57  26 2.57  32 2.57  31 2.57
  20  0.222  0.222  0.448-  36 2.48  11 2.55  13 2.55  10 2.55  29 2.56  31 2.56  23 2.56  21 2.56
                            26 2.57  19 2.57  27 2.57  22 2.57
  21  0.555  0.222  0.448-  36 2.48  14 2.55  11 2.55  12 2.55  32 2.56  30 2.56  20 2.56  23 2.56
                            19 2.57  25 2.57  24 2.57  27 2.57
  22  0.888  0.556  0.449-  35 2.55  24 2.56  27 2.56  31 2.56  33 2.56  18 2.56  15 2.56  13 2.56
                            19 2.56  25 2.56  23 2.57  20 2.57
  23  0.222  0.555  0.448-  36 2.48  13 2.55  14 2.55  16 2.55  33 2.56  34 2.56  20 2.56  21 2.56
                            25 2.57  26 2.57  22 2.57  24 2.57
  24  0.556  0.556  0.449-  35 2.55  22 2.56  27 2.56  32 2.56  34 2.56  15 2.56  17 2.56  14 2.56
                            19 2.56  26 2.56  21 2.57  23 2.57
  25  0.889  0.889  0.449-  28 2.55  18 2.56  16 2.56  12 2.56  22 2.56  27 2.56  21 2.57  23 2.57
                            19 2.57  26 2.57  33 2.57  30 2.57
  26  0.222  0.889  0.449-  28 2.55  17 2.56  10 2.56  16 2.56  27 2.56  24 2.56  20 2.57  23 2.57
                            25 2.57  19 2.57  29 2.57  34 2.57
  27  0.556  0.888  0.449-  35 2.55  24 2.56  22 2.56  29 2.56  30 2.56  17 2.56  18 2.56  11 2.56
                            26 2.56  25 2.56  20 2.57  21 2.57
  28  0.000  0.000  0.547-  25 2.55  19 2.55  26 2.55  33 2.58  30 2.58  31 2.58  29 2.58  32 2.58
                            34 2.58
  29  0.333  0.003  0.547-  31 2.54  36 2.55  30 2.55  20 2.56  27 2.56  26 2.57  28 2.58  35 2.58
                            34 2.61
  30  0.664  0.003  0.547-  32 2.54  36 2.55  29 2.55  21 2.56  27 2.56  25 2.57  28 2.58  35 2.58
                            33 2.61
  31  0.003  0.333  0.547-  29 2.54  36 2.55  33 2.55  20 2.56  22 2.56  19 2.57  28 2.58  35 2.58
                            32 2.61
  32  0.664  0.333  0.547-  30 2.54  36 2.55  34 2.55  21 2.56  24 2.56  19 2.57  28 2.58  35 2.58
                            31 2.61
  33  0.003  0.664  0.547-  34 2.54  36 2.55  31 2.55  23 2.56  22 2.56  25 2.57  28 2.58  35 2.58
                            30 2.61
  34  0.333  0.664  0.547-  33 2.54  36 2.55  32 2.55  23 2.56  24 2.56  26 2.57  28 2.58  35 2.58
                            29 2.61
  35  0.667  0.667  0.547-  24 2.55  27 2.55  22 2.55  34 2.58  32 2.58  29 2.58  30 2.58  33 2.58
                            31 2.58
  36  0.333  0.333  0.542-  23 2.48  20 2.48  21 2.48  31 2.55  29 2.55  33 2.55  34 2.55  32 2.55
                            30 2.55

  LATTYP: Found a hexagonal cell.
 ALAT       =     7.6967864036
 C/A-ratio  =     2.7653617908

  Lattice vectors:

 A1 = (  -3.8483927580,  -6.6656128093,   0.0000000000)
 A2 = (   7.6967864037,   0.0000000000,   0.0000000000)
 A3 = (   0.0000000000,   0.0000000000,  21.2843990326)

Analysis of symmetry for initial positions (statically):
 Subroutine PRICEL returns:
 Original cell was already a primitive cell.

 Routine SETGRP: Setting up the symmetry group for a
 hexagonal supercell.

 Subroutine GETGRP returns: Found  6 space group operations
 (whereof  6 operations were pure point group operations)
 out of a pool of 24 trial point group operations.

The static configuration has the point symmetry C_3v.

Analysis of symmetry for dynamics (positions and initial velocities):
 Subroutine PRICEL returns:
 Original cell was already a primitive cell.

[...]

The dynamic configuration has the point symmetry C_3v.

Analysis of constrained symmetry for selective dynamics:
 Subroutine PRICEL returns:
 Original cell was already a primitive cell.

 Routine SETGRP: Setting up the symmetry group for a
 hexagonal supercell.

 Subroutine GETGRP returns: Found  6 space group operations
 (whereof  6 operations were pure point group operations)
 out of a pool of 24 trial point group operations.

The constrained configuration has the point symmetry C_3v.

 Subroutine INISYM returns: Found  6 space group operations
 (whereof  6 operations are pure point group operations),
 and found     1 'primitive' translations

                                     Primitive cell

  volume of cell :    1091.9705

  direct lattice vectors                    reciprocal lattice vectors
     7.696786404  0.000000000  0.000000000     0.129924354 -0.075011849  0.000000000
     3.848392758  6.665612809  0.000000000     0.000000000  0.150023716  0.000000000
[...]
     15      -4.5207      2.00000
     16      -4.5137      2.00000
     17      -4.5094      2.00000
     18      -4.4350      2.00000
     19      -4.4280      2.00000
     20      -4.3562      2.00000
     21      -4.3494      2.00000
     22      -4.3398      2.00000
     23      -4.3239      2.00000
     24      -4.1357      2.00000
     25      -4.1287      2.00000
     26      -4.0733      2.00000
     27      -4.0633      2.00000
     28      -4.0628      2.00000
     29      -4.0514      2.00000
     30      -4.0443      2.00000
     31      -4.0326      2.00000
     32      -3.9708      2.00000
     33      -3.9686      2.00000
     34      -3.9604      2.00000
     35      -3.8579      2.00000
     36      -3.8565      2.00000
     37      -3.7444      2.00000
     38      -3.7408      2.00000
     39      -3.6603      2.00000
     40      -3.6559      2.00000
     41      -3.6463      2.00000
     42      -3.6207      2.00000
     43      -3.6127      2.00000
     44      -3.5991      2.00000
     45      -3.5890      2.00000
     46      -3.4131      2.00000
     47      -3.3977      2.00000
     48      -3.3909      2.00000
     49      -3.3813      2.00000
     50      -3.3335      2.00000
     51      -3.3263      2.00000
     52      -3.3139      2.00000
     53      -3.2977      2.00000
     54      -3.2933      2.00000
     55      -3.2688      2.00000
     56      -3.2517      2.00000
     57      -3.2504      2.00000
     58      -3.2389      2.00000
     59      -3.2294      2.00000
     60      -3.2170      2.00000
[...]
    238       6.8293      0.00000
    239       6.8415      0.00000
    240       6.9809      0.00000
    241       7.0300      0.00000
    242       7.2514      0.00000
    243       7.2577      0.00000
    244       7.3111      0.00000
    245       7.3834      0.00000
    246       7.5536      0.00000
    247       7.6581      0.00000
    248       7.8612      0.00000
    249       7.9285      0.00000
    250       8.1469      0.00000
    251       8.1968      0.00000
    252       8.4066      0.00000

 soft charge-density along one line, spin component           1
         0         1         2         3         4         5         6         7         8         9
 total charge-density along one line

------------------------ aborting loop because EDIFF is reached ----------------------------------------

 total charge

# of ion       s       p       d       tot
    1        0.450   0.284   9.188   9.921
    2        0.448   0.285   9.187   9.920
    3        0.448   0.285   9.187   9.920
    4        0.448   0.285   9.187   9.920
    5        0.447   0.287   9.181   9.915
    6        0.448   0.285   9.187   9.920
    7        0.448   0.285   9.187   9.920
    8        0.448   0.285   9.187   9.920
    9        0.448   0.282   9.189   9.919
   10        0.443   0.372   9.175   9.990
   11        0.442   0.367   9.185   9.993
   12        0.443   0.372   9.175   9.990
   13        0.442   0.367   9.185   9.993
   14        0.442   0.367   9.185   9.993
   15        0.440   0.369   9.179   9.988
   16        0.443   0.372   9.175   9.990
   17        0.440   0.369   9.179   9.988
   18        0.440   0.369   9.179   9.988
   19        0.440   0.369   9.181   9.991
   20        0.458   0.396   9.162  10.015
   21        0.458   0.396   9.162  10.015
   22        0.434   0.374   9.182   9.989
   23        0.458   0.396   9.162  10.015
   24        0.434   0.374   9.182   9.989
   25        0.440   0.369   9.181   9.991
   26        0.440   0.369   9.181   9.991
   27        0.434   0.374   9.182   9.989
   28        0.445   0.285   9.183   9.914
   29        0.461   0.299   9.170   9.930
   30        0.461   0.299   9.170   9.930
   31        0.461   0.299   9.170   9.930
   32        0.461   0.299   9.170   9.930
   33        0.461   0.299   9.170   9.930
   34        0.461   0.299   9.170   9.930
   35        0.439   0.288   9.184   9.911
   36        0.338   0.245   5.113   5.695
tot         15.993  11.914 326.368 354.274

  FORCE on cell =-STRESS in cart. coord.  units (eV):
  Direction    XX          YY          ZZ          XY          YZ          ZX
  Alpha Z   863.65120   863.65120   863.65120
  Ewald  172526.93181172526.93143************     0.00037     0.00011     0.00015
  Hartree185426.03500185426.03499************     0.00003     0.00005     0.00006
  E(xc)   -2278.28776 -2278.28729 -2283.01869    -0.00041    -0.00004    -0.00006
  Local  ************************371194.84556     0.01836    -0.00055    -0.00089
  n-local  -786.78969  -774.03269  -794.41103     6.50864     0.16185    -0.07974
  augment  3336.44828  3336.46826  3357.38070    -0.01730     0.00023     0.00035
  Kinetic  3189.84562  3198.09063  3225.02277     5.23382     1.18026    -0.64117
  Fock        0.00000     0.00000     0.00000     0.00000     0.00000     0.00000
  Total      -8.65684    -8.65684     0.50716     0.00000    -0.00000     0.00000
  in kB     -12.70162   -12.70162     0.74413     0.00000    -0.00000     0.00000

 VOLUME and BASIS-vectors are now :
  energy-cutoff  :      500.00
  volume of cell :     1091.97
      direct lattice vectors                 reciprocal lattice vectors
     7.696786404  0.000000000  0.000000000     0.129924354 -0.075011849  0.000000000
     3.848392758  6.665612809  0.000000000     0.000000000  0.150023716  0.000000000
     0.000000000  0.000000000 21.284399033     0.000000000  0.000000000  0.046982769

  length of vectors
     7.696786404  7.696786404 21.284399033     0.150023716  0.150023716  0.046982769

 FORCES acting on ions
    electron-ion (+dipol)            ewald-force                    non-local-force                 convergence-correction
   -.416E-04 0.167E-06 0.346E+04   0.580E-04 -.436E-05 -.345E+04   -.353E-17 -.262E-17 -.252E+01   -.251E-03 -.112E-03 -.232E+00
   -.337E+00 -.111E+00 0.345E+04   0.129E+00 0.147E+00 -.345E+04   0.733E-01 0.358E-01 -.185E+01   0.132E+00 -.601E-01 -.284E+00
   0.337E+00 -.110E+00 0.345E+04   -.129E+00 0.147E+00 -.345E+04   -.733E-01 0.358E-01 -.185E+01   -.131E+00 -.577E-01 -.283E+00
   -.264E+00 -.236E+00 0.345E+04   0.192E+00 0.387E-01 -.345E+04   0.676E-01 0.456E-01 -.185E+01   0.140E-01 0.144E+00 -.284E+00
   -.620E-04 -.355E-05 0.345E+04   0.116E-03 -.101E-04 -.345E+04   0.113E-17 -.948E-18 -.169E+01   0.120E-01 0.735E-02 -.244E+00
   0.264E+00 -.236E+00 0.345E+04   -.192E+00 0.386E-01 -.345E+04   -.676E-01 0.456E-01 -.185E+01   -.155E-01 0.146E+00 -.283E+00
   0.728E-01 0.347E+00 0.345E+04   0.622E-01 -.185E+00 -.345E+04   -.566E-02 -.813E-01 -.185E+01   -.116E+00 -.849E-01 -.283E+00
   -.726E-01 0.347E+00 0.345E+04   -.625E-01 -.185E+00 -.345E+04   0.566E-02 -.813E-01 -.185E+01   0.119E+00 -.862E-01 -.283E+00
   -.144E-03 -.329E-04 0.346E+04   0.263E-03 0.205E-04 -.345E+04   0.247E-17 -.316E-17 -.220E+01   -.131E-01 -.677E-02 -.359E+00
   -.345E+00 -.199E+00 0.113E+04   0.709E+00 0.409E+00 -.112E+04   -.354E+00 -.204E+00 -.111E+01   0.244E-02 0.139E-02 -.165E+00
   -.904E-04 -.119E+01 0.112E+04   0.189E-03 0.887E+00 -.112E+04   -.142E-07 0.214E+00 -.317E+00   0.113E-01 0.452E-01 -.188E+00
   0.345E+00 -.199E+00 0.113E+04   -.710E+00 0.409E+00 -.112E+04   0.354E+00 -.204E+00 -.111E+01   -.342E-02 0.185E-02 -.167E+00
   -.103E+01 0.594E+00 0.112E+04   0.768E+00 -.444E+00 -.112E+04   0.185E+00 -.107E+00 -.317E+00   0.453E-01 -.120E-01 -.188E+00
   0.103E+01 0.594E+00 0.112E+04   -.769E+00 -.444E+00 -.112E+04   -.185E+00 -.107E+00 -.317E+00   -.224E-01 -.133E-01 -.192E+00
   -.142E-03 -.450E-01 0.113E+04   0.298E-03 -.300E+00 -.112E+04   -.114E-07 0.171E+00 -.922E+00   -.271E-02 0.158E+00 -.155E+00
   -.920E-04 0.398E+00 0.113E+04   0.186E-03 -.819E+00 -.112E+04   -.272E-07 0.409E+00 -.111E+01   -.104E-02 -.510E-02 -.167E+00
   -.390E-01 0.224E-01 0.113E+04   -.260E+00 0.150E+00 -.112E+04   0.148E+00 -.853E-01 -.922E+00   0.137E+00 -.816E-01 -.155E+00
   0.391E-01 0.224E-01 0.113E+04   0.260E+00 0.150E+00 -.112E+04   -.148E+00 -.853E-01 -.922E+00   -.135E+00 -.798E-01 -.153E+00
   -.619E-04 -.310E+01 -.122E+04   0.708E-04 0.295E+01 0.122E+04   -.332E-09 0.499E-02 0.730E+00   0.129E-01 0.143E+00 0.234E+00
   -.245E+02 -.142E+02 -.124E+04   0.257E+02 0.148E+02 0.124E+04   -.101E+01 -.585E+00 -.754E+00   -.157E+00 -.908E-01 0.165E+00
   0.245E+02 -.142E+02 -.124E+04   -.257E+02 0.148E+02 0.124E+04   0.101E+01 -.585E+00 -.754E+00   0.134E+00 -.927E-01 0.164E+00
   -.154E+02 0.892E+01 -.122E+04   0.151E+02 -.870E+01 0.122E+04   0.435E+00 -.251E+00 0.535E+00   -.369E-01 0.320E-01 0.216E+00
   -.814E-04 0.283E+02 -.124E+04   0.147E-03 -.297E+02 0.124E+04   -.779E-07 0.117E+01 -.754E+00   -.143E-01 0.161E+00 0.164E+00
   0.154E+02 0.892E+01 -.122E+04   -.151E+02 -.870E+01 0.122E+04   -.435E+00 -.251E+00 0.535E+00   0.605E-01 0.340E-01 0.217E+00
   0.268E+01 0.155E+01 -.122E+04   -.256E+01 -.148E+01 0.122E+04   -.432E-02 -.249E-02 0.730E+00   -.109E+00 -.628E-01 0.234E+00
   -.268E+01 0.155E+01 -.122E+04   0.256E+01 -.148E+01 0.122E+04   0.432E-02 -.249E-02 0.730E+00   0.131E+00 -.601E-01 0.234E+00
   -.124E-03 -.178E+02 -.122E+04   0.240E-03 0.174E+02 0.122E+04   -.334E-07 0.502E+00 0.535E+00   0.924E-02 -.481E-01 0.217E+00
   -.384E-04 0.146E-04 -.349E+04   0.413E-04 -.328E-04 0.348E+04   0.194E-16 -.567E-17 0.213E+01   -.122E-02 -.649E-03 0.289E+00
   -.267E+02 -.461E+02 -.350E+04   0.274E+02 0.472E+02 0.350E+04   -.773E+00 -.104E+01 0.145E+01   0.641E-01 -.649E-01 0.357E+00
   0.267E+02 -.461E+02 -.350E+04   -.274E+02 0.472E+02 0.350E+04   0.773E+00 -.104E+01 0.145E+01   -.425E-01 -.641E-01 0.357E+00
   -.533E+02 -.790E-01 -.350E+04   0.546E+02 0.140E+00 0.350E+04   -.128E+01 -.151E+00 0.145E+01   -.241E-01 0.879E-01 0.357E+00
   0.533E+02 -.787E-01 -.350E+04   -.546E+02 0.139E+00 0.350E+04   0.128E+01 -.151E+00 0.145E+01   0.465E-01 0.891E-01 0.359E+00
   -.266E+02 0.462E+02 -.350E+04   0.272E+02 -.474E+02 0.350E+04   -.511E+00 0.119E+01 0.145E+01   -.767E-01 -.476E-02 0.357E+00
   0.266E+02 0.462E+02 -.350E+04   -.272E+02 -.474E+02 0.350E+04   0.511E+00 0.119E+01 0.145E+01   0.101E+00 -.430E-02 0.359E+00
   -.124E-03 -.176E-04 -.349E+04   0.249E-03 0.475E-05 0.349E+04   0.232E-17 -.308E-17 0.262E+01   -.141E-01 -.730E-02 0.461E+00
   -.570E-04 -.981E-05 -.219E+04   0.914E-04 0.167E-04 0.218E+04   -.392E-17 0.172E-17 0.288E+01   0.889E-03 0.580E-03 0.289E+00
   -.241E-03 0.558E-05 0.576E+01   0.575E-13 0.408E-13 0.100E-10   0.109E-15 -.136E-17 -.670E+01   0.116E+00 0.641E-01 0.965E+00

 POSITION                                       TOTAL-FORCE (eV/Angst)
      0.00000      0.00000      5.37156        -0.000000     -0.000000     -0.002983
      2.56560      0.00000      5.37156        -0.001796      0.012791      0.058136
      5.13119      0.00000      5.37156         0.001796      0.012791      0.058136
      1.28280      2.22187      5.37156         0.010179     -0.007951      0.058136
      3.84839      2.22187      5.37156        -0.000000     -0.000000      0.034008
      6.41399      2.22187      5.37156        -0.010179     -0.007951      0.058136
      2.56560      4.44374      5.37156         0.011975     -0.004840      0.058136
      5.13119      4.44374      5.37156        -0.011975     -0.004840      0.058136
      7.69679      4.44374      5.37156        -0.000000     -0.000000      0.024007
      1.28280      0.74062      7.46636         0.014010      0.008088     -0.065224
      3.84839      0.74062      7.46636         0.000000     -0.047000     -0.084651
      6.41399      0.74062      7.46636        -0.014010      0.008088     -0.065224
      2.56560      2.96249      7.46636        -0.040703      0.023500     -0.084651
      5.13119      2.96249      7.46636         0.040703      0.023500     -0.084651
      7.69679      2.96249      7.46636         0.000000     -0.016385     -0.026897
      3.84839      5.18437      7.46636         0.000000     -0.016177     -0.065224
      6.41399      5.18437      7.46636        -0.014190      0.008192     -0.026897
      8.97958      5.18437      7.46636         0.014190      0.008192     -0.026897
      7.69679      1.48275      9.55327         0.000000     -0.001420     -0.003724
      2.56715      1.48214      9.54261         0.005678      0.003278      0.009942
      5.12964      1.48214      9.54261        -0.005678      0.003278      0.009942
      8.97640      3.70496      9.55687         0.006446     -0.003722     -0.008693
      3.84839      3.70133      9.54261         0.000000     -0.006556      0.009942
      6.41717      3.70496      9.55687        -0.006446     -0.003722     -0.008693
     10.26108      5.92424      9.55327         0.001230      0.000710     -0.003724
      5.13249      5.92424      9.55327        -0.001230      0.000710     -0.003724
      7.69679      5.92131      9.55687        -0.000000      0.007443     -0.008693
      0.00000      0.00000     11.63217        -0.000000     -0.000000      0.020990
      2.57513      0.01976     11.64308        -0.008787      0.001678      0.019990
      5.12165      0.01976     11.64308         0.008787      0.001678      0.019990
      1.30468      2.22025     11.64308        -0.002941     -0.008449      0.019990
      6.39211      2.22025     11.64308         0.002941     -0.008449      0.019990
      2.57794      4.42560     11.64308         0.005846      0.006771      0.019990
      5.11885      4.42560     11.64308        -0.005846      0.006771      0.019990
      7.69679      4.44374     11.63403         0.000000     -0.000000      0.008228
      3.84839      2.22187     11.52902        -0.000000     -0.000000     -0.015263
    total drift:                                0.116102      0.064140      0.029914

  FREE ENERGIE OF THE ION-ELECTRON SYSTEM (eV)
  free  energy   TOTEN  =      -129.02343031 eV

  energy  without entropy=     -129.02343031  energy(sigma->0) =     -129.02343031

 stress matrix after NEB project (eV)
     -8.65684      0.00000      0.00000
      0.00000     -8.65684      0.00000
     -0.00000     -0.00000      0.50716
  FORCES: max atom, RMS     0.021900    0.011162
  FORCE total and by dimension    0.066970    0.020990
  Stress total and by dimension   12.253123    8.656842
|           W    W    AA    RRRRR   N    N  II  N    N   GGGG   !!!           |
|           W    W   A  A   R    R  NN   N  II  NN   N  G    G  !!!           |
|           W    W  A    A  R    R  N N  N  II  N N  N  G       !!!           |
|           W WW W  AAAAAA  RRRRR   N  N N  II  N  N N  G  GGG   !            |
|           WW  WW  A    A  R   R   N   NN  II  N   NN  G    G                |
|           W    W  A    A  R    R  N    N  II  N    N   GGGG   !!!           |
|     Tetrahedron method does not include variations of the Fermi             |
|     occupations, so forces and stress will be inaccurate. We suggest        |
|     using a different smearing scheme ISMEAR = 1 or 2 for metals in         |
|     relaxations.                                                            |

 total charge

# of ion       s       p       d       tot
    1        0.450   0.284   9.188   9.921
    2        0.448   0.285   9.187   9.920
    3        0.448   0.285   9.187   9.920
    4        0.448   0.285   9.187   9.920
    5        0.447   0.287   9.181   9.915
    6        0.448   0.285   9.187   9.920
    7        0.448   0.285   9.187   9.920
    8        0.448   0.285   9.187   9.920
    9        0.448   0.282   9.189   9.919
   10        0.443   0.372   9.175   9.990
   11        0.442   0.367   9.185   9.993
   12        0.443   0.372   9.175   9.990
   13        0.442   0.367   9.185   9.993
   14        0.442   0.367   9.185   9.993
   15        0.440   0.369   9.179   9.988
   16        0.443   0.372   9.175   9.990
   17        0.440   0.369   9.179   9.988
   18        0.440   0.369   9.179   9.988
   19        0.440   0.369   9.181   9.991
   20        0.458   0.396   9.162  10.015
   21        0.458   0.396   9.162  10.015
   22        0.434   0.374   9.182   9.989
   23        0.458   0.396   9.162  10.015
   24        0.434   0.374   9.182   9.989
   25        0.440   0.369   9.181   9.991
   26        0.440   0.369   9.181   9.991
   27        0.434   0.374   9.182   9.989
   28        0.445   0.285   9.183   9.914
   29        0.461   0.299   9.170   9.930
   30        0.461   0.299   9.170   9.930
   31        0.461   0.299   9.170   9.930
   32        0.461   0.299   9.170   9.930
   33        0.461   0.299   9.170   9.930
   34        0.461   0.299   9.170   9.930
   35        0.439   0.288   9.184   9.911
   36        0.338   0.245   5.113   5.695
tot         15.993  11.914 326.368 354.274

 BZINTS: Fermi energy:    0.036538;  392.000000 electrons
         Band energy:-0.107673E+04;  BLOECHL correction:   -0.029321