 vasp.6.2.0 18Jan21 (build Jun 12 2021 23:27:24) complex

 executed on             LinuxIFC date 2022.05.30  18:35:49

 INCAR:
   ISMEAR = -5
   SIGMA = 0.1
   ISPIN = 1
   EDIFF = 1.d-5
   EDIFFG = -0.01
   NSW = 0
   NELM = 150
   ENCUT = 500
   ISIF = 2
   IBRION = 2
   LREAL = Auto
   ALGO = Fast
   ICHARG = 11
   LORBIT = 10
   LCHARG = .F.
   LWAVE = .F.

 POTCAR:    PAW_PBE Cu 22Jun2005
 POTCAR:    PAW_PBE W 08Apr2002
 POTCAR:    PAW_PBE C 08Apr2002
 POTCAR:    PAW_PBE O 08Apr2002
 POTCAR:    PAW_PBE H 15Jun2001
|           W    W    AA    RRRRR   N    N  II  N    N   GGGG   !!!           |
|           W    W   A  A   R    R  NN   N  II  NN   N  G    G  !!!           |
|           W    W  A    A  R    R  N N  N  II  N N  N  G       !!!           |
|           W WW W  AAAAAA  RRRRR   N  N N  II  N  N N  G  GGG   !            |
|           WW  WW  A    A  R   R   N   NN  II  N   NN  G    G                |
|           W    W  A    A  R    R  N    N  II  N    N   GGGG   !!!           |
|     For optimal performance we recommend to set                             |
|       NCORE = 2 up to number-of-cores-per-socket                            |
|     This setting can greatly improve the performance of VASP for DFT.       |
|     The default, NCORE=1 might be grossly inefficient on modern             |
|     multi-core architectures or massively parallel machines. Do your        |
|     Unfortunately you need to use the default for GW and RPA                |
|     calculations (for HF NCORE is supported but not extensively tested      |
|     yet).                                                                   |

 POTCAR:    PAW_PBE Cu 22Jun2005
   VRHFIN =Cu: d10 p1

   TITEL  = PAW_PBE Cu 22Jun2005
   POMASS =   63.546; ZVAL   =   11.000    mass and valenz
   ENMAX  =  295.446; ENMIN  =  221.585 eV

 POTCAR:    PAW_PBE W 08Apr2002
   VRHFIN =W : 6s5d

   TITEL  = PAW_PBE W 08Apr2002
   POMASS =  183.850; ZVAL   =    6.000    mass and valenz
   ENMAX  =  223.057; ENMIN  =  167.293 eV

 POTCAR:    PAW_PBE C 08Apr2002
   VRHFIN =C: s2p2

[...]

 POTCAR:    PAW_PBE O 08Apr2002
   VRHFIN =O: s2p4

   TITEL  = PAW_PBE O 08Apr2002
   POMASS =   16.000; ZVAL   =    6.000    mass and valenz
   ENMAX  =  400.000; ENMIN  =  300.000 eV

 POTCAR:    PAW_PBE H 15Jun2001
   VRHFIN =H: ultrasoft test

   TITEL  = PAW_PBE H 15Jun2001
   POMASS =    1.000; ZVAL   =    1.000    mass and valenz
   ENMAX  =  250.000; ENMIN  =  200.000 eV

 Optimization of the real space projectors (new method)

 maximal supplied QI-value         = 16.25
 optimisation between [QCUT,QGAM] = [ 11.38, 22.75] = [ 36.24,144.96] Ry
 Optimized for a Real-space Cutoff    1.52 Angstroem

   l    n(q)    QCUT    max X(q) W(low)/X(q) W(high)/X(q)  e(spline)
   2      9    11.376     4.610    0.21E-03    0.10E-03    0.26E-06
   2      9    11.376     8.522    0.33E-03    0.16E-03    0.37E-06
   0     10    11.376    51.609    0.62E-04    0.20E-04    0.13E-06
   0     10    11.376    27.747    0.54E-04    0.20E-04    0.13E-06
   1     10    11.376    20.408    0.13E-04    0.99E-04    0.19E-06
   1     10    11.376    13.425    0.12E-04    0.87E-04    0.17E-06
 Optimization of the real space projectors (new method)

[...]

   l    n(q)    QCUT    max X(q) W(low)/X(q) W(high)/X(q)  e(spline)
   0      7    11.387    20.381    0.39E-03    0.13E-02    0.15E-06
   0      7    11.387    15.268    0.42E-03    0.14E-02    0.17E-06
   1      6    11.387     5.964    0.41E-03    0.11E-02    0.17E-06
   1      6    11.387     5.382    0.39E-03    0.87E-03    0.15E-06
 Optimization of the real space projectors (new method)

 maximal supplied QI-value         = 34.20
 optimisation between [QCUT,QGAM] = [ 11.29, 22.57] = [ 35.68,142.71] Ry
 Optimized for a Real-space Cutoff    1.16 Angstroem

   l    n(q)    QCUT    max X(q) W(low)/X(q) W(high)/X(q)  e(spline)
   0      8    11.287    19.460    0.40E-03    0.73E-03    0.16E-06
   0      8    11.287    12.209    0.38E-03    0.70E-03    0.15E-06
   1      7    11.287     4.655    0.22E-03    0.25E-04    0.22E-06
  PAW_PBE Cu 22Jun2005                  :
  PAW_PBE W 08Apr2002                   :
  PAW_PBE C 08Apr2002                   :
  PAW_PBE O 08Apr2002                   :
  PAW_PBE H 15Jun2001                   :

 POSCAR: Cu-W-COH
  positions in direct lattice
  velocities in cartesian coordinates
 exchange correlation table for  LEXCH =        8
   RHO(1)=    0.500       N(1)  =     2000
   RHO(2)=  100.500       N(2)  =     4000

 VTST: version 3.2, (02/03/18)

 CHAIN: initializing optimizer

 OPT: Using VASP Conjugate-Gradient optimizer
 CHAIN: Read ICHAIN            0

 POSCAR: Cu-W-COH
  positions in direct lattice
  velocities in cartesian coordinates

 ion  position               nearest neighbor table
   1  0.000  0.000  0.206-   7 2.57   3 2.57   4 2.57   2 2.57   6 2.57   8 2.57  12 2.57  10 2.57
                            16 2.57
   2  0.333  0.000  0.206-   8 2.57   9 2.57   5 2.57   1 2.57   3 2.57  11 2.57   4 2.57  10 2.57
                            17 2.57
   3  0.667  0.000  0.206-   1 2.57   7 2.57   6 2.57   9 2.57   2 2.57  12 2.57   5 2.57  18 2.57
                            11 2.57
   4  0.000  0.333  0.206-   5 2.57   6 2.57   1 2.57   7 2.57   2 2.57  13 2.57   9 2.57  10 2.57
                            15 2.57
   5  0.333  0.333  0.206-   4 2.57   2 2.57   7 2.57  13 2.57   8 2.57   6 2.57   3 2.57  11 2.57
                            14 2.57
   6  0.667  0.333  0.206-   4 2.57   9 2.57  15 2.57   3 2.57   1 2.57   8 2.57  14 2.57   5 2.57
                            12 2.57
   7  0.000  0.667  0.206-   1 2.57   3 2.57  16 2.57  18 2.57   4 2.57   5 2.57   8 2.57   9 2.57
                            13 2.57
   8  0.333  0.667  0.206-   9 2.57   2 2.57  17 2.57   6 2.57   1 2.57   7 2.57   5 2.57  14 2.57
                            16 2.57
   9  0.667  0.667  0.206-   8 2.57   6 2.57   2 2.57  17 2.57   3 2.57   7 2.57   4 2.57  15 2.57
                            18 2.57
  10  0.111  0.111  0.286-  20 2.54  11 2.57  12 2.57  13 2.57   1 2.57   2 2.57   4 2.57  15 2.57
                            16 2.57  17 2.57  26 2.57  19 2.57
  11  0.444  0.111  0.286-  20 2.55  21 2.55  10 2.57  13 2.57   2 2.57  17 2.57  14 2.57  12 2.57
                             5 2.57   3 2.57  18 2.57  27 2.58
  12  0.778  0.111  0.286-  21 2.54  15 2.57  10 2.57  14 2.57  18 2.57   3 2.57   1 2.57  16 2.57
                            11 2.57   6 2.57  19 2.57  25 2.57
  13  0.111  0.444  0.286-  23 2.55  20 2.55  16 2.57  18 2.57  10 2.57  11 2.57  14 2.57   5 2.57
                             4 2.57   7 2.57  15 2.57  22 2.58
  14  0.444  0.444  0.286-  21 2.55  23 2.55  15 2.57  17 2.57  12 2.57  16 2.57  13 2.57  11 2.57
                             6 2.57   8 2.57   5 2.57  24 2.58
  15  0.778  0.444  0.286-  19 2.57  14 2.57  17 2.57  12 2.57   6 2.57  18 2.57  10 2.57   9 2.57
                            13 2.57   4 2.57  24 2.57  22 2.57
  16  0.111  0.778  0.286-  23 2.54  18 2.57  13 2.57   7 2.57  14 2.57  17 2.57  12 2.57  10 2.57
                             8 2.57   1 2.57  25 2.57  26 2.57
  17  0.444  0.778  0.286-  26 2.57  14 2.57  15 2.57   8 2.57   9 2.57  11 2.57  16 2.57  18 2.57
                            10 2.57   2 2.57  27 2.57  24 2.57
  18  0.778  0.778  0.286-  25 2.57  16 2.57  13 2.57   7 2.57  15 2.57  12 2.57  17 2.57   9 2.57
                             3 2.57  11 2.57  22 2.57  27 2.57
  19  0.889  0.223  0.366-  21 2.55  20 2.55  22 2.56  24 2.56  15 2.57  12 2.57  10 2.57  25 2.57
                            26 2.57  28 2.57  32 2.60  31 2.60
  20  0.221  0.221  0.365-  10 2.54  36 2.54  11 2.55  13 2.55  26 2.55  19 2.55  27 2.57  22 2.57
                            23 2.59  21 2.59  29 2.62  31 2.62
  21  0.558  0.221  0.365-  12 2.54  36 2.54  14 2.55  11 2.55  19 2.55  25 2.55  24 2.57  27 2.57
                            20 2.59  23 2.59  32 2.62  30 2.62
  22  0.888  0.556  0.366-  24 2.56  27 2.56  19 2.56  25 2.56  35 2.56  23 2.57  20 2.57  18 2.57
                            15 2.57  13 2.58  31 2.59  33 2.59
  23  0.221  0.558  0.365-  16 2.54  36 2.54  13 2.55  14 2.55  25 2.55  26 2.55  22 2.57  24 2.57
                            20 2.59  21 2.59  33 2.62  34 2.62
  24  0.556  0.556  0.366-  22 2.56  27 2.56  19 2.56  26 2.56  35 2.56  21 2.57  23 2.57  15 2.57
                            17 2.57  14 2.58  32 2.59  34 2.59
  25  0.889  0.889  0.366-  21 2.55  23 2.55  22 2.56  27 2.56  18 2.57  16 2.57  12 2.57  19 2.57
                            26 2.57  28 2.57  33 2.60  30 2.60
  26  0.223  0.889  0.366-  20 2.55  23 2.55  27 2.56  24 2.56  17 2.57  10 2.57  16 2.57  25 2.57
                            19 2.57  28 2.57  29 2.60  34 2.60
  27  0.556  0.888  0.366-  24 2.56  22 2.56  26 2.56  25 2.56  35 2.56  20 2.57  21 2.57  17 2.57
                            18 2.57  11 2.58  29 2.59  30 2.59
  28  0.000  0.000  0.446-  33 2.56  30 2.56  31 2.56  29 2.56  32 2.56  34 2.56  25 2.57  19 2.57
                            26 2.57
  29  0.333  1.000  0.448-  34 2.56  28 2.56  35 2.57  31 2.57  36 2.57  30 2.57  27 2.59  26 2.60
                            20 2.62
  30  0.667  1.000  0.448-  33 2.56  28 2.56  35 2.57  32 2.57  36 2.57  29 2.57  27 2.59  25 2.60
                            21 2.62
  31  1.000  0.333  0.448-  32 2.56  28 2.56  35 2.57  29 2.57  36 2.57  33 2.57  22 2.59  19 2.60
                            20 2.62
  32  0.667  0.333  0.448-  31 2.56  28 2.56  35 2.57  30 2.57  36 2.57  34 2.57  24 2.59  19 2.60
                            21 2.62
  33  1.000  0.667  0.448-  30 2.56  28 2.56  35 2.57  34 2.57  36 2.57  31 2.57  22 2.59  25 2.60
                            23 2.62
  34  0.333  0.667  0.448-  29 2.56  28 2.56  35 2.57  33 2.57  36 2.57  32 2.57  24 2.59  26 2.60
                            23 2.62
  35  0.667  0.667  0.447-  24 2.56  27 2.56  22 2.56  34 2.57  32 2.57  29 2.57  30 2.57  33 2.57
                            31 2.57
  36  0.333  0.333  0.444-  37 1.87  23 2.54  20 2.54  21 2.54  31 2.57  29 2.57  33 2.57  34 2.57
                            32 2.57  30 2.57
  37  0.333  0.333  0.515-  38 1.27  36 1.87
  38  0.333  0.333  0.564-  39 0.95  37 1.27
  39  0.333  0.333  0.600-  38 0.95

  LATTYP: Found a hexagonal cell.
 ALAT       =     7.6967864036
 C/A-ratio  =     3.3950614187

  Lattice vectors:

 A1 = (  -3.8483927580,  -6.6656128093,   0.0000000000)
 A2 = (   7.6967864037,   0.0000000000,   0.0000000000)
 A3 = (   0.0000000000,   0.0000000000,  26.1310625667)

Analysis of symmetry for initial positions (statically):
 Subroutine PRICEL returns:
 Original cell was already a primitive cell.

 Routine SETGRP: Setting up the symmetry group for a
 hexagonal supercell.

 Subroutine GETGRP returns: Found  6 space group operations
 (whereof  6 operations were pure point group operations)
 out of a pool of 24 trial point group operations.

The static configuration has the point symmetry C_3v.

Analysis of symmetry for dynamics (positions and initial velocities):
 Subroutine PRICEL returns:
 Original cell was already a primitive cell.

[...]

[...]
     41      -4.0717      2.00000
     42      -3.9223      2.00000
     43      -3.9176      2.00000
     44      -3.8741      2.00000
     45      -3.8408      2.00000
     46      -3.8342      2.00000
     47      -3.8163      2.00000
     48      -3.8081      2.00000
     49      -3.7940      2.00000
     50      -3.7866      2.00000
     51      -3.6167      2.00000
     52      -3.5958      2.00000
     53      -3.5948      2.00000
     54      -3.5724      2.00000
     55      -3.5382      2.00000
     56      -3.5241      2.00000
     57      -3.5096      2.00000
     58      -3.5006      2.00000
     59      -3.4897      2.00000
     60      -3.4831      2.00000
[...]
    238       5.2126      0.00000
    239       5.4504      0.00000
    240       5.5244      0.00000
    241       5.5303      0.00000
    242       5.5561      0.00000
    243       5.6328      0.00000
    244       5.6759      0.00000
    245       5.8643      0.00000
    246       5.9056      0.00000
    247       5.9412      0.00000
    248       6.0184      0.00000
    249       6.1878      0.00000
    250       6.2802      0.00000
    251       6.8037      0.00000
    252       6.8993      0.00000

 soft charge-density along one line, spin component           1
         0         1         2         3         4         5         6         7         8         9
 total charge-density along one line

------------------------ aborting loop because EDIFF is reached ----------------------------------------

 total charge

# of ion       s       p       d       tot
    1        0.449   0.284   9.190   9.922
    2        0.449   0.286   9.185   9.920
    3        0.449   0.286   9.185   9.920
    4        0.449   0.286   9.185   9.920
    5        0.448   0.287   9.180   9.916
    6        0.449   0.286   9.185   9.920
    7        0.449   0.286   9.185   9.920
    8        0.449   0.286   9.185   9.920
    9        0.447   0.284   9.189   9.921
   10        0.442   0.372   9.175   9.988
   11        0.444   0.366   9.182   9.992
   12        0.442   0.372   9.175   9.988
   13        0.444   0.366   9.182   9.992
   14        0.444   0.366   9.182   9.992
   15        0.436   0.369   9.176   9.981
   16        0.442   0.372   9.175   9.988
   17        0.436   0.369   9.176   9.981
   18        0.436   0.369   9.176   9.981
   19        0.440   0.365   9.180   9.986
   20        0.467   0.402   9.163  10.032
   21        0.467   0.402   9.163  10.032
   22        0.428   0.371   9.180   9.978
   23        0.467   0.402   9.163  10.032
   24        0.428   0.371   9.180   9.978
   25        0.440   0.365   9.180   9.986
   26        0.440   0.365   9.180   9.986
   27        0.428   0.371   9.180   9.978
   28        0.447   0.292   9.185   9.924
   29        0.466   0.317   9.168   9.951
   30        0.466   0.317   9.168   9.951
   31        0.466   0.317   9.168   9.951
   32        0.466   0.317   9.168   9.951
   33        0.466   0.317   9.168   9.951
   34        0.466   0.317   9.168   9.951
   35        0.446   0.295   9.181   9.922
   36        0.707   0.693   4.336   5.735
   37        0.922   1.452   0.000   2.374
   38        1.519   3.770   0.000   5.289
   39        0.568   0.139   0.000   0.707
tot         19.415  17.847 325.547 362.809

  FORCE on cell =-STRESS in cart. coord.  units (eV):
  Direction    XX          YY          ZZ          XY          YZ          ZX
  Alpha Z   748.01943   748.01943   748.01943
  Ewald  266791.15251266791.15212************     0.00038     0.00013     0.00016
  Hartree279662.20265279662.20266************     0.00003     0.00007     0.00005
  E(xc)   -2321.11701 -2321.11662 -2325.48232    -0.00034    -0.00003    -0.00005
  Local  ************************559213.84064     0.01886    -0.00063    -0.00096
  n-local  -799.25933  -785.35498  -805.45300     7.15583    -0.14530     0.33988
  augment  3319.73379  3319.75415  3341.44721    -0.01764     0.00033     0.00060
  Kinetic  3419.89346  3424.51089  3390.40981     3.29004     1.74174    -1.19338
  Fock        0.00000     0.00000     0.00000     0.00000     0.00000     0.00000
  Total      -5.49639    -5.49639     0.66948     0.00000     0.00000     0.00000
  in kB      -6.56873    -6.56873     0.80010     0.00000     0.00000     0.00000

 VOLUME and BASIS-vectors are now :
  energy-cutoff  :      500.00
  volume of cell :     1340.62
      direct lattice vectors                 reciprocal lattice vectors
     7.696786404  0.000000000  0.000000000     0.129924354 -0.075011849  0.000000000
     3.848392758  6.665612809  0.000000000     0.000000000  0.150023716  0.000000000
     0.000000000  0.000000000 26.131062567     0.000000000  0.000000000  0.038268631

  length of vectors
     7.696786404  7.696786404 26.131062567     0.150023716  0.150023716  0.038268631

 FORCES acting on ions
    electron-ion (+dipol)            ewald-force                    non-local-force                 convergence-correction
   -.435E-04 -.952E-06 0.392E+04   0.581E-04 -.430E-05 -.391E+04   0.862E-17 -.123E-18 -.273E+01   -.419E-03 -.254E-03 0.109E+00
   -.589E+00 -.555E-01 0.391E+04   0.443E+00 0.936E-01 -.391E+04   0.861E-01 0.775E-01 -.177E+01   0.680E-01 -.888E-01 0.141E+00
   0.589E+00 -.555E-01 0.391E+04   -.443E+00 0.936E-01 -.391E+04   -.861E-01 0.775E-01 -.177E+01   -.670E-01 -.863E-01 0.142E+00
   -.342E+00 -.482E+00 0.391E+04   0.302E+00 0.337E+00 -.391E+04   0.110E+00 0.358E-01 -.177E+01   -.428E-01 0.103E+00 0.141E+00
   -.696E-04 -.798E-05 0.391E+04   0.116E-03 -.101E-04 -.391E+04   0.124E-17 0.136E-17 -.149E+01   0.122E-01 0.748E-02 0.204E+00
   0.342E+00 -.482E+00 0.391E+04   -.303E+00 0.337E+00 -.391E+04   -.110E+00 0.358E-01 -.177E+01   0.412E-01 0.104E+00 0.142E+00
   0.246E+00 0.538E+00 0.391E+04   -.141E+00 -.430E+00 -.391E+04   0.241E-01 -.113E+00 -.177E+01   -.108E+00 -.150E-01 0.142E+00
   -.246E+00 0.538E+00 0.391E+04   0.140E+00 -.430E+00 -.391E+04   -.241E-01 -.113E+00 -.177E+01   0.112E+00 -.165E-01 0.142E+00
   -.145E-03 -.336E-04 0.391E+04   0.263E-03 0.205E-04 -.391E+04   -.547E-18 -.159E-17 -.243E+01   -.132E-01 -.675E-02 0.995E-01
   -.154E+00 -.889E-01 0.134E+04   0.627E+00 0.362E+00 -.134E+04   -.538E+00 -.311E+00 -.109E+01   0.408E-01 0.233E-01 -.151E+00
   -.908E-04 -.175E+01 0.133E+04   0.190E-03 0.134E+01 -.133E+04   -.195E-07 0.293E+00 -.444E+00   0.124E-01 0.657E-01 -.192E+00
   0.154E+00 -.889E-01 0.134E+04   -.628E+00 0.362E+00 -.134E+04   0.538E+00 -.311E+00 -.109E+01   -.431E-01 0.247E-01 -.150E+00
   -.152E+01 0.877E+00 0.133E+04   0.116E+01 -.671E+00 -.133E+04   0.253E+00 -.146E+00 -.444E+00   0.638E-01 -.212E-01 -.192E+00
   0.152E+01 0.877E+00 0.133E+04   -.116E+01 -.671E+00 -.133E+04   -.253E+00 -.146E+00 -.444E+00   -.397E-01 -.229E-01 -.192E+00
   -.141E-03 -.176E+01 0.134E+04   0.298E-03 0.160E+01 -.134E+04   -.873E-08 0.131E+00 -.962E+00   -.379E-02 0.255E-01 -.195E+00
   -.920E-04 0.178E+00 0.134E+04   0.186E-03 -.724E+00 -.134E+04   -.414E-07 0.621E+00 -.109E+01   -.766E-03 -.510E-01 -.150E+00
   -.152E+01 0.878E+00 0.134E+04   0.139E+01 -.802E+00 -.134E+04   0.113E+00 -.655E-01 -.962E+00   0.205E-01 -.161E-01 -.194E+00
   0.152E+01 0.878E+00 0.134E+04   -.139E+01 -.802E+00 -.134E+04   -.113E+00 -.655E-01 -.962E+00   -.191E-01 -.127E-01 -.192E+00
   -.626E-04 -.574E+01 -.124E+04   0.708E-04 0.557E+01 0.124E+04   -.687E-08 0.103E+00 0.112E+01   -.128E-01 0.543E-01 -.515E+00
   -.452E+02 -.261E+02 -.127E+04   0.457E+02 0.264E+02 0.127E+04   -.899E+00 -.519E+00 -.344E+00   0.584E-01 0.334E-01 -.493E+00
   0.452E+02 -.261E+02 -.127E+04   -.457E+02 0.264E+02 0.127E+04   0.899E+00 -.519E+00 -.344E+00   -.548E-01 0.318E-01 -.494E+00
   -.252E+02 0.145E+02 -.125E+04   0.245E+02 -.141E+02 0.125E+04   0.703E+00 -.406E+00 0.937E+00   0.805E-01 -.304E-01 -.488E+00
   -.940E-04 0.522E+02 -.127E+04   0.148E-03 -.528E+02 0.127E+04   -.691E-07 0.104E+01 -.344E+00   -.172E-03 -.640E-01 -.494E+00
   0.252E+02 0.145E+02 -.125E+04   -.245E+02 -.141E+02 0.125E+04   -.703E+00 -.406E+00 0.937E+00   -.809E-01 -.337E-01 -.488E+00
   0.497E+01 0.287E+01 -.124E+04   -.482E+01 -.278E+01 0.124E+04   -.894E-01 -.516E-01 0.112E+01   -.650E-01 -.377E-01 -.516E+00
   -.497E+01 0.287E+01 -.124E+04   0.482E+01 -.278E+01 0.124E+04   0.894E-01 -.516E-01 0.112E+01   0.418E-01 -.395E-01 -.515E+00
   -.119E-03 -.291E+02 -.125E+04   0.239E-03 0.282E+02 0.125E+04   -.540E-07 0.811E+00 0.937E+00   0.130E-01 0.844E-01 -.488E+00
   -.480E-04 0.103E-04 -.375E+04   0.391E-04 -.324E-04 0.375E+04   0.198E-17 0.332E-17 0.192E+01   -.662E-03 -.565E-03 0.690E-01
   -.236E+02 -.414E+02 -.374E+04   0.241E+02 0.420E+02 0.374E+04   -.605E+00 -.732E+00 0.175E+01   -.592E-02 0.201E-01 0.679E-01
   0.236E+02 -.414E+02 -.374E+04   -.241E+02 0.420E+02 0.374E+04   0.605E+00 -.732E+00 0.175E+01   0.730E-02 0.216E-01 0.661E-01
   -.476E+02 0.287E+00 -.374E+04   0.484E+02 -.104E+00 0.374E+04   -.937E+00 -.158E+00 0.175E+01   0.148E-01 -.154E-01 0.681E-01
   0.476E+02 0.287E+00 -.374E+04   -.484E+02 -.104E+00 0.374E+04   0.937E+00 -.158E+00 0.175E+01   -.156E-01 -.150E-01 0.673E-01
   -.241E+02 0.411E+02 -.374E+04   0.243E+02 -.419E+02 0.374E+04   -.331E+00 0.890E+00 0.175E+01   0.225E-01 -.442E-02 0.660E-01
   0.241E+02 0.411E+02 -.374E+04   -.243E+02 -.419E+02 0.374E+04   0.331E+00 0.890E+00 0.175E+01   -.198E-01 -.575E-02 0.666E-01
   -.151E-03 -.275E-04 -.376E+04   0.252E-03 0.288E-05 0.376E+04   0.437E-17 0.406E-17 0.225E+01   -.125E-01 -.602E-02 0.995E-01
   -.245E-04 -.488E-05 -.189E+04   0.757E-04 0.144E-04 0.189E+04   0.650E-17 -.145E-17 -.111E+01   0.824E-03 0.517E-03 -.273E-01
   -.632E-05 -.731E-04 -.144E+04   0.110E-04 0.516E-05 0.142E+04   -.341E-18 -.325E-18 0.201E+02   0.972E-03 0.591E-03 0.181E-01
   0.229E-03 -.711E-04 -.226E+04   0.235E-05 0.236E-05 0.226E+04   -.301E-18 -.164E-18 -.422E+01   0.334E-02 0.204E-02 0.457E-01
   0.298E-05 -.144E-04 -.409E+03   0.671E-07 0.156E-06 0.417E+03   0.318E-19 0.299E-20 -.874E+01   0.175E-03 0.107E-03 0.836E-02
   -.907E-04 -.181E-03 0.313E+01   -.564E-13 0.450E-12 0.121E-10   0.343E-15 0.335E-15 0.106E+01   0.798E-02 0.131E-01 -.422E+01

 POSITION                                       TOTAL-FORCE (eV/Angst)
      0.00000      0.00000      5.37156         0.000000      0.000000     -0.030457
      2.56560      0.00000      5.37156         0.008615      0.027926      0.053414
      5.13119      0.00000      5.37156        -0.008615      0.027926      0.053414
      1.28280      2.22187      5.37156         0.028492     -0.006503      0.053414
      3.84839      2.22187      5.37156         0.000000      0.000000      0.029118
      6.41399      2.22187      5.37156        -0.028492     -0.006503      0.053414
      2.56560      4.44374      5.37156         0.019877     -0.021423      0.053414
      5.13119      4.44374      5.37156        -0.019877     -0.021423      0.053414
      7.69679      4.44374      5.37156         0.000000     -0.000000      0.014150
      1.28280      0.74062      7.46636        -0.022315     -0.012883     -0.078298
      3.84839      0.74062      7.46636         0.000000     -0.059835     -0.063925
      6.41399      0.74062      7.46636         0.022315     -0.012883     -0.078298
      2.56560      2.96249      7.46636        -0.051818      0.029917     -0.063925
      5.13119      2.96249      7.46636         0.051818      0.029917     -0.063925
      7.69679      2.96249      7.46636        -0.000000      0.004008      0.037431
      3.84839      5.18437      7.46636        -0.000000      0.025767     -0.078298
      6.41399      5.18437      7.46636         0.003471     -0.002004      0.037431
      8.97958      5.18437      7.46636        -0.003471     -0.002004      0.037431
      7.69679      1.48345      9.56239         0.000000     -0.011639      0.078788
      2.55319      1.47409      9.53589        -0.279762     -0.161521     -0.421372
      5.14360      1.47409      9.53589         0.279762     -0.161521     -0.421372
      8.97438      3.70612      9.57309         0.059141     -0.034145      0.029879
      3.84839      3.71744      9.53589        -0.000000      0.323041     -0.421372
      6.41919      3.70612      9.57309        -0.059141     -0.034145      0.029879
     10.26047      5.92389      9.56239         0.010080      0.005820      0.078788
      5.13310      5.92389      9.56239        -0.010080      0.005820      0.078788
      7.69679      5.91898      9.57309        -0.000000      0.068290      0.029879
      0.00000      0.00000     11.66245         0.000000      0.000000     -0.148170
      6.40959      6.66262     11.69844        -0.058813     -0.121286     -0.059683
      8.98399      6.66262     11.69844         0.058813     -0.121286     -0.059683
      8.97479      2.21956     11.69844        -0.134444      0.009709     -0.059683
      6.41878      2.21956     11.69844         0.134444      0.009709     -0.059683
     10.26199      4.44905     11.69844        -0.075630      0.111577     -0.059683
      5.13158      4.44905     11.69844         0.075630      0.111577     -0.059683
      7.69679      4.44374     11.67118         0.000000      0.000000     -0.123847
      3.84839      2.22187     11.59207         0.000000      0.000000      1.560220
      3.84839      2.22187     13.45772         0.000000      0.000000     -0.003339
      3.84839      2.22187     14.72545         0.000000      0.000000     -0.006896
      3.84839      2.22187     15.68042         0.000000      0.000000     -0.000673
    total drift:                                0.007892      0.012962     -0.031939

  FREE ENERGIE OF THE ION-ELECTRON SYSTEM (eV)
  free  energy   TOTEN  =      -151.28644840 eV

  energy  without entropy=     -151.28644840  energy(sigma->0) =     -151.28644840

 stress matrix after NEB project (eV)
     -5.49639      0.00000      0.00000
      0.00000     -5.49639     -0.00000
     -0.00000      0.00000      0.66948
  FORCES: max atom, RMS     0.006896    0.001232
  FORCE total and by dimension    0.007692    0.006896
  Stress total and by dimension    7.801840    5.496386
|           W    W    AA    RRRRR   N    N  II  N    N   GGGG   !!!           |
|           W    W   A  A   R    R  NN   N  II  NN   N  G    G  !!!           |
|           W    W  A    A  R    R  N N  N  II  N N  N  G       !!!           |
|           W WW W  AAAAAA  RRRRR   N  N N  II  N  N N  G  GGG   !            |
|           WW  WW  A    A  R   R   N   NN  II  N   NN  G    G                |
|           W    W  A    A  R    R  N    N  II  N    N   GGGG   !!!           |
|     Tetrahedron method does not include variations of the Fermi             |
|     occupations, so forces and stress will be inaccurate. We suggest        |
|     using a different smearing scheme ISMEAR = 1 or 2 for metals in         |
|     relaxations.                                                            |

 total charge

# of ion       s       p       d       tot
    1        0.449   0.284   9.190   9.922
    2        0.449   0.286   9.185   9.920
    3        0.449   0.286   9.185   9.920
    4        0.449   0.286   9.185   9.920
    5        0.448   0.287   9.180   9.916
    6        0.449   0.286   9.185   9.920
    7        0.449   0.286   9.185   9.920
    8        0.449   0.286   9.185   9.920
    9        0.447   0.284   9.189   9.921
   10        0.442   0.372   9.175   9.988
   11        0.444   0.366   9.182   9.992
   12        0.442   0.372   9.175   9.988
   13        0.444   0.366   9.182   9.992
   14        0.444   0.366   9.182   9.992
   15        0.436   0.369   9.176   9.981
   16        0.442   0.372   9.175   9.988
   17        0.436   0.369   9.176   9.981
   18        0.436   0.369   9.176   9.981
   19        0.440   0.365   9.180   9.986
   20        0.467   0.402   9.163  10.032
   21        0.467   0.402   9.163  10.032
   22        0.428   0.371   9.180   9.978
   23        0.467   0.402   9.163  10.032
   24        0.428   0.371   9.180   9.978
   25        0.440   0.365   9.180   9.986
   26        0.440   0.365   9.180   9.986
   27        0.428   0.371   9.180   9.978
   28        0.447   0.292   9.185   9.924
   29        0.466   0.317   9.168   9.951
   30        0.466   0.317   9.168   9.951
   31        0.466   0.317   9.168   9.951
   32        0.466   0.317   9.168   9.951
   33        0.466   0.317   9.168   9.951
   34        0.466   0.317   9.168   9.951
   35        0.446   0.295   9.181   9.922
   36        0.707   0.693   4.336   5.735
   37        0.922   1.452   0.000   2.374
   38        1.519   3.770   0.000   5.289
   39        0.568   0.139   0.000   0.707
tot         19.415  17.847 325.547 362.809

 BZINTS: Fermi energy:   -0.092751;  402.000000 electrons
         Band energy:-0.128056E+04;  BLOECHL correction:   -0.037797