 vasp.6.2.0 18Jan21 (build Jun 12 2021 23:27:24) complex

 executed on             LinuxIFC date 2022.05.27  05:27:39

 INCAR:
   ISMEAR = -5
   SIGMA = 0.1
   ISPIN = 1
   EDIFF = 1.d-5
   EDIFFG = -0.01
   NSW = 0
   NELM = 150
   ENCUT = 500
   ISIF = 2
   IBRION = 2
   LREAL = Auto
   ALGO = Fast
   ICHARG = 11
   LORBIT = 10
   LCHARG = .F.
   LWAVE = .F.

 POTCAR:    PAW_PBE Ag 02Apr2005
 POTCAR:    PAW_PBE V 08Apr2002
 POTCAR:    PAW_PBE O 08Apr2002
 POTCAR:    PAW_PBE H 15Jun2001
|           W    W    AA    RRRRR   N    N  II  N    N   GGGG   !!!           |
|           W    W   A  A   R    R  NN   N  II  NN   N  G    G  !!!           |
|           W    W  A    A  R    R  N N  N  II  N N  N  G       !!!           |
|           W WW W  AAAAAA  RRRRR   N  N N  II  N  N N  G  GGG   !            |
|           WW  WW  A    A  R   R   N   NN  II  N   NN  G    G                |
|           W    W  A    A  R    R  N    N  II  N    N   GGGG   !!!           |
|     For optimal performance we recommend to set                             |
|       NCORE = 2 up to number-of-cores-per-socket                            |
|     This setting can greatly improve the performance of VASP for DFT.       |
|     The default, NCORE=1 might be grossly inefficient on modern             |
|     multi-core architectures or massively parallel machines. Do your        |
|     Unfortunately you need to use the default for GW and RPA                |
|     calculations (for HF NCORE is supported but not extensively tested      |
|     yet).                                                                   |

 POTCAR:    PAW_PBE Ag 02Apr2005
   VRHFIN =Ag : s1 d10

   TITEL  = PAW_PBE Ag 02Apr2005
   POMASS =  107.868; ZVAL   =   11.000    mass and valenz
   ENMAX  =  249.844; ENMIN  =  187.383 eV

 POTCAR:    PAW_PBE V 08Apr2002
   VRHFIN =V: p6 d4 s1

[...]

 POTCAR:    PAW_PBE O 08Apr2002
   VRHFIN =O: s2p4

   TITEL  = PAW_PBE O 08Apr2002
   POMASS =   16.000; ZVAL   =    6.000    mass and valenz
   ENMAX  =  400.000; ENMIN  =  300.000 eV

 POTCAR:    PAW_PBE H 15Jun2001
   VRHFIN =H: ultrasoft test

   TITEL  = PAW_PBE H 15Jun2001
   POMASS =    1.000; ZVAL   =    1.000    mass and valenz
   ENMAX  =  250.000; ENMIN  =  200.000 eV

 Optimization of the real space projectors (new method)

 maximal supplied QI-value         = 15.12
 optimisation between [QCUT,QGAM] = [ 11.34, 22.83] = [ 36.00,145.93] Ry
 Optimized for a Real-space Cutoff    1.43 Angstroem

   l    n(q)    QCUT    max X(q) W(low)/X(q) W(high)/X(q)  e(spline)
   2      9    11.338    53.897    0.16E-03    0.20E-03    0.28E-06
   2      9    11.338    52.416    0.16E-03    0.20E-03    0.29E-06
   0     10    11.338   122.045    0.31E-04    0.76E-04    0.15E-06
   0     10    11.338    73.629    0.30E-04    0.72E-04    0.15E-06
   1      9    11.338    15.255    0.20E-03    0.19E-04    0.17E-06
   1      9    11.338     9.562    0.16E-03    0.15E-04    0.14E-06
 Optimization of the real space projectors (new method)

[...]

   l    n(q)    QCUT    max X(q) W(low)/X(q) W(high)/X(q)  e(spline)
   0      7    11.387    20.381    0.39E-03    0.13E-02    0.15E-06
   0      7    11.387    15.268    0.42E-03    0.14E-02    0.17E-06
   1      6    11.387     5.964    0.41E-03    0.11E-02    0.17E-06
   1      6    11.387     5.382    0.39E-03    0.87E-03    0.15E-06
 Optimization of the real space projectors (new method)

 maximal supplied QI-value         = 34.20
 optimisation between [QCUT,QGAM] = [ 11.29, 22.57] = [ 35.68,142.71] Ry
 Optimized for a Real-space Cutoff    1.16 Angstroem

   l    n(q)    QCUT    max X(q) W(low)/X(q) W(high)/X(q)  e(spline)
   0      8    11.287    19.460    0.40E-03    0.73E-03    0.16E-06
   0      8    11.287    12.209    0.38E-03    0.70E-03    0.15E-06
   1      7    11.287     4.655    0.22E-03    0.25E-04    0.22E-06
  PAW_PBE Ag 02Apr2005                  :
  PAW_PBE V 08Apr2002                   :
  PAW_PBE O 08Apr2002                   :
  PAW_PBE H 15Jun2001                   :

 POSCAR: Ag-V-OH
  positions in direct lattice
  velocities in cartesian coordinates
 exchange correlation table for  LEXCH =        8
   RHO(1)=    0.500       N(1)  =     2000
   RHO(2)=  100.500       N(2)  =     4000

 VTST: version 3.2, (02/03/18)

 CHAIN: initializing optimizer

 OPT: Using VASP Conjugate-Gradient optimizer
 CHAIN: Read ICHAIN            0

 POSCAR: Ag-V-OH
  positions in direct lattice
  velocities in cartesian coordinates

 ion  position               nearest neighbor table
   1  0.000  0.000  0.238-   2 2.93   8 2.93   7 2.93   6 2.93   4 2.93  12 2.93  16 2.93  10 2.93
                             3 2.93
   2  0.333  0.000  0.238-   1 2.93   8 2.93   9 2.93   3 2.93   4 2.93   5 2.93  10 2.93  17 2.93
                            11 2.93
   3  0.667  0.000  0.238-   9 2.93   2 2.93   5 2.93  11 2.93   7 2.93  18 2.93   1 2.93   6 2.93
                            12 2.93
   4  0.000  0.333  0.238-   5 2.93   6 2.93   2 2.93   1 2.93   7 2.93  13 2.93  15 2.93   9 2.93
                            10 2.93
   5  0.333  0.333  0.238-   4 2.93   3 2.93   7 2.93   2 2.93   8 2.93  14 2.93  13 2.93  11 2.93
                             6 2.93
   6  0.667  0.333  0.238-   4 2.93   9 2.93   1 2.93  15 2.93   8 2.93  12 2.93   3 2.93   5 2.93
                            14 2.93
   7  0.000  0.667  0.238-   8 2.93   1 2.93   5 2.93   3 2.93   4 2.93  16 2.93  18 2.93  13 2.93
                             9 2.93
   8  0.333  0.667  0.238-   7 2.93   1 2.93   2 2.93   9 2.93   5 2.93  16 2.93   6 2.93  17 2.93
                            14 2.93
   9  0.667  0.667  0.238-   3 2.93   2 2.93   8 2.93   6 2.93  17 2.93   4 2.93  15 2.93   7 2.93
                            18 2.93
  10  0.111  0.111  0.346-  20 2.91  19 2.92  26 2.92  12 2.93  16 2.93  15 2.93  17 2.93  13 2.93
                            11 2.93   2 2.93   1 2.93   4 2.93
  11  0.444  0.111  0.346-  21 2.90  20 2.90  27 2.92  14 2.93  17 2.93  18 2.93   3 2.93  12 2.93
                            13 2.93  10 2.93   5 2.93   2 2.93
  12  0.778  0.111  0.346-  21 2.91  25 2.92  19 2.92  10 2.93  16 2.93  18 2.93  15 2.93  11 2.93
                             1 2.93  14 2.93   6 2.93   3 2.93
  13  0.111  0.444  0.346-  20 2.90  23 2.90  22 2.92  15 2.93  14 2.93  18 2.93  10 2.93  11 2.93
                            16 2.93   4 2.93   5 2.93   7 2.93
  14  0.444  0.444  0.346-  23 2.90  21 2.90  24 2.92  13 2.93  11 2.93  16 2.93   5 2.93  12 2.93
                            17 2.93   8 2.93  15 2.93   6 2.93
  15  0.778  0.444  0.346-  24 2.92  22 2.92  19 2.92  13 2.93  10 2.93  12 2.93  17 2.93  18 2.93
                             4 2.93   6 2.93   9 2.93  14 2.93
  16  0.111  0.778  0.346-  23 2.91  26 2.92  25 2.92  18 2.93  12 2.93  10 2.93  14 2.93  17 2.93
                            13 2.93   7 2.93   8 2.93   1 2.93
  17  0.444  0.778  0.346-  27 2.92  24 2.92  26 2.92  11 2.93  10 2.93   9 2.93  18 2.93  15 2.93
                            16 2.93   2 2.93  14 2.93   8 2.93
  18  0.778  0.778  0.346-  22 2.92  27 2.92  25 2.92  16 2.93  12 2.93  13 2.93  11 2.93  17 2.93
                            15 2.93   7 2.93   3 2.93   9 2.93
  19  0.889  0.222  0.453-  28 2.91  15 2.92  10 2.92  12 2.92  24 2.93  22 2.93  26 2.93  25 2.93
                            20 2.94  21 2.94  32 2.96  31 2.96
  20  0.223  0.223  0.453-  36 2.75  13 2.90  11 2.90  10 2.91  21 2.92  23 2.92  31 2.92  29 2.92
                            27 2.93  22 2.93  19 2.94  26 2.94
  21  0.555  0.223  0.453-  36 2.75  11 2.90  14 2.90  12 2.91  20 2.92  23 2.92  30 2.92  32 2.92
                            27 2.93  24 2.93  25 2.94  19 2.94
  22  0.889  0.556  0.453-  18 2.92  15 2.92  35 2.92  13 2.92  24 2.93  27 2.93  25 2.93  19 2.93
                            23 2.93  20 2.93  33 2.94  31 2.94
  23  0.223  0.555  0.453-  36 2.75  14 2.90  13 2.90  16 2.91  21 2.92  20 2.92  34 2.92  33 2.92
                            22 2.93  24 2.93  26 2.94  25 2.94
  24  0.556  0.556  0.453-  15 2.92  17 2.92  35 2.92  14 2.92  27 2.93  22 2.93  19 2.93  26 2.93
                            23 2.93  21 2.93  32 2.94  34 2.94
  25  0.889  0.889  0.453-  28 2.91  18 2.92  16 2.92  12 2.92  22 2.93  27 2.93  26 2.93  19 2.93
                            23 2.94  21 2.94  33 2.96  30 2.96
  26  0.222  0.889  0.453-  28 2.91  17 2.92  16 2.92  10 2.92  27 2.93  24 2.93  25 2.93  19 2.93
                            23 2.94  20 2.94  34 2.96  29 2.96
  27  0.556  0.889  0.453-  17 2.92  18 2.92  35 2.92  11 2.92  24 2.93  22 2.93  26 2.93  25 2.93
                            20 2.93  21 2.93  29 2.94  30 2.94
  28  0.000  0.000  0.560-  26 2.91  25 2.91  19 2.91  29 2.96  34 2.96  33 2.96  32 2.96  31 2.96
                            30 2.96
  29  0.334  0.006  0.562-  30 2.87  31 2.88  36 2.89  20 2.92  27 2.94  35 2.96  28 2.96  26 2.96
                            34 3.04
  30  0.660  0.006  0.562-  29 2.87  32 2.88  36 2.89  21 2.92  27 2.94  35 2.96  28 2.96  25 2.96
                            33 3.04
  31  0.006  0.334  0.562-  33 2.87  29 2.88  36 2.89  20 2.92  22 2.94  35 2.96  28 2.96  19 2.96
                            32 3.04
  32  0.660  0.334  0.562-  34 2.87  30 2.88  36 2.89  21 2.92  24 2.94  35 2.96  28 2.96  19 2.96
                            31 3.04
  33  0.006  0.660  0.562-  31 2.87  34 2.88  36 2.89  23 2.92  22 2.94  35 2.96  28 2.96  25 2.96
                            30 3.04
  34  0.334  0.660  0.562-  32 2.87  33 2.88  36 2.89  23 2.92  24 2.94  35 2.96  28 2.96  26 2.96
                            29 3.04
  35  0.667  0.667  0.561-  24 2.92  27 2.92  22 2.92  30 2.96  32 2.96  29 2.96  34 2.96  31 2.96
                            33 2.96
  36  0.333  0.333  0.551-  37 1.75  21 2.75  20 2.75  23 2.75  31 2.89  33 2.89  30 2.89  29 2.89
                            34 2.89  32 2.89
  37  0.333  0.333  0.630-  38 0.97  36 1.75
  38  0.333  0.333  0.673-  37 0.97

  LATTYP: Found a hexagonal cell.
 ALAT       =     8.7913665772
 C/A-ratio  =     2.5227160501

  Lattice vectors:

 A1 = (  -4.3956832886,  -7.6135467898,   0.0000000000)
 A2 = (   8.7913665771,   0.0000000000,   0.0000000000)
 A3 = (   0.0000000000,   0.0000000000,  22.1781215668)

Analysis of symmetry for initial positions (statically):
 Subroutine PRICEL returns:
 Original cell was already a primitive cell.

 Routine SETGRP: Setting up the symmetry group for a
 hexagonal supercell.

 Subroutine GETGRP returns: Found  6 space group operations
 (whereof  6 operations were pure point group operations)
 out of a pool of 24 trial point group operations.

The static configuration has the point symmetry C_3v.

Analysis of symmetry for dynamics (positions and initial velocities):
 Subroutine PRICEL returns:
 Original cell was already a primitive cell.

[...]

The dynamic configuration has the point symmetry C_3v.

Analysis of constrained symmetry for selective dynamics:
 Subroutine PRICEL returns:
 Original cell was already a primitive cell.

 Routine SETGRP: Setting up the symmetry group for a
 hexagonal supercell.

 Subroutine GETGRP returns: Found  6 space group operations
[...]
     33      -4.2940      2.00000
     34      -4.2910      2.00000
     35      -4.2496      2.00000
     36      -4.2143      2.00000
     37      -4.1974      2.00000
     38      -4.1884      2.00000
     39      -4.1510      2.00000
     40      -4.1291      2.00000
     41      -4.0996      2.00000
     42      -4.0978      2.00000
     43      -4.0912      2.00000
     44      -4.0685      2.00000
     45      -4.0138      2.00000
     46      -3.9785      2.00000
     47      -3.9563      2.00000
     48      -3.9449      2.00000
     49      -3.9362      2.00000
     50      -3.9319      2.00000
     51      -3.9280      2.00000
     52      -3.9190      2.00000
     53      -3.9022      2.00000
     54      -3.8934      2.00000
     55      -3.8813      2.00000
     56      -3.8772      2.00000
     57      -3.8216      2.00000
     58      -3.8161      2.00000
     59      -3.8021      2.00000
     60      -3.7952      2.00000
[...]
    238       6.3990      0.00000
    239       6.4790      0.00000
    240       6.4886      0.00000
    241       6.6999      0.00000
    242       7.1828      0.00000
    243       7.2886      0.00000
    244       7.3185      0.00000
    245       7.3366      0.00000
    246       7.4303      0.00000
    247       7.4395      0.00000
    248       7.5060      0.00000
    249       7.5172      0.00000
    250       7.6220      0.00000
    251       7.6753      0.00000
    252       7.8354      0.00000

 soft charge-density along one line, spin component           1
         0         1         2         3         4         5         6         7         8         9
 total charge-density along one line

------------------------ aborting loop because EDIFF is reached ----------------------------------------

 total charge

# of ion       s       p       d       tot
    1        0.421   0.200   9.177   9.798
    2        0.417   0.204   9.176   9.796
    3        0.417   0.204   9.176   9.796
    4        0.417   0.204   9.176   9.796
    5        0.417   0.203   9.176   9.796
    6        0.417   0.204   9.176   9.796
    7        0.417   0.204   9.176   9.796
    8        0.417   0.204   9.176   9.796
    9        0.414   0.204   9.177   9.795
   10        0.409   0.268   9.163   9.840
   11        0.405   0.270   9.167   9.842
   12        0.409   0.268   9.163   9.840
   13        0.405   0.270   9.167   9.842
   14        0.405   0.270   9.167   9.842
   15        0.402   0.270   9.165   9.837
   16        0.409   0.268   9.163   9.840
   17        0.402   0.270   9.165   9.837
   18        0.402   0.270   9.165   9.837
   19        0.403   0.265   9.167   9.835
   20        0.435   0.299   9.137   9.871
   21        0.435   0.299   9.137   9.871
   22        0.395   0.276   9.164   9.834
   23        0.435   0.299   9.137   9.871
   24        0.395   0.276   9.164   9.834
   25        0.403   0.265   9.167   9.835
   26        0.403   0.265   9.167   9.835
   27        0.395   0.276   9.164   9.834
   28        0.418   0.199   9.174   9.791
   29        0.424   0.212   9.170   9.806
   30        0.424   0.212   9.170   9.806
   31        0.424   0.212   9.170   9.806
   32        0.424   0.212   9.170   9.806
   33        0.424   0.212   9.170   9.806
   34        0.424   0.212   9.170   9.806
   35        0.412   0.203   9.174   9.788
   36        0.475   0.613   3.438   4.527
   37        1.562   3.535   0.000   5.097
   38        0.607   0.124   0.000   0.731
tot         17.119  12.717 324.281 354.117

  FORCE on cell =-STRESS in cart. coord.  units (eV):
  Direction    XX          YY          ZZ          XY          YZ          ZX
  Alpha Z   747.21347   747.21347   747.21347
  Ewald  119028.99295119028.99292************     0.00002    -0.00001     0.00004
  Hartree129354.28885129354.28884************     0.00001    -0.00000     0.00001
  E(xc)   -2084.05418 -2084.05420 -2088.61950     0.00001     0.00000     0.00000
  Local  ************************259491.89630     0.00051    -0.00005    -0.00016
  n-local  -352.46758  -334.83679  -344.46684    10.37508    -0.48683     0.51609
  augment  3248.05419  3248.05435  3252.57998    -0.00013    -0.00001     0.00000
  Kinetic  4950.19529  4952.43134  4940.42745     3.60473     0.99185    -0.51096
  Fock        0.00000     0.00000     0.00000     0.00000     0.00000     0.00000
  Total      -7.64805    -7.64805    -0.54077    -0.00000    -0.00000     0.00000
  in kB      -8.25455    -8.25455    -0.58365    -0.00000    -0.00000     0.00000

 VOLUME and BASIS-vectors are now :
  energy-cutoff  :      500.00
  volume of cell :     1484.46
      direct lattice vectors                 reciprocal lattice vectors
     8.791366577  0.000000000  0.000000000     0.113747958 -0.065672414  0.000000000
     4.395683289  7.613546790  0.000000000     0.000000000  0.131344829  0.000000000
     0.000000000  0.000000000 22.178121567     0.000000000  0.000000000  0.045089481

  length of vectors
     8.791366577  8.791366577 22.178121567     0.131344829  0.131344829  0.045089481

 FORCES acting on ions
    electron-ion (+dipol)            ewald-force                    non-local-force                 convergence-correction
   0.461E-04 -.281E-04 0.250E+04   -.953E-04 0.593E-04 -.249E+04   0.290E-17 0.996E-18 -.196E+01   -.141E-03 -.188E-03 -.124E+00
   0.214E-01 0.126E-02 0.250E+04   -.689E-01 -.658E-01 -.249E+04   0.262E-01 0.110E+00 -.159E+01   0.205E-01 -.360E-01 -.181E+00
   -.214E-01 0.125E-02 0.250E+04   0.690E-01 -.657E-01 -.249E+04   -.262E-01 0.110E+00 -.159E+01   -.210E-01 -.341E-01 -.180E+00
   0.118E-01 0.179E-01 0.250E+04   -.915E-01 -.267E-01 -.249E+04   0.108E+00 -.323E-01 -.159E+01   -.207E-01 0.359E-01 -.181E+00
   -.571E-05 -.187E-04 0.250E+04   0.981E-04 -.200E-05 -.249E+04   0.670E-18 -.783E-19 -.143E+01   0.622E-02 0.380E-02 -.120E+00
   -.118E-01 0.179E-01 0.250E+04   0.913E-01 -.268E-01 -.249E+04   -.108E+00 -.323E-01 -.159E+01   0.193E-01 0.368E-01 -.180E+00
   -.958E-02 -.192E-01 0.250E+04   -.226E-01 0.926E-01 -.249E+04   0.822E-01 -.778E-01 -.159E+01   -.396E-01 -.601E-03 -.180E+00
   0.961E-02 -.192E-01 0.250E+04   0.226E-01 0.925E-01 -.249E+04   -.822E-01 -.778E-01 -.159E+01   0.412E-01 -.160E-02 -.180E+00
   0.364E-04 -.130E-04 0.250E+04   0.792E-04 -.642E-04 -.249E+04   0.147E-18 -.587E-18 -.182E+01   -.661E-02 -.340E-02 -.178E+00
   0.133E+01 0.769E+00 0.835E+03   -.793E+00 -.458E+00 -.834E+03   -.455E+00 -.262E+00 -.724E+00   -.673E-01 -.389E-01 -.325E+00
   -.289E-04 0.741E+00 0.836E+03   0.409E-04 -.949E+00 -.835E+03   0.107E-11 0.163E+00 -.396E+00   0.654E-02 -.516E-02 -.353E+00
   -.133E+01 0.769E+00 0.835E+03   0.793E+00 -.458E+00 -.834E+03   0.455E+00 -.262E+00 -.724E+00   0.657E-01 -.381E-01 -.325E+00
   0.642E+00 -.371E+00 0.836E+03   -.822E+00 0.474E+00 -.835E+03   0.141E+00 -.815E-01 -.396E+00   -.132E-02 0.827E-02 -.353E+00
   -.642E+00 -.370E+00 0.836E+03   0.822E+00 0.474E+00 -.835E+03   -.141E+00 -.815E-01 -.396E+00   0.118E-01 0.705E-02 -.355E+00
   0.154E-04 0.469E+00 0.836E+03   -.108E-03 -.554E+00 -.835E+03   0.248E-12 0.377E-01 -.733E+00   -.148E-02 0.317E-01 -.306E+00
   -.833E-05 -.154E+01 0.835E+03   0.207E-04 0.916E+00 -.834E+03   0.345E-11 0.525E+00 -.724E+00   -.196E-03 0.759E-01 -.325E+00
   0.406E+00 -.235E+00 0.836E+03   -.480E+00 0.277E+00 -.835E+03   0.327E-01 -.189E-01 -.733E+00   0.267E-01 -.171E-01 -.306E+00
   -.406E+00 -.235E+00 0.836E+03   0.480E+00 0.277E+00 -.835E+03   -.327E-01 -.189E-01 -.733E+00   -.262E-01 -.152E-01 -.304E+00
   0.393E-04 -.308E+01 -.844E+03   -.126E-03 0.298E+01 0.843E+03   0.590E-12 0.899E-01 0.857E+00   -.502E-02 -.227E-02 -.126E+00
   -.125E+02 -.722E+01 -.848E+03   0.137E+02 0.791E+01 0.849E+03   -.113E+01 -.650E+00 -.853E+00   -.115E+00 -.665E-01 -.340E+00
   0.125E+02 -.722E+01 -.848E+03   -.137E+02 0.791E+01 0.849E+03   0.113E+01 -.650E+00 -.853E+00   0.106E+00 -.677E-01 -.341E+00
   -.531E+01 0.307E+01 -.839E+03   0.535E+01 -.309E+01 0.839E+03   0.174E+00 -.100E+00 0.576E+00   -.164E+00 0.967E-01 -.189E+00
   -.533E-04 0.144E+02 -.848E+03   0.386E-04 -.158E+02 0.849E+03   0.854E-11 0.130E+01 -.853E+00   -.541E-02 0.126E+00 -.341E+00
   0.531E+01 0.307E+01 -.839E+03   -.535E+01 -.309E+01 0.839E+03   -.174E+00 -.100E+00 0.576E+00   0.166E+00 0.958E-01 -.189E+00
   0.267E+01 0.154E+01 -.844E+03   -.258E+01 -.149E+01 0.843E+03   -.779E-01 -.450E-01 0.857E+00   -.586E-02 -.353E-02 -.127E+00
   -.267E+01 0.154E+01 -.844E+03   0.258E+01 -.149E+01 0.843E+03   0.779E-01 -.450E-01 0.857E+00   -.478E-02 -.333E-02 -.126E+00
   0.202E-04 -.613E+01 -.839E+03   0.110E-03 0.618E+01 0.839E+03   0.132E-11 0.200E+00 0.576E+00   0.111E-02 -.190E+00 -.189E+00
   0.538E-04 -.365E-04 -.246E+04   -.114E-03 0.773E-04 0.246E+04   -.146E-17 -.937E-17 0.156E+01   -.628E-04 -.171E-03 0.454E-01
   0.777E+01 0.836E+01 -.245E+04   -.711E+01 -.759E+01 0.245E+04   -.595E+00 -.655E+00 0.201E+01   -.181E+00 -.300E+00 0.604E-01
   -.777E+01 0.836E+01 -.245E+04   0.711E+01 -.759E+01 0.245E+04   0.595E+00 -.655E+00 0.201E+01   0.180E+00 -.299E+00 0.599E-01
   0.111E+02 0.255E+01 -.245E+04   -.101E+02 -.236E+01 0.245E+04   -.864E+00 -.187E+00 0.201E+01   -.350E+00 -.601E-02 0.605E-01
   -.111E+02 0.255E+01 -.245E+04   0.101E+02 -.236E+01 0.245E+04   0.864E+00 -.187E+00 0.201E+01   0.350E+00 -.547E-02 0.608E-01
   0.335E+01 -.109E+02 -.245E+04   -.302E+01 0.995E+01 0.245E+04   -.270E+00 0.842E+00 0.201E+01   -.169E+00 0.306E+00 0.598E-01
   -.335E+01 -.109E+02 -.245E+04   0.302E+01 0.995E+01 0.245E+04   0.270E+00 0.842E+00 0.201E+01   0.170E+00 0.306E+00 0.608E-01
   0.240E-04 -.125E-04 -.247E+04   0.105E-03 -.657E-04 0.246E+04   0.677E-19 -.691E-17 0.175E+01   -.618E-02 -.314E-02 0.356E-01
   -.202E-04 -.437E-05 -.948E+03   0.479E-04 0.613E-05 0.950E+03   -.251E-17 0.202E-18 -.329E+00   0.922E-03 0.562E-03 -.139E-01
   0.194E-03 -.924E-04 -.152E+04   0.288E-04 0.415E-06 0.150E+04   -.886E-19 -.118E-17 0.206E+02   0.355E-02 0.218E-02 0.366E+00
   0.803E-05 -.128E-04 -.312E+03   0.207E-05 0.850E-08 0.321E+03   0.128E-18 -.398E-19 -.850E+01   0.195E-03 0.119E-03 0.318E-01
   0.556E-03 -.787E-03 -.300E+01   -.428E-14 -.154E-12 -.341E-12   0.531E-16 -.230E-15 0.855E+01   -.154E-01 -.556E-02 -.560E+01

 POSITION                                       TOTAL-FORCE (eV/Angst)
      0.00000      0.00000      5.28219        -0.000000     -0.000000     -0.027900
      2.93046      0.00000      5.28219        -0.000125      0.010610      0.039302
      5.86091      0.00000      5.28219         0.000125      0.010610      0.039302
      1.46523      2.53785      5.28219         0.009126     -0.005413      0.039302
      4.39568      2.53785      5.28219        -0.000000     -0.000000      0.024923
      7.32614      2.53785      5.28219        -0.009126     -0.005413      0.039302
      2.93046      5.07570      5.28219         0.009251     -0.005197      0.039302
      5.86091      5.07570      5.28219        -0.009251     -0.005197      0.039302
      8.79137      5.07570      5.28219        -0.000000      0.000000      0.019558
      1.46523      0.84595      7.67490         0.017472      0.010088     -0.018876
      4.39568      0.84595      7.67490        -0.000000     -0.052828     -0.053952
      7.32614      0.84595      7.67490        -0.017472      0.010088     -0.018876
      2.93046      3.38380      7.67490        -0.045750      0.026414     -0.053952
      5.86091      3.38380      7.67490         0.045750      0.026414     -0.053952
      8.79137      3.38380      7.67490        -0.000000     -0.016099      0.022297
      4.39568      5.92165      7.67490        -0.000000     -0.020175     -0.018876
      7.32614      5.92165      7.67490        -0.013942      0.008050      0.022297
     10.25659      5.92165      7.67490         0.013942      0.008050      0.022297
      8.79137      1.69254     10.05636        -0.000000     -0.008103      0.008735
      2.93602      1.69511     10.03837        -0.041743     -0.024100     -0.065126
      5.85534      1.69511     10.03837         0.041743     -0.024100     -0.065126
     10.25423      4.23112     10.05516         0.046780     -0.027008      0.014022
      4.39568      4.22332     10.03837         0.000000      0.048200     -0.065126
      7.32851      4.23112     10.05516        -0.046780     -0.027008      0.014022
     11.72126      6.76728     10.05636         0.007017      0.004051      0.008735
      5.86147      6.76728     10.05636        -0.007017      0.004051      0.008735
      8.79137      6.76486     10.05516         0.000000      0.054016      0.014022
      0.00000      0.00000     12.42937        -0.000000      0.000000      0.008535
      2.95945      0.04653     12.45339        -0.114140     -0.190703     -0.189277
      5.83191      0.04653     12.45339         0.114140     -0.190703     -0.189277
      1.52003      2.53970     12.45339        -0.222223     -0.003496     -0.189277
      7.27134      2.53970     12.45339         0.222223     -0.003496     -0.189277
      2.95626      5.02732     12.45339        -0.108084      0.194199     -0.189277
      5.83511      5.02732     12.45339         0.108084      0.194199     -0.189277
      8.79137      5.07570     12.43676        -0.000000      0.000000      0.029599
      4.39568      2.53785     12.21669        -0.000000      0.000000      1.136296
      4.39568      2.53785     13.96775        -0.000000     -0.000000     -0.008908
      4.39568      2.53785     14.93515        -0.000000     -0.000000     -0.003554
    total drift:                               -0.014831     -0.006343     -0.046467

  FREE ENERGIE OF THE ION-ELECTRON SYSTEM (eV)
  free  energy   TOTEN  =      -107.35901966 eV

  energy  without entropy=     -107.35901966  energy(sigma->0) =     -107.35901966

 stress matrix after NEB project (eV)
     -7.64805     -0.00000      0.00000
     -0.00000     -7.64805      0.00000
     -0.00000     -0.00000     -0.54077
  FORCES: max atom, RMS     0.008908    0.001556
  FORCE total and by dimension    0.009591    0.008908
  Stress total and by dimension   10.829493    7.648055
|           W    W    AA    RRRRR   N    N  II  N    N   GGGG   !!!           |
|           W    W   A  A   R    R  NN   N  II  NN   N  G    G  !!!           |
|           W    W  A    A  R    R  N N  N  II  N N  N  G       !!!           |
|           W WW W  AAAAAA  RRRRR   N  N N  II  N  N N  G  GGG   !            |
|           WW  WW  A    A  R   R   N   NN  II  N   NN  G    G                |
|           W    W  A    A  R    R  N    N  II  N    N   GGGG   !!!           |
|     Tetrahedron method does not include variations of the Fermi             |
|     occupations, so forces and stress will be inaccurate. We suggest        |
|     using a different smearing scheme ISMEAR = 1 or 2 for metals in         |
|     relaxations.                                                            |

 total charge

# of ion       s       p       d       tot
    1        0.421   0.200   9.177   9.798
    2        0.417   0.204   9.176   9.796
    3        0.417   0.204   9.176   9.796
    4        0.417   0.204   9.176   9.796
    5        0.417   0.203   9.176   9.796
    6        0.417   0.204   9.176   9.796
    7        0.417   0.204   9.176   9.796
    8        0.417   0.204   9.176   9.796
    9        0.414   0.204   9.177   9.795
   10        0.409   0.268   9.163   9.840
   11        0.405   0.270   9.167   9.842
   12        0.409   0.268   9.163   9.840
   13        0.405   0.270   9.167   9.842
   14        0.405   0.270   9.167   9.842
   15        0.402   0.270   9.165   9.837
   16        0.409   0.268   9.163   9.840
   17        0.402   0.270   9.165   9.837
   18        0.402   0.270   9.165   9.837
   19        0.403   0.265   9.167   9.835
   20        0.435   0.299   9.137   9.871
   21        0.435   0.299   9.137   9.871
   22        0.395   0.276   9.164   9.834
   23        0.435   0.299   9.137   9.871
   24        0.395   0.276   9.164   9.834
   25        0.403   0.265   9.167   9.835
   26        0.403   0.265   9.167   9.835
   27        0.395   0.276   9.164   9.834
   28        0.418   0.199   9.174   9.791
   29        0.424   0.212   9.170   9.806
   30        0.424   0.212   9.170   9.806
   31        0.424   0.212   9.170   9.806
   32        0.424   0.212   9.170   9.806
   33        0.424   0.212   9.170   9.806
   34        0.424   0.212   9.170   9.806
   35        0.412   0.203   9.174   9.788
   36        0.475   0.613   3.438   4.527
   37        1.562   3.535   0.000   5.097
   38        0.607   0.124   0.000   0.731
tot         17.119  12.717 324.281 354.117

 BZINTS: Fermi energy:    1.058551;  397.000000 electrons
         Band energy:-0.124451E+04;  BLOECHL correction:   -0.023304