 vasp.6.2.0 18Jan21 (build Jun 12 2021 23:27:24) complex

 executed on             LinuxIFC date 2022.05.28  01:19:55

 INCAR:
   ISMEAR = -5
   SIGMA = 0.1
   ISPIN = 1
   EDIFF = 1.d-5
   EDIFFG = -0.01
   NSW = 0
   NELM = 150
   ENCUT = 500
   ISIF = 2
   IBRION = 2
   LREAL = Auto
   ALGO = Fast
   ICHARG = 11
   LORBIT = 10
   LCHARG = .F.
   LWAVE = .F.

 POTCAR:    PAW_PBE Au 04Oct2007
 POTCAR:    PAW_PBE Pt 04Feb2005
 POTCAR:    PAW_PBE O 08Apr2002
 POTCAR:    PAW_PBE H 15Jun2001
|           W    W    AA    RRRRR   N    N  II  N    N   GGGG   !!!           |
|           W    W   A  A   R    R  NN   N  II  NN   N  G    G  !!!           |
|           W    W  A    A  R    R  N N  N  II  N N  N  G       !!!           |
|           W WW W  AAAAAA  RRRRR   N  N N  II  N  N N  G  GGG   !            |
|           WW  WW  A    A  R   R   N   NN  II  N   NN  G    G                |
|           W    W  A    A  R    R  N    N  II  N    N   GGGG   !!!           |
|     For optimal performance we recommend to set                             |
|       NCORE = 2 up to number-of-cores-per-socket                            |
|     This setting can greatly improve the performance of VASP for DFT.       |
|     The default, NCORE=1 might be grossly inefficient on modern             |
|     multi-core architectures or massively parallel machines. Do your        |
|     Unfortunately you need to use the default for GW and RPA                |
|     calculations (for HF NCORE is supported but not extensively tested      |
|     yet).                                                                   |

 POTCAR:    PAW_PBE Au 04Oct2007
   VRHFIN =Au: s1d10

   TITEL  = PAW_PBE Au 04Oct2007
   POMASS =  196.966; ZVAL   =   11.000    mass and valenz
   ENMAX  =  229.943; ENMIN  =  172.457 eV

 POTCAR:    PAW_PBE Pt 04Feb2005
   VRHFIN =Pt: s1d9

   TITEL  = PAW_PBE Pt 04Feb2005
   POMASS =  195.080; ZVAL   =   10.000    mass and valenz
   ENMAX  =  230.283; ENMIN  =  172.712 eV

 POTCAR:    PAW_PBE O 08Apr2002
   VRHFIN =O: s2p4

   TITEL  = PAW_PBE O 08Apr2002
   POMASS =   16.000; ZVAL   =    6.000    mass and valenz
   ENMAX  =  400.000; ENMIN  =  300.000 eV

 POTCAR:    PAW_PBE H 15Jun2001
   VRHFIN =H: ultrasoft test

   TITEL  = PAW_PBE H 15Jun2001
   POMASS =    1.000; ZVAL   =    1.000    mass and valenz
   ENMAX  =  250.000; ENMIN  =  200.000 eV

 Optimization of the real space projectors (new method)

 maximal supplied QI-value         = 15.12
 optimisation between [QCUT,QGAM] = [ 11.34, 22.83] = [ 36.00,145.93] Ry
 Optimized for a Real-space Cutoff    1.39 Angstroem

   l    n(q)    QCUT    max X(q) W(low)/X(q) W(high)/X(q)  e(spline)
   2      9    11.338    60.898    0.39E-03    0.42E-03    0.21E-06
   2      9    11.338    58.894    0.40E-03    0.42E-03    0.22E-06
   0      9    11.338   109.617    0.13E-03    0.20E-04    0.13E-06
   0      9    11.338    75.026    0.13E-03    0.20E-04    0.13E-06
   1      9    11.338    16.344    0.33E-04    0.24E-03    0.18E-06
   1      9    11.338    10.160    0.26E-04    0.19E-03    0.15E-06
 Optimization of the real space projectors (new method)

[...]

   l    n(q)    QCUT    max X(q) W(low)/X(q) W(high)/X(q)  e(spline)
   0      7    11.387    20.381    0.39E-03    0.13E-02    0.15E-06
   0      7    11.387    15.268    0.42E-03    0.14E-02    0.17E-06
   1      6    11.387     5.964    0.41E-03    0.11E-02    0.17E-06
   1      6    11.387     5.382    0.39E-03    0.87E-03    0.15E-06
 Optimization of the real space projectors (new method)

 maximal supplied QI-value         = 34.20
 optimisation between [QCUT,QGAM] = [ 11.29, 22.57] = [ 35.68,142.71] Ry
 Optimized for a Real-space Cutoff    1.16 Angstroem

   l    n(q)    QCUT    max X(q) W(low)/X(q) W(high)/X(q)  e(spline)
   0      8    11.287    19.460    0.40E-03    0.73E-03    0.16E-06
   0      8    11.287    12.209    0.38E-03    0.70E-03    0.15E-06
   1      7    11.287     4.655    0.22E-03    0.25E-04    0.22E-06
  PAW_PBE Au 04Oct2007                  :
  PAW_PBE Pt 04Feb2005                  :
  PAW_PBE O 08Apr2002                   :
  PAW_PBE H 15Jun2001                   :

 POSCAR: Au-Pt-OOH
  positions in direct lattice
  velocities in cartesian coordinates
 exchange correlation table for  LEXCH =        8
   RHO(1)=    0.500       N(1)  =     2000
   RHO(2)=  100.500       N(2)  =     4000

 VTST: version 3.2, (02/03/18)

 CHAIN: initializing optimizer

 OPT: Using VASP Conjugate-Gradient optimizer
 CHAIN: Read ICHAIN            0

 POSCAR: Au-Pt-OOH
  positions in direct lattice
  velocities in cartesian coordinates

 ion  position               nearest neighbor table
   1  0.000  0.000  0.204-  16 2.94  12 2.94   6 2.94   8 2.94   7 2.94   3 2.94  10 2.94   4 2.94
                             2 2.94
   2  0.333  0.000  0.204-   9 2.94  11 2.94  17 2.94  10 2.94   8 2.94   4 2.94   5 2.94   1 2.94
                             3 2.94
   3  0.667  0.000  0.204-   7 2.94  18 2.94  12 2.94   1 2.94  11 2.94   5 2.94   6 2.94   9 2.94
                             2 2.94
   4  0.000  0.333  0.204-  10 2.94   6 2.94   5 2.94  13 2.94   2 2.94  15 2.94   9 2.94   1 2.94
                             7 2.94
   5  0.333  0.333  0.204-  13 2.94   7 2.94  11 2.94   4 2.94   2 2.94  14 2.94   3 2.94   8 2.94
                             6 2.94
   6  0.667  0.333  0.204-  15 2.94  14 2.94   1 2.94  12 2.94   4 2.94   9 2.94   8 2.94   3 2.94
                             5 2.94
   7  0.000  0.667  0.204-  18 2.94   3 2.94  16 2.94   5 2.94   1 2.94  13 2.94   8 2.94   4 2.94
                             9 2.94
   8  0.333  0.667  0.204-   9 2.94  17 2.94   1 2.94   2 2.94  14 2.94  16 2.94   6 2.94   7 2.94
                             5 2.94
   9  0.667  0.667  0.204-   2 2.94   8 2.94  17 2.94   6 2.94  15 2.94   4 2.94   3 2.94  18 2.94
                             7 2.94
  10  0.111  0.111  0.296-  20 2.91  26 2.93  19 2.93  11 2.94  17 2.94   2 2.94   4 2.94   1 2.94
                            12 2.94  16 2.94  13 2.94  15 2.94
  11  0.444  0.111  0.296-  20 2.92  21 2.92  27 2.93  13 2.94   2 2.94  10 2.94  17 2.94   5 2.94
                             3 2.94  18 2.94  14 2.94  12 2.94
  12  0.778  0.111  0.296-  21 2.91  25 2.93  19 2.93  16 2.94  18 2.94   1 2.94  14 2.94  15 2.94
                             3 2.94   6 2.94  10 2.94  11 2.94
  13  0.111  0.444  0.296-  23 2.92  20 2.92  22 2.93   5 2.94  18 2.94  11 2.94   7 2.94   4 2.94
                            16 2.94  10 2.94  14 2.94  15 2.94
  14  0.444  0.444  0.296-  21 2.92  23 2.92  24 2.93  15 2.94   6 2.94  12 2.94   8 2.94  17 2.94
                             5 2.94  16 2.94  13 2.94  11 2.94
  15  0.778  0.444  0.296-  24 2.93  22 2.93  19 2.93  14 2.94   6 2.94  17 2.94  12 2.94   9 2.94
                             4 2.94  10 2.94  13 2.94  18 2.94
  16  0.111  0.778  0.296-  23 2.91  25 2.93  26 2.93  18 2.94  12 2.94   7 2.94   1 2.94   8 2.94
                            13 2.94  10 2.94  14 2.94  17 2.94
  17  0.444  0.778  0.296-  27 2.93  24 2.93  26 2.93   9 2.94  15 2.94   2 2.94  10 2.94  11 2.94
                             8 2.94  14 2.94  16 2.94  18 2.94
  18  0.778  0.778  0.296-  22 2.93  27 2.93  25 2.93  16 2.94   7 2.94  13 2.94  12 2.94   3 2.94
                            11 2.94   9 2.94  15 2.94  17 2.94
  19  0.889  0.222  0.389-  21 2.93  20 2.93  15 2.93  10 2.93  12 2.93  24 2.94  22 2.94  26 2.94
                            25 2.94  28 2.96  32 2.96  31 2.96
  20  0.221  0.221  0.388-  36 2.82  10 2.91  11 2.92  13 2.92  26 2.93  19 2.93  27 2.94  22 2.94
                            23 2.96  21 2.96  29 2.96  31 2.96
  21  0.557  0.221  0.388-  36 2.82  12 2.91  14 2.92  11 2.92  25 2.93  19 2.93  24 2.94  27 2.94
                            20 2.96  23 2.96  30 2.96  32 2.96
  22  0.888  0.556  0.388-  18 2.93  15 2.93  24 2.93  27 2.93  13 2.93  25 2.94  19 2.94  23 2.94
                            20 2.94  35 2.96  33 2.96  31 2.96
  23  0.221  0.557  0.388-  36 2.82  16 2.91  13 2.92  14 2.92  25 2.93  26 2.93  22 2.94  24 2.94
                            20 2.96  21 2.96  33 2.96  34 2.96
  24  0.556  0.556  0.388-  15 2.93  17 2.93  27 2.93  22 2.93  14 2.93  26 2.94  19 2.94  21 2.94
                            23 2.94  35 2.96  32 2.96  34 2.96
  25  0.889  0.889  0.389-  23 2.93  21 2.93  18 2.93  16 2.93  12 2.93  22 2.94  27 2.94  19 2.94
                            26 2.94  28 2.96  33 2.96  30 2.96
  26  0.222  0.889  0.389-  20 2.93  23 2.93  17 2.93  10 2.93  16 2.93  27 2.94  24 2.94  19 2.94
                            25 2.94  28 2.96  29 2.96  34 2.96
  27  0.556  0.888  0.388-  17 2.93  18 2.93  24 2.93  22 2.93  11 2.93  26 2.94  25 2.94  20 2.94
                            21 2.94  35 2.96  29 2.96  30 2.96
  28  0.000  0.000  0.482-  34 2.95  32 2.95  33 2.95  30 2.95  31 2.95  29 2.95  25 2.96  19 2.96
                            26 2.96
  29  0.333  0.002  0.482-  30 2.92  31 2.92  36 2.93  35 2.95  28 2.95  27 2.96  20 2.96  26 2.96
                            34 2.98
  30  0.664  0.002  0.482-  29 2.92  32 2.92  36 2.93  35 2.95  28 2.95  27 2.96  21 2.96  25 2.96
                            33 2.98
  31  0.002  0.333  0.482-  33 2.92  29 2.92  36 2.93  35 2.95  28 2.95  22 2.96  20 2.96  19 2.96
                            32 2.98
  32  0.664  0.333  0.482-  34 2.92  30 2.92  36 2.93  35 2.95  28 2.95  24 2.96  21 2.96  19 2.96
                            31 2.98
  33  0.002  0.664  0.482-  31 2.92  34 2.92  36 2.93  35 2.95  28 2.95  22 2.96  23 2.96  25 2.96
                            30 2.98
  34  0.333  0.664  0.482-  32 2.92  33 2.92  36 2.93  35 2.95  28 2.95  24 2.96  23 2.96  26 2.96
                            29 2.98
  35  0.667  0.667  0.482-  29 2.95  34 2.95  32 2.95  31 2.95  30 2.95  33 2.95  24 2.96  27 2.96
                            22 2.96
  36  0.333  0.333  0.474-  37 2.03  20 2.82  23 2.82  21 2.82  33 2.93  31 2.93  29 2.93  30 2.93
                            34 2.93  32 2.93
  37  0.309  0.343  0.553-  38 1.44  36 2.03
  38  0.471  0.237  0.580-  39 0.98  37 1.44
  39  0.513  0.321  0.585-  38 0.98

  LATTYP: Found a hexagonal cell.
 ALAT       =     8.8135128021
 C/A-ratio  =     2.9412617888

  Lattice vectors:

 A1 = (  -4.4067569092,  -7.6327256898,   0.0000000000)
 A2 = (   8.8135128021,   0.0000000000,   0.0000000000)
 A3 = (   0.0000000000,   0.0000000000,  25.9228484302)

Analysis of symmetry for initial positions (statically):
 Subroutine PRICEL returns:
 Original cell was already a primitive cell.

 Routine SETGRP: Setting up the symmetry group for a
 hexagonal supercell.

 Subroutine GETGRP returns: Found  1 space group operations
 (whereof  1 operations were pure point group operations)
 out of a pool of 24 trial point group operations.

The static configuration has the point symmetry C_1 .

Analysis of symmetry for dynamics (positions and initial velocities):
 Subroutine PRICEL returns:
 Original cell was already a primitive cell.

[...]

The dynamic configuration has the point symmetry C_1 .

Analysis of constrained symmetry for selective dynamics:
 Subroutine PRICEL returns:
[...]
     41      -5.3751      2.00000
     42      -5.2890      2.00000
     43      -5.2780      2.00000
     44      -5.2193      2.00000
     45      -5.1541      2.00000
     46      -5.1229      2.00000
     47      -5.0874      2.00000
     48      -5.0570      2.00000
     49      -5.0433      2.00000
     50      -5.0328      2.00000
     51      -4.9391      2.00000
     52      -4.8999      2.00000
     53      -4.8756      2.00000
     54      -4.8674      2.00000
     55      -4.8608      2.00000
     56      -4.8578      2.00000
     57      -4.8435      2.00000
     58      -4.7996      2.00000
     59      -4.7633      2.00000
     60      -4.7341      2.00000
[...]
    238       5.1944      0.00000
    239       5.3420      0.00000
    240       5.5169      0.00000
    241       5.6390      0.00000
    242       5.6810      0.00000
    243       5.7201      0.00000
    244       5.7569      0.00000
    245       5.8055      0.00000
    246       5.9830      0.00000
    247       6.0076      0.00000
    248       6.0589      0.00000
    249       6.1361      0.00000
    250       6.3147      0.00000
    251       6.3979      0.00000
    252       6.4779      0.00000

 soft charge-density along one line, spin component           1
         0         1         2         3         4         5         6         7         8         9
 total charge-density along one line

------------------------ aborting loop because EDIFF is reached ----------------------------------------

 total charge

# of ion       s       p       d       tot
    1        0.544   0.240   8.768   9.552
    2        0.545   0.240   8.765   9.550
    3        0.544   0.240   8.765   9.550
    4        0.545   0.240   8.764   9.550
    5        0.542   0.242   8.761   9.545
    6        0.545   0.241   8.765   9.550
    7        0.545   0.241   8.764   9.549
    8        0.545   0.241   8.764   9.550
    9        0.541   0.240   8.768   9.548
   10        0.520   0.309   8.768   9.597
   11        0.518   0.307   8.778   9.603
   12        0.518   0.310   8.768   9.596
   13        0.519   0.306   8.778   9.604
   14        0.519   0.307   8.778   9.603
   15        0.515   0.307   8.776   9.598
   16        0.520   0.309   8.768   9.597
   17        0.514   0.307   8.775   9.597
   18        0.515   0.307   8.776   9.598
   19        0.517   0.303   8.775   9.595
   20        0.530   0.321   8.758   9.610
   21        0.530   0.322   8.758   9.610
   22        0.513   0.305   8.773   9.590
   23        0.531   0.321   8.759   9.610
   24        0.513   0.304   8.776   9.592
   25        0.516   0.304   8.774   9.594
   26        0.517   0.304   8.773   9.593
   27        0.511   0.305   8.774   9.590
   28        0.542   0.231   8.770   9.544
   29        0.538   0.233   8.772   9.542
   30        0.535   0.234   8.769   9.538
   31        0.537   0.234   8.770   9.541
   32        0.547   0.238   8.767   9.551
   33        0.539   0.234   8.769   9.542
   34        0.540   0.236   8.769   9.544
   35        0.537   0.233   8.770   9.541
   36        0.594   0.454   8.010   9.059
   37        1.600   3.247   0.000   4.847
   38        1.591   3.393   0.000   4.984
   39        0.616   0.111   0.000   0.727
tot         22.947  16.799 314.935 354.681

  FORCE on cell =-STRESS in cart. coord.  units (eV):
  Direction    XX          YY          ZZ          XY          YZ          ZX
  Alpha Z   900.75655   900.75655   900.75655
  Ewald  176172.21656176080.54789************   -94.96087   -77.88000   120.25391
  Hartree184662.76222184619.14164************   -65.65935   -44.24674    60.11345
  E(xc)   -1834.42581 -1834.57467 -1841.02710    -0.02458    -0.13026     0.22578
  Local  ************************372944.05484   154.83647   113.27606  -164.24103
  n-local  -103.60049  -106.42923   -80.51496    -4.39640    -1.65360     1.92555
  augment  2433.14701  2434.46293  2445.03334     1.45124     1.06467    -1.45806
  Kinetic  5756.99355  5770.29294  5811.09742     8.47576     9.47681   -16.80168
  Fock        0.00000     0.00000     0.00000     0.00000     0.00000     0.00000
  Total     -20.39793   -20.72623     0.04722    -0.27774    -0.09307     0.01792
  in kB     -18.74068   -19.04231     0.04338    -0.25518    -0.08551     0.01647

 VOLUME and BASIS-vectors are now :
  energy-cutoff  :      500.00
  volume of cell :     1743.86
      direct lattice vectors                 reciprocal lattice vectors
     8.813512802  0.000000000  0.000000000     0.113462137 -0.065507406  0.000000000
     4.406756909  7.632725690  0.000000000     0.000000000  0.131014796  0.000000000
     0.000000000  0.000000000 25.922848430     0.000000000  0.000000000  0.038576008

  length of vectors
     8.813512802  8.813512802 25.922848430     0.131014796  0.131014796  0.038576008

 FORCES acting on ions
    electron-ion (+dipol)            ewald-force                    non-local-force                 convergence-correction
   -.753E-01 0.386E-01 0.280E+04   0.364E-01 -.248E-01 -.280E+04   0.257E-01 -.656E-02 -.877E+00   0.170E-01 -.844E-02 -.936E-01
   0.222E+00 0.397E+00 0.280E+04   -.295E+00 -.408E+00 -.280E+04   0.167E-01 0.187E-01 -.317E+00   0.506E-01 0.522E-02 -.137E+00
   -.161E+00 0.411E+00 0.280E+04   0.259E+00 -.436E+00 -.280E+04   -.364E-01 0.401E-01 -.361E+00   -.571E-01 -.406E-04 -.147E+00
   0.395E+00 -.296E-01 0.280E+04   -.461E+00 -.110E-01 -.280E+04   0.381E-01 -.378E-02 -.316E+00   0.395E-01 0.383E-01 -.136E+00
   0.515E-01 -.504E-01 0.281E+04   -.428E-01 0.393E-01 -.280E+04   -.412E-02 0.568E-02 -.323E+00   -.102E-01 0.102E-01 -.853E-01
   -.424E+00 -.949E-01 0.280E+04   0.504E+00 0.641E-02 -.280E+04   -.543E-01 0.248E-01 -.314E+00   -.357E-01 0.562E-01 -.134E+00
   0.200E+00 -.318E+00 0.280E+04   -.209E+00 0.401E+00 -.280E+04   0.339E-01 -.411E-01 -.316E+00   -.889E-02 -.513E-01 -.142E+00
   -.230E+00 -.359E+00 0.280E+04   0.202E+00 0.447E+00 -.280E+04   -.730E-02 -.405E-01 -.277E+00   0.190E-01 -.526E-01 -.139E+00
   0.143E-01 0.101E-01 0.280E+04   0.654E-02 -.141E-01 -.280E+04   -.114E-01 0.382E-03 -.566E+00   -.968E-02 -.249E-04 -.139E+00
   0.406E+01 0.237E+01 0.100E+04   -.374E+01 -.219E+01 -.100E+04   -.275E+00 -.147E+00 -.608E+00   -.896E-02 -.124E-01 -.167E+00
   0.364E+00 0.361E+01 0.101E+04   -.319E+00 -.366E+01 -.101E+04   -.374E-01 0.679E-01 -.319E+00   -.879E-02 -.532E-01 -.206E+00
   -.433E+01 0.246E+01 0.100E+04   0.406E+01 -.230E+01 -.100E+04   0.246E+00 -.150E+00 -.657E+00   -.114E-01 0.621E-02 -.173E+00
   0.322E+01 -.192E+01 0.101E+04   -.329E+01 0.196E+01 -.101E+04   0.855E-01 -.565E-01 -.291E+00   -.475E-01 0.299E-01 -.221E+00
   -.302E+01 -.221E+01 0.101E+04   0.305E+01 0.219E+01 -.101E+04   -.455E-01 -.890E-02 -.261E+00   0.588E-01 0.459E-01 -.205E+00
   -.294E+00 0.137E+00 0.100E+04   0.243E+00 -.217E+00 -.100E+04   0.302E-01 0.517E-02 -.399E+00   0.246E-01 0.628E-01 -.161E+00
   -.524E-01 -.457E+01 0.100E+04   0.661E-01 0.425E+01 -.100E+04   -.225E-01 0.288E+00 -.598E+00   0.907E-02 -.700E-02 -.165E+00
   0.349E+00 -.119E+00 0.100E+04   -.427E+00 0.142E+00 -.100E+04   0.252E-01 0.888E-02 -.381E+00   0.430E-01 -.203E-01 -.144E+00
   -.316E+00 0.241E+00 0.100E+04   0.361E+00 -.177E+00 -.100E+04   0.758E-02 -.152E-01 -.444E+00   -.418E-01 -.459E-01 -.164E+00
   -.241E+01 0.190E+01 -.832E+03   0.234E+01 -.208E+01 0.832E+03   0.307E-01 0.491E-01 0.612E+00   0.380E-01 0.104E+00 -.112E+00
   0.170E+02 0.792E+01 -.791E+03   -.165E+02 -.762E+01 0.791E+03   -.481E+00 -.269E+00 -.158E+00   0.412E-01 0.257E-01 0.428E-01
   -.148E+02 0.778E+01 -.786E+03   0.142E+02 -.744E+01 0.786E+03   0.496E+00 -.320E+00 -.260E+00   -.499E-01 0.454E-01 0.439E-01
   0.602E+01 -.344E+01 -.826E+03   -.621E+01 0.355E+01 0.826E+03   0.201E+00 -.112E+00 0.569E+00   -.469E-02 -.135E-01 -.122E+00
   0.104E+01 -.189E+02 -.792E+03   -.101E+01 0.182E+02 0.793E+03   -.200E-01 0.581E+00 -.200E+00   0.790E-02 -.373E-01 0.477E-01
   -.702E+01 -.543E+01 -.824E+03   0.727E+01 0.556E+01 0.824E+03   -.242E+00 -.142E+00 0.597E+00   -.176E-01 0.116E-01 -.127E+00
   -.333E+01 0.142E+01 -.832E+03   0.351E+01 -.127E+01 0.832E+03   -.955E-01 -.464E-01 0.634E+00   -.735E-01 -.863E-01 -.115E+00
   0.215E+01 -.705E+00 -.834E+03   -.227E+01 0.747E+00 0.834E+03   0.231E-01 0.114E-01 0.601E+00   0.791E-01 -.445E-01 -.134E+00
   0.126E+01 0.956E+01 -.823E+03   -.124E+01 -.981E+01 0.823E+03   0.148E-01 0.273E+00 0.621E+00   -.362E-01 -.101E-01 -.136E+00
   -.101E+02 0.644E+01 -.266E+04   0.101E+02 -.645E+01 0.266E+04   0.141E-02 0.277E-02 0.349E+00   0.124E-01 0.232E-02 0.752E-01
   0.441E+02 0.565E+02 -.263E+04   -.441E+02 -.568E+02 0.263E+04   -.571E-01 0.927E-01 0.622E+00   0.468E-01 0.468E-01 -.368E-01
   -.349E+02 0.766E+02 -.260E+04   0.350E+02 -.770E+02 0.260E+04   0.615E-01 0.182E+00 0.943E+00   -.601E-01 0.537E-01 -.210E-01
   0.591E+02 -.198E+01 -.264E+04   -.594E+02 0.205E+01 0.264E+04   -.136E-03 -.920E-01 0.637E+00   0.629E-01 0.434E-01 -.316E-01
   -.795E+02 -.121E+02 -.261E+04   0.797E+02 0.122E+02 0.261E+04   0.689E-01 -.155E+00 0.199E+00   -.842E-01 0.341E-01 -.149E-01
   0.278E+02 -.487E+02 -.264E+04   -.279E+02 0.489E+02 0.264E+04   0.529E-01 0.914E-01 0.568E+00   0.667E-02 -.979E-01 -.308E-01
   -.253E+02 -.601E+02 -.263E+04   0.255E+02 0.603E+02 0.263E+04   -.968E-01 0.560E-01 0.402E+00   -.250E-01 -.933E-01 -.272E-01
   -.175E+01 0.338E+01 -.266E+04   0.177E+01 -.334E+01 0.266E+04   -.302E-01 -.127E-01 0.383E+00   -.487E-03 -.229E-01 0.237E-02
   0.111E+02 -.142E+02 -.208E+04   -.111E+02 0.142E+02 0.208E+04   -.605E-01 0.117E-01 -.224E+00   0.115E-01 0.194E-01 -.171E+00
   0.157E+03 -.119E+03 -.169E+04   -.186E+03 0.140E+03 0.170E+04   0.287E+02 -.208E+02 -.510E+01   0.203E-01 0.145E-01 -.224E+00
   -.100E+03 0.145E+03 -.176E+04   0.915E+02 -.189E+03 0.177E+04   0.877E+01 0.440E+02 -.115E+02   0.844E-01 -.536E-01 -.178E-01
   -.784E+02 -.503E+02 -.294E+03   0.845E+02 0.554E+02 0.295E+03   -.610E+01 -.519E+01 -.123E+01   0.192E-01 0.692E-02 0.887E-03
   -.313E+02 -.181E+02 0.224E+02   -.142E-12 -.213E-12 -.119E-10   0.312E+02 0.182E+02 -.185E+02   0.100E+00 -.479E-01 -.387E+01

 POSITION                                       TOTAL-FORCE (eV/Angst)
      0.00000      0.00000      5.28038         0.003381     -0.001550     -0.051816
      2.93784      0.00000      5.28038        -0.006056      0.013295     -0.037612
      5.87568      0.00000      5.28038         0.003534      0.014651     -0.030436
      1.46892      2.54424      5.28038         0.011029     -0.006506     -0.031951
      4.40676      2.54424      5.28038        -0.006017      0.004452     -0.053835
      7.34459      2.54424      5.28038        -0.010915     -0.007832     -0.029584
      2.93784      5.08848      5.28038         0.015664     -0.009100     -0.030820
      5.87568      5.08848      5.28038        -0.016497     -0.005371     -0.028628
      8.81351      5.08848      5.28038        -0.000569     -0.004054     -0.043786
      1.46892      0.84808      7.67911         0.030203      0.013629      0.105803
      4.40676      0.84808      7.67911        -0.001321     -0.041464      0.043363
      7.34459      0.84808      7.67911        -0.035929      0.020344      0.103518
      2.93784      3.39232      7.67911        -0.034974      0.018925      0.055381
      5.87568      3.39232      7.67911         0.039129      0.019223      0.047761
      8.81351      3.39232      7.67911         0.003671     -0.011780      0.093136
      4.40676      5.93656      7.67911        -0.000063     -0.033603      0.109334
      7.34459      5.93656      7.67911        -0.010769      0.010589      0.094605
     10.28243      5.93656      7.67911         0.010086      0.002498      0.087794
      8.81351      1.69709     10.07334         0.002205     -0.025482     -0.008867
      2.92757      1.69024     10.04824         0.112361      0.055690     -0.013516
      5.88594      1.69024     10.04824        -0.110958      0.065995     -0.013419
     10.27700      4.24354     10.06671         0.010412     -0.013662      0.005269
      4.40676      4.25225     10.04824         0.014230     -0.122892     -0.026307
      7.35003      4.24354     10.06671        -0.012913      0.000426     -0.012731
     11.75055      6.78418     10.07334         0.012333      0.019666      0.006246
      5.87648      6.78418     10.07334        -0.018222      0.008265     -0.001169
      8.81351      6.77837     10.06671        -0.002448      0.014490      0.017986
      0.00000      0.00000     12.49905         0.008482     -0.000147     -0.063634
      2.94801      0.01573     12.49317        -0.096445     -0.178705     -0.153665
      5.86551      0.01573     12.49317         0.098836     -0.157623     -0.130116
      1.48763      2.54518     12.49317        -0.197770      0.015229     -0.160851
      7.32589      2.54518     12.49317         0.215998      0.014496     -0.165011
      2.94638      5.07181     12.49317        -0.101462      0.154590     -0.160386
      5.86714      5.07181     12.49317         0.102668      0.152589     -0.127061
      8.81351      5.08848     12.49660        -0.010062     -0.002235     -0.065258
      4.40676      2.54424     12.29817        -0.039608      0.010697      0.692130
      4.23440      2.61931     14.32442        -0.001960      0.000297     -0.016649
      5.19757      1.80901     15.02926         0.029423      0.004567      0.001540
      5.93345      2.44873     15.16835        -0.008688     -0.012598     -0.006758
    total drift:                                0.014156      0.013106     -0.015055

  FREE ENERGIE OF THE ION-ELECTRON SYSTEM (eV)
  free  energy   TOTEN  =      -126.63976611 eV

  energy  without entropy=     -126.63976611  energy(sigma->0) =     -126.63976611

 stress matrix after NEB project (eV)
    -20.39793     -0.27774      0.01792
     -0.27774    -20.72623     -0.09307
      0.01792     -0.09307      0.04722
  FORCES: max atom, RMS     0.029815    0.006097
  FORCE total and by dimension    0.038077    0.029423
  Stress total and by dimension   29.083100   20.726233
|           W    W    AA    RRRRR   N    N  II  N    N   GGGG   !!!           |
|           W    W   A  A   R    R  NN   N  II  NN   N  G    G  !!!           |
|           W    W  A    A  R    R  N N  N  II  N N  N  G       !!!           |
|           W WW W  AAAAAA  RRRRR   N  N N  II  N  N N  G  GGG   !            |
|           WW  WW  A    A  R   R   N   NN  II  N   NN  G    G                |
|           W    W  A    A  R    R  N    N  II  N    N   GGGG   !!!           |
|     Tetrahedron method does not include variations of the Fermi             |
|     occupations, so forces and stress will be inaccurate. We suggest        |
|     using a different smearing scheme ISMEAR = 1 or 2 for metals in         |
|     relaxations.                                                            |

 total charge

# of ion       s       p       d       tot
    1        0.544   0.240   8.768   9.552
    2        0.545   0.240   8.765   9.550
    3        0.544   0.240   8.765   9.550
    4        0.545   0.240   8.764   9.550
    5        0.542   0.242   8.761   9.545
    6        0.545   0.241   8.765   9.550
    7        0.545   0.241   8.764   9.549
    8        0.545   0.241   8.764   9.550
    9        0.541   0.240   8.768   9.548
   10        0.520   0.309   8.768   9.597
   11        0.518   0.307   8.778   9.603
   12        0.518   0.310   8.768   9.596
   13        0.519   0.306   8.778   9.604
   14        0.519   0.307   8.778   9.603
   15        0.515   0.307   8.776   9.598
   16        0.520   0.309   8.768   9.597
   17        0.514   0.307   8.775   9.597
   18        0.515   0.307   8.776   9.598
   19        0.517   0.303   8.775   9.595
   20        0.530   0.321   8.758   9.610
   21        0.530   0.322   8.758   9.610
   22        0.513   0.305   8.773   9.590
   23        0.531   0.321   8.759   9.610
   24        0.513   0.304   8.776   9.592
   25        0.516   0.304   8.774   9.594
   26        0.517   0.304   8.773   9.593
   27        0.511   0.305   8.774   9.590
   28        0.542   0.231   8.770   9.544
   29        0.538   0.233   8.772   9.542
   30        0.535   0.234   8.769   9.538
   31        0.537   0.234   8.770   9.541
   32        0.547   0.238   8.767   9.551
   33        0.539   0.234   8.769   9.542
   34        0.540   0.236   8.769   9.544
   35        0.537   0.233   8.770   9.541
   36        0.594   0.454   8.010   9.059
   37        1.600   3.247   0.000   4.847
   38        1.591   3.393   0.000   4.984
   39        0.616   0.111   0.000   0.727
tot         22.947  16.799 314.935 354.681

 BZINTS: Fermi energy:   -0.110485;  408.000000 electrons
         Band energy:-0.160979E+04;  BLOECHL correction:   -0.092327