 vasp.6.2.0 18Jan21 (build Jun 12 2021 23:27:24) complex

 executed on             LinuxIFC date 2022.05.27  05:19:30

 INCAR:
   ISMEAR = -5
   SIGMA = 0.1
   ISPIN = 1
   EDIFF = 1.d-5
   EDIFFG = -0.01
   NSW = 0
   NELM = 150
   ENCUT = 500
   ISIF = 2
   IBRION = 2
   LREAL = Auto
   ALGO = Fast
   ICHARG = 11
   LORBIT = 10
   LCHARG = .F.
   LWAVE = .F.

 POTCAR:    PAW_PBE Au 04Oct2007
 POTCAR:    PAW_PBE W 08Apr2002
 POTCAR:    PAW_PBE H 15Jun2001
|           W    W    AA    RRRRR   N    N  II  N    N   GGGG   !!!           |
|           W    W   A  A   R    R  NN   N  II  NN   N  G    G  !!!           |
|           W    W  A    A  R    R  N N  N  II  N N  N  G       !!!           |
|           W WW W  AAAAAA  RRRRR   N  N N  II  N  N N  G  GGG   !            |
|           WW  WW  A    A  R   R   N   NN  II  N   NN  G    G                |
|           W    W  A    A  R    R  N    N  II  N    N   GGGG   !!!           |
|     For optimal performance we recommend to set                             |
|       NCORE = 2 up to number-of-cores-per-socket                            |
|     This setting can greatly improve the performance of VASP for DFT.       |
|     The default, NCORE=1 might be grossly inefficient on modern             |
|     multi-core architectures or massively parallel machines. Do your        |
|     Unfortunately you need to use the default for GW and RPA                |
|     calculations (for HF NCORE is supported but not extensively tested      |
|     yet).                                                                   |

 POTCAR:    PAW_PBE Au 04Oct2007
   VRHFIN =Au: s1d10

   TITEL  = PAW_PBE Au 04Oct2007
   POMASS =  196.966; ZVAL   =   11.000    mass and valenz
   ENMAX  =  229.943; ENMIN  =  172.457 eV

 POTCAR:    PAW_PBE W 08Apr2002
   VRHFIN =W : 6s5d

   TITEL  = PAW_PBE W 08Apr2002
   POMASS =  183.850; ZVAL   =    6.000    mass and valenz
   ENMAX  =  223.057; ENMIN  =  167.293 eV

 POTCAR:    PAW_PBE H 15Jun2001
   VRHFIN =H: ultrasoft test

   TITEL  = PAW_PBE H 15Jun2001
   POMASS =    1.000; ZVAL   =    1.000    mass and valenz
   ENMAX  =  250.000; ENMIN  =  200.000 eV

 Optimization of the real space projectors (new method)

 maximal supplied QI-value         = 15.12
 optimisation between [QCUT,QGAM] = [ 11.34, 22.83] = [ 36.00,145.93] Ry
 Optimized for a Real-space Cutoff    1.39 Angstroem

   l    n(q)    QCUT    max X(q) W(low)/X(q) W(high)/X(q)  e(spline)
   2      9    11.338    60.898    0.39E-03    0.42E-03    0.21E-06
   2      9    11.338    58.894    0.40E-03    0.42E-03    0.22E-06
   0      9    11.338   109.617    0.13E-03    0.20E-04    0.13E-06
   0      9    11.338    75.026    0.13E-03    0.20E-04    0.13E-06
   1      9    11.338    16.344    0.33E-04    0.24E-03    0.18E-06
   1      9    11.338    10.160    0.26E-04    0.19E-03    0.15E-06
 Optimization of the real space projectors (new method)

[...]

   l    n(q)    QCUT    max X(q) W(low)/X(q) W(high)/X(q)  e(spline)
   2     10    11.429   130.855    0.22E-03    0.64E-03    0.11E-05
   2     10    11.429   114.007    0.22E-03    0.64E-03    0.11E-05
   0     11    11.429    84.709    0.39E-04    0.67E-04    0.23E-06
   0     11    11.429    49.163    0.35E-04    0.62E-04    0.21E-06
   1     10    11.429    15.765    0.84E-04    0.15E-03    0.24E-06
   1     10    11.429    10.638    0.58E-04    0.12E-03    0.19E-06
 Optimization of the real space projectors (new method)

 maximal supplied QI-value         = 34.20
 optimisation between [QCUT,QGAM] = [ 11.29, 22.57] = [ 35.68,142.71] Ry
 Optimized for a Real-space Cutoff    1.16 Angstroem

   l    n(q)    QCUT    max X(q) W(low)/X(q) W(high)/X(q)  e(spline)
   0      8    11.287    19.460    0.40E-03    0.73E-03    0.16E-06
   0      8    11.287    12.209    0.38E-03    0.70E-03    0.15E-06
   1      7    11.287     4.655    0.22E-03    0.25E-04    0.22E-06
  PAW_PBE Au 04Oct2007                  :
  PAW_PBE W 08Apr2002                   :
  PAW_PBE H 15Jun2001                   :

 POSCAR: Au-W-H2
  positions in direct lattice
  velocities in cartesian coordinates
 exchange correlation table for  LEXCH =        8
   RHO(1)=    0.500       N(1)  =     2000
   RHO(2)=  100.500       N(2)  =     4000

 VTST: version 3.2, (02/03/18)

 CHAIN: initializing optimizer

 OPT: Using VASP Conjugate-Gradient optimizer
 CHAIN: Read ICHAIN            0

 POSCAR: Au-W-H2
  positions in direct lattice
  velocities in cartesian coordinates

 ion  position               nearest neighbor table
   1  0.000  0.000  0.238-  16 2.94  12 2.94   6 2.94   8 2.94   7 2.94   3 2.94  10 2.94   4 2.94
                             2 2.94
   2  0.333  0.000  0.238-   9 2.94  11 2.94  17 2.94  10 2.94   8 2.94   4 2.94   5 2.94   1 2.94
                             3 2.94
   3  0.667  0.000  0.238-   7 2.94  18 2.94  12 2.94   1 2.94  11 2.94   5 2.94   6 2.94   9 2.94
                             2 2.94
   4  0.000  0.333  0.238-  10 2.94   6 2.94   5 2.94  13 2.94   2 2.94  15 2.94   9 2.94   1 2.94
                             7 2.94
   5  0.333  0.333  0.238-  13 2.94   7 2.94  11 2.94   4 2.94   2 2.94  14 2.94   3 2.94   8 2.94
                             6 2.94
   6  0.667  0.333  0.238-  15 2.94  14 2.94   1 2.94  12 2.94   4 2.94   9 2.94   8 2.94   3 2.94
                             5 2.94
   7  0.000  0.667  0.238-  18 2.94   3 2.94  16 2.94   5 2.94   1 2.94  13 2.94   8 2.94   4 2.94
                             9 2.94
   8  0.333  0.667  0.238-   9 2.94  17 2.94   1 2.94   2 2.94  14 2.94  16 2.94   6 2.94   7 2.94
                             5 2.94
   9  0.667  0.667  0.238-   2 2.94   8 2.94  17 2.94   6 2.94  15 2.94   4 2.94   3 2.94  18 2.94
                             7 2.94
  10  0.111  0.111  0.346-  20 2.90  11 2.94  17 2.94   2 2.94   4 2.94   1 2.94  12 2.94  16 2.94
                            13 2.94  15 2.94  26 2.96  19 2.96
  11  0.444  0.111  0.346-  20 2.91  21 2.91  13 2.94   2 2.94  10 2.94  17 2.94   5 2.94   3 2.94
                            18 2.94  14 2.94  12 2.94  27 2.94
  12  0.778  0.111  0.346-  21 2.90  16 2.94  18 2.94   1 2.94  14 2.94  15 2.94   3 2.94   6 2.94
                            10 2.94  11 2.94  25 2.96  19 2.96
  13  0.111  0.444  0.346-  23 2.91  20 2.91   5 2.94  18 2.94  11 2.94   7 2.94   4 2.94  16 2.94
                            10 2.94  14 2.94  15 2.94  22 2.94
  14  0.444  0.444  0.346-  21 2.91  23 2.91  15 2.94   6 2.94  12 2.94   8 2.94  17 2.94   5 2.94
                            16 2.94  13 2.94  11 2.94  24 2.94
  15  0.778  0.444  0.346-  24 2.92  22 2.92  14 2.94   6 2.94  17 2.94  12 2.94   9 2.94   4 2.94
                            10 2.94  13 2.94  18 2.94  19 2.95
  16  0.111  0.778  0.346-  23 2.90  18 2.94  12 2.94   7 2.94   1 2.94   8 2.94  13 2.94  10 2.94
                            14 2.94  17 2.94  25 2.96  26 2.96
  17  0.444  0.778  0.346-  27 2.92  24 2.92   9 2.94  15 2.94   2 2.94  10 2.94  11 2.94   8 2.94
                            14 2.94  16 2.94  18 2.94  26 2.95
  18  0.778  0.778  0.346-  22 2.92  27 2.92  16 2.94   7 2.94  13 2.94  12 2.94   3 2.94  11 2.94
                             9 2.94  15 2.94  17 2.94  25 2.95
  19  0.888  0.224  0.455-  24 2.93  22 2.93  21 2.93  20 2.93  28 2.94  15 2.95  26 2.96  25 2.96
                            10 2.96  12 2.96  32 3.04  31 3.04
  20  0.222  0.222  0.452-  36 2.74  10 2.90  11 2.91  13 2.91  26 2.93  19 2.93  23 2.95  21 2.95
                            27 2.96  22 2.96  29 2.98  31 2.98
  21  0.557  0.222  0.452-  36 2.74  12 2.90  14 2.91  11 2.91  25 2.93  19 2.93  20 2.95  23 2.95
                            27 2.96  24 2.96  30 2.98  32 2.98
  22  0.886  0.557  0.454-  24 2.90  27 2.90  18 2.92  15 2.92  25 2.93  19 2.93  13 2.94  35 2.95
                            23 2.96  20 2.96  33 3.02  31 3.02
  23  0.222  0.557  0.452-  36 2.74  16 2.90  13 2.91  14 2.91  25 2.93  26 2.93  20 2.95  21 2.95
                            22 2.96  24 2.96  33 2.98  34 2.98
  24  0.557  0.557  0.454-  27 2.90  22 2.90  15 2.92  17 2.92  26 2.93  19 2.93  14 2.94  35 2.95
                            21 2.96  23 2.96  32 3.02  34 3.02
  25  0.888  0.888  0.455-  22 2.93  27 2.93  23 2.93  21 2.93  28 2.94  18 2.95  19 2.96  26 2.96
                            16 2.96  12 2.96  33 3.04  30 3.04
  26  0.224  0.888  0.455-  27 2.93  24 2.93  20 2.93  23 2.93  28 2.94  17 2.95  19 2.96  25 2.96
                            10 2.96  16 2.96  29 3.04  34 3.04
  27  0.557  0.886  0.454-  24 2.90  22 2.90  17 2.92  18 2.92  26 2.93  25 2.93  11 2.94  35 2.95
                            20 2.96  21 2.96  29 3.02  30 3.02
  28  0.000  0.000  0.563-  25 2.94  19 2.94  26 2.94  34 3.00  32 3.00  33 3.00  30 3.00  31 3.00
                            29 3.00
  29  0.334  0.013  0.566-  30 2.82  31 2.82  36 2.84  20 2.98  35 3.00  28 3.00  27 3.02  26 3.04
                            34 3.17
  30  0.653  0.013  0.566-  29 2.82  32 2.82  36 2.84  21 2.98  35 3.00  28 3.00  27 3.02  25 3.04
                            33 3.17
  31  0.013  0.334  0.566-  33 2.82  29 2.82  36 2.84  20 2.98  35 3.00  28 3.00  22 3.02  19 3.04
                            32 3.17
  32  0.653  0.334  0.566-  34 2.82  30 2.82  36 2.84  21 2.98  35 3.00  28 3.00  24 3.02  19 3.04
                            31 3.17
  33  0.013  0.653  0.566-  31 2.82  34 2.82  36 2.84  23 2.98  35 3.00  28 3.00  22 3.02  25 3.04
                            30 3.17
  34  0.334  0.653  0.566-  32 2.82  33 2.82  36 2.84  23 2.98  35 3.00  28 3.00  24 3.02  26 3.04
                            29 3.17
  35  0.667  0.667  0.563-  24 2.95  27 2.95  22 2.95  29 3.00  34 3.00  32 3.00  31 3.00  30 3.00
                            33 3.00
  36  0.333  0.333  0.549-  38 1.82  37 1.82  20 2.74  23 2.74  21 2.74  33 2.84  31 2.84  29 2.84
                            30 2.84  34 2.84  32 2.84
  37  0.282  0.333  0.628-  36 1.82
  38  0.385  0.333  0.628-  36 1.82

  LATTYP: Found a hexagonal cell.
 ALAT       =     8.8135128021
 C/A-ratio  =     2.5184286595

  Lattice vectors:

 A1 = (  -4.4067569092,  -7.6327256898,   0.0000000000)
 A2 = (   8.8135128021,   0.0000000000,   0.0000000000)
 A3 = (   0.0000000000,   0.0000000000,  22.1962032318)

Analysis of symmetry for initial positions (statically):
 Subroutine PRICEL returns:
 Original cell was already a primitive cell.

 Routine SETGRP: Setting up the symmetry group for a
 hexagonal supercell.

 Subroutine GETGRP returns: Found  2 space group operations
 (whereof  2 operations were pure point group operations)
 out of a pool of 24 trial point group operations.

The static configuration has the point symmetry C_1h.

Analysis of symmetry for dynamics (positions and initial velocities):
 Subroutine PRICEL returns:
 Original cell was already a primitive cell.

[...]

The dynamic configuration has the point symmetry C_1h.

Analysis of constrained symmetry for selective dynamics:
 Subroutine PRICEL returns:
 Original cell was already a primitive cell.

 Routine SETGRP: Setting up the symmetry group for a
 hexagonal supercell.

 Subroutine GETGRP returns: Found  2 space group operations
[...]
     33      -4.6580      2.00000
     34      -4.6493      2.00000
     35      -4.6288      2.00000
     36      -4.6037      2.00000
     37      -4.5947      2.00000
     38      -4.4588      2.00000
     39      -4.4234      2.00000
     40      -4.3723      2.00000
     41      -4.3282      2.00000
     42      -4.3019      2.00000
     43      -4.2726      2.00000
     44      -4.2557      2.00000
     45      -4.2204      2.00000
     46      -4.1994      2.00000
     47      -4.1055      2.00000
     48      -4.0908      2.00000
     49      -4.0635      2.00000
     50      -4.0456      2.00000
     51      -4.0298      2.00000
     52      -4.0188      2.00000
     53      -3.9997      2.00000
     54      -3.9848      2.00000
     55      -3.9505      2.00000
     56      -3.9175      2.00000
     57      -3.9073      2.00000
     58      -3.8796      2.00000
     59      -3.8760      2.00000
     60      -3.8543      2.00000
[...]
    238       6.6984      0.00000
    239       6.7235      0.00000
    240       6.8251      0.00000
    241       6.9264      0.00000
    242       6.9313      0.00000
    243       7.0183      0.00000
    244       7.2266      0.00000
    245       7.3288      0.00000
    246       7.5613      0.00000
    247       7.5707      0.00000
    248       7.5943      0.00000
    249       7.7069      0.00000
    250       7.7209      0.00000
    251       7.8484      0.00000
    252       7.9207      0.00000

 soft charge-density along one line, spin component           1
         0         1         2         3         4         5         6         7         8         9
 total charge-density along one line

------------------------ aborting loop because EDIFF is reached ----------------------------------------

 total charge

# of ion       s       p       d       tot
    1        0.546   0.237   8.769   9.552
    2        0.542   0.241   8.764   9.548
    3        0.542   0.241   8.764   9.548
    4        0.544   0.240   8.765   9.550
    5        0.547   0.240   8.760   9.547
    6        0.544   0.240   8.765   9.550
    7        0.542   0.241   8.766   9.548
    8        0.542   0.241   8.766   9.548
    9        0.542   0.239   8.769   9.550
   10        0.526   0.307   8.765   9.599
   11        0.524   0.306   8.780   9.610
   12        0.526   0.307   8.765   9.599
   13        0.525   0.306   8.779   9.610
   14        0.525   0.306   8.779   9.610
   15        0.514   0.308   8.774   9.597
   16        0.529   0.307   8.763   9.598
   17        0.515   0.308   8.775   9.598
   18        0.515   0.308   8.775   9.598
   19        0.516   0.295   8.771   9.581
   20        0.571   0.346   8.729   9.646
   21        0.571   0.346   8.729   9.646
   22        0.505   0.306   8.779   9.590
   23        0.578   0.345   8.727   9.649
   24        0.505   0.306   8.779   9.590
   25        0.517   0.294   8.771   9.582
   26        0.517   0.294   8.771   9.582
   27        0.506   0.305   8.780   9.591
   28        0.538   0.224   8.759   9.521
   29        0.580   0.255   8.734   9.569
   30        0.580   0.255   8.734   9.569
   31        0.574   0.258   8.734   9.566
   32        0.574   0.258   8.734   9.566
   33        0.581   0.254   8.734   9.569
   34        0.581   0.254   8.734   9.569
   35        0.537   0.224   8.759   9.519
   36        0.561   0.534   3.965   5.059
   37        0.537   0.031   0.000   0.567
   38        0.537   0.031   0.000   0.567
tot         20.556  10.337 310.564 341.457

  FORCE on cell =-STRESS in cart. coord.  units (eV):
  Direction    XX          YY          ZZ          XY          YZ          ZX
  Alpha Z  1008.71593  1008.71593  1008.71593
  Ewald  117237.23479117219.54092************    -0.00032     0.04542    -0.00016
  Hartree125759.87613125757.32126************     0.00000     0.17555    -0.00004
  E(xc)   -1759.02269 -1759.03430 -1767.77003     0.00001     0.03851     0.00000
  Local  ************************255378.13572     0.00179    -0.05282     0.00012
  n-local   -63.97324   -62.60754   -35.73959     4.88166     0.09718     0.14885
  augment  2367.40036  2367.06318  2389.72415    -0.00129    -0.02603     0.00007
  Kinetic  5430.78792  5433.48944  5499.27761     1.59658    -0.31931     0.13508
  Fock        0.00000     0.00000     0.00000     0.00000     0.00000     0.00000
  Total     -22.25230   -22.33411     3.65620    -0.00000    -0.04150    -0.00000
  in kB     -23.87691   -23.96469     3.92313    -0.00000    -0.04453    -0.00000

 VOLUME and BASIS-vectors are now :
  energy-cutoff  :      500.00
  volume of cell :     1493.16
      direct lattice vectors                 reciprocal lattice vectors
     8.813512802  0.000000000  0.000000000     0.113462137 -0.065507406  0.000000000
     4.406756909  7.632725690  0.000000000     0.000000000  0.131014796  0.000000000
     0.000000000  0.000000000 22.196203232     0.000000000  0.000000000  0.045052750

  length of vectors
     8.813512802  8.813512802 22.196203232     0.131014796  0.131014796  0.045052750

 FORCES acting on ions
    electron-ion (+dipol)            ewald-force                    non-local-force                 convergence-correction
   -.199E-04 0.295E-02 0.246E+04   0.520E-04 -.227E-02 -.246E+04   0.158E-08 0.238E-01 -.962E+00   -.201E-03 -.295E-01 -.190E+00
   0.529E+00 -.110E+00 0.246E+04   -.713E+00 -.984E-01 -.246E+04   0.111E+00 0.152E+00 -.239E+00   0.642E-01 0.521E-01 -.221E+00
   -.529E+00 -.110E+00 0.246E+04   0.712E+00 -.984E-01 -.246E+04   -.111E+00 0.152E+00 -.239E+00   -.639E-01 0.541E-01 -.221E+00
   0.223E+00 0.575E+00 0.246E+04   -.440E+00 -.569E+00 -.246E+04   0.130E+00 -.141E-01 -.223E+00   0.909E-01 0.763E-02 -.193E+00
   0.743E-05 -.449E-01 0.246E+04   0.951E-04 0.335E-03 -.246E+04   0.120E-08 0.180E-01 0.915E-01   0.430E-02 0.227E-01 -.176E+00
   -.223E+00 0.575E+00 0.246E+04   0.439E+00 -.569E+00 -.246E+04   -.130E+00 -.141E-01 -.223E+00   -.925E-01 0.860E-02 -.192E+00
   -.461E+00 -.444E+00 0.246E+04   0.273E+00 0.667E+00 -.246E+04   0.114E+00 -.146E+00 -.255E+00   0.608E-01 -.686E-01 -.239E+00
   0.461E+00 -.444E+00 0.246E+04   -.273E+00 0.667E+00 -.246E+04   -.114E+00 -.146E+00 -.255E+00   -.589E-01 -.697E-01 -.238E+00
   0.197E-04 -.145E-01 0.246E+04   0.166E-03 0.197E-02 -.246E+04   -.813E-09 -.122E-01 -.586E+00   -.464E-02 0.259E-01 -.180E+00
   0.707E+01 0.414E+01 0.795E+03   -.666E+01 -.386E+01 -.794E+03   -.453E+00 -.262E+00 -.737E+00   0.267E-01 -.190E-01 -.736E-02
   0.145E-04 0.219E+01 0.800E+03   0.148E-03 -.226E+01 -.800E+03   0.371E-08 0.557E-01 -.590E-01   0.379E-02 -.386E-01 0.180E-01
   -.707E+01 0.414E+01 0.795E+03   0.666E+01 -.386E+01 -.794E+03   0.453E+00 -.262E+00 -.737E+00   -.280E-01 -.175E-01 -.772E-02
   0.181E+01 -.109E+01 0.800E+03   -.194E+01 0.114E+01 -.800E+03   0.808E-01 -.310E-01 -.162E+00   0.247E-02 0.178E-01 -.616E-02
   -.181E+01 -.109E+01 0.800E+03   0.194E+01 0.114E+01 -.800E+03   -.808E-01 -.310E-01 -.162E+00   0.535E-02 0.174E-01 -.627E-02
   0.316E-04 0.572E+01 0.800E+03   0.235E-03 -.587E+01 -.800E+03   0.183E-08 0.275E-01 -.533E+00   -.239E-02 0.356E-01 0.489E-01
   -.213E-04 -.824E+01 0.795E+03   0.163E-03 0.769E+01 -.794E+03   0.378E-07 0.568E+00 -.717E+00   0.296E-03 -.284E-02 -.241E-01
   0.496E+01 -.290E+01 0.800E+03   -.509E+01 0.294E+01 -.800E+03   0.378E-01 -.220E-01 -.551E+00   0.200E-01 0.792E-02 0.250E-01
   -.496E+01 -.290E+01 0.800E+03   0.509E+01 0.294E+01 -.800E+03   -.378E-01 -.220E-01 -.551E+00   -.200E-01 0.983E-02 0.247E-01
   -.440E-04 0.231E+01 -.896E+03   0.557E-04 -.242E+01 0.895E+03   0.823E-09 0.124E-01 0.592E+00   -.226E-03 0.811E-01 0.283E+00
   -.361E+01 -.214E+01 -.862E+03   0.474E+01 0.263E+01 0.863E+03   -.124E+01 -.581E+00 -.150E+01   0.591E-01 0.368E-01 0.377E+00
   0.361E+01 -.214E+01 -.862E+03   -.474E+01 0.263E+01 0.863E+03   0.124E+01 -.581E+00 -.150E+01   -.584E-01 0.388E-01 0.377E+00
   -.127E+02 0.724E+01 -.874E+03   0.122E+02 -.692E+01 0.873E+03   0.539E+00 -.329E+00 0.625E+00   0.787E-02 -.932E-02 0.258E+00
   -.995E-05 0.393E+01 -.862E+03   0.138E-03 -.532E+01 0.863E+03   0.103E-06 0.155E+01 -.165E+01   0.177E-02 -.771E-01 0.388E+00
   0.127E+02 0.724E+01 -.874E+03   -.122E+02 -.692E+01 0.873E+03   -.539E+00 -.329E+00 0.625E+00   -.147E-01 -.892E-02 0.258E+00
   -.193E+01 -.107E+01 -.896E+03   0.205E+01 0.112E+01 0.895E+03   -.173E-01 -.435E-02 0.543E+00   -.892E-01 -.387E-01 0.270E+00
   0.193E+01 -.107E+01 -.896E+03   -.205E+01 0.112E+01 0.895E+03   0.173E-01 -.435E-02 0.543E+00   0.911E-01 -.397E-01 0.271E+00
   0.113E-04 -.147E+02 -.874E+03   0.198E-03 0.141E+02 0.874E+03   0.435E-07 0.653E+00 0.589E+00   -.429E-02 0.194E-01 0.239E+00
   -.117E-04 0.414E+00 -.245E+04   0.289E-04 -.418E+00 0.245E+04   -.204E-08 -.307E-01 0.577E+00   0.136E-02 0.196E-01 0.304E+00
   0.108E+02 0.160E+02 -.246E+04   -.960E+01 -.143E+02 0.246E+04   -.136E+01 -.195E+01 -.256E+00   0.943E-01 0.148E+00 0.206E+00
   -.108E+02 0.160E+02 -.246E+04   0.960E+01 -.143E+02 0.246E+04   0.136E+01 -.195E+01 -.256E+00   -.100E+00 0.150E+00 0.207E+00
   0.203E+02 0.186E+01 -.246E+04   -.184E+02 -.179E+01 0.246E+04   -.222E+01 -.801E-01 0.156E-01   0.162E+00 0.228E-01 0.232E+00
   -.203E+02 0.186E+01 -.246E+04   0.184E+02 -.179E+01 0.246E+04   0.222E+01 -.801E-01 0.156E-01   -.169E+00 0.239E-01 0.231E+00
   0.729E+01 -.178E+02 -.246E+04   -.629E+01 0.161E+02 0.246E+04   -.113E+01 0.203E+01 -.237E+00   0.574E-01 -.173E+00 0.223E+00
   -.729E+01 -.178E+02 -.246E+04   0.629E+01 0.161E+02 0.246E+04   0.113E+01 0.203E+01 -.237E+00   -.616E-01 -.173E+00 0.222E+00
   0.346E-04 -.402E+00 -.245E+04   0.141E-03 0.371E+00 0.245E+04   0.487E-08 0.732E-01 0.642E+00   -.352E-02 -.300E-01 0.266E+00
   -.215E-04 -.197E+00 -.122E+04   0.638E-04 0.155E+00 0.122E+04   0.293E-08 0.440E-01 0.106E+00   0.115E-02 -.229E-02 0.157E+00
   0.122E+02 -.374E-01 -.266E+03   -.152E+02 0.249E-01 0.267E+03   0.297E+01 0.766E-02 -.146E+01   -.736E-03 -.812E-03 -.232E-01
   -.122E+02 -.374E-01 -.266E+03   0.152E+02 0.249E-01 0.267E+03   -.297E+01 0.766E-02 -.146E+01   0.928E-03 -.799E-03 -.233E-01
   -.807E-03 -.530E+00 0.822E+01   -.249E-13 -.408E-13 0.114E-11   0.354E-07 0.531E+00 -.108E+02   -.169E-01 0.658E-03 0.294E+01

 POSITION                                       TOTAL-FORCE (eV/Angst)
      0.00000      0.00000      5.28038        -0.000000     -0.005029     -0.174798
      2.93784      0.00000      5.28038        -0.009104     -0.003467     -0.070297
      5.87568      0.00000      5.28038         0.009104     -0.003467     -0.070297
      1.46892      2.54424      5.28038         0.005223     -0.000148     -0.083932
      4.40676      2.54424      5.28038        -0.000000     -0.003906     -0.125414
      7.34459      2.54424      5.28038        -0.005223     -0.000148     -0.083932
      2.93784      5.08848      5.28038        -0.013335      0.008591     -0.065672
      5.87568      5.08848      5.28038         0.013335      0.008591     -0.065672
      8.81351      5.08848      5.28038         0.000000      0.001093     -0.094671
      1.46892      0.84808      7.67911        -0.014089     -0.001207      0.156697
      4.40676      0.84808      7.67911        -0.000000     -0.057427      0.009058
      7.34459      0.84808      7.67911         0.014089     -0.001207      0.156697
      2.93784      3.39232      7.67911        -0.051308      0.032842      0.007401
      5.87568      3.39232      7.67911         0.051308      0.032842      0.007401
      8.81351      3.39232      7.67911        -0.000000     -0.084909      0.103944
      4.40676      5.93656      7.67911         0.000000      0.015792      0.151867
      7.34459      5.93656      7.67911        -0.067911      0.033886      0.102632
     10.28243      5.93656      7.67911         0.067911      0.033886      0.102632
      8.81351      1.70807     10.10081        -0.000000     -0.018192      0.056031
      2.93151      1.69251     10.04012        -0.050117     -0.049737     -0.175925
      5.88200      1.69251     10.04012         0.050117     -0.049737     -0.175925
     10.26425      4.25090     10.06644         0.024466     -0.012462      0.021798
      4.40676      4.24770     10.04012         0.000000      0.083634     -0.125333
      7.36277      4.25090     10.06644        -0.024466     -0.012462      0.021798
     11.74104      6.77869     10.10081         0.015436      0.010227      0.033008
      5.88599      6.77869     10.10081        -0.015436      0.010227      0.033008
      8.81351      6.76365     10.06644         0.000000      0.035421      0.018223
      0.00000      0.00000     12.49922        -0.000000     -0.015001     -0.070478
      2.99894      0.10048     12.55446        -0.053792     -0.130302     -0.063242
      5.81457      0.10048     12.55446         0.053792     -0.130302     -0.063242
      1.58649      2.54692     12.55446        -0.132807      0.009089     -0.036732
      7.22703      2.54692     12.55446         0.132807      0.009089     -0.036732
      2.99430      4.98533     12.55446        -0.067693      0.127110     -0.067341
      5.81921      4.98533     12.55446         0.067693      0.127110     -0.067341
      8.81351      5.08848     12.49869         0.000000      0.011436     -0.014171
      4.40676      2.54424     12.18560        -0.000000     -0.000434      0.746610
      3.95277      2.53856     13.95019         0.012879     -0.005662      0.001169
      4.86075      2.53856     13.95019        -0.012879     -0.005662      0.001169
    total drift:                               -0.017736      0.001971      0.374210

  FREE ENERGIE OF THE ION-ELECTRON SYSTEM (eV)
  free  energy   TOTEN  =      -124.54762494 eV

  energy  without entropy=     -124.54762494  energy(sigma->0) =     -124.54762494

 stress matrix after NEB project (eV)
    -22.25230     -0.00000     -0.00000
     -0.00000    -22.33411     -0.04150
     -0.00000     -0.04150      3.65620
  FORCES: max atom, RMS     0.014117    0.003239
  FORCE total and by dimension    0.019964    0.012879
  Stress total and by dimension   31.738757   22.334111
|           W    W    AA    RRRRR   N    N  II  N    N   GGGG   !!!           |
|           W    W   A  A   R    R  NN   N  II  NN   N  G    G  !!!           |
|           W    W  A    A  R    R  N N  N  II  N N  N  G       !!!           |
|           W WW W  AAAAAA  RRRRR   N  N N  II  N  N N  G  GGG   !            |
|           WW  WW  A    A  R   R   N   NN  II  N   NN  G    G                |
|           W    W  A    A  R    R  N    N  II  N    N   GGGG   !!!           |
|     Tetrahedron method does not include variations of the Fermi             |
|     occupations, so forces and stress will be inaccurate. We suggest        |
|     using a different smearing scheme ISMEAR = 1 or 2 for metals in         |
|     relaxations.                                                            |

 total charge

# of ion       s       p       d       tot
    1        0.546   0.237   8.769   9.552
    2        0.542   0.241   8.764   9.548
    3        0.542   0.241   8.764   9.548
    4        0.544   0.240   8.765   9.550
    5        0.547   0.240   8.760   9.547
    6        0.544   0.240   8.765   9.550
    7        0.542   0.241   8.766   9.548
    8        0.542   0.241   8.766   9.548
    9        0.542   0.239   8.769   9.550
   10        0.526   0.307   8.765   9.599
   11        0.524   0.306   8.780   9.610
   12        0.526   0.307   8.765   9.599
   13        0.525   0.306   8.779   9.610
   14        0.525   0.306   8.779   9.610
   15        0.514   0.308   8.774   9.597
   16        0.529   0.307   8.763   9.598
   17        0.515   0.308   8.775   9.598
   18        0.515   0.308   8.775   9.598
   19        0.516   0.295   8.771   9.581
   20        0.571   0.346   8.729   9.646
   21        0.571   0.346   8.729   9.646
   22        0.505   0.306   8.779   9.590
   23        0.578   0.345   8.727   9.649
   24        0.505   0.306   8.779   9.590
   25        0.517   0.294   8.771   9.582
   26        0.517   0.294   8.771   9.582
   27        0.506   0.305   8.780   9.591
   28        0.538   0.224   8.759   9.521
   29        0.580   0.255   8.734   9.569
   30        0.580   0.255   8.734   9.569
   31        0.574   0.258   8.734   9.566
   32        0.574   0.258   8.734   9.566
   33        0.581   0.254   8.734   9.569
   34        0.581   0.254   8.734   9.569
   35        0.537   0.224   8.759   9.519
   36        0.561   0.534   3.965   5.059
   37        0.537   0.031   0.000   0.567
   38        0.537   0.031   0.000   0.567
tot         20.556  10.337 310.564 341.457

 BZINTS: Fermi energy:    0.786987;  393.000000 electrons
         Band energy:-0.117019E+04;  BLOECHL correction:   -0.037684