 vasp.6.2.0 18Jan21 (build Jun 12 2021 23:27:24) complex

 executed on             LinuxIFC date 2022.05.27  05:46:28

 INCAR:
   ISMEAR = -5
   SIGMA = 0.1
   ISPIN = 1
   EDIFF = 1.d-5
   EDIFFG = -0.01
   NSW = 0
   NELM = 150
   ENCUT = 500
   ISIF = 2
   IBRION = 2
   LREAL = Auto
   ALGO = Fast
   ICHARG = 11
   LORBIT = 10
   LCHARG = .F.
   LWAVE = .F.

 POTCAR:    PAW_PBE Ag 02Apr2005
 POTCAR:    PAW_PBE Pd 04Jan2005
 POTCAR:    PAW_PBE N 08Apr2002
|           W    W    AA    RRRRR   N    N  II  N    N   GGGG   !!!           |
|           W    W   A  A   R    R  NN   N  II  NN   N  G    G  !!!           |
|           W    W  A    A  R    R  N N  N  II  N N  N  G       !!!           |
|           W WW W  AAAAAA  RRRRR   N  N N  II  N  N N  G  GGG   !            |
|           WW  WW  A    A  R   R   N   NN  II  N   NN  G    G                |
|           W    W  A    A  R    R  N    N  II  N    N   GGGG   !!!           |
|     For optimal performance we recommend to set                             |
|       NCORE = 2 up to number-of-cores-per-socket                            |
|     This setting can greatly improve the performance of VASP for DFT.       |
|     The default, NCORE=1 might be grossly inefficient on modern             |
|     multi-core architectures or massively parallel machines. Do your        |
|     Unfortunately you need to use the default for GW and RPA                |
|     calculations (for HF NCORE is supported but not extensively tested      |
|     yet).                                                                   |

 POTCAR:    PAW_PBE Ag 02Apr2005
   VRHFIN =Ag : s1 d10

   TITEL  = PAW_PBE Ag 02Apr2005
   POMASS =  107.868; ZVAL   =   11.000    mass and valenz
   ENMAX  =  249.844; ENMIN  =  187.383 eV

 POTCAR:    PAW_PBE Pd 04Jan2005
   VRHFIN =Pd : s1 d9

   TITEL  = PAW_PBE Pd 04Jan2005
   POMASS =  106.420; ZVAL   =   10.000    mass and valenz
   ENMAX  =  250.925; ENMIN  =  188.194 eV

 POTCAR:    PAW_PBE N 08Apr2002
   VRHFIN =N: s2p3

   TITEL  = PAW_PBE N 08Apr2002
   POMASS =   14.001; ZVAL   =    5.000    mass and valenz
   ENMAX  =  400.000; ENMIN  =  300.000 eV

 Optimization of the real space projectors (new method)

 maximal supplied QI-value         = 15.12
 optimisation between [QCUT,QGAM] = [ 11.34, 22.83] = [ 36.00,145.93] Ry
 Optimized for a Real-space Cutoff    1.43 Angstroem

   l    n(q)    QCUT    max X(q) W(low)/X(q) W(high)/X(q)  e(spline)
   2      9    11.338    53.897    0.16E-03    0.20E-03    0.28E-06
   2      9    11.338    52.416    0.16E-03    0.20E-03    0.29E-06
   0     10    11.338   122.045    0.31E-04    0.76E-04    0.15E-06
   0     10    11.338    73.629    0.30E-04    0.72E-04    0.15E-06
   1      9    11.338    15.255    0.20E-03    0.19E-04    0.17E-06
   1      9    11.338     9.562    0.16E-03    0.15E-04    0.14E-06
 Optimization of the real space projectors (new method)

[...]

   l    n(q)    QCUT    max X(q) W(low)/X(q) W(high)/X(q)  e(spline)
   2      9    11.346    59.108    0.74E-04    0.81E-04    0.26E-06
   2      9    11.346    58.101    0.74E-04    0.83E-04    0.27E-06
   0     10    11.346   102.235    0.26E-04    0.31E-04    0.16E-06
   0     10    11.346    58.388    0.23E-04    0.29E-04    0.15E-06
   1     10    11.346    22.191    0.23E-03    0.26E-03    0.14E-06
   1     10    11.346    15.590    0.19E-03    0.22E-03    0.12E-06
 Optimization of the real space projectors (new method)

 maximal supplied QI-value         = 25.13
 optimisation between [QCUT,QGAM] = [ 11.31, 22.87] = [ 35.82,146.48] Ry
 Optimized for a Real-space Cutoff    1.27 Angstroem

   l    n(q)    QCUT    max X(q) W(low)/X(q) W(high)/X(q)  e(spline)
   0      9    11.310    79.467    0.75E-04    0.16E-03    0.36E-06
   0      9    11.310    66.151    0.74E-04    0.16E-03    0.36E-06
   1      8    11.310    17.416    0.35E-03    0.12E-03    0.95E-06
   1      8    11.310    12.382    0.37E-03    0.13E-03    0.98E-06
  PAW_PBE Ag 02Apr2005                  :
  PAW_PBE Pd 04Jan2005                  :
  PAW_PBE N 08Apr2002                   :

 POSCAR: Ag-Pd-N2
  positions in direct lattice
  velocities in cartesian coordinates
 exchange correlation table for  LEXCH =        8
   RHO(1)=    0.500       N(1)  =     2000
   RHO(2)=  100.500       N(2)  =     4000

 VTST: version 3.2, (02/03/18)

 CHAIN: initializing optimizer

 OPT: Using VASP Conjugate-Gradient optimizer
 CHAIN: Read ICHAIN            0

 POSCAR: Ag-Pd-N2
  positions in direct lattice
  velocities in cartesian coordinates

 ion  position               nearest neighbor table
   1  0.000  0.000  0.216-   2 2.93   8 2.93   7 2.93   6 2.93   4 2.93  12 2.93  16 2.93  10 2.93
                             3 2.93
   2  0.333  0.000  0.216-   1 2.93   8 2.93   9 2.93   3 2.93   4 2.93   5 2.93  10 2.93  17 2.93
                            11 2.93
   3  0.667  0.000  0.216-   9 2.93   2 2.93   5 2.93  11 2.93   7 2.93  18 2.93   1 2.93   6 2.93
                            12 2.93
   4  0.000  0.333  0.216-   5 2.93   6 2.93   2 2.93   1 2.93   7 2.93  13 2.93  15 2.93   9 2.93
                            10 2.93
   5  0.333  0.333  0.216-   4 2.93   3 2.93   7 2.93   2 2.93   8 2.93  14 2.93  13 2.93  11 2.93
                             6 2.93
   6  0.667  0.333  0.216-   4 2.93   9 2.93   1 2.93  15 2.93   8 2.93  12 2.93   3 2.93   5 2.93
                            14 2.93
   7  0.000  0.667  0.216-   8 2.93   1 2.93   5 2.93   3 2.93   4 2.93  16 2.93  18 2.93  13 2.93
                             9 2.93
   8  0.333  0.667  0.216-   7 2.93   1 2.93   2 2.93   9 2.93   5 2.93  16 2.93   6 2.93  17 2.93
                            14 2.93
   9  0.667  0.667  0.216-   3 2.93   2 2.93   8 2.93   6 2.93  17 2.93   4 2.93  15 2.93   7 2.93
                            18 2.93
  10  0.111  0.111  0.313-  20 2.91  19 2.92  26 2.92  12 2.93  16 2.93  15 2.93  17 2.93  13 2.93
                            11 2.93   2 2.93   1 2.93   4 2.93
  11  0.444  0.111  0.313-  21 2.91  20 2.91  27 2.91  14 2.93  17 2.93  18 2.93   3 2.93  12 2.93
                            13 2.93  10 2.93   5 2.93   2 2.93
  12  0.778  0.111  0.313-  21 2.91  25 2.92  19 2.92  10 2.93  16 2.93  18 2.93  15 2.93  11 2.93
                             1 2.93  14 2.93   6 2.93   3 2.93
  13  0.111  0.444  0.313-  20 2.91  23 2.91  22 2.91  15 2.93  14 2.93  18 2.93  10 2.93  11 2.93
                            16 2.93   4 2.93   5 2.93   7 2.93
  14  0.444  0.444  0.313-  23 2.91  21 2.91  24 2.91  13 2.93  11 2.93  16 2.93   5 2.93  12 2.93
                            17 2.93   8 2.93  15 2.93   6 2.93
  15  0.778  0.444  0.313-  24 2.91  22 2.91  19 2.92  13 2.93  10 2.93  12 2.93  17 2.93  18 2.93
                             4 2.93   6 2.93   9 2.93  14 2.93
  16  0.111  0.778  0.313-  23 2.91  26 2.92  25 2.92  18 2.93  12 2.93  10 2.93  14 2.93  17 2.93
                            13 2.93   7 2.93   8 2.93   1 2.93
  17  0.444  0.778  0.313-  27 2.91  24 2.91  26 2.92  11 2.93  10 2.93   9 2.93  18 2.93  15 2.93
                            16 2.93   2 2.93  14 2.93   8 2.93
  18  0.778  0.778  0.313-  22 2.91  27 2.91  25 2.92  16 2.93  12 2.93  13 2.93  11 2.93  17 2.93
                            15 2.93   7 2.93   3 2.93   9 2.93
  19  0.889  0.223  0.410-  28 2.91  15 2.92  10 2.92  12 2.92  32 2.92  31 2.92  20 2.93  21 2.93
                            24 2.93  22 2.93  26 2.93  25 2.93
  20  0.222  0.222  0.410-  36 2.81  10 2.91  13 2.91  11 2.91  31 2.91  29 2.91  19 2.93  26 2.93
                            27 2.93  22 2.93  21 2.94  23 2.94
  21  0.556  0.222  0.410-  36 2.81  12 2.91  11 2.91  14 2.91  30 2.91  32 2.91  25 2.93  19 2.93
                            27 2.93  24 2.93  20 2.94  23 2.94
  22  0.889  0.556  0.410-  35 2.91  18 2.91  15 2.91  13 2.91  33 2.92  31 2.92  25 2.93  19 2.93
                            24 2.93  27 2.93  23 2.93  20 2.93
  23  0.222  0.556  0.410-  36 2.81  16 2.91  14 2.91  13 2.91  34 2.91  33 2.91  26 2.93  25 2.93
                            22 2.93  24 2.93  21 2.94  20 2.94
  24  0.556  0.556  0.410-  35 2.91  15 2.91  17 2.91  14 2.91  32 2.92  34 2.92  19 2.93  26 2.93
                            27 2.93  22 2.93  23 2.93  21 2.93
  25  0.889  0.889  0.410-  28 2.91  18 2.92  16 2.92  12 2.92  33 2.92  30 2.92  23 2.93  21 2.93
                            22 2.93  27 2.93  26 2.93  19 2.93
  26  0.223  0.889  0.410-  28 2.91  17 2.92  16 2.92  10 2.92  34 2.92  29 2.92  23 2.93  20 2.93
                            27 2.93  24 2.93  25 2.93  19 2.93
  27  0.556  0.889  0.410-  35 2.91  17 2.91  18 2.91  11 2.91  29 2.92  30 2.92  26 2.93  25 2.93
                            24 2.93  22 2.93  20 2.93  21 2.93
  28  0.000  0.000  0.507-  26 2.91  25 2.91  19 2.91  29 2.94  34 2.94  33 2.94  32 2.94  31 2.94
                            30 2.94
  29  0.333  0.003  0.507-  30 2.91  31 2.91  36 2.91  20 2.91  27 2.92  26 2.92  35 2.94  28 2.94
                            34 2.98
  30  0.664  0.003  0.507-  29 2.91  32 2.91  36 2.91  21 2.91  27 2.92  25 2.92  35 2.94  28 2.94
                            33 2.98
  31  0.003  0.333  0.507-  33 2.91  29 2.91  36 2.91  20 2.91  22 2.92  19 2.92  35 2.94  28 2.94
                            32 2.98
  32  0.664  0.333  0.507-  34 2.91  30 2.91  36 2.91  21 2.91  24 2.92  19 2.92  35 2.94  28 2.94
                            31 2.98
  33  0.003  0.664  0.507-  31 2.91  34 2.91  36 2.91  23 2.91  22 2.92  25 2.92  35 2.94  28 2.94
                            30 2.98
  34  0.333  0.664  0.507-  32 2.91  33 2.91  36 2.91  23 2.91  24 2.92  26 2.92  35 2.94  28 2.94
                            29 2.98
  35  0.667  0.667  0.507-  24 2.91  27 2.91  22 2.91  30 2.94  29 2.94  32 2.94  34 2.94  31 2.94
                            33 2.94
  36  0.333  0.333  0.501-  21 2.81  20 2.81  23 2.81  31 2.91  33 2.91  30 2.91  29 2.91  34 2.91
                            32 2.91
  37  0.271  0.332  0.678-  38 1.11
  38  0.397  0.332  0.678-  37 1.11

  LATTYP: Found a hexagonal cell.
 ALAT       =     8.7913665772
 C/A-ratio  =     2.7873878180

  Lattice vectors:

 A1 = (  -4.3956832886,  -7.6135467898,   0.0000000000)
 A2 = (   8.7913665771,   0.0000000000,   0.0000000000)
 A3 = (   0.0000000000,   0.0000000000,  24.5049481011)

Analysis of symmetry for initial positions (statically):
 Subroutine PRICEL returns:
 Original cell was already a primitive cell.

 Routine SETGRP: Setting up the symmetry group for a
 hexagonal supercell.

 Subroutine GETGRP returns: Found  2 space group operations
 (whereof  2 operations were pure point group operations)
 out of a pool of 24 trial point group operations.

The static configuration has the point symmetry C_1h.

Analysis of symmetry for dynamics (positions and initial velocities):
 Subroutine PRICEL returns:
 Original cell was already a primitive cell.

[...]

The dynamic configuration has the point symmetry C_1h.

Analysis of constrained symmetry for selective dynamics:
 Subroutine PRICEL returns:
 Original cell was already a primitive cell.

 Routine SETGRP: Setting up the symmetry group for a
 hexagonal supercell.

[...]
     33      -4.9320      2.00000
     34      -4.9078      2.00000
     35      -4.9029      2.00000
     36      -4.8979      2.00000
     37      -4.8718      2.00000
     38      -4.8165      2.00000
     39      -4.7992      2.00000
     40      -4.7695      2.00000
     41      -4.7614      2.00000
     42      -4.7375      2.00000
     43      -4.7104      2.00000
     44      -4.6989      2.00000
     45      -4.6930      2.00000
     46      -4.6722      2.00000
     47      -4.6610      2.00000
     48      -4.5881      2.00000
     49      -4.5557      2.00000
     50      -4.5541      2.00000
     51      -4.5435      2.00000
     52      -4.5364      2.00000
     53      -4.5313      2.00000
     54      -4.5208      2.00000
     55      -4.5077      2.00000
     56      -4.4841      2.00000
     57      -4.4808      2.00000
     58      -4.4198      2.00000
     59      -4.4125      2.00000
     60      -4.4047      2.00000
[...]
    242       5.9167      0.00000
    243       5.9436      0.00000
    244       6.0168      0.00000
    245       6.3660      0.00000
    246       6.4080      0.00000
    247       6.5059      0.00000
    248       6.5371      0.00000
    249       6.7213      0.00000
    250       6.8176      0.00000
    251       6.8418      0.00000
    252       6.8911      0.00000
    253       6.9862      0.00000
    254       7.0960      0.00000
    255       7.2560      0.00000
    256       7.3097      0.00000

 soft charge-density along one line, spin component           1
         0         1         2         3         4         5         6         7         8         9
 total charge-density along one line

------------------------ aborting loop because EDIFF is reached ----------------------------------------

 total charge

# of ion       s       p       d       tot
    1        0.415   0.204   9.177   9.796
    2        0.418   0.203   9.177   9.798
    3        0.418   0.203   9.177   9.798
    4        0.418   0.203   9.177   9.798
    5        0.414   0.203   9.178   9.795
    6        0.418   0.203   9.177   9.798
    7        0.418   0.203   9.177   9.798
    8        0.418   0.203   9.177   9.798
    9        0.417   0.203   9.177   9.797
   10        0.406   0.270   9.164   9.840
   11        0.407   0.268   9.166   9.841
   12        0.406   0.270   9.164   9.840
   13        0.407   0.268   9.166   9.841
   14        0.407   0.268   9.166   9.841
   15        0.404   0.270   9.166   9.840
   16        0.406   0.270   9.164   9.840
   17        0.404   0.270   9.166   9.840
   18        0.404   0.270   9.166   9.840
   19        0.405   0.269   9.168   9.841
   20        0.408   0.278   9.164   9.849
   21        0.408   0.278   9.164   9.849
   22        0.403   0.272   9.166   9.840
   23        0.408   0.278   9.164   9.849
   24        0.403   0.272   9.166   9.840
   25        0.405   0.269   9.168   9.841
   26        0.405   0.269   9.168   9.841
   27        0.403   0.272   9.166   9.841
   28        0.417   0.199   9.180   9.796
   29        0.415   0.203   9.178   9.796
   30        0.415   0.203   9.178   9.796
   31        0.415   0.203   9.178   9.796
   32        0.415   0.203   9.178   9.796
   33        0.415   0.203   9.178   9.796
   34        0.415   0.203   9.178   9.796
   35        0.415   0.201   9.180   9.796
   36        0.404   0.238   8.613   9.255
   37        1.373   2.469   0.000   3.842
   38        1.373   2.469   0.000   3.842
tot         17.519  13.500 329.618 360.636

  FORCE on cell =-STRESS in cart. coord.  units (eV):
  Direction    XX          YY          ZZ          XY          YZ          ZX
  Alpha Z   694.99794   694.99794   694.99794
  Ewald  151803.25977151481.38817************     0.00002     0.07730     0.00001
  Hartree161871.97953161756.97842************     0.00001     0.06436     0.00000
  E(xc)   -2123.03883 -2124.27985 -2129.94986    -0.00004     0.00007     0.00000
  Local  ************************324635.54775     0.00091    -0.14073    -0.00011
  n-local  -357.53353  -344.99301  -351.42364     2.45676    -0.00017     0.18000
  augment  3295.45686  3295.15227  3304.91328    -0.00025    -0.00014     0.00001
  Kinetic  5080.67516  5098.76695  5126.22160     1.10482     0.00033     0.04752
  Fock        0.00000     0.00000     0.00000     0.00000     0.00000     0.00000
  Total      -7.97981    -7.96888    -0.77884    -0.00000     0.00102     0.00000
  in kB      -7.79482    -7.78414    -0.76078    -0.00000     0.00100     0.00000

 VOLUME and BASIS-vectors are now :
  energy-cutoff  :      500.00
  volume of cell :     1640.20
      direct lattice vectors                 reciprocal lattice vectors
     8.791366577  0.000000000  0.000000000     0.113747958 -0.065672414  0.000000000
     4.395683289  7.613546790  0.000000000     0.000000000  0.131344829  0.000000000
     0.000000000  0.000000000 24.504948101     0.000000000  0.000000000  0.040808085

  length of vectors
     8.791366577  8.791366577 24.504948101     0.131344829  0.131344829  0.040808085

 FORCES acting on ions
    electron-ion (+dipol)            ewald-force                    non-local-force                 convergence-correction
   0.461E-04 -.533E-03 0.270E+04   -.954E-04 -.229E-02 -.269E+04   -.421E-14 -.642E-03 -.191E+01   -.844E-04 0.319E-02 -.192E+00
   0.146E+00 0.288E+00 0.270E+04   -.181E+00 -.191E+00 -.269E+04   0.165E-01 -.472E-01 -.167E+01   0.151E-01 -.475E-01 -.154E+00
   -.146E+00 0.288E+00 0.270E+04   0.181E+00 -.191E+00 -.269E+04   -.165E-01 -.472E-01 -.167E+01   -.157E-01 -.457E-01 -.153E+00
   0.317E+00 -.241E-01 0.270E+04   -.253E+00 -.617E-01 -.269E+04   -.304E-01 0.382E-01 -.167E+01   -.321E-01 0.430E-01 -.154E+00
   -.762E-05 -.628E-02 0.270E+04   0.981E-04 0.437E-03 -.269E+04   -.928E-14 -.141E-02 -.172E+01   0.618E-02 0.735E-02 -.219E+00
   -.317E+00 -.241E-01 0.270E+04   0.253E+00 -.618E-01 -.269E+04   0.304E-01 0.382E-01 -.167E+01   0.308E-01 0.439E-01 -.153E+00
   0.182E+00 -.263E+00 0.270E+04   -.729E-01 0.252E+00 -.269E+04   -.501E-01 0.861E-02 -.167E+01   -.538E-01 0.356E-02 -.151E+00
   -.182E+00 -.263E+00 0.270E+04   0.729E-01 0.252E+00 -.269E+04   0.501E-01 0.861E-02 -.167E+01   0.554E-01 0.261E-02 -.150E+00
   0.363E-04 0.636E-02 0.270E+04   0.792E-04 0.185E-02 -.269E+04   0.122E-13 0.185E-02 -.175E+01   -.663E-02 -.100E-01 -.121E+00
   0.216E+01 0.125E+01 0.936E+03   -.205E+01 -.120E+01 -.935E+03   -.943E-01 -.544E-01 -.641E+00   -.745E-03 0.348E-02 -.787E-01
   -.290E-04 0.161E+01 0.939E+03   0.413E-04 -.166E+01 -.938E+03   -.508E-13 -.773E-02 -.589E+00   0.619E-02 0.501E-01 -.320E-01
   -.216E+01 0.125E+01 0.936E+03   0.205E+01 -.120E+01 -.935E+03   0.943E-01 -.544E-01 -.641E+00   -.536E-03 0.414E-02 -.796E-01
   0.139E+01 -.813E+00 0.939E+03   -.143E+01 0.837E+00 -.938E+03   -.603E-02 0.164E-02 -.588E+00   0.395E-01 -.170E-01 -.328E-01
   -.139E+01 -.813E+00 0.939E+03   0.143E+01 0.837E+00 -.938E+03   0.603E-02 0.164E-02 -.588E+00   -.291E-01 -.179E-01 -.344E-01
   0.160E-04 0.363E+00 0.936E+03   -.108E-03 -.348E+00 -.935E+03   -.199E-13 -.303E-02 -.560E+00   -.128E-02 -.132E-01 -.533E-01
   -.832E-05 -.249E+01 0.936E+03   0.206E-04 0.236E+01 -.935E+03   0.719E-12 0.109E+00 -.640E+00   -.896E-04 -.176E-02 -.821E-01
   0.325E+00 -.186E+00 0.936E+03   -.311E+00 0.182E+00 -.935E+03   -.243E-02 0.166E-02 -.556E+00   -.121E-01 0.137E-02 -.526E-01
   -.325E+00 -.186E+00 0.936E+03   0.311E+00 0.182E+00 -.935E+03   0.243E-02 0.166E-02 -.556E+00   0.123E-01 0.294E-02 -.518E-01
   0.417E-04 0.127E+01 -.849E+03   -.129E-03 -.131E+01 0.849E+03   0.171E-13 0.261E-02 0.513E+00   0.102E-02 0.300E-01 0.589E-01
   0.676E+01 0.396E+01 -.833E+03   -.647E+01 -.379E+01 0.833E+03   -.329E+00 -.188E+00 -.263E+00   0.396E-01 0.249E-01 0.348E-01
   -.676E+01 0.396E+01 -.833E+03   0.647E+01 -.379E+01 0.833E+03   0.329E+00 -.188E+00 -.263E+00   -.505E-01 0.245E-01 0.345E-01
   0.273E+01 -.167E+01 -.844E+03   -.289E+01 0.177E+01 0.843E+03   0.154E+00 -.910E-01 0.568E+00   0.234E-02 -.440E-02 0.742E-02
   -.574E-04 -.790E+01 -.833E+03   0.432E-04 0.758E+01 0.833E+03   0.249E-11 0.380E+00 -.261E+00   -.541E-02 -.619E-01 0.364E-01
   -.273E+01 -.167E+01 -.844E+03   0.289E+01 0.177E+01 0.843E+03   -.154E+00 -.910E-01 0.568E+00   -.806E-03 -.384E-02 0.755E-02
   -.106E+01 -.562E+00 -.850E+03   0.109E+01 0.576E+00 0.849E+03   -.878E-03 -.420E-03 0.513E+00   -.250E-01 -.118E-01 0.590E-01
   0.106E+01 -.562E+00 -.850E+03   -.109E+01 0.576E+00 0.849E+03   0.878E-03 -.420E-03 0.513E+00   0.251E-01 -.109E-01 0.594E-01
   0.192E-04 0.319E+01 -.844E+03   0.110E-03 -.338E+01 0.844E+03   0.117E-11 0.179E+00 0.569E+00   -.297E-03 0.288E-02 0.870E-02
   0.545E-04 0.620E+00 -.261E+04   -.117E-03 -.625E+00 0.261E+04   0.843E-14 0.128E-02 0.194E+01   0.250E-03 0.290E-02 0.130E+00
   0.714E+01 0.118E+02 -.261E+04   -.682E+01 -.114E+02 0.261E+04   -.320E+00 -.422E+00 0.185E+01   -.104E-02 -.216E-01 0.155E+00
   -.714E+01 0.118E+02 -.261E+04   0.682E+01 -.114E+02 0.261E+04   0.320E+00 -.422E+00 0.185E+01   0.148E-03 -.204E-01 0.155E+00
   0.135E+02 0.570E+00 -.261E+04   -.129E+02 -.528E+00 0.260E+04   -.523E+00 -.628E-01 0.187E+01   -.180E-01 0.159E-01 0.156E+00
   -.135E+02 0.570E+00 -.261E+04   0.129E+02 -.528E+00 0.260E+04   0.523E+00 -.628E-01 0.187E+01   0.176E-01 0.169E-01 0.157E+00
   0.592E+01 -.124E+02 -.261E+04   -.568E+01 0.119E+02 0.261E+04   -.211E+00 0.485E+00 0.185E+01   -.234E-01 0.537E-02 0.156E+00
   -.592E+01 -.124E+02 -.261E+04   0.568E+01 0.119E+02 0.261E+04   0.211E+00 0.485E+00 0.185E+01   0.247E-01 0.514E-02 0.157E+00
   0.233E-04 -.508E+00 -.261E+04   0.106E-03 0.518E+00 0.261E+04   0.173E-14 0.264E-03 0.196E+01   -.634E-02 -.962E-02 0.107E+00
   -.509E-05 -.131E+00 -.230E+04   0.943E-04 0.126E+00 0.229E+04   -.120E-14 -.184E-03 0.230E+01   0.397E-02 0.575E-02 0.223E+00
   0.241E+03 -.981E-02 -.976E+03   -.286E+03 0.115E-01 0.976E+03   0.456E+02 -.871E-03 0.246E-01   0.469E-02 -.148E-02 0.148E-02
   -.241E+03 -.980E-02 -.976E+03   0.286E+03 0.115E-01 0.976E+03   -.456E+02 -.871E-03 0.246E-01   -.470E-02 -.147E-02 0.146E-02
   0.498E-03 0.195E-02 0.122E+01   0.568E-13 -.169E-12 -.171E-11   -.142E-13 -.259E-02 -.935E+00   -.286E-02 -.706E-03 -.236E+00

 POSITION                                       TOTAL-FORCE (eV/Angst)
      0.00000      0.00000      5.28219        -0.000000     -0.000244      0.056042
      2.93046      0.00000      5.28219        -0.002602      0.003479      0.028842
      5.86091      0.00000      5.28219         0.002602      0.003479      0.028842
      1.46523      2.53785      5.28219         0.001614     -0.004189      0.028666
      4.39568      2.53785      5.28219         0.000000      0.000132      0.020020
      7.32614      2.53785      5.28219        -0.001614     -0.004189      0.028666
      2.93046      5.07570      5.28219         0.004746      0.000827      0.028702
      5.86091      5.07570      5.28219        -0.004746      0.000827      0.028702
      8.79137      5.07570      5.28219         0.000000      0.000082      0.036591
      1.46523      0.84595      7.67490         0.015104      0.008871     -0.023763
      4.39568      0.84595      7.67490        -0.000000     -0.014668     -0.056794
      7.32614      0.84595      7.67490        -0.015104      0.008871     -0.023763
      2.93046      3.38380      7.67490        -0.012751      0.007840     -0.056653
      5.86091      3.38380      7.67490         0.012751      0.007840     -0.056653
      8.79137      3.38380      7.67490        -0.000000     -0.000826     -0.017768
      4.39568      5.92165      7.67490        -0.000000     -0.017738     -0.023565
      7.32614      5.92165      7.67490        -0.000788      0.000433     -0.017260
     10.25659      5.92165      7.67490         0.000788      0.000433     -0.017260
      8.79137      1.69432     10.05238        -0.000000     -0.003339      0.000795
      2.92802      1.69049     10.04000         0.003826      0.001814     -0.005042
      5.86334      1.69049     10.04000        -0.003826      0.001814     -0.005042
     10.25637      4.22988     10.04709        -0.003838      0.002101      0.007571
      4.39568      4.23256     10.04000        -0.000000     -0.004447     -0.005125
      7.32637      4.22988     10.04709         0.003838      0.002101      0.007571
     11.71973      6.76639     10.05238         0.002930      0.001777     -0.000542
      5.86300      6.76639     10.05238        -0.002930      0.001777     -0.000542
      8.79137      6.76733     10.04709        -0.000000     -0.004044      0.006865
      0.00000      0.00000     12.42253        -0.000000     -0.000804      0.011338
      2.94245      0.01904     12.42445        -0.001609      0.005021     -0.001962
      5.84892      0.01904     12.42445         0.001609      0.005021     -0.001962
      1.48772      2.53872     12.42445         0.004372     -0.004370     -0.000351
      7.30365      2.53872     12.42445        -0.004372     -0.004370     -0.000351
      2.94095      5.05579     12.42445         0.006145     -0.000522     -0.001954
      5.85042      5.05579     12.42445        -0.006145     -0.000522     -0.001954
      8.79137      5.07570     12.41807         0.000000      0.000778     -0.005505
      4.39568      2.53785     12.28633         0.000000      0.000223      0.006918
      3.83885      2.52633     16.60866        -0.000002     -0.000633     -0.001162
      4.95252      2.52633     16.60866         0.000002     -0.000633     -0.001162
    total drift:                               -0.002360     -0.001342      0.050129

  FREE ENERGIE OF THE ION-ELECTRON SYSTEM (eV)
  free  energy   TOTEN  =      -110.90543944 eV

  energy  without entropy=     -110.90543944  energy(sigma->0) =     -110.90543944

 stress matrix after NEB project (eV)
     -7.97981     -0.00000      0.00000
     -0.00000     -7.96888      0.00102
      0.00000      0.00102     -0.77884
  FORCES: max atom, RMS     0.001323    0.000304
  FORCE total and by dimension    0.001871    0.001162
  Stress total and by dimension   11.304293    7.979809
|           W    W    AA    RRRRR   N    N  II  N    N   GGGG   !!!           |
|           W    W   A  A   R    R  NN   N  II  NN   N  G    G  !!!           |
|           W    W  A    A  R    R  N N  N  II  N N  N  G       !!!           |
|           W WW W  AAAAAA  RRRRR   N  N N  II  N  N N  G  GGG   !            |
|           WW  WW  A    A  R   R   N   NN  II  N   NN  G    G                |
|           W    W  A    A  R    R  N    N  II  N    N   GGGG   !!!           |
|     Tetrahedron method does not include variations of the Fermi             |
|     occupations, so forces and stress will be inaccurate. We suggest        |
|     using a different smearing scheme ISMEAR = 1 or 2 for metals in         |
|     relaxations.                                                            |

 total charge

# of ion       s       p       d       tot
    1        0.415   0.204   9.177   9.796
    2        0.418   0.203   9.177   9.798
    3        0.418   0.203   9.177   9.798
    4        0.418   0.203   9.177   9.798
    5        0.414   0.203   9.178   9.795
    6        0.418   0.203   9.177   9.798
    7        0.418   0.203   9.177   9.798
    8        0.418   0.203   9.177   9.798
    9        0.417   0.203   9.177   9.797
   10        0.406   0.270   9.164   9.840
   11        0.407   0.268   9.166   9.841
   12        0.406   0.270   9.164   9.840
   13        0.407   0.268   9.166   9.841
   14        0.407   0.268   9.166   9.841
   15        0.404   0.270   9.166   9.840
   16        0.406   0.270   9.164   9.840
   17        0.404   0.270   9.166   9.840
   18        0.404   0.270   9.166   9.840
   19        0.405   0.269   9.168   9.841
   20        0.408   0.278   9.164   9.849
   21        0.408   0.278   9.164   9.849
   22        0.403   0.272   9.166   9.840
   23        0.408   0.278   9.164   9.849
   24        0.403   0.272   9.166   9.840
   25        0.405   0.269   9.168   9.841
   26        0.405   0.269   9.168   9.841
   27        0.403   0.272   9.166   9.841
   28        0.417   0.199   9.180   9.796
   29        0.415   0.203   9.178   9.796
   30        0.415   0.203   9.178   9.796
   31        0.415   0.203   9.178   9.796
   32        0.415   0.203   9.178   9.796
   33        0.415   0.203   9.178   9.796
   34        0.415   0.203   9.178   9.796
   35        0.415   0.201   9.180   9.796
   36        0.404   0.238   8.613   9.255
   37        1.373   2.469   0.000   3.842
   38        1.373   2.469   0.000   3.842
tot         17.519  13.500 329.618 360.636

 BZINTS: Fermi energy:    0.414138;  405.000000 electrons
         Band energy:-0.151633E+04;  BLOECHL correction:   -0.087272