 vasp.6.2.0 18Jan21 (build Jun 12 2021 23:27:24) complex

 executed on             LinuxIFC date 2022.05.26  19:34:58

 INCAR:
   ISMEAR = -5
   SIGMA = 0.1
   ISPIN = 1
   EDIFF = 1.d-5
   EDIFFG = -0.01
   NSW = 0
   NELM = 150
   ENCUT = 500
   ISIF = 2
   IBRION = 2
   LREAL = Auto
   ALGO = Fast
   ICHARG = 11
   LORBIT = 10
   LCHARG = .F.
   LWAVE = .F.

 POTCAR:    PAW_PBE Au 04Oct2007
 POTCAR:    PAW_PBE Ir 06Sep2000
 POTCAR:    PAW_PBE H 15Jun2001
|           W    W    AA    RRRRR   N    N  II  N    N   GGGG   !!!           |
|           W    W   A  A   R    R  NN   N  II  NN   N  G    G  !!!           |
|           W    W  A    A  R    R  N N  N  II  N N  N  G       !!!           |
|           W WW W  AAAAAA  RRRRR   N  N N  II  N  N N  G  GGG   !            |
|           WW  WW  A    A  R   R   N   NN  II  N   NN  G    G                |
|           W    W  A    A  R    R  N    N  II  N    N   GGGG   !!!           |
|     For optimal performance we recommend to set                             |
|       NCORE = 2 up to number-of-cores-per-socket                            |
|     This setting can greatly improve the performance of VASP for DFT.       |
|     The default, NCORE=1 might be grossly inefficient on modern             |
|     multi-core architectures or massively parallel machines. Do your        |
|     Unfortunately you need to use the default for GW and RPA                |
|     calculations (for HF NCORE is supported but not extensively tested      |
|     yet).                                                                   |

 POTCAR:    PAW_PBE Au 04Oct2007
   VRHFIN =Au: s1d10

   TITEL  = PAW_PBE Au 04Oct2007
   POMASS =  196.966; ZVAL   =   11.000    mass and valenz
   ENMAX  =  229.943; ENMIN  =  172.457 eV

 POTCAR:    PAW_PBE Ir 06Sep2000
   VRHFIN =Ir: s1d8

   TITEL  = PAW_PBE Ir 06Sep2000
   POMASS =  192.220; ZVAL   =    9.000    mass and valenz
   ENMAX  =  210.864; ENMIN  =  158.148 eV

 POTCAR:    PAW_PBE H 15Jun2001
   VRHFIN =H: ultrasoft test

   TITEL  = PAW_PBE H 15Jun2001
   POMASS =    1.000; ZVAL   =    1.000    mass and valenz
   ENMAX  =  250.000; ENMIN  =  200.000 eV

 Optimization of the real space projectors (new method)

 maximal supplied QI-value         = 15.12
 optimisation between [QCUT,QGAM] = [ 11.34, 22.83] = [ 36.00,145.93] Ry
 Optimized for a Real-space Cutoff    1.39 Angstroem

   l    n(q)    QCUT    max X(q) W(low)/X(q) W(high)/X(q)  e(spline)
   2      9    11.338    60.898    0.39E-03    0.42E-03    0.21E-06
   2      9    11.338    58.894    0.40E-03    0.42E-03    0.22E-06
   0      9    11.338   109.617    0.13E-03    0.20E-04    0.13E-06
   0      9    11.338    75.026    0.13E-03    0.20E-04    0.13E-06
   1      9    11.338    16.344    0.33E-04    0.24E-03    0.18E-06
   1      9    11.338    10.160    0.26E-04    0.19E-03    0.15E-06
 Optimization of the real space projectors (new method)

[...]

   l    n(q)    QCUT    max X(q) W(low)/X(q) W(high)/X(q)  e(spline)
   2      9    11.346   134.116    0.47E-03    0.13E-03    0.92E-06
   2      9    11.346   130.192    0.47E-03    0.13E-03    0.92E-06
   0     10    11.346    60.310    0.74E-04    0.13E-03    0.69E-06
   0     10    11.346    39.218    0.68E-04    0.12E-03    0.65E-06
   1     10    11.346    18.439    0.15E-03    0.34E-04    0.20E-06
   1     10    11.346    12.760    0.12E-03    0.31E-04    0.16E-06
 Optimization of the real space projectors (new method)

 maximal supplied QI-value         = 34.20
 optimisation between [QCUT,QGAM] = [ 11.29, 22.57] = [ 35.68,142.71] Ry
 Optimized for a Real-space Cutoff    1.16 Angstroem

   l    n(q)    QCUT    max X(q) W(low)/X(q) W(high)/X(q)  e(spline)
   0      8    11.287    19.460    0.40E-03    0.73E-03    0.16E-06
   0      8    11.287    12.209    0.38E-03    0.70E-03    0.15E-06
   1      7    11.287     4.655    0.22E-03    0.25E-04    0.22E-06
  PAW_PBE Au 04Oct2007                  :
  PAW_PBE Ir 06Sep2000                  :
  PAW_PBE H 15Jun2001                   :

 POSCAR: Au-Ir-H
  positions in direct lattice
  velocities in cartesian coordinates
 exchange correlation table for  LEXCH =        8
   RHO(1)=    0.500       N(1)  =     2000
   RHO(2)=  100.500       N(2)  =     4000

 VTST: version 3.2, (02/03/18)

 CHAIN: initializing optimizer

 OPT: Using VASP Conjugate-Gradient optimizer
 CHAIN: Read ICHAIN            0

 POSCAR: Au-Ir-H
  positions in direct lattice
  velocities in cartesian coordinates

 ion  position               nearest neighbor table
   1  0.000  0.000  0.238-  16 2.94  12 2.94   6 2.94   8 2.94   7 2.94   3 2.94  10 2.94   4 2.94
                             2 2.94
   2  0.333  0.000  0.238-   9 2.94  11 2.94  17 2.94  10 2.94   8 2.94   4 2.94   5 2.94   1 2.94
                             3 2.94
   3  0.667  0.000  0.238-   7 2.94  18 2.94  12 2.94   1 2.94  11 2.94   5 2.94   6 2.94   9 2.94
                             2 2.94
   4  0.000  0.333  0.238-  10 2.94   6 2.94   5 2.94  13 2.94   2 2.94  15 2.94   9 2.94   1 2.94
                             7 2.94
   5  0.333  0.333  0.238-  13 2.94   7 2.94  11 2.94   4 2.94   2 2.94  14 2.94   3 2.94   8 2.94
                             6 2.94
   6  0.667  0.333  0.238-  15 2.94  14 2.94   1 2.94  12 2.94   4 2.94   9 2.94   8 2.94   3 2.94
                             5 2.94
   7  0.000  0.667  0.238-  18 2.94   3 2.94  16 2.94   5 2.94   1 2.94  13 2.94   8 2.94   4 2.94
                             9 2.94
   8  0.333  0.667  0.238-   9 2.94  17 2.94   1 2.94   2 2.94  14 2.94  16 2.94   6 2.94   7 2.94
                             5 2.94
   9  0.667  0.667  0.238-   2 2.94   8 2.94  17 2.94   6 2.94  15 2.94   4 2.94   3 2.94  18 2.94
                             7 2.94
  10  0.111  0.111  0.346-  20 2.90  11 2.94  17 2.94   2 2.94   4 2.94   1 2.94  12 2.94  16 2.94
                            13 2.94  15 2.94  26 2.94  19 2.94
  11  0.444  0.111  0.346-  20 2.91  21 2.91  27 2.93  13 2.94   2 2.94  10 2.94  17 2.94   5 2.94
                             3 2.94  18 2.94  14 2.94  12 2.94
  12  0.778  0.111  0.346-  21 2.90  16 2.94  18 2.94   1 2.94  14 2.94  15 2.94   3 2.94   6 2.94
                            10 2.94  11 2.94  25 2.94  19 2.94
  13  0.111  0.444  0.346-  23 2.91  20 2.91  22 2.93   5 2.94  18 2.94  11 2.94   7 2.94   4 2.94
                            16 2.94  10 2.94  14 2.94  15 2.94
  14  0.444  0.444  0.346-  21 2.91  23 2.91  24 2.93  15 2.94   6 2.94  12 2.94   8 2.94  17 2.94
                             5 2.94  16 2.94  13 2.94  11 2.94
  15  0.778  0.444  0.346-  24 2.92  22 2.92  14 2.94   6 2.94  17 2.94  12 2.94   9 2.94   4 2.94
                            10 2.94  13 2.94  18 2.94  19 2.94
  16  0.111  0.778  0.346-  23 2.90  18 2.94  12 2.94   7 2.94   1 2.94   8 2.94  13 2.94  10 2.94
                            14 2.94  17 2.94  25 2.94  26 2.94
  17  0.444  0.778  0.346-  27 2.92  24 2.92   9 2.94  15 2.94   2 2.94  10 2.94  11 2.94   8 2.94
                            14 2.94  16 2.94  18 2.94  26 2.94
  18  0.778  0.778  0.346-  22 2.92  27 2.92  16 2.94   7 2.94  13 2.94  12 2.94   3 2.94  11 2.94
                             9 2.94  15 2.94  17 2.94  25 2.94
  19  0.889  0.223  0.454-  21 2.93  20 2.93  24 2.93  22 2.93  15 2.94  10 2.94  12 2.94  26 2.95
                            25 2.95  28 2.95  32 2.96  31 2.96
  20  0.222  0.222  0.452-  36 2.78  10 2.90  11 2.91  13 2.91  26 2.93  19 2.93  29 2.95  31 2.95
                            27 2.95  22 2.95  23 2.95  21 2.95
  21  0.557  0.222  0.452-  36 2.78  12 2.90  14 2.91  11 2.91  25 2.93  19 2.93  30 2.95  32 2.95
                            24 2.95  27 2.95  20 2.95  23 2.95
  22  0.887  0.557  0.453-  24 2.91  27 2.91  18 2.92  15 2.92  13 2.93  25 2.93  19 2.93  23 2.95
                            20 2.95  35 2.95  33 2.96  31 2.96
  23  0.222  0.557  0.452-  36 2.78  16 2.90  13 2.91  14 2.91  25 2.93  26 2.93  33 2.95  34 2.95
                            22 2.95  24 2.95  20 2.95  21 2.95
  24  0.557  0.557  0.453-  27 2.91  22 2.91  15 2.92  17 2.92  14 2.93  26 2.93  19 2.93  21 2.95
                            23 2.95  35 2.95  32 2.96  34 2.96
  25  0.889  0.889  0.454-  23 2.93  21 2.93  22 2.93  27 2.93  18 2.94  16 2.94  12 2.94  19 2.95
                            26 2.95  28 2.95  33 2.96  30 2.96
  26  0.223  0.889  0.454-  20 2.93  23 2.93  27 2.93  24 2.93  17 2.94  10 2.94  16 2.94  19 2.95
                            25 2.95  28 2.95  29 2.96  34 2.96
  27  0.557  0.887  0.453-  24 2.91  22 2.91  17 2.92  18 2.92  11 2.93  26 2.93  25 2.93  20 2.95
                            21 2.95  35 2.95  29 2.96  30 2.96
  28  0.000  0.000  0.563-  25 2.95  19 2.95  26 2.95  34 2.96  32 2.96  33 2.96  30 2.96  31 2.96
                            29 2.96
  29  0.333  0.005  0.562-  31 2.89  30 2.89  36 2.90  20 2.95  28 2.96  35 2.96  27 2.96  26 2.96
                            34 3.03
  30  0.661  0.005  0.562-  32 2.89  29 2.89  36 2.90  21 2.95  28 2.96  35 2.96  27 2.96  25 2.96
                            33 3.03
  31  0.005  0.333  0.562-  29 2.89  33 2.89  36 2.90  20 2.95  28 2.96  35 2.96  22 2.96  19 2.96
                            32 3.03
  32  0.661  0.333  0.562-  30 2.89  34 2.89  36 2.90  21 2.95  28 2.96  35 2.96  24 2.96  19 2.96
                            31 3.03
  33  0.005  0.661  0.562-  34 2.89  31 2.89  36 2.90  23 2.95  28 2.96  35 2.96  22 2.96  25 2.96
                            30 3.03
  34  0.333  0.661  0.562-  33 2.89  32 2.89  36 2.90  23 2.95  28 2.96  35 2.96  24 2.96  26 2.96
                            29 3.03
  35  0.667  0.667  0.563-  24 2.95  27 2.95  22 2.95  29 2.96  34 2.96  32 2.96  31 2.96  30 2.96
                            33 2.96
  36  0.333  0.333  0.551-  37 1.59  20 2.78  23 2.78  21 2.78  33 2.90  31 2.90  29 2.90  30 2.90
                            34 2.90  32 2.90
  37  0.333  0.333  0.623-  36 1.59

  LATTYP: Found a hexagonal cell.
 ALAT       =     8.8135128021
 C/A-ratio  =     2.5184286595

  Lattice vectors:

 A1 = (  -4.4067569092,  -7.6327256898,   0.0000000000)
 A2 = (   8.8135128021,   0.0000000000,   0.0000000000)
 A3 = (   0.0000000000,   0.0000000000,  22.1962032318)

Analysis of symmetry for initial positions (statically):
 Subroutine PRICEL returns:
 Original cell was already a primitive cell.

 Routine SETGRP: Setting up the symmetry group for a
 hexagonal supercell.

 Subroutine GETGRP returns: Found  6 space group operations
 (whereof  6 operations were pure point group operations)
 out of a pool of 24 trial point group operations.

The static configuration has the point symmetry C_3v.

Analysis of symmetry for dynamics (positions and initial velocities):
 Subroutine PRICEL returns:
 Original cell was already a primitive cell.

[...]

The dynamic configuration has the point symmetry C_3v.

Analysis of constrained symmetry for selective dynamics:
 Subroutine PRICEL returns:
 Original cell was already a primitive cell.

 Routine SETGRP: Setting up the symmetry group for a
 hexagonal supercell.

 Subroutine GETGRP returns: Found  6 space group operations
 (whereof  6 operations were pure point group operations)
[...]
     24      -5.0736      2.00000
     25      -5.0648      2.00000
     26      -5.0161      2.00000
     27      -4.9428      2.00000
     28      -4.8905      2.00000
     29      -4.8330      2.00000
     30      -4.7915      2.00000
     31      -4.7835      2.00000
     32      -4.7616      2.00000
     33      -4.7512      2.00000
     34      -4.7477      2.00000
     35      -4.6557      2.00000
     36      -4.6085      2.00000
     37      -4.5895      2.00000
     38      -4.5436      2.00000
     39      -4.5041      2.00000
     40      -4.4135      2.00000
     41      -4.3884      2.00000
     42      -4.3410      2.00000
     43      -4.3158      2.00000
     44      -4.3109      2.00000
     45      -4.2973      2.00000
     46      -4.2119      2.00000
     47      -4.1873      2.00000
     48      -4.1461      2.00000
     49      -4.1297      2.00000
     50      -4.1177      2.00000
     51      -4.1117      2.00000
     52      -4.1063      2.00000
     53      -4.0583      2.00000
     54      -4.0331      2.00000
     55      -4.0199      2.00000
     56      -3.9653      2.00000
     57      -3.9563      2.00000
     58      -3.9487      2.00000
     59      -3.9385      2.00000
     60      -3.9295      2.00000
[...]
    238       6.7329      0.00000
    239       6.7634      0.00000
    240       6.7819      0.00000
    241       6.8469      0.00000
    242       6.8819      0.00000
    243       7.1350      0.00000
    244       7.1742      0.00000
    245       7.2575      0.00000
    246       7.6003      0.00000
    247       7.6163      0.00000
    248       7.6703      0.00000
    249       7.7182      0.00000
    250       7.8874      0.00000
    251       7.9852      0.00000
    252       8.0164      0.00000

 soft charge-density along one line, spin component           1
         0         1         2         3         4         5         6         7         8         9
 total charge-density along one line

------------------------ aborting loop because EDIFF is reached ----------------------------------------

 total charge

# of ion       s       p       d       tot
    1        0.545   0.237   8.769   9.552
    2        0.544   0.240   8.764   9.549
    3        0.544   0.240   8.764   9.549
    4        0.544   0.240   8.764   9.549
    5        0.545   0.242   8.759   9.546
    6        0.544   0.240   8.764   9.549
    7        0.544   0.240   8.764   9.549
    8        0.544   0.240   8.764   9.549
    9        0.541   0.238   8.771   9.550
   10        0.522   0.309   8.767   9.597
   11        0.523   0.307   8.779   9.609
   12        0.522   0.309   8.767   9.597
   13        0.523   0.307   8.779   9.609
   14        0.523   0.307   8.779   9.609
   15        0.515   0.308   8.776   9.599
   16        0.522   0.309   8.767   9.597
   17        0.515   0.308   8.776   9.599
   18        0.515   0.308   8.776   9.599
   19        0.516   0.302   8.773   9.592
   20        0.546   0.326   8.755   9.627
   21        0.546   0.326   8.755   9.627
   22        0.508   0.308   8.777   9.593
   23        0.546   0.326   8.755   9.627
   24        0.508   0.308   8.777   9.593
   25        0.516   0.302   8.773   9.592
   26        0.516   0.302   8.773   9.592
   27        0.508   0.308   8.777   9.593
   28        0.537   0.228   8.771   9.535
   29        0.545   0.243   8.753   9.542
   30        0.545   0.243   8.753   9.542
   31        0.545   0.243   8.753   9.542
   32        0.545   0.243   8.753   9.542
   33        0.545   0.243   8.753   9.542
   34        0.545   0.243   8.753   9.542
   35        0.532   0.229   8.771   9.532
   36        0.597   0.457   7.044   8.098
   37        0.522   0.024   0.000   0.546
tot         19.749  10.134 313.874 343.757

  FORCE on cell =-STRESS in cart. coord.  units (eV):
  Direction    XX          YY          ZZ          XY          YZ          ZX
  Alpha Z  1014.58579  1014.58579  1014.58579
  Ewald  119738.79501119738.79541************    -0.00034    -0.00009    -0.00016
  Hartree128335.03226128335.03227************     0.00000    -0.00002    -0.00004
  E(xc)   -1771.35590 -1771.35589 -1778.83934    -0.00001    -0.00000    -0.00000
  Local  ************************260730.99210     0.00173     0.00004     0.00008
  n-local  -101.37801   -43.76489   -41.65088    26.69098    -1.55845     1.81756
  augment  2406.50693  2406.50845  2421.44882    -0.00132     0.00001     0.00004
  Kinetic  5464.99731  5480.85181  5522.38943     7.37275    -0.24950     0.59473
  Fock        0.00000     0.00000     0.00000     0.00000     0.00000     0.00000
  Total     -21.99525   -21.99525     3.50242    -0.00000     0.00000    -0.00000
  in kB     -23.60109   -23.60109     3.75813    -0.00000     0.00000    -0.00000

 VOLUME and BASIS-vectors are now :
  energy-cutoff  :      500.00
  volume of cell :     1493.16
      direct lattice vectors                 reciprocal lattice vectors
     8.813512802  0.000000000  0.000000000     0.113462137 -0.065507406  0.000000000
     4.406756909  7.632725690  0.000000000     0.000000000  0.131014796  0.000000000
     0.000000000  0.000000000 22.196203232     0.000000000  0.000000000  0.045052750

  length of vectors
     8.813512802  8.813512802 22.196203232     0.131014796  0.131014796  0.045052750

 FORCES acting on ions
    electron-ion (+dipol)            ewald-force                    non-local-force                 convergence-correction
   -.198E-04 -.163E-04 0.248E+04   0.519E-04 0.433E-04 -.248E+04   -.317E-17 0.284E-17 -.891E+00   -.296E-03 -.184E-03 -.121E+00
   0.453E+00 0.123E+00 0.248E+04   -.467E+00 -.225E+00 -.248E+04   0.515E-01 0.877E-01 -.277E+00   -.331E-01 0.298E-01 -.227E+00
   -.453E+00 0.123E+00 0.248E+04   0.467E+00 -.225E+00 -.248E+04   -.515E-01 0.877E-01 -.277E+00   0.335E-01 0.318E-01 -.226E+00
   0.333E+00 0.331E+00 0.248E+04   -.429E+00 -.292E+00 -.248E+04   0.102E+00 0.775E-03 -.277E+00   0.931E-02 -.437E-01 -.227E+00
   0.693E-05 -.243E-04 0.248E+04   0.952E-04 0.174E-05 -.248E+04   -.502E-17 -.122E-17 -.591E-01   0.432E-02 0.263E-02 -.188E+00
   -.334E+00 0.331E+00 0.248E+04   0.429E+00 -.292E+00 -.248E+04   -.102E+00 0.775E-03 -.277E+00   -.109E-01 -.428E-01 -.226E+00
   -.120E+00 -.454E+00 0.248E+04   0.383E-01 0.517E+00 -.248E+04   0.502E-01 -.885E-01 -.277E+00   0.443E-01 0.131E-01 -.226E+00
   0.120E+00 -.454E+00 0.248E+04   -.384E-01 0.517E+00 -.248E+04   -.502E-01 -.885E-01 -.277E+00   -.425E-01 0.120E-01 -.226E+00
   0.196E-04 -.415E-04 0.248E+04   0.166E-03 -.200E-04 -.248E+04   -.124E-17 0.261E-19 -.589E+00   -.456E-02 -.236E-02 -.229E+00
   0.538E+01 0.310E+01 0.824E+03   -.494E+01 -.285E+01 -.823E+03   -.330E+00 -.191E+00 -.715E+00   -.111E+00 -.641E-01 -.156E-01
   0.141E-04 0.303E+01 0.827E+03   0.149E-03 -.303E+01 -.827E+03   0.597E-08 0.896E-01 -.229E+00   0.436E-02 -.121E+00 -.417E-01
   -.538E+01 0.310E+01 0.824E+03   0.494E+01 -.285E+01 -.823E+03   0.330E+00 -.191E+00 -.715E+00   0.109E+00 -.629E-01 -.149E-01
   0.262E+01 -.151E+01 0.827E+03   -.263E+01 0.152E+01 -.827E+03   0.776E-01 -.448E-01 -.229E+00   -.103E+00 0.647E-01 -.417E-01
   -.262E+01 -.151E+01 0.827E+03   0.263E+01 0.152E+01 -.827E+03   -.776E-01 -.448E-01 -.229E+00   0.110E+00 0.635E-01 -.423E-01
   0.314E-04 0.325E+01 0.826E+03   0.236E-03 -.333E+01 -.825E+03   0.219E-08 0.329E-01 -.524E+00   -.249E-02 0.381E-02 0.268E-01
   -.214E-04 -.621E+01 0.824E+03   0.163E-03 0.570E+01 -.823E+03   0.254E-07 0.381E+00 -.715E+00   -.176E-03 0.126E+00 -.149E-01
   0.282E+01 -.163E+01 0.826E+03   -.289E+01 0.167E+01 -.825E+03   0.285E-01 -.164E-01 -.524E+00   0.230E-02 -.363E-02 0.268E-01
   -.282E+01 -.163E+01 0.826E+03   0.289E+01 0.167E+01 -.825E+03   -.285E-01 -.164E-01 -.524E+00   -.171E-02 -.124E-02 0.281E-01
   -.410E-04 0.332E+01 -.865E+03   0.538E-04 -.337E+01 0.864E+03   0.764E-09 0.115E-01 0.547E+00   -.463E-02 0.260E-01 0.149E+00
   0.645E+01 0.373E+01 -.832E+03   -.544E+01 -.314E+01 0.832E+03   -.890E+00 -.514E+00 -.785E+00   -.106E+00 -.612E-01 0.343E+00
   -.645E+01 0.373E+01 -.832E+03   0.544E+01 -.314E+01 0.832E+03   0.890E+00 -.514E+00 -.785E+00   0.108E+00 -.616E-01 0.343E+00
   -.476E+01 0.275E+01 -.853E+03   0.446E+01 -.257E+01 0.852E+03   0.374E+00 -.216E+00 0.578E+00   -.372E-01 0.233E-01 0.202E+00
   -.130E-04 -.745E+01 -.832E+03   0.142E-03 0.629E+01 0.832E+03   0.684E-07 0.103E+01 -.785E+00   0.446E-03 0.124E+00 0.343E+00
   0.476E+01 0.275E+01 -.853E+03   -.446E+01 -.257E+01 0.852E+03   -.374E+00 -.216E+00 0.578E+00   0.371E-01 0.215E-01 0.202E+00
   -.287E+01 -.166E+01 -.865E+03   0.292E+01 0.168E+01 0.864E+03   -.994E-02 -.574E-02 0.547E+00   -.269E-01 -.156E-01 0.149E+00
   0.287E+01 -.166E+01 -.865E+03   -.292E+01 0.168E+01 0.864E+03   0.994E-02 -.574E-02 0.547E+00   0.205E-01 -.170E-01 0.149E+00
   0.797E-05 -.550E+01 -.853E+03   0.201E-03 0.514E+01 0.852E+03   0.287E-07 0.432E+00 0.578E+00   0.106E-02 -.439E-01 0.202E+00
   -.934E-05 -.109E-04 -.249E+04   0.269E-04 0.316E-04 0.249E+04   -.105E-16 0.514E-17 0.635E+00   -.348E-03 -.218E-03 0.276E+00
   0.358E+01 0.636E+01 -.249E+04   -.322E+01 -.595E+01 0.249E+04   -.389E+00 -.498E+00 0.377E+00   0.326E-01 0.396E-01 0.231E+00
   -.358E+01 0.636E+01 -.249E+04   0.322E+01 -.595E+01 0.249E+04   0.389E+00 -.498E+00 0.377E+00   -.320E-01 0.410E-01 0.230E+00
   0.730E+01 -.862E-01 -.249E+04   -.676E+01 0.184E+00 0.249E+04   -.626E+00 -.879E-01 0.377E+00   0.507E-01 0.839E-02 0.231E+00
   -.730E+01 -.862E-01 -.249E+04   0.676E+01 0.184E+00 0.249E+04   0.626E+00 -.879E-01 0.377E+00   -.517E-01 0.879E-02 0.230E+00
   0.372E+01 -.628E+01 -.249E+04   -.354E+01 0.576E+01 0.249E+04   -.237E+00 0.586E+00 0.377E+00   0.196E-01 -.482E-01 0.230E+00
   -.372E+01 -.628E+01 -.249E+04   0.354E+01 0.576E+01 0.249E+04   0.237E+00 0.586E+00 0.377E+00   -.182E-01 -.491E-01 0.230E+00
   0.297E-04 -.314E-04 -.249E+04   0.147E-03 -.469E-04 0.249E+04   -.263E-17 0.130E-19 0.697E+00   -.426E-02 -.216E-02 0.240E+00
   -.152E-04 -.109E-04 -.191E+04   0.926E-04 0.834E-05 0.191E+04   0.177E-17 -.204E-19 -.359E+01   0.223E-02 0.135E-02 0.123E+00
   0.664E-05 -.415E-05 -.290E+03   0.460E-05 0.287E-06 0.292E+03   -.248E-18 -.176E-18 -.294E+01   0.124E-03 0.745E-04 -.190E-01
   -.775E-03 -.780E-03 0.798E+01   -.126E-12 0.700E-13 0.364E-11   -.844E-16 -.222E-15 -.952E+01   -.229E-03 0.459E-03 0.210E+01

 POSITION                                       TOTAL-FORCE (eV/Angst)
      0.00000      0.00000      5.28038         0.000000      0.000000     -0.138478
      2.93784      0.00000      5.28038         0.004826      0.016566     -0.068460
      5.87568      0.00000      5.28038        -0.004826      0.016566     -0.068460
      1.46892      2.54424      5.28038         0.016759     -0.004103     -0.068460
      4.40676      2.54424      5.28038         0.000000      0.000000     -0.115750
      7.34459      2.54424      5.28038        -0.016759     -0.004103     -0.068460
      2.93784      5.08848      5.28038         0.011933     -0.012462     -0.068460
      5.87568      5.08848      5.28038        -0.011933     -0.012462     -0.068460
      8.81351      5.08848      5.28038         0.000000     -0.000000     -0.095530
      1.46892      0.84808      7.67911        -0.001232     -0.000711      0.119107
      4.40676      0.84808      7.67911        -0.000000     -0.040808      0.060714
      7.34459      0.84808      7.67911         0.001232     -0.000711      0.119107
      2.93784      3.39232      7.67911        -0.035340      0.020404      0.060714
      5.87568      3.39232      7.67911         0.035340      0.020404      0.060714
      8.81351      3.39232      7.67911        -0.000000     -0.047072      0.083262
      4.40676      5.93656      7.67911         0.000000      0.001423      0.119107
      7.34459      5.93656      7.67911        -0.040766      0.023536      0.083262
     10.28243      5.93656      7.67911         0.040766      0.023536      0.083262
      8.81351      1.70038     10.08128        -0.000000     -0.011595      0.001896
      2.93047      1.69191     10.03818         0.010458      0.006038     -0.164578
      5.88304      1.69191     10.03818        -0.010458      0.006038     -0.164578
     10.26792      4.24878     10.06124         0.030889     -0.017834     -0.004052
      4.40676      4.24891     10.03818        -0.000000     -0.012076     -0.164578
      7.35911      4.24878     10.06124        -0.030889     -0.017834     -0.004052
     11.74770      6.78254     10.08128         0.010042      0.005797      0.001896
      5.87933      6.78254     10.08128        -0.010042      0.005797      0.001896
      8.81351      6.76789     10.06124         0.000000      0.035668     -0.004052
      0.00000      0.00000     12.49619         0.000000      0.000000     -0.034903
      2.96082      0.04010     12.48308        -0.002891     -0.042001      0.009155
      5.85269      0.04010     12.48308         0.002891     -0.042001      0.009155
      1.51514      2.54410     12.48308        -0.037819      0.018497      0.009155
      7.29838      2.54410     12.48308         0.037819      0.018497      0.009155
      2.96107      5.04853     12.48308        -0.034928      0.023504      0.009155
      5.85244      5.04853     12.48308         0.034928      0.023504      0.009155
      8.81351      5.08848     12.49171         0.000000      0.000000     -0.008047
      4.40676      2.54424     12.23647         0.000000      0.000000      0.467156
      4.40676      2.54424     13.82352         0.000000      0.000000     -0.007662
    total drift:                               -0.001004     -0.000321      0.562352

  FREE ENERGIE OF THE ION-ELECTRON SYSTEM (eV)
  free  energy   TOTEN  =      -117.91130144 eV

  energy  without entropy=     -117.91130144  energy(sigma->0) =     -117.91130144

 stress matrix after NEB project (eV)
    -21.99525     -0.00000     -0.00000
     -0.00000    -21.99525      0.00000
      0.00000      0.00000      3.50242
  FORCES: max atom, RMS     0.007662    0.001260
  FORCE total and by dimension    0.007662    0.007662
  Stress total and by dimension   31.302538   21.995250
|           W    W    AA    RRRRR   N    N  II  N    N   GGGG   !!!           |
|           W    W   A  A   R    R  NN   N  II  NN   N  G    G  !!!           |
|           W    W  A    A  R    R  N N  N  II  N N  N  G       !!!           |
|           W WW W  AAAAAA  RRRRR   N  N N  II  N  N N  G  GGG   !            |
|           WW  WW  A    A  R   R   N   NN  II  N   NN  G    G                |
|           W    W  A    A  R    R  N    N  II  N    N   GGGG   !!!           |
|     Tetrahedron method does not include variations of the Fermi             |
|     occupations, so forces and stress will be inaccurate. We suggest        |
|     using a different smearing scheme ISMEAR = 1 or 2 for metals in         |
|     relaxations.                                                            |

 total charge

# of ion       s       p       d       tot
    1        0.545   0.237   8.769   9.552
    2        0.544   0.240   8.764   9.549
    3        0.544   0.240   8.764   9.549
    4        0.544   0.240   8.764   9.549
    5        0.545   0.242   8.759   9.546
    6        0.544   0.240   8.764   9.549
    7        0.544   0.240   8.764   9.549
    8        0.544   0.240   8.764   9.549
    9        0.541   0.238   8.771   9.550
   10        0.522   0.309   8.767   9.597
   11        0.523   0.307   8.779   9.609
   12        0.522   0.309   8.767   9.597
   13        0.523   0.307   8.779   9.609
   14        0.523   0.307   8.779   9.609
   15        0.515   0.308   8.776   9.599
   16        0.522   0.309   8.767   9.597
   17        0.515   0.308   8.776   9.599
   18        0.515   0.308   8.776   9.599
   19        0.516   0.302   8.773   9.592
   20        0.546   0.326   8.755   9.627
   21        0.546   0.326   8.755   9.627
   22        0.508   0.308   8.777   9.593
   23        0.546   0.326   8.755   9.627
   24        0.508   0.308   8.777   9.593
   25        0.516   0.302   8.773   9.592
   26        0.516   0.302   8.773   9.592
   27        0.508   0.308   8.777   9.593
   28        0.537   0.228   8.771   9.535
   29        0.545   0.243   8.753   9.542
   30        0.545   0.243   8.753   9.542
   31        0.545   0.243   8.753   9.542
   32        0.545   0.243   8.753   9.542
   33        0.545   0.243   8.753   9.542
   34        0.545   0.243   8.753   9.542
   35        0.532   0.229   8.771   9.532
   36        0.597   0.457   7.044   8.098
   37        0.522   0.024   0.000   0.546
tot         19.749  10.134 313.874 343.757

 BZINTS: Fermi energy:    0.644949;  395.000000 electrons
         Band energy:-0.118958E+04;  BLOECHL correction:   -0.099034