 vasp.6.2.0 18Jan21 (build Jun 12 2021 23:27:24) complex

 executed on             LinuxIFC date 2022.05.26  19:40:00

 INCAR:
   ISMEAR = -5
   SIGMA = 0.1
   ISPIN = 1
   EDIFF = 1.d-5
   EDIFFG = -0.01
   NSW = 0
   NELM = 150
   ENCUT = 500
   ISIF = 2
   IBRION = 2
   LREAL = Auto
   ALGO = Fast
   ICHARG = 11
   LORBIT = 10
   LCHARG = .F.
   LWAVE = .F.

 POTCAR:    PAW_PBE Ag 02Apr2005
 POTCAR:    PAW_PBE Mn 06Sep2000
 POTCAR:    PAW_PBE H 15Jun2001
|           W    W    AA    RRRRR   N    N  II  N    N   GGGG   !!!           |
|           W    W   A  A   R    R  NN   N  II  NN   N  G    G  !!!           |
|           W    W  A    A  R    R  N N  N  II  N N  N  G       !!!           |
|           W WW W  AAAAAA  RRRRR   N  N N  II  N  N N  G  GGG   !            |
|           WW  WW  A    A  R   R   N   NN  II  N   NN  G    G                |
|           W    W  A    A  R    R  N    N  II  N    N   GGGG   !!!           |
|     For optimal performance we recommend to set                             |
|       NCORE = 2 up to number-of-cores-per-socket                            |
|     This setting can greatly improve the performance of VASP for DFT.       |
|     The default, NCORE=1 might be grossly inefficient on modern             |
|     multi-core architectures or massively parallel machines. Do your        |
|     Unfortunately you need to use the default for GW and RPA                |
|     calculations (for HF NCORE is supported but not extensively tested      |
|     yet).                                                                   |

 POTCAR:    PAW_PBE Ag 02Apr2005
   VRHFIN =Ag : s1 d10

   TITEL  = PAW_PBE Ag 02Apr2005
   POMASS =  107.868; ZVAL   =   11.000    mass and valenz
   ENMAX  =  249.844; ENMIN  =  187.383 eV

 POTCAR:    PAW_PBE Mn 06Sep2000
   VRHFIN =Mn: d6 s1

   TITEL  = PAW_PBE Mn 06Sep2000
   POMASS =   54.938; ZVAL   =    7.000    mass and valenz
   ENMAX  =  269.864; ENMIN  =  202.398 eV

 POTCAR:    PAW_PBE H 15Jun2001
   VRHFIN =H: ultrasoft test

   TITEL  = PAW_PBE H 15Jun2001
   POMASS =    1.000; ZVAL   =    1.000    mass and valenz
   ENMAX  =  250.000; ENMIN  =  200.000 eV

 Optimization of the real space projectors (new method)

 maximal supplied QI-value         = 15.12
 optimisation between [QCUT,QGAM] = [ 11.34, 22.83] = [ 36.00,145.93] Ry
 Optimized for a Real-space Cutoff    1.43 Angstroem

   l    n(q)    QCUT    max X(q) W(low)/X(q) W(high)/X(q)  e(spline)
   2      9    11.338    53.897    0.16E-03    0.20E-03    0.28E-06
   2      9    11.338    52.416    0.16E-03    0.20E-03    0.29E-06
   0     10    11.338   122.045    0.31E-04    0.76E-04    0.15E-06
   0     10    11.338    73.629    0.30E-04    0.72E-04    0.15E-06
   1      9    11.338    15.255    0.20E-03    0.19E-04    0.17E-06
   1      9    11.338     9.562    0.16E-03    0.15E-04    0.14E-06
 Optimization of the real space projectors (new method)

[...]

   l    n(q)    QCUT    max X(q) W(low)/X(q) W(high)/X(q)  e(spline)
   2      8    11.376   110.144    0.49E-03    0.27E-04    0.26E-06
   2      8    11.376   103.200    0.49E-03    0.28E-04    0.27E-06
   0      9    11.376    68.437    0.57E-04    0.92E-04    0.15E-06
   0      9    11.376    33.971    0.51E-04    0.83E-04    0.14E-06
   1      9    11.376    17.065    0.34E-03    0.68E-04    0.14E-06
   1      9    11.376    12.540    0.27E-03    0.59E-04    0.11E-06
 Optimization of the real space projectors (new method)

 maximal supplied QI-value         = 34.20
 optimisation between [QCUT,QGAM] = [ 11.29, 22.57] = [ 35.68,142.71] Ry
 Optimized for a Real-space Cutoff    1.16 Angstroem

   l    n(q)    QCUT    max X(q) W(low)/X(q) W(high)/X(q)  e(spline)
   0      8    11.287    19.460    0.40E-03    0.73E-03    0.16E-06
   0      8    11.287    12.209    0.38E-03    0.70E-03    0.15E-06
   1      7    11.287     4.655    0.22E-03    0.25E-04    0.22E-06
  PAW_PBE Ag 02Apr2005                  :
  PAW_PBE Mn 06Sep2000                  :
  PAW_PBE H 15Jun2001                   :

 POSCAR: Ag-Mn-H
  positions in direct lattice
  velocities in cartesian coordinates
 exchange correlation table for  LEXCH =        8
   RHO(1)=    0.500       N(1)  =     2000
   RHO(2)=  100.500       N(2)  =     4000

 VTST: version 3.2, (02/03/18)

 CHAIN: initializing optimizer

 OPT: Using VASP Conjugate-Gradient optimizer
 CHAIN: Read ICHAIN            0

 POSCAR: Ag-Mn-H
  positions in direct lattice
  velocities in cartesian coordinates

 ion  position               nearest neighbor table
   1  0.000  0.000  0.238-   2 2.93   8 2.93   7 2.93   6 2.93   4 2.93  12 2.93  16 2.93  10 2.93
                             3 2.93
   2  0.333  0.000  0.238-   1 2.93   8 2.93   9 2.93   3 2.93   4 2.93   5 2.93  10 2.93  17 2.93
                            11 2.93
   3  0.667  0.000  0.238-   9 2.93   2 2.93   5 2.93  11 2.93   7 2.93  18 2.93   1 2.93   6 2.93
                            12 2.93
   4  0.000  0.333  0.238-   5 2.93   6 2.93   2 2.93   1 2.93   7 2.93  13 2.93  15 2.93   9 2.93
                            10 2.93
   5  0.333  0.333  0.238-   4 2.93   3 2.93   7 2.93   2 2.93   8 2.93  14 2.93  13 2.93  11 2.93
                             6 2.93
   6  0.667  0.333  0.238-   4 2.93   9 2.93   1 2.93  15 2.93   8 2.93  12 2.93   3 2.93   5 2.93
                            14 2.93
   7  0.000  0.667  0.238-   8 2.93   1 2.93   5 2.93   3 2.93   4 2.93  16 2.93  18 2.93  13 2.93
                             9 2.93
   8  0.333  0.667  0.238-   7 2.93   1 2.93   2 2.93   9 2.93   5 2.93  16 2.93   6 2.93  17 2.93
                            14 2.93
   9  0.667  0.667  0.238-   3 2.93   2 2.93   8 2.93   6 2.93  17 2.93   4 2.93  15 2.93   7 2.93
                            18 2.93
  10  0.111  0.111  0.346-  20 2.92  19 2.93  26 2.93  12 2.93  16 2.93  15 2.93  17 2.93  13 2.93
                            11 2.93   2 2.93   1 2.93   4 2.93
  11  0.444  0.111  0.346-  21 2.90  20 2.90  27 2.92  14 2.93  17 2.93  18 2.93   3 2.93  12 2.93
                            13 2.93  10 2.93   5 2.93   2 2.93
  12  0.778  0.111  0.346-  21 2.92  25 2.93  19 2.93  10 2.93  16 2.93  18 2.93  15 2.93  11 2.93
                             1 2.93  14 2.93   6 2.93   3 2.93
  13  0.111  0.444  0.346-  20 2.90  23 2.90  22 2.92  15 2.93  14 2.93  18 2.93  10 2.93  11 2.93
                            16 2.93   4 2.93   5 2.93   7 2.93
  14  0.444  0.444  0.346-  23 2.90  21 2.90  24 2.92  13 2.93  11 2.93  16 2.93   5 2.93  12 2.93
                            17 2.93   8 2.93  15 2.93   6 2.93
  15  0.778  0.444  0.346-  24 2.92  22 2.92  19 2.92  13 2.93  10 2.93  12 2.93  17 2.93  18 2.93
                             4 2.93   6 2.93   9 2.93  14 2.93
  16  0.111  0.778  0.346-  23 2.92  26 2.93  25 2.93  18 2.93  12 2.93  10 2.93  14 2.93  17 2.93
                            13 2.93   7 2.93   8 2.93   1 2.93
  17  0.444  0.778  0.346-  27 2.92  24 2.92  26 2.92  11 2.93  10 2.93   9 2.93  18 2.93  15 2.93
                            16 2.93   2 2.93  14 2.93   8 2.93
  18  0.778  0.778  0.346-  22 2.92  27 2.92  25 2.92  16 2.93  12 2.93  13 2.93  11 2.93  17 2.93
                            15 2.93   7 2.93   3 2.93   9 2.93
  19  0.889  0.223  0.454-  28 2.91  15 2.92  10 2.93  12 2.93  24 2.93  22 2.93  26 2.94  25 2.94
                            20 2.94  21 2.94  32 2.95  31 2.95
  20  0.223  0.223  0.453-  36 2.71  31 2.90  29 2.90  13 2.90  11 2.90  21 2.91  23 2.91  10 2.92
                            27 2.93  22 2.93  19 2.94  26 2.94
  21  0.554  0.223  0.453-  36 2.71  30 2.90  32 2.90  11 2.90  14 2.90  20 2.91  23 2.91  12 2.92
                            27 2.93  24 2.93  25 2.94  19 2.94
  22  0.888  0.556  0.453-  35 2.91  18 2.92  15 2.92  13 2.92  24 2.93  27 2.93  33 2.93  31 2.93
                            25 2.93  19 2.93  23 2.93  20 2.93
  23  0.223  0.554  0.453-  36 2.71  34 2.90  33 2.90  14 2.90  13 2.90  21 2.91  20 2.91  16 2.92
                            22 2.93  24 2.93  26 2.94  25 2.94
  24  0.556  0.556  0.453-  35 2.91  15 2.92  17 2.92  14 2.92  27 2.93  22 2.93  32 2.93  34 2.93
                            19 2.93  26 2.93  23 2.93  21 2.93
  25  0.889  0.889  0.454-  28 2.91  18 2.92  16 2.93  12 2.93  22 2.93  27 2.93  26 2.94  19 2.94
                            23 2.94  21 2.94  33 2.95  30 2.95
  26  0.223  0.889  0.454-  28 2.91  17 2.92  16 2.93  10 2.93  27 2.93  24 2.93  25 2.94  19 2.94
                            23 2.94  20 2.94  34 2.95  29 2.95
  27  0.556  0.888  0.453-  35 2.91  17 2.92  18 2.92  11 2.92  24 2.93  22 2.93  29 2.93  30 2.93
                            26 2.93  25 2.93  20 2.93  21 2.93
  28  0.000  0.000  0.560-  26 2.91  25 2.91  19 2.91  29 2.97  34 2.97  33 2.97  32 2.97  31 2.97
                            30 2.97
  29  0.333  0.008  0.561-  31 2.86  30 2.86  36 2.87  20 2.90  27 2.93  26 2.95  28 2.97  35 2.97
                            34 3.07
  30  0.659  0.008  0.561-  32 2.86  29 2.86  36 2.87  21 2.90  27 2.93  25 2.95  28 2.97  35 2.97
                            33 3.07
  31  0.008  0.333  0.561-  29 2.86  33 2.86  36 2.87  20 2.90  22 2.93  19 2.95  28 2.97  35 2.97
                            32 3.07
  32  0.659  0.333  0.561-  30 2.86  34 2.86  36 2.87  21 2.90  24 2.93  19 2.95  28 2.97  35 2.97
                            31 3.07
  33  0.008  0.659  0.561-  34 2.86  31 2.86  36 2.87  23 2.90  22 2.93  25 2.95  28 2.97  35 2.97
                            30 3.07
  34  0.333  0.659  0.561-  33 2.86  32 2.86  36 2.87  23 2.90  24 2.93  26 2.95  28 2.97  35 2.97
                            29 3.07
  35  0.667  0.667  0.560-  24 2.91  27 2.91  22 2.91  32 2.97  30 2.97  29 2.97  34 2.97  31 2.97
                            33 2.97
  36  0.333  0.333  0.549-  37 1.56  21 2.71  20 2.71  23 2.71  31 2.87  30 2.87  33 2.87  29 2.87
                            34 2.87  32 2.87
  37  0.333  0.333  0.619-  36 1.56

  LATTYP: Found a hexagonal cell.
 ALAT       =     8.7913665772
 C/A-ratio  =     2.5227160501

  Lattice vectors:

 A1 = (  -4.3956832886,  -7.6135467898,   0.0000000000)
 A2 = (   8.7913665771,   0.0000000000,   0.0000000000)
 A3 = (   0.0000000000,   0.0000000000,  22.1781215668)

Analysis of symmetry for initial positions (statically):
 Subroutine PRICEL returns:
 Original cell was already a primitive cell.

 Routine SETGRP: Setting up the symmetry group for a
 hexagonal supercell.

 Subroutine GETGRP returns: Found  6 space group operations
 (whereof  6 operations were pure point group operations)
 out of a pool of 24 trial point group operations.

The static configuration has the point symmetry C_3v.

Analysis of symmetry for dynamics (positions and initial velocities):
 Subroutine PRICEL returns:
 Original cell was already a primitive cell.

[...]

The dynamic configuration has the point symmetry C_3v.

Analysis of constrained symmetry for selective dynamics:
 Subroutine PRICEL returns:
 Original cell was already a primitive cell.

 Routine SETGRP: Setting up the symmetry group for a
 hexagonal supercell.

 Subroutine GETGRP returns: Found  6 space group operations
 (whereof  6 operations were pure point group operations)
[...]
     24      -4.7241      2.00000
     25      -4.6935      2.00000
     26      -4.6706      2.00000
     27      -4.6562      2.00000
     28      -4.6489      2.00000
     29      -4.6381      2.00000
     30      -4.6202      2.00000
     31      -4.6143      2.00000
     32      -4.5749      2.00000
     33      -4.5526      2.00000
     34      -4.5106      2.00000
     35      -4.4898      2.00000
     36      -4.4704      2.00000
     37      -4.4470      2.00000
     38      -4.4175      2.00000
     39      -4.4151      2.00000
     40      -4.3936      2.00000
     41      -4.3912      2.00000
     42      -4.3662      2.00000
     43      -4.3041      2.00000
     44      -4.2776      2.00000
     45      -4.2673      2.00000
     46      -4.2643      2.00000
     47      -4.2526      2.00000
     48      -4.2498      2.00000
     49      -4.2327      2.00000
     50      -4.2249      2.00000
     51      -4.2094      2.00000
     52      -4.2059      2.00000
     53      -4.1416      2.00000
     54      -4.1354      2.00000
     55      -4.1236      2.00000
     56      -4.1176      2.00000
     57      -4.1001      2.00000
     58      -4.0853      2.00000
     59      -4.0481      2.00000
     60      -4.0366      2.00000
[...]
    238       7.0568      0.00000
    239       7.1268      0.00000
    240       7.1749      0.00000
    241       7.2060      0.00000
    242       7.2177      0.00000
    243       7.2809      0.00000
    244       7.2916      0.00000
    245       7.4318      0.00000
    246       7.4983      0.00000
    247       7.5186      0.00000
    248       7.5423      0.00000
    249       7.5875      0.00000
    250       7.7925      0.00000
    251       7.8691      0.00000
    252       8.0592      0.00000

 soft charge-density along one line, spin component           1
         0         1         2         3         4         5         6         7         8         9
 total charge-density along one line

------------------------ aborting loop because EDIFF is reached ----------------------------------------

 total charge

# of ion       s       p       d       tot
    1        0.420   0.201   9.179   9.800
    2        0.415   0.204   9.178   9.797
    3        0.415   0.204   9.178   9.797
    4        0.415   0.204   9.178   9.797
    5        0.421   0.202   9.175   9.798
    6        0.415   0.204   9.178   9.797
    7        0.415   0.204   9.178   9.797
    8        0.415   0.204   9.178   9.797
    9        0.416   0.202   9.178   9.796
   10        0.408   0.269   9.162   9.839
   11        0.408   0.268   9.169   9.844
   12        0.408   0.269   9.162   9.839
   13        0.408   0.268   9.169   9.844
   14        0.408   0.268   9.169   9.844
   15        0.405   0.269   9.165   9.838
   16        0.408   0.269   9.162   9.839
   17        0.405   0.269   9.165   9.838
   18        0.405   0.269   9.165   9.838
   19        0.401   0.264   9.168   9.833
   20        0.434   0.294   9.144   9.872
   21        0.434   0.294   9.144   9.872
   22        0.396   0.274   9.166   9.837
   23        0.434   0.294   9.144   9.872
   24        0.396   0.274   9.166   9.837
   25        0.401   0.264   9.168   9.833
   26        0.401   0.264   9.168   9.833
   27        0.396   0.274   9.166   9.837
   28        0.411   0.196   9.177   9.785
   29        0.422   0.204   9.170   9.796
   30        0.422   0.204   9.170   9.796
   31        0.422   0.204   9.170   9.796
   32        0.422   0.204   9.170   9.796
   33        0.422   0.204   9.170   9.796
   34        0.422   0.204   9.170   9.796
   35        0.406   0.196   9.181   9.783
   36        0.313   0.245   5.034   5.592
   37        0.517   0.013   0.000   0.530
tot         15.283   8.615 325.936 349.833

  FORCE on cell =-STRESS in cart. coord.  units (eV):
  Direction    XX          YY          ZZ          XY          YZ          ZX
  Alpha Z   738.02086   738.02086   738.02086
  Ewald  120412.73451120412.73446************     0.00001    -0.00000    -0.00001
  Hartree130488.86184130488.86183************     0.00000    -0.00000    -0.00000
  E(xc)   -2063.54139 -2063.54137 -2069.85427    -0.00001     0.00000     0.00000
  Local  ************************262261.06231     0.00021    -0.00003    -0.00005
  n-local  -357.32668  -338.09750  -349.30132    10.90239    -0.42123     0.23207
  augment  3247.52901  3247.52911  3260.07063    -0.00009     0.00002     0.00008
  Kinetic  4836.62810  4842.83438  4872.59210     4.68714     0.70556     0.57974
  Fock        0.00000     0.00000     0.00000     0.00000     0.00000     0.00000
  Total     -11.19493   -11.19493    -1.97409    -0.00000     0.00000     0.00000
  in kB     -12.08270   -12.08270    -2.13063    -0.00000     0.00000     0.00000

 VOLUME and BASIS-vectors are now :
  energy-cutoff  :      500.00
  volume of cell :     1484.46
      direct lattice vectors                 reciprocal lattice vectors
     8.791366577  0.000000000  0.000000000     0.113747958 -0.065672414  0.000000000
     4.395683289  7.613546790  0.000000000     0.000000000  0.131344829  0.000000000
     0.000000000  0.000000000 22.178121567     0.000000000  0.000000000  0.045089481

  length of vectors
     8.791366577  8.791366577 22.178121567     0.131344829  0.131344829  0.045089481

 FORCES acting on ions
    electron-ion (+dipol)            ewald-force                    non-local-force                 convergence-correction
   0.461E-04 -.282E-04 0.249E+04   -.954E-04 0.593E-04 -.249E+04   -.164E-18 0.332E-17 -.195E+01   -.105E-03 -.167E-03 0.254E+00
   0.128E+00 0.229E+00 0.249E+04   -.331E+00 -.240E+00 -.249E+04   0.991E-01 0.140E+00 -.157E+01   0.101E+00 -.124E+00 0.361E+00
   -.127E+00 0.229E+00 0.249E+04   0.331E+00 -.240E+00 -.249E+04   -.991E-01 0.140E+00 -.157E+01   -.101E+00 -.122E+00 0.362E+00
   0.262E+00 -.418E-02 0.249E+04   -.373E+00 -.167E+00 -.249E+04   0.170E+00 0.160E-01 -.157E+01   -.569E-01 0.149E+00 0.361E+00
   -.785E-05 -.200E-04 0.249E+04   0.981E-04 -.200E-05 -.249E+04   0.408E-17 -.289E-19 -.116E+01   0.624E-02 0.381E-02 0.502E+00
   -.262E+00 -.415E-02 0.249E+04   0.373E+00 -.167E+00 -.249E+04   -.170E+00 0.160E-01 -.157E+01   0.555E-01 0.150E+00 0.362E+00
   0.135E+00 -.225E+00 0.249E+04   -.423E-01 0.406E+00 -.249E+04   0.713E-01 -.156E+00 -.157E+01   -.156E+00 -.261E-01 0.362E+00
   -.135E+00 -.225E+00 0.249E+04   0.422E-01 0.406E+00 -.249E+04   -.713E-01 -.156E+00 -.157E+01   0.158E+00 -.271E-01 0.362E+00
   0.364E-04 -.131E-04 0.249E+04   0.792E-04 -.642E-04 -.249E+04   -.178E-17 0.839E-18 -.178E+01   -.666E-02 -.343E-02 0.289E+00
   0.291E+01 0.168E+01 0.815E+03   -.260E+01 -.150E+01 -.815E+03   -.326E+00 -.188E+00 -.706E+00   0.143E-01 0.828E-02 0.564E+00
   -.290E-04 0.311E+01 0.819E+03   0.413E-04 -.311E+01 -.820E+03   0.838E-12 0.128E+00 -.266E+00   0.628E-02 -.141E+00 0.632E+00
   -.291E+01 0.168E+01 0.815E+03   0.260E+01 -.150E+01 -.815E+03   0.326E+00 -.188E+00 -.706E+00   -.159E-01 0.936E-02 0.564E+00
   0.269E+01 -.155E+01 0.819E+03   -.269E+01 0.156E+01 -.820E+03   0.111E+00 -.638E-01 -.266E+00   -.119E+00 0.761E-01 0.632E+00
   -.269E+01 -.155E+01 0.819E+03   0.269E+01 0.156E+01 -.820E+03   -.111E+00 -.638E-01 -.266E+00   0.130E+00 0.753E-01 0.631E+00
   0.159E-04 0.113E+01 0.817E+03   -.108E-03 -.139E+01 -.816E+03   0.726E-12 0.111E+00 -.754E+00   -.163E-02 0.129E+00 0.561E+00
   -.818E-05 -.336E+01 0.815E+03   0.207E-04 0.301E+01 -.815E+03   0.247E-11 0.376E+00 -.706E+00   0.123E-03 -.185E-01 0.564E+00
   0.977E+00 -.564E+00 0.817E+03   -.121E+01 0.696E+00 -.816E+03   0.958E-01 -.553E-01 -.754E+00   0.111E+00 -.657E-01 0.561E+00
   -.977E+00 -.564E+00 0.817E+03   0.121E+01 0.696E+00 -.816E+03   -.958E-01 -.553E-01 -.754E+00   -.111E+00 -.639E-01 0.562E+00
   0.405E-04 -.100E+01 -.881E+03   -.126E-03 0.725E+00 0.880E+03   0.892E-12 0.136E+00 0.800E+00   -.137E-03 0.123E+00 0.687E+00
   0.442E+01 0.255E+01 -.871E+03   -.343E+01 -.198E+01 0.870E+03   -.125E+01 -.720E+00 -.108E+01   0.216E+00 0.125E+00 0.113E+01
   -.442E+01 0.255E+01 -.871E+03   0.343E+01 -.198E+01 0.870E+03   0.125E+01 -.720E+00 -.108E+01   -.216E+00 0.125E+00 0.113E+01
   -.124E+01 0.718E+00 -.873E+03   0.906E+00 -.523E+00 0.872E+03   0.233E+00 -.134E+00 0.337E+00   0.125E+00 -.714E-01 0.592E+00
   -.563E-04 -.510E+01 -.871E+03   0.412E-04 0.396E+01 0.870E+03   0.946E-11 0.144E+01 -.108E+01   0.769E-03 -.249E+00 0.113E+01
   0.124E+01 0.718E+00 -.873E+03   -.906E+00 -.523E+00 0.872E+03   -.233E+00 -.134E+00 0.337E+00   -.124E+00 -.718E-01 0.592E+00
   0.866E+00 0.500E+00 -.881E+03   -.628E+00 -.362E+00 0.880E+03   -.118E+00 -.679E-01 0.800E+00   -.106E+00 -.615E-01 0.686E+00
   -.866E+00 0.500E+00 -.881E+03   0.628E+00 -.362E+00 0.880E+03   0.118E+00 -.679E-01 0.800E+00   0.106E+00 -.618E-01 0.687E+00
   0.206E-04 -.144E+01 -.873E+03   0.110E-03 0.105E+01 0.872E+03   0.176E-11 0.268E+00 0.337E+00   -.244E-03 0.143E+00 0.592E+00
   0.541E-04 -.366E-04 -.251E+04   -.113E-03 0.769E-04 0.251E+04   0.193E-18 -.111E-17 0.199E+01   0.130E-02 0.619E-03 0.472E-01
   -.399E+00 -.185E+01 -.252E+04   0.680E+00 0.227E+01 0.251E+04   -.669E+00 -.101E+01 0.174E+01   0.388E+00 0.571E+00 -.176E-01
   0.399E+00 -.185E+01 -.252E+04   -.680E+00 0.227E+01 0.251E+04   0.669E+00 -.101E+01 0.174E+01   -.399E+00 0.572E+00 -.177E-01
   -.180E+01 0.578E+00 -.252E+04   0.231E+01 -.545E+00 0.251E+04   -.121E+01 -.770E-01 0.174E+01   0.688E+00 0.507E-01 -.176E-01
   0.180E+01 0.578E+00 -.252E+04   -.231E+01 -.546E+00 0.251E+04   0.121E+01 -.770E-01 0.174E+01   -.699E+00 0.516E-01 -.177E-01
   -.140E+01 0.127E+01 -.252E+04   0.163E+01 -.172E+01 0.251E+04   -.536E+00 0.108E+01 0.174E+01   0.297E+00 -.631E+00 -.177E-01
   0.140E+01 0.127E+01 -.252E+04   -.163E+01 -.172E+01 0.251E+04   0.536E+00 0.108E+01 0.174E+01   -.305E+00 -.631E+00 -.178E-01
   0.252E-04 -.142E-04 -.251E+04   0.105E-03 -.650E-04 0.251E+04   0.238E-17 -.271E-17 0.211E+01   -.532E-02 -.264E-02 0.110E+00
   -.279E-04 -.696E-05 -.150E+04   0.674E-04 0.931E-05 0.151E+04   -.392E-17 -.370E-17 -.334E+01   0.349E-02 0.211E-02 0.269E+00
   0.423E-05 -.419E-05 -.284E+03   0.570E-05 0.105E-06 0.286E+03   -.600E-19 -.974E-19 -.212E+01   0.166E-03 0.996E-04 -.212E+00
   0.309E-03 -.717E-03 -.562E+01   -.453E-13 0.309E-12 0.188E-11   0.442E-15 -.895E-15 -.102E+02   -.180E-01 -.712E-02 0.158E+02

 POSITION                                       TOTAL-FORCE (eV/Angst)
      0.00000      0.00000      5.28219        -0.000000      0.000000     -0.042467
      2.93046      0.00000      5.28219        -0.002760      0.005940      0.025454
      5.86091      0.00000      5.28219         0.002760      0.005940      0.025454
      1.46523      2.53785      5.28219         0.003765     -0.005360      0.025454
      4.39568      2.53785      5.28219        -0.000000      0.000000     -0.013554
      7.32614      2.53785      5.28219        -0.003765     -0.005360      0.025454
      2.93046      5.07570      5.28219         0.006524     -0.000580      0.025454
      5.86091      5.07570      5.28219        -0.006524     -0.000580      0.025454
      8.79137      5.07570      5.28219        -0.000000      0.000000      0.000410
      1.46523      0.84595      7.67490        -0.003801     -0.002195     -0.007853
      4.39568      0.84595      7.67490        -0.000000     -0.019049     -0.040263
      7.32614      0.84595      7.67490         0.003801     -0.002195     -0.007853
      2.93046      3.38380      7.67490        -0.016497      0.009525     -0.040263
      5.86091      3.38380      7.67490         0.016497      0.009525     -0.040263
      8.79137      3.38380      7.67490        -0.000000     -0.025716     -0.005097
      4.39568      5.92165      7.67490         0.000000      0.004389     -0.007853
      7.32614      5.92165      7.67490        -0.022271      0.012858     -0.005097
     10.25659      5.92165      7.67490         0.022271      0.012858     -0.005097
      8.79137      1.69455     10.06139        -0.000000     -0.016311      0.007255
      2.94158      1.69832     10.04035        -0.041382     -0.023892     -0.045226
      5.84978      1.69832     10.04035         0.041382     -0.023892     -0.045226
     10.25392      4.23129     10.05365         0.018592     -0.010734     -0.001602
      4.39568      4.21690     10.04035         0.000000      0.047784     -0.045226
      7.32881      4.23129     10.05365        -0.018592     -0.010734     -0.001602
     11.71953      6.76627     10.06139         0.014126      0.008155      0.007255
      5.86321      6.76627     10.06139        -0.014126      0.008155      0.007255
      8.79137      6.76451     10.05365         0.000000      0.021468     -0.001602
      0.00000      0.00000     12.42536        -0.000000      0.000000      0.022517
      2.96459      0.05999     12.43855         0.006040     -0.008576      0.020706
      5.82677      0.05999     12.43855        -0.006040     -0.008576      0.020706
      1.53425      2.53742     12.43855        -0.004407      0.009519      0.020706
      7.25712      2.53742     12.43855         0.004407      0.009519      0.020706
      2.96534      5.01614     12.43855        -0.010447     -0.000942      0.020706
      5.82603      5.01614     12.43855         0.010447     -0.000942      0.020706
      8.79137      5.07570     12.42471        -0.000000      0.000000      0.030843
      4.39568      2.53785     12.16969        -0.000000      0.000000      0.002226
      4.39568      2.53785     13.72900        -0.000000      0.000000      0.001418
    total drift:                               -0.017666     -0.007835      0.031252

  FREE ENERGIE OF THE ION-ELECTRON SYSTEM (eV)
  free  energy   TOTEN  =       -98.25052682 eV

  energy  without entropy=      -98.25052682  energy(sigma->0) =      -98.25052682

 stress matrix after NEB project (eV)
    -11.19493     -0.00000      0.00000
     -0.00000    -11.19493      0.00000
      0.00000      0.00000     -1.97409
  FORCES: max atom, RMS     0.001418    0.000233
  FORCE total and by dimension    0.001418    0.001418
  Stress total and by dimension   15.954622   11.194931
|           W    W    AA    RRRRR   N    N  II  N    N   GGGG   !!!           |
|           W    W   A  A   R    R  NN   N  II  NN   N  G    G  !!!           |
|           W    W  A    A  R    R  N N  N  II  N N  N  G       !!!           |
|           W WW W  AAAAAA  RRRRR   N  N N  II  N  N N  G  GGG   !            |
|           WW  WW  A    A  R   R   N   NN  II  N   NN  G    G                |
|           W    W  A    A  R    R  N    N  II  N    N   GGGG   !!!           |
|     Tetrahedron method does not include variations of the Fermi             |
|     occupations, so forces and stress will be inaccurate. We suggest        |
|     using a different smearing scheme ISMEAR = 1 or 2 for metals in         |
|     relaxations.                                                            |

 total charge

# of ion       s       p       d       tot
    1        0.420   0.201   9.179   9.800
    2        0.415   0.204   9.178   9.797
    3        0.415   0.204   9.178   9.797
    4        0.415   0.204   9.178   9.797
    5        0.421   0.202   9.175   9.798
    6        0.415   0.204   9.178   9.797
    7        0.415   0.204   9.178   9.797
    8        0.415   0.204   9.178   9.797
    9        0.416   0.202   9.178   9.796
   10        0.408   0.269   9.162   9.839
   11        0.408   0.268   9.169   9.844
   12        0.408   0.269   9.162   9.839
   13        0.408   0.268   9.169   9.844
   14        0.408   0.268   9.169   9.844
   15        0.405   0.269   9.165   9.838
   16        0.408   0.269   9.162   9.839
   17        0.405   0.269   9.165   9.838
   18        0.405   0.269   9.165   9.838
   19        0.401   0.264   9.168   9.833
   20        0.434   0.294   9.144   9.872
   21        0.434   0.294   9.144   9.872
   22        0.396   0.274   9.166   9.837
   23        0.434   0.294   9.144   9.872
   24        0.396   0.274   9.166   9.837
   25        0.401   0.264   9.168   9.833
   26        0.401   0.264   9.168   9.833
   27        0.396   0.274   9.166   9.837
   28        0.411   0.196   9.177   9.785
   29        0.422   0.204   9.170   9.796
   30        0.422   0.204   9.170   9.796
   31        0.422   0.204   9.170   9.796
   32        0.422   0.204   9.170   9.796
   33        0.422   0.204   9.170   9.796
   34        0.422   0.204   9.170   9.796
   35        0.406   0.196   9.181   9.783
   36        0.313   0.245   5.034   5.592
   37        0.517   0.013   0.000   0.530
tot         15.283   8.615 325.936 349.833

 BZINTS: Fermi energy:    0.713971;  393.000000 electrons
         Band energy:-0.129883E+04;  BLOECHL correction:   -0.016050