 vasp.6.2.0 18Jan21 (build Jun 12 2021 23:27:24) complex

 executed on             LinuxIFC date 2022.05.26  19:53:48

 INCAR:
   ISMEAR = -5
   SIGMA = 0.1
   ISPIN = 1
   EDIFF = 1.d-5
   EDIFFG = -0.01
   NSW = 0
   NELM = 150
   ENCUT = 500
   ISIF = 2
   IBRION = 2
   LREAL = Auto
   ALGO = Fast
   ICHARG = 11
   LORBIT = 10
   LCHARG = .F.
   LWAVE = .F.

 POTCAR:    PAW_PBE Ag 02Apr2005
 POTCAR:    PAW_PBE Os 17Jan2003
 POTCAR:    PAW_PBE H 15Jun2001
|           W    W    AA    RRRRR   N    N  II  N    N   GGGG   !!!           |
|           W    W   A  A   R    R  NN   N  II  NN   N  G    G  !!!           |
|           W    W  A    A  R    R  N N  N  II  N N  N  G       !!!           |
|           W WW W  AAAAAA  RRRRR   N  N N  II  N  N N  G  GGG   !            |
|           WW  WW  A    A  R   R   N   NN  II  N   NN  G    G                |
|           W    W  A    A  R    R  N    N  II  N    N   GGGG   !!!           |
|     For optimal performance we recommend to set                             |
|       NCORE = 2 up to number-of-cores-per-socket                            |
|     This setting can greatly improve the performance of VASP for DFT.       |
|     The default, NCORE=1 might be grossly inefficient on modern             |
|     multi-core architectures or massively parallel machines. Do your        |
|     Unfortunately you need to use the default for GW and RPA                |
|     calculations (for HF NCORE is supported but not extensively tested      |
|     yet).                                                                   |

 POTCAR:    PAW_PBE Ag 02Apr2005
   VRHFIN =Ag : s1 d10

   TITEL  = PAW_PBE Ag 02Apr2005
   POMASS =  107.868; ZVAL   =   11.000    mass and valenz
   ENMAX  =  249.844; ENMIN  =  187.383 eV

 POTCAR:    PAW_PBE Os 17Jan2003
   VRHFIN =Os: 6s5d

   TITEL  = PAW_PBE Os 17Jan2003
   POMASS =  190.200; ZVAL   =    8.000    mass and valenz
   ENMAX  =  228.022; ENMIN  =  171.017 eV

 POTCAR:    PAW_PBE H 15Jun2001
   VRHFIN =H: ultrasoft test

   TITEL  = PAW_PBE H 15Jun2001
   POMASS =    1.000; ZVAL   =    1.000    mass and valenz
   ENMAX  =  250.000; ENMIN  =  200.000 eV

 Optimization of the real space projectors (new method)

 maximal supplied QI-value         = 15.12
 optimisation between [QCUT,QGAM] = [ 11.34, 22.83] = [ 36.00,145.93] Ry
 Optimized for a Real-space Cutoff    1.43 Angstroem

   l    n(q)    QCUT    max X(q) W(low)/X(q) W(high)/X(q)  e(spline)
   2      9    11.338    53.897    0.16E-03    0.20E-03    0.28E-06
   2      9    11.338    52.416    0.16E-03    0.20E-03    0.29E-06
   0     10    11.338   122.045    0.31E-04    0.76E-04    0.15E-06
   0     10    11.338    73.629    0.30E-04    0.72E-04    0.15E-06
   1      9    11.338    15.255    0.20E-03    0.19E-04    0.17E-06
   1      9    11.338     9.562    0.16E-03    0.15E-04    0.14E-06
 Optimization of the real space projectors (new method)

[...]

   l    n(q)    QCUT    max X(q) W(low)/X(q) W(high)/X(q)  e(spline)
   2     10    11.327   152.873    0.32E-03    0.72E-03    0.11E-05
   2     10    11.327   151.010    0.32E-03    0.72E-03    0.11E-05
   0     11    11.327    72.114    0.43E-04    0.61E-04    0.13E-06
   0     11    11.327    44.596    0.40E-04    0.57E-04    0.12E-06
   1     10    11.327    13.742    0.16E-03    0.10E-03    0.19E-06
   1     10    11.327     8.461    0.12E-03    0.78E-04    0.15E-06
 Optimization of the real space projectors (new method)

 maximal supplied QI-value         = 34.20
 optimisation between [QCUT,QGAM] = [ 11.29, 22.57] = [ 35.68,142.71] Ry
 Optimized for a Real-space Cutoff    1.16 Angstroem

   l    n(q)    QCUT    max X(q) W(low)/X(q) W(high)/X(q)  e(spline)
   0      8    11.287    19.460    0.40E-03    0.73E-03    0.16E-06
   0      8    11.287    12.209    0.38E-03    0.70E-03    0.15E-06
   1      7    11.287     4.655    0.22E-03    0.25E-04    0.22E-06
  PAW_PBE Ag 02Apr2005                  :
  PAW_PBE Os 17Jan2003                  :
  PAW_PBE H 15Jun2001                   :

 POSCAR: Ag-Os-H
  positions in direct lattice
  velocities in cartesian coordinates
 exchange correlation table for  LEXCH =        8
   RHO(1)=    0.500       N(1)  =     2000
   RHO(2)=  100.500       N(2)  =     4000

 VTST: version 3.2, (02/03/18)

 CHAIN: initializing optimizer

 OPT: Using VASP Conjugate-Gradient optimizer
 CHAIN: Read ICHAIN            0

 POSCAR: Ag-Os-H
  positions in direct lattice
  velocities in cartesian coordinates

 ion  position               nearest neighbor table
   1  0.000  0.000  0.238-   2 2.93   8 2.93   7 2.93   6 2.93   4 2.93  12 2.93  16 2.93  10 2.93
                             3 2.93
   2  0.333  0.000  0.238-   1 2.93   8 2.93   9 2.93   3 2.93   4 2.93   5 2.93  10 2.93  17 2.93
                            11 2.93
   3  0.667  0.000  0.238-   9 2.93   2 2.93   5 2.93  11 2.93   7 2.93  18 2.93   1 2.93   6 2.93
                            12 2.93
   4  0.000  0.333  0.238-   5 2.93   6 2.93   2 2.93   1 2.93   7 2.93  13 2.93  15 2.93   9 2.93
                            10 2.93
   5  0.333  0.333  0.238-   4 2.93   3 2.93   7 2.93   2 2.93   8 2.93  14 2.93  13 2.93  11 2.93
                             6 2.93
   6  0.667  0.333  0.238-   4 2.93   9 2.93   1 2.93  15 2.93   8 2.93  12 2.93   3 2.93   5 2.93
                            14 2.93
   7  0.000  0.667  0.238-   8 2.93   1 2.93   5 2.93   3 2.93   4 2.93  16 2.93  18 2.93  13 2.93
                             9 2.93
   8  0.333  0.667  0.238-   7 2.93   1 2.93   2 2.93   9 2.93   5 2.93  16 2.93   6 2.93  17 2.93
                            14 2.93
   9  0.667  0.667  0.238-   3 2.93   2 2.93   8 2.93   6 2.93  17 2.93   4 2.93  15 2.93   7 2.93
                            18 2.93
  10  0.111  0.111  0.346-  20 2.89  12 2.93  16 2.93  15 2.93  17 2.93  13 2.93  11 2.93   2 2.93
                             1 2.93   4 2.93  19 2.93  26 2.93
  11  0.444  0.111  0.346-  21 2.89  20 2.89  27 2.92  14 2.93  17 2.93  18 2.93   3 2.93  12 2.93
                            13 2.93  10 2.93   5 2.93   2 2.93
  12  0.778  0.111  0.346-  21 2.89  10 2.93  16 2.93  18 2.93  15 2.93  11 2.93   1 2.93  14 2.93
                             6 2.93   3 2.93  25 2.93  19 2.93
  13  0.111  0.444  0.346-  20 2.89  23 2.89  22 2.92  15 2.93  14 2.93  18 2.93  10 2.93  11 2.93
                            16 2.93   4 2.93   5 2.93   7 2.93
  14  0.444  0.444  0.346-  23 2.89  21 2.89  24 2.92  13 2.93  11 2.93  16 2.93   5 2.93  12 2.93
                            17 2.93   8 2.93  15 2.93   6 2.93
  15  0.778  0.444  0.346-  24 2.92  22 2.92  19 2.93  13 2.93  10 2.93  12 2.93  17 2.93  18 2.93
                             4 2.93   6 2.93   9 2.93  14 2.93
  16  0.111  0.778  0.346-  23 2.89  18 2.93  12 2.93  10 2.93  14 2.93  17 2.93  13 2.93   7 2.93
                             8 2.93   1 2.93  26 2.93  25 2.93
  17  0.444  0.778  0.346-  27 2.92  24 2.92  26 2.93  11 2.93  10 2.93   9 2.93  18 2.93  15 2.93
                            16 2.93   2 2.93  14 2.93   8 2.93
  18  0.778  0.778  0.346-  22 2.92  27 2.92  25 2.93  16 2.93  12 2.93  13 2.93  11 2.93  17 2.93
                            15 2.93   7 2.93   3 2.93   9 2.93
  19  0.888  0.223  0.454-  28 2.90  24 2.93  22 2.93  15 2.93  20 2.93  21 2.93  10 2.93  12 2.93
                            26 2.94  25 2.94  32 2.95  31 2.95
  20  0.222  0.222  0.452-  36 2.76  13 2.89  11 2.89  10 2.89  31 2.93  29 2.93  21 2.93  23 2.93
                            19 2.93  26 2.93  27 2.94  22 2.94
  21  0.556  0.222  0.452-  36 2.76  11 2.89  14 2.89  12 2.89  30 2.93  32 2.93  20 2.93  23 2.93
                            25 2.93  19 2.93  27 2.94  24 2.94
  22  0.888  0.556  0.453-  35 2.90  18 2.92  15 2.92  24 2.92  27 2.92  13 2.92  25 2.93  19 2.93
                            33 2.94  31 2.94  23 2.94  20 2.94
  23  0.222  0.556  0.452-  36 2.76  14 2.89  13 2.89  16 2.89  34 2.93  33 2.93  21 2.93  20 2.93
                            26 2.93  25 2.93  22 2.94  24 2.94
  24  0.556  0.556  0.453-  35 2.90  15 2.92  17 2.92  27 2.92  22 2.92  14 2.92  19 2.93  26 2.93
                            32 2.94  34 2.94  23 2.94  21 2.94
  25  0.888  0.888  0.454-  28 2.90  22 2.93  27 2.93  18 2.93  23 2.93  21 2.93  16 2.93  12 2.93
                            26 2.94  19 2.94  33 2.95  30 2.95
  26  0.223  0.888  0.454-  28 2.90  27 2.93  24 2.93  17 2.93  23 2.93  20 2.93  16 2.93  10 2.93
                            25 2.94  19 2.94  34 2.95  29 2.95
  27  0.556  0.888  0.453-  35 2.90  17 2.92  18 2.92  24 2.92  22 2.92  11 2.92  26 2.93  25 2.93
                            29 2.94  30 2.94  20 2.94  21 2.94
  28  0.000  0.000  0.560-  26 2.90  25 2.90  19 2.90  29 2.96  34 2.96  33 2.96  32 2.96  31 2.96
                            30 2.96
  29  0.333  0.008  0.561-  31 2.86  30 2.87  36 2.88  20 2.93  27 2.94  26 2.95  28 2.96  35 2.97
                            34 3.06
  30  0.659  0.008  0.561-  32 2.86  29 2.87  36 2.88  21 2.93  27 2.94  25 2.95  28 2.96  35 2.97
                            33 3.06
  31  0.008  0.333  0.561-  29 2.86  33 2.87  36 2.88  20 2.93  22 2.94  19 2.95  28 2.96  35 2.97
                            32 3.06
  32  0.659  0.333  0.561-  30 2.86  34 2.87  36 2.88  21 2.93  24 2.94  19 2.95  28 2.96  35 2.97
                            31 3.06
  33  0.008  0.659  0.561-  34 2.86  31 2.87  36 2.88  23 2.93  22 2.94  25 2.95  28 2.96  35 2.97
                            30 3.06
  34  0.333  0.659  0.561-  33 2.86  32 2.87  36 2.88  23 2.93  24 2.94  26 2.95  28 2.96  35 2.97
                            29 3.06
  35  0.667  0.667  0.560-  24 2.90  27 2.90  22 2.90  30 2.97  32 2.97  29 2.97  34 2.97  31 2.97
                            33 2.97
  36  0.333  0.333  0.550-  37 1.62  21 2.76  20 2.76  23 2.76  31 2.88  30 2.88  33 2.88  29 2.88
                            34 2.88  32 2.88
  37  0.333  0.333  0.623-  36 1.62

  LATTYP: Found a hexagonal cell.
 ALAT       =     8.7913665772
 C/A-ratio  =     2.5227160501

  Lattice vectors:

 A1 = (  -4.3956832886,  -7.6135467898,   0.0000000000)
 A2 = (   8.7913665771,   0.0000000000,   0.0000000000)
 A3 = (   0.0000000000,   0.0000000000,  22.1781215668)

Analysis of symmetry for initial positions (statically):
 Subroutine PRICEL returns:
 Original cell was already a primitive cell.

 Routine SETGRP: Setting up the symmetry group for a
 hexagonal supercell.

 Subroutine GETGRP returns: Found  6 space group operations
 (whereof  6 operations were pure point group operations)
 out of a pool of 24 trial point group operations.

The static configuration has the point symmetry C_3v.

Analysis of symmetry for dynamics (positions and initial velocities):
 Subroutine PRICEL returns:
 Original cell was already a primitive cell.

[...]

The dynamic configuration has the point symmetry C_3v.

Analysis of constrained symmetry for selective dynamics:
 Subroutine PRICEL returns:
 Original cell was already a primitive cell.

 Routine SETGRP: Setting up the symmetry group for a
 hexagonal supercell.

 Subroutine GETGRP returns: Found  6 space group operations
 (whereof  6 operations were pure point group operations)
[...]
     24      -4.7027      2.00000
     25      -4.6726      2.00000
     26      -4.6565      2.00000
     27      -4.6447      2.00000
     28      -4.6308      2.00000
     29      -4.6254      2.00000
     30      -4.6020      2.00000
     31      -4.5908      2.00000
     32      -4.5534      2.00000
     33      -4.5393      2.00000
     34      -4.4924      2.00000
     35      -4.4746      2.00000
     36      -4.4543      2.00000
     37      -4.4236      2.00000
     38      -4.4003      2.00000
     39      -4.3958      2.00000
     40      -4.3763      2.00000
     41      -4.3704      2.00000
     42      -4.3467      2.00000
     43      -4.2968      2.00000
     44      -4.2634      2.00000
     45      -4.2473      2.00000
     46      -4.2433      2.00000
     47      -4.2270      2.00000
     48      -4.2224      2.00000
     49      -4.2117      2.00000
     50      -4.2055      2.00000
     51      -4.2002      2.00000
     52      -4.1921      2.00000
     53      -4.1202      2.00000
     54      -4.1104      2.00000
     55      -4.1052      2.00000
     56      -4.0964      2.00000
     57      -4.0760      2.00000
     58      -4.0625      2.00000
     59      -4.0326      2.00000
     60      -4.0253      2.00000
[...]
    238       7.1638      0.00000
    239       7.2086      0.00000
    240       7.2361      0.00000
    241       7.2562      0.00000
    242       7.2913      0.00000
    243       7.3159      0.00000
    244       7.3672      0.00000
    245       7.5258      0.00000
    246       7.5663      0.00000
    247       7.5725      0.00000
    248       7.6408      0.00000
    249       7.6806      0.00000
    250       7.9114      0.00000
    251       7.9345      0.00000
    252       8.1387      0.00000

 soft charge-density along one line, spin component           1
         0         1         2         3         4         5         6         7         8         9
 total charge-density along one line

------------------------ aborting loop because EDIFF is reached ----------------------------------------

 total charge

# of ion       s       p       d       tot
    1        0.418   0.200   9.180   9.798
    2        0.416   0.203   9.178   9.797
    3        0.416   0.203   9.178   9.797
    4        0.416   0.203   9.178   9.797
    5        0.420   0.202   9.175   9.797
    6        0.416   0.203   9.178   9.797
    7        0.416   0.203   9.178   9.797
    8        0.416   0.203   9.178   9.797
    9        0.414   0.201   9.180   9.795
   10        0.409   0.269   9.162   9.839
   11        0.410   0.267   9.169   9.846
   12        0.409   0.269   9.162   9.839
   13        0.410   0.267   9.169   9.846
   14        0.410   0.267   9.169   9.846
   15        0.405   0.268   9.165   9.838
   16        0.409   0.269   9.162   9.839
   17        0.405   0.268   9.165   9.838
   18        0.405   0.268   9.165   9.838
   19        0.400   0.264   9.167   9.831
   20        0.435   0.298   9.147   9.879
   21        0.435   0.298   9.147   9.879
   22        0.394   0.272   9.169   9.835
   23        0.435   0.298   9.147   9.879
   24        0.394   0.272   9.169   9.835
   25        0.400   0.264   9.167   9.831
   26        0.400   0.264   9.167   9.831
   27        0.394   0.272   9.169   9.835
   28        0.408   0.195   9.182   9.785
   29        0.418   0.215   9.166   9.799
   30        0.418   0.215   9.166   9.799
   31        0.418   0.215   9.166   9.799
   32        0.418   0.215   9.166   9.799
   33        0.418   0.215   9.166   9.799
   34        0.418   0.215   9.166   9.799
   35        0.400   0.198   9.183   9.780
   36        0.586   0.384   6.023   6.994
   37        0.528   0.020   0.000   0.549
tot         15.534   8.822 326.919 351.274

  FORCE on cell =-STRESS in cart. coord.  units (eV):
  Direction    XX          YY          ZZ          XY          YZ          ZX
  Alpha Z   754.87789   754.87789   754.87789
  Ewald  120691.13195120691.13192************     0.00001    -0.00000    -0.00001
  Hartree130752.97658130752.97656************     0.00000    -0.00000    -0.00000
  E(xc)   -2068.08119 -2068.08117 -2074.44955    -0.00001     0.00000     0.00000
  Local  ************************262891.15710     0.00020    -0.00003    -0.00005
  n-local  -362.29070  -340.19624  -350.71969    12.03432    -0.53116     0.64385
  augment  3235.94803  3235.94813  3247.69701    -0.00009     0.00002     0.00008
  Kinetic  4885.91012  4895.39378  4921.66904     6.34502     0.68306     0.11180
  Fock        0.00000     0.00000     0.00000     0.00000     0.00000     0.00000
  Total     -10.06500   -10.06500     0.56328    -0.00000     0.00000     0.00000
  in kB     -10.86316   -10.86316     0.60795    -0.00000     0.00000     0.00000

 VOLUME and BASIS-vectors are now :
  energy-cutoff  :      500.00
  volume of cell :     1484.46
      direct lattice vectors                 reciprocal lattice vectors
     8.791366577  0.000000000  0.000000000     0.113747958 -0.065672414  0.000000000
     4.395683289  7.613546790  0.000000000     0.000000000  0.131344829  0.000000000
     0.000000000  0.000000000 22.178121567     0.000000000  0.000000000  0.045089481

  length of vectors
     8.791366577  8.791366577 22.178121567     0.131344829  0.131344829  0.045089481

 FORCES acting on ions
    electron-ion (+dipol)            ewald-force                    non-local-force                 convergence-correction
   0.461E-04 -.282E-04 0.249E+04   -.954E-04 0.593E-04 -.249E+04   -.249E-19 -.680E-18 -.208E+01   -.126E-03 -.179E-03 0.244E+00
   0.380E+00 0.397E+00 0.250E+04   -.492E+00 -.435E+00 -.249E+04   0.912E-01 0.128E+00 -.149E+01   0.245E-01 -.762E-01 0.311E+00
   -.380E+00 0.397E+00 0.250E+04   0.492E+00 -.435E+00 -.249E+04   -.912E-01 0.128E+00 -.149E+01   -.250E-01 -.742E-01 0.311E+00
   0.534E+00 0.131E+00 0.250E+04   -.623E+00 -.208E+00 -.249E+04   0.156E+00 0.150E-01 -.149E+01   -.535E-01 0.595E-01 0.311E+00
   -.804E-05 -.202E-04 0.250E+04   0.980E-04 -.197E-05 -.250E+04   0.365E-17 -.894E-18 -.112E+01   0.630E-02 0.385E-02 0.429E+00
   -.534E+00 0.131E+00 0.250E+04   0.623E+00 -.209E+00 -.249E+04   -.156E+00 0.150E-01 -.149E+01   0.521E-01 0.604E-01 0.312E+00
   0.154E+00 -.528E+00 0.250E+04   -.131E+00 0.644E+00 -.249E+04   0.652E-01 -.143E+00 -.149E+01   -.763E-01 0.160E-01 0.311E+00
   -.154E+00 -.528E+00 0.250E+04   0.131E+00 0.644E+00 -.249E+04   -.652E-01 -.143E+00 -.149E+01   0.780E-01 0.149E-01 0.312E+00
   0.363E-04 -.131E-04 0.250E+04   0.792E-04 -.643E-04 -.249E+04   0.273E-17 -.120E-17 -.190E+01   -.670E-02 -.346E-02 0.201E+00
   0.593E+01 0.342E+01 0.823E+03   -.547E+01 -.316E+01 -.822E+03   -.420E+00 -.242E+00 -.811E+00   -.510E-01 -.294E-01 0.348E+00
   -.285E-04 0.461E+01 0.829E+03   0.409E-04 -.470E+01 -.829E+03   0.127E-11 0.193E+00 -.266E+00   0.644E-02 -.137E+00 0.295E+00
   -.593E+01 0.342E+01 0.823E+03   0.547E+01 -.316E+01 -.822E+03   0.420E+00 -.242E+00 -.811E+00   0.492E-01 -.279E-01 0.349E+00
   0.399E+01 -.231E+01 0.829E+03   -.407E+01 0.235E+01 -.829E+03   0.167E+00 -.964E-01 -.266E+00   -.116E+00 0.743E-01 0.295E+00
   -.399E+01 -.231E+01 0.829E+03   0.407E+01 0.235E+01 -.829E+03   -.167E+00 -.964E-01 -.266E+00   0.127E+00 0.736E-01 0.295E+00
   0.160E-04 0.173E+01 0.824E+03   -.108E-03 -.196E+01 -.824E+03   0.918E-12 0.140E+00 -.807E+00   -.195E-02 0.562E-01 0.313E+00
   -.806E-05 -.684E+01 0.823E+03   0.205E-04 0.632E+01 -.822E+03   0.319E-11 0.485E+00 -.811E+00   0.386E-03 0.565E-01 0.349E+00
   0.149E+01 -.863E+00 0.824E+03   -.169E+01 0.978E+00 -.824E+03   0.121E+00 -.699E-01 -.807E+00   0.477E-01 -.298E-01 0.313E+00
   -.149E+01 -.863E+00 0.824E+03   0.169E+01 0.978E+00 -.824E+03   -.121E+00 -.699E-01 -.807E+00   -.478E-01 -.276E-01 0.313E+00
   0.397E-04 0.919E+00 -.878E+03   -.127E-03 -.984E+00 0.877E+03   0.589E-12 0.896E-01 0.672E+00   -.613E-02 -.379E-01 0.271E+00
   0.487E+01 0.281E+01 -.849E+03   -.329E+01 -.190E+01 0.850E+03   -.145E+01 -.839E+00 -.136E+01   -.207E+00 -.119E+00 0.309E+00
   -.487E+01 0.281E+01 -.849E+03   0.329E+01 -.190E+01 0.850E+03   0.145E+01 -.839E+00 -.136E+01   0.208E+00 -.118E+00 0.309E+00
   -.285E+01 0.165E+01 -.866E+03   0.252E+01 -.146E+01 0.866E+03   0.402E+00 -.232E+00 0.412E+00   -.420E-01 0.194E-01 0.195E+00
   -.533E-04 -.563E+01 -.849E+03   0.416E-04 0.380E+01 0.850E+03   0.110E-10 0.168E+01 -.136E+01   0.229E-02 0.240E+00 0.309E+00
   0.285E+01 0.165E+01 -.866E+03   -.252E+01 -.146E+01 0.866E+03   -.402E+00 -.232E+00 0.412E+00   0.314E-01 0.182E-01 0.195E+00
   -.796E+00 -.460E+00 -.878E+03   0.852E+00 0.492E+00 0.877E+03   -.776E-01 -.448E-01 0.672E+00   0.268E-01 0.153E-01 0.270E+00
   0.796E+00 -.459E+00 -.878E+03   -.852E+00 0.492E+00 0.877E+03   0.776E-01 -.448E-01 0.672E+00   -.362E-01 0.135E-01 0.271E+00
   0.201E-04 -.329E+01 -.866E+03   0.110E-03 0.291E+01 0.866E+03   0.305E-11 0.464E+00 0.412E+00   -.489E-02 -.461E-01 0.195E+00
   0.536E-04 -.364E-04 -.251E+04   -.114E-03 0.772E-04 0.250E+04   -.334E-17 0.269E-17 0.211E+01   0.118E-02 0.549E-03 -.156E+00
   0.293E+01 0.664E+01 -.251E+04   -.209E+01 -.542E+01 0.251E+04   -.867E+00 -.128E+01 0.152E+01   0.299E-01 0.641E-01 -.122E+00
   -.293E+01 0.664E+01 -.251E+04   0.209E+01 -.542E+01 0.251E+04   0.867E+00 -.128E+01 0.152E+01   -.404E-01 0.659E-01 -.123E+00
   0.721E+01 -.780E+00 -.251E+04   -.574E+01 0.904E+00 0.251E+04   -.154E+01 -.110E+00 0.152E+01   0.707E-01 -.602E-02 -.122E+00
   -.721E+01 -.780E+00 -.251E+04   0.574E+01 0.904E+00 0.251E+04   0.154E+01 -.110E+00 0.152E+01   -.821E-01 -.522E-02 -.123E+00
   0.428E+01 -.586E+01 -.251E+04   -.365E+01 0.452E+01 0.251E+04   -.677E+00 0.139E+01 0.152E+01   0.373E-01 -.674E-01 -.123E+00
   -.428E+01 -.586E+01 -.251E+04   0.365E+01 0.452E+01 0.251E+04   0.677E+00 0.139E+01 0.152E+01   -.459E-01 -.684E-01 -.123E+00
   0.244E-04 -.133E-04 -.251E+04   0.105E-03 -.651E-04 0.250E+04   0.660E-18 0.670E-18 0.224E+01   -.548E-02 -.273E-02 -.372E-01
   -.190E-04 -.151E-04 -.172E+04   0.774E-04 0.978E-05 0.172E+04   0.837E-17 -.208E-17 -.320E+01   0.253E-02 0.150E-02 0.548E-01
   0.569E-05 -.446E-05 -.285E+03   0.535E-05 0.875E-07 0.287E+03   0.141E-18 -.129E-18 -.267E+01   0.170E-03 0.102E-03 -.491E-01
   0.322E-03 -.714E-03 0.595E+01   0.190E-13 -.517E-13 0.966E-11   0.564E-15 -.154E-17 -.129E+02   -.461E-01 -.234E-01 0.701E+01

 POSITION                                       TOTAL-FORCE (eV/Angst)
      0.00000      0.00000      5.28219        -0.000000      0.000000     -0.047448
      2.93046      0.00000      5.28219         0.004476      0.014866      0.017787
      5.86091      0.00000      5.28219        -0.004476      0.014866      0.017787
      1.46523      2.53785      5.28219         0.015112     -0.003557      0.017787
      4.39568      2.53785      5.28219        -0.000000      0.000000     -0.031988
      7.32614      2.53785      5.28219        -0.015112     -0.003557      0.017787
      2.93046      5.07570      5.28219         0.010636     -0.011309      0.017787
      5.86091      5.07570      5.28219        -0.010636     -0.011309      0.017787
      8.79137      5.07570      5.28219        -0.000000      0.000000     -0.012266
      1.46523      0.84595      7.67490        -0.014005     -0.008086     -0.000662
      4.39568      0.84595      7.67490        -0.000000     -0.037526     -0.048680
      7.32614      0.84595      7.67490         0.014005     -0.008086     -0.000662
      2.93046      3.38380      7.67490        -0.032499      0.018763     -0.048680
      5.86091      3.38380      7.67490         0.032499      0.018763     -0.048680
      8.79137      3.38380      7.67490        -0.000000     -0.034465     -0.000697
      4.39568      5.92165      7.67490         0.000000      0.016172     -0.000662
      7.32614      5.92165      7.67490        -0.029848      0.017233     -0.000697
     10.25659      5.92165      7.67490         0.029848      0.017233     -0.000697
      8.79137      1.69824     10.07044        -0.000000     -0.011200      0.003800
      2.93075      1.69207     10.02201        -0.075670     -0.043688     -0.122236
      5.86061      1.69207     10.02201         0.075670     -0.043688     -0.122236
     10.25044      4.23330     10.05478         0.033763     -0.019493     -0.006985
      4.39568      4.22940     10.02201         0.000000      0.087376     -0.122236
      7.33230      4.23330     10.05478        -0.033763     -0.019493     -0.006985
     11.71633      6.76443     10.07044         0.009699      0.005600      0.003800
      5.86640      6.76443     10.07044        -0.009699      0.005600      0.003800
      8.79137      6.76048     10.05478         0.000000      0.038986     -0.006985
      0.00000      0.00000     12.42728        -0.000000      0.000000      0.017553
      2.96092      0.05748     12.44843         0.010925     -0.002319      0.038593
      5.83045      0.05748     12.44843        -0.010925     -0.002319      0.038593
      1.53024      2.53549     12.44843         0.003454      0.010620      0.038593
      7.26113      2.53549     12.44843        -0.003454      0.010620      0.038593
      2.96500      5.02058     12.44843        -0.007470     -0.008302      0.038593
      5.82636      5.02058     12.44843         0.007470     -0.008302      0.038593
      8.79137      5.07570     12.42122         0.000000      0.000000      0.026383
      4.39568      2.53785     12.20312        -0.000000      0.000000      0.209750
      4.39568      2.53785     13.82510        -0.000000      0.000000      0.026121
    total drift:                               -0.045755     -0.024110      0.041765

  FREE ENERGIE OF THE ION-ELECTRON SYSTEM (eV)
  free  energy   TOTEN  =      -100.78692404 eV

  energy  without entropy=     -100.78692404  energy(sigma->0) =     -100.78692404

 stress matrix after NEB project (eV)
    -10.06500     -0.00000      0.00000
     -0.00000    -10.06500     -0.00000
      0.00000      0.00000      0.56328
  FORCES: max atom, RMS     0.026121    0.004294
  FORCE total and by dimension    0.026121    0.026121
  Stress total and by dimension   14.245200   10.065000
|           W    W    AA    RRRRR   N    N  II  N    N   GGGG   !!!           |
|           W    W   A  A   R    R  NN   N  II  NN   N  G    G  !!!           |
|           W    W  A    A  R    R  N N  N  II  N N  N  G       !!!           |
|           W WW W  AAAAAA  RRRRR   N  N N  II  N  N N  G  GGG   !            |
|           WW  WW  A    A  R   R   N   NN  II  N   NN  G    G                |
|           W    W  A    A  R    R  N    N  II  N    N   GGGG   !!!           |
|     Tetrahedron method does not include variations of the Fermi             |
|     occupations, so forces and stress will be inaccurate. We suggest        |
|     using a different smearing scheme ISMEAR = 1 or 2 for metals in         |
|     relaxations.                                                            |

 total charge

# of ion       s       p       d       tot
    1        0.418   0.200   9.180   9.798
    2        0.416   0.203   9.178   9.797
    3        0.416   0.203   9.178   9.797
    4        0.416   0.203   9.178   9.797
    5        0.420   0.202   9.175   9.797
    6        0.416   0.203   9.178   9.797
    7        0.416   0.203   9.178   9.797
    8        0.416   0.203   9.178   9.797
    9        0.414   0.201   9.180   9.795
   10        0.409   0.269   9.162   9.839
   11        0.410   0.267   9.169   9.846
   12        0.409   0.269   9.162   9.839
   13        0.410   0.267   9.169   9.846
   14        0.410   0.267   9.169   9.846
   15        0.405   0.268   9.165   9.838
   16        0.409   0.269   9.162   9.839
   17        0.405   0.268   9.165   9.838
   18        0.405   0.268   9.165   9.838
   19        0.400   0.264   9.167   9.831
   20        0.435   0.298   9.147   9.879
   21        0.435   0.298   9.147   9.879
   22        0.394   0.272   9.169   9.835
   23        0.435   0.298   9.147   9.879
   24        0.394   0.272   9.169   9.835
   25        0.400   0.264   9.167   9.831
   26        0.400   0.264   9.167   9.831
   27        0.394   0.272   9.169   9.835
   28        0.408   0.195   9.182   9.785
   29        0.418   0.215   9.166   9.799
   30        0.418   0.215   9.166   9.799
   31        0.418   0.215   9.166   9.799
   32        0.418   0.215   9.166   9.799
   33        0.418   0.215   9.166   9.799
   34        0.418   0.215   9.166   9.799
   35        0.400   0.198   9.183   9.780
   36        0.586   0.384   6.023   6.994
   37        0.528   0.020   0.000   0.549
tot         15.534   8.822 326.919 351.274

 BZINTS: Fermi energy:    0.710581;  394.000000 electrons
         Band energy:-0.129401E+04;  BLOECHL correction:   -0.038698