 vasp.6.2.0 18Jan21 (build Jun 12 2021 23:27:24) complex

 executed on             LinuxIFC date 2022.05.27  06:20:49

 INCAR:
   ISMEAR = -5
   SIGMA = 0.1
   ISPIN = 1
   EDIFF = 1.d-5
   EDIFFG = -0.01
   NSW = 0
   NELM = 150
   ENCUT = 500
   ISIF = 2
   IBRION = 2
   LREAL = Auto
   ALGO = Fast
   ICHARG = 11
   LORBIT = 10
   LCHARG = .F.
   LWAVE = .F.

 POTCAR:    PAW_PBE Cu 22Jun2005
 POTCAR:    PAW_PBE Ir 06Sep2000
 POTCAR:    PAW_PBE C 08Apr2002
 POTCAR:    PAW_PBE O 08Apr2002
|           W    W    AA    RRRRR   N    N  II  N    N   GGGG   !!!           |
|           W    W   A  A   R    R  NN   N  II  NN   N  G    G  !!!           |
|           W    W  A    A  R    R  N N  N  II  N N  N  G       !!!           |
|           W WW W  AAAAAA  RRRRR   N  N N  II  N  N N  G  GGG   !            |
|           WW  WW  A    A  R   R   N   NN  II  N   NN  G    G                |
|           W    W  A    A  R    R  N    N  II  N    N   GGGG   !!!           |
|     For optimal performance we recommend to set                             |
|       NCORE = 2 up to number-of-cores-per-socket                            |
|     This setting can greatly improve the performance of VASP for DFT.       |
|     The default, NCORE=1 might be grossly inefficient on modern             |
|     multi-core architectures or massively parallel machines. Do your        |
|     Unfortunately you need to use the default for GW and RPA                |
|     calculations (for HF NCORE is supported but not extensively tested      |
|     yet).                                                                   |

 POTCAR:    PAW_PBE Cu 22Jun2005
   VRHFIN =Cu: d10 p1

   TITEL  = PAW_PBE Cu 22Jun2005
   POMASS =   63.546; ZVAL   =   11.000    mass and valenz
   ENMAX  =  295.446; ENMIN  =  221.585 eV

 POTCAR:    PAW_PBE Ir 06Sep2000
   VRHFIN =Ir: s1d8

   TITEL  = PAW_PBE Ir 06Sep2000
   POMASS =  192.220; ZVAL   =    9.000    mass and valenz
   ENMAX  =  210.864; ENMIN  =  158.148 eV

 POTCAR:    PAW_PBE C 08Apr2002
   VRHFIN =C: s2p2

   TITEL  = PAW_PBE C 08Apr2002
   POMASS =   12.011; ZVAL   =    4.000    mass and valenz
   ENMAX  =  400.000; ENMIN  =  300.000 eV

 POTCAR:    PAW_PBE O 08Apr2002
   VRHFIN =O: s2p4

   TITEL  = PAW_PBE O 08Apr2002
   POMASS =   16.000; ZVAL   =    6.000    mass and valenz
   ENMAX  =  400.000; ENMIN  =  300.000 eV

 Optimization of the real space projectors (new method)

 maximal supplied QI-value         = 16.25
 optimisation between [QCUT,QGAM] = [ 11.38, 22.75] = [ 36.24,144.96] Ry
 Optimized for a Real-space Cutoff    1.52 Angstroem

   l    n(q)    QCUT    max X(q) W(low)/X(q) W(high)/X(q)  e(spline)
   2      9    11.376     4.610    0.21E-03    0.10E-03    0.26E-06
   2      9    11.376     8.522    0.33E-03    0.16E-03    0.37E-06
   0     10    11.376    51.609    0.62E-04    0.20E-04    0.13E-06
   0     10    11.376    27.747    0.54E-04    0.20E-04    0.13E-06
   1     10    11.376    20.408    0.13E-04    0.99E-04    0.19E-06
   1     10    11.376    13.425    0.12E-04    0.87E-04    0.17E-06
 Optimization of the real space projectors (new method)

[...]

   l    n(q)    QCUT    max X(q) W(low)/X(q) W(high)/X(q)  e(spline)
   0      7    11.310   115.676    0.43E-03    0.13E-02    0.19E-06
   0      7    11.310    87.132    0.43E-03    0.13E-02    0.18E-06
   1      6    11.310     4.429    0.42E-03    0.74E-03    0.11E-06
   1      6    11.310     2.733    0.34E-03    0.55E-03    0.92E-07
 Optimization of the real space projectors (new method)

 maximal supplied QI-value         = 24.76
 optimisation between [QCUT,QGAM] = [ 11.39, 22.77] = [ 36.31,145.25] Ry
 Optimized for a Real-space Cutoff    1.00 Angstroem

   l    n(q)    QCUT    max X(q) W(low)/X(q) W(high)/X(q)  e(spline)
   0      7    11.387    20.381    0.39E-03    0.13E-02    0.15E-06
   0      7    11.387    15.268    0.42E-03    0.14E-02    0.17E-06
   1      6    11.387     5.964    0.41E-03    0.11E-02    0.17E-06
   1      6    11.387     5.382    0.39E-03    0.87E-03    0.15E-06
  PAW_PBE Cu 22Jun2005                  :
  PAW_PBE Ir 06Sep2000                  :
  PAW_PBE C 08Apr2002                   :
  PAW_PBE O 08Apr2002                   :

 POSCAR: Cu-Ir-CO
  positions in direct lattice
  velocities in cartesian coordinates
 exchange correlation table for  LEXCH =        8
   RHO(1)=    0.500       N(1)  =     2000
   RHO(2)=  100.500       N(2)  =     4000

 VTST: version 3.2, (02/03/18)

 CHAIN: initializing optimizer

 OPT: Using VASP Conjugate-Gradient optimizer
 CHAIN: Read ICHAIN            0

 POSCAR: Cu-Ir-CO
  positions in direct lattice
  velocities in cartesian coordinates

 ion  position               nearest neighbor table
   1  0.000  0.000  0.252-   7 2.57   3 2.57   4 2.57   2 2.57   6 2.57   8 2.57  12 2.57  10 2.57
                            16 2.57
   2  0.333  0.000  0.252-   8 2.57   9 2.57   5 2.57   1 2.57   3 2.57  11 2.57   4 2.57  10 2.57
                            17 2.57
   3  0.667  0.000  0.252-   1 2.57   7 2.57   6 2.57   9 2.57   2 2.57  12 2.57   5 2.57  18 2.57
                            11 2.57
   4  0.000  0.333  0.252-   5 2.57   6 2.57   1 2.57   7 2.57   2 2.57  13 2.57   9 2.57  10 2.57
                            15 2.57
   5  0.333  0.333  0.252-   4 2.57   2 2.57   7 2.57  13 2.57   8 2.57   6 2.57   3 2.57  11 2.57
                            14 2.57
   6  0.667  0.333  0.252-   4 2.57   9 2.57  15 2.57   3 2.57   1 2.57   8 2.57  14 2.57   5 2.57
                            12 2.57
   7  0.000  0.667  0.252-   1 2.57   3 2.57  16 2.57  18 2.57   4 2.57   5 2.57   8 2.57   9 2.57
                            13 2.57
   8  0.333  0.667  0.252-   9 2.57   2 2.57  17 2.57   6 2.57   1 2.57   7 2.57   5 2.57  14 2.57
                            16 2.57
   9  0.667  0.667  0.252-   8 2.57   6 2.57   2 2.57  17 2.57   3 2.57   7 2.57   4 2.57  15 2.57
                            18 2.57
  10  0.111  0.111  0.351-  20 2.53  11 2.57  12 2.57  13 2.57   1 2.57   2 2.57   4 2.57  15 2.57
                            16 2.57  17 2.57  26 2.57  19 2.57
  11  0.444  0.111  0.351-  20 2.55  21 2.55  10 2.57  13 2.57   2 2.57  17 2.57  14 2.57  12 2.57
                             5 2.57   3 2.57  18 2.57  27 2.57
  12  0.778  0.111  0.351-  21 2.53  15 2.57  10 2.57  14 2.57  18 2.57   3 2.57   1 2.57  16 2.57
                            11 2.57   6 2.57  19 2.57  25 2.57
  13  0.111  0.444  0.351-  23 2.55  20 2.55  16 2.57  18 2.57  10 2.57  11 2.57  14 2.57   5 2.57
                             4 2.57   7 2.57  15 2.57  22 2.57
  14  0.444  0.444  0.351-  21 2.55  23 2.55  15 2.57  17 2.57  12 2.57  16 2.57  13 2.57  11 2.57
                             6 2.57   8 2.57   5 2.57  24 2.57
  15  0.778  0.444  0.351-  19 2.56  24 2.56  22 2.56  14 2.57  17 2.57  12 2.57   6 2.57  18 2.57
                            10 2.57   9 2.57  13 2.57   4 2.57
  16  0.111  0.778  0.351-  23 2.53  18 2.57  13 2.57   7 2.57  14 2.57  17 2.57  12 2.57  10 2.57
                             8 2.57   1 2.57  25 2.57  26 2.57
  17  0.444  0.778  0.351-  26 2.56  27 2.56  24 2.56  14 2.57  15 2.57   8 2.57   9 2.57  11 2.57
                            16 2.57  18 2.57  10 2.57   2 2.57
  18  0.778  0.778  0.351-  25 2.56  22 2.56  27 2.56  16 2.57  13 2.57   7 2.57  15 2.57  12 2.57
                            17 2.57   9 2.57   3 2.57  11 2.57
  19  0.888  0.223  0.449-  28 2.55  21 2.55  20 2.55  22 2.56  24 2.56  15 2.56  32 2.56  31 2.56
                            12 2.57  10 2.57  25 2.58  26 2.58
  20  0.221  0.221  0.448-  10 2.53  11 2.55  13 2.55  26 2.55  19 2.55  36 2.55  27 2.57  22 2.57
                            29 2.59  31 2.59  23 2.59  21 2.59
  21  0.558  0.221  0.448-  12 2.53  14 2.55  11 2.55  19 2.55  25 2.55  36 2.55  24 2.57  27 2.57
                            32 2.59  30 2.59  20 2.59  23 2.59
  22  0.888  0.556  0.449-  35 2.54  24 2.56  27 2.56  19 2.56  25 2.56  18 2.56  15 2.56  13 2.57
                            23 2.57  20 2.57  31 2.57  33 2.57
  23  0.221  0.558  0.448-  16 2.53  13 2.55  14 2.55  25 2.55  26 2.55  36 2.55  22 2.57  24 2.57
                            33 2.59  34 2.59  20 2.59  21 2.59
  24  0.556  0.556  0.449-  35 2.54  22 2.56  27 2.56  19 2.56  26 2.56  15 2.56  17 2.56  14 2.57
                            21 2.57  23 2.57  32 2.57  34 2.57
  25  0.888  0.888  0.449-  28 2.55  21 2.55  23 2.55  22 2.56  27 2.56  18 2.56  33 2.56  30 2.56
                            16 2.57  12 2.57  19 2.58  26 2.58
  26  0.223  0.888  0.449-  28 2.55  20 2.55  23 2.55  27 2.56  24 2.56  17 2.56  29 2.56  34 2.56
                            10 2.57  16 2.57  25 2.58  19 2.58
  27  0.556  0.888  0.449-  35 2.54  24 2.56  22 2.56  26 2.56  25 2.56  17 2.56  18 2.56  11 2.57
                            20 2.57  21 2.57  29 2.57  30 2.57
  28  0.000  0.000  0.546-  25 2.55  19 2.55  26 2.55  33 2.56  30 2.56  31 2.56  29 2.56  32 2.56
                            34 2.56
  29  0.333  0.999  0.548-  34 2.55  28 2.56  26 2.56  35 2.57  31 2.57  27 2.57  36 2.57  30 2.58
                            20 2.59
  30  0.668  0.999  0.548-  33 2.55  28 2.56  25 2.56  35 2.57  32 2.57  27 2.57  36 2.57  29 2.58
                            21 2.59
  31  0.999  0.333  0.548-  32 2.55  28 2.56  19 2.56  35 2.57  29 2.57  22 2.57  36 2.57  33 2.58
                            20 2.59
  32  0.668  0.333  0.548-  31 2.55  28 2.56  19 2.56  35 2.57  30 2.57  24 2.57  36 2.57  34 2.58
                            21 2.59
  33  0.999  0.668  0.548-  30 2.55  28 2.56  25 2.56  35 2.57  34 2.57  22 2.57  36 2.57  31 2.58
                            23 2.59
  34  0.333  0.668  0.548-  29 2.55  28 2.56  26 2.56  35 2.57  33 2.57  24 2.57  36 2.57  32 2.58
                            23 2.59
  35  0.667  0.667  0.546-  24 2.54  27 2.54  22 2.54  34 2.57  32 2.57  29 2.57  30 2.57  33 2.57
                            31 2.57
  36  0.333  0.333  0.545-  38 1.81  23 2.55  20 2.55  21 2.55  31 2.57  29 2.57  33 2.57  34 2.57
                            32 2.57  30 2.57
  37  0.333  0.333  0.887-
  38  0.333  0.333  0.630-  36 1.81

  LATTYP: Found a hexagonal cell.
 ALAT       =     7.6967864036
 C/A-ratio  =     2.7653617908

  Lattice vectors:

 A1 = (  -3.8483927580,  -6.6656128093,   0.0000000000)
 A2 = (   7.6967864037,   0.0000000000,   0.0000000000)
 A3 = (   0.0000000000,   0.0000000000,  21.2843990326)

Analysis of symmetry for initial positions (statically):
 Subroutine PRICEL returns:
 Original cell was already a primitive cell.

 Routine SETGRP: Setting up the symmetry group for a
 hexagonal supercell.

 Subroutine GETGRP returns: Found  6 space group operations
 (whereof  6 operations were pure point group operations)
 out of a pool of 24 trial point group operations.

The static configuration has the point symmetry C_3v.

Analysis of symmetry for dynamics (positions and initial velocities):
 Subroutine PRICEL returns:
 Original cell was already a primitive cell.

[...]

The dynamic configuration has the point symmetry C_3v.

Analysis of constrained symmetry for selective dynamics:
 Subroutine PRICEL returns:
 Original cell was already a primitive cell.

[...]
     33      -4.0616      2.00000
     34      -4.0392      2.00000
     35      -4.0357      2.00000
     36      -4.0204      2.00000
     37      -3.9926      2.00000
     38      -3.9736      2.00000
     39      -3.9349      2.00000
     40      -3.8725      2.00000
     41      -3.8483      2.00000
     42      -3.7222      2.00000
     43      -3.7142      2.00000
     44      -3.6540      2.00000
     45      -3.6333      2.00000
     46      -3.6180      2.00000
     47      -3.6093      2.00000
     48      -3.5863      2.00000
     49      -3.5495      2.00000
     50      -3.5426      2.00000
     51      -3.4382      2.00000
     52      -3.3885      2.00000
     53      -3.3725      2.00000
     54      -3.3621      2.00000
     55      -3.3233      2.00000
     56      -3.3122      2.00000
     57      -3.3000      2.00000
     58      -3.2956      2.00000
     59      -3.2794      2.00000
     60      -3.2702      2.00000
[...]
    238       5.7759      0.00000
    239       5.8001      0.00000
    240       6.0498      0.00000
    241       6.1493      0.00000
    242       6.2008      0.00000
    243       6.4316      0.00000
    244       6.5115      0.00000
    245       6.7615      0.00000
    246       6.8438      0.00000
    247       6.9157      0.00000
    248       6.9775      0.00000
    249       7.2009      0.00000
    250       7.2798      0.00000
    251       7.3629      0.00000
    252       7.4920      0.00000

 soft charge-density along one line, spin component           1
         0         1         2         3         4         5         6         7         8         9
 total charge-density along one line

------------------------ aborting loop because EDIFF is reached ----------------------------------------

 total charge

# of ion       s       p       d       tot
    1        0.450   0.286   9.194   9.931
    2        0.451   0.288   9.190   9.930
    3        0.451   0.288   9.190   9.930
    4        0.451   0.288   9.190   9.930
    5        0.449   0.290   9.190   9.929
    6        0.451   0.288   9.190   9.930
    7        0.451   0.288   9.190   9.930
    8        0.451   0.288   9.190   9.930
    9        0.447   0.288   9.189   9.924
   10        0.445   0.374   9.182  10.001
   11        0.442   0.373   9.185  10.000
   12        0.445   0.374   9.182  10.001
   13        0.442   0.373   9.185  10.000
   14        0.442   0.373   9.185  10.000
   15        0.440   0.370   9.189   9.998
   16        0.445   0.374   9.182  10.001
   17        0.440   0.370   9.189   9.998
   18        0.440   0.370   9.189   9.998
   19        0.441   0.374   9.185  10.000
   20        0.457   0.400   9.178  10.035
   21        0.457   0.400   9.178  10.035
   22        0.437   0.370   9.191   9.998
   23        0.457   0.400   9.178  10.035
   24        0.437   0.370   9.191   9.998
   25        0.441   0.374   9.185  10.000
   26        0.441   0.374   9.185  10.000
   27        0.437   0.370   9.191   9.998
   28        0.457   0.289   9.198   9.944
   29        0.442   0.304   9.198   9.943
   30        0.442   0.304   9.198   9.943
   31        0.442   0.304   9.198   9.943
   32        0.442   0.304   9.198   9.943
   33        0.442   0.304   9.198   9.943
   34        0.442   0.304   9.198   9.943
   35        0.448   0.294   9.195   9.938
   36        0.749   0.726   7.115   8.590
   37        1.061   0.600   0.000   1.660
   38        1.605   3.308   0.000   4.913
tot         19.010  16.413 328.737 364.160

  FORCE on cell =-STRESS in cart. coord.  units (eV):
  Direction    XX          YY          ZZ          XY          YZ          ZX
  Alpha Z   923.94956   923.94956   923.94956
  Ewald  169259.53405169259.53361************     0.00040     0.00012     0.00018
  Hartree183629.19665183629.19661************     0.00004     0.00006     0.00007
  E(xc)   -2330.29913 -2330.29867 -2334.27628    -0.00040    -0.00004    -0.00006
  Local  ************************366125.05230     0.01883    -0.00061    -0.00101
  n-local  -766.79810  -747.95331  -764.14032     9.97096     0.01947     0.26765
  augment  3355.84578  3355.86606  3370.01135    -0.01757     0.00027     0.00048
  Kinetic  3433.66549  3424.82806  3428.50798    -3.33820     1.93630    -1.17425
  Fock        0.00000     0.00000     0.00000     0.00000     0.00000     0.00000
  Total      22.44047    22.44048    44.68760    -0.00000    -0.00000     0.00000
  in kB      32.92545    32.92545    65.56721    -0.00000    -0.00000     0.00000

 VOLUME and BASIS-vectors are now :
  energy-cutoff  :      500.00
  volume of cell :     1091.97
      direct lattice vectors                 reciprocal lattice vectors
     7.696786404  0.000000000  0.000000000     0.129924354 -0.075011849  0.000000000
     3.848392758  6.665612809  0.000000000     0.000000000  0.150023716  0.000000000
     0.000000000  0.000000000 21.284399033     0.000000000  0.000000000  0.046982769

  length of vectors
     7.696786404  7.696786404 21.284399033     0.150023716  0.150023716  0.046982769

 FORCES acting on ions
    electron-ion (+dipol)            ewald-force                    non-local-force                 convergence-correction
   -.416E-04 0.188E-06 0.348E+04   0.579E-04 -.439E-05 -.347E+04   -.694E-17 0.430E-18 -.284E+01   -.335E-03 -.161E-03 -.859E+01
   0.606E-01 0.250E+00 0.348E+04   -.916E-01 -.251E+00 -.347E+04   0.447E-01 0.725E-01 -.179E+01   -.940E-02 -.512E-01 -.858E+01
   -.606E-01 0.250E+00 0.348E+04   0.915E-01 -.251E+00 -.347E+04   -.447E-01 0.725E-01 -.179E+01   0.102E-01 -.486E-01 -.858E+01
   0.247E+00 -.724E-01 0.348E+04   -.263E+00 0.461E-01 -.347E+04   0.851E-01 0.244E-02 -.179E+01   -.490E-01 0.174E-01 -.858E+01
   -.642E-04 -.482E-05 0.348E+04   0.116E-03 -.101E-04 -.347E+04   0.991E-18 -.373E-18 -.177E+01   0.122E-01 0.749E-02 -.888E+01
   -.247E+00 -.723E-01 0.348E+04   0.263E+00 0.460E-01 -.347E+04   -.851E-01 0.244E-02 -.179E+01   0.473E-01 0.186E-01 -.858E+01
   0.186E+00 -.177E+00 0.348E+04   -.171E+00 0.205E+00 -.347E+04   0.404E-01 -.749E-01 -.179E+01   -.369E-01 0.331E-01 -.858E+01
   -.186E+00 -.177E+00 0.348E+04   0.171E+00 0.205E+00 -.347E+04   -.404E-01 -.749E-01 -.179E+01   0.405E-01 0.316E-01 -.858E+01
   -.144E-03 -.329E-04 0.348E+04   0.263E-03 0.206E-04 -.347E+04   -.713E-17 0.508E-17 -.229E+01   -.133E-01 -.685E-02 -.844E+01
   0.383E+01 0.221E+01 0.120E+04   -.307E+01 -.177E+01 -.119E+04   -.556E+00 -.321E+00 -.124E+01   -.213E+00 -.123E+00 -.403E+01
   -.914E-04 0.912E+00 0.119E+04   0.191E-03 -.699E+00 -.119E+04   -.109E-07 0.163E+00 -.363E+00   0.118E-01 -.405E+00 -.442E+01
   -.383E+01 0.221E+01 0.120E+04   0.307E+01 -.177E+01 -.119E+04   0.556E+00 -.321E+00 -.124E+01   0.211E+00 -.121E+00 -.403E+01
   0.790E+00 -.456E+00 0.119E+04   -.606E+00 0.350E+00 -.119E+04   0.141E+00 -.815E-01 -.363E+00   -.345E+00 0.214E+00 -.442E+01
   -.790E+00 -.456E+00 0.119E+04   0.605E+00 0.350E+00 -.119E+04   -.141E+00 -.815E-01 -.363E+00   0.369E+00 0.213E+00 -.442E+01
   -.143E-03 -.800E-01 0.119E+04   0.299E-03 -.126E+00 -.119E+04   -.936E-08 0.140E+00 -.823E+00   -.407E-02 0.451E-01 -.406E+01
   -.918E-04 -.443E+01 0.120E+04   0.186E-03 0.354E+01 -.119E+04   -.427E-07 0.642E+00 -.124E+01   -.147E-03 0.242E+00 -.403E+01
   -.693E-01 0.399E-01 0.119E+04   -.109E+00 0.631E-01 -.119E+04   0.122E+00 -.702E-01 -.823E+00   0.377E-01 -.261E-01 -.406E+01
   0.694E-01 0.399E-01 0.119E+04   0.109E+00 0.631E-01 -.119E+04   -.122E+00 -.702E-01 -.823E+00   -.370E-01 -.230E-01 -.405E+01
   -.539E-04 0.135E+01 -.112E+04   0.680E-04 -.117E+01 0.112E+04   -.528E-08 0.793E-01 0.783E+00   -.253E-02 -.292E+00 0.115E+01
   -.174E+02 -.101E+02 -.111E+04   0.202E+02 0.116E+02 0.111E+04   -.119E+01 -.687E+00 -.514E+00   -.149E+01 -.859E+00 -.410E+00
   0.174E+02 -.101E+02 -.111E+04   -.202E+02 0.116E+02 0.111E+04   0.119E+01 -.687E+00 -.514E+00   0.151E+01 -.857E+00 -.410E+00
   -.129E+02 0.746E+01 -.112E+04   0.129E+02 -.746E+01 0.112E+04   0.652E+00 -.377E+00 0.114E+01   -.621E+00 0.358E+00 0.106E+01
   -.839E-04 0.201E+02 -.111E+04   0.145E-03 -.233E+02 0.111E+04   -.914E-07 0.137E+01 -.514E+00   0.120E-01 0.174E+01 -.410E+00
   0.129E+02 0.746E+01 -.112E+04   -.129E+02 -.746E+01 0.112E+04   -.652E+00 -.377E+00 0.114E+01   0.619E+00 0.356E+00 0.106E+01
   -.117E+01 -.676E+00 -.112E+04   0.101E+01 0.584E+00 0.112E+04   -.686E-01 -.396E-01 0.783E+00   0.254E+00 0.147E+00 0.115E+01
   0.117E+01 -.676E+00 -.112E+04   -.101E+01 0.584E+00 0.112E+04   0.686E-01 -.396E-01 0.783E+00   -.254E+00 0.144E+00 0.115E+01
   -.119E-03 -.149E+02 -.112E+04   0.244E-03 0.149E+02 0.112E+04   -.501E-07 0.753E+00 0.114E+01   -.991E-03 -.717E+00 0.106E+01
   -.417E-04 0.137E-04 -.340E+04   0.366E-04 -.337E-04 0.339E+04   0.781E-17 -.794E-17 0.184E+01   -.311E-03 -.128E-03 0.726E+01
   -.121E+01 0.267E+01 -.339E+04   0.188E+01 -.228E+01 0.338E+04   0.554E+00 0.148E+01 0.242E+01   -.139E+01 -.218E+01 0.716E+01
   0.121E+01 0.267E+01 -.339E+04   -.188E+01 -.228E+01 0.338E+04   -.554E+00 0.148E+01 0.242E+01   0.139E+01 -.218E+01 0.716E+01
   0.171E+01 -.238E+01 -.339E+04   -.104E+01 0.277E+01 0.338E+04   0.156E+01 -.260E+00 0.242E+01   -.258E+01 -.108E+00 0.716E+01
   -.171E+01 -.238E+01 -.339E+04   0.104E+01 0.277E+01 0.338E+04   -.156E+01 -.260E+00 0.242E+01   0.258E+01 -.107E+00 0.716E+01
   0.292E+01 -.291E+00 -.339E+04   -.292E+01 -.485E+00 0.338E+04   0.100E+01 -.122E+01 0.242E+01   -.120E+01 0.229E+01 0.716E+01
   -.292E+01 -.291E+00 -.339E+04   0.292E+01 -.485E+00 0.338E+04   -.100E+01 -.122E+01 0.242E+01   0.120E+01 0.229E+01 0.716E+01
   -.163E-03 -.324E-04 -.340E+04   0.257E-03 0.436E-05 0.339E+04   0.116E-17 -.138E-17 0.211E+01   -.133E-01 -.686E-02 0.719E+01
   -.498E-04 -.332E-04 -.254E+04   0.113E-03 0.218E-04 0.254E+04   -.544E-17 -.400E-17 0.991E+00   0.246E-02 0.147E-02 0.414E+01
   0.460E-04 -.137E-04 -.875E+02   -.147E-07 0.295E-07 0.870E+02   0.170E-19 -.877E-20 -.111E+00   0.393E-03 0.238E-03 0.617E+00
   0.170E-03 -.889E-04 -.219E+04   0.169E-04 0.784E-05 0.221E+04   -.180E-17 0.795E-18 -.297E+02   0.319E-02 0.194E-02 0.864E+01
   -.708E-04 -.130E-03 0.697E+02   0.238E-13 0.381E-12 0.000E+00   -.672E-15 -.449E-15 -.311E+02   0.579E-01 0.304E-01 -.387E+02

 POSITION                                       TOTAL-FORCE (eV/Angst)
      0.00000      0.00000      5.37156         0.000000     -0.000000      0.000365
      2.56560      0.00000      5.37156         0.004806      0.021412      0.055035
      5.13119      0.00000      5.37156        -0.004806      0.021412      0.055035
      1.28280      2.22187      5.37156         0.020946     -0.006544      0.055035
      3.84839      2.22187      5.37156         0.000000     -0.000000      0.033527
      6.41399      2.22187      5.37156        -0.020946     -0.006544      0.055035
      2.56560      4.44374      5.37156         0.016140     -0.014868      0.055035
      5.13119      4.44374      5.37156        -0.016140     -0.014868      0.055035
      7.69679      4.44374      5.37156         0.000000     -0.000000      0.008764
      1.28280      0.74062      7.46636        -0.000108     -0.000062     -0.043926
      3.84839      0.74062      7.46636         0.000000     -0.036457     -0.057132
      6.41399      0.74062      7.46636         0.000108     -0.000062     -0.043926
      2.56560      2.96249      7.46636        -0.031573      0.018229     -0.057132
      5.13119      2.96249      7.46636         0.031573      0.018229     -0.057132
      7.69679      2.96249      7.46636         0.000000     -0.020449      0.008362
      3.84839      5.18437      7.46636        -0.000000      0.000125     -0.043926
      6.41399      5.18437      7.46636        -0.017709      0.010225      0.008362
      8.97958      5.18437      7.46636         0.017709      0.010225      0.008362
      7.69679      1.48769      9.56171         0.000000     -0.030340     -0.044974
      2.55203      1.47342      9.53141         0.043438      0.025079     -0.163121
      5.14476      1.47342      9.53141        -0.043438      0.025079     -0.163121
      8.97489      3.70583      9.56026         0.035869     -0.020709     -0.032754
      3.84839      3.71878      9.53141         0.000000     -0.050158     -0.163121
      6.41868      3.70583      9.56026        -0.035869     -0.020709     -0.032754
     10.25680      5.92177      9.56171         0.026275      0.015170     -0.044974
      5.13677      5.92177      9.56171        -0.026275      0.015170     -0.044974
      7.69679      5.91957      9.56026        -0.000000      0.041417     -0.032754
      0.00000      0.00000     11.63002         0.000000     -0.000000      0.032607
      6.40663      6.66047     11.66109        -0.158742     -0.319626     -0.151417
      8.98694      6.66047     11.66109         0.158742     -0.319626     -0.151417
      8.97145      2.21807     11.66109        -0.356176      0.022339     -0.151417
      6.42212      2.21807     11.66109         0.356176      0.022339     -0.151417
     10.26160      4.45269     11.66109        -0.197434      0.297288     -0.151417
      5.13197      4.45269     11.66109         0.197434      0.297288     -0.151417
      7.69679      4.44374     11.62915         0.000000     -0.000000      0.057860
      3.84839      2.22187     11.60012         0.000000     -0.000000      0.959646
      3.84839      2.22187     18.88645         0.000000     -0.000000     -0.016669
      3.84839      2.22187     13.41037         0.000000     -0.000000      0.502828
    total drift:                                0.057791      0.030311     -0.080386

  FREE ENERGIE OF THE ION-ELECTRON SYSTEM (eV)
  free  energy   TOTEN  =      -136.30455946 eV

  energy  without entropy=     -136.30455946  energy(sigma->0) =     -136.30455946

 stress matrix after NEB project (eV)
     22.44047     -0.00000      0.00000
     -0.00000     22.44048     -0.00000
     -0.00000     -0.00000     44.68760
  FORCES: max atom, RMS     0.502828    0.081614
  FORCE total and by dimension    0.503104    0.502828
  Stress total and by dimension   54.809958   44.687599
|           W    W    AA    RRRRR   N    N  II  N    N   GGGG   !!!           |
|           W    W   A  A   R    R  NN   N  II  NN   N  G    G  !!!           |
|           W    W  A    A  R    R  N N  N  II  N N  N  G       !!!           |
|           W WW W  AAAAAA  RRRRR   N  N N  II  N  N N  G  GGG   !            |
|           WW  WW  A    A  R   R   N   NN  II  N   NN  G    G                |
|           W    W  A    A  R    R  N    N  II  N    N   GGGG   !!!           |
|     Tetrahedron method does not include variations of the Fermi             |
|     occupations, so forces and stress will be inaccurate. We suggest        |
|     using a different smearing scheme ISMEAR = 1 or 2 for metals in         |
|     relaxations.                                                            |

 total charge

# of ion       s       p       d       tot
    1        0.450   0.286   9.194   9.931
    2        0.451   0.288   9.190   9.930
    3        0.451   0.288   9.190   9.930
    4        0.451   0.288   9.190   9.930
    5        0.449   0.290   9.190   9.929
    6        0.451   0.288   9.190   9.930
    7        0.451   0.288   9.190   9.930
    8        0.451   0.288   9.190   9.930
    9        0.447   0.288   9.189   9.924
   10        0.445   0.374   9.182  10.001
   11        0.442   0.373   9.185  10.000
   12        0.445   0.374   9.182  10.001
   13        0.442   0.373   9.185  10.000
   14        0.442   0.373   9.185  10.000
   15        0.440   0.370   9.189   9.998
   16        0.445   0.374   9.182  10.001
   17        0.440   0.370   9.189   9.998
   18        0.440   0.370   9.189   9.998
   19        0.441   0.374   9.185  10.000
   20        0.457   0.400   9.178  10.035
   21        0.457   0.400   9.178  10.035
   22        0.437   0.370   9.191   9.998
   23        0.457   0.400   9.178  10.035
   24        0.437   0.370   9.191   9.998
   25        0.441   0.374   9.185  10.000
   26        0.441   0.374   9.185  10.000
   27        0.437   0.370   9.191   9.998
   28        0.457   0.289   9.198   9.944
   29        0.442   0.304   9.198   9.943
   30        0.442   0.304   9.198   9.943
   31        0.442   0.304   9.198   9.943
   32        0.442   0.304   9.198   9.943
   33        0.442   0.304   9.198   9.943
   34        0.442   0.304   9.198   9.943
   35        0.448   0.294   9.195   9.938
   36        0.749   0.726   7.115   8.590
   37        1.061   0.600   0.000   1.660
   38        1.605   3.308   0.000   4.913
tot         19.010  16.413 328.737 364.160

 BZINTS: Fermi energy:    0.102315;  404.000000 electrons
         Band energy:-0.115735E+04;  BLOECHL correction:   -0.006328