 vasp.6.2.0 18Jan21 (build Jun 12 2021 23:27:24) complex

 executed on             LinuxIFC date 2022.05.26  20:03:54

 INCAR:
   ISMEAR = -5
   SIGMA = 0.1
   ISPIN = 1
   EDIFF = 1.d-5
   EDIFFG = -0.01
   NSW = 0
   NELM = 150
   ENCUT = 500
   ISIF = 2
   IBRION = 2
   LREAL = Auto
   ALGO = Fast
   ICHARG = 11
   LORBIT = 10
   LCHARG = .F.
   LWAVE = .F.

 POTCAR:    PAW_PBE Cu 22Jun2005
 POTCAR:    PAW_PBE Ru 04Feb2005
 POTCAR:    PAW_PBE O 08Apr2002
|           W    W    AA    RRRRR   N    N  II  N    N   GGGG   !!!           |
|           W    W   A  A   R    R  NN   N  II  NN   N  G    G  !!!           |
|           W    W  A    A  R    R  N N  N  II  N N  N  G       !!!           |
|           W WW W  AAAAAA  RRRRR   N  N N  II  N  N N  G  GGG   !            |
|           WW  WW  A    A  R   R   N   NN  II  N   NN  G    G                |
|           W    W  A    A  R    R  N    N  II  N    N   GGGG   !!!           |
|     For optimal performance we recommend to set                             |
|       NCORE = 2 up to number-of-cores-per-socket                            |
|     This setting can greatly improve the performance of VASP for DFT.       |
|     The default, NCORE=1 might be grossly inefficient on modern             |
|     multi-core architectures or massively parallel machines. Do your        |
|     Unfortunately you need to use the default for GW and RPA                |
|     calculations (for HF NCORE is supported but not extensively tested      |
|     yet).                                                                   |

 POTCAR:    PAW_PBE Cu 22Jun2005
   VRHFIN =Cu: d10 p1

   TITEL  = PAW_PBE Cu 22Jun2005
   POMASS =   63.546; ZVAL   =   11.000    mass and valenz
   ENMAX  =  295.446; ENMIN  =  221.585 eV

 POTCAR:    PAW_PBE Ru 04Feb2005
   VRHFIN =Ru: s1 d7

   TITEL  = PAW_PBE Ru 04Feb2005
   POMASS =  101.070; ZVAL   =    8.000    mass and valenz
   ENMAX  =  213.271; ENMIN  =  159.953 eV

 POTCAR:    PAW_PBE O 08Apr2002
   VRHFIN =O: s2p4

   TITEL  = PAW_PBE O 08Apr2002
   POMASS =   16.000; ZVAL   =    6.000    mass and valenz
   ENMAX  =  400.000; ENMIN  =  300.000 eV

 Optimization of the real space projectors (new method)

 maximal supplied QI-value         = 16.25
 optimisation between [QCUT,QGAM] = [ 11.38, 22.75] = [ 36.24,144.96] Ry
 Optimized for a Real-space Cutoff    1.52 Angstroem

   l    n(q)    QCUT    max X(q) W(low)/X(q) W(high)/X(q)  e(spline)
   2      9    11.376     4.610    0.21E-03    0.10E-03    0.26E-06
   2      9    11.376     8.522    0.33E-03    0.16E-03    0.37E-06
   0     10    11.376    51.609    0.62E-04    0.20E-04    0.13E-06
   0     10    11.376    27.747    0.54E-04    0.20E-04    0.13E-06
   1     10    11.376    20.408    0.13E-04    0.99E-04    0.19E-06
   1     10    11.376    13.425    0.12E-04    0.87E-04    0.17E-06
 Optimization of the real space projectors (new method)

[...]

   l    n(q)    QCUT    max X(q) W(low)/X(q) W(high)/X(q)  e(spline)
   2      9    11.327    61.733    0.26E-03    0.14E-03    0.16E-06
   2      9    11.327    59.886    0.26E-03    0.14E-03    0.17E-06
   0     10    11.327    23.358    0.19E-03    0.14E-04    0.46E-06
   0     10    11.327    11.320    0.15E-03    0.11E-04    0.37E-06
   1     10    11.327    14.765    0.49E-04    0.26E-03    0.24E-06
   1     10    11.327     8.283    0.37E-04    0.20E-03    0.18E-06
 Optimization of the real space projectors (new method)

 maximal supplied QI-value         = 24.76
 optimisation between [QCUT,QGAM] = [ 11.39, 22.77] = [ 36.31,145.25] Ry
 Optimized for a Real-space Cutoff    1.00 Angstroem

   l    n(q)    QCUT    max X(q) W(low)/X(q) W(high)/X(q)  e(spline)
   0      7    11.387    20.381    0.39E-03    0.13E-02    0.15E-06
   0      7    11.387    15.268    0.42E-03    0.14E-02    0.17E-06
   1      6    11.387     5.964    0.41E-03    0.11E-02    0.17E-06
   1      6    11.387     5.382    0.39E-03    0.87E-03    0.15E-06
  PAW_PBE Cu 22Jun2005                  :
  PAW_PBE Ru 04Feb2005                  :
  PAW_PBE O 08Apr2002                   :

 POSCAR: Cu-Ru-O
  positions in direct lattice
  velocities in cartesian coordinates
 exchange correlation table for  LEXCH =        8
   RHO(1)=    0.500       N(1)  =     2000
   RHO(2)=  100.500       N(2)  =     4000

 VTST: version 3.2, (02/03/18)

 CHAIN: initializing optimizer

 OPT: Using VASP Conjugate-Gradient optimizer
 CHAIN: Read ICHAIN            0

 POSCAR: Cu-Ru-O
  positions in direct lattice
  velocities in cartesian coordinates

 ion  position               nearest neighbor table
   1  0.000  0.000  0.252-   7 2.57   3 2.57   4 2.57   2 2.57   6 2.57   8 2.57  12 2.57  10 2.57
                            16 2.57
   2  0.333  0.000  0.252-   8 2.57   9 2.57   5 2.57   1 2.57   3 2.57  11 2.57   4 2.57  10 2.57
                            17 2.57
   3  0.667  0.000  0.252-   1 2.57   7 2.57   6 2.57   9 2.57   2 2.57  12 2.57   5 2.57  18 2.57
                            11 2.57
   4  0.000  0.333  0.252-   5 2.57   6 2.57   1 2.57   7 2.57   2 2.57  13 2.57   9 2.57  10 2.57
                            15 2.57
   5  0.333  0.333  0.252-   4 2.57   2 2.57   7 2.57  13 2.57   8 2.57   6 2.57   3 2.57  11 2.57
                            14 2.57
   6  0.667  0.333  0.252-   4 2.57   9 2.57  15 2.57   3 2.57   1 2.57   8 2.57  14 2.57   5 2.57
                            12 2.57
   7  0.000  0.667  0.252-   1 2.57   3 2.57  16 2.57  18 2.57   4 2.57   5 2.57   8 2.57   9 2.57
                            13 2.57
   8  0.333  0.667  0.252-   9 2.57   2 2.57  17 2.57   6 2.57   1 2.57   7 2.57   5 2.57  14 2.57
                            16 2.57
   9  0.667  0.667  0.252-   8 2.57   6 2.57   2 2.57  17 2.57   3 2.57   7 2.57   4 2.57  15 2.57
                            18 2.57
  10  0.111  0.111  0.351-  20 2.55  26 2.56  19 2.56  11 2.57  12 2.57  13 2.57   1 2.57   2 2.57
                             4 2.57  15 2.57  16 2.57  17 2.57
  11  0.444  0.111  0.351-  20 2.55  21 2.55  10 2.57  13 2.57   2 2.57  17 2.57  14 2.57  12 2.57
                             5 2.57   3 2.57  18 2.57  27 2.57
  12  0.778  0.111  0.351-  21 2.55  19 2.56  25 2.56  15 2.57  10 2.57  14 2.57  18 2.57   3 2.57
                             1 2.57  16 2.57  11 2.57   6 2.57
  13  0.111  0.444  0.351-  23 2.55  20 2.55  16 2.57  18 2.57  10 2.57  11 2.57  14 2.57   5 2.57
                             4 2.57   7 2.57  15 2.57  22 2.57
  14  0.444  0.444  0.351-  21 2.55  23 2.55  15 2.57  17 2.57  12 2.57  16 2.57  13 2.57  11 2.57
                             6 2.57   8 2.57   5 2.57  24 2.57
  15  0.778  0.444  0.351-  19 2.56  14 2.57  17 2.57  12 2.57   6 2.57  18 2.57  10 2.57   9 2.57
                            13 2.57   4 2.57  24 2.57  22 2.57
  16  0.111  0.778  0.351-  23 2.55  25 2.56  26 2.56  18 2.57  13 2.57   7 2.57  14 2.57  17 2.57
                            12 2.57  10 2.57   8 2.57   1 2.57
  17  0.444  0.778  0.351-  26 2.56  14 2.57  15 2.57   8 2.57   9 2.57  11 2.57  16 2.57  18 2.57
                            10 2.57   2 2.57  27 2.57  24 2.57
  18  0.778  0.778  0.351-  25 2.56  16 2.57  13 2.57   7 2.57  15 2.57  12 2.57  17 2.57   9 2.57
                             3 2.57  11 2.57  22 2.57  27 2.57
  19  0.889  0.223  0.449-  28 2.55  15 2.56  21 2.56  20 2.56  12 2.56  10 2.56  22 2.56  24 2.56
                            32 2.56  31 2.56  25 2.57  26 2.57
  20  0.222  0.222  0.448-  10 2.55  11 2.55  13 2.55  36 2.55  26 2.56  19 2.56  27 2.57  22 2.57
                            23 2.57  21 2.57  29 2.58  31 2.58
  21  0.556  0.222  0.448-  12 2.55  14 2.55  11 2.55  36 2.55  19 2.56  25 2.56  24 2.57  27 2.57
                            20 2.57  23 2.57  32 2.58  30 2.58
  22  0.888  0.556  0.449-  35 2.55  24 2.56  27 2.56  19 2.56  25 2.56  18 2.57  15 2.57  31 2.57
                            33 2.57  23 2.57  20 2.57  13 2.57
  23  0.222  0.556  0.448-  16 2.55  13 2.55  14 2.55  36 2.55  25 2.56  26 2.56  22 2.57  24 2.57
                            20 2.57  21 2.57  33 2.58  34 2.58
  24  0.556  0.556  0.449-  35 2.55  22 2.56  27 2.56  19 2.56  26 2.56  15 2.57  17 2.57  32 2.57
                            34 2.57  21 2.57  23 2.57  14 2.57
  25  0.889  0.889  0.449-  28 2.55  18 2.56  21 2.56  23 2.56  16 2.56  12 2.56  22 2.56  27 2.56
                            33 2.56  30 2.56  19 2.57  26 2.57
  26  0.223  0.889  0.449-  28 2.55  17 2.56  20 2.56  23 2.56  10 2.56  16 2.56  27 2.56  24 2.56
                            29 2.56  34 2.56  25 2.57  19 2.57
  27  0.556  0.888  0.449-  35 2.55  24 2.56  22 2.56  26 2.56  25 2.56  17 2.57  18 2.57  29 2.57
                            30 2.57  20 2.57  21 2.57  11 2.57
  28  0.000  0.000  0.546-  25 2.55  19 2.55  26 2.55  33 2.56  30 2.56  31 2.56  29 2.56  32 2.56
                            34 2.56
  29  0.333  0.999  0.548-  34 2.55  28 2.56  26 2.56  35 2.56  27 2.57  31 2.57  36 2.57  30 2.58
                            20 2.58
  30  0.668  0.999  0.548-  33 2.55  28 2.56  25 2.56  35 2.56  27 2.57  32 2.57  36 2.57  29 2.58
                            21 2.58
  31  0.999  0.333  0.548-  32 2.55  28 2.56  19 2.56  35 2.56  22 2.57  29 2.57  36 2.57  33 2.58
                            20 2.58
  32  0.668  0.333  0.548-  31 2.55  28 2.56  19 2.56  35 2.56  24 2.57  30 2.57  36 2.57  34 2.58
                            21 2.58
  33  0.999  0.668  0.548-  30 2.55  28 2.56  25 2.56  35 2.56  22 2.57  34 2.57  36 2.57  31 2.58
                            23 2.58
  34  0.333  0.668  0.548-  29 2.55  28 2.56  26 2.56  35 2.56  24 2.57  33 2.57  36 2.57  32 2.58
                            23 2.58
  35  0.667  0.667  0.547-  24 2.55  27 2.55  22 2.55  34 2.56  32 2.56  29 2.56  30 2.56  33 2.56
                            31 2.56
  36  0.333  0.333  0.546-  37 1.73  23 2.55  20 2.55  21 2.55  31 2.57  29 2.57  33 2.57  34 2.57
                            32 2.57  30 2.57
  37  0.333  0.333  0.627-  36 1.73

  LATTYP: Found a hexagonal cell.
 ALAT       =     7.6967864036
 C/A-ratio  =     2.7653617908

  Lattice vectors:

 A1 = (  -3.8483927580,  -6.6656128093,   0.0000000000)
 A2 = (   7.6967864037,   0.0000000000,   0.0000000000)
 A3 = (   0.0000000000,   0.0000000000,  21.2843990326)

Analysis of symmetry for initial positions (statically):
 Subroutine PRICEL returns:
 Original cell was already a primitive cell.

 Routine SETGRP: Setting up the symmetry group for a
 hexagonal supercell.

 Subroutine GETGRP returns: Found  6 space group operations
 (whereof  6 operations were pure point group operations)
 out of a pool of 24 trial point group operations.

The static configuration has the point symmetry C_3v.

Analysis of symmetry for dynamics (positions and initial velocities):
 Subroutine PRICEL returns:
 Original cell was already a primitive cell.

[...]

The dynamic configuration has the point symmetry C_3v.

Analysis of constrained symmetry for selective dynamics:
 Subroutine PRICEL returns:
 Original cell was already a primitive cell.

 Routine SETGRP: Setting up the symmetry group for a
 hexagonal supercell.

 Subroutine GETGRP returns: Found  6 space group operations
[...]
     24      -4.3229      2.00000
     25      -4.2789      2.00000
     26      -4.2684      2.00000
     27      -4.2548      2.00000
     28      -4.1476      2.00000
     29      -4.0969      2.00000
     30      -4.0848      2.00000
     31      -4.0696      2.00000
     32      -4.0316      2.00000
     33      -4.0219      2.00000
     34      -4.0148      2.00000
     35      -3.9926      2.00000
     36      -3.9790      2.00000
     37      -3.9505      2.00000
     38      -3.8957      2.00000
     39      -3.8506      2.00000
     40      -3.8130      2.00000
     41      -3.7061      2.00000
     42      -3.6934      2.00000
     43      -3.6283      2.00000
     44      -3.6144      2.00000
     45      -3.5911      2.00000
     46      -3.5846      2.00000
     47      -3.5727      2.00000
     48      -3.5335      2.00000
     49      -3.5281      2.00000
     50      -3.3760      2.00000
     51      -3.3643      2.00000
     52      -3.3469      2.00000
     53      -3.3426      2.00000
     54      -3.2988      2.00000
     55      -3.2910      2.00000
     56      -3.2679      2.00000
     57      -3.2667      2.00000
     58      -3.2593      2.00000
     59      -3.2417      2.00000
     60      -3.2168      2.00000
[...]
    238       6.2814      0.00000
    239       6.4366      0.00000
    240       6.5131      0.00000
    241       7.0307      0.00000
    242       7.0577      0.00000
    243       7.1562      0.00000
    244       7.2030      0.00000
    245       7.3044      0.00000
    246       7.3715      0.00000
    247       7.4458      0.00000
    248       7.5337      0.00000
    249       7.5910      0.00000
    250       7.8043      0.00000
    251       7.8533      0.00000
    252       7.9893      0.00000

 soft charge-density along one line, spin component           1
         0         1         2         3         4         5         6         7         8         9
 total charge-density along one line

------------------------ aborting loop because EDIFF is reached ----------------------------------------

 total charge

# of ion       s       p       d       tot
    1        0.450   0.282   9.191   9.923
    2        0.449   0.285   9.188   9.921
    3        0.449   0.285   9.188   9.921
    4        0.449   0.285   9.188   9.921
    5        0.451   0.285   9.185   9.920
    6        0.449   0.285   9.188   9.921
    7        0.449   0.285   9.188   9.921
    8        0.449   0.285   9.188   9.921
    9        0.446   0.285   9.187   9.918
   10        0.444   0.370   9.179   9.993
   11        0.441   0.370   9.181   9.993
   12        0.444   0.370   9.179   9.993
   13        0.441   0.370   9.181   9.993
   14        0.441   0.370   9.181   9.993
   15        0.439   0.367   9.182   9.989
   16        0.444   0.370   9.179   9.993
   17        0.439   0.367   9.182   9.989
   18        0.439   0.367   9.182   9.989
   19        0.441   0.369   9.183   9.993
   20        0.462   0.392   9.167  10.021
   21        0.462   0.392   9.167  10.021
   22        0.432   0.370   9.184   9.986
   23        0.462   0.392   9.167  10.021
   24        0.432   0.370   9.184   9.986
   25        0.441   0.369   9.183   9.993
   26        0.441   0.369   9.183   9.993
   27        0.432   0.370   9.184   9.986
   28        0.456   0.286   9.192   9.934
   29        0.446   0.301   9.190   9.936
   30        0.446   0.301   9.190   9.936
   31        0.446   0.301   9.190   9.936
   32        0.446   0.301   9.190   9.936
   33        0.446   0.301   9.190   9.936
   34        0.446   0.301   9.190   9.936
   35        0.448   0.289   9.193   9.929
   36        0.682   0.847   6.717   8.247
   37        1.608   3.235   0.000   4.843
tot         17.887  15.733 328.161 361.781

  FORCE on cell =-STRESS in cart. coord.  units (eV):
  Direction    XX          YY          ZZ          XY          YZ          ZX
  Alpha Z   879.67415   879.67415   879.67415
  Ewald  172986.93671172986.93628************     0.00039     0.00012     0.00018
  Hartree186064.87195186064.87193************     0.00004     0.00006     0.00007
  E(xc)   -2314.76435 -2314.76388 -2318.63646    -0.00040    -0.00003    -0.00006
  Local  ************************372270.12469     0.01876    -0.00059    -0.00098
  n-local  -772.23518  -755.55391  -768.94867     8.95283     0.03869     0.29718
  augment  3360.88537  3360.90584  3370.22766    -0.01773     0.00024     0.00037
  Kinetic  3357.55193  3360.84834  3361.23067     2.95291     1.82336    -1.12036
  Fock        0.00000     0.00000     0.00000     0.00000     0.00000     0.00000
  Total      -1.21961    -1.21961     3.72840     0.00000    -0.00000    -0.00000
  in kB      -1.78945    -1.78945     5.47043     0.00000    -0.00000    -0.00000

 VOLUME and BASIS-vectors are now :
  energy-cutoff  :      500.00
  volume of cell :     1091.97
      direct lattice vectors                 reciprocal lattice vectors
     7.696786404  0.000000000  0.000000000     0.129924354 -0.075011849  0.000000000
     3.848392758  6.665612809  0.000000000     0.000000000  0.150023716  0.000000000
     0.000000000  0.000000000 21.284399033     0.000000000  0.000000000  0.046982769

  length of vectors
     7.696786404  7.696786404 21.284399033     0.150023716  0.150023716  0.046982769

 FORCES acting on ions
    electron-ion (+dipol)            ewald-force                    non-local-force                 convergence-correction
   -.417E-04 0.107E-06 0.349E+04   0.580E-04 -.436E-05 -.349E+04   -.638E-17 0.265E-17 -.265E+01   -.354E-03 -.172E-03 -.451E+00
   -.325E+00 -.734E-01 0.349E+04   0.185E+00 -.171E-01 -.349E+04   0.754E-01 0.151E+00 -.187E+01   0.662E-01 -.426E-01 -.393E+00
   0.325E+00 -.734E-01 0.349E+04   -.185E+00 -.172E-01 -.349E+04   -.754E-01 0.151E+00 -.187E+01   -.654E-01 -.401E-01 -.392E+00
   -.226E+00 -.245E+00 0.349E+04   0.774E-01 0.168E+00 -.349E+04   0.169E+00 -.104E-01 -.187E+01   -.366E-02 0.786E-01 -.393E+00
   -.653E-04 -.558E-05 0.349E+04   0.116E-03 -.101E-04 -.349E+04   0.716E-18 -.298E-17 -.167E+01   0.121E-01 0.743E-02 -.355E+00
   0.226E+00 -.245E+00 0.349E+04   -.775E-01 0.168E+00 -.349E+04   -.169E+00 -.104E-01 -.187E+01   0.207E-02 0.797E-01 -.392E+00
   0.990E-01 0.318E+00 0.349E+04   -.107E+00 -.151E+00 -.349E+04   0.933E-01 -.141E+00 -.187E+01   -.674E-01 -.366E-01 -.392E+00
   -.989E-01 0.318E+00 0.349E+04   0.107E+00 -.151E+00 -.349E+04   -.933E-01 -.141E+00 -.187E+01   0.708E-01 -.381E-01 -.392E+00
   -.144E-03 -.329E-04 0.349E+04   0.263E-03 0.205E-04 -.349E+04   -.234E-17 0.198E-17 -.223E+01   -.131E-01 -.678E-02 -.433E+00
   0.641E+00 0.370E+00 0.119E+04   -.150E+00 -.864E-01 -.119E+04   -.500E+00 -.289E+00 -.109E+01   0.248E-02 0.142E-02 0.293E+00
   -.908E-04 0.730E-01 0.118E+04   0.190E-03 -.201E+00 -.118E+04   -.133E-07 0.200E+00 -.341E+00   0.119E-01 -.941E-01 0.329E+00
   -.641E+00 0.370E+00 0.119E+04   0.149E+00 -.864E-01 -.119E+04   0.500E+00 -.289E+00 -.109E+01   -.430E-02 0.252E-02 0.293E+00
   0.632E-01 -.364E-01 0.118E+04   -.174E+00 0.101E+00 -.118E+04   0.173E+00 -.998E-01 -.341E+00   -.751E-01 0.582E-01 0.329E+00
   -.630E-01 -.364E-01 0.118E+04   0.174E+00 0.101E+00 -.118E+04   -.173E+00 -.998E-01 -.341E+00   0.987E-01 0.566E-01 0.327E+00
   -.142E-03 -.116E+01 0.118E+04   0.298E-03 0.978E+00 -.118E+04   -.745E-08 0.112E+00 -.859E+00   -.346E-02 0.530E-01 0.252E+00
   -.918E-04 -.740E+00 0.119E+04   0.186E-03 0.173E+00 -.119E+04   -.385E-07 0.578E+00 -.109E+01   -.900E-03 -.619E-02 0.293E+00
   -.100E+01 0.579E+00 0.118E+04   0.847E+00 -.489E+00 -.118E+04   0.969E-01 -.560E-01 -.859E+00   0.448E-01 -.295E-01 0.252E+00
   0.100E+01 0.579E+00 0.118E+04   -.848E+00 -.489E+00 -.118E+04   -.969E-01 -.560E-01 -.859E+00   -.434E-01 -.268E-01 0.254E+00
   -.603E-04 -.148E+01 -.113E+04   0.684E-04 0.138E+01 0.113E+04   -.316E-08 0.475E-01 0.822E+00   -.993E-03 0.285E-01 0.688E+00
   -.216E+02 -.125E+02 -.115E+04   0.226E+02 0.131E+02 0.115E+04   -.118E+01 -.679E+00 -.516E+00   0.133E+00 0.765E-01 0.913E+00
   0.216E+02 -.125E+02 -.115E+04   -.226E+02 0.131E+02 0.115E+04   0.118E+01 -.679E+00 -.516E+00   -.131E+00 0.747E-01 0.911E+00
   -.136E+02 0.787E+01 -.114E+04   0.131E+02 -.758E+01 0.114E+04   0.552E+00 -.319E+00 0.995E+00   0.211E-01 0.521E-03 0.768E+00
   -.825E-04 0.250E+02 -.115E+04   0.146E-03 -.261E+02 0.115E+04   -.904E-07 0.136E+01 -.516E+00   -.211E-02 -.152E+00 0.911E+00
   0.136E+02 0.787E+01 -.114E+04   -.131E+02 -.758E+01 0.114E+04   -.552E+00 -.319E+00 0.995E+00   0.714E-03 -.467E-03 0.769E+00
   0.128E+01 0.741E+00 -.113E+04   -.119E+01 -.689E+00 0.113E+04   -.411E-01 -.238E-01 0.822E+00   -.255E-01 -.147E-01 0.688E+00
   -.128E+01 0.741E+00 -.113E+04   0.119E+01 -.689E+00 0.113E+04   0.411E-01 -.238E-01 0.822E+00   0.246E-01 -.149E-01 0.688E+00
   -.122E-03 -.157E+02 -.114E+04   0.243E-03 0.152E+02 0.114E+04   -.424E-07 0.637E+00 0.995E+00   0.110E-01 0.180E-01 0.768E+00
   -.375E-04 0.160E-04 -.342E+04   0.376E-04 -.336E-04 0.342E+04   -.116E-16 -.180E-17 0.197E+01   -.192E-02 -.106E-02 0.638E+00
   -.736E+01 -.106E+02 -.341E+04   0.665E+01 0.898E+01 0.341E+04   0.347E+00 0.102E+01 0.255E+01   0.200E+00 0.248E+00 0.693E+00
   0.736E+01 -.106E+02 -.341E+04   -.665E+01 0.898E+01 0.341E+04   -.347E+00 0.102E+01 0.255E+01   -.177E+00 0.249E+00 0.693E+00
   -.128E+02 -.109E+01 -.341E+04   0.111E+02 0.127E+01 0.341E+04   0.105E+01 -.208E+00 0.255E+01   0.315E+00 0.489E-01 0.693E+00
   0.128E+02 -.109E+01 -.341E+04   -.111E+02 0.127E+01 0.341E+04   -.105E+01 -.208E+00 0.255E+01   -.293E+00 0.495E-01 0.694E+00
   -.547E+01 0.117E+02 -.341E+04   0.445E+01 -.102E+02 0.341E+04   0.707E+00 -.808E+00 0.255E+01   0.127E+00 -.278E+00 0.693E+00
   0.547E+01 0.117E+02 -.341E+04   -.445E+01 -.102E+02 0.341E+04   -.707E+00 -.808E+00 0.255E+01   -.103E+00 -.279E+00 0.694E+00
   -.152E-03 -.274E-04 -.343E+04   0.255E-03 0.400E-05 0.343E+04   -.204E-17 0.132E-17 0.226E+01   -.142E-01 -.738E-02 0.672E+00
   -.372E-04 -.225E-04 -.226E+04   0.100E-03 0.198E-04 0.227E+04   0.158E-16 -.309E-18 -.424E+01   0.774E-03 0.493E-03 0.664E+00
   0.171E-03 -.850E-04 -.220E+04   0.182E-04 0.828E-05 0.223E+04   0.267E-17 0.583E-18 -.294E+02   0.283E-02 0.173E-02 -.191E+00
   -.117E-03 -.112E-03 0.227E+02   0.138E-12 0.488E-12 -.318E-11   -.206E-15 -.554E-15 -.348E+02   0.118E+00 0.651E-01 0.121E+02

 POSITION                                       TOTAL-FORCE (eV/Angst)
      0.00000      0.00000      5.37156        -0.000000      0.000000     -0.013876
      2.56560      0.00000      5.37156         0.001440      0.019259      0.062762
      5.13119      0.00000      5.37156        -0.001440      0.019259      0.062762
      1.28280      2.22187      5.37156         0.017399     -0.008382      0.062762
      3.84839      2.22187      5.37156        -0.000000      0.000000      0.039613
      6.41399      2.22187      5.37156        -0.017399     -0.008382      0.062762
      2.56560      4.44374      5.37156         0.015958     -0.010877      0.062762
      5.13119      4.44374      5.37156        -0.015958     -0.010877      0.062762
      7.69679      4.44374      5.37156        -0.000000      0.000000      0.031079
      1.28280      0.74062      7.46636        -0.005142     -0.002969     -0.056216
      3.84839      0.74062      7.46636         0.000000     -0.029375     -0.044433
      6.41399      0.74062      7.46636         0.005142     -0.002969     -0.056216
      2.56560      2.96249      7.46636        -0.025440      0.014688     -0.044433
      5.13119      2.96249      7.46636         0.025440      0.014688     -0.044433
      7.69679      2.96249      7.46636         0.000000     -0.015503     -0.014043
      3.84839      5.18437      7.46636        -0.000000      0.005938     -0.056216
      6.41399      5.18437      7.46636        -0.013426      0.007752     -0.014043
      8.97958      5.18437      7.46636         0.013426      0.007752     -0.014043
      7.69679      1.48414      9.55535         0.000000     -0.027873     -0.003630
      2.56128      1.47875      9.53998        -0.062973     -0.036357     -0.198445
      5.13551      1.47875      9.53998         0.062973     -0.036357     -0.198445
      8.97644      3.70493      9.56275         0.049253     -0.028436     -0.010416
      3.84839      3.70811      9.53998        -0.000000      0.072715     -0.198445
      6.41713      3.70493      9.56275        -0.049253     -0.028436     -0.010416
     10.25987      5.92354      9.55535         0.024138      0.013936     -0.003630
      5.13370      5.92354      9.55535        -0.024138      0.013936     -0.003630
      7.69679      5.92136      9.56275        -0.000000      0.056872     -0.010416
      0.00000      0.00000     11.63109        -0.000000      0.000000      0.011491
      6.40750      6.66078     11.65531        -0.180384     -0.330906     -0.207296
      8.98608      6.66078     11.65531         0.180384     -0.330906     -0.207296
      8.97216      2.21866     11.65531        -0.376765      0.009236     -0.207296
      6.42142      2.21866     11.65531         0.376765      0.009236     -0.207296
     10.26144      4.45178     11.65531        -0.196381      0.321670     -0.207296
      5.13213      4.45178     11.65531         0.196381      0.321670     -0.207296
      7.69679      4.44374     11.63516         0.000000      0.000000      0.047044
      3.84839      2.22187     11.61289        -0.000000      0.000000      1.841216
      3.84839      2.22187     13.34525        -0.000000      0.000000     -0.107817
    total drift:                                0.117847      0.065017     -0.027914

  FREE ENERGIE OF THE ION-ELECTRON SYSTEM (eV)
  free  energy   TOTEN  =      -136.60946737 eV

  energy  without entropy=     -136.60946737  energy(sigma->0) =     -136.60946737

 stress matrix after NEB project (eV)
     -1.21961      0.00000     -0.00000
      0.00000     -1.21961     -0.00000
     -0.00000     -0.00000      3.72840
  FORCES: max atom, RMS     0.107817    0.017725
  FORCE total and by dimension    0.107817    0.107817
  Stress total and by dimension    4.108020    3.728397
|           W    W    AA    RRRRR   N    N  II  N    N   GGGG   !!!           |
|           W    W   A  A   R    R  NN   N  II  NN   N  G    G  !!!           |
|           W    W  A    A  R    R  N N  N  II  N N  N  G       !!!           |
|           W WW W  AAAAAA  RRRRR   N  N N  II  N  N N  G  GGG   !            |
|           WW  WW  A    A  R   R   N   NN  II  N   NN  G    G                |
|           W    W  A    A  R    R  N    N  II  N    N   GGGG   !!!           |
|     Tetrahedron method does not include variations of the Fermi             |
|     occupations, so forces and stress will be inaccurate. We suggest        |
|     using a different smearing scheme ISMEAR = 1 or 2 for metals in         |
|     relaxations.                                                            |

 total charge

# of ion       s       p       d       tot
    1        0.450   0.282   9.191   9.923
    2        0.449   0.285   9.188   9.921
    3        0.449   0.285   9.188   9.921
    4        0.449   0.285   9.188   9.921
    5        0.451   0.285   9.185   9.920
    6        0.449   0.285   9.188   9.921
    7        0.449   0.285   9.188   9.921
    8        0.449   0.285   9.188   9.921
    9        0.446   0.285   9.187   9.918
   10        0.444   0.370   9.179   9.993
   11        0.441   0.370   9.181   9.993
   12        0.444   0.370   9.179   9.993
   13        0.441   0.370   9.181   9.993
   14        0.441   0.370   9.181   9.993
   15        0.439   0.367   9.182   9.989
   16        0.444   0.370   9.179   9.993
   17        0.439   0.367   9.182   9.989
   18        0.439   0.367   9.182   9.989
   19        0.441   0.369   9.183   9.993
   20        0.462   0.392   9.167  10.021
   21        0.462   0.392   9.167  10.021
   22        0.432   0.370   9.184   9.986
   23        0.462   0.392   9.167  10.021
   24        0.432   0.370   9.184   9.986
   25        0.441   0.369   9.183   9.993
   26        0.441   0.369   9.183   9.993
   27        0.432   0.370   9.184   9.986
   28        0.456   0.286   9.192   9.934
   29        0.446   0.301   9.190   9.936
   30        0.446   0.301   9.190   9.936
   31        0.446   0.301   9.190   9.936
   32        0.446   0.301   9.190   9.936
   33        0.446   0.301   9.190   9.936
   34        0.446   0.301   9.190   9.936
   35        0.448   0.289   9.193   9.929
   36        0.682   0.847   6.717   8.247
   37        1.608   3.235   0.000   4.843
tot         17.887  15.733 328.161 361.781

 BZINTS: Fermi energy:    0.082316;  399.000000 electrons
         Band energy:-0.112881E+04;  BLOECHL correction:   -0.047120