 vasp.6.2.0 18Jan21 (build Jun 12 2021 23:27:24) complex

 executed on             LinuxIFC date 2022.05.27  05:09:07

 INCAR:
   ISMEAR = -5
   SIGMA = 0.1
   ISPIN = 1
   EDIFF = 1.d-5
   EDIFFG = -0.01
   NSW = 0
   NELM = 150
   ENCUT = 500
   ISIF = 2
   IBRION = 2
   LREAL = Auto
   ALGO = Fast
   ICHARG = 11
   LORBIT = 10
   LCHARG = .F.
   LWAVE = .F.

 POTCAR:    PAW_PBE Au 04Oct2007
 POTCAR:    PAW_PBE Nb_sv 25May2007
 POTCAR:    PAW_PBE H 15Jun2001
|           W    W    AA    RRRRR   N    N  II  N    N   GGGG   !!!           |
|           W    W   A  A   R    R  NN   N  II  NN   N  G    G  !!!           |
|           W    W  A    A  R    R  N N  N  II  N N  N  G       !!!           |
|           W WW W  AAAAAA  RRRRR   N  N N  II  N  N N  G  GGG   !            |
|           WW  WW  A    A  R   R   N   NN  II  N   NN  G    G                |
|           W    W  A    A  R    R  N    N  II  N    N   GGGG   !!!           |
|     For optimal performance we recommend to set                             |
|       NCORE = 2 up to number-of-cores-per-socket                            |
|     This setting can greatly improve the performance of VASP for DFT.       |
|     The default, NCORE=1 might be grossly inefficient on modern             |
|     multi-core architectures or massively parallel machines. Do your        |
|     Unfortunately you need to use the default for GW and RPA                |
|     calculations (for HF NCORE is supported but not extensively tested      |
|     yet).                                                                   |

 POTCAR:    PAW_PBE Au 04Oct2007
   VRHFIN =Au: s1d10

   TITEL  = PAW_PBE Au 04Oct2007
   POMASS =  196.966; ZVAL   =   11.000    mass and valenz
   ENMAX  =  229.943; ENMIN  =  172.457 eV

 POTCAR:    PAW_PBE Nb_sv 25May2007
   VRHFIN =Nb: 4p5s4d

   TITEL  = PAW_PBE Nb_sv 25May2007
   POMASS =   92.910; ZVAL   =   13.000    mass and valenz
   ENMAX  =  293.235; ENMIN  =  219.927 eV

 POTCAR:    PAW_PBE H 15Jun2001
   VRHFIN =H: ultrasoft test

   TITEL  = PAW_PBE H 15Jun2001
   POMASS =    1.000; ZVAL   =    1.000    mass and valenz
   ENMAX  =  250.000; ENMIN  =  200.000 eV

 Optimization of the real space projectors (new method)

 maximal supplied QI-value         = 15.12
 optimisation between [QCUT,QGAM] = [ 11.34, 22.83] = [ 36.00,145.93] Ry
 Optimized for a Real-space Cutoff    1.39 Angstroem

   l    n(q)    QCUT    max X(q) W(low)/X(q) W(high)/X(q)  e(spline)
   2      9    11.338    60.898    0.39E-03    0.42E-03    0.21E-06
   2      9    11.338    58.894    0.40E-03    0.42E-03    0.22E-06
   0      9    11.338   109.617    0.13E-03    0.20E-04    0.13E-06
   0      9    11.338    75.026    0.13E-03    0.20E-04    0.13E-06
   1      9    11.338    16.344    0.33E-04    0.24E-03    0.18E-06
   1      9    11.338    10.160    0.26E-04    0.19E-03    0.15E-06
 Optimization of the real space projectors (new method)

[...]

   l    n(q)    QCUT    max X(q) W(low)/X(q) W(high)/X(q)  e(spline)
   0     11    11.450    10.201    0.21E-04    0.96E-05    0.78E-07
   0     11    11.450     8.174    0.31E-04    0.18E-04    0.14E-06
   1     10    11.450     3.488    0.27E-04    0.12E-04    0.96E-07
   1     10    11.450     4.917    0.11E-03    0.11E-03    0.37E-06
   2     10    11.450   153.744    0.37E-03    0.81E-03    0.10E-05
   2     10    11.450   126.342    0.37E-03    0.81E-03    0.10E-05
 Optimization of the real space projectors (new method)

 maximal supplied QI-value         = 34.20
 optimisation between [QCUT,QGAM] = [ 11.29, 22.57] = [ 35.68,142.71] Ry
 Optimized for a Real-space Cutoff    1.16 Angstroem

   l    n(q)    QCUT    max X(q) W(low)/X(q) W(high)/X(q)  e(spline)
   0      8    11.287    19.460    0.40E-03    0.73E-03    0.16E-06
   0      8    11.287    12.209    0.38E-03    0.70E-03    0.15E-06
   1      7    11.287     4.655    0.22E-03    0.25E-04    0.22E-06
  PAW_PBE Au 04Oct2007                  :
  PAW_PBE Nb_sv 25May2007               :
  PAW_PBE H 15Jun2001                   :

 POSCAR: Au-Nb-H2
  positions in direct lattice
  velocities in cartesian coordinates
 exchange correlation table for  LEXCH =        8
   RHO(1)=    0.500       N(1)  =     2000
   RHO(2)=  100.500       N(2)  =     4000

 VTST: version 3.2, (02/03/18)

 CHAIN: initializing optimizer

 OPT: Using VASP Conjugate-Gradient optimizer
 CHAIN: Read ICHAIN            0

 POSCAR: Au-Nb-H2
  positions in direct lattice
  velocities in cartesian coordinates

 ion  position               nearest neighbor table
   1  0.000  0.000  0.238-  16 2.94  12 2.94   6 2.94   8 2.94   7 2.94   3 2.94  10 2.94   4 2.94
                             2 2.94
   2  0.333  0.000  0.238-   9 2.94  11 2.94  17 2.94  10 2.94   8 2.94   4 2.94   5 2.94   1 2.94
                             3 2.94
   3  0.667  0.000  0.238-   7 2.94  18 2.94  12 2.94   1 2.94  11 2.94   5 2.94   6 2.94   9 2.94
                             2 2.94
   4  0.000  0.333  0.238-  10 2.94   6 2.94   5 2.94  13 2.94   2 2.94  15 2.94   9 2.94   1 2.94
                             7 2.94
   5  0.333  0.333  0.238-  13 2.94   7 2.94  11 2.94   4 2.94   2 2.94  14 2.94   3 2.94   8 2.94
                             6 2.94
   6  0.667  0.333  0.238-  15 2.94  14 2.94   1 2.94  12 2.94   4 2.94   9 2.94   8 2.94   3 2.94
                             5 2.94
   7  0.000  0.667  0.238-  18 2.94   3 2.94  16 2.94   5 2.94   1 2.94  13 2.94   8 2.94   4 2.94
                             9 2.94
   8  0.333  0.667  0.238-   9 2.94  17 2.94   1 2.94   2 2.94  14 2.94  16 2.94   6 2.94   7 2.94
                             5 2.94
   9  0.667  0.667  0.238-   2 2.94   8 2.94  17 2.94   6 2.94  15 2.94   4 2.94   3 2.94  18 2.94
                             7 2.94
  10  0.111  0.111  0.346-  20 2.91  11 2.94  17 2.94   2 2.94   4 2.94   1 2.94  12 2.94  16 2.94
                            13 2.94  15 2.94  26 2.95  19 2.95
  11  0.444  0.111  0.346-  20 2.91  21 2.91  13 2.94   2 2.94  10 2.94  17 2.94   5 2.94   3 2.94
                            18 2.94  14 2.94  12 2.94  27 2.94
  12  0.778  0.111  0.346-  21 2.91  16 2.94  18 2.94   1 2.94  14 2.94  15 2.94   3 2.94   6 2.94
                            10 2.94  11 2.94  25 2.95  19 2.95
  13  0.111  0.444  0.346-  23 2.91  20 2.91   5 2.94  18 2.94  11 2.94   7 2.94   4 2.94  16 2.94
                            10 2.94  14 2.94  15 2.94  22 2.94
  14  0.444  0.444  0.346-  21 2.91  23 2.91  15 2.94   6 2.94  12 2.94   8 2.94  17 2.94   5 2.94
                            16 2.94  13 2.94  11 2.94  24 2.94
  15  0.778  0.444  0.346-  24 2.93  22 2.93  14 2.94   6 2.94  17 2.94  12 2.94   9 2.94   4 2.94
                            10 2.94  13 2.94  18 2.94  19 2.94
  16  0.111  0.778  0.346-  23 2.91  18 2.94  12 2.94   7 2.94   1 2.94   8 2.94  13 2.94  10 2.94
                            14 2.94  17 2.94  25 2.95  26 2.95
  17  0.444  0.778  0.346-  27 2.93  24 2.93   9 2.94  15 2.94   2 2.94  10 2.94  11 2.94   8 2.94
                            14 2.94  16 2.94  18 2.94  26 2.94
  18  0.778  0.778  0.346-  22 2.93  27 2.93  16 2.94   7 2.94  13 2.94  12 2.94   3 2.94  11 2.94
                             9 2.94  15 2.94  17 2.94  25 2.94
  19  0.889  0.223  0.454-  24 2.93  22 2.93  21 2.94  20 2.94  15 2.94  26 2.94  25 2.94  10 2.95
                            12 2.95  28 2.95  32 3.04  31 3.04
  20  0.222  0.222  0.453-  36 2.78  10 2.91  11 2.91  13 2.91  26 2.94  19 2.94  23 2.94  21 2.94
                            27 2.95  22 2.95  29 2.99  31 2.99
  21  0.556  0.222  0.453-  36 2.78  12 2.91  14 2.91  11 2.91  25 2.94  19 2.94  20 2.94  23 2.94
                            27 2.95  24 2.95  30 2.99  32 2.99
  22  0.887  0.557  0.454-  24 2.91  27 2.91  18 2.93  15 2.93  25 2.93  19 2.93  13 2.94  23 2.95
                            20 2.95  35 2.96  33 3.02  31 3.02
  23  0.222  0.556  0.453-  36 2.78  16 2.91  13 2.91  14 2.91  25 2.94  26 2.94  20 2.94  21 2.94
                            22 2.95  24 2.95  33 2.99  34 2.99
  24  0.557  0.557  0.454-  27 2.91  22 2.91  15 2.93  17 2.93  26 2.93  19 2.93  14 2.94  21 2.95
                            23 2.95  35 2.96  32 3.02  34 3.02
  25  0.889  0.889  0.454-  22 2.93  27 2.93  23 2.94  21 2.94  18 2.94  19 2.94  26 2.94  16 2.95
                            12 2.95  28 2.95  33 3.04  30 3.04
  26  0.223  0.889  0.454-  27 2.93  24 2.93  20 2.94  23 2.94  17 2.94  19 2.94  25 2.94  10 2.95
                            16 2.95  28 2.95  29 3.04  34 3.04
  27  0.557  0.887  0.454-  24 2.91  22 2.91  17 2.93  18 2.93  26 2.93  25 2.93  11 2.94  20 2.95
                            21 2.95  35 2.96  29 3.02  30 3.02
  28  0.000  0.000  0.563-  25 2.95  19 2.95  26 2.95  34 2.98  32 2.98  33 2.98  30 2.98  31 2.98
                            29 2.98
  29  0.334  0.009  0.566-  30 2.85  31 2.86  36 2.87  35 2.98  28 2.98  20 2.99  27 3.02  26 3.04
                            34 3.10
  30  0.657  0.009  0.566-  29 2.85  32 2.86  36 2.87  35 2.98  28 2.98  21 2.99  27 3.02  25 3.04
                            33 3.10
  31  0.009  0.334  0.566-  33 2.85  29 2.86  36 2.87  35 2.98  28 2.98  20 2.99  22 3.02  19 3.04
                            32 3.10
  32  0.657  0.334  0.566-  34 2.85  30 2.86  36 2.87  35 2.98  28 2.98  21 2.99  24 3.02  19 3.04
                            31 3.10
  33  0.009  0.657  0.566-  31 2.85  34 2.86  36 2.87  35 2.98  28 2.98  23 2.99  22 3.02  25 3.04
                            30 3.10
  34  0.334  0.657  0.566-  32 2.85  33 2.86  36 2.87  35 2.98  28 2.98  23 2.99  24 3.02  26 3.04
                            29 3.10
  35  0.667  0.667  0.563-  24 2.96  27 2.96  22 2.96  29 2.98  34 2.98  32 2.98  31 2.98  30 2.98
                            33 2.98
  36  0.333  0.333  0.552-  20 2.78  23 2.78  21 2.78  33 2.87  31 2.87  29 2.87  30 2.87  34 2.87
                            32 2.87
  37  0.287  0.333  0.639-  38 0.82
  38  0.380  0.333  0.639-  37 0.82

  LATTYP: Found a hexagonal cell.
 ALAT       =     8.8135128021
 C/A-ratio  =     2.5184286595

  Lattice vectors:

 A1 = (  -4.4067569092,  -7.6327256898,   0.0000000000)
 A2 = (   8.8135128021,   0.0000000000,   0.0000000000)
 A3 = (   0.0000000000,   0.0000000000,  22.1962032318)

Analysis of symmetry for initial positions (statically):
 Subroutine PRICEL returns:
 Original cell was already a primitive cell.

 Routine SETGRP: Setting up the symmetry group for a
 hexagonal supercell.

 Subroutine GETGRP returns: Found  2 space group operations
 (whereof  2 operations were pure point group operations)
 out of a pool of 24 trial point group operations.

The static configuration has the point symmetry C_1h.

Analysis of symmetry for dynamics (positions and initial velocities):
 Subroutine PRICEL returns:
 Original cell was already a primitive cell.

[...]

The dynamic configuration has the point symmetry C_1h.

Analysis of constrained symmetry for selective dynamics:
 Subroutine PRICEL returns:
 Original cell was already a primitive cell.

 Routine SETGRP: Setting up the symmetry group for a
 hexagonal supercell.

 Subroutine GETGRP returns: Found  2 space group operations
[...]
     33      -4.7464      2.00000
     34      -4.6710      2.00000
     35      -4.6429      2.00000
     36      -4.6217      2.00000
     37      -4.5748      2.00000
     38      -4.5610      2.00000
     39      -4.5476      2.00000
     40      -4.5175      2.00000
     41      -4.5103      2.00000
     42      -4.3595      2.00000
     43      -4.3453      2.00000
     44      -4.2891      2.00000
     45      -4.2411      2.00000
     46      -4.2146      2.00000
     47      -4.1848      2.00000
     48      -4.1625      2.00000
     49      -4.1325      2.00000
     50      -4.1116      2.00000
     51      -4.0197      2.00000
     52      -4.0035      2.00000
     53      -3.9781      2.00000
     54      -3.9478      2.00000
     55      -3.9434      2.00000
     56      -3.9403      2.00000
     57      -3.9192      2.00000
     58      -3.9008      2.00000
     59      -3.8596      2.00000
     60      -3.8291      2.00000
[...]
    238       6.4358      0.00000
    239       6.4441      0.00000
    240       6.5473      0.00000
    241       6.6760      0.00000
    242       6.7332      0.00000
    243       6.7728      0.00000
    244       6.8916      0.00000
    245       6.9663      0.00000
    246       6.9834      0.00000
    247       7.0514      0.00000
    248       7.2944      0.00000
    249       7.4674      0.00000
    250       7.5636      0.00000
    251       7.6149      0.00000
    252       7.6853      0.00000

 soft charge-density along one line, spin component           1
         0         1         2         3         4         5         6         7         8         9
 total charge-density along one line

------------------------ aborting loop because EDIFF is reached ----------------------------------------

 total charge

# of ion       s       p       d       tot
    1        0.548   0.236   8.769   9.552
    2        0.542   0.241   8.765   9.548
    3        0.542   0.241   8.765   9.548
    4        0.541   0.241   8.767   9.548
    5        0.548   0.240   8.760   9.549
    6        0.541   0.241   8.767   9.548
    7        0.541   0.241   8.766   9.548
    8        0.541   0.241   8.766   9.548
    9        0.542   0.239   8.769   9.550
   10        0.528   0.307   8.767   9.601
   11        0.523   0.306   8.780   9.609
   12        0.528   0.307   8.767   9.601
   13        0.523   0.306   8.780   9.609
   14        0.523   0.306   8.780   9.609
   15        0.515   0.308   8.775   9.598
   16        0.528   0.307   8.766   9.601
   17        0.516   0.307   8.775   9.598
   18        0.516   0.307   8.775   9.598
   19        0.519   0.297   8.769   9.584
   20        0.576   0.338   8.727   9.640
   21        0.576   0.338   8.727   9.640
   22        0.506   0.306   8.778   9.589
   23        0.578   0.337   8.727   9.641
   24        0.506   0.306   8.778   9.589
   25        0.519   0.296   8.770   9.585
   26        0.519   0.296   8.770   9.585
   27        0.508   0.305   8.779   9.592
   28        0.539   0.229   8.755   9.523
   29        0.590   0.248   8.730   9.568
   30        0.590   0.248   8.730   9.568
   31        0.585   0.251   8.731   9.567
   32        0.585   0.251   8.731   9.567
   33        0.589   0.248   8.731   9.568
   34        0.589   0.248   8.731   9.568
   35        0.540   0.229   8.758   9.526
   36        2.166   5.999   2.293  10.458
   37        0.563   0.030   0.000   0.592
   38        0.563   0.030   0.000   0.592
tot         22.290  15.747 308.871 346.909

  FORCE on cell =-STRESS in cart. coord.  units (eV):
  Direction    XX          YY          ZZ          XY          YZ          ZX
  Alpha Z  1024.85741  1024.85741  1024.85741
  Ewald  120346.04904120323.73058************    -0.00032     0.01015    -0.00014
  Hartree129194.49789129187.98504************     0.00001    -0.05506    -0.00004
  E(xc)   -1792.17123 -1792.44770 -1799.77809     0.00000     0.00151    -0.00000
  Local  ************************262276.29762     0.00177     0.34334     0.00010
  n-local   -56.40337   -55.77249   -22.12872     4.44339    -0.18397     0.09770
  augment  2382.07524  2381.70049  2403.35186    -0.00133    -0.00120     0.00003
  Kinetic  5599.38826  5602.33086  5666.36682     1.45482    -0.20740     0.05707
  Fock        0.00000     0.00000     0.00000     0.00000     0.00000     0.00000
  Total     -22.01671   -21.93235     3.57295    -0.00000    -0.09263    -0.00000
  in kB     -23.62412   -23.53360     3.83381    -0.00000    -0.09939    -0.00000

 VOLUME and BASIS-vectors are now :
  energy-cutoff  :      500.00
  volume of cell :     1493.16
      direct lattice vectors                 reciprocal lattice vectors
     8.813512802  0.000000000  0.000000000     0.113462137 -0.065507406  0.000000000
     4.406756909  7.632725690  0.000000000     0.000000000  0.131014796  0.000000000
     0.000000000  0.000000000 22.196203232     0.000000000  0.000000000  0.045052750

  length of vectors
     8.813512802  8.813512802 22.196203232     0.131014796  0.131014796  0.045052750

 FORCES acting on ions
    electron-ion (+dipol)            ewald-force                    non-local-force                 convergence-correction
   -.200E-04 -.962E-02 0.250E+04   0.520E-04 -.142E-02 -.250E+04   -.701E-09 -.105E-01 -.814E+00   -.240E-03 0.144E-01 -.237E+00
   0.796E+00 0.629E+00 0.250E+04   -.837E+00 -.845E+00 -.250E+04   0.725E-01 0.167E+00 -.280E+00   -.321E-01 0.357E-01 -.249E+00
   -.796E+00 0.629E+00 0.250E+04   0.837E+00 -.845E+00 -.250E+04   -.725E-01 0.167E+00 -.280E+00   0.324E-01 0.376E-01 -.249E+00
   0.969E+00 0.390E+00 0.250E+04   -.115E+01 -.303E+00 -.250E+04   0.171E+00 -.447E-01 -.319E+00   0.107E-02 -.373E-01 -.270E+00
   0.774E-05 -.164E-01 0.250E+04   0.951E-04 -.812E-05 -.250E+04   0.248E-09 0.372E-02 0.197E+00   0.428E-02 0.750E-02 -.232E+00
   -.969E+00 0.390E+00 0.250E+04   0.115E+01 -.303E+00 -.250E+04   -.171E+00 -.447E-01 -.319E+00   -.261E-02 -.364E-01 -.269E+00
   0.140E+00 -.100E+01 0.250E+04   -.312E+00 0.115E+01 -.250E+04   0.127E+00 -.134E+00 -.289E+00   0.316E-01 -.895E-03 -.258E+00
   -.140E+00 -.100E+01 0.250E+04   0.312E+00 0.115E+01 -.250E+04   -.127E+00 -.134E+00 -.289E+00   -.297E-01 -.200E-02 -.258E+00
   0.197E-04 0.106E-01 0.250E+04   0.166E-03 0.145E-02 -.250E+04   0.783E-09 0.118E-01 -.479E+00   -.459E-02 -.220E-01 -.208E+00
   0.865E+01 0.500E+01 0.854E+03   -.824E+01 -.477E+01 -.853E+03   -.397E+00 -.237E+00 -.684E+00   -.367E-01 -.660E-02 0.175E-02
   0.161E-04 0.942E+01 0.866E+03   0.147E-03 -.938E+01 -.866E+03   -.885E-09 -.133E-01 -.450E-01   0.402E-02 -.703E-01 0.342E-01
   -.865E+01 0.500E+01 0.854E+03   0.824E+01 -.477E+01 -.853E+03   0.397E+00 -.237E+00 -.684E+00   0.352E-01 -.543E-02 0.162E-02
   0.814E+01 -.470E+01 0.866E+03   -.811E+01 0.469E+01 -.866E+03   0.236E-01 0.681E-02 -.560E-01   -.804E-01 0.288E-01 0.357E-01
   -.814E+01 -.470E+01 0.866E+03   0.811E+01 0.469E+01 -.866E+03   -.236E-01 0.681E-02 -.560E-01   0.880E-01 0.279E-01 0.349E-01
   0.304E-04 0.259E+01 0.855E+03   0.236E-03 -.263E+01 -.854E+03   -.509E-09 -.765E-02 -.557E+00   -.230E-02 -.253E-01 -.808E-02
   -.218E-04 -.100E+02 0.854E+03   0.163E-03 0.952E+01 -.853E+03   0.326E-07 0.490E+00 -.629E+00   -.673E-04 0.611E-01 0.118E-01
   0.222E+01 -.129E+01 0.855E+03   -.228E+01 0.132E+01 -.854E+03   0.198E-01 -.214E-02 -.529E+00   -.124E-01 -.272E-02 -.177E-02
   -.222E+01 -.129E+01 0.855E+03   0.228E+01 0.132E+01 -.854E+03   -.198E-01 -.214E-02 -.529E+00   0.127E-01 -.712E-03 -.116E-02
   -.425E-04 0.264E+01 -.835E+03   0.518E-04 -.253E+01 0.834E+03   -.106E-08 -.159E-01 0.586E+00   -.651E-03 -.835E-01 0.378E+00
   0.551E+02 0.318E+02 -.743E+03   -.539E+02 -.312E+02 0.744E+03   -.124E+01 -.659E+00 -.154E+01   0.291E-01 0.108E-01 0.504E+00
   -.551E+02 0.318E+02 -.743E+03   0.539E+02 -.312E+02 0.744E+03   0.124E+01 -.659E+00 -.154E+01   -.283E-01 0.113E-01 0.504E+00
   0.125E+02 -.732E+01 -.814E+03   -.130E+02 0.758E+01 0.813E+03   0.419E+00 -.251E+00 0.585E+00   0.479E-01 -.215E-01 0.330E+00
   -.943E-05 -.637E+02 -.744E+03   0.144E-03 0.624E+02 0.744E+03   0.977E-07 0.147E+01 -.152E+01   0.452E-03 -.409E-01 0.509E+00
   -.125E+02 -.732E+01 -.814E+03   0.130E+02 0.758E+01 0.813E+03   -.419E+00 -.251E+00 0.585E+00   -.482E-01 -.219E-01 0.330E+00
   -.223E+01 -.127E+01 -.835E+03   0.215E+01 0.121E+01 0.834E+03   0.763E-02 0.168E-01 0.569E+00   0.608E-01 0.432E-01 0.390E+00
   0.223E+01 -.127E+01 -.835E+03   -.215E+01 0.121E+01 0.834E+03   -.763E-02 0.168E-01 0.569E+00   -.604E-01 0.425E-01 0.390E+00
   0.156E-04 0.145E+02 -.815E+03   0.194E-03 -.150E+02 0.814E+03   0.328E-07 0.492E+00 0.591E+00   -.330E-03 0.531E-01 0.342E+00
   -.156E-04 0.290E+00 -.245E+04   0.303E-04 -.294E+00 0.245E+04   -.505E-09 -.758E-02 0.554E+00   -.777E-04 -.394E-02 0.208E+00
   0.529E+02 0.872E+02 -.248E+04   -.516E+02 -.855E+02 0.248E+04   -.131E+01 -.196E+01 -.457E+00   0.154E-01 0.135E+00 0.185E+00
   -.529E+02 0.872E+02 -.248E+04   0.516E+02 -.855E+02 0.248E+04   0.131E+01 -.196E+01 -.457E+00   -.151E-01 0.136E+00 0.185E+00
   0.103E+03 0.260E+01 -.247E+04   -.101E+03 -.247E+01 0.247E+04   -.227E+01 -.722E-01 -.364E+00   0.135E+00 -.497E-01 0.186E+00
   -.103E+03 0.260E+01 -.247E+04   0.101E+03 -.247E+01 0.247E+04   0.227E+01 -.722E-01 -.364E+00   -.137E+00 -.489E-01 0.185E+00
   0.483E+02 -.898E+02 -.248E+04   -.474E+02 0.879E+02 0.248E+04   -.113E+01 0.203E+01 -.431E+00   0.107E+00 -.811E-01 0.189E+00
   -.483E+02 -.898E+02 -.248E+04   0.474E+02 0.879E+02 0.248E+04   0.113E+01 0.203E+01 -.431E+00   -.105E+00 -.820E-01 0.189E+00
   0.329E-04 -.316E+00 -.245E+04   0.141E-03 0.297E+00 0.245E+04   0.262E-08 0.394E-01 0.646E+00   -.445E-02 -.186E-02 0.238E+00
   0.230E-03 -.479E-01 -.270E+04   0.135E-03 -.906E-02 0.270E+04   0.369E-09 0.554E-02 0.142E+01   0.695E-02 0.239E-02 0.293E+00
   0.202E+02 0.273E-02 -.284E+03   -.242E+02 -.205E-02 0.285E+03   0.397E+01 0.165E-02 -.980E+00   0.387E-02 0.528E-03 -.251E-01
   -.202E+02 0.274E-02 -.284E+03   0.242E+02 -.205E-02 0.285E+03   -.397E+01 0.165E-02 -.980E+00   -.371E-02 0.535E-03 -.251E-01
   -.511E-03 -.192E+00 0.649E+01   0.568E-13 0.630E-13 0.409E-11   0.125E-07 0.188E+00 -.960E+01   0.116E-01 0.355E-02 0.336E+01

 POSITION                                       TOTAL-FORCE (eV/Angst)
      0.00000      0.00000      5.28038        -0.000000     -0.007185     -0.170514
      2.93784      0.00000      5.28038        -0.000382     -0.012757     -0.058664
      5.87568      0.00000      5.28038         0.000382     -0.012757     -0.058664
      1.46892      2.54424      5.28038        -0.006732      0.005661     -0.062164
      4.40676      2.54424      5.28038        -0.000000     -0.005220     -0.085957
      7.34459      2.54424      5.28038         0.006732      0.005661     -0.062164
      2.93784      5.08848      5.28038        -0.015051      0.009611     -0.055735
      5.87568      5.08848      5.28038         0.015051      0.009611     -0.055735
      8.81351      5.08848      5.28038         0.000000      0.001834     -0.080493
      1.46892      0.84808      7.67911        -0.026972     -0.011090      0.097124
      4.40676      0.84808      7.67911        -0.000000     -0.041517      0.002957
      7.34459      0.84808      7.67911         0.026972     -0.011090      0.097124
      2.93784      3.39232      7.67911        -0.036122      0.029759     -0.005014
      5.87568      3.39232      7.67911         0.036122      0.029759     -0.005014
      8.81351      3.39232      7.67911        -0.000000     -0.070860      0.102127
      4.40676      5.93656      7.67911         0.000000      0.033714      0.094333
      7.34459      5.93656      7.67911        -0.058643      0.028049      0.108499
     10.28243      5.93656      7.67911         0.058643      0.028049      0.108499
      8.81351      1.70030     10.08698         0.000000      0.013738      0.047575
      2.93503      1.69454     10.04736        -0.040632     -0.026641     -0.129069
      5.87848      1.69454     10.04736         0.040632     -0.026641     -0.129069
     10.26776      4.24887     10.06889         0.015601     -0.014394      0.028487
      4.40676      4.24365     10.04736         0.000000      0.066183     -0.100546
      7.35926      4.24887     10.06889        -0.015601     -0.014394      0.028487
     11.74777      6.78258     10.08698        -0.006642     -0.000302      0.010032
      5.87926      6.78258     10.08698         0.006642     -0.000302      0.010032
      8.81351      6.76771     10.06889         0.000000      0.036801      0.025294
      0.00000      0.00000     12.49943        -0.000000     -0.015732     -0.020013
      2.98194      0.07009     12.55649        -0.031829     -0.077144     -0.021234
      5.83157      0.07009     12.55649         0.031829     -0.077144     -0.021234
      1.55167      2.54739     12.55649        -0.041435      0.009027      0.017405
      7.26184      2.54739     12.55649         0.041435      0.009027      0.017405
      2.97649      5.01524     12.55649        -0.049895      0.067018     -0.041930
      5.83702      5.01524     12.55649         0.049895      0.067018     -0.041930
      8.81351      5.08848     12.50498         0.000000      0.017935      0.001295
      4.40676      2.54424     12.24418        -0.000000     -0.049025      0.397091
      3.99443      2.54444     14.19069         0.007068      0.002870      0.005688
      4.81909      2.54444     14.19069        -0.007068      0.002870      0.005688
    total drift:                                0.011049     -0.000266      0.261091

  FREE ENERGIE OF THE ION-ELECTRON SYSTEM (eV)
  free  energy   TOTEN  =      -123.49093705 eV

  energy  without entropy=     -123.49093705  energy(sigma->0) =     -123.49093705

 stress matrix after NEB project (eV)
    -22.01671     -0.00000     -0.00000
     -0.00000    -21.93235     -0.09263
     -0.00000     -0.09263      3.57295
  FORCES: max atom, RMS     0.009516    0.002183
  FORCE total and by dimension    0.013458    0.007068
  Stress total and by dimension   31.281735   22.016712
|           W    W    AA    RRRRR   N    N  II  N    N   GGGG   !!!           |
|           W    W   A  A   R    R  NN   N  II  NN   N  G    G  !!!           |
|           W    W  A    A  R    R  N N  N  II  N N  N  G       !!!           |
|           W WW W  AAAAAA  RRRRR   N  N N  II  N  N N  G  GGG   !            |
|           WW  WW  A    A  R   R   N   NN  II  N   NN  G    G                |
|           W    W  A    A  R    R  N    N  II  N    N   GGGG   !!!           |
|     Tetrahedron method does not include variations of the Fermi             |
|     occupations, so forces and stress will be inaccurate. We suggest        |
|     using a different smearing scheme ISMEAR = 1 or 2 for metals in         |
|     relaxations.                                                            |

 total charge

# of ion       s       p       d       tot
    1        0.548   0.236   8.769   9.552
    2        0.542   0.241   8.765   9.548
    3        0.542   0.241   8.765   9.548
    4        0.541   0.241   8.767   9.548
    5        0.548   0.240   8.760   9.549
    6        0.541   0.241   8.767   9.548
    7        0.541   0.241   8.766   9.548
    8        0.541   0.241   8.766   9.548
    9        0.542   0.239   8.769   9.550
   10        0.528   0.307   8.767   9.601
   11        0.523   0.306   8.780   9.609
   12        0.528   0.307   8.767   9.601
   13        0.523   0.306   8.780   9.609
   14        0.523   0.306   8.780   9.609
   15        0.515   0.308   8.775   9.598
   16        0.528   0.307   8.766   9.601
   17        0.516   0.307   8.775   9.598
   18        0.516   0.307   8.775   9.598
   19        0.519   0.297   8.769   9.584
   20        0.576   0.338   8.727   9.640
   21        0.576   0.338   8.727   9.640
   22        0.506   0.306   8.778   9.589
   23        0.578   0.337   8.727   9.641
   24        0.506   0.306   8.778   9.589
   25        0.519   0.296   8.770   9.585
   26        0.519   0.296   8.770   9.585
   27        0.508   0.305   8.779   9.592
   28        0.539   0.229   8.755   9.523
   29        0.590   0.248   8.730   9.568
   30        0.590   0.248   8.730   9.568
   31        0.585   0.251   8.731   9.567
   32        0.585   0.251   8.731   9.567
   33        0.589   0.248   8.731   9.568
   34        0.589   0.248   8.731   9.568
   35        0.540   0.229   8.758   9.526
   36        2.166   5.999   2.293  10.458
   37        0.563   0.030   0.000   0.592
   38        0.563   0.030   0.000   0.592
tot         22.290  15.747 308.871 346.909

 BZINTS: Fermi energy:    0.859008;  400.000000 electrons
         Band energy:-0.143260E+04;  BLOECHL correction:   -0.032970