 vasp.6.2.0 18Jan21 (build Jun 12 2021 23:27:24) complex

 executed on             LinuxIFC date 2022.05.27  06:01:52

 INCAR:
   ISMEAR = -5
   SIGMA = 0.1
   ISPIN = 1
   EDIFF = 1.d-5
   EDIFFG = -0.01
   NSW = 0
   NELM = 150
   ENCUT = 500
   ISIF = 2
   IBRION = 2
   LREAL = Auto
   ALGO = Fast
   ICHARG = 11
   LORBIT = 10
   LCHARG = .F.
   LWAVE = .F.

 POTCAR:    PAW_PBE Cu 22Jun2005
 POTCAR:    PAW_PBE Mn 06Sep2000
 POTCAR:    PAW_PBE N 08Apr2002
|           W    W    AA    RRRRR   N    N  II  N    N   GGGG   !!!           |
|           W    W   A  A   R    R  NN   N  II  NN   N  G    G  !!!           |
|           W    W  A    A  R    R  N N  N  II  N N  N  G       !!!           |
|           W WW W  AAAAAA  RRRRR   N  N N  II  N  N N  G  GGG   !            |
|           WW  WW  A    A  R   R   N   NN  II  N   NN  G    G                |
|           W    W  A    A  R    R  N    N  II  N    N   GGGG   !!!           |
|     For optimal performance we recommend to set                             |
|       NCORE = 2 up to number-of-cores-per-socket                            |
|     This setting can greatly improve the performance of VASP for DFT.       |
|     The default, NCORE=1 might be grossly inefficient on modern             |
|     multi-core architectures or massively parallel machines. Do your        |
|     Unfortunately you need to use the default for GW and RPA                |
|     calculations (for HF NCORE is supported but not extensively tested      |
|     yet).                                                                   |

 POTCAR:    PAW_PBE Cu 22Jun2005
   VRHFIN =Cu: d10 p1

   TITEL  = PAW_PBE Cu 22Jun2005
   POMASS =   63.546; ZVAL   =   11.000    mass and valenz
   ENMAX  =  295.446; ENMIN  =  221.585 eV

 POTCAR:    PAW_PBE Mn 06Sep2000
   VRHFIN =Mn: d6 s1

   TITEL  = PAW_PBE Mn 06Sep2000
   POMASS =   54.938; ZVAL   =    7.000    mass and valenz
   ENMAX  =  269.864; ENMIN  =  202.398 eV

 POTCAR:    PAW_PBE N 08Apr2002
   VRHFIN =N: s2p3

   TITEL  = PAW_PBE N 08Apr2002
   POMASS =   14.001; ZVAL   =    5.000    mass and valenz
   ENMAX  =  400.000; ENMIN  =  300.000 eV

 Optimization of the real space projectors (new method)

 maximal supplied QI-value         = 16.25
 optimisation between [QCUT,QGAM] = [ 11.38, 22.75] = [ 36.24,144.96] Ry
 Optimized for a Real-space Cutoff    1.52 Angstroem

   l    n(q)    QCUT    max X(q) W(low)/X(q) W(high)/X(q)  e(spline)
   2      9    11.376     4.610    0.21E-03    0.10E-03    0.26E-06
   2      9    11.376     8.522    0.33E-03    0.16E-03    0.37E-06
   0     10    11.376    51.609    0.62E-04    0.20E-04    0.13E-06
   0     10    11.376    27.747    0.54E-04    0.20E-04    0.13E-06
   1     10    11.376    20.408    0.13E-04    0.99E-04    0.19E-06
   1     10    11.376    13.425    0.12E-04    0.87E-04    0.17E-06
 Optimization of the real space projectors (new method)

[...]

   l    n(q)    QCUT    max X(q) W(low)/X(q) W(high)/X(q)  e(spline)
   2      8    11.376   110.144    0.49E-03    0.27E-04    0.26E-06
   2      8    11.376   103.200    0.49E-03    0.28E-04    0.27E-06
   0      9    11.376    68.437    0.57E-04    0.92E-04    0.15E-06
   0      9    11.376    33.971    0.51E-04    0.83E-04    0.14E-06
   1      9    11.376    17.065    0.34E-03    0.68E-04    0.14E-06
   1      9    11.376    12.540    0.27E-03    0.59E-04    0.11E-06
 Optimization of the real space projectors (new method)

 maximal supplied QI-value         = 25.13
 optimisation between [QCUT,QGAM] = [ 11.31, 22.87] = [ 35.82,146.48] Ry
 Optimized for a Real-space Cutoff    1.27 Angstroem

   l    n(q)    QCUT    max X(q) W(low)/X(q) W(high)/X(q)  e(spline)
   0      9    11.310    79.467    0.75E-04    0.16E-03    0.36E-06
   0      9    11.310    66.151    0.74E-04    0.16E-03    0.36E-06
   1      8    11.310    17.416    0.35E-03    0.12E-03    0.95E-06
   1      8    11.310    12.382    0.37E-03    0.13E-03    0.98E-06
  PAW_PBE Cu 22Jun2005                  :
  PAW_PBE Mn 06Sep2000                  :
  PAW_PBE N 08Apr2002                   :

 POSCAR: Cu-Mn-N2
  positions in direct lattice
  velocities in cartesian coordinates
 exchange correlation table for  LEXCH =        8
   RHO(1)=    0.500       N(1)  =     2000
   RHO(2)=  100.500       N(2)  =     4000

 VTST: version 3.2, (02/03/18)

 CHAIN: initializing optimizer

 OPT: Using VASP Conjugate-Gradient optimizer
 CHAIN: Read ICHAIN            0

 POSCAR: Cu-Mn-N2
  positions in direct lattice
  velocities in cartesian coordinates

 ion  position               nearest neighbor table
   1  0.000  0.000  0.252-   7 2.57   3 2.57   4 2.57   2 2.57   6 2.57   8 2.57  12 2.57  10 2.57
                            16 2.57
   2  0.333  0.000  0.252-   8 2.57   9 2.57   5 2.57   1 2.57   3 2.57  11 2.57   4 2.57  10 2.57
                            17 2.57
   3  0.667  0.000  0.252-   1 2.57   7 2.57   6 2.57   9 2.57   2 2.57  12 2.57   5 2.57  18 2.57
                            11 2.57
   4  0.000  0.333  0.252-   5 2.57   6 2.57   1 2.57   7 2.57   2 2.57  13 2.57   9 2.57  10 2.57
                            15 2.57
   5  0.333  0.333  0.252-   4 2.57   2 2.57   7 2.57  13 2.57   8 2.57   6 2.57   3 2.57  11 2.57
                            14 2.57
   6  0.667  0.333  0.252-   4 2.57   9 2.57  15 2.57   3 2.57   1 2.57   8 2.57  14 2.57   5 2.57
                            12 2.57
   7  0.000  0.667  0.252-   1 2.57   3 2.57  16 2.57  18 2.57   4 2.57   5 2.57   8 2.57   9 2.57
                            13 2.57
   8  0.333  0.667  0.252-   9 2.57   2 2.57  17 2.57   6 2.57   1 2.57   7 2.57   5 2.57  14 2.57
                            16 2.57
   9  0.667  0.667  0.252-   8 2.57   6 2.57   2 2.57  17 2.57   3 2.57   7 2.57   4 2.57  15 2.57
                            18 2.57
  10  0.111  0.111  0.351-  20 2.55  26 2.56  19 2.56  11 2.57  12 2.57  13 2.57   1 2.57   2 2.57
                             4 2.57  15 2.57  16 2.57  17 2.57
  11  0.444  0.111  0.351-  20 2.55  21 2.55  27 2.56  10 2.57  13 2.57   2 2.57  17 2.57  14 2.57
                            12 2.57   5 2.57   3 2.57  18 2.57
  12  0.778  0.111  0.351-  21 2.55  19 2.56  25 2.56  15 2.57  10 2.57  14 2.57  18 2.57   3 2.57
                             1 2.57  16 2.57  11 2.57   6 2.57
  13  0.111  0.444  0.351-  23 2.55  20 2.55  22 2.56  16 2.57  18 2.57  10 2.57  11 2.57  14 2.57
                             5 2.57   4 2.57   7 2.57  15 2.57
  14  0.444  0.444  0.351-  21 2.55  23 2.55  24 2.56  15 2.57  17 2.57  12 2.57  16 2.57  13 2.57
                            11 2.57   6 2.57   8 2.57   5 2.57
  15  0.778  0.444  0.351-  19 2.56  24 2.56  22 2.56  14 2.57  17 2.57  12 2.57   6 2.57  18 2.57
                            10 2.57   9 2.57  13 2.57   4 2.57
  16  0.111  0.778  0.351-  23 2.55  25 2.56  26 2.56  18 2.57  13 2.57   7 2.57  14 2.57  17 2.57
                            12 2.57  10 2.57   8 2.57   1 2.57
  17  0.444  0.778  0.351-  26 2.56  27 2.56  24 2.56  14 2.57  15 2.57   8 2.57   9 2.57  11 2.57
                            16 2.57  18 2.57  10 2.57   2 2.57
  18  0.778  0.778  0.351-  25 2.56  22 2.56  27 2.56  16 2.57  13 2.57   7 2.57  15 2.57  12 2.57
                            17 2.57   9 2.57   3 2.57  11 2.57
  19  0.889  0.222  0.449-  28 2.55  15 2.56  12 2.56  10 2.56  22 2.56  24 2.56  21 2.57  20 2.57
                            25 2.57  26 2.57  32 2.57  31 2.57
  20  0.222  0.222  0.448-  36 2.48  11 2.55  13 2.55  10 2.55  29 2.56  31 2.56  23 2.56  21 2.56
                            26 2.57  19 2.57  27 2.57  22 2.57
  21  0.555  0.222  0.448-  36 2.48  14 2.55  11 2.55  12 2.55  32 2.56  30 2.56  20 2.56  23 2.56
                            19 2.57  25 2.57  24 2.57  27 2.57
  22  0.888  0.556  0.449-  35 2.55  24 2.56  27 2.56  31 2.56  33 2.56  18 2.56  15 2.56  13 2.56
                            19 2.56  25 2.56  23 2.57  20 2.57
  23  0.222  0.555  0.448-  36 2.48  13 2.55  14 2.55  16 2.55  33 2.56  34 2.56  20 2.56  21 2.56
                            25 2.57  26 2.57  22 2.57  24 2.57
  24  0.556  0.556  0.449-  35 2.55  22 2.56  27 2.56  32 2.56  34 2.56  15 2.56  17 2.56  14 2.56
                            19 2.56  26 2.56  21 2.57  23 2.57
  25  0.889  0.889  0.449-  28 2.55  18 2.56  16 2.56  12 2.56  22 2.56  27 2.56  21 2.57  23 2.57
                            19 2.57  26 2.57  33 2.57  30 2.57
  26  0.222  0.889  0.449-  28 2.55  17 2.56  10 2.56  16 2.56  27 2.56  24 2.56  20 2.57  23 2.57
                            25 2.57  19 2.57  29 2.57  34 2.57
  27  0.556  0.888  0.449-  35 2.55  24 2.56  22 2.56  29 2.56  30 2.56  17 2.56  18 2.56  11 2.56
                            26 2.56  25 2.56  20 2.57  21 2.57
  28  0.000  0.000  0.547-  25 2.55  19 2.55  26 2.55  33 2.58  30 2.58  31 2.58  29 2.58  32 2.58
                            34 2.58
  29  0.333  0.003  0.547-  31 2.54  36 2.55  30 2.55  20 2.56  27 2.56  26 2.57  28 2.58  35 2.58
                            34 2.61
  30  0.664  0.003  0.547-  32 2.54  36 2.55  29 2.55  21 2.56  27 2.56  25 2.57  28 2.58  35 2.58
                            33 2.61
  31  0.003  0.333  0.547-  29 2.54  36 2.55  33 2.55  20 2.56  22 2.56  19 2.57  28 2.58  35 2.58
                            32 2.61
  32  0.664  0.333  0.547-  30 2.54  36 2.55  34 2.55  21 2.56  24 2.56  19 2.57  28 2.58  35 2.58
                            31 2.61
  33  0.003  0.664  0.547-  34 2.54  36 2.55  31 2.55  23 2.56  22 2.56  25 2.57  28 2.58  35 2.58
                            30 2.61
  34  0.333  0.664  0.547-  33 2.54  36 2.55  32 2.55  23 2.56  24 2.56  26 2.57  28 2.58  35 2.58
                            29 2.61
  35  0.667  0.667  0.547-  24 2.55  27 2.55  22 2.55  34 2.58  32 2.58  29 2.58  30 2.58  33 2.58
                            31 2.58
  36  0.333  0.333  0.542-  37 2.10  38 2.10  23 2.48  20 2.48  21 2.48  31 2.55  29 2.55  33 2.55
                            34 2.55  32 2.55  30 2.55
  37  0.258  0.333  0.636-  38 1.17  36 2.10
  38  0.409  0.333  0.636-  37 1.17  36 2.10

  LATTYP: Found a hexagonal cell.
 ALAT       =     7.6967864036
 C/A-ratio  =     2.7653617908

  Lattice vectors:

 A1 = (  -3.8483927580,  -6.6656128093,   0.0000000000)
 A2 = (   7.6967864037,   0.0000000000,   0.0000000000)
 A3 = (   0.0000000000,   0.0000000000,  21.2843990326)

Analysis of symmetry for initial positions (statically):
 Subroutine PRICEL returns:
 Original cell was already a primitive cell.

 Routine SETGRP: Setting up the symmetry group for a
 hexagonal supercell.

 Subroutine GETGRP returns: Found  2 space group operations
 (whereof  2 operations were pure point group operations)
 out of a pool of 24 trial point group operations.

The static configuration has the point symmetry C_1h.

Analysis of symmetry for dynamics (positions and initial velocities):
 Subroutine PRICEL returns:
 Original cell was already a primitive cell.

[...]

The dynamic configuration has the point symmetry C_1h.

Analysis of constrained symmetry for selective dynamics:
 Subroutine PRICEL returns:
 Original cell was already a primitive cell.

 Routine SETGRP: Setting up the symmetry group for a
 hexagonal supercell.

[...]
     33      -3.9435      2.00000
     34      -3.9310      2.00000
     35      -3.9216      2.00000
     36      -3.9006      2.00000
     37      -3.8532      2.00000
     38      -3.8437      2.00000
     39      -3.8064      2.00000
     40      -3.7386      2.00000
     41      -3.7290      2.00000
     42      -3.6245      2.00000
     43      -3.6178      2.00000
     44      -3.5396      2.00000
     45      -3.5367      2.00000
     46      -3.5231      2.00000
     47      -3.4989      2.00000
     48      -3.4913      2.00000
     49      -3.4780      2.00000
     50      -3.4673      2.00000
     51      -3.2921      2.00000
     52      -3.2730      2.00000
     53      -3.2709      2.00000
     54      -3.2622      2.00000
     55      -3.2107      2.00000
     56      -3.2066      2.00000
     57      -3.1941      2.00000
     58      -3.1740      2.00000
     59      -3.1710      2.00000
     60      -3.1474      2.00000
[...]
    238       5.9111      0.00000
    239       6.1330      0.00000
    240       6.2627      0.00000
    241       6.3077      0.00000
    242       6.4747      0.00000
    243       6.6708      0.00000
    244       6.9186      0.00000
    245       6.9656      0.00000
    246       7.1182      0.00000
    247       7.1288      0.00000
    248       7.2985      0.00000
    249       7.4275      0.00000
    250       7.4742      0.00000
    251       7.4938      0.00000
    252       7.6068      0.00000

 soft charge-density along one line, spin component           1
         0         1         2         3         4         5         6         7         8         9
 total charge-density along one line

------------------------ aborting loop because EDIFF is reached ----------------------------------------

 total charge

# of ion       s       p       d       tot
    1        0.450   0.284   9.188   9.922
    2        0.448   0.286   9.185   9.919
    3        0.448   0.286   9.185   9.919
    4        0.449   0.285   9.186   9.920
    5        0.449   0.285   9.181   9.915
    6        0.449   0.285   9.186   9.920
    7        0.448   0.285   9.186   9.919
    8        0.448   0.285   9.186   9.919
    9        0.448   0.283   9.190   9.920
   10        0.441   0.372   9.176   9.990
   11        0.443   0.367   9.184   9.994
   12        0.441   0.372   9.176   9.990
   13        0.442   0.367   9.184   9.993
   14        0.442   0.367   9.184   9.993
   15        0.439   0.370   9.179   9.988
   16        0.443   0.372   9.174   9.989
   17        0.438   0.371   9.179   9.987
   18        0.438   0.371   9.179   9.987
   19        0.438   0.369   9.180   9.988
   20        0.459   0.394   9.162  10.016
   21        0.459   0.394   9.162  10.016
   22        0.432   0.375   9.181   9.988
   23        0.461   0.395   9.163  10.019
   24        0.432   0.375   9.181   9.988
   25        0.442   0.367   9.184   9.992
   26        0.442   0.367   9.184   9.992
   27        0.434   0.373   9.182   9.990
   28        0.448   0.285   9.187   9.920
   29        0.459   0.296   9.182   9.936
   30        0.459   0.296   9.182   9.936
   31        0.452   0.295   9.181   9.927
   32        0.452   0.295   9.181   9.927
   33        0.458   0.295   9.182   9.936
   34        0.458   0.295   9.182   9.936
   35        0.442   0.289   9.186   9.916
   36        0.325   0.327   5.169   5.821
   37        1.345   2.447   0.000   3.792
   38        1.345   2.447   0.000   3.792
tot         18.648  16.867 326.496 362.010

  FORCE on cell =-STRESS in cart. coord.  units (eV):
  Direction    XX          YY          ZZ          XY          YZ          ZX
  Alpha Z   901.54944   901.54944   901.54944
  Ewald  172553.86775172245.23372************     0.00041     0.37225     0.00018
  Hartree185580.11030185467.56808************     0.00005     0.41739     0.00007
  E(xc)   -2320.85976 -2321.97918 -2325.92894    -0.00025     0.07732    -0.00004
  Local  ************************370972.49991     0.02001    -0.31282    -0.00077
  n-local  -808.59301  -797.73569  -814.54340     1.69872     0.30796     0.07205
  augment  3338.16076  3337.32410  3356.85301    -0.01823    -0.34833     0.00021
  Kinetic  3379.67321  3393.25704  3419.92716     1.22575    -0.48463    -0.17087
  Fock        0.00000     0.00000     0.00000     0.00000     0.00000     0.00000
  Total      -7.41295    -7.45775    -0.60608     0.00000     0.02913    -0.00000
  in kB     -10.87653   -10.94227    -0.88926     0.00000     0.04274    -0.00000

 VOLUME and BASIS-vectors are now :
  energy-cutoff  :      500.00
  volume of cell :     1091.97
      direct lattice vectors                 reciprocal lattice vectors
     7.696786404  0.000000000  0.000000000     0.129924354 -0.075011849  0.000000000
     3.848392758  6.665612809  0.000000000     0.000000000  0.150023716  0.000000000
     0.000000000  0.000000000 21.284399033     0.000000000  0.000000000  0.046982769

  length of vectors
     7.696786404  7.696786404 21.284399033     0.150023716  0.150023716  0.046982769

 FORCES acting on ions
    electron-ion (+dipol)            ewald-force                    non-local-force                 convergence-correction
   -.406E-04 0.490E-01 0.350E+04   0.579E-04 -.174E-01 -.350E+04   -.187E-08 0.280E-01 -.266E+01   -.251E-03 -.578E-01 -.153E+00
   -.286E+00 0.376E-02 0.350E+04   0.116E-01 -.742E-01 -.350E+04   0.131E+00 0.684E-01 -.186E+01   0.139E+00 0.118E-01 -.299E+00
   0.286E+00 0.379E-02 0.350E+04   -.117E-01 -.743E-01 -.350E+04   -.131E+00 0.684E-01 -.186E+01   -.138E+00 0.142E-01 -.299E+00
   -.122E+00 -.172E+00 0.350E+04   -.437E-01 0.392E-01 -.350E+04   0.958E-01 0.157E-01 -.188E+01   0.913E-01 0.109E+00 -.199E+00
   -.623E-04 -.984E-01 0.350E+04   0.116E-03 0.819E-03 -.350E+04   -.361E-08 0.543E-01 -.167E+01   0.120E-01 0.472E-01 -.149E+00
   0.122E+00 -.172E+00 0.350E+04   0.436E-01 0.390E-01 -.350E+04   -.958E-01 0.157E-01 -.188E+01   -.927E-01 0.110E+00 -.198E+00
   -.871E-01 0.169E+00 0.350E+04   -.548E-01 0.351E-01 -.350E+04   0.113E+00 -.109E+00 -.179E+01   0.357E-01 -.979E-01 -.220E+00
   0.872E-01 0.169E+00 0.350E+04   0.546E-01 0.351E-01 -.350E+04   -.113E+00 -.109E+00 -.179E+01   -.323E-01 -.992E-01 -.220E+00
   -.143E-03 0.495E-01 0.350E+04   0.263E-03 0.166E-01 -.350E+04   0.275E-08 -.413E-01 -.232E+01   -.131E-01 -.281E-01 -.233E+00
   0.101E+01 0.617E+00 0.121E+04   -.561E+00 -.459E+00 -.121E+04   -.495E+00 -.199E+00 -.103E+01   0.335E-01 0.552E-01 -.104E+00
   -.908E-04 0.594E+00 0.121E+04   0.189E-03 -.110E+01 -.121E+04   -.207E-07 0.310E+00 -.392E+00   0.113E-01 0.133E+00 -.177E+00
   -.101E+01 0.617E+00 0.121E+04   0.561E+00 -.459E+00 -.121E+04   0.495E+00 -.199E+00 -.103E+01   -.345E-01 0.557E-01 -.106E+00
   0.443E+00 -.254E+00 0.121E+04   -.828E+00 0.577E+00 -.121E+04   0.294E+00 -.257E+00 -.455E+00   0.659E-01 -.459E-01 -.186E+00
   -.443E+00 -.254E+00 0.121E+04   0.827E+00 0.577E+00 -.121E+04   -.294E+00 -.257E+00 -.455E+00   -.430E-01 -.472E-01 -.189E+00
   -.143E-03 -.454E+00 0.121E+04   0.299E-03 0.108E+00 -.121E+04   -.137E-07 0.205E+00 -.960E+00   -.271E-02 0.124E+00 -.802E-01
   -.919E-04 -.125E+01 0.121E+04   0.186E-03 0.683E+00 -.121E+04   -.409E-07 0.615E+00 -.103E+01   -.104E-02 -.551E-01 -.192E+00
   -.120E+00 0.184E+00 0.121E+04   0.156E-01 0.356E-01 -.121E+04   0.912E-01 -.116E+00 -.882E+00   -.122E-02 -.971E-01 -.179E+00
   0.120E+00 0.184E+00 0.121E+04   -.158E-01 0.356E-01 -.121E+04   -.912E-01 -.116E+00 -.882E+00   0.248E-02 -.953E-01 -.178E+00
   -.624E-04 -.750E+00 -.111E+04   0.683E-04 0.404E+00 0.110E+04   -.105E-07 0.157E+00 0.122E+01   0.129E-01 0.178E+00 0.196E+00
   -.126E+02 -.655E+01 -.111E+04   0.139E+02 0.723E+01 0.111E+04   -.133E+01 -.712E+00 -.892E+00   -.178E-01 0.194E-01 0.280E+00
   0.126E+02 -.655E+01 -.111E+04   -.139E+02 0.723E+01 0.111E+04   0.133E+01 -.712E+00 -.892E+00   -.500E-02 0.175E-01 0.279E+00
   -.673E+01 0.321E+01 -.111E+04   0.641E+01 -.276E+01 0.110E+04   0.395E+00 -.363E+00 0.775E+00   -.617E-02 -.113E+00 0.158E+00
   -.774E-04 0.132E+02 -.111E+04   0.144E-03 -.149E+02 0.111E+04   -.114E-06 0.171E+01 -.116E+01   -.143E-01 -.405E-01 0.998E-01
   0.673E+01 0.321E+01 -.111E+04   -.641E+01 -.276E+01 0.110E+04   -.395E+00 -.363E+00 0.775E+00   0.297E-01 -.111E+00 0.158E+00
   0.983E+00 0.865E+00 -.111E+04   -.797E+00 -.869E+00 0.111E+04   -.731E-01 0.179E-02 0.107E+01   -.932E-01 0.327E-02 0.132E+00
   -.983E+00 0.865E+00 -.111E+04   0.797E+00 -.869E+00 0.111E+04   0.731E-01 0.179E-02 0.107E+01   0.115E+00 0.606E-02 0.132E+00
   -.124E-03 -.797E+01 -.111E+04   0.242E-03 0.724E+01 0.111E+04   -.449E-07 0.674E+00 0.770E+00   0.924E-02 0.109E+00 0.152E+00
   -.328E-04 0.392E+01 -.339E+04   0.326E-04 -.407E+01 0.339E+04   -.269E-08 0.404E-01 0.205E+01   -.121E-02 0.760E-01 0.240E+00
   0.768E+01 0.220E+02 -.336E+04   -.723E+01 -.222E+02 0.336E+04   -.521E+00 -.120E+00 0.244E+01   -.220E-01 0.857E-01 0.201E+00
   -.768E+01 0.220E+02 -.336E+04   0.723E+01 -.222E+02 0.336E+04   0.521E+00 -.120E+00 0.244E+01   0.437E-01 0.866E-01 0.202E+00
   0.267E+02 -.140E+00 -.335E+04   -.270E+02 0.214E+00 0.335E+04   0.146E-02 -.161E+00 0.373E+01   0.151E+00 0.888E-01 0.263E+00
   -.267E+02 -.139E+00 -.335E+04   0.270E+02 0.214E+00 0.335E+04   -.146E-02 -.161E+00 0.373E+01   -.129E+00 0.901E-01 0.265E+00
   0.724E+01 -.217E+02 -.336E+04   -.713E+01 0.218E+02 0.336E+04   -.206E+00 0.285E+00 0.254E+01   -.135E-01 -.178E+00 0.324E+00
   -.724E+01 -.217E+02 -.336E+04   0.713E+01 0.218E+02 0.336E+04   0.206E+00 0.285E+00 0.254E+01   0.380E-01 -.178E+00 0.326E+00
   -.135E-03 -.376E+01 -.340E+04   0.257E-03 0.392E+01 0.339E+04   -.309E-08 0.464E-01 0.237E+01   -.141E-01 -.155E+00 0.375E+00
   -.520E-04 -.495E+00 -.194E+04   0.914E-04 0.339E+00 0.194E+04   -.697E-08 0.105E+00 0.310E+01   0.886E-03 0.490E-01 0.240E+00
   0.208E+03 -.116E+00 -.176E+04   -.248E+03 0.952E-01 0.177E+04   0.402E+02 -.357E-01 -.884E+01   -.595E-02 0.541E-01 0.620E-01
   -.208E+03 -.116E+00 -.176E+04   0.248E+03 0.952E-01 0.177E+04   -.402E+02 -.357E-01 -.884E+01   0.582E-02 0.541E-01 0.620E-01
   -.135E-03 -.680E+00 0.141E+02   0.568E-13 0.372E-13 0.227E-10   -.332E-07 0.499E+00 -.149E+02   0.116E+00 0.180E+00 0.789E+00

 POSITION                                       TOTAL-FORCE (eV/Angst)
      0.00000      0.00000      5.37156        -0.000000      0.001875     -0.019493
      2.56560      0.00000      5.37156        -0.004237      0.011000      0.073554
      5.13119      0.00000      5.37156         0.004237      0.011000      0.073554
      1.28280      2.22187      5.37156         0.021721     -0.007169      0.058704
      3.84839      2.22187      5.37156        -0.000000      0.003966      0.025991
      6.41399      2.22187      5.37156        -0.021721     -0.007169      0.058704
      2.56560      4.44374      5.37156         0.005619     -0.003769      0.065289
      5.13119      4.44374      5.37156        -0.005619     -0.003769      0.065289
      7.69679      4.44374      5.37156         0.000000     -0.003244      0.013244
      1.28280      0.74062      7.46636        -0.006923      0.014684     -0.060653
      3.84839      0.74062      7.46636         0.000000     -0.062436     -0.083448
      6.41399      0.74062      7.46636         0.006923      0.014684     -0.060653
      2.56560      2.96249      7.46636        -0.036409      0.019980     -0.071981
      5.13119      2.96249      7.46636         0.036409      0.019980     -0.071981
      7.69679      2.96249      7.46636         0.000000     -0.016107     -0.022152
      3.84839      5.18437      7.46636         0.000000     -0.008622     -0.046934
      6.41399      5.18437      7.46636        -0.014635      0.007877     -0.004584
      8.97958      5.18437      7.46636         0.014635      0.007877     -0.004584
      7.69679      1.48275      9.55327         0.000000     -0.011056      0.062421
      2.56715      1.48214      9.54261        -0.005991     -0.016804     -0.097118
      5.12964      1.48214      9.54261         0.005991     -0.016804     -0.097118
      8.97640      3.70496      9.55687         0.056154     -0.030850      0.017240
      3.84839      3.70133      9.54261        -0.000000      0.025061     -0.092807
      6.41717      3.70496      9.55687        -0.056154     -0.030850      0.017240
     10.26108      5.92424      9.55327         0.009556      0.002128      0.011493
      5.13249      5.92424      9.55327        -0.009556      0.002128      0.011493
      7.69679      5.92131      9.55687        -0.000000      0.061862     -0.004348
      0.00000      0.00000     11.63217         0.000000     -0.038342     -0.028470
      2.57513      0.01976     11.64308        -0.110238     -0.215613     -0.187480
      5.12165      0.01976     11.64308         0.110238     -0.215613     -0.187480
      1.30468      2.22025     11.64308        -0.159889      0.002401     -0.083524
      6.39211      2.22025     11.64308         0.159889      0.002401     -0.083524
      2.57794      4.42560     11.64308        -0.121803      0.220480     -0.199274
      5.11885      4.42560     11.64308         0.121803      0.220480     -0.199274
      7.69679      4.44374     11.63403        -0.000000      0.046049     -0.008468
      3.84839      2.22187     11.52902         0.000000     -0.002076      1.126358
      3.26464      2.21844     13.54552         0.086539     -0.002811      0.017387
      4.43215      2.21844     13.54552        -0.086539     -0.002811      0.017387
    total drift:                                0.116096     -0.001262      0.015021

  FREE ENERGIE OF THE ION-ELECTRON SYSTEM (eV)
  free  energy   TOTEN  =      -145.79578599 eV

  energy  without entropy=     -145.79578599  energy(sigma->0) =     -145.79578599

 stress matrix after NEB project (eV)
     -7.41295      0.00000     -0.00000
      0.00000     -7.45775      0.02913
     -0.00000      0.02913     -0.60608
  FORCES: max atom, RMS     0.088313    0.020260
  FORCE total and by dimension    0.124893    0.086539
  Stress total and by dimension   10.532751    7.457752
|           W    W    AA    RRRRR   N    N  II  N    N   GGGG   !!!           |
|           W    W   A  A   R    R  NN   N  II  NN   N  G    G  !!!           |
|           W    W  A    A  R    R  N N  N  II  N N  N  G       !!!           |
|           W WW W  AAAAAA  RRRRR   N  N N  II  N  N N  G  GGG   !            |
|           WW  WW  A    A  R   R   N   NN  II  N   NN  G    G                |
|           W    W  A    A  R    R  N    N  II  N    N   GGGG   !!!           |
|     Tetrahedron method does not include variations of the Fermi             |
|     occupations, so forces and stress will be inaccurate. We suggest        |
|     using a different smearing scheme ISMEAR = 1 or 2 for metals in         |
|     relaxations.                                                            |

 total charge

# of ion       s       p       d       tot
    1        0.450   0.284   9.188   9.922
    2        0.448   0.286   9.185   9.919
    3        0.448   0.286   9.185   9.919
    4        0.449   0.285   9.186   9.920
    5        0.449   0.285   9.181   9.915
    6        0.449   0.285   9.186   9.920
    7        0.448   0.285   9.186   9.919
    8        0.448   0.285   9.186   9.919
    9        0.448   0.283   9.190   9.920
   10        0.441   0.372   9.176   9.990
   11        0.443   0.367   9.184   9.994
   12        0.441   0.372   9.176   9.990
   13        0.442   0.367   9.184   9.993
   14        0.442   0.367   9.184   9.993
   15        0.439   0.370   9.179   9.988
   16        0.443   0.372   9.174   9.989
   17        0.438   0.371   9.179   9.987
   18        0.438   0.371   9.179   9.987
   19        0.438   0.369   9.180   9.988
   20        0.459   0.394   9.162  10.016
   21        0.459   0.394   9.162  10.016
   22        0.432   0.375   9.181   9.988
   23        0.461   0.395   9.163  10.019
   24        0.432   0.375   9.181   9.988
   25        0.442   0.367   9.184   9.992
   26        0.442   0.367   9.184   9.992
   27        0.434   0.373   9.182   9.990
   28        0.448   0.285   9.187   9.920
   29        0.459   0.296   9.182   9.936
   30        0.459   0.296   9.182   9.936
   31        0.452   0.295   9.181   9.927
   32        0.452   0.295   9.181   9.927
   33        0.458   0.295   9.182   9.936
   34        0.458   0.295   9.182   9.936
   35        0.442   0.289   9.186   9.916
   36        0.325   0.327   5.169   5.821
   37        1.345   2.447   0.000   3.792
   38        1.345   2.447   0.000   3.792
tot         18.648  16.867 326.496 362.010

 BZINTS: Fermi energy:    0.157127;  402.000000 electrons
         Band energy:-0.112960E+04;  BLOECHL correction:   -0.031068