 vasp.6.2.0 18Jan21 (build Jun 12 2021 23:27:24) complex

 executed on             LinuxIFC date 2022.05.26  20:14:58

 INCAR:
   ISMEAR = -5
   SIGMA = 0.1
   ISPIN = 1
   EDIFF = 1.d-5
   EDIFFG = -0.01
   NSW = 0
   NELM = 150
   ENCUT = 500
   ISIF = 2
   IBRION = 2
   LREAL = Auto
   ALGO = Fast
   ICHARG = 11
   LORBIT = 10
   LCHARG = .F.
   LWAVE = .F.

 POTCAR:    PAW_PBE Au 04Oct2007
 POTCAR:    PAW_PBE Hf 20Jan2003
|           W    W    AA    RRRRR   N    N  II  N    N   GGGG   !!!           |
|           W    W   A  A   R    R  NN   N  II  NN   N  G    G  !!!           |
|           W    W  A    A  R    R  N N  N  II  N N  N  G       !!!           |
|           W WW W  AAAAAA  RRRRR   N  N N  II  N  N N  G  GGG   !            |
|           WW  WW  A    A  R   R   N   NN  II  N   NN  G    G                |
|           W    W  A    A  R    R  N    N  II  N    N   GGGG   !!!           |
|     For optimal performance we recommend to set                             |
|       NCORE = 2 up to number-of-cores-per-socket                            |
|     This setting can greatly improve the performance of VASP for DFT.       |
|     The default, NCORE=1 might be grossly inefficient on modern             |
|     multi-core architectures or massively parallel machines. Do your        |
|     Unfortunately you need to use the default for GW and RPA                |
|     calculations (for HF NCORE is supported but not extensively tested      |
|     yet).                                                                   |

 POTCAR:    PAW_PBE Au 04Oct2007
   VRHFIN =Au: s1d10

   TITEL  = PAW_PBE Au 04Oct2007
   POMASS =  196.966; ZVAL   =   11.000    mass and valenz
   ENMAX  =  229.943; ENMIN  =  172.457 eV

 POTCAR:    PAW_PBE Hf 20Jan2003
   VRHFIN =Hf: 6s5d

   TITEL  = PAW_PBE Hf 20Jan2003
   POMASS =  178.490; ZVAL   =    4.000    mass and valenz
   ENMAX  =  220.334; ENMIN  =  165.250 eV

 Optimization of the real space projectors (new method)

 maximal supplied QI-value         = 15.12
 optimisation between [QCUT,QGAM] = [ 11.34, 22.83] = [ 36.00,145.93] Ry
 Optimized for a Real-space Cutoff    1.39 Angstroem

   l    n(q)    QCUT    max X(q) W(low)/X(q) W(high)/X(q)  e(spline)
   2      9    11.338    60.898    0.39E-03    0.42E-03    0.21E-06
   2      9    11.338    58.894    0.40E-03    0.42E-03    0.22E-06
   0      9    11.338   109.617    0.13E-03    0.20E-04    0.13E-06
   0      9    11.338    75.026    0.13E-03    0.20E-04    0.13E-06
   1      9    11.338    16.344    0.33E-04    0.24E-03    0.18E-06
   1      9    11.338    10.160    0.26E-04    0.19E-03    0.15E-06
 Optimization of the real space projectors (new method)

 maximal supplied QI-value         = 12.47
 optimisation between [QCUT,QGAM] = [ 11.35, 22.82] = [ 36.07,145.88] Ry
 Optimized for a Real-space Cutoff    1.66 Angstroem

   l    n(q)    QCUT    max X(q) W(low)/X(q) W(high)/X(q)  e(spline)
   2     10    11.350    48.111    0.20E-03    0.11E-03    0.41E-06
   2     10    11.350    40.545    0.19E-03    0.10E-03    0.39E-06
   0     11    11.350   121.658    0.22E-04    0.19E-04    0.24E-06
   0     11    11.350    71.177    0.17E-04    0.17E-04    0.23E-06
   1     11    11.350    14.183    0.25E-03    0.43E-03    0.12E-05
   1     11    11.350     8.257    0.17E-03    0.29E-03    0.81E-06
  PAW_PBE Au 04Oct2007                  :
  PAW_PBE Hf 20Jan2003                  :

 POSCAR: Au-Hf
  positions in direct lattice
  velocities in cartesian coordinates
 exchange correlation table for  LEXCH =        8
   RHO(1)=    0.500       N(1)  =     2000
   RHO(2)=  100.500       N(2)  =     4000

 VTST: version 3.2, (02/03/18)

 CHAIN: initializing optimizer

 OPT: Using VASP Conjugate-Gradient optimizer
 CHAIN: Read ICHAIN            0

 POSCAR: Au-Hf
  positions in direct lattice
  velocities in cartesian coordinates

 ion  position               nearest neighbor table
   1  0.000  0.000  0.238-  16 2.94  12 2.94   6 2.94   8 2.94   7 2.94   3 2.94  10 2.94   4 2.94
                             2 2.94
   2  0.333  0.000  0.238-   9 2.94  11 2.94  17 2.94  10 2.94   8 2.94   4 2.94   5 2.94   1 2.94
                             3 2.94
   3  0.667  0.000  0.238-   7 2.94  18 2.94  12 2.94   1 2.94  11 2.94   5 2.94   6 2.94   9 2.94
                             2 2.94
   4  0.000  0.333  0.238-  10 2.94   6 2.94   5 2.94  13 2.94   2 2.94  15 2.94   9 2.94   1 2.94
                             7 2.94
   5  0.333  0.333  0.238-  13 2.94   7 2.94  11 2.94   4 2.94   2 2.94  14 2.94   3 2.94   8 2.94
                             6 2.94
   6  0.667  0.333  0.238-  15 2.94  14 2.94   1 2.94  12 2.94   4 2.94   9 2.94   8 2.94   3 2.94
                             5 2.94
   7  0.000  0.667  0.238-  18 2.94   3 2.94  16 2.94   5 2.94   1 2.94  13 2.94   8 2.94   4 2.94
                             9 2.94
   8  0.333  0.667  0.238-   9 2.94  17 2.94   1 2.94   2 2.94  14 2.94  16 2.94   6 2.94   7 2.94
                             5 2.94
   9  0.667  0.667  0.238-   2 2.94   8 2.94  17 2.94   6 2.94  15 2.94   4 2.94   3 2.94  18 2.94
                             7 2.94
  10  0.111  0.111  0.346-  20 2.93  26 2.94  19 2.94  11 2.94  17 2.94   2 2.94   4 2.94   1 2.94
                            12 2.94  16 2.94  13 2.94  15 2.94
  11  0.444  0.111  0.346-  20 2.92  21 2.92  13 2.94   2 2.94  10 2.94  17 2.94   5 2.94   3 2.94
                            18 2.94  14 2.94  12 2.94  27 2.94
  12  0.778  0.111  0.346-  21 2.93  25 2.94  19 2.94  16 2.94  18 2.94   1 2.94  14 2.94  15 2.94
                             3 2.94   6 2.94  10 2.94  11 2.94
  13  0.111  0.444  0.346-  23 2.92  20 2.92   5 2.94  18 2.94  11 2.94   7 2.94   4 2.94  16 2.94
                            10 2.94  14 2.94  15 2.94  22 2.94
  14  0.444  0.444  0.346-  21 2.92  23 2.92  15 2.94   6 2.94  12 2.94   8 2.94  17 2.94   5 2.94
                            16 2.94  13 2.94  11 2.94  24 2.94
  15  0.778  0.444  0.346-  24 2.93  22 2.93  19 2.94  14 2.94   6 2.94  17 2.94  12 2.94   9 2.94
                             4 2.94  10 2.94  13 2.94  18 2.94
  16  0.111  0.778  0.346-  23 2.93  25 2.94  26 2.94  18 2.94  12 2.94   7 2.94   1 2.94   8 2.94
                            13 2.94  10 2.94  14 2.94  17 2.94
  17  0.444  0.778  0.346-  27 2.93  24 2.93  26 2.94   9 2.94  15 2.94   2 2.94  10 2.94  11 2.94
                             8 2.94  14 2.94  16 2.94  18 2.94
  18  0.778  0.778  0.346-  22 2.93  27 2.93  25 2.94  16 2.94   7 2.94  13 2.94  12 2.94   3 2.94
                            11 2.94   9 2.94  15 2.94  17 2.94
  19  0.889  0.222  0.454-  15 2.94  10 2.94  12 2.94  24 2.94  22 2.94  26 2.94  25 2.94  21 2.94
                            20 2.94  28 2.96  32 3.04  31 3.04
  20  0.223  0.223  0.453-  36 2.81  11 2.92  13 2.92  23 2.93  21 2.93  10 2.93  26 2.94  19 2.94
                            27 2.95  22 2.95  29 2.99  31 2.99
  21  0.555  0.223  0.453-  36 2.81  14 2.92  11 2.92  20 2.93  23 2.93  12 2.93  25 2.94  19 2.94
                            27 2.95  24 2.95  30 2.99  32 2.99
  22  0.887  0.556  0.454-  24 2.92  27 2.92  18 2.93  15 2.93  25 2.94  19 2.94  13 2.94  23 2.95
                            20 2.95  35 2.96  33 3.01  31 3.01
  23  0.223  0.555  0.453-  36 2.81  13 2.92  14 2.92  20 2.93  21 2.93  16 2.93  25 2.94  26 2.94
                            22 2.95  24 2.95  33 2.99  34 2.99
  24  0.556  0.556  0.454-  27 2.92  22 2.92  15 2.93  17 2.93  26 2.94  19 2.94  14 2.94  21 2.95
                            23 2.95  35 2.96  32 3.01  34 3.01
  25  0.889  0.889  0.454-  18 2.94  16 2.94  12 2.94  22 2.94  27 2.94  19 2.94  26 2.94  23 2.94
                            21 2.94  28 2.96  33 3.04  30 3.04
  26  0.222  0.889  0.454-  17 2.94  10 2.94  16 2.94  27 2.94  24 2.94  19 2.94  25 2.94  20 2.94
                            23 2.94  28 2.96  29 3.04  34 3.04
  27  0.556  0.887  0.454-  24 2.92  22 2.92  17 2.93  18 2.93  26 2.94  25 2.94  11 2.94  20 2.95
                            21 2.95  35 2.96  29 3.01  30 3.01
  28  0.000  0.000  0.563-  25 2.96  19 2.96  26 2.96  34 2.98  32 2.98  33 2.98  30 2.98  31 2.98
                            29 2.98
  29  0.334  0.008  0.566-  30 2.86  31 2.87  36 2.88  35 2.97  28 2.98  20 2.99  27 3.01  26 3.04
                            34 3.08
  30  0.658  0.008  0.566-  29 2.86  32 2.87  36 2.88  35 2.97  28 2.98  21 2.99  27 3.01  25 3.04
                            33 3.08
  31  0.008  0.334  0.566-  33 2.86  29 2.87  36 2.88  35 2.97  28 2.98  20 2.99  22 3.01  19 3.04
                            32 3.08
  32  0.658  0.334  0.566-  34 2.86  30 2.87  36 2.88  35 2.97  28 2.98  21 2.99  24 3.01  19 3.04
                            31 3.08
  33  0.008  0.658  0.566-  31 2.86  34 2.87  36 2.88  35 2.97  28 2.98  23 2.99  22 3.01  25 3.04
                            30 3.08
  34  0.334  0.658  0.566-  32 2.86  33 2.87  36 2.88  35 2.97  28 2.98  23 2.99  24 3.01  26 3.04
                            29 3.08
  35  0.667  0.667  0.564-  24 2.96  27 2.96  22 2.96  29 2.97  34 2.97  32 2.97  31 2.97  30 2.97
                            33 2.97
  36  0.333  0.333  0.555-  20 2.81  23 2.81  21 2.81  33 2.88  31 2.88  29 2.88  30 2.88  34 2.88
                            32 2.88

  LATTYP: Found a hexagonal cell.
 ALAT       =     8.8135128021
 C/A-ratio  =     2.5184286595

  Lattice vectors:

 A1 = (  -4.4067569092,  -7.6327256898,   0.0000000000)
 A2 = (   8.8135128021,   0.0000000000,   0.0000000000)
 A3 = (   0.0000000000,   0.0000000000,  22.1962032318)

Analysis of symmetry for initial positions (statically):
 Subroutine PRICEL returns:
 Original cell was already a primitive cell.

 Routine SETGRP: Setting up the symmetry group for a
 hexagonal supercell.

 Subroutine GETGRP returns: Found  6 space group operations
 (whereof  6 operations were pure point group operations)
 out of a pool of 24 trial point group operations.

The static configuration has the point symmetry C_3v.

Analysis of symmetry for dynamics (positions and initial velocities):
 Subroutine PRICEL returns:
 Original cell was already a primitive cell.

[...]

The dynamic configuration has the point symmetry C_3v.

Analysis of constrained symmetry for selective dynamics:
 Subroutine PRICEL returns:
 Original cell was already a primitive cell.

 Routine SETGRP: Setting up the symmetry group for a
 hexagonal supercell.

 Subroutine GETGRP returns: Found  6 space group operations
 (whereof  6 operations were pure point group operations)
 out of a pool of 24 trial point group operations.

The constrained configuration has the point symmetry C_3v.

 Subroutine INISYM returns: Found  6 space group operations
 (whereof  6 operations are pure point group operations),
 and found     1 'primitive' translations

                                     Primitive cell

  volume of cell :    1493.1636

  direct lattice vectors                    reciprocal lattice vectors
     8.813512802  0.000000000  0.000000000     0.113462137 -0.065507406  0.000000000
     4.406756909  7.632725690  0.000000000     0.000000000  0.131014796  0.000000000
[...]
     15      -5.1985      2.00000
     16      -5.1556      2.00000
     17      -5.1522      2.00000
     18      -5.1251      2.00000
     19      -5.1193      2.00000
     20      -5.1058      2.00000
     21      -5.0853      2.00000
     22      -5.0752      2.00000
     23      -5.0002      2.00000
     24      -4.9684      2.00000
     25      -4.9593      2.00000
     26      -4.9246      2.00000
     27      -4.8875      2.00000
     28      -4.8553      2.00000
     29      -4.8027      2.00000
     30      -4.7613      2.00000
     31      -4.7493      2.00000
     32      -4.6831      2.00000
     33      -4.6635      2.00000
     34      -4.6420      2.00000
     35      -4.6399      2.00000
     36      -4.6340      2.00000
     37      -4.4902      2.00000
     38      -4.4431      2.00000
     39      -4.3829      2.00000
     40      -4.3452      2.00000
     41      -4.3197      2.00000
     42      -4.2919      2.00000
     43      -4.2671      2.00000
     44      -4.2442      2.00000
     45      -4.2105      2.00000
     46      -4.1425      2.00000
     47      -4.1218      2.00000
     48      -4.0757      2.00000
     49      -4.0543      2.00000
     50      -4.0495      2.00000
     51      -4.0429      2.00000
     52      -4.0234      2.00000
     53      -3.9999      2.00000
     54      -3.9607      2.00000
     55      -3.9278      2.00000
     56      -3.9206      2.00000
     57      -3.9120      2.00000
     58      -3.9050      2.00000
     59      -3.8903      2.00000
     60      -3.8755      2.00000
[...]
    238       6.7747      0.00000
    239       6.8202      0.00000
    240       6.8596      0.00000
    241       6.9809      0.00000
    242       7.1435      0.00000
    243       7.2507      0.00000
    244       7.3261      0.00000
    245       7.3885      0.00000
    246       7.6011      0.00000
    247       7.6284      0.00000
    248       7.7915      0.00000
    249       7.8026      0.00000
    250       7.9267      0.00000
    251       8.0833      0.00000
    252       8.1105      0.00000

 soft charge-density along one line, spin component           1
         0         1         2         3         4         5         6         7         8         9
 total charge-density along one line

------------------------ aborting loop because EDIFF is reached ----------------------------------------

 total charge

# of ion       s       p       d       tot
    1        0.551   0.237   8.766   9.555
    2        0.541   0.241   8.766   9.548
    3        0.541   0.241   8.766   9.548
    4        0.541   0.241   8.766   9.548
    5        0.544   0.242   8.761   9.547
    6        0.541   0.241   8.766   9.548
    7        0.541   0.241   8.766   9.548
    8        0.541   0.241   8.766   9.548
    9        0.546   0.240   8.766   9.552
   10        0.523   0.308   8.769   9.601
   11        0.519   0.307   8.779   9.604
   12        0.523   0.308   8.769   9.601
   13        0.519   0.307   8.779   9.604
   14        0.519   0.307   8.779   9.604
   15        0.517   0.308   8.773   9.598
   16        0.523   0.308   8.769   9.601
   17        0.517   0.308   8.773   9.598
   18        0.517   0.308   8.773   9.598
   19        0.521   0.299   8.767   9.588
   20        0.571   0.339   8.727   9.636
   21        0.571   0.339   8.727   9.636
   22        0.511   0.305   8.775   9.591
   23        0.571   0.339   8.727   9.636
   24        0.511   0.305   8.775   9.591
   25        0.521   0.299   8.767   9.588
   26        0.521   0.299   8.767   9.588
   27        0.511   0.305   8.775   9.591
   28        0.540   0.233   8.752   9.526
   29        0.600   0.252   8.722   9.575
   30        0.600   0.252   8.722   9.575
   31        0.600   0.252   8.722   9.575
   32        0.600   0.252   8.722   9.575
   33        0.600   0.252   8.722   9.575
   34        0.600   0.252   8.722   9.575
   35        0.538   0.235   8.755   9.527
   36        0.558   0.473   1.746   2.776
tot         19.612  10.222 308.238 338.072

  FORCE on cell =-STRESS in cart. coord.  units (eV):
  Direction    XX          YY          ZZ          XY          YZ          ZX
  Alpha Z   987.03595   987.03595   987.03595
  Ewald  115984.25578115984.25613************    -0.00034    -0.00009    -0.00018
  Hartree124450.53550124450.53548************    -0.00000    -0.00003    -0.00005
  E(xc)   -1743.42153 -1743.42152 -1750.17388    -0.00001    -0.00000    -0.00001
  Local  ************************252577.01737     0.00175     0.00006     0.00011
  n-local   -58.23485   -12.91891    -7.96091    21.86980    -1.60657     1.09167
  augment  2362.32548  2362.32704  2382.24323    -0.00135    -0.00001     0.00001
  Kinetic  5369.50210  5373.60163  5434.26975     3.02322     0.59185    -0.43460
  Fock        0.00000     0.00000     0.00000     0.00000     0.00000     0.00000
  Total     -22.60879   -22.60879     2.81986    -0.00000     0.00000     0.00000
  in kB     -24.25943   -24.25943     3.02573    -0.00000     0.00000     0.00000

 VOLUME and BASIS-vectors are now :
  energy-cutoff  :      500.00
  volume of cell :     1493.16
      direct lattice vectors                 reciprocal lattice vectors
     8.813512802  0.000000000  0.000000000     0.113462137 -0.065507406  0.000000000
     4.406756909  7.632725690  0.000000000     0.000000000  0.131014796  0.000000000
     0.000000000  0.000000000 22.196203232     0.000000000  0.000000000  0.045052750

  length of vectors
     8.813512802  8.813512802 22.196203232     0.131014796  0.131014796  0.045052750

 FORCES acting on ions
    electron-ion (+dipol)            ewald-force                    non-local-force                 convergence-correction
   -.196E-04 -.162E-04 0.244E+04   0.518E-04 0.432E-04 -.244E+04   0.259E-17 -.764E-18 -.450E+00   -.281E-03 -.176E-03 -.185E+00
   -.962E-01 -.498E+00 0.244E+04   0.616E-01 0.423E+00 -.244E+04   -.385E-02 0.567E-01 -.385E+00   0.369E-01 0.923E-02 -.159E+00
   0.962E-01 -.498E+00 0.244E+04   -.616E-01 0.423E+00 -.244E+04   0.385E-02 0.567E-01 -.385E+00   -.365E-01 0.113E-01 -.158E+00
   -.480E+00 0.166E+00 0.244E+04   0.397E+00 -.158E+00 -.244E+04   0.471E-01 -.317E-01 -.385E+00   0.265E-01 0.273E-01 -.159E+00
   0.720E-05 -.240E-04 0.244E+04   0.951E-04 0.172E-05 -.244E+04   0.406E-17 0.135E-17 -.327E-01   0.439E-02 0.267E-02 -.142E+00
   0.480E+00 0.166E+00 0.244E+04   -.397E+00 -.158E+00 -.244E+04   -.471E-01 -.317E-01 -.385E+00   -.281E-01 0.282E-01 -.158E+00
   -.383E+00 0.332E+00 0.244E+04   0.335E+00 -.265E+00 -.244E+04   0.510E-01 -.250E-01 -.385E+00   -.843E-02 -.373E-01 -.158E+00
   0.383E+00 0.332E+00 0.244E+04   -.335E+00 -.265E+00 -.244E+04   -.510E-01 -.250E-01 -.385E+00   0.103E-01 -.385E-01 -.158E+00
   0.197E-04 -.417E-04 0.244E+04   0.166E-03 -.199E-04 -.244E+04   0.207E-17 -.261E-17 -.275E+00   -.466E-02 -.241E-02 -.120E+00
   -.136E+01 -.786E+00 0.767E+03   0.146E+01 0.841E+00 -.767E+03   -.199E+00 -.115E+00 -.554E+00   0.748E-01 0.431E-01 -.115E-01
   0.136E-04 -.288E+01 0.763E+03   0.149E-03 0.285E+01 -.763E+03   -.319E-08 -.480E-01 -.159E+00   0.426E-02 0.223E-01 -.234E-03
   0.136E+01 -.786E+00 0.767E+03   -.146E+01 0.841E+00 -.767E+03   0.199E+00 -.115E+00 -.554E+00   -.767E-01 0.450E-01 -.103E-01
   -.250E+01 0.144E+01 0.763E+03   0.247E+01 -.142E+01 -.763E+03   -.416E-01 0.240E-01 -.159E+00   0.218E-01 -.721E-02 -.241E-03
   0.250E+01 0.144E+01 0.763E+03   -.247E+01 -.142E+01 -.763E+03   0.416E-01 0.240E-01 -.159E+00   -.134E-01 -.789E-02 0.687E-03
   0.325E-04 0.260E+01 0.770E+03   0.235E-03 -.271E+01 -.770E+03   0.101E-08 0.152E-01 -.444E+00   -.297E-02 0.583E-01 -.350E-01
   -.204E-04 0.157E+01 0.767E+03   0.161E-03 -.168E+01 -.767E+03   0.153E-07 0.230E+00 -.554E+00   0.385E-03 -.890E-01 -.103E-01
   0.225E+01 -.130E+01 0.770E+03   -.235E+01 0.136E+01 -.770E+03   0.131E-01 -.758E-02 -.444E+00   0.493E-01 -.313E-01 -.350E-01
   -.225E+01 -.130E+01 0.770E+03   0.235E+01 0.136E+01 -.770E+03   -.131E-01 -.758E-02 -.444E+00   -.492E-01 -.287E-01 -.348E-01
   -.426E-04 -.665E+01 -.911E+03   0.565E-04 0.671E+01 0.910E+03   -.465E-08 -.698E-01 0.501E+00   -.607E-02 0.187E-01 0.178E+00
   -.302E+02 -.174E+02 -.944E+03   0.310E+02 0.179E+02 0.944E+03   -.983E+00 -.567E+00 -.102E+01   0.128E+00 0.736E-01 0.237E+00
   0.302E+02 -.174E+02 -.944E+03   -.310E+02 0.179E+02 0.944E+03   0.983E+00 -.567E+00 -.102E+01   -.118E+00 0.751E-01 0.236E+00
   -.221E+02 0.127E+02 -.908E+03   0.218E+02 -.126E+02 0.908E+03   0.259E+00 -.150E+00 0.592E+00   0.455E-01 -.294E-01 0.159E+00
   -.759E-05 0.348E+02 -.944E+03   0.136E-03 -.358E+02 0.944E+03   0.756E-07 0.113E+01 -.102E+01   0.561E-02 -.140E+00 0.236E+00
   0.221E+02 0.127E+02 -.908E+03   -.218E+02 -.126E+02 0.908E+03   -.259E+00 -.150E+00 0.592E+00   -.536E-01 -.309E-01 0.159E+00
   0.576E+01 0.333E+01 -.911E+03   -.581E+01 -.336E+01 0.910E+03   0.605E-01 0.349E-01 0.501E+00   -.185E-01 -.107E-01 0.178E+00
   -.576E+01 0.333E+01 -.911E+03   0.581E+01 -.336E+01 0.910E+03   -.605E-01 0.349E-01 0.501E+00   0.135E-01 -.146E-01 0.178E+00
   0.638E-05 -.255E+02 -.908E+03   0.200E-03 0.251E+02 0.908E+03   0.199E-07 0.299E+00 0.592E+00   -.322E-02 0.541E-01 0.159E+00
   -.794E-05 -.916E-05 -.245E+04   0.255E-04 0.287E-04 0.245E+04   -.475E-17 0.234E-17 0.402E+00   -.142E-02 -.835E-03 0.190E+00
   -.237E+02 -.489E+02 -.247E+04   0.249E+02 0.508E+02 0.247E+04   -.131E+01 -.201E+01 -.657E+00   0.654E-01 0.784E-01 0.170E+00
   0.237E+02 -.489E+02 -.247E+04   -.249E+02 0.508E+02 0.247E+04   0.131E+01 -.201E+01 -.657E+00   -.584E-01 0.799E-01 0.170E+00
   -.542E+02 0.393E+01 -.247E+04   0.565E+02 -.381E+01 0.247E+04   -.240E+01 -.127E+00 -.657E+00   0.101E+00 0.173E-01 0.170E+00
   0.542E+02 0.393E+01 -.247E+04   -.565E+02 -.381E+01 0.247E+04   0.240E+01 -.127E+00 -.657E+00   -.951E-01 0.180E-01 0.169E+00
   -.305E+02 0.450E+02 -.247E+04   0.315E+02 -.470E+02 0.247E+04   -.109E+01 0.214E+01 -.657E+00   0.401E-01 -.905E-01 0.170E+00
   0.305E+02 0.450E+02 -.247E+04   -.315E+02 -.470E+02 0.247E+04   0.109E+01 0.214E+01 -.657E+00   -.319E-01 -.913E-01 0.169E+00
   0.306E-04 -.354E-04 -.245E+04   0.146E-03 -.438E-04 0.245E+04   0.792E-17 0.419E-17 0.534E+00   -.587E-02 -.309E-02 0.189E+00
   -.226E-04 0.375E-05 -.872E+03   0.408E-04 0.362E-05 0.869E+03   0.195E-17 0.262E-17 0.288E+01   0.140E-03 0.821E-04 0.375E-01
   -.832E-03 -.778E-03 0.517E+01   -.862E-13 0.577E-13 -.523E-11   0.676E-15 0.681E-17 -.646E+01   0.143E-01 0.882E-02 0.162E+01

 POSITION                                       TOTAL-FORCE (eV/Angst)
      0.00000      0.00000      5.28038         0.000000      0.000000     -0.137240
      2.93784      0.00000      5.28038        -0.001153     -0.008808     -0.060123
      5.87568      0.00000      5.28038         0.001153     -0.008808     -0.060123
      1.46892      2.54424      5.28038        -0.008204      0.003405     -0.060123
      4.40676      2.54424      5.28038         0.000000      0.000000     -0.034843
      7.34459      2.54424      5.28038         0.008204      0.003405     -0.060123
      2.93784      5.08848      5.28038        -0.007051      0.005403     -0.060123
      5.87568      5.08848      5.28038         0.007051      0.005403     -0.060123
      8.81351      5.08848      5.28038         0.000000     -0.000000     -0.077623
      1.46892      0.84808      7.67911        -0.027854     -0.016081      0.056777
      4.40676      0.84808      7.67911        -0.000000     -0.062270      0.000946
      7.34459      0.84808      7.67911         0.027854     -0.016081      0.056777
      2.93784      3.39232      7.67911        -0.053927      0.031135      0.000946
      5.87568      3.39232      7.67911         0.053927      0.031135      0.000946
      8.81351      3.39232      7.67911        -0.000000     -0.040101      0.129119
      4.40676      5.93656      7.67911         0.000000      0.032163      0.056777
      7.34459      5.93656      7.67911        -0.034728      0.020050      0.129119
     10.28243      5.93656      7.67911         0.034728      0.020050      0.129119
      8.81351      1.69636     10.07469         0.000000      0.010832     -0.006299
      2.94338      1.69936     10.06127        -0.008698     -0.005022     -0.005374
      5.87013      1.69936     10.06127         0.008698     -0.005022     -0.005374
     10.27220      4.24631     10.06987         0.009877     -0.005703      0.000149
      4.40676      4.23400     10.06127         0.000000      0.010044     -0.005374
      7.35483      4.24631     10.06987        -0.009877     -0.005703      0.000149
     11.75117      6.78454     10.07469        -0.009381     -0.005416     -0.006299
      5.87585      6.78454     10.07469         0.009381     -0.005416     -0.006299
      8.81351      6.77283     10.06987         0.000000      0.011405      0.000149
      0.00000      0.00000     12.49672         0.000000      0.000000     -0.004770
      2.97727      0.06002     12.55884         0.003968     -0.000338      0.015329
      5.83624      0.06002     12.55884        -0.003968     -0.000338      0.015329
      1.54061      2.54838     12.55884         0.001691      0.003605      0.015329
      7.27290      2.54838     12.55884        -0.001691      0.003605      0.015329
      2.97010      5.02433     12.55884        -0.002277     -0.003267      0.015329
      5.84341      5.02433     12.55884         0.002277     -0.003267      0.015329
      8.81351      5.08848     12.50791        -0.000000      0.000000      0.011188
      4.40676      2.54424     12.31155         0.000000      0.000000     -0.013904
    total drift:                                0.013482      0.008046      0.334516

  FREE ENERGIE OF THE ION-ELECTRON SYSTEM (eV)
  free  energy   TOTEN  =      -117.90087353 eV

  energy  without entropy=     -117.90087353  energy(sigma->0) =     -117.90087353

 stress matrix after NEB project (eV)
    -22.60879     -0.00000      0.00000
     -0.00000    -22.60879      0.00000
      0.00000      0.00000      2.81986
  FORCES: max atom, RMS     0.015838    0.009275
  FORCE total and by dimension    0.055651    0.015329
  Stress total and by dimension   32.097764   22.608792
|           W    W    AA    RRRRR   N    N  II  N    N   GGGG   !!!           |
|           W    W   A  A   R    R  NN   N  II  NN   N  G    G  !!!           |
|           W    W  A    A  R    R  N N  N  II  N N  N  G       !!!           |
|           W WW W  AAAAAA  RRRRR   N  N N  II  N  N N  G  GGG   !            |
|           WW  WW  A    A  R   R   N   NN  II  N   NN  G    G                |
|           W    W  A    A  R    R  N    N  II  N    N   GGGG   !!!           |
|     Tetrahedron method does not include variations of the Fermi             |
|     occupations, so forces and stress will be inaccurate. We suggest        |
|     using a different smearing scheme ISMEAR = 1 or 2 for metals in         |
|     relaxations.                                                            |

 total charge

# of ion       s       p       d       tot
    1        0.551   0.237   8.766   9.555
    2        0.541   0.241   8.766   9.548
    3        0.541   0.241   8.766   9.548
    4        0.541   0.241   8.766   9.548
    5        0.544   0.242   8.761   9.547
    6        0.541   0.241   8.766   9.548
    7        0.541   0.241   8.766   9.548
    8        0.541   0.241   8.766   9.548
    9        0.546   0.240   8.766   9.552
   10        0.523   0.308   8.769   9.601
   11        0.519   0.307   8.779   9.604
   12        0.523   0.308   8.769   9.601
   13        0.519   0.307   8.779   9.604
   14        0.519   0.307   8.779   9.604
   15        0.517   0.308   8.773   9.598
   16        0.523   0.308   8.769   9.601
   17        0.517   0.308   8.773   9.598
   18        0.517   0.308   8.773   9.598
   19        0.521   0.299   8.767   9.588
   20        0.571   0.339   8.727   9.636
   21        0.571   0.339   8.727   9.636
   22        0.511   0.305   8.775   9.591
   23        0.571   0.339   8.727   9.636
   24        0.511   0.305   8.775   9.591
   25        0.521   0.299   8.767   9.588
   26        0.521   0.299   8.767   9.588
   27        0.511   0.305   8.775   9.591
   28        0.540   0.233   8.752   9.526
   29        0.600   0.252   8.722   9.575
   30        0.600   0.252   8.722   9.575
   31        0.600   0.252   8.722   9.575
   32        0.600   0.252   8.722   9.575
   33        0.600   0.252   8.722   9.575
   34        0.600   0.252   8.722   9.575
   35        0.538   0.235   8.755   9.527
   36        0.558   0.473   1.746   2.776
tot         19.612  10.222 308.238 338.072

 BZINTS: Fermi energy:    0.806404;  389.000000 electrons
         Band energy:-0.116436E+04;  BLOECHL correction:   -0.030789