 vasp.6.2.0 18Jan21 (build Jun 12 2021 23:27:24) complex

 executed on             LinuxIFC date 2022.05.28  02:49:09

 INCAR:
   ISMEAR = -5
   SIGMA = 0.1
   ISPIN = 1
   EDIFF = 1.d-5
   EDIFFG = -0.01
   NSW = 0
   NELM = 150
   ENCUT = 500
   ISIF = 2
   IBRION = 2
   LREAL = Auto
   ALGO = Fast
   ICHARG = 11
   LORBIT = 10
   LCHARG = .F.
   LWAVE = .F.

 POTCAR:    PAW_PBE Cu 22Jun2005
 POTCAR:    PAW_PBE Re 17Jan2003
 POTCAR:    PAW_PBE H 15Jun2001
 POTCAR:    PAW_PBE O 08Apr2002
|           W    W    AA    RRRRR   N    N  II  N    N   GGGG   !!!           |
|           W    W   A  A   R    R  NN   N  II  NN   N  G    G  !!!           |
|           W    W  A    A  R    R  N N  N  II  N N  N  G       !!!           |
|           W WW W  AAAAAA  RRRRR   N  N N  II  N  N N  G  GGG   !            |
|           WW  WW  A    A  R   R   N   NN  II  N   NN  G    G                |
|           W    W  A    A  R    R  N    N  II  N    N   GGGG   !!!           |
|     For optimal performance we recommend to set                             |
|       NCORE = 2 up to number-of-cores-per-socket                            |
|     This setting can greatly improve the performance of VASP for DFT.       |
|     The default, NCORE=1 might be grossly inefficient on modern             |
|     multi-core architectures or massively parallel machines. Do your        |
|     Unfortunately you need to use the default for GW and RPA                |
|     calculations (for HF NCORE is supported but not extensively tested      |
|     yet).                                                                   |

 POTCAR:    PAW_PBE Cu 22Jun2005
   VRHFIN =Cu: d10 p1

   TITEL  = PAW_PBE Cu 22Jun2005
   POMASS =   63.546; ZVAL   =   11.000    mass and valenz
   ENMAX  =  295.446; ENMIN  =  221.585 eV

 POTCAR:    PAW_PBE Re 17Jan2003
   VRHFIN =Re: 5p6s5d

   TITEL  = PAW_PBE Re 17Jan2003
   POMASS =  186.207; ZVAL   =    7.000    mass and valenz
   ENMAX  =  226.216; ENMIN  =  169.662 eV

 POTCAR:    PAW_PBE H 15Jun2001
   VRHFIN =H: ultrasoft test

   TITEL  = PAW_PBE H 15Jun2001
   POMASS =    1.000; ZVAL   =    1.000    mass and valenz
   ENMAX  =  250.000; ENMIN  =  200.000 eV

 POTCAR:    PAW_PBE O 08Apr2002
   VRHFIN =O: s2p4

   TITEL  = PAW_PBE O 08Apr2002
   POMASS =   16.000; ZVAL   =    6.000    mass and valenz
   ENMAX  =  400.000; ENMIN  =  300.000 eV

 Optimization of the real space projectors (new method)

 maximal supplied QI-value         = 16.25
 optimisation between [QCUT,QGAM] = [ 11.38, 22.75] = [ 36.24,144.96] Ry
 Optimized for a Real-space Cutoff    1.52 Angstroem

   l    n(q)    QCUT    max X(q) W(low)/X(q) W(high)/X(q)  e(spline)
   2      9    11.376     4.610    0.21E-03    0.10E-03    0.26E-06
   2      9    11.376     8.522    0.33E-03    0.16E-03    0.37E-06
   0     10    11.376    51.609    0.62E-04    0.20E-04    0.13E-06
   0     10    11.376    27.747    0.54E-04    0.20E-04    0.13E-06
   1     10    11.376    20.408    0.13E-04    0.99E-04    0.19E-06
   1     10    11.376    13.425    0.12E-04    0.87E-04    0.17E-06
 Optimization of the real space projectors (new method)

[...]

   l    n(q)    QCUT    max X(q) W(low)/X(q) W(high)/X(q)  e(spline)
   0      8    11.287    19.460    0.40E-03    0.73E-03    0.16E-06
   0      8    11.287    12.209    0.38E-03    0.70E-03    0.15E-06
   1      7    11.287     4.655    0.22E-03    0.25E-04    0.22E-06
 Optimization of the real space projectors (new method)

 maximal supplied QI-value         = 24.76
 optimisation between [QCUT,QGAM] = [ 11.39, 22.77] = [ 36.31,145.25] Ry
 Optimized for a Real-space Cutoff    1.00 Angstroem

   l    n(q)    QCUT    max X(q) W(low)/X(q) W(high)/X(q)  e(spline)
   0      7    11.387    20.381    0.39E-03    0.13E-02    0.15E-06
   0      7    11.387    15.268    0.42E-03    0.14E-02    0.17E-06
   1      6    11.387     5.964    0.41E-03    0.11E-02    0.17E-06
   1      6    11.387     5.382    0.39E-03    0.87E-03    0.15E-06
  PAW_PBE Cu 22Jun2005                  :
  PAW_PBE Re 17Jan2003                  :
  PAW_PBE H 15Jun2001                   :
  PAW_PBE O 08Apr2002                   :

 POSCAR: Cu-Re-H2O
  positions in direct lattice
  velocities in cartesian coordinates
 exchange correlation table for  LEXCH =        8
   RHO(1)=    0.500       N(1)  =     2000
   RHO(2)=  100.500       N(2)  =     4000

 VTST: version 3.2, (02/03/18)

 CHAIN: initializing optimizer

 OPT: Using VASP Conjugate-Gradient optimizer
 CHAIN: Read ICHAIN            0

 POSCAR: Cu-Re-H2O
  positions in direct lattice
  velocities in cartesian coordinates

 ion  position               nearest neighbor table
   1  0.000  0.000  0.221-   7 2.57   3 2.57   4 2.57   2 2.57   6 2.57   8 2.57  12 2.57  10 2.57
                            16 2.57
   2  0.333  0.000  0.221-   8 2.57   9 2.57   5 2.57   1 2.57   3 2.57  11 2.57   4 2.57  10 2.57
                            17 2.57
   3  0.667  0.000  0.221-   1 2.57   7 2.57   6 2.57   9 2.57   2 2.57  12 2.57   5 2.57  18 2.57
                            11 2.57
   4  0.000  0.333  0.221-   5 2.57   6 2.57   1 2.57   7 2.57   2 2.57  13 2.57   9 2.57  10 2.57
                            15 2.57
   5  0.333  0.333  0.221-   4 2.57   2 2.57   7 2.57  13 2.57   8 2.57   6 2.57   3 2.57  11 2.57
                            14 2.57
   6  0.667  0.333  0.221-   4 2.57   9 2.57  15 2.57   3 2.57   1 2.57   8 2.57  14 2.57   5 2.57
                            12 2.57
   7  0.000  0.667  0.221-   1 2.57   3 2.57  16 2.57  18 2.57   4 2.57   5 2.57   8 2.57   9 2.57
                            13 2.57
   8  0.333  0.667  0.221-   9 2.57   2 2.57  17 2.57   6 2.57   1 2.57   7 2.57   5 2.57  14 2.57
                            16 2.57
   9  0.667  0.667  0.221-   8 2.57   6 2.57   2 2.57  17 2.57   3 2.57   7 2.57   4 2.57  15 2.57
                            18 2.57
  10  0.111  0.111  0.308-  20 2.53  11 2.57  12 2.57  13 2.57   1 2.57   2 2.57   4 2.57  15 2.57
                            16 2.57  17 2.57  26 2.57  19 2.57
  11  0.444  0.111  0.308-  20 2.55  21 2.55  10 2.57  13 2.57   2 2.57  17 2.57  14 2.57  12 2.57
                             5 2.57   3 2.57  18 2.57  27 2.58
  12  0.778  0.111  0.308-  21 2.53  15 2.57  10 2.57  14 2.57  18 2.57   3 2.57   1 2.57  16 2.57
                            11 2.57   6 2.57  19 2.57  25 2.57
  13  0.111  0.444  0.308-  23 2.55  20 2.55  16 2.57  18 2.57  10 2.57  11 2.57  14 2.57   5 2.57
                             4 2.57   7 2.57  15 2.57  22 2.58
  14  0.444  0.444  0.308-  21 2.55  23 2.55  15 2.57  17 2.57  12 2.57  16 2.57  13 2.57  11 2.57
                             6 2.57   8 2.57   5 2.57  24 2.58
  15  0.778  0.444  0.308-  19 2.57  14 2.57  17 2.57  12 2.57   6 2.57  18 2.57  10 2.57   9 2.57
                            13 2.57   4 2.57  24 2.57  22 2.57
  16  0.111  0.778  0.308-  23 2.53  18 2.57  13 2.57   7 2.57  14 2.57  17 2.57  12 2.57  10 2.57
                             8 2.57   1 2.57  25 2.57  26 2.57
  17  0.444  0.778  0.308-  26 2.57  14 2.57  15 2.57   8 2.57   9 2.57  11 2.57  16 2.57  18 2.57
                            10 2.57   2 2.57  27 2.57  24 2.57
  18  0.778  0.778  0.308-  25 2.57  16 2.57  13 2.57   7 2.57  15 2.57  12 2.57  17 2.57   9 2.57
                             3 2.57  11 2.57  22 2.57  27 2.57
  19  0.889  0.223  0.394-  21 2.55  20 2.55  22 2.56  24 2.56  28 2.56  15 2.57  12 2.57  10 2.57
                            25 2.57  26 2.57  32 2.59  31 2.59
  20  0.221  0.221  0.393-  36 2.53  10 2.53  11 2.55  13 2.55  26 2.55  19 2.55  27 2.57  22 2.57
                            23 2.59  21 2.59  29 2.61  31 2.61
  21  0.558  0.221  0.393-  36 2.53  12 2.53  14 2.55  11 2.55  19 2.55  25 2.55  24 2.57  27 2.57
                            20 2.59  23 2.59  32 2.61  30 2.61
  22  0.888  0.556  0.394-  24 2.55  27 2.55  35 2.55  19 2.56  25 2.56  18 2.57  15 2.57  23 2.57
                            20 2.57  13 2.58  31 2.59  33 2.59
  23  0.221  0.558  0.393-  36 2.53  16 2.53  13 2.55  14 2.55  25 2.55  26 2.55  22 2.57  24 2.57
                            20 2.59  21 2.59  33 2.61  34 2.61
  24  0.556  0.556  0.394-  22 2.55  27 2.55  35 2.55  19 2.56  26 2.56  15 2.57  17 2.57  21 2.57
                            23 2.57  14 2.58  32 2.59  34 2.59
  25  0.889  0.889  0.394-  21 2.55  23 2.55  22 2.56  27 2.56  28 2.56  18 2.57  16 2.57  12 2.57
                            19 2.57  26 2.57  33 2.59  30 2.59
  26  0.223  0.889  0.394-  20 2.55  23 2.55  27 2.56  24 2.56  28 2.56  17 2.57  10 2.57  16 2.57
                            25 2.57  19 2.57  29 2.59  34 2.59
  27  0.556  0.888  0.394-  24 2.55  22 2.55  35 2.55  26 2.56  25 2.56  17 2.57  18 2.57  20 2.57
                            21 2.57  11 2.58  29 2.59  30 2.59
  28  0.000  0.000  0.480-  33 2.56  30 2.56  31 2.56  29 2.56  32 2.56  34 2.56  25 2.56  19 2.56
                            26 2.56
  29  0.333  0.000  0.481-  31 2.56  28 2.56  36 2.57  34 2.57  35 2.57  30 2.57  26 2.59  27 2.59
                            20 2.61
  30  0.667  0.000  0.481-  32 2.56  28 2.56  36 2.57  33 2.57  35 2.57  29 2.57  25 2.59  27 2.59
                            21 2.61
  31  0.000  0.333  0.481-  29 2.56  28 2.56  36 2.57  32 2.57  35 2.57  33 2.57  19 2.59  22 2.59
                            20 2.61
  32  0.667  0.333  0.481-  30 2.56  28 2.56  36 2.57  31 2.57  35 2.57  34 2.57  19 2.59  24 2.59
                            21 2.61
  33  0.000  0.667  0.481-  34 2.56  28 2.56  36 2.57  30 2.57  35 2.57  31 2.57  25 2.59  22 2.59
                            23 2.61
  34  0.333  0.667  0.481-  33 2.56  28 2.56  36 2.57  29 2.57  35 2.57  32 2.57  26 2.59  24 2.59
                            23 2.61
  35  0.667  0.667  0.480-  24 2.55  27 2.55  22 2.55  34 2.57  32 2.57  29 2.57  30 2.57  33 2.57
                            31 2.57
  36  0.333  0.333  0.477-  39 2.34  23 2.53  20 2.53  21 2.53  31 2.57  29 2.57  33 2.57  34 2.57
                            32 2.57  30 2.57
  37  0.271  0.255  0.581-  39 0.98
  38  0.476  0.251  0.581-  39 0.98
  39  0.333  0.337  0.573-  38 0.98  37 0.98  36 2.34

  LATTYP: Found a hexagonal cell.
 ALAT       =     7.6967864036
 C/A-ratio  =     3.1535378041

  Lattice vectors:

 A1 = (  -3.8483927580,  -6.6656128093,   0.0000000000)
 A2 = (   7.6967864037,   0.0000000000,   0.0000000000)
 A3 = (   0.0000000000,   0.0000000000,  24.2721068937)

Analysis of symmetry for initial positions (statically):
 Subroutine PRICEL returns:
 Original cell was already a primitive cell.

 Routine SETGRP: Setting up the symmetry group for a
 hexagonal supercell.

 Subroutine GETGRP returns: Found  1 space group operations
 (whereof  1 operations were pure point group operations)
 out of a pool of 24 trial point group operations.

The static configuration has the point symmetry C_1 .

Analysis of symmetry for dynamics (positions and initial velocities):
 Subroutine PRICEL returns:
 Original cell was already a primitive cell.

[...]

The dynamic configuration has the point symmetry C_1 .

Analysis of constrained symmetry for selective dynamics:
 Subroutine PRICEL returns:
[...]
     41      -3.9476      2.00000
     42      -3.9380      2.00000
     43      -3.8852      2.00000
     44      -3.8628      2.00000
     45      -3.8614      2.00000
     46      -3.8379      2.00000
     47      -3.8301      2.00000
     48      -3.8192      2.00000
     49      -3.8124      2.00000
     50      -3.6344      2.00000
     51      -3.6200      2.00000
     52      -3.6060      2.00000
     53      -3.5918      2.00000
     54      -3.5460      2.00000
     55      -3.5400      2.00000
     56      -3.5292      2.00000
     57      -3.5185      2.00000
     58      -3.5134      2.00000
     59      -3.5074      2.00000
     60      -3.4761      2.00000
[...]
    238       5.6565      0.00000
    239       5.7419      0.00000
    240       5.7863      0.00000
    241       5.9022      0.00000
    242       6.0142      0.00000
    243       6.0306      0.00000
    244       6.1015      0.00000
    245       6.1711      0.00000
    246       6.3788      0.00000
    247       6.6539      0.00000
    248       6.7477      0.00000
    249       7.0207      0.00000
    250       7.1728      0.00000
    251       7.3109      0.00000
    252       7.5397      0.00000

 soft charge-density along one line, spin component           1
         0         1         2         3         4         5         6         7         8         9
 total charge-density along one line

------------------------ aborting loop because EDIFF is reached ----------------------------------------

 total charge

# of ion       s       p       d       tot
    1        0.449   0.284   9.188   9.922
    2        0.448   0.285   9.186   9.919
    3        0.448   0.285   9.186   9.919
    4        0.449   0.285   9.186   9.920
    5        0.448   0.286   9.180   9.914
    6        0.449   0.285   9.186   9.920
    7        0.449   0.285   9.186   9.920
    8        0.449   0.285   9.186   9.920
    9        0.448   0.283   9.190   9.920
   10        0.444   0.373   9.174   9.991
   11        0.444   0.365   9.185   9.994
   12        0.444   0.373   9.174   9.991
   13        0.443   0.366   9.185   9.994
   14        0.443   0.366   9.185   9.994
   15        0.438   0.368   9.178   9.985
   16        0.444   0.373   9.173   9.990
   17        0.438   0.368   9.178   9.984
   18        0.438   0.368   9.178   9.984
   19        0.440   0.367   9.181   9.989
   20        0.466   0.411   9.151  10.028
   21        0.466   0.411   9.151  10.028
   22        0.429   0.369   9.184   9.981
   23        0.466   0.410   9.152  10.028
   24        0.429   0.369   9.184   9.981
   25        0.440   0.367   9.182   9.988
   26        0.440   0.367   9.182   9.988
   27        0.429   0.369   9.184   9.982
   28        0.446   0.292   9.179   9.917
   29        0.467   0.322   9.163   9.952
   30        0.467   0.322   9.163   9.952
   31        0.468   0.321   9.164   9.952
   32        0.468   0.320   9.164   9.952
   33        0.466   0.315   9.166   9.947
   34        0.466   0.315   9.166   9.947
   35        0.438   0.296   9.182   9.916
   36        0.580   0.429   4.778   5.787
   37        0.605   0.118   0.000   0.724
   38        0.605   0.118   0.000   0.724
   39        1.568   3.601   0.000   5.169
tot         19.064  16.093 325.957 361.115

  FORCE on cell =-STRESS in cart. coord.  units (eV):
  Direction    XX          YY          ZZ          XY          YZ          ZX
  Alpha Z   799.91938   799.91938   799.91938
  Ewald  230672.66590230610.10793************    -1.09191   -13.36786    -1.28607
  Hartree243444.77035243433.54939************    -0.19128     2.85238    -0.56082
  E(xc)   -2314.44383 -2314.62421 -2318.75601    -0.00406    -0.03444    -0.00298
  Local  ************************487188.85395     0.99362     4.05941     1.57746
  n-local  -803.90931  -804.63928  -818.14921    -0.00833    -0.00803    -0.00261
  augment  3321.93395  3322.99253  3347.68690    -0.00047     0.34918     0.01617
  Kinetic  3358.80851  3375.98022  3415.20251     0.30732     6.02862     0.25196
  Fock        0.00000     0.00000     0.00000     0.00000     0.00000     0.00000
  Total      -7.58445    -7.76739     0.20727     0.00489    -0.12074    -0.00689
  in kB      -9.75839    -9.99375     0.26668     0.00630    -0.15535    -0.00887

 VOLUME and BASIS-vectors are now :
  energy-cutoff  :      500.00
  volume of cell :     1245.25
      direct lattice vectors                 reciprocal lattice vectors
     7.696786404  0.000000000  0.000000000     0.129924354 -0.075011849  0.000000000
     3.848392758  6.665612809  0.000000000     0.000000000  0.150023716  0.000000000
     0.000000000  0.000000000 24.272106894     0.000000000  0.000000000  0.041199555

  length of vectors
     7.696786404  7.696786404 24.272106894     0.150023716  0.150023716  0.041199555

 FORCES acting on ions
    electron-ion (+dipol)            ewald-force                    non-local-force                 convergence-correction
   0.205E-02 0.112E-01 0.377E+04   0.552E-03 -.762E-02 -.376E+04   -.358E-04 0.169E-01 -.283E+01   -.267E-02 -.164E-01 -.209E+00
   -.648E+00 -.101E+00 0.377E+04   0.221E+00 -.438E-01 -.376E+04   0.174E+00 0.125E+00 -.172E+01   0.248E+00 0.358E-01 -.187E+00
   0.646E+00 -.111E+00 0.377E+04   -.222E+00 -.445E-01 -.376E+04   -.175E+00 0.123E+00 -.172E+01   -.245E+00 0.479E-01 -.181E+00
   -.352E+00 -.402E+00 0.377E+04   0.794E-01 0.222E+00 -.376E+04   0.172E+00 0.603E-01 -.168E+01   0.118E+00 0.110E+00 -.146E+00
   -.153E-01 -.607E-02 0.377E+04   -.653E-03 0.119E-01 -.376E+04   -.856E-02 0.148E-01 -.151E+01   0.248E-01 -.206E-01 -.135E+00
   0.362E+00 -.407E+00 0.377E+04   -.787E-01 0.222E+00 -.376E+04   -.172E+00 0.603E-01 -.168E+01   -.129E+00 0.116E+00 -.142E+00
   0.800E-01 0.516E+00 0.377E+04   -.142E+00 -.178E+00 -.376E+04   0.672E-01 -.195E+00 -.172E+01   0.378E-02 -.150E+00 -.129E+00
   -.900E-01 0.525E+00 0.377E+04   0.142E+00 -.177E+00 -.376E+04   -.687E-01 -.196E+00 -.172E+01   0.809E-02 -.159E+00 -.131E+00
   0.145E-01 -.231E-01 0.377E+04   0.529E-03 -.413E-02 -.376E+04   0.939E-02 -.166E-01 -.234E+01   -.247E-01 0.398E-01 -.844E-01
   0.176E+01 0.106E+01 0.128E+04   -.124E+01 -.714E+00 -.128E+04   -.629E+00 -.358E+00 -.131E+01   0.101E+00 0.166E-01 -.179E+00
   -.113E-01 -.265E+00 0.127E+04   -.473E-02 -.113E+00 -.127E+04   -.881E-02 0.254E+00 -.158E+00   0.253E-01 0.630E-01 -.187E+00
   -.176E+01 0.106E+01 0.128E+04   0.124E+01 -.717E+00 -.128E+04   0.630E+00 -.358E+00 -.131E+01   -.112E+00 0.191E-01 -.178E+00
   -.364E+00 0.907E-01 0.127E+04   -.992E-01 0.130E+00 -.127E+04   0.261E+00 -.171E+00 -.163E+00   0.151E+00 -.224E-01 -.158E+00
   0.350E+00 0.965E-01 0.127E+04   0.941E-01 0.133E+00 -.127E+04   -.278E+00 -.170E+00 -.161E+00   -.114E+00 -.327E-01 -.171E+00
   0.519E-02 -.116E+01 0.128E+04   0.506E-02 0.757E+00 -.128E+04   0.121E-02 0.231E+00 -.902E+00   -.114E-01 0.148E+00 -.154E+00
   0.411E-02 -.195E+01 0.128E+04   0.110E-03 0.136E+01 -.128E+04   0.127E-02 0.730E+00 -.129E+01   -.536E-02 -.130E+00 -.126E+00
   -.895E+00 0.546E+00 0.128E+04   0.592E+00 -.413E+00 -.128E+04   0.167E+00 -.937E-01 -.939E+00   0.112E+00 -.292E-01 -.174E+00
   0.891E+00 0.538E+00 0.128E+04   -.592E+00 -.419E+00 -.128E+04   -.168E+00 -.939E-01 -.941E+00   -.106E+00 -.157E-01 -.159E+00
   -.266E-01 -.353E+01 -.122E+04   0.371E-01 0.338E+01 0.122E+04   0.745E-02 0.464E-01 0.740E+00   -.187E-01 0.820E-01 0.276E+00
   -.339E+02 -.200E+02 -.123E+04   0.353E+02 0.208E+02 0.123E+04   -.151E+01 -.848E+00 -.141E+01   0.134E+00 0.542E-01 0.347E+00
   0.340E+02 -.200E+02 -.123E+04   -.354E+02 0.208E+02 0.123E+04   0.152E+01 -.843E+00 -.141E+01   -.155E+00 0.394E-01 0.342E+00
   -.223E+02 0.126E+02 -.123E+04   0.213E+02 -.121E+02 0.123E+04   0.811E+00 -.469E+00 0.668E+00   0.170E+00 -.344E-01 0.206E+00
   0.402E-01 0.389E+02 -.123E+04   -.265E-01 -.406E+02 0.123E+04   0.109E-01 0.184E+01 -.138E+01   -.253E-01 -.115E+00 0.386E+00
   0.222E+02 0.126E+02 -.123E+04   -.213E+02 -.121E+02 0.123E+04   -.829E+00 -.468E+00 0.670E+00   -.131E+00 -.465E-01 0.205E+00
   0.273E+01 0.226E+01 -.122E+04   -.259E+01 -.211E+01 0.122E+04   -.129E-01 -.476E-01 0.847E+00   -.113E+00 -.946E-01 0.283E+00
   -.272E+01 0.222E+01 -.122E+04   0.260E+01 -.207E+01 0.122E+04   0.310E-01 -.486E-01 0.850E+00   0.715E-01 -.913E-01 0.286E+00
   -.451E-02 -.251E+02 -.123E+04   -.140E-01 0.240E+02 0.123E+04   -.984E-02 0.991E+00 0.615E+00   0.286E-01 0.181E+00 0.179E+00
   -.111E+00 0.199E+01 -.365E+04   0.115E+00 -.201E+01 0.365E+04   -.754E-03 0.592E-01 0.173E+01   -.402E-02 -.360E-01 0.382E+00
   -.170E+02 -.255E+02 -.364E+04   0.175E+02 0.261E+02 0.364E+04   -.718E+00 -.875E+00 0.460E+00   0.803E-01 0.159E+00 0.229E+00
   0.170E+02 -.251E+02 -.364E+04   -.176E+02 0.257E+02 0.364E+04   0.719E+00 -.879E+00 0.449E+00   -.752E-01 0.160E+00 0.221E+00
   -.329E+02 -.437E+01 -.365E+04   0.339E+02 0.461E+01 0.364E+04   -.123E+01 -.215E+00 0.506E+00   0.151E+00 -.284E-01 0.248E+00
   0.325E+02 -.444E+01 -.365E+04   -.335E+02 0.468E+01 0.364E+04   0.123E+01 -.214E+00 0.520E+00   -.151E+00 -.289E-01 0.249E+00
   -.171E+02 0.315E+02 -.365E+04   0.172E+02 -.323E+02 0.365E+04   -.348E+00 0.103E+01 0.975E+00   0.209E+00 -.155E+00 0.226E+00
   0.172E+02 0.312E+02 -.365E+04   -.172E+02 -.320E+02 0.365E+04   0.344E+00 0.103E+01 0.988E+00   -.206E+00 -.159E+00 0.236E+00
   -.449E-01 0.970E+00 -.366E+04   0.511E-01 -.984E+00 0.366E+04   0.105E-01 0.132E-01 0.237E+01   -.169E-01 0.366E-02 0.305E+00
   0.292E+00 -.367E+01 -.218E+04   -.297E+00 0.356E+01 0.218E+04   0.625E-02 0.522E-01 0.247E+01   0.128E-02 0.386E-01 0.147E+00
   0.684E+02 0.436E+02 -.383E+03   -.753E+02 -.481E+02 0.385E+03   0.684E+01 0.441E+01 -.161E+01   0.282E-02 0.197E-02 -.724E-02
   -.672E+02 0.457E+02 -.383E+03   0.739E+02 -.504E+02 0.384E+03   -.672E+01 0.463E+01 -.152E+01   -.272E-02 0.198E-02 -.728E-02
   -.575E+00 -.567E+02 -.222E+04   0.123E+01 0.101E+03 0.221E+04   -.659E+00 -.443E+02 0.576E+01   -.134E-02 0.202E-01 -.733E-01
   0.550E+00 0.352E+02 0.900E+01   -.568E-13 -.568E-13 -.114E-10   -.533E+00 -.352E+02 -.108E+02   -.995E-02 -.266E-01 0.183E+01

 POSITION                                       TOTAL-FORCE (eV/Angst)
      0.00000      0.00000      5.37156        -0.000298      0.003654     -0.047330
      2.56560      0.00000      5.37156        -0.004731      0.015474      0.050588
      5.13119      0.00000      5.37156         0.004402      0.015336      0.050521
      1.28280      2.22187      5.37156         0.017105     -0.009877      0.049427
      3.84839      2.22187      5.37156         0.000090     -0.000432      0.017611
      6.41399      2.22187      5.37156        -0.017282     -0.010169      0.049453
      2.56560      4.44374      5.37156         0.008351     -0.007585      0.053706
      5.13119      4.44374      5.37156        -0.008900     -0.007442      0.053681
      7.69679      4.44374      5.37156        -0.000504     -0.004438      0.000906
      1.28280      0.74062      7.46636        -0.004103      0.000578     -0.064113
      3.84839      0.74062      7.46636         0.000197     -0.061767     -0.081970
      6.41399      0.74062      7.46636         0.003715      0.000656     -0.063915
      2.56560      2.96249      7.46636        -0.050954      0.026050     -0.077206
      5.13119      2.96249      7.46636         0.051599      0.026284     -0.077213
      7.69679      2.96249      7.46636        -0.000100     -0.023617      0.016657
      3.84839      5.18437      7.46636        -0.000068      0.006600     -0.067827
      6.41399      5.18437      7.46636        -0.024410      0.009322      0.017515
      8.97958      5.18437      7.46636         0.024045      0.009294      0.017318
      7.69679      1.48486      9.56345        -0.000963     -0.026777     -0.014668
      2.55359      1.47432      9.53212         0.016452      0.013075     -0.071590
      5.14319      1.47432      9.53212        -0.019087      0.013578     -0.072510
      8.97343      3.70667      9.56919         0.022991     -0.014009     -0.011324
      3.84839      3.71698      9.53212        -0.000910      0.000284     -0.068535
      6.42014      3.70667      9.56919        -0.022336     -0.013927     -0.010670
     10.25925      5.92318      9.56345         0.020402      0.012099     -0.007037
      5.13432      5.92318      9.56345        -0.021649      0.011986     -0.006809
      7.69679      5.91789      9.56919         0.000075      0.031575     -0.021088
      0.00000      0.00000     11.65394        -0.000199      0.004580      0.006344
      2.56263      0.00314     11.68588        -0.062048     -0.097689     -0.072054
      5.13415      0.00314     11.68588         0.062427     -0.099160     -0.073016
      1.28404      2.21774     11.68588        -0.111951     -0.001597     -0.061542
      6.41275      2.21774     11.68588         0.113833     -0.002256     -0.063280
      2.56979      4.44474     11.68588        -0.087296      0.099863     -0.071337
      5.12699      4.44474     11.68588         0.086902      0.101558     -0.072690
      7.69679      4.44374     11.65455        -0.000449      0.001973      0.013484
      3.84839      2.22187     11.57229         0.002385     -0.020275      0.788008
      3.06638      1.69908     14.10776         0.001708     -0.000088      0.000558
      4.62903      1.67468     14.09793         0.002008     -0.002147      0.005372
      3.85520      2.24395     13.91017        -0.000452     -0.000565     -0.013426
    total drift:                                0.007675      0.018985      0.043955

  FREE ENERGIE OF THE ION-ELECTRON SYSTEM (eV)
  free  energy   TOTEN  =      -146.83350477 eV

  energy  without entropy=     -146.83350477  energy(sigma->0) =     -146.83350477

 stress matrix after NEB project (eV)
     -7.58445      0.00489     -0.00689
      0.00489     -7.76739     -0.12074
     -0.00689     -0.12074      0.20727
  FORCES: max atom, RMS     0.013446    0.002383
  FORCE total and by dimension    0.014884    0.013426
  Stress total and by dimension   10.859491    7.767389
|           W    W    AA    RRRRR   N    N  II  N    N   GGGG   !!!           |
|           W    W   A  A   R    R  NN   N  II  NN   N  G    G  !!!           |
|           W    W  A    A  R    R  N N  N  II  N N  N  G       !!!           |
|           W WW W  AAAAAA  RRRRR   N  N N  II  N  N N  G  GGG   !            |
|           WW  WW  A    A  R   R   N   NN  II  N   NN  G    G                |
|           W    W  A    A  R    R  N    N  II  N    N   GGGG   !!!           |
|     Tetrahedron method does not include variations of the Fermi             |
|     occupations, so forces and stress will be inaccurate. We suggest        |
|     using a different smearing scheme ISMEAR = 1 or 2 for metals in         |
|     relaxations.                                                            |

 total charge

# of ion       s       p       d       tot
    1        0.449   0.284   9.188   9.922
    2        0.448   0.285   9.186   9.919
    3        0.448   0.285   9.186   9.919
    4        0.449   0.285   9.186   9.920
    5        0.448   0.286   9.180   9.914
    6        0.449   0.285   9.186   9.920
    7        0.449   0.285   9.186   9.920
    8        0.449   0.285   9.186   9.920
    9        0.448   0.283   9.190   9.920
   10        0.444   0.373   9.174   9.991
   11        0.444   0.365   9.185   9.994
   12        0.444   0.373   9.174   9.991
   13        0.443   0.366   9.185   9.994
   14        0.443   0.366   9.185   9.994
   15        0.438   0.368   9.178   9.985
   16        0.444   0.373   9.173   9.990
   17        0.438   0.368   9.178   9.984
   18        0.438   0.368   9.178   9.984
   19        0.440   0.367   9.181   9.989
   20        0.466   0.411   9.151  10.028
   21        0.466   0.411   9.151  10.028
   22        0.429   0.369   9.184   9.981
   23        0.466   0.410   9.152  10.028
   24        0.429   0.369   9.184   9.981
   25        0.440   0.367   9.182   9.988
   26        0.440   0.367   9.182   9.988
   27        0.429   0.369   9.184   9.982
   28        0.446   0.292   9.179   9.917
   29        0.467   0.322   9.163   9.952
   30        0.467   0.322   9.163   9.952
   31        0.468   0.321   9.164   9.952
   32        0.468   0.320   9.164   9.952
   33        0.466   0.315   9.166   9.947
   34        0.466   0.315   9.166   9.947
   35        0.438   0.296   9.182   9.916
   36        0.580   0.429   4.778   5.787
   37        0.605   0.118   0.000   0.724
   38        0.605   0.118   0.000   0.724
   39        1.568   3.601   0.000   5.169
tot         19.064  16.093 325.957 361.115

 BZINTS: Fermi energy:   -0.161028;  400.000000 electrons
         Band energy:-0.125698E+04;  BLOECHL correction:   -0.036288