 vasp.6.2.0 18Jan21 (build Jun 12 2021 23:27:24) complex

 executed on             LinuxIFC date 2022.05.26  20:05:02

 INCAR:
   ISMEAR = -5
   SIGMA = 0.1
   ISPIN = 1
   EDIFF = 1.d-5
   EDIFFG = -0.01
   NSW = 0
   NELM = 150
   ENCUT = 500
   ISIF = 2
   IBRION = 2
   LREAL = Auto
   ALGO = Fast
   ICHARG = 11
   LORBIT = 10
   LCHARG = .F.
   LWAVE = .F.

 POTCAR:    PAW_PBE Cu 22Jun2005
 POTCAR:    PAW_PBE Pd 04Jan2005
 POTCAR:    PAW_PBE H 15Jun2001
|           W    W    AA    RRRRR   N    N  II  N    N   GGGG   !!!           |
|           W    W   A  A   R    R  NN   N  II  NN   N  G    G  !!!           |
|           W    W  A    A  R    R  N N  N  II  N N  N  G       !!!           |
|           W WW W  AAAAAA  RRRRR   N  N N  II  N  N N  G  GGG   !            |
|           WW  WW  A    A  R   R   N   NN  II  N   NN  G    G                |
|           W    W  A    A  R    R  N    N  II  N    N   GGGG   !!!           |
|     For optimal performance we recommend to set                             |
|       NCORE = 2 up to number-of-cores-per-socket                            |
|     This setting can greatly improve the performance of VASP for DFT.       |
|     The default, NCORE=1 might be grossly inefficient on modern             |
|     multi-core architectures or massively parallel machines. Do your        |
|     Unfortunately you need to use the default for GW and RPA                |
|     calculations (for HF NCORE is supported but not extensively tested      |
|     yet).                                                                   |

 POTCAR:    PAW_PBE Cu 22Jun2005
   VRHFIN =Cu: d10 p1

   TITEL  = PAW_PBE Cu 22Jun2005
   POMASS =   63.546; ZVAL   =   11.000    mass and valenz
   ENMAX  =  295.446; ENMIN  =  221.585 eV

 POTCAR:    PAW_PBE Pd 04Jan2005
   VRHFIN =Pd : s1 d9

   TITEL  = PAW_PBE Pd 04Jan2005
   POMASS =  106.420; ZVAL   =   10.000    mass and valenz
   ENMAX  =  250.925; ENMIN  =  188.194 eV

 POTCAR:    PAW_PBE H 15Jun2001
   VRHFIN =H: ultrasoft test

   TITEL  = PAW_PBE H 15Jun2001
   POMASS =    1.000; ZVAL   =    1.000    mass and valenz
   ENMAX  =  250.000; ENMIN  =  200.000 eV

 Optimization of the real space projectors (new method)

 maximal supplied QI-value         = 16.25
 optimisation between [QCUT,QGAM] = [ 11.38, 22.75] = [ 36.24,144.96] Ry
 Optimized for a Real-space Cutoff    1.52 Angstroem

   l    n(q)    QCUT    max X(q) W(low)/X(q) W(high)/X(q)  e(spline)
   2      9    11.376     4.610    0.21E-03    0.10E-03    0.26E-06
   2      9    11.376     8.522    0.33E-03    0.16E-03    0.37E-06
   0     10    11.376    51.609    0.62E-04    0.20E-04    0.13E-06
   0     10    11.376    27.747    0.54E-04    0.20E-04    0.13E-06
   1     10    11.376    20.408    0.13E-04    0.99E-04    0.19E-06
   1     10    11.376    13.425    0.12E-04    0.87E-04    0.17E-06
 Optimization of the real space projectors (new method)

[...]

   l    n(q)    QCUT    max X(q) W(low)/X(q) W(high)/X(q)  e(spline)
   2      9    11.346    59.108    0.74E-04    0.81E-04    0.26E-06
   2      9    11.346    58.101    0.74E-04    0.83E-04    0.27E-06
   0     10    11.346   102.235    0.26E-04    0.31E-04    0.16E-06
   0     10    11.346    58.388    0.23E-04    0.29E-04    0.15E-06
   1     10    11.346    22.191    0.23E-03    0.26E-03    0.14E-06
   1     10    11.346    15.590    0.19E-03    0.22E-03    0.12E-06
 Optimization of the real space projectors (new method)

 maximal supplied QI-value         = 34.20
 optimisation between [QCUT,QGAM] = [ 11.29, 22.57] = [ 35.68,142.71] Ry
 Optimized for a Real-space Cutoff    1.16 Angstroem

   l    n(q)    QCUT    max X(q) W(low)/X(q) W(high)/X(q)  e(spline)
   0      8    11.287    19.460    0.40E-03    0.73E-03    0.16E-06
   0      8    11.287    12.209    0.38E-03    0.70E-03    0.15E-06
   1      7    11.287     4.655    0.22E-03    0.25E-04    0.22E-06
  PAW_PBE Cu 22Jun2005                  :
  PAW_PBE Pd 04Jan2005                  :
  PAW_PBE H 15Jun2001                   :

 POSCAR: Cu-Pd-H
  positions in direct lattice
  velocities in cartesian coordinates
 exchange correlation table for  LEXCH =        8
   RHO(1)=    0.500       N(1)  =     2000
   RHO(2)=  100.500       N(2)  =     4000

 VTST: version 3.2, (02/03/18)

 CHAIN: initializing optimizer

 OPT: Using VASP Conjugate-Gradient optimizer
 CHAIN: Read ICHAIN            0

 POSCAR: Cu-Pd-H
  positions in direct lattice
  velocities in cartesian coordinates

 ion  position               nearest neighbor table
   1  0.000  0.000  0.252-   7 2.57   3 2.57   4 2.57   2 2.57   6 2.57   8 2.57  12 2.57  10 2.57
                            16 2.57
   2  0.333  0.000  0.252-   8 2.57   9 2.57   5 2.57   1 2.57   3 2.57  11 2.57   4 2.57  10 2.57
                            17 2.57
   3  0.667  0.000  0.252-   1 2.57   7 2.57   6 2.57   9 2.57   2 2.57  12 2.57   5 2.57  18 2.57
                            11 2.57
   4  0.000  0.333  0.252-   5 2.57   6 2.57   1 2.57   7 2.57   2 2.57  13 2.57   9 2.57  10 2.57
                            15 2.57
   5  0.333  0.333  0.252-   4 2.57   2 2.57   7 2.57  13 2.57   8 2.57   6 2.57   3 2.57  11 2.57
                            14 2.57
   6  0.667  0.333  0.252-   4 2.57   9 2.57  15 2.57   3 2.57   1 2.57   8 2.57  14 2.57   5 2.57
                            12 2.57
   7  0.000  0.667  0.252-   1 2.57   3 2.57  16 2.57  18 2.57   4 2.57   5 2.57   8 2.57   9 2.57
                            13 2.57
   8  0.333  0.667  0.252-   9 2.57   2 2.57  17 2.57   6 2.57   1 2.57   7 2.57   5 2.57  14 2.57
                            16 2.57
   9  0.667  0.667  0.252-   8 2.57   6 2.57   2 2.57  17 2.57   3 2.57   7 2.57   4 2.57  15 2.57
                            18 2.57
  10  0.111  0.111  0.351-  20 2.54  26 2.55  19 2.55  11 2.57  12 2.57  13 2.57   1 2.57   2 2.57
                             4 2.57  15 2.57  16 2.57  17 2.57
  11  0.444  0.111  0.351-  20 2.55  21 2.55  27 2.55  10 2.57  13 2.57   2 2.57  17 2.57  14 2.57
                            12 2.57   5 2.57   3 2.57  18 2.57
  12  0.778  0.111  0.351-  21 2.54  19 2.55  25 2.55  15 2.57  10 2.57  14 2.57  18 2.57   3 2.57
                             1 2.57  16 2.57  11 2.57   6 2.57
  13  0.111  0.444  0.351-  23 2.55  20 2.55  22 2.55  16 2.57  18 2.57  10 2.57  11 2.57  14 2.57
                             5 2.57   4 2.57   7 2.57  15 2.57
  14  0.444  0.444  0.351-  21 2.55  23 2.55  24 2.55  15 2.57  17 2.57  12 2.57  16 2.57  13 2.57
                            11 2.57   6 2.57   8 2.57   5 2.57
  15  0.778  0.444  0.351-  19 2.55  24 2.55  22 2.55  14 2.57  17 2.57  12 2.57   6 2.57  18 2.57
                            10 2.57   9 2.57  13 2.57   4 2.57
  16  0.111  0.778  0.351-  23 2.54  25 2.55  26 2.55  18 2.57  13 2.57   7 2.57  14 2.57  17 2.57
                            12 2.57  10 2.57   8 2.57   1 2.57
  17  0.444  0.778  0.351-  26 2.55  27 2.55  24 2.55  14 2.57  15 2.57   8 2.57   9 2.57  11 2.57
                            16 2.57  18 2.57  10 2.57   2 2.57
  18  0.778  0.778  0.351-  25 2.55  22 2.55  27 2.55  16 2.57  13 2.57   7 2.57  15 2.57  12 2.57
                            17 2.57   9 2.57   3 2.57  11 2.57
  19  0.889  0.222  0.448-  32 2.54  31 2.54  28 2.55  15 2.55  12 2.55  10 2.55  21 2.56  20 2.56
                            22 2.56  24 2.56  25 2.57  26 2.57
  20  0.222  0.222  0.448-  10 2.54  11 2.55  13 2.55  26 2.56  19 2.56  27 2.56  22 2.56  29 2.57
                            31 2.57  23 2.58  21 2.58  36 2.62
  21  0.557  0.222  0.448-  12 2.54  14 2.55  11 2.55  19 2.56  25 2.56  24 2.56  27 2.56  32 2.57
                            30 2.57  20 2.58  23 2.58  36 2.62
  22  0.889  0.555  0.449-  35 2.54  31 2.55  33 2.55  13 2.55  18 2.55  15 2.55  23 2.56  20 2.56
                            19 2.56  25 2.56  24 2.57  27 2.57
  23  0.222  0.557  0.448-  16 2.54  13 2.55  14 2.55  25 2.56  26 2.56  22 2.56  24 2.56  33 2.57
                            34 2.57  20 2.58  21 2.58  36 2.62
  24  0.555  0.555  0.449-  35 2.54  32 2.55  34 2.55  14 2.55  15 2.55  17 2.55  21 2.56  23 2.56
                            19 2.56  26 2.56  22 2.57  27 2.57
  25  0.889  0.889  0.448-  33 2.54  30 2.54  28 2.55  18 2.55  16 2.55  12 2.55  21 2.56  23 2.56
                            22 2.56  27 2.56  19 2.57  26 2.57
  26  0.222  0.889  0.448-  29 2.54  34 2.54  28 2.55  17 2.55  10 2.55  16 2.55  20 2.56  23 2.56
                            27 2.56  24 2.56  25 2.57  19 2.57
  27  0.555  0.889  0.449-  35 2.54  29 2.55  30 2.55  11 2.55  17 2.55  18 2.55  20 2.56  21 2.56
                            26 2.56  25 2.56  24 2.57  22 2.57
  28  0.000  0.000  0.545-  25 2.55  19 2.55  26 2.55  33 2.55  30 2.55  31 2.55  29 2.55  32 2.55
                            34 2.55
  29  0.333  0.996  0.546-  34 2.51  26 2.54  28 2.55  27 2.55  35 2.55  20 2.57  31 2.59  36 2.60
                            30 2.60
  30  0.671  0.996  0.546-  33 2.51  25 2.54  28 2.55  27 2.55  35 2.55  21 2.57  32 2.59  36 2.60
                            29 2.60
  31  0.996  0.333  0.546-  32 2.51  19 2.54  28 2.55  22 2.55  35 2.55  20 2.57  29 2.59  36 2.60
                            33 2.60
  32  0.671  0.333  0.546-  31 2.51  19 2.54  28 2.55  24 2.55  35 2.55  21 2.57  30 2.59  36 2.60
                            34 2.60
  33  0.996  0.671  0.546-  30 2.51  25 2.54  28 2.55  22 2.55  35 2.55  23 2.57  34 2.59  36 2.60
                            31 2.60
  34  0.333  0.671  0.546-  29 2.51  26 2.54  28 2.55  24 2.55  35 2.55  23 2.57  33 2.59  36 2.60
                            32 2.60
  35  0.667  0.667  0.546-  24 2.54  27 2.54  22 2.54  34 2.55  32 2.55  29 2.55  30 2.55  33 2.55
                            31 2.55
  36  0.333  0.333  0.549-  37 1.59  31 2.60  29 2.60  33 2.60  34 2.60  32 2.60  30 2.60  23 2.62
                            20 2.62  21 2.62
  37  0.333  0.333  0.624-  36 1.59

  LATTYP: Found a hexagonal cell.
 ALAT       =     7.6967864036
 C/A-ratio  =     2.7653617908

  Lattice vectors:

 A1 = (  -3.8483927580,  -6.6656128093,   0.0000000000)
 A2 = (   7.6967864037,   0.0000000000,   0.0000000000)
 A3 = (   0.0000000000,   0.0000000000,  21.2843990326)

Analysis of symmetry for initial positions (statically):
 Subroutine PRICEL returns:
 Original cell was already a primitive cell.

 Routine SETGRP: Setting up the symmetry group for a
 hexagonal supercell.

 Subroutine GETGRP returns: Found  6 space group operations
 (whereof  6 operations were pure point group operations)
 out of a pool of 24 trial point group operations.

The static configuration has the point symmetry C_3v.

Analysis of symmetry for dynamics (positions and initial velocities):
 Subroutine PRICEL returns:
 Original cell was already a primitive cell.

[...]

The dynamic configuration has the point symmetry C_3v.

Analysis of constrained symmetry for selective dynamics:
 Subroutine PRICEL returns:
 Original cell was already a primitive cell.

 Routine SETGRP: Setting up the symmetry group for a
 hexagonal supercell.

 Subroutine GETGRP returns: Found  6 space group operations
 (whereof  6 operations were pure point group operations)
[...]
     24      -4.2120      2.00000
     25      -4.1334      2.00000
     26      -4.0855      2.00000
     27      -4.0598      2.00000
     28      -4.0431      2.00000
     29      -4.0067      2.00000
     30      -3.9963      2.00000
     31      -3.9938      2.00000
     32      -3.9861      2.00000
     33      -3.9528      2.00000
     34      -3.9349      2.00000
     35      -3.8788      2.00000
     36      -3.8583      2.00000
     37      -3.7838      2.00000
     38      -3.6792      2.00000
     39      -3.6583      2.00000
     40      -3.6375      2.00000
     41      -3.6107      2.00000
     42      -3.5948      2.00000
     43      -3.5724      2.00000
     44      -3.5569      2.00000
     45      -3.5488      2.00000
     46      -3.4975      2.00000
     47      -3.3717      2.00000
     48      -3.3380      2.00000
     49      -3.3300      2.00000
     50      -3.3039      2.00000
     51      -3.2731      2.00000
     52      -3.2579      2.00000
     53      -3.2526      2.00000
     54      -3.2496      2.00000
     55      -3.2240      2.00000
     56      -3.2137      2.00000
     57      -3.2060      2.00000
     58      -3.1829      2.00000
     59      -3.1797      2.00000
     60      -3.1714      2.00000
[...]
    238       6.9013      0.00000
    239       6.9120      0.00000
    240       7.0946      0.00000
    241       7.0979      0.00000
    242       7.2763      0.00000
    243       7.3305      0.00000
    244       7.3636      0.00000
    245       7.4591      0.00000
    246       7.5502      0.00000
    247       7.6855      0.00000
    248       7.8583      0.00000
    249       7.9718      0.00000
    250       8.1654      0.00000
    251       8.2299      0.00000
    252       8.4654      0.00000

 soft charge-density along one line, spin component           1
         0         1         2         3         4         5         6         7         8         9
 total charge-density along one line

------------------------ aborting loop because EDIFF is reached ----------------------------------------

 total charge

# of ion       s       p       d       tot
    1        0.448   0.284   9.191   9.922
    2        0.450   0.285   9.188   9.922
    3        0.450   0.285   9.188   9.922
    4        0.450   0.285   9.188   9.922
    5        0.449   0.287   9.182   9.918
    6        0.450   0.285   9.188   9.922
    7        0.450   0.285   9.188   9.922
    8        0.450   0.285   9.188   9.922
    9        0.447   0.283   9.192   9.923
   10        0.440   0.374   9.175   9.990
   11        0.444   0.367   9.183   9.994
   12        0.440   0.374   9.175   9.990
   13        0.444   0.367   9.183   9.994
   14        0.444   0.367   9.183   9.994
   15        0.437   0.373   9.177   9.988
   16        0.440   0.374   9.175   9.990
   17        0.437   0.373   9.177   9.988
   18        0.437   0.373   9.177   9.988
   19        0.443   0.378   9.180  10.002
   20        0.448   0.373   9.179  10.000
   21        0.448   0.373   9.179  10.000
   22        0.438   0.377   9.177   9.993
   23        0.448   0.373   9.179  10.000
   24        0.438   0.377   9.177   9.993
   25        0.443   0.378   9.180  10.002
   26        0.443   0.378   9.180  10.002
   27        0.438   0.377   9.177   9.993
   28        0.454   0.290   9.197   9.942
   29        0.448   0.293   9.194   9.935
   30        0.448   0.293   9.194   9.935
   31        0.448   0.293   9.194   9.935
   32        0.448   0.293   9.194   9.935
   33        0.448   0.293   9.194   9.935
   34        0.448   0.293   9.194   9.935
   35        0.451   0.293   9.197   9.941
   36        0.578   0.565   8.517   9.660
   37        0.488   0.018   0.000   0.505
tot         16.653  12.218 329.983 358.854

  FORCE on cell =-STRESS in cart. coord.  units (eV):
  Direction    XX          YY          ZZ          XY          YZ          ZX
  Alpha Z   868.38191   868.38191   868.38191
  Ewald  174828.14175174828.14133************     0.00037     0.00011     0.00017
  Hartree187847.39609187847.39607************     0.00003     0.00005     0.00007
  E(xc)   -2302.84731 -2302.84684 -2307.12287    -0.00041    -0.00003    -0.00006
  Local  ************************376188.07536     0.01850    -0.00054    -0.00092
  n-local  -765.58227  -749.12766  -770.12378     7.85698    -0.06163     0.18653
  augment  3382.90506  3382.92511  3395.32539    -0.01737     0.00021     0.00039
  Kinetic  3274.41569  3279.53050  3293.46539     3.27218     1.93792    -1.48747
  Fock        0.00000     0.00000     0.00000     0.00000     0.00000     0.00000
  Total      -2.03887    -2.03887     3.64087     0.00000    -0.00000    -0.00000
  in kB      -2.99150    -2.99150     5.34202     0.00000    -0.00000    -0.00000

 VOLUME and BASIS-vectors are now :
  energy-cutoff  :      500.00
  volume of cell :     1091.97
      direct lattice vectors                 reciprocal lattice vectors
     7.696786404  0.000000000  0.000000000     0.129924354 -0.075011849  0.000000000
     3.848392758  6.665612809  0.000000000     0.000000000  0.150023716  0.000000000
     0.000000000  0.000000000 21.284399033     0.000000000  0.000000000  0.046982769

  length of vectors
     7.696786404  7.696786404 21.284399033     0.150023716  0.150023716  0.046982769

 FORCES acting on ions
    electron-ion (+dipol)            ewald-force                    non-local-force                 convergence-correction
   -.413E-04 0.351E-06 0.349E+04   0.579E-04 -.441E-05 -.348E+04   -.224E-17 -.126E-17 -.295E+01   -.259E-03 -.117E-03 -.556E+00
   -.447E+00 -.285E+00 0.349E+04   0.406E+00 0.299E+00 -.348E+04   0.443E-01 0.680E-01 -.205E+01   0.942E-02 -.581E-01 -.441E+00
   0.447E+00 -.285E+00 0.349E+04   -.406E+00 0.299E+00 -.348E+04   -.443E-01 0.680E-01 -.205E+01   -.866E-02 -.555E-01 -.440E+00
   -.470E+00 -.244E+00 0.349E+04   0.462E+00 0.203E+00 -.348E+04   0.810E-01 0.436E-02 -.205E+01   -.456E-01 0.372E-01 -.441E+00
   -.615E-04 -.330E-05 0.348E+04   0.116E-03 -.101E-04 -.348E+04   -.170E-17 0.439E-18 -.156E+01   0.122E-01 0.746E-02 -.176E+00
   0.470E+00 -.244E+00 0.349E+04   -.462E+00 0.202E+00 -.348E+04   -.810E-01 0.436E-02 -.205E+01   0.439E-01 0.385E-01 -.440E+00
   -.233E-01 0.529E+00 0.349E+04   0.555E-01 -.501E+00 -.348E+04   0.367E-01 -.723E-01 -.205E+01   -.524E-01 0.202E-01 -.440E+00
   0.234E-01 0.529E+00 0.349E+04   -.558E-01 -.501E+00 -.348E+04   -.367E-01 -.723E-01 -.205E+01   0.560E-01 0.188E-01 -.440E+00
   -.144E-03 -.328E-04 0.349E+04   0.263E-03 0.205E-04 -.348E+04   -.143E-18 -.364E-17 -.261E+01   -.133E-01 -.687E-02 -.503E+00
   -.231E+01 -.133E+01 0.117E+04   0.257E+01 0.148E+01 -.117E+04   -.304E+00 -.175E+00 -.100E+01   0.519E-01 0.299E-01 -.211E+00
   -.917E-04 -.369E+01 0.117E+04   0.191E-03 0.343E+01 -.116E+04   -.861E-08 0.129E+00 -.552E+00   0.113E-01 0.114E+00 -.118E+00
   0.231E+01 -.133E+01 0.117E+04   -.257E+01 0.148E+01 -.117E+04   0.304E+00 -.175E+00 -.100E+01   -.534E-01 0.319E-01 -.211E+00
   -.320E+01 0.185E+01 0.117E+04   0.297E+01 -.172E+01 -.116E+04   0.112E+00 -.647E-01 -.552E+00   0.105E+00 -.466E-01 -.118E+00
   0.320E+01 0.185E+01 0.117E+04   -.297E+01 -.172E+01 -.116E+04   -.112E+00 -.647E-01 -.552E+00   -.810E-01 -.472E-01 -.118E+00
   -.142E-03 -.157E+01 0.117E+04   0.298E-03 0.136E+01 -.117E+04   -.493E-08 0.741E-01 -.989E+00   -.380E-02 0.124E+00 -.254E+00
   -.921E-04 0.267E+01 0.117E+04   0.186E-03 -.296E+01 -.117E+04   -.234E-07 0.351E+00 -.100E+01   -.159E-04 -.634E-01 -.211E+00
   -.136E+01 0.785E+00 0.117E+04   0.118E+01 -.681E+00 -.117E+04   0.642E-01 -.370E-01 -.989E+00   0.106E+00 -.653E-01 -.254E+00
   0.136E+01 0.785E+00 0.117E+04   -.118E+01 -.682E+00 -.117E+04   -.642E-01 -.370E-01 -.989E+00   -.106E+00 -.628E-01 -.254E+00
   -.587E-04 -.189E+01 -.116E+04   0.690E-04 0.188E+01 0.116E+04   -.284E-09 0.426E-02 0.891E+00   0.955E-02 0.311E-01 -.433E+00
   -.275E+02 -.158E+02 -.119E+04   0.280E+02 0.162E+02 0.119E+04   -.698E+00 -.403E+00 -.253E+00   0.152E+00 0.879E-01 -.488E+00
   0.275E+02 -.158E+02 -.119E+04   -.280E+02 0.162E+02 0.119E+04   0.698E+00 -.403E+00 -.253E+00   -.130E+00 0.904E-01 -.488E+00
   -.131E+02 0.757E+01 -.117E+04   0.129E+02 -.746E+01 0.117E+04   0.142E+00 -.820E-01 0.754E+00   0.765E-01 -.474E-01 -.601E+00
   -.765E-04 0.317E+02 -.119E+04   0.149E-03 -.323E+02 0.119E+04   -.537E-07 0.806E+00 -.253E+00   0.119E-01 -.159E+00 -.488E+00
   0.131E+02 0.757E+01 -.117E+04   -.129E+02 -.746E+01 0.117E+04   -.142E+00 -.820E-01 0.754E+00   -.794E-01 -.467E-01 -.601E+00
   0.164E+01 0.945E+00 -.116E+04   -.163E+01 -.939E+00 0.116E+04   -.369E-02 -.213E-02 0.891E+00   -.906E-02 -.521E-02 -.433E+00
   -.164E+01 0.945E+00 -.116E+04   0.163E+01 -.939E+00 0.116E+04   0.369E-02 -.213E-02 0.891E+00   0.321E-01 -.709E-02 -.433E+00
   -.133E-03 -.151E+02 -.117E+04   0.245E-03 0.149E+02 0.117E+04   -.109E-07 0.164E+00 0.754E+00   -.282E-02 0.899E-01 -.601E+00
   -.220E-04 0.253E-04 -.348E+04   0.425E-04 -.327E-04 0.347E+04   -.131E-16 0.118E-17 0.240E+01   0.117E-03 0.121E-03 0.365E+00
   -.220E+02 -.365E+02 -.348E+04   0.218E+02 0.358E+02 0.347E+04   0.227E+00 0.640E+00 0.250E+01   0.931E-02 0.695E-01 0.202E+00
   0.220E+02 -.365E+02 -.348E+04   -.218E+02 0.358E+02 0.347E+04   -.227E+00 0.640E+00 0.250E+01   -.887E-02 0.721E-01 0.203E+00
   -.426E+02 -.832E+00 -.348E+04   0.419E+02 0.991E+00 0.347E+04   0.667E+00 -.124E+00 0.250E+01   0.649E-01 -.268E-01 0.202E+00
   0.426E+02 -.832E+00 -.348E+04   -.419E+02 0.991E+00 0.347E+04   -.667E+00 -.124E+00 0.250E+01   -.663E-01 -.253E-01 0.202E+00
   -.206E+02 0.373E+02 -.348E+04   0.201E+02 -.368E+02 0.347E+04   0.441E+00 -.516E+00 0.250E+01   0.580E-01 -.437E-01 0.203E+00
   0.206E+02 0.373E+02 -.348E+04   -.201E+02 -.368E+02 0.347E+04   -.441E+00 -.516E+00 0.250E+01   -.543E-01 -.448E-01 0.202E+00
   -.147E-03 -.242E-04 -.348E+04   0.254E-03 0.180E-05 0.348E+04   -.417E-18 0.343E-18 0.254E+01   -.135E-01 -.697E-02 0.407E+00
   -.695E-04 -.504E-04 -.314E+04   0.120E-03 0.255E-04 0.314E+04   -.674E-17 0.174E-17 -.402E+01   0.400E-02 0.242E-02 0.779E-01
   0.416E-05 -.529E-05 -.391E+03   0.321E-05 0.140E-05 0.393E+03   0.547E-19 0.125E-19 -.225E+01   0.121E-03 0.715E-04 0.189E-01
   -.226E-03 -.191E-04 0.173E+02   0.132E-12 0.241E-12 0.853E-11   -.118E-15 0.210E-17 -.920E+01   0.862E-01 0.467E-01 -.811E+01

 POSITION                                       TOTAL-FORCE (eV/Angst)
      0.00000      0.00000      5.37156         0.000000     -0.000000      0.050979
      2.56560      0.00000      5.37156         0.014007      0.025008      0.094811
      5.13119      0.00000      5.37156        -0.014007      0.025008      0.094811
      1.28280      2.22187      5.37156         0.028661     -0.000373      0.094811
      3.84839      2.22187      5.37156         0.000000     -0.000000      0.080920
      6.41399      2.22187      5.37156        -0.028661     -0.000373      0.094811
      2.56560      4.44374      5.37156         0.014654     -0.024634      0.094811
      5.13119      4.44374      5.37156        -0.014654     -0.024634      0.094811
      7.69679      4.44374      5.37156         0.000000     -0.000000      0.057466
      1.28280      0.74062      7.46636         0.006752      0.003899     -0.117794
      3.84839      0.74062      7.46636         0.000000     -0.023717     -0.095028
      6.41399      0.74062      7.46636        -0.006752      0.003899     -0.117794
      2.56560      2.96249      7.46636        -0.020540      0.011859     -0.095028
      5.13119      2.96249      7.46636         0.020540      0.011859     -0.095028
      7.69679      2.96249      7.46636         0.000000     -0.008923     -0.093698
      3.84839      5.18437      7.46636         0.000000     -0.007797     -0.117794
      6.41399      5.18437      7.46636        -0.007727      0.004461     -0.093698
      8.97958      5.18437      7.46636         0.007727      0.004461     -0.093698
      7.69679      1.48223      9.53996        -0.000000      0.016629      0.049325
      2.55948      1.47772      9.53985        -0.012184     -0.007035     -0.176738
      5.13731      1.47772      9.53985         0.012184     -0.007035     -0.176738
      8.98047      3.70261      9.54732         0.027556     -0.015909      0.000099
      3.84839      3.71018      9.53985        -0.000000      0.014069     -0.176738
      6.41310      3.70261      9.54732        -0.027556     -0.015909      0.000099
     10.26153      5.92450      9.53996        -0.014401     -0.008315      0.049325
      5.13204      5.92450      9.53996         0.014401     -0.008315      0.049325
      7.69679      5.92601      9.54732        -0.000000      0.031819      0.000099
      0.00000      0.00000     11.61018         0.000000     -0.000000     -0.026924
      6.39795      6.64100     11.62214         0.019933      0.017674      0.056794
      8.99562      6.64100     11.62214        -0.019933      0.017674      0.056794
      8.95025      2.22029     11.62214         0.025273      0.008425      0.056794
      6.44333      2.22029     11.62214        -0.025273      0.008425      0.056794
     10.24908      4.46994     11.62214         0.005340     -0.026100      0.056794
      5.14449      4.46994     11.62214        -0.005340     -0.026100      0.056794
      7.69679      4.44374     11.61116         0.000000      0.000000     -0.004523
      3.84839      2.22187     11.69545         0.000000     -0.000000      0.283697
      3.84839      2.22187     13.28184         0.000000     -0.000000     -0.049749
    total drift:                                0.085965      0.046728     -0.028893

  FREE ENERGIE OF THE ION-ELECTRON SYSTEM (eV)
  free  energy   TOTEN  =      -131.08769294 eV

  energy  without entropy=     -131.08769294  energy(sigma->0) =     -131.08769294

 stress matrix after NEB project (eV)
     -2.03887      0.00000     -0.00000
      0.00000     -2.03887      0.00000
     -0.00000     -0.00000      3.64087
  FORCES: max atom, RMS     0.049749    0.008179
  FORCE total and by dimension    0.049749    0.049749
  Stress total and by dimension    4.644345    3.640875
|           W    W    AA    RRRRR   N    N  II  N    N   GGGG   !!!           |
|           W    W   A  A   R    R  NN   N  II  NN   N  G    G  !!!           |
|           W    W  A    A  R    R  N N  N  II  N N  N  G       !!!           |
|           W WW W  AAAAAA  RRRRR   N  N N  II  N  N N  G  GGG   !            |
|           WW  WW  A    A  R   R   N   NN  II  N   NN  G    G                |
|           W    W  A    A  R    R  N    N  II  N    N   GGGG   !!!           |
|     Tetrahedron method does not include variations of the Fermi             |
|     occupations, so forces and stress will be inaccurate. We suggest        |
|     using a different smearing scheme ISMEAR = 1 or 2 for metals in         |
|     relaxations.                                                            |

 total charge

# of ion       s       p       d       tot
    1        0.448   0.284   9.191   9.922
    2        0.450   0.285   9.188   9.922
    3        0.450   0.285   9.188   9.922
    4        0.450   0.285   9.188   9.922
    5        0.449   0.287   9.182   9.918
    6        0.450   0.285   9.188   9.922
    7        0.450   0.285   9.188   9.922
    8        0.450   0.285   9.188   9.922
    9        0.447   0.283   9.192   9.923
   10        0.440   0.374   9.175   9.990
   11        0.444   0.367   9.183   9.994
   12        0.440   0.374   9.175   9.990
   13        0.444   0.367   9.183   9.994
   14        0.444   0.367   9.183   9.994
   15        0.437   0.373   9.177   9.988
   16        0.440   0.374   9.175   9.990
   17        0.437   0.373   9.177   9.988
   18        0.437   0.373   9.177   9.988
   19        0.443   0.378   9.180  10.002
   20        0.448   0.373   9.179  10.000
   21        0.448   0.373   9.179  10.000
   22        0.438   0.377   9.177   9.993
   23        0.448   0.373   9.179  10.000
   24        0.438   0.377   9.177   9.993
   25        0.443   0.378   9.180  10.002
   26        0.443   0.378   9.180  10.002
   27        0.438   0.377   9.177   9.993
   28        0.454   0.290   9.197   9.942
   29        0.448   0.293   9.194   9.935
   30        0.448   0.293   9.194   9.935
   31        0.448   0.293   9.194   9.935
   32        0.448   0.293   9.194   9.935
   33        0.448   0.293   9.194   9.935
   34        0.448   0.293   9.194   9.935
   35        0.451   0.293   9.197   9.941
   36        0.578   0.565   8.517   9.660
   37        0.488   0.018   0.000   0.505
tot         16.653  12.218 329.983 358.854

 BZINTS: Fermi energy:    0.058042;  396.000000 electrons
         Band energy:-0.106797E+04;  BLOECHL correction:   -0.060894