 vasp.6.2.0 18Jan21 (build Jun 12 2021 23:27:24) complex

 executed on             LinuxIFC date 2022.05.26  20:20:58

 INCAR:
   ISMEAR = -5
   SIGMA = 0.1
   ISPIN = 1
   EDIFF = 1.d-5
   EDIFFG = -0.01
   NSW = 0
   NELM = 150
   ENCUT = 500
   ISIF = 2
   IBRION = 2
   LREAL = Auto
   ALGO = Fast
   ICHARG = 11
   LORBIT = 10
   LCHARG = .F.
   LWAVE = .F.

 POTCAR:    PAW_PBE Ag 02Apr2005
 POTCAR:    PAW_PBE Rh 04Feb2005
|           W    W    AA    RRRRR   N    N  II  N    N   GGGG   !!!           |
|           W    W   A  A   R    R  NN   N  II  NN   N  G    G  !!!           |
|           W    W  A    A  R    R  N N  N  II  N N  N  G       !!!           |
|           W WW W  AAAAAA  RRRRR   N  N N  II  N  N N  G  GGG   !            |
|           WW  WW  A    A  R   R   N   NN  II  N   NN  G    G                |
|           W    W  A    A  R    R  N    N  II  N    N   GGGG   !!!           |
|     For optimal performance we recommend to set                             |
|       NCORE = 2 up to number-of-cores-per-socket                            |
|     This setting can greatly improve the performance of VASP for DFT.       |
|     The default, NCORE=1 might be grossly inefficient on modern             |
|     multi-core architectures or massively parallel machines. Do your        |
|     Unfortunately you need to use the default for GW and RPA                |
|     calculations (for HF NCORE is supported but not extensively tested      |
|     yet).                                                                   |

 POTCAR:    PAW_PBE Ag 02Apr2005
   VRHFIN =Ag : s1 d10

   TITEL  = PAW_PBE Ag 02Apr2005
   POMASS =  107.868; ZVAL   =   11.000    mass and valenz
   ENMAX  =  249.844; ENMIN  =  187.383 eV

 POTCAR:    PAW_PBE Rh 04Feb2005
   VRHFIN =Rh: s1 d8

   TITEL  = PAW_PBE Rh 04Feb2005
   POMASS =  102.906; ZVAL   =    9.000    mass and valenz
   ENMAX  =  228.996; ENMIN  =  171.747 eV

 Optimization of the real space projectors (new method)

 maximal supplied QI-value         = 15.12
 optimisation between [QCUT,QGAM] = [ 11.34, 22.83] = [ 36.00,145.93] Ry
 Optimized for a Real-space Cutoff    1.43 Angstroem

   l    n(q)    QCUT    max X(q) W(low)/X(q) W(high)/X(q)  e(spline)
   2      9    11.338    53.897    0.16E-03    0.20E-03    0.28E-06
   2      9    11.338    52.416    0.16E-03    0.20E-03    0.29E-06
   0     10    11.338   122.045    0.31E-04    0.76E-04    0.15E-06
   0     10    11.338    73.629    0.30E-04    0.72E-04    0.15E-06
   1      9    11.338    15.255    0.20E-03    0.19E-04    0.17E-06
   1      9    11.338     9.562    0.16E-03    0.15E-04    0.14E-06
 Optimization of the real space projectors (new method)

 maximal supplied QI-value         = 13.98
 optimisation between [QCUT,QGAM] = [ 11.33, 22.79] = [ 35.93,145.49] Ry
 Optimized for a Real-space Cutoff    1.47 Angstroem

   l    n(q)    QCUT    max X(q) W(low)/X(q) W(high)/X(q)  e(spline)
   2      9    11.327    59.645    0.31E-03    0.12E-04    0.28E-06
   2      9    11.327    58.460    0.31E-03    0.12E-04    0.29E-06
   0     10    11.327    97.683    0.32E-04    0.83E-04    0.31E-06
   0     10    11.327    53.223    0.30E-04    0.78E-04    0.29E-06
   1     10    11.327    13.596    0.49E-03    0.95E-03    0.55E-06
   1     10    11.327     7.885    0.36E-03    0.71E-03    0.41E-06
  PAW_PBE Ag 02Apr2005                  :
  PAW_PBE Rh 04Feb2005                  :

 POSCAR: Ag-Rh
  positions in direct lattice
  velocities in cartesian coordinates
 exchange correlation table for  LEXCH =        8
   RHO(1)=    0.500       N(1)  =     2000
   RHO(2)=  100.500       N(2)  =     4000

 VTST: version 3.2, (02/03/18)

 CHAIN: initializing optimizer

 OPT: Using VASP Conjugate-Gradient optimizer
 CHAIN: Read ICHAIN            0

 POSCAR: Ag-Rh
  positions in direct lattice
  velocities in cartesian coordinates

 ion  position               nearest neighbor table
   1  0.000  0.000  0.238-   2 2.93   8 2.93   7 2.93   6 2.93   4 2.93  12 2.93  16 2.93  10 2.93
                             3 2.93
   2  0.333  0.000  0.238-   1 2.93   8 2.93   9 2.93   3 2.93   4 2.93   5 2.93  10 2.93  17 2.93
                            11 2.93
   3  0.667  0.000  0.238-   9 2.93   2 2.93   5 2.93  11 2.93   7 2.93  18 2.93   1 2.93   6 2.93
                            12 2.93
   4  0.000  0.333  0.238-   5 2.93   6 2.93   2 2.93   1 2.93   7 2.93  13 2.93  15 2.93   9 2.93
                            10 2.93
   5  0.333  0.333  0.238-   4 2.93   3 2.93   7 2.93   2 2.93   8 2.93  14 2.93  13 2.93  11 2.93
                             6 2.93
   6  0.667  0.333  0.238-   4 2.93   9 2.93   1 2.93  15 2.93   8 2.93  12 2.93   3 2.93   5 2.93
                            14 2.93
   7  0.000  0.667  0.238-   8 2.93   1 2.93   5 2.93   3 2.93   4 2.93  16 2.93  18 2.93  13 2.93
                             9 2.93
   8  0.333  0.667  0.238-   7 2.93   1 2.93   2 2.93   9 2.93   5 2.93  16 2.93   6 2.93  17 2.93
                            14 2.93
   9  0.667  0.667  0.238-   3 2.93   2 2.93   8 2.93   6 2.93  17 2.93   4 2.93  15 2.93   7 2.93
                            18 2.93
  10  0.111  0.111  0.346-  20 2.90  19 2.93  26 2.93  12 2.93  16 2.93  15 2.93  17 2.93  13 2.93
                            11 2.93   2 2.93   1 2.93   4 2.93
  11  0.444  0.111  0.346-  21 2.90  20 2.90  27 2.92  14 2.93  17 2.93  18 2.93   3 2.93  12 2.93
                            13 2.93  10 2.93   5 2.93   2 2.93
  12  0.778  0.111  0.346-  21 2.90  25 2.93  19 2.93  10 2.93  16 2.93  18 2.93  15 2.93  11 2.93
                             1 2.93  14 2.93   6 2.93   3 2.93
  13  0.111  0.444  0.346-  20 2.90  23 2.90  22 2.92  15 2.93  14 2.93  18 2.93  10 2.93  11 2.93
                            16 2.93   4 2.93   5 2.93   7 2.93
  14  0.444  0.444  0.346-  23 2.90  21 2.90  24 2.92  13 2.93  11 2.93  16 2.93   5 2.93  12 2.93
                            17 2.93   8 2.93  15 2.93   6 2.93
  15  0.778  0.444  0.346-  24 2.92  22 2.92  19 2.92  13 2.93  10 2.93  12 2.93  17 2.93  18 2.93
                             4 2.93   6 2.93   9 2.93  14 2.93
  16  0.111  0.778  0.346-  23 2.90  26 2.93  25 2.93  18 2.93  12 2.93  10 2.93  14 2.93  17 2.93
                            13 2.93   7 2.93   8 2.93   1 2.93
  17  0.444  0.778  0.346-  27 2.92  24 2.92  26 2.92  11 2.93  10 2.93   9 2.93  18 2.93  15 2.93
                            16 2.93   2 2.93  14 2.93   8 2.93
  18  0.778  0.778  0.346-  22 2.92  27 2.92  25 2.92  16 2.93  12 2.93  13 2.93  11 2.93  17 2.93
                            15 2.93   7 2.93   3 2.93   9 2.93
  19  0.889  0.223  0.454-  28 2.91  15 2.92  10 2.93  12 2.93  24 2.93  22 2.93  32 2.93  31 2.93
                            20 2.93  21 2.93  26 2.94  25 2.94
  20  0.222  0.222  0.452-  36 2.78  13 2.90  11 2.90  10 2.90  31 2.91  29 2.91  21 2.92  23 2.92
                            27 2.93  22 2.93  19 2.93  26 2.93
  21  0.555  0.222  0.452-  36 2.78  11 2.90  14 2.90  12 2.90  30 2.91  32 2.91  20 2.92  23 2.92
                            27 2.93  24 2.93  25 2.93  19 2.93
  22  0.889  0.556  0.453-  35 2.90  18 2.92  15 2.92  13 2.92  33 2.92  31 2.92  25 2.93  19 2.93
                            24 2.93  27 2.93  23 2.93  20 2.93
  23  0.222  0.555  0.452-  36 2.78  14 2.90  13 2.90  16 2.90  34 2.91  33 2.91  21 2.92  20 2.92
                            22 2.93  24 2.93  26 2.93  25 2.93
  24  0.556  0.556  0.453-  35 2.90  15 2.92  17 2.92  14 2.92  32 2.92  34 2.92  19 2.93  26 2.93
                            27 2.93  22 2.93  23 2.93  21 2.93
  25  0.889  0.889  0.454-  28 2.91  18 2.92  16 2.93  12 2.93  22 2.93  27 2.93  33 2.93  30 2.93
                            23 2.93  21 2.93  26 2.94  19 2.94
  26  0.223  0.889  0.454-  28 2.91  17 2.92  16 2.93  10 2.93  27 2.93  24 2.93  34 2.93  29 2.93
                            23 2.93  20 2.93  25 2.94  19 2.94
  27  0.556  0.889  0.453-  35 2.90  17 2.92  18 2.92  11 2.92  29 2.92  30 2.92  26 2.93  25 2.93
                            24 2.93  22 2.93  20 2.93  21 2.93
  28  0.000  0.000  0.560-  26 2.91  25 2.91  19 2.91  29 2.95  34 2.95  33 2.95  32 2.95  31 2.95
                            30 2.95
  29  0.333  0.005  0.560-  31 2.88  30 2.89  36 2.89  20 2.91  27 2.92  26 2.93  28 2.95  35 2.95
                            34 3.02
  30  0.662  0.005  0.560-  32 2.88  29 2.89  36 2.89  21 2.91  27 2.92  25 2.93  28 2.95  35 2.95
                            33 3.02
  31  0.005  0.333  0.560-  29 2.88  33 2.89  36 2.89  20 2.91  22 2.92  19 2.93  28 2.95  35 2.95
                            32 3.02
  32  0.662  0.333  0.560-  30 2.88  34 2.89  36 2.89  21 2.91  24 2.92  19 2.93  28 2.95  35 2.95
                            31 3.02
  33  0.005  0.662  0.560-  34 2.88  31 2.89  36 2.89  23 2.91  22 2.92  25 2.93  28 2.95  35 2.95
                            30 3.02
  34  0.333  0.662  0.560-  33 2.88  32 2.89  36 2.89  23 2.91  24 2.92  26 2.93  28 2.95  35 2.95
                            29 3.02
  35  0.667  0.667  0.560-  24 2.90  27 2.90  22 2.90  30 2.95  32 2.95  29 2.95  34 2.95  31 2.95
                            33 2.95
  36  0.333  0.333  0.552-  21 2.78  20 2.78  23 2.78  31 2.89  30 2.89  33 2.89  29 2.89  34 2.89
                            32 2.89

  LATTYP: Found a hexagonal cell.
 ALAT       =     8.7913665772
 C/A-ratio  =     2.5227160501

  Lattice vectors:

 A1 = (  -4.3956832886,  -7.6135467898,   0.0000000000)
 A2 = (   8.7913665771,   0.0000000000,   0.0000000000)
 A3 = (   0.0000000000,   0.0000000000,  22.1781215668)

Analysis of symmetry for initial positions (statically):
 Subroutine PRICEL returns:
 Original cell was already a primitive cell.

 Routine SETGRP: Setting up the symmetry group for a
 hexagonal supercell.

 Subroutine GETGRP returns: Found  6 space group operations
 (whereof  6 operations were pure point group operations)
 out of a pool of 24 trial point group operations.

The static configuration has the point symmetry C_3v.

Analysis of symmetry for dynamics (positions and initial velocities):
 Subroutine PRICEL returns:
 Original cell was already a primitive cell.

[...]

The dynamic configuration has the point symmetry C_3v.

Analysis of constrained symmetry for selective dynamics:
 Subroutine PRICEL returns:
 Original cell was already a primitive cell.

 Routine SETGRP: Setting up the symmetry group for a
 hexagonal supercell.

 Subroutine GETGRP returns: Found  6 space group operations
 (whereof  6 operations were pure point group operations)
 out of a pool of 24 trial point group operations.

The constrained configuration has the point symmetry C_3v.

 Subroutine INISYM returns: Found  6 space group operations
 (whereof  6 operations are pure point group operations),
 and found     1 'primitive' translations

                                     Primitive cell

  volume of cell :    1484.4589

  direct lattice vectors                    reciprocal lattice vectors
     8.791366577  0.000000000  0.000000000     0.113747958 -0.065672414  0.000000000
     4.395683289  7.613546790  0.000000000     0.000000000  0.131344829  0.000000000
[...]
     15      -4.7031      2.00000
     16      -4.6978      2.00000
     17      -4.6660      2.00000
     18      -4.6631      2.00000
     19      -4.6569      2.00000
     20      -4.6556      2.00000
     21      -4.6362      2.00000
     22      -4.6128      2.00000
     23      -4.6023      2.00000
     24      -4.5823      2.00000
     25      -4.5620      2.00000
     26      -4.5440      2.00000
     27      -4.5233      2.00000
     28      -4.5172      2.00000
     29      -4.4908      2.00000
     30      -4.4877      2.00000
     31      -4.4813      2.00000
     32      -4.4475      2.00000
     33      -4.3923      2.00000
     34      -4.3818      2.00000
     35      -4.3490      2.00000
     36      -4.3429      2.00000
     37      -4.3173      2.00000
     38      -4.2925      2.00000
     39      -4.2804      2.00000
     40      -4.2719      2.00000
     41      -4.2507      2.00000
     42      -4.2355      2.00000
     43      -4.1707      2.00000
     44      -4.1429      2.00000
     45      -4.1383      2.00000
     46      -4.1262      2.00000
     47      -4.1172      2.00000
     48      -4.1125      2.00000
     49      -4.1008      2.00000
     50      -4.0909      2.00000
     51      -4.0685      2.00000
     52      -4.0654      2.00000
     53      -4.0044      2.00000
     54      -3.9977      2.00000
     55      -3.9891      2.00000
     56      -3.9800      2.00000
     57      -3.9687      2.00000
     58      -3.9508      2.00000
     59      -3.9139      2.00000
     60      -3.9062      2.00000
[...]
    238       7.2425      0.00000
    239       7.2554      0.00000
    240       7.2598      0.00000
    241       7.3204      0.00000
    242       7.3347      0.00000
    243       7.3864      0.00000
    244       7.4372      0.00000
    245       7.5695      0.00000
    246       7.5943      0.00000
    247       7.6583      0.00000
    248       7.6978      0.00000
    249       7.7674      0.00000
    250       7.9961      0.00000
    251       8.0540      0.00000
    252       8.1570      0.00000

 soft charge-density along one line, spin component           1
         0         1         2         3         4         5         6         7         8         9
 total charge-density along one line

------------------------ aborting loop because EDIFF is reached ----------------------------------------

 total charge

# of ion       s       p       d       tot
    1        0.415   0.204   9.177   9.796
    2        0.419   0.203   9.178   9.799
    3        0.419   0.203   9.178   9.799
    4        0.419   0.203   9.178   9.799
    5        0.413   0.204   9.178   9.795
    6        0.419   0.203   9.178   9.799
    7        0.419   0.203   9.178   9.799
    8        0.419   0.203   9.178   9.799
    9        0.416   0.203   9.178   9.797
   10        0.406   0.270   9.163   9.839
   11        0.408   0.267   9.167   9.842
   12        0.406   0.270   9.163   9.839
   13        0.408   0.267   9.167   9.842
   14        0.408   0.267   9.167   9.842
   15        0.403   0.269   9.166   9.838
   16        0.406   0.270   9.163   9.839
   17        0.403   0.269   9.166   9.838
   18        0.403   0.269   9.166   9.838
   19        0.404   0.267   9.167   9.838
   20        0.414   0.287   9.157   9.858
   21        0.414   0.287   9.157   9.858
   22        0.399   0.273   9.167   9.839
   23        0.414   0.287   9.157   9.858
   24        0.399   0.273   9.167   9.839
   25        0.404   0.267   9.167   9.838
   26        0.404   0.267   9.167   9.838
   27        0.399   0.273   9.167   9.839
   28        0.416   0.197   9.181   9.794
   29        0.417   0.208   9.174   9.799
   30        0.417   0.208   9.174   9.799
   31        0.417   0.208   9.174   9.799
   32        0.417   0.208   9.174   9.799
   33        0.417   0.208   9.174   9.799
   34        0.417   0.208   9.174   9.799
   35        0.409   0.200   9.183   9.791
   36        0.359   0.219   7.517   8.095
tot         14.744   8.583 328.491 351.817

  FORCE on cell =-STRESS in cart. coord.  units (eV):
  Direction    XX          YY          ZZ          XY          YZ          ZX
  Alpha Z   734.67597   734.67597   734.67597
  Ewald  121384.52126121384.52124************     0.00000    -0.00000    -0.00001
  Hartree131552.76880131552.76879************     0.00000    -0.00000    -0.00001
  E(xc)   -2071.87949 -2071.87947 -2077.48918    -0.00002    -0.00000    -0.00000
  Local  ************************264443.03605     0.00021    -0.00004    -0.00005
  n-local  -334.28877  -313.38140  -330.81318    11.44333    -0.38449     0.54611
  augment  3279.08390  3279.08411  3288.79118    -0.00019    -0.00002    -0.00004
  Kinetic  4875.48730  4884.00660  4907.30736     6.08622     0.65321     0.00618
  Fock        0.00000     0.00000     0.00000     0.00000     0.00000     0.00000
  Total      -8.41128    -8.41128     0.32434    -0.00000     0.00000     0.00000
  in kB      -9.07830    -9.07830     0.35006    -0.00000     0.00000     0.00000

 VOLUME and BASIS-vectors are now :
  energy-cutoff  :      500.00
  volume of cell :     1484.46
      direct lattice vectors                 reciprocal lattice vectors
     8.791366577  0.000000000  0.000000000     0.113747958 -0.065672414  0.000000000
     4.395683289  7.613546790  0.000000000     0.000000000  0.131344829  0.000000000
     0.000000000  0.000000000 22.178121567     0.000000000  0.000000000  0.045089481

  length of vectors
     8.791366577  8.791366577 22.178121567     0.131344829  0.131344829  0.045089481

 FORCES acting on ions
    electron-ion (+dipol)            ewald-force                    non-local-force                 convergence-correction
   0.459E-04 -.283E-04 0.250E+04   -.954E-04 0.593E-04 -.250E+04   -.143E-16 -.294E-17 -.218E+01   -.171E-03 -.165E-03 -.234E+00
   0.249E+00 0.398E+00 0.250E+04   -.333E+00 -.345E+00 -.250E+04   0.288E-01 -.403E-01 -.162E+01   0.551E-01 -.355E-02 -.118E+00
   -.249E+00 0.398E+00 0.250E+04   0.333E+00 -.345E+00 -.250E+04   -.288E-01 -.403E-01 -.162E+01   -.556E-01 -.165E-02 -.117E+00
   0.469E+00 0.168E-01 0.250E+04   -.465E+00 -.116E+00 -.250E+04   -.205E-01 0.451E-01 -.162E+01   0.247E-01 0.497E-01 -.118E+00
   -.788E-05 -.199E-04 0.250E+04   0.981E-04 -.199E-05 -.250E+04   -.105E-19 0.162E-18 -.164E+01   0.625E-02 0.382E-02 -.123E+00
   -.469E+00 0.168E-01 0.250E+04   0.465E+00 -.116E+00 -.250E+04   0.205E-01 0.451E-01 -.162E+01   -.261E-01 0.506E-01 -.117E+00
   0.220E+00 -.414E+00 0.250E+04   -.132E+00 0.461E+00 -.250E+04   -.493E-01 -.480E-02 -.162E+01   -.288E-01 -.468E-01 -.117E+00
   -.220E+00 -.414E+00 0.250E+04   0.132E+00 0.461E+00 -.250E+04   0.493E-01 -.480E-02 -.162E+01   0.304E-01 -.479E-01 -.117E+00
   0.364E-04 -.130E-04 0.250E+04   0.792E-04 -.643E-04 -.250E+04   0.260E-17 0.814E-18 -.186E+01   -.661E-02 -.343E-02 -.144E+00
   0.377E+01 0.217E+01 0.827E+03   -.359E+01 -.207E+01 -.827E+03   -.239E+00 -.138E+00 -.763E+00   0.782E-01 0.454E-01 0.105E+00
   -.288E-04 0.344E+01 0.832E+03   0.412E-04 -.355E+01 -.832E+03   0.167E-12 0.254E-01 -.513E+00   0.660E-02 0.509E-01 0.115E+00
   -.377E+01 0.217E+01 0.827E+03   0.359E+01 -.207E+01 -.827E+03   0.239E+00 -.138E+00 -.763E+00   -.801E-01 0.464E-01 0.106E+00
   0.298E+01 -.172E+01 0.832E+03   -.308E+01 0.178E+01 -.832E+03   0.220E-01 -.127E-01 -.513E+00   0.472E-01 -.197E-01 0.115E+00
   -.298E+01 -.172E+01 0.832E+03   0.308E+01 0.178E+01 -.832E+03   -.220E-01 -.127E-01 -.513E+00   -.365E-01 -.211E-01 0.114E+00
   0.160E-04 0.799E+00 0.828E+03   -.108E-03 -.792E+00 -.827E+03   0.913E-13 0.139E-01 -.626E+00   -.170E-02 -.292E-01 0.375E-01
   -.806E-05 -.435E+01 0.827E+03   0.206E-04 0.414E+01 -.827E+03   0.181E-11 0.276E+00 -.763E+00   -.238E-03 -.924E-01 0.105E+00
   0.692E+00 -.400E+00 0.828E+03   -.686E+00 0.396E+00 -.827E+03   0.120E-01 -.695E-02 -.626E+00   -.260E-01 0.131E-01 0.373E-01
   -.692E+00 -.400E+00 0.828E+03   0.686E+00 0.396E+00 -.827E+03   -.120E-01 -.695E-02 -.626E+00   0.265E-01 0.152E-01 0.388E-01
   0.413E-04 0.112E+01 -.870E+03   -.128E-03 -.117E+01 0.869E+03   0.549E-13 0.836E-02 0.504E+00   -.655E-02 0.406E-01 0.838E-01
   0.668E+01 0.386E+01 -.851E+03   -.605E+01 -.349E+01 0.852E+03   -.780E+00 -.451E+00 -.866E+00   0.147E+00 0.857E-01 0.166E+00
   -.668E+01 0.386E+01 -.851E+03   0.605E+01 -.349E+01 0.852E+03   0.780E+00 -.451E+00 -.866E+00   -.146E+00 0.843E-01 0.165E+00
   0.522E+00 -.301E+00 -.863E+03   -.976E+00 0.564E+00 0.862E+03   0.289E+00 -.167E+00 0.484E+00   0.155E+00 -.878E-01 0.873E-01
   -.560E-04 -.772E+01 -.851E+03   0.425E-04 0.699E+01 0.852E+03   0.592E-11 0.901E+00 -.866E+00   -.545E-02 -.177E+00 0.165E+00
   -.522E+00 -.301E+00 -.863E+03   0.976E+00 0.564E+00 0.862E+03   -.289E+00 -.167E+00 0.484E+00   -.154E+00 -.893E-01 0.879E-01
   -.967E+00 -.558E+00 -.870E+03   0.102E+01 0.587E+00 0.869E+03   -.724E-02 -.418E-02 0.504E+00   -.428E-01 -.241E-01 0.839E-01
   0.967E+00 -.558E+00 -.870E+03   -.102E+01 0.587E+00 0.869E+03   0.724E-02 -.418E-02 0.504E+00   0.320E-01 -.250E-01 0.838E-01
   0.198E-04 0.603E+00 -.863E+03   0.110E-03 -.113E+01 0.862E+03   0.219E-11 0.334E+00 0.484E+00   0.988E-03 0.178E+00 0.874E-01
   0.540E-04 -.374E-04 -.252E+04   -.115E-03 0.775E-04 0.252E+04   -.458E-17 0.237E-18 0.204E+01   -.146E-02 -.692E-03 0.257E+00
   -.403E+00 -.361E-01 -.253E+04   0.914E+00 0.792E+00 0.252E+04   -.617E+00 -.880E+00 0.177E+01   0.102E+00 0.119E+00 0.244E+00
   0.403E+00 -.361E-01 -.253E+04   -.914E+00 0.792E+00 0.252E+04   0.617E+00 -.880E+00 0.177E+01   -.919E-01 0.120E+00 0.243E+00
   -.233E+00 -.331E+00 -.253E+04   0.114E+01 0.396E+00 0.252E+04   -.107E+01 -.946E-01 0.177E+01   0.154E+00 0.293E-01 0.244E+00
   0.233E+00 -.331E+00 -.253E+04   -.114E+01 0.396E+00 0.252E+04   0.107E+01 -.946E-01 0.177E+01   -.144E+00 0.296E-01 0.244E+00
   0.170E+00 0.367E+00 -.253E+04   0.228E+00 -.119E+01 0.252E+04   -.453E+00 0.975E+00 0.177E+01   0.580E-01 -.139E+00 0.243E+00
   -.170E+00 0.367E+00 -.253E+04   -.228E+00 -.119E+01 0.252E+04   0.453E+00 0.975E+00 0.177E+01   -.466E-01 -.140E+00 0.244E+00
   0.247E-04 -.131E-04 -.252E+04   0.105E-03 -.656E-04 0.251E+04   0.233E-18 0.110E-18 0.219E+01   -.740E-02 -.398E-02 0.314E+00
   -.205E-04 -.143E-04 -.201E+04   0.860E-04 0.106E-04 0.201E+04   0.697E-17 0.138E-17 0.334E+01   0.180E-02 0.136E-02 0.274E+00
   0.328E-03 -.709E-03 -.245E+00   0.188E-13 0.118E-12 -.296E-11   0.627E-16 -.110E-15 -.260E+01   0.187E-01 0.892E-02 0.288E+01

 POSITION                                       TOTAL-FORCE (eV/Angst)
      0.00000      0.00000      5.28219         0.000000      0.000000      0.060700
      2.93046      0.00000      5.28219         0.000164      0.010046      0.034253
      5.86091      0.00000      5.28219        -0.000164      0.010046      0.034253
      1.46523      2.53785      5.28219         0.008782     -0.004881      0.034253
      4.39568      2.53785      5.28219         0.000000      0.000000      0.016567
      7.32614      2.53785      5.28219        -0.008782     -0.004881      0.034253
      2.93046      5.07570      5.28219         0.008618     -0.005165      0.034253
      5.86091      5.07570      5.28219        -0.008618     -0.005165      0.034253
      8.79137      5.07570      5.28219         0.000000      0.000000      0.038383
      1.46523      0.84595      7.67490         0.020760      0.011986     -0.012071
      4.39568      0.84595      7.67490        -0.000000     -0.033396     -0.085954
      7.32614      0.84595      7.67490        -0.020760      0.011986     -0.012071
      2.93046      3.38380      7.67490        -0.028922      0.016698     -0.085954
      5.86091      3.38380      7.67490         0.028922      0.016698     -0.085954
      8.79137      3.38380      7.67490        -0.000000     -0.008083     -0.000065
      4.39568      5.92165      7.67490        -0.000000     -0.023972     -0.012071
      7.32614      5.92165      7.67490        -0.007001      0.004042     -0.000065
     10.25659      5.92165      7.67490         0.007001      0.004042     -0.000065
      8.79137      1.69615     10.06050        -0.000000     -0.005741     -0.007556
      2.93321      1.69349     10.03240        -0.002553     -0.001474     -0.007369
      5.85816      1.69349     10.03240         0.002553     -0.001474     -0.007369
     10.25564      4.23030     10.05204        -0.011167      0.006447     -0.003844
      4.39568      4.22657     10.03240         0.000000      0.002948     -0.007369
      7.32709      4.23030     10.05204         0.011167      0.006447     -0.003844
     11.71814      6.76547     10.06050         0.004972      0.002871     -0.007556
      5.86459      6.76547     10.06050        -0.004972      0.002871     -0.007556
      8.79137      6.76650     10.05204        -0.000000     -0.012894     -0.003844
      0.00000      0.00000     12.42190        -0.000000      0.000000      0.013908
      2.95118      0.03878     12.42853        -0.008697     -0.007957     -0.000846
      5.84018      0.03878     12.42853         0.008697     -0.007957     -0.000846
      1.50917      2.53641     12.42853        -0.011239     -0.003554     -0.000846
      7.28219      2.53641     12.42853         0.011239     -0.003554     -0.000846
      2.95367      5.03836     12.42853        -0.002542      0.011510     -0.000846
      5.83769      5.03836     12.42853         0.002542      0.011510     -0.000846
      8.79137      5.07570     12.41313         0.000000      0.000000     -0.002011
      4.39568      2.53785     12.23685         0.000000      0.000000      0.022584
    total drift:                                0.019056      0.008208      0.036645

  FREE ENERGIE OF THE ION-ELECTRON SYSTEM (eV)
  free  energy   TOTEN  =       -95.15604926 eV

  energy  without entropy=      -95.15604926  energy(sigma->0) =      -95.15604926

 stress matrix after NEB project (eV)
     -8.41128     -0.00000      0.00000
     -0.00000     -8.41128      0.00000
      0.00000      0.00000      0.32434
  FORCES: max atom, RMS     0.022584    0.008413
  FORCE total and by dimension    0.050475    0.022584
  Stress total and by dimension   11.899762    8.411276
|           W    W    AA    RRRRR   N    N  II  N    N   GGGG   !!!           |
|           W    W   A  A   R    R  NN   N  II  NN   N  G    G  !!!           |
|           W    W  A    A  R    R  N N  N  II  N N  N  G       !!!           |
|           W WW W  AAAAAA  RRRRR   N  N N  II  N  N N  G  GGG   !            |
|           WW  WW  A    A  R   R   N   NN  II  N   NN  G    G                |
|           W    W  A    A  R    R  N    N  II  N    N   GGGG   !!!           |
|     Tetrahedron method does not include variations of the Fermi             |
|     occupations, so forces and stress will be inaccurate. We suggest        |
|     using a different smearing scheme ISMEAR = 1 or 2 for metals in         |
|     relaxations.                                                            |

 total charge

# of ion       s       p       d       tot
    1        0.415   0.204   9.177   9.796
    2        0.419   0.203   9.178   9.799
    3        0.419   0.203   9.178   9.799
    4        0.419   0.203   9.178   9.799
    5        0.413   0.204   9.178   9.795
    6        0.419   0.203   9.178   9.799
    7        0.419   0.203   9.178   9.799
    8        0.419   0.203   9.178   9.799
    9        0.416   0.203   9.178   9.797
   10        0.406   0.270   9.163   9.839
   11        0.408   0.267   9.167   9.842
   12        0.406   0.270   9.163   9.839
   13        0.408   0.267   9.167   9.842
   14        0.408   0.267   9.167   9.842
   15        0.403   0.269   9.166   9.838
   16        0.406   0.270   9.163   9.839
   17        0.403   0.269   9.166   9.838
   18        0.403   0.269   9.166   9.838
   19        0.404   0.267   9.167   9.838
   20        0.414   0.287   9.157   9.858
   21        0.414   0.287   9.157   9.858
   22        0.399   0.273   9.167   9.839
   23        0.414   0.287   9.157   9.858
   24        0.399   0.273   9.167   9.839
   25        0.404   0.267   9.167   9.838
   26        0.404   0.267   9.167   9.838
   27        0.399   0.273   9.167   9.839
   28        0.416   0.197   9.181   9.794
   29        0.417   0.208   9.174   9.799
   30        0.417   0.208   9.174   9.799
   31        0.417   0.208   9.174   9.799
   32        0.417   0.208   9.174   9.799
   33        0.417   0.208   9.174   9.799
   34        0.417   0.208   9.174   9.799
   35        0.409   0.200   9.183   9.791
   36        0.359   0.219   7.517   8.095
tot         14.744   8.583 328.491 351.817

 BZINTS: Fermi energy:    0.817315;  394.000000 electrons
         Band energy:-0.124555E+04;  BLOECHL correction:   -0.053278