 vasp.6.2.0 18Jan21 (build Jun 12 2021 23:27:24) complex

 executed on             LinuxIFC date 2022.05.26  20:17:40

 INCAR:
   ISMEAR = -5
   SIGMA = 0.1
   ISPIN = 1
   EDIFF = 1.d-5
   EDIFFG = -0.01
   NSW = 0
   NELM = 150
   ENCUT = 500
   ISIF = 2
   IBRION = 2
   LREAL = Auto
   ALGO = Fast
   ICHARG = 11
   LORBIT = 10
   LCHARG = .F.
   LWAVE = .F.

 POTCAR:    PAW_PBE Ag 02Apr2005
 POTCAR:    PAW_PBE Ti 08Apr2002
|           W    W    AA    RRRRR   N    N  II  N    N   GGGG   !!!           |
|           W    W   A  A   R    R  NN   N  II  NN   N  G    G  !!!           |
|           W    W  A    A  R    R  N N  N  II  N N  N  G       !!!           |
|           W WW W  AAAAAA  RRRRR   N  N N  II  N  N N  G  GGG   !            |
|           WW  WW  A    A  R   R   N   NN  II  N   NN  G    G                |
|           W    W  A    A  R    R  N    N  II  N    N   GGGG   !!!           |
|     For optimal performance we recommend to set                             |
|       NCORE = 2 up to number-of-cores-per-socket                            |
|     This setting can greatly improve the performance of VASP for DFT.       |
|     The default, NCORE=1 might be grossly inefficient on modern             |
|     multi-core architectures or massively parallel machines. Do your        |
|     Unfortunately you need to use the default for GW and RPA                |
|     calculations (for HF NCORE is supported but not extensively tested      |
|     yet).                                                                   |

 POTCAR:    PAW_PBE Ag 02Apr2005
   VRHFIN =Ag : s1 d10

   TITEL  = PAW_PBE Ag 02Apr2005
   POMASS =  107.868; ZVAL   =   11.000    mass and valenz
   ENMAX  =  249.844; ENMIN  =  187.383 eV

 POTCAR:    PAW_PBE Ti 08Apr2002
   VRHFIN =Ti: d3 s1

   TITEL  = PAW_PBE Ti 08Apr2002
   POMASS =   47.880; ZVAL   =    4.000    mass and valenz
   ENMAX  =  178.330; ENMIN  =  133.747 eV

 Optimization of the real space projectors (new method)

 maximal supplied QI-value         = 15.12
 optimisation between [QCUT,QGAM] = [ 11.34, 22.83] = [ 36.00,145.93] Ry
 Optimized for a Real-space Cutoff    1.43 Angstroem

   l    n(q)    QCUT    max X(q) W(low)/X(q) W(high)/X(q)  e(spline)
   2      9    11.338    53.897    0.16E-03    0.20E-03    0.28E-06
   2      9    11.338    52.416    0.16E-03    0.20E-03    0.29E-06
   0     10    11.338   122.045    0.31E-04    0.76E-04    0.15E-06
   0     10    11.338    73.629    0.30E-04    0.72E-04    0.15E-06
   1      9    11.338    15.255    0.20E-03    0.19E-04    0.17E-06
   1      9    11.338     9.562    0.16E-03    0.15E-04    0.14E-06
 Optimization of the real space projectors (new method)

 maximal supplied QI-value         = 13.42
 optimisation between [QCUT,QGAM] = [ 11.40, 22.81] = [ 36.42,145.68] Ry
 Optimized for a Real-space Cutoff    1.56 Angstroem

   l    n(q)    QCUT    max X(q) W(low)/X(q) W(high)/X(q)  e(spline)
   2     10    11.404    49.363    0.27E-03    0.67E-03    0.76E-06
   2     10    11.404    47.669    0.26E-03    0.65E-03    0.73E-06
   0     11    11.404    26.374    0.17E-03    0.20E-03    0.34E-06
   0     11    11.404    11.549    0.14E-03    0.16E-03    0.29E-06
   1     10    11.404     9.492    0.33E-04    0.56E-04    0.16E-06
  PAW_PBE Ag 02Apr2005                  :
  PAW_PBE Ti 08Apr2002                  :

 POSCAR: Ag-Ti
  positions in direct lattice
  velocities in cartesian coordinates
 exchange correlation table for  LEXCH =        8
   RHO(1)=    0.500       N(1)  =     2000
   RHO(2)=  100.500       N(2)  =     4000

 VTST: version 3.2, (02/03/18)

 CHAIN: initializing optimizer

 OPT: Using VASP Conjugate-Gradient optimizer
 CHAIN: Read ICHAIN            0

 POSCAR: Ag-Ti
  positions in direct lattice
  velocities in cartesian coordinates

 ion  position               nearest neighbor table
   1  0.000  0.000  0.238-   2 2.93   8 2.93   7 2.93   6 2.93   4 2.93  12 2.93  16 2.93  10 2.93
                             3 2.93
   2  0.333  0.000  0.238-   1 2.93   8 2.93   9 2.93   3 2.93   4 2.93   5 2.93  10 2.93  17 2.93
                            11 2.93
   3  0.667  0.000  0.238-   9 2.93   2 2.93   5 2.93  11 2.93   7 2.93  18 2.93   1 2.93   6 2.93
                            12 2.93
   4  0.000  0.333  0.238-   5 2.93   6 2.93   2 2.93   1 2.93   7 2.93  13 2.93  15 2.93   9 2.93
                            10 2.93
   5  0.333  0.333  0.238-   4 2.93   3 2.93   7 2.93   2 2.93   8 2.93  14 2.93  13 2.93  11 2.93
                             6 2.93
   6  0.667  0.333  0.238-   4 2.93   9 2.93   1 2.93  15 2.93   8 2.93  12 2.93   3 2.93   5 2.93
                            14 2.93
   7  0.000  0.667  0.238-   8 2.93   1 2.93   5 2.93   3 2.93   4 2.93  16 2.93  18 2.93  13 2.93
                             9 2.93
   8  0.333  0.667  0.238-   7 2.93   1 2.93   2 2.93   9 2.93   5 2.93  16 2.93   6 2.93  17 2.93
                            14 2.93
   9  0.667  0.667  0.238-   3 2.93   2 2.93   8 2.93   6 2.93  17 2.93   4 2.93  15 2.93   7 2.93
                            18 2.93
  10  0.111  0.111  0.346-  20 2.91  19 2.92  26 2.92  12 2.93  16 2.93  15 2.93  17 2.93  13 2.93
                            11 2.93   2 2.93   1 2.93   4 2.93
  11  0.444  0.111  0.346-  21 2.91  20 2.91  27 2.92  14 2.93  17 2.93  18 2.93   3 2.93  12 2.93
                            13 2.93  10 2.93   5 2.93   2 2.93
  12  0.778  0.111  0.346-  21 2.91  25 2.92  19 2.92  10 2.93  16 2.93  18 2.93  15 2.93  11 2.93
                             1 2.93  14 2.93   6 2.93   3 2.93
  13  0.111  0.444  0.346-  20 2.91  23 2.91  22 2.92  15 2.93  14 2.93  18 2.93  10 2.93  11 2.93
                            16 2.93   4 2.93   5 2.93   7 2.93
  14  0.444  0.444  0.346-  23 2.91  21 2.91  24 2.92  13 2.93  11 2.93  16 2.93   5 2.93  12 2.93
                            17 2.93   8 2.93  15 2.93   6 2.93
  15  0.778  0.444  0.346-  19 2.92  24 2.92  22 2.92  13 2.93  10 2.93  12 2.93  17 2.93  18 2.93
                             4 2.93   6 2.93   9 2.93  14 2.93
  16  0.111  0.778  0.346-  23 2.91  26 2.92  25 2.92  18 2.93  12 2.93  10 2.93  14 2.93  17 2.93
                            13 2.93   7 2.93   8 2.93   1 2.93
  17  0.444  0.778  0.346-  26 2.92  27 2.92  24 2.92  11 2.93  10 2.93   9 2.93  18 2.93  15 2.93
                            16 2.93   2 2.93  14 2.93   8 2.93
  18  0.778  0.778  0.346-  25 2.92  22 2.92  27 2.92  16 2.93  12 2.93  13 2.93  11 2.93  17 2.93
                            15 2.93   7 2.93   3 2.93   9 2.93
  19  0.889  0.222  0.453-  10 2.92  12 2.92  15 2.92  28 2.92  26 2.93  25 2.93  24 2.93  22 2.93
                            20 2.94  21 2.94  32 2.96  31 2.96
  20  0.223  0.223  0.453-  36 2.82  13 2.91  11 2.91  10 2.91  21 2.92  23 2.92  27 2.93  22 2.93
                            19 2.94  26 2.94  31 2.94  29 2.94
  21  0.555  0.223  0.453-  36 2.82  11 2.91  14 2.91  12 2.91  20 2.92  23 2.92  27 2.93  24 2.93
                            25 2.94  19 2.94  30 2.94  32 2.94
  22  0.889  0.556  0.453-  18 2.92  15 2.92  13 2.92  24 2.93  27 2.93  25 2.93  19 2.93  35 2.93
                            23 2.93  20 2.93  33 2.94  31 2.94
  23  0.223  0.555  0.453-  36 2.82  14 2.91  13 2.91  16 2.91  21 2.92  20 2.92  22 2.93  24 2.93
                            26 2.94  25 2.94  34 2.94  33 2.94
  24  0.556  0.556  0.453-  15 2.92  17 2.92  14 2.92  27 2.93  22 2.93  19 2.93  26 2.93  35 2.93
                            23 2.93  21 2.93  32 2.94  34 2.94
  25  0.889  0.889  0.453-  16 2.92  12 2.92  18 2.92  28 2.92  26 2.93  19 2.93  22 2.93  27 2.93
                            23 2.94  21 2.94  33 2.96  30 2.96
  26  0.222  0.889  0.453-  16 2.92  10 2.92  17 2.92  28 2.92  25 2.93  19 2.93  27 2.93  24 2.93
                            23 2.94  20 2.94  34 2.96  29 2.96
  27  0.556  0.889  0.453-  17 2.92  18 2.92  11 2.92  24 2.93  22 2.93  26 2.93  25 2.93  35 2.93
                            20 2.93  21 2.93  29 2.94  30 2.94
  28  0.000  0.000  0.561-  26 2.92  25 2.92  19 2.92  29 2.95  34 2.95  33 2.95  32 2.95  31 2.95
                            30 2.95
  29  0.334  0.004  0.562-  30 2.89  31 2.90  36 2.90  20 2.94  27 2.94  35 2.95  28 2.95  26 2.96
                            34 3.00
  30  0.662  0.004  0.562-  29 2.89  32 2.90  36 2.90  21 2.94  27 2.94  35 2.95  28 2.95  25 2.96
                            33 3.00
  31  0.004  0.334  0.562-  33 2.89  29 2.90  36 2.90  20 2.94  22 2.94  35 2.95  28 2.95  19 2.96
                            32 3.00
  32  0.662  0.334  0.562-  34 2.89  30 2.90  36 2.90  21 2.94  24 2.94  35 2.95  28 2.95  19 2.96
                            31 3.00
  33  0.004  0.662  0.562-  31 2.89  34 2.90  36 2.90  23 2.94  22 2.94  35 2.95  28 2.95  25 2.96
                            30 3.00
  34  0.334  0.662  0.562-  32 2.89  33 2.90  36 2.90  23 2.94  24 2.94  35 2.95  28 2.95  26 2.96
                            29 3.00
  35  0.667  0.667  0.562-  24 2.93  27 2.93  22 2.93  30 2.95  32 2.95  29 2.95  34 2.95  31 2.95
                            33 2.95
  36  0.333  0.333  0.555-  21 2.82  20 2.82  23 2.82  31 2.90  33 2.90  30 2.90  29 2.90  34 2.90
                            32 2.90

  LATTYP: Found a hexagonal cell.
 ALAT       =     8.7913665772
 C/A-ratio  =     2.5227160501

  Lattice vectors:

 A1 = (  -4.3956832886,  -7.6135467898,   0.0000000000)
 A2 = (   8.7913665771,   0.0000000000,   0.0000000000)
 A3 = (   0.0000000000,   0.0000000000,  22.1781215668)

Analysis of symmetry for initial positions (statically):
 Subroutine PRICEL returns:
 Original cell was already a primitive cell.

 Routine SETGRP: Setting up the symmetry group for a
 hexagonal supercell.

 Subroutine GETGRP returns: Found  6 space group operations
 (whereof  6 operations were pure point group operations)
 out of a pool of 24 trial point group operations.

The static configuration has the point symmetry C_3v.

Analysis of symmetry for dynamics (positions and initial velocities):
 Subroutine PRICEL returns:
 Original cell was already a primitive cell.

[...]

The dynamic configuration has the point symmetry C_3v.

Analysis of constrained symmetry for selective dynamics:
 Subroutine PRICEL returns:
 Original cell was already a primitive cell.

 Routine SETGRP: Setting up the symmetry group for a
 hexagonal supercell.

 Subroutine GETGRP returns: Found  6 space group operations
 (whereof  6 operations were pure point group operations)
 out of a pool of 24 trial point group operations.

The constrained configuration has the point symmetry C_3v.

 Subroutine INISYM returns: Found  6 space group operations
 (whereof  6 operations are pure point group operations),
 and found     1 'primitive' translations

                                     Primitive cell

  volume of cell :    1484.4589

  direct lattice vectors                    reciprocal lattice vectors
     8.791366577  0.000000000  0.000000000     0.113747958 -0.065672414  0.000000000
     4.395683289  7.613546790  0.000000000     0.000000000  0.131344829  0.000000000
     0.000000000  0.000000000 22.178121567     0.000000000  0.000000000  0.045089481

  length of vectors
[...]
     15      -4.7506      2.00000
     16      -4.7487      2.00000
     17      -4.7174      2.00000
     18      -4.7148      2.00000
     19      -4.7063      2.00000
     20      -4.7002      2.00000
     21      -4.6871      2.00000
     22      -4.6573      2.00000
     23      -4.6525      2.00000
     24      -4.6393      2.00000
     25      -4.6177      2.00000
     26      -4.5997      2.00000
     27      -4.5712      2.00000
     28      -4.5684      2.00000
     29      -4.5652      2.00000
     30      -4.5510      2.00000
     31      -4.5336      2.00000
     32      -4.5111      2.00000
     33      -4.4896      2.00000
     34      -4.4601      2.00000
     35      -4.4356      2.00000
     36      -4.4205      2.00000
     37      -4.3821      2.00000
     38      -4.3496      2.00000
     39      -4.3445      2.00000
     40      -4.3365      2.00000
     41      -4.3329      2.00000
     42      -4.3149      2.00000
     43      -4.2202      2.00000
     44      -4.1980      2.00000
     45      -4.1943      2.00000
     46      -4.1817      2.00000
     47      -4.1772      2.00000
     48      -4.1712      2.00000
     49      -4.1682      2.00000
     50      -4.1571      2.00000
     51      -4.1488      2.00000
     52      -4.1340      2.00000
     53      -4.0730      2.00000
     54      -4.0641      2.00000
     55      -4.0579      2.00000
     56      -4.0439      2.00000
     57      -4.0338      2.00000
     58      -4.0204      2.00000
     59      -3.9904      2.00000
     60      -3.9691      2.00000
[...]
    238       7.1923      0.00000
    239       7.2042      0.00000
    240       7.2134      0.00000
    241       7.2411      0.00000
    242       7.2670      0.00000
    243       7.2903      0.00000
    244       7.3064      0.00000
    245       7.4963      0.00000
    246       7.5234      0.00000
    247       7.5619      0.00000
    248       7.5923      0.00000
    249       7.5993      0.00000
    250       7.9182      0.00000
    251       7.9430      0.00000
    252       8.0976      0.00000

 soft charge-density along one line, spin component           1
         0         1         2         3         4         5         6         7         8         9
 total charge-density along one line

------------------------ aborting loop because EDIFF is reached ----------------------------------------

 total charge

# of ion       s       p       d       tot
    1        0.422   0.201   9.178   9.800
    2        0.415   0.204   9.178   9.797
    3        0.415   0.204   9.178   9.797
    4        0.415   0.204   9.178   9.797
    5        0.417   0.203   9.176   9.796
    6        0.415   0.204   9.178   9.797
    7        0.415   0.204   9.178   9.797
    8        0.415   0.204   9.178   9.797
    9        0.418   0.202   9.177   9.798
   10        0.411   0.270   9.162   9.842
   11        0.405   0.268   9.169   9.842
   12        0.411   0.270   9.162   9.842
   13        0.405   0.268   9.169   9.842
   14        0.405   0.268   9.169   9.842
   15        0.404   0.269   9.165   9.838
   16        0.411   0.270   9.162   9.842
   17        0.404   0.269   9.165   9.838
   18        0.404   0.269   9.165   9.838
   19        0.404   0.267   9.165   9.835
   20        0.434   0.295   9.136   9.866
   21        0.434   0.295   9.136   9.866
   22        0.397   0.273   9.165   9.835
   23        0.434   0.295   9.136   9.866
   24        0.397   0.273   9.165   9.835
   25        0.404   0.267   9.165   9.835
   26        0.404   0.267   9.165   9.835
   27        0.397   0.273   9.165   9.835
   28        0.411   0.203   9.173   9.786
   29        0.444   0.215   9.151   9.810
   30        0.444   0.215   9.151   9.810
   31        0.444   0.215   9.151   9.810
   32        0.444   0.215   9.151   9.810
   33        0.444   0.215   9.151   9.810
   34        0.444   0.215   9.151   9.810
   35        0.406   0.204   9.175   9.785
   36        0.429   0.373   2.179   2.980
tot         15.020   8.823 322.914 346.757

  FORCE on cell =-STRESS in cart. coord.  units (eV):
  Direction    XX          YY          ZZ          XY          YZ          ZX
  Alpha Z   732.29175   732.29175   732.29175
  Ewald  118352.63947118352.63931************    -0.00003    -0.00001    -0.00003
  Hartree128359.64390128359.64383************    -0.00001    -0.00001    -0.00001
  E(xc)   -2043.43105 -2043.43104 -2049.00104    -0.00001     0.00000     0.00000
  Local  ************************257741.03016     0.00027    -0.00002    -0.00003
  n-local  -323.52536  -305.95501  -319.40347    10.07822    -0.47406     0.56151
  augment  3224.50572  3224.50590  3237.01767    -0.00015     0.00000    -0.00001
  Kinetic  4784.98013  4784.45019  4817.96925     2.75044     0.75129    -0.38069
  Fock        0.00000     0.00000     0.00000     0.00000     0.00000     0.00000
  Total      -9.13448    -9.13448    -0.22143    -0.00000     0.00000     0.00000
  in kB      -9.85885    -9.85885    -0.23899    -0.00000     0.00000     0.00000

 VOLUME and BASIS-vectors are now :
  energy-cutoff  :      500.00
  volume of cell :     1484.46
      direct lattice vectors                 reciprocal lattice vectors
     8.791366577  0.000000000  0.000000000     0.113747958 -0.065672414  0.000000000
     4.395683289  7.613546790  0.000000000     0.000000000  0.131344829  0.000000000
     0.000000000  0.000000000 22.178121567     0.000000000  0.000000000  0.045089481

  length of vectors
     8.791366577  8.791366577 22.178121567     0.131344829  0.131344829  0.045089481

 FORCES acting on ions
    electron-ion (+dipol)            ewald-force                    non-local-force                 convergence-correction
   0.461E-04 -.281E-04 0.247E+04   -.953E-04 0.593E-04 -.247E+04   0.330E-17 0.171E-17 -.180E+01   -.831E-04 -.155E-03 -.481E-01
   -.367E+00 -.456E+00 0.247E+04   0.302E+00 0.351E+00 -.247E+04   0.237E-01 0.111E+00 -.164E+01   0.422E-01 -.757E-02 0.522E-01
   0.367E+00 -.456E+00 0.247E+04   -.301E+00 0.351E+00 -.247E+04   -.237E-01 0.111E+00 -.164E+01   -.428E-01 -.570E-02 0.528E-01
   -.578E+00 -.901E-01 0.247E+04   0.454E+00 0.859E-01 -.247E+04   0.108E+00 -.349E-01 -.164E+01   0.148E-01 0.405E-01 0.522E-01
   -.771E-05 -.198E-04 0.247E+04   0.981E-04 -.200E-05 -.246E+04   -.813E-18 -.148E-18 -.137E+01   0.618E-02 0.378E-02 0.153E+00
   0.578E+00 -.900E-01 0.247E+04   -.454E+00 0.858E-01 -.247E+04   -.108E+00 -.349E-01 -.164E+01   -.161E-01 0.415E-01 0.529E-01
   -.211E+00 0.546E+00 0.247E+04   0.153E+00 -.436E+00 -.247E+04   0.840E-01 -.758E-01 -.164E+01   -.259E-01 -.337E-01 0.528E-01
   0.211E+00 0.546E+00 0.247E+04   -.153E+00 -.437E+00 -.247E+04   -.840E-01 -.758E-01 -.164E+01   0.275E-01 -.346E-01 0.529E-01
   0.365E-04 -.131E-04 0.247E+04   0.791E-04 -.642E-04 -.247E+04   -.148E-17 -.172E-17 -.160E+01   -.663E-02 -.341E-02 0.973E-01
   -.247E+01 -.143E+01 0.783E+03   0.269E+01 0.155E+01 -.783E+03   -.268E+00 -.154E+00 -.713E+00   0.440E-01 0.254E-01 0.242E+00
   -.284E-04 -.317E+01 0.777E+03   0.405E-04 0.301E+01 -.777E+03   0.732E-12 0.111E+00 -.269E+00   0.611E-02 -.739E-03 0.159E+00
   0.247E+01 -.143E+01 0.783E+03   -.269E+01 0.155E+01 -.783E+03   0.268E+00 -.154E+00 -.713E+00   -.453E-01 0.261E-01 0.242E+00
   -.275E+01 0.159E+01 0.777E+03   0.261E+01 -.151E+01 -.777E+03   0.965E-01 -.557E-01 -.269E+00   0.230E-02 0.569E-02 0.159E+00
   0.275E+01 0.159E+01 0.777E+03   -.261E+01 -.151E+01 -.777E+03   -.965E-01 -.557E-01 -.269E+00   0.789E-02 0.480E-02 0.157E+00
   0.151E-04 0.742E-01 0.784E+03   -.107E-03 -.196E+00 -.783E+03   0.237E-12 0.361E-01 -.688E+00   -.131E-02 0.731E-01 0.216E+00
   -.817E-05 0.286E+01 0.783E+03   0.206E-04 -.311E+01 -.783E+03   0.203E-11 0.309E+00 -.713E+00   -.142E-03 -.523E-01 0.242E+00
   0.643E-01 -.371E-01 0.784E+03   -.169E+00 0.977E-01 -.783E+03   0.313E-01 -.181E-01 -.688E+00   0.626E-01 -.377E-01 0.216E+00
   -.643E-01 -.371E-01 0.784E+03   0.169E+00 0.978E-01 -.783E+03   -.313E-01 -.181E-01 -.688E+00   -.625E-01 -.361E-01 0.217E+00
   0.384E-04 -.673E+01 -.905E+03   -.124E-03 0.673E+01 0.904E+03   0.849E-13 0.129E-01 0.697E+00   0.567E-02 -.103E-01 0.375E+00
   -.393E+02 -.227E+02 -.953E+03   0.404E+02 0.233E+02 0.954E+03   -.101E+01 -.580E+00 -.644E+00   -.153E+00 -.882E-01 0.266E+00
   0.393E+02 -.227E+02 -.953E+03   -.404E+02 0.233E+02 0.954E+03   0.101E+01 -.580E+00 -.644E+00   0.151E+00 -.888E-01 0.265E+00
   -.192E+02 0.111E+02 -.910E+03   0.192E+02 -.111E+02 0.910E+03   0.102E+00 -.586E-01 0.400E+00   -.109E+00 0.684E-01 0.268E+00
   -.501E-04 0.453E+02 -.953E+03   0.341E-04 -.467E+02 0.954E+03   0.762E-11 0.116E+01 -.644E+00   -.101E-02 0.176E+00 0.265E+00
   0.192E+02 0.111E+02 -.910E+03   -.192E+02 -.111E+02 0.910E+03   -.102E+00 -.586E-01 0.400E+00   0.119E+00 0.690E-01 0.268E+00
   0.583E+01 0.336E+01 -.905E+03   -.583E+01 -.337E+01 0.904E+03   -.112E-01 -.647E-02 0.697E+00   0.157E-01 0.892E-02 0.374E+00
   -.583E+01 0.336E+01 -.905E+03   0.583E+01 -.337E+01 0.904E+03   0.112E-01 -.647E-02 0.697E+00   -.642E-02 0.996E-02 0.375E+00
   0.191E-04 -.222E+02 -.910E+03   0.110E-03 0.222E+02 0.910E+03   0.770E-12 0.117E+00 0.400E+00   0.424E-02 -.128E+00 0.268E+00
   0.536E-04 -.363E-04 -.250E+04   -.113E-03 0.762E-04 0.249E+04   -.246E-17 -.171E-17 0.167E+01   0.267E-03 0.208E-04 -.817E-01
   -.356E+02 -.681E+02 -.251E+04   0.365E+02 0.694E+02 0.250E+04   -.917E+00 -.129E+01 0.103E+01   0.154E-02 -.200E-01 0.392E-01
   0.356E+02 -.681E+02 -.251E+04   -.365E+02 0.694E+02 0.250E+04   0.917E+00 -.129E+01 0.103E+01   -.253E-02 -.192E-01 0.393E-01
   -.768E+02 0.320E+01 -.251E+04   0.784E+02 -.307E+01 0.250E+04   -.158E+01 -.147E+00 0.103E+01   -.163E-01 0.115E-01 0.392E-01
   0.768E+02 0.320E+01 -.251E+04   -.784E+02 -.307E+01 0.250E+04   0.158E+01 -.147E+00 0.103E+01   0.165E-01 0.124E-01 0.399E-01
   -.412E+02 0.649E+02 -.251E+04   0.419E+02 -.664E+02 0.250E+04   -.663E+00 0.144E+01 0.103E+01   -.175E-01 0.799E-02 0.392E-01
   0.412E+02 0.649E+02 -.251E+04   -.419E+02 -.664E+02 0.250E+04   0.663E+00 0.144E+01 0.103E+01   0.187E-01 0.819E-02 0.399E-01
   0.279E-04 -.146E-04 -.250E+04   0.102E-03 -.645E-04 0.250E+04   0.170E-17 -.345E-17 0.188E+01   -.632E-02 -.322E-02 -.238E-01
   -.247E-04 0.189E-05 -.896E+03   0.380E-04 0.429E-05 0.893E+03   -.112E-18 0.117E-17 0.240E+01   0.183E-03 0.114E-03 0.901E-01
   0.283E-03 -.710E-03 0.864E+00   0.384E-13 -.163E-13 0.466E-11   0.224E-15 0.220E-15 -.610E+01   0.344E-01 0.231E-01 0.531E+01

 POSITION                                       TOTAL-FORCE (eV/Angst)
      0.00000      0.00000      5.28219         0.000000     -0.000000     -0.013915
      2.93046      0.00000      5.28219         0.000999     -0.001051      0.031397
      5.86091      0.00000      5.28219        -0.000999     -0.001051      0.031397
      1.46523      2.53785      5.28219        -0.000410      0.001391      0.031397
      4.39568      2.53785      5.28219         0.000000     -0.000000      0.025695
      7.32614      2.53785      5.28219         0.000410      0.001391      0.031397
      2.93046      5.07570      5.28219        -0.001410     -0.000340      0.031397
      5.86091      5.07570      5.28219         0.001410     -0.000340      0.031397
      8.79137      5.07570      5.28219         0.000000      0.000000      0.002570
      1.46523      0.84595      7.67490        -0.002890     -0.001668     -0.053315
      4.39568      0.84595      7.67490        -0.000000     -0.049854     -0.063609
      7.32614      0.84595      7.67490         0.002890     -0.001668     -0.053315
      2.93046      3.38380      7.67490        -0.043174      0.024927     -0.063609
      5.86091      3.38380      7.67490         0.043174      0.024927     -0.063609
      8.79137      3.38380      7.67490        -0.000000     -0.012335      0.001205
      4.39568      5.92165      7.67490         0.000000      0.003337     -0.053315
      7.32614      5.92165      7.67490        -0.010682      0.006168      0.001205
     10.25659      5.92165      7.67490         0.010682      0.006168      0.001205
      8.79137      1.69074     10.05145         0.000000      0.005577      0.007633
      2.93556      1.69484     10.04095         0.008135      0.004697      0.010555
      5.85581      1.69484     10.04095        -0.008135      0.004697      0.010555
     10.25435      4.23104     10.05745         0.007524     -0.004344      0.006713
      4.39568      4.22386     10.04095        -0.000000     -0.009394      0.010555
      7.32838      4.23104     10.05745        -0.007524     -0.004344      0.006713
     11.72283      6.76818     10.05145        -0.004830     -0.002789      0.007633
      5.85990      6.76818     10.05145         0.004830     -0.002789      0.007633
      8.79137      6.76501     10.05745         0.000000      0.008689      0.006713
      0.00000      0.00000     12.43413         0.000000     -0.000000      0.020126
      2.95009      0.02948     12.45917        -0.004354     -0.006559      0.001182
      5.84128      0.02948     12.45917         0.004354     -0.006559      0.001182
      1.50057      2.54011     12.45917        -0.007857     -0.000491      0.001182
      7.29079      2.54011     12.45917         0.007857     -0.000491      0.001182
      2.94617      5.04396     12.45917        -0.003503      0.007050      0.001182
      5.84520      5.04396     12.45917         0.003503      0.007050      0.001182
      8.79137      5.07570     12.45428         0.000000     -0.000000      0.009436
      4.39568      2.53785     12.30230         0.000000     -0.000000      0.033067
    total drift:                                0.034686      0.022346      0.079864

  FREE ENERGIE OF THE ION-ELECTRON SYSTEM (eV)
  free  energy   TOTEN  =       -95.42538163 eV

  energy  without entropy=      -95.42538163  energy(sigma->0) =      -95.42538163

 stress matrix after NEB project (eV)
     -9.13448     -0.00000      0.00000
     -0.00000     -9.13448      0.00000
     -0.00000      0.00000     -0.22143
  FORCES: max atom, RMS     0.033067    0.009423
  FORCE total and by dimension    0.056538    0.033067
  Stress total and by dimension   12.920007    9.134483
|           W    W    AA    RRRRR   N    N  II  N    N   GGGG   !!!           |
|           W    W   A  A   R    R  NN   N  II  NN   N  G    G  !!!           |
|           W    W  A    A  R    R  N N  N  II  N N  N  G       !!!           |
|           W WW W  AAAAAA  RRRRR   N  N N  II  N  N N  G  GGG   !            |
|           WW  WW  A    A  R   R   N   NN  II  N   NN  G    G                |
|           W    W  A    A  R    R  N    N  II  N    N   GGGG   !!!           |
|     Tetrahedron method does not include variations of the Fermi             |
|     occupations, so forces and stress will be inaccurate. We suggest        |
|     using a different smearing scheme ISMEAR = 1 or 2 for metals in         |
|     relaxations.                                                            |

 total charge

# of ion       s       p       d       tot
    1        0.422   0.201   9.178   9.800
    2        0.415   0.204   9.178   9.797
    3        0.415   0.204   9.178   9.797
    4        0.415   0.204   9.178   9.797
    5        0.417   0.203   9.176   9.796
    6        0.415   0.204   9.178   9.797
    7        0.415   0.204   9.178   9.797
    8        0.415   0.204   9.178   9.797
    9        0.418   0.202   9.177   9.798
   10        0.411   0.270   9.162   9.842
   11        0.405   0.268   9.169   9.842
   12        0.411   0.270   9.162   9.842
   13        0.405   0.268   9.169   9.842
   14        0.405   0.268   9.169   9.842
   15        0.404   0.269   9.165   9.838
   16        0.411   0.270   9.162   9.842
   17        0.404   0.269   9.165   9.838
   18        0.404   0.269   9.165   9.838
   19        0.404   0.267   9.165   9.835
   20        0.434   0.295   9.136   9.866
   21        0.434   0.295   9.136   9.866
   22        0.397   0.273   9.165   9.835
   23        0.434   0.295   9.136   9.866
   24        0.397   0.273   9.165   9.835
   25        0.404   0.267   9.165   9.835
   26        0.404   0.267   9.165   9.835
   27        0.397   0.273   9.165   9.835
   28        0.411   0.203   9.173   9.786
   29        0.444   0.215   9.151   9.810
   30        0.444   0.215   9.151   9.810
   31        0.444   0.215   9.151   9.810
   32        0.444   0.215   9.151   9.810
   33        0.444   0.215   9.151   9.810
   34        0.444   0.215   9.151   9.810
   35        0.406   0.204   9.175   9.785
   36        0.429   0.373   2.179   2.980
tot         15.020   8.823 322.914 346.757

 BZINTS: Fermi energy:    0.852190;  389.000000 electrons
         Band energy:-0.127127E+04;  BLOECHL correction:   -0.019475