 vasp.6.2.0 18Jan21 (build Jun 12 2021 23:27:24) complex

 executed on             LinuxIFC date 2022.05.26  19:44:55

 INCAR:
   ISMEAR = -5
   SIGMA = 0.1
   ISPIN = 1
   EDIFF = 1.d-5
   EDIFFG = -0.01
   NSW = 0
   NELM = 150
   ENCUT = 500
   ISIF = 2
   IBRION = 2
   LREAL = Auto
   ALGO = Fast
   ICHARG = 11
   LORBIT = 10
   LCHARG = .F.
   LWAVE = .F.

 POTCAR:    PAW_PBE Ag 02Apr2005
 POTCAR:    PAW_PBE Zr_sv 04Jan2005
 POTCAR:    PAW_PBE H 15Jun2001
|           W    W    AA    RRRRR   N    N  II  N    N   GGGG   !!!           |
|           W    W   A  A   R    R  NN   N  II  NN   N  G    G  !!!           |
|           W    W  A    A  R    R  N N  N  II  N N  N  G       !!!           |
|           W WW W  AAAAAA  RRRRR   N  N N  II  N  N N  G  GGG   !            |
|           WW  WW  A    A  R   R   N   NN  II  N   NN  G    G                |
|           W    W  A    A  R    R  N    N  II  N    N   GGGG   !!!           |
|     For optimal performance we recommend to set                             |
|       NCORE = 2 up to number-of-cores-per-socket                            |
|     This setting can greatly improve the performance of VASP for DFT.       |
|     The default, NCORE=1 might be grossly inefficient on modern             |
|     multi-core architectures or massively parallel machines. Do your        |
|     Unfortunately you need to use the default for GW and RPA                |
|     calculations (for HF NCORE is supported but not extensively tested      |
|     yet).                                                                   |

 POTCAR:    PAW_PBE Ag 02Apr2005
   VRHFIN =Ag : s1 d10

   TITEL  = PAW_PBE Ag 02Apr2005
   POMASS =  107.868; ZVAL   =   11.000    mass and valenz
   ENMAX  =  249.844; ENMIN  =  187.383 eV

 POTCAR:    PAW_PBE Zr_sv 04Jan2005
   VRHFIN =Zr: 4s4p5s4d

   TITEL  = PAW_PBE Zr_sv 04Jan2005
   POMASS =   91.224; ZVAL   =   12.000    mass and valenz
   ENMAX  =  229.898; ENMIN  =  172.424 eV

 POTCAR:    PAW_PBE H 15Jun2001
   VRHFIN =H: ultrasoft test

   TITEL  = PAW_PBE H 15Jun2001
   POMASS =    1.000; ZVAL   =    1.000    mass and valenz
   ENMAX  =  250.000; ENMIN  =  200.000 eV

 Optimization of the real space projectors (new method)

 maximal supplied QI-value         = 15.12
 optimisation between [QCUT,QGAM] = [ 11.34, 22.83] = [ 36.00,145.93] Ry
 Optimized for a Real-space Cutoff    1.43 Angstroem

   l    n(q)    QCUT    max X(q) W(low)/X(q) W(high)/X(q)  e(spline)
   2      9    11.338    53.897    0.16E-03    0.20E-03    0.28E-06
   2      9    11.338    52.416    0.16E-03    0.20E-03    0.29E-06
   0     10    11.338   122.045    0.31E-04    0.76E-04    0.15E-06
   0     10    11.338    73.629    0.30E-04    0.72E-04    0.15E-06
   1      9    11.338    15.255    0.20E-03    0.19E-04    0.17E-06
   1      9    11.338     9.562    0.16E-03    0.15E-04    0.14E-06
 Optimization of the real space projectors (new method)

[...]

   l    n(q)    QCUT    max X(q) W(low)/X(q) W(high)/X(q)  e(spline)
   0     10    11.338    12.107    0.38E-04    0.13E-04    0.27E-07
   0     10    11.338     9.948    0.69E-04    0.30E-04    0.38E-07
   1     10    11.338     3.563    0.26E-04    0.18E-04    0.40E-07
   1     10    11.338     4.524    0.25E-03    0.39E-04    0.44E-06
   2      9    11.338    87.261    0.26E-03    0.91E-05    0.26E-06
   2      9    11.338    70.950    0.25E-03    0.91E-05    0.25E-06
 Optimization of the real space projectors (new method)

 maximal supplied QI-value         = 34.20
 optimisation between [QCUT,QGAM] = [ 11.29, 22.57] = [ 35.68,142.71] Ry
 Optimized for a Real-space Cutoff    1.16 Angstroem

   l    n(q)    QCUT    max X(q) W(low)/X(q) W(high)/X(q)  e(spline)
   0      8    11.287    19.460    0.40E-03    0.73E-03    0.16E-06
   0      8    11.287    12.209    0.38E-03    0.70E-03    0.15E-06
   1      7    11.287     4.655    0.22E-03    0.25E-04    0.22E-06
  PAW_PBE Ag 02Apr2005                  :
  PAW_PBE Zr_sv 04Jan2005               :
  PAW_PBE H 15Jun2001                   :

 POSCAR: Ag-Zr-H
  positions in direct lattice
  velocities in cartesian coordinates
 exchange correlation table for  LEXCH =        8
   RHO(1)=    0.500       N(1)  =     2000
   RHO(2)=  100.500       N(2)  =     4000

 VTST: version 3.2, (02/03/18)

 CHAIN: initializing optimizer

 OPT: Using VASP Conjugate-Gradient optimizer
 CHAIN: Read ICHAIN            0

 POSCAR: Ag-Zr-H
  positions in direct lattice
  velocities in cartesian coordinates

 ion  position               nearest neighbor table
   1  0.000  0.000  0.238-   2 2.93   8 2.93   7 2.93   6 2.93   4 2.93  12 2.93  16 2.93  10 2.93
                             3 2.93
   2  0.333  0.000  0.238-   1 2.93   8 2.93   9 2.93   3 2.93   4 2.93   5 2.93  10 2.93  17 2.93
                            11 2.93
   3  0.667  0.000  0.238-   9 2.93   2 2.93   5 2.93  11 2.93   7 2.93  18 2.93   1 2.93   6 2.93
                            12 2.93
   4  0.000  0.333  0.238-   5 2.93   6 2.93   2 2.93   1 2.93   7 2.93  13 2.93  15 2.93   9 2.93
                            10 2.93
   5  0.333  0.333  0.238-   4 2.93   3 2.93   7 2.93   2 2.93   8 2.93  14 2.93  13 2.93  11 2.93
                             6 2.93
   6  0.667  0.333  0.238-   4 2.93   9 2.93   1 2.93  15 2.93   8 2.93  12 2.93   3 2.93   5 2.93
                            14 2.93
   7  0.000  0.667  0.238-   8 2.93   1 2.93   5 2.93   3 2.93   4 2.93  16 2.93  18 2.93  13 2.93
                             9 2.93
   8  0.333  0.667  0.238-   7 2.93   1 2.93   2 2.93   9 2.93   5 2.93  16 2.93   6 2.93  17 2.93
                            14 2.93
   9  0.667  0.667  0.238-   3 2.93   2 2.93   8 2.93   6 2.93  17 2.93   4 2.93  15 2.93   7 2.93
                            18 2.93
  10  0.111  0.111  0.346-  20 2.91  19 2.92  26 2.92  12 2.93  16 2.93  15 2.93  17 2.93  13 2.93
                            11 2.93   2 2.93   1 2.93   4 2.93
  11  0.444  0.111  0.346-  21 2.91  20 2.91  14 2.93  17 2.93  18 2.93   3 2.93  12 2.93  13 2.93
                            10 2.93   5 2.93   2 2.93  27 2.93
  12  0.778  0.111  0.346-  21 2.91  25 2.92  19 2.92  10 2.93  16 2.93  18 2.93  15 2.93  11 2.93
                             1 2.93  14 2.93   6 2.93   3 2.93
  13  0.111  0.444  0.346-  20 2.91  23 2.91  15 2.93  14 2.93  18 2.93  10 2.93  11 2.93  16 2.93
                             4 2.93   5 2.93   7 2.93  22 2.93
  14  0.444  0.444  0.346-  23 2.91  21 2.91  13 2.93  11 2.93  16 2.93   5 2.93  12 2.93  17 2.93
                             8 2.93  15 2.93   6 2.93  24 2.93
  15  0.778  0.444  0.346-  19 2.92  13 2.93  10 2.93  12 2.93  17 2.93  18 2.93   4 2.93   6 2.93
                             9 2.93  14 2.93  24 2.93  22 2.93
  16  0.111  0.778  0.346-  23 2.91  26 2.92  25 2.92  18 2.93  12 2.93  10 2.93  14 2.93  17 2.93
                            13 2.93   7 2.93   8 2.93   1 2.93
  17  0.444  0.778  0.346-  26 2.92  11 2.93  10 2.93   9 2.93  18 2.93  15 2.93  16 2.93   2 2.93
                            14 2.93   8 2.93  27 2.93  24 2.93
  18  0.778  0.778  0.346-  25 2.92  16 2.93  12 2.93  13 2.93  11 2.93  17 2.93  15 2.93   7 2.93
                             3 2.93   9 2.93  22 2.93  27 2.93
  19  0.889  0.222  0.453-  10 2.92  12 2.92  15 2.92  26 2.93  25 2.93  20 2.93  21 2.93  24 2.93
                            22 2.93  28 2.93  32 2.97  31 2.97
  20  0.222  0.222  0.453-  13 2.91  11 2.91  10 2.91  36 2.92  21 2.93  23 2.93  27 2.93  22 2.93
                            19 2.93  26 2.93  31 2.97  29 2.97
  21  0.555  0.222  0.453-  11 2.91  14 2.91  12 2.91  36 2.92  20 2.93  23 2.93  27 2.93  24 2.93
                            25 2.93  19 2.93  30 2.97  32 2.97
  22  0.889  0.556  0.454-  24 2.93  27 2.93  23 2.93  20 2.93  18 2.93  15 2.93  13 2.93  25 2.93
                            19 2.93  35 2.94  33 2.95  31 2.95
  23  0.222  0.555  0.453-  14 2.91  13 2.91  16 2.91  36 2.92  21 2.93  20 2.93  22 2.93  24 2.93
                            26 2.93  25 2.93  34 2.97  33 2.97
  24  0.556  0.556  0.454-  27 2.93  22 2.93  23 2.93  21 2.93  15 2.93  17 2.93  14 2.93  19 2.93
                            26 2.93  35 2.94  32 2.95  34 2.95
  25  0.889  0.889  0.453-  16 2.92  12 2.92  18 2.92  26 2.93  19 2.93  23 2.93  21 2.93  22 2.93
                            27 2.93  28 2.93  33 2.97  30 2.97
  26  0.222  0.889  0.453-  16 2.92  10 2.92  17 2.92  25 2.93  19 2.93  23 2.93  20 2.93  27 2.93
                            24 2.93  28 2.93  34 2.97  29 2.97
  27  0.556  0.889  0.454-  24 2.93  22 2.93  20 2.93  21 2.93  17 2.93  18 2.93  11 2.93  26 2.93
                            25 2.93  35 2.94  29 2.95  30 2.95
  28  0.000  0.000  0.561-  29 2.93  34 2.93  33 2.93  32 2.93  31 2.93  30 2.93  26 2.93  25 2.93
                            19 2.93
  29  0.334  0.000  0.563-  30 2.93  36 2.93  35 2.93  31 2.93  28 2.93  34 2.94  27 2.95  26 2.97
                            20 2.97
  30  0.666  0.000  0.563-  29 2.93  36 2.93  35 2.93  32 2.93  28 2.93  33 2.94  27 2.95  25 2.97
                            21 2.97
  31  0.000  0.334  0.563-  33 2.93  36 2.93  35 2.93  29 2.93  28 2.93  32 2.94  22 2.95  19 2.97
                            20 2.97
  32  0.666  0.334  0.563-  34 2.93  36 2.93  35 2.93  30 2.93  28 2.93  31 2.94  24 2.95  19 2.97
                            21 2.97
  33  0.000  0.666  0.563-  31 2.93  36 2.93  35 2.93  34 2.93  28 2.93  30 2.94  22 2.95  25 2.97
                            23 2.97
  34  0.334  0.666  0.563-  32 2.93  36 2.93  35 2.93  33 2.93  28 2.93  29 2.94  24 2.95  26 2.97
                            23 2.97
  35  0.667  0.667  0.563-  30 2.93  29 2.93  32 2.93  34 2.93  31 2.93  33 2.93  24 2.94  27 2.94
                            22 2.94
  36  0.333  0.333  0.560-  37 1.86  21 2.92  20 2.92  23 2.92  31 2.93  33 2.93  30 2.93  29 2.93
                            34 2.93  32 2.93
  37  0.333  0.333  0.644-  36 1.86

  LATTYP: Found a hexagonal cell.
 ALAT       =     8.7913665772
 C/A-ratio  =     2.5227160501

  Lattice vectors:

 A1 = (  -4.3956832886,  -7.6135467898,   0.0000000000)
 A2 = (   8.7913665771,   0.0000000000,   0.0000000000)
 A3 = (   0.0000000000,   0.0000000000,  22.1781215668)

Analysis of symmetry for initial positions (statically):
 Subroutine PRICEL returns:
 Original cell was already a primitive cell.

 Routine SETGRP: Setting up the symmetry group for a
 hexagonal supercell.

 Subroutine GETGRP returns: Found  6 space group operations
 (whereof  6 operations were pure point group operations)
 out of a pool of 24 trial point group operations.

The static configuration has the point symmetry C_3v.

Analysis of symmetry for dynamics (positions and initial velocities):
 Subroutine PRICEL returns:
 Original cell was already a primitive cell.

[...]

The dynamic configuration has the point symmetry C_3v.

Analysis of constrained symmetry for selective dynamics:
 Subroutine PRICEL returns:
 Original cell was already a primitive cell.

 Routine SETGRP: Setting up the symmetry group for a
 hexagonal supercell.

 Subroutine GETGRP returns: Found  6 space group operations
 (whereof  6 operations were pure point group operations)
[...]
     24      -4.7244      2.00000
     25      -4.7141      2.00000
     26      -4.6913      2.00000
     27      -4.6830      2.00000
     28      -4.6689      2.00000
     29      -4.6601      2.00000
     30      -4.6571      2.00000
     31      -4.6245      2.00000
     32      -4.6046      2.00000
     33      -4.5987      2.00000
     34      -4.5807      2.00000
     35      -4.5605      2.00000
     36      -4.5412      2.00000
     37      -4.5321      2.00000
     38      -4.5068      2.00000
     39      -4.4974      2.00000
     40      -4.4526      2.00000
     41      -4.4190      2.00000
     42      -4.3876      2.00000
     43      -4.3826      2.00000
     44      -4.3724      2.00000
     45      -4.3688      2.00000
     46      -4.3520      2.00000
     47      -4.2547      2.00000
     48      -4.2458      2.00000
     49      -4.2370      2.00000
     50      -4.2146      2.00000
     51      -4.2086      2.00000
     52      -4.2036      2.00000
     53      -4.1998      2.00000
     54      -4.1870      2.00000
     55      -4.1830      2.00000
     56      -4.1778      2.00000
     57      -4.1122      2.00000
     58      -4.1055      2.00000
     59      -4.0980      2.00000
     60      -4.0818      2.00000
[...]
    238       6.2773      0.00000
    239       6.3431      0.00000
    240       6.3561      0.00000
    241       6.4333      0.00000
    242       7.2116      0.00000
    243       7.2495      0.00000
    244       7.2878      0.00000
    245       7.3290      0.00000
    246       7.3410      0.00000
    247       7.3935      0.00000
    248       7.4362      0.00000
    249       7.5423      0.00000
    250       7.5871      0.00000
    251       7.6401      0.00000
    252       7.7411      0.00000

 soft charge-density along one line, spin component           1
         0         1         2         3         4         5         6         7         8         9
 total charge-density along one line

------------------------ aborting loop because EDIFF is reached ----------------------------------------

 total charge

# of ion       s       p       d       tot
    1        0.422   0.200   9.178   9.800
    2        0.415   0.204   9.177   9.796
    3        0.415   0.204   9.177   9.796
    4        0.415   0.204   9.177   9.796
    5        0.419   0.202   9.177   9.797
    6        0.415   0.204   9.177   9.796
    7        0.415   0.204   9.177   9.796
    8        0.415   0.204   9.177   9.796
    9        0.417   0.203   9.177   9.797
   10        0.410   0.268   9.163   9.842
   11        0.404   0.268   9.168   9.840
   12        0.410   0.268   9.163   9.842
   13        0.404   0.268   9.168   9.840
   14        0.404   0.268   9.168   9.840
   15        0.403   0.269   9.165   9.836
   16        0.410   0.268   9.163   9.842
   17        0.403   0.269   9.165   9.836
   18        0.403   0.269   9.165   9.836
   19        0.405   0.264   9.167   9.836
   20        0.438   0.289   9.140   9.866
   21        0.438   0.289   9.140   9.866
   22        0.396   0.273   9.163   9.831
   23        0.438   0.289   9.140   9.866
   24        0.396   0.273   9.163   9.831
   25        0.405   0.264   9.167   9.836
   26        0.405   0.264   9.167   9.836
   27        0.396   0.273   9.163   9.831
   28        0.410   0.208   9.171   9.789
   29        0.454   0.218   9.147   9.820
   30        0.454   0.218   9.147   9.820
   31        0.454   0.218   9.147   9.820
   32        0.454   0.218   9.147   9.820
   33        0.454   0.218   9.147   9.820
   34        0.454   0.218   9.147   9.820
   35        0.407   0.210   9.172   9.790
   36        2.213   5.973   1.503   9.689
   37        0.533   0.006   0.000   0.539
tot         17.403  14.425 322.220 354.049

  FORCE on cell =-STRESS in cart. coord.  units (eV):
  Direction    XX          YY          ZZ          XY          YZ          ZX
  Alpha Z   755.95096   755.95096   755.95096
  Ewald  121159.60618121159.60622************     0.00001     0.00000     0.00001
  Hartree131383.32104131383.32105************     0.00000    -0.00000     0.00000
  E(xc)   -2082.75861 -2082.75860 -2088.49227    -0.00001     0.00000     0.00000
  Local  ************************264211.44090     0.00025    -0.00004    -0.00008
  n-local  -332.99630  -315.95268  -331.13351     9.86673    -0.78666     0.74526
  augment  3219.62394  3219.62414  3234.76320    -0.00019    -0.00002    -0.00002
  Kinetic  4993.74109  4996.73718  5038.48080     1.75256     0.88063    -0.33219
  Fock        0.00000     0.00000     0.00000     0.00000     0.00000     0.00000
  Total      -6.70203    -6.70203     0.17463    -0.00000    -0.00000     0.00000
  in kB      -7.23350    -7.23350     0.18848    -0.00000    -0.00000     0.00000

 VOLUME and BASIS-vectors are now :
  energy-cutoff  :      500.00
  volume of cell :     1484.46
      direct lattice vectors                 reciprocal lattice vectors
     8.791366577  0.000000000  0.000000000     0.113747958 -0.065672414  0.000000000
     4.395683289  7.613546790  0.000000000     0.000000000  0.131344829  0.000000000
     0.000000000  0.000000000 22.178121567     0.000000000  0.000000000  0.045089481

  length of vectors
     8.791366577  8.791366577 22.178121567     0.131344829  0.131344829  0.045089481

 FORCES acting on ions
    electron-ion (+dipol)            ewald-force                    non-local-force                 convergence-correction
   0.461E-04 -.281E-04 0.251E+04   -.953E-04 0.593E-04 -.251E+04   -.277E-17 0.322E-18 -.169E+01   -.911E-04 -.161E-03 0.182E+00
   -.149E+00 0.452E+00 0.251E+04   0.778E-01 -.480E+00 -.251E+04   0.307E-01 0.100E+00 -.167E+01   0.380E-01 -.705E-01 0.149E+00
   0.149E+00 0.452E+00 0.251E+04   -.777E-01 -.480E+00 -.251E+04   -.307E-01 0.100E+00 -.167E+01   -.386E-01 -.686E-01 0.150E+00
   0.317E+00 -.355E+00 0.251E+04   -.377E+00 0.307E+00 -.251E+04   0.102E+00 -.235E-01 -.167E+01   -.418E-01 0.683E-01 0.149E+00
   -.781E-05 -.200E-04 0.251E+04   0.981E-04 -.201E-05 -.251E+04   0.194E-17 0.632E-18 -.143E+01   0.616E-02 0.374E-02 0.308E+00
   -.317E+00 -.355E+00 0.251E+04   0.376E+00 0.307E+00 -.251E+04   -.102E+00 -.235E-01 -.167E+01   0.405E-01 0.692E-01 0.150E+00
   0.466E+00 -.971E-01 0.251E+04   -.454E+00 0.172E+00 -.251E+04   0.715E-01 -.767E-01 -.167E+01   -.782E-01 0.147E-02 0.150E+00
   -.466E+00 -.970E-01 0.251E+04   0.454E+00 0.172E+00 -.251E+04   -.715E-01 -.767E-01 -.167E+01   0.798E-01 0.537E-03 0.150E+00
   0.364E-04 -.130E-04 0.251E+04   0.792E-04 -.642E-04 -.251E+04   0.209E-17 0.261E-17 -.163E+01   -.660E-02 -.336E-02 0.105E+00
   0.118E+01 0.682E+00 0.853E+03   -.899E+00 -.519E+00 -.852E+03   -.262E+00 -.151E+00 -.601E+00   -.386E-01 -.225E-01 0.203E+00
   -.284E-04 0.427E+01 0.853E+03   0.409E-04 -.460E+01 -.853E+03   0.117E-11 0.178E+00 -.290E+00   0.618E-02 0.897E-01 0.143E+00
   -.118E+01 0.682E+00 0.853E+03   0.899E+00 -.519E+00 -.852E+03   0.262E+00 -.151E+00 -.601E+00   0.374E-01 -.220E-01 0.202E+00
   0.370E+01 -.213E+01 0.853E+03   -.398E+01 0.230E+01 -.853E+03   0.154E+00 -.888E-01 -.290E+00   0.808E-01 -.395E-01 0.143E+00
   -.370E+01 -.213E+01 0.853E+03   0.398E+01 0.230E+01 -.853E+03   -.154E+00 -.888E-01 -.290E+00   -.708E-01 -.407E-01 0.141E+00
   0.156E-04 -.285E+01 0.848E+03   -.108E-03 0.287E+01 -.848E+03   0.127E-12 0.194E-01 -.645E+00   -.122E-02 -.287E-01 0.151E+00
   -.815E-05 -.136E+01 0.853E+03   0.208E-04 0.104E+01 -.852E+03   0.199E-11 0.302E+00 -.601E+00   -.387E-03 0.434E-01 0.202E+00
   -.246E+01 0.142E+01 0.848E+03   0.248E+01 -.143E+01 -.848E+03   0.168E-01 -.968E-02 -.645E+00   -.256E-01 0.137E-01 0.151E+00
   0.246E+01 0.142E+01 0.848E+03   -.248E+01 -.143E+01 -.848E+03   -.168E-01 -.968E-02 -.645E+00   0.258E-01 0.151E-01 0.152E+00
   0.400E-04 -.295E+01 -.827E+03   -.129E-03 0.292E+01 0.826E+03   0.447E-12 0.681E-01 0.879E+00   0.945E-03 -.572E-01 -.964E-01
   0.144E+02 0.834E+01 -.808E+03   -.136E+02 -.785E+01 0.809E+03   -.900E+00 -.520E+00 -.449E+00   -.706E-01 -.415E-01 -.155E+00
   -.144E+02 0.834E+01 -.808E+03   0.136E+02 -.785E+01 0.809E+03   0.900E+00 -.520E+00 -.449E+00   0.593E-01 -.426E-01 -.155E+00
   0.548E+01 -.316E+01 -.832E+03   -.552E+01 0.319E+01 0.832E+03   0.975E-01 -.563E-01 0.496E+00   -.243E-01 0.213E-01 -.155E+00
   -.540E-04 -.167E+02 -.808E+03   0.447E-04 0.157E+02 0.809E+03   0.682E-11 0.104E+01 -.449E+00   -.678E-02 0.728E-01 -.155E+00
   -.548E+01 -.316E+01 -.832E+03   0.552E+01 0.319E+01 0.832E+03   -.975E-01 -.563E-01 0.496E+00   0.364E-01 0.219E-01 -.154E+00
   0.256E+01 0.148E+01 -.827E+03   -.253E+01 -.146E+01 0.826E+03   -.590E-01 -.340E-01 0.879E+00   0.474E-01 0.280E-01 -.967E-01
   -.256E+01 0.148E+01 -.827E+03   0.253E+01 -.146E+01 0.826E+03   0.590E-01 -.340E-01 0.879E+00   -.380E-01 0.296E-01 -.963E-01
   0.206E-04 0.633E+01 -.832E+03   0.109E-03 -.637E+01 0.832E+03   0.739E-12 0.113E+00 0.496E+00   0.449E-02 -.315E-01 -.155E+00
   0.554E-04 -.353E-04 -.248E+04   -.118E-03 0.780E-04 0.248E+04   -.334E-17 -.849E-18 0.154E+01   0.856E-04 0.118E-03 -.149E+00
   0.152E+02 0.189E+02 -.249E+04   -.143E+02 -.179E+02 0.249E+04   -.828E+00 -.109E+01 0.119E+01   -.915E-01 -.361E-01 -.137E+00
   -.152E+02 0.189E+02 -.249E+04   0.143E+02 -.179E+02 0.249E+04   0.828E+00 -.109E+01 0.119E+01   0.905E-01 -.349E-01 -.137E+00
   0.240E+02 0.369E+01 -.249E+04   -.226E+02 -.345E+01 0.249E+04   -.136E+01 -.173E+00 0.119E+01   -.765E-01 -.612E-01 -.137E+00
   -.240E+02 0.369E+01 -.249E+04   0.226E+02 -.345E+01 0.249E+04   0.136E+01 -.173E+00 0.119E+01   0.762E-01 -.604E-01 -.136E+00
   0.878E+01 -.226E+02 -.249E+04   -.832E+01 0.213E+02 0.249E+04   -.528E+00 0.126E+01 0.119E+01   0.154E-01 0.965E-01 -.137E+00
   -.878E+01 -.226E+02 -.249E+04   0.832E+01 0.213E+02 0.249E+04   0.528E+00 0.126E+01 0.119E+01   -.143E-01 0.963E-01 -.136E+00
   0.212E-04 -.106E-04 -.249E+04   0.105E-03 -.667E-04 0.249E+04   -.756E-17 0.604E-18 0.170E+01   -.627E-02 -.291E-02 -.963E-01
   0.206E-03 -.149E-03 -.264E+04   0.112E-03 0.106E-04 0.265E+04   -.753E-18 -.830E-18 -.209E+01   0.480E-02 0.280E-02 -.111E+00
   0.798E-05 -.532E-05 -.283E+03   0.374E-05 0.433E-07 0.285E+03   0.136E-18 -.605E-19 -.181E+01   0.100E-03 0.582E-04 0.746E-02
   0.548E-03 -.839E-03 0.955E+01   -.480E-13 0.718E-13 0.171E-12   -.230E-15 0.888E-15 -.101E+02   0.203E-01 0.992E-02 0.596E+00

 POSITION                                       TOTAL-FORCE (eV/Angst)
      0.00000      0.00000      5.28219         0.000000     -0.000000     -0.027616
      2.93046      0.00000      5.28219        -0.001992      0.003556      0.036969
      5.86091      0.00000      5.28219         0.001992      0.003556      0.036969
      1.46523      2.53785      5.28219         0.002083     -0.003503      0.036969
      4.39568      2.53785      5.28219         0.000000     -0.000000      0.015130
      7.32614      2.53785      5.28219        -0.002083     -0.003503      0.036969
      2.93046      5.07570      5.28219         0.004075     -0.000053      0.036969
      5.86091      5.07570      5.28219        -0.004075     -0.000053      0.036969
      8.79137      5.07570      5.28219         0.000000     -0.000000      0.012272
      1.46523      0.84595      7.67490        -0.017488     -0.010097     -0.077759
      4.39568      0.84595      7.67490        -0.000000     -0.062363     -0.053038
      7.32614      0.84595      7.67490         0.017488     -0.010097     -0.077759
      2.93046      3.38380      7.67490        -0.054008      0.031182     -0.053038
      5.86091      3.38380      7.67490         0.054008      0.031182     -0.053038
      8.79137      3.38380      7.67490         0.000000      0.009762      0.027935
      4.39568      5.92165      7.67490         0.000000      0.020194     -0.077759
      7.32614      5.92165      7.67490         0.008454     -0.004881      0.027935
     10.25659      5.92165      7.67490        -0.008454     -0.004881      0.027935
      8.79137      1.69022     10.04930        -0.000000     -0.022996      0.011323
      2.93117      1.69231     10.04246        -0.117248     -0.067693     -0.123821
      5.86019      1.69231     10.04246         0.117248     -0.067693     -0.123821
     10.25641      4.22985     10.06824         0.028381     -0.016386      0.026792
      4.39568      4.22892     10.04246         0.000000      0.135387     -0.123821
      7.32632      4.22985     10.06824        -0.028381     -0.016386      0.026792
     11.72328      6.76844     10.04930         0.019915      0.011498      0.011323
      5.85946      6.76844     10.04930        -0.019915      0.011498      0.011323
      8.79137      6.76739     10.06824         0.000000      0.032772      0.026792
      0.00000      0.00000     12.44689         0.000000     -0.000000      0.035988
      2.93311      0.00118     12.48352        -0.035120     -0.078893     -0.080773
      5.85826      0.00118     12.48352         0.035120     -0.078893     -0.080773
      1.46758      2.53956     12.48352        -0.085883      0.009031     -0.080773
      7.32379      2.53956     12.48352         0.085883      0.009031     -0.080773
      2.93015      5.07281     12.48352        -0.050763      0.069861     -0.080773
      5.86121      5.07281     12.48352         0.050763      0.069861     -0.080773
      8.79137      5.07570     12.47551         0.000000     -0.000000      0.022703
      4.39568      2.53785     12.42634         0.000000     -0.000000      0.766101
      4.39568      2.53785     14.28788         0.000000     -0.000000      0.003948
    total drift:                                0.020885      0.009079      0.053339

  FREE ENERGIE OF THE ION-ELECTRON SYSTEM (eV)
  free  energy   TOTEN  =       -99.84478465 eV

  energy  without entropy=      -99.84478465  energy(sigma->0) =      -99.84478465

 stress matrix after NEB project (eV)
     -6.70203     -0.00000      0.00000
     -0.00000     -6.70203      0.00000
      0.00000     -0.00000      0.17463
  FORCES: max atom, RMS     0.003948    0.000649
  FORCE total and by dimension    0.003948    0.003948
  Stress total and by dimension    9.479705    6.702026
|           W    W    AA    RRRRR   N    N  II  N    N   GGGG   !!!           |
|           W    W   A  A   R    R  NN   N  II  NN   N  G    G  !!!           |
|           W    W  A    A  R    R  N N  N  II  N N  N  G       !!!           |
|           W WW W  AAAAAA  RRRRR   N  N N  II  N  N N  G  GGG   !            |
|           WW  WW  A    A  R   R   N   NN  II  N   NN  G    G                |
|           W    W  A    A  R    R  N    N  II  N    N   GGGG   !!!           |
|     Tetrahedron method does not include variations of the Fermi             |
|     occupations, so forces and stress will be inaccurate. We suggest        |
|     using a different smearing scheme ISMEAR = 1 or 2 for metals in         |
|     relaxations.                                                            |

 total charge

# of ion       s       p       d       tot
    1        0.422   0.200   9.178   9.800
    2        0.415   0.204   9.177   9.796
    3        0.415   0.204   9.177   9.796
    4        0.415   0.204   9.177   9.796
    5        0.419   0.202   9.177   9.797
    6        0.415   0.204   9.177   9.796
    7        0.415   0.204   9.177   9.796
    8        0.415   0.204   9.177   9.796
    9        0.417   0.203   9.177   9.797
   10        0.410   0.268   9.163   9.842
   11        0.404   0.268   9.168   9.840
   12        0.410   0.268   9.163   9.842
   13        0.404   0.268   9.168   9.840
   14        0.404   0.268   9.168   9.840
   15        0.403   0.269   9.165   9.836
   16        0.410   0.268   9.163   9.842
   17        0.403   0.269   9.165   9.836
   18        0.403   0.269   9.165   9.836
   19        0.405   0.264   9.167   9.836
   20        0.438   0.289   9.140   9.866
   21        0.438   0.289   9.140   9.866
   22        0.396   0.273   9.163   9.831
   23        0.438   0.289   9.140   9.866
   24        0.396   0.273   9.163   9.831
   25        0.405   0.264   9.167   9.836
   26        0.405   0.264   9.167   9.836
   27        0.396   0.273   9.163   9.831
   28        0.410   0.208   9.171   9.789
   29        0.454   0.218   9.147   9.820
   30        0.454   0.218   9.147   9.820
   31        0.454   0.218   9.147   9.820
   32        0.454   0.218   9.147   9.820
   33        0.454   0.218   9.147   9.820
   34        0.454   0.218   9.147   9.820
   35        0.407   0.210   9.172   9.790
   36        2.213   5.973   1.503   9.689
   37        0.533   0.006   0.000   0.539
tot         17.403  14.425 322.220 354.049

 BZINTS: Fermi energy:    0.829068;  398.000000 electrons
         Band energy:-0.154673E+04;  BLOECHL correction:   -0.040678