 vasp.6.2.0 18Jan21 (build Jun 12 2021 23:27:24) complex

 executed on             LinuxIFC date 2022.05.28  01:10:04

 INCAR:
   ISMEAR = -5
   SIGMA = 0.1
   ISPIN = 1
   EDIFF = 1.d-5
   EDIFFG = -0.01
   NSW = 0
   NELM = 150
   ENCUT = 500
   ISIF = 2
   IBRION = 2
   LREAL = Auto
   ALGO = Fast
   ICHARG = 11
   LORBIT = 10
   LCHARG = .F.
   LWAVE = .F.

 POTCAR:    PAW_PBE Au 04Oct2007
 POTCAR:    PAW_PBE W 08Apr2002
 POTCAR:    PAW_PBE O 08Apr2002
 POTCAR:    PAW_PBE H 15Jun2001
|           W    W    AA    RRRRR   N    N  II  N    N   GGGG   !!!           |
|           W    W   A  A   R    R  NN   N  II  NN   N  G    G  !!!           |
|           W    W  A    A  R    R  N N  N  II  N N  N  G       !!!           |
|           W WW W  AAAAAA  RRRRR   N  N N  II  N  N N  G  GGG   !            |
|           WW  WW  A    A  R   R   N   NN  II  N   NN  G    G                |
|           W    W  A    A  R    R  N    N  II  N    N   GGGG   !!!           |
|     For optimal performance we recommend to set                             |
|       NCORE = 2 up to number-of-cores-per-socket                            |
|     This setting can greatly improve the performance of VASP for DFT.       |
|     The default, NCORE=1 might be grossly inefficient on modern             |
|     multi-core architectures or massively parallel machines. Do your        |
|     Unfortunately you need to use the default for GW and RPA                |
|     calculations (for HF NCORE is supported but not extensively tested      |
|     yet).                                                                   |

 POTCAR:    PAW_PBE Au 04Oct2007
   VRHFIN =Au: s1d10

   TITEL  = PAW_PBE Au 04Oct2007
   POMASS =  196.966; ZVAL   =   11.000    mass and valenz
   ENMAX  =  229.943; ENMIN  =  172.457 eV

 POTCAR:    PAW_PBE W 08Apr2002
   VRHFIN =W : 6s5d

   TITEL  = PAW_PBE W 08Apr2002
   POMASS =  183.850; ZVAL   =    6.000    mass and valenz
   ENMAX  =  223.057; ENMIN  =  167.293 eV

 POTCAR:    PAW_PBE O 08Apr2002
   VRHFIN =O: s2p4

   TITEL  = PAW_PBE O 08Apr2002
   POMASS =   16.000; ZVAL   =    6.000    mass and valenz
   ENMAX  =  400.000; ENMIN  =  300.000 eV

 POTCAR:    PAW_PBE H 15Jun2001
   VRHFIN =H: ultrasoft test

   TITEL  = PAW_PBE H 15Jun2001
   POMASS =    1.000; ZVAL   =    1.000    mass and valenz
   ENMAX  =  250.000; ENMIN  =  200.000 eV

 Optimization of the real space projectors (new method)

 maximal supplied QI-value         = 15.12
 optimisation between [QCUT,QGAM] = [ 11.34, 22.83] = [ 36.00,145.93] Ry
 Optimized for a Real-space Cutoff    1.39 Angstroem

   l    n(q)    QCUT    max X(q) W(low)/X(q) W(high)/X(q)  e(spline)
   2      9    11.338    60.898    0.39E-03    0.42E-03    0.21E-06
   2      9    11.338    58.894    0.40E-03    0.42E-03    0.22E-06
   0      9    11.338   109.617    0.13E-03    0.20E-04    0.13E-06
   0      9    11.338    75.026    0.13E-03    0.20E-04    0.13E-06
   1      9    11.338    16.344    0.33E-04    0.24E-03    0.18E-06
   1      9    11.338    10.160    0.26E-04    0.19E-03    0.15E-06
 Optimization of the real space projectors (new method)

[...]

   l    n(q)    QCUT    max X(q) W(low)/X(q) W(high)/X(q)  e(spline)
   0      7    11.387    20.381    0.39E-03    0.13E-02    0.15E-06
   0      7    11.387    15.268    0.42E-03    0.14E-02    0.17E-06
   1      6    11.387     5.964    0.41E-03    0.11E-02    0.17E-06
   1      6    11.387     5.382    0.39E-03    0.87E-03    0.15E-06
 Optimization of the real space projectors (new method)

 maximal supplied QI-value         = 34.20
 optimisation between [QCUT,QGAM] = [ 11.29, 22.57] = [ 35.68,142.71] Ry
 Optimized for a Real-space Cutoff    1.16 Angstroem

   l    n(q)    QCUT    max X(q) W(low)/X(q) W(high)/X(q)  e(spline)
   0      8    11.287    19.460    0.40E-03    0.73E-03    0.16E-06
   0      8    11.287    12.209    0.38E-03    0.70E-03    0.15E-06
   1      7    11.287     4.655    0.22E-03    0.25E-04    0.22E-06
  PAW_PBE Au 04Oct2007                  :
  PAW_PBE W 08Apr2002                   :
  PAW_PBE O 08Apr2002                   :
  PAW_PBE H 15Jun2001                   :

 POSCAR: Au-W-OOH
  positions in direct lattice
  velocities in cartesian coordinates
 exchange correlation table for  LEXCH =        8
   RHO(1)=    0.500       N(1)  =     2000
   RHO(2)=  100.500       N(2)  =     4000

 VTST: version 3.2, (02/03/18)

 CHAIN: initializing optimizer

 OPT: Using VASP Conjugate-Gradient optimizer
 CHAIN: Read ICHAIN            0

 POSCAR: Au-W-OOH
  positions in direct lattice
  velocities in cartesian coordinates

 ion  position               nearest neighbor table
   1  0.000  0.000  0.204-  16 2.94  12 2.94   6 2.94   8 2.94   7 2.94   3 2.94  10 2.94   4 2.94
                             2 2.94
   2  0.333  0.000  0.204-   9 2.94  11 2.94  17 2.94  10 2.94   8 2.94   4 2.94   5 2.94   1 2.94
                             3 2.94
   3  0.667  0.000  0.204-   7 2.94  18 2.94  12 2.94   1 2.94  11 2.94   5 2.94   6 2.94   9 2.94
                             2 2.94
   4  0.000  0.333  0.204-  10 2.94   6 2.94   5 2.94  13 2.94   2 2.94  15 2.94   9 2.94   1 2.94
                             7 2.94
   5  0.333  0.333  0.204-  13 2.94   7 2.94  11 2.94   4 2.94   2 2.94  14 2.94   3 2.94   8 2.94
                             6 2.94
   6  0.667  0.333  0.204-  15 2.94  14 2.94   1 2.94  12 2.94   4 2.94   9 2.94   8 2.94   3 2.94
                             5 2.94
   7  0.000  0.667  0.204-  18 2.94   3 2.94  16 2.94   5 2.94   1 2.94  13 2.94   8 2.94   4 2.94
                             9 2.94
   8  0.333  0.667  0.204-   9 2.94  17 2.94   1 2.94   2 2.94  14 2.94  16 2.94   6 2.94   7 2.94
                             5 2.94
   9  0.667  0.667  0.204-   2 2.94   8 2.94  17 2.94   6 2.94  15 2.94   4 2.94   3 2.94  18 2.94
                             7 2.94
  10  0.111  0.111  0.296-  20 2.90  11 2.94  17 2.94   2 2.94   4 2.94   1 2.94  12 2.94  16 2.94
                            13 2.94  15 2.94  26 2.96  19 2.96
  11  0.444  0.111  0.296-  20 2.91  21 2.91  13 2.94   2 2.94  10 2.94  17 2.94   5 2.94   3 2.94
                            18 2.94  14 2.94  12 2.94  27 2.94
  12  0.778  0.111  0.296-  21 2.90  16 2.94  18 2.94   1 2.94  14 2.94  15 2.94   3 2.94   6 2.94
                            10 2.94  11 2.94  25 2.96  19 2.96
  13  0.111  0.444  0.296-  23 2.91  20 2.91   5 2.94  18 2.94  11 2.94   7 2.94   4 2.94  16 2.94
                            10 2.94  14 2.94  15 2.94  22 2.94
  14  0.444  0.444  0.296-  21 2.91  23 2.91  15 2.94   6 2.94  12 2.94   8 2.94  17 2.94   5 2.94
                            16 2.94  13 2.94  11 2.94  24 2.94
  15  0.778  0.444  0.296-  24 2.92  22 2.92  14 2.94   6 2.94  17 2.94  12 2.94   9 2.94   4 2.94
                            10 2.94  13 2.94  18 2.94  19 2.95
  16  0.111  0.778  0.296-  23 2.90  18 2.94  12 2.94   7 2.94   1 2.94   8 2.94  13 2.94  10 2.94
                            14 2.94  17 2.94  25 2.96  26 2.96
  17  0.444  0.778  0.296-  27 2.92  24 2.92   9 2.94  15 2.94   2 2.94  10 2.94  11 2.94   8 2.94
                            14 2.94  16 2.94  18 2.94  26 2.95
  18  0.778  0.778  0.296-  22 2.92  27 2.92  16 2.94   7 2.94  13 2.94  12 2.94   3 2.94  11 2.94
                             9 2.94  15 2.94  17 2.94  25 2.95
  19  0.888  0.224  0.390-  24 2.93  22 2.93  21 2.93  20 2.93  28 2.94  15 2.95  26 2.96  25 2.96
                            10 2.96  12 2.96  32 3.04  31 3.04
  20  0.222  0.222  0.387-  36 2.74  10 2.90  11 2.91  13 2.91  26 2.93  19 2.93  23 2.95  21 2.95
                            27 2.96  22 2.96  29 2.98  31 2.98
  21  0.557  0.222  0.387-  36 2.74  12 2.90  14 2.91  11 2.91  25 2.93  19 2.93  20 2.95  23 2.95
                            27 2.96  24 2.96  30 2.98  32 2.98
  22  0.886  0.557  0.388-  24 2.90  27 2.90  18 2.92  15 2.92  25 2.93  19 2.93  13 2.94  35 2.95
                            23 2.96  20 2.96  33 3.02  31 3.02
  23  0.222  0.557  0.387-  36 2.74  16 2.90  13 2.91  14 2.91  25 2.93  26 2.93  20 2.95  21 2.95
                            22 2.96  24 2.96  33 2.98  34 2.98
  24  0.557  0.557  0.388-  27 2.90  22 2.90  15 2.92  17 2.92  26 2.93  19 2.93  14 2.94  35 2.95
                            21 2.96  23 2.96  32 3.02  34 3.02
  25  0.888  0.888  0.390-  22 2.93  27 2.93  23 2.93  21 2.93  28 2.94  18 2.95  19 2.96  26 2.96
                            16 2.96  12 2.96  33 3.04  30 3.04
  26  0.224  0.888  0.390-  27 2.93  24 2.93  20 2.93  23 2.93  28 2.94  17 2.95  19 2.96  25 2.96
                            10 2.96  16 2.96  29 3.04  34 3.04
  27  0.557  0.886  0.388-  24 2.90  22 2.90  17 2.92  18 2.92  26 2.93  25 2.93  11 2.94  35 2.95
                            20 2.96  21 2.96  29 3.02  30 3.02
  28  0.000  0.000  0.482-  25 2.94  19 2.94  26 2.94  34 3.00  32 3.00  33 3.00  30 3.00  31 3.00
                            29 3.00
  29  0.334  0.013  0.484-  30 2.82  31 2.82  36 2.84  20 2.98  35 3.00  28 3.00  27 3.02  26 3.04
                            34 3.17
  30  0.653  0.013  0.484-  29 2.82  32 2.82  36 2.84  21 2.98  35 3.00  28 3.00  27 3.02  25 3.04
                            33 3.17
  31  0.013  0.334  0.484-  38 2.25  33 2.82  29 2.82  36 2.84  20 2.98  35 3.00  28 3.00  22 3.02
                            19 3.04  32 3.17
  32  0.653  0.334  0.484-  38 2.25  34 2.82  30 2.82  36 2.84  21 2.98  35 3.00  28 3.00  24 3.02
                            19 3.04  31 3.17
  33  0.013  0.653  0.484-  31 2.82  34 2.82  36 2.84  23 2.98  35 3.00  28 3.00  22 3.02  25 3.04
                            30 3.17
  34  0.334  0.653  0.484-  32 2.82  33 2.82  36 2.84  23 2.98  35 3.00  28 3.00  24 3.02  26 3.04
                            29 3.17
  35  0.667  0.667  0.482-  24 2.95  27 2.95  22 2.95  29 3.00  34 3.00  32 3.00  31 3.00  30 3.00
                            33 3.00
  36  0.333  0.333  0.470-  37 1.73  20 2.74  23 2.74  21 2.74  33 2.84  31 2.84  29 2.84  30 2.84
                            34 2.84  32 2.84
  37  0.332  0.337  0.537-  36 1.73
  38  0.838  0.323  0.546-  39 0.98  31 2.25  32 2.25
  39  0.782  0.436  0.564-  38 0.98

  LATTYP: Found a hexagonal cell.
 ALAT       =     8.8135128021
 C/A-ratio  =     2.9412617888

  Lattice vectors:

 A1 = (  -4.4067569092,  -7.6327256898,   0.0000000000)
 A2 = (   8.8135128021,   0.0000000000,   0.0000000000)
 A3 = (   0.0000000000,   0.0000000000,  25.9228484302)

Analysis of symmetry for initial positions (statically):
 Subroutine PRICEL returns:
 Original cell was already a primitive cell.

 Routine SETGRP: Setting up the symmetry group for a
 hexagonal supercell.

 Subroutine GETGRP returns: Found  1 space group operations
 (whereof  1 operations were pure point group operations)
 out of a pool of 24 trial point group operations.

The static configuration has the point symmetry C_1 .

Analysis of symmetry for dynamics (positions and initial velocities):
 Subroutine PRICEL returns:
 Original cell was already a primitive cell.

[...]

The dynamic configuration has the point symmetry C_1 .

Analysis of constrained symmetry for selective dynamics:
 Subroutine PRICEL returns:
[...]
     41      -5.4372      2.00000
     42      -5.3702      2.00000
     43      -5.3310      2.00000
     44      -5.2980      2.00000
     45      -5.2308      2.00000
     46      -5.2059      2.00000
     47      -5.1700      2.00000
     48      -5.1024      2.00000
     49      -5.0841      2.00000
     50      -5.0389      2.00000
     51      -5.0245      2.00000
     52      -4.9967      2.00000
     53      -4.9800      2.00000
     54      -4.9687      2.00000
     55      -4.9547      2.00000
     56      -4.9245      2.00000
     57      -4.8994      2.00000
     58      -4.8700      2.00000
     59      -4.8517      2.00000
     60      -4.8362      2.00000
[...]
    238       5.2398      0.00000
    239       5.4252      0.00000
    240       5.6328      0.00000
    241       5.6518      0.00000
    242       5.6723      0.00000
    243       5.7167      0.00000
    244       5.7698      0.00000
    245       5.9373      0.00000
    246       5.9721      0.00000
    247       6.0436      0.00000
    248       6.0785      0.00000
    249       6.2233      0.00000
    250       6.3783      0.00000
    251       6.4529      0.00000
    252       6.4724      0.00000

 soft charge-density along one line, spin component           1
         0         1         2         3         4         5         6         7         8         9
 total charge-density along one line

------------------------ aborting loop because EDIFF is reached ----------------------------------------

 total charge

# of ion       s       p       d       tot
    1        0.548   0.238   8.766   9.551
    2        0.543   0.241   8.763   9.547
    3        0.543   0.241   8.763   9.547
    4        0.543   0.241   8.764   9.548
    5        0.545   0.240   8.763   9.548
    6        0.543   0.241   8.764   9.548
    7        0.542   0.242   8.763   9.547
    8        0.542   0.242   8.763   9.547
    9        0.542   0.241   8.764   9.547
   10        0.524   0.305   8.773   9.602
   11        0.513   0.314   8.775   9.602
   12        0.524   0.306   8.773   9.602
   13        0.521   0.309   8.777   9.608
   14        0.521   0.309   8.777   9.608
   15        0.514   0.310   8.773   9.597
   16        0.521   0.306   8.773   9.600
   17        0.516   0.308   8.773   9.598
   18        0.516   0.308   8.773   9.598
   19        0.519   0.292   8.778   9.589
   20        0.561   0.353   8.730   9.644
   21        0.561   0.353   8.730   9.644
   22        0.508   0.308   8.775   9.591
   23        0.577   0.341   8.736   9.654
   24        0.508   0.308   8.775   9.591
   25        0.514   0.292   8.778   9.584
   26        0.514   0.292   8.778   9.584
   27        0.510   0.307   8.776   9.593
   28        0.532   0.212   8.781   9.525
   29        0.567   0.248   8.754   9.569
   30        0.567   0.248   8.754   9.569
   31        0.547   0.303   8.715   9.564
   32        0.546   0.303   8.715   9.564
   33        0.569   0.248   8.752   9.569
   34        0.569   0.248   8.753   9.569
   35        0.532   0.221   8.782   9.535
   36        0.662   0.688   4.106   5.456
   37        1.609   3.306   0.000   4.915
   38        1.579   3.423   0.000   5.002
   39        0.616   0.118   0.000   0.734
tot         23.230  17.355 310.809 351.395

  FORCE on cell =-STRESS in cart. coord.  units (eV):
  Direction    XX          YY          ZZ          XY          YZ          ZX
  Alpha Z   898.04490   898.04490   898.04490
  Ewald  174702.09966174527.72577************     0.01960    33.15185    -0.03782
  Hartree183035.32364182885.09036************     0.00138     2.92642    -0.23013
  E(xc)   -1816.69510 -1816.87458 -1824.64082    -0.00005     0.15145    -0.00350
  Local  ************************369893.48220    -0.01756   -25.64400     0.30610
  n-local  -107.45327  -106.28137   -79.86986     0.00212    -0.22764     0.01594
  augment  2382.42683  2382.67744  2398.98694    -0.00008    -0.69741    -0.00349
  Kinetic  5698.55862  5691.48564  5729.35336     0.00064   -10.15529    -0.05722
  Fock        0.00000     0.00000     0.00000     0.00000     0.00000     0.00000
  Total     -19.03048   -16.00931     0.94323     0.00605    -0.49461    -0.01012
  in kB     -17.48433   -14.70861     0.86660     0.00556    -0.45443    -0.00929

 VOLUME and BASIS-vectors are now :
  energy-cutoff  :      500.00
  volume of cell :     1743.86
      direct lattice vectors                 reciprocal lattice vectors
     8.813512802  0.000000000  0.000000000     0.113462137 -0.065507406  0.000000000
     4.406756909  7.632725690  0.000000000     0.000000000  0.131014796  0.000000000
     0.000000000  0.000000000 25.922848430     0.000000000  0.000000000  0.038576008

  length of vectors
     8.813512802  8.813512802 25.922848430     0.131014796  0.131014796  0.038576008

 FORCES acting on ions
    electron-ion (+dipol)            ewald-force                    non-local-force                 convergence-correction
   0.921E-03 0.185E+00 0.278E+04   0.379E-03 -.225E+00 -.278E+04   0.246E-03 0.354E-02 -.655E+00   -.166E-02 0.268E-01 -.287E+00
   0.594E+00 0.151E+00 0.278E+04   -.687E+00 -.279E+00 -.278E+04   0.427E-01 0.763E-01 -.395E+00   0.491E-01 0.473E-01 -.258E+00
   -.595E+00 0.141E+00 0.278E+04   0.687E+00 -.280E+00 -.278E+04   -.429E-01 0.760E-01 -.395E+00   -.473E-01 0.591E-01 -.256E+00
   0.311E+00 0.598E+00 0.278E+04   -.389E+00 -.572E+00 -.278E+04   0.458E-01 -.452E-01 -.242E+00   0.424E-01 0.228E-01 -.295E+00
   -.150E-01 0.364E-01 0.278E+04   -.597E-03 -.565E-02 -.278E+04   0.398E-03 -.115E-01 -.346E+00   0.153E-01 -.170E-01 -.229E+00
   -.300E+00 0.593E+00 0.278E+04   0.390E+00 -.573E+00 -.278E+04   -.462E-01 -.447E-01 -.243E+00   -.530E-01 0.279E-01 -.290E+00
   -.343E+00 -.761E+00 0.278E+04   0.294E+00 0.852E+00 -.278E+04   0.566E-01 -.231E-01 -.327E+00   -.187E-01 -.674E-01 -.278E+00
   0.334E+00 -.754E+00 0.278E+04   -.295E+00 0.852E+00 -.278E+04   -.566E-01 -.231E-01 -.327E+00   0.288E-01 -.746E-01 -.275E+00
   0.141E-01 -.205E+00 0.278E+04   0.508E-03 0.230E+00 -.278E+04   0.716E-04 0.934E-02 -.426E+00   -.149E-01 -.278E-01 -.235E+00
   0.651E+01 0.574E+01 0.967E+03   -.635E+01 -.555E+01 -.966E+03   -.301E+00 -.233E+00 -.582E+00   0.830E-01 0.266E-01 -.149E+00
   -.732E-02 0.373E+01 0.972E+03   -.372E-02 -.375E+01 -.972E+03   -.989E-04 0.544E-03 -.228E+00   0.114E-01 -.101E-01 -.120E+00
   -.651E+01 0.574E+01 0.967E+03   0.635E+01 -.556E+01 -.966E+03   0.302E+00 -.234E+00 -.584E+00   -.903E-01 0.371E-01 -.151E+00
   0.135E+01 -.209E+01 0.973E+03   -.167E+01 0.212E+01 -.973E+03   0.201E+00 0.944E-02 -.394E+00   0.395E-01 -.671E-02 -.114E+00
   -.137E+01 -.209E+01 0.973E+03   0.166E+01 0.213E+01 -.973E+03   -.200E+00 0.868E-02 -.394E+00   -.160E-01 -.789E-02 -.114E+00
   0.952E-02 0.458E+01 0.974E+03   0.469E-02 -.473E+01 -.973E+03   -.201E-03 0.183E-01 -.399E+00   -.141E-01 0.621E-01 -.151E+00
   -.414E-02 -.833E+01 0.965E+03   -.817E-03 0.806E+01 -.964E+03   0.186E-03 0.411E+00 -.476E+00   0.491E-02 -.711E-01 -.161E+00
   0.495E+01 -.365E+01 0.971E+03   -.516E+01 0.364E+01 -.970E+03   0.347E-01 0.294E-01 -.427E+00   0.769E-01 -.212E-01 -.138E+00
   -.495E+01 -.365E+01 0.971E+03   0.516E+01 0.364E+01 -.970E+03   -.349E-01 0.289E-01 -.427E+00   -.814E-01 -.955E-02 -.140E+00
   -.240E-01 0.114E+02 -.862E+03   0.273E-01 -.116E+02 0.861E+03   0.408E-07 -.814E-01 0.547E+00   -.341E-02 0.166E+00 0.357E+00
   -.495E+01 0.511E+01 -.833E+03   0.567E+01 -.490E+01 0.833E+03   -.110E+01 -.385E+00 -.768E+00   0.131E+00 0.115E+00 0.432E+00
   0.497E+01 0.512E+01 -.833E+03   -.569E+01 -.492E+01 0.833E+03   0.110E+01 -.386E+00 -.767E+00   -.127E+00 0.127E+00 0.429E+00
   -.156E+02 -.477E+01 -.850E+03   0.150E+02 0.507E+01 0.849E+03   0.660E+00 -.305E+00 0.608E+00   -.165E-01 -.261E-01 0.358E+00
   0.188E-01 -.632E+01 -.839E+03   -.309E-01 0.543E+01 0.839E+03   0.932E-03 0.130E+01 -.939E+00   0.117E-01 -.189E+00 0.412E+00
   0.156E+02 -.479E+01 -.850E+03   -.150E+02 0.510E+01 0.849E+03   -.661E+00 -.306E+00 0.609E+00   -.406E-02 -.249E-01 0.354E+00
   -.108E+01 0.332E+01 -.888E+03   0.118E+01 -.321E+01 0.886E+03   0.118E+00 0.335E-01 0.823E+00   -.117E+00 -.566E-01 0.314E+00
   0.107E+01 0.330E+01 -.888E+03   -.118E+01 -.318E+01 0.886E+03   -.118E+00 0.330E-01 0.823E+00   0.125E+00 -.649E-01 0.318E+00
   0.184E-01 -.126E+02 -.864E+03   -.611E-02 0.122E+02 0.863E+03   0.176E-04 0.542E+00 0.803E+00   -.125E-01 -.167E-01 0.302E+00
   -.448E-01 0.748E+02 -.262E+04   0.365E-01 -.764E+02 0.261E+04   0.149E-02 0.104E+01 0.129E+01   0.667E-02 0.872E-01 0.375E+00
   0.116E+02 0.648E+02 -.266E+04   -.109E+02 -.639E+02 0.265E+04   -.103E+01 -.162E+01 0.356E+00   0.117E+00 0.157E+00 0.253E+00
   -.115E+02 0.651E+02 -.266E+04   0.109E+02 -.641E+02 0.265E+04   0.103E+01 -.161E+01 0.360E+00   -.131E+00 0.165E+00 0.255E+00
   -.675E+02 0.198E+01 -.254E+04   0.701E+02 -.180E+01 0.254E+04   -.250E+01 -.289E+00 0.114E+01   0.146E+00 0.655E-01 0.297E+00
   0.670E+02 0.198E+01 -.254E+04   -.696E+02 -.181E+01 0.254E+04   0.249E+01 -.289E+00 0.115E+01   -.164E+00 0.723E-01 0.290E+00
   0.922E+01 -.693E+02 -.265E+04   -.895E+01 0.684E+02 0.265E+04   -.550E+00 0.166E+01 0.351E+00   0.794E-02 -.250E+00 0.253E+00
   -.918E+01 -.696E+02 -.265E+04   0.892E+01 0.687E+02 0.265E+04   0.546E+00 0.165E+01 0.357E+00   -.106E-01 -.251E+00 0.247E+00
   -.311E-01 -.753E+02 -.261E+04   0.385E-01 0.767E+02 0.261E+04   0.191E-02 -.784E+00 0.656E+00   -.998E-02 -.822E-01 0.270E+00
   0.402E+00 0.297E+01 -.120E+04   -.406E+00 -.298E+01 0.120E+04   -.198E-02 -.729E-01 -.223E+00   0.409E-02 0.423E-02 0.172E+00
   0.254E+00 0.100E+01 -.179E+04   -.188E+00 -.574E+00 0.182E+04   -.735E-01 -.424E+00 -.328E+02   0.225E-02 -.167E-02 -.250E+00
   -.397E-01 0.456E+02 -.179E+04   0.213E-01 -.813E+02 0.179E+04   0.130E-01 0.356E+02 0.125E+01   0.656E-02 0.415E-01 -.104E-01
   -.219E-01 -.721E+02 -.330E+03   0.224E-01 0.792E+02 0.334E+03   -.109E-02 -.703E+01 -.396E+01   0.264E-03 -.101E-01 -.818E-02
   0.968E-01 -.284E+02 0.338E+02   -.117E-12 0.000E+00 0.136E-10   -.711E-01 0.284E+02 -.355E+02   -.229E-01 0.244E-01 0.178E+01

 POSITION                                       TOTAL-FORCE (eV/Angst)
      0.00000      0.00000      5.28038        -0.000188     -0.009474     -0.144400
      2.93784      0.00000      5.28038        -0.002022     -0.004351     -0.037582
      5.87568      0.00000      5.28038         0.001997     -0.004257     -0.037525
      1.46892      2.54424      5.28038         0.009762      0.002974     -0.067390
      4.40676      2.54424      5.28038        -0.000045      0.001792     -0.091370
      7.34459      2.54424      5.28038        -0.009716      0.002825     -0.067323
      2.93784      5.08848      5.28038        -0.010838     -0.000483     -0.051232
      5.87568      5.08848      5.28038         0.010791     -0.000194     -0.051216
      8.81351      5.08848      5.28038        -0.000335      0.006716     -0.062728
      1.46892      0.84808      7.67911        -0.057221     -0.017223      0.091485
      4.40676      0.84808      7.67911         0.000162     -0.032392      0.094668
      7.34459      0.84808      7.67911         0.056866     -0.017100      0.091881
      2.93784      3.39232      7.67911        -0.076626      0.041224      0.006057
      5.87568      3.39232      7.67911         0.077065      0.041133      0.006022
      8.81351      3.39232      7.67911        -0.000201     -0.074814      0.132887
      4.40676      5.93656      7.67911         0.000069      0.066657      0.120076
      7.34459      5.93656      7.67911        -0.090792      0.006057      0.129828
     10.28243      5.93656      7.67911         0.090592      0.006163      0.129713
      8.81351      1.70807     10.10081        -0.000111     -0.133127     -0.016731
      2.93151      1.69251     10.04012        -0.257067     -0.063568     -0.057577
      5.88200      1.69251     10.04012         0.255194     -0.062646     -0.054897
     10.26425      4.25090     10.06644         0.047284     -0.026095      0.022968
      4.40676      4.24770     10.04012         0.000421      0.219734     -0.180881
      7.36277      4.25090     10.06644        -0.047842     -0.026017      0.023348
     11.74104      6.77869     10.10081         0.100938      0.083441     -0.015868
      5.88599      6.77869     10.10081        -0.100939      0.083474     -0.016038
      8.81351      6.76365     10.06644        -0.000350      0.070915     -0.009712
      0.00000      0.00000     12.49922        -0.000213     -0.536047     -0.344730
      2.99894      0.10048     12.55446        -0.201082     -0.529446     -0.312646
      5.81457      0.10048     12.55446         0.201925     -0.532669     -0.313743
      1.58649      2.54692     12.55446         0.203692     -0.049476     -0.111159
      7.22703      2.54692     12.55446        -0.194857     -0.049343     -0.112965
      2.99430      4.98533     12.55446        -0.271612      0.535031     -0.338536
      5.81921      4.98533     12.55446         0.272276      0.538618     -0.339797
      8.81351      5.08848     12.49869        -0.000687      0.544474     -0.222565
      4.40676      2.54424     12.18560        -0.001528     -0.084187      2.247294
      4.41109      2.57479     13.91872        -0.005516      0.002257     -0.005792
      8.81407      2.46728     14.15323         0.001140     -0.015430     -0.031027
      8.81420      3.32999     14.61576        -0.000384      0.014852     -0.000795
    total drift:                                0.002789      0.018522      0.061271

  FREE ENERGIE OF THE ION-ELECTRON SYSTEM (eV)
  free  energy   TOTEN  =      -135.02250028 eV

  energy  without entropy=     -135.02250028  energy(sigma->0) =     -135.02250028

 stress matrix after NEB project (eV)
    -19.03048      0.00605     -0.01012
      0.00605    -16.00931     -0.49461
     -0.01012     -0.49461      0.94323
  FORCES: max atom, RMS     0.034671    0.006186
  FORCE total and by dimension    0.038633    0.031027
  Stress total and by dimension   24.896513   19.030482
|           W    W    AA    RRRRR   N    N  II  N    N   GGGG   !!!           |
|           W    W   A  A   R    R  NN   N  II  NN   N  G    G  !!!           |
|           W    W  A    A  R    R  N N  N  II  N N  N  G       !!!           |
|           W WW W  AAAAAA  RRRRR   N  N N  II  N  N N  G  GGG   !            |
|           WW  WW  A    A  R   R   N   NN  II  N   NN  G    G                |
|           W    W  A    A  R    R  N    N  II  N    N   GGGG   !!!           |
|     Tetrahedron method does not include variations of the Fermi             |
|     occupations, so forces and stress will be inaccurate. We suggest        |
|     using a different smearing scheme ISMEAR = 1 or 2 for metals in         |
|     relaxations.                                                            |

 total charge

# of ion       s       p       d       tot
    1        0.548   0.238   8.766   9.551
    2        0.543   0.241   8.763   9.547
    3        0.543   0.241   8.763   9.547
    4        0.543   0.241   8.764   9.548
    5        0.545   0.240   8.763   9.548
    6        0.543   0.241   8.764   9.548
    7        0.542   0.242   8.763   9.547
    8        0.542   0.242   8.763   9.547
    9        0.542   0.241   8.764   9.547
   10        0.524   0.305   8.773   9.602
   11        0.513   0.314   8.775   9.602
   12        0.524   0.306   8.773   9.602
   13        0.521   0.309   8.777   9.608
   14        0.521   0.309   8.777   9.608
   15        0.514   0.310   8.773   9.597
   16        0.521   0.306   8.773   9.600
   17        0.516   0.308   8.773   9.598
   18        0.516   0.308   8.773   9.598
   19        0.519   0.292   8.778   9.589
   20        0.561   0.353   8.730   9.644
   21        0.561   0.353   8.730   9.644
   22        0.508   0.308   8.775   9.591
   23        0.577   0.341   8.736   9.654
   24        0.508   0.308   8.775   9.591
   25        0.514   0.292   8.778   9.584
   26        0.514   0.292   8.778   9.584
   27        0.510   0.307   8.776   9.593
   28        0.532   0.212   8.781   9.525
   29        0.567   0.248   8.754   9.569
   30        0.567   0.248   8.754   9.569
   31        0.547   0.303   8.715   9.564
   32        0.546   0.303   8.715   9.564
   33        0.569   0.248   8.752   9.569
   34        0.569   0.248   8.753   9.569
   35        0.532   0.221   8.782   9.535
   36        0.662   0.688   4.106   5.456
   37        1.609   3.306   0.000   4.915
   38        1.579   3.423   0.000   5.002
   39        0.616   0.118   0.000   0.734
tot         23.230  17.355 310.809 351.395

 BZINTS: Fermi energy:   -0.099994;  404.000000 electrons
         Band energy:-0.163326E+04;  BLOECHL correction:   -0.049820