 vasp.6.2.0 18Jan21 (build Jun 12 2021 23:27:24) complex

 executed on             LinuxIFC date 2022.05.26  19:59:42

 INCAR:
   ISMEAR = -5
   SIGMA = 0.1
   ISPIN = 1
   EDIFF = 1.d-5
   EDIFFG = -0.01
   NSW = 0
   NELM = 150
   ENCUT = 500
   ISIF = 2
   IBRION = 2
   LREAL = Auto
   ALGO = Fast
   ICHARG = 11
   LORBIT = 10
   LCHARG = .F.
   LWAVE = .F.

 POTCAR:    PAW_PBE Cu 22Jun2005
 POTCAR:    PAW_PBE Co 02Aug2007
 POTCAR:    PAW_PBE O 08Apr2002
|           W    W    AA    RRRRR   N    N  II  N    N   GGGG   !!!           |
|           W    W   A  A   R    R  NN   N  II  NN   N  G    G  !!!           |
|           W    W  A    A  R    R  N N  N  II  N N  N  G       !!!           |
|           W WW W  AAAAAA  RRRRR   N  N N  II  N  N N  G  GGG   !            |
|           WW  WW  A    A  R   R   N   NN  II  N   NN  G    G                |
|           W    W  A    A  R    R  N    N  II  N    N   GGGG   !!!           |
|     For optimal performance we recommend to set                             |
|       NCORE = 2 up to number-of-cores-per-socket                            |
|     This setting can greatly improve the performance of VASP for DFT.       |
|     The default, NCORE=1 might be grossly inefficient on modern             |
|     multi-core architectures or massively parallel machines. Do your        |
|     Unfortunately you need to use the default for GW and RPA                |
|     calculations (for HF NCORE is supported but not extensively tested      |
|     yet).                                                                   |

 POTCAR:    PAW_PBE Cu 22Jun2005
   VRHFIN =Cu: d10 p1

   TITEL  = PAW_PBE Cu 22Jun2005
   POMASS =   63.546; ZVAL   =   11.000    mass and valenz
   ENMAX  =  295.446; ENMIN  =  221.585 eV

 POTCAR:    PAW_PBE Co 02Aug2007
   VRHFIN =Co: d8 s1

   TITEL  = PAW_PBE Co 02Aug2007
   POMASS =   58.933; ZVAL   =    9.000    mass and valenz
   ENMAX  =  267.968; ENMIN  =  200.976 eV

 POTCAR:    PAW_PBE O 08Apr2002
   VRHFIN =O: s2p4

   TITEL  = PAW_PBE O 08Apr2002
   POMASS =   16.000; ZVAL   =    6.000    mass and valenz
   ENMAX  =  400.000; ENMIN  =  300.000 eV

 Optimization of the real space projectors (new method)

 maximal supplied QI-value         = 16.25
 optimisation between [QCUT,QGAM] = [ 11.38, 22.75] = [ 36.24,144.96] Ry
 Optimized for a Real-space Cutoff    1.52 Angstroem

   l    n(q)    QCUT    max X(q) W(low)/X(q) W(high)/X(q)  e(spline)
   2      9    11.376     4.610    0.21E-03    0.10E-03    0.26E-06
   2      9    11.376     8.522    0.33E-03    0.16E-03    0.37E-06
   0     10    11.376    51.609    0.62E-04    0.20E-04    0.13E-06
   0     10    11.376    27.747    0.54E-04    0.20E-04    0.13E-06
   1     10    11.376    20.408    0.13E-04    0.99E-04    0.19E-06
   1     10    11.376    13.425    0.12E-04    0.87E-04    0.17E-06
 Optimization of the real space projectors (new method)

[...]

   l    n(q)    QCUT    max X(q) W(low)/X(q) W(high)/X(q)  e(spline)
   2      8    11.376    65.824    0.20E-03    0.32E-04    0.13E-06
   2      8    11.376    61.429    0.20E-03    0.33E-04    0.14E-06
   0      9    11.376    56.174    0.76E-04    0.11E-03    0.19E-06
   0      9    11.376    31.263    0.69E-04    0.99E-04    0.17E-06
   1      9    11.376    19.828    0.35E-03    0.11E-03    0.12E-06
   1      9    11.376    15.139    0.29E-03    0.94E-04    0.10E-06
 Optimization of the real space projectors (new method)

 maximal supplied QI-value         = 24.76
 optimisation between [QCUT,QGAM] = [ 11.39, 22.77] = [ 36.31,145.25] Ry
 Optimized for a Real-space Cutoff    1.00 Angstroem

   l    n(q)    QCUT    max X(q) W(low)/X(q) W(high)/X(q)  e(spline)
   0      7    11.387    20.381    0.39E-03    0.13E-02    0.15E-06
   0      7    11.387    15.268    0.42E-03    0.14E-02    0.17E-06
   1      6    11.387     5.964    0.41E-03    0.11E-02    0.17E-06
   1      6    11.387     5.382    0.39E-03    0.87E-03    0.15E-06
  PAW_PBE Cu 22Jun2005                  :
  PAW_PBE Co 02Aug2007                  :
  PAW_PBE O 08Apr2002                   :

 POSCAR: Cu-Co-O
  positions in direct lattice
  velocities in cartesian coordinates
 exchange correlation table for  LEXCH =        8
   RHO(1)=    0.500       N(1)  =     2000
   RHO(2)=  100.500       N(2)  =     4000

 VTST: version 3.2, (02/03/18)

 CHAIN: initializing optimizer

 OPT: Using VASP Conjugate-Gradient optimizer
 CHAIN: Read ICHAIN            0

 POSCAR: Cu-Co-O
  positions in direct lattice
  velocities in cartesian coordinates

 ion  position               nearest neighbor table
   1  0.000  0.000  0.252-   7 2.57   3 2.57   4 2.57   2 2.57   6 2.57   8 2.57  12 2.57  10 2.57
                            16 2.57
   2  0.333  0.000  0.252-   8 2.57   9 2.57   5 2.57   1 2.57   3 2.57  11 2.57   4 2.57  10 2.57
                            17 2.57
   3  0.667  0.000  0.252-   1 2.57   7 2.57   6 2.57   9 2.57   2 2.57  12 2.57   5 2.57  18 2.57
                            11 2.57
   4  0.000  0.333  0.252-   5 2.57   6 2.57   1 2.57   7 2.57   2 2.57  13 2.57   9 2.57  10 2.57
                            15 2.57
   5  0.333  0.333  0.252-   4 2.57   2 2.57   7 2.57  13 2.57   8 2.57   6 2.57   3 2.57  11 2.57
                            14 2.57
   6  0.667  0.333  0.252-   4 2.57   9 2.57  15 2.57   3 2.57   1 2.57   8 2.57  14 2.57   5 2.57
                            12 2.57
   7  0.000  0.667  0.252-   1 2.57   3 2.57  16 2.57  18 2.57   4 2.57   5 2.57   8 2.57   9 2.57
                            13 2.57
   8  0.333  0.667  0.252-   9 2.57   2 2.57  17 2.57   6 2.57   1 2.57   7 2.57   5 2.57  14 2.57
                            16 2.57
   9  0.667  0.667  0.252-   8 2.57   6 2.57   2 2.57  17 2.57   3 2.57   7 2.57   4 2.57  15 2.57
                            18 2.57
  10  0.111  0.111  0.351-  20 2.55  26 2.56  19 2.56  11 2.57  12 2.57  13 2.57   1 2.57   2 2.57
                             4 2.57  15 2.57  16 2.57  17 2.57
  11  0.444  0.111  0.351-  20 2.55  21 2.55  27 2.56  10 2.57  13 2.57   2 2.57  17 2.57  14 2.57
                            12 2.57   5 2.57   3 2.57  18 2.57
  12  0.778  0.111  0.351-  21 2.55  19 2.56  25 2.56  15 2.57  10 2.57  14 2.57  18 2.57   3 2.57
                             1 2.57  16 2.57  11 2.57   6 2.57
  13  0.111  0.444  0.351-  23 2.55  20 2.55  22 2.56  16 2.57  18 2.57  10 2.57  11 2.57  14 2.57
                             5 2.57   4 2.57   7 2.57  15 2.57
  14  0.444  0.444  0.351-  21 2.55  23 2.55  24 2.56  15 2.57  17 2.57  12 2.57  16 2.57  13 2.57
                            11 2.57   6 2.57   8 2.57   5 2.57
  15  0.778  0.444  0.351-  24 2.56  22 2.56  19 2.56  14 2.57  17 2.57  12 2.57   6 2.57  18 2.57
                            10 2.57   9 2.57  13 2.57   4 2.57
  16  0.111  0.778  0.351-  23 2.55  25 2.56  26 2.56  18 2.57  13 2.57   7 2.57  14 2.57  17 2.57
                            12 2.57  10 2.57   8 2.57   1 2.57
  17  0.444  0.778  0.351-  27 2.56  24 2.56  26 2.56  14 2.57  15 2.57   8 2.57   9 2.57  11 2.57
                            16 2.57  18 2.57  10 2.57   2 2.57
  18  0.778  0.778  0.351-  22 2.56  27 2.56  25 2.56  16 2.57  13 2.57   7 2.57  15 2.57  12 2.57
                            17 2.57   9 2.57   3 2.57  11 2.57
  19  0.889  0.223  0.449-  28 2.54  32 2.56  31 2.56  15 2.56  12 2.56  10 2.56  22 2.56  24 2.56
                            21 2.57  20 2.57  25 2.57  26 2.57
  20  0.222  0.222  0.448-  36 2.46  29 2.55  31 2.55  11 2.55  13 2.55  10 2.55  23 2.56  21 2.56
                            26 2.57  19 2.57  27 2.57  22 2.57
  21  0.555  0.222  0.448-  36 2.46  32 2.55  30 2.55  14 2.55  11 2.55  12 2.55  20 2.56  23 2.56
                            19 2.57  25 2.57  24 2.57  27 2.57
  22  0.889  0.556  0.449-  35 2.54  31 2.55  33 2.55  18 2.56  15 2.56  13 2.56  24 2.56  27 2.56
                            19 2.56  25 2.56  23 2.57  20 2.57
  23  0.222  0.555  0.448-  36 2.46  33 2.55  34 2.55  13 2.55  14 2.55  16 2.55  20 2.56  21 2.56
                            25 2.57  26 2.57  22 2.57  24 2.57
  24  0.556  0.556  0.449-  35 2.54  32 2.55  34 2.55  15 2.56  17 2.56  14 2.56  22 2.56  27 2.56
                            19 2.56  26 2.56  21 2.57  23 2.57
  25  0.889  0.889  0.449-  28 2.54  33 2.56  30 2.56  18 2.56  16 2.56  12 2.56  22 2.56  27 2.56
                            21 2.57  23 2.57  19 2.57  26 2.57
  26  0.223  0.889  0.449-  28 2.54  29 2.56  34 2.56  17 2.56  10 2.56  16 2.56  27 2.56  24 2.56
                            20 2.57  23 2.57  25 2.57  19 2.57
  27  0.556  0.889  0.449-  35 2.54  29 2.55  30 2.55  17 2.56  18 2.56  11 2.56  24 2.56  22 2.56
                            26 2.56  25 2.56  20 2.57  21 2.57
  28  0.000  0.000  0.546-  25 2.54  19 2.54  26 2.54  33 2.58  30 2.58  31 2.58  29 2.58  32 2.58
                            34 2.58
  29  0.333  0.003  0.546-  31 2.54  36 2.54  30 2.55  20 2.55  27 2.55  26 2.56  28 2.58  35 2.58
                            34 2.61
  30  0.664  0.003  0.546-  32 2.54  36 2.54  29 2.55  21 2.55  27 2.55  25 2.56  28 2.58  35 2.58
                            33 2.61
  31  0.003  0.333  0.546-  29 2.54  36 2.54  33 2.55  20 2.55  22 2.55  19 2.56  28 2.58  35 2.58
                            32 2.61
  32  0.664  0.333  0.546-  30 2.54  36 2.54  34 2.55  21 2.55  24 2.55  19 2.56  28 2.58  35 2.58
                            31 2.61
  33  0.003  0.664  0.546-  34 2.54  36 2.54  31 2.55  23 2.55  22 2.55  25 2.56  28 2.58  35 2.58
                            30 2.61
  34  0.333  0.664  0.546-  33 2.54  36 2.54  32 2.55  23 2.55  24 2.55  26 2.56  28 2.58  35 2.58
                            29 2.61
  35  0.667  0.667  0.546-  24 2.54  27 2.54  22 2.54  34 2.58  32 2.58  29 2.58  30 2.58  33 2.58
                            31 2.58
  36  0.333  0.333  0.541-  37 1.63  23 2.46  20 2.46  21 2.46  31 2.54  29 2.54  33 2.54  34 2.54
                            32 2.54  30 2.54
  37  0.333  0.333  0.618-  36 1.63

  LATTYP: Found a hexagonal cell.
 ALAT       =     7.6967864036
 C/A-ratio  =     2.7653617908

  Lattice vectors:

 A1 = (  -3.8483927580,  -6.6656128093,   0.0000000000)
 A2 = (   7.6967864037,   0.0000000000,   0.0000000000)
 A3 = (   0.0000000000,   0.0000000000,  21.2843990326)

Analysis of symmetry for initial positions (statically):
 Subroutine PRICEL returns:
 Original cell was already a primitive cell.

 Routine SETGRP: Setting up the symmetry group for a
 hexagonal supercell.

 Subroutine GETGRP returns: Found  6 space group operations
 (whereof  6 operations were pure point group operations)
 out of a pool of 24 trial point group operations.

The static configuration has the point symmetry C_3v.

Analysis of symmetry for dynamics (positions and initial velocities):
 Subroutine PRICEL returns:
 Original cell was already a primitive cell.

[...]

The dynamic configuration has the point symmetry C_3v.

Analysis of constrained symmetry for selective dynamics:
 Subroutine PRICEL returns:
 Original cell was already a primitive cell.

 Routine SETGRP: Setting up the symmetry group for a
 hexagonal supercell.

 Subroutine GETGRP returns: Found  6 space group operations
[...]
     24      -4.3791      2.00000
     25      -4.3194      2.00000
     26      -4.2391      2.00000
     27      -4.1753      2.00000
     28      -4.1439      2.00000
     29      -4.1226      2.00000
     30      -4.1086      2.00000
     31      -4.0969      2.00000
     32      -4.0959      2.00000
     33      -4.0734      2.00000
     34      -4.0414      2.00000
     35      -4.0239      2.00000
     36      -3.9991      2.00000
     37      -3.9707      2.00000
     38      -3.9253      2.00000
     39      -3.8795      2.00000
     40      -3.8494      2.00000
     41      -3.7811      2.00000
     42      -3.7630      2.00000
     43      -3.6943      2.00000
     44      -3.6884      2.00000
     45      -3.6620      2.00000
     46      -3.6486      2.00000
     47      -3.6325      2.00000
     48      -3.6086      2.00000
     49      -3.5651      2.00000
     50      -3.4438      2.00000
     51      -3.4228      2.00000
     52      -3.4211      2.00000
     53      -3.4054      2.00000
     54      -3.3643      2.00000
     55      -3.3587      2.00000
     56      -3.3393      2.00000
     57      -3.3182      2.00000
     58      -3.3075      2.00000
     59      -3.2890      2.00000
     60      -3.2814      2.00000
[...]
    238       6.2157      0.00000
    239       6.3165      0.00000
    240       6.3948      0.00000
    241       6.9614      0.00000
    242       6.9683      0.00000
    243       7.1105      0.00000
    244       7.1330      0.00000
    245       7.1685      0.00000
    246       7.2297      0.00000
    247       7.3658      0.00000
    248       7.4708      0.00000
    249       7.5144      0.00000
    250       7.6792      0.00000
    251       7.7870      0.00000
    252       7.9568      0.00000

 soft charge-density along one line, spin component           1
         0         1         2         3         4         5         6         7         8         9
 total charge-density along one line

------------------------ aborting loop because EDIFF is reached ----------------------------------------

 total charge

# of ion       s       p       d       tot
    1        0.449   0.283   9.190   9.922
    2        0.449   0.284   9.187   9.920
    3        0.449   0.284   9.187   9.920
    4        0.449   0.284   9.187   9.920
    5        0.449   0.287   9.185   9.920
    6        0.449   0.284   9.187   9.920
    7        0.449   0.284   9.187   9.920
    8        0.449   0.284   9.187   9.920
    9        0.446   0.284   9.185   9.915
   10        0.442   0.370   9.180   9.992
   11        0.441   0.370   9.181   9.992
   12        0.442   0.370   9.180   9.992
   13        0.441   0.370   9.181   9.992
   14        0.441   0.370   9.181   9.992
   15        0.440   0.367   9.183   9.991
   16        0.442   0.370   9.180   9.992
   17        0.440   0.367   9.183   9.991
   18        0.440   0.367   9.183   9.991
   19        0.440   0.372   9.178   9.990
   20        0.456   0.388   9.174  10.018
   21        0.456   0.388   9.174  10.018
   22        0.439   0.370   9.184   9.993
   23        0.456   0.388   9.174  10.018
   24        0.439   0.370   9.184   9.993
   25        0.440   0.372   9.178   9.990
   26        0.440   0.372   9.178   9.990
   27        0.439   0.370   9.184   9.993
   28        0.451   0.280   9.197   9.928
   29        0.435   0.287   9.195   9.917
   30        0.435   0.287   9.195   9.917
   31        0.435   0.287   9.195   9.917
   32        0.435   0.287   9.195   9.917
   33        0.435   0.287   9.195   9.917
   34        0.435   0.287   9.195   9.917
   35        0.446   0.283   9.191   9.920
   36        0.517   0.612   7.387   8.517
   37        1.607   3.228   0.000   4.835
tot         17.646  15.396 328.869 361.911

  FORCE on cell =-STRESS in cart. coord.  units (eV):
  Direction    XX          YY          ZZ          XY          YZ          ZX
  Alpha Z   878.11017   878.11017   878.11017
  Ewald  175055.17875175055.17828************     0.00042     0.00011     0.00020
  Hartree188221.51467188221.51461************     0.00006     0.00005     0.00009
  E(xc)   -2322.51828 -2322.51781 -2326.54011    -0.00041    -0.00003    -0.00006
  Local  ************************376460.03576     0.01861    -0.00058    -0.00102
  n-local  -792.90740  -778.74769  -795.64168     7.86101    -0.08525     0.31487
  augment  3472.09778  3472.11768  3475.91205    -0.01723     0.00028     0.00049
  Kinetic  3338.02218  3341.17019  3349.40233     2.82317     1.93082    -1.13166
  Fock        0.00000     0.00000     0.00000     0.00000     0.00000     0.00000
  Total      -5.09773    -5.09773     2.08007     0.00000     0.00000    -0.00000
  in kB      -7.47956    -7.47956     3.05196     0.00000     0.00000    -0.00000

 VOLUME and BASIS-vectors are now :
  energy-cutoff  :      500.00
  volume of cell :     1091.97
      direct lattice vectors                 reciprocal lattice vectors
     7.696786404  0.000000000  0.000000000     0.129924354 -0.075011849  0.000000000
     3.848392758  6.665612809  0.000000000     0.000000000  0.150023716  0.000000000
     0.000000000  0.000000000 21.284399033     0.000000000  0.000000000  0.046982769

  length of vectors
     7.696786404  7.696786404 21.284399033     0.150023716  0.150023716  0.046982769

 FORCES acting on ions
    electron-ion (+dipol)            ewald-force                    non-local-force                 convergence-correction
   -.416E-04 0.162E-06 0.351E+04   0.578E-04 -.443E-05 -.350E+04   0.741E-17 -.387E-17 -.270E+01   -.280E-03 -.129E-03 -.411E+00
   0.164E+00 0.481E+00 0.351E+04   -.278E+00 -.351E+00 -.350E+04   0.444E-01 0.523E-01 -.191E+01   0.704E-01 -.159E+00 -.314E+00
   -.164E+00 0.481E+00 0.351E+04   0.278E+00 -.351E+00 -.350E+04   -.444E-01 0.523E-01 -.191E+01   -.696E-01 -.157E+00 -.313E+00
   0.499E+00 -.983E-01 0.351E+04   -.443E+00 -.657E-01 -.350E+04   0.675E-01 0.123E-01 -.191E+01   -.103E+00 0.141E+00 -.314E+00
   -.658E-04 -.582E-05 0.351E+04   0.116E-03 -.101E-04 -.350E+04   0.513E-18 -.891E-18 -.177E+01   0.121E-01 0.740E-02 -.357E+00
   -.499E+00 -.983E-01 0.351E+04   0.443E+00 -.658E-01 -.350E+04   -.675E-01 0.123E-01 -.191E+01   0.101E+00 0.142E+00 -.313E+00
   0.335E+00 -.383E+00 0.351E+04   -.165E+00 0.416E+00 -.350E+04   0.231E-01 -.646E-01 -.191E+01   -.170E+00 0.180E-01 -.313E+00
   -.334E+00 -.383E+00 0.351E+04   0.164E+00 0.416E+00 -.350E+04   -.231E-01 -.646E-01 -.191E+01   0.174E+00 0.166E-01 -.313E+00
   -.144E-03 -.329E-04 0.351E+04   0.264E-03 0.206E-04 -.350E+04   0.287E-18 -.118E-17 -.228E+01   -.132E-01 -.680E-02 -.269E+00
   0.360E+01 0.208E+01 0.120E+04   -.321E+01 -.185E+01 -.120E+04   -.372E+00 -.215E+00 -.102E+01   -.154E-01 -.891E-02 0.448E-01
   -.901E-04 0.377E+01 0.121E+04   0.189E-03 -.363E+01 -.121E+04   -.661E-08 0.992E-01 -.377E+00   0.115E-01 -.260E+00 0.527E-01
   -.360E+01 0.208E+01 0.120E+04   0.321E+01 -.185E+01 -.120E+04   0.372E+00 -.215E+00 -.102E+01   0.140E-01 -.790E-02 0.438E-01
   0.327E+01 -.189E+01 0.121E+04   -.315E+01 0.182E+01 -.121E+04   0.859E-01 -.496E-01 -.377E+00   -.219E+00 0.141E+00 0.527E-01
   -.327E+01 -.189E+01 0.121E+04   0.315E+01 0.182E+01 -.121E+04   -.859E-01 -.496E-01 -.377E+00   0.242E+00 0.140E+00 0.506E-01
   -.144E-03 0.290E-02 0.120E+04   0.300E-03 -.261E+00 -.120E+04   -.651E-08 0.978E-01 -.840E+00   -.319E-02 0.151E+00 -.259E-01
   -.910E-04 -.415E+01 0.120E+04   0.185E-03 0.370E+01 -.120E+04   -.286E-07 0.430E+00 -.102E+01   -.759E-03 0.149E-01 0.437E-01
   0.248E-02 -.158E-02 0.120E+04   -.226E+00 0.131E+00 -.120E+04   0.847E-01 -.489E-01 -.840E+00   0.130E+00 -.784E-01 -.260E-01
   -.239E-02 -.154E-02 0.120E+04   0.226E+00 0.131E+00 -.120E+04   -.847E-01 -.489E-01 -.840E+00   -.129E+00 -.762E-01 -.250E-01
   -.561E-04 0.194E+01 -.113E+04   0.660E-04 -.217E+01 0.113E+04   -.104E-07 0.156E+00 0.770E+00   0.112E-01 0.712E-01 0.406E+00
   0.106E+02 0.609E+01 -.110E+04   -.949E+01 -.548E+01 0.110E+04   -.104E+01 -.601E+00 -.461E+00   -.194E-01 -.113E-01 0.522E+00
   -.106E+02 0.609E+01 -.110E+04   0.949E+01 -.548E+01 0.110E+04   0.104E+01 -.601E+00 -.461E+00   0.188E-01 -.118E-01 0.522E+00
   0.436E+01 -.252E+01 -.112E+04   -.457E+01 0.264E+01 0.112E+04   0.276E+00 -.159E+00 0.906E+00   -.288E-01 0.275E-01 0.405E+00
   -.757E-04 -.122E+02 -.110E+04   0.141E-03 0.110E+02 0.110E+04   -.801E-07 0.120E+01 -.461E+00   -.193E-02 0.210E-01 0.522E+00
   -.436E+01 -.252E+01 -.112E+04   0.457E+01 0.264E+01 0.112E+04   -.276E+00 -.159E+00 0.906E+00   0.503E-01 0.281E-01 0.405E+00
   -.168E+01 -.971E+00 -.113E+04   0.187E+01 0.108E+01 0.113E+04   -.135E+00 -.779E-01 0.770E+00   -.463E-01 -.267E-01 0.405E+00
   0.168E+01 -.971E+00 -.113E+04   -.187E+01 0.108E+01 0.113E+04   0.135E+00 -.779E-01 0.770E+00   0.676E-01 -.256E-01 0.406E+00
   -.129E-03 0.503E+01 -.112E+04   0.244E-03 -.527E+01 0.112E+04   -.212E-07 0.318E+00 0.906E+00   0.937E-02 -.388E-01 0.405E+00
   -.281E-04 0.195E-04 -.345E+04   0.317E-04 -.353E-04 0.345E+04   0.108E-16 -.634E-18 0.227E+01   0.362E-04 0.709E-04 0.405E+00
   0.233E+02 0.421E+02 -.343E+04   -.239E+02 -.435E+02 0.343E+04   0.505E+00 0.117E+01 0.322E+01   0.103E-01 0.398E-02 0.255E+00
   -.233E+02 0.421E+02 -.343E+04   0.239E+02 -.435E+02 0.343E+04   -.505E+00 0.117E+01 0.322E+01   -.101E-01 0.576E-02 0.255E+00
   0.481E+02 -.876E+00 -.343E+04   -.496E+02 0.102E+01 0.343E+04   0.126E+01 -.146E+00 0.322E+01   0.868E-02 0.688E-02 0.255E+00
   -.481E+02 -.876E+00 -.343E+04   0.496E+02 0.102E+01 0.343E+04   -.126E+01 -.146E+00 0.322E+01   -.943E-02 0.805E-02 0.256E+00
   0.248E+02 -.412E+02 -.343E+04   -.257E+02 0.425E+02 0.343E+04   0.759E+00 -.102E+01 0.322E+01   -.388E-04 -.116E-01 0.255E+00
   -.248E+02 -.412E+02 -.343E+04   0.257E+02 0.425E+02 0.343E+04   -.759E+00 -.102E+01 0.322E+01   0.297E-02 -.122E-01 0.256E+00
   -.133E-03 -.176E-04 -.345E+04   0.259E-03 0.721E-05 0.345E+04   -.178E-17 -.275E-17 0.226E+01   -.129E-01 -.661E-02 0.316E+00
   -.442E-04 -.139E-04 -.250E+04   0.119E-03 0.211E-04 0.250E+04   -.252E-17 -.148E-17 -.410E+00   0.527E-02 0.322E-02 0.295E+00
   0.171E-03 -.825E-04 -.231E+04   0.223E-04 0.973E-05 0.234E+04   -.202E-17 -.220E-17 -.268E+02   0.324E-02 0.197E-02 0.984E-01
   -.119E-03 -.115E-03 0.206E+02   0.787E-13 0.462E-12 -.409E-11   -.450E-15 -.643E-17 -.246E+02   0.909E-01 0.496E-01 0.393E+01

 POSITION                                       TOTAL-FORCE (eV/Angst)
      0.00000      0.00000      5.37156        -0.000000     -0.000000      0.012922
      2.56560      0.00000      5.37156         0.001129      0.024560      0.063270
      5.13119      0.00000      5.37156        -0.001129      0.024560      0.063270
      1.28280      2.22187      5.37156         0.021833     -0.011302      0.063270
      3.84839      2.22187      5.37156        -0.000000     -0.000000      0.066150
      6.41399      2.22187      5.37156        -0.021833     -0.011302      0.063270
      2.56560      4.44374      5.37156         0.020705     -0.013257      0.063270
      5.13119      4.44374      5.37156        -0.020705     -0.013257      0.063270
      7.69679      4.44374      5.37156        -0.000000     -0.000000      0.034724
      1.28280      0.74062      7.46636         0.003571      0.002062     -0.041205
      3.84839      0.74062      7.46636         0.000000     -0.025556     -0.063229
      6.41399      0.74062      7.46636        -0.003571      0.002062     -0.041205
      2.56560      2.96249      7.46636        -0.022132      0.012778     -0.063229
      5.13119      2.96249      7.46636         0.022132      0.012778     -0.063229
      7.69679      2.96249      7.46636         0.000000     -0.009596     -0.037655
      3.84839      5.18437      7.46636         0.000000     -0.004123     -0.041205
      6.41399      5.18437      7.46636        -0.008310      0.004798     -0.037655
      8.97958      5.18437      7.46636         0.008310      0.004798     -0.037655
      7.69679      1.48420      9.55496         0.000000     -0.002036      0.015452
      2.56664      1.48185      9.54157         0.004568      0.002637     -0.186943
      5.13014      1.48185      9.54157        -0.004568      0.002637     -0.186943
      8.97778      3.70416      9.55304         0.027277     -0.015748     -0.018027
      3.84839      3.70191      9.54157         0.000000     -0.005275     -0.186943
      6.41579      3.70416      9.55304        -0.027277     -0.015748     -0.018027
     10.25982      5.92351      9.55496         0.001763      0.001018      0.015452
      5.13375      5.92351      9.55496        -0.001763      0.001018      0.015452
      7.69679      5.92291      9.55304        -0.000000      0.031496     -0.018027
      0.00000      0.00000     11.62172        -0.000000     -0.000000     -0.010867
      2.57582      0.02145     11.62841        -0.128857     -0.229498     -0.047943
      5.12097      0.02145     11.62841         0.128857     -0.229498     -0.047943
      1.30649      2.22000     11.62841        -0.263180      0.003155     -0.047943
      6.39030      2.22000     11.62841         0.263180      0.003155     -0.047943
      2.57906      4.42416     11.62841        -0.134322      0.226342     -0.047943
      5.11773      4.42416     11.62841         0.134322      0.226342     -0.047943
      7.69679      4.44374     11.62071        -0.000000     -0.000000      0.008440
      3.84839      2.22187     11.51210        -0.000000     -0.000000      0.770926
      3.84839      2.22187     13.14455        -0.000000     -0.000000      0.020564
    total drift:                                0.090747      0.049494     -0.005725

  FREE ENERGIE OF THE ION-ELECTRON SYSTEM (eV)
  free  energy   TOTEN  =      -134.52752942 eV

  energy  without entropy=     -134.52752942  energy(sigma->0) =     -134.52752942

 stress matrix after NEB project (eV)
     -5.09773      0.00000     -0.00000
      0.00000     -5.09773     -0.00000
     -0.00000      0.00000      2.08007
  FORCES: max atom, RMS     0.020564    0.003381
  FORCE total and by dimension    0.020564    0.020564
  Stress total and by dimension    7.503354    5.097726
|           W    W    AA    RRRRR   N    N  II  N    N   GGGG   !!!           |
|           W    W   A  A   R    R  NN   N  II  NN   N  G    G  !!!           |
|           W    W  A    A  R    R  N N  N  II  N N  N  G       !!!           |
|           W WW W  AAAAAA  RRRRR   N  N N  II  N  N N  G  GGG   !            |
|           WW  WW  A    A  R   R   N   NN  II  N   NN  G    G                |
|           W    W  A    A  R    R  N    N  II  N    N   GGGG   !!!           |
|     Tetrahedron method does not include variations of the Fermi             |
|     occupations, so forces and stress will be inaccurate. We suggest        |
|     using a different smearing scheme ISMEAR = 1 or 2 for metals in         |
|     relaxations.                                                            |

 total charge

# of ion       s       p       d       tot
    1        0.449   0.283   9.190   9.922
    2        0.449   0.284   9.187   9.920
    3        0.449   0.284   9.187   9.920
    4        0.449   0.284   9.187   9.920
    5        0.449   0.287   9.185   9.920
    6        0.449   0.284   9.187   9.920
    7        0.449   0.284   9.187   9.920
    8        0.449   0.284   9.187   9.920
    9        0.446   0.284   9.185   9.915
   10        0.442   0.370   9.180   9.992
   11        0.441   0.370   9.181   9.992
   12        0.442   0.370   9.180   9.992
   13        0.441   0.370   9.181   9.992
   14        0.441   0.370   9.181   9.992
   15        0.440   0.367   9.183   9.991
   16        0.442   0.370   9.180   9.992
   17        0.440   0.367   9.183   9.991
   18        0.440   0.367   9.183   9.991
   19        0.440   0.372   9.178   9.990
   20        0.456   0.388   9.174  10.018
   21        0.456   0.388   9.174  10.018
   22        0.439   0.370   9.184   9.993
   23        0.456   0.388   9.174  10.018
   24        0.439   0.370   9.184   9.993
   25        0.440   0.372   9.178   9.990
   26        0.440   0.372   9.178   9.990
   27        0.439   0.370   9.184   9.993
   28        0.451   0.280   9.197   9.928
   29        0.435   0.287   9.195   9.917
   30        0.435   0.287   9.195   9.917
   31        0.435   0.287   9.195   9.917
   32        0.435   0.287   9.195   9.917
   33        0.435   0.287   9.195   9.917
   34        0.435   0.287   9.195   9.917
   35        0.446   0.283   9.191   9.920
   36        0.517   0.612   7.387   8.517
   37        1.607   3.228   0.000   4.835
tot         17.646  15.396 328.869 361.911

 BZINTS: Fermi energy:    0.011991;  400.000000 electrons
         Band energy:-0.114838E+04;  BLOECHL correction:   -0.041903