 vasp.6.2.0 18Jan21 (build Jun 12 2021 23:27:24) complex

 executed on             LinuxIFC date 2022.05.30  17:31:51

 INCAR:
   ISMEAR = -5
   SIGMA = 0.1
   ISPIN = 1
   EDIFF = 1.d-5
   EDIFFG = -0.01
   NSW = 0
   NELM = 150
   ENCUT = 500
   ISIF = 2
   IBRION = 2
   LREAL = Auto
   ALGO = Fast
   ICHARG = 11
   LORBIT = 10
   LCHARG = .F.
   LWAVE = .F.

 POTCAR:    PAW_PBE Ag 02Apr2005
 POTCAR:    PAW_PBE Ta 17Jan2003
 POTCAR:    PAW_PBE C 08Apr2002
 POTCAR:    PAW_PBE O 08Apr2002
 POTCAR:    PAW_PBE H 15Jun2001
|           W    W    AA    RRRRR   N    N  II  N    N   GGGG   !!!           |
|           W    W   A  A   R    R  NN   N  II  NN   N  G    G  !!!           |
|           W    W  A    A  R    R  N N  N  II  N N  N  G       !!!           |
|           W WW W  AAAAAA  RRRRR   N  N N  II  N  N N  G  GGG   !            |
|           WW  WW  A    A  R   R   N   NN  II  N   NN  G    G                |
|           W    W  A    A  R    R  N    N  II  N    N   GGGG   !!!           |
|     For optimal performance we recommend to set                             |
|       NCORE = 2 up to number-of-cores-per-socket                            |
|     This setting can greatly improve the performance of VASP for DFT.       |
|     The default, NCORE=1 might be grossly inefficient on modern             |
|     multi-core architectures or massively parallel machines. Do your        |
|     Unfortunately you need to use the default for GW and RPA                |
|     calculations (for HF NCORE is supported but not extensively tested      |
|     yet).                                                                   |

 POTCAR:    PAW_PBE Ag 02Apr2005
   VRHFIN =Ag : s1 d10

   TITEL  = PAW_PBE Ag 02Apr2005
   POMASS =  107.868; ZVAL   =   11.000    mass and valenz
   ENMAX  =  249.844; ENMIN  =  187.383 eV

 POTCAR:    PAW_PBE Ta 17Jan2003
   VRHFIN =Ta:  6s5d

   TITEL  = PAW_PBE Ta 17Jan2003
   POMASS =  180.948; ZVAL   =    5.000    mass and valenz
   ENMAX  =  223.667; ENMIN  =  167.750 eV

 POTCAR:    PAW_PBE C 08Apr2002
   VRHFIN =C: s2p2

[...]

 POTCAR:    PAW_PBE O 08Apr2002
   VRHFIN =O: s2p4

   TITEL  = PAW_PBE O 08Apr2002
   POMASS =   16.000; ZVAL   =    6.000    mass and valenz
   ENMAX  =  400.000; ENMIN  =  300.000 eV

 POTCAR:    PAW_PBE H 15Jun2001
   VRHFIN =H: ultrasoft test

   TITEL  = PAW_PBE H 15Jun2001
   POMASS =    1.000; ZVAL   =    1.000    mass and valenz
   ENMAX  =  250.000; ENMIN  =  200.000 eV

 Optimization of the real space projectors (new method)

 maximal supplied QI-value         = 15.12
 optimisation between [QCUT,QGAM] = [ 11.34, 22.83] = [ 36.00,145.93] Ry
 Optimized for a Real-space Cutoff    1.43 Angstroem

   l    n(q)    QCUT    max X(q) W(low)/X(q) W(high)/X(q)  e(spline)
   2      9    11.338    53.897    0.16E-03    0.20E-03    0.28E-06
   2      9    11.338    52.416    0.16E-03    0.20E-03    0.29E-06
   0     10    11.338   122.045    0.31E-04    0.76E-04    0.15E-06
   0     10    11.338    73.629    0.30E-04    0.72E-04    0.15E-06
   1      9    11.338    15.255    0.20E-03    0.19E-04    0.17E-06
   1      9    11.338     9.562    0.16E-03    0.15E-04    0.14E-06
 Optimization of the real space projectors (new method)

[...]

   l    n(q)    QCUT    max X(q) W(low)/X(q) W(high)/X(q)  e(spline)
   0      7    11.387    20.381    0.39E-03    0.13E-02    0.15E-06
   0      7    11.387    15.268    0.42E-03    0.14E-02    0.17E-06
   1      6    11.387     5.964    0.41E-03    0.11E-02    0.17E-06
   1      6    11.387     5.382    0.39E-03    0.87E-03    0.15E-06
 Optimization of the real space projectors (new method)

 maximal supplied QI-value         = 34.20
 optimisation between [QCUT,QGAM] = [ 11.29, 22.57] = [ 35.68,142.71] Ry
 Optimized for a Real-space Cutoff    1.16 Angstroem

   l    n(q)    QCUT    max X(q) W(low)/X(q) W(high)/X(q)  e(spline)
   0      8    11.287    19.460    0.40E-03    0.73E-03    0.16E-06
   0      8    11.287    12.209    0.38E-03    0.70E-03    0.15E-06
   1      7    11.287     4.655    0.22E-03    0.25E-04    0.22E-06
  PAW_PBE Ag 02Apr2005                  :
  PAW_PBE Ta 17Jan2003                  :
  PAW_PBE C 08Apr2002                   :
  PAW_PBE O 08Apr2002                   :
  PAW_PBE H 15Jun2001                   :

 POSCAR: Ag-Ta-COH
  positions in direct lattice
  velocities in cartesian coordinates
 exchange correlation table for  LEXCH =        8
   RHO(1)=    0.500       N(1)  =     2000
   RHO(2)=  100.500       N(2)  =     4000

 VTST: version 3.2, (02/03/18)

 CHAIN: initializing optimizer

 OPT: Using VASP Conjugate-Gradient optimizer
 CHAIN: Read ICHAIN            0

 POSCAR: Ag-Ta-COH
  positions in direct lattice
  velocities in cartesian coordinates

 ion  position               nearest neighbor table
   1  0.000  0.000  0.199-   2 2.93   8 2.93   7 2.93   6 2.93   4 2.93  12 2.93  16 2.93  10 2.93
                             3 2.93
   2  0.333  0.000  0.199-   1 2.93   8 2.93   9 2.93   3 2.93   4 2.93   5 2.93  10 2.93  17 2.93
                            11 2.93
   3  0.667  0.000  0.199-   9 2.93   2 2.93   5 2.93  11 2.93   7 2.93  18 2.93   1 2.93   6 2.93
                            12 2.93
   4  0.000  0.333  0.199-   5 2.93   6 2.93   2 2.93   1 2.93   7 2.93  13 2.93  15 2.93   9 2.93
                            10 2.93
   5  0.333  0.333  0.199-   4 2.93   3 2.93   7 2.93   2 2.93   8 2.93  14 2.93  13 2.93  11 2.93
                             6 2.93
   6  0.667  0.333  0.199-   4 2.93   9 2.93   1 2.93  15 2.93   8 2.93  12 2.93   3 2.93   5 2.93
                            14 2.93
   7  0.000  0.667  0.199-   8 2.93   1 2.93   5 2.93   3 2.93   4 2.93  16 2.93  18 2.93  13 2.93
                             9 2.93
   8  0.333  0.667  0.199-   7 2.93   1 2.93   2 2.93   9 2.93   5 2.93  16 2.93   6 2.93  17 2.93
                            14 2.93
   9  0.667  0.667  0.199-   3 2.93   2 2.93   8 2.93   6 2.93  17 2.93   4 2.93  15 2.93   7 2.93
                            18 2.93
  10  0.111  0.111  0.289-  20 2.89  12 2.93  16 2.93  15 2.93  17 2.93  13 2.93  11 2.93   2 2.93
                             1 2.93   4 2.93  19 2.93  26 2.93
  11  0.444  0.111  0.289-  21 2.90  20 2.90  14 2.93  17 2.93  18 2.93   3 2.93  12 2.93  13 2.93
                            10 2.93   5 2.93   2 2.93  27 2.93
  12  0.778  0.111  0.289-  21 2.89  10 2.93  16 2.93  18 2.93  15 2.93  11 2.93   1 2.93  14 2.93
                             6 2.93   3 2.93  25 2.93  19 2.93
  13  0.111  0.444  0.289-  20 2.90  23 2.90  15 2.93  14 2.93  18 2.93  10 2.93  11 2.93  16 2.93
                             4 2.93   5 2.93   7 2.93  22 2.93
  14  0.444  0.444  0.289-  23 2.90  21 2.90  13 2.93  11 2.93  16 2.93   5 2.93  12 2.93  17 2.93
                             8 2.93  15 2.93   6 2.93  24 2.93
  15  0.778  0.444  0.289-  19 2.93  24 2.93  22 2.93  13 2.93  10 2.93  12 2.93  17 2.93  18 2.93
                             4 2.93   6 2.93   9 2.93  14 2.93
  16  0.111  0.778  0.289-  23 2.89  18 2.93  12 2.93  10 2.93  14 2.93  17 2.93  13 2.93   7 2.93
                             8 2.93   1 2.93  26 2.93  25 2.93
  17  0.444  0.778  0.289-  26 2.93  27 2.93  24 2.93  11 2.93  10 2.93   9 2.93  18 2.93  15 2.93
                            16 2.93   2 2.93  14 2.93   8 2.93
  18  0.778  0.778  0.289-  25 2.93  22 2.93  27 2.93  16 2.93  12 2.93  13 2.93  11 2.93  17 2.93
                            15 2.93   7 2.93   3 2.93   9 2.93
  19  0.889  0.223  0.379-  20 2.92  21 2.92  24 2.93  22 2.93  28 2.93  15 2.93  10 2.93  12 2.93
                            26 2.94  25 2.94  32 2.99  31 2.99
  20  0.222  0.222  0.377-  36 2.78  10 2.89  13 2.90  11 2.90  19 2.92  26 2.92  27 2.93  22 2.93
                            21 2.95  23 2.95  31 2.97  29 2.97
  21  0.557  0.222  0.377-  36 2.78  12 2.89  11 2.90  14 2.90  25 2.92  19 2.92  27 2.93  24 2.93
                            20 2.95  23 2.95  30 2.97  32 2.97
  22  0.888  0.556  0.379-  24 2.92  27 2.92  25 2.93  19 2.93  18 2.93  15 2.93  13 2.93  23 2.93
                            20 2.93  35 2.94  33 2.96  31 2.96
  23  0.222  0.557  0.377-  36 2.78  16 2.89  14 2.90  13 2.90  26 2.92  25 2.92  22 2.93  24 2.93
                            21 2.95  20 2.95  34 2.97  33 2.97
  24  0.556  0.556  0.379-  27 2.92  22 2.92  19 2.93  26 2.93  15 2.93  17 2.93  14 2.93  23 2.93
                            21 2.93  35 2.94  32 2.96  34 2.96
  25  0.889  0.889  0.379-  23 2.92  21 2.92  22 2.93  27 2.93  28 2.93  18 2.93  16 2.93  12 2.93
                            26 2.94  19 2.94  33 2.99  30 2.99
  26  0.223  0.889  0.379-  23 2.92  20 2.92  27 2.93  24 2.93  28 2.93  17 2.93  16 2.93  10 2.93
                            25 2.94  19 2.94  34 2.99  29 2.99
  27  0.556  0.888  0.379-  24 2.92  22 2.92  26 2.93  25 2.93  17 2.93  18 2.93  11 2.93  20 2.93
                            21 2.93  35 2.94  29 2.96  30 2.96
  28  0.000  0.000  0.469-  26 2.93  25 2.93  19 2.93  29 2.96  34 2.96  33 2.96  32 2.96  31 2.96
                            30 2.96
  29  0.334  0.006  0.470-  30 2.88  31 2.88  36 2.89  35 2.96  28 2.96  27 2.96  20 2.97  26 2.99
                            34 3.03
  30  0.661  0.006  0.470-  29 2.88  32 2.88  36 2.89  35 2.96  28 2.96  27 2.96  21 2.97  25 2.99
                            33 3.03
  31  0.006  0.334  0.470-  33 2.88  29 2.88  36 2.89  35 2.96  28 2.96  22 2.96  20 2.97  19 2.99
                            32 3.03
  32  0.661  0.334  0.470-  34 2.88  30 2.88  36 2.89  35 2.96  28 2.96  24 2.96  21 2.97  19 2.99
                            31 3.03
  33  0.006  0.661  0.470-  31 2.88  34 2.88  36 2.89  35 2.96  28 2.96  22 2.96  23 2.97  25 2.99
                            30 3.03
  34  0.334  0.661  0.470-  32 2.88  33 2.88  36 2.89  35 2.96  28 2.96  24 2.96  23 2.97  26 2.99
                            29 3.03
  35  0.667  0.667  0.469-  24 2.94  27 2.94  22 2.94  30 2.96  32 2.96  29 2.96  34 2.96  31 2.96
                            33 2.96
  36  0.333  0.333  0.460-  37 1.91  21 2.78  20 2.78  23 2.78  31 2.89  33 2.89  30 2.89  29 2.89
                            34 2.89  32 2.89
  37  0.333  0.333  0.532-  38 1.28  36 1.91
  38  0.333  0.333  0.580-  39 0.95  37 1.28
  39  0.333  0.333  0.616-  38 0.95

  LATTYP: Found a hexagonal cell.
 ALAT       =     8.7913665772
 C/A-ratio  =     3.0233954145

  Lattice vectors:

 A1 = (  -4.3956832886,  -7.6135467898,   0.0000000000)
 A2 = (   8.7913665771,   0.0000000000,   0.0000000000)
 A3 = (   0.0000000000,   0.0000000000,  26.5797773968)

Analysis of symmetry for initial positions (statically):
 Subroutine PRICEL returns:
 Original cell was already a primitive cell.

 Routine SETGRP: Setting up the symmetry group for a
 hexagonal supercell.

 Subroutine GETGRP returns: Found  6 space group operations
 (whereof  6 operations were pure point group operations)
 out of a pool of 24 trial point group operations.

The static configuration has the point symmetry C_3v.

Analysis of symmetry for dynamics (positions and initial velocities):
 Subroutine PRICEL returns:
 Original cell was already a primitive cell.

[...]

[...]
     41      -4.8545      2.00000
     42      -4.8156      2.00000
     43      -4.7916      2.00000
     44      -4.7847      2.00000
     45      -4.7704      2.00000
     46      -4.7612      2.00000
     47      -4.7457      2.00000
     48      -4.6615      2.00000
     49      -4.6372      2.00000
     50      -4.6255      2.00000
     51      -4.6124      2.00000
     52      -4.6094      2.00000
     53      -4.6044      2.00000
     54      -4.6001      2.00000
     55      -4.5977      2.00000
     56      -4.5815      2.00000
     57      -4.5747      2.00000
     58      -4.5154      2.00000
     59      -4.5097      2.00000
     60      -4.4986      2.00000
[...]
    238       5.3647      0.00000
    239       5.4029      0.00000
    240       5.4841      0.00000
    241       5.6357      0.00000
    242       5.6767      0.00000
    243       5.7307      0.00000
    244       5.7760      0.00000
    245       5.8928      0.00000
    246       5.9092      0.00000
    247       5.9185      0.00000
    248       5.9267      0.00000
    249       6.1727      0.00000
    250       6.2199      0.00000
    251       6.7082      0.00000
    252       6.8564      0.00000

 soft charge-density along one line, spin component           1
         0         1         2         3         4         5         6         7         8         9
 total charge-density along one line

------------------------ aborting loop because EDIFF is reached ----------------------------------------

 total charge

# of ion       s       p       d       tot
    1        0.419   0.202   9.179   9.800
    2        0.416   0.204   9.177   9.797
    3        0.416   0.204   9.177   9.797
    4        0.416   0.204   9.177   9.797
    5        0.422   0.202   9.175   9.798
    6        0.416   0.204   9.177   9.797
    7        0.416   0.204   9.177   9.797
    8        0.416   0.204   9.177   9.797
    9        0.416   0.203   9.179   9.797
   10        0.409   0.270   9.163   9.842
   11        0.410   0.268   9.167   9.845
   12        0.409   0.270   9.163   9.842
   13        0.410   0.268   9.167   9.845
   14        0.410   0.268   9.167   9.845
   15        0.402   0.270   9.164   9.836
   16        0.409   0.270   9.163   9.842
   17        0.402   0.270   9.164   9.836
   18        0.402   0.270   9.164   9.836
   19        0.401   0.264   9.165   9.830
   20        0.443   0.304   9.136   9.883
   21        0.443   0.304   9.136   9.883
   22        0.392   0.272   9.166   9.830
   23        0.443   0.304   9.136   9.883
   24        0.392   0.272   9.166   9.830
   25        0.401   0.264   9.165   9.830
   26        0.401   0.264   9.165   9.830
   27        0.392   0.272   9.166   9.830
   28        0.409   0.200   9.177   9.787
   29        0.436   0.221   9.155   9.811
   30        0.436   0.221   9.155   9.811
   31        0.436   0.221   9.155   9.811
   32        0.436   0.221   9.155   9.811
   33        0.436   0.221   9.155   9.811
   34        0.436   0.221   9.155   9.811
   35        0.410   0.200   9.176   9.786
   36        0.660   0.694   3.323   4.678
   37        0.924   1.435   0.000   2.359
   38        1.518   3.765   0.000   5.283
   39        0.570   0.140   0.000   0.710
tot         18.223  14.536 324.081 356.839

  FORCE on cell =-STRESS in cart. coord.  units (eV):
  Direction    XX          YY          ZZ          XY          YZ          ZX
  Alpha Z   645.41047   645.41047   645.41047
  Ewald  182574.29626182574.29621************     0.00002    -0.00001     0.00004
  Hartree192599.11057192599.11055************     0.00001    -0.00000     0.00001
  E(xc)   -2098.16630 -2098.16642 -2105.12213     0.00011    -0.00000    -0.00000
  Local  ************************385968.87398     0.00064    -0.00006    -0.00018
  n-local  -354.51458  -338.55609  -351.27697     9.57159    -0.46046     0.57907
  augment  3228.82944  3228.82960  3240.23003    -0.00016     0.00002    -0.00001
  Kinetic  5033.54917  5035.40553  5013.11426     3.51811     0.88048    -0.30829
  Fock        0.00000     0.00000     0.00000     0.00000     0.00000     0.00000
  Total      -7.80021    -7.80021     1.04695    -0.00000     0.00000    -0.00000
  in kB      -7.02461    -7.02461     0.94285    -0.00000     0.00000    -0.00000

 VOLUME and BASIS-vectors are now :
  energy-cutoff  :      500.00
  volume of cell :     1779.08
      direct lattice vectors                 reciprocal lattice vectors
     8.791366577  0.000000000  0.000000000     0.113747958 -0.065672414  0.000000000
     4.395683289  7.613546790  0.000000000     0.000000000  0.131344829  0.000000000
     0.000000000  0.000000000 26.579777397     0.000000000  0.000000000  0.037622587

  length of vectors
     8.791366577  8.791366577 26.579777397     0.131344829  0.131344829  0.037622587

 FORCES acting on ions
    electron-ion (+dipol)            ewald-force                    non-local-force                 convergence-correction
   0.455E-04 -.284E-04 0.282E+04   -.953E-04 0.593E-04 -.282E+04   -.148E-17 0.469E-17 -.204E+01   -.115E-03 -.127E-03 -.114E+00
   -.280E+00 0.102E+00 0.282E+04   -.127E-01 -.246E+00 -.282E+04   0.123E+00 0.141E+00 -.152E+01   0.167E+00 0.145E-01 -.134E+00
   0.280E+00 0.102E+00 0.282E+04   0.128E-01 -.246E+00 -.282E+04   -.123E+00 0.141E+00 -.152E+01   -.167E+00 0.164E-01 -.134E+00
   -.518E-01 -.294E+00 0.282E+04   -.220E+00 0.112E+00 -.282E+04   0.184E+00 0.365E-01 -.152E+01   0.962E-01 0.138E+00 -.134E+00
   -.420E-05 -.180E-04 0.282E+04   0.980E-04 -.197E-05 -.282E+04   0.330E-17 -.645E-18 -.107E+01   0.622E-02 0.379E-02 -.365E-02
   0.518E-01 -.294E+00 0.282E+04   0.220E+00 0.112E+00 -.282E+04   -.184E+00 0.365E-01 -.152E+01   -.976E-01 0.138E+00 -.134E+00
   0.228E+00 0.192E+00 0.282E+04   -.207E+00 0.134E+00 -.282E+04   0.602E-01 -.177E+00 -.152E+01   -.691E-01 -.153E+00 -.134E+00
   -.228E+00 0.192E+00 0.282E+04   0.207E+00 0.134E+00 -.282E+04   -.602E-01 -.177E+00 -.152E+01   0.707E-01 -.154E+00 -.134E+00
   0.372E-04 -.125E-04 0.282E+04   0.792E-04 -.643E-04 -.282E+04   0.115E-17 -.525E-19 -.188E+01   -.664E-02 -.344E-02 -.136E+00
   0.279E+01 0.161E+01 0.959E+03   -.253E+01 -.146E+01 -.958E+03   -.394E+00 -.227E+00 -.735E+00   0.102E+00 0.589E-01 0.434E+00
   -.280E-04 0.168E+01 0.957E+03   0.400E-04 -.198E+01 -.957E+03   0.101E-11 0.154E+00 -.255E+00   0.620E-02 0.107E+00 0.412E+00
   -.279E+01 0.161E+01 0.959E+03   0.253E+01 -.146E+01 -.958E+03   0.394E+00 -.227E+00 -.735E+00   -.103E+00 0.599E-01 0.434E+00
   0.145E+01 -.840E+00 0.957E+03   -.172E+01 0.991E+00 -.957E+03   0.133E+00 -.770E-01 -.255E+00   0.957E-01 -.482E-01 0.412E+00
   -.145E+01 -.840E+00 0.957E+03   0.172E+01 0.991E+00 -.957E+03   -.133E+00 -.770E-01 -.255E+00   -.852E-01 -.493E-01 0.411E+00
   0.144E-04 -.441E+00 0.957E+03   -.108E-03 0.321E+00 -.956E+03   0.602E-12 0.916E-01 -.736E+00   -.156E-02 0.126E-01 0.329E+00
   -.723E-05 -.322E+01 0.959E+03   0.205E-04 0.292E+01 -.958E+03   0.299E-11 0.455E+00 -.735E+00   -.174E-03 -.119E+00 0.433E+00
   -.382E+00 0.220E+00 0.957E+03   0.278E+00 -.161E+00 -.956E+03   0.794E-01 -.458E-01 -.736E+00   0.104E-01 -.770E-02 0.329E+00
   0.382E+00 0.220E+00 0.957E+03   -.278E+00 -.161E+00 -.956E+03   -.794E-01 -.458E-01 -.736E+00   -.103E-01 -.595E-02 0.330E+00
   0.377E-04 -.419E+01 -.920E+03   -.127E-03 0.406E+01 0.919E+03   0.869E-12 0.132E+00 0.935E+00   0.428E-02 0.125E-01 0.386E+00
   -.221E+02 -.127E+02 -.915E+03   0.228E+02 0.132E+02 0.916E+03   -.106E+01 -.615E+00 -.913E+00   0.133E+00 0.771E-01 0.494E+00
   0.221E+02 -.127E+02 -.915E+03   -.228E+02 0.132E+02 0.916E+03   0.106E+01 -.615E+00 -.913E+00   -.124E+00 0.768E-01 0.494E+00
   -.100E+02 0.578E+01 -.917E+03   0.948E+01 -.548E+01 0.917E+03   0.354E+00 -.205E+00 0.477E+00   0.187E+00 -.102E+00 0.377E+00
   -.511E-04 0.255E+02 -.915E+03   0.378E-04 -.263E+02 0.916E+03   0.807E-11 0.123E+01 -.913E+00   -.732E-03 -.155E+00 0.493E+00
   0.100E+02 0.578E+01 -.917E+03   -.948E+01 -.548E+01 0.917E+03   -.354E+00 -.205E+00 0.477E+00   -.176E+00 -.102E+00 0.378E+00
   0.363E+01 0.210E+01 -.920E+03   -.351E+01 -.203E+01 0.919E+03   -.115E+00 -.662E-01 0.935E+00   -.444E-02 -.152E-02 0.385E+00
   -.363E+01 0.210E+01 -.920E+03   0.351E+01 -.203E+01 0.919E+03   0.115E+00 -.662E-01 0.935E+00   0.135E-01 -.144E-02 0.386E+00
   0.187E-04 -.116E+02 -.917E+03   0.109E-03 0.110E+02 0.917E+03   0.269E-11 0.409E+00 0.477E+00   0.432E-02 0.213E+00 0.378E+00
   0.534E-04 -.357E-04 -.272E+04   -.114E-03 0.769E-04 0.271E+04   0.477E-17 -.119E-17 0.169E+01   -.205E-04 0.155E-02 0.145E+00
   0.329E+01 0.632E+00 -.270E+04   -.258E+01 0.499E+00 0.270E+04   -.923E+00 -.145E+01 0.153E+01   0.152E+00 0.239E+00 0.168E+00
   -.329E+01 0.632E+00 -.270E+04   0.258E+01 0.499E+00 0.270E+04   0.923E+00 -.145E+01 0.153E+01   -.152E+00 0.241E+00 0.168E+00
   0.219E+01 0.254E+01 -.270E+04   -.856E+00 -.248E+01 0.270E+04   -.172E+01 -.722E-01 0.153E+01   0.277E+00 0.202E-02 0.168E+00
   -.219E+01 0.254E+01 -.270E+04   0.856E+00 -.248E+01 0.270E+04   0.172E+01 -.722E-01 0.153E+01   -.289E+00 0.272E-02 0.168E+00
   -.110E+01 -.317E+01 -.270E+04   0.172E+01 0.198E+01 0.270E+04   -.798E+00 0.153E+01 0.153E+01   0.132E+00 -.250E+00 0.168E+00
   0.110E+01 -.317E+01 -.270E+04   -.172E+01 0.198E+01 0.270E+04   0.798E+00 0.153E+01 0.153E+01   -.131E+00 -.252E+00 0.169E+00
   0.245E-04 -.120E-04 -.272E+04   0.104E-03 -.655E-04 0.272E+04   0.153E-17 -.690E-18 0.179E+01   -.644E-02 -.200E-02 0.285E+00
   -.116E-04 -.892E-06 -.108E+04   0.479E-04 0.590E-05 0.108E+04   0.586E-18 -.636E-18 -.268E+01   0.776E-03 -.931E-04 0.134E+00
   -.228E-06 -.734E-04 -.989E+03   0.173E-04 0.206E-06 0.968E+03   0.894E-18 0.151E-18 0.206E+02   0.125E-02 0.428E-03 -.124E+00
   0.239E-03 -.907E-04 -.168E+04   0.827E-05 0.805E-08 0.168E+04   0.329E-18 0.669E-19 -.328E+01   0.390E-02 0.219E-02 -.182E+00
   0.664E-05 -.144E-04 -.325E+03   0.566E-06 -.226E-08 0.334E+03   -.123E-20 -.192E-19 -.876E+01   0.209E-03 0.112E-03 -.260E-01
   0.597E-03 -.856E-03 -.811E+01   -.615E-13 -.718E-14 0.819E-11   -.219E-15 0.443E-15 0.772E+00   0.384E-01 0.103E-01 0.748E+01

 POSITION                                       TOTAL-FORCE (eV/Angst)
      0.00000      0.00000      5.28219        -0.000000      0.000000     -0.036205
      2.93046      0.00000      5.28219        -0.001908      0.011690      0.030436
      5.86091      0.00000      5.28219         0.001908      0.011690      0.030436
      1.46523      2.53785      5.28219         0.009170     -0.007498      0.030436
      4.39568      2.53785      5.28219         0.000000      0.000000     -0.026363
      7.32614      2.53785      5.28219        -0.009170     -0.007498      0.030436
      2.93046      5.07570      5.28219         0.011078     -0.004192      0.030436
      5.86091      5.07570      5.28219        -0.011078     -0.004192      0.030436
      8.79137      5.07570      5.28219        -0.000000      0.000000      0.015468
      1.46523      0.84595      7.67490        -0.033946     -0.019599     -0.040482
      4.39568      0.84595      7.67490        -0.000000     -0.044112     -0.075845
      7.32614      0.84595      7.67490         0.033946     -0.019599     -0.040482
      2.93046      3.38380      7.67490        -0.038202      0.022056     -0.075845
      5.86091      3.38380      7.67490         0.038202      0.022056     -0.075845
      8.79137      3.38380      7.67490        -0.000000     -0.015603      0.025607
      4.39568      5.92165      7.67490         0.000000      0.039197     -0.040482
      7.32614      5.92165      7.67490        -0.013512      0.007801      0.025607
     10.25659      5.92165      7.67490         0.013512      0.007801      0.025607
      8.79137      1.69476     10.06939         0.000000      0.006009      0.067627
      2.92162      1.68680     10.02387        -0.204361     -0.117988     -0.219622
      5.86975      1.68680     10.02387         0.204361     -0.117988     -0.219622
     10.25272      4.23198     10.06895         0.015018     -0.008671      0.041865
      4.39568      4.23995     10.02387         0.000000      0.235976     -0.219622
      7.33001      4.23198     10.06895        -0.015018     -0.008671      0.041865
     11.71935      6.76617     10.06939        -0.005204     -0.003005      0.067627
      5.86339      6.76617     10.06939         0.005204     -0.003005      0.067627
      8.79137      6.76312     10.06895         0.000000      0.017341      0.041865
      0.00000      0.00000     12.45783        -0.000000      0.000000     -0.068641
      2.95723      0.04373     12.49962        -0.057941     -0.082937     -0.040853
      5.83413      0.04373     12.49962         0.057941     -0.082937     -0.040853
      1.51649      2.53918     12.49962        -0.100796     -0.008710     -0.040853
      7.27488      2.53918     12.49962         0.100796     -0.008710     -0.040853
      2.95494      5.03064     12.49962        -0.042855      0.091647     -0.040853
      5.83643      5.03064     12.49962         0.042855      0.091647     -0.040853
      8.79137      5.07570     12.47105         0.000000      0.000000     -0.081479
      4.39568      2.53785     12.22632        -0.000000      0.000000      0.841728
      4.39568      2.53785     14.13902        -0.000000      0.000000      0.023386
      4.39568      2.53785     15.41417        -0.000000      0.000000     -0.014486
      4.39568      2.53785     16.36824        -0.000000      0.000000      0.011641
    total drift:                                0.038996      0.009473      0.137591

  FREE ENERGIE OF THE ION-ELECTRON SYSTEM (eV)
  free  energy   TOTEN  =      -116.64521369 eV

  energy  without entropy=     -116.64521369  energy(sigma->0) =     -116.64521369

 stress matrix after NEB project (eV)
     -7.80021     -0.00000     -0.00000
     -0.00000     -7.80021      0.00000
     -0.00000      0.00000      1.04695
  FORCES: max atom, RMS     0.023386    0.004783
  FORCE total and by dimension    0.029871    0.023386
  Stress total and by dimension   11.080732    7.800209
|           W    W    AA    RRRRR   N    N  II  N    N   GGGG   !!!           |
|           W    W   A  A   R    R  NN   N  II  NN   N  G    G  !!!           |
|           W    W  A    A  R    R  N N  N  II  N N  N  G       !!!           |
|           W WW W  AAAAAA  RRRRR   N  N N  II  N  N N  G  GGG   !            |
|           WW  WW  A    A  R   R   N   NN  II  N   NN  G    G                |
|           W    W  A    A  R    R  N    N  II  N    N   GGGG   !!!           |
|     Tetrahedron method does not include variations of the Fermi             |
|     occupations, so forces and stress will be inaccurate. We suggest        |
|     using a different smearing scheme ISMEAR = 1 or 2 for metals in         |
|     relaxations.                                                            |

 total charge

# of ion       s       p       d       tot
    1        0.419   0.202   9.179   9.800
    2        0.416   0.204   9.177   9.797
    3        0.416   0.204   9.177   9.797
    4        0.416   0.204   9.177   9.797
    5        0.422   0.202   9.175   9.798
    6        0.416   0.204   9.177   9.797
    7        0.416   0.204   9.177   9.797
    8        0.416   0.204   9.177   9.797
    9        0.416   0.203   9.179   9.797
   10        0.409   0.270   9.163   9.842
   11        0.410   0.268   9.167   9.845
   12        0.409   0.270   9.163   9.842
   13        0.410   0.268   9.167   9.845
   14        0.410   0.268   9.167   9.845
   15        0.402   0.270   9.164   9.836
   16        0.409   0.270   9.163   9.842
   17        0.402   0.270   9.164   9.836
   18        0.402   0.270   9.164   9.836
   19        0.401   0.264   9.165   9.830
   20        0.443   0.304   9.136   9.883
   21        0.443   0.304   9.136   9.883
   22        0.392   0.272   9.166   9.830
   23        0.443   0.304   9.136   9.883
   24        0.392   0.272   9.166   9.830
   25        0.401   0.264   9.165   9.830
   26        0.401   0.264   9.165   9.830
   27        0.392   0.272   9.166   9.830
   28        0.409   0.200   9.177   9.787
   29        0.436   0.221   9.155   9.811
   30        0.436   0.221   9.155   9.811
   31        0.436   0.221   9.155   9.811
   32        0.436   0.221   9.155   9.811
   33        0.436   0.221   9.155   9.811
   34        0.436   0.221   9.155   9.811
   35        0.410   0.200   9.176   9.786
   36        0.660   0.694   3.323   4.678
   37        0.924   1.435   0.000   2.359
   38        1.518   3.765   0.000   5.283
   39        0.570   0.140   0.000   0.710
tot         18.223  14.536 324.081 356.839

 BZINTS: Fermi energy:    0.430012;  401.000000 electrons
         Band energy:-0.155699E+04;  BLOECHL correction:   -0.039898