 vasp.6.2.0 18Jan21 (build Jun 12 2021 23:27:24) complex

 executed on             LinuxIFC date 2022.05.28  02:30:07

 INCAR:
   ISMEAR = -5
   SIGMA = 0.1
   ISPIN = 1
   EDIFF = 1.d-5
   EDIFFG = -0.01
   NSW = 0
   NELM = 150
   ENCUT = 500
   ISIF = 2
   IBRION = 2
   LREAL = Auto
   ALGO = Fast
   ICHARG = 11
   LORBIT = 10
   LCHARG = .F.
   LWAVE = .F.

 POTCAR:    PAW_PBE Cu 22Jun2005
 POTCAR:    PAW_PBE Zr_sv 04Jan2005
 POTCAR:    PAW_PBE H 15Jun2001
 POTCAR:    PAW_PBE O 08Apr2002
|           W    W    AA    RRRRR   N    N  II  N    N   GGGG   !!!           |
|           W    W   A  A   R    R  NN   N  II  NN   N  G    G  !!!           |
|           W    W  A    A  R    R  N N  N  II  N N  N  G       !!!           |
|           W WW W  AAAAAA  RRRRR   N  N N  II  N  N N  G  GGG   !            |
|           WW  WW  A    A  R   R   N   NN  II  N   NN  G    G                |
|           W    W  A    A  R    R  N    N  II  N    N   GGGG   !!!           |
|     For optimal performance we recommend to set                             |
|       NCORE = 2 up to number-of-cores-per-socket                            |
|     This setting can greatly improve the performance of VASP for DFT.       |
|     The default, NCORE=1 might be grossly inefficient on modern             |
|     multi-core architectures or massively parallel machines. Do your        |
|     Unfortunately you need to use the default for GW and RPA                |
|     calculations (for HF NCORE is supported but not extensively tested      |
|     yet).                                                                   |

 POTCAR:    PAW_PBE Cu 22Jun2005
   VRHFIN =Cu: d10 p1

   TITEL  = PAW_PBE Cu 22Jun2005
   POMASS =   63.546; ZVAL   =   11.000    mass and valenz
   ENMAX  =  295.446; ENMIN  =  221.585 eV

 POTCAR:    PAW_PBE Zr_sv 04Jan2005
   VRHFIN =Zr: 4s4p5s4d

   TITEL  = PAW_PBE Zr_sv 04Jan2005
   POMASS =   91.224; ZVAL   =   12.000    mass and valenz
   ENMAX  =  229.898; ENMIN  =  172.424 eV

 POTCAR:    PAW_PBE H 15Jun2001
   VRHFIN =H: ultrasoft test

   TITEL  = PAW_PBE H 15Jun2001
   POMASS =    1.000; ZVAL   =    1.000    mass and valenz
   ENMAX  =  250.000; ENMIN  =  200.000 eV

 POTCAR:    PAW_PBE O 08Apr2002
   VRHFIN =O: s2p4

   TITEL  = PAW_PBE O 08Apr2002
   POMASS =   16.000; ZVAL   =    6.000    mass and valenz
   ENMAX  =  400.000; ENMIN  =  300.000 eV

 Optimization of the real space projectors (new method)

 maximal supplied QI-value         = 16.25
 optimisation between [QCUT,QGAM] = [ 11.38, 22.75] = [ 36.24,144.96] Ry
 Optimized for a Real-space Cutoff    1.52 Angstroem

   l    n(q)    QCUT    max X(q) W(low)/X(q) W(high)/X(q)  e(spline)
   2      9    11.376     4.610    0.21E-03    0.10E-03    0.26E-06
   2      9    11.376     8.522    0.33E-03    0.16E-03    0.37E-06
   0     10    11.376    51.609    0.62E-04    0.20E-04    0.13E-06
   0     10    11.376    27.747    0.54E-04    0.20E-04    0.13E-06
   1     10    11.376    20.408    0.13E-04    0.99E-04    0.19E-06
   1     10    11.376    13.425    0.12E-04    0.87E-04    0.17E-06
 Optimization of the real space projectors (new method)

[...]

   l    n(q)    QCUT    max X(q) W(low)/X(q) W(high)/X(q)  e(spline)
   0      8    11.287    19.460    0.40E-03    0.73E-03    0.16E-06
   0      8    11.287    12.209    0.38E-03    0.70E-03    0.15E-06
   1      7    11.287     4.655    0.22E-03    0.25E-04    0.22E-06
 Optimization of the real space projectors (new method)

 maximal supplied QI-value         = 24.76
 optimisation between [QCUT,QGAM] = [ 11.39, 22.77] = [ 36.31,145.25] Ry
 Optimized for a Real-space Cutoff    1.00 Angstroem

   l    n(q)    QCUT    max X(q) W(low)/X(q) W(high)/X(q)  e(spline)
   0      7    11.387    20.381    0.39E-03    0.13E-02    0.15E-06
   0      7    11.387    15.268    0.42E-03    0.14E-02    0.17E-06
   1      6    11.387     5.964    0.41E-03    0.11E-02    0.17E-06
   1      6    11.387     5.382    0.39E-03    0.87E-03    0.15E-06
  PAW_PBE Cu 22Jun2005                  :
  PAW_PBE Zr_sv 04Jan2005               :
  PAW_PBE H 15Jun2001                   :
  PAW_PBE O 08Apr2002                   :

 POSCAR: Cu-Zr-H2O
  positions in direct lattice
  velocities in cartesian coordinates
 exchange correlation table for  LEXCH =        8
   RHO(1)=    0.500       N(1)  =     2000
   RHO(2)=  100.500       N(2)  =     4000

 VTST: version 3.2, (02/03/18)

 CHAIN: initializing optimizer

 OPT: Using VASP Conjugate-Gradient optimizer
 CHAIN: Read ICHAIN            0

 POSCAR: Cu-Zr-H2O
  positions in direct lattice
  velocities in cartesian coordinates

 ion  position               nearest neighbor table
   1  0.000  0.000  0.221-   7 2.57   3 2.57   4 2.57   2 2.57   6 2.57   8 2.57  12 2.57  10 2.57
                            16 2.57
   2  0.333  0.000  0.221-   8 2.57   9 2.57   5 2.57   1 2.57   3 2.57  11 2.57   4 2.57  10 2.57
                            17 2.57
   3  0.667  0.000  0.221-   1 2.57   7 2.57   6 2.57   9 2.57   2 2.57  12 2.57   5 2.57  18 2.57
                            11 2.57
   4  0.000  0.333  0.221-   5 2.57   6 2.57   1 2.57   7 2.57   2 2.57  13 2.57   9 2.57  10 2.57
                            15 2.57
   5  0.333  0.333  0.221-   4 2.57   2 2.57   7 2.57  13 2.57   8 2.57   6 2.57   3 2.57  11 2.57
                            14 2.57
   6  0.667  0.333  0.221-   4 2.57   9 2.57  15 2.57   3 2.57   1 2.57   8 2.57  14 2.57   5 2.57
                            12 2.57
   7  0.000  0.667  0.221-   1 2.57   3 2.57  16 2.57  18 2.57   4 2.57   5 2.57   8 2.57   9 2.57
                            13 2.57
   8  0.333  0.667  0.221-   9 2.57   2 2.57  17 2.57   6 2.57   1 2.57   7 2.57   5 2.57  14 2.57
                            16 2.57
   9  0.667  0.667  0.221-   8 2.57   6 2.57   2 2.57  17 2.57   3 2.57   7 2.57   4 2.57  15 2.57
                            18 2.57
  10  0.111  0.111  0.308-  26 2.54  19 2.54  11 2.57  12 2.57  13 2.57   1 2.57   2 2.57   4 2.57
                            15 2.57  16 2.57  17 2.57  20 2.59
  11  0.444  0.111  0.308-  27 2.56  10 2.57  13 2.57   2 2.57  17 2.57  14 2.57  12 2.57   5 2.57
                             3 2.57  18 2.57  20 2.58  21 2.58
  12  0.778  0.111  0.308-  19 2.54  25 2.54  15 2.57  10 2.57  14 2.57  18 2.57   3 2.57   1 2.57
                            16 2.57  11 2.57   6 2.57  21 2.59
  13  0.111  0.444  0.308-  22 2.56  16 2.57  18 2.57  10 2.57  11 2.57  14 2.57   5 2.57   4 2.57
                             7 2.57  15 2.57  23 2.58  20 2.58
  14  0.444  0.444  0.308-  24 2.56  15 2.57  17 2.57  12 2.57  16 2.57  13 2.57  11 2.57   6 2.57
                             8 2.57   5 2.57  21 2.58  23 2.58
  15  0.778  0.444  0.308-  19 2.54  24 2.56  22 2.56  14 2.57  17 2.57  12 2.57   6 2.57  18 2.57
                            10 2.57   9 2.57  13 2.57   4 2.57
  16  0.111  0.778  0.308-  25 2.54  26 2.54  18 2.57  13 2.57   7 2.57  14 2.57  17 2.57  12 2.57
                            10 2.57   8 2.57   1 2.57  23 2.59
  17  0.444  0.778  0.308-  26 2.54  27 2.56  24 2.56  14 2.57  15 2.57   8 2.57   9 2.57  11 2.57
                            16 2.57  18 2.57  10 2.57   2 2.57
  18  0.778  0.778  0.308-  25 2.54  22 2.56  27 2.56  16 2.57  13 2.57   7 2.57  15 2.57  12 2.57
                            17 2.57   9 2.57   3 2.57  11 2.57
  19  0.889  0.221  0.393-  12 2.54  10 2.54  15 2.54  25 2.55  26 2.55  32 2.56  31 2.56  22 2.57
                            24 2.57  28 2.57  21 2.58  20 2.58
  20  0.223  0.223  0.395-  23 2.55  21 2.55  29 2.57  31 2.57  27 2.57  22 2.57  26 2.58  19 2.58
                            11 2.58  13 2.58  10 2.59  36 2.86
  21  0.554  0.223  0.395-  20 2.55  23 2.55  32 2.57  30 2.57  24 2.57  27 2.57  19 2.58  25 2.58
                            14 2.58  11 2.58  12 2.59  36 2.86
  22  0.889  0.556  0.394-  18 2.56  15 2.56  13 2.56  31 2.56  33 2.56  24 2.57  27 2.57  23 2.57
                            20 2.57  19 2.57  25 2.57  35 2.58
  23  0.223  0.554  0.395-  20 2.55  21 2.55  33 2.57  34 2.57  22 2.57  24 2.57  25 2.58  26 2.58
                            13 2.58  14 2.58  16 2.59  36 2.86
  24  0.556  0.556  0.394-  15 2.56  17 2.56  14 2.56  32 2.56  34 2.56  22 2.57  27 2.57  21 2.57
                            23 2.57  19 2.57  26 2.57  35 2.58
  25  0.889  0.889  0.393-  12 2.54  16 2.54  18 2.54  19 2.55  26 2.55  33 2.56  30 2.56  22 2.57
                            27 2.57  28 2.57  21 2.58  23 2.58
  26  0.221  0.889  0.393-  10 2.54  16 2.54  17 2.54  25 2.55  19 2.55  29 2.56  34 2.56  27 2.57
                            24 2.57  28 2.57  20 2.58  23 2.58
  27  0.556  0.889  0.394-  17 2.56  18 2.56  11 2.56  29 2.56  30 2.56  24 2.57  22 2.57  20 2.57
                            21 2.57  26 2.57  25 2.57  35 2.58
  28  0.000  0.000  0.479-  33 2.55  30 2.55  31 2.55  29 2.55  32 2.55  34 2.55  25 2.57  19 2.57
                            26 2.57
  29  0.334  0.994  0.480-  34 2.47  35 2.54  28 2.55  27 2.56  26 2.56  20 2.57  30 2.60  31 2.62
                            36 2.64
  30  0.672  0.994  0.480-  33 2.47  35 2.54  28 2.55  27 2.56  25 2.56  21 2.57  29 2.60  32 2.62
                            36 2.64
  31  0.994  0.334  0.480-  32 2.47  35 2.54  28 2.55  22 2.56  19 2.56  20 2.57  33 2.60  29 2.62
                            36 2.64
  32  0.672  0.334  0.480-  31 2.47  35 2.54  28 2.55  24 2.56  19 2.56  21 2.57  34 2.60  30 2.62
                            36 2.64
  33  0.994  0.672  0.480-  30 2.47  35 2.54  28 2.55  22 2.56  25 2.56  23 2.57  31 2.60  34 2.62
                            36 2.64
  34  0.334  0.672  0.480-  29 2.47  35 2.54  28 2.55  24 2.56  26 2.56  23 2.57  32 2.60  33 2.62
                            36 2.64
  35  0.667  0.667  0.481-  34 2.54  32 2.54  29 2.54  30 2.54  33 2.54  31 2.54  24 2.58  27 2.58
                            22 2.58
  36  0.333  0.333  0.496-  39 2.29  31 2.64  29 2.64  33 2.64  32 2.64  34 2.64  30 2.64  23 2.86
                            20 2.86  21 2.86
  37  0.230  0.333  0.613-  39 0.97
  38  0.437  0.333  0.613-  39 0.97
  39  0.333  0.335  0.590-  37 0.97  38 0.97  36 2.29

  LATTYP: Found a hexagonal cell.
 ALAT       =     7.6967864036
 C/A-ratio  =     3.1535378041

  Lattice vectors:

 A1 = (  -3.8483927580,  -6.6656128093,   0.0000000000)
 A2 = (   7.6967864037,   0.0000000000,   0.0000000000)
 A3 = (   0.0000000000,   0.0000000000,  24.2721068937)

Analysis of symmetry for initial positions (statically):
 Subroutine PRICEL returns:
 Original cell was already a primitive cell.

 Routine SETGRP: Setting up the symmetry group for a
 hexagonal supercell.

 Subroutine GETGRP returns: Found  1 space group operations
 (whereof  1 operations were pure point group operations)
 out of a pool of 24 trial point group operations.

The static configuration has the point symmetry C_1 .

Analysis of symmetry for dynamics (positions and initial velocities):
 Subroutine PRICEL returns:
 Original cell was already a primitive cell.

[...]

The dynamic configuration has the point symmetry C_1 .

Analysis of constrained symmetry for selective dynamics:
 Subroutine PRICEL returns:
[...]
     41      -3.7075      2.00000
     42      -3.6637      2.00000
     43      -3.6252      2.00000
     44      -3.6024      2.00000
     45      -3.4594      2.00000
     46      -3.4406      2.00000
     47      -3.4042      2.00000
     48      -3.3874      2.00000
     49      -3.3633      2.00000
     50      -3.3559      2.00000
     51      -3.3500      2.00000
     52      -3.3398      2.00000
     53      -3.3206      2.00000
     54      -3.1961      2.00000
     55      -3.1756      2.00000
     56      -3.1542      2.00000
     57      -3.1329      2.00000
     58      -3.0788      2.00000
     59      -3.0646      2.00000
     60      -3.0524      2.00000
[...]
    238       5.5623      0.00000
    239       5.7056      0.00000
    240       5.7611      0.00000
    241       5.8996      0.00000
    242       5.9782      0.00000
    243       6.0240      0.00000
    244       6.0926      0.00000
    245       6.2462      0.00000
    246       6.2811      0.00000
    247       6.2928      0.00000
    248       6.3416      0.00000
    249       6.4215      0.00000
    250       6.8703      0.00000
    251       6.8795      0.00000
    252       7.1798      0.00000

 soft charge-density along one line, spin component           1
         0         1         2         3         4         5         6         7         8         9
 total charge-density along one line

------------------------ aborting loop because EDIFF is reached ----------------------------------------

 total charge

# of ion       s       p       d       tot
    1        0.449   0.284   9.187   9.920
    2        0.448   0.286   9.185   9.919
    3        0.448   0.286   9.185   9.919
    4        0.448   0.286   9.185   9.919
    5        0.448   0.287   9.182   9.916
    6        0.448   0.286   9.185   9.919
    7        0.448   0.286   9.185   9.919
    8        0.448   0.286   9.185   9.919
    9        0.450   0.285   9.186   9.920
   10        0.443   0.371   9.176   9.990
   11        0.441   0.365   9.181   9.986
   12        0.443   0.371   9.176   9.990
   13        0.441   0.365   9.181   9.987
   14        0.441   0.365   9.181   9.986
   15        0.439   0.373   9.177   9.989
   16        0.442   0.371   9.177   9.990
   17        0.439   0.373   9.177   9.989
   18        0.439   0.373   9.177   9.989
   19        0.447   0.374   9.179   9.999
   20        0.456   0.380   9.162   9.997
   21        0.456   0.380   9.162   9.997
   22        0.435   0.377   9.177   9.989
   23        0.455   0.380   9.161   9.997
   24        0.435   0.377   9.177   9.989
   25        0.446   0.373   9.180   9.999
   26        0.446   0.373   9.180   9.999
   27        0.435   0.377   9.177   9.989
   28        0.442   0.303   9.177   9.922
   29        0.488   0.327   9.158   9.974
   30        0.488   0.327   9.158   9.974
   31        0.488   0.330   9.155   9.973
   32        0.488   0.330   9.155   9.973
   33        0.488   0.327   9.158   9.974
   34        0.488   0.327   9.158   9.974
   35        0.442   0.308   9.178   9.928
   36        2.219   5.976   1.577   9.772
   37        0.604   0.121   0.000   0.725
   38        0.604   0.121   0.000   0.725
   39        1.552   3.670   0.000   5.221
tot         20.807  21.755 322.699 365.261

  FORCE on cell =-STRESS in cart. coord.  units (eV):
  Direction    XX          YY          ZZ          XY          YZ          ZX
  Alpha Z   801.93538   801.93538   801.93538
  Ewald  233207.51835233076.03147************    -0.04808    -0.54139     0.01036
  Hartree246359.75662246334.69666************    -0.01204     0.01786     0.00625
  E(xc)   -2333.40961 -2333.97525 -2338.11812    -0.00033    -0.00278     0.00006
  Local  ************************492781.05802     0.07227     0.16655    -0.01589
  n-local  -796.96289  -797.17885  -799.19376     0.00203     0.02078     0.00050
  augment  3316.93012  3319.31039  3336.98939    -0.01831     0.02108    -0.00020
  Kinetic  3494.83055  3529.88655  3522.95824     0.01423     0.31037    -0.00378
  Fock        0.00000     0.00000     0.00000     0.00000     0.00000     0.00000
  Total      -6.19775    -6.16067    -1.55714     0.00977    -0.00753    -0.00270
  in kB      -7.97421    -7.92650    -2.00346     0.01257    -0.00968    -0.00348

 VOLUME and BASIS-vectors are now :
  energy-cutoff  :      500.00
  volume of cell :     1245.25
      direct lattice vectors                 reciprocal lattice vectors
     7.696786404  0.000000000  0.000000000     0.129924354 -0.075011849  0.000000000
     3.848392758  6.665612809  0.000000000     0.000000000  0.150023716  0.000000000
     0.000000000  0.000000000 24.272106894     0.000000000  0.000000000  0.041199555

  length of vectors
     7.696786404  7.696786404 24.272106894     0.150023716  0.150023716  0.041199555

 FORCES acting on ions
    electron-ion (+dipol)            ewald-force                    non-local-force                 convergence-correction
   0.259E-02 0.242E-01 0.381E+04   0.592E-04 -.148E-02 -.380E+04   0.134E-03 -.144E-01 -.216E+01   -.279E-02 -.101E-01 -.111E+00
   -.928E+00 -.962E+00 0.380E+04   0.885E+00 0.936E+00 -.380E+04   0.331E-01 0.575E-01 -.189E+01   0.188E-01 -.258E-01 -.312E-01
   0.925E+00 -.976E+00 0.380E+04   -.885E+00 0.936E+00 -.380E+04   -.337E-01 0.563E-01 -.189E+01   -.155E-01 -.110E-01 -.269E-01
   -.132E+01 -.331E+00 0.380E+04   0.125E+01 0.297E+00 -.380E+04   0.850E-01 0.997E-02 -.189E+01   -.108E-01 0.275E-01 -.364E-01
   -.177E-01 0.133E-01 0.380E+04   0.116E-03 -.631E-03 -.380E+04   -.873E-02 -.169E-01 -.185E+01   0.266E-01 0.455E-02 -.267E-01
   0.133E+01 -.336E+00 0.380E+04   -.125E+01 0.297E+00 -.380E+04   -.844E-01 0.938E-02 -.189E+01   -.217E-02 0.331E-01 -.286E-01
   -.357E+00 0.129E+01 0.380E+04   0.370E+00 -.123E+01 -.380E+04   0.115E-01 -.629E-01 -.188E+01   -.206E-01 -.522E-03 -.144E-01
   0.346E+00 0.130E+01 0.380E+04   -.370E+00 -.123E+01 -.380E+04   -.135E-01 -.622E-01 -.188E+01   0.342E-01 -.995E-02 -.114E-01
   0.162E-01 -.789E-02 0.380E+04   0.262E-03 0.211E-02 -.380E+04   0.957E-02 0.130E-01 -.194E+01   -.264E-01 -.617E-02 -.276E-01
   -.104E+02 -.599E+01 0.134E+04   0.106E+02 0.611E+01 -.134E+04   -.163E+00 -.118E+00 -.875E+00   0.230E-01 0.279E-01 -.443E+00
   -.160E-01 -.849E+01 0.132E+04   0.182E-03 0.819E+01 -.132E+04   -.855E-02 0.269E+00 -.432E+00   0.248E-01 0.213E-01 -.481E+00
   0.104E+02 -.600E+01 0.134E+04   -.106E+02 0.611E+01 -.134E+04   0.164E+00 -.119E+00 -.875E+00   -.354E-01 0.411E-01 -.441E+00
   -.736E+01 0.424E+01 0.132E+04   0.711E+01 -.410E+01 -.132E+04   0.234E+00 -.138E+00 -.414E+00   0.146E-01 0.155E-02 -.453E+00
   0.734E+01 0.425E+01 0.132E+04   -.711E+01 -.410E+01 -.132E+04   -.252E+00 -.137E+00 -.414E+00   0.315E-01 -.302E-02 -.452E+00
   0.172E-01 -.203E+01 0.134E+04   0.292E-03 0.195E+01 -.134E+04   0.229E-02 0.694E-01 -.897E+00   -.197E-01 0.187E-01 -.430E+00
   -.393E-02 0.120E+02 0.134E+04   0.196E-03 -.122E+02 -.134E+04   0.235E-03 0.204E+00 -.865E+00   0.349E-02 -.386E-01 -.430E+00
   -.176E+01 0.101E+01 0.134E+04   0.168E+01 -.962E+00 -.134E+04   0.553E-01 -.220E-01 -.880E+00   0.255E-01 -.348E-01 -.445E+00
   0.176E+01 0.998E+00 0.134E+04   -.168E+01 -.962E+00 -.134E+04   -.561E-01 -.235E-01 -.880E+00   -.285E-01 -.170E-01 -.444E+00
   0.141E-01 -.464E+01 -.112E+04   0.922E-04 0.474E+01 0.112E+04   0.112E-02 -.931E-01 0.848E+00   -.153E-01 -.177E-01 -.381E+00
   -.257E+02 -.148E+02 -.120E+04   0.267E+02 0.153E+02 0.120E+04   -.109E+01 -.626E+00 -.715E+00   0.321E-01 0.688E-01 -.277E+00
   0.257E+02 -.148E+02 -.120E+04   -.267E+02 0.153E+02 0.120E+04   0.107E+01 -.627E+00 -.715E+00   0.114E-01 0.781E-01 -.280E+00
   -.108E+02 0.617E+01 -.115E+04   0.106E+02 -.600E+01 0.115E+04   0.256E+00 -.129E+00 0.683E+00   0.243E-01 -.500E-01 -.373E+00
   -.189E-01 0.296E+02 -.120E+04   0.202E-03 -.308E+02 0.120E+04   -.866E-02 0.125E+01 -.638E+00   0.278E-01 -.509E-01 -.289E+00
   0.108E+02 0.618E+01 -.115E+04   -.106E+02 -.600E+01 0.115E+04   -.254E+00 -.128E+00 0.683E+00   -.401E-01 -.580E-01 -.374E+00
   0.405E+01 0.237E+01 -.112E+04   -.418E+01 -.242E+01 0.112E+04   0.828E-01 0.318E-01 0.937E+00   0.549E-01 0.291E-01 -.400E+00
   -.405E+01 0.238E+01 -.112E+04   0.418E+01 -.242E+01 0.112E+04   -.832E-01 0.330E-01 0.937E+00   -.534E-01 0.115E-01 -.398E+00
   0.161E-02 -.125E+02 -.115E+04   0.171E-03 0.122E+02 0.115E+04   0.611E-03 0.275E+00 0.742E+00   -.243E-02 0.173E-01 -.389E+00
   0.108E-02 0.442E+00 -.363E+04   0.435E-03 -.490E+00 0.363E+04   0.315E-03 0.314E-01 0.154E+01   -.173E-02 0.208E-01 -.504E-01
   0.427E+01 -.571E+01 -.359E+04   -.395E+01 0.585E+01 0.359E+04   -.323E+00 -.185E+00 0.319E+00   -.259E-01 0.115E-01 -.174E+00
   -.427E+01 -.573E+01 -.359E+04   0.395E+01 0.585E+01 0.359E+04   0.322E+00 -.186E+00 0.319E+00   0.286E-01 0.266E-01 -.176E+00
   -.280E+01 0.709E+01 -.359E+04   0.313E+01 -.689E+01 0.359E+04   -.351E+00 -.180E+00 0.616E-01   0.229E-02 -.176E-01 -.159E+00
   0.281E+01 0.708E+01 -.359E+04   -.313E+01 -.689E+01 0.359E+04   0.351E+00 -.180E+00 0.625E-01   -.157E-01 -.121E-01 -.165E+00
   -.765E+01 -.148E+01 -.359E+04   0.762E+01 0.114E+01 0.359E+04   -.758E-02 0.369E+00 0.327E+00   0.885E-02 0.137E-02 -.195E+00
   0.764E+01 -.147E+01 -.359E+04   -.762E+01 0.114E+01 0.359E+04   0.587E-02 0.369E+00 0.328E+00   0.450E-02 -.776E-02 -.200E+00
   0.169E-01 -.577E+00 -.365E+04   -.169E-03 0.653E+00 0.365E+04   0.964E-02 -.508E-01 0.182E+01   -.268E-01 -.319E-01 -.179E+00
   -.162E-01 0.654E+00 -.403E+04   -.190E-03 -.669E+00 0.403E+04   -.779E-03 -.360E-02 0.280E+01   0.169E-01 0.383E-02 -.160E+00
   0.740E+02 0.892E+00 -.385E+03   -.811E+02 -.977E+00 0.390E+03   0.710E+01 0.830E-01 -.464E+01   -.792E-03 -.361E-03 0.121E-01
   -.740E+02 0.946E+00 -.385E+03   0.811E+02 -.104E+01 0.390E+03   -.710E+01 0.881E-01 -.464E+01   0.988E-03 -.325E-03 0.120E-01
   -.172E-01 -.131E+01 -.218E+04   0.285E-01 0.232E+01 0.214E+04   -.835E-02 -.100E+01 0.356E+02   -.455E-03 -.207E-02 0.652E-01
   -.204E-01 0.845E+00 -.393E+01   -.142E-12 -.108E-12 0.227E-11   -.475E-01 -.893E+00 0.129E+02   0.707E-01 0.389E-01 -.886E+01

 POSITION                                       TOTAL-FORCE (eV/Angst)
      0.00000      0.00000      5.37156        -0.000071     -0.001521      0.006819
      2.56560      0.00000      5.37156         0.008545      0.005991      0.045803
      5.13119      0.00000      5.37156        -0.008733      0.005869      0.045784
      1.28280      2.22187      5.37156         0.007324      0.003546      0.046921
      3.84839      2.22187      5.37156         0.000269      0.000609      0.051788
      6.41399      2.22187      5.37156        -0.007337      0.003511      0.046941
      2.56560      4.44374      5.37156         0.003625     -0.009062      0.044688
      5.13119      4.44374      5.37156        -0.003825     -0.008976      0.044740
      7.69679      4.44374      5.37156        -0.000451      0.001292      0.021505
      1.28280      0.74062      7.46636         0.039959      0.023455     -0.106076
      3.84839      0.74062      7.46636         0.000347     -0.010056     -0.012547
      6.41399      0.74062      7.46636        -0.039968      0.023388     -0.106147
      2.56560      2.96249      7.46636        -0.007370      0.008514     -0.014210
      5.13119      2.96249      7.46636         0.008223      0.008574     -0.014241
      7.69679      2.96249      7.46636         0.000015      0.008341     -0.038639
      3.84839      5.18437      7.46636        -0.000080     -0.048073     -0.105261
      6.41399      5.18437      7.46636         0.006711     -0.004711     -0.032777
      8.97958      5.18437      7.46636        -0.006773     -0.004825     -0.032812
      7.69679      1.47435      9.52922        -0.000046     -0.003815     -0.018552
      2.57570      1.48708      9.58099        -0.037187     -0.018363     -0.086095
      5.12109      1.48708      9.58099         0.038089     -0.018461     -0.086064
      8.97941      3.70322      9.55185         0.006172     -0.008038      0.002403
      3.84839      3.69145      9.58099         0.000326      0.045999     -0.083178
      6.41416      3.70322      9.55185        -0.006241     -0.007975      0.002394
     10.26835      5.92844      9.52922         0.009258      0.006121     -0.017094
      5.12522      5.92844      9.52922        -0.009386      0.006139     -0.017178
      7.69679      5.92479      9.55185        -0.000111      0.015562      0.011836
      0.00000      0.00000     11.63765         0.000026      0.005305      0.042173
      6.39598      6.62341     11.64088        -0.035309     -0.033294     -0.039660
      8.99759      6.62341     11.64088         0.035089     -0.033331     -0.039515
      8.93403      2.22738     11.64088        -0.019422     -0.001943      0.003044
      6.45955      2.22738     11.64088         0.019416     -0.002011      0.003034
     10.23483      4.48044     11.64088        -0.032675      0.033613     -0.037673
      5.15874      4.48044     11.64088         0.032517      0.033823     -0.037791
      7.69679      4.44374     11.66679        -0.000484     -0.006542      0.033648
      3.84839      2.22187     12.03290        -0.000346     -0.014033      0.470265
      3.05015      2.22048     14.87568        -0.004025     -0.002485     -0.000771
      4.64654      2.21988     14.87599         0.001463     -0.002969     -0.002727
      3.84842      2.23082     14.32024         0.002470      0.000834      0.005221
    total drift:                                0.002782     -0.008710      0.060973

  FREE ENERGIE OF THE ION-ELECTRON SYSTEM (eV)
  free  energy   TOTEN  =      -145.65957305 eV

  energy  without entropy=     -145.65957305  energy(sigma->0) =     -145.65957305

 stress matrix after NEB project (eV)
     -6.19775      0.00977     -0.00270
      0.00977     -6.16067     -0.00753
     -0.00270     -0.00753     -1.55714
  FORCES: max atom, RMS     0.005836    0.001391
  FORCE total and by dimension    0.008685    0.005221
  Stress total and by dimension    8.876425    6.197751
|           W    W    AA    RRRRR   N    N  II  N    N   GGGG   !!!           |
|           W    W   A  A   R    R  NN   N  II  NN   N  G    G  !!!           |
|           W    W  A    A  R    R  N N  N  II  N N  N  G       !!!           |
|           W WW W  AAAAAA  RRRRR   N  N N  II  N  N N  G  GGG   !            |
|           WW  WW  A    A  R   R   N   NN  II  N   NN  G    G                |
|           W    W  A    A  R    R  N    N  II  N    N   GGGG   !!!           |
|     Tetrahedron method does not include variations of the Fermi             |
|     occupations, so forces and stress will be inaccurate. We suggest        |
|     using a different smearing scheme ISMEAR = 1 or 2 for metals in         |
|     relaxations.                                                            |

 total charge

# of ion       s       p       d       tot
    1        0.449   0.284   9.187   9.920
    2        0.448   0.286   9.185   9.919
    3        0.448   0.286   9.185   9.919
    4        0.448   0.286   9.185   9.919
    5        0.448   0.287   9.182   9.916
    6        0.448   0.286   9.185   9.919
    7        0.448   0.286   9.185   9.919
    8        0.448   0.286   9.185   9.919
    9        0.450   0.285   9.186   9.920
   10        0.443   0.371   9.176   9.990
   11        0.441   0.365   9.181   9.986
   12        0.443   0.371   9.176   9.990
   13        0.441   0.365   9.181   9.987
   14        0.441   0.365   9.181   9.986
   15        0.439   0.373   9.177   9.989
   16        0.442   0.371   9.177   9.990
   17        0.439   0.373   9.177   9.989
   18        0.439   0.373   9.177   9.989
   19        0.447   0.374   9.179   9.999
   20        0.456   0.380   9.162   9.997
   21        0.456   0.380   9.162   9.997
   22        0.435   0.377   9.177   9.989
   23        0.455   0.380   9.161   9.997
   24        0.435   0.377   9.177   9.989
   25        0.446   0.373   9.180   9.999
   26        0.446   0.373   9.180   9.999
   27        0.435   0.377   9.177   9.989
   28        0.442   0.303   9.177   9.922
   29        0.488   0.327   9.158   9.974
   30        0.488   0.327   9.158   9.974
   31        0.488   0.330   9.155   9.973
   32        0.488   0.330   9.155   9.973
   33        0.488   0.327   9.158   9.974
   34        0.488   0.327   9.158   9.974
   35        0.442   0.308   9.178   9.928
   36        2.219   5.976   1.577   9.772
   37        0.604   0.121   0.000   0.725
   38        0.604   0.121   0.000   0.725
   39        1.552   3.670   0.000   5.221
tot         20.807  21.755 322.699 365.261

 BZINTS: Fermi energy:    0.404203;  405.000000 electrons
         Band energy:-0.133481E+04;  BLOECHL correction:   -0.039092