 vasp.6.2.0 18Jan21 (build Jun 12 2021 23:27:24) complex

 executed on             LinuxIFC date 2022.05.30  17:42:39

 INCAR:
   ISMEAR = -5
   SIGMA = 0.1
   ISPIN = 1
   EDIFF = 1.d-5
   EDIFFG = -0.01
   NSW = 0
   NELM = 150
   ENCUT = 500
   ISIF = 2
   IBRION = 2
   LREAL = Auto
   ALGO = Fast
   ICHARG = 11
   LORBIT = 10
   LCHARG = .F.
   LWAVE = .F.

 POTCAR:    PAW_PBE Ag 02Apr2005
 POTCAR:    PAW_PBE Os 17Jan2003
 POTCAR:    PAW_PBE C 08Apr2002
|           W    W    AA    RRRRR   N    N  II  N    N   GGGG   !!!           |
|           W    W   A  A   R    R  NN   N  II  NN   N  G    G  !!!           |
|           W    W  A    A  R    R  N N  N  II  N N  N  G       !!!           |
|           W WW W  AAAAAA  RRRRR   N  N N  II  N  N N  G  GGG   !            |
|           WW  WW  A    A  R   R   N   NN  II  N   NN  G    G                |
|           W    W  A    A  R    R  N    N  II  N    N   GGGG   !!!           |
|     For optimal performance we recommend to set                             |
|       NCORE = 2 up to number-of-cores-per-socket                            |
|     This setting can greatly improve the performance of VASP for DFT.       |
|     The default, NCORE=1 might be grossly inefficient on modern             |
|     multi-core architectures or massively parallel machines. Do your        |
|     Unfortunately you need to use the default for GW and RPA                |
|     calculations (for HF NCORE is supported but not extensively tested      |
|     yet).                                                                   |

 POTCAR:    PAW_PBE Ag 02Apr2005
   VRHFIN =Ag : s1 d10

   TITEL  = PAW_PBE Ag 02Apr2005
   POMASS =  107.868; ZVAL   =   11.000    mass and valenz
   ENMAX  =  249.844; ENMIN  =  187.383 eV

 POTCAR:    PAW_PBE Os 17Jan2003
   VRHFIN =Os: 6s5d

   TITEL  = PAW_PBE Os 17Jan2003
   POMASS =  190.200; ZVAL   =    8.000    mass and valenz
   ENMAX  =  228.022; ENMIN  =  171.017 eV

 POTCAR:    PAW_PBE C 08Apr2002
   VRHFIN =C: s2p2

   TITEL  = PAW_PBE C 08Apr2002
   POMASS =   12.011; ZVAL   =    4.000    mass and valenz
   ENMAX  =  400.000; ENMIN  =  300.000 eV

 Optimization of the real space projectors (new method)

 maximal supplied QI-value         = 15.12
 optimisation between [QCUT,QGAM] = [ 11.34, 22.83] = [ 36.00,145.93] Ry
 Optimized for a Real-space Cutoff    1.43 Angstroem

   l    n(q)    QCUT    max X(q) W(low)/X(q) W(high)/X(q)  e(spline)
   2      9    11.338    53.897    0.16E-03    0.20E-03    0.28E-06
   2      9    11.338    52.416    0.16E-03    0.20E-03    0.29E-06
   0     10    11.338   122.045    0.31E-04    0.76E-04    0.15E-06
   0     10    11.338    73.629    0.30E-04    0.72E-04    0.15E-06
   1      9    11.338    15.255    0.20E-03    0.19E-04    0.17E-06
   1      9    11.338     9.562    0.16E-03    0.15E-04    0.14E-06
 Optimization of the real space projectors (new method)

[...]

   l    n(q)    QCUT    max X(q) W(low)/X(q) W(high)/X(q)  e(spline)
   2     10    11.327   152.873    0.32E-03    0.72E-03    0.11E-05
   2     10    11.327   151.010    0.32E-03    0.72E-03    0.11E-05
   0     11    11.327    72.114    0.43E-04    0.61E-04    0.13E-06
   0     11    11.327    44.596    0.40E-04    0.57E-04    0.12E-06
   1     10    11.327    13.742    0.16E-03    0.10E-03    0.19E-06
   1     10    11.327     8.461    0.12E-03    0.78E-04    0.15E-06
 Optimization of the real space projectors (new method)

 maximal supplied QI-value         = 25.13
 optimisation between [QCUT,QGAM] = [ 11.31, 22.87] = [ 35.82,146.48] Ry
 Optimized for a Real-space Cutoff    1.00 Angstroem

   l    n(q)    QCUT    max X(q) W(low)/X(q) W(high)/X(q)  e(spline)
   0      7    11.310   115.676    0.43E-03    0.13E-02    0.19E-06
   0      7    11.310    87.132    0.43E-03    0.13E-02    0.18E-06
   1      6    11.310     4.429    0.42E-03    0.74E-03    0.11E-06
   1      6    11.310     2.733    0.34E-03    0.55E-03    0.92E-07
  PAW_PBE Ag 02Apr2005                  :
  PAW_PBE Os 17Jan2003                  :
  PAW_PBE C 08Apr2002                   :

 POSCAR: Ag-Os-C
  positions in direct lattice
  velocities in cartesian coordinates
 exchange correlation table for  LEXCH =        8
   RHO(1)=    0.500       N(1)  =     2000
   RHO(2)=  100.500       N(2)  =     4000

 VTST: version 3.2, (02/03/18)

 CHAIN: initializing optimizer

 OPT: Using VASP Conjugate-Gradient optimizer
 CHAIN: Read ICHAIN            0

 POSCAR: Ag-Os-C
  positions in direct lattice
  velocities in cartesian coordinates

 ion  position               nearest neighbor table
   1  0.000  0.000  0.217-   2 2.93   8 2.93   7 2.93   6 2.93   4 2.93  12 2.93  16 2.93  10 2.93
                             3 2.93
   2  0.333  0.000  0.217-   1 2.93   8 2.93   9 2.93   3 2.93   4 2.93   5 2.93  10 2.93  17 2.93
                            11 2.93
   3  0.667  0.000  0.217-   9 2.93   2 2.93   5 2.93  11 2.93   7 2.93  18 2.93   1 2.93   6 2.93
                            12 2.93
   4  0.000  0.333  0.217-   5 2.93   6 2.93   2 2.93   1 2.93   7 2.93  13 2.93  15 2.93   9 2.93
                            10 2.93
   5  0.333  0.333  0.217-   4 2.93   3 2.93   7 2.93   2 2.93   8 2.93  14 2.93  13 2.93  11 2.93
                             6 2.93
   6  0.667  0.333  0.217-   4 2.93   9 2.93   1 2.93  15 2.93   8 2.93  12 2.93   3 2.93   5 2.93
                            14 2.93
   7  0.000  0.667  0.217-   8 2.93   1 2.93   5 2.93   3 2.93   4 2.93  16 2.93  18 2.93  13 2.93
                             9 2.93
   8  0.333  0.667  0.217-   7 2.93   1 2.93   2 2.93   9 2.93   5 2.93  16 2.93   6 2.93  17 2.93
                            14 2.93
   9  0.667  0.667  0.217-   3 2.93   2 2.93   8 2.93   6 2.93  17 2.93   4 2.93  15 2.93   7 2.93
                            18 2.93
  10  0.111  0.111  0.315-  20 2.89  12 2.93  16 2.93  15 2.93  17 2.93  13 2.93  11 2.93   2 2.93
                             1 2.93   4 2.93  19 2.93  26 2.93
  11  0.444  0.111  0.315-  21 2.89  20 2.89  27 2.92  14 2.93  17 2.93  18 2.93   3 2.93  12 2.93
                            13 2.93  10 2.93   5 2.93   2 2.93
  12  0.778  0.111  0.315-  21 2.89  10 2.93  16 2.93  18 2.93  15 2.93  11 2.93   1 2.93  14 2.93
                             6 2.93   3 2.93  25 2.93  19 2.93
  13  0.111  0.444  0.315-  20 2.89  23 2.89  22 2.92  15 2.93  14 2.93  18 2.93  10 2.93  11 2.93
                            16 2.93   4 2.93   5 2.93   7 2.93
  14  0.444  0.444  0.315-  23 2.89  21 2.89  24 2.92  13 2.93  11 2.93  16 2.93   5 2.93  12 2.93
                            17 2.93   8 2.93  15 2.93   6 2.93
  15  0.778  0.444  0.315-  24 2.92  22 2.92  19 2.93  13 2.93  10 2.93  12 2.93  17 2.93  18 2.93
                             4 2.93   6 2.93   9 2.93  14 2.93
  16  0.111  0.778  0.315-  23 2.89  18 2.93  12 2.93  10 2.93  14 2.93  17 2.93  13 2.93   7 2.93
                             8 2.93   1 2.93  26 2.93  25 2.93
  17  0.444  0.778  0.315-  27 2.92  24 2.92  26 2.93  11 2.93  10 2.93   9 2.93  18 2.93  15 2.93
                            16 2.93   2 2.93  14 2.93   8 2.93
  18  0.778  0.778  0.315-  22 2.92  27 2.92  25 2.93  16 2.93  12 2.93  13 2.93  11 2.93  17 2.93
                            15 2.93   7 2.93   3 2.93   9 2.93
  19  0.888  0.223  0.413-  28 2.90  24 2.93  22 2.93  15 2.93  20 2.93  21 2.93  10 2.93  12 2.93
                            26 2.94  25 2.94  32 2.95  31 2.95
  20  0.222  0.222  0.411-  36 2.76  13 2.89  11 2.89  10 2.89  31 2.93  29 2.93  21 2.93  23 2.93
                            19 2.93  26 2.93  27 2.94  22 2.94
  21  0.556  0.222  0.411-  36 2.76  11 2.89  14 2.89  12 2.89  30 2.93  32 2.93  20 2.93  23 2.93
                            25 2.93  19 2.93  27 2.94  24 2.94
  22  0.888  0.556  0.413-  35 2.90  18 2.92  15 2.92  24 2.92  27 2.92  13 2.92  25 2.93  19 2.93
                            33 2.94  31 2.94  23 2.94  20 2.94
  23  0.222  0.556  0.411-  36 2.76  14 2.89  13 2.89  16 2.89  34 2.93  33 2.93  21 2.93  20 2.93
                            26 2.93  25 2.93  22 2.94  24 2.94
  24  0.556  0.556  0.413-  35 2.90  15 2.92  17 2.92  27 2.92  22 2.92  14 2.92  19 2.93  26 2.93
                            32 2.94  34 2.94  23 2.94  21 2.94
  25  0.888  0.888  0.413-  28 2.90  22 2.93  27 2.93  18 2.93  23 2.93  21 2.93  16 2.93  12 2.93
                            26 2.94  19 2.94  33 2.95  30 2.95
  26  0.223  0.888  0.413-  28 2.90  27 2.93  24 2.93  17 2.93  23 2.93  20 2.93  16 2.93  10 2.93
                            25 2.94  19 2.94  34 2.95  29 2.95
  27  0.556  0.888  0.413-  35 2.90  17 2.92  18 2.92  24 2.92  22 2.92  11 2.92  26 2.93  25 2.93
                            29 2.94  30 2.94  20 2.94  21 2.94
  28  0.000  0.000  0.510-  26 2.90  25 2.90  19 2.90  29 2.96  34 2.96  33 2.96  32 2.96  31 2.96
                            30 2.96
  29  0.333  0.008  0.511-  31 2.86  30 2.87  36 2.88  20 2.93  27 2.94  26 2.95  28 2.96  35 2.97
                            34 3.06
  30  0.659  0.008  0.511-  32 2.86  29 2.87  36 2.88  21 2.93  27 2.94  25 2.95  28 2.96  35 2.97
                            33 3.06
  31  0.008  0.333  0.511-  29 2.86  33 2.87  36 2.88  20 2.93  22 2.94  19 2.95  28 2.96  35 2.97
                            32 3.06
  32  0.659  0.333  0.511-  30 2.86  34 2.87  36 2.88  21 2.93  24 2.94  19 2.95  28 2.96  35 2.97
                            31 3.06
  33  0.008  0.659  0.511-  34 2.86  31 2.87  36 2.88  23 2.93  22 2.94  25 2.95  28 2.96  35 2.97
                            30 3.06
  34  0.333  0.659  0.511-  33 2.86  32 2.87  36 2.88  23 2.93  24 2.94  26 2.95  28 2.96  35 2.97
                            29 3.06
  35  0.667  0.667  0.510-  24 2.90  27 2.90  22 2.90  30 2.97  32 2.97  29 2.97  34 2.97  31 2.97
                            33 2.97
  36  0.333  0.333  0.501-  37 1.73  21 2.76  20 2.76  23 2.76  31 2.88  30 2.88  33 2.88  29 2.88
                            34 2.88  32 2.88
  37  0.333  0.333  0.572-  36 1.73

  LATTYP: Found a hexagonal cell.
 ALAT       =     8.7913665772
 C/A-ratio  =     2.7711238095

  Lattice vectors:

 A1 = (  -4.3956832886,  -7.6135467898,   0.0000000000)
 A2 = (   8.7913665771,   0.0000000000,   0.0000000000)
 A3 = (   0.0000000000,   0.0000000000,  24.3619652401)

Analysis of symmetry for initial positions (statically):
 Subroutine PRICEL returns:
 Original cell was already a primitive cell.

 Routine SETGRP: Setting up the symmetry group for a
 hexagonal supercell.

 Subroutine GETGRP returns: Found  6 space group operations
 (whereof  6 operations were pure point group operations)
 out of a pool of 24 trial point group operations.

The static configuration has the point symmetry C_3v.

Analysis of symmetry for dynamics (positions and initial velocities):
 Subroutine PRICEL returns:
 Original cell was already a primitive cell.

[...]

The dynamic configuration has the point symmetry C_3v.

Analysis of constrained symmetry for selective dynamics:
 Subroutine PRICEL returns:
 Original cell was already a primitive cell.

 Routine SETGRP: Setting up the symmetry group for a
 hexagonal supercell.

 Subroutine GETGRP returns: Found  6 space group operations
[...]
     24      -5.1716      2.00000
     25      -5.1450      2.00000
     26      -5.1236      2.00000
     27      -5.1134      2.00000
     28      -5.0894      2.00000
     29      -5.0848      2.00000
     30      -5.0641      2.00000
     31      -5.0503      2.00000
     32      -5.0419      2.00000
     33      -5.0117      2.00000
     34      -4.9974      2.00000
     35      -4.9409      2.00000
     36      -4.9284      2.00000
     37      -4.9091      2.00000
     38      -4.8991      2.00000
     39      -4.8666      2.00000
     40      -4.8640      2.00000
     41      -4.8428      2.00000
     42      -4.8325      2.00000
     43      -4.8214      2.00000
     44      -4.7452      2.00000
     45      -4.7050      2.00000
     46      -4.7032      2.00000
     47      -4.6886      2.00000
     48      -4.6860      2.00000
     49      -4.6820      2.00000
     50      -4.6693      2.00000
     51      -4.6621      2.00000
     52      -4.6581      2.00000
     53      -4.6482      2.00000
     54      -4.5827      2.00000
     55      -4.5673      2.00000
     56      -4.5639      2.00000
     57      -4.5545      2.00000
     58      -4.5319      2.00000
     59      -4.5266      2.00000
     60      -4.4992      2.00000
[...]
    238       5.8084      0.00000
    239       5.9142      0.00000
    240       5.9760      0.00000
    241       6.4141      0.00000
    242       6.4367      0.00000
    243       6.6263      0.00000
    244       6.6453      0.00000
    245       6.7172      0.00000
    246       6.7548      0.00000
    247       6.7852      0.00000
    248       6.8707      0.00000
    249       6.9589      0.00000
    250       7.1101      0.00000
    251       7.2065      0.00000
    252       7.2309      0.00000

 soft charge-density along one line, spin component           1
         0         1         2         3         4         5         6         7         8         9
 total charge-density along one line

------------------------ aborting loop because EDIFF is reached ----------------------------------------

 total charge

# of ion       s       p       d       tot
    1        0.416   0.203   9.177   9.796
    2        0.416   0.203   9.177   9.797
    3        0.416   0.203   9.177   9.797
    4        0.416   0.203   9.177   9.797
    5        0.421   0.201   9.178   9.800
    6        0.416   0.203   9.177   9.797
    7        0.416   0.203   9.177   9.797
    8        0.416   0.203   9.177   9.797
    9        0.412   0.205   9.176   9.793
   10        0.406   0.269   9.166   9.840
   11        0.404   0.274   9.165   9.842
   12        0.406   0.269   9.166   9.840
   13        0.404   0.274   9.165   9.842
   14        0.404   0.274   9.165   9.842
   15        0.403   0.270   9.165   9.837
   16        0.406   0.269   9.166   9.840
   17        0.403   0.270   9.165   9.837
   18        0.403   0.270   9.165   9.837
   19        0.405   0.263   9.168   9.836
   20        0.425   0.299   9.153   9.878
   21        0.425   0.299   9.153   9.878
   22        0.394   0.276   9.166   9.836
   23        0.425   0.299   9.153   9.878
   24        0.394   0.276   9.166   9.836
   25        0.405   0.263   9.168   9.836
   26        0.405   0.263   9.168   9.836
   27        0.394   0.276   9.166   9.836
   28        0.417   0.193   9.182   9.792
   29        0.407   0.218   9.176   9.801
   30        0.407   0.218   9.176   9.801
   31        0.407   0.218   9.176   9.801
   32        0.407   0.218   9.176   9.801
   33        0.407   0.218   9.176   9.801
   34        0.407   0.218   9.176   9.801
   35        0.412   0.195   9.183   9.789
   36        0.660   0.516   6.273   7.449
   37        1.006   1.251   0.000   2.257
tot         15.991  10.244 327.233 353.469

  FORCE on cell =-STRESS in cart. coord.  units (eV):
  Direction    XX          YY          ZZ          XY          YZ          ZX
  Alpha Z   696.84886   696.84886   696.84886
  Ewald  153343.62994153343.62996************     0.00002    -0.00000     0.00002
  Hartree163247.25592163247.25592************     0.00001    -0.00000     0.00001
  E(xc)   -2079.95810 -2079.95809 -2085.79985    -0.00001     0.00000     0.00000
  Local  ************************328100.84546     0.00024    -0.00004    -0.00010
  n-local  -353.92073  -335.41251  -346.63069    11.68620    -0.43857     0.63556
  augment  3237.63679  3237.63690  3243.50980    -0.00009    -0.00001     0.00008
  Kinetic  4944.82430  4948.90926  4950.21406     5.33188     0.77777    -0.29694
  Fock        0.00000     0.00000     0.00000     0.00000     0.00000     0.00000
  Total      -6.34001    -6.34001     0.30487    -0.00000     0.00000     0.00000
  in kB      -6.22938    -6.22938     0.29955    -0.00000     0.00000     0.00000

 VOLUME and BASIS-vectors are now :
  energy-cutoff  :      500.00
  volume of cell :     1630.63
      direct lattice vectors                 reciprocal lattice vectors
     8.791366577  0.000000000  0.000000000     0.113747958 -0.065672414  0.000000000
     4.395683289  7.613546790  0.000000000     0.000000000  0.131344829  0.000000000
     0.000000000  0.000000000 24.361965240     0.000000000  0.000000000  0.041047592

  length of vectors
     8.791366577  8.791366577 24.361965240     0.131344829  0.131344829  0.041047592

 FORCES acting on ions
    electron-ion (+dipol)            ewald-force                    non-local-force                 convergence-correction
   0.463E-04 -.280E-04 0.268E+04   -.954E-04 0.593E-04 -.267E+04   0.119E-18 -.187E-18 -.185E+01   -.126E-03 -.179E-03 -.285E+00
   0.563E+00 0.468E+00 0.268E+04   -.543E+00 -.524E+00 -.268E+04   -.701E-02 0.621E-01 -.172E+01   -.101E-01 -.944E-02 -.247E+00
   -.563E+00 0.468E+00 0.268E+04   0.544E+00 -.524E+00 -.268E+04   0.701E-02 0.621E-01 -.172E+01   0.959E-02 -.745E-02 -.246E+00
   0.686E+00 0.254E+00 0.268E+04   -.726E+00 -.208E+00 -.268E+04   0.503E-01 -.371E-01 -.172E+01   -.130E-01 -.386E-02 -.247E+00
   -.720E-05 -.197E-04 0.268E+04   0.980E-04 -.197E-05 -.268E+04   -.233E-17 0.661E-18 -.176E+01   0.630E-02 0.385E-02 -.239E+00
   -.686E+00 0.254E+00 0.268E+04   0.726E+00 -.209E+00 -.268E+04   -.503E-01 -.371E-01 -.172E+01   0.116E-01 -.292E-02 -.246E+00
   0.124E+00 -.721E+00 0.268E+04   -.182E+00 0.733E+00 -.268E+04   0.573E-01 -.250E-01 -.172E+01   -.121E-02 0.126E-01 -.246E+00
   -.124E+00 -.721E+00 0.268E+04   0.182E+00 0.733E+00 -.268E+04   -.573E-01 -.250E-01 -.172E+01   0.289E-02 0.115E-01 -.246E+00
   0.362E-04 -.130E-04 0.268E+04   0.792E-04 -.643E-04 -.267E+04   0.652E-17 -.183E-17 -.178E+01   -.670E-02 -.346E-02 -.212E+00
   0.619E+01 0.357E+01 0.899E+03   -.602E+01 -.348E+01 -.899E+03   -.212E+00 -.122E+00 -.541E+00   0.229E-01 0.133E-01 0.629E-01
   -.284E-04 0.546E+01 0.907E+03   0.410E-04 -.552E+01 -.906E+03   0.381E-12 0.581E-01 -.725E+00   0.644E-02 -.323E-01 0.471E-01
   -.619E+01 0.357E+01 0.899E+03   0.602E+01 -.348E+01 -.899E+03   0.212E+00 -.122E+00 -.541E+00   -.247E-01 0.147E-01 0.634E-01
   0.473E+01 -.273E+01 0.907E+03   -.478E+01 0.276E+01 -.906E+03   0.503E-01 -.290E-01 -.725E+00   -.249E-01 0.218E-01 0.471E-01
   -.473E+01 -.273E+01 0.907E+03   0.478E+01 0.276E+01 -.906E+03   -.503E-01 -.290E-01 -.725E+00   0.360E-01 0.210E-01 0.472E-01
   0.162E-04 0.165E+01 0.900E+03   -.108E-03 -.182E+01 -.900E+03   0.152E-12 0.231E-01 -.593E+00   -.195E-02 0.112E+00 0.338E-01
   -.783E-05 -.714E+01 0.899E+03   0.205E-04 0.695E+01 -.899E+03   0.161E-11 0.245E+00 -.541E+00   0.387E-03 -.288E-01 0.635E-01
   0.143E+01 -.827E+00 0.900E+03   -.158E+01 0.910E+00 -.900E+03   0.200E-01 -.116E-01 -.593E+00   0.959E-01 -.577E-01 0.338E-01
   -.143E+01 -.827E+00 0.900E+03   0.158E+01 0.910E+00 -.900E+03   -.200E-01 -.116E-01 -.593E+00   -.960E-01 -.555E-01 0.342E-01
   0.391E-04 0.190E+01 -.909E+03   -.128E-03 -.177E+01 0.908E+03   -.632E-12 -.963E-01 0.646E+00   -.615E-02 -.330E-01 0.289E+00
   0.900E+01 0.520E+01 -.870E+03   -.866E+01 -.500E+01 0.870E+03   -.623E+00 -.359E+00 -.466E+00   0.412E-01 0.238E-01 0.331E+00
   -.900E+01 0.520E+01 -.870E+03   0.866E+01 -.500E+01 0.870E+03   0.623E+00 -.359E+00 -.466E+00   -.397E-01 0.252E-01 0.331E+00
   0.708E+00 -.409E+00 -.896E+03   -.105E+01 0.605E+00 0.895E+03   0.393E+00 -.227E+00 0.743E+00   -.267E-01 0.105E-01 0.202E+00
   -.536E-04 -.104E+02 -.870E+03   0.426E-04 0.100E+02 0.870E+03   0.472E-11 0.719E+00 -.466E+00   0.230E-02 -.463E-01 0.331E+00
   -.708E+00 -.409E+00 -.896E+03   0.105E+01 0.604E+00 0.895E+03   -.393E+00 -.227E+00 0.743E+00   0.161E-01 0.938E-02 0.201E+00
   -.165E+01 -.952E+00 -.909E+03   0.153E+01 0.884E+00 0.908E+03   0.834E-01 0.481E-01 0.646E+00   0.226E-01 0.129E-01 0.289E+00
   0.165E+01 -.952E+00 -.909E+03   -.153E+01 0.884E+00 0.908E+03   -.834E-01 0.481E-01 0.646E+00   -.320E-01 0.111E-01 0.289E+00
   0.200E-04 0.817E+00 -.896E+03   0.110E-03 -.121E+01 0.895E+03   0.298E-11 0.453E+00 0.743E+00   -.489E-02 -.284E-01 0.202E+00
   0.535E-04 -.364E-04 -.266E+04   -.115E-03 0.776E-04 0.266E+04   0.656E-17 -.788E-17 0.205E+01   0.116E-02 0.533E-03 0.341E+00
   0.170E+02 0.309E+02 -.266E+04   -.165E+02 -.303E+02 0.265E+04   -.633E+00 -.890E+00 0.233E+01   -.322E-01 0.656E-01 0.259E+00
   -.170E+02 0.309E+02 -.266E+04   0.165E+02 -.303E+02 0.265E+04   0.633E+00 -.890E+00 0.233E+01   0.216E-01 0.675E-01 0.258E+00
   0.353E+02 -.705E+00 -.266E+04   -.345E+02 0.879E+00 0.265E+04   -.109E+01 -.103E+00 0.233E+01   0.410E-01 -.605E-01 0.259E+00
   -.353E+02 -.705E+00 -.266E+04   0.345E+02 0.879E+00 0.265E+04   0.109E+01 -.103E+00 0.233E+01   -.526E-01 -.597E-01 0.258E+00
   0.183E+02 -.302E+02 -.266E+04   -.180E+02 0.294E+02 0.265E+04   -.455E+00 0.993E+00 0.233E+01   0.698E-01 -.145E-01 0.258E+00
   -.183E+02 -.302E+02 -.266E+04   0.180E+02 0.294E+02 0.265E+04   0.455E+00 0.993E+00 0.233E+01   -.784E-01 -.156E-01 0.258E+00
   0.228E-04 -.126E-04 -.266E+04   0.105E-03 -.656E-04 0.266E+04   0.346E-17 0.777E-18 0.220E+01   -.550E-02 -.275E-02 0.321E+00
   -.938E-05 -.177E-04 -.172E+04   0.774E-04 0.978E-05 0.172E+04   -.214E-17 0.152E-17 0.141E+01   0.271E-02 0.161E-02 0.140E+00
   0.477E-04 -.285E-04 -.120E+04   0.197E-04 0.288E-06 0.121E+04   -.557E-18 -.357E-19 -.105E+02   0.986E-03 0.595E-03 -.462E-01
   0.393E-03 -.729E-03 0.627E+01   -.141E-13 0.281E-13 -.955E-11   -.110E-15 -.109E-15 -.938E+01   -.453E-01 -.229E-01 0.299E+01

 POSITION                                       TOTAL-FORCE (eV/Angst)
      0.00000      0.00000      5.28219        -0.000000      0.000000      0.024099
      2.93046      0.00000      5.28219         0.002803     -0.002957      0.033144
      5.86091      0.00000      5.28219        -0.002803     -0.002957      0.033144
      1.46523      2.53785      5.28219        -0.001160      0.003906      0.033144
      4.39568      2.53785      5.28219        -0.000000      0.000000     -0.001567
      7.32614      2.53785      5.28219         0.001160      0.003906      0.033144
      2.93046      5.07570      5.28219        -0.003962     -0.000949      0.033144
      5.86091      5.07570      5.28219         0.003962     -0.000949      0.033144
      8.79137      5.07570      5.28219        -0.000000      0.000000      0.037579
      1.46523      0.84595      7.67490        -0.024612     -0.014210      0.000232
      4.39568      0.84595      7.67490        -0.000000     -0.038182     -0.073872
      7.32614      0.84595      7.67490         0.024612     -0.014210      0.000232
      2.93046      3.38380      7.67490        -0.033067      0.019091     -0.073872
      5.86091      3.38380      7.67490         0.033067      0.019091     -0.073872
      8.79137      3.38380      7.67490        -0.000000     -0.030516      0.012244
      4.39568      5.92165      7.67490         0.000000      0.028419      0.000232
      7.32614      5.92165      7.67490        -0.026428      0.015258      0.012244
     10.25659      5.92165      7.67490         0.026428      0.015258      0.012244
      8.79137      1.69824     10.07044         0.000000      0.008449      0.020904
      2.93075      1.69207     10.02201        -0.240782     -0.139016     -0.229940
      5.86061      1.69207     10.02201         0.240782     -0.139016     -0.229940
     10.25044      4.23330     10.05478         0.031606     -0.018248      0.020513
      4.39568      4.22940     10.02201         0.000000      0.278031     -0.229940
      7.33230      4.23330     10.05478        -0.031606     -0.018248      0.020513
     11.71633      6.76443     10.07044        -0.007317     -0.004224      0.020904
      5.86640      6.76443     10.07044         0.007317     -0.004224      0.020904
      8.79137      6.76048     10.05478         0.000000      0.036496      0.020513
      0.00000      0.00000     12.42728        -0.000000      0.000000      0.002237
      2.96092      0.05748     12.44843        -0.095619     -0.191716     -0.093389
      5.83045      0.05748     12.44843         0.095619     -0.191716     -0.093389
      1.53024      2.53549     12.44843        -0.213840      0.013049     -0.093389
      7.26113      2.53549     12.44843         0.213840      0.013049     -0.093389
      2.96500      5.02058     12.44843        -0.118221      0.178666     -0.093389
      5.82636      5.02058     12.44843         0.118221      0.178666     -0.093389
      8.79137      5.07570     12.42122        -0.000000      0.000000     -0.008935
      4.39568      2.53785     12.20312        -0.000000      0.000000      1.035483
      4.39568      2.53785     13.93536        -0.000000      0.000000      0.022326
    total drift:                               -0.044896     -0.023648     -0.116818

  FREE ENERGIE OF THE ION-ELECTRON SYSTEM (eV)
  free  energy   TOTEN  =      -105.13825944 eV

  energy  without entropy=     -105.13825944  energy(sigma->0) =     -105.13825944

 stress matrix after NEB project (eV)
     -6.34001     -0.00000      0.00000
     -0.00000     -6.34001     -0.00000
     -0.00000      0.00000      0.30487
  FORCES: max atom, RMS     0.022326    0.003670
  FORCE total and by dimension    0.022326    0.022326
  Stress total and by dimension    8.971303    6.340006
|           W    W    AA    RRRRR   N    N  II  N    N   GGGG   !!!           |
|           W    W   A  A   R    R  NN   N  II  NN   N  G    G  !!!           |
|           W    W  A    A  R    R  N N  N  II  N N  N  G       !!!           |
|           W WW W  AAAAAA  RRRRR   N  N N  II  N  N N  G  GGG   !            |
|           WW  WW  A    A  R   R   N   NN  II  N   NN  G    G                |
|           W    W  A    A  R    R  N    N  II  N    N   GGGG   !!!           |
|     Tetrahedron method does not include variations of the Fermi             |
|     occupations, so forces and stress will be inaccurate. We suggest        |
|     using a different smearing scheme ISMEAR = 1 or 2 for metals in         |
|     relaxations.                                                            |

 total charge

# of ion       s       p       d       tot
    1        0.416   0.203   9.177   9.796
    2        0.416   0.203   9.177   9.797
    3        0.416   0.203   9.177   9.797
    4        0.416   0.203   9.177   9.797
    5        0.421   0.201   9.178   9.800
    6        0.416   0.203   9.177   9.797
    7        0.416   0.203   9.177   9.797
    8        0.416   0.203   9.177   9.797
    9        0.412   0.205   9.176   9.793
   10        0.406   0.269   9.166   9.840
   11        0.404   0.274   9.165   9.842
   12        0.406   0.269   9.166   9.840
   13        0.404   0.274   9.165   9.842
   14        0.404   0.274   9.165   9.842
   15        0.403   0.270   9.165   9.837
   16        0.406   0.269   9.166   9.840
   17        0.403   0.270   9.165   9.837
   18        0.403   0.270   9.165   9.837
   19        0.405   0.263   9.168   9.836
   20        0.425   0.299   9.153   9.878
   21        0.425   0.299   9.153   9.878
   22        0.394   0.276   9.166   9.836
   23        0.425   0.299   9.153   9.878
   24        0.394   0.276   9.166   9.836
   25        0.405   0.263   9.168   9.836
   26        0.405   0.263   9.168   9.836
   27        0.394   0.276   9.166   9.836
   28        0.417   0.193   9.182   9.792
   29        0.407   0.218   9.176   9.801
   30        0.407   0.218   9.176   9.801
   31        0.407   0.218   9.176   9.801
   32        0.407   0.218   9.176   9.801
   33        0.407   0.218   9.176   9.801
   34        0.407   0.218   9.176   9.801
   35        0.412   0.195   9.183   9.789
   36        0.660   0.516   6.273   7.449
   37        1.006   1.251   0.000   2.257
tot         15.991  10.244 327.233 353.469

 BZINTS: Fermi energy:    0.301909;  397.000000 electrons
         Band energy:-0.149799E+04;  BLOECHL correction:   -0.067621