 vasp.6.2.0 18Jan21 (build Jun 12 2021 23:27:24) complex

 executed on             LinuxIFC date 2022.05.28  02:18:25

 INCAR:
   ISMEAR = -5
   SIGMA = 0.1
   ISPIN = 1
   EDIFF = 1.d-5
   EDIFFG = -0.01
   NSW = 0
   NELM = 150
   ENCUT = 500
   ISIF = 2
   IBRION = 2
   LREAL = Auto
   ALGO = Fast
   ICHARG = 11
   LORBIT = 10
   LCHARG = .F.
   LWAVE = .F.

 POTCAR:    PAW_PBE Cu 22Jun2005
 POTCAR:    PAW_PBE Cr 06Sep2000
 POTCAR:    PAW_PBE H 15Jun2001
 POTCAR:    PAW_PBE O 08Apr2002
|           W    W    AA    RRRRR   N    N  II  N    N   GGGG   !!!           |
|           W    W   A  A   R    R  NN   N  II  NN   N  G    G  !!!           |
|           W    W  A    A  R    R  N N  N  II  N N  N  G       !!!           |
|           W WW W  AAAAAA  RRRRR   N  N N  II  N  N N  G  GGG   !            |
|           WW  WW  A    A  R   R   N   NN  II  N   NN  G    G                |
|           W    W  A    A  R    R  N    N  II  N    N   GGGG   !!!           |
|     For optimal performance we recommend to set                             |
|       NCORE = 2 up to number-of-cores-per-socket                            |
|     This setting can greatly improve the performance of VASP for DFT.       |
|     The default, NCORE=1 might be grossly inefficient on modern             |
|     multi-core architectures or massively parallel machines. Do your        |
|     Unfortunately you need to use the default for GW and RPA                |
|     calculations (for HF NCORE is supported but not extensively tested      |
|     yet).                                                                   |

 POTCAR:    PAW_PBE Cu 22Jun2005
   VRHFIN =Cu: d10 p1

   TITEL  = PAW_PBE Cu 22Jun2005
   POMASS =   63.546; ZVAL   =   11.000    mass and valenz
   ENMAX  =  295.446; ENMIN  =  221.585 eV

 POTCAR:    PAW_PBE Cr 06Sep2000
   VRHFIN =Cr : d5 s1

   TITEL  = PAW_PBE Cr 06Sep2000
   POMASS =   51.996; ZVAL   =    6.000    mass and valenz
   ENMAX  =  227.080; ENMIN  =  170.310 eV

 POTCAR:    PAW_PBE H 15Jun2001
   VRHFIN =H: ultrasoft test

   TITEL  = PAW_PBE H 15Jun2001
   POMASS =    1.000; ZVAL   =    1.000    mass and valenz
   ENMAX  =  250.000; ENMIN  =  200.000 eV

 POTCAR:    PAW_PBE O 08Apr2002
   VRHFIN =O: s2p4

   TITEL  = PAW_PBE O 08Apr2002
   POMASS =   16.000; ZVAL   =    6.000    mass and valenz
   ENMAX  =  400.000; ENMIN  =  300.000 eV

 Optimization of the real space projectors (new method)

 maximal supplied QI-value         = 16.25
 optimisation between [QCUT,QGAM] = [ 11.38, 22.75] = [ 36.24,144.96] Ry
 Optimized for a Real-space Cutoff    1.52 Angstroem

   l    n(q)    QCUT    max X(q) W(low)/X(q) W(high)/X(q)  e(spline)
   2      9    11.376     4.610    0.21E-03    0.10E-03    0.26E-06
   2      9    11.376     8.522    0.33E-03    0.16E-03    0.37E-06
   0     10    11.376    51.609    0.62E-04    0.20E-04    0.13E-06
   0     10    11.376    27.747    0.54E-04    0.20E-04    0.13E-06
   1     10    11.376    20.408    0.13E-04    0.99E-04    0.19E-06
   1     10    11.376    13.425    0.12E-04    0.87E-04    0.17E-06
 Optimization of the real space projectors (new method)

[...]

   l    n(q)    QCUT    max X(q) W(low)/X(q) W(high)/X(q)  e(spline)
   0      8    11.287    19.460    0.40E-03    0.73E-03    0.16E-06
   0      8    11.287    12.209    0.38E-03    0.70E-03    0.15E-06
   1      7    11.287     4.655    0.22E-03    0.25E-04    0.22E-06
 Optimization of the real space projectors (new method)

 maximal supplied QI-value         = 24.76
 optimisation between [QCUT,QGAM] = [ 11.39, 22.77] = [ 36.31,145.25] Ry
 Optimized for a Real-space Cutoff    1.00 Angstroem

   l    n(q)    QCUT    max X(q) W(low)/X(q) W(high)/X(q)  e(spline)
   0      7    11.387    20.381    0.39E-03    0.13E-02    0.15E-06
   0      7    11.387    15.268    0.42E-03    0.14E-02    0.17E-06
   1      6    11.387     5.964    0.41E-03    0.11E-02    0.17E-06
   1      6    11.387     5.382    0.39E-03    0.87E-03    0.15E-06
  PAW_PBE Cu 22Jun2005                  :
  PAW_PBE Cr 06Sep2000                  :
  PAW_PBE H 15Jun2001                   :
  PAW_PBE O 08Apr2002                   :

 POSCAR: Cu-Cr-H2O
  positions in direct lattice
  velocities in cartesian coordinates
 exchange correlation table for  LEXCH =        8
   RHO(1)=    0.500       N(1)  =     2000
   RHO(2)=  100.500       N(2)  =     4000

 VTST: version 3.2, (02/03/18)

 CHAIN: initializing optimizer

 OPT: Using VASP Conjugate-Gradient optimizer
 CHAIN: Read ICHAIN            0

 POSCAR: Cu-Cr-H2O
  positions in direct lattice
  velocities in cartesian coordinates

 ion  position               nearest neighbor table
   1  0.000  0.000  0.221-   7 2.57   3 2.57   4 2.57   2 2.57   6 2.57   8 2.57  12 2.57  10 2.57
                            16 2.57
   2  0.333  0.000  0.221-   8 2.57   9 2.57   5 2.57   1 2.57   3 2.57  11 2.57   4 2.57  10 2.57
                            17 2.57
   3  0.667  0.000  0.221-   1 2.57   7 2.57   6 2.57   9 2.57   2 2.57  12 2.57   5 2.57  18 2.57
                            11 2.57
   4  0.000  0.333  0.221-   5 2.57   6 2.57   1 2.57   7 2.57   2 2.57  13 2.57   9 2.57  10 2.57
                            15 2.57
   5  0.333  0.333  0.221-   4 2.57   2 2.57   7 2.57  13 2.57   8 2.57   6 2.57   3 2.57  11 2.57
                            14 2.57
   6  0.667  0.333  0.221-   4 2.57   9 2.57  15 2.57   3 2.57   1 2.57   8 2.57  14 2.57   5 2.57
                            12 2.57
   7  0.000  0.667  0.221-   1 2.57   3 2.57  16 2.57  18 2.57   4 2.57   5 2.57   8 2.57   9 2.57
                            13 2.57
   8  0.333  0.667  0.221-   9 2.57   2 2.57  17 2.57   6 2.57   1 2.57   7 2.57   5 2.57  14 2.57
                            16 2.57
   9  0.667  0.667  0.221-   8 2.57   6 2.57   2 2.57  17 2.57   3 2.57   7 2.57   4 2.57  15 2.57
                            18 2.57
  10  0.111  0.111  0.308-  20 2.55  26 2.56  19 2.56  11 2.57  12 2.57  13 2.57   1 2.57   2 2.57
                             4 2.57  15 2.57  16 2.57  17 2.57
  11  0.444  0.111  0.308-  20 2.55  21 2.55  10 2.57  13 2.57   2 2.57  17 2.57  14 2.57  12 2.57
                             5 2.57   3 2.57  18 2.57  27 2.57
  12  0.778  0.111  0.308-  21 2.55  19 2.56  25 2.56  15 2.57  10 2.57  14 2.57  18 2.57   3 2.57
                             1 2.57  16 2.57  11 2.57   6 2.57
  13  0.111  0.444  0.308-  23 2.55  20 2.55  16 2.57  18 2.57  10 2.57  11 2.57  14 2.57   5 2.57
                             4 2.57   7 2.57  15 2.57  22 2.57
  14  0.444  0.444  0.308-  21 2.55  23 2.55  15 2.57  17 2.57  12 2.57  16 2.57  13 2.57  11 2.57
                             6 2.57   8 2.57   5 2.57  24 2.57
  15  0.778  0.444  0.308-  19 2.56  24 2.56  22 2.56  14 2.57  17 2.57  12 2.57   6 2.57  18 2.57
                            10 2.57   9 2.57  13 2.57   4 2.57
  16  0.111  0.778  0.308-  23 2.55  25 2.56  26 2.56  18 2.57  13 2.57   7 2.57  14 2.57  17 2.57
                            12 2.57  10 2.57   8 2.57   1 2.57
  17  0.444  0.778  0.308-  26 2.56  27 2.56  24 2.56  14 2.57  15 2.57   8 2.57   9 2.57  11 2.57
                            16 2.57  18 2.57  10 2.57   2 2.57
  18  0.778  0.778  0.308-  25 2.56  22 2.56  27 2.56  16 2.57  13 2.57   7 2.57  15 2.57  12 2.57
                            17 2.57   9 2.57   3 2.57  11 2.57
  19  0.889  0.222  0.394-  12 2.56  10 2.56  15 2.56  28 2.56  25 2.57  26 2.57  22 2.57  24 2.57
                            21 2.57  20 2.57  32 2.58  31 2.58
  20  0.222  0.222  0.393-  36 2.50  11 2.55  13 2.55  10 2.55  23 2.56  21 2.56  26 2.57  19 2.57
                            29 2.57  31 2.57  27 2.57  22 2.57
  21  0.555  0.222  0.393-  36 2.50  14 2.55  11 2.55  12 2.55  20 2.56  23 2.56  19 2.57  25 2.57
                            32 2.57  30 2.57  24 2.57  27 2.57
  22  0.888  0.556  0.394-  35 2.56  24 2.56  27 2.56  18 2.56  15 2.56  31 2.56  33 2.56  19 2.57
                            25 2.57  13 2.57  23 2.57  20 2.57
  23  0.222  0.555  0.393-  36 2.50  13 2.55  14 2.55  16 2.55  20 2.56  21 2.56  25 2.57  26 2.57
                            33 2.57  34 2.57  22 2.57  24 2.57
  24  0.556  0.556  0.394-  35 2.56  22 2.56  27 2.56  15 2.56  17 2.56  32 2.56  34 2.56  19 2.57
                            26 2.57  14 2.57  21 2.57  23 2.57
  25  0.889  0.889  0.394-  12 2.56  16 2.56  18 2.56  28 2.56  19 2.57  26 2.57  22 2.57  27 2.57
                            21 2.57  23 2.57  33 2.58  30 2.58
  26  0.222  0.889  0.394-  10 2.56  16 2.56  17 2.56  28 2.56  25 2.57  19 2.57  27 2.57  24 2.57
                            20 2.57  23 2.57  29 2.58  34 2.58
  27  0.556  0.888  0.394-  35 2.56  24 2.56  22 2.56  17 2.56  18 2.56  29 2.56  30 2.56  26 2.57
                            25 2.57  11 2.57  20 2.57  21 2.57
  28  0.000  0.000  0.480-  25 2.56  19 2.56  26 2.56  33 2.57  30 2.57  31 2.57  29 2.57  32 2.57
                            34 2.57
  29  0.333  0.002  0.480-  31 2.55  30 2.55  36 2.55  27 2.56  20 2.57  28 2.57  35 2.57  26 2.58
                            34 2.60
  30  0.665  0.002  0.480-  32 2.55  29 2.55  36 2.55  27 2.56  21 2.57  28 2.57  35 2.57  25 2.58
                            33 2.60
  31  0.002  0.333  0.480-  29 2.55  33 2.55  36 2.55  22 2.56  20 2.57  28 2.57  35 2.57  19 2.58
                            32 2.60
  32  0.665  0.333  0.480-  30 2.55  34 2.55  36 2.55  24 2.56  21 2.57  28 2.57  35 2.57  19 2.58
                            31 2.60
  33  0.002  0.665  0.480-  34 2.55  31 2.55  36 2.55  22 2.56  23 2.57  28 2.57  35 2.57  25 2.58
                            30 2.60
  34  0.333  0.665  0.480-  33 2.55  32 2.55  36 2.55  24 2.56  23 2.57  28 2.57  35 2.57  26 2.58
                            29 2.60
  35  0.667  0.667  0.480-  24 2.56  27 2.56  22 2.56  34 2.57  32 2.57  29 2.57  30 2.57  33 2.57
                            31 2.57
  36  0.333  0.333  0.476-  39 2.17  23 2.50  20 2.50  21 2.50  31 2.55  29 2.55  33 2.55  34 2.55
                            32 2.55  30 2.55
  37  0.270  0.256  0.575-  39 0.98
  38  0.474  0.256  0.575-  39 0.98
  39  0.332  0.337  0.566-  37 0.98  38 0.98  36 2.17

  LATTYP: Found a hexagonal cell.
 ALAT       =     7.6967864036
 C/A-ratio  =     3.1535378041

  Lattice vectors:

 A1 = (  -3.8483927580,  -6.6656128093,   0.0000000000)
 A2 = (   7.6967864037,   0.0000000000,   0.0000000000)
 A3 = (   0.0000000000,   0.0000000000,  24.2721068937)

Analysis of symmetry for initial positions (statically):
 Subroutine PRICEL returns:
 Original cell was already a primitive cell.

 Routine SETGRP: Setting up the symmetry group for a
 hexagonal supercell.

 Subroutine GETGRP returns: Found  1 space group operations
 (whereof  1 operations were pure point group operations)
 out of a pool of 24 trial point group operations.

The static configuration has the point symmetry C_1 .

Analysis of symmetry for dynamics (positions and initial velocities):
 Subroutine PRICEL returns:
 Original cell was already a primitive cell.

[...]

The dynamic configuration has the point symmetry C_1 .

Analysis of constrained symmetry for selective dynamics:
 Subroutine PRICEL returns:
[...]
     41      -3.9703      2.00000
     42      -3.9639      2.00000
     43      -3.8859      2.00000
     44      -3.8809      2.00000
     45      -3.8776      2.00000
     46      -3.8478      2.00000
     47      -3.8369      2.00000
     48      -3.8323      2.00000
     49      -3.8227      2.00000
     50      -3.6423      2.00000
     51      -3.6276      2.00000
     52      -3.6204      2.00000
     53      -3.6093      2.00000
     54      -3.5616      2.00000
     55      -3.5610      2.00000
     56      -3.5415      2.00000
     57      -3.5284      2.00000
     58      -3.5249      2.00000
     59      -3.5039      2.00000
     60      -3.4818      2.00000
[...]
    238       5.6110      0.00000
    239       5.7466      0.00000
    240       5.7727      0.00000
    241       5.8672      0.00000
    242       5.9662      0.00000
    243       6.0250      0.00000
    244       6.0815      0.00000
    245       6.1027      0.00000
    246       6.3611      0.00000
    247       6.6540      0.00000
    248       6.7165      0.00000
    249       6.9784      0.00000
    250       7.0824      0.00000
    251       7.1852      0.00000
    252       7.4816      0.00000

 soft charge-density along one line, spin component           1
         0         1         2         3         4         5         6         7         8         9
 total charge-density along one line

------------------------ aborting loop because EDIFF is reached ----------------------------------------

 total charge

# of ion       s       p       d       tot
    1        0.450   0.284   9.188   9.922
    2        0.448   0.286   9.185   9.919
    3        0.448   0.286   9.185   9.919
    4        0.448   0.286   9.186   9.920
    5        0.449   0.285   9.181   9.915
    6        0.448   0.286   9.186   9.919
    7        0.447   0.286   9.186   9.919
    8        0.447   0.286   9.186   9.919
    9        0.448   0.283   9.189   9.920
   10        0.444   0.372   9.175   9.990
   11        0.443   0.366   9.184   9.993
   12        0.444   0.372   9.175   9.990
   13        0.442   0.367   9.184   9.993
   14        0.442   0.367   9.184   9.993
   15        0.439   0.370   9.177   9.986
   16        0.444   0.372   9.175   9.991
   17        0.439   0.370   9.177   9.986
   18        0.439   0.370   9.177   9.986
   19        0.442   0.368   9.181   9.992
   20        0.464   0.397   9.156  10.017
   21        0.464   0.397   9.156  10.017
   22        0.432   0.374   9.181   9.987
   23        0.464   0.397   9.157  10.018
   24        0.432   0.374   9.181   9.987
   25        0.441   0.368   9.182   9.991
   26        0.441   0.368   9.182   9.991
   27        0.433   0.374   9.181   9.988
   28        0.446   0.290   9.177   9.912
   29        0.467   0.307   9.168   9.943
   30        0.467   0.307   9.168   9.943
   31        0.468   0.306   9.168   9.942
   32        0.468   0.306   9.168   9.942
   33        0.465   0.300   9.172   9.937
   34        0.465   0.300   9.172   9.937
   35        0.440   0.292   9.182   9.913
   36        0.444   0.463   4.291   5.198
   37        0.603   0.118   0.000   0.720
   38        0.603   0.118   0.000   0.720
   39        1.568   3.609   0.000   5.177
tot         18.925  16.027 325.504 360.455

  FORCE on cell =-STRESS in cart. coord.  units (eV):
  Direction    XX          YY          ZZ          XY          YZ          ZX
  Alpha Z   776.64912   776.64912   776.64912
  Ewald  231154.55775231088.93725************    -0.13211   -15.26464    -0.03253
  Hartree243931.55567243919.53932************    -0.02609     2.11623    -0.00505
  E(xc)   -2308.00580 -2308.20771 -2312.53398    -0.00055    -0.03758    -0.00002
  Local  ************************488117.33449     0.14739     6.13439     0.02629
  n-local  -793.29198  -793.98273  -805.19131     0.00062    -0.00575    -0.00011
  augment  3341.85565  3342.74989  3364.39862    -0.01801     0.34172     0.00035
  Kinetic  3310.75923  3328.87127  3363.93129     0.03725     6.64019     0.01028
  Fock        0.00000     0.00000     0.00000     0.00000     0.00000     0.00000
  Total      -8.14670    -8.35766    -0.14635     0.00851    -0.07544    -0.00079
  in kB     -10.48178   -10.75321    -0.18830     0.01094    -0.09707    -0.00101

 VOLUME and BASIS-vectors are now :
  energy-cutoff  :      500.00
  volume of cell :     1245.25
      direct lattice vectors                 reciprocal lattice vectors
     7.696786404  0.000000000  0.000000000     0.129924354 -0.075011849  0.000000000
     3.848392758  6.665612809  0.000000000     0.000000000  0.150023716  0.000000000
     0.000000000  0.000000000 24.272106894     0.000000000  0.000000000  0.041199555

  length of vectors
     7.696786404  7.696786404 24.272106894     0.150023716  0.150023716  0.041199555

 FORCES acting on ions
    electron-ion (+dipol)            ewald-force                    non-local-force                 convergence-correction
   0.348E-03 0.207E-01 0.376E+04   0.686E-04 -.844E-02 -.376E+04   0.513E-04 0.107E-01 -.253E+01   -.477E-03 -.185E-01 -.279E-01
   -.675E+00 -.352E+00 0.376E+04   0.280E+00 0.206E+00 -.376E+04   0.158E+00 0.165E+00 -.181E+01   0.234E+00 -.766E-02 -.656E-01
   0.675E+00 -.364E+00 0.376E+04   -.280E+00 0.206E+00 -.376E+04   -.158E+00 0.163E+00 -.181E+01   -.233E+00 0.578E-02 -.648E-01
   -.648E+00 -.382E+00 0.376E+04   0.326E+00 0.148E+00 -.376E+04   0.208E+00 0.241E-01 -.181E+01   0.123E+00 0.198E+00 -.662E-01
   -.155E-01 -.846E-01 0.376E+04   0.115E-03 0.127E-01 -.376E+04   -.865E-02 0.568E-02 -.150E+01   0.243E-01 0.606E-01 0.313E-02
   0.658E+00 -.389E+00 0.376E+04   -.326E+00 0.148E+00 -.376E+04   -.207E+00 0.236E-01 -.181E+01   -.133E+00 0.205E+00 -.620E-01
   -.858E-01 0.769E+00 0.376E+04   0.459E-01 -.354E+00 -.376E+04   0.984E-01 -.201E+00 -.189E+01   -.527E-01 -.213E+00 -.108E+00
   0.742E-01 0.775E+00 0.376E+04   -.461E-01 -.354E+00 -.376E+04   -.100E+00 -.201E+00 -.189E+01   0.664E-01 -.220E+00 -.105E+00
   0.163E-01 0.250E-01 0.376E+04   0.254E-03 -.411E-02 -.376E+04   0.957E-02 -.979E-02 -.222E+01   -.265E-01 -.129E-01 -.963E-01
   -.143E+01 -.821E+00 0.127E+04   0.186E+01 0.107E+01 -.127E+04   -.443E+00 -.263E+00 -.103E+01   0.228E-01 0.181E-01 -.158E+00
   -.678E-02 -.201E+01 0.127E+04   0.125E-03 0.172E+01 -.127E+04   -.800E-02 0.219E+00 -.184E+00   0.151E-01 0.345E-01 -.149E+00
   0.143E+01 -.830E+00 0.127E+04   -.186E+01 0.107E+01 -.127E+04   0.444E+00 -.263E+00 -.103E+01   -.245E-01 0.281E-01 -.171E+00
   -.177E+01 0.951E+00 0.127E+04   0.149E+01 -.780E+00 -.127E+04   0.221E+00 -.137E+00 -.220E+00   0.312E-01 -.148E-01 -.178E+00
   0.175E+01 0.947E+00 0.127E+04   -.149E+01 -.780E+00 -.127E+04   -.239E+00 -.137E+00 -.219E+00   0.831E-02 -.119E-01 -.186E+00
   0.104E-01 -.821E+00 0.127E+04   0.274E-03 0.440E+00 -.127E+04   0.170E-02 0.178E+00 -.918E+00   -.123E-01 0.181E+00 -.166E+00
   -.650E-02 0.172E+01 0.127E+04   0.264E-03 -.222E+01 -.127E+04   0.253E-03 0.522E+00 -.105E+01   0.602E-02 -.253E-01 -.199E+00
   -.590E+00 0.438E+00 0.127E+04   0.312E+00 -.258E+00 -.127E+04   0.117E+00 -.706E-01 -.934E+00   0.140E+00 -.976E-01 -.171E+00
   0.598E+00 0.431E+00 0.127E+04   -.312E+00 -.258E+00 -.127E+04   -.117E+00 -.713E-01 -.934E+00   -.146E+00 -.904E-01 -.176E+00
   -.152E-01 -.417E+01 -.123E+04   0.244E-03 0.406E+01 0.122E+04   -.974E-02 0.379E-01 0.753E+00   0.251E-01 0.605E-01 0.316E+00
   -.310E+02 -.183E+02 -.126E+04   0.323E+02 0.191E+02 0.126E+04   -.130E+01 -.721E+00 -.106E+01   -.306E-01 -.285E-01 0.307E+00
   0.310E+02 -.183E+02 -.126E+04   -.323E+02 0.191E+02 0.126E+04   0.132E+01 -.723E+00 -.106E+01   -.623E-02 -.144E-01 0.303E+00
   -.159E+02 0.895E+01 -.123E+04   0.154E+02 -.868E+01 0.123E+04   0.474E+00 -.239E+00 0.556E+00   -.141E-01 -.474E-01 0.831E-01
   -.101E-02 0.355E+02 -.126E+04   0.450E-03 -.371E+02 0.126E+04   0.816E-02 0.158E+01 -.989E+00   -.820E-02 -.112E-01 0.268E+00
   0.159E+02 0.893E+01 -.123E+04   -.154E+02 -.868E+01 0.123E+04   -.458E+00 -.241E+00 0.557E+00   -.195E-01 -.303E-01 0.825E-01
   0.327E+01 0.254E+01 -.123E+04   -.318E+01 -.247E+01 0.122E+04   -.349E-01 -.739E-01 0.906E+00   -.422E-01 0.981E-02 0.313E+00
   -.330E+01 0.254E+01 -.123E+04   0.318E+01 -.247E+01 0.122E+04   0.166E-01 -.746E-01 0.906E+00   0.900E-01 0.121E-01 0.316E+00
   0.228E-01 -.177E+02 -.123E+04   -.409E-03 0.172E+02 0.123E+04   0.102E-01 0.547E+00 0.507E+00   -.330E-01 0.361E-01 0.860E-01
   -.959E-02 0.202E+01 -.367E+04   0.257E-02 -.215E+01 0.367E+04   -.589E-03 0.958E-01 0.181E+01   0.753E-02 0.368E-01 0.107E+00
   -.109E+02 -.205E+02 -.365E+04   0.114E+02 0.211E+02 0.365E+04   -.615E+00 -.808E+00 0.939E+00   0.642E-01 0.144E+00 0.161E+00
   0.109E+02 -.205E+02 -.365E+04   -.114E+02 0.211E+02 0.365E+04   0.616E+00 -.810E+00 0.936E+00   -.713E-01 0.154E+00 0.172E+00
   -.255E+02 -.148E+01 -.365E+04   0.265E+02 0.167E+01 0.365E+04   -.116E+01 -.166E+00 0.916E+00   0.113E+00 -.269E-01 0.170E+00
   0.255E+02 -.150E+01 -.365E+04   -.265E+02 0.167E+01 0.365E+04   0.116E+01 -.167E+00 0.918E+00   -.115E+00 -.144E-01 0.177E+00
   -.164E+02 0.237E+02 -.366E+04   0.165E+02 -.244E+02 0.365E+04   -.255E+00 0.864E+00 0.157E+01   0.830E-01 -.121E+00 0.207E+00
   0.164E+02 0.237E+02 -.366E+04   -.165E+02 -.244E+02 0.365E+04   0.252E+00 0.863E+00 0.157E+01   -.675E-01 -.118E+00 0.204E+00
   0.197E-01 0.970E+00 -.368E+04   -.271E-02 -.931E+00 0.368E+04   0.999E-02 -.126E-01 0.237E+01   -.273E-01 -.261E-01 0.352E+00
   0.958E-03 -.326E+01 -.187E+04   -.235E-02 0.326E+01 0.187E+04   -.192E-03 -.157E-01 0.198E+01   0.206E-02 -.160E-01 0.124E+00
   0.673E+02 0.428E+02 -.391E+03   -.740E+02 -.471E+02 0.393E+03   0.674E+01 0.433E+01 -.184E+01   -.602E-02 -.425E-02 -.349E-02
   -.671E+02 0.430E+02 -.391E+03   0.738E+02 -.474E+02 0.393E+03   -.672E+01 0.436E+01 -.184E+01   0.614E-02 -.383E-02 -.368E-02
   -.115E+00 -.551E+02 -.225E+04   0.200E+00 0.976E+02 0.225E+04   -.880E-01 -.425E+02 0.845E+01   0.550E-02 0.702E-02 -.836E-02
   0.702E-01 0.339E+02 0.341E+01   -.854E-13 0.114E-12 0.105E-10   -.661E-01 -.340E+02 -.492E+01   -.276E-02 0.186E-01 0.159E+01

 POSITION                                       TOTAL-FORCE (eV/Angst)
      0.00000      0.00000      5.37156        -0.000042      0.004486     -0.039962
      2.56560      0.00000      5.37156        -0.003928      0.011534      0.053991
      5.13119      0.00000      5.37156         0.003878      0.011386      0.053946
      1.28280      2.22187      5.37156         0.008069     -0.012056      0.055320
      3.84839      2.22187      5.37156         0.000317     -0.005599      0.043114
      6.41399      2.22187      5.37156        -0.008008     -0.012155      0.055337
      2.56560      4.44374      5.37156         0.005804      0.000666      0.058991
      5.13119      4.44374      5.37156        -0.005964      0.000746      0.059041
      7.69679      4.44374      5.37156        -0.000401     -0.001747      0.015340
      1.28280      0.74062      7.46636         0.006028      0.004738     -0.076663
      3.84839      0.74062      7.46636         0.000389     -0.039334     -0.065023
      6.41399      0.74062      7.46636        -0.006021      0.004739     -0.076579
      2.56560      2.96249      7.46636        -0.026363      0.018866     -0.065066
      5.13119      2.96249      7.46636         0.027307      0.018932     -0.065058
      7.69679      2.96249      7.46636         0.000004     -0.022107     -0.034373
      3.84839      5.18437      7.46636         0.000003     -0.006383     -0.081858
      6.41399      5.18437      7.46636        -0.021874      0.011155     -0.028296
      8.97958      5.18437      7.46636         0.021878      0.011100     -0.028256
      7.69679      1.48113      9.55176         0.000300     -0.011597     -0.010454
      2.56610      1.48154      9.54462        -0.012311      0.002364     -0.043748
      5.13069      1.48154      9.54462         0.011229      0.002270     -0.043851
      8.97635      3.70498      9.55922         0.022133     -0.018833     -0.007483
      3.84839      3.70254      9.54462        -0.000640      0.030552     -0.021946
      6.41722      3.70498      9.55922        -0.023216     -0.019040     -0.007324
     10.26248      5.92505      9.55176         0.015579      0.007357      0.004979
      5.13109      5.92505      9.55176        -0.014801      0.007299      0.005020
      7.69679      5.92126      9.55922        -0.000407      0.033538     -0.017524
      0.00000      0.00000     11.63975        -0.000109      0.010302      0.031394
      2.57267      0.01383     11.65039        -0.064133     -0.101042     -0.091952
      5.12411      0.01383     11.65039         0.064250     -0.101422     -0.092065
      1.29831      2.22109     11.65039        -0.117116     -0.003053     -0.088926
      6.39847      2.22109     11.65039         0.117226     -0.003244     -0.089059
      2.57403      4.43070     11.65039        -0.090678      0.101326     -0.096698
      5.12275      4.43070     11.65039         0.090418      0.101333     -0.096914
      7.69679      4.44374     11.64501        -0.000333      0.000398      0.035010
      3.84839      2.22187     11.55740         0.000437     -0.030786      0.819576
      3.06259      1.70637     13.95630         0.003235     -0.002890     -0.003556
      4.63246      1.70318     13.95643        -0.004401     -0.002000     -0.004158
      3.84863      2.24655     13.72935         0.002262     -0.001800     -0.014264
    total drift:                                0.001304     -0.002764      0.076436

  FREE ENERGIE OF THE ION-ELECTRON SYSTEM (eV)
  free  energy   TOTEN  =      -144.21559143 eV

  energy  without entropy=     -144.21559143  energy(sigma->0) =     -144.21559143

 stress matrix after NEB project (eV)
     -8.14670      0.00851     -0.00079
      0.00851     -8.35766     -0.07544
     -0.00079     -0.07544     -0.14635
  FORCES: max atom, RMS     0.014554    0.002698
  FORCE total and by dimension    0.016851    0.014264
  Stress total and by dimension   11.672704    8.357656
|           W    W    AA    RRRRR   N    N  II  N    N   GGGG   !!!           |
|           W    W   A  A   R    R  NN   N  II  NN   N  G    G  !!!           |
|           W    W  A    A  R    R  N N  N  II  N N  N  G       !!!           |
|           W WW W  AAAAAA  RRRRR   N  N N  II  N  N N  G  GGG   !            |
|           WW  WW  A    A  R   R   N   NN  II  N   NN  G    G                |
|           W    W  A    A  R    R  N    N  II  N    N   GGGG   !!!           |
|     Tetrahedron method does not include variations of the Fermi             |
|     occupations, so forces and stress will be inaccurate. We suggest        |
|     using a different smearing scheme ISMEAR = 1 or 2 for metals in         |
|     relaxations.                                                            |

 total charge

# of ion       s       p       d       tot
    1        0.450   0.284   9.188   9.922
    2        0.448   0.286   9.185   9.919
    3        0.448   0.286   9.185   9.919
    4        0.448   0.286   9.186   9.920
    5        0.449   0.285   9.181   9.915
    6        0.448   0.286   9.186   9.919
    7        0.447   0.286   9.186   9.919
    8        0.447   0.286   9.186   9.919
    9        0.448   0.283   9.189   9.920
   10        0.444   0.372   9.175   9.990
   11        0.443   0.366   9.184   9.993
   12        0.444   0.372   9.175   9.990
   13        0.442   0.367   9.184   9.993
   14        0.442   0.367   9.184   9.993
   15        0.439   0.370   9.177   9.986
   16        0.444   0.372   9.175   9.991
   17        0.439   0.370   9.177   9.986
   18        0.439   0.370   9.177   9.986
   19        0.442   0.368   9.181   9.992
   20        0.464   0.397   9.156  10.017
   21        0.464   0.397   9.156  10.017
   22        0.432   0.374   9.181   9.987
   23        0.464   0.397   9.157  10.018
   24        0.432   0.374   9.181   9.987
   25        0.441   0.368   9.182   9.991
   26        0.441   0.368   9.182   9.991
   27        0.433   0.374   9.181   9.988
   28        0.446   0.290   9.177   9.912
   29        0.467   0.307   9.168   9.943
   30        0.467   0.307   9.168   9.943
   31        0.468   0.306   9.168   9.942
   32        0.468   0.306   9.168   9.942
   33        0.465   0.300   9.172   9.937
   34        0.465   0.300   9.172   9.937
   35        0.440   0.292   9.182   9.913
   36        0.444   0.463   4.291   5.198
   37        0.603   0.118   0.000   0.720
   38        0.603   0.118   0.000   0.720
   39        1.568   3.609   0.000   5.177
tot         18.925  16.027 325.504 360.455

 BZINTS: Fermi energy:   -0.173864;  399.000000 electrons
         Band energy:-0.125931E+04;  BLOECHL correction:   -0.018713