 vasp.6.2.0 18Jan21 (build Jun 12 2021 23:27:24) complex

 executed on             LinuxIFC date 2022.05.26  20:18:08

 INCAR:
   ISMEAR = -5
   SIGMA = 0.1
   ISPIN = 1
   EDIFF = 1.d-5
   EDIFFG = -0.01
   NSW = 0
   NELM = 150
   ENCUT = 500
   ISIF = 2
   IBRION = 2
   LREAL = Auto
   ALGO = Fast
   ICHARG = 11
   LORBIT = 10
   LCHARG = .F.
   LWAVE = .F.

 POTCAR:    PAW_PBE Ag 02Apr2005
 POTCAR:    PAW_PBE V 08Apr2002
|           W    W    AA    RRRRR   N    N  II  N    N   GGGG   !!!           |
|           W    W   A  A   R    R  NN   N  II  NN   N  G    G  !!!           |
|           W    W  A    A  R    R  N N  N  II  N N  N  G       !!!           |
|           W WW W  AAAAAA  RRRRR   N  N N  II  N  N N  G  GGG   !            |
|           WW  WW  A    A  R   R   N   NN  II  N   NN  G    G                |
|           W    W  A    A  R    R  N    N  II  N    N   GGGG   !!!           |
|     For optimal performance we recommend to set                             |
|       NCORE = 2 up to number-of-cores-per-socket                            |
|     This setting can greatly improve the performance of VASP for DFT.       |
|     The default, NCORE=1 might be grossly inefficient on modern             |
|     multi-core architectures or massively parallel machines. Do your        |
|     Unfortunately you need to use the default for GW and RPA                |
|     calculations (for HF NCORE is supported but not extensively tested      |
|     yet).                                                                   |

 POTCAR:    PAW_PBE Ag 02Apr2005
   VRHFIN =Ag : s1 d10

   TITEL  = PAW_PBE Ag 02Apr2005
   POMASS =  107.868; ZVAL   =   11.000    mass and valenz
   ENMAX  =  249.844; ENMIN  =  187.383 eV

 POTCAR:    PAW_PBE V 08Apr2002
   VRHFIN =V: p6 d4 s1

   TITEL  = PAW_PBE V 08Apr2002
   POMASS =   50.941; ZVAL   =    5.000    mass and valenz
   ENMAX  =  192.543; ENMIN  =  144.408 eV

 Optimization of the real space projectors (new method)

 maximal supplied QI-value         = 15.12
 optimisation between [QCUT,QGAM] = [ 11.34, 22.83] = [ 36.00,145.93] Ry
 Optimized for a Real-space Cutoff    1.43 Angstroem

   l    n(q)    QCUT    max X(q) W(low)/X(q) W(high)/X(q)  e(spline)
   2      9    11.338    53.897    0.16E-03    0.20E-03    0.28E-06
   2      9    11.338    52.416    0.16E-03    0.20E-03    0.29E-06
   0     10    11.338   122.045    0.31E-04    0.76E-04    0.15E-06
   0     10    11.338    73.629    0.30E-04    0.72E-04    0.15E-06
   1      9    11.338    15.255    0.20E-03    0.19E-04    0.17E-06
   1      9    11.338     9.562    0.16E-03    0.15E-04    0.14E-06
 Optimization of the real space projectors (new method)

 maximal supplied QI-value         = 13.98
 optimisation between [QCUT,QGAM] = [ 11.33, 22.79] = [ 35.93,145.49] Ry
 Optimized for a Real-space Cutoff    1.56 Angstroem

   l    n(q)    QCUT    max X(q) W(low)/X(q) W(high)/X(q)  e(spline)
   2     10    11.327    96.114    0.36E-03    0.35E-03    0.42E-06
   2     10    11.327    88.986    0.37E-03    0.35E-03    0.42E-06
   0     11    11.327    20.919    0.40E-04    0.56E-04    0.79E-06
   0     11    11.327     9.593    0.30E-04    0.41E-04    0.60E-06
   1     10    11.327    11.615    0.15E-03    0.10E-03    0.19E-06
   1     10    11.327     7.031    0.11E-03    0.73E-04    0.14E-06
  PAW_PBE Ag 02Apr2005                  :
  PAW_PBE V 08Apr2002                   :

 POSCAR: Ag-V
  positions in direct lattice
  velocities in cartesian coordinates
 exchange correlation table for  LEXCH =        8
   RHO(1)=    0.500       N(1)  =     2000
   RHO(2)=  100.500       N(2)  =     4000

 VTST: version 3.2, (02/03/18)

 CHAIN: initializing optimizer

 OPT: Using VASP Conjugate-Gradient optimizer
 CHAIN: Read ICHAIN            0

 POSCAR: Ag-V
  positions in direct lattice
  velocities in cartesian coordinates

 ion  position               nearest neighbor table
   1  0.000  0.000  0.238-   2 2.93   8 2.93   7 2.93   6 2.93   4 2.93  12 2.93  16 2.93  10 2.93
                             3 2.93
   2  0.333  0.000  0.238-   1 2.93   8 2.93   9 2.93   3 2.93   4 2.93   5 2.93  10 2.93  17 2.93
                            11 2.93
   3  0.667  0.000  0.238-   9 2.93   2 2.93   5 2.93  11 2.93   7 2.93  18 2.93   1 2.93   6 2.93
                            12 2.93
   4  0.000  0.333  0.238-   5 2.93   6 2.93   2 2.93   1 2.93   7 2.93  13 2.93  15 2.93   9 2.93
                            10 2.93
   5  0.333  0.333  0.238-   4 2.93   3 2.93   7 2.93   2 2.93   8 2.93  14 2.93  13 2.93  11 2.93
                             6 2.93
   6  0.667  0.333  0.238-   4 2.93   9 2.93   1 2.93  15 2.93   8 2.93  12 2.93   3 2.93   5 2.93
                            14 2.93
   7  0.000  0.667  0.238-   8 2.93   1 2.93   5 2.93   3 2.93   4 2.93  16 2.93  18 2.93  13 2.93
                             9 2.93
   8  0.333  0.667  0.238-   7 2.93   1 2.93   2 2.93   9 2.93   5 2.93  16 2.93   6 2.93  17 2.93
                            14 2.93
   9  0.667  0.667  0.238-   3 2.93   2 2.93   8 2.93   6 2.93  17 2.93   4 2.93  15 2.93   7 2.93
                            18 2.93
  10  0.111  0.111  0.346-  20 2.91  19 2.92  26 2.92  12 2.93  16 2.93  15 2.93  17 2.93  13 2.93
                            11 2.93   2 2.93   1 2.93   4 2.93
  11  0.444  0.111  0.346-  21 2.90  20 2.90  27 2.92  14 2.93  17 2.93  18 2.93   3 2.93  12 2.93
                            13 2.93  10 2.93   5 2.93   2 2.93
  12  0.778  0.111  0.346-  21 2.91  25 2.92  19 2.92  10 2.93  16 2.93  18 2.93  15 2.93  11 2.93
                             1 2.93  14 2.93   6 2.93   3 2.93
  13  0.111  0.444  0.346-  20 2.90  23 2.90  22 2.92  15 2.93  14 2.93  18 2.93  10 2.93  11 2.93
                            16 2.93   4 2.93   5 2.93   7 2.93
  14  0.444  0.444  0.346-  23 2.90  21 2.90  24 2.92  13 2.93  11 2.93  16 2.93   5 2.93  12 2.93
                            17 2.93   8 2.93  15 2.93   6 2.93
  15  0.778  0.444  0.346-  24 2.92  22 2.92  19 2.92  13 2.93  10 2.93  12 2.93  17 2.93  18 2.93
                             4 2.93   6 2.93   9 2.93  14 2.93
  16  0.111  0.778  0.346-  23 2.91  26 2.92  25 2.92  18 2.93  12 2.93  10 2.93  14 2.93  17 2.93
                            13 2.93   7 2.93   8 2.93   1 2.93
  17  0.444  0.778  0.346-  27 2.92  24 2.92  26 2.92  11 2.93  10 2.93   9 2.93  18 2.93  15 2.93
                            16 2.93   2 2.93  14 2.93   8 2.93
  18  0.778  0.778  0.346-  22 2.92  27 2.92  25 2.92  16 2.93  12 2.93  13 2.93  11 2.93  17 2.93
                            15 2.93   7 2.93   3 2.93   9 2.93
  19  0.889  0.222  0.453-  28 2.91  15 2.92  10 2.92  12 2.92  24 2.93  22 2.93  26 2.93  25 2.93
                            20 2.94  21 2.94  32 2.96  31 2.96
  20  0.223  0.223  0.453-  36 2.75  13 2.90  11 2.90  10 2.91  21 2.92  23 2.92  31 2.92  29 2.92
                            27 2.93  22 2.93  19 2.94  26 2.94
  21  0.555  0.223  0.453-  36 2.75  11 2.90  14 2.90  12 2.91  20 2.92  23 2.92  30 2.92  32 2.92
                            27 2.93  24 2.93  25 2.94  19 2.94
  22  0.889  0.556  0.453-  18 2.92  15 2.92  35 2.92  13 2.92  24 2.93  27 2.93  25 2.93  19 2.93
                            23 2.93  20 2.93  33 2.94  31 2.94
  23  0.223  0.555  0.453-  36 2.75  14 2.90  13 2.90  16 2.91  21 2.92  20 2.92  34 2.92  33 2.92
                            22 2.93  24 2.93  26 2.94  25 2.94
  24  0.556  0.556  0.453-  15 2.92  17 2.92  35 2.92  14 2.92  27 2.93  22 2.93  19 2.93  26 2.93
                            23 2.93  21 2.93  32 2.94  34 2.94
  25  0.889  0.889  0.453-  28 2.91  18 2.92  16 2.92  12 2.92  22 2.93  27 2.93  26 2.93  19 2.93
                            23 2.94  21 2.94  33 2.96  30 2.96
  26  0.222  0.889  0.453-  28 2.91  17 2.92  16 2.92  10 2.92  27 2.93  24 2.93  25 2.93  19 2.93
                            23 2.94  20 2.94  34 2.96  29 2.96
  27  0.556  0.889  0.453-  17 2.92  18 2.92  35 2.92  11 2.92  24 2.93  22 2.93  26 2.93  25 2.93
                            20 2.93  21 2.93  29 2.94  30 2.94
  28  0.000  0.000  0.560-  26 2.91  25 2.91  19 2.91  29 2.96  34 2.96  33 2.96  32 2.96  31 2.96
                            30 2.96
  29  0.334  0.006  0.562-  30 2.87  31 2.88  36 2.89  20 2.92  27 2.94  35 2.96  28 2.96  26 2.96
                            34 3.04
  30  0.660  0.006  0.562-  29 2.87  32 2.88  36 2.89  21 2.92  27 2.94  35 2.96  28 2.96  25 2.96
                            33 3.04
  31  0.006  0.334  0.562-  33 2.87  29 2.88  36 2.89  20 2.92  22 2.94  35 2.96  28 2.96  19 2.96
                            32 3.04
  32  0.660  0.334  0.562-  34 2.87  30 2.88  36 2.89  21 2.92  24 2.94  35 2.96  28 2.96  19 2.96
                            31 3.04
  33  0.006  0.660  0.562-  31 2.87  34 2.88  36 2.89  23 2.92  22 2.94  35 2.96  28 2.96  25 2.96
                            30 3.04
  34  0.334  0.660  0.562-  32 2.87  33 2.88  36 2.89  23 2.92  24 2.94  35 2.96  28 2.96  26 2.96
                            29 3.04
  35  0.667  0.667  0.561-  24 2.92  27 2.92  22 2.92  30 2.96  32 2.96  29 2.96  34 2.96  31 2.96
                            33 2.96
  36  0.333  0.333  0.551-  21 2.75  20 2.75  23 2.75  31 2.89  33 2.89  30 2.89  29 2.89  34 2.89
                            32 2.89

  LATTYP: Found a hexagonal cell.
 ALAT       =     8.7913665772
 C/A-ratio  =     2.5227160501

  Lattice vectors:

 A1 = (  -4.3956832886,  -7.6135467898,   0.0000000000)
 A2 = (   8.7913665771,   0.0000000000,   0.0000000000)
 A3 = (   0.0000000000,   0.0000000000,  22.1781215668)

Analysis of symmetry for initial positions (statically):
 Subroutine PRICEL returns:
 Original cell was already a primitive cell.

 Routine SETGRP: Setting up the symmetry group for a
 hexagonal supercell.

 Subroutine GETGRP returns: Found  6 space group operations
 (whereof  6 operations were pure point group operations)
 out of a pool of 24 trial point group operations.

The static configuration has the point symmetry C_3v.

Analysis of symmetry for dynamics (positions and initial velocities):
 Subroutine PRICEL returns:
 Original cell was already a primitive cell.

[...]

The dynamic configuration has the point symmetry C_3v.

Analysis of constrained symmetry for selective dynamics:
 Subroutine PRICEL returns:
 Original cell was already a primitive cell.

 Routine SETGRP: Setting up the symmetry group for a
 hexagonal supercell.

 Subroutine GETGRP returns: Found  6 space group operations
 (whereof  6 operations were pure point group operations)
 out of a pool of 24 trial point group operations.

The constrained configuration has the point symmetry C_3v.

 Subroutine INISYM returns: Found  6 space group operations
 (whereof  6 operations are pure point group operations),
 and found     1 'primitive' translations

                                     Primitive cell

  volume of cell :    1484.4589

  direct lattice vectors                    reciprocal lattice vectors
     8.791366577  0.000000000  0.000000000     0.113747958 -0.065672414  0.000000000
     4.395683289  7.613546790  0.000000000     0.000000000  0.131344829  0.000000000
[...]
     15      -4.7394      2.00000
     16      -4.7386      2.00000
     17      -4.7059      2.00000
     18      -4.7028      2.00000
     19      -4.6965      2.00000
     20      -4.6924      2.00000
     21      -4.6794      2.00000
     22      -4.6469      2.00000
     23      -4.6376      2.00000
     24      -4.6342      2.00000
     25      -4.6039      2.00000
     26      -4.5847      2.00000
     27      -4.5608      2.00000
     28      -4.5562      2.00000
     29      -4.5440      2.00000
     30      -4.5364      2.00000
     31      -4.5245      2.00000
     32      -4.4926      2.00000
     33      -4.4701      2.00000
     34      -4.4345      2.00000
     35      -4.4076      2.00000
     36      -4.4031      2.00000
     37      -4.3657      2.00000
     38      -4.3300      2.00000
     39      -4.3276      2.00000
     40      -4.3231      2.00000
     41      -4.3120      2.00000
     42      -4.3004      2.00000
     43      -4.2075      2.00000
     44      -4.1792      2.00000
     45      -4.1761      2.00000
     46      -4.1704      2.00000
     47      -4.1652      2.00000
     48      -4.1634      2.00000
     49      -4.1494      2.00000
     50      -4.1410      2.00000
     51      -4.1338      2.00000
     52      -4.1192      2.00000
     53      -4.0564      2.00000
     54      -4.0480      2.00000
     55      -4.0391      2.00000
     56      -4.0307      2.00000
     57      -4.0160      2.00000
     58      -4.0039      2.00000
     59      -3.9718      2.00000
     60      -3.9536      2.00000
[...]
    238       7.1424      0.00000
    239       7.1587      0.00000
    240       7.2210      0.00000
    241       7.2431      0.00000
    242       7.2800      0.00000
    243       7.3081      0.00000
    244       7.3362      0.00000
    245       7.4737      0.00000
    246       7.5238      0.00000
    247       7.5839      0.00000
    248       7.6170      0.00000
    249       7.6306      0.00000
    250       7.9355      0.00000
    251       7.9621      0.00000
    252       8.0839      0.00000

 soft charge-density along one line, spin component           1
         0         1         2         3         4         5         6         7         8         9
 total charge-density along one line

------------------------ aborting loop because EDIFF is reached ----------------------------------------

 total charge

# of ion       s       p       d       tot
    1        0.421   0.200   9.177   9.798
    2        0.414   0.204   9.178   9.795
    3        0.414   0.204   9.178   9.795
    4        0.414   0.204   9.178   9.795
    5        0.420   0.202   9.176   9.798
    6        0.414   0.204   9.178   9.795
    7        0.414   0.204   9.178   9.795
    8        0.414   0.204   9.178   9.795
    9        0.417   0.201   9.178   9.796
   10        0.410   0.269   9.162   9.840
   11        0.405   0.267   9.169   9.841
   12        0.410   0.269   9.162   9.840
   13        0.405   0.267   9.169   9.841
   14        0.405   0.267   9.169   9.841
   15        0.405   0.268   9.165   9.837
   16        0.410   0.269   9.162   9.840
   17        0.405   0.268   9.165   9.837
   18        0.405   0.268   9.165   9.837
   19        0.402   0.265   9.165   9.832
   20        0.435   0.299   9.136   9.870
   21        0.435   0.299   9.136   9.870
   22        0.396   0.272   9.165   9.833
   23        0.435   0.299   9.136   9.870
   24        0.396   0.272   9.165   9.833
   25        0.402   0.265   9.165   9.832
   26        0.402   0.265   9.165   9.832
   27        0.396   0.272   9.165   9.833
   28        0.408   0.198   9.173   9.778
   29        0.436   0.212   9.154   9.803
   30        0.436   0.212   9.154   9.803
   31        0.436   0.212   9.154   9.803
   32        0.436   0.212   9.154   9.803
   33        0.436   0.212   9.154   9.803
   34        0.436   0.212   9.154   9.803
   35        0.404   0.199   9.174   9.777
   36        0.415   0.318   3.311   4.043
tot         14.945   8.728 324.064 347.737

  FORCE on cell =-STRESS in cart. coord.  units (eV):
  Direction    XX          YY          ZZ          XY          YZ          ZX
  Alpha Z   727.31398   727.31398   727.31398
  Ewald  119041.53750119041.53737************    -0.00002    -0.00001    -0.00002
  Hartree129043.30107129043.30101************    -0.00001    -0.00000    -0.00001
  E(xc)   -2049.57197 -2049.57196 -2055.70263    -0.00001     0.00000     0.00000
  Local  ************************259238.17769     0.00024    -0.00002    -0.00003
  n-local  -326.74580  -307.67772  -321.54339    10.60989    -0.43591     0.59152
  augment  3239.15942  3239.15951  3252.19656    -0.00008     0.00002     0.00004
  Kinetic  4793.39198  4794.75679  4828.49794     3.21761     0.59143    -0.36893
  Fock        0.00000     0.00000     0.00000     0.00000     0.00000     0.00000
  Total      -9.96730    -9.96730    -1.17909    -0.00000     0.00000    -0.00000
  in kB     -10.75772   -10.75772    -1.27259    -0.00000     0.00000    -0.00000

 VOLUME and BASIS-vectors are now :
  energy-cutoff  :      500.00
  volume of cell :     1484.46
      direct lattice vectors                 reciprocal lattice vectors
     8.791366577  0.000000000  0.000000000     0.113747958 -0.065672414  0.000000000
     4.395683289  7.613546790  0.000000000     0.000000000  0.131344829  0.000000000
     0.000000000  0.000000000 22.178121567     0.000000000  0.000000000  0.045089481

  length of vectors
     8.791366577  8.791366577 22.178121567     0.131344829  0.131344829  0.045089481

 FORCES acting on ions
    electron-ion (+dipol)            ewald-force                    non-local-force                 convergence-correction
   0.461E-04 -.282E-04 0.247E+04   -.953E-04 0.593E-04 -.247E+04   0.488E-17 0.470E-17 -.188E+01   -.141E-03 -.188E-03 0.298E+00
   -.121E+00 -.180E+00 0.247E+04   0.446E-01 0.131E+00 -.247E+04   0.583E-01 0.129E+00 -.164E+01   0.166E-01 -.796E-01 0.411E+00
   0.121E+00 -.180E+00 0.247E+04   -.445E-01 0.131E+00 -.247E+04   -.583E-01 0.129E+00 -.164E+01   -.171E-01 -.777E-01 0.412E+00
   -.216E+00 -.150E-01 0.247E+04   0.136E+00 -.267E-01 -.247E+04   0.141E+00 -.138E-01 -.164E+01   -.604E-01 0.543E-01 0.411E+00
   -.772E-05 -.199E-04 0.247E+04   0.981E-04 -.200E-05 -.247E+04   0.183E-17 -.240E-17 -.129E+01   0.622E-02 0.380E-02 0.799E+00
   0.216E+00 -.149E-01 0.247E+04   -.136E+00 -.268E-01 -.247E+04   -.141E+00 -.138E-01 -.164E+01   0.590E-01 0.552E-01 0.412E+00
   -.951E-01 0.195E+00 0.247E+04   0.909E-01 -.104E+00 -.247E+04   0.823E-01 -.115E+00 -.164E+01   -.754E-01 0.246E-01 0.412E+00
   0.952E-01 0.195E+00 0.247E+04   -.909E-01 -.104E+00 -.247E+04   -.823E-01 -.115E+00 -.164E+01   0.769E-01 0.236E-01 0.412E+00
   0.366E-04 -.130E-04 0.247E+04   0.791E-04 -.642E-04 -.247E+04   -.361E-17 0.252E-18 -.167E+01   -.661E-02 -.340E-02 0.410E+00
   0.176E-01 0.102E-01 0.792E+03   0.400E+00 0.231E+00 -.791E+03   -.306E+00 -.177E+00 -.788E+00   -.114E+00 -.660E-01 0.252E+00
   -.285E-04 -.722E+00 0.789E+03   0.408E-04 0.828E+00 -.789E+03   0.674E-12 0.103E+00 -.312E+00   0.653E-02 -.247E+00 0.170E+00
   -.176E-01 0.101E-01 0.792E+03   -.400E+00 0.231E+00 -.791E+03   0.306E+00 -.177E+00 -.788E+00   0.113E+00 -.652E-01 0.252E+00
   -.625E+00 0.361E+00 0.789E+03   0.717E+00 -.414E+00 -.789E+03   0.889E-01 -.513E-01 -.312E+00   -.211E+00 0.129E+00 0.170E+00
   0.625E+00 0.361E+00 0.789E+03   -.717E+00 -.414E+00 -.789E+03   -.889E-01 -.513E-01 -.312E+00   0.221E+00 0.128E+00 0.168E+00
   0.155E-04 0.566E+00 0.793E+03   -.107E-03 -.849E+00 -.792E+03   0.432E-12 0.658E-01 -.774E+00   -.147E-02 0.195E+00 0.297E+00
   -.818E-05 -.203E-01 0.792E+03   0.206E-04 -.462E+00 -.791E+03   0.232E-11 0.353E+00 -.788E+00   -.197E-03 0.130E+00 0.252E+00
   0.490E+00 -.283E+00 0.793E+03   -.736E+00 0.425E+00 -.792E+03   0.570E-01 -.329E-01 -.774E+00   0.168E+00 -.986E-01 0.297E+00
   -.490E+00 -.283E+00 0.793E+03   0.736E+00 0.425E+00 -.792E+03   -.570E-01 -.329E-01 -.774E+00   -.167E+00 -.967E-01 0.298E+00
   0.393E-04 -.473E+01 -.902E+03   -.125E-03 0.468E+01 0.901E+03   0.305E-12 0.464E-01 0.615E+00   -.498E-02 0.721E-05 0.356E+00
   -.225E+02 -.130E+02 -.925E+03   0.254E+02 0.147E+02 0.928E+03   -.106E+01 -.611E+00 -.872E+00   -.184E+01 -.106E+01 -.210E+01
   0.225E+02 -.130E+02 -.925E+03   -.254E+02 0.147E+02 0.928E+03   0.106E+01 -.611E+00 -.872E+00   0.183E+01 -.107E+01 -.210E+01
   -.125E+02 0.724E+01 -.900E+03   0.131E+02 -.757E+01 0.900E+03   0.152E+00 -.877E-01 0.287E+00   -.719E+00 0.417E+00 -.608E-01
   -.521E-04 0.260E+02 -.925E+03   0.365E-04 -.294E+02 0.928E+03   0.802E-11 0.122E+01 -.872E+00   -.544E-02 0.212E+01 -.210E+01
   0.125E+02 0.724E+01 -.900E+03   -.131E+02 -.757E+01 0.900E+03   -.152E+00 -.877E-01 0.287E+00   0.721E+00 0.416E+00 -.607E-01
   0.410E+01 0.236E+01 -.902E+03   -.406E+01 -.234E+01 0.901E+03   -.402E-01 -.232E-01 0.615E+00   -.784E-02 -.468E-02 0.356E+00
   -.410E+01 0.236E+01 -.902E+03   0.406E+01 -.234E+01 0.901E+03   0.402E-01 -.232E-01 0.615E+00   -.279E-02 -.444E-02 0.356E+00
   0.197E-04 -.145E+02 -.900E+03   0.110E-03 0.151E+02 0.900E+03   0.115E-11 0.175E+00 0.287E+00   0.110E-02 -.832E+00 -.607E-01
   0.537E-04 -.363E-04 -.250E+04   -.113E-03 0.763E-04 0.250E+04   -.454E-17 -.990E-18 0.180E+01   -.523E-05 -.136E-03 -.535E+00
   -.219E+02 -.430E+02 -.251E+04   0.241E+02 0.465E+02 0.251E+04   -.915E+00 -.134E+01 0.118E+01   -.125E+01 -.219E+01 -.601E+00
   0.219E+02 -.430E+02 -.251E+04   -.241E+02 0.465E+02 0.251E+04   0.915E+00 -.134E+01 0.118E+01   0.125E+01 -.218E+01 -.601E+00
   -.482E+02 0.251E+01 -.251E+04   0.523E+02 -.240E+01 0.251E+04   -.162E+01 -.122E+00 0.118E+01   -.252E+01 0.106E-01 -.601E+00
   0.482E+02 0.251E+01 -.251E+04   -.523E+02 -.240E+01 0.251E+04   0.162E+01 -.122E+00 0.118E+01   0.252E+01 0.111E-01 -.600E+00
   -.263E+02 0.405E+02 -.251E+04   0.282E+02 -.441E+02 0.251E+04   -.703E+00 0.146E+01 0.118E+01   -.127E+01 0.217E+01 -.601E+00
   0.263E+02 0.405E+02 -.251E+04   -.282E+02 -.441E+02 0.251E+04   0.703E+00 0.146E+01 0.118E+01   0.127E+01 0.217E+01 -.601E+00
   0.271E-04 -.146E-04 -.251E+04   0.103E-03 -.646E-04 0.250E+04   -.282E-17 0.498E-18 0.198E+01   -.612E-02 -.310E-02 -.511E+00
   -.308E-04 0.647E-06 -.111E+04   0.479E-04 0.613E-05 0.111E+04   0.492E-17 -.439E-17 0.276E+01   0.668E-03 0.407E-03 -.114E+00
   0.289E-03 -.707E-03 0.108E+02   -.674E-15 -.151E-12 -.682E-12   0.224E-15 -.389E-17 -.659E+01   -.189E-01 -.774E-02 -.405E+01

 POSITION                                       TOTAL-FORCE (eV/Angst)
      0.00000      0.00000      5.28219        -0.000000      0.000000     -0.029030
      2.93046      0.00000      5.28219        -0.000927      0.001105      0.028025
      5.86091      0.00000      5.28219         0.000927      0.001105      0.028025
      1.46523      2.53785      5.28219         0.000494     -0.001355      0.028025
      4.39568      2.53785      5.28219        -0.000000      0.000000      0.015988
      7.32614      2.53785      5.28219        -0.000494     -0.001355      0.028025
      2.93046      5.07570      5.28219         0.001421      0.000250      0.028025
      5.86091      5.07570      5.28219        -0.001421      0.000250      0.028025
      8.79137      5.07570      5.28219        -0.000000      0.000000      0.003936
      1.46523      0.84595      7.67490        -0.001276     -0.000737     -0.031203
      4.39568      0.84595      7.67490        -0.000000     -0.041384     -0.058254
      7.32614      0.84595      7.67490         0.001276     -0.000737     -0.031203
      2.93046      3.38380      7.67490        -0.035840      0.020692     -0.058254
      5.86091      3.38380      7.67490         0.035840      0.020692     -0.058254
      8.79137      3.38380      7.67490        -0.000000     -0.023820     -0.003178
      4.39568      5.92165      7.67490         0.000000      0.001474     -0.031203
      7.32614      5.92165      7.67490        -0.020629      0.011910     -0.003178
     10.25659      5.92165      7.67490         0.020629      0.011910     -0.003178
      8.79137      1.69254     10.05636         0.000000      0.002562      0.011065
      2.93602      1.69511     10.03837         0.010160      0.005866      0.017337
      5.85534      1.69511     10.03837        -0.010160      0.005866      0.017337
     10.25423      4.23112     10.05516         0.008474     -0.004893      0.004316
      4.39568      4.22332     10.03837        -0.000000     -0.011732      0.017337
      7.32851      4.23112     10.05516        -0.008474     -0.004893      0.004316
     11.72126      6.76728     10.05636        -0.002218     -0.001281      0.011065
      5.86147      6.76728     10.05636         0.002218     -0.001281      0.011065
      8.79137      6.76486     10.05516         0.000000      0.009785      0.004316
      0.00000      0.00000     12.42937        -0.000000      0.000000      0.012091
      2.95945      0.04653     12.45339         0.005582      0.010435     -0.005308
      5.83191      0.04653     12.45339        -0.005582      0.010435     -0.005308
      1.52003      2.53970     12.45339         0.011828     -0.000383     -0.005308
      7.27134      2.53970     12.45339        -0.011828     -0.000383     -0.005308
      2.95626      5.02732     12.45339         0.006246     -0.010052     -0.005308
      5.83511      5.02732     12.45339        -0.006246     -0.010052     -0.005308
      8.79137      5.07570     12.43676        -0.000000      0.000000      0.021201
      4.39568      2.53785     12.21669        -0.000000      0.000000      0.019262
    total drift:                               -0.018660     -0.008446      0.209635

  FREE ENERGIE OF THE ION-ELECTRON SYSTEM (eV)
  free  energy   TOTEN  =       -95.21541402 eV

  energy  without entropy=      -95.21541402  energy(sigma->0) =      -95.21541402

 stress matrix after NEB project (eV)
     -9.96730     -0.00000     -0.00000
     -0.00000     -9.96730      0.00000
      0.00000      0.00000     -1.17909
  FORCES: max atom, RMS     0.021201    0.010568
  FORCE total and by dimension    0.063409    0.021201
  Stress total and by dimension   14.145124    9.967304
|           W    W    AA    RRRRR   N    N  II  N    N   GGGG   !!!           |
|           W    W   A  A   R    R  NN   N  II  NN   N  G    G  !!!           |
|           W    W  A    A  R    R  N N  N  II  N N  N  G       !!!           |
|           W WW W  AAAAAA  RRRRR   N  N N  II  N  N N  G  GGG   !            |
|           WW  WW  A    A  R   R   N   NN  II  N   NN  G    G                |
|           W    W  A    A  R    R  N    N  II  N    N   GGGG   !!!           |
|     Tetrahedron method does not include variations of the Fermi             |
|     occupations, so forces and stress will be inaccurate. We suggest        |
|     using a different smearing scheme ISMEAR = 1 or 2 for metals in         |
|     relaxations.                                                            |

 total charge

# of ion       s       p       d       tot
    1        0.421   0.200   9.177   9.798
    2        0.414   0.204   9.178   9.795
    3        0.414   0.204   9.178   9.795
    4        0.414   0.204   9.178   9.795
    5        0.420   0.202   9.176   9.798
    6        0.414   0.204   9.178   9.795
    7        0.414   0.204   9.178   9.795
    8        0.414   0.204   9.178   9.795
    9        0.417   0.201   9.178   9.796
   10        0.410   0.269   9.162   9.840
   11        0.405   0.267   9.169   9.841
   12        0.410   0.269   9.162   9.840
   13        0.405   0.267   9.169   9.841
   14        0.405   0.267   9.169   9.841
   15        0.405   0.268   9.165   9.837
   16        0.410   0.269   9.162   9.840
   17        0.405   0.268   9.165   9.837
   18        0.405   0.268   9.165   9.837
   19        0.402   0.265   9.165   9.832
   20        0.435   0.299   9.136   9.870
   21        0.435   0.299   9.136   9.870
   22        0.396   0.272   9.165   9.833
   23        0.435   0.299   9.136   9.870
   24        0.396   0.272   9.165   9.833
   25        0.402   0.265   9.165   9.832
   26        0.402   0.265   9.165   9.832
   27        0.396   0.272   9.165   9.833
   28        0.408   0.198   9.173   9.778
   29        0.436   0.212   9.154   9.803
   30        0.436   0.212   9.154   9.803
   31        0.436   0.212   9.154   9.803
   32        0.436   0.212   9.154   9.803
   33        0.436   0.212   9.154   9.803
   34        0.436   0.212   9.154   9.803
   35        0.404   0.199   9.174   9.777
   36        0.415   0.318   3.311   4.043
tot         14.945   8.728 324.064 347.737

 BZINTS: Fermi energy:    0.821126;  390.000000 electrons
         Band energy:-0.126456E+04;  BLOECHL correction:   -0.017402