 vasp.6.2.0 18Jan21 (build Jun 12 2021 23:27:24) complex

 executed on             LinuxIFC date 2022.05.30  17:25:08

 INCAR:
   ISMEAR = -5
   SIGMA = 0.1
   ISPIN = 1
   EDIFF = 1.d-5
   EDIFFG = -0.01
   NSW = 0
   NELM = 150
   ENCUT = 500
   ISIF = 2
   IBRION = 2
   LREAL = Auto
   ALGO = Fast
   ICHARG = 11
   LORBIT = 10
   LCHARG = .F.
   LWAVE = .F.

 POTCAR:    PAW_PBE Ag 02Apr2005
 POTCAR:    PAW_PBE Rh 04Feb2005
 POTCAR:    PAW_PBE O 08Apr2002
|           W    W    AA    RRRRR   N    N  II  N    N   GGGG   !!!           |
|           W    W   A  A   R    R  NN   N  II  NN   N  G    G  !!!           |
|           W    W  A    A  R    R  N N  N  II  N N  N  G       !!!           |
|           W WW W  AAAAAA  RRRRR   N  N N  II  N  N N  G  GGG   !            |
|           WW  WW  A    A  R   R   N   NN  II  N   NN  G    G                |
|           W    W  A    A  R    R  N    N  II  N    N   GGGG   !!!           |
|     For optimal performance we recommend to set                             |
|       NCORE = 2 up to number-of-cores-per-socket                            |
|     This setting can greatly improve the performance of VASP for DFT.       |
|     The default, NCORE=1 might be grossly inefficient on modern             |
|     multi-core architectures or massively parallel machines. Do your        |
|     Unfortunately you need to use the default for GW and RPA                |
|     calculations (for HF NCORE is supported but not extensively tested      |
|     yet).                                                                   |

 POTCAR:    PAW_PBE Ag 02Apr2005
   VRHFIN =Ag : s1 d10

   TITEL  = PAW_PBE Ag 02Apr2005
   POMASS =  107.868; ZVAL   =   11.000    mass and valenz
   ENMAX  =  249.844; ENMIN  =  187.383 eV

 POTCAR:    PAW_PBE Rh 04Feb2005
   VRHFIN =Rh: s1 d8

   TITEL  = PAW_PBE Rh 04Feb2005
   POMASS =  102.906; ZVAL   =    9.000    mass and valenz
   ENMAX  =  228.996; ENMIN  =  171.747 eV

 POTCAR:    PAW_PBE O 08Apr2002
   VRHFIN =O: s2p4

   TITEL  = PAW_PBE O 08Apr2002
   POMASS =   16.000; ZVAL   =    6.000    mass and valenz
   ENMAX  =  400.000; ENMIN  =  300.000 eV

 Optimization of the real space projectors (new method)

 maximal supplied QI-value         = 15.12
 optimisation between [QCUT,QGAM] = [ 11.34, 22.83] = [ 36.00,145.93] Ry
 Optimized for a Real-space Cutoff    1.43 Angstroem

   l    n(q)    QCUT    max X(q) W(low)/X(q) W(high)/X(q)  e(spline)
   2      9    11.338    53.897    0.16E-03    0.20E-03    0.28E-06
   2      9    11.338    52.416    0.16E-03    0.20E-03    0.29E-06
   0     10    11.338   122.045    0.31E-04    0.76E-04    0.15E-06
   0     10    11.338    73.629    0.30E-04    0.72E-04    0.15E-06
   1      9    11.338    15.255    0.20E-03    0.19E-04    0.17E-06
   1      9    11.338     9.562    0.16E-03    0.15E-04    0.14E-06
 Optimization of the real space projectors (new method)

[...]

   l    n(q)    QCUT    max X(q) W(low)/X(q) W(high)/X(q)  e(spline)
   2      9    11.327    59.645    0.31E-03    0.12E-04    0.28E-06
   2      9    11.327    58.460    0.31E-03    0.12E-04    0.29E-06
   0     10    11.327    97.683    0.32E-04    0.83E-04    0.31E-06
   0     10    11.327    53.223    0.30E-04    0.78E-04    0.29E-06
   1     10    11.327    13.596    0.49E-03    0.95E-03    0.55E-06
   1     10    11.327     7.885    0.36E-03    0.71E-03    0.41E-06
 Optimization of the real space projectors (new method)

 maximal supplied QI-value         = 24.76
 optimisation between [QCUT,QGAM] = [ 11.39, 22.77] = [ 36.31,145.25] Ry
 Optimized for a Real-space Cutoff    1.00 Angstroem

   l    n(q)    QCUT    max X(q) W(low)/X(q) W(high)/X(q)  e(spline)
   0      7    11.387    20.381    0.39E-03    0.13E-02    0.15E-06
   0      7    11.387    15.268    0.42E-03    0.14E-02    0.17E-06
   1      6    11.387     5.964    0.41E-03    0.11E-02    0.17E-06
   1      6    11.387     5.382    0.39E-03    0.87E-03    0.15E-06
  PAW_PBE Ag 02Apr2005                  :
  PAW_PBE Rh 04Feb2005                  :
  PAW_PBE O 08Apr2002                   :

 POSCAR: Ag-Rh-O2
  positions in direct lattice
  velocities in cartesian coordinates
 exchange correlation table for  LEXCH =        8
   RHO(1)=    0.500       N(1)  =     2000
   RHO(2)=  100.500       N(2)  =     4000

 VTST: version 3.2, (02/03/18)

 CHAIN: initializing optimizer

 OPT: Using VASP Conjugate-Gradient optimizer
 CHAIN: Read ICHAIN            0

 POSCAR: Ag-Rh-O2
  positions in direct lattice
  velocities in cartesian coordinates

 ion  position               nearest neighbor table
   1  0.000  0.000  0.217-   2 2.93   8 2.93   7 2.93   6 2.93   4 2.93  12 2.93  16 2.93  10 2.93
                             3 2.93
   2  0.333  0.000  0.217-   1 2.93   8 2.93   9 2.93   3 2.93   4 2.93   5 2.93  10 2.93  17 2.93
                            11 2.93
   3  0.667  0.000  0.217-   9 2.93   2 2.93   5 2.93  11 2.93   7 2.93  18 2.93   1 2.93   6 2.93
                            12 2.93
   4  0.000  0.333  0.217-   5 2.93   6 2.93   2 2.93   1 2.93   7 2.93  13 2.93  15 2.93   9 2.93
                            10 2.93
   5  0.333  0.333  0.217-   4 2.93   3 2.93   7 2.93   2 2.93   8 2.93  14 2.93  13 2.93  11 2.93
                             6 2.93
   6  0.667  0.333  0.217-   4 2.93   9 2.93   1 2.93  15 2.93   8 2.93  12 2.93   3 2.93   5 2.93
                            14 2.93
   7  0.000  0.667  0.217-   8 2.93   1 2.93   5 2.93   3 2.93   4 2.93  16 2.93  18 2.93  13 2.93
                             9 2.93
   8  0.333  0.667  0.217-   7 2.93   1 2.93   2 2.93   9 2.93   5 2.93  16 2.93   6 2.93  17 2.93
                            14 2.93
   9  0.667  0.667  0.217-   3 2.93   2 2.93   8 2.93   6 2.93  17 2.93   4 2.93  15 2.93   7 2.93
                            18 2.93
  10  0.111  0.111  0.315-  20 2.90  19 2.93  26 2.93  12 2.93  16 2.93  15 2.93  17 2.93  13 2.93
                            11 2.93   2 2.93   1 2.93   4 2.93
  11  0.444  0.111  0.315-  21 2.90  20 2.90  27 2.92  14 2.93  17 2.93  18 2.93   3 2.93  12 2.93
                            13 2.93  10 2.93   5 2.93   2 2.93
  12  0.778  0.111  0.315-  21 2.90  25 2.93  19 2.93  10 2.93  16 2.93  18 2.93  15 2.93  11 2.93
                             1 2.93  14 2.93   6 2.93   3 2.93
  13  0.111  0.444  0.315-  20 2.90  23 2.90  22 2.92  15 2.93  14 2.93  18 2.93  10 2.93  11 2.93
                            16 2.93   4 2.93   5 2.93   7 2.93
  14  0.444  0.444  0.315-  23 2.90  21 2.90  24 2.92  13 2.93  11 2.93  16 2.93   5 2.93  12 2.93
                            17 2.93   8 2.93  15 2.93   6 2.93
  15  0.778  0.444  0.315-  24 2.92  22 2.92  19 2.92  13 2.93  10 2.93  12 2.93  17 2.93  18 2.93
                             4 2.93   6 2.93   9 2.93  14 2.93
  16  0.111  0.778  0.315-  23 2.90  26 2.93  25 2.93  18 2.93  12 2.93  10 2.93  14 2.93  17 2.93
                            13 2.93   7 2.93   8 2.93   1 2.93
  17  0.444  0.778  0.315-  27 2.92  24 2.92  26 2.92  11 2.93  10 2.93   9 2.93  18 2.93  15 2.93
                            16 2.93   2 2.93  14 2.93   8 2.93
  18  0.778  0.778  0.315-  22 2.92  27 2.92  25 2.92  16 2.93  12 2.93  13 2.93  11 2.93  17 2.93
                            15 2.93   7 2.93   3 2.93   9 2.93
  19  0.889  0.223  0.413-  28 2.91  15 2.92  10 2.93  12 2.93  24 2.93  22 2.93  32 2.93  31 2.93
                            20 2.93  21 2.93  26 2.94  25 2.94
  20  0.222  0.222  0.412-  36 2.78  13 2.90  11 2.90  10 2.90  31 2.91  29 2.91  21 2.92  23 2.92
                            27 2.93  22 2.93  19 2.93  26 2.93
  21  0.555  0.222  0.412-  36 2.78  11 2.90  14 2.90  12 2.90  30 2.91  32 2.91  20 2.92  23 2.92
                            27 2.93  24 2.93  25 2.93  19 2.93
  22  0.889  0.556  0.413-  35 2.90  18 2.92  15 2.92  13 2.92  33 2.92  31 2.92  25 2.93  19 2.93
                            24 2.93  27 2.93  23 2.93  20 2.93
  23  0.222  0.555  0.412-  36 2.78  14 2.90  13 2.90  16 2.90  34 2.91  33 2.91  21 2.92  20 2.92
                            22 2.93  24 2.93  26 2.93  25 2.93
  24  0.556  0.556  0.413-  35 2.90  15 2.92  17 2.92  14 2.92  32 2.92  34 2.92  19 2.93  26 2.93
                            27 2.93  22 2.93  23 2.93  21 2.93
  25  0.889  0.889  0.413-  28 2.91  18 2.92  16 2.93  12 2.93  22 2.93  27 2.93  33 2.93  30 2.93
                            23 2.93  21 2.93  26 2.94  19 2.94
  26  0.223  0.889  0.413-  28 2.91  17 2.92  16 2.93  10 2.93  27 2.93  24 2.93  34 2.93  29 2.93
                            23 2.93  20 2.93  25 2.94  19 2.94
  27  0.556  0.889  0.413-  35 2.90  17 2.92  18 2.92  11 2.92  29 2.92  30 2.92  26 2.93  25 2.93
                            24 2.93  22 2.93  20 2.93  21 2.93
  28  0.000  0.000  0.510-  26 2.91  25 2.91  19 2.91  29 2.95  34 2.95  33 2.95  32 2.95  31 2.95
                            30 2.95
  29  0.333  0.005  0.510-  31 2.88  30 2.89  36 2.89  20 2.91  27 2.92  26 2.93  28 2.95  35 2.95
                            34 3.02
  30  0.662  0.005  0.510-  32 2.88  29 2.89  36 2.89  21 2.91  27 2.92  25 2.93  28 2.95  35 2.95
                            33 3.02
  31  0.005  0.333  0.510-  29 2.88  33 2.89  36 2.89  20 2.91  22 2.92  19 2.93  28 2.95  35 2.95
                            32 3.02
  32  0.662  0.333  0.510-  30 2.88  34 2.89  36 2.89  21 2.91  24 2.92  19 2.93  28 2.95  35 2.95
                            31 3.02
  33  0.005  0.662  0.510-  34 2.88  31 2.89  36 2.89  23 2.91  22 2.92  25 2.93  28 2.95  35 2.95
                            30 3.02
  34  0.333  0.662  0.510-  33 2.88  32 2.89  36 2.89  23 2.91  24 2.92  26 2.93  28 2.95  35 2.95
                            29 3.02
  35  0.667  0.667  0.510-  24 2.90  27 2.90  22 2.90  30 2.95  32 2.95  29 2.95  34 2.95  31 2.95
                            33 2.95
  36  0.333  0.333  0.502-  38 2.06  37 2.06  21 2.78  20 2.78  23 2.78  31 2.89  30 2.89  33 2.89
                            29 2.89  34 2.89  32 2.89
  37  0.258  0.327  0.582-  38 1.39  36 2.06
  38  0.415  0.327  0.582-  37 1.39  36 2.06

  LATTYP: Found a hexagonal cell.
 ALAT       =     8.7913665772
 C/A-ratio  =     2.7711238095

  Lattice vectors:

 A1 = (  -4.3956832886,  -7.6135467898,   0.0000000000)
 A2 = (   8.7913665771,   0.0000000000,   0.0000000000)
 A3 = (   0.0000000000,   0.0000000000,  24.3619652401)

Analysis of symmetry for initial positions (statically):
 Subroutine PRICEL returns:
 Original cell was already a primitive cell.

 Routine SETGRP: Setting up the symmetry group for a
 hexagonal supercell.

 Subroutine GETGRP returns: Found  2 space group operations
 (whereof  2 operations were pure point group operations)
 out of a pool of 24 trial point group operations.

The static configuration has the point symmetry C_1h.

Analysis of symmetry for dynamics (positions and initial velocities):
 Subroutine PRICEL returns:
 Original cell was already a primitive cell.

[...]

The dynamic configuration has the point symmetry C_1h.

Analysis of constrained symmetry for selective dynamics:
 Subroutine PRICEL returns:
 Original cell was already a primitive cell.

 Routine SETGRP: Setting up the symmetry group for a
 hexagonal supercell.

[...]
     33      -5.0536      2.00000
     34      -5.0272      2.00000
     35      -5.0262      2.00000
     36      -5.0112      2.00000
     37      -4.9735      2.00000
     38      -4.9238      2.00000
     39      -4.9058      2.00000
     40      -4.8826      2.00000
     41      -4.8721      2.00000
     42      -4.8550      2.00000
     43      -4.8302      2.00000
     44      -4.8187      2.00000
     45      -4.7979      2.00000
     46      -4.7898      2.00000
     47      -4.7741      2.00000
     48      -4.7074      2.00000
     49      -4.6793      2.00000
     50      -4.6711      2.00000
     51      -4.6595      2.00000
     52      -4.6536      2.00000
     53      -4.6530      2.00000
     54      -4.6355      2.00000
     55      -4.6312      2.00000
     56      -4.6205      2.00000
     57      -4.6103      2.00000
     58      -4.5398      2.00000
     59      -4.5347      2.00000
     60      -4.5265      2.00000
[...]
    238       5.5962      0.00000
    239       5.6931      0.00000
    240       5.7508      0.00000
    241       5.8433      0.00000
    242       5.9360      0.00000
    243       5.9553      0.00000
    244       6.3857      0.00000
    245       6.5006      0.00000
    246       6.5129      0.00000
    247       6.6449      0.00000
    248       6.6927      0.00000
    249       6.7395      0.00000
    250       6.7778      0.00000
    251       6.8319      0.00000
    252       6.8971      0.00000

 soft charge-density along one line, spin component           1
         0         1         2         3         4         5         6         7         8         9
 total charge-density along one line

------------------------ aborting loop because EDIFF is reached ----------------------------------------

 total charge

# of ion       s       p       d       tot
    1        0.416   0.202   9.178   9.795
    2        0.418   0.202   9.177   9.797
    3        0.418   0.202   9.177   9.797
    4        0.418   0.203   9.177   9.798
    5        0.417   0.204   9.175   9.796
    6        0.418   0.203   9.177   9.798
    7        0.417   0.203   9.177   9.797
    8        0.417   0.203   9.177   9.797
    9        0.413   0.203   9.178   9.794
   10        0.406   0.269   9.163   9.838
   11        0.409   0.267   9.167   9.843
   12        0.406   0.269   9.163   9.838
   13        0.409   0.268   9.167   9.844
   14        0.409   0.268   9.167   9.844
   15        0.400   0.272   9.164   9.835
   16        0.405   0.269   9.164   9.838
   17        0.400   0.270   9.166   9.836
   18        0.400   0.270   9.166   9.836
   19        0.401   0.267   9.169   9.837
   20        0.423   0.289   9.151   9.863
   21        0.423   0.289   9.151   9.863
   22        0.397   0.275   9.165   9.837
   23        0.416   0.293   9.153   9.862
   24        0.397   0.275   9.165   9.837
   25        0.402   0.268   9.166   9.836
   26        0.402   0.268   9.166   9.836
   27        0.397   0.273   9.166   9.837
   28        0.418   0.195   9.181   9.794
   29        0.403   0.202   9.187   9.792
   30        0.403   0.202   9.187   9.792
   31        0.398   0.205   9.189   9.793
   32        0.398   0.205   9.189   9.793
   33        0.403   0.202   9.188   9.793
   34        0.403   0.202   9.188   9.793
   35        0.415   0.196   9.182   9.793
   36        0.399   0.422   7.442   8.263
   37        1.603   3.271   0.000   4.874
   38        1.603   3.271   0.000   4.874
tot         17.900  15.314 328.468 361.682

  FORCE on cell =-STRESS in cart. coord.  units (eV):
  Direction    XX          YY          ZZ          XY          YZ          ZX
  Alpha Z   700.72105   700.72105   700.72105
  Ewald  155283.44673154874.13029************     0.00006    -1.88175     0.00008
  Hartree165347.10943165145.77751************     0.00003     0.60646     0.00003
  E(xc)   -2130.79795 -2132.15939 -2136.19158    -0.00002    -0.04482     0.00000
  Local  ************************331425.19866     0.00112     0.18175    -0.00022
  n-local  -364.55031  -372.89902  -370.68885     2.22522    -0.28170     0.10005
  augment  3288.16089  3298.14101  3296.72947    -0.00018     0.34010    -0.00004
  Kinetic  5115.65535  5177.42630  5155.42416     1.15789     1.17800    -0.02306
  Fock        0.00000     0.00000     0.00000     0.00000     0.00000     0.00000
  Total      -5.16883    -5.89419    -0.54375    -0.00000     0.09803     0.00000
  in kB      -5.07864    -5.79134    -0.53426    -0.00000     0.09632     0.00000

 VOLUME and BASIS-vectors are now :
  energy-cutoff  :      500.00
  volume of cell :     1630.63
      direct lattice vectors                 reciprocal lattice vectors
     8.791366577  0.000000000  0.000000000     0.113747958 -0.065672414  0.000000000
     4.395683289  7.613546790  0.000000000     0.000000000  0.131344829  0.000000000
     0.000000000  0.000000000 24.361965240     0.000000000  0.000000000  0.041047592

  length of vectors
     8.791366577  8.791366577 24.361965240     0.131344829  0.131344829  0.041047592

 FORCES acting on ions
    electron-ion (+dipol)            ewald-force                    non-local-force                 convergence-correction
   0.461E-04 0.423E-01 0.272E+04   -.954E-04 -.308E-01 -.271E+04   0.114E-12 0.174E-01 -.240E+01   -.171E-03 -.251E-01 -.187E+00
   0.462E+00 0.671E+00 0.272E+04   -.492E+00 -.638E+00 -.271E+04   0.951E-02 0.201E-01 -.167E+01   0.267E-01 -.353E-01 -.168E+00
   -.461E+00 0.671E+00 0.272E+04   0.492E+00 -.638E+00 -.271E+04   -.951E-02 0.201E-01 -.167E+01   -.272E-01 -.334E-01 -.167E+00
   0.629E+00 0.803E-01 0.272E+04   -.772E+00 -.109E+00 -.271E+04   0.104E+00 0.171E-01 -.169E+01   0.487E-01 0.799E-02 -.219E+00
   -.770E-05 0.826E-01 0.272E+04   0.981E-04 0.142E-01 -.272E+04   -.324E-12 -.494E-01 -.149E+01   0.625E-02 -.425E-01 -.140E+00
   -.629E+00 0.804E-01 0.272E+04   0.772E+00 -.109E+00 -.271E+04   -.104E+00 0.171E-01 -.169E+01   -.501E-01 0.884E-02 -.219E+00
   0.398E+00 -.755E+00 0.272E+04   -.279E+00 0.747E+00 -.271E+04   -.353E-01 -.388E-01 -.170E+01   -.609E-01 0.310E-01 -.195E+00
   -.398E+00 -.755E+00 0.272E+04   0.279E+00 0.746E+00 -.271E+04   0.353E-01 -.388E-01 -.170E+01   0.625E-01 0.300E-01 -.195E+00
   0.363E-04 -.114E+00 0.272E+04   0.792E-04 0.169E-01 -.271E+04   0.164E-12 0.250E-01 -.209E+01   -.661E-02 0.644E-01 -.201E+00
   0.569E+01 0.352E+01 0.965E+03   -.527E+01 -.322E+01 -.964E+03   -.430E+00 -.240E+00 -.806E+00   0.256E-01 -.563E-01 -.358E+00
   -.283E-04 0.614E+01 0.973E+03   0.415E-04 -.615E+01 -.973E+03   0.266E-12 0.406E-01 -.465E+00   0.660E-02 -.731E-01 -.384E+00
   -.569E+01 0.352E+01 0.965E+03   0.527E+01 -.322E+01 -.964E+03   0.430E+00 -.240E+00 -.806E+00   -.275E-01 -.553E-01 -.358E+00
   0.506E+01 -.316E+01 0.973E+03   -.516E+01 0.319E+01 -.972E+03   0.642E-01 -.314E-01 -.408E+00   -.379E-02 0.129E-01 -.335E+00
   -.506E+01 -.316E+01 0.973E+03   0.516E+01 0.319E+01 -.972E+03   -.642E-01 -.314E-01 -.408E+00   0.146E-01 0.116E-01 -.337E+00
   0.163E-04 0.144E+00 0.965E+03   -.109E-03 -.233E+00 -.964E+03   0.204E-12 0.311E-01 -.780E+00   -.170E-02 0.501E-01 -.395E+00
   -.816E-05 -.652E+01 0.965E+03   0.206E-04 0.604E+01 -.964E+03   0.273E-11 0.416E+00 -.867E+00   -.238E-03 0.306E-01 -.352E+00
   0.321E+00 -.252E+00 0.965E+03   -.370E+00 0.192E+00 -.964E+03   0.746E-02 0.178E-01 -.658E+00   0.295E-01 0.481E-01 -.397E+00
   -.321E+00 -.252E+00 0.965E+03   0.370E+00 0.192E+00 -.964E+03   -.746E-02 0.178E-01 -.658E+00   -.290E-01 0.503E-01 -.395E+00
   0.418E-04 0.427E+01 -.820E+03   -.130E-03 -.429E+01 0.820E+03   0.730E-12 0.111E+00 0.755E+00   -.655E-02 -.897E-01 -.472E+00
   0.227E+02 0.139E+02 -.770E+03   -.217E+02 -.132E+02 0.772E+03   -.104E+01 -.739E+00 -.127E+01   0.195E-01 -.719E-02 -.567E+00
   -.227E+02 0.139E+02 -.770E+03   0.217E+02 -.132E+02 0.772E+03   0.104E+01 -.739E+00 -.127E+01   -.180E-01 -.860E-02 -.567E+00
   0.116E+02 -.818E+01 -.809E+03   -.118E+02 0.824E+01 0.809E+03   0.199E+00 -.132E+00 0.609E+00   0.670E-02 0.447E-01 -.523E+00
   -.524E-04 -.280E+02 -.773E+03   0.452E-04 0.268E+02 0.775E+03   0.796E-11 0.121E+01 -.989E+00   -.546E-02 0.901E-02 -.516E+00
   -.117E+02 -.818E+01 -.809E+03   0.118E+02 0.824E+01 0.809E+03   -.199E+00 -.132E+00 0.609E+00   -.512E-02 0.432E-01 -.523E+00
   -.357E+01 -.869E+00 -.822E+03   0.348E+01 0.874E+00 0.822E+03   0.275E-01 -.465E-02 0.701E+00   0.544E-01 0.488E-03 -.466E+00
   0.357E+01 -.869E+00 -.822E+03   -.348E+01 0.873E+00 0.822E+03   -.275E-01 -.465E-02 0.701E+00   -.652E-01 -.396E-03 -.466E+00
   0.200E-04 0.142E+02 -.810E+03   0.110E-03 -.144E+02 0.809E+03   0.165E-11 0.251E+00 0.653E+00   0.988E-03 -.217E-01 -.525E+00
   0.545E-04 0.614E+01 -.261E+04   -.118E-03 -.602E+01 0.261E+04   -.598E-12 -.910E-01 0.193E+01   -.146E-02 -.356E-01 -.350E+00
   0.427E+02 0.868E+02 -.257E+04   -.423E+02 -.867E+02 0.257E+04   -.254E+00 0.948E-01 0.258E+01   -.237E+00 -.407E+00 -.646E+00
   -.427E+02 0.868E+02 -.257E+04   0.423E+02 -.867E+02 0.257E+04   0.254E+00 0.948E-01 0.258E+01   0.247E+00 -.406E+00 -.647E+00
   0.102E+03 -.253E+01 -.256E+04   -.102E+03 0.269E+01 0.256E+04   0.110E+00 -.123E+00 0.285E+01   -.428E+00 -.158E-01 -.617E+00
   -.102E+03 -.253E+01 -.256E+04   0.102E+03 0.269E+01 0.256E+04   -.110E+00 -.123E+00 0.285E+01   0.438E+00 -.155E-01 -.618E+00
   0.390E+02 -.814E+02 -.258E+04   -.388E+02 0.811E+02 0.258E+04   -.170E+00 0.868E-01 0.251E+01   -.167E+00 0.419E+00 -.626E+00
   -.390E+02 -.814E+02 -.258E+04   0.388E+02 0.811E+02 0.258E+04   0.170E+00 0.868E-01 0.251E+01   0.179E+00 0.418E+00 -.625E+00
   0.197E-04 -.385E+01 -.261E+04   0.108E-03 0.370E+01 0.261E+04   0.954E-12 0.145E+00 0.202E+01   -.740E-02 0.167E-01 -.364E+00
   -.155E-05 -.853E+01 -.177E+04   0.860E-04 0.850E+01 0.177E+04   0.513E-12 0.780E-01 0.437E+00   0.179E-02 0.345E-01 -.157E+01
   0.230E+03 0.109E+00 -.175E+04   -.266E+03 -.126E+00 0.176E+04   0.361E+02 0.214E-01 -.152E+02   -.668E+00 -.974E-02 -.184E+00
   -.230E+03 0.109E+00 -.175E+04   0.266E+03 -.126E+00 0.176E+04   -.361E+02 0.214E-01 -.152E+02   0.668E+00 -.971E-02 -.185E+00
   0.692E-03 -.377E-01 0.475E+02   0.568E-13 -.179E-12 -.659E-11   0.554E-12 0.849E-01 -.315E+02   0.187E-01 -.157E-01 -.161E+02

 POSITION                                       TOTAL-FORCE (eV/Angst)
      0.00000      0.00000      5.28219         0.000000      0.002993      0.028814
      2.93046      0.00000      5.28219         0.005978      0.018117      0.036077
      5.86091      0.00000      5.28219        -0.005978      0.018117      0.036077
      1.46523      2.53785      5.28219         0.010397     -0.003702      0.041613
      4.39568      2.53785      5.28219         0.000000      0.004133      0.018768
      7.32614      2.53785      5.28219        -0.010397     -0.003702      0.041613
      2.93046      5.07570      5.28219         0.021613     -0.017599      0.043648
      5.86091      5.07570      5.28219        -0.021613     -0.017599      0.043648
      8.79137      5.07570      5.28219        -0.000000     -0.008721      0.037205
      1.46523      0.84595      7.67490         0.017858      0.008409     -0.015990
      4.39568      0.84595      7.67490        -0.000000     -0.041258     -0.095521
      7.32614      0.84595      7.67490        -0.017858      0.008409     -0.015990
      2.93046      3.38380      7.67490        -0.037424      0.014776     -0.099449
      5.86091      3.38380      7.67490         0.037424      0.014776     -0.099449
      8.79137      3.38380      7.67490        -0.000000     -0.008044     -0.004265
      4.39568      5.92165      7.67490        -0.000000     -0.029406     -0.007954
      7.32614      5.92165      7.67490        -0.012366      0.006116      0.002474
     10.25659      5.92165      7.67490         0.012366      0.006116      0.002474
      8.79137      1.69615     10.06050         0.000000      0.003633      0.025759
      2.93321      1.69349     10.03240        -0.029491      0.005090     -0.088532
      5.85816      1.69349     10.03240         0.029491      0.005090     -0.088532
     10.25564      4.23030     10.05204         0.043835     -0.031304      0.006982
      4.39568      4.22657     10.03240        -0.000000     -0.020315     -0.104687
      7.32709      4.23030     10.05204        -0.043835     -0.031304      0.006982
     11.71814      6.76547     10.06050        -0.003478     -0.000930      0.017122
      5.86459      6.76547     10.06050         0.003478     -0.000930      0.017122
      8.79137      6.76650     10.05204         0.000000      0.020086      0.005226
      0.00000      0.00000     12.42190        -0.000000     -0.013587      0.014058
      2.95118      0.03878     12.42853        -0.115838     -0.196454     -0.068419
      5.84018      0.03878     12.42853         0.115838     -0.196454     -0.068419
      1.50917      2.53641     12.42853        -0.375425      0.020804     -0.189829
      7.28219      2.53641     12.42853         0.375425      0.020804     -0.189829
      2.95367      5.03836     12.42853        -0.122130      0.186364     -0.061259
      5.83769      5.03836     12.42853         0.122130      0.186364     -0.061259
      8.79137      5.07570     12.41313         0.000000      0.002182      0.031420
      4.39568      2.53785     12.23685         0.000000      0.082538      0.921333
      3.70300      2.48669     14.17913        -0.171278     -0.006804     -0.059518
      5.08837      2.48669     14.17913         0.171278     -0.006804     -0.059518
    total drift:                                0.019383      0.031473     -0.083008

  FREE ENERGIE OF THE ION-ELECTRON SYSTEM (eV)
  free  energy   TOTEN  =      -105.69026786 eV

  energy  without entropy=     -105.69026786  energy(sigma->0) =     -105.69026786

 stress matrix after NEB project (eV)
     -5.16883     -0.00000      0.00000
     -0.00000     -5.89419      0.09803
      0.00000      0.09803     -0.54375
  FORCES: max atom, RMS     0.181452    0.041628
  FORCE total and by dimension    0.256612    0.171278
  Stress total and by dimension    7.859592    5.894192
|           W    W    AA    RRRRR   N    N  II  N    N   GGGG   !!!           |
|           W    W   A  A   R    R  NN   N  II  NN   N  G    G  !!!           |
|           W    W  A    A  R    R  N N  N  II  N N  N  G       !!!           |
|           W WW W  AAAAAA  RRRRR   N  N N  II  N  N N  G  GGG   !            |
|           WW  WW  A    A  R   R   N   NN  II  N   NN  G    G                |
|           W    W  A    A  R    R  N    N  II  N    N   GGGG   !!!           |
|     Tetrahedron method does not include variations of the Fermi             |
|     occupations, so forces and stress will be inaccurate. We suggest        |
|     using a different smearing scheme ISMEAR = 1 or 2 for metals in         |
|     relaxations.                                                            |

 total charge

# of ion       s       p       d       tot
    1        0.416   0.202   9.178   9.795
    2        0.418   0.202   9.177   9.797
    3        0.418   0.202   9.177   9.797
    4        0.418   0.203   9.177   9.798
    5        0.417   0.204   9.175   9.796
    6        0.418   0.203   9.177   9.798
    7        0.417   0.203   9.177   9.797
    8        0.417   0.203   9.177   9.797
    9        0.413   0.203   9.178   9.794
   10        0.406   0.269   9.163   9.838
   11        0.409   0.267   9.167   9.843
   12        0.406   0.269   9.163   9.838
   13        0.409   0.268   9.167   9.844
   14        0.409   0.268   9.167   9.844
   15        0.400   0.272   9.164   9.835
   16        0.405   0.269   9.164   9.838
   17        0.400   0.270   9.166   9.836
   18        0.400   0.270   9.166   9.836
   19        0.401   0.267   9.169   9.837
   20        0.423   0.289   9.151   9.863
   21        0.423   0.289   9.151   9.863
   22        0.397   0.275   9.165   9.837
   23        0.416   0.293   9.153   9.862
   24        0.397   0.275   9.165   9.837
   25        0.402   0.268   9.166   9.836
   26        0.402   0.268   9.166   9.836
   27        0.397   0.273   9.166   9.837
   28        0.418   0.195   9.181   9.794
   29        0.403   0.202   9.187   9.792
   30        0.403   0.202   9.187   9.792
   31        0.398   0.205   9.189   9.793
   32        0.398   0.205   9.189   9.793
   33        0.403   0.202   9.188   9.793
   34        0.403   0.202   9.188   9.793
   35        0.415   0.196   9.182   9.793
   36        0.399   0.422   7.442   8.263
   37        1.603   3.271   0.000   4.874
   38        1.603   3.271   0.000   4.874
tot         17.900  15.314 328.468 361.682

 BZINTS: Fermi energy:    0.311185;  406.000000 electrons
         Band energy:-0.157470E+04;  BLOECHL correction:   -0.037667