 vasp.6.2.0 18Jan21 (build Jun 12 2021 23:27:24) complex

 executed on             LinuxIFC date 2022.05.30  18:43:03

 INCAR:
   ISMEAR = -5
   SIGMA = 0.1
   ISPIN = 1
   EDIFF = 1.d-5
   EDIFFG = -0.01
   NSW = 0
   NELM = 150
   ENCUT = 500
   ISIF = 2
   IBRION = 2
   LREAL = Auto
   ALGO = Fast
   ICHARG = 11
   LORBIT = 10
   LCHARG = .F.
   LWAVE = .F.

 POTCAR:    PAW_PBE Cu 22Jun2005
 POTCAR:    PAW_PBE Os 17Jan2003
 POTCAR:    PAW_PBE C 08Apr2002
|           W    W    AA    RRRRR   N    N  II  N    N   GGGG   !!!           |
|           W    W   A  A   R    R  NN   N  II  NN   N  G    G  !!!           |
|           W    W  A    A  R    R  N N  N  II  N N  N  G       !!!           |
|           W WW W  AAAAAA  RRRRR   N  N N  II  N  N N  G  GGG   !            |
|           WW  WW  A    A  R   R   N   NN  II  N   NN  G    G                |
|           W    W  A    A  R    R  N    N  II  N    N   GGGG   !!!           |
|     For optimal performance we recommend to set                             |
|       NCORE = 2 up to number-of-cores-per-socket                            |
|     This setting can greatly improve the performance of VASP for DFT.       |
|     The default, NCORE=1 might be grossly inefficient on modern             |
|     multi-core architectures or massively parallel machines. Do your        |
|     Unfortunately you need to use the default for GW and RPA                |
|     calculations (for HF NCORE is supported but not extensively tested      |
|     yet).                                                                   |

 POTCAR:    PAW_PBE Cu 22Jun2005
   VRHFIN =Cu: d10 p1

   TITEL  = PAW_PBE Cu 22Jun2005
   POMASS =   63.546; ZVAL   =   11.000    mass and valenz
   ENMAX  =  295.446; ENMIN  =  221.585 eV

 POTCAR:    PAW_PBE Os 17Jan2003
   VRHFIN =Os: 6s5d

   TITEL  = PAW_PBE Os 17Jan2003
   POMASS =  190.200; ZVAL   =    8.000    mass and valenz
   ENMAX  =  228.022; ENMIN  =  171.017 eV

 POTCAR:    PAW_PBE C 08Apr2002
   VRHFIN =C: s2p2

   TITEL  = PAW_PBE C 08Apr2002
   POMASS =   12.011; ZVAL   =    4.000    mass and valenz
   ENMAX  =  400.000; ENMIN  =  300.000 eV

 Optimization of the real space projectors (new method)

 maximal supplied QI-value         = 16.25
 optimisation between [QCUT,QGAM] = [ 11.38, 22.75] = [ 36.24,144.96] Ry
 Optimized for a Real-space Cutoff    1.52 Angstroem

   l    n(q)    QCUT    max X(q) W(low)/X(q) W(high)/X(q)  e(spline)
   2      9    11.376     4.610    0.21E-03    0.10E-03    0.26E-06
   2      9    11.376     8.522    0.33E-03    0.16E-03    0.37E-06
   0     10    11.376    51.609    0.62E-04    0.20E-04    0.13E-06
   0     10    11.376    27.747    0.54E-04    0.20E-04    0.13E-06
   1     10    11.376    20.408    0.13E-04    0.99E-04    0.19E-06
   1     10    11.376    13.425    0.12E-04    0.87E-04    0.17E-06
 Optimization of the real space projectors (new method)

[...]

   l    n(q)    QCUT    max X(q) W(low)/X(q) W(high)/X(q)  e(spline)
   2     10    11.327   152.873    0.32E-03    0.72E-03    0.11E-05
   2     10    11.327   151.010    0.32E-03    0.72E-03    0.11E-05
   0     11    11.327    72.114    0.43E-04    0.61E-04    0.13E-06
   0     11    11.327    44.596    0.40E-04    0.57E-04    0.12E-06
   1     10    11.327    13.742    0.16E-03    0.10E-03    0.19E-06
   1     10    11.327     8.461    0.12E-03    0.78E-04    0.15E-06
 Optimization of the real space projectors (new method)

 maximal supplied QI-value         = 25.13
 optimisation between [QCUT,QGAM] = [ 11.31, 22.87] = [ 35.82,146.48] Ry
 Optimized for a Real-space Cutoff    1.00 Angstroem

   l    n(q)    QCUT    max X(q) W(low)/X(q) W(high)/X(q)  e(spline)
   0      7    11.310   115.676    0.43E-03    0.13E-02    0.19E-06
   0      7    11.310    87.132    0.43E-03    0.13E-02    0.18E-06
   1      6    11.310     4.429    0.42E-03    0.74E-03    0.11E-06
   1      6    11.310     2.733    0.34E-03    0.55E-03    0.92E-07
  PAW_PBE Cu 22Jun2005                  :
  PAW_PBE Os 17Jan2003                  :
  PAW_PBE C 08Apr2002                   :

 POSCAR: Cu-Os-C
  positions in direct lattice
  velocities in cartesian coordinates
 exchange correlation table for  LEXCH =        8
   RHO(1)=    0.500       N(1)  =     2000
   RHO(2)=  100.500       N(2)  =     4000

 VTST: version 3.2, (02/03/18)

 CHAIN: initializing optimizer

 OPT: Using VASP Conjugate-Gradient optimizer
 CHAIN: Read ICHAIN            0

 POSCAR: Cu-Os-C
  positions in direct lattice
  velocities in cartesian coordinates

 ion  position               nearest neighbor table
   1  0.000  0.000  0.226-   7 2.57   3 2.57   4 2.57   2 2.57   6 2.57   8 2.57  12 2.57  10 2.57
                            16 2.57
   2  0.333  0.000  0.226-   8 2.57   9 2.57   5 2.57   1 2.57   3 2.57  11 2.57   4 2.57  10 2.57
                            17 2.57
   3  0.667  0.000  0.226-   1 2.57   7 2.57   6 2.57   9 2.57   2 2.57  12 2.57   5 2.57  18 2.57
                            11 2.57
   4  0.000  0.333  0.226-   5 2.57   6 2.57   1 2.57   7 2.57   2 2.57  13 2.57   9 2.57  10 2.57
                            15 2.57
   5  0.333  0.333  0.226-   4 2.57   2 2.57   7 2.57  13 2.57   8 2.57   6 2.57   3 2.57  11 2.57
                            14 2.57
   6  0.667  0.333  0.226-   4 2.57   9 2.57  15 2.57   3 2.57   1 2.57   8 2.57  14 2.57   5 2.57
                            12 2.57
   7  0.000  0.667  0.226-   1 2.57   3 2.57  16 2.57  18 2.57   4 2.57   5 2.57   8 2.57   9 2.57
                            13 2.57
   8  0.333  0.667  0.226-   9 2.57   2 2.57  17 2.57   6 2.57   1 2.57   7 2.57   5 2.57  14 2.57
                            16 2.57
   9  0.667  0.667  0.226-   8 2.57   6 2.57   2 2.57  17 2.57   3 2.57   7 2.57   4 2.57  15 2.57
                            18 2.57
  10  0.111  0.111  0.314-  20 2.53  11 2.57  12 2.57  13 2.57   1 2.57   2 2.57   4 2.57  15 2.57
                            16 2.57  17 2.57  26 2.57  19 2.57
  11  0.444  0.111  0.314-  20 2.54  21 2.54  10 2.57  13 2.57   2 2.57  17 2.57  14 2.57  12 2.57
                             5 2.57   3 2.57  18 2.57  27 2.57
  12  0.778  0.111  0.314-  21 2.53  15 2.57  10 2.57  14 2.57  18 2.57   3 2.57   1 2.57  16 2.57
                            11 2.57   6 2.57  19 2.57  25 2.57
  13  0.111  0.444  0.314-  23 2.54  20 2.54  16 2.57  18 2.57  10 2.57  11 2.57  14 2.57   5 2.57
                             4 2.57   7 2.57  15 2.57  22 2.57
  14  0.444  0.444  0.314-  21 2.54  23 2.54  15 2.57  17 2.57  12 2.57  16 2.57  13 2.57  11 2.57
                             6 2.57   8 2.57   5 2.57  24 2.57
  15  0.778  0.444  0.314-  19 2.56  14 2.57  17 2.57  12 2.57   6 2.57  18 2.57  10 2.57   9 2.57
                            13 2.57   4 2.57  24 2.57  22 2.57
  16  0.111  0.778  0.314-  23 2.53  18 2.57  13 2.57   7 2.57  14 2.57  17 2.57  12 2.57  10 2.57
                             8 2.57   1 2.57  25 2.57  26 2.57
  17  0.444  0.778  0.314-  26 2.56  14 2.57  15 2.57   8 2.57   9 2.57  11 2.57  16 2.57  18 2.57
                            10 2.57   2 2.57  27 2.57  24 2.57
  18  0.778  0.778  0.314-  25 2.56  16 2.57  13 2.57   7 2.57  15 2.57  12 2.57  17 2.57   9 2.57
                             3 2.57  11 2.57  22 2.57  27 2.57
  19  0.888  0.223  0.402-  21 2.55  20 2.55  28 2.55  22 2.56  24 2.56  15 2.56  12 2.57  10 2.57
                            32 2.57  31 2.57  25 2.57  26 2.57
  20  0.221  0.221  0.401-  10 2.53  36 2.53  11 2.54  13 2.54  26 2.55  19 2.55  27 2.57  22 2.57
                            23 2.59  21 2.59  29 2.60  31 2.60
  21  0.558  0.221  0.401-  12 2.53  36 2.53  14 2.54  11 2.54  19 2.55  25 2.55  24 2.57  27 2.57
                            20 2.59  23 2.59  32 2.60  30 2.60
  22  0.888  0.556  0.402-  35 2.55  24 2.55  27 2.55  19 2.56  25 2.56  18 2.57  15 2.57  23 2.57
                            20 2.57  13 2.57  31 2.58  33 2.58
  23  0.221  0.558  0.401-  16 2.53  36 2.53  13 2.54  14 2.54  25 2.55  26 2.55  22 2.57  24 2.57
                            20 2.59  21 2.59  33 2.60  34 2.60
  24  0.556  0.556  0.402-  35 2.55  22 2.55  27 2.55  19 2.56  26 2.56  15 2.57  17 2.57  21 2.57
                            23 2.57  14 2.57  32 2.58  34 2.58
  25  0.888  0.888  0.402-  21 2.55  23 2.55  28 2.55  22 2.56  27 2.56  18 2.56  16 2.57  12 2.57
                            33 2.57  30 2.57  19 2.57  26 2.57
  26  0.223  0.888  0.402-  20 2.55  23 2.55  28 2.55  27 2.56  24 2.56  17 2.56  10 2.57  16 2.57
                            29 2.57  34 2.57  25 2.57  19 2.57
  27  0.556  0.888  0.402-  35 2.55  24 2.55  22 2.55  26 2.56  25 2.56  17 2.57  18 2.57  20 2.57
                            21 2.57  11 2.57  29 2.58  30 2.58
  28  0.000  0.000  0.489-  25 2.55  19 2.55  26 2.55  33 2.56  30 2.56  31 2.56  29 2.56  32 2.56
                            34 2.56
  29  0.333  0.000  0.491-  31 2.56  28 2.56  34 2.57  36 2.57  35 2.57  30 2.57  26 2.57  27 2.58
                            20 2.60
  30  0.667  0.000  0.491-  32 2.56  28 2.56  33 2.57  36 2.57  35 2.57  29 2.57  25 2.57  27 2.58
                            21 2.60
  31  0.000  0.333  0.491-  29 2.56  28 2.56  32 2.57  36 2.57  35 2.57  33 2.57  19 2.57  22 2.58
                            20 2.60
  32  0.667  0.333  0.491-  30 2.56  28 2.56  31 2.57  36 2.57  35 2.57  34 2.57  19 2.57  24 2.58
                            21 2.60
  33  0.000  0.667  0.491-  34 2.56  28 2.56  30 2.57  36 2.57  35 2.57  31 2.57  25 2.57  22 2.58
                            23 2.60
  34  0.333  0.667  0.491-  33 2.56  28 2.56  29 2.57  36 2.57  35 2.57  32 2.57  26 2.57  24 2.58
                            23 2.60
  35  0.667  0.667  0.489-  24 2.55  27 2.55  22 2.55  34 2.57  32 2.57  29 2.57  30 2.57  33 2.57
                            31 2.57
  36  0.333  0.333  0.487-  37 1.75  23 2.53  20 2.53  21 2.53  31 2.57  29 2.57  33 2.57  34 2.57
                            32 2.57  30 2.57
  37  0.333  0.333  0.560-  36 1.75

  LATTYP: Found a hexagonal cell.
 ALAT       =     7.6967864036
 C/A-ratio  =     3.0908716217

  Lattice vectors:

 A1 = (  -3.8483927580,  -6.6656128093,   0.0000000000)
 A2 = (   7.6967864037,   0.0000000000,   0.0000000000)
 A3 = (   0.0000000000,   0.0000000000,  23.7897786731)

Analysis of symmetry for initial positions (statically):
 Subroutine PRICEL returns:
 Original cell was already a primitive cell.

 Routine SETGRP: Setting up the symmetry group for a
 hexagonal supercell.

 Subroutine GETGRP returns: Found  6 space group operations
 (whereof  6 operations were pure point group operations)
 out of a pool of 24 trial point group operations.

The static configuration has the point symmetry C_3v.

Analysis of symmetry for dynamics (positions and initial velocities):
 Subroutine PRICEL returns:
 Original cell was already a primitive cell.

[...]

The dynamic configuration has the point symmetry C_3v.

Analysis of constrained symmetry for selective dynamics:
 Subroutine PRICEL returns:
 Original cell was already a primitive cell.

 Routine SETGRP: Setting up the symmetry group for a
 hexagonal supercell.

 Subroutine GETGRP returns: Found  6 space group operations
[...]
     24      -4.8672      2.00000
     25      -4.7522      2.00000
     26      -4.7245      2.00000
     27      -4.6750      2.00000
     28      -4.6520      2.00000
     29      -4.6318      2.00000
     30      -4.6034      2.00000
     31      -4.5999      2.00000
     32      -4.5871      2.00000
     33      -4.5683      2.00000
     34      -4.5553      2.00000
     35      -4.5310      2.00000
     36      -4.4814      2.00000
     37      -4.4174      2.00000
     38      -4.3334      2.00000
     39      -4.2997      2.00000
     40      -4.2890      2.00000
     41      -4.2589      2.00000
     42      -4.1985      2.00000
     43      -4.1826      2.00000
     44      -4.1632      2.00000
     45      -4.1414      2.00000
     46      -4.1347      2.00000
     47      -4.0068      2.00000
     48      -3.9762      2.00000
     49      -3.9646      2.00000
     50      -3.9360      2.00000
     51      -3.9165      2.00000
     52      -3.8830      2.00000
     53      -3.8704      2.00000
     54      -3.8580      2.00000
     55      -3.8447      2.00000
     56      -3.8245      2.00000
     57      -3.8075      2.00000
     58      -3.8051      2.00000
     59      -3.7974      2.00000
     60      -3.7754      2.00000
[...]
    238       5.7603      0.00000
    239       5.8898      0.00000
    240       5.9826      0.00000
    241       6.0601      0.00000
    242       6.1163      0.00000
    243       6.2983      0.00000
    244       6.3497      0.00000
    245       6.5444      0.00000
    246       6.6963      0.00000
    247       6.7973      0.00000
    248       6.8766      0.00000
    249       7.0289      0.00000
    250       7.2863      0.00000
    251       7.3114      0.00000
    252       7.4993      0.00000

 soft charge-density along one line, spin component           1
         0         1         2         3         4         5         6         7         8         9
 total charge-density along one line

------------------------ aborting loop because EDIFF is reached ----------------------------------------

 total charge

# of ion       s       p       d       tot
    1        0.450   0.284   9.188   9.922
    2        0.448   0.285   9.186   9.920
    3        0.448   0.285   9.186   9.920
    4        0.448   0.285   9.186   9.920
    5        0.449   0.284   9.187   9.920
    6        0.448   0.285   9.186   9.920
    7        0.448   0.285   9.186   9.920
    8        0.448   0.285   9.186   9.920
    9        0.446   0.285   9.187   9.919
   10        0.441   0.371   9.178   9.990
   11        0.440   0.371   9.180   9.992
   12        0.441   0.371   9.178   9.990
   13        0.440   0.371   9.180   9.992
   14        0.440   0.371   9.180   9.992
   15        0.438   0.369   9.178   9.985
   16        0.441   0.371   9.178   9.990
   17        0.438   0.369   9.178   9.985
   18        0.438   0.369   9.178   9.985
   19        0.442   0.365   9.183   9.990
   20        0.457   0.396   9.176  10.028
   21        0.457   0.396   9.176  10.028
   22        0.431   0.373   9.180   9.984
   23        0.457   0.396   9.176  10.028
   24        0.431   0.373   9.180   9.984
   25        0.442   0.365   9.183   9.990
   26        0.442   0.365   9.183   9.990
   27        0.431   0.373   9.180   9.984
   28        0.455   0.285   9.191   9.930
   29        0.447   0.311   9.184   9.942
   30        0.447   0.311   9.184   9.942
   31        0.447   0.311   9.184   9.942
   32        0.447   0.311   9.184   9.942
   33        0.447   0.311   9.184   9.942
   34        0.447   0.311   9.184   9.942
   35        0.448   0.288   9.191   9.928
   36        0.744   0.676   6.300   7.720
   37        1.007   1.225   0.000   2.233
tot         17.315  13.642 327.687 358.645

  FORCE on cell =-STRESS in cart. coord.  units (eV):
  Direction    XX          YY          ZZ          XY          YZ          ZX
  Alpha Z   807.59044   807.59044   807.59044
  Ewald  222879.07559222879.07517************     0.00039     0.00011     0.00017
  Hartree235515.60711235515.60709************     0.00004     0.00006     0.00006
  E(xc)   -2297.91499 -2297.91449 -2302.93634    -0.00043    -0.00003    -0.00006
  Local  ************************471826.85784     0.01850    -0.00056    -0.00091
  n-local  -783.38094  -768.77900  -789.31639     8.06982    -0.01153     0.19875
  augment  3324.80091  3324.82131  3339.87156    -0.01767     0.00032     0.00061
  Kinetic  3305.23470  3308.90866  3314.49851     3.47853     1.66290    -1.40003
  Fock        0.00000     0.00000     0.00000     0.00000     0.00000     0.00000
  Total      -2.76660    -2.76660     1.08991     0.00000     0.00000    -0.00000
  in kB      -3.63176    -3.63176     1.43075     0.00000     0.00000    -0.00000

 VOLUME and BASIS-vectors are now :
  energy-cutoff  :      500.00
  volume of cell :     1220.51
      direct lattice vectors                 reciprocal lattice vectors
     7.696786404  0.000000000  0.000000000     0.129924354 -0.075011849  0.000000000
     3.848392758  6.665612809  0.000000000     0.000000000  0.150023716  0.000000000
     0.000000000  0.000000000 23.789778673     0.000000000  0.000000000  0.042034859

  length of vectors
     7.696786404  7.696786404 23.789778673     0.150023716  0.150023716  0.042034859

 FORCES acting on ions
    electron-ion (+dipol)            ewald-force                    non-local-force                 convergence-correction
   -.424E-04 -.283E-06 0.372E+04   0.580E-04 -.436E-05 -.372E+04   0.638E-17 0.785E-17 -.221E+01   -.344E-03 -.219E-03 -.376E+00
   -.480E-01 0.142E+00 0.372E+04   0.409E-01 -.133E+00 -.372E+04   -.106E-01 0.412E-01 -.201E+01   0.184E-01 -.489E-01 -.380E+00
   0.480E-01 0.142E+00 0.372E+04   -.410E-01 -.134E+00 -.372E+04   0.106E-01 0.412E-01 -.201E+01   -.175E-01 -.463E-01 -.379E+00
   0.987E-01 -.112E+00 0.372E+04   -.952E-01 0.102E+00 -.372E+04   0.304E-01 -.298E-01 -.201E+01   -.330E-01 0.403E-01 -.380E+00
   -.637E-04 -.456E-05 0.372E+04   0.116E-03 -.101E-04 -.372E+04   0.461E-17 -.110E-17 -.203E+01   0.122E-01 0.745E-02 -.356E+00
   -.987E-01 -.112E+00 0.372E+04   0.951E-01 0.102E+00 -.372E+04   -.304E-01 -.298E-01 -.201E+01   0.314E-01 0.415E-01 -.378E+00
   0.147E+00 -.293E-01 0.372E+04   -.136E+00 0.313E-01 -.372E+04   0.410E-01 -.115E-01 -.201E+01   -.488E-01 0.797E-02 -.378E+00
   -.147E+00 -.293E-01 0.372E+04   0.136E+00 0.313E-01 -.372E+04   -.410E-01 -.115E-01 -.201E+01   0.523E-01 0.651E-02 -.378E+00
   -.145E-03 -.333E-04 0.372E+04   0.263E-03 0.205E-04 -.372E+04   -.272E-17 -.334E-18 -.214E+01   -.132E-01 -.677E-02 -.331E+00
   0.284E+01 0.164E+01 0.125E+04   -.270E+01 -.156E+01 -.125E+04   -.240E+00 -.139E+00 -.736E+00   0.509E-01 0.291E-01 -.986E-01
   -.896E-04 0.104E+01 0.125E+04   0.190E-03 -.113E+01 -.124E+04   -.719E-08 0.108E+00 -.771E+00   0.121E-01 -.492E-01 -.144E+00
   -.284E+01 0.164E+01 0.125E+04   0.270E+01 -.156E+01 -.125E+04   0.240E+00 -.139E+00 -.736E+00   -.526E-01 0.304E-01 -.985E-01
   0.904E+00 -.522E+00 0.125E+04   -.979E+00 0.565E+00 -.124E+04   0.936E-01 -.540E-01 -.771E+00   -.361E-01 0.358E-01 -.144E+00
   -.904E+00 -.522E+00 0.125E+04   0.979E+00 0.565E+00 -.124E+04   -.936E-01 -.540E-01 -.771E+00   0.599E-01 0.346E-01 -.145E+00
   -.141E-03 -.197E+00 0.125E+04   0.299E-03 0.313E-01 -.125E+04   -.454E-08 0.682E-01 -.725E+00   -.359E-02 0.847E-01 -.132E+00
   -.889E-04 -.328E+01 0.125E+04   0.186E-03 0.311E+01 -.125E+04   -.185E-07 0.277E+00 -.736E+00   -.506E-03 -.623E-01 -.977E-01
   -.170E+00 0.982E-01 0.125E+04   0.271E-01 -.154E-01 -.125E+04   0.590E-01 -.341E-01 -.725E+00   0.719E-01 -.454E-01 -.132E+00
   0.170E+00 0.982E-01 0.125E+04   -.273E-01 -.154E-01 -.125E+04   -.590E-01 -.341E-01 -.725E+00   -.707E-01 -.424E-01 -.130E+00
   -.561E-04 -.766E+00 -.124E+04   0.692E-04 0.820E+00 0.124E+04   0.680E-08 -.102E+00 0.837E+00   -.110E-01 0.214E-01 -.114E+00
   -.263E+02 -.152E+02 -.124E+04   0.263E+02 0.152E+02 0.124E+04   -.192E+00 -.111E+00 0.435E+00   -.654E-01 -.388E-01 -.197E+00
   0.263E+02 -.152E+02 -.124E+04   -.263E+02 0.152E+02 0.124E+04   0.192E+00 -.111E+00 0.435E+00   0.466E-01 -.393E-01 -.197E+00
   -.183E+02 0.106E+02 -.125E+04   0.177E+02 -.102E+02 0.124E+04   0.654E+00 -.378E+00 0.108E+01   -.265E-01 0.167E-01 -.187E+00
   -.947E-04 0.304E+02 -.124E+04   0.145E-03 -.304E+02 0.124E+04   -.148E-07 0.222E+00 0.435E+00   0.208E-04 0.787E-01 -.197E+00
   0.183E+02 0.106E+02 -.125E+04   -.177E+02 -.102E+02 0.124E+04   -.654E+00 -.378E+00 0.108E+01   0.264E-01 0.154E-01 -.187E+00
   0.663E+00 0.383E+00 -.124E+04   -.711E+00 -.410E+00 0.124E+04   0.885E-01 0.511E-01 0.837E+00   -.341E-01 -.206E-01 -.114E+00
   -.663E+00 0.383E+00 -.124E+04   0.710E+00 -.410E+00 0.124E+04   -.885E-01 0.511E-01 0.837E+00   0.128E-01 -.215E-01 -.114E+00
   -.116E-03 -.211E+02 -.125E+04   0.242E-03 0.205E+02 0.124E+04   -.503E-07 0.755E+00 0.108E+01   0.936E-03 -.307E-01 -.187E+00
   -.459E-04 0.115E-04 -.367E+04   0.386E-04 -.329E-04 0.367E+04   -.712E-18 0.511E-17 0.219E+01   -.205E-03 -.433E-03 0.199E+00
   -.148E+02 -.204E+02 -.368E+04   0.149E+02 0.201E+02 0.367E+04   -.156E+00 0.838E-01 0.274E+01   -.298E-01 -.206E-01 0.139E+00
   0.148E+02 -.204E+02 -.368E+04   -.149E+02 0.201E+02 0.367E+04   0.156E+00 0.838E-01 0.274E+01   0.307E-01 -.190E-01 0.138E+00
   -.251E+02 -.263E+01 -.368E+04   0.249E+02 0.283E+01 0.367E+04   -.529E-02 -.177E+00 0.274E+01   -.326E-01 -.156E-01 0.139E+00
   0.251E+02 -.263E+01 -.368E+04   -.249E+02 0.283E+01 0.367E+04   0.529E-02 -.177E+00 0.274E+01   0.320E-01 -.148E-01 0.139E+00
   -.103E+02 0.231E+02 -.368E+04   0.998E+01 -.229E+02 0.367E+04   0.150E+00 0.930E-01 0.274E+01   -.742E-03 0.364E-01 0.138E+00
   0.103E+02 0.231E+02 -.368E+04   -.998E+01 -.229E+02 0.367E+04   -.150E+00 0.930E-01 0.274E+01   0.360E-02 0.353E-01 0.139E+00
   -.155E-03 -.303E-04 -.368E+04   0.253E-03 0.417E-05 0.367E+04   0.279E-17 0.215E-17 0.260E+01   -.128E-01 -.637E-02 0.288E+00
   -.383E-04 -.219E-04 -.249E+04   0.102E-03 0.192E-04 0.249E+04   0.185E-17 0.251E-17 0.172E+01   0.154E-02 0.729E-03 0.839E-01
   0.545E-04 -.217E-04 -.161E+04   0.126E-04 0.567E-05 0.162E+04   -.569E-19 0.752E-19 -.108E+02   0.643E-03 0.384E-03 0.573E-01
   -.149E-03 0.550E-05 0.104E+02   -.674E-13 -.539E-13 -.614E-11   0.323E-16 0.255E-15 -.590E+01   -.253E-01 -.607E-02 -.449E+01

 POSITION                                       TOTAL-FORCE (eV/Angst)
      0.00000      0.00000      5.37156        -0.000000      0.000000      0.033447
      2.56560      0.00000      5.37156         0.001092      0.001712      0.064638
      5.13119      0.00000      5.37156        -0.001092      0.001712      0.064638
      1.28280      2.22187      5.37156         0.002029      0.000089      0.064638
      3.84839      2.22187      5.37156        -0.000000      0.000000      0.041840
      6.41399      2.22187      5.37156        -0.002029      0.000089      0.064638
      2.56560      4.44374      5.37156         0.000937     -0.001802      0.064638
      5.13119      4.44374      5.37156        -0.000937     -0.001802      0.064638
      7.69679      4.44374      5.37156        -0.000000      0.000000      0.053988
      1.28280      0.74062      7.46636        -0.043090     -0.024878     -0.051532
      3.84839      0.74062      7.46636         0.000000     -0.034481     -0.075380
      6.41399      0.74062      7.46636         0.043090     -0.024878     -0.051532
      2.56560      2.96249      7.46636        -0.029862      0.017241     -0.075380
      5.13119      2.96249      7.46636         0.029862      0.017241     -0.075380
      7.69679      2.96249      7.46636         0.000000     -0.013197      0.010732
      3.84839      5.18437      7.46636        -0.000000      0.049756     -0.051532
      6.41399      5.18437      7.46636        -0.011429      0.006599      0.010732
      8.97958      5.18437      7.46636         0.011429      0.006599      0.010732
      7.69679      1.48657      9.56400         0.000000     -0.020002      0.039771
      2.55408      1.47460      9.52990        -0.272717     -0.157453     -0.365336
      5.14271      1.47460      9.52990         0.272717     -0.157453     -0.365336
      8.97350      3.70663      9.56526         0.057027     -0.032924      0.028831
      3.84839      3.71642      9.52990        -0.000000      0.314907     -0.365336
      6.42007      3.70663      9.56526        -0.057027     -0.032924      0.028831
     10.25777      5.92233      9.56400         0.017322      0.010001      0.039771
      5.13580      5.92233      9.56400        -0.017322      0.010001      0.039771
      7.69679      5.91797      9.56526        -0.000000      0.065849      0.028831
      0.00000      0.00000     11.64184        -0.000000      0.000000     -0.074234
      2.56182      0.00242     11.67254        -0.143594     -0.255924     -0.121060
      5.13496      0.00242     11.67254         0.143594     -0.255924     -0.121060
      1.28301      2.21740     11.67254        -0.293434      0.003606     -0.121060
      6.41378      2.21740     11.67254         0.293434      0.003606     -0.121060
      2.56958      4.44580     11.67254        -0.149840      0.252318     -0.121060
      5.12721      4.44580     11.67254         0.149840      0.252318     -0.121060
      7.69679      4.44374     11.64035        -0.000000      0.000000     -0.039240
      3.84839      2.22187     11.57579        -0.000000      0.000000      1.560133
      3.84839      2.22187     13.32960        -0.000000      0.000000      0.001334
    total drift:                               -0.025409     -0.006062     -0.018502

  FREE ENERGIE OF THE ION-ELECTRON SYSTEM (eV)
  free  energy   TOTEN  =      -139.14779212 eV

  energy  without entropy=     -139.14779212  energy(sigma->0) =     -139.14779212

 stress matrix after NEB project (eV)
     -2.76660      0.00000     -0.00000
      0.00000     -2.76660      0.00000
      0.00000      0.00000      1.08991
  FORCES: max atom, RMS     0.001334    0.000219
  FORCE total and by dimension    0.001334    0.001334
  Stress total and by dimension    4.061537    2.766602
|           W    W    AA    RRRRR   N    N  II  N    N   GGGG   !!!           |
|           W    W   A  A   R    R  NN   N  II  NN   N  G    G  !!!           |
|           W    W  A    A  R    R  N N  N  II  N N  N  G       !!!           |
|           W WW W  AAAAAA  RRRRR   N  N N  II  N  N N  G  GGG   !            |
|           WW  WW  A    A  R   R   N   NN  II  N   NN  G    G                |
|           W    W  A    A  R    R  N    N  II  N    N   GGGG   !!!           |
|     Tetrahedron method does not include variations of the Fermi             |
|     occupations, so forces and stress will be inaccurate. We suggest        |
|     using a different smearing scheme ISMEAR = 1 or 2 for metals in         |
|     relaxations.                                                            |

 total charge

# of ion       s       p       d       tot
    1        0.450   0.284   9.188   9.922
    2        0.448   0.285   9.186   9.920
    3        0.448   0.285   9.186   9.920
    4        0.448   0.285   9.186   9.920
    5        0.449   0.284   9.187   9.920
    6        0.448   0.285   9.186   9.920
    7        0.448   0.285   9.186   9.920
    8        0.448   0.285   9.186   9.920
    9        0.446   0.285   9.187   9.919
   10        0.441   0.371   9.178   9.990
   11        0.440   0.371   9.180   9.992
   12        0.441   0.371   9.178   9.990
   13        0.440   0.371   9.180   9.992
   14        0.440   0.371   9.180   9.992
   15        0.438   0.369   9.178   9.985
   16        0.441   0.371   9.178   9.990
   17        0.438   0.369   9.178   9.985
   18        0.438   0.369   9.178   9.985
   19        0.442   0.365   9.183   9.990
   20        0.457   0.396   9.176  10.028
   21        0.457   0.396   9.176  10.028
   22        0.431   0.373   9.180   9.984
   23        0.457   0.396   9.176  10.028
   24        0.431   0.373   9.180   9.984
   25        0.442   0.365   9.183   9.990
   26        0.442   0.365   9.183   9.990
   27        0.431   0.373   9.180   9.984
   28        0.455   0.285   9.191   9.930
   29        0.447   0.311   9.184   9.942
   30        0.447   0.311   9.184   9.942
   31        0.447   0.311   9.184   9.942
   32        0.447   0.311   9.184   9.942
   33        0.447   0.311   9.184   9.942
   34        0.447   0.311   9.184   9.942
   35        0.448   0.288   9.191   9.928
   36        0.744   0.676   6.300   7.720
   37        1.007   1.225   0.000   2.233
tot         17.315  13.642 327.687 358.645

 BZINTS: Fermi energy:   -0.494870;  397.000000 electrons
         Band energy:-0.132197E+04;  BLOECHL correction:   -0.064568