 vasp.6.2.0 18Jan21 (build Jun 12 2021 23:27:24) complex

 executed on             LinuxIFC date 2022.05.26  19:30:28

 INCAR:
   ISMEAR = -5
   SIGMA = 0.1
   ISPIN = 1
   EDIFF = 1.d-5
   EDIFFG = -0.01
   NSW = 0
   NELM = 150
   ENCUT = 500
   ISIF = 2
   IBRION = 2
   LREAL = Auto
   ALGO = Fast
   ICHARG = 11
   LORBIT = 10
   LCHARG = .F.
   LWAVE = .F.

 POTCAR:    PAW_PBE Au 04Oct2007
 POTCAR:    PAW_PBE Hf 20Jan2003
 POTCAR:    PAW_PBE O 08Apr2002
|           W    W    AA    RRRRR   N    N  II  N    N   GGGG   !!!           |
|           W    W   A  A   R    R  NN   N  II  NN   N  G    G  !!!           |
|           W    W  A    A  R    R  N N  N  II  N N  N  G       !!!           |
|           W WW W  AAAAAA  RRRRR   N  N N  II  N  N N  G  GGG   !            |
|           WW  WW  A    A  R   R   N   NN  II  N   NN  G    G                |
|           W    W  A    A  R    R  N    N  II  N    N   GGGG   !!!           |
|     For optimal performance we recommend to set                             |
|       NCORE = 2 up to number-of-cores-per-socket                            |
|     This setting can greatly improve the performance of VASP for DFT.       |
|     The default, NCORE=1 might be grossly inefficient on modern             |
|     multi-core architectures or massively parallel machines. Do your        |
|     Unfortunately you need to use the default for GW and RPA                |
|     calculations (for HF NCORE is supported but not extensively tested      |
|     yet).                                                                   |

 POTCAR:    PAW_PBE Au 04Oct2007
   VRHFIN =Au: s1d10

   TITEL  = PAW_PBE Au 04Oct2007
   POMASS =  196.966; ZVAL   =   11.000    mass and valenz
   ENMAX  =  229.943; ENMIN  =  172.457 eV

 POTCAR:    PAW_PBE Hf 20Jan2003
   VRHFIN =Hf: 6s5d

   TITEL  = PAW_PBE Hf 20Jan2003
   POMASS =  178.490; ZVAL   =    4.000    mass and valenz
   ENMAX  =  220.334; ENMIN  =  165.250 eV

 POTCAR:    PAW_PBE O 08Apr2002
   VRHFIN =O: s2p4

   TITEL  = PAW_PBE O 08Apr2002
   POMASS =   16.000; ZVAL   =    6.000    mass and valenz
   ENMAX  =  400.000; ENMIN  =  300.000 eV

 Optimization of the real space projectors (new method)

 maximal supplied QI-value         = 15.12
 optimisation between [QCUT,QGAM] = [ 11.34, 22.83] = [ 36.00,145.93] Ry
 Optimized for a Real-space Cutoff    1.39 Angstroem

   l    n(q)    QCUT    max X(q) W(low)/X(q) W(high)/X(q)  e(spline)
   2      9    11.338    60.898    0.39E-03    0.42E-03    0.21E-06
   2      9    11.338    58.894    0.40E-03    0.42E-03    0.22E-06
   0      9    11.338   109.617    0.13E-03    0.20E-04    0.13E-06
   0      9    11.338    75.026    0.13E-03    0.20E-04    0.13E-06
   1      9    11.338    16.344    0.33E-04    0.24E-03    0.18E-06
   1      9    11.338    10.160    0.26E-04    0.19E-03    0.15E-06
 Optimization of the real space projectors (new method)

[...]

   l    n(q)    QCUT    max X(q) W(low)/X(q) W(high)/X(q)  e(spline)
   2     10    11.350    48.111    0.20E-03    0.11E-03    0.41E-06
   2     10    11.350    40.545    0.19E-03    0.10E-03    0.39E-06
   0     11    11.350   121.658    0.22E-04    0.19E-04    0.24E-06
   0     11    11.350    71.177    0.17E-04    0.17E-04    0.23E-06
   1     11    11.350    14.183    0.25E-03    0.43E-03    0.12E-05
   1     11    11.350     8.257    0.17E-03    0.29E-03    0.81E-06
 Optimization of the real space projectors (new method)

 maximal supplied QI-value         = 24.76
 optimisation between [QCUT,QGAM] = [ 11.39, 22.77] = [ 36.31,145.25] Ry
 Optimized for a Real-space Cutoff    1.00 Angstroem

   l    n(q)    QCUT    max X(q) W(low)/X(q) W(high)/X(q)  e(spline)
   0      7    11.387    20.381    0.39E-03    0.13E-02    0.15E-06
   0      7    11.387    15.268    0.42E-03    0.14E-02    0.17E-06
   1      6    11.387     5.964    0.41E-03    0.11E-02    0.17E-06
   1      6    11.387     5.382    0.39E-03    0.87E-03    0.15E-06
  PAW_PBE Au 04Oct2007                  :
  PAW_PBE Hf 20Jan2003                  :
  PAW_PBE O 08Apr2002                   :

 POSCAR: Au-Hf-O
  positions in direct lattice
  velocities in cartesian coordinates
 exchange correlation table for  LEXCH =        8
   RHO(1)=    0.500       N(1)  =     2000
   RHO(2)=  100.500       N(2)  =     4000

 VTST: version 3.2, (02/03/18)

 CHAIN: initializing optimizer

 OPT: Using VASP Conjugate-Gradient optimizer
 CHAIN: Read ICHAIN            0

 POSCAR: Au-Hf-O
  positions in direct lattice
  velocities in cartesian coordinates

 ion  position               nearest neighbor table
   1  0.000  0.000  0.238-  16 2.94  12 2.94   6 2.94   8 2.94   7 2.94   3 2.94  10 2.94   4 2.94
                             2 2.94
   2  0.333  0.000  0.238-   9 2.94  11 2.94  17 2.94  10 2.94   8 2.94   4 2.94   5 2.94   1 2.94
                             3 2.94
   3  0.667  0.000  0.238-   7 2.94  18 2.94  12 2.94   1 2.94  11 2.94   5 2.94   6 2.94   9 2.94
                             2 2.94
   4  0.000  0.333  0.238-  10 2.94   6 2.94   5 2.94  13 2.94   2 2.94  15 2.94   9 2.94   1 2.94
                             7 2.94
   5  0.333  0.333  0.238-  13 2.94   7 2.94  11 2.94   4 2.94   2 2.94  14 2.94   3 2.94   8 2.94
                             6 2.94
   6  0.667  0.333  0.238-  15 2.94  14 2.94   1 2.94  12 2.94   4 2.94   9 2.94   8 2.94   3 2.94
                             5 2.94
   7  0.000  0.667  0.238-  18 2.94   3 2.94  16 2.94   5 2.94   1 2.94  13 2.94   8 2.94   4 2.94
                             9 2.94
   8  0.333  0.667  0.238-   9 2.94  17 2.94   1 2.94   2 2.94  14 2.94  16 2.94   6 2.94   7 2.94
                             5 2.94
   9  0.667  0.667  0.238-   2 2.94   8 2.94  17 2.94   6 2.94  15 2.94   4 2.94   3 2.94  18 2.94
                             7 2.94
  10  0.111  0.111  0.346-  20 2.93  26 2.94  19 2.94  11 2.94  17 2.94   2 2.94   4 2.94   1 2.94
                            12 2.94  16 2.94  13 2.94  15 2.94
  11  0.444  0.111  0.346-  20 2.92  21 2.92  13 2.94   2 2.94  10 2.94  17 2.94   5 2.94   3 2.94
                            18 2.94  14 2.94  12 2.94  27 2.94
  12  0.778  0.111  0.346-  21 2.93  25 2.94  19 2.94  16 2.94  18 2.94   1 2.94  14 2.94  15 2.94
                             3 2.94   6 2.94  10 2.94  11 2.94
  13  0.111  0.444  0.346-  23 2.92  20 2.92   5 2.94  18 2.94  11 2.94   7 2.94   4 2.94  16 2.94
                            10 2.94  14 2.94  15 2.94  22 2.94
  14  0.444  0.444  0.346-  21 2.92  23 2.92  15 2.94   6 2.94  12 2.94   8 2.94  17 2.94   5 2.94
                            16 2.94  13 2.94  11 2.94  24 2.94
  15  0.778  0.444  0.346-  24 2.93  22 2.93  19 2.94  14 2.94   6 2.94  17 2.94  12 2.94   9 2.94
                             4 2.94  10 2.94  13 2.94  18 2.94
  16  0.111  0.778  0.346-  23 2.93  25 2.94  26 2.94  18 2.94  12 2.94   7 2.94   1 2.94   8 2.94
                            13 2.94  10 2.94  14 2.94  17 2.94
  17  0.444  0.778  0.346-  27 2.93  24 2.93  26 2.94   9 2.94  15 2.94   2 2.94  10 2.94  11 2.94
                             8 2.94  14 2.94  16 2.94  18 2.94
  18  0.778  0.778  0.346-  22 2.93  27 2.93  25 2.94  16 2.94   7 2.94  13 2.94  12 2.94   3 2.94
                            11 2.94   9 2.94  15 2.94  17 2.94
  19  0.889  0.222  0.454-  15 2.94  10 2.94  12 2.94  24 2.94  22 2.94  26 2.94  25 2.94  21 2.94
                            20 2.94  28 2.96  32 3.04  31 3.04
  20  0.223  0.223  0.453-  36 2.81  11 2.92  13 2.92  23 2.93  21 2.93  10 2.93  26 2.94  19 2.94
                            27 2.95  22 2.95  29 2.99  31 2.99
  21  0.555  0.223  0.453-  36 2.81  14 2.92  11 2.92  20 2.93  23 2.93  12 2.93  25 2.94  19 2.94
                            27 2.95  24 2.95  30 2.99  32 2.99
  22  0.887  0.556  0.454-  24 2.92  27 2.92  18 2.93  15 2.93  25 2.94  19 2.94  13 2.94  23 2.95
                            20 2.95  35 2.96  33 3.01  31 3.01
  23  0.223  0.555  0.453-  36 2.81  13 2.92  14 2.92  20 2.93  21 2.93  16 2.93  25 2.94  26 2.94
                            22 2.95  24 2.95  33 2.99  34 2.99
  24  0.556  0.556  0.454-  27 2.92  22 2.92  15 2.93  17 2.93  26 2.94  19 2.94  14 2.94  21 2.95
                            23 2.95  35 2.96  32 3.01  34 3.01
  25  0.889  0.889  0.454-  18 2.94  16 2.94  12 2.94  22 2.94  27 2.94  19 2.94  26 2.94  23 2.94
                            21 2.94  28 2.96  33 3.04  30 3.04
  26  0.222  0.889  0.454-  17 2.94  10 2.94  16 2.94  27 2.94  24 2.94  19 2.94  25 2.94  20 2.94
                            23 2.94  28 2.96  29 3.04  34 3.04
  27  0.556  0.887  0.454-  24 2.92  22 2.92  17 2.93  18 2.93  26 2.94  25 2.94  11 2.94  20 2.95
                            21 2.95  35 2.96  29 3.01  30 3.01
  28  0.000  0.000  0.563-  25 2.96  19 2.96  26 2.96  34 2.98  32 2.98  33 2.98  30 2.98  31 2.98
                            29 2.98
  29  0.334  0.008  0.566-  30 2.86  31 2.87  36 2.88  35 2.97  28 2.98  20 2.99  27 3.01  26 3.04
                            34 3.08
  30  0.658  0.008  0.566-  29 2.86  32 2.87  36 2.88  35 2.97  28 2.98  21 2.99  27 3.01  25 3.04
                            33 3.08
  31  0.008  0.334  0.566-  33 2.86  29 2.87  36 2.88  35 2.97  28 2.98  20 2.99  22 3.01  19 3.04
                            32 3.08
  32  0.658  0.334  0.566-  34 2.86  30 2.87  36 2.88  35 2.97  28 2.98  21 2.99  24 3.01  19 3.04
                            31 3.08
  33  0.008  0.658  0.566-  31 2.86  34 2.87  36 2.88  35 2.97  28 2.98  23 2.99  22 3.01  25 3.04
                            30 3.08
  34  0.334  0.658  0.566-  32 2.86  33 2.87  36 2.88  35 2.97  28 2.98  23 2.99  24 3.01  26 3.04
                            29 3.08
  35  0.667  0.667  0.564-  24 2.96  27 2.96  22 2.96  29 2.97  34 2.97  32 2.97  31 2.97  30 2.97
                            33 2.97
  36  0.333  0.333  0.555-  37 1.81  20 2.81  23 2.81  21 2.81  33 2.88  31 2.88  29 2.88  30 2.88
                            34 2.88  32 2.88
  37  0.333  0.333  0.636-  36 1.81

  LATTYP: Found a hexagonal cell.
 ALAT       =     8.8135128021
 C/A-ratio  =     2.5184286595

  Lattice vectors:

 A1 = (  -4.4067569092,  -7.6327256898,   0.0000000000)
 A2 = (   8.8135128021,   0.0000000000,   0.0000000000)
 A3 = (   0.0000000000,   0.0000000000,  22.1962032318)

Analysis of symmetry for initial positions (statically):
 Subroutine PRICEL returns:
 Original cell was already a primitive cell.

 Routine SETGRP: Setting up the symmetry group for a
 hexagonal supercell.

 Subroutine GETGRP returns: Found  6 space group operations
 (whereof  6 operations were pure point group operations)
 out of a pool of 24 trial point group operations.

The static configuration has the point symmetry C_3v.

Analysis of symmetry for dynamics (positions and initial velocities):
 Subroutine PRICEL returns:
 Original cell was already a primitive cell.

[...]

The dynamic configuration has the point symmetry C_3v.

Analysis of constrained symmetry for selective dynamics:
 Subroutine PRICEL returns:
 Original cell was already a primitive cell.

 Routine SETGRP: Setting up the symmetry group for a
 hexagonal supercell.

 Subroutine GETGRP returns: Found  6 space group operations
[...]
     24      -5.1950      2.00000
     25      -5.1623      2.00000
     26      -5.1463      2.00000
     27      -5.1154      2.00000
     28      -5.0522      2.00000
     29      -5.0342      2.00000
     30      -4.9560      2.00000
     31      -4.9301      2.00000
     32      -4.9155      2.00000
     33      -4.8627      2.00000
     34      -4.8523      2.00000
     35      -4.8395      2.00000
     36      -4.7965      2.00000
     37      -4.7827      2.00000
     38      -4.6771      2.00000
     39      -4.6399      2.00000
     40      -4.5817      2.00000
     41      -4.5337      2.00000
     42      -4.5038      2.00000
     43      -4.4742      2.00000
     44      -4.4489      2.00000
     45      -4.4290      2.00000
     46      -4.3930      2.00000
     47      -4.3095      2.00000
     48      -4.3024      2.00000
     49      -4.2695      2.00000
     50      -4.2388      2.00000
     51      -4.2257      2.00000
     52      -4.2210      2.00000
     53      -4.2059      2.00000
     54      -4.1885      2.00000
     55      -4.1467      2.00000
     56      -4.1169      2.00000
     57      -4.0978      2.00000
     58      -4.0969      2.00000
     59      -4.0812      2.00000
     60      -4.0741      2.00000
[...]
    238       6.4698      0.00000
    239       6.6001      0.00000
    240       6.6044      0.00000
    241       6.6707      0.00000
    242       6.7482      0.00000
    243       6.9319      0.00000
    244       6.9773      0.00000
    245       7.1063      0.00000
    246       7.1650      0.00000
    247       7.3063      0.00000
    248       7.3681      0.00000
    249       7.6980      0.00000
    250       7.7024      0.00000
    251       7.8703      0.00000
    252       7.9224      0.00000

 soft charge-density along one line, spin component           1
         0         1         2         3         4         5         6         7         8         9
 total charge-density along one line

------------------------ aborting loop because EDIFF is reached ----------------------------------------

 total charge

# of ion       s       p       d       tot
    1        0.544   0.239   8.767   9.550
    2        0.543   0.241   8.765   9.549
    3        0.543   0.241   8.765   9.549
    4        0.543   0.241   8.765   9.549
    5        0.543   0.241   8.763   9.546
    6        0.543   0.241   8.765   9.549
    7        0.543   0.241   8.765   9.549
    8        0.543   0.241   8.765   9.549
    9        0.541   0.240   8.768   9.549
   10        0.520   0.307   8.775   9.602
   11        0.519   0.308   8.776   9.603
   12        0.520   0.307   8.775   9.602
   13        0.519   0.308   8.776   9.603
   14        0.519   0.308   8.776   9.603
   15        0.515   0.309   8.773   9.597
   16        0.520   0.307   8.775   9.602
   17        0.515   0.309   8.773   9.597
   18        0.515   0.309   8.773   9.597
   19        0.518   0.295   8.775   9.588
   20        0.557   0.329   8.755   9.641
   21        0.557   0.329   8.755   9.641
   22        0.511   0.305   8.773   9.588
   23        0.557   0.329   8.755   9.641
   24        0.511   0.305   8.773   9.588
   25        0.518   0.295   8.775   9.588
   26        0.518   0.295   8.775   9.588
   27        0.511   0.305   8.773   9.588
   28        0.542   0.229   8.757   9.528
   29        0.580   0.235   8.754   9.568
   30        0.580   0.235   8.754   9.568
   31        0.580   0.235   8.754   9.568
   32        0.580   0.235   8.754   9.568
   33        0.580   0.235   8.754   9.568
   34        0.580   0.235   8.754   9.568
   35        0.541   0.231   8.755   9.527
   36        0.588   0.674   2.420   3.681
   37        1.596   3.307   0.000   4.903
tot         21.046  13.575 309.222 343.843

  FORCE on cell =-STRESS in cart. coord.  units (eV):
  Direction    XX          YY          ZZ          XY          YZ          ZX
  Alpha Z  1008.38663  1008.38663  1008.38663
  Ewald  116002.52474116002.52513************    -0.00033    -0.00009    -0.00014
  Hartree124592.57762124592.57761************     0.00000    -0.00002    -0.00004
  E(xc)   -1773.62827 -1773.62827 -1783.83213     0.00000    -0.00000    -0.00001
  Local  ************************252800.13602     0.00199     0.00002     0.00002
  n-local   -87.53661   -45.76205   -42.05580    22.21691    -1.71501     1.49191
  augment  2370.71359  2370.71516  2389.74832    -0.00136    -0.00002    -0.00001
  Kinetic  5507.22086  5513.47468  5567.56923     5.21111     0.41047     0.22774
  Fock        0.00000     0.00000     0.00000     0.00000     0.00000     0.00000
  Total     -16.70120   -16.70120     3.28213    -0.00000     0.00000     0.00000
  in kB     -17.92054   -17.92053     3.52175    -0.00000     0.00000     0.00000

 VOLUME and BASIS-vectors are now :
  energy-cutoff  :      500.00
  volume of cell :     1493.16
      direct lattice vectors                 reciprocal lattice vectors
     8.813512802  0.000000000  0.000000000     0.113462137 -0.065507406  0.000000000
     4.406756909  7.632725690  0.000000000     0.000000000  0.131014796  0.000000000
     0.000000000  0.000000000 22.196203232     0.000000000  0.000000000  0.045052750

  length of vectors
     8.813512802  8.813512802 22.196203232     0.131014796  0.131014796  0.045052750

 FORCES acting on ions
    electron-ion (+dipol)            ewald-force                    non-local-force                 convergence-correction
   -.194E-04 -.161E-04 0.246E+04   0.518E-04 0.432E-04 -.246E+04   -.641E-17 -.111E-18 -.558E+00   -.282E-03 -.176E-03 -.313E+00
   -.222E-01 -.365E+00 0.246E+04   -.327E-01 0.259E+00 -.246E+04   -.251E-02 0.498E-01 -.347E+00   0.538E-01 0.540E-01 -.248E+00
   0.221E-01 -.365E+00 0.246E+04   0.326E-01 0.259E+00 -.246E+04   0.251E-02 0.498E-01 -.347E+00   -.534E-01 0.561E-01 -.247E+00
   -.327E+00 0.163E+00 0.246E+04   0.208E+00 -.158E+00 -.246E+04   0.418E-01 -.271E-01 -.347E+00   0.737E-01 0.195E-01 -.248E+00
   0.877E-05 -.231E-04 0.246E+04   0.951E-04 0.172E-05 -.246E+04   0.697E-18 -.197E-18 -.350E+00   0.439E-02 0.267E-02 -.213E+00
   0.327E+00 0.163E+00 0.246E+04   -.208E+00 -.158E+00 -.246E+04   -.418E-01 -.271E-01 -.347E+00   -.754E-01 0.204E-01 -.247E+00
   -.305E+00 0.202E+00 0.246E+04   0.241E+00 -.101E+00 -.246E+04   0.444E-01 -.227E-01 -.347E+00   0.219E-01 -.743E-01 -.247E+00
   0.305E+00 0.202E+00 0.246E+04   -.241E+00 -.101E+00 -.246E+04   -.444E-01 -.227E-01 -.347E+00   -.200E-01 -.755E-01 -.247E+00
   0.193E-04 -.417E-04 0.246E+04   0.166E-03 -.200E-04 -.246E+04   -.209E-18 0.160E-17 -.520E+00   -.466E-02 -.241E-02 -.250E+00
   -.406E+00 -.234E+00 0.804E+03   0.465E+00 0.269E+00 -.803E+03   -.185E+00 -.107E+00 -.385E+00   0.883E-01 0.509E-01 -.622E-03
   0.137E-04 -.157E+01 0.802E+03   0.148E-03 0.138E+01 -.802E+03   0.380E-08 0.572E-01 -.309E+00   0.426E-02 0.840E-01 0.390E-01
   0.406E+00 -.234E+00 0.804E+03   -.465E+00 0.269E+00 -.803E+03   0.185E+00 -.107E+00 -.385E+00   -.902E-01 0.528E-01 0.624E-03
   -.136E+01 0.783E+00 0.802E+03   0.119E+01 -.688E+00 -.802E+03   0.495E-01 -.286E-01 -.309E+00   0.752E-01 -.381E-01 0.390E-01
   0.136E+01 0.783E+00 0.802E+03   -.119E+01 -.688E+00 -.802E+03   -.495E-01 -.286E-01 -.309E+00   -.668E-01 -.387E-01 0.399E-01
   0.319E-04 0.237E+01 0.807E+03   0.235E-03 -.246E+01 -.806E+03   0.129E-08 0.193E-01 -.394E+00   -.297E-02 0.549E-01 0.271E-01
   -.205E-04 0.469E+00 0.804E+03   0.162E-03 -.537E+00 -.803E+03   0.142E-07 0.213E+00 -.385E+00   0.386E-03 -.105E+00 0.616E-03
   0.205E+01 -.118E+01 0.807E+03   -.213E+01 0.123E+01 -.806E+03   0.167E-01 -.967E-02 -.394E+00   0.463E-01 -.296E-01 0.271E-01
   -.205E+01 -.118E+01 0.807E+03   0.213E+01 0.123E+01 -.806E+03   -.167E-01 -.967E-02 -.394E+00   -.463E-01 -.270E-01 0.273E-01
   -.428E-04 -.554E+01 -.862E+03   0.557E-04 0.528E+01 0.860E+03   0.739E-08 0.111E+00 0.860E+00   -.610E-02 0.119E+00 0.265E+00
   -.207E+02 -.120E+02 -.877E+03   0.212E+02 0.122E+02 0.877E+03   -.957E+00 -.552E+00 -.621E+00   0.131E+00 0.756E-01 0.244E+00
   0.207E+02 -.120E+02 -.877E+03   -.212E+02 0.122E+02 0.877E+03   0.957E+00 -.552E+00 -.621E+00   -.122E+00 0.771E-01 0.243E+00
   -.157E+02 0.904E+01 -.856E+03   0.153E+02 -.883E+01 0.855E+03   0.374E+00 -.216E+00 0.746E+00   0.475E-01 -.305E-01 0.258E+00
   -.822E-05 0.240E+02 -.877E+03   0.137E-03 -.245E+02 0.877E+03   0.735E-07 0.110E+01 -.621E+00   0.564E-02 -.144E+00 0.243E+00
   0.157E+02 0.904E+01 -.856E+03   -.153E+02 -.883E+01 0.855E+03   -.374E+00 -.216E+00 0.746E+00   -.556E-01 -.320E-01 0.258E+00
   0.480E+01 0.277E+01 -.862E+03   -.457E+01 -.264E+01 0.860E+03   -.962E-01 -.555E-01 0.860E+00   -.105E+00 -.608E-01 0.265E+00
   -.480E+01 0.277E+01 -.862E+03   0.457E+01 -.264E+01 0.860E+03   0.962E-01 -.555E-01 0.860E+00   0.100E+00 -.646E-01 0.265E+00
   0.784E-05 -.181E+02 -.856E+03   0.199E-03 0.177E+02 0.855E+03   0.288E-07 0.432E+00 0.746E+00   -.321E-02 0.563E-01 0.258E+00
   -.112E-04 -.112E-04 -.241E+04   0.275E-04 0.316E-04 0.241E+04   -.134E-17 -.841E-18 0.399E+00   -.147E-02 -.866E-03 0.388E+00
   0.392E+01 -.754E+00 -.241E+04   -.320E+01 0.191E+01 0.241E+04   -.981E+00 -.151E+01 0.627E+00   0.683E-01 -.295E-01 0.297E+00
   -.392E+01 -.754E+00 -.241E+04   0.320E+01 0.191E+01 0.241E+04   0.981E+00 -.151E+01 0.627E+00   -.613E-01 -.277E-01 0.296E+00
   0.130E+01 0.377E+01 -.241E+04   0.522E-01 -.373E+01 0.241E+04   -.179E+01 -.973E-01 0.627E+00   0.869E-02 0.738E-01 0.297E+00
   -.130E+01 0.377E+01 -.241E+04   -.523E-01 -.373E+01 0.241E+04   0.179E+01 -.973E-01 0.627E+00   -.353E-02 0.745E-01 0.295E+00
   -.261E+01 -.301E+01 -.241E+04   0.325E+01 0.182E+01 0.241E+04   -.813E+00 0.160E+01 0.627E+00   -.546E-01 -.392E-01 0.296E+00
   0.261E+01 -.301E+01 -.241E+04   -.325E+01 0.182E+01 0.241E+04   0.813E+00 0.160E+01 0.627E+00   0.628E-01 -.403E-01 0.295E+00
   0.314E-04 -.316E-04 -.242E+04   0.144E-03 -.469E-04 0.242E+04   0.588E-17 -.256E-17 0.355E+00   -.592E-02 -.312E-02 0.372E+00
   0.354E-05 0.932E-05 -.753E+03   0.408E-04 0.362E-05 0.758E+03   0.304E-17 -.241E-18 -.337E+01   0.277E-03 0.166E-03 0.783E-01
   0.180E-03 -.979E-04 -.150E+04   0.222E-04 0.144E-05 0.153E+04   -.384E-18 -.116E-17 -.246E+02   0.311E-02 0.191E-02 0.255E-01
   -.594E-03 -.850E-03 0.247E+02   -.898E-13 0.569E-13 -.705E-11   -.214E-15 -.397E-17 -.273E+02   0.172E-01 0.106E-01 0.288E+01

 POSITION                                       TOTAL-FORCE (eV/Angst)
      0.00000      0.00000      5.28038        -0.000000      0.000000     -0.107246
      2.93784      0.00000      5.28038        -0.003068     -0.000695     -0.042174
      5.87568      0.00000      5.28038         0.003068     -0.000695     -0.042174
      1.46892      2.54424      5.28038        -0.002136     -0.002310     -0.042174
      4.40676      2.54424      5.28038        -0.000000     -0.000000     -0.070300
      7.34459      2.54424      5.28038         0.002136     -0.002310     -0.042174
      2.93784      5.08848      5.28038         0.000933      0.003005     -0.042174
      5.87568      5.08848      5.28038        -0.000933      0.003005     -0.042174
      8.81351      5.08848      5.28038        -0.000000     -0.000000     -0.048448
      1.46892      0.84808      7.67911        -0.035523     -0.020509      0.051757
      4.40676      0.84808      7.67911        -0.000000     -0.051331      0.044689
      7.34459      0.84808      7.67911         0.035523     -0.020509      0.051757
      2.93784      3.39232      7.67911        -0.044454      0.025665      0.044689
      5.87568      3.39232      7.67911         0.044454      0.025665      0.044689
      8.81351      3.39232      7.67911        -0.000000     -0.022968      0.129159
      4.40676      5.93656      7.67911         0.000000      0.041019      0.051757
      7.34459      5.93656      7.67911        -0.019891      0.011484      0.129159
     10.28243      5.93656      7.67911         0.019891      0.011484      0.129159
      8.81351      1.69636     10.07469        -0.000000     -0.034669      0.050927
      2.94338      1.69936     10.06127        -0.358346     -0.206891     -0.356432
      5.87013      1.69936     10.06127         0.358346     -0.206891     -0.356432
     10.27220      4.24631     10.06987         0.062835     -0.036278      0.072798
      4.40676      4.23400     10.06127         0.000000      0.413783     -0.356432
      7.35483      4.24631     10.06987        -0.062835     -0.036278      0.072798
     11.75117      6.78454     10.07469         0.030024      0.017334      0.050927
      5.87585      6.78454     10.07469        -0.030024      0.017334      0.050927
      8.81351      6.77283     10.06987         0.000000      0.072556      0.072798
      0.00000      0.00000     12.49672        -0.000000      0.000000     -0.058771
      2.97727      0.06002     12.55884        -0.202025     -0.381004     -0.238719
      5.83624      0.06002     12.55884         0.202025     -0.381004     -0.238719
      1.54061      2.54838     12.55884        -0.430972      0.015543     -0.238719
      7.27290      2.54838     12.55884         0.430972      0.015543     -0.238719
      2.97010      5.02433     12.55884        -0.228946      0.365461     -0.238719
      5.84341      5.02433     12.55884         0.228946      0.365461     -0.238719
      8.81351      5.08848     12.50791        -0.000000     -0.000000     -0.020271
      4.40676      2.54424     12.31155        -0.000000      0.000000      2.031721
      4.40676      2.54424     14.12006        -0.000000     -0.000000     -0.020015
    total drift:                                0.016564      0.009720      0.363262

  FREE ENERGIE OF THE ION-ELECTRON SYSTEM (eV)
  free  energy   TOTEN  =      -125.26618864 eV

  energy  without entropy=     -125.26618864  energy(sigma->0) =     -125.26618864

 stress matrix after NEB project (eV)
    -16.70120     -0.00000      0.00000
     -0.00000    -16.70120      0.00000
      0.00000      0.00000      3.28213
  FORCES: max atom, RMS     0.020015    0.003291
  FORCE total and by dimension    0.020015    0.020015
  Stress total and by dimension   23.846021   16.701204
|           W    W    AA    RRRRR   N    N  II  N    N   GGGG   !!!           |
|           W    W   A  A   R    R  NN   N  II  NN   N  G    G  !!!           |
|           W    W  A    A  R    R  N N  N  II  N N  N  G       !!!           |
|           W WW W  AAAAAA  RRRRR   N  N N  II  N  N N  G  GGG   !            |
|           WW  WW  A    A  R   R   N   NN  II  N   NN  G    G                |
|           W    W  A    A  R    R  N    N  II  N    N   GGGG   !!!           |
|     Tetrahedron method does not include variations of the Fermi             |
|     occupations, so forces and stress will be inaccurate. We suggest        |
|     using a different smearing scheme ISMEAR = 1 or 2 for metals in         |
|     relaxations.                                                            |

 total charge

# of ion       s       p       d       tot
    1        0.544   0.239   8.767   9.550
    2        0.543   0.241   8.765   9.549
    3        0.543   0.241   8.765   9.549
    4        0.543   0.241   8.765   9.549
    5        0.543   0.241   8.763   9.546
    6        0.543   0.241   8.765   9.549
    7        0.543   0.241   8.765   9.549
    8        0.543   0.241   8.765   9.549
    9        0.541   0.240   8.768   9.549
   10        0.520   0.307   8.775   9.602
   11        0.519   0.308   8.776   9.603
   12        0.520   0.307   8.775   9.602
   13        0.519   0.308   8.776   9.603
   14        0.519   0.308   8.776   9.603
   15        0.515   0.309   8.773   9.597
   16        0.520   0.307   8.775   9.602
   17        0.515   0.309   8.773   9.597
   18        0.515   0.309   8.773   9.597
   19        0.518   0.295   8.775   9.588
   20        0.557   0.329   8.755   9.641
   21        0.557   0.329   8.755   9.641
   22        0.511   0.305   8.773   9.588
   23        0.557   0.329   8.755   9.641
   24        0.511   0.305   8.773   9.588
   25        0.518   0.295   8.775   9.588
   26        0.518   0.295   8.775   9.588
   27        0.511   0.305   8.773   9.588
   28        0.542   0.229   8.757   9.528
   29        0.580   0.235   8.754   9.568
   30        0.580   0.235   8.754   9.568
   31        0.580   0.235   8.754   9.568
   32        0.580   0.235   8.754   9.568
   33        0.580   0.235   8.754   9.568
   34        0.580   0.235   8.754   9.568
   35        0.541   0.231   8.755   9.527
   36        0.588   0.674   2.420   3.681
   37        1.596   3.307   0.000   4.903
tot         21.046  13.575 309.222 343.843

 BZINTS: Fermi energy:    0.584940;  395.000000 electrons
         Band energy:-0.127450E+04;  BLOECHL correction:   -0.086540