 vasp.6.2.0 18Jan21 (build Jun 12 2021 23:27:24) complex

 executed on             LinuxIFC date 2022.05.28  00:48:09

 INCAR:
   ISMEAR = -5
   SIGMA = 0.1
   ISPIN = 1
   EDIFF = 1.d-5
   EDIFFG = -0.01
   NSW = 0
   NELM = 150
   ENCUT = 500
   ISIF = 2
   IBRION = 2
   LREAL = Auto
   ALGO = Fast
   ICHARG = 11
   LORBIT = 10
   LCHARG = .F.
   LWAVE = .F.

 POTCAR:    PAW_PBE Au 04Oct2007
 POTCAR:    PAW_PBE Co 02Aug2007
 POTCAR:    PAW_PBE O 08Apr2002
 POTCAR:    PAW_PBE H 15Jun2001
|           W    W    AA    RRRRR   N    N  II  N    N   GGGG   !!!           |
|           W    W   A  A   R    R  NN   N  II  NN   N  G    G  !!!           |
|           W    W  A    A  R    R  N N  N  II  N N  N  G       !!!           |
|           W WW W  AAAAAA  RRRRR   N  N N  II  N  N N  G  GGG   !            |
|           WW  WW  A    A  R   R   N   NN  II  N   NN  G    G                |
|           W    W  A    A  R    R  N    N  II  N    N   GGGG   !!!           |
|     For optimal performance we recommend to set                             |
|       NCORE = 2 up to number-of-cores-per-socket                            |
|     This setting can greatly improve the performance of VASP for DFT.       |
|     The default, NCORE=1 might be grossly inefficient on modern             |
|     multi-core architectures or massively parallel machines. Do your        |
|     Unfortunately you need to use the default for GW and RPA                |
|     calculations (for HF NCORE is supported but not extensively tested      |
|     yet).                                                                   |

 POTCAR:    PAW_PBE Au 04Oct2007
   VRHFIN =Au: s1d10

   TITEL  = PAW_PBE Au 04Oct2007
   POMASS =  196.966; ZVAL   =   11.000    mass and valenz
   ENMAX  =  229.943; ENMIN  =  172.457 eV

 POTCAR:    PAW_PBE Co 02Aug2007
   VRHFIN =Co: d8 s1

   TITEL  = PAW_PBE Co 02Aug2007
   POMASS =   58.933; ZVAL   =    9.000    mass and valenz
   ENMAX  =  267.968; ENMIN  =  200.976 eV

 POTCAR:    PAW_PBE O 08Apr2002
   VRHFIN =O: s2p4

   TITEL  = PAW_PBE O 08Apr2002
   POMASS =   16.000; ZVAL   =    6.000    mass and valenz
   ENMAX  =  400.000; ENMIN  =  300.000 eV

 POTCAR:    PAW_PBE H 15Jun2001
   VRHFIN =H: ultrasoft test

   TITEL  = PAW_PBE H 15Jun2001
   POMASS =    1.000; ZVAL   =    1.000    mass and valenz
   ENMAX  =  250.000; ENMIN  =  200.000 eV

 Optimization of the real space projectors (new method)

 maximal supplied QI-value         = 15.12
 optimisation between [QCUT,QGAM] = [ 11.34, 22.83] = [ 36.00,145.93] Ry
 Optimized for a Real-space Cutoff    1.39 Angstroem

   l    n(q)    QCUT    max X(q) W(low)/X(q) W(high)/X(q)  e(spline)
   2      9    11.338    60.898    0.39E-03    0.42E-03    0.21E-06
   2      9    11.338    58.894    0.40E-03    0.42E-03    0.22E-06
   0      9    11.338   109.617    0.13E-03    0.20E-04    0.13E-06
   0      9    11.338    75.026    0.13E-03    0.20E-04    0.13E-06
   1      9    11.338    16.344    0.33E-04    0.24E-03    0.18E-06
   1      9    11.338    10.160    0.26E-04    0.19E-03    0.15E-06
 Optimization of the real space projectors (new method)

[...]

   l    n(q)    QCUT    max X(q) W(low)/X(q) W(high)/X(q)  e(spline)
   0      7    11.387    20.381    0.39E-03    0.13E-02    0.15E-06
   0      7    11.387    15.268    0.42E-03    0.14E-02    0.17E-06
   1      6    11.387     5.964    0.41E-03    0.11E-02    0.17E-06
   1      6    11.387     5.382    0.39E-03    0.87E-03    0.15E-06
 Optimization of the real space projectors (new method)

 maximal supplied QI-value         = 34.20
 optimisation between [QCUT,QGAM] = [ 11.29, 22.57] = [ 35.68,142.71] Ry
 Optimized for a Real-space Cutoff    1.16 Angstroem

   l    n(q)    QCUT    max X(q) W(low)/X(q) W(high)/X(q)  e(spline)
   0      8    11.287    19.460    0.40E-03    0.73E-03    0.16E-06
   0      8    11.287    12.209    0.38E-03    0.70E-03    0.15E-06
   1      7    11.287     4.655    0.22E-03    0.25E-04    0.22E-06
  PAW_PBE Au 04Oct2007                  :
  PAW_PBE Co 02Aug2007                  :
  PAW_PBE O 08Apr2002                   :
  PAW_PBE H 15Jun2001                   :

 POSCAR: Au-Co-OOH
  positions in direct lattice
  velocities in cartesian coordinates
 exchange correlation table for  LEXCH =        8
   RHO(1)=    0.500       N(1)  =     2000
   RHO(2)=  100.500       N(2)  =     4000

 VTST: version 3.2, (02/03/18)

 CHAIN: initializing optimizer

 OPT: Using VASP Conjugate-Gradient optimizer
 CHAIN: Read ICHAIN            0

 POSCAR: Au-Co-OOH
  positions in direct lattice
  velocities in cartesian coordinates

 ion  position               nearest neighbor table
   1  0.000  0.000  0.204-  16 2.94  12 2.94   6 2.94   8 2.94   7 2.94   3 2.94  10 2.94   4 2.94
                             2 2.94
   2  0.333  0.000  0.204-   9 2.94  11 2.94  17 2.94  10 2.94   8 2.94   4 2.94   5 2.94   1 2.94
                             3 2.94
   3  0.667  0.000  0.204-   7 2.94  18 2.94  12 2.94   1 2.94  11 2.94   5 2.94   6 2.94   9 2.94
                             2 2.94
   4  0.000  0.333  0.204-  10 2.94   6 2.94   5 2.94  13 2.94   2 2.94  15 2.94   9 2.94   1 2.94
                             7 2.94
   5  0.333  0.333  0.204-  13 2.94   7 2.94  11 2.94   4 2.94   2 2.94  14 2.94   3 2.94   8 2.94
                             6 2.94
   6  0.667  0.333  0.204-  15 2.94  14 2.94   1 2.94  12 2.94   4 2.94   9 2.94   8 2.94   3 2.94
                             5 2.94
   7  0.000  0.667  0.204-  18 2.94   3 2.94  16 2.94   5 2.94   1 2.94  13 2.94   8 2.94   4 2.94
                             9 2.94
   8  0.333  0.667  0.204-   9 2.94  17 2.94   1 2.94   2 2.94  14 2.94  16 2.94   6 2.94   7 2.94
                             5 2.94
   9  0.667  0.667  0.204-   2 2.94   8 2.94  17 2.94   6 2.94  15 2.94   4 2.94   3 2.94  18 2.94
                             7 2.94
  10  0.111  0.111  0.296-  20 2.92  26 2.93  19 2.93  11 2.94  17 2.94   2 2.94   4 2.94   1 2.94
                            12 2.94  16 2.94  13 2.94  15 2.94
  11  0.444  0.111  0.296-  20 2.91  21 2.91  27 2.93  13 2.94   2 2.94  10 2.94  17 2.94   5 2.94
                             3 2.94  18 2.94  14 2.94  12 2.94
  12  0.778  0.111  0.296-  21 2.92  25 2.93  19 2.93  16 2.94  18 2.94   1 2.94  14 2.94  15 2.94
                             3 2.94   6 2.94  10 2.94  11 2.94
  13  0.111  0.444  0.296-  23 2.91  20 2.91  22 2.93   5 2.94  18 2.94  11 2.94   7 2.94   4 2.94
                            16 2.94  10 2.94  14 2.94  15 2.94
  14  0.444  0.444  0.296-  21 2.91  23 2.91  24 2.93  15 2.94   6 2.94  12 2.94   8 2.94  17 2.94
                             5 2.94  16 2.94  13 2.94  11 2.94
  15  0.778  0.444  0.296-  24 2.92  22 2.92  19 2.93  14 2.94   6 2.94  17 2.94  12 2.94   9 2.94
                             4 2.94  10 2.94  13 2.94  18 2.94
  16  0.111  0.778  0.296-  23 2.92  25 2.93  26 2.93  18 2.94  12 2.94   7 2.94   1 2.94   8 2.94
                            13 2.94  10 2.94  14 2.94  17 2.94
  17  0.444  0.778  0.296-  27 2.92  24 2.92  26 2.93   9 2.94  15 2.94   2 2.94  10 2.94  11 2.94
                             8 2.94  14 2.94  16 2.94  18 2.94
  18  0.778  0.778  0.296-  22 2.92  27 2.92  25 2.93  16 2.94   7 2.94  13 2.94  12 2.94   3 2.94
                            11 2.94   9 2.94  15 2.94  17 2.94
  19  0.889  0.222  0.389-  10 2.93  12 2.93  15 2.93  26 2.94  25 2.94  24 2.94  22 2.94  28 2.94
                            21 2.95  20 2.95  32 2.96  31 2.96
  20  0.223  0.223  0.388-  36 2.69  29 2.91  31 2.91  11 2.91  13 2.91  23 2.91  21 2.91  10 2.92
                            27 2.95  22 2.95  26 2.95  19 2.95
  21  0.554  0.223  0.388-  36 2.69  30 2.91  32 2.91  14 2.91  11 2.91  20 2.91  23 2.91  12 2.92
                            27 2.95  24 2.95  25 2.95  19 2.95
  22  0.887  0.557  0.388-  24 2.91  27 2.91  18 2.92  15 2.92  13 2.93  25 2.94  19 2.94  33 2.94
                            31 2.94  23 2.95  20 2.95  35 2.96
  23  0.223  0.554  0.388-  36 2.69  33 2.91  34 2.91  13 2.91  14 2.91  20 2.91  21 2.91  16 2.92
                            22 2.95  24 2.95  25 2.95  26 2.95
  24  0.557  0.557  0.388-  27 2.91  22 2.91  15 2.92  17 2.92  14 2.93  26 2.94  19 2.94  32 2.94
                            34 2.94  21 2.95  23 2.95  35 2.96
  25  0.889  0.889  0.389-  16 2.93  12 2.93  18 2.93  19 2.94  26 2.94  22 2.94  27 2.94  28 2.94
                            23 2.95  21 2.95  33 2.96  30 2.96
  26  0.222  0.889  0.389-  10 2.93  16 2.93  17 2.93  19 2.94  25 2.94  27 2.94  24 2.94  28 2.94
                            20 2.95  23 2.95  29 2.96  34 2.96
  27  0.557  0.887  0.388-  24 2.91  22 2.91  17 2.92  18 2.92  11 2.93  26 2.94  25 2.94  29 2.94
                            30 2.94  20 2.95  21 2.95  35 2.96
  28  0.000  0.000  0.481-  25 2.94  19 2.94  26 2.94  34 2.98  32 2.98  33 2.98  30 2.98  31 2.98
                            29 2.98
  29  0.334  0.008  0.480-  30 2.86  31 2.87  36 2.88  20 2.91  27 2.94  26 2.96  35 2.98  28 2.98
                            34 3.09
  30  0.658  0.008  0.480-  29 2.86  32 2.87  36 2.88  21 2.91  27 2.94  25 2.96  35 2.98  28 2.98
                            33 3.09
  31  0.008  0.334  0.480-  33 2.86  29 2.87  36 2.88  20 2.91  22 2.94  19 2.96  35 2.98  28 2.98
                            32 3.09
  32  0.658  0.334  0.480-  34 2.86  30 2.87  36 2.88  21 2.91  24 2.94  19 2.96  35 2.98  28 2.98
                            31 3.09
  33  0.008  0.658  0.480-  31 2.86  34 2.87  36 2.88  23 2.91  22 2.94  25 2.96  35 2.98  28 2.98
                            30 3.09
  34  0.334  0.658  0.480-  32 2.86  33 2.87  36 2.88  23 2.91  24 2.94  26 2.96  35 2.98  28 2.98
                            29 3.09
  35  0.667  0.667  0.482-  24 2.96  27 2.96  22 2.96  29 2.98  34 2.98  32 2.98  31 2.98  30 2.98
                            33 2.98
  36  0.333  0.333  0.469-  37 1.77  20 2.69  23 2.69  21 2.69  33 2.88  31 2.88  29 2.88  30 2.88
                            34 2.88  32 2.88
  37  0.353  0.353  0.536-  38 1.50  36 1.77
  38  0.281  0.271  0.572-  39 0.98  37 1.50
  39  0.316  0.301  0.605-  38 0.98

  LATTYP: Found a hexagonal cell.
 ALAT       =     8.8135128021
 C/A-ratio  =     2.9412617888

  Lattice vectors:

 A1 = (  -4.4067569092,  -7.6327256898,   0.0000000000)
 A2 = (   8.8135128021,   0.0000000000,   0.0000000000)
 A3 = (   0.0000000000,   0.0000000000,  25.9228484302)

Analysis of symmetry for initial positions (statically):
 Subroutine PRICEL returns:
 Original cell was already a primitive cell.

 Routine SETGRP: Setting up the symmetry group for a
 hexagonal supercell.

 Subroutine GETGRP returns: Found  1 space group operations
 (whereof  1 operations were pure point group operations)
 out of a pool of 24 trial point group operations.

The static configuration has the point symmetry C_1 .

Analysis of symmetry for dynamics (positions and initial velocities):
 Subroutine PRICEL returns:
 Original cell was already a primitive cell.

[...]

The dynamic configuration has the point symmetry C_1 .

Analysis of constrained symmetry for selective dynamics:
 Subroutine PRICEL returns:
[...]
     41      -5.1854      2.00000
     42      -5.1729      2.00000
     43      -5.1229      2.00000
     44      -5.0603      2.00000
     45      -5.0312      2.00000
     46      -5.0067      2.00000
     47      -4.9346      2.00000
     48      -4.9285      2.00000
     49      -4.9170      2.00000
     50      -4.8816      2.00000
     51      -4.8080      2.00000
     52      -4.7930      2.00000
     53      -4.7610      2.00000
     54      -4.7481      2.00000
     55      -4.7403      2.00000
     56      -4.7334      2.00000
     57      -4.7143      2.00000
     58      -4.6772      2.00000
     59      -4.6349      2.00000
     60      -4.6148      2.00000
[...]
    238       5.2501      0.00000
    239       5.4308      0.00000
    240       5.4911      0.00000
    241       5.5590      0.00000
    242       5.7368      0.00000
    243       5.8043      0.00000
    244       5.8264      0.00000
    245       5.8623      0.00000
    246       5.9089      0.00000
    247       6.1548      0.00000
    248       6.1718      0.00000
    249       6.2273      0.00000
    250       6.2848      0.00000
    251       6.3287      0.00000
    252       6.4183      0.00000

 soft charge-density along one line, spin component           1
         0         1         2         3         4         5         6         7         8         9
 total charge-density along one line

------------------------ aborting loop because EDIFF is reached ----------------------------------------

 total charge

# of ion       s       p       d       tot
    1        0.545   0.239   8.768   9.553
    2        0.544   0.241   8.763   9.549
    3        0.544   0.241   8.764   9.549
    4        0.544   0.242   8.763   9.549
    5        0.543   0.242   8.762   9.546
    6        0.545   0.241   8.764   9.550
    7        0.544   0.241   8.764   9.549
    8        0.545   0.241   8.764   9.550
    9        0.541   0.241   8.768   9.549
   10        0.521   0.307   8.773   9.602
   11        0.520   0.309   8.777   9.606
   12        0.520   0.309   8.770   9.599
   13        0.520   0.309   8.777   9.606
   14        0.519   0.309   8.777   9.606
   15        0.517   0.309   8.776   9.602
   16        0.521   0.309   8.770   9.600
   17        0.517   0.309   8.776   9.602
   18        0.516   0.310   8.776   9.601
   19        0.516   0.303   8.775   9.594
   20        0.541   0.329   8.756   9.626
   21        0.542   0.331   8.754   9.626
   22        0.512   0.310   8.776   9.598
   23        0.542   0.330   8.754   9.626
   24        0.511   0.311   8.774   9.597
   25        0.517   0.302   8.776   9.595
   26        0.516   0.303   8.775   9.594
   27        0.512   0.310   8.775   9.598
   28        0.541   0.225   8.771   9.536
   29        0.546   0.232   8.766   9.544
   30        0.541   0.233   8.772   9.546
   31        0.547   0.232   8.766   9.545
   32        0.545   0.232   8.770   9.547
   33        0.541   0.233   8.772   9.545
   34        0.546   0.232   8.770   9.547
   35        0.535   0.225   8.769   9.529
   36        0.377   0.403   7.282   8.062
   37        1.604   3.230   0.000   4.835
   38        1.595   3.370   0.000   4.965
   39        0.618   0.113   0.000   0.730
tot         22.810  16.739 314.207 353.756

  FORCE on cell =-STRESS in cart. coord.  units (eV):
  Direction    XX          YY          ZZ          XY          YZ          ZX
  Alpha Z   887.34744   887.34744   887.34744
  Ewald  177315.45778177210.05304************   107.11223   -57.72002   -82.86502
  Hartree185945.72891185890.68045************    57.45962   -40.25321   -61.63027
  E(xc)   -1835.96451 -1836.16243 -1841.82245     0.18452    -0.05029    -0.04882
  Local  ************************375132.96910  -152.53142    93.56313   139.45964
  n-local  -113.80382  -116.29477   -89.69682     2.76022    -1.71093    -2.59051
  augment  2538.71002  2539.61127  2541.18751    -0.91131     0.25170     0.12237
  Kinetic  5697.47919  5711.51001  5717.58267   -13.66789     5.86912     7.46102
  Fock        0.00000     0.00000     0.00000     0.00000     0.00000     0.00000
  Total     -22.75718   -23.13415    -0.33855     0.40597    -0.05051    -0.09159
  in kB     -20.90825   -21.25459    -0.31104     0.37299    -0.04641    -0.08415

 VOLUME and BASIS-vectors are now :
  energy-cutoff  :      500.00
  volume of cell :     1743.86
      direct lattice vectors                 reciprocal lattice vectors
     8.813512802  0.000000000  0.000000000     0.113462137 -0.065507406  0.000000000
     4.406756909  7.632725690  0.000000000     0.000000000  0.131014796  0.000000000
     0.000000000  0.000000000 25.922848430     0.000000000  0.000000000  0.038576008

  length of vectors
     8.813512802  8.813512802 25.922848430     0.131014796  0.131014796  0.038576008

 FORCES acting on ions
    electron-ion (+dipol)            ewald-force                    non-local-force                 convergence-correction
   0.105E-01 0.956E-02 0.281E+04   -.197E-01 -.122E-01 -.280E+04   0.166E-02 0.229E-02 -.807E+00   0.647E-02 0.276E-03 -.302E+00
   0.642E+00 0.575E+00 0.281E+04   -.723E+00 -.648E+00 -.281E+04   0.272E-01 0.559E-01 -.304E+00   0.464E-01 0.367E-01 -.352E+00
   -.634E+00 0.492E+00 0.281E+04   0.742E+00 -.643E+00 -.281E+04   -.413E-01 0.807E-01 -.290E+00   -.644E-01 0.729E-01 -.346E+00
   0.813E+00 0.263E+00 0.281E+04   -.922E+00 -.298E+00 -.281E+04   0.637E-01 -.321E-02 -.299E+00   0.593E-01 0.222E-01 -.353E+00
   -.992E-01 -.634E-01 0.281E+04   0.136E-01 0.124E-01 -.281E+04   0.518E-01 0.290E-01 -.293E+00   0.393E-01 0.249E-01 -.260E+00
   -.802E+00 0.310E+00 0.281E+04   0.908E+00 -.313E+00 -.281E+04   -.410E-01 -.249E-01 -.326E+00   -.733E-01 0.243E-01 -.320E+00
   0.104E+00 -.789E+00 0.281E+04   -.185E+00 0.960E+00 -.281E+04   0.493E-01 -.778E-01 -.289E+00   0.353E-01 -.929E-01 -.351E+00
   -.124E+00 -.850E+00 0.281E+04   0.179E+00 0.941E+00 -.281E+04   -.443E-01 -.247E-01 -.323E+00   -.189E-01 -.731E-01 -.321E+00
   0.462E-01 0.279E-01 0.281E+04   0.587E-02 -.466E-03 -.281E+04   -.193E-01 -.112E-01 -.495E+00   -.283E-01 -.136E-01 -.310E+00
   0.589E+01 0.339E+01 0.998E+03   -.581E+01 -.334E+01 -.997E+03   -.168E+00 -.989E-01 -.642E+00   0.112E+00 0.653E-01 0.115E+00
   -.183E+00 0.763E+01 0.101E+04   0.144E+00 -.781E+01 -.101E+04   0.227E-01 0.720E-01 -.310E+00   0.206E-01 0.579E-01 0.153E+00
   -.593E+01 0.348E+01 0.998E+03   0.566E+01 -.335E+01 -.997E+03   0.327E+00 -.153E+00 -.590E+00   -.795E-01 0.388E-01 0.945E-01
   0.654E+01 -.400E+01 0.101E+04   -.671E+01 0.406E+01 -.101E+04   0.668E-01 -.180E-01 -.301E+00   0.593E-01 -.108E-01 0.157E+00
   -.658E+01 -.381E+01 0.101E+04   0.677E+01 0.392E+01 -.101E+04   -.101E+00 -.594E-01 -.359E+00   -.558E-01 -.331E-01 0.990E-01
   0.158E+00 0.254E+01 0.100E+04   -.573E-01 -.262E+01 -.999E+03   -.659E-01 -.742E-02 -.483E+00   -.339E-01 0.504E-01 0.863E-01
   0.719E-01 -.684E+01 0.998E+03   -.855E-01 0.655E+01 -.997E+03   0.295E-01 0.352E+00 -.591E+00   -.840E-02 -.915E-01 0.967E-01
   0.229E+01 -.111E+01 0.100E+04   -.231E+01 0.123E+01 -.999E+03   -.372E-01 -.468E-01 -.489E+00   0.299E-01 -.525E-01 0.823E-01
   -.231E+01 -.131E+01 0.100E+04   0.239E+01 0.135E+01 -.999E+03   -.297E-01 -.132E-01 -.479E+00   -.312E-01 -.169E-01 0.995E-01
   0.972E+00 0.363E+01 -.851E+03   -.106E+01 -.393E+01 0.849E+03   0.724E-01 0.116E+00 0.628E+00   0.325E-01 0.159E+00 0.703E+00
   0.423E+02 0.242E+02 -.782E+03   -.419E+02 -.239E+02 0.781E+03   -.910E+00 -.536E+00 -.628E+00   0.437E+00 0.254E+00 0.130E+01
   -.435E+02 0.250E+02 -.783E+03   0.430E+02 -.248E+02 0.783E+03   0.958E+00 -.500E+00 -.632E+00   -.492E+00 0.271E+00 0.128E+01
   0.150E+02 -.949E+01 -.833E+03   -.154E+02 0.979E+01 0.832E+03   0.333E+00 -.207E+00 0.558E+00   0.169E+00 -.118E+00 0.745E+00
   0.140E+00 -.502E+02 -.784E+03   -.176E+00 0.497E+02 0.783E+03   0.461E-01 0.109E+01 -.637E+00   -.138E-01 -.556E+00 0.129E+01
   -.151E+02 -.871E+01 -.834E+03   0.155E+02 0.892E+01 0.832E+03   -.293E+00 -.167E+00 0.635E+00   -.132E+00 -.769E-01 0.787E+00
   -.309E+01 -.161E+01 -.852E+03   0.329E+01 0.173E+01 0.851E+03   -.742E-01 -.413E-01 0.653E+00   -.110E+00 -.678E-01 0.662E+00
   0.383E+01 -.889E+00 -.851E+03   -.412E+01 0.970E+00 0.849E+03   0.140E+00 -.458E-03 0.630E+00   0.140E+00 -.545E-01 0.706E+00
   -.781E+00 0.179E+02 -.833E+03   0.812E+00 -.185E+02 0.832E+03   -.107E-01 0.389E+00 0.560E+00   -.164E-01 0.201E+00 0.745E+00
   0.620E+01 0.371E+01 -.269E+04   -.633E+01 -.379E+01 0.269E+04   0.762E-01 0.411E-01 0.514E+00   0.508E-01 0.296E-01 0.658E+00
   0.546E+02 0.106E+03 -.263E+04   -.546E+02 -.106E+03 0.263E+04   -.385E+00 -.528E+00 0.918E+00   0.329E+00 0.600E+00 0.519E+00
   -.608E+02 0.947E+02 -.265E+04   0.610E+02 -.953E+02 0.265E+04   0.311E+00 -.342E+00 0.763E+00   -.367E+00 0.569E+00 0.528E+00
   0.117E+03 -.708E+01 -.263E+04   -.118E+03 0.717E+01 0.263E+04   -.654E+00 -.633E-01 0.869E+00   0.683E+00 -.977E-02 0.519E+00
   -.112E+03 0.214E+01 -.265E+04   0.113E+03 -.200E+01 0.265E+04   0.471E+00 -.155E+00 0.912E+00   -.686E+00 0.479E-01 0.522E+00
   0.514E+02 -.980E+02 -.265E+04   -.517E+02 0.984E+02 0.265E+04   -.140E+00 0.426E+00 0.765E+00   0.314E+00 -.612E+00 0.528E+00
   -.532E+02 -.978E+02 -.265E+04   0.536E+02 0.982E+02 0.265E+04   0.118E+00 0.509E+00 0.900E+00   -.309E+00 -.623E+00 0.520E+00
   0.184E+00 0.986E+00 -.270E+04   -.130E+00 -.956E+00 0.270E+04   -.336E-01 -.167E-01 0.422E+00   -.226E-01 -.162E-01 0.518E+00
   0.116E+02 0.501E+01 -.179E+04   -.122E+02 -.537E+01 0.179E+04   0.469E+00 0.290E+00 -.136E+01   0.355E-01 0.272E-01 0.739E+00
   -.137E+03 -.869E+02 -.174E+04   0.161E+03 0.102E+03 0.174E+04   -.239E+02 -.151E+02 -.228E+01   -.284E+00 -.167E+00 -.784E+00
   0.144E+03 0.883E+02 -.177E+04   -.180E+03 -.109E+03 0.176E+04   0.353E+02 0.202E+02 0.168E+02   0.307E+00 0.190E+00 -.468E+00
   -.299E+02 -.143E+02 -.343E+03   0.334E+02 0.161E+02 0.350E+03   -.357E+01 -.184E+01 -.711E+01   0.471E-02 0.514E-02 -.680E-01
   -.841E+01 -.367E+01 -.159E+02   -.284E-13 -.355E-13 -.170E-10   0.840E+01 0.364E+01 0.623E+01   0.836E-01 0.616E-01 0.100E+02

 POSITION                                       TOTAL-FORCE (eV/Angst)
      0.00000      0.00000      5.28038        -0.002947     -0.000905     -0.098010
      2.93784      0.00000      5.28038        -0.008699      0.019319     -0.039736
      5.87568      0.00000      5.28038         0.000460      0.001423     -0.044007
      1.46892      2.54424      5.28038         0.012128     -0.017081     -0.038843
      4.40676      2.54424      5.28038         0.003647      0.002153     -0.080964
      7.34459      2.54424      5.28038        -0.010534     -0.004241     -0.052066
      2.93784      5.08848      5.28038         0.001726      0.000021     -0.042205
      5.87568      5.08848      5.28038        -0.009619     -0.007041     -0.052030
      8.81351      5.08848      5.28038         0.002569      0.001763     -0.071370
      1.46892      0.84808      7.67911         0.027880      0.015672      0.094852
      4.40676      0.84808      7.67911         0.001494     -0.051643      0.027572
      7.34459      0.84808      7.67911        -0.019906      0.017185      0.119940
      2.93784      3.39232      7.67911        -0.045114      0.027223      0.028126
      5.87568      3.39232      7.67911         0.027625      0.016765      0.030612
      8.81351      3.39232      7.67911        -0.001258     -0.034794      0.072030
      4.40676      5.93656      7.67911         0.005644     -0.025402      0.118442
      7.34459      5.93656      7.67911        -0.031817      0.016818      0.071756
     10.28243      5.93656      7.67911         0.017350      0.010592      0.080665
      8.81351      1.69524     10.07173         0.013927     -0.023808     -0.023106
      2.95099      1.70376     10.05075        -0.021318     -0.010414     -0.109179
      5.86252      1.70376     10.05075        -0.020166      0.006313     -0.036901
     10.26977      4.24772     10.05674         0.053339     -0.028358     -0.003119
      4.40676      4.22522     10.05075        -0.005698     -0.016362     -0.044836
      7.35726      4.24772     10.05674        -0.063424     -0.037216      0.013802
     11.75215      6.78511     10.07173         0.015278      0.008077     -0.016557
      5.87488      6.78511     10.07173        -0.014287      0.024987     -0.023732
      8.81351      6.77002     10.05674         0.002280      0.059769     -0.002003
      0.00000      0.00000     12.47665        -0.012446     -0.007364     -0.034704
      2.97645      0.06424     12.45579        -0.095881     -0.202493     -0.093848
      5.83706      0.06424     12.45579         0.118057     -0.300793     -0.125044
      1.54386      2.54556     12.45579        -0.226857      0.016288     -0.095484
      7.26966      2.54556     12.45579         0.338038      0.034331     -0.152534
      2.97417      5.02293     12.45579        -0.197678      0.255233     -0.118064
      5.83935      5.02293     12.45579         0.195289      0.277117     -0.155955
      8.81351      5.08848     12.49078        -0.004018     -0.003051     -0.064899
      4.40676      2.54424     12.15093        -0.042579     -0.034709      1.027173
      4.66450      2.69373     13.89601        -0.022461     -0.009801     -0.020262
      3.67148      2.06686     14.83184         0.007460     -0.000218     -0.051476
      4.10995      2.29435     15.68079         0.012517      0.004641      0.005963
    total drift:                                0.073467      0.033592      0.318171

  FREE ENERGIE OF THE ION-ELECTRON SYSTEM (eV)
  free  energy   TOTEN  =      -126.95060276 eV

  energy  without entropy=     -126.95060276  energy(sigma->0) =     -126.95060276

 stress matrix after NEB project (eV)
    -22.75718      0.40597     -0.09159
      0.40597    -23.13415     -0.05051
     -0.09159     -0.05051     -0.33855
  FORCES: max atom, RMS     0.052015    0.010039
  FORCE total and by dimension    0.062693    0.051476
  Stress total and by dimension   32.458347   23.134152
|           W    W    AA    RRRRR   N    N  II  N    N   GGGG   !!!           |
|           W    W   A  A   R    R  NN   N  II  NN   N  G    G  !!!           |
|           W    W  A    A  R    R  N N  N  II  N N  N  G       !!!           |
|           W WW W  AAAAAA  RRRRR   N  N N  II  N  N N  G  GGG   !            |
|           WW  WW  A    A  R   R   N   NN  II  N   NN  G    G                |
|           W    W  A    A  R    R  N    N  II  N    N   GGGG   !!!           |
|     Tetrahedron method does not include variations of the Fermi             |
|     occupations, so forces and stress will be inaccurate. We suggest        |
|     using a different smearing scheme ISMEAR = 1 or 2 for metals in         |
|     relaxations.                                                            |

 total charge

# of ion       s       p       d       tot
    1        0.545   0.239   8.768   9.553
    2        0.544   0.241   8.763   9.549
    3        0.544   0.241   8.764   9.549
    4        0.544   0.242   8.763   9.549
    5        0.543   0.242   8.762   9.546
    6        0.545   0.241   8.764   9.550
    7        0.544   0.241   8.764   9.549
    8        0.545   0.241   8.764   9.550
    9        0.541   0.241   8.768   9.549
   10        0.521   0.307   8.773   9.602
   11        0.520   0.309   8.777   9.606
   12        0.520   0.309   8.770   9.599
   13        0.520   0.309   8.777   9.606
   14        0.519   0.309   8.777   9.606
   15        0.517   0.309   8.776   9.602
   16        0.521   0.309   8.770   9.600
   17        0.517   0.309   8.776   9.602
   18        0.516   0.310   8.776   9.601
   19        0.516   0.303   8.775   9.594
   20        0.541   0.329   8.756   9.626
   21        0.542   0.331   8.754   9.626
   22        0.512   0.310   8.776   9.598
   23        0.542   0.330   8.754   9.626
   24        0.511   0.311   8.774   9.597
   25        0.517   0.302   8.776   9.595
   26        0.516   0.303   8.775   9.594
   27        0.512   0.310   8.775   9.598
   28        0.541   0.225   8.771   9.536
   29        0.546   0.232   8.766   9.544
   30        0.541   0.233   8.772   9.546
   31        0.547   0.232   8.766   9.545
   32        0.545   0.232   8.770   9.547
   33        0.541   0.233   8.772   9.545
   34        0.546   0.232   8.770   9.547
   35        0.535   0.225   8.769   9.529
   36        0.377   0.403   7.282   8.062
   37        1.604   3.230   0.000   4.835
   38        1.595   3.370   0.000   4.965
   39        0.618   0.113   0.000   0.730
tot         22.810  16.739 314.207 353.756

 BZINTS: Fermi energy:    0.034628;  407.000000 electrons
         Band energy:-0.155100E+04;  BLOECHL correction:   -0.057352