 vasp.6.2.0 18Jan21 (build Jun 12 2021 23:27:24) complex

 executed on             LinuxIFC date 2022.05.26  20:25:39

 INCAR:
   ISMEAR = -5
   SIGMA = 0.1
   ISPIN = 1
   EDIFF = 1.d-5
   EDIFFG = -0.01
   NSW = 0
   NELM = 150
   ENCUT = 500
   ISIF = 2
   IBRION = 2
   LREAL = Auto
   ALGO = Fast
   ICHARG = 11
   LORBIT = 10
   LCHARG = .F.
   LWAVE = .F.

 POTCAR:    PAW_PBE Cu 22Jun2005
 POTCAR:    PAW_PBE Co 02Aug2007
|           W    W    AA    RRRRR   N    N  II  N    N   GGGG   !!!           |
|           W    W   A  A   R    R  NN   N  II  NN   N  G    G  !!!           |
|           W    W  A    A  R    R  N N  N  II  N N  N  G       !!!           |
|           W WW W  AAAAAA  RRRRR   N  N N  II  N  N N  G  GGG   !            |
|           WW  WW  A    A  R   R   N   NN  II  N   NN  G    G                |
|           W    W  A    A  R    R  N    N  II  N    N   GGGG   !!!           |
|     For optimal performance we recommend to set                             |
|       NCORE = 2 up to number-of-cores-per-socket                            |
|     This setting can greatly improve the performance of VASP for DFT.       |
|     The default, NCORE=1 might be grossly inefficient on modern             |
|     multi-core architectures or massively parallel machines. Do your        |
|     Unfortunately you need to use the default for GW and RPA                |
|     calculations (for HF NCORE is supported but not extensively tested      |
|     yet).                                                                   |

 POTCAR:    PAW_PBE Cu 22Jun2005
   VRHFIN =Cu: d10 p1

   TITEL  = PAW_PBE Cu 22Jun2005
   POMASS =   63.546; ZVAL   =   11.000    mass and valenz
   ENMAX  =  295.446; ENMIN  =  221.585 eV

 POTCAR:    PAW_PBE Co 02Aug2007
   VRHFIN =Co: d8 s1

   TITEL  = PAW_PBE Co 02Aug2007
   POMASS =   58.933; ZVAL   =    9.000    mass and valenz
   ENMAX  =  267.968; ENMIN  =  200.976 eV

 Optimization of the real space projectors (new method)

 maximal supplied QI-value         = 16.25
 optimisation between [QCUT,QGAM] = [ 11.38, 22.75] = [ 36.24,144.96] Ry
 Optimized for a Real-space Cutoff    1.52 Angstroem

   l    n(q)    QCUT    max X(q) W(low)/X(q) W(high)/X(q)  e(spline)
   2      9    11.376     4.610    0.21E-03    0.10E-03    0.26E-06
   2      9    11.376     8.522    0.33E-03    0.16E-03    0.37E-06
   0     10    11.376    51.609    0.62E-04    0.20E-04    0.13E-06
   0     10    11.376    27.747    0.54E-04    0.20E-04    0.13E-06
   1     10    11.376    20.408    0.13E-04    0.99E-04    0.19E-06
   1     10    11.376    13.425    0.12E-04    0.87E-04    0.17E-06
 Optimization of the real space projectors (new method)

 maximal supplied QI-value         = 16.25
 optimisation between [QCUT,QGAM] = [ 11.38, 22.75] = [ 36.24,144.96] Ry
 Optimized for a Real-space Cutoff    1.39 Angstroem

   l    n(q)    QCUT    max X(q) W(low)/X(q) W(high)/X(q)  e(spline)
   2      8    11.376    65.824    0.20E-03    0.32E-04    0.13E-06
   2      8    11.376    61.429    0.20E-03    0.33E-04    0.14E-06
   0      9    11.376    56.174    0.76E-04    0.11E-03    0.19E-06
   0      9    11.376    31.263    0.69E-04    0.99E-04    0.17E-06
   1      9    11.376    19.828    0.35E-03    0.11E-03    0.12E-06
   1      9    11.376    15.139    0.29E-03    0.94E-04    0.10E-06
  PAW_PBE Cu 22Jun2005                  :
  PAW_PBE Co 02Aug2007                  :

 POSCAR: Cu-Co
  positions in direct lattice
  velocities in cartesian coordinates
 exchange correlation table for  LEXCH =        8
   RHO(1)=    0.500       N(1)  =     2000
   RHO(2)=  100.500       N(2)  =     4000

 VTST: version 3.2, (02/03/18)

 CHAIN: initializing optimizer

 OPT: Using VASP Conjugate-Gradient optimizer
 CHAIN: Read ICHAIN            0

 POSCAR: Cu-Co
  positions in direct lattice
  velocities in cartesian coordinates

 ion  position               nearest neighbor table
   1  0.000  0.000  0.252-   7 2.57   3 2.57   4 2.57   2 2.57   6 2.57   8 2.57  12 2.57  10 2.57
                            16 2.57
   2  0.333  0.000  0.252-   8 2.57   9 2.57   5 2.57   1 2.57   3 2.57  11 2.57   4 2.57  10 2.57
                            17 2.57
   3  0.667  0.000  0.252-   1 2.57   7 2.57   6 2.57   9 2.57   2 2.57  12 2.57   5 2.57  18 2.57
                            11 2.57
   4  0.000  0.333  0.252-   5 2.57   6 2.57   1 2.57   7 2.57   2 2.57  13 2.57   9 2.57  10 2.57
                            15 2.57
   5  0.333  0.333  0.252-   4 2.57   2 2.57   7 2.57  13 2.57   8 2.57   6 2.57   3 2.57  11 2.57
                            14 2.57
   6  0.667  0.333  0.252-   4 2.57   9 2.57  15 2.57   3 2.57   1 2.57   8 2.57  14 2.57   5 2.57
                            12 2.57
   7  0.000  0.667  0.252-   1 2.57   3 2.57  16 2.57  18 2.57   4 2.57   5 2.57   8 2.57   9 2.57
                            13 2.57
   8  0.333  0.667  0.252-   9 2.57   2 2.57  17 2.57   6 2.57   1 2.57   7 2.57   5 2.57  14 2.57
                            16 2.57
   9  0.667  0.667  0.252-   8 2.57   6 2.57   2 2.57  17 2.57   3 2.57   7 2.57   4 2.57  15 2.57
                            18 2.57
  10  0.111  0.111  0.351-  20 2.55  26 2.56  19 2.56  11 2.57  12 2.57  13 2.57   1 2.57   2 2.57
                             4 2.57  15 2.57  16 2.57  17 2.57
  11  0.444  0.111  0.351-  20 2.55  21 2.55  27 2.56  10 2.57  13 2.57   2 2.57  17 2.57  14 2.57
                            12 2.57   5 2.57   3 2.57  18 2.57
  12  0.778  0.111  0.351-  21 2.55  19 2.56  25 2.56  15 2.57  10 2.57  14 2.57  18 2.57   3 2.57
                             1 2.57  16 2.57  11 2.57   6 2.57
  13  0.111  0.444  0.351-  23 2.55  20 2.55  22 2.56  16 2.57  18 2.57  10 2.57  11 2.57  14 2.57
                             5 2.57   4 2.57   7 2.57  15 2.57
  14  0.444  0.444  0.351-  21 2.55  23 2.55  24 2.56  15 2.57  17 2.57  12 2.57  16 2.57  13 2.57
                            11 2.57   6 2.57   8 2.57   5 2.57
  15  0.778  0.444  0.351-  24 2.56  22 2.56  19 2.56  14 2.57  17 2.57  12 2.57   6 2.57  18 2.57
                            10 2.57   9 2.57  13 2.57   4 2.57
  16  0.111  0.778  0.351-  23 2.55  25 2.56  26 2.56  18 2.57  13 2.57   7 2.57  14 2.57  17 2.57
                            12 2.57  10 2.57   8 2.57   1 2.57
  17  0.444  0.778  0.351-  27 2.56  24 2.56  26 2.56  14 2.57  15 2.57   8 2.57   9 2.57  11 2.57
                            16 2.57  18 2.57  10 2.57   2 2.57
  18  0.778  0.778  0.351-  22 2.56  27 2.56  25 2.56  16 2.57  13 2.57   7 2.57  15 2.57  12 2.57
                            17 2.57   9 2.57   3 2.57  11 2.57
  19  0.889  0.223  0.449-  28 2.54  32 2.56  31 2.56  15 2.56  12 2.56  10 2.56  22 2.56  24 2.56
                            21 2.57  20 2.57  25 2.57  26 2.57
  20  0.222  0.222  0.448-  36 2.46  29 2.55  31 2.55  11 2.55  13 2.55  10 2.55  23 2.56  21 2.56
                            26 2.57  19 2.57  27 2.57  22 2.57
  21  0.555  0.222  0.448-  36 2.46  32 2.55  30 2.55  14 2.55  11 2.55  12 2.55  20 2.56  23 2.56
                            19 2.57  25 2.57  24 2.57  27 2.57
  22  0.889  0.556  0.449-  35 2.54  31 2.55  33 2.55  18 2.56  15 2.56  13 2.56  24 2.56  27 2.56
                            19 2.56  25 2.56  23 2.57  20 2.57
  23  0.222  0.555  0.448-  36 2.46  33 2.55  34 2.55  13 2.55  14 2.55  16 2.55  20 2.56  21 2.56
                            25 2.57  26 2.57  22 2.57  24 2.57
  24  0.556  0.556  0.449-  35 2.54  32 2.55  34 2.55  15 2.56  17 2.56  14 2.56  22 2.56  27 2.56
                            19 2.56  26 2.56  21 2.57  23 2.57
  25  0.889  0.889  0.449-  28 2.54  33 2.56  30 2.56  18 2.56  16 2.56  12 2.56  22 2.56  27 2.56
                            21 2.57  23 2.57  19 2.57  26 2.57
  26  0.223  0.889  0.449-  28 2.54  29 2.56  34 2.56  17 2.56  10 2.56  16 2.56  27 2.56  24 2.56
                            20 2.57  23 2.57  25 2.57  19 2.57
  27  0.556  0.889  0.449-  35 2.54  29 2.55  30 2.55  17 2.56  18 2.56  11 2.56  24 2.56  22 2.56
                            26 2.56  25 2.56  20 2.57  21 2.57
  28  0.000  0.000  0.546-  25 2.54  19 2.54  26 2.54  33 2.58  30 2.58  31 2.58  29 2.58  32 2.58
                            34 2.58
  29  0.333  0.003  0.546-  31 2.54  36 2.54  30 2.55  20 2.55  27 2.55  26 2.56  28 2.58  35 2.58
                            34 2.61
  30  0.664  0.003  0.546-  32 2.54  36 2.54  29 2.55  21 2.55  27 2.55  25 2.56  28 2.58  35 2.58
                            33 2.61
  31  0.003  0.333  0.546-  29 2.54  36 2.54  33 2.55  20 2.55  22 2.55  19 2.56  28 2.58  35 2.58
                            32 2.61
  32  0.664  0.333  0.546-  30 2.54  36 2.54  34 2.55  21 2.55  24 2.55  19 2.56  28 2.58  35 2.58
                            31 2.61
  33  0.003  0.664  0.546-  34 2.54  36 2.54  31 2.55  23 2.55  22 2.55  25 2.56  28 2.58  35 2.58
                            30 2.61
  34  0.333  0.664  0.546-  33 2.54  36 2.54  32 2.55  23 2.55  24 2.55  26 2.56  28 2.58  35 2.58
                            29 2.61
  35  0.667  0.667  0.546-  24 2.54  27 2.54  22 2.54  34 2.58  32 2.58  29 2.58  30 2.58  33 2.58
                            31 2.58
  36  0.333  0.333  0.541-  23 2.46  20 2.46  21 2.46  31 2.54  29 2.54  33 2.54  34 2.54  32 2.54
                            30 2.54

  LATTYP: Found a hexagonal cell.
 ALAT       =     7.6967864036
 C/A-ratio  =     2.7653617908

  Lattice vectors:

 A1 = (  -3.8483927580,  -6.6656128093,   0.0000000000)
 A2 = (   7.6967864037,   0.0000000000,   0.0000000000)
 A3 = (   0.0000000000,   0.0000000000,  21.2843990326)

Analysis of symmetry for initial positions (statically):
 Subroutine PRICEL returns:
 Original cell was already a primitive cell.

 Routine SETGRP: Setting up the symmetry group for a
 hexagonal supercell.

 Subroutine GETGRP returns: Found  6 space group operations
 (whereof  6 operations were pure point group operations)
 out of a pool of 24 trial point group operations.

The static configuration has the point symmetry C_3v.

Analysis of symmetry for dynamics (positions and initial velocities):
 Subroutine PRICEL returns:
 Original cell was already a primitive cell.

[...]

The dynamic configuration has the point symmetry C_3v.

Analysis of constrained symmetry for selective dynamics:
 Subroutine PRICEL returns:
 Original cell was already a primitive cell.

 Routine SETGRP: Setting up the symmetry group for a
 hexagonal supercell.

 Subroutine GETGRP returns: Found  6 space group operations
 (whereof  6 operations were pure point group operations)
 out of a pool of 24 trial point group operations.

The constrained configuration has the point symmetry C_3v.

 Subroutine INISYM returns: Found  6 space group operations
 (whereof  6 operations are pure point group operations),
 and found     1 'primitive' translations

                                     Primitive cell

  volume of cell :    1091.9705

  direct lattice vectors                    reciprocal lattice vectors
     7.696786404  0.000000000  0.000000000     0.129924354 -0.075011849  0.000000000
     3.848392758  6.665612809  0.000000000     0.000000000  0.150023716  0.000000000
[...]
     15      -4.4754      2.00000
     16      -4.4697      2.00000
     17      -4.4661      2.00000
     18      -4.3888      2.00000
     19      -4.3817      2.00000
     20      -4.3105      2.00000
     21      -4.3011      2.00000
     22      -4.2951      2.00000
     23      -4.2775      2.00000
     24      -4.0910      2.00000
     25      -4.0788      2.00000
     26      -4.0287      2.00000
     27      -4.0219      2.00000
     28      -4.0168      2.00000
     29      -4.0026      2.00000
     30      -4.0007      2.00000
     31      -3.9826      2.00000
     32      -3.9201      2.00000
     33      -3.9141      2.00000
     34      -3.8897      2.00000
     35      -3.7968      2.00000
     36      -3.7844      2.00000
     37      -3.6991      2.00000
     38      -3.6959      2.00000
     39      -3.6163      2.00000
     40      -3.6086      2.00000
     41      -3.5887      2.00000
     42      -3.5701      2.00000
     43      -3.5677      2.00000
     44      -3.5409      2.00000
     45      -3.5262      2.00000
     46      -3.3643      2.00000
     47      -3.3439      2.00000
     48      -3.3422      2.00000
     49      -3.3343      2.00000
     50      -3.2837      2.00000
     51      -3.2757      2.00000
     52      -3.2653      2.00000
     53      -3.2393      2.00000
     54      -3.2331      2.00000
     55      -3.2034      2.00000
     56      -3.2030      2.00000
     57      -3.1991      2.00000
     58      -3.1878      2.00000
     59      -3.1772      2.00000
     60      -3.1652      2.00000
[...]
    238       6.8427      0.00000
    239       6.8512      0.00000
    240       7.0208      0.00000
    241       7.0634      0.00000
    242       7.2644      0.00000
    243       7.2948      0.00000
    244       7.3315      0.00000
    245       7.4191      0.00000
    246       7.6002      0.00000
    247       7.6953      0.00000
    248       7.9135      0.00000
    249       7.9577      0.00000
    250       8.1746      0.00000
    251       8.2209      0.00000
    252       8.4292      0.00000

 soft charge-density along one line, spin component           1
         0         1         2         3         4         5         6         7         8         9
 total charge-density along one line

------------------------ aborting loop because EDIFF is reached ----------------------------------------

 total charge

# of ion       s       p       d       tot
    1        0.448   0.286   9.189   9.922
    2        0.449   0.285   9.187   9.921
    3        0.449   0.285   9.187   9.921
    4        0.449   0.285   9.187   9.921
    5        0.445   0.288   9.182   9.915
    6        0.449   0.285   9.187   9.921
    7        0.449   0.285   9.187   9.921
    8        0.449   0.285   9.187   9.921
    9        0.449   0.283   9.189   9.921
   10        0.441   0.373   9.174   9.989
   11        0.443   0.366   9.184   9.994
   12        0.441   0.373   9.174   9.989
   13        0.443   0.366   9.184   9.994
   14        0.443   0.366   9.184   9.994
   15        0.440   0.370   9.180   9.989
   16        0.441   0.373   9.174   9.989
   17        0.440   0.370   9.180   9.989
   18        0.440   0.370   9.180   9.989
   19        0.441   0.371   9.182   9.994
   20        0.450   0.387   9.172  10.009
   21        0.450   0.387   9.172  10.009
   22        0.437   0.375   9.181   9.994
   23        0.450   0.387   9.172  10.009
   24        0.437   0.375   9.181   9.994
   25        0.441   0.371   9.182   9.994
   26        0.441   0.371   9.182   9.994
   27        0.437   0.375   9.181   9.994
   28        0.447   0.284   9.191   9.922
   29        0.453   0.293   9.180   9.927
   30        0.453   0.293   9.180   9.927
   31        0.453   0.293   9.180   9.927
   32        0.453   0.293   9.180   9.927
   33        0.453   0.293   9.180   9.927
   34        0.453   0.293   9.180   9.927
   35        0.443   0.286   9.191   9.920
   36        0.423   0.303   7.334   8.059
tot         16.027  11.923 328.703 356.654

  FORCE on cell =-STRESS in cart. coord.  units (eV):
  Direction    XX          YY          ZZ          XY          YZ          ZX
  Alpha Z   856.58236   856.58236   856.58236
  Ewald  174364.72139174364.72097************     0.00039     0.00010     0.00016
  Hartree187380.30415187380.30412************     0.00004     0.00004     0.00007
  E(xc)   -2292.28282 -2292.28234 -2296.99619    -0.00042    -0.00003    -0.00006
  Local  ************************375094.63994     0.01837    -0.00054    -0.00091
  n-local  -772.23619  -758.06574  -779.51615     7.65928    -0.01497     0.18122
  augment  3463.39567  3463.41556  3481.76201    -0.01723     0.00026     0.00043
  Kinetic  3200.91005  3206.49651  3230.52086     4.10086     1.44020    -1.02369
  Fock        0.00000     0.00000     0.00000     0.00000     0.00000     0.00000
  Total      -7.88719    -7.88719     0.94493     0.00000     0.00000    -0.00000
  in kB     -11.57236   -11.57236     1.38644     0.00000     0.00000    -0.00000

 VOLUME and BASIS-vectors are now :
  energy-cutoff  :      500.00
  volume of cell :     1091.97
      direct lattice vectors                 reciprocal lattice vectors
     7.696786404  0.000000000  0.000000000     0.129924354 -0.075011849  0.000000000
     3.848392758  6.665612809  0.000000000     0.000000000  0.150023716  0.000000000
     0.000000000  0.000000000 21.284399033     0.000000000  0.000000000  0.046982769

  length of vectors
     7.696786404  7.696786404 21.284399033     0.150023716  0.150023716  0.046982769

 FORCES acting on ions
    electron-ion (+dipol)            ewald-force                    non-local-force                 convergence-correction
   -.415E-04 0.208E-06 0.347E+04   0.579E-04 -.441E-05 -.347E+04   0.195E-17 0.136E-17 -.258E+01   -.280E-03 -.129E-03 -.361E+00
   0.317E-01 0.268E+00 0.347E+04   -.163E+00 -.151E+00 -.347E+04   0.252E-01 -.655E-01 -.190E+01   0.106E+00 -.440E-01 -.242E+00
   -.317E-01 0.268E+00 0.347E+04   0.163E+00 -.151E+00 -.347E+04   -.252E-01 -.655E-01 -.190E+01   -.105E+00 -.416E-01 -.242E+00
   0.248E+00 -.107E+00 0.347E+04   -.213E+00 -.657E-01 -.347E+04   -.441E-01 0.546E-01 -.190E+01   0.150E-01 0.114E+00 -.242E+00
   -.620E-04 -.348E-05 0.347E+04   0.116E-03 -.101E-04 -.347E+04   -.316E-17 0.798E-19 -.186E+01   0.121E-01 0.740E-02 -.194E+00
   -.248E+00 -.107E+00 0.347E+04   0.212E+00 -.658E-01 -.347E+04   0.441E-01 0.546E-01 -.190E+01   -.166E-01 0.115E+00 -.241E+00
   0.216E+00 -.162E+00 0.347E+04   -.494E-01 0.217E+00 -.347E+04   -.693E-01 0.109E-01 -.190E+01   -.887E-01 -.706E-01 -.241E+00
   -.216E+00 -.162E+00 0.347E+04   0.491E-01 0.217E+00 -.347E+04   0.693E-01 0.109E-01 -.190E+01   0.921E-01 -.719E-01 -.241E+00
   -.144E-03 -.330E-04 0.347E+04   0.263E-03 0.206E-04 -.347E+04   -.467E-17 0.203E-18 -.219E+01   -.132E-01 -.680E-02 -.298E+00
   0.205E+01 0.118E+01 0.115E+04   -.197E+01 -.114E+01 -.115E+04   -.203E+00 -.117E+00 -.969E+00   0.144E+00 0.830E-01 0.203E+00
   -.903E-04 0.155E+01 0.115E+04   0.189E-03 -.180E+01 -.115E+04   -.592E-08 0.889E-01 -.537E+00   0.115E-01 0.139E+00 0.281E+00
   -.205E+01 0.118E+01 0.115E+04   0.197E+01 -.114E+01 -.115E+04   0.203E+00 -.117E+00 -.969E+00   -.145E+00 0.840E-01 0.202E+00
   0.134E+01 -.773E+00 0.115E+04   -.156E+01 0.899E+00 -.115E+04   0.770E-01 -.445E-01 -.537E+00   0.127E+00 -.588E-01 0.281E+00
   -.134E+01 -.773E+00 0.115E+04   0.156E+01 0.899E+00 -.115E+04   -.770E-01 -.445E-01 -.537E+00   -.103E+00 -.599E-01 0.279E+00
   -.143E-03 0.358E+00 0.115E+04   0.299E-03 -.569E+00 -.115E+04   -.852E-08 0.128E+00 -.810E+00   -.319E-02 0.718E-01 0.127E+00
   -.914E-04 -.237E+01 0.115E+04   0.186E-03 0.228E+01 -.115E+04   -.156E-07 0.235E+00 -.969E+00   -.760E-03 -.169E+00 0.202E+00
   0.310E+00 -.179E+00 0.115E+04   -.492E+00 0.285E+00 -.115E+04   0.111E+00 -.639E-01 -.810E+00   0.613E-01 -.387E-01 0.127E+00
   -.310E+00 -.179E+00 0.115E+04   0.492E+00 0.284E+00 -.115E+04   -.111E+00 -.639E-01 -.810E+00   -.602E-01 -.365E-01 0.128E+00
   -.576E-04 0.365E+00 -.120E+04   0.683E-04 -.368E+00 0.120E+04   0.426E-08 -.639E-01 0.582E+00   0.113E-01 0.706E-01 0.443E+00
   -.249E+01 -.144E+01 -.119E+04   0.264E+01 0.152E+01 0.119E+04   -.622E+00 -.359E+00 -.581E+00   0.461E+00 0.266E+00 0.892E+00
   0.249E+01 -.144E+01 -.119E+04   -.264E+01 0.152E+01 0.119E+04   0.622E+00 -.359E+00 -.581E+00   -.462E+00 0.266E+00 0.892E+00
   -.430E+01 0.248E+01 -.120E+04   0.357E+01 -.206E+01 0.120E+04   0.383E+00 -.221E+00 0.560E+00   0.346E+00 -.189E+00 0.394E+00
   -.786E-04 0.287E+01 -.119E+04   0.143E-03 -.305E+01 0.119E+04   -.478E-07 0.719E+00 -.581E+00   -.197E-02 -.534E+00 0.892E+00
   0.430E+01 0.248E+01 -.120E+04   -.357E+01 -.206E+01 0.120E+04   -.383E+00 -.221E+00 0.560E+00   -.324E+00 -.188E+00 0.394E+00
   -.316E+00 -.182E+00 -.120E+04   0.319E+00 0.184E+00 0.120E+04   0.553E-01 0.320E-01 0.582E+00   -.459E-01 -.265E-01 0.443E+00
   0.316E+00 -.182E+00 -.120E+04   -.319E+00 0.184E+00 0.120E+04   -.553E-01 0.320E-01 0.582E+00   0.672E-01 -.253E-01 0.443E+00
   -.128E-03 -.496E+01 -.120E+04   0.242E-03 0.412E+01 0.120E+04   -.294E-07 0.442E+00 0.560E+00   0.936E-02 0.393E+00 0.394E+00
   -.324E-04 0.172E-04 -.350E+04   0.383E-04 -.338E-04 0.349E+04   0.149E-16 -.169E-17 0.235E+01   0.990E-04 0.109E-03 0.605E+00
   -.817E+01 -.123E+02 -.351E+04   0.843E+01 0.125E+02 0.351E+04   -.576E+00 -.757E+00 0.195E+01   0.304E+00 0.606E+00 0.494E+00
   0.817E+01 -.123E+02 -.351E+04   -.843E+01 0.125E+02 0.351E+04   0.576E+00 -.757E+00 0.195E+01   -.304E+00 0.608E+00 0.494E+00
   -.148E+02 -.912E+00 -.351E+04   0.150E+02 0.107E+01 0.351E+04   -.943E+00 -.120E+00 0.195E+01   0.677E+00 -.395E-01 0.494E+00
   0.148E+02 -.912E+00 -.351E+04   -.150E+02 0.107E+01 0.351E+04   0.943E+00 -.120E+00 0.195E+01   -.678E+00 -.384E-01 0.495E+00
   -.659E+01 0.132E+02 -.351E+04   0.658E+01 -.135E+02 0.351E+04   -.367E+00 0.877E+00 0.195E+01   0.374E+00 -.567E+00 0.494E+00
   0.659E+01 0.132E+02 -.351E+04   -.658E+01 -.135E+02 0.351E+04   0.367E+00 0.877E+00 0.195E+01   -.371E+00 -.568E+00 0.495E+00
   -.124E-03 -.171E-04 -.350E+04   0.252E-03 0.580E-05 0.350E+04   -.201E-18 -.112E-17 0.257E+01   -.128E-01 -.657E-02 0.583E+00
   -.617E-04 -.241E-05 -.281E+04   0.119E-03 0.211E-04 0.281E+04   0.135E-17 -.931E-19 0.222E+01   0.473E-02 0.289E-02 0.498E+00
   -.229E-03 0.117E-04 -.493E+01   0.684E-13 0.469E-12 -.546E-11   0.115E-17 0.110E-15 -.449E+01   0.875E-01 0.476E-01 0.937E+01

 POSITION                                       TOTAL-FORCE (eV/Angst)
      0.00000      0.00000      5.37156        -0.000000     -0.000000      0.067532
      2.56560      0.00000      5.37156         0.000370      0.008435      0.066185
      5.13119      0.00000      5.37156        -0.000370      0.008435      0.066185
      1.28280      2.22187      5.37156         0.007490     -0.003898      0.066185
      3.84839      2.22187      5.37156        -0.000000     -0.000000      0.047386
      6.41399      2.22187      5.37156        -0.007490     -0.003898      0.066185
      2.56560      4.44374      5.37156         0.007121     -0.004538      0.066185
      5.13119      4.44374      5.37156        -0.007121     -0.004538      0.066185
      7.69679      4.44374      5.37156        -0.000000      0.000000      0.042958
      1.28280      0.74062      7.46636         0.019555      0.011290     -0.062053
      3.84839      0.74062      7.46636         0.000000     -0.029293     -0.101051
      6.41399      0.74062      7.46636        -0.019555      0.011290     -0.062053
      2.56560      2.96249      7.46636        -0.025368      0.014646     -0.101051
      5.13119      2.96249      7.46636         0.025368      0.014646     -0.101051
      7.69679      2.96249      7.46636         0.000000     -0.011433     -0.030479
      3.84839      5.18437      7.46636         0.000000     -0.022580     -0.062053
      6.41399      5.18437      7.46636        -0.009901      0.005717     -0.030479
      8.97958      5.18437      7.46636         0.009901      0.005717     -0.030479
      7.69679      1.48420      9.55496         0.000000     -0.002354     -0.006413
      2.56664      1.48185      9.54157        -0.004674     -0.002699     -0.012976
      5.13014      1.48185      9.54157         0.004674     -0.002699     -0.012976
      8.97778      3.70416      9.55304        -0.011552      0.006669     -0.005009
      3.84839      3.70191      9.54157        -0.000000      0.005397     -0.012976
      6.41579      3.70416      9.55304         0.011552      0.006669     -0.005009
     10.25982      5.92351      9.55496         0.002038      0.001177     -0.006413
      5.13375      5.92351      9.55496        -0.002038      0.001177     -0.006413
      7.69679      5.92291      9.55304         0.000000     -0.013339     -0.005009
      0.00000      0.00000     11.62172        -0.000000     -0.000000      0.027537
      2.57582      0.02145     11.62841        -0.007947     -0.010375      0.009978
      5.12097      0.02145     11.62841         0.007947     -0.010375      0.009978
      1.30649      2.22000     11.62841        -0.012958     -0.001695      0.009978
      6.39030      2.22000     11.62841         0.012958     -0.001695      0.009978
      2.57906      4.42416     11.62841        -0.005011      0.012069      0.009978
      5.11773      4.42416     11.62841         0.005011      0.012069      0.009978
      7.69679      4.44374     11.62071         0.000000      0.000000      0.011560
      3.84839      2.22187     11.51210        -0.000000     -0.000000     -0.000005
    total drift:                                0.087320      0.047600     -0.048215

  FREE ENERGIE OF THE ION-ELECTRON SYSTEM (eV)
  free  energy   TOTEN  =      -128.14037475 eV

  energy  without entropy=     -128.14037475  energy(sigma->0) =     -128.14037475

 stress matrix after NEB project (eV)
     -7.88719      0.00000     -0.00000
      0.00000     -7.88719     -0.00000
      0.00000      0.00000      0.94493
  FORCES: max atom, RMS     0.027537    0.010349
  FORCE total and by dimension    0.062093    0.027537
  Stress total and by dimension   11.194126    7.887191
|           W    W    AA    RRRRR   N    N  II  N    N   GGGG   !!!           |
|           W    W   A  A   R    R  NN   N  II  NN   N  G    G  !!!           |
|           W    W  A    A  R    R  N N  N  II  N N  N  G       !!!           |
|           W WW W  AAAAAA  RRRRR   N  N N  II  N  N N  G  GGG   !            |
|           WW  WW  A    A  R   R   N   NN  II  N   NN  G    G                |
|           W    W  A    A  R    R  N    N  II  N    N   GGGG   !!!           |
|     Tetrahedron method does not include variations of the Fermi             |
|     occupations, so forces and stress will be inaccurate. We suggest        |
|     using a different smearing scheme ISMEAR = 1 or 2 for metals in         |
|     relaxations.                                                            |

 total charge

# of ion       s       p       d       tot
    1        0.448   0.286   9.189   9.922
    2        0.449   0.285   9.187   9.921
    3        0.449   0.285   9.187   9.921
    4        0.449   0.285   9.187   9.921
    5        0.445   0.288   9.182   9.915
    6        0.449   0.285   9.187   9.921
    7        0.449   0.285   9.187   9.921
    8        0.449   0.285   9.187   9.921
    9        0.449   0.283   9.189   9.921
   10        0.441   0.373   9.174   9.989
   11        0.443   0.366   9.184   9.994
   12        0.441   0.373   9.174   9.989
   13        0.443   0.366   9.184   9.994
   14        0.443   0.366   9.184   9.994
   15        0.440   0.370   9.180   9.989
   16        0.441   0.373   9.174   9.989
   17        0.440   0.370   9.180   9.989
   18        0.440   0.370   9.180   9.989
   19        0.441   0.371   9.182   9.994
   20        0.450   0.387   9.172  10.009
   21        0.450   0.387   9.172  10.009
   22        0.437   0.375   9.181   9.994
   23        0.450   0.387   9.172  10.009
   24        0.437   0.375   9.181   9.994
   25        0.441   0.371   9.182   9.994
   26        0.441   0.371   9.182   9.994
   27        0.437   0.375   9.181   9.994
   28        0.447   0.284   9.191   9.922
   29        0.453   0.293   9.180   9.927
   30        0.453   0.293   9.180   9.927
   31        0.453   0.293   9.180   9.927
   32        0.453   0.293   9.180   9.927
   33        0.453   0.293   9.180   9.927
   34        0.453   0.293   9.180   9.927
   35        0.443   0.286   9.191   9.920
   36        0.423   0.303   7.334   8.059
tot         16.027  11.923 328.703 356.654

 BZINTS: Fermi energy:    0.069263;  394.000000 electrons
         Band energy:-0.105722E+04;  BLOECHL correction:   -0.056476