 vasp.6.2.0 18Jan21 (build Jun 12 2021 23:27:24) complex

 executed on             LinuxIFC date 2022.05.28  02:10:34

 INCAR:
   ISMEAR = -5
   SIGMA = 0.1
   ISPIN = 1
   EDIFF = 1.d-5
   EDIFFG = -0.01
   NSW = 0
   NELM = 150
   ENCUT = 500
   ISIF = 2
   IBRION = 2
   LREAL = Auto
   ALGO = Fast
   ICHARG = 11
   LORBIT = 10
   LCHARG = .F.
   LWAVE = .F.

 POTCAR:    PAW_PBE Ag 02Apr2005
 POTCAR:    PAW_PBE Pt 04Feb2005
 POTCAR:    PAW_PBE C 08Apr2002
 POTCAR:    PAW_PBE O 08Apr2002
|           W    W    AA    RRRRR   N    N  II  N    N   GGGG   !!!           |
|           W    W   A  A   R    R  NN   N  II  NN   N  G    G  !!!           |
|           W    W  A    A  R    R  N N  N  II  N N  N  G       !!!           |
|           W WW W  AAAAAA  RRRRR   N  N N  II  N  N N  G  GGG   !            |
|           WW  WW  A    A  R   R   N   NN  II  N   NN  G    G                |
|           W    W  A    A  R    R  N    N  II  N    N   GGGG   !!!           |
|     For optimal performance we recommend to set                             |
|       NCORE = 2 up to number-of-cores-per-socket                            |
|     This setting can greatly improve the performance of VASP for DFT.       |
|     The default, NCORE=1 might be grossly inefficient on modern             |
|     multi-core architectures or massively parallel machines. Do your        |
|     Unfortunately you need to use the default for GW and RPA                |
|     calculations (for HF NCORE is supported but not extensively tested      |
|     yet).                                                                   |

 POTCAR:    PAW_PBE Ag 02Apr2005
   VRHFIN =Ag : s1 d10

   TITEL  = PAW_PBE Ag 02Apr2005
   POMASS =  107.868; ZVAL   =   11.000    mass and valenz
   ENMAX  =  249.844; ENMIN  =  187.383 eV

 POTCAR:    PAW_PBE Pt 04Feb2005
   VRHFIN =Pt: s1d9

   TITEL  = PAW_PBE Pt 04Feb2005
   POMASS =  195.080; ZVAL   =   10.000    mass and valenz
   ENMAX  =  230.283; ENMIN  =  172.712 eV

 POTCAR:    PAW_PBE C 08Apr2002
   VRHFIN =C: s2p2

[...]

 POTCAR:    PAW_PBE O 08Apr2002
   VRHFIN =O: s2p4

   TITEL  = PAW_PBE O 08Apr2002
   POMASS =   16.000; ZVAL   =    6.000    mass and valenz
   ENMAX  =  400.000; ENMIN  =  300.000 eV

 Optimization of the real space projectors (new method)

 maximal supplied QI-value         = 15.12
 optimisation between [QCUT,QGAM] = [ 11.34, 22.83] = [ 36.00,145.93] Ry
 Optimized for a Real-space Cutoff    1.43 Angstroem

   l    n(q)    QCUT    max X(q) W(low)/X(q) W(high)/X(q)  e(spline)
   2      9    11.338    53.897    0.16E-03    0.20E-03    0.28E-06
   2      9    11.338    52.416    0.16E-03    0.20E-03    0.29E-06
   0     10    11.338   122.045    0.31E-04    0.76E-04    0.15E-06
   0     10    11.338    73.629    0.30E-04    0.72E-04    0.15E-06
   1      9    11.338    15.255    0.20E-03    0.19E-04    0.17E-06
   1      9    11.338     9.562    0.16E-03    0.15E-04    0.14E-06
 Optimization of the real space projectors (new method)

[...]

   l    n(q)    QCUT    max X(q) W(low)/X(q) W(high)/X(q)  e(spline)
   0      7    11.310   115.676    0.43E-03    0.13E-02    0.19E-06
   0      7    11.310    87.132    0.43E-03    0.13E-02    0.18E-06
   1      6    11.310     4.429    0.42E-03    0.74E-03    0.11E-06
   1      6    11.310     2.733    0.34E-03    0.55E-03    0.92E-07
 Optimization of the real space projectors (new method)

 maximal supplied QI-value         = 24.76
 optimisation between [QCUT,QGAM] = [ 11.39, 22.77] = [ 36.31,145.25] Ry
 Optimized for a Real-space Cutoff    1.00 Angstroem

   l    n(q)    QCUT    max X(q) W(low)/X(q) W(high)/X(q)  e(spline)
   0      7    11.387    20.381    0.39E-03    0.13E-02    0.15E-06
   0      7    11.387    15.268    0.42E-03    0.14E-02    0.17E-06
   1      6    11.387     5.964    0.41E-03    0.11E-02    0.17E-06
   1      6    11.387     5.382    0.39E-03    0.87E-03    0.15E-06
  PAW_PBE Ag 02Apr2005                  :
  PAW_PBE Pt 04Feb2005                  :
  PAW_PBE C 08Apr2002                   :
  PAW_PBE O 08Apr2002                   :

 POSCAR: Ag-Pt-CO2
  positions in direct lattice
  velocities in cartesian coordinates
 exchange correlation table for  LEXCH =        8
   RHO(1)=    0.500       N(1)  =     2000
   RHO(2)=  100.500       N(2)  =     4000

 VTST: version 3.2, (02/03/18)

 CHAIN: initializing optimizer

 OPT: Using VASP Conjugate-Gradient optimizer
 CHAIN: Read ICHAIN            0

 POSCAR: Ag-Pt-CO2
  positions in direct lattice
  velocities in cartesian coordinates

 ion  position               nearest neighbor table
   1  0.000  0.000  0.217-   2 2.93   8 2.93   7 2.93   6 2.93   4 2.93  12 2.93  16 2.93  10 2.93
                             3 2.93
   2  0.333  0.000  0.217-   1 2.93   8 2.93   9 2.93   3 2.93   4 2.93   5 2.93  10 2.93  17 2.93
                            11 2.93
   3  0.667  0.000  0.217-   9 2.93   2 2.93   5 2.93  11 2.93   7 2.93  18 2.93   1 2.93   6 2.93
                            12 2.93
   4  0.000  0.333  0.217-   5 2.93   6 2.93   2 2.93   1 2.93   7 2.93  13 2.93  15 2.93   9 2.93
                            10 2.93
   5  0.333  0.333  0.217-   4 2.93   3 2.93   7 2.93   2 2.93   8 2.93  14 2.93  13 2.93  11 2.93
                             6 2.93
   6  0.667  0.333  0.217-   4 2.93   9 2.93   1 2.93  15 2.93   8 2.93  12 2.93   3 2.93   5 2.93
                            14 2.93
   7  0.000  0.667  0.217-   8 2.93   1 2.93   5 2.93   3 2.93   4 2.93  16 2.93  18 2.93  13 2.93
                             9 2.93
   8  0.333  0.667  0.217-   7 2.93   1 2.93   2 2.93   9 2.93   5 2.93  16 2.93   6 2.93  17 2.93
                            14 2.93
   9  0.667  0.667  0.217-   3 2.93   2 2.93   8 2.93   6 2.93  17 2.93   4 2.93  15 2.93   7 2.93
                            18 2.93
  10  0.111  0.111  0.315-  20 2.89  19 2.93  26 2.93  12 2.93  16 2.93  15 2.93  17 2.93  13 2.93
                            11 2.93   2 2.93   1 2.93   4 2.93
  11  0.444  0.111  0.315-  21 2.90  20 2.90  27 2.91  14 2.93  17 2.93  18 2.93   3 2.93  12 2.93
                            13 2.93  10 2.93   5 2.93   2 2.93
  12  0.778  0.111  0.315-  21 2.89  25 2.93  19 2.93  10 2.93  16 2.93  18 2.93  15 2.93  11 2.93
                             1 2.93  14 2.93   6 2.93   3 2.93
  13  0.111  0.444  0.315-  20 2.90  23 2.90  22 2.91  15 2.93  14 2.93  18 2.93  10 2.93  11 2.93
                            16 2.93   4 2.93   5 2.93   7 2.93
  14  0.444  0.444  0.315-  23 2.90  21 2.90  24 2.91  13 2.93  11 2.93  16 2.93   5 2.93  12 2.93
                            17 2.93   8 2.93  15 2.93   6 2.93
  15  0.778  0.444  0.315-  24 2.91  22 2.91  19 2.92  13 2.93  10 2.93  12 2.93  17 2.93  18 2.93
                             4 2.93   6 2.93   9 2.93  14 2.93
  16  0.111  0.778  0.315-  23 2.89  26 2.93  25 2.93  18 2.93  12 2.93  10 2.93  14 2.93  17 2.93
                            13 2.93   7 2.93   8 2.93   1 2.93
  17  0.444  0.778  0.315-  27 2.91  24 2.91  26 2.92  11 2.93  10 2.93   9 2.93  18 2.93  15 2.93
                            16 2.93   2 2.93  14 2.93   8 2.93
  18  0.778  0.778  0.315-  22 2.91  27 2.91  25 2.92  16 2.93  12 2.93  13 2.93  11 2.93  17 2.93
                            15 2.93   7 2.93   3 2.93   9 2.93
  19  0.888  0.223  0.413-  28 2.91  15 2.92  20 2.92  21 2.92  24 2.92  22 2.92  10 2.93  12 2.93
                            32 2.93  31 2.93  26 2.94  25 2.94
  20  0.221  0.221  0.412-  36 2.81  10 2.89  13 2.90  11 2.90  19 2.92  26 2.92  31 2.92  29 2.92
                            27 2.93  22 2.93  21 2.95  23 2.95
  21  0.557  0.221  0.412-  36 2.81  12 2.89  11 2.90  14 2.90  25 2.92  19 2.92  30 2.92  32 2.92
                            27 2.93  24 2.93  20 2.95  23 2.95
  22  0.889  0.556  0.412-  35 2.91  18 2.91  15 2.91  13 2.91  25 2.92  19 2.92  24 2.93  27 2.93
                            33 2.93  31 2.93  23 2.93  20 2.93
  23  0.221  0.557  0.412-  36 2.81  16 2.89  14 2.90  13 2.90  26 2.92  25 2.92  34 2.92  33 2.92
                            22 2.93  24 2.93  21 2.95  20 2.95
  24  0.556  0.556  0.412-  35 2.91  15 2.91  17 2.91  14 2.91  19 2.92  26 2.92  27 2.93  22 2.93
                            32 2.93  34 2.93  23 2.93  21 2.93
  25  0.888  0.888  0.413-  28 2.91  18 2.92  23 2.92  21 2.92  22 2.92  27 2.92  16 2.93  12 2.93
                            33 2.93  30 2.93  26 2.94  19 2.94
  26  0.223  0.888  0.413-  28 2.91  17 2.92  23 2.92  20 2.92  27 2.92  24 2.92  16 2.93  10 2.93
                            34 2.93  29 2.93  25 2.94  19 2.94
  27  0.556  0.889  0.412-  35 2.91  17 2.91  18 2.91  11 2.91  26 2.92  25 2.92  24 2.93  22 2.93
                            29 2.93  30 2.93  20 2.93  21 2.93
  28  0.000  0.000  0.510-  26 2.91  25 2.91  19 2.91  29 2.95  34 2.95  33 2.95  32 2.95  31 2.95
                            30 2.95
  29  0.333  0.004  0.511-  30 2.89  31 2.89  36 2.90  20 2.92  27 2.93  26 2.93  35 2.95  28 2.95
                            34 3.00
  30  0.662  0.004  0.511-  29 2.89  32 2.89  36 2.90  21 2.92  27 2.93  25 2.93  35 2.95  28 2.95
                            33 3.00
  31  0.004  0.333  0.511-  33 2.89  29 2.89  36 2.90  20 2.92  22 2.93  19 2.93  35 2.95  28 2.95
                            32 3.00
  32  0.662  0.333  0.511-  34 2.89  30 2.89  36 2.90  21 2.92  24 2.93  19 2.93  35 2.95  28 2.95
                            31 3.00
  33  0.004  0.662  0.511-  31 2.89  34 2.89  36 2.90  23 2.92  22 2.93  25 2.93  35 2.95  28 2.95
                            30 3.00
  34  0.333  0.662  0.511-  32 2.89  33 2.89  36 2.90  23 2.92  24 2.93  26 2.93  35 2.95  28 2.95
                            29 3.00
  35  0.667  0.667  0.510-  24 2.91  27 2.91  22 2.91  30 2.95  32 2.95  29 2.95  34 2.95  31 2.95
                            33 2.95
  36  0.333  0.333  0.503-  37 2.21  21 2.81  20 2.81  23 2.81  31 2.90  33 2.90  30 2.90  29 2.90
                            34 2.90  32 2.90
  37  0.333  0.334  0.594-  38 1.22  39 1.23  36 2.21
  38  0.201  0.333  0.610-  37 1.22
  39  0.465  0.334  0.610-  37 1.23

  LATTYP: Found a hexagonal cell.
 ALAT       =     8.7913665772
 C/A-ratio  =     2.7703738524

  Lattice vectors:

 A1 = (  -4.3956832886,  -7.6135467898,   0.0000000000)
 A2 = (   8.7913665771,   0.0000000000,   0.0000000000)
 A3 = (   0.0000000000,   0.0000000000,  24.3553720923)

Analysis of symmetry for initial positions (statically):
 Subroutine PRICEL returns:
 Original cell was already a primitive cell.

 Routine SETGRP: Setting up the symmetry group for a
 hexagonal supercell.

 Subroutine GETGRP returns: Found  1 space group operations
 (whereof  1 operations were pure point group operations)
 out of a pool of 24 trial point group operations.

The static configuration has the point symmetry C_1 .

Analysis of symmetry for dynamics (positions and initial velocities):
 Subroutine PRICEL returns:
 Original cell was already a primitive cell.

[...]

The dynamic configuration has the point symmetry C_1 .

Analysis of constrained symmetry for selective dynamics:
 Subroutine PRICEL returns:
 Original cell was already a primitive cell.

 Routine SETGRP: Setting up the symmetry group for a
[...]
     41      -4.9638      2.00000
     42      -4.9485      2.00000
     43      -4.9131      2.00000
     44      -4.8818      2.00000
     45      -4.8783      2.00000
     46      -4.8730      2.00000
     47      -4.8610      2.00000
     48      -4.8514      2.00000
     49      -4.7672      2.00000
     50      -4.7354      2.00000
     51      -4.7235      2.00000
     52      -4.7138      2.00000
     53      -4.7130      2.00000
     54      -4.7091      2.00000
     55      -4.7011      2.00000
     56      -4.6883      2.00000
     57      -4.6811      2.00000
     58      -4.6748      2.00000
     59      -4.5952      2.00000
     60      -4.5886      2.00000
[...]
    238       5.3746      0.00000
    239       5.4875      0.00000
    240       5.6785      0.00000
    241       5.6982      0.00000
    242       5.7652      0.00000
    243       5.7907      0.00000
    244       5.8964      0.00000
    245       5.9006      0.00000
    246       6.0453      0.00000
    247       6.6015      0.00000
    248       6.6334      0.00000
    249       6.6889      0.00000
    250       6.7078      0.00000
    251       6.7362      0.00000
    252       6.7533      0.00000

 soft charge-density along one line, spin component           1
         0         1         2         3         4         5         6         7         8         9
 total charge-density along one line

------------------------ aborting loop because EDIFF is reached ----------------------------------------

 total charge

# of ion       s       p       d       tot
    1        0.416   0.203   9.177   9.796
    2        0.416   0.203   9.177   9.796
    3        0.416   0.203   9.177   9.796
    4        0.416   0.203   9.178   9.796
    5        0.419   0.201   9.178   9.798
    6        0.416   0.203   9.178   9.796
    7        0.417   0.203   9.177   9.797
    8        0.417   0.203   9.177   9.797
    9        0.414   0.204   9.177   9.795
   10        0.405   0.271   9.165   9.841
   11        0.405   0.271   9.165   9.842
   12        0.405   0.271   9.165   9.841
   13        0.405   0.271   9.166   9.842
   14        0.405   0.271   9.166   9.842
   15        0.404   0.270   9.165   9.840
   16        0.405   0.271   9.165   9.841
   17        0.404   0.270   9.165   9.840
   18        0.404   0.270   9.165   9.840
   19        0.400   0.272   9.165   9.837
   20        0.409   0.285   9.164   9.857
   21        0.409   0.285   9.164   9.857
   22        0.402   0.272   9.168   9.841
   23        0.410   0.283   9.164   9.856
   24        0.402   0.272   9.168   9.841
   25        0.403   0.269   9.166   9.839
   26        0.403   0.269   9.166   9.839
   27        0.402   0.271   9.169   9.842
   28        0.415   0.195   9.182   9.793
   29        0.406   0.205   9.182   9.793
   30        0.406   0.205   9.182   9.793
   31        0.393   0.204   9.186   9.783
   32        0.393   0.204   9.186   9.783
   33        0.407   0.205   9.182   9.794
   34        0.407   0.205   9.182   9.794
   35        0.411   0.198   9.182   9.791
   36        0.650   0.346   8.196   9.192
   37        0.890   1.695   0.000   2.585
   38        1.600   3.501   0.000   5.101
   39        1.600   3.501   0.000   5.101
tot         19.010  17.400 329.235 365.645

  FORCE on cell =-STRESS in cart. coord.  units (eV):
  Direction    XX          YY          ZZ          XY          YZ          ZX
  Alpha Z   723.14917   723.14917   723.14917
  Ewald  153956.54113153218.25902************     0.39920    -0.11569    -0.06582
  Hartree164022.89435163647.74318************     0.19677     0.00582    -0.03138
  E(xc)   -2147.79863 -2149.67054 -2154.17485     0.00092     0.00474    -0.00015
  Local  ************************328270.39406    -0.56383     0.11334     0.09225
  n-local  -373.46444  -368.46737  -375.03711    -0.00204     0.01160     0.00060
  augment  3284.08895  3286.06409  3294.15384    -0.00136    -0.00747    -0.00004
  Kinetic  5207.37260  5255.94003  5273.39264    -0.02582    -0.04332     0.00379
  Fock        0.00000     0.00000     0.00000     0.00000     0.00000     0.00000
  Total      -7.24760    -6.88728    -1.01694     0.00384    -0.03098    -0.00076
  in kB      -7.12306    -6.76893    -0.99946     0.00377    -0.03045    -0.00075

 VOLUME and BASIS-vectors are now :
  energy-cutoff  :      500.00
  volume of cell :     1630.19
      direct lattice vectors                 reciprocal lattice vectors
     8.791366577  0.000000000  0.000000000     0.113747958 -0.065672414  0.000000000
     4.395683289  7.613546790  0.000000000     0.000000000  0.131344829  0.000000000
     0.000000000  0.000000000 24.355372092     0.000000000  0.000000000  0.041058703

  length of vectors
     8.791366577  8.791366577 24.355372092     0.131344829  0.131344829  0.041058703

 FORCES acting on ions
    electron-ion (+dipol)            ewald-force                    non-local-force                 convergence-correction
   0.136E-02 0.329E-01 0.273E+04   -.112E-03 -.376E-01 -.272E+04   -.167E-04 -.317E-01 -.191E+01   -.124E-02 0.322E-01 -.315E+00
   0.441E+00 0.380E+00 0.273E+04   -.485E+00 -.494E+00 -.272E+04   0.926E-02 0.544E-01 -.175E+01   0.357E-01 0.524E-01 -.280E+00
   -.442E+00 0.371E+00 0.273E+04   0.485E+00 -.494E+00 -.272E+04   -.901E-02 0.541E-01 -.175E+01   -.356E-01 0.625E-01 -.277E+00
   0.461E+00 0.204E+00 0.273E+04   -.638E+00 -.193E+00 -.272E+04   0.101E+00 -.964E-02 -.178E+01   0.714E-01 0.127E-03 -.321E+00
   -.139E-01 -.123E-01 0.273E+04   0.490E-04 -.549E-03 -.273E+04   -.218E-02 0.233E-01 -.166E+01   0.162E-01 -.135E-01 -.247E+00
   -.452E+00 0.200E+00 0.273E+04   0.638E+00 -.193E+00 -.272E+04   -.101E+00 -.973E-02 -.178E+01   -.803E-01 0.437E-02 -.316E+00
   0.112E+00 -.555E+00 0.273E+04   -.152E+00 0.687E+00 -.272E+04   0.493E-01 -.564E-01 -.171E+01   -.133E-01 -.689E-01 -.257E+00
   -.120E+00 -.549E+00 0.273E+04   0.152E+00 0.687E+00 -.272E+04   -.495E-01 -.564E-01 -.171E+01   0.216E-01 -.750E-01 -.255E+00
   0.131E-01 -.523E-01 0.273E+04   0.144E-03 0.381E-01 -.272E+04   0.241E-02 0.168E-01 -.184E+01   -.159E-01 -.807E-04 -.276E+00
   0.580E+01 0.371E+01 0.990E+03   -.579E+01 -.364E+01 -.990E+03   -.123E+00 -.830E-01 -.644E+00   0.896E-01 0.958E-02 0.476E-01
   -.125E-01 0.434E+01 0.997E+03   -.533E-05 -.430E+01 -.996E+03   -.232E-02 -.127E-01 -.634E+00   0.150E-01 -.285E-01 0.419E-01
   -.579E+01 0.371E+01 0.990E+03   0.579E+01 -.364E+01 -.990E+03   0.123E+00 -.831E-01 -.644E+00   -.976E-01 0.163E-01 0.469E-01
   0.343E+01 -.218E+01 0.997E+03   -.345E+01 0.220E+01 -.996E+03   0.592E-02 -.547E-03 -.590E+00   0.495E-02 -.583E-02 0.709E-01
   -.345E+01 -.218E+01 0.997E+03   0.345E+01 0.220E+01 -.996E+03   -.101E-01 -.422E-03 -.590E+00   0.183E-01 -.933E-02 0.676E-01
   0.933E-02 0.805E+00 0.991E+03   0.338E-03 -.972E+00 -.990E+03   0.223E-03 0.414E-01 -.739E+00   -.987E-02 0.978E-01 0.240E-01
   -.130E-02 -.685E+01 0.990E+03   -.364E-03 0.678E+01 -.989E+03   -.382E-04 0.144E+00 -.596E+00   0.172E-02 -.518E-01 0.335E-01
   0.862E+00 -.661E+00 0.990E+03   -.101E+01 0.694E+00 -.990E+03   0.376E-01 -.904E-02 -.627E+00   0.846E-01 -.175E-01 0.597E-02
   -.860E+00 -.671E+00 0.990E+03   0.101E+01 0.694E+00 -.990E+03   -.377E-01 -.937E-02 -.627E+00   -.863E-01 -.718E-02 0.829E-02
   0.343E-02 0.662E+01 -.783E+03   0.122E-02 -.660E+01 0.782E+03   0.927E-04 -.151E-01 0.677E+00   -.476E-02 -.120E-01 0.265E+00
   0.162E+02 0.110E+02 -.733E+03   -.159E+02 -.109E+02 0.733E+03   -.351E+00 -.163E+00 -.166E+00   0.321E-01 0.398E-01 0.206E+00
   -.162E+02 0.110E+02 -.733E+03   0.159E+02 -.109E+02 0.733E+03   0.351E+00 -.163E+00 -.166E+00   -.285E-01 0.422E-01 0.202E+00
   0.908E+01 -.723E+01 -.769E+03   -.919E+01 0.738E+01 0.769E+03   0.124E+00 -.135E+00 0.605E+00   0.273E-02 -.208E-01 0.197E+00
   -.552E-03 -.211E+02 -.735E+03   -.367E-02 0.208E+02 0.735E+03   -.537E-04 0.368E+00 -.798E-01   0.433E-02 -.721E-01 0.207E+00
   -.908E+01 -.723E+01 -.769E+03   0.920E+01 0.738E+01 0.769E+03   -.124E+00 -.135E+00 0.605E+00   -.629E-02 -.219E-01 0.199E+00
   -.467E+01 -.192E+01 -.786E+03   0.460E+01 0.187E+01 0.786E+03   0.494E-01 0.197E-01 0.627E+00   0.152E-01 0.307E-01 0.231E+00
   0.467E+01 -.192E+01 -.786E+03   -.460E+01 0.187E+01 0.786E+03   -.493E-01 0.198E-01 0.627E+00   -.143E-01 0.245E-01 0.232E+00
   -.194E-03 0.108E+02 -.772E+03   0.186E-02 -.110E+02 0.771E+03   0.102E-03 0.177E+00 0.658E+00   -.179E-02 0.561E-02 0.160E+00
   0.930E-02 0.962E+01 -.256E+04   -.574E-02 -.961E+01 0.256E+04   0.102E-03 -.581E-01 0.211E+01   -.365E-02 0.292E-01 0.285E+00
   0.360E+02 0.816E+02 -.253E+04   -.357E+02 -.817E+02 0.252E+04   -.362E+00 -.150E+00 0.220E+01   0.695E-02 0.692E-01 0.259E+00
   -.360E+02 0.816E+02 -.253E+04   0.357E+02 -.817E+02 0.252E+04   0.358E+00 -.151E+00 0.220E+01   0.914E-02 0.763E-01 0.259E+00
   0.934E+02 0.261E-01 -.250E+04   -.937E+02 0.453E-01 0.250E+04   0.127E+00 -.746E-01 0.275E+01   0.763E-01 0.821E-02 0.241E+00
   -.934E+02 0.536E-01 -.250E+04   0.937E+02 0.129E-01 0.250E+04   -.132E+00 -.742E-01 0.275E+01   -.636E-01 0.125E-01 0.239E+00
   0.362E+02 -.817E+02 -.253E+04   -.361E+02 0.817E+02 0.252E+04   -.197E+00 0.212E+00 0.220E+01   0.148E-01 -.745E-01 0.242E+00
   -.362E+02 -.817E+02 -.253E+04   0.360E+02 0.817E+02 0.252E+04   0.192E+00 0.211E+00 0.220E+01   0.941E-02 -.773E-01 0.241E+00
   0.231E-03 -.966E+01 -.256E+04   0.160E-01 0.966E+01 0.255E+04   0.247E-02 0.525E-01 0.210E+01   -.188E-01 -.363E-01 0.270E+00
   0.159E-01 0.288E+00 -.202E+04   -.210E-01 -.303E+00 0.202E+04   0.323E-03 -.153E-01 -.224E+00   0.497E-02 0.142E-01 0.150E+00
   -.253E-02 -.931E+00 -.100E+04   0.229E-02 0.952E+00 0.998E+03   0.705E-03 -.277E-01 0.321E+01   0.166E-02 -.332E-02 0.480E-02
   0.243E+03 0.458E+00 -.167E+04   -.294E+03 -.598E+00 0.168E+04   0.506E+02 0.147E+00 -.181E+02   -.399E-01 -.399E-02 -.111E-01
   -.243E+03 0.179E+00 -.167E+04   0.294E+03 -.259E+00 0.168E+04   -.506E+02 0.925E-01 -.181E+02   0.327E-01 -.654E-02 -.900E-02
   -.337E-01 -.127E+00 0.310E+02   -.568E-13 0.351E-13 0.109E-10   -.802E-02 0.108E+00 -.329E+02   0.478E-01 0.211E-01 0.187E+01

 POSITION                                       TOTAL-FORCE (eV/Angst)
      0.00000      0.00000      5.28219        -0.000168     -0.004343      0.038436
      2.93046      0.00000      5.28219         0.001026     -0.006732      0.035628
      5.86091      0.00000      5.28219        -0.001353     -0.006778      0.035604
      1.46523      2.53785      5.28219        -0.004192      0.001508      0.031725
      4.39568      2.53785      5.28219         0.000010     -0.003135      0.020482
      7.32614      2.53785      5.28219         0.003932      0.001467      0.031736
      2.93046      5.07570      5.28219        -0.004371      0.006205      0.030199
      5.86091      5.07570      5.28219         0.004009      0.006226      0.030225
      8.79137      5.07570      5.28219        -0.000343      0.002441      0.030119
      1.46523      0.84595      7.67490        -0.023136     -0.004056     -0.011877
      4.39568      0.84595      7.67490         0.000063     -0.003088     -0.071246
      7.32614      0.84595      7.67490         0.022845     -0.004046     -0.011902
      2.93046      3.38380      7.67490        -0.007814      0.006841     -0.069381
      5.86091      3.38380      7.67490         0.007951      0.006871     -0.069392
      8.79137      3.38380      7.67490        -0.000138     -0.027874     -0.042008
      4.39568      5.92165      7.67490        -0.000131      0.018790     -0.010046
      7.32614      5.92165      7.67490        -0.022575      0.006685     -0.033352
     10.25659      5.92165      7.67490         0.022253      0.006666     -0.033353
      8.79137      1.70009     10.06101        -0.000173     -0.000772      0.062917
      2.92042      1.68610     10.02751        -0.013027     -0.014033     -0.078525
      5.87095      1.68610     10.02751         0.012705     -0.014002     -0.078509
     10.25445      4.23098     10.04520         0.007111     -0.002387      0.017025
      4.39568      4.24134     10.02751        -0.000107      0.026896     -0.076966
      7.32828      4.23098     10.04520        -0.007416     -0.002394      0.017017
     11.71473      6.76350     10.06101        -0.005885      0.002913      0.023704
      5.86800      6.76350     10.06101         0.005554      0.002906      0.023771
      8.79137      6.76512     10.04520        -0.000172      0.016605      0.007427
      0.00000      0.00000     12.42233        -0.000143     -0.014862     -0.018464
      2.94927      0.03214     12.43461        -0.030365     -0.137624     -0.069789
      5.84210      0.03214     12.43461         0.030439     -0.137616     -0.069803
      1.50247      2.53807     12.43461        -0.112518      0.004900      0.014417
      7.28890      2.53807     12.43461         0.112634      0.004735      0.014446
      2.94888      5.04334     12.43461        -0.033997      0.130817     -0.068410
      5.84248      5.04334     12.43461         0.033971      0.130953     -0.068446
      8.79137      5.07570     12.41249        -0.000252      0.016989     -0.021121
      4.39568      2.53785     12.25656        -0.000040     -0.016393      0.475314
      4.39584      2.54193     14.46596         0.001966     -0.009890     -0.041566
      3.23292      2.53877     14.85093        -0.007742      0.003617      0.003748
      5.55886      2.54009     14.85074         0.009588      0.004996      0.000216
    total drift:                                0.006099      0.003070     -0.023558

  FREE ENERGIE OF THE ION-ELECTRON SYSTEM (eV)
  free  energy   TOTEN  =      -117.63266157 eV

  energy  without entropy=     -117.63266157  energy(sigma->0) =     -117.63266157

 stress matrix after NEB project (eV)
     -7.24760      0.00384     -0.00076
      0.00384     -6.88728     -0.03098
     -0.00076     -0.03098     -1.01694
  FORCES: max atom, RMS     0.042771    0.007221
  FORCE total and by dimension    0.045093    0.041566
  Stress total and by dimension   10.049797    7.247600
|           W    W    AA    RRRRR   N    N  II  N    N   GGGG   !!!           |
|           W    W   A  A   R    R  NN   N  II  NN   N  G    G  !!!           |
|           W    W  A    A  R    R  N N  N  II  N N  N  G       !!!           |
|           W WW W  AAAAAA  RRRRR   N  N N  II  N  N N  G  GGG   !            |
|           WW  WW  A    A  R   R   N   NN  II  N   NN  G    G                |
|           W    W  A    A  R    R  N    N  II  N    N   GGGG   !!!           |
|     Tetrahedron method does not include variations of the Fermi             |
|     occupations, so forces and stress will be inaccurate. We suggest        |
|     using a different smearing scheme ISMEAR = 1 or 2 for metals in         |
|     relaxations.                                                            |

 total charge

# of ion       s       p       d       tot
    1        0.416   0.203   9.177   9.796
    2        0.416   0.203   9.177   9.796
    3        0.416   0.203   9.177   9.796
    4        0.416   0.203   9.178   9.796
    5        0.419   0.201   9.178   9.798
    6        0.416   0.203   9.178   9.796
    7        0.417   0.203   9.177   9.797
    8        0.417   0.203   9.177   9.797
    9        0.414   0.204   9.177   9.795
   10        0.405   0.271   9.165   9.841
   11        0.405   0.271   9.165   9.842
   12        0.405   0.271   9.165   9.841
   13        0.405   0.271   9.166   9.842
   14        0.405   0.271   9.166   9.842
   15        0.404   0.270   9.165   9.840
   16        0.405   0.271   9.165   9.841
   17        0.404   0.270   9.165   9.840
   18        0.404   0.270   9.165   9.840
   19        0.400   0.272   9.165   9.837
   20        0.409   0.285   9.164   9.857
   21        0.409   0.285   9.164   9.857
   22        0.402   0.272   9.168   9.841
   23        0.410   0.283   9.164   9.856
   24        0.402   0.272   9.168   9.841
   25        0.403   0.269   9.166   9.839
   26        0.403   0.269   9.166   9.839
   27        0.402   0.271   9.169   9.842
   28        0.415   0.195   9.182   9.793
   29        0.406   0.205   9.182   9.793
   30        0.406   0.205   9.182   9.793
   31        0.393   0.204   9.186   9.783
   32        0.393   0.204   9.186   9.783
   33        0.407   0.205   9.182   9.794
   34        0.407   0.205   9.182   9.794
   35        0.411   0.198   9.182   9.791
   36        0.650   0.346   8.196   9.192
   37        0.890   1.695   0.000   2.585
   38        1.600   3.501   0.000   5.101
   39        1.600   3.501   0.000   5.101
tot         19.010  17.400 329.235 365.645

 BZINTS: Fermi energy:    0.253965;  411.000000 electrons
         Band energy:-0.164049E+04;  BLOECHL correction:   -0.080592