 vasp.6.2.0 18Jan21 (build Jun 12 2021 23:27:24) complex

 executed on             LinuxIFC date 2022.05.26  19:49:38

 INCAR:
   ISMEAR = -5
   SIGMA = 0.1
   ISPIN = 1
   EDIFF = 1.d-5
   EDIFFG = -0.01
   NSW = 0
   NELM = 150
   ENCUT = 500
   ISIF = 2
   IBRION = 2
   LREAL = Auto
   ALGO = Fast
   ICHARG = 11
   LORBIT = 10
   LCHARG = .F.
   LWAVE = .F.

 POTCAR:    PAW_PBE Ag 02Apr2005
 POTCAR:    PAW_PBE Pd 04Jan2005
 POTCAR:    PAW_PBE H 15Jun2001
|           W    W    AA    RRRRR   N    N  II  N    N   GGGG   !!!           |
|           W    W   A  A   R    R  NN   N  II  NN   N  G    G  !!!           |
|           W    W  A    A  R    R  N N  N  II  N N  N  G       !!!           |
|           W WW W  AAAAAA  RRRRR   N  N N  II  N  N N  G  GGG   !            |
|           WW  WW  A    A  R   R   N   NN  II  N   NN  G    G                |
|           W    W  A    A  R    R  N    N  II  N    N   GGGG   !!!           |
|     For optimal performance we recommend to set                             |
|       NCORE = 2 up to number-of-cores-per-socket                            |
|     This setting can greatly improve the performance of VASP for DFT.       |
|     The default, NCORE=1 might be grossly inefficient on modern             |
|     multi-core architectures or massively parallel machines. Do your        |
|     Unfortunately you need to use the default for GW and RPA                |
|     calculations (for HF NCORE is supported but not extensively tested      |
|     yet).                                                                   |

 POTCAR:    PAW_PBE Ag 02Apr2005
   VRHFIN =Ag : s1 d10

   TITEL  = PAW_PBE Ag 02Apr2005
   POMASS =  107.868; ZVAL   =   11.000    mass and valenz
   ENMAX  =  249.844; ENMIN  =  187.383 eV

 POTCAR:    PAW_PBE Pd 04Jan2005
   VRHFIN =Pd : s1 d9

   TITEL  = PAW_PBE Pd 04Jan2005
   POMASS =  106.420; ZVAL   =   10.000    mass and valenz
   ENMAX  =  250.925; ENMIN  =  188.194 eV

 POTCAR:    PAW_PBE H 15Jun2001
   VRHFIN =H: ultrasoft test

   TITEL  = PAW_PBE H 15Jun2001
   POMASS =    1.000; ZVAL   =    1.000    mass and valenz
   ENMAX  =  250.000; ENMIN  =  200.000 eV

 Optimization of the real space projectors (new method)

 maximal supplied QI-value         = 15.12
 optimisation between [QCUT,QGAM] = [ 11.34, 22.83] = [ 36.00,145.93] Ry
 Optimized for a Real-space Cutoff    1.43 Angstroem

   l    n(q)    QCUT    max X(q) W(low)/X(q) W(high)/X(q)  e(spline)
   2      9    11.338    53.897    0.16E-03    0.20E-03    0.28E-06
   2      9    11.338    52.416    0.16E-03    0.20E-03    0.29E-06
   0     10    11.338   122.045    0.31E-04    0.76E-04    0.15E-06
   0     10    11.338    73.629    0.30E-04    0.72E-04    0.15E-06
   1      9    11.338    15.255    0.20E-03    0.19E-04    0.17E-06
   1      9    11.338     9.562    0.16E-03    0.15E-04    0.14E-06
 Optimization of the real space projectors (new method)

[...]

   l    n(q)    QCUT    max X(q) W(low)/X(q) W(high)/X(q)  e(spline)
   2      9    11.346    59.108    0.74E-04    0.81E-04    0.26E-06
   2      9    11.346    58.101    0.74E-04    0.83E-04    0.27E-06
   0     10    11.346   102.235    0.26E-04    0.31E-04    0.16E-06
   0     10    11.346    58.388    0.23E-04    0.29E-04    0.15E-06
   1     10    11.346    22.191    0.23E-03    0.26E-03    0.14E-06
   1     10    11.346    15.590    0.19E-03    0.22E-03    0.12E-06
 Optimization of the real space projectors (new method)

 maximal supplied QI-value         = 34.20
 optimisation between [QCUT,QGAM] = [ 11.29, 22.57] = [ 35.68,142.71] Ry
 Optimized for a Real-space Cutoff    1.16 Angstroem

   l    n(q)    QCUT    max X(q) W(low)/X(q) W(high)/X(q)  e(spline)
   0      8    11.287    19.460    0.40E-03    0.73E-03    0.16E-06
   0      8    11.287    12.209    0.38E-03    0.70E-03    0.15E-06
   1      7    11.287     4.655    0.22E-03    0.25E-04    0.22E-06
  PAW_PBE Ag 02Apr2005                  :
  PAW_PBE Pd 04Jan2005                  :
  PAW_PBE H 15Jun2001                   :

 POSCAR: Ag-Pd-H
  positions in direct lattice
  velocities in cartesian coordinates
 exchange correlation table for  LEXCH =        8
   RHO(1)=    0.500       N(1)  =     2000
   RHO(2)=  100.500       N(2)  =     4000

 VTST: version 3.2, (02/03/18)

 CHAIN: initializing optimizer

 OPT: Using VASP Conjugate-Gradient optimizer
 CHAIN: Read ICHAIN            0

 POSCAR: Ag-Pd-H
  positions in direct lattice
  velocities in cartesian coordinates

 ion  position               nearest neighbor table
   1  0.000  0.000  0.238-   2 2.93   8 2.93   7 2.93   6 2.93   4 2.93  12 2.93  16 2.93  10 2.93
                             3 2.93
   2  0.333  0.000  0.238-   1 2.93   8 2.93   9 2.93   3 2.93   4 2.93   5 2.93  10 2.93  17 2.93
                            11 2.93
   3  0.667  0.000  0.238-   9 2.93   2 2.93   5 2.93  11 2.93   7 2.93  18 2.93   1 2.93   6 2.93
                            12 2.93
   4  0.000  0.333  0.238-   5 2.93   6 2.93   2 2.93   1 2.93   7 2.93  13 2.93  15 2.93   9 2.93
                            10 2.93
   5  0.333  0.333  0.238-   4 2.93   3 2.93   7 2.93   2 2.93   8 2.93  14 2.93  13 2.93  11 2.93
                             6 2.93
   6  0.667  0.333  0.238-   4 2.93   9 2.93   1 2.93  15 2.93   8 2.93  12 2.93   3 2.93   5 2.93
                            14 2.93
   7  0.000  0.667  0.238-   8 2.93   1 2.93   5 2.93   3 2.93   4 2.93  16 2.93  18 2.93  13 2.93
                             9 2.93
   8  0.333  0.667  0.238-   7 2.93   1 2.93   2 2.93   9 2.93   5 2.93  16 2.93   6 2.93  17 2.93
                            14 2.93
   9  0.667  0.667  0.238-   3 2.93   2 2.93   8 2.93   6 2.93  17 2.93   4 2.93  15 2.93   7 2.93
                            18 2.93
  10  0.111  0.111  0.346-  20 2.91  19 2.92  26 2.92  12 2.93  16 2.93  15 2.93  17 2.93  13 2.93
                            11 2.93   2 2.93   1 2.93   4 2.93
  11  0.444  0.111  0.346-  21 2.91  20 2.91  27 2.91  14 2.93  17 2.93  18 2.93   3 2.93  12 2.93
                            13 2.93  10 2.93   5 2.93   2 2.93
  12  0.778  0.111  0.346-  21 2.91  25 2.92  19 2.92  10 2.93  16 2.93  18 2.93  15 2.93  11 2.93
                             1 2.93  14 2.93   6 2.93   3 2.93
  13  0.111  0.444  0.346-  20 2.91  23 2.91  22 2.91  15 2.93  14 2.93  18 2.93  10 2.93  11 2.93
                            16 2.93   4 2.93   5 2.93   7 2.93
  14  0.444  0.444  0.346-  23 2.91  21 2.91  24 2.91  13 2.93  11 2.93  16 2.93   5 2.93  12 2.93
                            17 2.93   8 2.93  15 2.93   6 2.93
  15  0.778  0.444  0.346-  24 2.91  22 2.91  19 2.92  13 2.93  10 2.93  12 2.93  17 2.93  18 2.93
                             4 2.93   6 2.93   9 2.93  14 2.93
  16  0.111  0.778  0.346-  23 2.91  26 2.92  25 2.92  18 2.93  12 2.93  10 2.93  14 2.93  17 2.93
                            13 2.93   7 2.93   8 2.93   1 2.93
  17  0.444  0.778  0.346-  27 2.91  24 2.91  26 2.92  11 2.93  10 2.93   9 2.93  18 2.93  15 2.93
                            16 2.93   2 2.93  14 2.93   8 2.93
  18  0.778  0.778  0.346-  22 2.91  27 2.91  25 2.92  16 2.93  12 2.93  13 2.93  11 2.93  17 2.93
                            15 2.93   7 2.93   3 2.93   9 2.93
  19  0.889  0.223  0.453-  28 2.91  15 2.92  10 2.92  12 2.92  32 2.92  31 2.92  20 2.93  21 2.93
                            24 2.93  22 2.93  26 2.93  25 2.93
  20  0.222  0.222  0.453-  36 2.81  10 2.91  13 2.91  11 2.91  31 2.91  29 2.91  19 2.93  26 2.93
                            27 2.93  22 2.93  21 2.94  23 2.94
  21  0.556  0.222  0.453-  36 2.81  12 2.91  11 2.91  14 2.91  30 2.91  32 2.91  25 2.93  19 2.93
                            27 2.93  24 2.93  20 2.94  23 2.94
  22  0.889  0.556  0.453-  35 2.91  18 2.91  15 2.91  13 2.91  33 2.92  31 2.92  25 2.93  19 2.93
                            24 2.93  27 2.93  23 2.93  20 2.93
  23  0.222  0.556  0.453-  36 2.81  16 2.91  14 2.91  13 2.91  34 2.91  33 2.91  26 2.93  25 2.93
                            22 2.93  24 2.93  21 2.94  20 2.94
  24  0.556  0.556  0.453-  35 2.91  15 2.91  17 2.91  14 2.91  32 2.92  34 2.92  19 2.93  26 2.93
                            27 2.93  22 2.93  23 2.93  21 2.93
  25  0.889  0.889  0.453-  28 2.91  18 2.92  16 2.92  12 2.92  33 2.92  30 2.92  23 2.93  21 2.93
                            22 2.93  27 2.93  26 2.93  19 2.93
  26  0.223  0.889  0.453-  28 2.91  17 2.92  16 2.92  10 2.92  34 2.92  29 2.92  23 2.93  20 2.93
                            27 2.93  24 2.93  25 2.93  19 2.93
  27  0.556  0.889  0.453-  35 2.91  17 2.91  18 2.91  11 2.91  29 2.92  30 2.92  26 2.93  25 2.93
                            24 2.93  22 2.93  20 2.93  21 2.93
  28  0.000  0.000  0.560-  26 2.91  25 2.91  19 2.91  29 2.94  34 2.94  33 2.94  32 2.94  31 2.94
                            30 2.94
  29  0.333  0.003  0.560-  30 2.91  31 2.91  36 2.91  20 2.91  27 2.92  26 2.92  35 2.94  28 2.94
                            34 2.98
  30  0.664  0.003  0.560-  29 2.91  32 2.91  36 2.91  21 2.91  27 2.92  25 2.92  35 2.94  28 2.94
                            33 2.98
  31  0.003  0.333  0.560-  33 2.91  29 2.91  36 2.91  20 2.91  22 2.92  19 2.92  35 2.94  28 2.94
                            32 2.98
  32  0.664  0.333  0.560-  34 2.91  30 2.91  36 2.91  21 2.91  24 2.92  19 2.92  35 2.94  28 2.94
                            31 2.98
  33  0.003  0.664  0.560-  31 2.91  34 2.91  36 2.91  23 2.91  22 2.92  25 2.92  35 2.94  28 2.94
                            30 2.98
  34  0.333  0.664  0.560-  32 2.91  33 2.91  36 2.91  23 2.91  24 2.92  26 2.92  35 2.94  28 2.94
                            29 2.98
  35  0.667  0.667  0.560-  24 2.91  27 2.91  22 2.91  30 2.94  29 2.94  32 2.94  34 2.94  31 2.94
                            33 2.94
  36  0.333  0.333  0.554-  37 1.58  21 2.81  20 2.81  23 2.81  31 2.91  33 2.91  30 2.91  29 2.91
                            34 2.91  32 2.91
  37  0.333  0.333  0.625-  36 1.58

  LATTYP: Found a hexagonal cell.
 ALAT       =     8.7913665772
 C/A-ratio  =     2.5227160501

  Lattice vectors:

 A1 = (  -4.3956832886,  -7.6135467898,   0.0000000000)
 A2 = (   8.7913665771,   0.0000000000,   0.0000000000)
 A3 = (   0.0000000000,   0.0000000000,  22.1781215668)

Analysis of symmetry for initial positions (statically):
 Subroutine PRICEL returns:
 Original cell was already a primitive cell.

 Routine SETGRP: Setting up the symmetry group for a
 hexagonal supercell.

 Subroutine GETGRP returns: Found  6 space group operations
 (whereof  6 operations were pure point group operations)
 out of a pool of 24 trial point group operations.

The static configuration has the point symmetry C_3v.

Analysis of symmetry for dynamics (positions and initial velocities):
 Subroutine PRICEL returns:
 Original cell was already a primitive cell.

[...]

The dynamic configuration has the point symmetry C_3v.

Analysis of constrained symmetry for selective dynamics:
 Subroutine PRICEL returns:
 Original cell was already a primitive cell.

 Routine SETGRP: Setting up the symmetry group for a
 hexagonal supercell.

 Subroutine GETGRP returns: Found  6 space group operations
 (whereof  6 operations were pure point group operations)
[...]
     24      -4.6047      2.00000
     25      -4.5726      2.00000
     26      -4.5536      2.00000
     27      -4.5376      2.00000
     28      -4.5310      2.00000
     29      -4.5271      2.00000
     30      -4.5033      2.00000
     31      -4.4997      2.00000
     32      -4.4712      2.00000
     33      -4.4302      2.00000
     34      -4.4002      2.00000
     35      -4.3717      2.00000
     36      -4.3668      2.00000
     37      -4.3409      2.00000
     38      -4.3111      2.00000
     39      -4.2980      2.00000
     40      -4.2948      2.00000
     41      -4.2716      2.00000
     42      -4.2692      2.00000
     43      -4.2076      2.00000
     44      -4.1730      2.00000
     45      -4.1522      2.00000
     46      -4.1511      2.00000
     47      -4.1383      2.00000
     48      -4.1311      2.00000
     49      -4.1197      2.00000
     50      -4.1135      2.00000
     51      -4.1084      2.00000
     52      -4.0902      2.00000
     53      -4.0282      2.00000
     54      -4.0126      2.00000
     55      -4.0071      2.00000
     56      -4.0022      2.00000
     57      -3.9843      2.00000
     58      -3.9719      2.00000
     59      -3.9355      2.00000
     60      -3.9261      2.00000
[...]
    238       7.1907      0.00000
    239       7.2366      0.00000
    240       7.2471      0.00000
    241       7.2639      0.00000
    242       7.3241      0.00000
    243       7.3497      0.00000
    244       7.3694      0.00000
    245       7.5190      0.00000
    246       7.5758      0.00000
    247       7.5946      0.00000
    248       7.6434      0.00000
    249       7.6739      0.00000
    250       7.9243      0.00000
    251       7.9796      0.00000
    252       8.1554      0.00000

 soft charge-density along one line, spin component           1
         0         1         2         3         4         5         6         7         8         9
 total charge-density along one line

------------------------ aborting loop because EDIFF is reached ----------------------------------------

 total charge

# of ion       s       p       d       tot
    1        0.417   0.202   9.179   9.798
    2        0.418   0.203   9.177   9.798
    3        0.418   0.203   9.177   9.798
    4        0.418   0.203   9.177   9.798
    5        0.419   0.204   9.175   9.798
    6        0.418   0.203   9.177   9.798
    7        0.418   0.203   9.177   9.798
    8        0.418   0.203   9.177   9.798
    9        0.415   0.203   9.179   9.797
   10        0.405   0.270   9.165   9.840
   11        0.409   0.267   9.167   9.843
   12        0.405   0.270   9.165   9.840
   13        0.409   0.267   9.167   9.843
   14        0.409   0.267   9.167   9.843
   15        0.402   0.272   9.165   9.838
   16        0.405   0.270   9.165   9.840
   17        0.402   0.272   9.165   9.838
   18        0.402   0.272   9.165   9.838
   19        0.403   0.271   9.165   9.840
   20        0.419   0.278   9.160   9.857
   21        0.419   0.278   9.160   9.857
   22        0.401   0.274   9.166   9.840
   23        0.419   0.278   9.160   9.857
   24        0.401   0.274   9.166   9.840
   25        0.403   0.271   9.165   9.840
   26        0.403   0.271   9.165   9.840
   27        0.401   0.274   9.166   9.840
   28        0.418   0.198   9.182   9.797
   29        0.408   0.204   9.181   9.792
   30        0.408   0.204   9.181   9.792
   31        0.408   0.204   9.181   9.792
   32        0.408   0.204   9.181   9.792
   33        0.408   0.204   9.181   9.792
   34        0.408   0.204   9.181   9.792
   35        0.415   0.200   9.182   9.796
   36        0.497   0.409   8.541   9.447
   37        0.490   0.019   0.000   0.509
tot         15.342   8.766 329.551 353.659

  FORCE on cell =-STRESS in cart. coord.  units (eV):
  Direction    XX          YY          ZZ          XY          YZ          ZX
  Alpha Z   740.00196   740.00196   740.00196
  Ewald  121873.20008121873.20009************     0.00001     0.00000    -0.00000
  Hartree132111.93725132111.93726************     0.00000    -0.00000     0.00000
  E(xc)   -2085.05243 -2085.05242 -2090.11964    -0.00002     0.00000     0.00000
  Local  ************************265536.52873     0.00025    -0.00004    -0.00007
  n-local  -337.04508  -317.78530  -329.91336    11.62385    -0.51039     0.58073
  augment  3295.42425  3295.42446  3300.03527    -0.00018    -0.00001     0.00000
  Kinetic  4912.54303  4916.93505  4931.00515     5.27059     1.03344    -0.30458
  Fock        0.00000     0.00000     0.00000     0.00000     0.00000     0.00000
  Total      -7.87173    -7.87173    -0.17151    -0.00000     0.00000     0.00000
  in kB      -8.49597    -8.49597    -0.18511    -0.00000     0.00000     0.00000

 VOLUME and BASIS-vectors are now :
  energy-cutoff  :      500.00
  volume of cell :     1484.46
      direct lattice vectors                 reciprocal lattice vectors
     8.791366577  0.000000000  0.000000000     0.113747958 -0.065672414  0.000000000
     4.395683289  7.613546790  0.000000000     0.000000000  0.131344829  0.000000000
     0.000000000  0.000000000 22.178121567     0.000000000  0.000000000  0.045089481

  length of vectors
     8.791366577  8.791366577 22.178121567     0.131344829  0.131344829  0.045089481

 FORCES acting on ions
    electron-ion (+dipol)            ewald-force                    non-local-force                 convergence-correction
   0.459E-04 -.283E-04 0.251E+04   -.954E-04 0.593E-04 -.251E+04   -.275E-17 -.170E-17 -.226E+01   -.844E-04 -.156E-03 -.250E+00
   0.120E+00 0.868E-01 0.251E+04   -.177E+00 -.183E+00 -.251E+04   0.493E-01 0.852E-01 -.168E+01   0.172E-01 0.279E-01 -.257E+00
   -.119E+00 0.867E-01 0.251E+04   0.178E+00 -.183E+00 -.251E+04   -.493E-01 0.852E-01 -.168E+01   -.178E-01 0.298E-01 -.256E+00
   0.135E+00 0.601E-01 0.251E+04   -.248E+00 -.619E-01 -.251E+04   0.984E-01 0.130E-03 -.168E+01   0.330E-01 0.117E-02 -.257E+00
   -.783E-05 -.199E-04 0.251E+04   0.981E-04 -.199E-05 -.251E+04   0.439E-17 -.176E-17 -.135E+01   0.618E-02 0.378E-02 -.224E+00
   -.135E+00 0.601E-01 0.251E+04   0.247E+00 -.620E-01 -.251E+04   -.984E-01 0.130E-03 -.168E+01   -.343E-01 0.208E-02 -.256E+00
   0.154E-01 -.147E+00 0.251E+04   -.702E-01 0.245E+00 -.251E+04   0.491E-01 -.853E-01 -.168E+01   0.173E-01 -.298E-01 -.256E+00
   -.154E-01 -.147E+00 0.251E+04   0.701E-01 0.245E+00 -.251E+04   -.491E-01 -.853E-01 -.168E+01   -.157E-01 -.307E-01 -.256E+00
   0.363E-04 -.130E-04 0.251E+04   0.792E-04 -.643E-04 -.251E+04   0.247E-17 -.348E-17 -.207E+01   -.663E-02 -.341E-02 -.257E+00
   0.230E+01 0.133E+01 0.844E+03   -.205E+01 -.118E+01 -.843E+03   -.280E+00 -.162E+00 -.771E+00   0.271E-01 0.157E-01 0.154E-01
   -.290E-04 0.159E+01 0.846E+03   0.413E-04 -.167E+01 -.845E+03   0.521E-12 0.793E-01 -.350E+00   0.619E-02 -.684E-02 0.381E-01
   -.230E+01 0.133E+01 0.844E+03   0.205E+01 -.118E+01 -.843E+03   0.280E+00 -.162E+00 -.771E+00   -.284E-01 0.163E-01 0.146E-01
   0.138E+01 -.794E+00 0.846E+03   -.145E+01 0.834E+00 -.845E+03   0.686E-01 -.396E-01 -.350E+00   -.295E-02 0.880E-02 0.381E-01
   -.138E+01 -.794E+00 0.846E+03   0.145E+01 0.834E+00 -.845E+03   -.686E-01 -.396E-01 -.350E+00   0.133E-01 0.790E-02 0.364E-01
   0.161E-04 0.265E+00 0.844E+03   -.108E-03 -.359E+00 -.843E+03   0.228E-12 0.347E-01 -.805E+00   -.128E-02 0.464E-01 -.113E-01
   -.801E-05 -.266E+01 0.844E+03   0.206E-04 0.236E+01 -.843E+03   0.212E-11 0.323E+00 -.771E+00   -.894E-04 -.328E-01 0.146E-01
   0.230E+00 -.133E+00 0.844E+03   -.311E+00 0.180E+00 -.843E+03   0.300E-01 -.173E-01 -.805E+00   0.395E-01 -.243E-01 -.113E-01
   -.230E+00 -.133E+00 0.844E+03   0.311E+00 0.180E+00 -.843E+03   -.300E-01 -.173E-01 -.805E+00   -.393E-01 -.227E-01 -.105E-01
   0.420E-04 0.119E+01 -.848E+03   -.129E-03 -.118E+01 0.848E+03   0.905E-13 0.138E-01 0.706E+00   0.101E-02 -.763E-02 0.104E+00
   0.746E+01 0.431E+01 -.832E+03   -.674E+01 -.389E+01 0.832E+03   -.801E+00 -.462E+00 -.615E+00   0.693E-01 0.400E-01 0.200E+00
   -.746E+01 0.431E+01 -.832E+03   0.674E+01 -.389E+01 0.832E+03   0.801E+00 -.462E+00 -.615E+00   -.802E-01 0.397E-01 0.199E+00
   0.275E+01 -.159E+01 -.843E+03   -.280E+01 0.162E+01 0.842E+03   0.546E-01 -.315E-01 0.506E+00   0.285E-01 -.160E-01 0.112E+00
   -.566E-04 -.862E+01 -.832E+03   0.433E-04 0.778E+01 0.832E+03   0.607E-11 0.925E+00 -.615E+00   -.540E-02 -.886E-01 0.199E+00
   -.275E+01 -.159E+01 -.843E+03   0.280E+01 0.162E+01 0.842E+03   -.546E-01 -.315E-01 0.506E+00   -.270E-01 -.155E-01 0.112E+00
   -.103E+01 -.595E+00 -.848E+03   0.102E+01 0.592E+00 0.848E+03   -.119E-01 -.689E-02 0.706E+00   0.657E-02 0.364E-02 0.104E+00
   0.103E+01 -.595E+00 -.848E+03   -.102E+01 0.592E+00 0.848E+03   0.119E-01 -.689E-02 0.706E+00   -.641E-02 0.457E-02 0.104E+00
   0.196E-04 0.317E+01 -.843E+03   0.110E-03 -.324E+01 0.842E+03   0.414E-12 0.630E-01 0.506E+00   -.295E-03 0.327E-01 0.112E+00
   0.546E-04 -.377E-04 -.251E+04   -.117E-03 0.780E-04 0.251E+04   -.298E-18 -.479E-17 0.197E+01   0.240E-03 0.187E-05 0.369E+00
   0.542E+01 0.803E+01 -.252E+04   -.533E+01 -.804E+01 0.251E+04   -.142E+00 -.952E-01 0.212E+01   0.586E-01 0.114E+00 0.312E+00
   -.542E+01 0.803E+01 -.252E+04   0.533E+01 -.804E+01 0.251E+04   0.142E+00 -.952E-01 0.212E+01   -.595E-01 0.115E+00 0.312E+00
   0.966E+01 0.677E+00 -.252E+04   -.963E+01 -.594E+00 0.251E+04   -.153E+00 -.752E-01 0.212E+01   0.128E+00 -.614E-02 0.312E+00
   -.966E+01 0.677E+00 -.252E+04   0.963E+01 -.595E+00 0.251E+04   0.153E+00 -.752E-01 0.212E+01   -.129E+00 -.519E-02 0.312E+00
   0.425E+01 -.871E+01 -.252E+04   -.430E+01 0.864E+01 0.251E+04   -.116E-01 0.170E+00 0.212E+01   0.706E-01 -.109E+00 0.312E+00
   -.425E+01 -.871E+01 -.252E+04   0.430E+01 0.864E+01 0.251E+04   0.116E-01 0.170E+00 0.212E+01   -.693E-01 -.109E+00 0.312E+00
   0.238E-04 -.119E-04 -.251E+04   0.106E-03 -.664E-04 0.251E+04   0.650E-19 0.534E-19 0.199E+01   -.635E-02 -.324E-02 0.336E+00
   -.613E-05 -.264E-04 -.218E+04   0.943E-04 0.110E-04 0.219E+04   -.110E-16 0.188E-17 -.485E+01   0.408E-02 0.250E-02 0.218E+00
   0.533E-05 -.439E-05 -.298E+03   0.502E-05 0.835E-07 0.301E+03   0.389E-19 -.774E-20 -.226E+01   0.122E-03 0.752E-04 -.949E-02
   0.344E-03 -.729E-03 0.834E+01   -.130E-13 -.255E-13 0.449E-11   0.394E-16 -.258E-16 -.102E+02   -.269E-02 0.175E-02 0.189E+01

 POSITION                                       TOTAL-FORCE (eV/Angst)
      0.00000      0.00000      5.28219        -0.000000      0.000000      0.025558
      2.93046      0.00000      5.28219         0.009270      0.017386      0.054555
      5.86091      0.00000      5.28219        -0.009270      0.017386      0.054555
      1.46523      2.53785      5.28219         0.019691     -0.000665      0.054555
      4.39568      2.53785      5.28219        -0.000000      0.000000      0.039513
      7.32614      2.53785      5.28219        -0.019691     -0.000665      0.054555
      2.93046      5.07570      5.28219         0.010421     -0.016721      0.054555
      5.86091      5.07570      5.28219        -0.010421     -0.016721      0.054555
      8.79137      5.07570      5.28219        -0.000000      0.000000      0.039108
      1.46523      0.84595      7.67490         0.001129      0.000652     -0.029780
      4.39568      0.84595      7.67490        -0.000000     -0.011404     -0.053273
      7.32614      0.84595      7.67490        -0.001129      0.000652     -0.029780
      2.93046      3.38380      7.67490        -0.009876      0.005702     -0.053273
      5.86091      3.38380      7.67490         0.009876      0.005702     -0.053273
      8.79137      3.38380      7.67490        -0.000000     -0.013271     -0.031502
      4.39568      5.92165      7.67490        -0.000000     -0.001303     -0.029780
      7.32614      5.92165      7.67490        -0.011493      0.006635     -0.031502
     10.25659      5.92165      7.67490         0.011493      0.006635     -0.031502
      8.79137      1.69432     10.05238         0.000000      0.012248      0.028697
      2.92802      1.69049     10.04000        -0.000179     -0.000103     -0.154708
      5.86334      1.69049     10.04000         0.000179     -0.000103     -0.154708
     10.25637      4.22988     10.04709         0.025214     -0.014557      0.000888
      4.39568      4.23256     10.04000         0.000000      0.000207     -0.154708
      7.32637      4.22988     10.04709        -0.025214     -0.014557      0.000888
     11.71973      6.76639     10.05238        -0.010607     -0.006124      0.028697
      5.86300      6.76639     10.05238         0.010607     -0.006124      0.028697
      8.79137      6.76733     10.04709         0.000000      0.029115      0.000888
      0.00000      0.00000     12.42253        -0.000000      0.000000     -0.020104
      2.94245      0.01904     12.42445         0.006883      0.008735      0.017559
      5.84892      0.01904     12.42445        -0.006883      0.008735      0.017559
      1.48772      2.53872     12.42445         0.011006      0.001593      0.017559
      7.30365      2.53872     12.42445        -0.011006      0.001593      0.017559
      2.94095      5.05579     12.42445         0.004123     -0.010328      0.017559
      5.85042      5.05579     12.42445        -0.004123     -0.010328      0.017559
      8.79137      5.07570     12.41807        -0.000000     -0.000000     -0.007335
      4.39568      2.53785     12.28633        -0.000000     -0.000000      0.251080
      4.39568      2.53785     13.86536        -0.000000      0.000000     -0.041464
    total drift:                               -0.002342      0.001017      0.017856

  FREE ENERGIE OF THE ION-ELECTRON SYSTEM (eV)
  free  energy   TOTEN  =       -97.57174500 eV

  energy  without entropy=      -97.57174500  energy(sigma->0) =      -97.57174500

 stress matrix after NEB project (eV)
     -7.87173     -0.00000      0.00000
     -0.00000     -7.87173     -0.00000
      0.00000      0.00000     -0.17151
  FORCES: max atom, RMS     0.041464    0.006817
  FORCE total and by dimension    0.041464    0.041464
  Stress total and by dimension   11.133634    7.871734
|           W    W    AA    RRRRR   N    N  II  N    N   GGGG   !!!           |
|           W    W   A  A   R    R  NN   N  II  NN   N  G    G  !!!           |
|           W    W  A    A  R    R  N N  N  II  N N  N  G       !!!           |
|           W WW W  AAAAAA  RRRRR   N  N N  II  N  N N  G  GGG   !            |
|           WW  WW  A    A  R   R   N   NN  II  N   NN  G    G                |
|           W    W  A    A  R    R  N    N  II  N    N   GGGG   !!!           |
|     Tetrahedron method does not include variations of the Fermi             |
|     occupations, so forces and stress will be inaccurate. We suggest        |
|     using a different smearing scheme ISMEAR = 1 or 2 for metals in         |
|     relaxations.                                                            |

 total charge

# of ion       s       p       d       tot
    1        0.417   0.202   9.179   9.798
    2        0.418   0.203   9.177   9.798
    3        0.418   0.203   9.177   9.798
    4        0.418   0.203   9.177   9.798
    5        0.419   0.204   9.175   9.798
    6        0.418   0.203   9.177   9.798
    7        0.418   0.203   9.177   9.798
    8        0.418   0.203   9.177   9.798
    9        0.415   0.203   9.179   9.797
   10        0.405   0.270   9.165   9.840
   11        0.409   0.267   9.167   9.843
   12        0.405   0.270   9.165   9.840
   13        0.409   0.267   9.167   9.843
   14        0.409   0.267   9.167   9.843
   15        0.402   0.272   9.165   9.838
   16        0.405   0.270   9.165   9.840
   17        0.402   0.272   9.165   9.838
   18        0.402   0.272   9.165   9.838
   19        0.403   0.271   9.165   9.840
   20        0.419   0.278   9.160   9.857
   21        0.419   0.278   9.160   9.857
   22        0.401   0.274   9.166   9.840
   23        0.419   0.278   9.160   9.857
   24        0.401   0.274   9.166   9.840
   25        0.403   0.271   9.165   9.840
   26        0.403   0.271   9.165   9.840
   27        0.401   0.274   9.166   9.840
   28        0.418   0.198   9.182   9.797
   29        0.408   0.204   9.181   9.792
   30        0.408   0.204   9.181   9.792
   31        0.408   0.204   9.181   9.792
   32        0.408   0.204   9.181   9.792
   33        0.408   0.204   9.181   9.792
   34        0.408   0.204   9.181   9.792
   35        0.415   0.200   9.182   9.796
   36        0.497   0.409   8.541   9.447
   37        0.490   0.019   0.000   0.509
tot         15.342   8.766 329.551 353.659

 BZINTS: Fermi energy:    0.826703;  396.000000 electrons
         Band energy:-0.126672E+04;  BLOECHL correction:   -0.069486