 vasp.6.2.0 18Jan21 (build Jun 12 2021 23:27:24) complex

 executed on             LinuxIFC date 2022.05.26  19:48:22

 INCAR:
   ISMEAR = -5
   SIGMA = 0.1
   ISPIN = 1
   EDIFF = 1.d-5
   EDIFFG = -0.01
   NSW = 0
   NELM = 150
   ENCUT = 500
   ISIF = 2
   IBRION = 2
   LREAL = Auto
   ALGO = Fast
   ICHARG = 11
   LORBIT = 10
   LCHARG = .F.
   LWAVE = .F.

 POTCAR:    PAW_PBE Ag 02Apr2005
 POTCAR:    PAW_PBE Ru 04Feb2005
 POTCAR:    PAW_PBE O 08Apr2002
|           W    W    AA    RRRRR   N    N  II  N    N   GGGG   !!!           |
|           W    W   A  A   R    R  NN   N  II  NN   N  G    G  !!!           |
|           W    W  A    A  R    R  N N  N  II  N N  N  G       !!!           |
|           W WW W  AAAAAA  RRRRR   N  N N  II  N  N N  G  GGG   !            |
|           WW  WW  A    A  R   R   N   NN  II  N   NN  G    G                |
|           W    W  A    A  R    R  N    N  II  N    N   GGGG   !!!           |
|     For optimal performance we recommend to set                             |
|       NCORE = 2 up to number-of-cores-per-socket                            |
|     This setting can greatly improve the performance of VASP for DFT.       |
|     The default, NCORE=1 might be grossly inefficient on modern             |
|     multi-core architectures or massively parallel machines. Do your        |
|     Unfortunately you need to use the default for GW and RPA                |
|     calculations (for HF NCORE is supported but not extensively tested      |
|     yet).                                                                   |

 POTCAR:    PAW_PBE Ag 02Apr2005
   VRHFIN =Ag : s1 d10

   TITEL  = PAW_PBE Ag 02Apr2005
   POMASS =  107.868; ZVAL   =   11.000    mass and valenz
   ENMAX  =  249.844; ENMIN  =  187.383 eV

 POTCAR:    PAW_PBE Ru 04Feb2005
   VRHFIN =Ru: s1 d7

   TITEL  = PAW_PBE Ru 04Feb2005
   POMASS =  101.070; ZVAL   =    8.000    mass and valenz
   ENMAX  =  213.271; ENMIN  =  159.953 eV

 POTCAR:    PAW_PBE O 08Apr2002
   VRHFIN =O: s2p4

   TITEL  = PAW_PBE O 08Apr2002
   POMASS =   16.000; ZVAL   =    6.000    mass and valenz
   ENMAX  =  400.000; ENMIN  =  300.000 eV

 Optimization of the real space projectors (new method)

 maximal supplied QI-value         = 15.12
 optimisation between [QCUT,QGAM] = [ 11.34, 22.83] = [ 36.00,145.93] Ry
 Optimized for a Real-space Cutoff    1.43 Angstroem

   l    n(q)    QCUT    max X(q) W(low)/X(q) W(high)/X(q)  e(spline)
   2      9    11.338    53.897    0.16E-03    0.20E-03    0.28E-06
   2      9    11.338    52.416    0.16E-03    0.20E-03    0.29E-06
   0     10    11.338   122.045    0.31E-04    0.76E-04    0.15E-06
   0     10    11.338    73.629    0.30E-04    0.72E-04    0.15E-06
   1      9    11.338    15.255    0.20E-03    0.19E-04    0.17E-06
   1      9    11.338     9.562    0.16E-03    0.15E-04    0.14E-06
 Optimization of the real space projectors (new method)

[...]

   l    n(q)    QCUT    max X(q) W(low)/X(q) W(high)/X(q)  e(spline)
   2      9    11.327    61.733    0.26E-03    0.14E-03    0.16E-06
   2      9    11.327    59.886    0.26E-03    0.14E-03    0.17E-06
   0     10    11.327    23.358    0.19E-03    0.14E-04    0.46E-06
   0     10    11.327    11.320    0.15E-03    0.11E-04    0.37E-06
   1     10    11.327    14.765    0.49E-04    0.26E-03    0.24E-06
   1     10    11.327     8.283    0.37E-04    0.20E-03    0.18E-06
 Optimization of the real space projectors (new method)

 maximal supplied QI-value         = 24.76
 optimisation between [QCUT,QGAM] = [ 11.39, 22.77] = [ 36.31,145.25] Ry
 Optimized for a Real-space Cutoff    1.00 Angstroem

   l    n(q)    QCUT    max X(q) W(low)/X(q) W(high)/X(q)  e(spline)
   0      7    11.387    20.381    0.39E-03    0.13E-02    0.15E-06
   0      7    11.387    15.268    0.42E-03    0.14E-02    0.17E-06
   1      6    11.387     5.964    0.41E-03    0.11E-02    0.17E-06
   1      6    11.387     5.382    0.39E-03    0.87E-03    0.15E-06
  PAW_PBE Ag 02Apr2005                  :
  PAW_PBE Ru 04Feb2005                  :
  PAW_PBE O 08Apr2002                   :

 POSCAR: Ag-Ru-O
  positions in direct lattice
  velocities in cartesian coordinates
 exchange correlation table for  LEXCH =        8
   RHO(1)=    0.500       N(1)  =     2000
   RHO(2)=  100.500       N(2)  =     4000

 VTST: version 3.2, (02/03/18)

 CHAIN: initializing optimizer

 OPT: Using VASP Conjugate-Gradient optimizer
 CHAIN: Read ICHAIN            0

 POSCAR: Ag-Ru-O
  positions in direct lattice
  velocities in cartesian coordinates

 ion  position               nearest neighbor table
   1  0.000  0.000  0.238-   2 2.93   8 2.93   7 2.93   6 2.93   4 2.93  12 2.93  16 2.93  10 2.93
                             3 2.93
   2  0.333  0.000  0.238-   1 2.93   8 2.93   9 2.93   3 2.93   4 2.93   5 2.93  10 2.93  17 2.93
                            11 2.93
   3  0.667  0.000  0.238-   9 2.93   2 2.93   5 2.93  11 2.93   7 2.93  18 2.93   1 2.93   6 2.93
                            12 2.93
   4  0.000  0.333  0.238-   5 2.93   6 2.93   2 2.93   1 2.93   7 2.93  13 2.93  15 2.93   9 2.93
                            10 2.93
   5  0.333  0.333  0.238-   4 2.93   3 2.93   7 2.93   2 2.93   8 2.93  14 2.93  13 2.93  11 2.93
                             6 2.93
   6  0.667  0.333  0.238-   4 2.93   9 2.93   1 2.93  15 2.93   8 2.93  12 2.93   3 2.93   5 2.93
                            14 2.93
   7  0.000  0.667  0.238-   8 2.93   1 2.93   5 2.93   3 2.93   4 2.93  16 2.93  18 2.93  13 2.93
                             9 2.93
   8  0.333  0.667  0.238-   7 2.93   1 2.93   2 2.93   9 2.93   5 2.93  16 2.93   6 2.93  17 2.93
                            14 2.93
   9  0.667  0.667  0.238-   3 2.93   2 2.93   8 2.93   6 2.93  17 2.93   4 2.93  15 2.93   7 2.93
                            18 2.93
  10  0.111  0.111  0.346-  20 2.90  19 2.93  26 2.93  12 2.93  16 2.93  15 2.93  17 2.93  13 2.93
                            11 2.93   2 2.93   1 2.93   4 2.93
  11  0.444  0.111  0.346-  21 2.90  20 2.90  27 2.92  14 2.93  17 2.93  18 2.93   3 2.93  12 2.93
                            13 2.93  10 2.93   5 2.93   2 2.93
  12  0.778  0.111  0.346-  21 2.90  25 2.93  19 2.93  10 2.93  16 2.93  18 2.93  15 2.93  11 2.93
                             1 2.93  14 2.93   6 2.93   3 2.93
  13  0.111  0.444  0.346-  20 2.90  23 2.90  22 2.92  15 2.93  14 2.93  18 2.93  10 2.93  11 2.93
                            16 2.93   4 2.93   5 2.93   7 2.93
  14  0.444  0.444  0.346-  23 2.90  21 2.90  24 2.92  13 2.93  11 2.93  16 2.93   5 2.93  12 2.93
                            17 2.93   8 2.93  15 2.93   6 2.93
  15  0.778  0.444  0.346-  24 2.92  22 2.92  19 2.93  13 2.93  10 2.93  12 2.93  17 2.93  18 2.93
                             4 2.93   6 2.93   9 2.93  14 2.93
  16  0.111  0.778  0.346-  23 2.90  26 2.93  25 2.93  18 2.93  12 2.93  10 2.93  14 2.93  17 2.93
                            13 2.93   7 2.93   8 2.93   1 2.93
  17  0.444  0.778  0.346-  27 2.92  24 2.92  26 2.93  11 2.93  10 2.93   9 2.93  18 2.93  15 2.93
                            16 2.93   2 2.93  14 2.93   8 2.93
  18  0.778  0.778  0.346-  22 2.92  27 2.92  25 2.93  16 2.93  12 2.93  13 2.93  11 2.93  17 2.93
                            15 2.93   7 2.93   3 2.93   9 2.93
  19  0.889  0.223  0.454-  28 2.91  15 2.93  10 2.93  12 2.93  24 2.93  22 2.93  26 2.93  25 2.93
                            20 2.94  21 2.94  32 2.94  31 2.94
  20  0.223  0.223  0.452-  36 2.77  13 2.90  11 2.90  10 2.90  21 2.92  23 2.92  31 2.92  29 2.92
                            27 2.93  22 2.93  19 2.94  26 2.94
  21  0.555  0.223  0.452-  36 2.77  11 2.90  14 2.90  12 2.90  20 2.92  23 2.92  30 2.92  32 2.92
                            27 2.93  24 2.93  25 2.94  19 2.94
  22  0.888  0.556  0.453-  35 2.91  18 2.92  15 2.92  13 2.92  33 2.92  31 2.92  24 2.92  27 2.92
                            25 2.93  19 2.93  23 2.93  20 2.93
  23  0.223  0.555  0.452-  36 2.77  14 2.90  13 2.90  16 2.90  21 2.92  20 2.92  34 2.92  33 2.92
                            22 2.93  24 2.93  26 2.94  25 2.94
  24  0.556  0.556  0.453-  35 2.91  15 2.92  17 2.92  14 2.92  32 2.92  34 2.92  27 2.92  22 2.92
                            19 2.93  26 2.93  23 2.93  21 2.93
  25  0.889  0.889  0.454-  28 2.91  18 2.93  16 2.93  12 2.93  22 2.93  27 2.93  26 2.93  19 2.93
                            23 2.94  21 2.94  33 2.94  30 2.94
  26  0.223  0.889  0.454-  28 2.91  17 2.93  16 2.93  10 2.93  27 2.93  24 2.93  25 2.93  19 2.93
                            23 2.94  20 2.94  34 2.94  29 2.94
  27  0.556  0.888  0.453-  35 2.91  17 2.92  18 2.92  11 2.92  29 2.92  30 2.92  24 2.92  22 2.92
                            26 2.93  25 2.93  20 2.93  21 2.93
  28  0.000  0.000  0.560-  26 2.91  25 2.91  19 2.91  29 2.95  34 2.95  33 2.95  32 2.95  31 2.95
                            30 2.95
  29  0.333  0.006  0.561-  31 2.88  30 2.88  36 2.89  20 2.92  27 2.92  26 2.94  28 2.95  35 2.96
                            34 3.03
  30  0.661  0.006  0.561-  32 2.88  29 2.88  36 2.89  21 2.92  27 2.92  25 2.94  28 2.95  35 2.96
                            33 3.03
  31  0.006  0.333  0.561-  29 2.88  33 2.88  36 2.89  20 2.92  22 2.92  19 2.94  28 2.95  35 2.96
                            32 3.03
  32  0.661  0.333  0.561-  30 2.88  34 2.88  36 2.89  21 2.92  24 2.92  19 2.94  28 2.95  35 2.96
                            31 3.03
  33  0.006  0.661  0.561-  34 2.88  31 2.88  36 2.89  23 2.92  22 2.92  25 2.94  28 2.95  35 2.96
                            30 3.03
  34  0.333  0.661  0.561-  33 2.88  32 2.88  36 2.89  23 2.92  24 2.92  26 2.94  28 2.95  35 2.96
                            29 3.03
  35  0.667  0.667  0.560-  24 2.91  27 2.91  22 2.91  30 2.96  32 2.96  29 2.96  34 2.96  31 2.96
                            33 2.96
  36  0.333  0.333  0.551-  37 1.72  21 2.77  20 2.77  23 2.77  31 2.89  30 2.89  33 2.89  29 2.89
                            34 2.89  32 2.89
  37  0.333  0.333  0.629-  36 1.72

  LATTYP: Found a hexagonal cell.
 ALAT       =     8.7913665772
 C/A-ratio  =     2.5227160501

  Lattice vectors:

 A1 = (  -4.3956832886,  -7.6135467898,   0.0000000000)
 A2 = (   8.7913665771,   0.0000000000,   0.0000000000)
 A3 = (   0.0000000000,   0.0000000000,  22.1781215668)

Analysis of symmetry for initial positions (statically):
 Subroutine PRICEL returns:
 Original cell was already a primitive cell.

 Routine SETGRP: Setting up the symmetry group for a
 hexagonal supercell.

 Subroutine GETGRP returns: Found  6 space group operations
 (whereof  6 operations were pure point group operations)
 out of a pool of 24 trial point group operations.

The static configuration has the point symmetry C_3v.

Analysis of symmetry for dynamics (positions and initial velocities):
 Subroutine PRICEL returns:
 Original cell was already a primitive cell.

[...]

The dynamic configuration has the point symmetry C_3v.

Analysis of constrained symmetry for selective dynamics:
 Subroutine PRICEL returns:
 Original cell was already a primitive cell.

 Routine SETGRP: Setting up the symmetry group for a
 hexagonal supercell.

 Subroutine GETGRP returns: Found  6 space group operations
[...]
     24      -4.6469      2.00000
     25      -4.6305      2.00000
     26      -4.6052      2.00000
     27      -4.5996      2.00000
     28      -4.5777      2.00000
     29      -4.5711      2.00000
     30      -4.5606      2.00000
     31      -4.5495      2.00000
     32      -4.5249      2.00000
     33      -4.5139      2.00000
     34      -4.5027      2.00000
     35      -4.4668      2.00000
     36      -4.4651      2.00000
     37      -4.4270      2.00000
     38      -4.4028      2.00000
     39      -4.3899      2.00000
     40      -4.3618      2.00000
     41      -4.3430      2.00000
     42      -4.3249      2.00000
     43      -4.3075      2.00000
     44      -4.2982      2.00000
     45      -4.2265      2.00000
     46      -4.2030      2.00000
     47      -4.1874      2.00000
     48      -4.1700      2.00000
     49      -4.1610      2.00000
     50      -4.1577      2.00000
     51      -4.1496      2.00000
     52      -4.1480      2.00000
     53      -4.1332      2.00000
     54      -4.1046      2.00000
     55      -4.0946      2.00000
     56      -4.0716      2.00000
     57      -4.0387      2.00000
     58      -4.0296      2.00000
     59      -4.0175      2.00000
     60      -4.0048      2.00000
[...]
    238       6.3320      0.00000
    239       6.3814      0.00000
    240       6.4365      0.00000
    241       7.1552      0.00000
    242       7.2369      0.00000
    243       7.3115      0.00000
    244       7.3428      0.00000
    245       7.3806      0.00000
    246       7.4046      0.00000
    247       7.4670      0.00000
    248       7.5522      0.00000
    249       7.6461      0.00000
    250       7.6788      0.00000
    251       7.6897      0.00000
    252       7.8089      0.00000

 soft charge-density along one line, spin component           1
         0         1         2         3         4         5         6         7         8         9
 total charge-density along one line

------------------------ aborting loop because EDIFF is reached ----------------------------------------

 total charge

# of ion       s       p       d       tot
    1        0.419   0.200   9.179   9.798
    2        0.416   0.203   9.177   9.797
    3        0.416   0.203   9.177   9.797
    4        0.416   0.203   9.177   9.797
    5        0.419   0.203   9.176   9.798
    6        0.416   0.203   9.177   9.797
    7        0.416   0.203   9.177   9.797
    8        0.416   0.203   9.177   9.797
    9        0.413   0.203   9.177   9.794
   10        0.409   0.268   9.164   9.841
   11        0.405   0.272   9.166   9.843
   12        0.409   0.268   9.164   9.841
   13        0.405   0.272   9.166   9.843
   14        0.405   0.272   9.166   9.843
   15        0.403   0.268   9.166   9.837
   16        0.409   0.268   9.164   9.841
   17        0.403   0.268   9.166   9.837
   18        0.403   0.268   9.166   9.837
   19        0.403   0.266   9.167   9.836
   20        0.432   0.297   9.146   9.875
   21        0.432   0.297   9.146   9.875
   22        0.395   0.272   9.168   9.835
   23        0.432   0.297   9.146   9.875
   24        0.395   0.272   9.168   9.835
   25        0.403   0.266   9.167   9.836
   26        0.403   0.266   9.167   9.836
   27        0.395   0.272   9.168   9.835
   28        0.420   0.196   9.181   9.797
   29        0.405   0.211   9.181   9.798
   30        0.405   0.211   9.181   9.798
   31        0.405   0.211   9.181   9.798
   32        0.405   0.211   9.181   9.798
   33        0.405   0.211   9.181   9.798
   34        0.405   0.211   9.181   9.798
   35        0.412   0.198   9.181   9.791
   36        0.591   0.687   6.660   7.939
   37        1.608   3.245   0.000   4.853
tot         16.553  12.351 327.635 356.539

  FORCE on cell =-STRESS in cart. coord.  units (eV):
  Direction    XX          YY          ZZ          XY          YZ          ZX
  Alpha Z   749.07536   749.07536   749.07536
  Ewald  120993.17183120993.17187************     0.00003    -0.00000     0.00004
  Hartree131266.22923131266.22925************     0.00001    -0.00000     0.00002
  E(xc)   -2096.73708 -2096.73708 -2101.45751     0.00001     0.00000     0.00000
  Local  ************************263552.85115     0.00047    -0.00005    -0.00017
  n-local  -344.26962  -323.51922  -326.43876    12.18974    -0.16962     0.49160
  augment  3274.59697  3274.59716  3273.72975    -0.00017     0.00001     0.00003
  Kinetic  4995.51132  4998.00618  4996.76471     3.51475     1.20466    -0.26024
  Fock        0.00000     0.00000     0.00000     0.00000     0.00000     0.00000
  Total      -7.40445    -7.40445     0.01216    -0.00000     0.00000     0.00000
  in kB      -7.99162    -7.99162     0.01313    -0.00000     0.00000     0.00000

 VOLUME and BASIS-vectors are now :
  energy-cutoff  :      500.00
  volume of cell :     1484.46
      direct lattice vectors                 reciprocal lattice vectors
     8.791366577  0.000000000  0.000000000     0.113747958 -0.065672414  0.000000000
     4.395683289  7.613546790  0.000000000     0.000000000  0.131344829  0.000000000
     0.000000000  0.000000000 22.178121567     0.000000000  0.000000000  0.045089481

  length of vectors
     8.791366577  8.791366577 22.178121567     0.131344829  0.131344829  0.045089481

 FORCES acting on ions
    electron-ion (+dipol)            ewald-force                    non-local-force                 convergence-correction
   0.459E-04 -.283E-04 0.251E+04   -.954E-04 0.593E-04 -.251E+04   0.350E-17 0.146E-17 -.204E+01   -.106E-03 -.168E-03 0.135E+00
   0.351E+00 0.476E+00 0.251E+04   -.410E+00 -.516E+00 -.251E+04   0.522E-01 0.118E+00 -.156E+01   0.871E-02 -.684E-01 0.139E+00
   -.351E+00 0.476E+00 0.251E+04   0.410E+00 -.516E+00 -.251E+04   -.522E-01 0.118E+00 -.156E+01   -.926E-02 -.664E-01 0.139E+00
   0.588E+00 0.662E-01 0.251E+04   -.652E+00 -.973E-01 -.251E+04   0.128E+00 -.138E-01 -.156E+01   -.546E-01 0.419E-01 0.139E+00
   -.569E-05 -.188E-04 0.251E+04   0.981E-04 -.198E-05 -.251E+04   0.502E-18 0.175E-17 -.146E+01   0.624E-02 0.381E-02 0.118E+00
   -.588E+00 0.662E-01 0.251E+04   0.652E+00 -.973E-01 -.251E+04   -.128E+00 -.138E-01 -.156E+01   0.532E-01 0.428E-01 0.140E+00
   0.237E+00 -.542E+00 0.251E+04   -.242E+00 0.613E+00 -.251E+04   0.761E-01 -.104E+00 -.156E+01   -.617E-01 0.257E-01 0.139E+00
   -.236E+00 -.542E+00 0.251E+04   0.242E+00 0.613E+00 -.251E+04   -.761E-01 -.104E+00 -.156E+01   0.634E-01 0.247E-01 0.140E+00
   0.360E-04 -.132E-04 0.251E+04   0.792E-04 -.643E-04 -.251E+04   -.651E-18 -.792E-18 -.178E+01   -.666E-02 -.344E-02 0.132E+00
   0.482E+01 0.278E+01 0.856E+03   -.436E+01 -.252E+01 -.855E+03   -.408E+00 -.236E+00 -.784E+00   -.527E-01 -.304E-01 0.212E+00
   -.288E-04 0.543E+01 0.862E+03   0.413E-04 -.539E+01 -.862E+03   0.671E-12 0.102E+00 -.303E+00   0.629E-02 -.161E+00 0.275E+00
   -.482E+01 0.278E+01 0.856E+03   0.436E+01 -.252E+01 -.855E+03   0.408E+00 -.236E+00 -.784E+00   0.511E-01 -.293E-01 0.211E+00
   0.470E+01 -.272E+01 0.862E+03   -.467E+01 0.270E+01 -.862E+03   0.885E-01 -.511E-01 -.303E+00   -.137E+00 0.862E-01 0.275E+00
   -.470E+01 -.272E+01 0.862E+03   0.467E+01 0.270E+01 -.862E+03   -.885E-01 -.511E-01 -.303E+00   0.147E+00 0.854E-01 0.274E+00
   0.161E-04 0.542E+00 0.856E+03   -.108E-03 -.659E+00 -.855E+03   0.380E-12 0.578E-01 -.656E+00   -.165E-02 0.368E-01 0.208E+00
   -.791E-05 -.557E+01 0.856E+03   0.206E-04 0.503E+01 -.855E+03   0.310E-11 0.472E+00 -.784E+00   0.121E-03 0.588E-01 0.212E+00
   0.469E+00 -.271E+00 0.856E+03   -.571E+00 0.329E+00 -.855E+03   0.501E-01 -.289E-01 -.656E+00   0.310E-01 -.198E-01 0.208E+00
   -.469E+00 -.271E+00 0.856E+03   0.571E+00 0.329E+00 -.855E+03   -.501E-01 -.289E-01 -.656E+00   -.310E-01 -.179E-01 0.209E+00
   0.401E-04 0.617E+00 -.829E+03   -.128E-03 -.733E+00 0.828E+03   0.553E-12 0.842E-01 0.591E+00   -.409E-03 0.258E-01 0.210E+00
   0.128E+02 0.739E+01 -.798E+03   -.116E+02 -.671E+01 0.799E+03   -.127E+01 -.732E+00 -.873E+00   0.470E-01 0.272E-01 0.414E+00
   -.128E+02 0.739E+01 -.798E+03   0.116E+02 -.671E+01 0.799E+03   0.127E+01 -.732E+00 -.873E+00   -.470E-01 0.275E-01 0.413E+00
   0.426E+01 -.246E+01 -.820E+03   -.460E+01 0.265E+01 0.819E+03   0.331E+00 -.191E+00 0.699E+00   0.173E-01 -.969E-02 0.246E+00
   -.561E-04 -.148E+02 -.798E+03   0.432E-04 0.134E+02 0.799E+03   0.961E-11 0.146E+01 -.873E+00   0.653E-03 -.539E-01 0.413E+00
   -.427E+01 -.246E+01 -.820E+03   0.460E+01 0.265E+01 0.819E+03   -.331E+00 -.191E+00 0.699E+00   -.173E-01 -.988E-02 0.246E+00
   -.534E+00 -.308E+00 -.829E+03   0.635E+00 0.367E+00 0.828E+03   -.729E-01 -.421E-01 0.591E+00   -.219E-01 -.128E-01 0.210E+00
   0.534E+00 -.308E+00 -.829E+03   -.635E+00 0.367E+00 0.828E+03   0.729E-01 -.421E-01 0.591E+00   0.218E-01 -.134E-01 0.210E+00
   0.206E-04 0.492E+01 -.820E+03   0.110E-03 -.531E+01 0.819E+03   0.251E-11 0.382E+00 0.699E+00   -.395E-03 0.198E-01 0.246E+00
   0.542E-04 -.370E-04 -.248E+04   -.116E-03 0.781E-04 0.248E+04   -.507E-17 0.242E-17 0.182E+01   0.547E-04 -.105E-03 0.800E-01
   0.222E+02 0.389E+02 -.247E+04   -.223E+02 -.392E+02 0.247E+04   -.221E+00 -.158E+00 0.213E+01   0.169E+00 0.202E+00 0.692E-01
   -.222E+02 0.389E+02 -.247E+04   0.223E+02 -.392E+02 0.247E+04   0.221E+00 -.158E+00 0.213E+01   -.169E+00 0.203E+00 0.693E-01
   0.448E+02 -.220E+00 -.247E+04   -.451E+02 0.300E+00 0.247E+04   -.247E+00 -.112E+00 0.213E+01   0.259E+00 0.452E-01 0.692E-01
   -.448E+02 -.220E+00 -.247E+04   0.451E+02 0.300E+00 0.247E+04   0.247E+00 -.112E+00 0.213E+01   -.260E+00 0.461E-01 0.693E-01
   0.226E+02 -.387E+02 -.247E+04   -.228E+02 0.389E+02 0.247E+04   -.261E-01 0.270E+00 0.213E+01   0.921E-01 -.248E+00 0.692E-01
   -.226E+02 -.387E+02 -.247E+04   0.228E+02 0.389E+02 0.247E+04   0.261E-01 0.270E+00 0.213E+01   -.906E-01 -.248E+00 0.693E-01
   0.224E-04 -.117E-04 -.248E+04   0.106E-03 -.662E-04 0.248E+04   0.301E-17 0.125E-17 0.196E+01   -.657E-02 -.336E-02 0.849E-01
   0.185E-05 -.120E-04 -.153E+04   0.767E-04 0.950E-05 0.154E+04   0.332E-17 -.105E-16 -.642E+01   0.220E-02 0.134E-02 0.255E+00
   0.181E-03 -.983E-04 -.166E+04   0.289E-04 0.431E-06 0.169E+04   -.787E-18 -.669E-18 -.296E+02   0.359E-02 0.220E-02 -.362E+00
   0.580E-03 -.775E-03 0.318E+02   -.771E-14 0.260E-13 -.909E-11   0.203E-15 0.545E-15 -.381E+02   0.119E-01 0.102E-01 0.639E+01

 POSITION                                       TOTAL-FORCE (eV/Angst)
      0.00000      0.00000      5.28219         0.000000      0.000000     -0.026272
      2.93046      0.00000      5.28219         0.002425      0.010344      0.027957
      5.86091      0.00000      5.28219        -0.002425      0.010344      0.027957
      1.46523      2.53785      5.28219         0.010171     -0.003072      0.027957
      4.39568      2.53785      5.28219         0.000000     -0.000000      0.011587
      7.32614      2.53785      5.28219        -0.010171     -0.003072      0.027957
      2.93046      5.07570      5.28219         0.007746     -0.007272      0.027957
      5.86091      5.07570      5.28219        -0.007746     -0.007272      0.027957
      8.79137      5.07570      5.28219         0.000000     -0.000000     -0.000263
      1.46523      0.84595      7.67490         0.003473      0.002005      0.001538
      4.39568      0.84595      7.67490        -0.000000     -0.023811     -0.051372
      7.32614      0.84595      7.67490        -0.003473      0.002005      0.001538
      2.93046      3.38380      7.67490        -0.020621      0.011905     -0.051372
      5.86091      3.38380      7.67490         0.020621      0.011905     -0.051372
      8.79137      3.38380      7.67490        -0.000000     -0.022967      0.006257
      4.39568      5.92165      7.67490        -0.000000     -0.004010      0.001538
      7.32614      5.92165      7.67490        -0.019890      0.011483      0.006257
     10.25659      5.92165      7.67490         0.019890      0.011483      0.006257
      8.79137      1.69450     10.06282        -0.000000     -0.006789     -0.017157
      2.93652      1.69540     10.03056        -0.054168     -0.031274     -0.144882
      5.85484      1.69540     10.03056         0.054168     -0.031274     -0.144882
     10.25378      4.23137     10.05553         0.015519     -0.008960     -0.026116
      4.39568      4.22274     10.03056         0.000000      0.062548     -0.144882
      7.32895      4.23137     10.05553        -0.015519     -0.008960     -0.026116
     11.71957      6.76630     10.06282         0.005879      0.003394     -0.017157
      5.86316      6.76630     10.06282        -0.005879      0.003394     -0.017157
      8.79137      6.76435     10.05553         0.000000      0.017920     -0.026116
      0.00000      0.00000     12.42400         0.000000      0.000000      0.037418
      2.95387      0.04433     12.43748        -0.144888     -0.275793     -0.126434
      5.83749      0.04433     12.43748         0.144888     -0.275793     -0.126434
      1.51533      2.53597     12.43748        -0.311288      0.012420     -0.126434
      7.27604      2.53597     12.43748         0.311288      0.012420     -0.126434
      2.95713      5.03325     12.43748        -0.166400      0.263374     -0.126434
      5.83423      5.03325     12.43748         0.166400      0.263374     -0.126434
      8.79137      5.07570     12.42069         0.000000     -0.000000      0.055204
      4.39568      2.53785     12.23056         0.000000      0.000000      1.283369
      4.39568      2.53785     13.94561         0.000000     -0.000000     -0.074979
    total drift:                                0.012516      0.009461      0.087794

  FREE ENERGIE OF THE ION-ELECTRON SYSTEM (eV)
  free  energy   TOTEN  =      -102.71699907 eV

  energy  without entropy=     -102.71699907  energy(sigma->0) =     -102.71699907

 stress matrix after NEB project (eV)
     -7.40445     -0.00000      0.00000
     -0.00000     -7.40445      0.00000
      0.00000      0.00000      0.01216
  FORCES: max atom, RMS     0.074979    0.012326
  FORCE total and by dimension    0.074979    0.074979
  Stress total and by dimension   10.471474    7.404445
|           W    W    AA    RRRRR   N    N  II  N    N   GGGG   !!!           |
|           W    W   A  A   R    R  NN   N  II  NN   N  G    G  !!!           |
|           W    W  A    A  R    R  N N  N  II  N N  N  G       !!!           |
|           W WW W  AAAAAA  RRRRR   N  N N  II  N  N N  G  GGG   !            |
|           WW  WW  A    A  R   R   N   NN  II  N   NN  G    G                |
|           W    W  A    A  R    R  N    N  II  N    N   GGGG   !!!           |
|     Tetrahedron method does not include variations of the Fermi             |
|     occupations, so forces and stress will be inaccurate. We suggest        |
|     using a different smearing scheme ISMEAR = 1 or 2 for metals in         |
|     relaxations.                                                            |

 total charge

# of ion       s       p       d       tot
    1        0.419   0.200   9.179   9.798
    2        0.416   0.203   9.177   9.797
    3        0.416   0.203   9.177   9.797
    4        0.416   0.203   9.177   9.797
    5        0.419   0.203   9.176   9.798
    6        0.416   0.203   9.177   9.797
    7        0.416   0.203   9.177   9.797
    8        0.416   0.203   9.177   9.797
    9        0.413   0.203   9.177   9.794
   10        0.409   0.268   9.164   9.841
   11        0.405   0.272   9.166   9.843
   12        0.409   0.268   9.164   9.841
   13        0.405   0.272   9.166   9.843
   14        0.405   0.272   9.166   9.843
   15        0.403   0.268   9.166   9.837
   16        0.409   0.268   9.164   9.841
   17        0.403   0.268   9.166   9.837
   18        0.403   0.268   9.166   9.837
   19        0.403   0.266   9.167   9.836
   20        0.432   0.297   9.146   9.875
   21        0.432   0.297   9.146   9.875
   22        0.395   0.272   9.168   9.835
   23        0.432   0.297   9.146   9.875
   24        0.395   0.272   9.168   9.835
   25        0.403   0.266   9.167   9.836
   26        0.403   0.266   9.167   9.836
   27        0.395   0.272   9.168   9.835
   28        0.420   0.196   9.181   9.797
   29        0.405   0.211   9.181   9.798
   30        0.405   0.211   9.181   9.798
   31        0.405   0.211   9.181   9.798
   32        0.405   0.211   9.181   9.798
   33        0.405   0.211   9.181   9.798
   34        0.405   0.211   9.181   9.798
   35        0.412   0.198   9.181   9.791
   36        0.591   0.687   6.660   7.939
   37        1.608   3.245   0.000   4.853
tot         16.553  12.351 327.635 356.539

 BZINTS: Fermi energy:    0.821504;  399.000000 electrons
         Band energy:-0.132170E+04;  BLOECHL correction:   -0.046570