 vasp.6.2.0 18Jan21 (build Jun 12 2021 23:27:24) complex

 executed on             LinuxIFC date 2022.05.28  00:56:46

 INCAR:
   ISMEAR = -5
   SIGMA = 0.1
   ISPIN = 1
   EDIFF = 1.d-5
   EDIFFG = -0.01
   NSW = 0
   NELM = 150
   ENCUT = 500
   ISIF = 2
   IBRION = 2
   LREAL = Auto
   ALGO = Fast
   ICHARG = 11
   LORBIT = 10
   LCHARG = .F.
   LWAVE = .F.

 POTCAR:    PAW_PBE Au 04Oct2007
 POTCAR:    PAW_PBE Nb_sv 25May2007
 POTCAR:    PAW_PBE H 15Jun2001
 POTCAR:    PAW_PBE O 08Apr2002
|           W    W    AA    RRRRR   N    N  II  N    N   GGGG   !!!           |
|           W    W   A  A   R    R  NN   N  II  NN   N  G    G  !!!           |
|           W    W  A    A  R    R  N N  N  II  N N  N  G       !!!           |
|           W WW W  AAAAAA  RRRRR   N  N N  II  N  N N  G  GGG   !            |
|           WW  WW  A    A  R   R   N   NN  II  N   NN  G    G                |
|           W    W  A    A  R    R  N    N  II  N    N   GGGG   !!!           |
|     For optimal performance we recommend to set                             |
|       NCORE = 2 up to number-of-cores-per-socket                            |
|     This setting can greatly improve the performance of VASP for DFT.       |
|     The default, NCORE=1 might be grossly inefficient on modern             |
|     multi-core architectures or massively parallel machines. Do your        |
|     Unfortunately you need to use the default for GW and RPA                |
|     calculations (for HF NCORE is supported but not extensively tested      |
|     yet).                                                                   |

 POTCAR:    PAW_PBE Au 04Oct2007
   VRHFIN =Au: s1d10

   TITEL  = PAW_PBE Au 04Oct2007
   POMASS =  196.966; ZVAL   =   11.000    mass and valenz
   ENMAX  =  229.943; ENMIN  =  172.457 eV

 POTCAR:    PAW_PBE Nb_sv 25May2007
   VRHFIN =Nb: 4p5s4d

   TITEL  = PAW_PBE Nb_sv 25May2007
   POMASS =   92.910; ZVAL   =   13.000    mass and valenz
   ENMAX  =  293.235; ENMIN  =  219.927 eV

 POTCAR:    PAW_PBE H 15Jun2001
   VRHFIN =H: ultrasoft test

   TITEL  = PAW_PBE H 15Jun2001
   POMASS =    1.000; ZVAL   =    1.000    mass and valenz
   ENMAX  =  250.000; ENMIN  =  200.000 eV

 POTCAR:    PAW_PBE O 08Apr2002
   VRHFIN =O: s2p4

   TITEL  = PAW_PBE O 08Apr2002
   POMASS =   16.000; ZVAL   =    6.000    mass and valenz
   ENMAX  =  400.000; ENMIN  =  300.000 eV

 Optimization of the real space projectors (new method)

 maximal supplied QI-value         = 15.12
 optimisation between [QCUT,QGAM] = [ 11.34, 22.83] = [ 36.00,145.93] Ry
 Optimized for a Real-space Cutoff    1.39 Angstroem

   l    n(q)    QCUT    max X(q) W(low)/X(q) W(high)/X(q)  e(spline)
   2      9    11.338    60.898    0.39E-03    0.42E-03    0.21E-06
   2      9    11.338    58.894    0.40E-03    0.42E-03    0.22E-06
   0      9    11.338   109.617    0.13E-03    0.20E-04    0.13E-06
   0      9    11.338    75.026    0.13E-03    0.20E-04    0.13E-06
   1      9    11.338    16.344    0.33E-04    0.24E-03    0.18E-06
   1      9    11.338    10.160    0.26E-04    0.19E-03    0.15E-06
 Optimization of the real space projectors (new method)

[...]

   l    n(q)    QCUT    max X(q) W(low)/X(q) W(high)/X(q)  e(spline)
   0      8    11.287    19.460    0.40E-03    0.73E-03    0.16E-06
   0      8    11.287    12.209    0.38E-03    0.70E-03    0.15E-06
   1      7    11.287     4.655    0.22E-03    0.25E-04    0.22E-06
 Optimization of the real space projectors (new method)

 maximal supplied QI-value         = 24.76
 optimisation between [QCUT,QGAM] = [ 11.39, 22.77] = [ 36.31,145.25] Ry
 Optimized for a Real-space Cutoff    1.00 Angstroem

   l    n(q)    QCUT    max X(q) W(low)/X(q) W(high)/X(q)  e(spline)
   0      7    11.387    20.381    0.39E-03    0.13E-02    0.15E-06
   0      7    11.387    15.268    0.42E-03    0.14E-02    0.17E-06
   1      6    11.387     5.964    0.41E-03    0.11E-02    0.17E-06
   1      6    11.387     5.382    0.39E-03    0.87E-03    0.15E-06
  PAW_PBE Au 04Oct2007                  :
  PAW_PBE Nb_sv 25May2007               :
  PAW_PBE H 15Jun2001                   :
  PAW_PBE O 08Apr2002                   :

 POSCAR: Au-Nb-H2O
  positions in direct lattice
  velocities in cartesian coordinates
 exchange correlation table for  LEXCH =        8
   RHO(1)=    0.500       N(1)  =     2000
   RHO(2)=  100.500       N(2)  =     4000

 VTST: version 3.2, (02/03/18)

 CHAIN: initializing optimizer

 OPT: Using VASP Conjugate-Gradient optimizer
 CHAIN: Read ICHAIN            0

 POSCAR: Au-Nb-H2O
  positions in direct lattice
  velocities in cartesian coordinates

 ion  position               nearest neighbor table
   1  0.000  0.000  0.213-  16 2.94  12 2.94   6 2.94   8 2.94   7 2.94   3 2.94  10 2.94   4 2.94
                             2 2.94
   2  0.333  0.000  0.213-   9 2.94  11 2.94  17 2.94  10 2.94   8 2.94   4 2.94   5 2.94   1 2.94
                             3 2.94
   3  0.667  0.000  0.213-   7 2.94  18 2.94  12 2.94   1 2.94  11 2.94   5 2.94   6 2.94   9 2.94
                             2 2.94
   4  0.000  0.333  0.213-  10 2.94   6 2.94   5 2.94  13 2.94   2 2.94  15 2.94   9 2.94   1 2.94
                             7 2.94
   5  0.333  0.333  0.213-  13 2.94   7 2.94  11 2.94   4 2.94   2 2.94  14 2.94   3 2.94   8 2.94
                             6 2.94
   6  0.667  0.333  0.213-  15 2.94  14 2.94   1 2.94  12 2.94   4 2.94   9 2.94   8 2.94   3 2.94
                             5 2.94
   7  0.000  0.667  0.213-  18 2.94   3 2.94  16 2.94   5 2.94   1 2.94  13 2.94   8 2.94   4 2.94
                             9 2.94
   8  0.333  0.667  0.213-   9 2.94  17 2.94   1 2.94   2 2.94  14 2.94  16 2.94   6 2.94   7 2.94
                             5 2.94
   9  0.667  0.667  0.213-   2 2.94   8 2.94  17 2.94   6 2.94  15 2.94   4 2.94   3 2.94  18 2.94
                             7 2.94
  10  0.111  0.111  0.310-  20 2.91  11 2.94  17 2.94   2 2.94   4 2.94   1 2.94  12 2.94  16 2.94
                            13 2.94  15 2.94  26 2.95  19 2.95
  11  0.444  0.111  0.310-  20 2.91  21 2.91  13 2.94   2 2.94  10 2.94  17 2.94   5 2.94   3 2.94
                            18 2.94  14 2.94  12 2.94  27 2.94
  12  0.778  0.111  0.310-  21 2.91  16 2.94  18 2.94   1 2.94  14 2.94  15 2.94   3 2.94   6 2.94
                            10 2.94  11 2.94  25 2.95  19 2.95
  13  0.111  0.444  0.310-  23 2.91  20 2.91   5 2.94  18 2.94  11 2.94   7 2.94   4 2.94  16 2.94
                            10 2.94  14 2.94  15 2.94  22 2.94
  14  0.444  0.444  0.310-  21 2.91  23 2.91  15 2.94   6 2.94  12 2.94   8 2.94  17 2.94   5 2.94
                            16 2.94  13 2.94  11 2.94  24 2.94
  15  0.778  0.444  0.310-  24 2.93  22 2.93  14 2.94   6 2.94  17 2.94  12 2.94   9 2.94   4 2.94
                            10 2.94  13 2.94  18 2.94  19 2.94
  16  0.111  0.778  0.310-  23 2.91  18 2.94  12 2.94   7 2.94   1 2.94   8 2.94  13 2.94  10 2.94
                            14 2.94  17 2.94  25 2.95  26 2.95
  17  0.444  0.778  0.310-  27 2.93  24 2.93   9 2.94  15 2.94   2 2.94  10 2.94  11 2.94   8 2.94
                            14 2.94  16 2.94  18 2.94  26 2.94
  18  0.778  0.778  0.310-  22 2.93  27 2.93  16 2.94   7 2.94  13 2.94  12 2.94   3 2.94  11 2.94
                             9 2.94  15 2.94  17 2.94  25 2.94
  19  0.889  0.223  0.408-  24 2.93  22 2.93  21 2.94  20 2.94  15 2.94  26 2.94  25 2.94  10 2.95
                            12 2.95  28 2.95  32 3.04  31 3.04
  20  0.222  0.222  0.406-  36 2.78  10 2.91  11 2.91  13 2.91  26 2.94  19 2.94  23 2.94  21 2.94
                            27 2.95  22 2.95  29 2.99  31 2.99
  21  0.556  0.222  0.406-  36 2.78  12 2.91  14 2.91  11 2.91  25 2.94  19 2.94  20 2.94  23 2.94
                            27 2.95  24 2.95  30 2.99  32 2.99
  22  0.887  0.557  0.407-  24 2.91  27 2.91  18 2.93  15 2.93  25 2.93  19 2.93  13 2.94  23 2.95
                            20 2.95  35 2.96  33 3.02  31 3.02
  23  0.222  0.556  0.406-  36 2.78  16 2.91  13 2.91  14 2.91  25 2.94  26 2.94  20 2.94  21 2.94
                            22 2.95  24 2.95  33 2.99  34 2.99
  24  0.557  0.557  0.407-  27 2.91  22 2.91  15 2.93  17 2.93  26 2.93  19 2.93  14 2.94  21 2.95
                            23 2.95  35 2.96  32 3.02  34 3.02
  25  0.889  0.889  0.408-  22 2.93  27 2.93  23 2.94  21 2.94  18 2.94  19 2.94  26 2.94  16 2.95
                            12 2.95  28 2.95  33 3.04  30 3.04
  26  0.223  0.889  0.408-  27 2.93  24 2.93  20 2.94  23 2.94  17 2.94  19 2.94  25 2.94  10 2.95
                            16 2.95  28 2.95  29 3.04  34 3.04
  27  0.557  0.887  0.407-  24 2.91  22 2.91  17 2.93  18 2.93  26 2.93  25 2.93  11 2.94  20 2.95
                            21 2.95  35 2.96  29 3.02  30 3.02
  28  0.000  0.000  0.505-  25 2.95  19 2.95  26 2.95  34 2.98  32 2.98  33 2.98  30 2.98  31 2.98
                            29 2.98
  29  0.334  0.009  0.507-  30 2.85  31 2.86  36 2.87  35 2.98  28 2.98  20 2.99  27 3.02  26 3.04
                            34 3.10
  30  0.657  0.009  0.507-  29 2.85  32 2.86  36 2.87  35 2.98  28 2.98  21 2.99  27 3.02  25 3.04
                            33 3.10
  31  0.009  0.334  0.507-  33 2.85  29 2.86  36 2.87  35 2.98  28 2.98  20 2.99  22 3.02  19 3.04
                            32 3.10
  32  0.657  0.334  0.507-  34 2.85  30 2.86  36 2.87  35 2.98  28 2.98  21 2.99  24 3.02  19 3.04
                            31 3.10
  33  0.009  0.657  0.507-  31 2.85  34 2.86  36 2.87  35 2.98  28 2.98  23 2.99  22 3.02  25 3.04
                            30 3.10
  34  0.334  0.657  0.507-  32 2.85  33 2.86  36 2.87  35 2.98  28 2.98  23 2.99  24 3.02  26 3.04
                            29 3.10
  35  0.667  0.667  0.505-  24 2.96  27 2.96  22 2.96  29 2.98  34 2.98  32 2.98  31 2.98  30 2.98
                            33 2.98
  36  0.333  0.333  0.495-  39 2.29  20 2.78  23 2.78  21 2.78  33 2.87  31 2.87  29 2.87  30 2.87
                            34 2.87  32 2.87
  37  0.281  0.260  0.597-  39 0.98
  38  0.460  0.259  0.597-  39 0.98
  39  0.335  0.329  0.587-  38 0.98  37 0.98  36 2.29

  LATTYP: Found a hexagonal cell.
 ALAT       =     8.8135128021
 C/A-ratio  =     2.8075332270

  Lattice vectors:

 A1 = (  -4.4067569092,  -7.6327256898,   0.0000000000)
 A2 = (   8.8135128021,   0.0000000000,   0.0000000000)
 A3 = (   0.0000000000,   0.0000000000,  24.7442300386)

Analysis of symmetry for initial positions (statically):
 Subroutine PRICEL returns:
 Original cell was already a primitive cell.

 Routine SETGRP: Setting up the symmetry group for a
 hexagonal supercell.

 Subroutine GETGRP returns: Found  1 space group operations
 (whereof  1 operations were pure point group operations)
 out of a pool of 24 trial point group operations.

The static configuration has the point symmetry C_1 .

Analysis of symmetry for dynamics (positions and initial velocities):
 Subroutine PRICEL returns:
 Original cell was already a primitive cell.

[...]

The dynamic configuration has the point symmetry C_1 .

Analysis of constrained symmetry for selective dynamics:
 Subroutine PRICEL returns:
[...]
     41      -4.9529      2.00000
     42      -4.9389      2.00000
     43      -4.9240      2.00000
     44      -4.8636      2.00000
     45      -4.7385      2.00000
     46      -4.7266      2.00000
     47      -4.6739      2.00000
     48      -4.6203      2.00000
     49      -4.5896      2.00000
     50      -4.5796      2.00000
     51      -4.5495      2.00000
     52      -4.5193      2.00000
     53      -4.5048      2.00000
     54      -4.4139      2.00000
     55      -4.3983      2.00000
     56      -4.3722      2.00000
     57      -4.3462      2.00000
     58      -4.3420      2.00000
     59      -4.3347      2.00000
     60      -4.3105      2.00000
[...]
    238       5.2935      0.00000
    239       5.7113      0.00000
    240       5.7632      0.00000
    241       5.8358      0.00000
    242       5.9338      0.00000
    243       6.0737      0.00000
    244       6.1247      0.00000
    245       6.1968      0.00000
    246       6.2946      0.00000
    247       6.4348      0.00000
    248       6.4812      0.00000
    249       6.5637      0.00000
    250       6.6113      0.00000
    251       6.6880      0.00000
    252       6.7061      0.00000

 soft charge-density along one line, spin component           1
         0         1         2         3         4         5         6         7         8         9
 total charge-density along one line

------------------------ aborting loop because EDIFF is reached ----------------------------------------

 total charge

# of ion       s       p       d       tot
    1        0.549   0.236   8.768   9.553
    2        0.542   0.241   8.764   9.548
    3        0.542   0.241   8.764   9.548
    4        0.542   0.241   8.765   9.548
    5        0.546   0.241   8.761   9.548
    6        0.542   0.241   8.765   9.548
    7        0.541   0.241   8.765   9.548
    8        0.541   0.241   8.765   9.548
    9        0.544   0.240   8.766   9.549
   10        0.528   0.306   8.767   9.602
   11        0.522   0.307   8.779   9.608
   12        0.528   0.306   8.767   9.602
   13        0.520   0.307   8.779   9.607
   14        0.520   0.307   8.779   9.607
   15        0.516   0.307   8.774   9.597
   16        0.527   0.307   8.767   9.601
   17        0.515   0.307   8.775   9.597
   18        0.515   0.307   8.775   9.597
   19        0.521   0.296   8.770   9.587
   20        0.581   0.340   8.721   9.642
   21        0.581   0.340   8.721   9.642
   22        0.507   0.306   8.777   9.589
   23        0.580   0.340   8.721   9.641
   24        0.507   0.306   8.777   9.589
   25        0.519   0.296   8.771   9.586
   26        0.519   0.296   8.771   9.586
   27        0.509   0.306   8.776   9.590
   28        0.542   0.232   8.749   9.523
   29        0.596   0.256   8.725   9.577
   30        0.596   0.256   8.725   9.577
   31        0.595   0.255   8.725   9.576
   32        0.595   0.255   8.725   9.575
   33        0.591   0.249   8.730   9.569
   34        0.591   0.249   8.730   9.569
   35        0.539   0.232   8.754   9.525
   36        2.173   5.996   2.233  10.402
   37        0.598   0.118   0.000   0.716
   38        0.598   0.118   0.000   0.716
   39        1.566   3.622   0.000   5.188
tot         23.985  19.589 308.747 352.321

  FORCE on cell =-STRESS in cart. coord.  units (eV):
  Direction    XX          YY          ZZ          XY          YZ          ZX
  Alpha Z   938.76164   938.76164   938.76164
  Ewald  158701.62864158630.91131************    -0.12918   -29.19217    -0.08538
  Hartree167418.57499167403.55858************    -0.03140    -6.71112    -0.01531
  E(xc)   -1822.39723 -1822.68278 -1830.13485    -0.00054    -0.07290    -0.00032
  Local  ************************338538.35645     0.13117    28.66256     0.07780
  n-local   -79.57092   -80.54991   -44.91532    -0.00025    -0.21130    -0.00033
  augment  2387.47759  2388.56608  2408.68731     0.00043     0.40257     0.00146
  Kinetic  5721.38149  5739.18727  5801.45649     0.03153     6.94687     0.02273
  Fock        0.00000     0.00000     0.00000     0.00000     0.00000     0.00000
  Total     -22.12179   -22.18060     2.05587     0.00176    -0.17548     0.00064
  in kB     -21.29258   -21.34918     1.97881     0.00169    -0.16891     0.00062

 VOLUME and BASIS-vectors are now :
  energy-cutoff  :      500.00
  volume of cell :     1664.57
      direct lattice vectors                 reciprocal lattice vectors
     8.813512802  0.000000000  0.000000000     0.113462137 -0.065507406  0.000000000
     4.406756909  7.632725690  0.000000000     0.000000000  0.131014796  0.000000000
     0.000000000  0.000000000 24.744230039     0.000000000  0.000000000  0.040413462

  length of vectors
     8.813512802  8.813512802 24.744230039     0.131014796  0.131014796  0.040413462

 FORCES acting on ions
    electron-ion (+dipol)            ewald-force                    non-local-force                 convergence-correction
   0.202E-02 0.961E-02 0.272E+04   0.443E-04 -.107E-01 -.272E+04   0.234E-05 0.118E-02 -.703E+00   -.207E-02 0.811E-03 -.118E+00
   0.872E+00 0.752E+00 0.272E+04   -.896E+00 -.941E+00 -.272E+04   0.410E-01 0.154E+00 -.231E+00   -.169E-01 0.219E-01 -.120E+00
   -.874E+00 0.740E+00 0.272E+04   0.896E+00 -.941E+00 -.272E+04   -.409E-01 0.154E+00 -.231E+00   0.191E-01 0.332E-01 -.117E+00
   0.108E+01 0.359E+00 0.272E+04   -.125E+01 -.293E+00 -.272E+04   0.151E+00 -.494E-01 -.240E+00   0.108E-01 -.131E-01 -.119E+00
   -.148E-01 -.436E-01 0.272E+04   0.124E-03 0.189E-01 -.272E+04   0.353E-04 -.427E-02 0.212E+00   0.149E-01 0.233E-01 -.646E-01
   -.107E+01 0.355E+00 0.272E+04   0.125E+01 -.293E+00 -.272E+04   -.151E+00 -.494E-01 -.241E+00   -.211E-01 -.883E-02 -.113E+00
   0.181E+00 -.110E+01 0.272E+04   -.357E+00 0.123E+01 -.272E+04   0.120E+00 -.111E+00 -.275E+00   0.411E-01 -.157E-01 -.124E+00
   -.191E+00 -.109E+01 0.272E+04   0.357E+00 0.123E+01 -.272E+04   -.120E+00 -.111E+00 -.275E+00   -.317E-01 -.229E-01 -.123E+00
   0.139E-01 0.338E-01 0.272E+04   0.145E-03 -.785E-02 -.272E+04   -.423E-04 -.138E-02 -.360E+00   -.142E-01 -.234E-01 -.127E-01
   0.931E+01 0.536E+01 0.961E+03   -.885E+01 -.510E+01 -.960E+03   -.406E+00 -.244E+00 -.693E+00   -.640E-01 -.254E-01 -.258E+00
   -.129E-01 0.102E+02 0.974E+03   0.267E-03 -.102E+02 -.974E+03   -.192E-04 -.312E-01 -.111E+00   0.129E-01 -.470E-01 -.249E+00
   -.930E+01 0.535E+01 0.961E+03   0.885E+01 -.510E+01 -.960E+03   0.406E+00 -.243E+00 -.693E+00   0.553E-01 -.172E-01 -.259E+00
   0.883E+01 -.523E+01 0.974E+03   -.881E+01 0.520E+01 -.974E+03   -.117E-01 0.160E-01 -.111E+00   -.500E-01 0.448E-01 -.252E+00
   -.885E+01 -.523E+01 0.974E+03   0.881E+01 0.520E+01 -.974E+03   0.117E-01 0.161E-01 -.111E+00   0.717E-01 0.410E-01 -.255E+00
   0.128E-01 0.229E+01 0.961E+03   0.291E-04 -.245E+01 -.960E+03   -.135E-03 0.127E-01 -.571E+00   -.128E-01 0.818E-01 -.244E+00
   -.218E-02 -.106E+02 0.960E+03   0.249E-03 0.101E+02 -.959E+03   0.126E-03 0.472E+00 -.692E+00   0.181E-02 0.490E-01 -.257E+00
   0.210E+01 -.106E+01 0.961E+03   -.222E+01 0.116E+01 -.960E+03   0.104E-02 -.169E-02 -.577E+00   0.553E-01 -.660E-01 -.243E+00
   -.210E+01 -.107E+01 0.961E+03   0.222E+01 0.116E+01 -.960E+03   -.107E-02 -.159E-02 -.577E+00   -.568E-01 -.541E-01 -.240E+00
   0.708E-02 0.328E+01 -.846E+03   -.114E-02 -.324E+01 0.846E+03   -.613E-04 -.325E-01 0.473E+00   -.592E-02 -.260E-01 0.826E-01
   0.607E+02 0.344E+02 -.743E+03   -.594E+02 -.336E+02 0.744E+03   -.121E+01 -.693E+00 -.155E+01   -.562E-01 -.349E-01 0.276E-01
   -.607E+02 0.343E+02 -.743E+03   0.594E+02 -.336E+02 0.744E+03   0.121E+01 -.693E+00 -.155E+01   0.622E-01 -.306E-01 0.265E-01
   0.162E+02 -.965E+01 -.824E+03   -.165E+02 0.979E+01 0.823E+03   0.384E+00 -.205E+00 0.598E+00   -.831E-01 0.453E-01 -.615E-02
   -.724E-02 -.703E+02 -.745E+03   0.154E-02 0.688E+02 0.746E+03   0.325E-04 0.143E+01 -.143E+01   0.570E-02 0.737E-01 0.269E-01
   -.162E+02 -.964E+01 -.824E+03   0.165E+02 0.979E+01 0.823E+03   -.384E+00 -.205E+00 0.598E+00   0.777E-01 0.423E-01 -.625E-02
   -.340E+01 -.104E+01 -.847E+03   0.334E+01 0.105E+01 0.846E+03   0.463E-01 -.680E-02 0.558E+00   0.298E-01 0.171E-01 0.890E-01
   0.340E+01 -.104E+01 -.847E+03   -.334E+01 0.105E+01 0.846E+03   -.461E-01 -.679E-02 0.558E+00   -.284E-01 0.103E-01 0.911E-01
   0.136E-02 0.197E+02 -.823E+03   0.536E-04 -.201E+02 0.822E+03   -.106E-03 0.437E+00 0.550E+00   -.129E-02 -.935E-01 0.764E-02
   0.209E-02 0.228E+01 -.260E+04   -.152E-02 -.234E+01 0.260E+04   -.387E-04 0.428E-01 0.402E+00   -.528E-03 -.395E-02 0.105E+00
   0.749E+02 0.124E+03 -.260E+04   -.736E+02 -.122E+03 0.260E+04   -.126E+01 -.197E+01 -.877E+00   -.516E-01 -.401E-01 0.829E-01
   -.749E+02 0.124E+03 -.260E+04   0.736E+02 -.122E+03 0.260E+04   0.126E+01 -.197E+01 -.879E+00   0.525E-01 -.307E-01 0.820E-01
   0.140E+03 -.102E+01 -.261E+04   -.138E+03 0.119E+01 0.261E+04   -.237E+01 -.121E+00 -.863E+00   -.520E-01 -.264E-01 0.810E-01
   -.140E+03 -.102E+01 -.261E+04   0.138E+03 0.119E+01 0.261E+04   0.236E+01 -.121E+00 -.862E+00   0.443E-01 -.222E-01 0.781E-01
   0.640E+02 -.119E+03 -.261E+04   -.631E+02 0.117E+03 0.261E+04   -.102E+01 0.198E+01 -.450E+00   0.964E-02 0.593E-01 0.931E-01
   -.640E+02 -.119E+03 -.261E+04   0.631E+02 0.117E+03 0.261E+04   0.102E+01 0.198E+01 -.449E+00   -.131E-02 0.545E-01 0.915E-01
   0.173E-01 0.156E+01 -.261E+04   -.443E-02 -.157E+01 0.260E+04   0.549E-04 0.869E-02 0.568E+00   -.132E-01 0.164E-04 0.817E-01
   -.351E-01 -.119E+02 -.272E+04   0.178E-01 0.118E+02 0.272E+04   -.152E-02 0.475E-01 0.157E+01   0.190E-01 0.187E-01 0.194E+00
   0.709E+02 0.443E+02 -.302E+03   -.777E+02 -.485E+02 0.304E+03   0.677E+01 0.427E+01 -.199E+01   -.329E-02 -.200E-02 0.694E-02
   -.708E+02 0.445E+02 -.302E+03   0.775E+02 -.488E+02 0.304E+03   -.676E+01 0.429E+01 -.198E+01   0.359E-02 -.199E-02 0.672E-02
   -.767E-01 -.544E+02 -.173E+04   0.139E+00 0.962E+02 0.172E+04   -.637E-01 -.417E+02 0.757E+01   0.507E-03 0.725E-02 0.525E-01
   0.326E-01 0.333E+02 0.859E+01   0.281E-13 -.156E-12 0.455E-11   -.537E-01 -.333E+02 -.592E+01   0.213E-01 0.181E-01 -.187E+01

 POSITION                                       TOTAL-FORCE (eV/Angst)
      0.00000      0.00000      5.28038        -0.000007      0.000093     -0.120311
      2.93784      0.00000      5.28038         0.000008     -0.013999     -0.013238
      5.87568      0.00000      5.28038        -0.000001     -0.013973     -0.013214
      1.46892      2.54424      5.28038        -0.012147      0.003337     -0.011507
      4.40676      2.54424      5.28038         0.000216     -0.006500     -0.019011
      7.34459      2.54424      5.28038         0.012109      0.003348     -0.011377
      2.93784      5.08848      5.28038        -0.014089      0.008516     -0.007571
      5.87568      5.08848      5.28038         0.014097      0.008488     -0.007486
      8.81351      5.08848      5.28038        -0.000217      0.000393     -0.035486
      1.46892      0.84808      7.67911        -0.014347     -0.008617      0.050172
      4.40676      0.84808      7.67911         0.000229     -0.055693     -0.049565
      7.34459      0.84808      7.67911         0.014275     -0.008587      0.050136
      2.93784      3.39232      7.67911        -0.042531      0.029640     -0.049632
      5.87568      3.39232      7.67911         0.042990      0.029624     -0.049650
      8.81351      3.39232      7.67911        -0.000071     -0.069766      0.060671
      4.40676      5.93656      7.67911         0.000001      0.019833      0.040955
      7.34459      5.93656      7.67911        -0.058922      0.033205      0.064931
     10.28243      5.93656      7.67911         0.058938      0.033257      0.064924
      8.81351      1.70030     10.08698        -0.000047     -0.017906     -0.018802
      2.93503      1.69454     10.04736        -0.008535      0.000056     -0.079448
      5.87848      1.69454     10.04736         0.008574      0.000076     -0.079491
     10.26776      4.24887     10.06889         0.011754     -0.011760      0.006400
      4.40676      4.24365     10.04736         0.000037      0.033345     -0.054815
      7.35926      4.24887     10.06889        -0.011854     -0.011861      0.006495
     11.74777      6.78258     10.08698         0.018413      0.014339     -0.032180
      5.87926      6.78258     10.08698        -0.018431      0.014318     -0.032173
      8.81351      6.76771     10.06889         0.000006      0.016458     -0.003488
      0.00000      0.00000     12.49943         0.000001     -0.018192     -0.003708
      2.98194      0.07009     12.55649        -0.058896     -0.128959     -0.025400
      5.83157      0.07009     12.55649         0.058875     -0.128811     -0.025112
      1.55167      2.54739     12.55649        -0.101597      0.024836     -0.015080
      7.26184      2.54739     12.55649         0.101464      0.024871     -0.015183
      2.97649      5.01524     12.55649        -0.092836      0.091819     -0.068697
      5.83702      5.01524     12.55649         0.092887      0.091791     -0.068888
      8.81351      5.08848     12.50498        -0.000273     -0.001653      0.020429
      4.40676      2.54424     12.24418         0.000094      0.007697      0.545589
      3.61837      1.98255     14.77433         0.001540      0.002285     -0.001924
      5.19341      1.98000     14.77378        -0.001138      0.002097     -0.001068
      4.40667      2.51394     14.53272        -0.000569      0.002554      0.002803
    total drift:                                0.000239      0.031969      0.801582

  FREE ENERGIE OF THE ION-ELECTRON SYSTEM (eV)
  free  energy   TOTEN  =      -131.26331882 eV

  energy  without entropy=     -131.26331882  energy(sigma->0) =     -131.26331882

 stress matrix after NEB project (eV)
    -22.12179      0.00176      0.00064
      0.00176    -22.18060     -0.17548
      0.00064     -0.17548      2.05587
  FORCES: max atom, RMS     0.003835    0.000918
  FORCE total and by dimension    0.005730    0.002803
  Stress total and by dimension   31.394922   22.180602
|           W    W    AA    RRRRR   N    N  II  N    N   GGGG   !!!           |
|           W    W   A  A   R    R  NN   N  II  NN   N  G    G  !!!           |
|           W    W  A    A  R    R  N N  N  II  N N  N  G       !!!           |
|           W WW W  AAAAAA  RRRRR   N  N N  II  N  N N  G  GGG   !            |
|           WW  WW  A    A  R   R   N   NN  II  N   NN  G    G                |
|           W    W  A    A  R    R  N    N  II  N    N   GGGG   !!!           |
|     Tetrahedron method does not include variations of the Fermi             |
|     occupations, so forces and stress will be inaccurate. We suggest        |
|     using a different smearing scheme ISMEAR = 1 or 2 for metals in         |
|     relaxations.                                                            |

 total charge

# of ion       s       p       d       tot
    1        0.549   0.236   8.768   9.553
    2        0.542   0.241   8.764   9.548
    3        0.542   0.241   8.764   9.548
    4        0.542   0.241   8.765   9.548
    5        0.546   0.241   8.761   9.548
    6        0.542   0.241   8.765   9.548
    7        0.541   0.241   8.765   9.548
    8        0.541   0.241   8.765   9.548
    9        0.544   0.240   8.766   9.549
   10        0.528   0.306   8.767   9.602
   11        0.522   0.307   8.779   9.608
   12        0.528   0.306   8.767   9.602
   13        0.520   0.307   8.779   9.607
   14        0.520   0.307   8.779   9.607
   15        0.516   0.307   8.774   9.597
   16        0.527   0.307   8.767   9.601
   17        0.515   0.307   8.775   9.597
   18        0.515   0.307   8.775   9.597
   19        0.521   0.296   8.770   9.587
   20        0.581   0.340   8.721   9.642
   21        0.581   0.340   8.721   9.642
   22        0.507   0.306   8.777   9.589
   23        0.580   0.340   8.721   9.641
   24        0.507   0.306   8.777   9.589
   25        0.519   0.296   8.771   9.586
   26        0.519   0.296   8.771   9.586
   27        0.509   0.306   8.776   9.590
   28        0.542   0.232   8.749   9.523
   29        0.596   0.256   8.725   9.577
   30        0.596   0.256   8.725   9.577
   31        0.595   0.255   8.725   9.576
   32        0.595   0.255   8.725   9.575
   33        0.591   0.249   8.730   9.569
   34        0.591   0.249   8.730   9.569
   35        0.539   0.232   8.754   9.525
   36        2.173   5.996   2.233  10.402
   37        0.598   0.118   0.000   0.716
   38        0.598   0.118   0.000   0.716
   39        1.566   3.622   0.000   5.188
tot         23.985  19.589 308.747 352.321

 BZINTS: Fermi energy:    0.484028;  406.000000 electrons
         Band energy:-0.166630E+04;  BLOECHL correction:   -0.028641