 vasp.6.2.0 18Jan21 (build Jun 12 2021 23:27:24) complex

 executed on             LinuxIFC date 2022.05.26  20:18:47

 INCAR:
   ISMEAR = -5
   SIGMA = 0.1
   ISPIN = 1
   EDIFF = 1.d-5
   EDIFFG = -0.01
   NSW = 0
   NELM = 150
   ENCUT = 500
   ISIF = 2
   IBRION = 2
   LREAL = Auto
   ALGO = Fast
   ICHARG = 11
   LORBIT = 10
   LCHARG = .F.
   LWAVE = .F.

 POTCAR:    PAW_PBE Ag 02Apr2005
 POTCAR:    PAW_PBE Mn 06Sep2000
|           W    W    AA    RRRRR   N    N  II  N    N   GGGG   !!!           |
|           W    W   A  A   R    R  NN   N  II  NN   N  G    G  !!!           |
|           W    W  A    A  R    R  N N  N  II  N N  N  G       !!!           |
|           W WW W  AAAAAA  RRRRR   N  N N  II  N  N N  G  GGG   !            |
|           WW  WW  A    A  R   R   N   NN  II  N   NN  G    G                |
|           W    W  A    A  R    R  N    N  II  N    N   GGGG   !!!           |
|     For optimal performance we recommend to set                             |
|       NCORE = 2 up to number-of-cores-per-socket                            |
|     This setting can greatly improve the performance of VASP for DFT.       |
|     The default, NCORE=1 might be grossly inefficient on modern             |
|     multi-core architectures or massively parallel machines. Do your        |
|     Unfortunately you need to use the default for GW and RPA                |
|     calculations (for HF NCORE is supported but not extensively tested      |
|     yet).                                                                   |

 POTCAR:    PAW_PBE Ag 02Apr2005
   VRHFIN =Ag : s1 d10

   TITEL  = PAW_PBE Ag 02Apr2005
   POMASS =  107.868; ZVAL   =   11.000    mass and valenz
   ENMAX  =  249.844; ENMIN  =  187.383 eV

 POTCAR:    PAW_PBE Mn 06Sep2000
   VRHFIN =Mn: d6 s1

   TITEL  = PAW_PBE Mn 06Sep2000
   POMASS =   54.938; ZVAL   =    7.000    mass and valenz
   ENMAX  =  269.864; ENMIN  =  202.398 eV

 Optimization of the real space projectors (new method)

 maximal supplied QI-value         = 15.12
 optimisation between [QCUT,QGAM] = [ 11.34, 22.83] = [ 36.00,145.93] Ry
 Optimized for a Real-space Cutoff    1.43 Angstroem

   l    n(q)    QCUT    max X(q) W(low)/X(q) W(high)/X(q)  e(spline)
   2      9    11.338    53.897    0.16E-03    0.20E-03    0.28E-06
   2      9    11.338    52.416    0.16E-03    0.20E-03    0.29E-06
   0     10    11.338   122.045    0.31E-04    0.76E-04    0.15E-06
   0     10    11.338    73.629    0.30E-04    0.72E-04    0.15E-06
   1      9    11.338    15.255    0.20E-03    0.19E-04    0.17E-06
   1      9    11.338     9.562    0.16E-03    0.15E-04    0.14E-06
 Optimization of the real space projectors (new method)

 maximal supplied QI-value         = 16.25
 optimisation between [QCUT,QGAM] = [ 11.38, 22.75] = [ 36.24,144.96] Ry
 Optimized for a Real-space Cutoff    1.39 Angstroem

   l    n(q)    QCUT    max X(q) W(low)/X(q) W(high)/X(q)  e(spline)
   2      8    11.376   110.144    0.49E-03    0.27E-04    0.26E-06
   2      8    11.376   103.200    0.49E-03    0.28E-04    0.27E-06
   0      9    11.376    68.437    0.57E-04    0.92E-04    0.15E-06
   0      9    11.376    33.971    0.51E-04    0.83E-04    0.14E-06
   1      9    11.376    17.065    0.34E-03    0.68E-04    0.14E-06
   1      9    11.376    12.540    0.27E-03    0.59E-04    0.11E-06
  PAW_PBE Ag 02Apr2005                  :
  PAW_PBE Mn 06Sep2000                  :

 POSCAR: Ag-Mn
  positions in direct lattice
  velocities in cartesian coordinates
 exchange correlation table for  LEXCH =        8
   RHO(1)=    0.500       N(1)  =     2000
   RHO(2)=  100.500       N(2)  =     4000

 VTST: version 3.2, (02/03/18)

 CHAIN: initializing optimizer

 OPT: Using VASP Conjugate-Gradient optimizer
 CHAIN: Read ICHAIN            0

 POSCAR: Ag-Mn
  positions in direct lattice
  velocities in cartesian coordinates

 ion  position               nearest neighbor table
   1  0.000  0.000  0.238-   2 2.93   8 2.93   7 2.93   6 2.93   4 2.93  12 2.93  16 2.93  10 2.93
                             3 2.93
   2  0.333  0.000  0.238-   1 2.93   8 2.93   9 2.93   3 2.93   4 2.93   5 2.93  10 2.93  17 2.93
                            11 2.93
   3  0.667  0.000  0.238-   9 2.93   2 2.93   5 2.93  11 2.93   7 2.93  18 2.93   1 2.93   6 2.93
                            12 2.93
   4  0.000  0.333  0.238-   5 2.93   6 2.93   2 2.93   1 2.93   7 2.93  13 2.93  15 2.93   9 2.93
                            10 2.93
   5  0.333  0.333  0.238-   4 2.93   3 2.93   7 2.93   2 2.93   8 2.93  14 2.93  13 2.93  11 2.93
                             6 2.93
   6  0.667  0.333  0.238-   4 2.93   9 2.93   1 2.93  15 2.93   8 2.93  12 2.93   3 2.93   5 2.93
                            14 2.93
   7  0.000  0.667  0.238-   8 2.93   1 2.93   5 2.93   3 2.93   4 2.93  16 2.93  18 2.93  13 2.93
                             9 2.93
   8  0.333  0.667  0.238-   7 2.93   1 2.93   2 2.93   9 2.93   5 2.93  16 2.93   6 2.93  17 2.93
                            14 2.93
   9  0.667  0.667  0.238-   3 2.93   2 2.93   8 2.93   6 2.93  17 2.93   4 2.93  15 2.93   7 2.93
                            18 2.93
  10  0.111  0.111  0.346-  20 2.92  19 2.93  26 2.93  12 2.93  16 2.93  15 2.93  17 2.93  13 2.93
                            11 2.93   2 2.93   1 2.93   4 2.93
  11  0.444  0.111  0.346-  21 2.90  20 2.90  27 2.92  14 2.93  17 2.93  18 2.93   3 2.93  12 2.93
                            13 2.93  10 2.93   5 2.93   2 2.93
  12  0.778  0.111  0.346-  21 2.92  25 2.93  19 2.93  10 2.93  16 2.93  18 2.93  15 2.93  11 2.93
                             1 2.93  14 2.93   6 2.93   3 2.93
  13  0.111  0.444  0.346-  20 2.90  23 2.90  22 2.92  15 2.93  14 2.93  18 2.93  10 2.93  11 2.93
                            16 2.93   4 2.93   5 2.93   7 2.93
  14  0.444  0.444  0.346-  23 2.90  21 2.90  24 2.92  13 2.93  11 2.93  16 2.93   5 2.93  12 2.93
                            17 2.93   8 2.93  15 2.93   6 2.93
  15  0.778  0.444  0.346-  24 2.92  22 2.92  19 2.92  13 2.93  10 2.93  12 2.93  17 2.93  18 2.93
                             4 2.93   6 2.93   9 2.93  14 2.93
  16  0.111  0.778  0.346-  23 2.92  26 2.93  25 2.93  18 2.93  12 2.93  10 2.93  14 2.93  17 2.93
                            13 2.93   7 2.93   8 2.93   1 2.93
  17  0.444  0.778  0.346-  27 2.92  24 2.92  26 2.92  11 2.93  10 2.93   9 2.93  18 2.93  15 2.93
                            16 2.93   2 2.93  14 2.93   8 2.93
  18  0.778  0.778  0.346-  22 2.92  27 2.92  25 2.92  16 2.93  12 2.93  13 2.93  11 2.93  17 2.93
                            15 2.93   7 2.93   3 2.93   9 2.93
  19  0.889  0.223  0.454-  28 2.91  15 2.92  10 2.93  12 2.93  24 2.93  22 2.93  26 2.94  25 2.94
                            20 2.94  21 2.94  32 2.95  31 2.95
  20  0.223  0.223  0.453-  36 2.71  31 2.90  29 2.90  13 2.90  11 2.90  21 2.91  23 2.91  10 2.92
                            27 2.93  22 2.93  19 2.94  26 2.94
  21  0.554  0.223  0.453-  36 2.71  30 2.90  32 2.90  11 2.90  14 2.90  20 2.91  23 2.91  12 2.92
                            27 2.93  24 2.93  25 2.94  19 2.94
  22  0.888  0.556  0.453-  35 2.91  18 2.92  15 2.92  13 2.92  24 2.93  27 2.93  33 2.93  31 2.93
                            25 2.93  19 2.93  23 2.93  20 2.93
  23  0.223  0.554  0.453-  36 2.71  34 2.90  33 2.90  14 2.90  13 2.90  21 2.91  20 2.91  16 2.92
                            22 2.93  24 2.93  26 2.94  25 2.94
  24  0.556  0.556  0.453-  35 2.91  15 2.92  17 2.92  14 2.92  27 2.93  22 2.93  32 2.93  34 2.93
                            19 2.93  26 2.93  23 2.93  21 2.93
  25  0.889  0.889  0.454-  28 2.91  18 2.92  16 2.93  12 2.93  22 2.93  27 2.93  26 2.94  19 2.94
                            23 2.94  21 2.94  33 2.95  30 2.95
  26  0.223  0.889  0.454-  28 2.91  17 2.92  16 2.93  10 2.93  27 2.93  24 2.93  25 2.94  19 2.94
                            23 2.94  20 2.94  34 2.95  29 2.95
  27  0.556  0.888  0.453-  35 2.91  17 2.92  18 2.92  11 2.92  24 2.93  22 2.93  29 2.93  30 2.93
                            26 2.93  25 2.93  20 2.93  21 2.93
  28  0.000  0.000  0.560-  26 2.91  25 2.91  19 2.91  29 2.97  34 2.97  33 2.97  32 2.97  31 2.97
                            30 2.97
  29  0.333  0.008  0.561-  31 2.86  30 2.86  36 2.87  20 2.90  27 2.93  26 2.95  28 2.97  35 2.97
                            34 3.07
  30  0.659  0.008  0.561-  32 2.86  29 2.86  36 2.87  21 2.90  27 2.93  25 2.95  28 2.97  35 2.97
                            33 3.07
  31  0.008  0.333  0.561-  29 2.86  33 2.86  36 2.87  20 2.90  22 2.93  19 2.95  28 2.97  35 2.97
                            32 3.07
  32  0.659  0.333  0.561-  30 2.86  34 2.86  36 2.87  21 2.90  24 2.93  19 2.95  28 2.97  35 2.97
                            31 3.07
  33  0.008  0.659  0.561-  34 2.86  31 2.86  36 2.87  23 2.90  22 2.93  25 2.95  28 2.97  35 2.97
                            30 3.07
  34  0.333  0.659  0.561-  33 2.86  32 2.86  36 2.87  23 2.90  24 2.93  26 2.95  28 2.97  35 2.97
                            29 3.07
  35  0.667  0.667  0.560-  24 2.91  27 2.91  22 2.91  32 2.97  30 2.97  29 2.97  34 2.97  31 2.97
                            33 2.97
  36  0.333  0.333  0.549-  21 2.71  20 2.71  23 2.71  31 2.87  30 2.87  33 2.87  29 2.87  34 2.87
                            32 2.87

  LATTYP: Found a hexagonal cell.
 ALAT       =     8.7913665772
 C/A-ratio  =     2.5227160501

  Lattice vectors:

 A1 = (  -4.3956832886,  -7.6135467898,   0.0000000000)
 A2 = (   8.7913665771,   0.0000000000,   0.0000000000)
 A3 = (   0.0000000000,   0.0000000000,  22.1781215668)

Analysis of symmetry for initial positions (statically):
 Subroutine PRICEL returns:
 Original cell was already a primitive cell.

 Routine SETGRP: Setting up the symmetry group for a
 hexagonal supercell.

 Subroutine GETGRP returns: Found  6 space group operations
 (whereof  6 operations were pure point group operations)
 out of a pool of 24 trial point group operations.

The static configuration has the point symmetry C_3v.

Analysis of symmetry for dynamics (positions and initial velocities):
 Subroutine PRICEL returns:
 Original cell was already a primitive cell.

[...]

The dynamic configuration has the point symmetry C_3v.

Analysis of constrained symmetry for selective dynamics:
 Subroutine PRICEL returns:
 Original cell was already a primitive cell.

 Routine SETGRP: Setting up the symmetry group for a
 hexagonal supercell.

 Subroutine GETGRP returns: Found  6 space group operations
 (whereof  6 operations were pure point group operations)
 out of a pool of 24 trial point group operations.

The constrained configuration has the point symmetry C_3v.

 Subroutine INISYM returns: Found  6 space group operations
 (whereof  6 operations are pure point group operations),
 and found     1 'primitive' translations

                                     Primitive cell

  volume of cell :    1484.4589

  direct lattice vectors                    reciprocal lattice vectors
     8.791366577  0.000000000  0.000000000     0.113747958 -0.065672414  0.000000000
     4.395683289  7.613546790  0.000000000     0.000000000  0.131344829  0.000000000
[...]
     15      -4.7612      2.00000
     16      -4.7581      2.00000
     17      -4.7247      2.00000
     18      -4.7228      2.00000
     19      -4.7188      2.00000
     20      -4.7151      2.00000
     21      -4.7009      2.00000
     22      -4.6717      2.00000
     23      -4.6578      2.00000
     24      -4.6553      2.00000
     25      -4.6245      2.00000
     26      -4.6016      2.00000
     27      -4.5839      2.00000
     28      -4.5761      2.00000
     29      -4.5625      2.00000
     30      -4.5499      2.00000
     31      -4.5476      2.00000
     32      -4.5097      2.00000
     33      -4.4770      2.00000
     34      -4.4449      2.00000
     35      -4.4225      2.00000
     36      -4.4076      2.00000
     37      -4.3828      2.00000
     38      -4.3488      2.00000
     39      -4.3441      2.00000
     40      -4.3339      2.00000
     41      -4.3208      2.00000
     42      -4.3085      2.00000
     43      -4.2323      2.00000
     44      -4.2037      2.00000
     45      -4.1970      2.00000
     46      -4.1924      2.00000
     47      -4.1838      2.00000
     48      -4.1802      2.00000
     49      -4.1651      2.00000
     50      -4.1605      2.00000
     51      -4.1416      2.00000
     52      -4.1355      2.00000
     53      -4.0713      2.00000
     54      -4.0648      2.00000
     55      -4.0516      2.00000
     56      -4.0481      2.00000
     57      -4.0323      2.00000
     58      -4.0181      2.00000
     59      -3.9820      2.00000
     60      -3.9686      2.00000
[...]
    238       7.1907      0.00000
    239       7.1994      0.00000
    240       7.2184      0.00000
    241       7.2316      0.00000
    242       7.2786      0.00000
    243       7.3052      0.00000
    244       7.3362      0.00000
    245       7.5163      0.00000
    246       7.5462      0.00000
    247       7.5764      0.00000
    248       7.6129      0.00000
    249       7.6283      0.00000
    250       7.9050      0.00000
    251       7.9335      0.00000
    252       8.1165      0.00000

 soft charge-density along one line, spin component           1
         0         1         2         3         4         5         6         7         8         9
 total charge-density along one line

------------------------ aborting loop because EDIFF is reached ----------------------------------------

 total charge

# of ion       s       p       d       tot
    1        0.419   0.201   9.177   9.797
    2        0.416   0.203   9.177   9.797
    3        0.416   0.203   9.177   9.797
    4        0.416   0.203   9.177   9.797
    5        0.417   0.203   9.175   9.796
    6        0.416   0.203   9.177   9.797
    7        0.416   0.203   9.177   9.797
    8        0.416   0.203   9.177   9.797
    9        0.416   0.201   9.178   9.795
   10        0.408   0.268   9.162   9.838
   11        0.407   0.268   9.168   9.842
   12        0.408   0.268   9.162   9.838
   13        0.407   0.268   9.168   9.842
   14        0.407   0.268   9.168   9.842
   15        0.405   0.268   9.166   9.838
   16        0.408   0.268   9.162   9.838
   17        0.405   0.268   9.166   9.838
   18        0.405   0.268   9.166   9.838
   19        0.401   0.265   9.166   9.833
   20        0.425   0.298   9.144   9.867
   21        0.425   0.298   9.144   9.867
   22        0.398   0.273   9.167   9.837
   23        0.425   0.298   9.144   9.867
   24        0.398   0.273   9.167   9.837
   25        0.401   0.265   9.166   9.833
   26        0.401   0.265   9.166   9.833
   27        0.398   0.273   9.167   9.837
   28        0.412   0.197   9.178   9.786
   29        0.427   0.209   9.165   9.801
   30        0.427   0.209   9.165   9.801
   31        0.427   0.209   9.165   9.801
   32        0.427   0.209   9.165   9.801
   33        0.427   0.209   9.165   9.801
   34        0.427   0.209   9.165   9.801
   35        0.404   0.198   9.179   9.782
   36        0.279   0.158   5.091   5.528
tot         14.734   8.550 325.950 349.234

  FORCE on cell =-STRESS in cart. coord.  units (eV):
  Direction    XX          YY          ZZ          XY          YZ          ZX
  Alpha Z   735.49963   735.49963   735.49963
  Ewald  120317.97582120317.97576************     0.00000    -0.00000    -0.00002
  Hartree130412.33066130412.33063************    -0.00000    -0.00000    -0.00001
  E(xc)   -2060.54289 -2060.54288 -2066.31174    -0.00001     0.00000     0.00000
  Local  ************************262083.66668     0.00022    -0.00003    -0.00004
  n-local  -353.77500  -335.90630  -348.76210     9.92720    -0.37120     0.17012
  augment  3248.09796  3248.09806  3259.23475    -0.00009     0.00004     0.00007
  Kinetic  4826.70587  4835.47833  4862.68381     6.12693     0.69434     0.35985
  Fock        0.00000     0.00000     0.00000     0.00000     0.00000     0.00000
  Total     -10.15418   -10.15418    -0.07363    -0.00000    -0.00000     0.00000
  in kB     -10.95941   -10.95941    -0.07947    -0.00000    -0.00000     0.00000

 VOLUME and BASIS-vectors are now :
  energy-cutoff  :      500.00
  volume of cell :     1484.46
      direct lattice vectors                 reciprocal lattice vectors
     8.791366577  0.000000000  0.000000000     0.113747958 -0.065672414  0.000000000
     4.395683289  7.613546790  0.000000000     0.000000000  0.131344829  0.000000000
     0.000000000  0.000000000 22.178121567     0.000000000  0.000000000  0.045089481

  length of vectors
     8.791366577  8.791366577 22.178121567     0.131344829  0.131344829  0.045089481

 FORCES acting on ions
    electron-ion (+dipol)            ewald-force                    non-local-force                 convergence-correction
   0.460E-04 -.282E-04 0.249E+04   -.954E-04 0.593E-04 -.249E+04   -.657E-17 0.324E-17 -.195E+01   -.105E-03 -.167E-03 0.148E+00
   0.206E+00 0.263E+00 0.249E+04   -.310E+00 -.203E+00 -.249E+04   0.692E-01 0.508E-01 -.156E+01   0.302E-01 -.104E+00 0.167E+00
   -.206E+00 0.263E+00 0.249E+04   0.310E+00 -.203E+00 -.249E+04   -.692E-01 0.508E-01 -.156E+01   -.308E-01 -.102E+00 0.168E+00
   0.330E+00 0.468E-01 0.249E+04   -.331E+00 -.167E+00 -.249E+04   0.786E-01 0.346E-01 -.156E+01   -.745E-01 0.782E-01 0.167E+00
   -.772E-05 -.199E-04 0.249E+04   0.981E-04 -.200E-05 -.249E+04   0.222E-17 -.217E-17 -.141E+01   0.624E-02 0.381E-02 0.217E+00
   -.330E+00 0.468E-01 0.249E+04   0.330E+00 -.167E+00 -.249E+04   -.786E-01 0.346E-01 -.156E+01   0.731E-01 0.791E-01 0.168E+00
   0.125E+00 -.310E+00 0.249E+04   -.211E-01 0.370E+00 -.249E+04   0.936E-02 -.854E-01 -.156E+01   -.103E+00 0.248E-01 0.168E+00
   -.125E+00 -.310E+00 0.249E+04   0.210E-01 0.369E+00 -.249E+04   -.936E-02 -.854E-01 -.156E+01   0.105E+00 0.238E-01 0.168E+00
   0.365E-04 -.131E-04 0.249E+04   0.792E-04 -.642E-04 -.249E+04   0.493E-18 -.603E-18 -.173E+01   -.666E-02 -.343E-02 0.775E-01
   0.278E+01 0.161E+01 0.809E+03   -.238E+01 -.137E+01 -.808E+03   -.300E+00 -.173E+00 -.780E+00   -.812E-01 -.469E-01 -.495E-01
   -.289E-04 0.272E+01 0.813E+03   0.413E-04 -.277E+01 -.813E+03   0.696E-12 0.106E+00 -.358E+00   0.628E-02 -.809E-01 -.854E-01
   -.278E+01 0.161E+01 0.809E+03   0.238E+01 -.137E+01 -.808E+03   0.300E+00 -.173E+00 -.780E+00   0.797E-01 -.458E-01 -.497E-01
   0.235E+01 -.136E+01 0.813E+03   -.240E+01 0.139E+01 -.813E+03   0.918E-01 -.530E-01 -.358E+00   -.670E-01 0.459E-01 -.854E-01
   -.235E+01 -.136E+01 0.813E+03   0.240E+01 0.139E+01 -.813E+03   -.918E-01 -.530E-01 -.358E+00   0.777E-01 0.451E-01 -.862E-01
   0.159E-04 0.129E+01 0.811E+03   -.108E-03 -.145E+01 -.810E+03   0.535E-12 0.814E-01 -.693E+00   -.163E-02 0.607E-01 -.552E-01
   -.818E-05 -.321E+01 0.809E+03   0.207E-04 0.275E+01 -.808E+03   0.228E-11 0.347E+00 -.780E+00   0.123E-03 0.918E-01 -.497E-01
   0.111E+01 -.643E+00 0.811E+03   -.125E+01 0.724E+00 -.810E+03   0.705E-01 -.407E-01 -.693E+00   0.517E-01 -.318E-01 -.552E-01
   -.111E+01 -.643E+00 0.811E+03   0.125E+01 0.724E+00 -.810E+03   -.705E-01 -.407E-01 -.693E+00   -.517E-01 -.299E-01 -.546E-01
   0.404E-04 -.112E+01 -.889E+03   -.126E-03 0.103E+01 0.888E+03   0.473E-12 0.720E-01 0.623E+00   -.131E-03 0.194E-01 -.104E-01
   0.248E+01 0.143E+01 -.882E+03   -.116E+01 -.670E+00 0.883E+03   -.108E+01 -.624E+00 -.862E+00   -.228E+00 -.132E+00 -.144E+00
   -.248E+01 0.143E+01 -.882E+03   0.116E+01 -.670E+00 0.883E+03   0.108E+01 -.624E+00 -.862E+00   0.228E+00 -.131E+00 -.144E+00
   -.255E+01 0.147E+01 -.881E+03   0.233E+01 -.135E+01 0.881E+03   0.243E+00 -.141E+00 0.381E+00   -.358E-01 0.211E-01 -.590E-01
   -.563E-04 -.287E+01 -.882E+03   0.408E-04 0.134E+01 0.883E+03   0.819E-11 0.125E+01 -.862E+00   0.762E-03 0.264E+00 -.144E+00
   0.255E+01 0.147E+01 -.881E+03   -.233E+01 -.135E+01 0.881E+03   -.243E+00 -.141E+00 0.381E+00   0.358E-01 0.208E-01 -.595E-01
   0.972E+00 0.561E+00 -.889E+03   -.893E+00 -.515E+00 0.888E+03   -.624E-01 -.360E-01 0.623E+00   -.165E-01 -.967E-02 -.112E-01
   -.972E+00 0.561E+00 -.889E+03   0.893E+00 -.515E+00 0.888E+03   0.624E-01 -.360E-01 0.623E+00   0.164E-01 -.992E-02 -.104E-01
   0.205E-04 -.294E+01 -.881E+03   0.110E-03 0.270E+01 0.881E+03   0.185E-11 0.281E+00 0.381E+00   -.246E-03 -.416E-01 -.590E-01
   0.540E-04 -.367E-04 -.251E+04   -.113E-03 0.767E-04 0.251E+04   -.565E-17 -.161E-18 0.189E+01   0.131E-02 0.624E-03 -.164E+00
   -.531E+01 -.102E+02 -.252E+04   0.611E+01 0.117E+02 0.252E+04   -.800E+00 -.124E+01 0.149E+01   -.136E-01 -.185E+00 -.876E-01
   0.531E+01 -.102E+02 -.252E+04   -.611E+01 0.117E+02 0.252E+04   0.800E+00 -.124E+01 0.149E+01   0.271E-02 -.183E+00 -.877E-01
   -.115E+02 0.529E+00 -.252E+04   0.132E+02 -.544E+00 0.252E+04   -.147E+01 -.751E-01 0.149E+01   -.167E+00 0.808E-01 -.876E-01
   0.115E+02 0.529E+00 -.252E+04   -.132E+02 -.544E+00 0.252E+04   0.147E+01 -.751E-01 0.149E+01   0.156E+00 0.816E-01 -.877E-01
   -.622E+01 0.972E+01 -.252E+04   0.705E+01 -.111E+02 0.252E+04   -.670E+00 0.131E+01 0.149E+01   -.157E+00 0.946E-01 -.877E-01
   0.622E+01 0.972E+01 -.252E+04   -.705E+01 -.111E+02 0.252E+04   0.670E+00 0.131E+01 0.149E+01   0.148E+00 0.941E-01 -.878E-01
   0.257E-04 -.146E-04 -.251E+04   0.104E-03 -.648E-04 0.251E+04   -.524E-17 0.525E-18 0.210E+01   -.531E-02 -.263E-02 0.326E-01
   -.333E-04 -.492E-05 -.155E+04   0.674E-04 0.931E-05 0.155E+04   -.961E-17 -.430E-18 0.314E+01   0.342E-02 0.206E-02 0.809E-01
   0.299E-03 -.710E-03 0.383E+01   -.453E-13 0.306E-12 -.111E-10   -.792E-15 0.666E-15 -.344E+01   -.181E-01 -.722E-02 -.338E+00

 POSITION                                       TOTAL-FORCE (eV/Angst)
      0.00000      0.00000      5.28219        -0.000000     -0.000000     -0.019926
      2.93046      0.00000      5.28219        -0.003666      0.007902      0.020913
      5.86091      0.00000      5.28219         0.003666      0.007902      0.020913
      1.46523      2.53785      5.28219         0.005010     -0.007126      0.020913
      4.39568      2.53785      5.28219        -0.000000     -0.000000      0.001375
      7.32614      2.53785      5.28219        -0.005010     -0.007126      0.020913
      2.93046      5.07570      5.28219         0.008676     -0.000776      0.020913
      5.86091      5.07570      5.28219        -0.008676     -0.000776      0.020913
      8.79137      5.07570      5.28219        -0.000000     -0.000000      0.005731
      1.46523      0.84595      7.67490         0.019213      0.011093      0.003344
      4.39568      0.84595      7.67490        -0.000000     -0.033900     -0.052484
      7.32614      0.84595      7.67490        -0.019213      0.011093      0.003344
      2.93046      3.38380      7.67490        -0.029358      0.016950     -0.052484
      5.86091      3.38380      7.67490         0.029358      0.016950     -0.052484
      8.79137      3.38380      7.67490        -0.000000     -0.020705      0.007959
      4.39568      5.92165      7.67490        -0.000000     -0.022186      0.003344
      7.32614      5.92165      7.67490        -0.017931      0.010353      0.007959
     10.25659      5.92165      7.67490         0.017931      0.010353      0.007959
      8.79137      1.69455     10.06139        -0.000000     -0.000654     -0.006301
      2.94158      1.69832     10.04035         0.014300      0.008256      0.008391
      5.84978      1.69832     10.04035        -0.014300      0.008256      0.008391
     10.25392      4.23129     10.05365        -0.006032      0.003483     -0.012608
      4.39568      4.21690     10.04035        -0.000000     -0.016513      0.008391
      7.32881      4.23129     10.05365         0.006032      0.003483     -0.012608
     11.71953      6.76627     10.06139         0.000566      0.000327     -0.006301
      5.86321      6.76627     10.06139        -0.000566      0.000327     -0.006301
      8.79137      6.76451     10.05365        -0.000000     -0.006965     -0.012608
      0.00000      0.00000     12.42536        -0.000000     -0.000000      0.022917
      2.96459      0.05999     12.43855        -0.005941      0.001569      0.006037
      5.82677      0.05999     12.43855         0.005941      0.001569      0.006037
      1.53425      2.53742     12.43855        -0.001612     -0.005929      0.006037
      7.25712      2.53742     12.43855         0.001612     -0.005929      0.006037
      2.96534      5.01614     12.43855         0.004329      0.004361      0.006037
      5.82603      5.01614     12.43855        -0.004329      0.004361      0.006037
      8.79137      5.07570     12.42471        -0.000000     -0.000000      0.003371
      4.39568      2.53785     12.16969        -0.000000      0.000000     -0.020068
    total drift:                               -0.017841     -0.007927      0.046243

  FREE ENERGIE OF THE ION-ELECTRON SYSTEM (eV)
  free  energy   TOTEN  =       -94.63852886 eV

  energy  without entropy=      -94.63852886  energy(sigma->0) =      -94.63852886

 stress matrix after NEB project (eV)
    -10.15418     -0.00000      0.00000
     -0.00000    -10.15418     -0.00000
      0.00000     -0.00000     -0.07363
  FORCES: max atom, RMS     0.022917    0.009364
  FORCE total and by dimension    0.056183    0.022917
  Stress total and by dimension   14.360369   10.154181
|           W    W    AA    RRRRR   N    N  II  N    N   GGGG   !!!           |
|           W    W   A  A   R    R  NN   N  II  NN   N  G    G  !!!           |
|           W    W  A    A  R    R  N N  N  II  N N  N  G       !!!           |
|           W WW W  AAAAAA  RRRRR   N  N N  II  N  N N  G  GGG   !            |
|           WW  WW  A    A  R   R   N   NN  II  N   NN  G    G                |
|           W    W  A    A  R    R  N    N  II  N    N   GGGG   !!!           |
|     Tetrahedron method does not include variations of the Fermi             |
|     occupations, so forces and stress will be inaccurate. We suggest        |
|     using a different smearing scheme ISMEAR = 1 or 2 for metals in         |
|     relaxations.                                                            |

 total charge

# of ion       s       p       d       tot
    1        0.419   0.201   9.177   9.797
    2        0.416   0.203   9.177   9.797
    3        0.416   0.203   9.177   9.797
    4        0.416   0.203   9.177   9.797
    5        0.417   0.203   9.175   9.796
    6        0.416   0.203   9.177   9.797
    7        0.416   0.203   9.177   9.797
    8        0.416   0.203   9.177   9.797
    9        0.416   0.201   9.178   9.795
   10        0.408   0.268   9.162   9.838
   11        0.407   0.268   9.168   9.842
   12        0.408   0.268   9.162   9.838
   13        0.407   0.268   9.168   9.842
   14        0.407   0.268   9.168   9.842
   15        0.405   0.268   9.166   9.838
   16        0.408   0.268   9.162   9.838
   17        0.405   0.268   9.166   9.838
   18        0.405   0.268   9.166   9.838
   19        0.401   0.265   9.166   9.833
   20        0.425   0.298   9.144   9.867
   21        0.425   0.298   9.144   9.867
   22        0.398   0.273   9.167   9.837
   23        0.425   0.298   9.144   9.867
   24        0.398   0.273   9.167   9.837
   25        0.401   0.265   9.166   9.833
   26        0.401   0.265   9.166   9.833
   27        0.398   0.273   9.167   9.837
   28        0.412   0.197   9.178   9.786
   29        0.427   0.209   9.165   9.801
   30        0.427   0.209   9.165   9.801
   31        0.427   0.209   9.165   9.801
   32        0.427   0.209   9.165   9.801
   33        0.427   0.209   9.165   9.801
   34        0.427   0.209   9.165   9.801
   35        0.404   0.198   9.179   9.782
   36        0.279   0.158   5.091   5.528
tot         14.734   8.550 325.950 349.234

 BZINTS: Fermi energy:    0.786797;  392.000000 electrons
         Band energy:-0.126886E+04;  BLOECHL correction:   -0.018314