 vasp.6.2.0 18Jan21 (build Jun 12 2021 23:27:24) complex

 executed on             LinuxIFC date 2022.05.27  05:31:59

 INCAR:
   ISMEAR = -5
   SIGMA = 0.1
   ISPIN = 1
   EDIFF = 1.d-5
   EDIFFG = -0.01
   NSW = 0
   NELM = 150
   ENCUT = 500
   ISIF = 2
   IBRION = 2
   LREAL = Auto
   ALGO = Fast
   ICHARG = 11
   LORBIT = 10
   LCHARG = .F.
   LWAVE = .F.

 POTCAR:    PAW_PBE Ag 02Apr2005
 POTCAR:    PAW_PBE Co 02Aug2007
 POTCAR:    PAW_PBE N 08Apr2002
|           W    W    AA    RRRRR   N    N  II  N    N   GGGG   !!!           |
|           W    W   A  A   R    R  NN   N  II  NN   N  G    G  !!!           |
|           W    W  A    A  R    R  N N  N  II  N N  N  G       !!!           |
|           W WW W  AAAAAA  RRRRR   N  N N  II  N  N N  G  GGG   !            |
|           WW  WW  A    A  R   R   N   NN  II  N   NN  G    G                |
|           W    W  A    A  R    R  N    N  II  N    N   GGGG   !!!           |
|     For optimal performance we recommend to set                             |
|       NCORE = 2 up to number-of-cores-per-socket                            |
|     This setting can greatly improve the performance of VASP for DFT.       |
|     The default, NCORE=1 might be grossly inefficient on modern             |
|     multi-core architectures or massively parallel machines. Do your        |
|     Unfortunately you need to use the default for GW and RPA                |
|     calculations (for HF NCORE is supported but not extensively tested      |
|     yet).                                                                   |

 POTCAR:    PAW_PBE Ag 02Apr2005
   VRHFIN =Ag : s1 d10

   TITEL  = PAW_PBE Ag 02Apr2005
   POMASS =  107.868; ZVAL   =   11.000    mass and valenz
   ENMAX  =  249.844; ENMIN  =  187.383 eV

 POTCAR:    PAW_PBE Co 02Aug2007
   VRHFIN =Co: d8 s1

   TITEL  = PAW_PBE Co 02Aug2007
   POMASS =   58.933; ZVAL   =    9.000    mass and valenz
   ENMAX  =  267.968; ENMIN  =  200.976 eV

 POTCAR:    PAW_PBE N 08Apr2002
   VRHFIN =N: s2p3

   TITEL  = PAW_PBE N 08Apr2002
   POMASS =   14.001; ZVAL   =    5.000    mass and valenz
   ENMAX  =  400.000; ENMIN  =  300.000 eV

 Optimization of the real space projectors (new method)

 maximal supplied QI-value         = 15.12
 optimisation between [QCUT,QGAM] = [ 11.34, 22.83] = [ 36.00,145.93] Ry
 Optimized for a Real-space Cutoff    1.43 Angstroem

   l    n(q)    QCUT    max X(q) W(low)/X(q) W(high)/X(q)  e(spline)
   2      9    11.338    53.897    0.16E-03    0.20E-03    0.28E-06
   2      9    11.338    52.416    0.16E-03    0.20E-03    0.29E-06
   0     10    11.338   122.045    0.31E-04    0.76E-04    0.15E-06
   0     10    11.338    73.629    0.30E-04    0.72E-04    0.15E-06
   1      9    11.338    15.255    0.20E-03    0.19E-04    0.17E-06
   1      9    11.338     9.562    0.16E-03    0.15E-04    0.14E-06
 Optimization of the real space projectors (new method)

[...]

   l    n(q)    QCUT    max X(q) W(low)/X(q) W(high)/X(q)  e(spline)
   2      8    11.376    65.824    0.20E-03    0.32E-04    0.13E-06
   2      8    11.376    61.429    0.20E-03    0.33E-04    0.14E-06
   0      9    11.376    56.174    0.76E-04    0.11E-03    0.19E-06
   0      9    11.376    31.263    0.69E-04    0.99E-04    0.17E-06
   1      9    11.376    19.828    0.35E-03    0.11E-03    0.12E-06
   1      9    11.376    15.139    0.29E-03    0.94E-04    0.10E-06
 Optimization of the real space projectors (new method)

 maximal supplied QI-value         = 25.13
 optimisation between [QCUT,QGAM] = [ 11.31, 22.87] = [ 35.82,146.48] Ry
 Optimized for a Real-space Cutoff    1.27 Angstroem

   l    n(q)    QCUT    max X(q) W(low)/X(q) W(high)/X(q)  e(spline)
   0      9    11.310    79.467    0.75E-04    0.16E-03    0.36E-06
   0      9    11.310    66.151    0.74E-04    0.16E-03    0.36E-06
   1      8    11.310    17.416    0.35E-03    0.12E-03    0.95E-06
   1      8    11.310    12.382    0.37E-03    0.13E-03    0.98E-06
  PAW_PBE Ag 02Apr2005                  :
  PAW_PBE Co 02Aug2007                  :
  PAW_PBE N 08Apr2002                   :

 POSCAR: Ag-Co-N2
  positions in direct lattice
  velocities in cartesian coordinates
 exchange correlation table for  LEXCH =        8
   RHO(1)=    0.500       N(1)  =     2000
   RHO(2)=  100.500       N(2)  =     4000

 VTST: version 3.2, (02/03/18)

 CHAIN: initializing optimizer

 OPT: Using VASP Conjugate-Gradient optimizer
 CHAIN: Read ICHAIN            0

 POSCAR: Ag-Co-N2
  positions in direct lattice
  velocities in cartesian coordinates

 ion  position               nearest neighbor table
   1  0.000  0.000  0.238-   2 2.93   8 2.93   7 2.93   6 2.93   4 2.93  12 2.93  16 2.93  10 2.93
                             3 2.93
   2  0.333  0.000  0.238-   1 2.93   8 2.93   9 2.93   3 2.93   4 2.93   5 2.93  10 2.93  17 2.93
                            11 2.93
   3  0.667  0.000  0.238-   9 2.93   2 2.93   5 2.93  11 2.93   7 2.93  18 2.93   1 2.93   6 2.93
                            12 2.93
   4  0.000  0.333  0.238-   5 2.93   6 2.93   2 2.93   1 2.93   7 2.93  13 2.93  15 2.93   9 2.93
                            10 2.93
   5  0.333  0.333  0.238-   4 2.93   3 2.93   7 2.93   2 2.93   8 2.93  14 2.93  13 2.93  11 2.93
                             6 2.93
   6  0.667  0.333  0.238-   4 2.93   9 2.93   1 2.93  15 2.93   8 2.93  12 2.93   3 2.93   5 2.93
                            14 2.93
   7  0.000  0.667  0.238-   8 2.93   1 2.93   5 2.93   3 2.93   4 2.93  16 2.93  18 2.93  13 2.93
                             9 2.93
   8  0.333  0.667  0.238-   7 2.93   1 2.93   2 2.93   9 2.93   5 2.93  16 2.93   6 2.93  17 2.93
                            14 2.93
   9  0.667  0.667  0.238-   3 2.93   2 2.93   8 2.93   6 2.93  17 2.93   4 2.93  15 2.93   7 2.93
                            18 2.93
  10  0.111  0.111  0.346-  20 2.92  19 2.93  26 2.93  12 2.93  16 2.93  15 2.93  17 2.93  13 2.93
                            11 2.93   2 2.93   1 2.93   4 2.93
  11  0.444  0.111  0.346-  21 2.90  20 2.90  27 2.92  14 2.93  17 2.93  18 2.93   3 2.93  12 2.93
                            13 2.93  10 2.93   5 2.93   2 2.93
  12  0.778  0.111  0.346-  21 2.92  25 2.93  19 2.93  10 2.93  16 2.93  18 2.93  15 2.93  11 2.93
                             1 2.93  14 2.93   6 2.93   3 2.93
  13  0.111  0.444  0.346-  20 2.90  23 2.90  22 2.92  15 2.93  14 2.93  18 2.93  10 2.93  11 2.93
                            16 2.93   4 2.93   5 2.93   7 2.93
  14  0.444  0.444  0.346-  23 2.90  21 2.90  24 2.92  13 2.93  11 2.93  16 2.93   5 2.93  12 2.93
                            17 2.93   8 2.93  15 2.93   6 2.93
  15  0.778  0.444  0.346-  24 2.91  22 2.91  19 2.92  13 2.93  10 2.93  12 2.93  17 2.93  18 2.93
                             4 2.93   6 2.93   9 2.93  14 2.93
  16  0.111  0.778  0.346-  23 2.92  26 2.93  25 2.93  18 2.93  12 2.93  10 2.93  14 2.93  17 2.93
                            13 2.93   7 2.93   8 2.93   1 2.93
  17  0.444  0.778  0.346-  27 2.91  24 2.91  26 2.92  11 2.93  10 2.93   9 2.93  18 2.93  15 2.93
                            16 2.93   2 2.93  14 2.93   8 2.93
  18  0.778  0.778  0.346-  22 2.91  27 2.91  25 2.92  16 2.93  12 2.93  13 2.93  11 2.93  17 2.93
                            15 2.93   7 2.93   3 2.93   9 2.93
  19  0.889  0.222  0.454-  28 2.91  15 2.92  10 2.93  12 2.93  24 2.93  22 2.93  26 2.93  25 2.93
                            32 2.94  31 2.94  20 2.94  21 2.94
  20  0.223  0.223  0.453-  36 2.69  31 2.89  29 2.89  13 2.90  11 2.90  21 2.91  23 2.91  10 2.92
                            27 2.93  22 2.93  19 2.94  26 2.94
  21  0.554  0.223  0.453-  36 2.69  30 2.89  32 2.89  11 2.90  14 2.90  20 2.91  23 2.91  12 2.92
                            27 2.93  24 2.93  25 2.94  19 2.94
  22  0.888  0.556  0.453-  35 2.91  33 2.91  31 2.91  18 2.91  15 2.91  13 2.92  24 2.92  27 2.92
                            25 2.93  19 2.93  23 2.93  20 2.93
  23  0.223  0.554  0.453-  36 2.69  34 2.89  33 2.89  14 2.90  13 2.90  21 2.91  20 2.91  16 2.92
                            22 2.93  24 2.93  26 2.94  25 2.94
  24  0.556  0.556  0.453-  35 2.91  32 2.91  34 2.91  15 2.91  17 2.91  14 2.92  27 2.92  22 2.92
                            19 2.93  26 2.93  23 2.93  21 2.93
  25  0.889  0.889  0.454-  28 2.91  18 2.92  16 2.93  12 2.93  22 2.93  27 2.93  26 2.93  19 2.93
                            33 2.94  30 2.94  23 2.94  21 2.94
  26  0.222  0.889  0.454-  28 2.91  17 2.92  16 2.93  10 2.93  27 2.93  24 2.93  25 2.93  19 2.93
                            34 2.94  29 2.94  23 2.94  20 2.94
  27  0.556  0.888  0.453-  35 2.91  29 2.91  30 2.91  17 2.91  18 2.91  11 2.92  24 2.92  22 2.92
                            26 2.93  25 2.93  20 2.93  21 2.93
  28  0.000  0.000  0.560-  26 2.91  25 2.91  19 2.91  29 2.97  34 2.97  33 2.97  32 2.97  31 2.97
                            30 2.97
  29  0.333  0.008  0.560-  31 2.86  30 2.86  36 2.87  20 2.89  27 2.91  26 2.94  28 2.97  35 2.97
                            34 3.07
  30  0.659  0.008  0.560-  32 2.86  29 2.86  36 2.87  21 2.89  27 2.91  25 2.94  28 2.97  35 2.97
                            33 3.07
  31  0.008  0.333  0.560-  29 2.86  33 2.86  36 2.87  20 2.89  22 2.91  19 2.94  28 2.97  35 2.97
                            32 3.07
  32  0.659  0.333  0.560-  30 2.86  34 2.86  36 2.87  21 2.89  24 2.91  19 2.94  28 2.97  35 2.97
                            31 3.07
  33  0.008  0.659  0.560-  34 2.86  31 2.86  36 2.87  23 2.89  22 2.91  25 2.94  28 2.97  35 2.97
                            30 3.07
  34  0.333  0.659  0.560-  33 2.86  32 2.86  36 2.87  23 2.89  24 2.91  26 2.94  28 2.97  35 2.97
                            29 3.07
  35  0.667  0.667  0.560-  24 2.91  27 2.91  22 2.91  32 2.97  30 2.97  29 2.97  34 2.97  31 2.97
                            33 2.97
  36  0.333  0.333  0.547-  38 2.06  37 2.06  21 2.69  20 2.69  23 2.69  31 2.87  30 2.87  33 2.87
                            29 2.87  34 2.87  32 2.87
  37  0.267  0.333  0.636-  38 1.16  36 2.06
  38  0.400  0.333  0.636-  37 1.16  36 2.06

  LATTYP: Found a hexagonal cell.
 ALAT       =     8.7913665772
 C/A-ratio  =     2.5227160501

  Lattice vectors:

 A1 = (  -4.3956832886,  -7.6135467898,   0.0000000000)
 A2 = (   8.7913665771,   0.0000000000,   0.0000000000)
 A3 = (   0.0000000000,   0.0000000000,  22.1781215668)

Analysis of symmetry for initial positions (statically):
 Subroutine PRICEL returns:
 Original cell was already a primitive cell.

 Routine SETGRP: Setting up the symmetry group for a
 hexagonal supercell.

 Subroutine GETGRP returns: Found  2 space group operations
 (whereof  2 operations were pure point group operations)
 out of a pool of 24 trial point group operations.

The static configuration has the point symmetry C_1h.

Analysis of symmetry for dynamics (positions and initial velocities):
 Subroutine PRICEL returns:
 Original cell was already a primitive cell.

[...]

The dynamic configuration has the point symmetry C_1h.

Analysis of constrained symmetry for selective dynamics:
 Subroutine PRICEL returns:
 Original cell was already a primitive cell.

 Routine SETGRP: Setting up the symmetry group for a
 hexagonal supercell.

[...]
     33      -4.4295      2.00000
     34      -4.4075      2.00000
     35      -4.4025      2.00000
     36      -4.3964      2.00000
     37      -4.3637      2.00000
     38      -4.3101      2.00000
     39      -4.2755      2.00000
     40      -4.2658      2.00000
     41      -4.2522      2.00000
     42      -4.2214      2.00000
     43      -4.2069      2.00000
     44      -4.1920      2.00000
     45      -4.1812      2.00000
     46      -4.1734      2.00000
     47      -4.1548      2.00000
     48      -4.0903      2.00000
     49      -4.0606      2.00000
     50      -4.0547      2.00000
     51      -4.0437      2.00000
     52      -4.0400      2.00000
     53      -4.0352      2.00000
     54      -4.0200      2.00000
     55      -4.0140      2.00000
     56      -3.9967      2.00000
     57      -3.9893      2.00000
     58      -3.9248      2.00000
     59      -3.9181      2.00000
     60      -3.9013      2.00000
[...]
    238       6.0187      0.00000
    239       6.2617      0.00000
    240       6.2815      0.00000
    241       6.4082      0.00000
    242       6.4357      0.00000
    243       6.5353      0.00000
    244       7.0050      0.00000
    245       7.2865      0.00000
    246       7.2975      0.00000
    247       7.3376      0.00000
    248       7.3951      0.00000
    249       7.4114      0.00000
    250       7.4424      0.00000
    251       7.6171      0.00000
    252       7.6527      0.00000

 soft charge-density along one line, spin component           1
         0         1         2         3         4         5         6         7         8         9
 total charge-density along one line

------------------------ aborting loop because EDIFF is reached ----------------------------------------

 total charge

# of ion       s       p       d       tot
    1        0.416   0.203   9.178   9.797
    2        0.418   0.203   9.177   9.798
    3        0.418   0.203   9.177   9.798
    4        0.418   0.203   9.177   9.798
    5        0.418   0.204   9.176   9.798
    6        0.418   0.203   9.177   9.798
    7        0.419   0.203   9.177   9.799
    8        0.419   0.203   9.177   9.799
    9        0.414   0.204   9.179   9.796
   10        0.405   0.269   9.164   9.838
   11        0.409   0.267   9.167   9.844
   12        0.405   0.269   9.164   9.838
   13        0.408   0.268   9.168   9.844
   14        0.408   0.268   9.168   9.844
   15        0.401   0.271   9.164   9.837
   16        0.405   0.269   9.164   9.839
   17        0.400   0.272   9.165   9.837
   18        0.400   0.272   9.165   9.837
   19        0.399   0.267   9.168   9.834
   20        0.423   0.292   9.150   9.865
   21        0.423   0.292   9.150   9.865
   22        0.399   0.276   9.165   9.840
   23        0.420   0.295   9.149   9.864
   24        0.399   0.276   9.165   9.840
   25        0.404   0.266   9.167   9.836
   26        0.404   0.266   9.167   9.836
   27        0.399   0.275   9.166   9.840
   28        0.415   0.195   9.180   9.790
   29        0.417   0.203   9.183   9.802
   30        0.417   0.203   9.183   9.802
   31        0.404   0.206   9.185   9.794
   32        0.404   0.206   9.185   9.794
   33        0.416   0.203   9.183   9.802
   34        0.416   0.203   9.183   9.802
   35        0.411   0.196   9.181   9.788
   36        0.340   0.316   7.406   8.062
   37        1.344   2.458   0.000   3.801
   38        1.344   2.458   0.000   3.801
tot         17.394  13.604 328.399 359.397

  FORCE on cell =-STRESS in cart. coord.  units (eV):
  Direction    XX          YY          ZZ          XY          YZ          ZX
  Alpha Z   761.08885   761.08885   761.08885
  Ewald  122016.79070121687.09946************     0.00006     0.14956     0.00007
  Hartree132354.58813132227.85911************     0.00003     0.12986     0.00003
  E(xc)   -2117.10465 -2118.32510 -2122.80288     0.00001    -0.00956     0.00000
  Local  ************************265179.12351     0.00086    -0.51241    -0.00018
  n-local  -357.93436  -346.43630  -357.25940     2.25183     0.03702     0.11231
  augment  3379.80074  3379.67828  3383.90780    -0.00019     0.13186     0.00002
  Kinetic  5026.34480  5041.60058  5061.79490     1.18706     0.17302    -0.01847
  Fock        0.00000     0.00000     0.00000     0.00000     0.00000     0.00000
  Total      -8.34120    -8.01701    -1.63375    -0.00000     0.09935     0.00000
  in kB      -9.00266    -8.65276    -1.76330    -0.00000     0.10723     0.00000

 VOLUME and BASIS-vectors are now :
  energy-cutoff  :      500.00
  volume of cell :     1484.46
      direct lattice vectors                 reciprocal lattice vectors
     8.791366577  0.000000000  0.000000000     0.113747958 -0.065672414  0.000000000
     4.395683289  7.613546790  0.000000000     0.000000000  0.131344829  0.000000000
     0.000000000  0.000000000 22.178121567     0.000000000  0.000000000  0.045089481

  length of vectors
     8.791366577  8.791366577 22.178121567     0.131344829  0.131344829  0.045089481

 FORCES acting on ions
    electron-ion (+dipol)            ewald-force                    non-local-force                 convergence-correction
   0.459E-04 -.927E-02 0.253E+04   -.954E-04 -.157E-01 -.253E+04   -.164E-13 -.250E-02 -.233E+01   -.200E-03 0.264E-01 -.218E+00
   0.708E+00 0.712E+00 0.253E+04   -.682E+00 -.738E+00 -.253E+04   0.163E-01 0.397E-01 -.165E+01   -.329E-01 -.253E-03 -.185E+00
   -.708E+00 0.711E+00 0.253E+04   0.682E+00 -.738E+00 -.253E+04   -.163E-01 0.397E-01 -.165E+01   0.325E-01 0.163E-02 -.184E+00
   0.842E+00 0.198E+00 0.253E+04   -.967E+00 -.228E+00 -.253E+04   0.121E+00 0.159E-01 -.167E+01   0.137E-01 0.109E-01 -.229E+00
   -.721E-05 0.436E-01 0.253E+04   0.981E-04 0.807E-03 -.253E+04   -.787E-13 -.120E-01 -.148E+01   0.626E-02 -.322E-01 -.139E+00
   -.842E+00 0.198E+00 0.253E+04   0.967E+00 -.229E+00 -.253E+04   -.121E+00 0.159E-01 -.167E+01   -.151E-01 0.117E-01 -.228E+00
   0.386E+00 -.923E+00 0.253E+04   -.285E+00 0.967E+00 -.253E+04   -.398E-02 -.584E-01 -.164E+01   -.794E-01 0.461E-02 -.211E+00
   -.386E+00 -.923E+00 0.253E+04   0.285E+00 0.967E+00 -.253E+04   0.398E-02 -.584E-01 -.164E+01   0.809E-01 0.355E-02 -.211E+00
   0.361E-04 0.717E-02 0.253E+04   0.792E-04 0.149E-01 -.253E+04   0.362E-13 0.551E-02 -.205E+01   -.658E-02 -.268E-01 -.233E+00
   0.623E+01 0.371E+01 0.889E+03   -.589E+01 -.352E+01 -.888E+03   -.366E+00 -.203E+00 -.725E+00   0.416E-01 0.206E-01 0.940E-01
   -.299E-04 0.779E+01 0.901E+03   0.419E-04 -.793E+01 -.900E+03   0.651E-12 0.991E-01 -.467E+00   0.685E-02 -.109E-02 0.143E+00
   -.623E+01 0.371E+01 0.889E+03   0.589E+01 -.352E+01 -.888E+03   0.366E+00 -.203E+00 -.725E+00   -.437E-01 0.215E-01 0.949E-01
   0.663E+01 -.386E+01 0.901E+03   -.675E+01 0.399E+01 -.900E+03   0.908E-01 -.733E-01 -.427E+00   0.346E-02 -.358E-01 0.142E+00
   -.663E+01 -.386E+01 0.901E+03   0.675E+01 0.399E+01 -.900E+03   -.908E-01 -.733E-01 -.427E+00   0.706E-02 -.373E-01 0.141E+00
   0.167E-04 0.120E+01 0.890E+03   -.109E-03 -.124E+01 -.889E+03   0.212E-12 0.322E-01 -.786E+00   -.174E-02 -.783E-02 0.467E-01
   -.798E-05 -.727E+01 0.889E+03   0.208E-04 0.683E+01 -.888E+03   0.278E-11 0.423E+00 -.748E+00   -.351E-03 -.105E-01 0.816E-01
   0.108E+01 -.730E+00 0.890E+03   -.115E+01 0.701E+00 -.889E+03   0.102E-01 0.204E-02 -.675E+00   0.313E-01 0.334E-01 0.510E-01
   -.108E+01 -.730E+00 0.890E+03   0.115E+01 0.701E+00 -.889E+03   -.102E-01 0.204E-02 -.675E+00   -.307E-01 0.358E-01 0.532E-01
   0.430E-04 0.415E+01 -.791E+03   -.130E-03 -.426E+01 0.790E+03   0.952E-12 0.145E+00 0.845E+00   -.651E-02 -.311E-01 0.192E+00
   0.391E+02 0.235E+02 -.729E+03   -.382E+02 -.228E+02 0.729E+03   -.107E+01 -.704E+00 -.113E+01   0.200E+00 0.832E-01 0.381E+00
   -.391E+02 0.235E+02 -.729E+03   0.382E+02 -.228E+02 0.729E+03   0.107E+01 -.704E+00 -.113E+01   -.199E+00 0.813E-01 0.381E+00
   0.168E+02 -.104E+02 -.775E+03   -.170E+02 0.106E+02 0.774E+03   0.163E+00 -.153E+00 0.530E+00   0.860E-01 -.569E-01 0.163E+00
   -.636E-04 -.463E+02 -.730E+03   0.475E-04 0.452E+02 0.730E+03   0.858E-11 0.131E+01 -.104E+01   -.691E-03 -.251E+00 0.462E+00
   -.168E+02 -.104E+02 -.775E+03   0.170E+02 0.106E+02 0.774E+03   -.163E+00 -.153E+00 0.530E+00   -.749E-01 -.594E-01 0.163E+00
   -.331E+01 -.156E+01 -.792E+03   0.331E+01 0.154E+01 0.791E+03   -.189E-01 -.133E-01 0.795E+00   0.108E-01 0.317E-01 0.218E+00
   0.331E+01 -.156E+01 -.792E+03   -.331E+01 0.154E+01 0.791E+03   0.189E-01 -.133E-01 0.795E+00   -.232E-01 0.312E-01 0.218E+00
   0.208E-04 0.193E+02 -.776E+03   0.109E-03 -.197E+02 0.775E+03   0.201E-11 0.307E+00 0.594E+00   0.709E-02 0.131E+00 0.157E+00
   0.544E-04 0.309E+01 -.247E+04   -.116E-03 -.303E+01 0.246E+04   -.438E-12 -.666E-01 0.188E+01   -.326E-03 -.137E-01 0.290E+00
   0.480E+02 0.914E+02 -.244E+04   -.477E+02 -.915E+02 0.243E+04   -.409E+00 -.290E+00 0.243E+01   -.865E-02 0.105E+00 0.161E+00
   -.480E+02 0.914E+02 -.244E+04   0.477E+02 -.915E+02 0.243E+04   0.409E+00 -.290E+00 0.243E+01   0.852E-02 0.106E+00 0.159E+00
   0.109E+03 -.258E-01 -.243E+04   -.109E+03 0.185E+00 0.242E+04   0.114E-01 -.746E-01 0.305E+01   0.132E+00 -.629E-01 0.165E+00
   -.109E+03 -.258E-01 -.243E+04   0.109E+03 0.185E+00 0.242E+04   -.114E-01 -.746E-01 0.305E+01   -.132E+00 -.628E-01 0.164E+00
   0.476E+02 -.912E+02 -.244E+04   -.475E+02 0.911E+02 0.243E+04   -.299E+00 0.377E+00 0.244E+01   0.793E-01 -.407E-01 0.156E+00
   -.476E+02 -.912E+02 -.244E+04   0.475E+02 0.911E+02 0.243E+04   0.299E+00 0.377E+00 0.244E+01   -.787E-01 -.412E-01 0.157E+00
   0.199E-04 -.300E+01 -.247E+04   0.107E-03 0.290E+01 0.246E+04   0.604E-12 0.919E-01 0.195E+01   -.596E-02 0.166E-01 0.323E+00
   -.375E-04 -.443E+00 -.168E+04   0.866E-04 0.446E+00 0.168E+04   0.451E-12 0.687E-01 0.375E+01   0.542E-02 -.111E-01 -.181E+00
   0.222E+03 -.613E-01 -.136E+04   -.263E+03 0.477E-01 0.136E+04   0.403E+02 0.150E-01 -.796E+01   0.565E-01 -.834E-02 -.135E+00
   -.222E+03 -.613E-01 -.136E+04   0.263E+03 0.477E-01 0.136E+04   -.403E+02 0.150E-01 -.796E+01   -.582E-01 -.833E-02 -.135E+00
   0.460E-03 -.114E+00 0.107E+02   0.568E-13 0.182E-12 -.455E-11   0.102E-11 0.155E+00 -.131E+02   0.107E-01 -.430E-01 0.247E+01

 POSITION                                       TOTAL-FORCE (eV/Angst)
      0.00000      0.00000      5.28219        -0.000000     -0.000966      0.033352
      2.93046      0.00000      5.28219         0.010104      0.013785      0.052561
      5.86091      0.00000      5.28219        -0.010104      0.013785      0.052561
      1.46523      2.53785      5.28219         0.010760     -0.003667      0.051505
      4.39568      2.53785      5.28219         0.000000      0.000249      0.024124
      7.32614      2.53785      5.28219        -0.010760     -0.003667      0.051505
      2.93046      5.07570      5.28219         0.017672     -0.010417      0.051114
      5.86091      5.07570      5.28219        -0.017672     -0.010417      0.051114
      8.79137      5.07570      5.28219         0.000000      0.000816      0.043704
      1.46523      0.84595      7.67490         0.013298      0.011297     -0.005047
      4.39568      0.84595      7.67490        -0.000000     -0.036733     -0.090308
      7.32614      0.84595      7.67490        -0.013298      0.011297     -0.005047
      2.93046      3.38380      7.67490        -0.031888      0.021008     -0.082079
      5.86091      3.38380      7.67490         0.031888      0.021008     -0.082079
      8.79137      3.38380      7.67490        -0.000000     -0.017217     -0.013759
      4.39568      5.92165      7.67490        -0.000000     -0.029784      0.004173
      7.32614      5.92165      7.67490        -0.020895      0.007796      0.004792
     10.25659      5.92165      7.67490         0.020895      0.007796      0.004792
      8.79137      1.69398     10.06180         0.000000      0.008532      0.038215
      2.94231      1.69874     10.03918        -0.006577     -0.008048     -0.083488
      5.84906      1.69874     10.03918         0.006577     -0.008048     -0.083488
     10.25255      4.23208     10.04993         0.047157     -0.024898      0.007113
      4.39568      4.21606     10.03918        -0.000000     -0.018617     -0.074141
      7.33018      4.23208     10.04993        -0.047157     -0.024898      0.007113
     11.72002      6.76656     10.06180        -0.005719     -0.003674     -0.007393
      5.86271      6.76656     10.06180         0.005719     -0.003674     -0.007393
      8.79137      6.76293     10.04993         0.000000      0.037388     -0.005644
      0.00000      0.00000     12.42562        -0.000000     -0.011975     -0.014322
      2.96563      0.06260     12.41952        -0.102304     -0.251304     -0.170118
      5.82574      0.06260     12.41952         0.102304     -0.251304     -0.170118
      1.53702      2.53701     12.41952        -0.277477      0.022045     -0.173706
      7.25434      2.53701     12.41952         0.277477      0.022045     -0.173706
      2.96708      5.01394     12.41952        -0.132632      0.232167     -0.165000
      5.82429      5.01394     12.41952         0.132632      0.232167     -0.165000
      8.79137      5.07570     12.42127         0.000000      0.009742      0.003429
      4.39568      2.53785     12.13550         0.000000      0.060234      1.127654
      3.81477      2.53466     14.10813        -0.025012     -0.006925     -0.018493
      4.97660      2.53466     14.10813         0.025012     -0.006925     -0.018493
    total drift:                                0.011200     -0.001322      0.035115

  FREE ENERGIE OF THE ION-ELECTRON SYSTEM (eV)
  free  energy   TOTEN  =      -110.67720052 eV

  energy  without entropy=     -110.67720052  energy(sigma->0) =     -110.67720052

 stress matrix after NEB project (eV)
     -8.34120     -0.00000      0.00000
     -0.00000     -8.01701      0.09935
      0.00000      0.09935     -1.63375
  FORCES: max atom, RMS     0.031868    0.007311
  FORCE total and by dimension    0.045068    0.025012
  Stress total and by dimension   11.684900    8.341199
|           W    W    AA    RRRRR   N    N  II  N    N   GGGG   !!!           |
|           W    W   A  A   R    R  NN   N  II  NN   N  G    G  !!!           |
|           W    W  A    A  R    R  N N  N  II  N N  N  G       !!!           |
|           W WW W  AAAAAA  RRRRR   N  N N  II  N  N N  G  GGG   !            |
|           WW  WW  A    A  R   R   N   NN  II  N   NN  G    G                |
|           W    W  A    A  R    R  N    N  II  N    N   GGGG   !!!           |
|     Tetrahedron method does not include variations of the Fermi             |
|     occupations, so forces and stress will be inaccurate. We suggest        |
|     using a different smearing scheme ISMEAR = 1 or 2 for metals in         |
|     relaxations.                                                            |

 total charge

# of ion       s       p       d       tot
    1        0.416   0.203   9.178   9.797
    2        0.418   0.203   9.177   9.798
    3        0.418   0.203   9.177   9.798
    4        0.418   0.203   9.177   9.798
    5        0.418   0.204   9.176   9.798
    6        0.418   0.203   9.177   9.798
    7        0.419   0.203   9.177   9.799
    8        0.419   0.203   9.177   9.799
    9        0.414   0.204   9.179   9.796
   10        0.405   0.269   9.164   9.838
   11        0.409   0.267   9.167   9.844
   12        0.405   0.269   9.164   9.838
   13        0.408   0.268   9.168   9.844
   14        0.408   0.268   9.168   9.844
   15        0.401   0.271   9.164   9.837
   16        0.405   0.269   9.164   9.839
   17        0.400   0.272   9.165   9.837
   18        0.400   0.272   9.165   9.837
   19        0.399   0.267   9.168   9.834
   20        0.423   0.292   9.150   9.865
   21        0.423   0.292   9.150   9.865
   22        0.399   0.276   9.165   9.840
   23        0.420   0.295   9.149   9.864
   24        0.399   0.276   9.165   9.840
   25        0.404   0.266   9.167   9.836
   26        0.404   0.266   9.167   9.836
   27        0.399   0.275   9.166   9.840
   28        0.415   0.195   9.180   9.790
   29        0.417   0.203   9.183   9.802
   30        0.417   0.203   9.183   9.802
   31        0.404   0.206   9.185   9.794
   32        0.404   0.206   9.185   9.794
   33        0.416   0.203   9.183   9.802
   34        0.416   0.203   9.183   9.802
   35        0.411   0.196   9.181   9.788
   36        0.340   0.316   7.406   8.062
   37        1.344   2.458   0.000   3.801
   38        1.344   2.458   0.000   3.801
tot         17.394  13.604 328.399 359.397

 BZINTS: Fermi energy:    0.936140;  404.000000 electrons
         Band energy:-0.130775E+04;  BLOECHL correction:   -0.046289