 vasp.6.2.0 18Jan21 (build Jun 12 2021 23:27:24) complex

 executed on             LinuxIFC date 2022.05.27  06:19:38

 INCAR:
   ISMEAR = -5
   SIGMA = 0.1
   ISPIN = 1
   EDIFF = 1.d-5
   EDIFFG = -0.01
   NSW = 0
   NELM = 150
   ENCUT = 500
   ISIF = 2
   IBRION = 2
   LREAL = Auto
   ALGO = Fast
   ICHARG = 11
   LORBIT = 10
   LCHARG = .F.
   LWAVE = .F.

 POTCAR:    PAW_PBE Cu 22Jun2005
 POTCAR:    PAW_PBE Os 17Jan2003
 POTCAR:    PAW_PBE C 08Apr2002
 POTCAR:    PAW_PBE O 08Apr2002
|           W    W    AA    RRRRR   N    N  II  N    N   GGGG   !!!           |
|           W    W   A  A   R    R  NN   N  II  NN   N  G    G  !!!           |
|           W    W  A    A  R    R  N N  N  II  N N  N  G       !!!           |
|           W WW W  AAAAAA  RRRRR   N  N N  II  N  N N  G  GGG   !            |
|           WW  WW  A    A  R   R   N   NN  II  N   NN  G    G                |
|           W    W  A    A  R    R  N    N  II  N    N   GGGG   !!!           |
|     For optimal performance we recommend to set                             |
|       NCORE = 2 up to number-of-cores-per-socket                            |
|     This setting can greatly improve the performance of VASP for DFT.       |
|     The default, NCORE=1 might be grossly inefficient on modern             |
|     multi-core architectures or massively parallel machines. Do your        |
|     Unfortunately you need to use the default for GW and RPA                |
|     calculations (for HF NCORE is supported but not extensively tested      |
|     yet).                                                                   |

 POTCAR:    PAW_PBE Cu 22Jun2005
   VRHFIN =Cu: d10 p1

   TITEL  = PAW_PBE Cu 22Jun2005
   POMASS =   63.546; ZVAL   =   11.000    mass and valenz
   ENMAX  =  295.446; ENMIN  =  221.585 eV

 POTCAR:    PAW_PBE Os 17Jan2003
   VRHFIN =Os: 6s5d

   TITEL  = PAW_PBE Os 17Jan2003
   POMASS =  190.200; ZVAL   =    8.000    mass and valenz
   ENMAX  =  228.022; ENMIN  =  171.017 eV

 POTCAR:    PAW_PBE C 08Apr2002
   VRHFIN =C: s2p2

   TITEL  = PAW_PBE C 08Apr2002
   POMASS =   12.011; ZVAL   =    4.000    mass and valenz
   ENMAX  =  400.000; ENMIN  =  300.000 eV

 POTCAR:    PAW_PBE O 08Apr2002
   VRHFIN =O: s2p4

   TITEL  = PAW_PBE O 08Apr2002
   POMASS =   16.000; ZVAL   =    6.000    mass and valenz
   ENMAX  =  400.000; ENMIN  =  300.000 eV

 Optimization of the real space projectors (new method)

 maximal supplied QI-value         = 16.25
 optimisation between [QCUT,QGAM] = [ 11.38, 22.75] = [ 36.24,144.96] Ry
 Optimized for a Real-space Cutoff    1.52 Angstroem

   l    n(q)    QCUT    max X(q) W(low)/X(q) W(high)/X(q)  e(spline)
   2      9    11.376     4.610    0.21E-03    0.10E-03    0.26E-06
   2      9    11.376     8.522    0.33E-03    0.16E-03    0.37E-06
   0     10    11.376    51.609    0.62E-04    0.20E-04    0.13E-06
   0     10    11.376    27.747    0.54E-04    0.20E-04    0.13E-06
   1     10    11.376    20.408    0.13E-04    0.99E-04    0.19E-06
   1     10    11.376    13.425    0.12E-04    0.87E-04    0.17E-06
 Optimization of the real space projectors (new method)

[...]

   l    n(q)    QCUT    max X(q) W(low)/X(q) W(high)/X(q)  e(spline)
   0      7    11.310   115.676    0.43E-03    0.13E-02    0.19E-06
   0      7    11.310    87.132    0.43E-03    0.13E-02    0.18E-06
   1      6    11.310     4.429    0.42E-03    0.74E-03    0.11E-06
   1      6    11.310     2.733    0.34E-03    0.55E-03    0.92E-07
 Optimization of the real space projectors (new method)

 maximal supplied QI-value         = 24.76
 optimisation between [QCUT,QGAM] = [ 11.39, 22.77] = [ 36.31,145.25] Ry
 Optimized for a Real-space Cutoff    1.00 Angstroem

   l    n(q)    QCUT    max X(q) W(low)/X(q) W(high)/X(q)  e(spline)
   0      7    11.387    20.381    0.39E-03    0.13E-02    0.15E-06
   0      7    11.387    15.268    0.42E-03    0.14E-02    0.17E-06
   1      6    11.387     5.964    0.41E-03    0.11E-02    0.17E-06
   1      6    11.387     5.382    0.39E-03    0.87E-03    0.15E-06
  PAW_PBE Cu 22Jun2005                  :
  PAW_PBE Os 17Jan2003                  :
  PAW_PBE C 08Apr2002                   :
  PAW_PBE O 08Apr2002                   :

 POSCAR: Cu-Os-CO
  positions in direct lattice
  velocities in cartesian coordinates
 exchange correlation table for  LEXCH =        8
   RHO(1)=    0.500       N(1)  =     2000
   RHO(2)=  100.500       N(2)  =     4000

 VTST: version 3.2, (02/03/18)

 CHAIN: initializing optimizer

 OPT: Using VASP Conjugate-Gradient optimizer
 CHAIN: Read ICHAIN            0

 POSCAR: Cu-Os-CO
  positions in direct lattice
  velocities in cartesian coordinates

 ion  position               nearest neighbor table
   1  0.000  0.000  0.218-   7 2.57   3 2.57   4 2.57   2 2.57   6 2.57   8 2.57  12 2.57  10 2.57
                            16 2.57
   2  0.333  0.000  0.218-   8 2.57   9 2.57   5 2.57   1 2.57   3 2.57  11 2.57   4 2.57  10 2.57
                            17 2.57
   3  0.667  0.000  0.218-   1 2.57   7 2.57   6 2.57   9 2.57   2 2.57  12 2.57   5 2.57  18 2.57
                            11 2.57
   4  0.000  0.333  0.218-   5 2.57   6 2.57   1 2.57   7 2.57   2 2.57  13 2.57   9 2.57  10 2.57
                            15 2.57
   5  0.333  0.333  0.218-   4 2.57   2 2.57   7 2.57  13 2.57   8 2.57   6 2.57   3 2.57  11 2.57
                            14 2.57
   6  0.667  0.333  0.218-   4 2.57   9 2.57  15 2.57   3 2.57   1 2.57   8 2.57  14 2.57   5 2.57
                            12 2.57
   7  0.000  0.667  0.218-   1 2.57   3 2.57  16 2.57  18 2.57   4 2.57   5 2.57   8 2.57   9 2.57
                            13 2.57
   8  0.333  0.667  0.218-   9 2.57   2 2.57  17 2.57   6 2.57   1 2.57   7 2.57   5 2.57  14 2.57
                            16 2.57
   9  0.667  0.667  0.218-   8 2.57   6 2.57   2 2.57  17 2.57   3 2.57   7 2.57   4 2.57  15 2.57
                            18 2.57
  10  0.111  0.111  0.303-  20 2.53  11 2.57  12 2.57  13 2.57   1 2.57   2 2.57   4 2.57  15 2.57
                            16 2.57  17 2.57  26 2.57  19 2.57
  11  0.444  0.111  0.303-  20 2.54  21 2.54  10 2.57  13 2.57   2 2.57  17 2.57  14 2.57  12 2.57
                             5 2.57   3 2.57  18 2.57  27 2.57
  12  0.778  0.111  0.303-  21 2.53  15 2.57  10 2.57  14 2.57  18 2.57   3 2.57   1 2.57  16 2.57
                            11 2.57   6 2.57  19 2.57  25 2.57
  13  0.111  0.444  0.303-  23 2.54  20 2.54  16 2.57  18 2.57  10 2.57  11 2.57  14 2.57   5 2.57
                             4 2.57   7 2.57  15 2.57  22 2.57
  14  0.444  0.444  0.303-  21 2.54  23 2.54  15 2.57  17 2.57  12 2.57  16 2.57  13 2.57  11 2.57
                             6 2.57   8 2.57   5 2.57  24 2.57
  15  0.778  0.444  0.303-  19 2.56  14 2.57  17 2.57  12 2.57   6 2.57  18 2.57  10 2.57   9 2.57
                            13 2.57   4 2.57  24 2.57  22 2.57
  16  0.111  0.778  0.303-  23 2.53  18 2.57  13 2.57   7 2.57  14 2.57  17 2.57  12 2.57  10 2.57
                             8 2.57   1 2.57  25 2.57  26 2.57
  17  0.444  0.778  0.303-  26 2.56  14 2.57  15 2.57   8 2.57   9 2.57  11 2.57  16 2.57  18 2.57
                            10 2.57   2 2.57  27 2.57  24 2.57
  18  0.778  0.778  0.303-  25 2.56  16 2.57  13 2.57   7 2.57  15 2.57  12 2.57  17 2.57   9 2.57
                             3 2.57  11 2.57  22 2.57  27 2.57
  19  0.888  0.223  0.388-  21 2.55  20 2.55  28 2.55  22 2.56  24 2.56  15 2.56  12 2.57  10 2.57
                            32 2.57  31 2.57  25 2.57  26 2.57
  20  0.221  0.221  0.387-  10 2.53  36 2.53  11 2.54  13 2.54  26 2.55  19 2.55  27 2.57  22 2.57
                            23 2.59  21 2.59  29 2.60  31 2.60
  21  0.558  0.221  0.387-  12 2.53  36 2.53  14 2.54  11 2.54  19 2.55  25 2.55  24 2.57  27 2.57
                            20 2.59  23 2.59  32 2.60  30 2.60
  22  0.888  0.556  0.388-  35 2.55  24 2.55  27 2.55  19 2.56  25 2.56  18 2.57  15 2.57  23 2.57
                            20 2.57  13 2.57  31 2.58  33 2.58
  23  0.221  0.558  0.387-  16 2.53  36 2.53  13 2.54  14 2.54  25 2.55  26 2.55  22 2.57  24 2.57
                            20 2.59  21 2.59  33 2.60  34 2.60
  24  0.556  0.556  0.388-  35 2.55  22 2.55  27 2.55  19 2.56  26 2.56  15 2.57  17 2.57  21 2.57
                            23 2.57  14 2.57  32 2.58  34 2.58
  25  0.888  0.888  0.388-  21 2.55  23 2.55  28 2.55  22 2.56  27 2.56  18 2.56  16 2.57  12 2.57
                            33 2.57  30 2.57  19 2.57  26 2.57
  26  0.223  0.888  0.388-  20 2.55  23 2.55  28 2.55  27 2.56  24 2.56  17 2.56  10 2.57  16 2.57
                            29 2.57  34 2.57  25 2.57  19 2.57
  27  0.556  0.888  0.388-  35 2.55  24 2.55  22 2.55  26 2.56  25 2.56  17 2.57  18 2.57  20 2.57
                            21 2.57  11 2.57  29 2.58  30 2.58
  28  0.000  0.000  0.472-  25 2.55  19 2.55  26 2.55  33 2.56  30 2.56  31 2.56  29 2.56  32 2.56
                            34 2.56
  29  0.333  0.000  0.473-  31 2.56  28 2.56  34 2.57  36 2.57  35 2.57  30 2.57  26 2.57  27 2.58
                            20 2.60
  30  0.667  0.000  0.473-  32 2.56  28 2.56  33 2.57  36 2.57  35 2.57  29 2.57  25 2.57  27 2.58
                            21 2.60
  31  0.000  0.333  0.473-  29 2.56  28 2.56  32 2.57  36 2.57  35 2.57  33 2.57  19 2.57  22 2.58
                            20 2.60
  32  0.667  0.333  0.473-  30 2.56  28 2.56  31 2.57  36 2.57  35 2.57  34 2.57  19 2.57  24 2.58
                            21 2.60
  33  0.000  0.667  0.473-  34 2.56  28 2.56  30 2.57  36 2.57  35 2.57  31 2.57  25 2.57  22 2.58
                            23 2.60
  34  0.333  0.667  0.473-  33 2.56  28 2.56  29 2.57  36 2.57  35 2.57  32 2.57  26 2.57  24 2.58
                            23 2.60
  35  0.667  0.667  0.472-  24 2.55  27 2.55  22 2.55  34 2.57  32 2.57  29 2.57  30 2.57  33 2.57
                            31 2.57
  36  0.333  0.333  0.469-  37 1.88  23 2.53  20 2.53  21 2.53  31 2.57  29 2.57  33 2.57  34 2.57
                            32 2.57  30 2.57
  37  0.333  0.333  0.546-  38 1.17  36 1.88
  38  0.333  0.333  0.593-  37 1.17

  LATTYP: Found a hexagonal cell.
 ALAT       =     7.6967864036
 C/A-ratio  =     3.2035062624

  Lattice vectors:

 A1 = (  -3.8483927580,  -6.6656128093,   0.0000000000)
 A2 = (   7.6967864037,   0.0000000000,   0.0000000000)
 A3 = (   0.0000000000,   0.0000000000,  24.6567034444)

Analysis of symmetry for initial positions (statically):
 Subroutine PRICEL returns:
 Original cell was already a primitive cell.

 Routine SETGRP: Setting up the symmetry group for a
 hexagonal supercell.

 Subroutine GETGRP returns: Found  6 space group operations
 (whereof  6 operations were pure point group operations)
 out of a pool of 24 trial point group operations.

The static configuration has the point symmetry C_3v.

Analysis of symmetry for dynamics (positions and initial velocities):
 Subroutine PRICEL returns:
 Original cell was already a primitive cell.

[...]

The dynamic configuration has the point symmetry C_3v.

Analysis of constrained symmetry for selective dynamics:
 Subroutine PRICEL returns:
[...]
     33      -4.7444      2.00000
     34      -4.7340      2.00000
     35      -4.7255      2.00000
     36      -4.7178      2.00000
     37      -4.7107      2.00000
     38      -4.6881      2.00000
     39      -4.6477      2.00000
     40      -4.6028      2.00000
     41      -4.5561      2.00000
     42      -4.4157      2.00000
     43      -4.4122      2.00000
     44      -4.3649      2.00000
     45      -4.3394      2.00000
     46      -4.3318      2.00000
     47      -4.3124      2.00000
     48      -4.2987      2.00000
     49      -4.2880      2.00000
     50      -4.2846      2.00000
     51      -4.0911      2.00000
     52      -4.0823      2.00000
     53      -4.0692      2.00000
     54      -4.0600      2.00000
     55      -4.0155      2.00000
     56      -4.0051      2.00000
     57      -3.9970      2.00000
     58      -3.9838      2.00000
     59      -3.9788      2.00000
     60      -3.9634      2.00000
[...]
    238       5.1741      0.00000
    239       5.4451      0.00000
    240       5.5233      0.00000
    241       5.5377      0.00000
    242       5.7358      0.00000
    243       5.8226      0.00000
    244       5.9003      0.00000
    245       5.9118      0.00000
    246       6.1053      0.00000
    247       6.1454      0.00000
    248       6.3248      0.00000
    249       6.5140      0.00000
    250       6.5953      0.00000
    251       6.7526      0.00000
    252       6.9530      0.00000

 soft charge-density along one line, spin component           1
         0         1         2         3         4         5         6         7         8         9
 total charge-density along one line

------------------------ aborting loop because EDIFF is reached ----------------------------------------

 total charge

# of ion       s       p       d       tot
    1        0.449   0.283   9.189   9.921
    2        0.449   0.284   9.186   9.920
    3        0.449   0.284   9.186   9.920
    4        0.449   0.284   9.186   9.920
    5        0.449   0.287   9.180   9.915
    6        0.449   0.284   9.186   9.920
    7        0.449   0.284   9.186   9.920
    8        0.449   0.284   9.186   9.920
    9        0.447   0.282   9.190   9.920
   10        0.441   0.372   9.175   9.988
   11        0.445   0.365   9.184   9.994
   12        0.441   0.372   9.175   9.988
   13        0.445   0.365   9.184   9.994
   14        0.445   0.365   9.184   9.994
   15        0.436   0.370   9.177   9.984
   16        0.441   0.372   9.175   9.988
   17        0.436   0.370   9.177   9.984
   18        0.436   0.370   9.177   9.984
   19        0.441   0.368   9.181   9.990
   20        0.461   0.398   9.169  10.028
   21        0.461   0.398   9.169  10.028
   22        0.430   0.372   9.182   9.984
   23        0.461   0.398   9.169  10.028
   24        0.430   0.372   9.182   9.984
   25        0.441   0.368   9.181   9.990
   26        0.441   0.368   9.181   9.990
   27        0.430   0.372   9.182   9.984
   28        0.448   0.287   9.194   9.929
   29        0.452   0.312   9.179   9.943
   30        0.452   0.312   9.179   9.943
   31        0.452   0.312   9.179   9.943
   32        0.452   0.312   9.179   9.943
   33        0.452   0.312   9.179   9.943
   34        0.452   0.312   9.179   9.943
   35        0.443   0.291   9.191   9.924
   36        0.672   0.661   6.199   7.533
   37        0.950   1.572   0.000   2.522
   38        1.610   3.532   0.000   5.143
tot         18.840  17.509 327.538 363.887

  FORCE on cell =-STRESS in cart. coord.  units (eV):
  Direction    XX          YY          ZZ          XY          YZ          ZX
  Alpha Z   798.35003   798.35003   798.35003
  Ewald  239406.39205239406.39162************     0.00040     0.00012     0.00017
  Hartree252191.44945252191.44943************     0.00004     0.00006     0.00006
  E(xc)   -2328.67036 -2328.66990 -2332.13435    -0.00039    -0.00003    -0.00005
  Local  ************************504585.26751     0.01875    -0.00060    -0.00096
  n-local  -808.18247  -792.76203  -818.68714     8.28665    -0.05652     0.24680
  augment  3330.43963  3330.45994  3349.12177    -0.01759     0.00033     0.00061
  Kinetic  3444.20961  3450.66460  3435.19975     4.68921     1.63876    -1.32522
  Fock        0.00000     0.00000     0.00000     0.00000     0.00000     0.00000
  Total      -3.71082    -3.71082     3.09949     0.00000     0.00000    -0.00000
  in kB      -4.69998    -4.69998     3.92570     0.00000     0.00000    -0.00000

 VOLUME and BASIS-vectors are now :
  energy-cutoff  :      500.00
  volume of cell :     1264.98
      direct lattice vectors                 reciprocal lattice vectors
     7.696786404  0.000000000  0.000000000     0.129924354 -0.075011849  0.000000000
     3.848392758  6.665612809  0.000000000     0.000000000  0.150023716  0.000000000
     0.000000000  0.000000000 24.656703444     0.000000000  0.000000000  0.040556922

  length of vectors
     7.696786404  7.696786404 24.656703444     0.150023716  0.150023716  0.040556922

 FORCES acting on ions
    electron-ion (+dipol)            ewald-force                    non-local-force                 convergence-correction
   -.427E-04 -.479E-06 0.382E+04   0.580E-04 -.436E-05 -.382E+04   -.350E-17 0.607E-18 -.303E+01   -.344E-03 -.219E-03 -.507E+00
   -.129E+00 0.173E+00 0.382E+04   0.201E-01 -.170E+00 -.382E+04   0.738E-01 0.687E-01 -.185E+01   0.466E-01 -.467E-01 -.402E+00
   0.129E+00 0.173E+00 0.382E+04   -.201E-01 -.170E+00 -.382E+04   -.738E-01 0.687E-01 -.185E+01   -.458E-01 -.442E-01 -.402E+00
   0.857E-01 -.198E+00 0.382E+04   -.137E+00 0.102E+00 -.382E+04   0.964E-01 0.296E-01 -.185E+01   -.170E-01 0.637E-01 -.403E+00
   -.679E-04 -.701E-05 0.382E+04   0.116E-03 -.101E-04 -.382E+04   0.522E-17 0.186E-17 -.153E+01   0.122E-01 0.745E-02 -.282E+00
   -.857E-01 -.198E+00 0.382E+04   0.137E+00 0.102E+00 -.382E+04   -.964E-01 0.296E-01 -.185E+01   0.154E-01 0.649E-01 -.401E+00
   0.215E+00 0.249E-01 0.382E+04   -.157E+00 0.675E-01 -.382E+04   0.226E-01 -.983E-01 -.185E+01   -.611E-01 -.176E-01 -.401E+00
   -.215E+00 0.249E-01 0.382E+04   0.157E+00 0.675E-01 -.382E+04   -.226E-01 -.983E-01 -.185E+01   0.645E-01 -.190E-01 -.401E+00
   -.145E-03 -.336E-04 0.382E+04   0.263E-03 0.205E-04 -.382E+04   -.888E-18 0.239E-18 -.258E+01   -.132E-01 -.677E-02 -.434E+00
   0.334E+01 0.193E+01 0.132E+04   -.293E+01 -.169E+01 -.132E+04   -.535E+00 -.309E+00 -.114E+01   0.916E-01 0.526E-01 -.709E+00
   -.895E-04 0.104E+01 0.132E+04   0.190E-03 -.146E+01 -.132E+04   -.197E-07 0.297E+00 -.402E+00   0.121E-01 0.614E-01 -.669E+00
   -.334E+01 0.193E+01 0.132E+04   0.293E+01 -.169E+01 -.132E+04   0.535E+00 -.309E+00 -.114E+01   -.933E-01 0.539E-01 -.709E+00
   0.902E+00 -.521E+00 0.132E+04   -.126E+01 0.728E+00 -.132E+04   0.257E+00 -.148E+00 -.402E+00   0.597E-01 -.194E-01 -.670E+00
   -.902E+00 -.521E+00 0.132E+04   0.126E+01 0.728E+00 -.132E+04   -.257E+00 -.148E+00 -.402E+00   -.359E-01 -.207E-01 -.671E+00
   -.142E-03 -.355E+00 0.132E+04   0.299E-03 0.913E-01 -.132E+04   -.105E-07 0.157E+00 -.947E+00   -.359E-02 0.878E-01 -.709E+00
   -.916E-04 -.386E+01 0.132E+04   0.186E-03 0.338E+01 -.132E+04   -.411E-07 0.617E+00 -.114E+01   -.506E-03 -.109E+00 -.708E+00
   -.307E+00 0.177E+00 0.132E+04   0.791E-01 -.454E-01 -.132E+04   0.136E+00 -.786E-01 -.947E+00   0.747E-01 -.469E-01 -.709E+00
   0.308E+00 0.177E+00 0.132E+04   -.793E-01 -.454E-01 -.132E+04   -.136E+00 -.786E-01 -.947E+00   -.734E-01 -.440E-01 -.707E+00
   -.538E-04 -.474E+00 -.120E+04   0.687E-04 0.399E+00 0.120E+04   0.159E-08 -.238E-01 0.861E+00   -.110E-01 0.840E-01 -.424E+00
   -.232E+02 -.134E+02 -.119E+04   0.243E+02 0.141E+02 0.119E+04   -.130E+01 -.752E+00 -.917E+00   0.607E-01 0.340E-01 -.447E+00
   0.232E+02 -.134E+02 -.119E+04   -.243E+02 0.141E+02 0.119E+04   0.130E+01 -.752E+00 -.917E+00   -.794E-01 0.334E-01 -.447E+00
   -.168E+02 0.971E+01 -.120E+04   0.161E+02 -.928E+01 0.120E+04   0.734E+00 -.424E+00 0.868E+00   0.605E-01 -.335E-01 -.469E+00
   -.945E-04 0.268E+02 -.119E+04   0.145E-03 -.281E+02 0.119E+04   -.100E-06 0.150E+01 -.917E+00   0.264E-04 -.669E-01 -.447E+00
   0.168E+02 0.971E+01 -.120E+04   -.161E+02 -.928E+01 0.120E+04   -.734E+00 -.424E+00 0.868E+00   -.606E-01 -.349E-01 -.469E+00
   0.410E+00 0.237E+00 -.120E+04   -.346E+00 -.200E+00 0.120E+04   0.206E-01 0.119E-01 0.861E+00   -.883E-01 -.519E-01 -.424E+00
   -.410E+00 0.237E+00 -.120E+04   0.346E+00 -.200E+00 0.120E+04   -.206E-01 0.119E-01 0.861E+00   0.671E-01 -.528E-01 -.424E+00
   -.117E-03 -.194E+02 -.120E+04   0.242E-03 0.186E+02 0.120E+04   -.564E-07 0.847E+00 0.868E+00   0.937E-03 0.698E-01 -.468E+00
   -.442E-04 0.123E-04 -.367E+04   0.359E-04 -.337E-04 0.366E+04   0.194E-16 -.981E-17 0.242E+01   -.228E-03 -.447E-03 0.434E+00
   -.617E+01 -.550E+01 -.366E+04   0.652E+01 0.570E+01 0.366E+04   -.435E+00 -.378E+00 0.205E+01   0.145E-01 0.378E-01 0.350E+00
   0.616E+01 -.550E+01 -.366E+04   -.652E+01 0.570E+01 0.366E+04   0.435E+00 -.378E+00 0.205E+01   -.135E-01 0.395E-01 0.350E+00
   -.785E+01 -.259E+01 -.366E+04   0.820E+01 0.280E+01 0.366E+04   -.545E+00 -.188E+00 0.205E+01   0.401E-01 -.652E-02 0.351E+00
   0.785E+01 -.259E+01 -.366E+04   -.820E+01 0.280E+01 0.366E+04   0.545E+00 -.188E+00 0.205E+01   -.408E-01 -.566E-02 0.351E+00
   -.168E+01 0.809E+01 -.366E+04   0.168E+01 -.850E+01 0.366E+04   -.110E+00 0.566E+00 0.205E+01   0.278E-01 -.311E-01 0.350E+00
   0.168E+01 0.809E+01 -.366E+04   -.168E+01 -.850E+01 0.366E+04   0.110E+00 0.566E+00 0.205E+01   -.249E-01 -.323E-01 0.350E+00
   -.158E-03 -.305E-04 -.367E+04   0.255E-03 0.485E-05 0.367E+04   -.156E-18 -.258E-18 0.276E+01   -.128E-01 -.638E-02 0.353E+00
   -.328E-04 -.186E-04 -.246E+04   0.102E-03 0.192E-04 0.247E+04   -.308E-17 -.326E-17 -.696E+00   0.158E-02 0.752E-03 0.127E+00
   -.580E-05 -.792E-04 -.139E+04   0.106E-04 0.507E-05 0.137E+04   -.837E-19 0.385E-19 0.140E+02   0.104E-02 0.628E-03 0.118E+00
   0.225E-03 -.739E-04 -.227E+04   0.263E-05 0.253E-05 0.233E+04   0.141E-19 0.962E-21 -.590E+02   0.324E-02 0.198E-02 0.120E+00
   -.647E-04 -.169E-03 0.621E+02   0.272E-13 0.163E-12 0.728E-11   0.163E-15 -.348E-17 -.515E+02   -.216E-01 -.386E-02 -.107E+02

 POSITION                                       TOTAL-FORCE (eV/Angst)
      0.00000      0.00000      5.37156         0.000000      0.000000     -0.004825
      2.56560      0.00000      5.37156         0.011968      0.026827      0.073870
      5.13119      0.00000      5.37156        -0.011968      0.026827      0.073870
      1.28280      2.22187      5.37156         0.029217     -0.003049      0.073870
      3.84839      2.22187      5.37156        -0.000000     -0.000000      0.042866
      6.41399      2.22187      5.37156        -0.029217     -0.003049      0.073870
      2.56560      4.44374      5.37156         0.017249     -0.023778      0.073870
      5.13119      4.44374      5.37156        -0.017249     -0.023778      0.073870
      7.69679      4.44374      5.37156        -0.000000     -0.000000      0.026007
      1.28280      0.74062      7.46636        -0.023080     -0.013325     -0.063523
      3.84839      0.74062      7.46636         0.000000     -0.062572     -0.085951
      6.41399      0.74062      7.46636         0.023080     -0.013325     -0.063523
      2.56560      2.96249      7.46636        -0.054189      0.031286     -0.085951
      5.13119      2.96249      7.46636         0.054189      0.031286     -0.085951
      7.69679      2.96249      7.46636         0.000000     -0.019479      0.004558
      3.84839      5.18437      7.46636        -0.000000      0.026650     -0.063523
      6.41399      5.18437      7.46636        -0.016870      0.009740      0.004558
      8.97958      5.18437      7.46636         0.016870      0.009740      0.004558
      7.69679      1.48657      9.56400         0.000000     -0.008257      0.040892
      2.55408      1.47460      9.52990        -0.135350     -0.078144     -0.334379
      5.14271      1.47460      9.52990         0.135350     -0.078144     -0.334379
      8.97350      3.70663      9.56526         0.054981     -0.031743      0.003563
      3.84839      3.71642      9.52990        -0.000000      0.156289     -0.334379
      6.42007      3.70663      9.56526        -0.054981     -0.031743      0.003563
     10.25777      5.92233      9.56400         0.007150      0.004128      0.040892
      5.13580      5.92233      9.56400        -0.007150      0.004128      0.040892
      7.69679      5.91797      9.56526        -0.000000      0.063487      0.003563
      0.00000      0.00000     11.64184         0.000000      0.000000     -0.076379
      2.56182      0.00242     11.67254        -0.066325     -0.142600     -0.064789
      5.13496      0.00242     11.67254         0.066325     -0.142600     -0.064789
      1.28301      2.21740     11.67254        -0.156657      0.013861     -0.064789
      6.41378      2.21740     11.67254         0.156657      0.013861     -0.064789
      2.56958      4.44580     11.67254        -0.090333      0.128739     -0.064789
      5.12721      4.44580     11.67254         0.090333      0.128739     -0.064789
      7.69679      4.44374     11.64035        -0.000000      0.000000     -0.046569
      3.84839      2.22187     11.57579         0.000000      0.000000      1.292533
      3.84839      2.22187     13.45964         0.000000     -0.000000      0.043569
      3.84839      2.22187     14.63265         0.000000     -0.000000     -0.027162
    total drift:                               -0.021710     -0.004027     -0.054601

  FREE ENERGIE OF THE ION-ELECTRON SYSTEM (eV)
  free  energy   TOTEN  =      -148.87887469 eV

  energy  without entropy=     -148.87887469  energy(sigma->0) =     -148.87887469

 stress matrix after NEB project (eV)
     -3.71082      0.00000     -0.00000
      0.00000     -3.71082      0.00000
     -0.00000      0.00000      3.09949
  FORCES: max atom, RMS     0.043569    0.008329
  FORCE total and by dimension    0.051342    0.043569
  Stress total and by dimension    6.094852    3.710820
|           W    W    AA    RRRRR   N    N  II  N    N   GGGG   !!!           |
|           W    W   A  A   R    R  NN   N  II  NN   N  G    G  !!!           |
|           W    W  A    A  R    R  N N  N  II  N N  N  G       !!!           |
|           W WW W  AAAAAA  RRRRR   N  N N  II  N  N N  G  GGG   !            |
|           WW  WW  A    A  R   R   N   NN  II  N   NN  G    G                |
|           W    W  A    A  R    R  N    N  II  N    N   GGGG   !!!           |
|     Tetrahedron method does not include variations of the Fermi             |
|     occupations, so forces and stress will be inaccurate. We suggest        |
|     using a different smearing scheme ISMEAR = 1 or 2 for metals in         |
|     relaxations.                                                            |

 total charge

# of ion       s       p       d       tot
    1        0.449   0.283   9.189   9.921
    2        0.449   0.284   9.186   9.920
    3        0.449   0.284   9.186   9.920
    4        0.449   0.284   9.186   9.920
    5        0.449   0.287   9.180   9.915
    6        0.449   0.284   9.186   9.920
    7        0.449   0.284   9.186   9.920
    8        0.449   0.284   9.186   9.920
    9        0.447   0.282   9.190   9.920
   10        0.441   0.372   9.175   9.988
   11        0.445   0.365   9.184   9.994
   12        0.441   0.372   9.175   9.988
   13        0.445   0.365   9.184   9.994
   14        0.445   0.365   9.184   9.994
   15        0.436   0.370   9.177   9.984
   16        0.441   0.372   9.175   9.988
   17        0.436   0.370   9.177   9.984
   18        0.436   0.370   9.177   9.984
   19        0.441   0.368   9.181   9.990
   20        0.461   0.398   9.169  10.028
   21        0.461   0.398   9.169  10.028
   22        0.430   0.372   9.182   9.984
   23        0.461   0.398   9.169  10.028
   24        0.430   0.372   9.182   9.984
   25        0.441   0.368   9.181   9.990
   26        0.441   0.368   9.181   9.990
   27        0.430   0.372   9.182   9.984
   28        0.448   0.287   9.194   9.929
   29        0.452   0.312   9.179   9.943
   30        0.452   0.312   9.179   9.943
   31        0.452   0.312   9.179   9.943
   32        0.452   0.312   9.179   9.943
   33        0.452   0.312   9.179   9.943
   34        0.452   0.312   9.179   9.943
   35        0.443   0.291   9.191   9.924
   36        0.672   0.661   6.199   7.533
   37        0.950   1.572   0.000   2.522
   38        1.610   3.532   0.000   5.143
tot         18.840  17.509 327.538 363.887

 BZINTS: Fermi energy:   -0.642849;  403.000000 electrons
         Band energy:-0.145665E+04;  BLOECHL correction:   -0.052034