 vasp.6.2.0 18Jan21 (build Jun 12 2021 23:27:24) complex

 executed on             LinuxIFC date 2022.05.28  02:44:43

 INCAR:
   ISMEAR = -5
   SIGMA = 0.1
   ISPIN = 1
   EDIFF = 1.d-5
   EDIFFG = -0.01
   NSW = 0
   NELM = 150
   ENCUT = 500
   ISIF = 2
   IBRION = 2
   LREAL = Auto
   ALGO = Fast
   ICHARG = 11
   LORBIT = 10
   LCHARG = .F.
   LWAVE = .F.

 POTCAR:    PAW_PBE Cu 22Jun2005
 POTCAR:    PAW_PBE Ta 17Jan2003
 POTCAR:    PAW_PBE O 08Apr2002
 POTCAR:    PAW_PBE H 15Jun2001
|           W    W    AA    RRRRR   N    N  II  N    N   GGGG   !!!           |
|           W    W   A  A   R    R  NN   N  II  NN   N  G    G  !!!           |
|           W    W  A    A  R    R  N N  N  II  N N  N  G       !!!           |
|           W WW W  AAAAAA  RRRRR   N  N N  II  N  N N  G  GGG   !            |
|           WW  WW  A    A  R   R   N   NN  II  N   NN  G    G                |
|           W    W  A    A  R    R  N    N  II  N    N   GGGG   !!!           |
|     For optimal performance we recommend to set                             |
|       NCORE = 2 up to number-of-cores-per-socket                            |
|     This setting can greatly improve the performance of VASP for DFT.       |
|     The default, NCORE=1 might be grossly inefficient on modern             |
|     multi-core architectures or massively parallel machines. Do your        |
|     Unfortunately you need to use the default for GW and RPA                |
|     calculations (for HF NCORE is supported but not extensively tested      |
|     yet).                                                                   |

 POTCAR:    PAW_PBE Cu 22Jun2005
   VRHFIN =Cu: d10 p1

   TITEL  = PAW_PBE Cu 22Jun2005
   POMASS =   63.546; ZVAL   =   11.000    mass and valenz
   ENMAX  =  295.446; ENMIN  =  221.585 eV

 POTCAR:    PAW_PBE Ta 17Jan2003
   VRHFIN =Ta:  6s5d

   TITEL  = PAW_PBE Ta 17Jan2003
   POMASS =  180.948; ZVAL   =    5.000    mass and valenz
   ENMAX  =  223.667; ENMIN  =  167.750 eV

 POTCAR:    PAW_PBE O 08Apr2002
   VRHFIN =O: s2p4

   TITEL  = PAW_PBE O 08Apr2002
   POMASS =   16.000; ZVAL   =    6.000    mass and valenz
   ENMAX  =  400.000; ENMIN  =  300.000 eV

 POTCAR:    PAW_PBE H 15Jun2001
   VRHFIN =H: ultrasoft test

   TITEL  = PAW_PBE H 15Jun2001
   POMASS =    1.000; ZVAL   =    1.000    mass and valenz
   ENMAX  =  250.000; ENMIN  =  200.000 eV

 Optimization of the real space projectors (new method)

 maximal supplied QI-value         = 16.25
 optimisation between [QCUT,QGAM] = [ 11.38, 22.75] = [ 36.24,144.96] Ry
 Optimized for a Real-space Cutoff    1.52 Angstroem

   l    n(q)    QCUT    max X(q) W(low)/X(q) W(high)/X(q)  e(spline)
   2      9    11.376     4.610    0.21E-03    0.10E-03    0.26E-06
   2      9    11.376     8.522    0.33E-03    0.16E-03    0.37E-06
   0     10    11.376    51.609    0.62E-04    0.20E-04    0.13E-06
   0     10    11.376    27.747    0.54E-04    0.20E-04    0.13E-06
   1     10    11.376    20.408    0.13E-04    0.99E-04    0.19E-06
   1     10    11.376    13.425    0.12E-04    0.87E-04    0.17E-06
 Optimization of the real space projectors (new method)

[...]

   l    n(q)    QCUT    max X(q) W(low)/X(q) W(high)/X(q)  e(spline)
   0      7    11.387    20.381    0.39E-03    0.13E-02    0.15E-06
   0      7    11.387    15.268    0.42E-03    0.14E-02    0.17E-06
   1      6    11.387     5.964    0.41E-03    0.11E-02    0.17E-06
   1      6    11.387     5.382    0.39E-03    0.87E-03    0.15E-06
 Optimization of the real space projectors (new method)

 maximal supplied QI-value         = 34.20
 optimisation between [QCUT,QGAM] = [ 11.29, 22.57] = [ 35.68,142.71] Ry
 Optimized for a Real-space Cutoff    1.16 Angstroem

   l    n(q)    QCUT    max X(q) W(low)/X(q) W(high)/X(q)  e(spline)
   0      8    11.287    19.460    0.40E-03    0.73E-03    0.16E-06
   0      8    11.287    12.209    0.38E-03    0.70E-03    0.15E-06
   1      7    11.287     4.655    0.22E-03    0.25E-04    0.22E-06
  PAW_PBE Cu 22Jun2005                  :
  PAW_PBE Ta 17Jan2003                  :
  PAW_PBE O 08Apr2002                   :
  PAW_PBE H 15Jun2001                   :

 POSCAR: Cu-Ta-OOH
  positions in direct lattice
  velocities in cartesian coordinates
 exchange correlation table for  LEXCH =        8
   RHO(1)=    0.500       N(1)  =     2000
   RHO(2)=  100.500       N(2)  =     4000

 VTST: version 3.2, (02/03/18)

 CHAIN: initializing optimizer

 OPT: Using VASP Conjugate-Gradient optimizer
 CHAIN: Read ICHAIN            0

 POSCAR: Cu-Ta-OOH
  positions in direct lattice
  velocities in cartesian coordinates

 ion  position               nearest neighbor table
   1  0.000  0.000  0.212-   7 2.57   3 2.57   4 2.57   2 2.57   6 2.57   8 2.57  12 2.57  10 2.57
                            16 2.57
   2  0.333  0.000  0.212-   8 2.57   9 2.57   5 2.57   1 2.57   3 2.57  11 2.57   4 2.57  10 2.57
                            17 2.57
   3  0.667  0.000  0.212-   1 2.57   7 2.57   6 2.57   9 2.57   2 2.57  12 2.57   5 2.57  18 2.57
                            11 2.57
   4  0.000  0.333  0.212-   5 2.57   6 2.57   1 2.57   7 2.57   2 2.57  13 2.57   9 2.57  10 2.57
                            15 2.57
   5  0.333  0.333  0.212-   4 2.57   2 2.57   7 2.57  13 2.57   8 2.57   6 2.57   3 2.57  11 2.57
                            14 2.57
   6  0.667  0.333  0.212-   4 2.57   9 2.57  15 2.57   3 2.57   1 2.57   8 2.57  14 2.57   5 2.57
                            12 2.57
   7  0.000  0.667  0.212-   1 2.57   3 2.57  16 2.57  18 2.57   4 2.57   5 2.57   8 2.57   9 2.57
                            13 2.57
   8  0.333  0.667  0.212-   9 2.57   2 2.57  17 2.57   6 2.57   1 2.57   7 2.57   5 2.57  14 2.57
                            16 2.57
   9  0.667  0.667  0.212-   8 2.57   6 2.57   2 2.57  17 2.57   3 2.57   7 2.57   4 2.57  15 2.57
                            18 2.57
  10  0.111  0.111  0.294-  20 2.55  26 2.56  19 2.56  11 2.57  12 2.57  13 2.57   1 2.57   2 2.57
                             4 2.57  15 2.57  16 2.57  17 2.57
  11  0.444  0.111  0.294-  20 2.56  21 2.56  10 2.57  13 2.57   2 2.57  17 2.57  14 2.57  12 2.57
                             5 2.57   3 2.57  18 2.57  27 2.57
  12  0.778  0.111  0.294-  21 2.55  19 2.56  25 2.56  15 2.57  10 2.57  14 2.57  18 2.57   3 2.57
                             1 2.57  16 2.57  11 2.57   6 2.57
  13  0.111  0.444  0.294-  23 2.56  20 2.56  16 2.57  18 2.57  10 2.57  11 2.57  14 2.57   5 2.57
                             4 2.57   7 2.57  15 2.57  22 2.57
  14  0.444  0.444  0.294-  21 2.56  23 2.56  15 2.57  17 2.57  12 2.57  16 2.57  13 2.57  11 2.57
                             6 2.57   8 2.57   5 2.57  24 2.57
  15  0.778  0.444  0.294-  19 2.56  14 2.57  17 2.57  12 2.57   6 2.57  18 2.57  10 2.57   9 2.57
                            13 2.57   4 2.57  24 2.57  22 2.57
  16  0.111  0.778  0.294-  23 2.55  25 2.56  26 2.56  18 2.57  13 2.57   7 2.57  14 2.57  17 2.57
                            12 2.57  10 2.57   8 2.57   1 2.57
  17  0.444  0.778  0.294-  26 2.56  14 2.57  15 2.57   8 2.57   9 2.57  11 2.57  16 2.57  18 2.57
                            10 2.57   2 2.57  27 2.57  24 2.57
  18  0.778  0.778  0.294-  25 2.56  16 2.57  13 2.57   7 2.57  15 2.57  12 2.57  17 2.57   9 2.57
                             3 2.57  11 2.57  22 2.57  27 2.57
  19  0.889  0.222  0.376-  12 2.56  10 2.56  15 2.56  21 2.56  20 2.56  25 2.56  26 2.56  22 2.57
                            24 2.57  28 2.57  32 2.59  31 2.59
  20  0.222  0.222  0.376-  10 2.55  11 2.56  13 2.56  26 2.56  19 2.56  27 2.57  22 2.57  23 2.58
                            21 2.58  36 2.61  29 2.61  31 2.61
  21  0.557  0.222  0.376-  12 2.55  14 2.56  11 2.56  19 2.56  25 2.56  24 2.57  27 2.57  20 2.58
                            23 2.58  36 2.61  32 2.61  30 2.61
  22  0.888  0.556  0.377-  24 2.56  27 2.56  19 2.57  25 2.57  23 2.57  20 2.57  18 2.57  15 2.57
                            35 2.57  13 2.57  31 2.59  33 2.59
  23  0.222  0.557  0.376-  16 2.55  13 2.56  14 2.56  25 2.56  26 2.56  22 2.57  24 2.57  20 2.58
                            21 2.58  36 2.61  33 2.61  34 2.61
  24  0.556  0.556  0.377-  22 2.56  27 2.56  19 2.57  26 2.57  21 2.57  23 2.57  15 2.57  17 2.57
                            35 2.57  14 2.57  32 2.59  34 2.59
  25  0.889  0.889  0.376-  12 2.56  16 2.56  18 2.56  21 2.56  23 2.56  19 2.56  26 2.56  22 2.57
                            27 2.57  28 2.57  33 2.59  30 2.59
  26  0.222  0.889  0.376-  10 2.56  16 2.56  17 2.56  20 2.56  23 2.56  25 2.56  19 2.56  27 2.57
                            24 2.57  28 2.57  29 2.59  34 2.59
  27  0.556  0.888  0.377-  24 2.56  22 2.56  26 2.57  25 2.57  20 2.57  21 2.57  17 2.57  18 2.57
                            35 2.57  11 2.57  29 2.59  30 2.59
  28  0.000  0.000  0.459-  33 2.55  30 2.55  31 2.55  29 2.55  32 2.55  34 2.55  25 2.57  19 2.57
                            26 2.57
  29  0.333  0.997  0.461-  34 2.52  35 2.55  28 2.55  31 2.59  27 2.59  36 2.59  30 2.59  26 2.59
                            20 2.61
  30  0.670  0.997  0.461-  33 2.52  35 2.55  28 2.55  32 2.59  27 2.59  36 2.59  29 2.59  25 2.59
                            21 2.61
  31  0.997  0.333  0.461-  32 2.52  35 2.55  28 2.55  29 2.59  22 2.59  36 2.59  33 2.59  19 2.59
                            20 2.61
  32  0.670  0.333  0.461-  31 2.52  35 2.55  28 2.55  30 2.59  24 2.59  36 2.59  34 2.59  19 2.59
                            21 2.61
  33  0.997  0.670  0.461-  30 2.52  35 2.55  28 2.55  34 2.59  22 2.59  36 2.59  31 2.59  25 2.59
                            23 2.61
  34  0.333  0.670  0.461-  29 2.52  35 2.55  28 2.55  33 2.59  24 2.59  36 2.59  32 2.59  26 2.59
                            23 2.61
  35  0.667  0.667  0.460-  34 2.55  32 2.55  29 2.55  30 2.55  33 2.55  31 2.55  24 2.57  27 2.57
                            22 2.57
  36  0.333  0.333  0.461-  37 1.93  31 2.59  29 2.59  33 2.59  34 2.59  32 2.59  30 2.59  23 2.61
                            20 2.61  21 2.61
  37  0.352  0.340  0.537-  38 1.47  36 1.93
  38  0.282  0.259  0.579-  39 0.98  37 1.47
  39  0.323  0.307  0.609-  38 0.98

  LATTYP: Found a hexagonal cell.
 ALAT       =     7.6967864036
 C/A-ratio  =     3.2973366172

  Lattice vectors:

 A1 = (  -3.8483927580,  -6.6656128093,   0.0000000000)
 A2 = (   7.6967864037,   0.0000000000,   0.0000000000)
 A3 = (   0.0000000000,   0.0000000000,  25.3788956434)

Analysis of symmetry for initial positions (statically):
 Subroutine PRICEL returns:
 Original cell was already a primitive cell.

 Routine SETGRP: Setting up the symmetry group for a
 hexagonal supercell.

 Subroutine GETGRP returns: Found  1 space group operations
 (whereof  1 operations were pure point group operations)
 out of a pool of 24 trial point group operations.

The static configuration has the point symmetry C_1 .

Analysis of symmetry for dynamics (positions and initial velocities):
 Subroutine PRICEL returns:
 Original cell was already a primitive cell.

[...]

The dynamic configuration has the point symmetry C_1 .

Analysis of constrained symmetry for selective dynamics:
 Subroutine PRICEL returns:
[...]
     41      -4.3883      2.00000
     42      -4.2949      2.00000
     43      -4.2447      2.00000
     44      -4.2210      2.00000
     45      -4.1704      2.00000
     46      -4.1577      2.00000
     47      -4.1439      2.00000
     48      -4.1334      2.00000
     49      -4.1149      2.00000
     50      -4.1144      2.00000
     51      -4.0386      2.00000
     52      -3.9627      2.00000
     53      -3.9359      2.00000
     54      -3.9282      2.00000
     55      -3.9050      2.00000
     56      -3.8656      2.00000
     57      -3.8415      2.00000
     58      -3.8383      2.00000
     59      -3.8175      2.00000
     60      -3.8081      2.00000
[...]
    238       5.1995      0.00000
    239       5.3909      0.00000
    240       5.4506      0.00000
    241       5.4926      0.00000
    242       5.5768      0.00000
    243       5.6613      0.00000
    244       5.7206      0.00000
    245       5.7952      0.00000
    246       5.9069      0.00000
    247       5.9632      0.00000
    248       6.0757      0.00000
    249       6.1021      0.00000
    250       6.2500      0.00000
    251       6.7591      0.00000
    252       6.9223      0.00000

 soft charge-density along one line, spin component           1
         0         1         2         3         4         5         6         7         8         9
 total charge-density along one line

------------------------ aborting loop because EDIFF is reached ----------------------------------------

 total charge

# of ion       s       p       d       tot
    1        0.450   0.282   9.188   9.919
    2        0.448   0.285   9.186   9.918
    3        0.448   0.285   9.184   9.917
    4        0.448   0.285   9.186   9.918
    5        0.449   0.285   9.181   9.915
    6        0.446   0.286   9.185   9.917
    7        0.448   0.285   9.184   9.917
    8        0.446   0.286   9.185   9.917
    9        0.449   0.284   9.186   9.918
   10        0.445   0.370   9.174   9.989
   11        0.440   0.366   9.182   9.988
   12        0.443   0.370   9.176   9.989
   13        0.441   0.366   9.181   9.988
   14        0.439   0.366   9.182   9.988
   15        0.438   0.369   9.176   9.983
   16        0.443   0.370   9.176   9.989
   17        0.438   0.369   9.176   9.983
   18        0.438   0.369   9.176   9.982
   19        0.442   0.367   9.181   9.989
   20        0.471   0.403   9.155  10.029
   21        0.469   0.398   9.160  10.026
   22        0.431   0.371   9.179   9.980
   23        0.469   0.397   9.160  10.026
   24        0.430   0.371   9.180   9.981
   25        0.442   0.366   9.181   9.989
   26        0.442   0.366   9.181   9.990
   27        0.431   0.371   9.179   9.980
   28        0.450   0.295   9.178   9.923
   29        0.481   0.317   9.163   9.961
   30        0.477   0.317   9.167   9.960
   31        0.481   0.318   9.163   9.961
   32        0.479   0.316   9.167   9.961
   33        0.478   0.318   9.165   9.961
   34        0.479   0.317   9.166   9.961
   35        0.443   0.300   9.178   9.920
   36        0.761   0.784   3.313   4.859
   37        1.587   3.324   0.000   4.910
   38        1.595   3.377   0.000   4.971
   39        0.619   0.113   0.000   0.732
tot         20.349  19.381 324.477 364.207

  FORCE on cell =-STRESS in cart. coord.  units (eV):
  Direction    XX          YY          ZZ          XY          YZ          ZX
  Alpha Z   769.64791   769.64791   769.64791
  Ewald  250477.81541250396.08611************    85.23115   -55.04788   -98.07800
  Hartree263252.22161263214.15703************    39.44239   -31.41376   -63.60785
  E(xc)   -2331.32884 -2331.50665 -2335.65342     0.19664    -0.11559    -0.22822
  Local  ************************526248.45939  -110.84886    81.39150   153.96441
  n-local  -805.29836  -806.33266  -811.82898     1.16362    -2.51949    -3.75671
  augment  3322.57289  3323.87946  3344.04300    -1.37153     0.91513     1.41581
  Kinetic  3458.88753  3472.05987  3454.90436   -13.97947     6.59169     9.88487
  Fock        0.00000     0.00000     0.00000     0.00000     0.00000     0.00000
  Total      -5.79576    -5.55756    -1.63622    -0.16606    -0.19839    -0.40569
  in kB      -7.13179    -6.83869    -2.01340    -0.20434    -0.24413    -0.49921

 VOLUME and BASIS-vectors are now :
  energy-cutoff  :      500.00
  volume of cell :     1302.03
      direct lattice vectors                 reciprocal lattice vectors
     7.696786404  0.000000000  0.000000000     0.129924354 -0.075011849  0.000000000
     3.848392758  6.665612809  0.000000000     0.000000000  0.150023716  0.000000000
     0.000000000  0.000000000 25.378895643     0.000000000  0.000000000  0.039402818

  length of vectors
     7.696786404  7.696786404 25.378895643     0.150023716  0.150023716  0.039402818

 FORCES acting on ions
    electron-ion (+dipol)            ewald-force                    non-local-force                 convergence-correction
   0.108E+00 0.584E-01 0.386E+04   -.117E-01 -.118E-01 -.386E+04   -.585E-01 -.346E-01 -.225E+01   -.358E-01 -.118E-01 -.213E+00
   -.834E+00 -.692E+00 0.386E+04   0.787E+00 0.573E+00 -.386E+04   0.505E-01 0.163E+00 -.185E+01   0.120E-02 -.377E-01 -.139E+00
   0.718E+00 -.671E+00 0.386E+04   -.775E+00 0.577E+00 -.386E+04   0.793E-02 0.120E+00 -.183E+01   0.434E-01 -.219E-01 -.437E-01
   -.100E+01 -.375E+00 0.386E+04   0.894E+00 0.405E+00 -.386E+04   0.159E+00 -.407E-01 -.185E+01   -.407E-01 0.129E-01 -.131E+00
   0.832E-01 0.518E-01 0.386E+04   0.931E-02 0.179E-01 -.386E+04   -.106E+00 -.674E-01 -.169E+01   0.165E-01 0.140E-02 0.338E-02
   0.949E+00 -.346E+00 0.386E+04   -.904E+00 0.397E+00 -.386E+04   -.896E-01 -.357E-01 -.194E+01   0.290E-01 -.100E-01 -.127E+00
   -.221E+00 0.955E+00 0.386E+04   0.116E+00 -.970E+00 -.386E+04   0.109E+00 -.468E-01 -.181E+01   -.381E-02 0.537E-01 -.249E-01
   0.176E+00 0.101E+01 0.386E+04   -.119E+00 -.982E+00 -.386E+04   -.763E-01 -.628E-01 -.192E+01   0.149E-01 0.237E-01 -.122E+00
   0.223E-01 0.138E-01 0.386E+04   0.265E-02 -.606E-02 -.386E+04   -.208E-02 0.167E-02 -.200E+01   -.174E-01 -.633E-02 -.123E+00
   -.499E+01 -.290E+01 0.133E+04   0.546E+01 0.318E+01 -.133E+04   -.429E+00 -.251E+00 -.101E+01   -.666E-01 -.372E-01 -.115E+01
   -.227E+00 -.607E+01 0.132E+04   0.887E-01 0.576E+01 -.131E+04   0.332E-01 0.302E+00 -.246E+00   0.109E+00 -.468E-01 -.120E+01
   0.526E+01 -.295E+01 0.133E+04   -.555E+01 0.317E+01 -.133E+04   0.358E+00 -.224E+00 -.768E+00   -.443E-01 -.184E-01 -.112E+01
   -.534E+01 0.275E+01 0.131E+04   0.501E+01 -.273E+01 -.131E+04   0.276E+00 -.121E+00 -.242E+00   0.120E-01 0.126E+00 -.120E+01
   0.526E+01 0.297E+01 0.131E+04   -.497E+01 -.280E+01 -.131E+04   -.263E+00 -.153E+00 -.248E+00   0.154E-01 0.148E-01 -.117E+01
   0.102E-01 -.221E+01 0.133E+04   -.428E-01 0.206E+01 -.133E+04   0.267E-01 0.791E-01 -.835E+00   0.890E-02 0.653E-01 -.112E+01
   0.995E-01 0.612E+01 0.133E+04   -.459E-01 -.647E+01 -.133E+04   -.148E-01 0.418E+00 -.739E+00   -.409E-01 -.364E-01 -.111E+01
   -.185E+01 0.117E+01 0.133E+04   0.171E+01 -.113E+01 -.133E+04   0.858E-01 -.154E-01 -.830E+00   0.569E-01 -.308E-01 -.112E+01
   0.180E+01 0.113E+01 0.133E+04   -.167E+01 -.105E+01 -.132E+04   -.108E+00 -.584E-01 -.804E+00   -.265E-01 -.257E-01 -.111E+01
   0.700E+00 -.779E+01 -.120E+04   -.642E+00 0.784E+01 0.120E+04   0.162E-01 -.255E-01 0.112E+01   -.606E-01 -.451E-01 -.126E+01
   -.576E+02 -.339E+02 -.126E+04   0.589E+02 0.346E+02 0.127E+04   -.113E+01 -.652E+00 -.768E+00   -.306E+00 -.163E+00 -.174E+01
   0.573E+02 -.336E+02 -.127E+04   -.583E+02 0.342E+02 0.127E+04   0.844E+00 -.546E+00 -.755E-02   0.294E+00 -.213E+00 -.157E+01
   -.294E+02 0.162E+02 -.122E+04   0.292E+02 -.162E+02 0.122E+04   0.430E+00 -.205E+00 0.851E+00   -.130E+00 0.182E+00 -.129E+01
   0.640E-01 0.662E+02 -.127E+04   0.300E-01 -.674E+02 0.127E+04   -.389E-01 0.965E+00 -.348E-02   -.462E-01 0.363E+00 -.156E+01
   0.295E+02 0.170E+02 -.122E+04   -.292E+02 -.168E+02 0.122E+04   -.523E+00 -.303E+00 0.889E+00   0.176E+00 0.105E+00 -.127E+01
   0.649E+01 0.430E+01 -.120E+04   -.652E+01 -.431E+01 0.120E+04   0.281E-01 0.218E-01 0.118E+01   0.274E-01 0.337E-02 -.126E+01
   -.595E+01 0.481E+01 -.120E+04   0.604E+01 -.478E+01 0.120E+04   0.494E-02 0.275E-01 0.112E+01   -.107E+00 -.408E-01 -.126E+01
   -.626E+00 -.330E+02 -.122E+04   0.490E+00 0.328E+02 0.122E+04   0.384E-01 0.490E+00 0.878E+00   0.903E-01 -.217E+00 -.129E+01
   0.438E+01 0.357E+01 -.367E+04   -.450E+01 -.361E+01 0.366E+04   0.187E+00 0.876E-01 0.143E+01   -.559E-01 -.377E-01 -.566E+00
   -.330E+02 -.567E+02 -.364E+04   0.335E+02 0.574E+02 0.364E+04   -.526E+00 -.560E+00 0.970E+00   -.112E+00 -.341E+00 -.390E+00
   0.284E+02 -.612E+02 -.365E+04   -.289E+02 0.614E+02 0.365E+04   0.464E+00 -.819E-01 0.164E+01   0.194E+00 -.340E+00 -.498E+00
   -.682E+02 -.334E+01 -.364E+04   0.692E+02 0.347E+01 0.364E+04   -.766E+00 -.192E+00 0.913E+00   -.349E+00 0.669E-01 -.405E+00
   0.715E+02 0.135E+01 -.365E+04   -.719E+02 -.886E+00 0.365E+04   0.266E+00 -.382E+00 0.139E+01   0.327E+00 -.544E-01 -.536E+00
   -.411E+02 0.602E+02 -.366E+04   0.411E+02 -.609E+02 0.366E+04   0.659E-01 0.562E+00 0.145E+01   -.189E+00 0.339E+00 -.512E+00
   0.407E+02 0.627E+02 -.366E+04   -.406E+02 -.633E+02 0.366E+04   -.128E+00 0.478E+00 0.130E+01   0.111E+00 0.315E+00 -.539E+00
   0.230E-01 0.191E+01 -.369E+04   -.614E-01 -.192E+01 0.368E+04   -.307E-01 -.361E-01 0.195E+01   0.619E-01 0.413E-01 -.424E+00
   0.148E+01 -.340E+01 -.155E+04   -.188E+01 0.311E+01 0.155E+04   0.323E+00 0.219E+00 0.744E+00   0.187E-01 0.132E-01 -.174E+00
   -.112E+03 -.730E+02 -.217E+04   0.134E+03 0.862E+02 0.217E+04   -.219E+02 -.132E+02 0.310E+01   0.174E-01 0.716E-03 0.212E+00
   0.133E+03 0.832E+02 -.220E+04   -.171E+03 -.108E+03 0.219E+04   0.385E+02 0.245E+02 0.917E+01   -.916E-01 -.645E-01 0.283E+00
   -.375E+02 -.241E+02 -.398E+03   0.416E+02 0.268E+02 0.405E+03   -.415E+01 -.266E+01 -.659E+01   0.752E-02 0.450E-02 0.585E-01
   -.117E+02 -.841E+01 0.273E+02   -.213E-13 0.174E-12 0.198E-10   0.119E+02 0.847E+01 -.157E+00   -.913E-01 -.668E-01 -.272E+02

 POSITION                                       TOTAL-FORCE (eV/Angst)
      0.00000      0.00000      5.37156        -0.000135      0.000279     -0.008728
      2.56560      0.00000      5.37156         0.001887      0.006365      0.056670
      5.13119      0.00000      5.37156        -0.008280      0.004495      0.048574
      1.28280      2.22187      5.37156         0.006676      0.002442      0.056073
      3.84839      2.22187      5.37156         0.000954      0.003978      0.047630
      6.41399      2.22187      5.37156        -0.018040      0.004804      0.057705
      2.56560      4.44374      5.37156        -0.001254     -0.008524      0.047199
      5.13119      4.44374      5.37156        -0.006937     -0.015184      0.057863
      7.69679      4.44374      5.37156         0.002896      0.003254      0.016701
      1.28280      0.74062      7.46636        -0.026770     -0.014790     -0.104765
      3.84839      0.74062      7.46636         0.001681     -0.055279     -0.048648
      6.41399      0.74062      7.46636         0.022639     -0.017090     -0.091279
      2.56560      2.96249      7.46636        -0.048585      0.031492     -0.049528
      5.13119      2.96249      7.46636         0.045262      0.027080     -0.046073
      7.69679      2.96249      7.46636         0.000527      0.000992      0.015527
      3.84839      5.18437      7.46636        -0.004647      0.031590     -0.091544
      6.41399      5.18437      7.46636         0.000866      0.002996      0.015287
      8.97958      5.18437      7.46636        -0.002227      0.001321      0.028045
      7.69679      1.48082      9.55187         0.010751     -0.020394      0.003954
      2.55960      1.47778      9.55047        -0.131822     -0.072668     -0.195206
      5.13719      1.47778      9.55047         0.174370     -0.093234     -0.246317
      8.97653      3.70488      9.56926         0.043680     -0.034185      0.020649
      3.84839      3.71005      9.55047         0.006410      0.207155     -0.264036
      6.41705      3.70488      9.56926        -0.062853     -0.034245      0.030919
     10.26275      5.92520      9.55187         0.026567      0.016377      0.026156
      5.13082      5.92520      9.55187        -0.014057      0.021147      0.000925
      7.69679      5.92146      9.56926        -0.010084      0.056985      0.024728
      0.00000      0.00000     11.65662         0.014092      0.007414     -0.031710
      6.40243      6.64574     11.69071        -0.094837     -0.143353     -0.183247
      8.99114      6.64574     11.69071         0.100621     -0.224648     -0.217653
      8.95659      2.22180     11.69071        -0.159554     -0.002051     -0.173091
      6.43698      2.22180     11.69071         0.210753      0.027459     -0.239576
     10.25095      4.46369     11.69071        -0.132835      0.182980     -0.200620
      5.14262      4.46369     11.69071         0.112594      0.163323     -0.231439
      7.69679      4.44374     11.67656        -0.009652     -0.005273      0.005696
      3.84839      2.22187     11.69355        -0.062928     -0.051482      1.874908
      4.01861      2.26524     13.61698         0.046237      0.021176     -0.062257
      3.16450      1.72628     14.68416        -0.027418     -0.023605      0.060270
      3.66936      2.04934     15.46152        -0.006548     -0.009100     -0.009762
    total drift:                                0.098220     -0.007018     -0.078533

  FREE ENERGIE OF THE ION-ELECTRON SYSTEM (eV)
  free  energy   TOTEN  =      -148.57416289 eV

  energy  without entropy=     -148.57416289  energy(sigma->0) =     -148.57416289

 stress matrix after NEB project (eV)
     -5.79576     -0.16606     -0.40569
     -0.16606     -5.55756     -0.19839
     -0.40569     -0.19839     -1.63622
  FORCES: max atom, RMS     0.080388    0.017265
  FORCE total and by dimension    0.107817    0.062257
  Stress total and by dimension    8.222992    5.795759
|           W    W    AA    RRRRR   N    N  II  N    N   GGGG   !!!           |
|           W    W   A  A   R    R  NN   N  II  NN   N  G    G  !!!           |
|           W    W  A    A  R    R  N N  N  II  N N  N  G       !!!           |
|           W WW W  AAAAAA  RRRRR   N  N N  II  N  N N  G  GGG   !            |
|           WW  WW  A    A  R   R   N   NN  II  N   NN  G    G                |
|           W    W  A    A  R    R  N    N  II  N    N   GGGG   !!!           |
|     Tetrahedron method does not include variations of the Fermi             |
|     occupations, so forces and stress will be inaccurate. We suggest        |
|     using a different smearing scheme ISMEAR = 1 or 2 for metals in         |
|     relaxations.                                                            |

 total charge

# of ion       s       p       d       tot
    1        0.450   0.282   9.188   9.919
    2        0.448   0.285   9.186   9.918
    3        0.448   0.285   9.184   9.917
    4        0.448   0.285   9.186   9.918
    5        0.449   0.285   9.181   9.915
    6        0.446   0.286   9.185   9.917
    7        0.448   0.285   9.184   9.917
    8        0.446   0.286   9.185   9.917
    9        0.449   0.284   9.186   9.918
   10        0.445   0.370   9.174   9.989
   11        0.440   0.366   9.182   9.988
   12        0.443   0.370   9.176   9.989
   13        0.441   0.366   9.181   9.988
   14        0.439   0.366   9.182   9.988
   15        0.438   0.369   9.176   9.983
   16        0.443   0.370   9.176   9.989
   17        0.438   0.369   9.176   9.983
   18        0.438   0.369   9.176   9.982
   19        0.442   0.367   9.181   9.989
   20        0.471   0.403   9.155  10.029
   21        0.469   0.398   9.160  10.026
   22        0.431   0.371   9.179   9.980
   23        0.469   0.397   9.160  10.026
   24        0.430   0.371   9.180   9.981
   25        0.442   0.366   9.181   9.989
   26        0.442   0.366   9.181   9.990
   27        0.431   0.371   9.179   9.980
   28        0.450   0.295   9.178   9.923
   29        0.481   0.317   9.163   9.961
   30        0.477   0.317   9.167   9.960
   31        0.481   0.318   9.163   9.961
   32        0.479   0.316   9.167   9.961
   33        0.478   0.318   9.165   9.961
   34        0.479   0.317   9.166   9.961
   35        0.443   0.300   9.178   9.920
   36        0.761   0.784   3.313   4.859
   37        1.587   3.324   0.000   4.910
   38        1.595   3.377   0.000   4.971
   39        0.619   0.113   0.000   0.732
tot         20.349  19.381 324.477 364.207

 BZINTS: Fermi energy:   -0.385748;  403.000000 electrons
         Band energy:-0.142204E+04;  BLOECHL correction:   -0.025511