 vasp.6.2.0 18Jan21 (build Jun 12 2021 23:27:24) complex

 executed on             LinuxIFC date 2022.05.26  19:56:18

 INCAR:
   ISMEAR = -5
   SIGMA = 0.1
   ISPIN = 1
   EDIFF = 1.d-5
   EDIFFG = -0.01
   NSW = 0
   NELM = 150
   ENCUT = 500
   ISIF = 2
   IBRION = 2
   LREAL = Auto
   ALGO = Fast
   ICHARG = 11
   LORBIT = 10
   LCHARG = .F.
   LWAVE = .F.

 POTCAR:    PAW_PBE Cu 22Jun2005
 POTCAR:    PAW_PBE Ti 08Apr2002
 POTCAR:    PAW_PBE N 08Apr2002
|           W    W    AA    RRRRR   N    N  II  N    N   GGGG   !!!           |
|           W    W   A  A   R    R  NN   N  II  NN   N  G    G  !!!           |
|           W    W  A    A  R    R  N N  N  II  N N  N  G       !!!           |
|           W WW W  AAAAAA  RRRRR   N  N N  II  N  N N  G  GGG   !            |
|           WW  WW  A    A  R   R   N   NN  II  N   NN  G    G                |
|           W    W  A    A  R    R  N    N  II  N    N   GGGG   !!!           |
|     For optimal performance we recommend to set                             |
|       NCORE = 2 up to number-of-cores-per-socket                            |
|     This setting can greatly improve the performance of VASP for DFT.       |
|     The default, NCORE=1 might be grossly inefficient on modern             |
|     multi-core architectures or massively parallel machines. Do your        |
|     Unfortunately you need to use the default for GW and RPA                |
|     calculations (for HF NCORE is supported but not extensively tested      |
|     yet).                                                                   |

 POTCAR:    PAW_PBE Cu 22Jun2005
   VRHFIN =Cu: d10 p1

   TITEL  = PAW_PBE Cu 22Jun2005
   POMASS =   63.546; ZVAL   =   11.000    mass and valenz
   ENMAX  =  295.446; ENMIN  =  221.585 eV

 POTCAR:    PAW_PBE Ti 08Apr2002
   VRHFIN =Ti: d3 s1

   TITEL  = PAW_PBE Ti 08Apr2002
   POMASS =   47.880; ZVAL   =    4.000    mass and valenz
   ENMAX  =  178.330; ENMIN  =  133.747 eV

 POTCAR:    PAW_PBE N 08Apr2002
   VRHFIN =N: s2p3

   TITEL  = PAW_PBE N 08Apr2002
   POMASS =   14.001; ZVAL   =    5.000    mass and valenz
   ENMAX  =  400.000; ENMIN  =  300.000 eV

 Optimization of the real space projectors (new method)

 maximal supplied QI-value         = 16.25
 optimisation between [QCUT,QGAM] = [ 11.38, 22.75] = [ 36.24,144.96] Ry
 Optimized for a Real-space Cutoff    1.52 Angstroem

   l    n(q)    QCUT    max X(q) W(low)/X(q) W(high)/X(q)  e(spline)
   2      9    11.376     4.610    0.21E-03    0.10E-03    0.26E-06
   2      9    11.376     8.522    0.33E-03    0.16E-03    0.37E-06
   0     10    11.376    51.609    0.62E-04    0.20E-04    0.13E-06
   0     10    11.376    27.747    0.54E-04    0.20E-04    0.13E-06
   1     10    11.376    20.408    0.13E-04    0.99E-04    0.19E-06
   1     10    11.376    13.425    0.12E-04    0.87E-04    0.17E-06
 Optimization of the real space projectors (new method)

[...]

   l    n(q)    QCUT    max X(q) W(low)/X(q) W(high)/X(q)  e(spline)
   2     10    11.404    49.363    0.27E-03    0.67E-03    0.76E-06
   2     10    11.404    47.669    0.26E-03    0.65E-03    0.73E-06
   0     11    11.404    26.374    0.17E-03    0.20E-03    0.34E-06
   0     11    11.404    11.549    0.14E-03    0.16E-03    0.29E-06
   1     10    11.404     9.492    0.33E-04    0.56E-04    0.16E-06
 Optimization of the real space projectors (new method)

 maximal supplied QI-value         = 25.13
 optimisation between [QCUT,QGAM] = [ 11.31, 22.87] = [ 35.82,146.48] Ry
 Optimized for a Real-space Cutoff    1.27 Angstroem

   l    n(q)    QCUT    max X(q) W(low)/X(q) W(high)/X(q)  e(spline)
   0      9    11.310    79.467    0.75E-04    0.16E-03    0.36E-06
   0      9    11.310    66.151    0.74E-04    0.16E-03    0.36E-06
   1      8    11.310    17.416    0.35E-03    0.12E-03    0.95E-06
   1      8    11.310    12.382    0.37E-03    0.13E-03    0.98E-06
  PAW_PBE Cu 22Jun2005                  :
  PAW_PBE Ti 08Apr2002                  :
  PAW_PBE N 08Apr2002                   :

 POSCAR: Cu-Ti-N
  positions in direct lattice
  velocities in cartesian coordinates
 exchange correlation table for  LEXCH =        8
   RHO(1)=    0.500       N(1)  =     2000
   RHO(2)=  100.500       N(2)  =     4000

 VTST: version 3.2, (02/03/18)

 CHAIN: initializing optimizer

 OPT: Using VASP Conjugate-Gradient optimizer
 CHAIN: Read ICHAIN            0

 POSCAR: Cu-Ti-N
  positions in direct lattice
  velocities in cartesian coordinates

 ion  position               nearest neighbor table
   1  0.000  0.000  0.252-   7 2.57   3 2.57   4 2.57   2 2.57   6 2.57   8 2.57  12 2.57  10 2.57
                            16 2.57
   2  0.333  0.000  0.252-   8 2.57   9 2.57   5 2.57   1 2.57   3 2.57  11 2.57   4 2.57  10 2.57
                            17 2.57
   3  0.667  0.000  0.252-   1 2.57   7 2.57   6 2.57   9 2.57   2 2.57  12 2.57   5 2.57  18 2.57
                            11 2.57
   4  0.000  0.333  0.252-   5 2.57   6 2.57   1 2.57   7 2.57   2 2.57  13 2.57   9 2.57  10 2.57
                            15 2.57
   5  0.333  0.333  0.252-   4 2.57   2 2.57   7 2.57  13 2.57   8 2.57   6 2.57   3 2.57  11 2.57
                            14 2.57
   6  0.667  0.333  0.252-   4 2.57   9 2.57  15 2.57   3 2.57   1 2.57   8 2.57  14 2.57   5 2.57
                            12 2.57
   7  0.000  0.667  0.252-   1 2.57   3 2.57  16 2.57  18 2.57   4 2.57   5 2.57   8 2.57   9 2.57
                            13 2.57
   8  0.333  0.667  0.252-   9 2.57   2 2.57  17 2.57   6 2.57   1 2.57   7 2.57   5 2.57  14 2.57
                            16 2.57
   9  0.667  0.667  0.252-   8 2.57   6 2.57   2 2.57  17 2.57   3 2.57   7 2.57   4 2.57  15 2.57
                            18 2.57
  10  0.111  0.111  0.351-  26 2.55  19 2.55  11 2.57  12 2.57  13 2.57   1 2.57   2 2.57   4 2.57
                            15 2.57  16 2.57  17 2.57  20 2.57
  11  0.444  0.111  0.351-  27 2.56  20 2.56  21 2.56  10 2.57  13 2.57   2 2.57  17 2.57  14 2.57
                            12 2.57   5 2.57   3 2.57  18 2.57
  12  0.778  0.111  0.351-  19 2.55  25 2.55  15 2.57  10 2.57  14 2.57  18 2.57   3 2.57   1 2.57
                            16 2.57  11 2.57   6 2.57  21 2.57
  13  0.111  0.444  0.351-  22 2.56  23 2.56  20 2.56  16 2.57  18 2.57  10 2.57  11 2.57  14 2.57
                             5 2.57   4 2.57   7 2.57  15 2.57
  14  0.444  0.444  0.351-  24 2.56  21 2.56  23 2.56  15 2.57  17 2.57  12 2.57  16 2.57  13 2.57
                            11 2.57   6 2.57   8 2.57   5 2.57
  15  0.778  0.444  0.351-  19 2.55  24 2.56  22 2.56  14 2.57  17 2.57  12 2.57   6 2.57  18 2.57
                            10 2.57   9 2.57  13 2.57   4 2.57
  16  0.111  0.778  0.351-  25 2.55  26 2.55  18 2.57  13 2.57   7 2.57  14 2.57  17 2.57  12 2.57
                            10 2.57   8 2.57   1 2.57  23 2.57
  17  0.444  0.778  0.351-  26 2.55  27 2.56  24 2.56  14 2.57  15 2.57   8 2.57   9 2.57  11 2.57
                            16 2.57  18 2.57  10 2.57   2 2.57
  18  0.778  0.778  0.351-  25 2.55  22 2.56  27 2.56  16 2.57  13 2.57   7 2.57  15 2.57  12 2.57
                            17 2.57   9 2.57   3 2.57  11 2.57
  19  0.889  0.222  0.448-  12 2.55  10 2.55  15 2.55  25 2.56  26 2.56  28 2.56  22 2.57  24 2.57
                            21 2.57  20 2.57  32 2.57  31 2.57
  20  0.223  0.223  0.449-  23 2.55  21 2.55  11 2.56  13 2.56  27 2.57  22 2.57  29 2.57  31 2.57
                            10 2.57  26 2.57  19 2.57  36 2.66
  21  0.555  0.223  0.449-  20 2.55  23 2.55  14 2.56  11 2.56  24 2.57  27 2.57  32 2.57  30 2.57
                            12 2.57  19 2.57  25 2.57  36 2.66
  22  0.889  0.556  0.449-  18 2.56  15 2.56  13 2.56  31 2.56  33 2.56  24 2.56  27 2.56  23 2.57
                            20 2.57  19 2.57  25 2.57  35 2.57
  23  0.223  0.555  0.449-  20 2.55  21 2.55  13 2.56  14 2.56  22 2.57  24 2.57  33 2.57  34 2.57
                            16 2.57  25 2.57  26 2.57  36 2.66
  24  0.556  0.556  0.449-  15 2.56  17 2.56  14 2.56  32 2.56  34 2.56  22 2.56  27 2.56  21 2.57
                            23 2.57  19 2.57  26 2.57  35 2.57
  25  0.889  0.889  0.448-  12 2.55  16 2.55  18 2.55  19 2.56  26 2.56  28 2.56  22 2.57  27 2.57
                            21 2.57  23 2.57  33 2.57  30 2.57
  26  0.222  0.889  0.448-  10 2.55  16 2.55  17 2.55  25 2.56  19 2.56  28 2.56  27 2.57  24 2.57
                            20 2.57  23 2.57  29 2.57  34 2.57
  27  0.556  0.889  0.449-  17 2.56  18 2.56  11 2.56  29 2.56  30 2.56  24 2.56  22 2.56  20 2.57
                            21 2.57  26 2.57  25 2.57  35 2.57
  28  0.000  0.000  0.547-  33 2.56  30 2.56  31 2.56  29 2.56  32 2.56  34 2.56  25 2.56  19 2.56
                            26 2.56
  29  0.334  0.998  0.547-  34 2.53  35 2.55  28 2.56  27 2.56  20 2.57  26 2.57  30 2.58  36 2.59
                            31 2.59
  30  0.669  0.998  0.547-  33 2.53  35 2.55  28 2.56  27 2.56  21 2.57  25 2.57  29 2.58  36 2.59
                            32 2.59
  31  0.998  0.334  0.547-  32 2.53  35 2.55  28 2.56  22 2.56  20 2.57  19 2.57  33 2.58  36 2.59
                            29 2.59
  32  0.669  0.334  0.547-  31 2.53  35 2.55  28 2.56  24 2.56  21 2.57  19 2.57  34 2.58  36 2.59
                            30 2.59
  33  0.998  0.669  0.547-  30 2.53  35 2.55  28 2.56  22 2.56  23 2.57  25 2.57  31 2.58  36 2.59
                            34 2.59
  34  0.334  0.669  0.547-  29 2.53  35 2.55  28 2.56  24 2.56  23 2.57  26 2.57  32 2.58  36 2.59
                            33 2.59
  35  0.667  0.667  0.548-  34 2.55  32 2.55  29 2.55  30 2.55  33 2.55  31 2.55  24 2.57  27 2.57
                            22 2.57
  36  0.333  0.333  0.553-  37 1.72  31 2.59  29 2.59  33 2.59  32 2.59  34 2.59  30 2.59  23 2.66
                            20 2.66  21 2.66
  37  0.333  0.333  0.634-  36 1.72

  LATTYP: Found a hexagonal cell.
 ALAT       =     7.6967864036
 C/A-ratio  =     2.7653617908

  Lattice vectors:

 A1 = (  -3.8483927580,  -6.6656128093,   0.0000000000)
 A2 = (   7.6967864037,   0.0000000000,   0.0000000000)
 A3 = (   0.0000000000,   0.0000000000,  21.2843990326)

Analysis of symmetry for initial positions (statically):
 Subroutine PRICEL returns:
 Original cell was already a primitive cell.

 Routine SETGRP: Setting up the symmetry group for a
 hexagonal supercell.

 Subroutine GETGRP returns: Found  6 space group operations
 (whereof  6 operations were pure point group operations)
 out of a pool of 24 trial point group operations.

The static configuration has the point symmetry C_3v.

Analysis of symmetry for dynamics (positions and initial velocities):
 Subroutine PRICEL returns:
 Original cell was already a primitive cell.

[...]

The dynamic configuration has the point symmetry C_3v.

Analysis of constrained symmetry for selective dynamics:
 Subroutine PRICEL returns:
 Original cell was already a primitive cell.

 Routine SETGRP: Setting up the symmetry group for a
 hexagonal supercell.

 Subroutine GETGRP returns: Found  6 space group operations
 (whereof  6 operations were pure point group operations)
[...]
     24      -4.5555      2.00000
     25      -4.4024      2.00000
     26      -4.3953      2.00000
     27      -4.3448      2.00000
     28      -4.3369      2.00000
     29      -4.3305      2.00000
     30      -4.3249      2.00000
     31      -4.3194      2.00000
     32      -4.3030      2.00000
     33      -4.2654      2.00000
     34      -4.2606      2.00000
     35      -4.2077      2.00000
     36      -4.1574      2.00000
     37      -4.1245      2.00000
     38      -4.0127      2.00000
     39      -4.0012      2.00000
     40      -3.9345      2.00000
     41      -3.9313      2.00000
     42      -3.9209      2.00000
     43      -3.8903      2.00000
     44      -3.8837      2.00000
     45      -3.8814      2.00000
     46      -3.8771      2.00000
     47      -3.6949      2.00000
     48      -3.6868      2.00000
     49      -3.6731      2.00000
     50      -3.6499      2.00000
     51      -3.6099      2.00000
     52      -3.6069      2.00000
     53      -3.5903      2.00000
     54      -3.5857      2.00000
     55      -3.5730      2.00000
     56      -3.5529      2.00000
     57      -3.5327      2.00000
     58      -3.5223      2.00000
     59      -3.5181      2.00000
     60      -3.5057      2.00000
[...]
    238       6.2564      0.00000
    239       6.3024      0.00000
    240       6.3871      0.00000
    241       6.9642      0.00000
    242       7.0237      0.00000
    243       7.0333      0.00000
    244       7.0802      0.00000
    245       7.1213      0.00000
    246       7.1700      0.00000
    247       7.2775      0.00000
    248       7.4337      0.00000
    249       7.4869      0.00000
    250       7.5713      0.00000
    251       7.6813      0.00000
    252       7.7704      0.00000

 soft charge-density along one line, spin component           1
         0         1         2         3         4         5         6         7         8         9
 total charge-density along one line

------------------------ aborting loop because EDIFF is reached ----------------------------------------

 total charge

# of ion       s       p       d       tot
    1        0.449   0.284   9.188   9.921
    2        0.447   0.285   9.187   9.919
    3        0.447   0.285   9.187   9.919
    4        0.447   0.285   9.187   9.919
    5        0.451   0.283   9.185   9.920
    6        0.447   0.285   9.187   9.919
    7        0.447   0.285   9.187   9.919
    8        0.447   0.285   9.187   9.919
    9        0.448   0.284   9.188   9.920
   10        0.441   0.371   9.180   9.992
   11        0.441   0.367   9.180   9.989
   12        0.441   0.371   9.180   9.992
   13        0.441   0.367   9.180   9.989
   14        0.441   0.367   9.180   9.989
   15        0.440   0.372   9.177   9.989
   16        0.441   0.371   9.180   9.992
   17        0.440   0.372   9.177   9.989
   18        0.440   0.372   9.177   9.989
   19        0.441   0.370   9.181   9.993
   20        0.451   0.378   9.172  10.001
   21        0.451   0.378   9.172  10.001
   22        0.434   0.374   9.180   9.988
   23        0.451   0.378   9.172  10.001
   24        0.434   0.374   9.180   9.988
   25        0.441   0.370   9.181   9.993
   26        0.441   0.370   9.181   9.993
   27        0.434   0.374   9.180   9.988
   28        0.450   0.288   9.186   9.924
   29        0.467   0.292   9.181   9.940
   30        0.467   0.292   9.181   9.940
   31        0.467   0.292   9.181   9.940
   32        0.467   0.292   9.181   9.940
   33        0.467   0.292   9.181   9.940
   34        0.467   0.292   9.181   9.940
   35        0.451   0.289   9.186   9.926
   36        0.585   0.762   2.994   4.341
   37        1.337   2.170   0.000   3.507
tot         17.601  14.525 324.344 356.470

  FORCE on cell =-STRESS in cart. coord.  units (eV):
  Direction    XX          YY          ZZ          XY          YZ          ZX
  Alpha Z   879.16628   879.16628   879.16628
  Ewald  169851.72962169851.72929************     0.00036     0.00014     0.00017
  Hartree182677.64498182677.64500************     0.00002     0.00007     0.00006
  E(xc)   -2282.77568 -2282.77520 -2289.96272    -0.00041    -0.00004    -0.00006
  Local  ************************365429.95509     0.01871    -0.00061    -0.00094
  n-local  -770.14501  -759.55070  -785.02662     6.29049    -0.11014     0.24314
  augment  3312.53833  3312.55861  3334.47289    -0.01758     0.00024     0.00045
  Kinetic  3247.11659  3247.67847  3275.53136     2.51787     1.84323    -1.25887
  Fock        0.00000     0.00000     0.00000     0.00000     0.00000     0.00000
  Total      -3.27625    -3.27625    -1.28296     0.00000     0.00000    -0.00000
  in kB      -4.80703    -4.80703    -1.88240     0.00000     0.00000    -0.00000

 VOLUME and BASIS-vectors are now :
  energy-cutoff  :      500.00
  volume of cell :     1091.97
      direct lattice vectors                 reciprocal lattice vectors
     7.696786404  0.000000000  0.000000000     0.129924354 -0.075011849  0.000000000
     3.848392758  6.665612809  0.000000000     0.000000000  0.150023716  0.000000000
     0.000000000  0.000000000 21.284399033     0.000000000  0.000000000  0.046982769

  length of vectors
     7.696786404  7.696786404 21.284399033     0.150023716  0.150023716  0.046982769

 FORCES acting on ions
    electron-ion (+dipol)            ewald-force                    non-local-force                 convergence-correction
   -.416E-04 0.171E-06 0.345E+04   0.581E-04 -.428E-05 -.345E+04   -.205E-17 0.205E-17 -.220E+01   -.261E-03 -.127E-03 -.295E+00
   -.108E+01 -.132E+01 0.345E+04   0.930E+00 0.107E+01 -.345E+04   0.501E-01 0.132E+00 -.203E+01   0.956E-01 0.109E+00 -.346E+00
   0.108E+01 -.132E+01 0.345E+04   -.930E+00 0.107E+01 -.345E+04   -.501E-01 0.132E+00 -.203E+01   -.948E-01 0.111E+00 -.346E+00
   -.168E+01 -.276E+00 0.345E+04   0.139E+01 0.271E+00 -.345E+04   0.139E+00 -.226E-01 -.203E+01   0.142E+00 0.283E-01 -.347E+00
   -.647E-04 -.512E-05 0.345E+04   0.116E-03 -.101E-04 -.344E+04   -.174E-17 0.129E-17 -.185E+01   0.122E-01 0.740E-02 -.298E+00
   0.168E+01 -.276E+00 0.345E+04   -.139E+01 0.271E+00 -.345E+04   -.139E+00 -.226E-01 -.203E+01   -.144E+00 0.295E-01 -.345E+00
   -.600E+00 0.159E+01 0.345E+04   0.460E+00 -.134E+01 -.345E+04   0.893E-01 -.109E+00 -.203E+01   0.491E-01 -.138E+00 -.346E+00
   0.600E+00 0.159E+01 0.345E+04   -.460E+00 -.134E+01 -.345E+04   -.893E-01 -.109E+00 -.203E+01   -.456E-01 -.139E+00 -.345E+00
   -.144E-03 -.329E-04 0.345E+04   0.263E-03 0.204E-04 -.345E+04   -.400E-17 -.614E-17 -.223E+01   -.133E-01 -.680E-02 -.275E+00
   -.966E+01 -.557E+01 0.113E+04   0.968E+01 0.559E+01 -.113E+04   -.129E+00 -.746E-01 -.711E+00   0.952E-01 0.548E-01 -.554E-02
   -.905E-04 -.998E+01 0.112E+04   0.189E-03 0.981E+01 -.112E+04   -.105E-07 0.157E+00 -.633E+00   0.116E-01 0.302E-01 -.715E-01
   0.966E+01 -.557E+01 0.113E+04   -.968E+01 0.559E+01 -.113E+04   0.129E+00 -.746E-01 -.711E+00   -.966E-01 0.562E-01 -.659E-02
   -.864E+01 0.499E+01 0.112E+04   0.849E+01 -.490E+01 -.112E+04   0.136E+00 -.787E-01 -.633E+00   0.325E-01 -.466E-02 -.723E-01
   0.864E+01 0.499E+01 0.112E+04   -.849E+01 -.490E+01 -.112E+04   -.136E+00 -.787E-01 -.633E+00   -.880E-02 -.519E-02 -.728E-01
   -.140E-03 -.974E+00 0.113E+04   0.296E-03 0.916E+00 -.113E+04   -.452E-08 0.679E-01 -.918E+00   -.351E-02 -.449E-02 -.102E+00
   -.924E-04 0.111E+02 0.113E+04   0.187E-03 -.112E+02 -.113E+04   -.993E-08 0.149E+00 -.711E+00   -.629E-04 -.113E+00 -.669E-02
   -.844E+00 0.487E+00 0.113E+04   0.794E+00 -.458E+00 -.113E+04   0.588E-01 -.339E-01 -.918E+00   -.502E-02 -.666E-03 -.102E+00
   0.844E+00 0.487E+00 0.113E+04   -.794E+00 -.458E+00 -.113E+04   -.588E-01 -.339E-01 -.918E+00   0.566E-02 0.195E-02 -.101E+00
   -.701E-04 -.928E+01 -.117E+04   0.733E-04 0.922E+01 0.117E+04   -.610E-08 0.916E-01 0.132E+01   0.925E-03 -.294E-02 0.222E-01
   -.668E+02 -.385E+02 -.128E+04   0.670E+02 0.387E+02 0.128E+04   -.406E+00 -.234E+00 0.298E+00   -.193E-02 -.228E-02 0.730E-01
   0.668E+02 -.385E+02 -.128E+04   -.670E+02 0.387E+02 0.128E+04   0.406E+00 -.234E+00 0.298E+00   -.187E-01 -.956E-03 0.721E-01
   -.304E+02 0.176E+02 -.119E+04   0.302E+02 -.174E+02 0.119E+04   0.152E+00 -.878E-01 0.756E+00   0.140E+00 -.828E-01 0.974E-01
   -.724E-04 0.771E+02 -.128E+04   0.155E-03 -.773E+02 0.128E+04   -.312E-07 0.469E+00 0.298E+00   0.118E-01 -.165E-01 0.720E-01
   0.304E+02 0.176E+02 -.119E+04   -.302E+02 -.174E+02 0.119E+04   -.152E+00 -.878E-01 0.756E+00   -.142E+00 -.821E-01 0.973E-01
   0.804E+01 0.464E+01 -.117E+04   -.799E+01 -.461E+01 0.117E+04   -.793E-01 -.458E-01 0.132E+01   0.273E-02 0.255E-02 0.217E-01
   -.804E+01 0.464E+01 -.117E+04   0.799E+01 -.461E+01 0.117E+04   0.793E-01 -.458E-01 0.132E+01   -.151E-02 0.178E-02 0.222E-01
   -.133E-03 -.351E+02 -.119E+04   0.239E-03 0.348E+02 0.119E+04   -.117E-07 0.176E+00 0.756E+00   -.109E-02 0.164E+00 0.975E-01
   -.302E-04 0.213E-04 -.342E+04   0.458E-04 -.317E-04 0.342E+04   -.289E-17 0.134E-17 0.226E+01   0.312E-03 0.172E-03 0.237E+00
   -.462E+02 -.901E+02 -.341E+04   0.460E+02 0.898E+02 0.341E+04   -.125E+00 -.843E-01 0.277E+01   0.117E+00 0.183E+00 0.216E+00
   0.462E+02 -.901E+02 -.341E+04   -.460E+02 0.898E+02 0.341E+04   0.125E+00 -.843E-01 0.277E+01   -.116E+00 0.184E+00 0.216E+00
   -.101E+03 0.507E+01 -.341E+04   0.101E+03 -.504E+01 0.341E+04   -.135E+00 -.657E-01 0.277E+01   0.217E+00 0.932E-02 0.216E+00
   0.101E+03 0.507E+01 -.341E+04   -.101E+03 -.504E+01 0.341E+04   0.135E+00 -.657E-01 0.277E+01   -.217E+00 0.109E-01 0.217E+00
   -.549E+02 0.850E+02 -.341E+04   0.548E+02 -.848E+02 0.341E+04   -.107E-01 0.150E+00 0.277E+01   0.101E+00 -.192E+00 0.217E+00
   0.549E+02 0.850E+02 -.341E+04   -.548E+02 -.848E+02 0.341E+04   0.107E-01 0.150E+00 0.277E+01   -.981E-01 -.193E+00 0.216E+00
   -.123E-03 -.133E-04 -.344E+04   0.249E-03 0.561E-06 0.344E+04   -.253E-17 0.195E-17 0.237E+01   -.131E-01 -.651E-02 0.292E+00
   -.306E-04 -.878E-05 -.118E+04   0.467E-04 0.108E-04 0.118E+04   0.288E-17 -.111E-17 0.901E+00   0.469E-03 0.169E-03 0.719E-01
   0.102E-03 -.479E-04 -.172E+04   0.123E-04 0.600E-05 0.174E+04   -.905E-18 -.323E-18 -.128E+02   0.131E-02 0.767E-03 -.100E+00
   -.184E-03 -.621E-04 0.992E+01   0.161E-12 0.120E-12 0.130E-10   0.118E-17 -.550E-16 -.879E+01   0.150E-01 -.568E-02 -.111E+01

 POSITION                                       TOTAL-FORCE (eV/Angst)
      0.00000      0.00000      5.37156         0.000000      0.000000      0.035442
      2.56560      0.00000      5.37156        -0.001609     -0.005186      0.068512
      5.13119      0.00000      5.37156         0.001609     -0.005186      0.068512
      1.28280      2.22187      5.37156        -0.005295      0.001200      0.068512
      3.84839      2.22187      5.37156         0.000000      0.000000      0.049659
      6.41399      2.22187      5.37156         0.005295      0.001200      0.068512
      2.56560      4.44374      5.37156        -0.003687      0.003986      0.068512
      5.13119      4.44374      5.37156         0.003687      0.003986      0.068512
      7.69679      4.44374      5.37156         0.000000     -0.000000      0.048780
      1.28280      0.74062      7.46636        -0.004470     -0.002581     -0.083157
      3.84839      0.74062      7.46636        -0.000000      0.011140     -0.039305
      6.41399      0.74062      7.46636         0.004470     -0.002581     -0.083157
      2.56560      2.96249      7.46636         0.009648     -0.005570     -0.039305
      5.13119      2.96249      7.46636        -0.009648     -0.005570     -0.039305
      7.69679      2.96249      7.46636        -0.000000      0.005478     -0.039084
      3.84839      5.18437      7.46636        -0.000000      0.005161     -0.083157
      6.41399      5.18437      7.46636         0.004744     -0.002739     -0.039084
      8.97958      5.18437      7.46636        -0.004744     -0.002739     -0.039084
      7.69679      1.47704      9.53921        -0.000000      0.030178      0.115730
      2.57092      1.48432      9.56248        -0.179545     -0.103660     -0.177686
      5.12587      1.48432      9.56248         0.179545     -0.103660     -0.177686
      8.97870      3.70363      9.55579         0.043197     -0.024940      0.071022
      3.84839      3.69697      9.56248        -0.000000      0.207321     -0.177686
      6.41487      3.70363      9.55579        -0.043197     -0.024940      0.071022
     10.26602      5.92709      9.53921        -0.026135     -0.015089      0.115730
      5.12755      5.92709      9.53921         0.026135     -0.015089      0.115730
      7.69679      5.92397      9.55579        -0.000000      0.049880      0.071022
      0.00000      0.00000     11.63511         0.000000      0.000000     -0.091095
      6.40848      6.64966     11.64831        -0.131303     -0.182981      0.022583
      8.98509      6.64966     11.64831         0.131303     -0.182981      0.022583
      8.96302      2.22507     11.64831        -0.224118     -0.022222      0.022583
      6.43055      2.22507     11.64831         0.224118     -0.022222      0.022583
     10.25132      4.45649     11.64831        -0.092814      0.205202      0.022583
      5.14225      4.45649     11.64831         0.092814      0.205202      0.022583
      7.69679      4.44374     11.65790         0.000000     -0.000000     -0.117097
      3.84839      2.22187     11.77538         0.000000      0.000000     -0.001553
      3.84839      2.22187     13.49243         0.000000      0.000000     -0.013269
    total drift:                                0.014783     -0.005742      0.019026

  FREE ENERGIE OF THE ION-ELECTRON SYSTEM (eV)
  free  energy   TOTEN  =      -136.64200142 eV

  energy  without entropy=     -136.64200142  energy(sigma->0) =     -136.64200142

 stress matrix after NEB project (eV)
     -3.27625      0.00000     -0.00000
      0.00000     -3.27625     -0.00000
     -0.00000      0.00000     -1.28296
  FORCES: max atom, RMS     0.013269    0.002181
  FORCE total and by dimension    0.013269    0.013269
  Stress total and by dimension    4.807666    3.276253
|           W    W    AA    RRRRR   N    N  II  N    N   GGGG   !!!           |
|           W    W   A  A   R    R  NN   N  II  NN   N  G    G  !!!           |
|           W    W  A    A  R    R  N N  N  II  N N  N  G       !!!           |
|           W WW W  AAAAAA  RRRRR   N  N N  II  N  N N  G  GGG   !            |
|           WW  WW  A    A  R   R   N   NN  II  N   NN  G    G                |
|           W    W  A    A  R    R  N    N  II  N    N   GGGG   !!!           |
|     Tetrahedron method does not include variations of the Fermi             |
|     occupations, so forces and stress will be inaccurate. We suggest        |
|     using a different smearing scheme ISMEAR = 1 or 2 for metals in         |
|     relaxations.                                                            |

 total charge

# of ion       s       p       d       tot
    1        0.449   0.284   9.188   9.921
    2        0.447   0.285   9.187   9.919
    3        0.447   0.285   9.187   9.919
    4        0.447   0.285   9.187   9.919
    5        0.451   0.283   9.185   9.920
    6        0.447   0.285   9.187   9.919
    7        0.447   0.285   9.187   9.919
    8        0.447   0.285   9.187   9.919
    9        0.448   0.284   9.188   9.920
   10        0.441   0.371   9.180   9.992
   11        0.441   0.367   9.180   9.989
   12        0.441   0.371   9.180   9.992
   13        0.441   0.367   9.180   9.989
   14        0.441   0.367   9.180   9.989
   15        0.440   0.372   9.177   9.989
   16        0.441   0.371   9.180   9.992
   17        0.440   0.372   9.177   9.989
   18        0.440   0.372   9.177   9.989
   19        0.441   0.370   9.181   9.993
   20        0.451   0.378   9.172  10.001
   21        0.451   0.378   9.172  10.001
   22        0.434   0.374   9.180   9.988
   23        0.451   0.378   9.172  10.001
   24        0.434   0.374   9.180   9.988
   25        0.441   0.370   9.181   9.993
   26        0.441   0.370   9.181   9.993
   27        0.434   0.374   9.180   9.988
   28        0.450   0.288   9.186   9.924
   29        0.467   0.292   9.181   9.940
   30        0.467   0.292   9.181   9.940
   31        0.467   0.292   9.181   9.940
   32        0.467   0.292   9.181   9.940
   33        0.467   0.292   9.181   9.940
   34        0.467   0.292   9.181   9.940
   35        0.451   0.289   9.186   9.926
   36        0.585   0.762   2.994   4.341
   37        1.337   2.170   0.000   3.507
tot         17.601  14.525 324.344 356.470

 BZINTS: Fermi energy:   -0.211276;  394.000000 electrons
         Band energy:-0.121241E+04;  BLOECHL correction:   -0.074898