 vasp.6.2.0 18Jan21 (build Jun 12 2021 23:27:24) complex

 executed on             LinuxIFC date 2022.05.26  20:02:47

 INCAR:
   ISMEAR = -5
   SIGMA = 0.1
   ISPIN = 1
   EDIFF = 1.d-5
   EDIFFG = -0.01
   NSW = 0
   NELM = 150
   ENCUT = 500
   ISIF = 2
   IBRION = 2
   LREAL = Auto
   ALGO = Fast
   ICHARG = 11
   LORBIT = 10
   LCHARG = .F.
   LWAVE = .F.

 POTCAR:    PAW_PBE Cu 22Jun2005
 POTCAR:    PAW_PBE Nb_sv 25May2007
 POTCAR:    PAW_PBE N 08Apr2002
|           W    W    AA    RRRRR   N    N  II  N    N   GGGG   !!!           |
|           W    W   A  A   R    R  NN   N  II  NN   N  G    G  !!!           |
|           W    W  A    A  R    R  N N  N  II  N N  N  G       !!!           |
|           W WW W  AAAAAA  RRRRR   N  N N  II  N  N N  G  GGG   !            |
|           WW  WW  A    A  R   R   N   NN  II  N   NN  G    G                |
|           W    W  A    A  R    R  N    N  II  N    N   GGGG   !!!           |
|     For optimal performance we recommend to set                             |
|       NCORE = 2 up to number-of-cores-per-socket                            |
|     This setting can greatly improve the performance of VASP for DFT.       |
|     The default, NCORE=1 might be grossly inefficient on modern             |
|     multi-core architectures or massively parallel machines. Do your        |
|     Unfortunately you need to use the default for GW and RPA                |
|     calculations (for HF NCORE is supported but not extensively tested      |
|     yet).                                                                   |

 POTCAR:    PAW_PBE Cu 22Jun2005
   VRHFIN =Cu: d10 p1

   TITEL  = PAW_PBE Cu 22Jun2005
   POMASS =   63.546; ZVAL   =   11.000    mass and valenz
   ENMAX  =  295.446; ENMIN  =  221.585 eV

 POTCAR:    PAW_PBE Nb_sv 25May2007
   VRHFIN =Nb: 4p5s4d

   TITEL  = PAW_PBE Nb_sv 25May2007
   POMASS =   92.910; ZVAL   =   13.000    mass and valenz
   ENMAX  =  293.235; ENMIN  =  219.927 eV

 POTCAR:    PAW_PBE N 08Apr2002
   VRHFIN =N: s2p3

   TITEL  = PAW_PBE N 08Apr2002
   POMASS =   14.001; ZVAL   =    5.000    mass and valenz
   ENMAX  =  400.000; ENMIN  =  300.000 eV

 Optimization of the real space projectors (new method)

 maximal supplied QI-value         = 16.25
 optimisation between [QCUT,QGAM] = [ 11.38, 22.75] = [ 36.24,144.96] Ry
 Optimized for a Real-space Cutoff    1.52 Angstroem

   l    n(q)    QCUT    max X(q) W(low)/X(q) W(high)/X(q)  e(spline)
   2      9    11.376     4.610    0.21E-03    0.10E-03    0.26E-06
   2      9    11.376     8.522    0.33E-03    0.16E-03    0.37E-06
   0     10    11.376    51.609    0.62E-04    0.20E-04    0.13E-06
   0     10    11.376    27.747    0.54E-04    0.20E-04    0.13E-06
   1     10    11.376    20.408    0.13E-04    0.99E-04    0.19E-06
   1     10    11.376    13.425    0.12E-04    0.87E-04    0.17E-06
 Optimization of the real space projectors (new method)

[...]

   l    n(q)    QCUT    max X(q) W(low)/X(q) W(high)/X(q)  e(spline)
   0     11    11.450    10.201    0.21E-04    0.96E-05    0.78E-07
   0     11    11.450     8.174    0.31E-04    0.18E-04    0.14E-06
   1     10    11.450     3.488    0.27E-04    0.12E-04    0.96E-07
   1     10    11.450     4.917    0.11E-03    0.11E-03    0.37E-06
   2     10    11.450   153.744    0.37E-03    0.81E-03    0.10E-05
   2     10    11.450   126.342    0.37E-03    0.81E-03    0.10E-05
 Optimization of the real space projectors (new method)

 maximal supplied QI-value         = 25.13
 optimisation between [QCUT,QGAM] = [ 11.31, 22.87] = [ 35.82,146.48] Ry
 Optimized for a Real-space Cutoff    1.27 Angstroem

   l    n(q)    QCUT    max X(q) W(low)/X(q) W(high)/X(q)  e(spline)
   0      9    11.310    79.467    0.75E-04    0.16E-03    0.36E-06
   0      9    11.310    66.151    0.74E-04    0.16E-03    0.36E-06
   1      8    11.310    17.416    0.35E-03    0.12E-03    0.95E-06
   1      8    11.310    12.382    0.37E-03    0.13E-03    0.98E-06
  PAW_PBE Cu 22Jun2005                  :
  PAW_PBE Nb_sv 25May2007               :
  PAW_PBE N 08Apr2002                   :

 POSCAR: Cu-Nb-N
  positions in direct lattice
  velocities in cartesian coordinates
 exchange correlation table for  LEXCH =        8
   RHO(1)=    0.500       N(1)  =     2000
   RHO(2)=  100.500       N(2)  =     4000

 VTST: version 3.2, (02/03/18)

 CHAIN: initializing optimizer

 OPT: Using VASP Conjugate-Gradient optimizer
 CHAIN: Read ICHAIN            0

 POSCAR: Cu-Nb-N
  positions in direct lattice
  velocities in cartesian coordinates

 ion  position               nearest neighbor table
   1  0.000  0.000  0.252-   7 2.57   3 2.57   4 2.57   2 2.57   6 2.57   8 2.57  12 2.57  10 2.57
                            16 2.57
   2  0.333  0.000  0.252-   8 2.57   9 2.57   5 2.57   1 2.57   3 2.57  11 2.57   4 2.57  10 2.57
                            17 2.57
   3  0.667  0.000  0.252-   1 2.57   7 2.57   6 2.57   9 2.57   2 2.57  12 2.57   5 2.57  18 2.57
                            11 2.57
   4  0.000  0.333  0.252-   5 2.57   6 2.57   1 2.57   7 2.57   2 2.57  13 2.57   9 2.57  10 2.57
                            15 2.57
   5  0.333  0.333  0.252-   4 2.57   2 2.57   7 2.57  13 2.57   8 2.57   6 2.57   3 2.57  11 2.57
                            14 2.57
   6  0.667  0.333  0.252-   4 2.57   9 2.57  15 2.57   3 2.57   1 2.57   8 2.57  14 2.57   5 2.57
                            12 2.57
   7  0.000  0.667  0.252-   1 2.57   3 2.57  16 2.57  18 2.57   4 2.57   5 2.57   8 2.57   9 2.57
                            13 2.57
   8  0.333  0.667  0.252-   9 2.57   2 2.57  17 2.57   6 2.57   1 2.57   7 2.57   5 2.57  14 2.57
                            16 2.57
   9  0.667  0.667  0.252-   8 2.57   6 2.57   2 2.57  17 2.57   3 2.57   7 2.57   4 2.57  15 2.57
                            18 2.57
  10  0.111  0.111  0.351-  26 2.55  19 2.55  11 2.57  12 2.57  13 2.57   1 2.57   2 2.57   4 2.57
                            15 2.57  16 2.57  17 2.57  20 2.57
  11  0.444  0.111  0.351-  20 2.57  21 2.57  10 2.57  13 2.57   2 2.57  17 2.57  14 2.57  12 2.57
                             5 2.57   3 2.57  18 2.57  27 2.57
  12  0.778  0.111  0.351-  19 2.55  25 2.55  15 2.57  10 2.57  14 2.57  18 2.57   3 2.57   1 2.57
                            16 2.57  11 2.57   6 2.57  21 2.57
  13  0.111  0.444  0.351-  23 2.57  20 2.57  16 2.57  18 2.57  10 2.57  11 2.57  14 2.57   5 2.57
                             4 2.57   7 2.57  15 2.57  22 2.57
  14  0.444  0.444  0.351-  21 2.57  23 2.57  15 2.57  17 2.57  12 2.57  16 2.57  13 2.57  11 2.57
                             6 2.57   8 2.57   5 2.57  24 2.57
  15  0.778  0.444  0.351-  19 2.55  14 2.57  17 2.57  12 2.57   6 2.57  18 2.57  10 2.57   9 2.57
                            13 2.57   4 2.57  24 2.57  22 2.57
  16  0.111  0.778  0.351-  25 2.55  26 2.55  18 2.57  13 2.57   7 2.57  14 2.57  17 2.57  12 2.57
                            10 2.57   8 2.57   1 2.57  23 2.57
  17  0.444  0.778  0.351-  26 2.55  14 2.57  15 2.57   8 2.57   9 2.57  11 2.57  16 2.57  18 2.57
                            10 2.57   2 2.57  27 2.57  24 2.57
  18  0.778  0.778  0.351-  25 2.55  16 2.57  13 2.57   7 2.57  15 2.57  12 2.57  17 2.57   9 2.57
                             3 2.57  11 2.57  22 2.57  27 2.57
  19  0.889  0.222  0.448-  12 2.55  10 2.55  15 2.55  25 2.56  26 2.56  21 2.57  20 2.57  22 2.57
                            24 2.57  28 2.57  32 2.58  31 2.58
  20  0.222  0.222  0.449-  23 2.56  21 2.56  11 2.57  13 2.57  10 2.57  26 2.57  19 2.57  27 2.57
                            22 2.57  29 2.59  31 2.59  36 2.66
  21  0.555  0.222  0.449-  20 2.56  23 2.56  14 2.57  11 2.57  12 2.57  19 2.57  25 2.57  24 2.57
                            27 2.57  32 2.59  30 2.59  36 2.66
  22  0.889  0.556  0.449-  24 2.56  27 2.56  18 2.57  15 2.57  23 2.57  20 2.57  19 2.57  25 2.57
                            13 2.57  35 2.57  31 2.57  33 2.57
  23  0.222  0.555  0.449-  20 2.56  21 2.56  13 2.57  14 2.57  16 2.57  25 2.57  26 2.57  22 2.57
                            24 2.57  33 2.59  34 2.59  36 2.66
  24  0.556  0.556  0.449-  22 2.56  27 2.56  15 2.57  17 2.57  21 2.57  23 2.57  19 2.57  26 2.57
                            14 2.57  35 2.57  32 2.57  34 2.57
  25  0.889  0.889  0.448-  12 2.55  16 2.55  18 2.55  19 2.56  26 2.56  21 2.57  23 2.57  22 2.57
                            27 2.57  28 2.57  33 2.58  30 2.58
  26  0.222  0.889  0.448-  10 2.55  16 2.55  17 2.55  25 2.56  19 2.56  20 2.57  23 2.57  27 2.57
                            24 2.57  28 2.57  29 2.58  34 2.58
  27  0.556  0.889  0.449-  24 2.56  22 2.56  17 2.57  18 2.57  20 2.57  21 2.57  26 2.57  25 2.57
                            11 2.57  35 2.57  29 2.57  30 2.57
  28  0.000  0.000  0.547-  33 2.55  30 2.55  31 2.55  29 2.55  32 2.55  34 2.55  25 2.57  19 2.57
                            26 2.57
  29  0.334  0.996  0.548-  34 2.51  35 2.55  28 2.55  27 2.57  26 2.58  20 2.59  30 2.59  36 2.60
                            31 2.60
  30  0.670  0.996  0.548-  33 2.51  35 2.55  28 2.55  27 2.57  25 2.58  21 2.59  29 2.59  36 2.60
                            32 2.60
  31  0.996  0.334  0.548-  32 2.51  35 2.55  28 2.55  22 2.57  19 2.58  20 2.59  33 2.59  36 2.60
                            29 2.60
  32  0.670  0.334  0.548-  31 2.51  35 2.55  28 2.55  24 2.57  19 2.58  21 2.59  34 2.59  36 2.60
                            30 2.60
  33  0.996  0.670  0.548-  30 2.51  35 2.55  28 2.55  22 2.57  25 2.58  23 2.59  31 2.59  36 2.60
                            34 2.60
  34  0.334  0.670  0.548-  29 2.51  35 2.55  28 2.55  24 2.57  26 2.58  23 2.59  32 2.59  36 2.60
                            33 2.60
  35  0.667  0.667  0.548-  34 2.55  32 2.55  29 2.55  30 2.55  33 2.55  31 2.55  24 2.57  27 2.57
                            22 2.57
  36  0.333  0.333  0.553-  37 1.73  31 2.60  29 2.60  33 2.60  32 2.60  34 2.60  30 2.60  23 2.66
                            20 2.66  21 2.66
  37  0.333  0.333  0.634-  36 1.73

  LATTYP: Found a hexagonal cell.
 ALAT       =     7.6967864036
 C/A-ratio  =     2.7653617908

  Lattice vectors:

 A1 = (  -3.8483927580,  -6.6656128093,   0.0000000000)
 A2 = (   7.6967864037,   0.0000000000,   0.0000000000)
 A3 = (   0.0000000000,   0.0000000000,  21.2843990326)

Analysis of symmetry for initial positions (statically):
 Subroutine PRICEL returns:
 Original cell was already a primitive cell.

 Routine SETGRP: Setting up the symmetry group for a
 hexagonal supercell.

 Subroutine GETGRP returns: Found  6 space group operations
 (whereof  6 operations were pure point group operations)
 out of a pool of 24 trial point group operations.

The static configuration has the point symmetry C_3v.

Analysis of symmetry for dynamics (positions and initial velocities):
 Subroutine PRICEL returns:
 Original cell was already a primitive cell.

[...]

The dynamic configuration has the point symmetry C_3v.

Analysis of constrained symmetry for selective dynamics:
 Subroutine PRICEL returns:
 Original cell was already a primitive cell.

 Routine SETGRP: Setting up the symmetry group for a
 hexagonal supercell.

 Subroutine GETGRP returns: Found  6 space group operations
[...]
     24      -4.4911      2.00000
     25      -4.4544      2.00000
     26      -4.4330      2.00000
     27      -4.3996      2.00000
     28      -4.3581      2.00000
     29      -4.2538      2.00000
     30      -4.2061      2.00000
     31      -4.1770      2.00000
     32      -4.1696      2.00000
     33      -4.1271      2.00000
     34      -4.1171      2.00000
     35      -4.1137      2.00000
     36      -4.1088      2.00000
     37      -4.0980      2.00000
     38      -4.0644      2.00000
     39      -4.0184      2.00000
     40      -3.9813      2.00000
     41      -3.9445      2.00000
     42      -3.8028      2.00000
     43      -3.7992      2.00000
     44      -3.7628      2.00000
     45      -3.7284      2.00000
     46      -3.7230      2.00000
     47      -3.7024      2.00000
     48      -3.6920      2.00000
     49      -3.6840      2.00000
     50      -3.6807      2.00000
     51      -3.5228      2.00000
     52      -3.4917      2.00000
     53      -3.4852      2.00000
     54      -3.4674      2.00000
     55      -3.4185      2.00000
     56      -3.4049      2.00000
     57      -3.3953      2.00000
     58      -3.3871      2.00000
     59      -3.3763      2.00000
     60      -3.3711      2.00000
[...]
    238       5.9409      0.00000
    239       6.1473      0.00000
    240       6.1760      0.00000
    241       6.2552      0.00000
    242       6.5582      0.00000
    243       6.5903      0.00000
    244       6.6166      0.00000
    245       7.1523      0.00000
    246       7.1614      0.00000
    247       7.1995      0.00000
    248       7.2184      0.00000
    249       7.3089      0.00000
    250       7.4024      0.00000
    251       7.5193      0.00000
    252       7.5905      0.00000

 soft charge-density along one line, spin component           1
         0         1         2         3         4         5         6         7         8         9
 total charge-density along one line

------------------------ aborting loop because EDIFF is reached ----------------------------------------

 total charge

# of ion       s       p       d       tot
    1        0.447   0.285   9.187   9.919
    2        0.449   0.285   9.186   9.919
    3        0.449   0.285   9.186   9.919
    4        0.449   0.285   9.186   9.919
    5        0.447   0.286   9.185   9.917
    6        0.449   0.285   9.186   9.919
    7        0.449   0.285   9.186   9.919
    8        0.449   0.285   9.186   9.919
    9        0.447   0.284   9.187   9.919
   10        0.441   0.371   9.178   9.990
   11        0.441   0.367   9.181   9.989
   12        0.441   0.371   9.178   9.990
   13        0.441   0.367   9.181   9.989
   14        0.441   0.367   9.181   9.989
   15        0.438   0.371   9.177   9.986
   16        0.441   0.371   9.178   9.990
   17        0.438   0.371   9.177   9.986
   18        0.438   0.371   9.177   9.986
   19        0.443   0.367   9.184   9.993
   20        0.453   0.384   9.175  10.012
   21        0.453   0.384   9.175  10.012
   22        0.433   0.374   9.178   9.984
   23        0.453   0.384   9.175  10.012
   24        0.433   0.374   9.178   9.984
   25        0.443   0.367   9.184   9.993
   26        0.443   0.367   9.184   9.993
   27        0.433   0.374   9.178   9.984
   28        0.448   0.294   9.182   9.925
   29        0.476   0.304   9.176   9.957
   30        0.476   0.304   9.176   9.957
   31        0.476   0.304   9.176   9.957
   32        0.476   0.304   9.176   9.957
   33        0.476   0.304   9.176   9.957
   34        0.476   0.304   9.176   9.957
   35        0.450   0.298   9.180   9.927
   36        2.233   6.034   2.764  11.031
   37        1.346   2.238   0.000   3.584
tot         19.313  19.951 324.079 363.343

  FORCE on cell =-STRESS in cart. coord.  units (eV):
  Direction    XX          YY          ZZ          XY          YZ          ZX
  Alpha Z   909.04782   909.04782   909.04782
  Ewald  174947.97838174947.97787************     0.00042     0.00012     0.00021
  Hartree188160.88722188160.88716************     0.00005     0.00006     0.00008
  E(xc)   -2327.63860 -2327.63812 -2331.44488    -0.00042    -0.00004    -0.00006
  Local  ************************376590.88842     0.01858    -0.00059    -0.00101
  n-local  -775.93293  -763.62498  -795.43804     7.08048    -0.23337     0.34386
  augment  3323.63690  3323.65685  3349.32165    -0.01728     0.00024     0.00052
  Kinetic  3472.95360  3475.16620  3515.49131     1.97336     1.91403    -1.29457
  Fock        0.00000     0.00000     0.00000     0.00000     0.00000     0.00000
  Total      -1.67084    -1.67084     0.54809     0.00000    -0.00000    -0.00000
  in kB      -2.45151    -2.45151     0.80418     0.00000    -0.00000    -0.00000

 VOLUME and BASIS-vectors are now :
  energy-cutoff  :      500.00
  volume of cell :     1091.97
      direct lattice vectors                 reciprocal lattice vectors
     7.696786404  0.000000000  0.000000000     0.129924354 -0.075011849  0.000000000
     3.848392758  6.665612809  0.000000000     0.000000000  0.150023716  0.000000000
     0.000000000  0.000000000 21.284399033     0.000000000  0.000000000  0.046982769

  length of vectors
     7.696786404  7.696786404 21.284399033     0.150023716  0.150023716  0.046982769

 FORCES acting on ions
    electron-ion (+dipol)            ewald-force                    non-local-force                 convergence-correction
   -.413E-04 0.330E-06 0.352E+04   0.578E-04 -.435E-05 -.351E+04   0.172E-17 0.506E-17 -.215E+01   -.336E-03 -.161E-03 -.277E+00
   -.445E+00 0.148E+00 0.352E+04   0.409E+00 -.338E-01 -.351E+04   0.469E-02 -.156E-01 -.191E+01   0.297E-01 -.950E-01 -.198E+00
   0.445E+00 0.148E+00 0.352E+04   -.409E+00 -.339E-01 -.351E+04   -.469E-02 -.156E-01 -.191E+01   -.289E-01 -.923E-01 -.197E+00
   -.946E-01 -.459E+00 0.352E+04   0.175E+00 0.371E+00 -.351E+04   -.111E-01 0.118E-01 -.191E+01   -.673E-01 0.731E-01 -.198E+00
   -.650E-04 -.533E-05 0.352E+04   0.116E-03 -.101E-04 -.351E+04   -.566E-17 0.165E-17 -.215E+01   0.122E-01 0.749E-02 -.207E+00
   0.946E-01 -.459E+00 0.352E+04   -.175E+00 0.371E+00 -.351E+04   0.111E-01 0.118E-01 -.191E+01   0.656E-01 0.744E-01 -.197E+00
   0.350E+00 0.311E+00 0.352E+04   -.234E+00 -.337E+00 -.351E+04   -.158E-01 0.371E-02 -.191E+01   -.944E-01 0.211E-01 -.197E+00
   -.350E+00 0.311E+00 0.352E+04   0.234E+00 -.337E+00 -.351E+04   0.158E-01 0.371E-02 -.191E+01   0.979E-01 0.196E-01 -.197E+00
   -.144E-03 -.328E-04 0.352E+04   0.263E-03 0.205E-04 -.351E+04   -.221E-17 0.129E-17 -.216E+01   -.133E-01 -.685E-02 -.244E+00
   -.306E+01 -.177E+01 0.123E+04   0.320E+01 0.185E+01 -.123E+04   -.137E+00 -.792E-01 -.693E+00   0.166E-01 0.960E-02 -.190E+00
   -.906E-04 0.558E+00 0.123E+04   0.190E-03 -.688E+00 -.123E+04   -.120E-07 0.180E+00 -.738E+00   0.118E-01 -.663E-01 -.217E+00
   0.306E+01 -.177E+01 0.123E+04   -.320E+01 0.185E+01 -.123E+04   0.137E+00 -.792E-01 -.693E+00   -.187E-01 0.117E-01 -.190E+00
   0.483E+00 -.279E+00 0.123E+04   -.596E+00 0.344E+00 -.123E+04   0.156E+00 -.902E-01 -.738E+00   -.511E-01 0.442E-01 -.217E+00
   -.483E+00 -.279E+00 0.123E+04   0.595E+00 0.344E+00 -.123E+04   -.156E+00 -.902E-01 -.738E+00   0.755E-01 0.432E-01 -.217E+00
   -.143E-03 -.329E+01 0.123E+04   0.297E-03 0.320E+01 -.123E+04   -.376E-08 0.565E-01 -.734E+00   -.407E-02 0.450E-01 -.209E+00
   -.908E-04 0.354E+01 0.123E+04   0.185E-03 -.369E+01 -.123E+04   -.105E-07 0.158E+00 -.693E+00   -.151E-03 -.232E-01 -.190E+00
   -.285E+01 0.164E+01 0.123E+04   0.277E+01 -.160E+01 -.123E+04   0.489E-01 -.283E-01 -.734E+00   0.376E-01 -.260E-01 -.209E+00
   0.285E+01 0.164E+01 0.123E+04   -.277E+01 -.160E+01 -.123E+04   -.489E-01 -.283E-01 -.734E+00   -.368E-01 -.230E-01 -.209E+00
   -.671E-04 -.218E+01 -.107E+04   0.639E-04 0.210E+01 0.107E+04   -.290E-08 0.436E-01 0.130E+01   -.236E-02 0.319E-01 -.126E+00
   0.757E+01 0.437E+01 -.108E+04   -.766E+01 -.443E+01 0.108E+04   -.188E+00 -.109E+00 0.746E+00   -.345E-01 -.200E-01 -.158E+00
   -.757E+01 0.437E+01 -.108E+04   0.766E+01 -.443E+01 0.108E+04   0.188E+00 -.109E+00 0.746E+00   0.585E-01 -.182E-01 -.158E+00
   0.182E+01 -.105E+01 -.109E+04   -.213E+01 0.123E+01 0.109E+04   0.415E+00 -.240E+00 0.109E+01   -.575E-01 0.324E-01 -.150E+00
   -.581E-04 -.874E+01 -.108E+04   0.141E-03 0.885E+01 0.108E+04   -.145E-07 0.217E+00 0.746E+00   0.123E-01 0.586E-01 -.158E+00
   -.182E+01 -.105E+01 -.109E+04   0.213E+01 0.123E+01 0.109E+04   -.415E+00 -.240E+00 0.109E+01   0.547E-01 0.307E-01 -.150E+00
   0.189E+01 0.109E+01 -.107E+04   -.182E+01 -.105E+01 0.107E+04   -.378E-01 -.218E-01 0.130E+01   -.263E-01 -.152E-01 -.127E+00
   -.189E+01 0.109E+01 -.107E+04   0.182E+01 -.105E+01 0.107E+04   0.378E-01 -.218E-01 0.130E+01   0.268E-01 -.178E-01 -.126E+00
   -.131E-03 0.210E+01 -.109E+04   0.244E-03 -.246E+01 0.109E+04   -.319E-07 0.479E+00 0.109E+01   -.706E-03 -.661E-01 -.150E+00
   -.275E-04 0.230E-04 -.341E+04   0.339E-04 -.340E-04 0.340E+04   -.210E-18 -.243E-17 0.182E+01   0.121E-02 0.751E-03 0.392E+00
   0.266E+02 0.373E+02 -.339E+04   -.264E+02 -.373E+02 0.339E+04   -.229E+00 -.125E+00 0.241E+01   -.905E-01 -.874E-01 0.273E+00
   -.266E+02 0.373E+02 -.339E+04   0.264E+02 -.373E+02 0.339E+04   0.229E+00 -.125E+00 0.241E+01   0.697E-01 -.847E-01 0.273E+00
   0.456E+02 0.439E+01 -.339E+04   -.456E+02 -.422E+01 0.339E+04   -.223E+00 -.136E+00 0.241E+01   -.121E+00 -.347E-01 0.273E+00
   -.456E+02 0.439E+01 -.339E+04   0.456E+02 -.422E+01 0.339E+04   0.223E+00 -.136E+00 0.241E+01   0.971E-01 -.337E-01 0.272E+00
   0.190E+02 -.417E+02 -.339E+04   -.191E+02 0.416E+02 0.339E+04   0.610E-02 0.261E+00 0.241E+01   -.384E-01 0.103E+00 0.273E+00
   -.190E+02 -.417E+02 -.339E+04   0.191E+02 0.416E+02 0.339E+04   -.610E-02 0.261E+00 0.241E+01   0.200E-01 0.101E+00 0.272E+00
   -.150E-03 -.185E-04 -.342E+04   0.261E-03 0.211E-05 0.342E+04   -.831E-18 -.552E-17 0.210E+01   -.118E-01 -.598E-02 0.312E+00
   0.159E-03 -.181E-03 -.382E+04   0.151E-03 0.344E-04 0.383E+04   -.492E-18 -.121E-17 -.287E+01   0.874E-02 0.524E-02 0.329E+00
   0.121E-03 -.526E-04 -.195E+04   0.126E-04 0.601E-05 0.196E+04   0.262E-18 0.229E-18 -.164E+02   0.193E-02 0.117E-02 0.111E+00
   0.619E-04 -.194E-03 0.182E+02   0.157E-12 0.105E-12 0.500E-11   -.132E-15 0.105E-15 -.159E+02   0.191E-03 -.279E-02 -.228E+01

 POSITION                                       TOTAL-FORCE (eV/Angst)
      0.00000      0.00000      5.37156         0.000000      0.000000      0.037931
      2.56560      0.00000      5.37156        -0.001296      0.004455      0.051133
      5.13119      0.00000      5.37156         0.001296      0.004455      0.051133
      1.28280      2.22187      5.37156         0.003210     -0.003349      0.051133
      3.84839      2.22187      5.37156         0.000000      0.000000      0.035739
      6.41399      2.22187      5.37156        -0.003210     -0.003349      0.051133
      2.56560      4.44374      5.37156         0.004506     -0.001105      0.051133
      5.13119      4.44374      5.37156        -0.004506     -0.001105      0.051133
      7.69679      4.44374      5.37156         0.000000      0.000000      0.038484
      1.28280      0.74062      7.46636         0.016257      0.009386     -0.072849
      3.84839      0.74062      7.46636         0.000000     -0.022473     -0.028197
      6.41399      0.74062      7.46636        -0.016257      0.009386     -0.072849
      2.56560      2.96249      7.46636        -0.019463      0.011237     -0.028197
      5.13119      2.96249      7.46636         0.019463      0.011237     -0.028197
      7.69679      2.96249      7.46636        -0.000000      0.016594      0.018768
      3.84839      5.18437      7.46636         0.000000     -0.018772     -0.072849
      6.41399      5.18437      7.46636         0.014371     -0.008297      0.018768
      8.97958      5.18437      7.46636        -0.014371     -0.008297      0.018768
      7.69679      1.47855      9.54201         0.000000     -0.011897      0.060119
      2.56706      1.48209      9.56134        -0.328208     -0.189491     -0.371415
      5.12972      1.48209      9.56134         0.328208     -0.189491     -0.371415
      8.97774      3.70418      9.56312         0.052845     -0.030510      0.042531
      3.84839      3.70142      9.56134        -0.000000      0.378982     -0.371415
      6.41583      3.70418      9.56312        -0.052845     -0.030510      0.042531
     10.26471      5.92634      9.54201         0.010303      0.005949      0.060119
      5.12886      5.92634      9.54201        -0.010303      0.005949      0.060119
      7.69679      5.92286      9.56312        -0.000000      0.061020      0.042531
      0.00000      0.00000     11.64396         0.000000      0.000000     -0.096902
      6.40056      6.63873     11.66709        -0.132473     -0.233644     -0.065840
      8.99302      6.63873     11.66709         0.132473     -0.233644     -0.065840
      8.94959      2.22368     11.66709        -0.268578      0.002097     -0.065840
      6.44399      2.22368     11.66709         0.268578      0.002097     -0.065840
     10.24582      4.46882     11.66709        -0.136105      0.231547     -0.065840
      5.14776      4.46882     11.66709         0.136105      0.231547     -0.065840
      7.69679      4.44374     11.66626         0.000000      0.000000     -0.110072
      3.84839      2.22187     11.77465         0.000000      0.000000      1.248846
      3.84839      2.22187     13.50173         0.000000      0.000000     -0.012651
    total drift:                                0.000253     -0.002985     -0.010830

  FREE ENERGIE OF THE ION-ELECTRON SYSTEM (eV)
  free  energy   TOTEN  =      -139.13469685 eV

  energy  without entropy=     -139.13469685  energy(sigma->0) =     -139.13469685

 stress matrix after NEB project (eV)
     -1.67084      0.00000     -0.00000
      0.00000     -1.67084      0.00000
      0.00000     -0.00000      0.54809
  FORCES: max atom, RMS     0.012651    0.002080
  FORCE total and by dimension    0.012651    0.012651
  Stress total and by dimension    2.425655    1.670837
|           W    W    AA    RRRRR   N    N  II  N    N   GGGG   !!!           |
|           W    W   A  A   R    R  NN   N  II  NN   N  G    G  !!!           |
|           W    W  A    A  R    R  N N  N  II  N N  N  G       !!!           |
|           W WW W  AAAAAA  RRRRR   N  N N  II  N  N N  G  GGG   !            |
|           WW  WW  A    A  R   R   N   NN  II  N   NN  G    G                |
|           W    W  A    A  R    R  N    N  II  N    N   GGGG   !!!           |
|     Tetrahedron method does not include variations of the Fermi             |
|     occupations, so forces and stress will be inaccurate. We suggest        |
|     using a different smearing scheme ISMEAR = 1 or 2 for metals in         |
|     relaxations.                                                            |

 total charge

# of ion       s       p       d       tot
    1        0.447   0.285   9.187   9.919
    2        0.449   0.285   9.186   9.919
    3        0.449   0.285   9.186   9.919
    4        0.449   0.285   9.186   9.919
    5        0.447   0.286   9.185   9.917
    6        0.449   0.285   9.186   9.919
    7        0.449   0.285   9.186   9.919
    8        0.449   0.285   9.186   9.919
    9        0.447   0.284   9.187   9.919
   10        0.441   0.371   9.178   9.990
   11        0.441   0.367   9.181   9.989
   12        0.441   0.371   9.178   9.990
   13        0.441   0.367   9.181   9.989
   14        0.441   0.367   9.181   9.989
   15        0.438   0.371   9.177   9.986
   16        0.441   0.371   9.178   9.990
   17        0.438   0.371   9.177   9.986
   18        0.438   0.371   9.177   9.986
   19        0.443   0.367   9.184   9.993
   20        0.453   0.384   9.175  10.012
   21        0.453   0.384   9.175  10.012
   22        0.433   0.374   9.178   9.984
   23        0.453   0.384   9.175  10.012
   24        0.433   0.374   9.178   9.984
   25        0.443   0.367   9.184   9.993
   26        0.443   0.367   9.184   9.993
   27        0.433   0.374   9.178   9.984
   28        0.448   0.294   9.182   9.925
   29        0.476   0.304   9.176   9.957
   30        0.476   0.304   9.176   9.957
   31        0.476   0.304   9.176   9.957
   32        0.476   0.304   9.176   9.957
   33        0.476   0.304   9.176   9.957
   34        0.476   0.304   9.176   9.957
   35        0.450   0.298   9.180   9.927
   36        2.233   6.034   2.764  11.031
   37        1.346   2.238   0.000   3.584
tot         19.313  19.951 324.079 363.343

 BZINTS: Fermi energy:    0.024687;  403.000000 electrons
         Band energy:-0.143351E+04;  BLOECHL correction:   -0.067075