 vasp.6.2.0 18Jan21 (build Jun 12 2021 23:27:24) complex

 executed on             LinuxIFC date 2022.05.28  01:39:42

 INCAR:
   ISMEAR = -5
   SIGMA = 0.1
   ISPIN = 1
   EDIFF = 1.d-5
   EDIFFG = -0.01
   NSW = 0
   NELM = 150
   ENCUT = 500
   ISIF = 2
   IBRION = 2
   LREAL = Auto
   ALGO = Fast
   ICHARG = 11
   LORBIT = 10
   LCHARG = .F.
   LWAVE = .F.

 POTCAR:    PAW_PBE Ag 02Apr2005
 POTCAR:    PAW_PBE Mo 08Apr2002
 POTCAR:    PAW_PBE C 08Apr2002
 POTCAR:    PAW_PBE O 08Apr2002
|           W    W    AA    RRRRR   N    N  II  N    N   GGGG   !!!           |
|           W    W   A  A   R    R  NN   N  II  NN   N  G    G  !!!           |
|           W    W  A    A  R    R  N N  N  II  N N  N  G       !!!           |
|           W WW W  AAAAAA  RRRRR   N  N N  II  N  N N  G  GGG   !            |
|           WW  WW  A    A  R   R   N   NN  II  N   NN  G    G                |
|           W    W  A    A  R    R  N    N  II  N    N   GGGG   !!!           |
|     For optimal performance we recommend to set                             |
|       NCORE = 2 up to number-of-cores-per-socket                            |
|     This setting can greatly improve the performance of VASP for DFT.       |
|     The default, NCORE=1 might be grossly inefficient on modern             |
|     multi-core architectures or massively parallel machines. Do your        |
|     Unfortunately you need to use the default for GW and RPA                |
|     calculations (for HF NCORE is supported but not extensively tested      |
|     yet).                                                                   |

 POTCAR:    PAW_PBE Ag 02Apr2005
   VRHFIN =Ag : s1 d10

   TITEL  = PAW_PBE Ag 02Apr2005
   POMASS =  107.868; ZVAL   =   11.000    mass and valenz
   ENMAX  =  249.844; ENMIN  =  187.383 eV

 POTCAR:    PAW_PBE Mo 08Apr2002
   VRHFIN =Mo: 4p5s4d

[...]

 POTCAR:    PAW_PBE C 08Apr2002
   VRHFIN =C: s2p2

[...]

 POTCAR:    PAW_PBE O 08Apr2002
   VRHFIN =O: s2p4

   TITEL  = PAW_PBE O 08Apr2002
   POMASS =   16.000; ZVAL   =    6.000    mass and valenz
   ENMAX  =  400.000; ENMIN  =  300.000 eV

 Optimization of the real space projectors (new method)

 maximal supplied QI-value         = 15.12
 optimisation between [QCUT,QGAM] = [ 11.34, 22.83] = [ 36.00,145.93] Ry
 Optimized for a Real-space Cutoff    1.43 Angstroem

   l    n(q)    QCUT    max X(q) W(low)/X(q) W(high)/X(q)  e(spline)
   2      9    11.338    53.897    0.16E-03    0.20E-03    0.28E-06
   2      9    11.338    52.416    0.16E-03    0.20E-03    0.29E-06
   0     10    11.338   122.045    0.31E-04    0.76E-04    0.15E-06
   0     10    11.338    73.629    0.30E-04    0.72E-04    0.15E-06
   1      9    11.338    15.255    0.20E-03    0.19E-04    0.17E-06
   1      9    11.338     9.562    0.16E-03    0.15E-04    0.14E-06
 Optimization of the real space projectors (new method)

[...]

   l    n(q)    QCUT    max X(q) W(low)/X(q) W(high)/X(q)  e(spline)
   0      7    11.310   115.676    0.43E-03    0.13E-02    0.19E-06
   0      7    11.310    87.132    0.43E-03    0.13E-02    0.18E-06
   1      6    11.310     4.429    0.42E-03    0.74E-03    0.11E-06
   1      6    11.310     2.733    0.34E-03    0.55E-03    0.92E-07
 Optimization of the real space projectors (new method)

 maximal supplied QI-value         = 24.76
 optimisation between [QCUT,QGAM] = [ 11.39, 22.77] = [ 36.31,145.25] Ry
 Optimized for a Real-space Cutoff    1.00 Angstroem

   l    n(q)    QCUT    max X(q) W(low)/X(q) W(high)/X(q)  e(spline)
   0      7    11.387    20.381    0.39E-03    0.13E-02    0.15E-06
   0      7    11.387    15.268    0.42E-03    0.14E-02    0.17E-06
   1      6    11.387     5.964    0.41E-03    0.11E-02    0.17E-06
   1      6    11.387     5.382    0.39E-03    0.87E-03    0.15E-06
  PAW_PBE Ag 02Apr2005                  :
  PAW_PBE Mo 08Apr2002                  :
  PAW_PBE C 08Apr2002                   :
  PAW_PBE O 08Apr2002                   :

 POSCAR: Ag-Mo-CO2
  positions in direct lattice
  velocities in cartesian coordinates
 exchange correlation table for  LEXCH =        8
   RHO(1)=    0.500       N(1)  =     2000
   RHO(2)=  100.500       N(2)  =     4000

 VTST: version 3.2, (02/03/18)

 CHAIN: initializing optimizer

 OPT: Using VASP Conjugate-Gradient optimizer
 CHAIN: Read ICHAIN            0

 POSCAR: Ag-Mo-CO2
  positions in direct lattice
  velocities in cartesian coordinates

 ion  position               nearest neighbor table
   1  0.000  0.000  0.217-   2 2.93   8 2.93   7 2.93   6 2.93   4 2.93  12 2.93  16 2.93  10 2.93
                             3 2.93
   2  0.333  0.000  0.217-   1 2.93   8 2.93   9 2.93   3 2.93   4 2.93   5 2.93  10 2.93  17 2.93
                            11 2.93
   3  0.667  0.000  0.217-   9 2.93   2 2.93   5 2.93  11 2.93   7 2.93  18 2.93   1 2.93   6 2.93
                            12 2.93
   4  0.000  0.333  0.217-   5 2.93   6 2.93   2 2.93   1 2.93   7 2.93  13 2.93  15 2.93   9 2.93
                            10 2.93
   5  0.333  0.333  0.217-   4 2.93   3 2.93   7 2.93   2 2.93   8 2.93  14 2.93  13 2.93  11 2.93
                             6 2.93
   6  0.667  0.333  0.217-   4 2.93   9 2.93   1 2.93  15 2.93   8 2.93  12 2.93   3 2.93   5 2.93
                            14 2.93
   7  0.000  0.667  0.217-   8 2.93   1 2.93   5 2.93   3 2.93   4 2.93  16 2.93  18 2.93  13 2.93
                             9 2.93
   8  0.333  0.667  0.217-   7 2.93   1 2.93   2 2.93   9 2.93   5 2.93  16 2.93   6 2.93  17 2.93
                            14 2.93
   9  0.667  0.667  0.217-   3 2.93   2 2.93   8 2.93   6 2.93  17 2.93   4 2.93  15 2.93   7 2.93
                            18 2.93
  10  0.111  0.111  0.315-  20 2.90  19 2.93  26 2.93  12 2.93  16 2.93  15 2.93  17 2.93  13 2.93
                            11 2.93   2 2.93   1 2.93   4 2.93
  11  0.444  0.111  0.315-  21 2.90  20 2.90  27 2.93  14 2.93  17 2.93  18 2.93   3 2.93  12 2.93
                            13 2.93  10 2.93   5 2.93   2 2.93
  12  0.778  0.111  0.315-  21 2.90  25 2.93  19 2.93  10 2.93  16 2.93  18 2.93  15 2.93  11 2.93
                             1 2.93  14 2.93   6 2.93   3 2.93
  13  0.111  0.444  0.315-  20 2.90  23 2.90  22 2.93  15 2.93  14 2.93  18 2.93  10 2.93  11 2.93
                            16 2.93   4 2.93   5 2.93   7 2.93
  14  0.444  0.444  0.315-  23 2.90  21 2.90  24 2.93  13 2.93  11 2.93  16 2.93   5 2.93  12 2.93
                            17 2.93   8 2.93  15 2.93   6 2.93
  15  0.778  0.444  0.315-  24 2.92  22 2.92  19 2.92  13 2.93  10 2.93  12 2.93  17 2.93  18 2.93
                             4 2.93   6 2.93   9 2.93  14 2.93
  16  0.111  0.778  0.315-  23 2.90  26 2.93  25 2.93  18 2.93  12 2.93  10 2.93  14 2.93  17 2.93
                            13 2.93   7 2.93   8 2.93   1 2.93
  17  0.444  0.778  0.315-  27 2.92  24 2.92  26 2.92  11 2.93  10 2.93   9 2.93  18 2.93  15 2.93
                            16 2.93   2 2.93  14 2.93   8 2.93
  18  0.778  0.778  0.315-  22 2.92  27 2.92  25 2.92  16 2.93  12 2.93  13 2.93  11 2.93  17 2.93
                            15 2.93   7 2.93   3 2.93   9 2.93
  19  0.889  0.222  0.413-  28 2.92  15 2.92  10 2.93  12 2.93  24 2.93  22 2.93  26 2.93  25 2.93
                            20 2.93  21 2.93  32 2.96  31 2.96
  20  0.222  0.222  0.412-  36 2.79  13 2.90  11 2.90  10 2.90  21 2.93  23 2.93  19 2.93  26 2.93
                            27 2.93  22 2.93  31 2.94  29 2.94
  21  0.555  0.222  0.412-  36 2.79  11 2.90  14 2.90  12 2.90  20 2.93  23 2.93  25 2.93  19 2.93
                            27 2.93  24 2.93  30 2.94  32 2.94
  22  0.888  0.556  0.413-  35 2.91  24 2.92  27 2.92  18 2.92  15 2.92  13 2.93  25 2.93  19 2.93
                            23 2.93  20 2.93  33 2.94  31 2.94
  23  0.222  0.555  0.412-  36 2.79  14 2.90  13 2.90  16 2.90  21 2.93  20 2.93  26 2.93  25 2.93
                            22 2.93  24 2.93  34 2.94  33 2.94
  24  0.556  0.556  0.413-  35 2.91  27 2.92  22 2.92  15 2.92  17 2.92  14 2.93  19 2.93  26 2.93
                            23 2.93  21 2.93  32 2.94  34 2.94
  25  0.889  0.889  0.413-  28 2.92  18 2.92  16 2.93  12 2.93  22 2.93  27 2.93  26 2.93  19 2.93
                            23 2.93  21 2.93  33 2.96  30 2.96
  26  0.222  0.889  0.413-  28 2.92  17 2.92  16 2.93  10 2.93  27 2.93  24 2.93  25 2.93  19 2.93
                            23 2.93  20 2.93  34 2.96  29 2.96
  27  0.556  0.888  0.413-  35 2.91  24 2.92  22 2.92  17 2.92  18 2.92  11 2.93  26 2.93  25 2.93
                            20 2.93  21 2.93  29 2.94  30 2.94
  28  0.000  0.000  0.511-  26 2.92  25 2.92  19 2.92  29 2.95  34 2.95  33 2.95  32 2.95  31 2.95
                            30 2.95
  29  0.333  0.005  0.512-  37 2.83  31 2.88  30 2.89  36 2.89  27 2.94  20 2.94  28 2.95  35 2.96
                            26 2.96  34 3.02
  30  0.662  0.005  0.512-  32 2.88  29 2.89  36 2.89  27 2.94  21 2.94  28 2.95  35 2.96  25 2.96
                            33 3.02
  31  0.005  0.333  0.512-  37 2.70  29 2.88  33 2.89  36 2.89  22 2.94  20 2.94  28 2.95  35 2.96
                            19 2.96  32 3.02
  32  0.662  0.333  0.512-  30 2.88  34 2.89  36 2.89  24 2.94  21 2.94  28 2.95  35 2.96  19 2.96
                            31 3.02
  33  0.005  0.662  0.512-  34 2.88  31 2.89  36 2.89  22 2.94  23 2.94  28 2.95  35 2.96  25 2.96
                            30 3.02
  34  0.333  0.662  0.512-  33 2.88  32 2.89  36 2.89  24 2.94  23 2.94  28 2.95  35 2.96  26 2.96
                            29 3.02
  35  0.667  0.667  0.511-  24 2.91  27 2.91  22 2.91  30 2.96  32 2.96  29 2.96  34 2.96  31 2.96
                            33 2.96
  36  0.333  0.333  0.503-  39 2.07  37 2.10  21 2.79  20 2.79  23 2.79  31 2.89  30 2.89  33 2.89
                            29 2.89  34 2.89  32 2.89
  37  0.263  0.291  0.581-  38 1.22  39 1.32  36 2.10  31 2.70  29 2.83
  38  0.193  0.244  0.615-  37 1.22
  39  0.358  0.369  0.586-  37 1.32  36 2.07

  LATTYP: Found a hexagonal cell.
 ALAT       =     8.7913665772
 C/A-ratio  =     2.7703738524

  Lattice vectors:

 A1 = (  -4.3956832886,  -7.6135467898,   0.0000000000)
 A2 = (   8.7913665771,   0.0000000000,   0.0000000000)
 A3 = (   0.0000000000,   0.0000000000,  24.3553720923)

Analysis of symmetry for initial positions (statically):
 Subroutine PRICEL returns:
 Original cell was already a primitive cell.

 Routine SETGRP: Setting up the symmetry group for a
 hexagonal supercell.

 Subroutine GETGRP returns: Found  1 space group operations
 (whereof  1 operations were pure point group operations)
 out of a pool of 24 trial point group operations.

The static configuration has the point symmetry C_1 .

Analysis of symmetry for dynamics (positions and initial velocities):
 Subroutine PRICEL returns:
 Original cell was already a primitive cell.

[...]

The dynamic configuration has the point symmetry C_1 .

Analysis of constrained symmetry for selective dynamics:
 Subroutine PRICEL returns:
 Original cell was already a primitive cell.

 Routine SETGRP: Setting up the symmetry group for a
 hexagonal supercell.

 Subroutine GETGRP returns: Found  1 space group operations
[...]
     41      -5.0053      2.00000
     42      -4.9936      2.00000
     43      -4.9583      2.00000
     44      -4.9354      2.00000
     45      -4.9228      2.00000
     46      -4.9218      2.00000
     47      -4.9034      2.00000
     48      -4.9013      2.00000
     49      -4.8073      2.00000
     50      -4.7834      2.00000
     51      -4.7710      2.00000
     52      -4.7651      2.00000
     53      -4.7625      2.00000
     54      -4.7608      2.00000
     55      -4.7459      2.00000
     56      -4.7414      2.00000
     57      -4.7331      2.00000
     58      -4.7278      2.00000
     59      -4.6575      2.00000
     60      -4.6473      2.00000
[...]
    238       5.3403      0.00000
    239       5.4661      0.00000
    240       5.6781      0.00000
    241       5.7138      0.00000
    242       5.7779      0.00000
    243       5.8179      0.00000
    244       5.8709      0.00000
    245       5.9180      0.00000
    246       6.0876      0.00000
    247       6.6042      0.00000
    248       6.6232      0.00000
    249       6.6908      0.00000
    250       6.7149      0.00000
    251       6.7333      0.00000
    252       6.7862      0.00000

 soft charge-density along one line, spin component           1
         0         1         2         3         4         5         6         7         8         9
 total charge-density along one line

------------------------ aborting loop because EDIFF is reached ----------------------------------------

 total charge

# of ion       s       p       d       tot
    1        0.420   0.199   9.179   9.798
    2        0.417   0.203   9.177   9.797
    3        0.415   0.204   9.176   9.795
    4        0.418   0.203   9.177   9.797
    5        0.417   0.202   9.176   9.795
    6        0.417   0.203   9.177   9.797
    7        0.415   0.204   9.177   9.795
    8        0.416   0.203   9.177   9.796
    9        0.412   0.203   9.178   9.793
   10        0.408   0.268   9.165   9.841
   11        0.406   0.268   9.168   9.843
   12        0.409   0.269   9.162   9.840
   13        0.406   0.269   9.168   9.843
   14        0.404   0.270   9.167   9.841
   15        0.402   0.269   9.165   9.836
   16        0.409   0.269   9.162   9.840
   17        0.402   0.269   9.165   9.836
   18        0.402   0.269   9.164   9.836
   19        0.400   0.266   9.167   9.832
   20        0.436   0.305   9.136   9.877
   21        0.442   0.299   9.139   9.879
   22        0.391   0.275   9.166   9.831
   23        0.443   0.300   9.137   9.879
   24        0.393   0.274   9.164   9.832
   25        0.405   0.262   9.170   9.836
   26        0.400   0.266   9.167   9.832
   27        0.392   0.274   9.167   9.832
   28        0.417   0.194   9.180   9.791
   29        0.410   0.222   9.173   9.805
   30        0.428   0.216   9.166   9.810
   31        0.401   0.226   9.176   9.804
   32        0.428   0.211   9.168   9.807
   33        0.428   0.214   9.169   9.811
   34        0.425   0.212   9.169   9.806
   35        0.405   0.201   9.180   9.786
   36        0.418   0.408   4.276   5.103
   37        0.875   1.655   0.000   2.530
   38        1.597   3.514   0.000   5.111
   39        1.594   3.447   0.000   5.041
tot         18.923  17.484 325.151 361.558

  FORCE on cell =-STRESS in cart. coord.  units (eV):
  Direction    XX          YY          ZZ          XY          YZ          ZX
  Alpha Z   720.94092   720.94092   720.94092
  Ewald  151615.80230151264.60157************   212.87140   -52.61530   -99.21416
  Hartree161631.86797161459.40938************   105.63026   -22.20300   -28.64980
  E(xc)   -2131.30355 -2131.82937 -2136.83076     0.32597     0.17190     0.26773
  Local  ************************323740.76497  -307.27987    69.21639   115.07193
  n-local  -388.98638  -385.01133  -389.63420    -2.53195     0.83609     1.62035
  augment  3240.74238  3240.76036  3252.13851     0.03222    -0.12312    -0.12926
  Kinetic  5157.82869  5173.92027  5191.11635    -9.10783     4.60459    11.02945
  Fock        0.00000     0.00000     0.00000     0.00000     0.00000     0.00000
  Total      -6.13452    -6.28258    -0.10601    -0.05980    -0.11244    -0.00374
  in kB      -6.02911    -6.17462    -0.10419    -0.05877    -0.11051    -0.00368

 VOLUME and BASIS-vectors are now :
  energy-cutoff  :      500.00
  volume of cell :     1630.19
      direct lattice vectors                 reciprocal lattice vectors
     8.791366577  0.000000000  0.000000000     0.113747958 -0.065672414  0.000000000
     4.395683289  7.613546790  0.000000000     0.000000000  0.131344829  0.000000000
     0.000000000  0.000000000 24.355372092     0.000000000  0.000000000  0.041058703

  length of vectors
     8.791366577  8.791366577 24.355372092     0.131344829  0.131344829  0.041058703

 FORCES acting on ions
    electron-ion (+dipol)            ewald-force                    non-local-force                 convergence-correction
   0.226E-01 0.191E-01 0.270E+04   -.948E-01 -.514E-01 -.270E+04   0.479E-01 0.248E-01 -.208E+01   0.162E-01 0.217E-02 -.139E+00
   -.221E-01 0.481E+00 0.270E+04   -.102E+00 -.441E+00 -.270E+04   0.667E-01 0.673E-01 -.166E+01   0.599E-01 -.909E-01 -.132E+00
   -.482E-02 0.207E+00 0.270E+04   0.197E+00 -.359E+00 -.270E+04   -.111E+00 0.170E+00 -.157E+01   -.768E-01 -.156E-01 -.140E+00
   0.428E+00 -.213E+00 0.270E+04   -.436E+00 0.990E-01 -.270E+04   0.750E-01 0.138E-01 -.166E+01   -.508E-01 0.929E-01 -.123E+00
   -.156E+00 -.885E-01 0.270E+04   0.118E+00 0.329E-01 -.270E+04   0.296E-01 0.404E-01 -.143E+01   0.130E-01 0.143E-01 -.431E-01
   -.277E+00 0.882E-03 0.270E+04   0.318E+00 0.563E-01 -.270E+04   -.102E+00 -.905E-01 -.159E+01   0.408E-01 0.345E-01 -.107E+00
   0.150E+00 -.148E+00 0.270E+04   -.216E+00 0.384E+00 -.270E+04   0.109E+00 -.177E+00 -.161E+01   -.415E-01 -.529E-01 -.146E+00
   -.151E+00 -.241E+00 0.270E+04   0.238E+00 0.261E+00 -.270E+04   -.134E+00 -.526E-01 -.159E+01   0.440E-01 0.170E-01 -.114E+00
   0.467E-01 0.663E-02 0.270E+04   -.221E-01 0.185E-01 -.270E+04   -.926E-02 -.164E-01 -.189E+01   -.152E-01 -.750E-02 -.142E+00
   0.338E+01 0.213E+01 0.958E+03   -.304E+01 -.192E+01 -.957E+03   -.370E+00 -.214E+00 -.874E+00   0.251E-01 0.437E-02 -.984E-01
   -.800E+00 0.350E+01 0.959E+03   0.845E+00 -.375E+01 -.958E+03   -.580E-01 0.164E+00 -.310E+00   0.114E-01 0.191E-01 -.998E-01
   -.265E+01 0.185E+01 0.956E+03   0.220E+01 -.159E+01 -.955E+03   0.494E+00 -.273E+00 -.745E+00   -.296E-01 0.126E-01 -.759E-01
   0.246E+01 -.225E+01 0.959E+03   -.269E+01 0.242E+01 -.959E+03   0.144E+00 -.130E+00 -.355E+00   0.319E-01 -.108E-02 -.106E+00
   -.304E+01 -.164E+01 0.958E+03   0.336E+01 0.182E+01 -.957E+03   -.238E+00 -.134E+00 -.335E+00   -.314E-01 -.155E-01 -.144E+00
   0.684E+00 -.681E+00 0.955E+03   -.673E+00 0.504E+00 -.955E+03   -.190E-01 0.793E-01 -.736E+00   0.274E-02 0.790E-01 -.794E-01
   0.156E+00 -.346E+01 0.956E+03   -.141E+00 0.290E+01 -.955E+03   -.300E-02 0.594E+00 -.767E+00   -.225E-02 -.239E-01 -.772E-01
   -.348E+00 0.704E+00 0.955E+03   0.199E+00 -.617E+00 -.954E+03   0.604E-01 -.539E-01 -.723E+00   0.687E-01 -.315E-01 -.887E-01
   0.148E+00 -.169E+00 0.955E+03   -.582E-01 0.235E+00 -.954E+03   -.217E-01 -.305E-01 -.695E+00   -.562E-01 -.320E-01 -.684E-01
   0.632E+01 -.205E+01 -.810E+03   -.625E+01 0.192E+01 0.809E+03   -.135E-01 0.974E-01 0.852E+00   -.408E-01 0.368E-01 0.376E-02
   -.809E+01 -.258E+01 -.788E+03   0.927E+01 0.323E+01 0.789E+03   -.127E+01 -.689E+00 -.106E+01   -.100E-01 -.743E-02 -.765E-01
   0.169E+01 -.281E+01 -.802E+03   -.319E+01 0.336E+01 0.803E+03   0.155E+01 -.645E+00 -.118E+01   0.336E-01 -.108E-01 -.169E-01
   -.694E+00 -.363E+01 -.806E+03   0.463E+00 0.379E+01 0.805E+03   0.328E+00 -.222E+00 0.537E+00   -.326E-01 0.311E-01 -.110E+00
   -.319E+01 0.294E+01 -.799E+03   0.296E+01 -.464E+01 0.800E+03   0.187E+00 0.177E+01 -.125E+01   0.103E-01 0.381E-01 -.265E-01
   0.353E+01 0.169E+01 -.811E+03   -.352E+01 -.164E+01 0.811E+03   -.720E-01 -.741E-01 0.601E+00   0.332E-01 0.748E-02 -.823E-01
   0.315E+01 0.603E+00 -.816E+03   -.309E+01 -.574E+00 0.815E+03   -.480E-01 -.202E-01 0.884E+00   -.283E-01 -.120E-01 -.165E-02
   -.141E+00 0.596E+01 -.811E+03   0.805E-01 -.587E+01 0.810E+03   0.699E-01 -.365E-01 0.851E+00   0.320E-02 -.466E-01 -.427E-02
   -.300E+01 -.622E+00 -.809E+03   0.301E+01 0.359E+00 0.808E+03   -.251E-01 0.373E+00 0.543E+00   0.213E-01 -.353E-01 -.111E+00
   0.237E+02 0.139E+02 -.255E+04   -.237E+02 -.140E+02 0.254E+04   0.370E-01 0.639E-01 0.201E+01   -.438E-01 -.121E-01 0.200E+00
   0.742E+01 0.855E+02 -.248E+04   -.633E+01 -.850E+02 0.247E+04   -.114E+01 -.651E+00 0.253E+01   0.181E-01 -.103E+00 0.181E+00
   -.317E+02 0.332E+02 -.254E+04   0.309E+02 -.324E+02 0.253E+04   0.887E+00 -.103E+01 0.174E+01   0.221E-01 0.351E-01 0.212E+00
   0.887E+02 -.269E+02 -.245E+04   -.880E+02 0.275E+02 0.245E+04   -.982E+00 -.573E+00 0.292E+01   -.968E-01 0.686E-01 0.180E+00
   -.297E+02 0.231E+01 -.253E+04   0.288E+02 -.201E+01 0.253E+04   0.112E+01 -.231E+00 0.229E+01   0.305E-01 -.695E-01 0.167E+00
   0.146E+02 -.590E+02 -.252E+04   -.144E+02 0.581E+02 0.252E+04   -.421E+00 0.118E+01 0.188E+01   0.387E-01 -.372E-02 0.216E+00
   -.209E+02 -.320E+02 -.253E+04   0.209E+02 0.312E+02 0.253E+04   0.253E+00 0.964E+00 0.236E+01   -.511E-01 0.472E-01 0.171E+00
   0.432E+01 -.448E+01 -.256E+04   -.437E+01 0.444E+01 0.255E+04   0.148E-01 0.352E-01 0.209E+01   0.155E-01 0.360E-02 0.211E+00
   -.278E+02 -.489E+01 -.116E+04   0.270E+02 0.452E+01 0.116E+04   0.746E+00 0.337E+00 0.255E+00   0.318E-01 0.168E-01 0.119E+00
   0.401E+00 0.127E+02 -.966E+03   -.360E+01 -.148E+02 0.959E+03   0.312E+01 0.208E+01 0.661E+01   0.650E-01 0.366E-01 0.489E-01
   0.169E+03 0.776E+02 -.171E+04   -.205E+03 -.935E+02 0.174E+04   0.361E+02 0.158E+02 -.370E+02   0.311E-01 0.218E-01 0.318E-01
   -.200E+03 -.962E+02 -.165E+04   0.238E+03 0.116E+03 0.167E+04   -.381E+02 -.198E+02 -.193E+02   -.208E-01 -.589E-02 0.428E-01
   -.241E+01 0.129E+01 0.521E+02   0.114E-12 0.313E-12 -.250E-11   0.238E+01 -.124E+01 -.515E+02   0.402E-01 0.416E-01 -.570E+00

 POSITION                                       TOTAL-FORCE (eV/Angst)
      0.00000      0.00000      5.28219        -0.008173     -0.007640     -0.051065
      2.93046      0.00000      5.28219         0.002267      0.014427      0.022653
      5.86091      0.00000      5.28219         0.004176     -0.000275      0.038054
      1.46523      2.53785      5.28219         0.015946     -0.010034      0.020925
      4.39568      2.53785      5.28219         0.004597     -0.003182     -0.006050
      7.32614      2.53785      5.28219        -0.020319     -0.001092      0.017044
      2.93046      5.07570      5.28219         0.000787      0.003190      0.036598
      5.86091      5.07570      5.28219        -0.003470     -0.017553      0.021488
      8.79137      5.07570      5.28219        -0.000020     -0.001085      0.006977
      1.46523      0.84595      7.67490        -0.006287     -0.002741     -0.042812
      4.39568      0.84595      7.67490        -0.000912     -0.064600     -0.069494
      7.32614      0.84595      7.67490         0.012133      0.004152     -0.024751
      2.93046      3.38380      7.67490        -0.053558      0.028624     -0.069408
      5.86091      3.38380      7.67490         0.052499      0.027372     -0.044407
      8.79137      3.38380      7.67490        -0.005647     -0.021380      0.016924
      4.39568      5.92165      7.67490         0.009217      0.006755     -0.023578
      7.32614      5.92165      7.67490        -0.019299     -0.001061      0.019931
     10.25659      5.92165      7.67490         0.011768      0.001590      0.025787
      8.79137      1.69286     10.06155         0.018559      0.007979      0.067523
      2.93202      1.69280     10.03008        -0.100149     -0.050878     -0.110796
      5.85935      1.69280     10.03008         0.082376     -0.105337     -0.186446
     10.25345      4.23157     10.06207         0.064766     -0.037157      0.039235
      4.39568      4.22795     10.03008        -0.030151      0.107738     -0.149808
      7.32929      4.23157     10.06207        -0.032895     -0.018675      0.029537
     11.72099      6.76712     10.06155        -0.010110     -0.005637      0.020973
      5.86174      6.76712     10.06155         0.012926      0.005534      0.060659
      8.79137      6.76396     10.06207         0.007253      0.072213      0.026835
      0.00000      0.00000     12.43674        -0.048879     -0.037295     -0.023334
      2.95191      0.04038     12.46589        -0.024779     -0.261800     -0.169654
      5.83946      0.04038     12.46589         0.105986     -0.206117     -0.188554
      1.51092      2.53624     12.46589        -0.318934      0.092029     -0.187204
      7.28044      2.53624     12.46589         0.264778     -0.001112     -0.168878
      2.95470      5.03693     12.46589        -0.147935      0.247115     -0.218389
      5.83667      5.03693     12.46589         0.150360      0.236294     -0.179476
      8.79137      5.07570     12.43630        -0.018360      0.002732      0.012562
      4.39568      2.53785     12.24527         0.032090     -0.016225      1.451461
      3.58983      2.21456     14.15414        -0.016513     -0.000610      0.015908
      2.76561      1.85838     14.98591        -0.002367      0.004214     -0.013016
      4.76462      2.80715     14.26496         0.016274      0.009526     -0.023953
    total drift:                                0.003215      0.089947      0.021089

  FREE ENERGIE OF THE ION-ELECTRON SYSTEM (eV)
  free  energy   TOTEN  =      -119.92539656 eV

  energy  without entropy=     -119.92539656  energy(sigma->0) =     -119.92539656

 stress matrix after NEB project (eV)
     -6.13452     -0.05980     -0.00374
     -0.05980     -6.28258     -0.11244
     -0.00374     -0.11244     -0.10601
  FORCES: max atom, RMS     0.030485    0.006501
  FORCE total and by dimension    0.040598    0.023953
  Stress total and by dimension    8.783330    6.282580
|           W    W    AA    RRRRR   N    N  II  N    N   GGGG   !!!           |
|           W    W   A  A   R    R  NN   N  II  NN   N  G    G  !!!           |
|           W    W  A    A  R    R  N N  N  II  N N  N  G       !!!           |
|           W WW W  AAAAAA  RRRRR   N  N N  II  N  N N  G  GGG   !            |
|           WW  WW  A    A  R   R   N   NN  II  N   NN  G    G                |
|           W    W  A    A  R    R  N    N  II  N    N   GGGG   !!!           |
|     Tetrahedron method does not include variations of the Fermi             |
|     occupations, so forces and stress will be inaccurate. We suggest        |
|     using a different smearing scheme ISMEAR = 1 or 2 for metals in         |
|     relaxations.                                                            |

 total charge

# of ion       s       p       d       tot
    1        0.420   0.199   9.179   9.798
    2        0.417   0.203   9.177   9.797
    3        0.415   0.204   9.176   9.795
    4        0.418   0.203   9.177   9.797
    5        0.417   0.202   9.176   9.795
    6        0.417   0.203   9.177   9.797
    7        0.415   0.204   9.177   9.795
    8        0.416   0.203   9.177   9.796
    9        0.412   0.203   9.178   9.793
   10        0.408   0.268   9.165   9.841
   11        0.406   0.268   9.168   9.843
   12        0.409   0.269   9.162   9.840
   13        0.406   0.269   9.168   9.843
   14        0.404   0.270   9.167   9.841
   15        0.402   0.269   9.165   9.836
   16        0.409   0.269   9.162   9.840
   17        0.402   0.269   9.165   9.836
   18        0.402   0.269   9.164   9.836
   19        0.400   0.266   9.167   9.832
   20        0.436   0.305   9.136   9.877
   21        0.442   0.299   9.139   9.879
   22        0.391   0.275   9.166   9.831
   23        0.443   0.300   9.137   9.879
   24        0.393   0.274   9.164   9.832
   25        0.405   0.262   9.170   9.836
   26        0.400   0.266   9.167   9.832
   27        0.392   0.274   9.167   9.832
   28        0.417   0.194   9.180   9.791
   29        0.410   0.222   9.173   9.805
   30        0.428   0.216   9.166   9.810
   31        0.401   0.226   9.176   9.804
   32        0.428   0.211   9.168   9.807
   33        0.428   0.214   9.169   9.811
   34        0.425   0.212   9.169   9.806
   35        0.405   0.201   9.180   9.786
   36        0.418   0.408   4.276   5.103
   37        0.875   1.655   0.000   2.530
   38        1.597   3.514   0.000   5.111
   39        1.594   3.447   0.000   5.041
tot         18.923  17.484 325.151 361.558

 BZINTS: Fermi energy:    0.211180;  407.000000 electrons
         Band energy:-0.165328E+04;  BLOECHL correction:   -0.022305