 vasp.6.2.0 18Jan21 (build Jun 12 2021 23:27:24) complex

 executed on             LinuxIFC date 2022.05.26  20:14:07

 INCAR:
   ISMEAR = -5
   SIGMA = 0.1
   ISPIN = 1
   EDIFF = 1.d-5
   EDIFFG = -0.01
   NSW = 0
   NELM = 150
   ENCUT = 500
   ISIF = 2
   IBRION = 2
   LREAL = Auto
   ALGO = Fast
   ICHARG = 11
   LORBIT = 10
   LCHARG = .F.
   LWAVE = .F.

 POTCAR:    PAW_PBE Au 04Oct2007
 POTCAR:    PAW_PBE Ru 04Feb2005
|           W    W    AA    RRRRR   N    N  II  N    N   GGGG   !!!           |
|           W    W   A  A   R    R  NN   N  II  NN   N  G    G  !!!           |
|           W    W  A    A  R    R  N N  N  II  N N  N  G       !!!           |
|           W WW W  AAAAAA  RRRRR   N  N N  II  N  N N  G  GGG   !            |
|           WW  WW  A    A  R   R   N   NN  II  N   NN  G    G                |
|           W    W  A    A  R    R  N    N  II  N    N   GGGG   !!!           |
|     For optimal performance we recommend to set                             |
|       NCORE = 2 up to number-of-cores-per-socket                            |
|     This setting can greatly improve the performance of VASP for DFT.       |
|     The default, NCORE=1 might be grossly inefficient on modern             |
|     multi-core architectures or massively parallel machines. Do your        |
|     Unfortunately you need to use the default for GW and RPA                |
|     calculations (for HF NCORE is supported but not extensively tested      |
|     yet).                                                                   |

 POTCAR:    PAW_PBE Au 04Oct2007
   VRHFIN =Au: s1d10

   TITEL  = PAW_PBE Au 04Oct2007
   POMASS =  196.966; ZVAL   =   11.000    mass and valenz
   ENMAX  =  229.943; ENMIN  =  172.457 eV

 POTCAR:    PAW_PBE Ru 04Feb2005
   VRHFIN =Ru: s1 d7

   TITEL  = PAW_PBE Ru 04Feb2005
   POMASS =  101.070; ZVAL   =    8.000    mass and valenz
   ENMAX  =  213.271; ENMIN  =  159.953 eV

 Optimization of the real space projectors (new method)

 maximal supplied QI-value         = 15.12
 optimisation between [QCUT,QGAM] = [ 11.34, 22.83] = [ 36.00,145.93] Ry
 Optimized for a Real-space Cutoff    1.39 Angstroem

   l    n(q)    QCUT    max X(q) W(low)/X(q) W(high)/X(q)  e(spline)
   2      9    11.338    60.898    0.39E-03    0.42E-03    0.21E-06
   2      9    11.338    58.894    0.40E-03    0.42E-03    0.22E-06
   0      9    11.338   109.617    0.13E-03    0.20E-04    0.13E-06
   0      9    11.338    75.026    0.13E-03    0.20E-04    0.13E-06
   1      9    11.338    16.344    0.33E-04    0.24E-03    0.18E-06
   1      9    11.338    10.160    0.26E-04    0.19E-03    0.15E-06
 Optimization of the real space projectors (new method)

 maximal supplied QI-value         = 13.98
 optimisation between [QCUT,QGAM] = [ 11.33, 22.79] = [ 35.93,145.49] Ry
 Optimized for a Real-space Cutoff    1.52 Angstroem

   l    n(q)    QCUT    max X(q) W(low)/X(q) W(high)/X(q)  e(spline)
   2      9    11.327    61.733    0.26E-03    0.14E-03    0.16E-06
   2      9    11.327    59.886    0.26E-03    0.14E-03    0.17E-06
   0     10    11.327    23.358    0.19E-03    0.14E-04    0.46E-06
   0     10    11.327    11.320    0.15E-03    0.11E-04    0.37E-06
   1     10    11.327    14.765    0.49E-04    0.26E-03    0.24E-06
   1     10    11.327     8.283    0.37E-04    0.20E-03    0.18E-06
  PAW_PBE Au 04Oct2007                  :
  PAW_PBE Ru 04Feb2005                  :

 POSCAR: Au-Ru
  positions in direct lattice
  velocities in cartesian coordinates
 exchange correlation table for  LEXCH =        8
   RHO(1)=    0.500       N(1)  =     2000
   RHO(2)=  100.500       N(2)  =     4000

 VTST: version 3.2, (02/03/18)

 CHAIN: initializing optimizer

 OPT: Using VASP Conjugate-Gradient optimizer
 CHAIN: Read ICHAIN            0

 POSCAR: Au-Ru
  positions in direct lattice
  velocities in cartesian coordinates

 ion  position               nearest neighbor table
   1  0.000  0.000  0.238-  16 2.94  12 2.94   6 2.94   8 2.94   7 2.94   3 2.94  10 2.94   4 2.94
                             2 2.94
   2  0.333  0.000  0.238-   9 2.94  11 2.94  17 2.94  10 2.94   8 2.94   4 2.94   5 2.94   1 2.94
                             3 2.94
   3  0.667  0.000  0.238-   7 2.94  18 2.94  12 2.94   1 2.94  11 2.94   5 2.94   6 2.94   9 2.94
                             2 2.94
   4  0.000  0.333  0.238-  10 2.94   6 2.94   5 2.94  13 2.94   2 2.94  15 2.94   9 2.94   1 2.94
                             7 2.94
   5  0.333  0.333  0.238-  13 2.94   7 2.94  11 2.94   4 2.94   2 2.94  14 2.94   3 2.94   8 2.94
                             6 2.94
   6  0.667  0.333  0.238-  15 2.94  14 2.94   1 2.94  12 2.94   4 2.94   9 2.94   8 2.94   3 2.94
                             5 2.94
   7  0.000  0.667  0.238-  18 2.94   3 2.94  16 2.94   5 2.94   1 2.94  13 2.94   8 2.94   4 2.94
                             9 2.94
   8  0.333  0.667  0.238-   9 2.94  17 2.94   1 2.94   2 2.94  14 2.94  16 2.94   6 2.94   7 2.94
                             5 2.94
   9  0.667  0.667  0.238-   2 2.94   8 2.94  17 2.94   6 2.94  15 2.94   4 2.94   3 2.94  18 2.94
                             7 2.94
  10  0.111  0.111  0.346-  20 2.91  26 2.94  19 2.94  11 2.94  17 2.94   2 2.94   4 2.94   1 2.94
                            12 2.94  16 2.94  13 2.94  15 2.94
  11  0.444  0.111  0.346-  20 2.91  21 2.91  27 2.94  13 2.94   2 2.94  10 2.94  17 2.94   5 2.94
                             3 2.94  18 2.94  14 2.94  12 2.94
  12  0.778  0.111  0.346-  21 2.91  25 2.94  19 2.94  16 2.94  18 2.94   1 2.94  14 2.94  15 2.94
                             3 2.94   6 2.94  10 2.94  11 2.94
  13  0.111  0.444  0.346-  23 2.91  20 2.91  22 2.94   5 2.94  18 2.94  11 2.94   7 2.94   4 2.94
                            16 2.94  10 2.94  14 2.94  15 2.94
  14  0.444  0.444  0.346-  21 2.91  23 2.91  24 2.94  15 2.94   6 2.94  12 2.94   8 2.94  17 2.94
                             5 2.94  16 2.94  13 2.94  11 2.94
  15  0.778  0.444  0.346-  24 2.92  22 2.92  19 2.94  14 2.94   6 2.94  17 2.94  12 2.94   9 2.94
                             4 2.94  10 2.94  13 2.94  18 2.94
  16  0.111  0.778  0.346-  23 2.91  25 2.94  26 2.94  18 2.94  12 2.94   7 2.94   1 2.94   8 2.94
                            13 2.94  10 2.94  14 2.94  17 2.94
  17  0.444  0.778  0.346-  27 2.92  24 2.92  26 2.94   9 2.94  15 2.94   2 2.94  10 2.94  11 2.94
                             8 2.94  14 2.94  16 2.94  18 2.94
  18  0.778  0.778  0.346-  22 2.92  27 2.92  25 2.94  16 2.94   7 2.94  13 2.94  12 2.94   3 2.94
                            11 2.94   9 2.94  15 2.94  17 2.94
  19  0.889  0.222  0.454-  15 2.94  10 2.94  12 2.94  24 2.94  22 2.94  26 2.94  25 2.94  21 2.94
                            20 2.94  28 2.95  32 2.97  31 2.97
  20  0.223  0.223  0.452-  36 2.78  11 2.91  13 2.91  10 2.91  23 2.93  21 2.93  29 2.94  31 2.94
                            26 2.94  19 2.94  27 2.95  22 2.95
  21  0.555  0.223  0.452-  36 2.78  14 2.91  11 2.91  12 2.91  20 2.93  23 2.93  30 2.94  32 2.94
                            25 2.94  19 2.94  27 2.95  24 2.95
  22  0.887  0.557  0.453-  24 2.91  27 2.91  18 2.92  15 2.92  13 2.94  25 2.94  19 2.94  23 2.95
                            20 2.95  35 2.96  33 2.96  31 2.96
  23  0.223  0.555  0.452-  36 2.78  13 2.91  14 2.91  16 2.91  20 2.93  21 2.93  33 2.94  34 2.94
                            25 2.94  26 2.94  22 2.95  24 2.95
  24  0.557  0.557  0.453-  27 2.91  22 2.91  15 2.92  17 2.92  14 2.94  26 2.94  19 2.94  21 2.95
                            23 2.95  35 2.96  32 2.96  34 2.96
  25  0.889  0.889  0.454-  18 2.94  16 2.94  12 2.94  22 2.94  27 2.94  19 2.94  26 2.94  23 2.94
                            21 2.94  28 2.95  33 2.97  30 2.97
  26  0.222  0.889  0.454-  17 2.94  10 2.94  16 2.94  27 2.94  24 2.94  19 2.94  25 2.94  20 2.94
                            23 2.94  28 2.95  29 2.97  34 2.97
  27  0.557  0.887  0.453-  24 2.91  22 2.91  17 2.92  18 2.92  11 2.94  26 2.94  25 2.94  20 2.95
                            21 2.95  35 2.96  29 2.96  30 2.96
  28  0.000  0.000  0.563-  25 2.95  19 2.95  26 2.95  34 2.97  32 2.97  33 2.97  30 2.97  31 2.97
                            29 2.97
  29  0.333  0.007  0.562-  31 2.88  30 2.88  36 2.89  20 2.94  27 2.96  28 2.97  35 2.97  26 2.97
                            34 3.05
  30  0.660  0.007  0.562-  32 2.88  29 2.88  36 2.89  21 2.94  27 2.96  28 2.97  35 2.97  25 2.97
                            33 3.05
  31  0.007  0.333  0.562-  29 2.88  33 2.88  36 2.89  20 2.94  22 2.96  28 2.97  35 2.97  19 2.97
                            32 3.05
  32  0.660  0.333  0.562-  30 2.88  34 2.88  36 2.89  21 2.94  24 2.96  28 2.97  35 2.97  19 2.97
                            31 3.05
  33  0.007  0.660  0.562-  34 2.88  31 2.88  36 2.89  23 2.94  22 2.96  28 2.97  35 2.97  25 2.97
                            30 3.05
  34  0.333  0.660  0.562-  33 2.88  32 2.88  36 2.89  23 2.94  24 2.96  28 2.97  35 2.97  26 2.97
                            29 3.05
  35  0.667  0.667  0.563-  24 2.96  27 2.96  22 2.96  29 2.97  34 2.97  32 2.97  31 2.97  30 2.97
                            33 2.97
  36  0.333  0.333  0.552-  20 2.78  23 2.78  21 2.78  33 2.89  31 2.89  29 2.89  30 2.89  34 2.89
                            32 2.89

  LATTYP: Found a hexagonal cell.
 ALAT       =     8.8135128021
 C/A-ratio  =     2.5184286595

  Lattice vectors:

 A1 = (  -4.4067569092,  -7.6327256898,   0.0000000000)
 A2 = (   8.8135128021,   0.0000000000,   0.0000000000)
 A3 = (   0.0000000000,   0.0000000000,  22.1962032318)

Analysis of symmetry for initial positions (statically):
 Subroutine PRICEL returns:
 Original cell was already a primitive cell.

 Routine SETGRP: Setting up the symmetry group for a
 hexagonal supercell.

 Subroutine GETGRP returns: Found  6 space group operations
 (whereof  6 operations were pure point group operations)
 out of a pool of 24 trial point group operations.

The static configuration has the point symmetry C_3v.

Analysis of symmetry for dynamics (positions and initial velocities):
 Subroutine PRICEL returns:
 Original cell was already a primitive cell.

[...]

The dynamic configuration has the point symmetry C_3v.

Analysis of constrained symmetry for selective dynamics:
 Subroutine PRICEL returns:
 Original cell was already a primitive cell.

 Routine SETGRP: Setting up the symmetry group for a
 hexagonal supercell.

 Subroutine GETGRP returns: Found  6 space group operations
 (whereof  6 operations were pure point group operations)
 out of a pool of 24 trial point group operations.

The constrained configuration has the point symmetry C_3v.

 Subroutine INISYM returns: Found  6 space group operations
 (whereof  6 operations are pure point group operations),
 and found     1 'primitive' translations

                                     Primitive cell

  volume of cell :    1493.1636

  direct lattice vectors                    reciprocal lattice vectors
     8.813512802  0.000000000  0.000000000     0.113462137 -0.065507406  0.000000000
     4.406756909  7.632725690  0.000000000     0.000000000  0.131014796  0.000000000
[...]
     15      -5.2176      2.00000
     16      -5.2159      2.00000
     17      -5.2065      2.00000
     18      -5.1902      2.00000
     19      -5.1248      2.00000
     20      -5.1201      2.00000
     21      -5.0841      2.00000
     22      -5.0497      2.00000
     23      -5.0405      2.00000
     24      -5.0196      2.00000
     25      -4.9951      2.00000
     26      -4.9738      2.00000
     27      -4.9012      2.00000
     28      -4.8308      2.00000
     29      -4.7471      2.00000
     30      -4.7418      2.00000
     31      -4.7126      2.00000
     32      -4.7064      2.00000
     33      -4.6978      2.00000
     34      -4.6673      2.00000
     35      -4.5596      2.00000
     36      -4.5534      2.00000
     37      -4.5034      2.00000
     38      -4.4866      2.00000
     39      -4.4361      2.00000
     40      -4.3642      2.00000
     41      -4.3373      2.00000
     42      -4.2900      2.00000
     43      -4.2666      2.00000
     44      -4.2530      2.00000
     45      -4.2466      2.00000
     46      -4.1412      2.00000
     47      -4.1188      2.00000
     48      -4.0914      2.00000
     49      -4.0758      2.00000
     50      -4.0730      2.00000
     51      -4.0636      2.00000
     52      -4.0519      2.00000
     53      -4.0108      2.00000
     54      -3.9680      2.00000
     55      -3.9493      2.00000
     56      -3.9190      2.00000
     57      -3.9130      2.00000
     58      -3.9054      2.00000
     59      -3.8960      2.00000
     60      -3.8869      2.00000
[...]
    238       6.7688      0.00000
    239       6.8218      0.00000
    240       6.8865      0.00000
    241       6.9061      0.00000
    242       7.0453      0.00000
    243       7.1888      0.00000
    244       7.2723      0.00000
    245       7.3465      0.00000
    246       7.6143      0.00000
    247       7.6695      0.00000
    248       7.7565      0.00000
    249       7.7602      0.00000
    250       7.9411      0.00000
    251       8.0647      0.00000
    252       8.0807      0.00000

 soft charge-density along one line, spin component           1
         0         1         2         3         4         5         6         7         8         9
 total charge-density along one line

------------------------ aborting loop because EDIFF is reached ----------------------------------------

 total charge

# of ion       s       p       d       tot
    1        0.545   0.239   8.765   9.549
    2        0.545   0.241   8.764   9.550
    3        0.545   0.241   8.764   9.550
    4        0.545   0.241   8.764   9.550
    5        0.540   0.243   8.762   9.544
    6        0.545   0.241   8.764   9.550
    7        0.545   0.241   8.764   9.550
    8        0.545   0.241   8.764   9.550
    9        0.543   0.239   8.769   9.551
   10        0.524   0.310   8.766   9.599
   11        0.523   0.307   8.781   9.611
   12        0.524   0.310   8.766   9.599
   13        0.523   0.307   8.781   9.611
   14        0.523   0.307   8.781   9.611
   15        0.516   0.308   8.776   9.601
   16        0.524   0.310   8.766   9.599
   17        0.516   0.308   8.776   9.601
   18        0.516   0.308   8.776   9.601
   19        0.516   0.301   8.776   9.594
   20        0.543   0.331   8.749   9.622
   21        0.543   0.331   8.749   9.622
   22        0.508   0.308   8.778   9.594
   23        0.543   0.331   8.749   9.622
   24        0.508   0.308   8.778   9.594
   25        0.516   0.301   8.776   9.594
   26        0.516   0.301   8.776   9.594
   27        0.508   0.308   8.778   9.594
   28        0.538   0.228   8.763   9.529
   29        0.559   0.244   8.744   9.547
   30        0.559   0.244   8.744   9.547
   31        0.559   0.244   8.744   9.547
   32        0.559   0.244   8.744   9.547
   33        0.559   0.244   8.744   9.547
   34        0.559   0.244   8.744   9.547
   35        0.533   0.229   8.766   9.528
   36        0.410   0.341   6.477   7.228
tot         19.119  10.024 313.228 342.372

  FORCE on cell =-STRESS in cart. coord.  units (eV):
  Direction    XX          YY          ZZ          XY          YZ          ZX
  Alpha Z   990.55723   990.55723   990.55723
  Ewald  119246.14987119246.15026************    -0.00034    -0.00009    -0.00017
  Hartree127819.06152127819.06152************    -0.00000    -0.00002    -0.00005
  E(xc)   -1764.54883 -1764.54881 -1772.10379    -0.00001    -0.00000    -0.00000
  Local  ************************259626.53365     0.00175     0.00005     0.00009
  n-local   -76.82928   -21.91270   -25.20717    26.09759    -1.16947     1.44350
  augment  2411.23146  2411.23300  2430.02980    -0.00134     0.00002     0.00003
  Kinetic  5426.84880  5445.34060  5496.22230     8.96032    -0.38966     0.91488
  Fock        0.00000     0.00000     0.00000     0.00000     0.00000     0.00000
  Total     -23.10326   -23.10325     3.05510    -0.00000     0.00000     0.00000
  in kB     -24.78999   -24.78999     3.27815    -0.00000     0.00000     0.00000

 VOLUME and BASIS-vectors are now :
  energy-cutoff  :      500.00
  volume of cell :     1493.16
      direct lattice vectors                 reciprocal lattice vectors
     8.813512802  0.000000000  0.000000000     0.113462137 -0.065507406  0.000000000
     4.406756909  7.632725690  0.000000000     0.000000000  0.131014796  0.000000000
     0.000000000  0.000000000 22.196203232     0.000000000  0.000000000  0.045052750

  length of vectors
     8.813512802  8.813512802 22.196203232     0.131014796  0.131014796  0.045052750

 FORCES acting on ions
    electron-ion (+dipol)            ewald-force                    non-local-force                 convergence-correction
   -.198E-04 -.163E-04 0.247E+04   0.519E-04 0.433E-04 -.247E+04   -.929E-17 0.233E-17 -.906E+00   -.182E-03 -.118E-03 -.256E+00
   0.370E+00 0.161E+00 0.247E+04   -.387E+00 -.187E+00 -.247E+04   0.273E-01 0.165E-01 -.265E+00   -.134E-01 0.186E-01 -.343E+00
   -.370E+00 0.161E+00 0.247E+04   0.387E+00 -.187E+00 -.247E+04   -.273E-01 0.165E-01 -.265E+00   0.137E-01 0.205E-01 -.342E+00
   0.324E+00 0.240E+00 0.247E+04   -.355E+00 -.241E+00 -.247E+04   0.280E-01 0.154E-01 -.265E+00   0.944E-02 -.210E-01 -.343E+00
   0.702E-05 -.241E-04 0.247E+04   0.951E-04 0.173E-05 -.247E+04   -.614E-17 -.134E-17 -.220E+00   0.424E-02 0.258E-02 -.346E+00
   -.325E+00 0.240E+00 0.247E+04   0.355E+00 -.241E+00 -.247E+04   -.280E-01 0.154E-01 -.265E+00   -.109E-01 -.200E-01 -.342E+00
   -.459E-01 -.401E+00 0.247E+04   0.312E-01 0.428E+00 -.247E+04   0.654E-03 -.319E-01 -.265E+00   0.246E-01 0.159E-02 -.342E+00
   0.458E-01 -.401E+00 0.247E+04   -.313E-01 0.428E+00 -.247E+04   -.654E-03 -.319E-01 -.265E+00   -.228E-01 0.543E-03 -.342E+00
   0.198E-04 -.416E-04 0.247E+04   0.166E-03 -.200E-04 -.247E+04   0.305E-17 -.822E-18 -.458E+00   -.461E-02 -.238E-02 -.304E+00
   0.388E+01 0.224E+01 0.809E+03   -.340E+01 -.196E+01 -.808E+03   -.315E+00 -.182E+00 -.778E+00   -.941E-01 -.544E-01 0.190E+00
   0.143E-04 0.324E+01 0.812E+03   0.148E-03 -.329E+01 -.812E+03   0.129E-08 0.193E-01 -.313E+00   0.364E-02 -.290E-01 0.266E+00
   -.388E+01 0.224E+01 0.809E+03   0.340E+01 -.196E+01 -.808E+03   0.315E+00 -.182E+00 -.778E+00   0.930E-01 -.533E-01 0.188E+00
   0.280E+01 -.162E+01 0.812E+03   -.285E+01 0.164E+01 -.812E+03   0.167E-01 -.967E-02 -.313E+00   -.230E-01 0.179E-01 0.266E+00
   -.280E+01 -.162E+01 0.812E+03   0.285E+01 0.164E+01 -.812E+03   -.167E-01 -.967E-02 -.313E+00   0.304E-01 0.174E-01 0.265E+00
   0.316E-04 0.294E+01 0.810E+03   0.236E-03 -.303E+01 -.810E+03   0.171E-08 0.256E-01 -.463E+00   -.208E-02 0.234E-01 0.245E+00
   -.213E-04 -.448E+01 0.809E+03   0.162E-03 0.393E+01 -.808E+03   0.242E-07 0.364E+00 -.778E+00   0.373E-04 0.107E+00 0.188E+00
   0.255E+01 -.147E+01 0.810E+03   -.262E+01 0.151E+01 -.810E+03   0.222E-01 -.128E-01 -.463E+00   0.195E-01 -.131E-01 0.245E+00
   -.255E+01 -.147E+01 0.810E+03   0.262E+01 0.151E+01 -.810E+03   -.222E-01 -.128E-01 -.463E+00   -.195E-01 -.115E-01 0.245E+00
   -.407E-04 0.872E+00 -.881E+03   0.544E-04 -.101E+01 0.879E+03   0.908E-09 0.136E-01 0.431E+00   0.346E-02 0.115E+00 0.779E+00
   0.282E+01 0.163E+01 -.862E+03   -.232E+01 -.134E+01 0.862E+03   -.739E+00 -.426E+00 -.810E+00   0.225E+00 0.130E+00 0.121E+01
   -.282E+01 0.163E+01 -.862E+03   0.232E+01 -.134E+01 0.862E+03   0.739E+00 -.426E+00 -.810E+00   -.225E+00 0.131E+00 0.121E+01
   -.712E+01 0.411E+01 -.872E+03   0.662E+01 -.382E+01 0.871E+03   0.398E+00 -.230E+00 0.579E+00   0.105E+00 -.620E-01 0.849E+00
   -.108E-04 -.326E+01 -.862E+03   0.141E-03 0.268E+01 0.862E+03   0.568E-07 0.853E+00 -.810E+00   0.236E-03 -.261E+00 0.121E+01
   0.712E+01 0.411E+01 -.872E+03   -.662E+01 -.382E+01 0.871E+03   -.398E+00 -.230E+00 0.579E+00   -.105E+00 -.607E-01 0.849E+00
   -.756E+00 -.436E+00 -.881E+03   0.873E+00 0.504E+00 0.879E+03   -.118E-01 -.682E-02 0.431E+00   -.942E-01 -.544E-01 0.779E+00
   0.755E+00 -.436E+00 -.881E+03   -.873E+00 0.504E+00 0.879E+03   0.118E-01 -.682E-02 0.431E+00   0.101E+00 -.543E-01 0.779E+00
   0.820E-05 -.822E+01 -.872E+03   0.200E-03 0.765E+01 0.871E+03   0.306E-07 0.460E+00 0.579E+00   -.175E-02 0.122E+00 0.849E+00
   -.859E-05 -.106E-04 -.249E+04   0.267E-04 0.308E-04 0.249E+04   -.225E-16 0.970E-18 0.526E+00   0.284E-03 0.148E-03 0.570E+00
   -.350E+01 -.681E+01 -.249E+04   0.397E+01 0.740E+01 0.249E+04   -.693E+00 -.996E+00 0.123E+00   0.226E+00 0.409E+00 0.516E+00
   0.350E+01 -.681E+01 -.249E+04   -.397E+01 0.740E+01 0.249E+04   0.693E+00 -.996E+00 0.123E+00   -.226E+00 0.411E+00 0.516E+00
   -.765E+01 0.375E+00 -.249E+04   0.839E+01 -.264E+00 0.249E+04   -.121E+01 -.102E+00 0.123E+00   0.467E+00 -.903E-02 0.516E+00
   0.765E+01 0.375E+00 -.249E+04   -.839E+01 -.264E+00 0.249E+04   0.121E+01 -.102E+00 0.123E+00   -.468E+00 -.784E-02 0.516E+00
   -.415E+01 0.644E+01 -.249E+04   0.443E+01 -.714E+01 0.249E+04   -.517E+00 0.110E+01 0.123E+00   0.243E+00 -.401E+00 0.516E+00
   0.415E+01 0.644E+01 -.249E+04   -.443E+01 -.714E+01 0.249E+04   0.517E+00 0.110E+01 0.123E+00   -.241E+00 -.401E+00 0.516E+00
   0.314E-04 -.326E-04 -.250E+04   0.146E-03 -.460E-04 0.250E+04   0.332E-17 0.812E-19 0.663E+00   -.456E-02 -.233E-02 0.475E+00
   -.241E-04 -.561E-05 -.176E+04   0.824E-04 0.740E-05 0.175E+04   -.962E-18 0.533E-18 0.384E+01   0.160E-02 0.976E-03 0.552E+00
   -.792E-03 -.774E-03 -.105E+02   0.326E-13 -.346E-13 0.111E-10   -.331E-15 0.615E-18 -.147E+01   0.142E-01 0.880E-02 0.123E+02

 POSITION                                       TOTAL-FORCE (eV/Angst)
      0.00000      0.00000      5.28038        -0.000000     -0.000000     -0.080280
      2.93784      0.00000      5.28038        -0.001940      0.009801     -0.076781
      5.87568      0.00000      5.28038         0.001940      0.009801     -0.076781
      1.46892      2.54424      5.28038         0.007518     -0.006580     -0.076781
      4.40676      2.54424      5.28038        -0.000000      0.000000     -0.111690
      7.34459      2.54424      5.28038        -0.007518     -0.006580     -0.076781
      2.93784      5.08848      5.28038         0.009457     -0.003221     -0.076781
      5.87568      5.08848      5.28038        -0.009457     -0.003221     -0.076781
      8.81351      5.08848      5.28038        -0.000000     -0.000000     -0.091603
      1.46892      0.84808      7.67911         0.063965      0.036930      0.138827
      4.40676      0.84808      7.67911        -0.000000     -0.060709      0.018117
      7.34459      0.84808      7.67911        -0.063965      0.036930      0.138827
      2.93784      3.39232      7.67911        -0.052576      0.030355      0.018117
      5.87568      3.39232      7.67911         0.052576      0.030355      0.018117
      8.81351      3.39232      7.67911        -0.000000     -0.033476      0.110935
      4.40676      5.93656      7.67911        -0.000000     -0.073861      0.138827
      7.34459      5.93656      7.67911        -0.028991      0.016738      0.110935
     10.28243      5.93656      7.67911         0.028991      0.016738      0.110935
      8.81351      1.69681     10.07567        -0.000000     -0.009157     -0.019407
      2.94232      1.69875     10.04120        -0.009799     -0.005657     -0.022771
      5.87120      1.69875     10.04120         0.009799     -0.005657     -0.022771
     10.26751      4.24902     10.06295         0.006498     -0.003752     -0.026007
      4.40676      4.23523     10.04120         0.000000      0.011315     -0.022771
      7.35952      4.24902     10.06295        -0.006498     -0.003752     -0.026007
     11.75079      6.78432     10.07567         0.007930      0.004578     -0.019407
      5.87624      6.78432     10.07567        -0.007930      0.004578     -0.019407
      8.81351      6.76742     10.06295         0.000000      0.007503     -0.026007
      0.00000      0.00000     12.49459        -0.000000     -0.000000     -0.000929
      2.96623      0.05046     12.47837         0.001763      0.001315      0.013619
      5.84728      0.05046     12.47837        -0.001763      0.001315      0.013619
      1.52682      2.54360     12.47837         0.002020      0.000869      0.013619
      7.28669      2.54360     12.47837        -0.002020      0.000869      0.013619
      2.96734      5.03866     12.47837         0.000257     -0.002184      0.013619
      5.84617      5.03866     12.47837        -0.000257     -0.002184      0.013619
      8.81351      5.08848     12.49555        -0.000000     -0.000000      0.015978
      4.40676      2.54424     12.24198        -0.000000     -0.000000      0.048412
    total drift:                                0.013427      0.008023      0.360995

  FREE ENERGIE OF THE ION-ELECTRON SYSTEM (eV)
  free  energy   TOTEN  =      -113.86586184 eV

  energy  without entropy=     -113.86586184  energy(sigma->0) =     -113.86586184

 stress matrix after NEB project (eV)
    -23.10326     -0.00000      0.00000
     -0.00000    -23.10325      0.00000
      0.00000      0.00000      3.05510
  FORCES: max atom, RMS     0.048412    0.016039
  FORCE total and by dimension    0.096233    0.048412
  Stress total and by dimension   32.815460   23.103256
|           W    W    AA    RRRRR   N    N  II  N    N   GGGG   !!!           |
|           W    W   A  A   R    R  NN   N  II  NN   N  G    G  !!!           |
|           W    W  A    A  R    R  N N  N  II  N N  N  G       !!!           |
|           W WW W  AAAAAA  RRRRR   N  N N  II  N  N N  G  GGG   !            |
|           WW  WW  A    A  R   R   N   NN  II  N   NN  G    G                |
|           W    W  A    A  R    R  N    N  II  N    N   GGGG   !!!           |
|     Tetrahedron method does not include variations of the Fermi             |
|     occupations, so forces and stress will be inaccurate. We suggest        |
|     using a different smearing scheme ISMEAR = 1 or 2 for metals in         |
|     relaxations.                                                            |

 total charge

# of ion       s       p       d       tot
    1        0.545   0.239   8.765   9.549
    2        0.545   0.241   8.764   9.550
    3        0.545   0.241   8.764   9.550
    4        0.545   0.241   8.764   9.550
    5        0.540   0.243   8.762   9.544
    6        0.545   0.241   8.764   9.550
    7        0.545   0.241   8.764   9.550
    8        0.545   0.241   8.764   9.550
    9        0.543   0.239   8.769   9.551
   10        0.524   0.310   8.766   9.599
   11        0.523   0.307   8.781   9.611
   12        0.524   0.310   8.766   9.599
   13        0.523   0.307   8.781   9.611
   14        0.523   0.307   8.781   9.611
   15        0.516   0.308   8.776   9.601
   16        0.524   0.310   8.766   9.599
   17        0.516   0.308   8.776   9.601
   18        0.516   0.308   8.776   9.601
   19        0.516   0.301   8.776   9.594
   20        0.543   0.331   8.749   9.622
   21        0.543   0.331   8.749   9.622
   22        0.508   0.308   8.778   9.594
   23        0.543   0.331   8.749   9.622
   24        0.508   0.308   8.778   9.594
   25        0.516   0.301   8.776   9.594
   26        0.516   0.301   8.776   9.594
   27        0.508   0.308   8.778   9.594
   28        0.538   0.228   8.763   9.529
   29        0.559   0.244   8.744   9.547
   30        0.559   0.244   8.744   9.547
   31        0.559   0.244   8.744   9.547
   32        0.559   0.244   8.744   9.547
   33        0.559   0.244   8.744   9.547
   34        0.559   0.244   8.744   9.547
   35        0.533   0.229   8.766   9.528
   36        0.410   0.341   6.477   7.228
tot         19.119  10.024 313.228 342.372

 BZINTS: Fermi energy:    0.705666;  393.000000 electrons
         Band energy:-0.116372E+04;  BLOECHL correction:   -0.073419