 vasp.6.2.0 18Jan21 (build Jun 12 2021 23:27:24) complex

 executed on             LinuxIFC date 2022.05.27  05:37:35

 INCAR:
   ISMEAR = -5
   SIGMA = 0.1
   ISPIN = 1
   EDIFF = 1.d-5
   EDIFFG = -0.01
   NSW = 0
   NELM = 150
   ENCUT = 500
   ISIF = 2
   IBRION = 2
   LREAL = Auto
   ALGO = Fast
   ICHARG = 11
   LORBIT = 10
   LCHARG = .F.
   LWAVE = .F.

 POTCAR:    PAW_PBE Ag 02Apr2005
 POTCAR:    PAW_PBE Mo 08Apr2002
 POTCAR:    PAW_PBE N 08Apr2002
|           W    W    AA    RRRRR   N    N  II  N    N   GGGG   !!!           |
|           W    W   A  A   R    R  NN   N  II  NN   N  G    G  !!!           |
|           W    W  A    A  R    R  N N  N  II  N N  N  G       !!!           |
|           W WW W  AAAAAA  RRRRR   N  N N  II  N  N N  G  GGG   !            |
|           WW  WW  A    A  R   R   N   NN  II  N   NN  G    G                |
|           W    W  A    A  R    R  N    N  II  N    N   GGGG   !!!           |
|     For optimal performance we recommend to set                             |
|       NCORE = 2 up to number-of-cores-per-socket                            |
|     This setting can greatly improve the performance of VASP for DFT.       |
|     The default, NCORE=1 might be grossly inefficient on modern             |
|     multi-core architectures or massively parallel machines. Do your        |
|     Unfortunately you need to use the default for GW and RPA                |
|     calculations (for HF NCORE is supported but not extensively tested      |
|     yet).                                                                   |

 POTCAR:    PAW_PBE Ag 02Apr2005
   VRHFIN =Ag : s1 d10

   TITEL  = PAW_PBE Ag 02Apr2005
   POMASS =  107.868; ZVAL   =   11.000    mass and valenz
   ENMAX  =  249.844; ENMIN  =  187.383 eV

 POTCAR:    PAW_PBE Mo 08Apr2002
   VRHFIN =Mo: 4p5s4d

[...]

 POTCAR:    PAW_PBE N 08Apr2002
   VRHFIN =N: s2p3

   TITEL  = PAW_PBE N 08Apr2002
   POMASS =   14.001; ZVAL   =    5.000    mass and valenz
   ENMAX  =  400.000; ENMIN  =  300.000 eV

 Optimization of the real space projectors (new method)

 maximal supplied QI-value         = 15.12
 optimisation between [QCUT,QGAM] = [ 11.34, 22.83] = [ 36.00,145.93] Ry
 Optimized for a Real-space Cutoff    1.43 Angstroem

   l    n(q)    QCUT    max X(q) W(low)/X(q) W(high)/X(q)  e(spline)
   2      9    11.338    53.897    0.16E-03    0.20E-03    0.28E-06
   2      9    11.338    52.416    0.16E-03    0.20E-03    0.29E-06
   0     10    11.338   122.045    0.31E-04    0.76E-04    0.15E-06
   0     10    11.338    73.629    0.30E-04    0.72E-04    0.15E-06
   1      9    11.338    15.255    0.20E-03    0.19E-04    0.17E-06
   1      9    11.338     9.562    0.16E-03    0.15E-04    0.14E-06
 Optimization of the real space projectors (new method)

[...]

   l    n(q)    QCUT    max X(q) W(low)/X(q) W(high)/X(q)  e(spline)
   2     10    11.429    80.908    0.27E-03    0.78E-03    0.13E-05
   2     10    11.429    79.000    0.27E-03    0.78E-03    0.13E-05
   0     11    11.429    52.066    0.33E-04    0.97E-04    0.72E-06
   0     11    11.429    24.514    0.27E-04    0.80E-04    0.60E-06
   1     10    11.429    16.033    0.31E-04    0.17E-03    0.36E-06
   1     10    11.429    11.179    0.22E-04    0.13E-03    0.29E-06
 Optimization of the real space projectors (new method)

 maximal supplied QI-value         = 25.13
 optimisation between [QCUT,QGAM] = [ 11.31, 22.87] = [ 35.82,146.48] Ry
 Optimized for a Real-space Cutoff    1.27 Angstroem

   l    n(q)    QCUT    max X(q) W(low)/X(q) W(high)/X(q)  e(spline)
   0      9    11.310    79.467    0.75E-04    0.16E-03    0.36E-06
   0      9    11.310    66.151    0.74E-04    0.16E-03    0.36E-06
   1      8    11.310    17.416    0.35E-03    0.12E-03    0.95E-06
   1      8    11.310    12.382    0.37E-03    0.13E-03    0.98E-06
  PAW_PBE Ag 02Apr2005                  :
  PAW_PBE Mo 08Apr2002                  :
  PAW_PBE N 08Apr2002                   :

 POSCAR: Ag-Mo-N2
  positions in direct lattice
  velocities in cartesian coordinates
 exchange correlation table for  LEXCH =        8
   RHO(1)=    0.500       N(1)  =     2000
   RHO(2)=  100.500       N(2)  =     4000

 VTST: version 3.2, (02/03/18)

 CHAIN: initializing optimizer

 OPT: Using VASP Conjugate-Gradient optimizer
 CHAIN: Read ICHAIN            0

 POSCAR: Ag-Mo-N2
  positions in direct lattice
  velocities in cartesian coordinates

 ion  position               nearest neighbor table
   1  0.000  0.000  0.238-   2 2.93   8 2.93   7 2.93   6 2.93   4 2.93  12 2.93  16 2.93  10 2.93
                             3 2.93
   2  0.333  0.000  0.238-   1 2.93   8 2.93   9 2.93   3 2.93   4 2.93   5 2.93  10 2.93  17 2.93
                            11 2.93
   3  0.667  0.000  0.238-   9 2.93   2 2.93   5 2.93  11 2.93   7 2.93  18 2.93   1 2.93   6 2.93
                            12 2.93
   4  0.000  0.333  0.238-   5 2.93   6 2.93   2 2.93   1 2.93   7 2.93  13 2.93  15 2.93   9 2.93
                            10 2.93
   5  0.333  0.333  0.238-   4 2.93   3 2.93   7 2.93   2 2.93   8 2.93  14 2.93  13 2.93  11 2.93
                             6 2.93
   6  0.667  0.333  0.238-   4 2.93   9 2.93   1 2.93  15 2.93   8 2.93  12 2.93   3 2.93   5 2.93
                            14 2.93
   7  0.000  0.667  0.238-   8 2.93   1 2.93   5 2.93   3 2.93   4 2.93  16 2.93  18 2.93  13 2.93
                             9 2.93
   8  0.333  0.667  0.238-   7 2.93   1 2.93   2 2.93   9 2.93   5 2.93  16 2.93   6 2.93  17 2.93
                            14 2.93
   9  0.667  0.667  0.238-   3 2.93   2 2.93   8 2.93   6 2.93  17 2.93   4 2.93  15 2.93   7 2.93
                            18 2.93
  10  0.111  0.111  0.346-  20 2.90  19 2.93  26 2.93  12 2.93  16 2.93  15 2.93  17 2.93  13 2.93
                            11 2.93   2 2.93   1 2.93   4 2.93
  11  0.444  0.111  0.346-  21 2.90  20 2.90  27 2.93  14 2.93  17 2.93  18 2.93   3 2.93  12 2.93
                            13 2.93  10 2.93   5 2.93   2 2.93
  12  0.778  0.111  0.346-  21 2.90  25 2.93  19 2.93  10 2.93  16 2.93  18 2.93  15 2.93  11 2.93
                             1 2.93  14 2.93   6 2.93   3 2.93
  13  0.111  0.444  0.346-  20 2.90  23 2.90  22 2.93  15 2.93  14 2.93  18 2.93  10 2.93  11 2.93
                            16 2.93   4 2.93   5 2.93   7 2.93
  14  0.444  0.444  0.346-  23 2.90  21 2.90  24 2.93  13 2.93  11 2.93  16 2.93   5 2.93  12 2.93
                            17 2.93   8 2.93  15 2.93   6 2.93
  15  0.778  0.444  0.346-  24 2.92  22 2.92  19 2.92  13 2.93  10 2.93  12 2.93  17 2.93  18 2.93
                             4 2.93   6 2.93   9 2.93  14 2.93
  16  0.111  0.778  0.346-  23 2.90  26 2.93  25 2.93  18 2.93  12 2.93  10 2.93  14 2.93  17 2.93
                            13 2.93   7 2.93   8 2.93   1 2.93
  17  0.444  0.778  0.346-  27 2.92  24 2.92  26 2.92  11 2.93  10 2.93   9 2.93  18 2.93  15 2.93
                            16 2.93   2 2.93  14 2.93   8 2.93
  18  0.778  0.778  0.346-  22 2.92  27 2.92  25 2.92  16 2.93  12 2.93  13 2.93  11 2.93  17 2.93
                            15 2.93   7 2.93   3 2.93   9 2.93
  19  0.889  0.222  0.454-  28 2.92  15 2.92  10 2.93  12 2.93  24 2.93  22 2.93  26 2.93  25 2.93
                            20 2.93  21 2.93  32 2.96  31 2.96
  20  0.222  0.222  0.452-  36 2.79  13 2.90  11 2.90  10 2.90  21 2.93  23 2.93  19 2.93  26 2.93
                            27 2.93  22 2.93  31 2.94  29 2.94
  21  0.555  0.222  0.452-  36 2.79  11 2.90  14 2.90  12 2.90  20 2.93  23 2.93  25 2.93  19 2.93
                            27 2.93  24 2.93  30 2.94  32 2.94
  22  0.888  0.556  0.454-  35 2.91  24 2.92  27 2.92  18 2.92  15 2.92  13 2.93  25 2.93  19 2.93
                            23 2.93  20 2.93  33 2.94  31 2.94
  23  0.222  0.555  0.452-  36 2.79  14 2.90  13 2.90  16 2.90  21 2.93  20 2.93  26 2.93  25 2.93
                            22 2.93  24 2.93  34 2.94  33 2.94
  24  0.556  0.556  0.454-  35 2.91  27 2.92  22 2.92  15 2.92  17 2.92  14 2.93  19 2.93  26 2.93
                            23 2.93  21 2.93  32 2.94  34 2.94
  25  0.889  0.889  0.454-  28 2.92  18 2.92  16 2.93  12 2.93  22 2.93  27 2.93  26 2.93  19 2.93
                            23 2.93  21 2.93  33 2.96  30 2.96
  26  0.222  0.889  0.454-  28 2.92  17 2.92  16 2.93  10 2.93  27 2.93  24 2.93  25 2.93  19 2.93
                            23 2.93  20 2.93  34 2.96  29 2.96
  27  0.556  0.888  0.454-  35 2.91  24 2.92  22 2.92  17 2.92  18 2.92  11 2.93  26 2.93  25 2.93
                            20 2.93  21 2.93  29 2.94  30 2.94
  28  0.000  0.000  0.561-  26 2.92  25 2.92  19 2.92  29 2.95  34 2.95  33 2.95  32 2.95  31 2.95
                            30 2.95
  29  0.333  0.005  0.562-  31 2.88  30 2.89  36 2.89  27 2.94  20 2.94  28 2.95  35 2.96  26 2.96
                            34 3.02
  30  0.662  0.005  0.562-  32 2.88  29 2.89  36 2.89  27 2.94  21 2.94  28 2.95  35 2.96  25 2.96
                            33 3.02
  31  0.005  0.333  0.562-  29 2.88  33 2.89  36 2.89  22 2.94  20 2.94  28 2.95  35 2.96  19 2.96
                            32 3.02
  32  0.662  0.333  0.562-  30 2.88  34 2.89  36 2.89  24 2.94  21 2.94  28 2.95  35 2.96  19 2.96
                            31 3.02
  33  0.005  0.662  0.562-  34 2.88  31 2.89  36 2.89  22 2.94  23 2.94  28 2.95  35 2.96  25 2.96
                            30 3.02
  34  0.333  0.662  0.562-  33 2.88  32 2.89  36 2.89  24 2.94  23 2.94  28 2.95  35 2.96  26 2.96
                            29 3.02
  35  0.667  0.667  0.561-  24 2.91  27 2.91  22 2.91  30 2.96  32 2.96  29 2.96  34 2.96  31 2.96
                            33 2.96
  36  0.333  0.333  0.552-  37 2.19  38 2.19  21 2.79  20 2.79  23 2.79  31 2.89  30 2.89  33 2.89
                            29 2.89  34 2.89  32 2.89
  37  0.266  0.334  0.647-  38 1.18  36 2.19
  38  0.400  0.334  0.647-  37 1.18  36 2.19

  LATTYP: Found a hexagonal cell.
 ALAT       =     8.7913665772
 C/A-ratio  =     2.5227160501

  Lattice vectors:

 A1 = (  -4.3956832886,  -7.6135467898,   0.0000000000)
 A2 = (   8.7913665771,   0.0000000000,   0.0000000000)
 A3 = (   0.0000000000,   0.0000000000,  22.1781215668)

Analysis of symmetry for initial positions (statically):
 Subroutine PRICEL returns:
 Original cell was already a primitive cell.

 Routine SETGRP: Setting up the symmetry group for a
 hexagonal supercell.

 Subroutine GETGRP returns: Found  2 space group operations
 (whereof  2 operations were pure point group operations)
 out of a pool of 24 trial point group operations.

The static configuration has the point symmetry C_1h.

Analysis of symmetry for dynamics (positions and initial velocities):
 Subroutine PRICEL returns:
 Original cell was already a primitive cell.

[...]

The dynamic configuration has the point symmetry C_1h.

Analysis of constrained symmetry for selective dynamics:
 Subroutine PRICEL returns:
 Original cell was already a primitive cell.

 Routine SETGRP: Setting up the symmetry group for a
 hexagonal supercell.

 Subroutine GETGRP returns: Found  2 space group operations
 (whereof  2 operations were pure point group operations)
[...]
     33      -4.5218      2.00000
     34      -4.5036      2.00000
     35      -4.4886      2.00000
     36      -4.4780      2.00000
     37      -4.4476      2.00000
     38      -4.4002      2.00000
     39      -4.3715      2.00000
     40      -4.3698      2.00000
     41      -4.3400      2.00000
     42      -4.3097      2.00000
     43      -4.2951      2.00000
     44      -4.2807      2.00000
     45      -4.2800      2.00000
     46      -4.2681      2.00000
     47      -4.2535      2.00000
     48      -4.1660      2.00000
     49      -4.1439      2.00000
     50      -4.1314      2.00000
     51      -4.1284      2.00000
     52      -4.1278      2.00000
     53      -4.1238      2.00000
     54      -4.1107      2.00000
     55      -4.1032      2.00000
     56      -4.0969      2.00000
     57      -4.0860      2.00000
     58      -4.0173      2.00000
     59      -4.0089      2.00000
     60      -3.9987      2.00000
[...]
    238       6.1179      0.00000
    239       6.2444      0.00000
    240       6.3359      0.00000
    241       6.3875      0.00000
    242       6.4506      0.00000
    243       6.4782      0.00000
    244       7.1776      0.00000
    245       7.2807      0.00000
    246       7.3451      0.00000
    247       7.3658      0.00000
    248       7.3749      0.00000
    249       7.4011      0.00000
    250       7.4745      0.00000
    251       7.6430      0.00000
    252       7.6770      0.00000

 soft charge-density along one line, spin component           1
         0         1         2         3         4         5         6         7         8         9
 total charge-density along one line

------------------------ aborting loop because EDIFF is reached ----------------------------------------

 total charge

# of ion       s       p       d       tot
    1        0.419   0.201   9.178   9.799
    2        0.416   0.204   9.176   9.797
    3        0.416   0.204   9.176   9.797
    4        0.418   0.203   9.177   9.798
    5        0.418   0.202   9.176   9.796
    6        0.418   0.203   9.177   9.798
    7        0.415   0.204   9.178   9.797
    8        0.415   0.204   9.178   9.797
    9        0.413   0.203   9.179   9.794
   10        0.408   0.269   9.164   9.841
   11        0.407   0.268   9.169   9.844
   12        0.408   0.269   9.164   9.841
   13        0.406   0.269   9.169   9.844
   14        0.406   0.269   9.169   9.844
   15        0.403   0.269   9.166   9.837
   16        0.412   0.269   9.161   9.842
   17        0.402   0.269   9.165   9.837
   18        0.402   0.269   9.165   9.837
   19        0.398   0.266   9.167   9.831
   20        0.436   0.303   9.138   9.877
   21        0.436   0.303   9.138   9.877
   22        0.391   0.273   9.167   9.832
   23        0.445   0.297   9.137   9.880
   24        0.391   0.273   9.167   9.832
   25        0.404   0.263   9.169   9.836
   26        0.404   0.263   9.169   9.836
   27        0.393   0.273   9.167   9.833
   28        0.415   0.200   9.176   9.791
   29        0.430   0.218   9.164   9.812
   30        0.430   0.218   9.164   9.812
   31        0.427   0.207   9.171   9.806
   32        0.427   0.207   9.171   9.806
   33        0.430   0.217   9.164   9.811
   34        0.430   0.217   9.164   9.811
   35        0.405   0.204   9.178   9.786
   36        0.388   0.355   4.220   4.963
   37        1.342   2.440   0.000   3.781
   38        1.342   2.440   0.000   3.781
tot         17.571  13.686 325.074 356.330

  FORCE on cell =-STRESS in cart. coord.  units (eV):
  Direction    XX          YY          ZZ          XY          YZ          ZX
  Alpha Z   773.62761   773.62761   773.62761
  Ewald  118941.56609118637.27328************     0.00003    -0.17799     0.00005
  Hartree129080.17637128968.60693************     0.00001     0.07862     0.00001
  E(xc)   -2098.51023 -2099.03695 -2104.61315     0.00004     0.13878    -0.00000
  Local  ************************258893.53282     0.00081     0.33049    -0.00016
  n-local  -365.17751  -351.10749  -359.12509     2.35341     0.41150     0.10719
  augment  3230.16466  3228.72670  3241.54337    -0.00015    -0.12338     0.00003
  Kinetic  5026.61734  5033.91093  5065.49941     1.27148    -0.77332    -0.00107
  Fock        0.00000     0.00000     0.00000     0.00000     0.00000     0.00000
  Total      -7.15634    -7.16318     0.05132    -0.00000    -0.11529    -0.00000
  in kB      -7.72384    -7.73122     0.05539    -0.00000    -0.12443    -0.00000

 VOLUME and BASIS-vectors are now :
  energy-cutoff  :      500.00
  volume of cell :     1484.46
      direct lattice vectors                 reciprocal lattice vectors
     8.791366577  0.000000000  0.000000000     0.113747958 -0.065672414  0.000000000
     4.395683289  7.613546790  0.000000000     0.000000000  0.131344829  0.000000000
     0.000000000  0.000000000 22.178121567     0.000000000  0.000000000  0.045089481

  length of vectors
     8.791366577  8.791366577 22.178121567     0.131344829  0.131344829  0.045089481

 FORCES acting on ions
    electron-ion (+dipol)            ewald-force                    non-local-force                 convergence-correction
   0.459E-04 -.418E-01 0.251E+04   -.953E-04 -.125E-01 -.250E+04   0.283E-12 0.431E-01 -.206E+01   -.827E-04 0.522E-02 -.689E-01
   -.139E+00 0.276E+00 0.251E+04   -.118E+00 -.319E+00 -.250E+04   0.168E+00 0.125E+00 -.156E+01   0.783E-01 -.766E-01 -.233E-01
   0.139E+00 0.276E+00 0.251E+04   0.118E+00 -.319E+00 -.250E+04   -.168E+00 0.125E+00 -.156E+01   -.788E-01 -.747E-01 -.227E-01
   0.377E+00 -.145E+00 0.251E+04   -.325E+00 0.499E-01 -.250E+04   0.498E-01 -.206E-01 -.157E+01   -.785E-01 0.107E+00 0.664E-02
   -.724E-05 -.102E+00 0.251E+04   0.980E-04 -.122E-02 -.250E+04   0.369E-12 0.561E-01 -.138E+01   0.618E-02 0.450E-01 0.749E-01
   -.377E+00 -.145E+00 0.251E+04   0.325E+00 0.498E-01 -.250E+04   -.498E-01 -.206E-01 -.157E+01   0.772E-01 0.108E+00 0.735E-02
   0.117E+00 -.102E+00 0.251E+04   -.206E+00 0.269E+00 -.250E+04   0.143E+00 -.132E+00 -.155E+01   -.583E-01 -.312E-01 -.525E-01
   -.117E+00 -.102E+00 0.251E+04   0.206E+00 0.269E+00 -.250E+04   -.143E+00 -.132E+00 -.155E+01   0.599E-01 -.322E-01 -.525E-01
   0.362E-04 0.100E+00 0.251E+04   0.792E-04 0.137E-01 -.250E+04   -.337E-12 -.513E-01 -.189E+01   -.663E-02 -.582E-01 -.705E-01
   0.265E+01 0.161E+01 0.858E+03   -.227E+01 -.142E+01 -.857E+03   -.425E+00 -.237E+00 -.801E+00   0.429E-01 0.502E-01 0.229E+00
   -.287E-04 0.293E+01 0.859E+03   0.407E-04 -.317E+01 -.859E+03   0.117E-11 0.178E+00 -.215E+00   0.617E-02 -.632E-02 0.250E+00
   -.265E+01 0.161E+01 0.858E+03   0.227E+01 -.142E+01 -.857E+03   0.425E+00 -.237E+00 -.801E+00   -.441E-01 0.509E-01 0.229E+00
   0.239E+01 -.138E+01 0.859E+03   -.265E+01 0.159E+01 -.859E+03   0.224E+00 -.154E+00 -.363E+00   -.103E-01 -.276E-01 0.206E+00
   -.239E+01 -.138E+01 0.859E+03   0.265E+01 0.159E+01 -.859E+03   -.224E+00 -.154E+00 -.363E+00   0.205E-01 -.285E-01 0.205E+00
   0.159E-04 -.391E+00 0.857E+03   -.108E-03 0.174E+00 -.856E+03   0.694E-12 0.106E+00 -.720E+00   -.126E-02 0.836E-01 0.195E+00
   -.810E-05 -.325E+01 0.858E+03   0.206E-04 0.266E+01 -.857E+03   0.400E-11 0.610E+00 -.732E+00   -.950E-04 -.210E-01 0.224E+00
   -.288E+00 0.120E+00 0.856E+03   0.101E+00 -.127E-01 -.856E+03   0.751E-01 -.610E-01 -.697E+00   0.920E-01 -.454E-01 0.204E+00
   0.288E+00 0.120E+00 0.856E+03   -.101E+00 -.126E-01 -.856E+03   -.751E-01 -.610E-01 -.697E+00   -.918E-01 -.438E-01 0.205E+00
   0.399E-04 -.258E+01 -.812E+03   -.127E-03 0.231E+01 0.810E+03   0.126E-11 0.192E+00 0.103E+01   0.111E-02 0.701E-01 0.538E+00
   -.776E+01 -.408E+01 -.804E+03   0.910E+01 0.456E+01 0.804E+03   -.152E+01 -.629E+00 -.107E+01   0.115E+00 0.112E+00 0.727E+00
   0.776E+01 -.408E+01 -.804E+03   -.910E+01 0.456E+01 0.804E+03   0.152E+01 -.629E+00 -.107E+01   -.126E+00 0.112E+00 0.726E+00
   -.426E+01 0.191E+01 -.808E+03   0.398E+01 -.161E+01 0.807E+03   0.317E+00 -.244E+00 0.556E+00   0.195E-01 -.670E-01 0.488E+00
   -.537E-04 0.800E+01 -.804E+03   0.398E-04 -.961E+01 0.805E+03   0.124E-10 0.189E+01 -.142E+01   -.555E-02 -.180E+00 0.682E+00
   0.426E+01 0.191E+01 -.808E+03   -.398E+01 -.161E+01 0.807E+03   -.317E+00 -.244E+00 0.556E+00   -.179E-01 -.664E-01 0.488E+00
   0.250E+01 0.163E+01 -.812E+03   -.238E+01 -.161E+01 0.811E+03   -.913E-01 -.238E-01 0.828E+00   -.223E-01 0.578E-02 0.452E+00
   -.250E+01 0.163E+01 -.812E+03   0.238E+01 -.161E+01 0.811E+03   0.913E-01 -.238E-01 0.828E+00   0.225E-01 0.681E-02 0.453E+00
   0.198E-04 -.499E+01 -.809E+03   0.110E-03 0.460E+01 0.808E+03   0.273E-11 0.416E+00 0.538E+00   -.327E-03 0.385E-01 0.426E+00
   0.537E-04 0.237E+01 -.243E+04   -.116E-03 -.266E+01 0.243E+04   0.967E-12 0.147E+00 0.175E+01   0.371E-03 0.993E-01 0.284E+00
   0.114E+02 0.263E+02 -.241E+04   -.108E+02 -.259E+02 0.241E+04   -.910E+00 -.985E+00 0.163E+01   0.209E+00 0.398E+00 0.336E+00
   -.114E+02 0.263E+02 -.241E+04   0.108E+02 -.259E+02 0.241E+04   0.910E+00 -.985E+00 0.163E+01   -.210E+00 0.398E+00 0.336E+00
   0.333E+02 0.592E+00 -.240E+04   -.328E+02 -.499E+00 0.240E+04   -.113E+01 -.118E+00 0.252E+01   0.395E+00 0.364E-01 0.305E+00
   -.333E+02 0.592E+00 -.240E+04   0.328E+02 -.499E+00 0.240E+04   0.113E+01 -.118E+00 0.252E+01   -.394E+00 0.373E-01 0.305E+00
   0.110E+02 -.272E+02 -.241E+04   -.107E+02 0.266E+02 0.241E+04   -.607E+00 0.115E+01 0.173E+01   0.174E+00 -.417E+00 0.346E+00
   -.110E+02 -.272E+02 -.241E+04   0.107E+02 0.266E+02 0.241E+04   0.607E+00 0.115E+01 0.173E+01   -.173E+00 -.416E+00 0.347E+00
   0.224E-04 -.257E+01 -.244E+04   0.106E-03 0.286E+01 0.243E+04   -.786E-12 -.120E+00 0.197E+01   -.622E-02 -.119E+00 0.332E+00
   -.182E-04 0.361E+00 -.114E+04   0.573E-04 -.444E+00 0.114E+04   -.164E-14 -.250E-03 0.142E+01   0.208E-03 -.359E-02 0.303E+00
   0.202E+03 0.136E+00 -.126E+04   -.242E+03 -.863E-01 0.127E+04   0.395E+02 -.534E-01 -.990E+01   0.130E+00 0.416E-02 -.245E+00
   -.202E+03 0.136E+00 -.126E+04   0.242E+03 -.863E-01 0.127E+04   -.395E+02 -.534E-01 -.990E+01   -.132E+00 0.420E-02 -.245E+00
   0.445E-03 -.758E+00 0.131E+02   -.284E-13 -.722E-13 0.114E-11   0.462E-11 0.703E+00 -.222E+02   -.746E-02 0.581E-01 0.913E+01

 POSITION                                       TOTAL-FORCE (eV/Angst)
      0.00000      0.00000      5.28219        -0.000000     -0.006085     -0.035875
      2.93046      0.00000      5.28219        -0.010724      0.006420      0.041743
      5.86091      0.00000      5.28219         0.010724      0.006420      0.041743
      1.46523      2.53785      5.28219         0.024357     -0.008613      0.022856
      4.39568      2.53785      5.28219        -0.000000     -0.002176     -0.007094
      7.32614      2.53785      5.28219        -0.024357     -0.008613      0.022856
      2.93046      5.07570      5.28219        -0.004763      0.003615      0.038372
      5.86091      5.07570      5.28219         0.004763      0.003615      0.038372
      8.79137      5.07570      5.28219         0.000000      0.004292      0.010951
      1.46523      0.84595      7.67490        -0.005638      0.010125     -0.021126
      4.39568      0.84595      7.67490        -0.000000     -0.065878     -0.057376
      7.32614      0.84595      7.67490         0.005638      0.010125     -0.021126
      2.93046      3.38380      7.67490        -0.048824      0.031871     -0.055088
      5.86091      3.38380      7.67490         0.048824      0.031871     -0.055088
      8.79137      3.38380      7.67490        -0.000000     -0.027578      0.026423
      4.39568      5.92165      7.67490         0.000000      0.003390     -0.025100
      7.32614      5.92165      7.67490        -0.020335      0.002037      0.028941
     10.25659      5.92165      7.67490         0.020335      0.002037      0.028941
      8.79137      1.69286     10.06155        -0.000000     -0.001852      0.025619
      2.93202      1.69280     10.03008        -0.060630     -0.030378     -0.136289
      5.85935      1.69280     10.03008         0.060630     -0.030378     -0.136289
     10.25345      4.23157     10.06207         0.048594     -0.019786      0.010476
      4.39568      4.22795     10.03008         0.000000      0.099263     -0.136686
      7.32929      4.23157     10.06207        -0.048594     -0.019786      0.010476
     11.72099      6.76712     10.06155        -0.002209      0.004075      0.003557
      5.86174      6.76712     10.06155         0.002209      0.004075      0.003557
      8.79137      6.76396     10.06207         0.000000      0.059280      0.011462
      0.00000      0.00000     12.43674        -0.000000     -0.036729      0.002957
      2.95191      0.04038     12.46589        -0.115809     -0.201519     -0.176018
      5.83946      0.04038     12.46589         0.115809     -0.201519     -0.176018
      1.51092      2.53624     12.46589        -0.247643      0.011231     -0.152730
      7.28044      2.53624     12.46589         0.247643      0.011231     -0.152730
      2.95470      5.03693     12.46589        -0.134528      0.198222     -0.195085
      5.83667      5.03693     12.46589         0.134528      0.198222     -0.195085
      8.79137      5.07570     12.43630         0.000000      0.045499      0.016289
      4.39568      2.53785     12.24527        -0.000000     -0.086732      1.357574
      3.80478      2.54364     14.35125         0.028931      0.000355     -0.004180
      4.98659      2.54364     14.35125        -0.028931      0.000355     -0.004180
    total drift:                               -0.007018      0.002602      0.039177

  FREE ENERGIE OF THE ION-ELECTRON SYSTEM (eV)
  free  energy   TOTEN  =      -113.29650746 eV

  energy  without entropy=     -113.29650746  energy(sigma->0) =     -113.29650746

 stress matrix after NEB project (eV)
     -7.15634     -0.00000     -0.00000
     -0.00000     -7.16318     -0.11529
     -0.00000     -0.11529      0.05132
  FORCES: max atom, RMS     0.029233    0.006707
  FORCE total and by dimension    0.041342    0.028931
  Stress total and by dimension   10.126869    7.163176
|           W    W    AA    RRRRR   N    N  II  N    N   GGGG   !!!           |
|           W    W   A  A   R    R  NN   N  II  NN   N  G    G  !!!           |
|           W    W  A    A  R    R  N N  N  II  N N  N  G       !!!           |
|           W WW W  AAAAAA  RRRRR   N  N N  II  N  N N  G  GGG   !            |
|           WW  WW  A    A  R   R   N   NN  II  N   NN  G    G                |
|           W    W  A    A  R    R  N    N  II  N    N   GGGG   !!!           |
|     Tetrahedron method does not include variations of the Fermi             |
|     occupations, so forces and stress will be inaccurate. We suggest        |
|     using a different smearing scheme ISMEAR = 1 or 2 for metals in         |
|     relaxations.                                                            |

 total charge

# of ion       s       p       d       tot
    1        0.419   0.201   9.178   9.799
    2        0.416   0.204   9.176   9.797
    3        0.416   0.204   9.176   9.797
    4        0.418   0.203   9.177   9.798
    5        0.418   0.202   9.176   9.796
    6        0.418   0.203   9.177   9.798
    7        0.415   0.204   9.178   9.797
    8        0.415   0.204   9.178   9.797
    9        0.413   0.203   9.179   9.794
   10        0.408   0.269   9.164   9.841
   11        0.407   0.268   9.169   9.844
   12        0.408   0.269   9.164   9.841
   13        0.406   0.269   9.169   9.844
   14        0.406   0.269   9.169   9.844
   15        0.403   0.269   9.166   9.837
   16        0.412   0.269   9.161   9.842
   17        0.402   0.269   9.165   9.837
   18        0.402   0.269   9.165   9.837
   19        0.398   0.266   9.167   9.831
   20        0.436   0.303   9.138   9.877
   21        0.436   0.303   9.138   9.877
   22        0.391   0.273   9.167   9.832
   23        0.445   0.297   9.137   9.880
   24        0.391   0.273   9.167   9.832
   25        0.404   0.263   9.169   9.836
   26        0.404   0.263   9.169   9.836
   27        0.393   0.273   9.167   9.833
   28        0.415   0.200   9.176   9.791
   29        0.430   0.218   9.164   9.812
   30        0.430   0.218   9.164   9.812
   31        0.427   0.207   9.171   9.806
   32        0.427   0.207   9.171   9.806
   33        0.430   0.217   9.164   9.811
   34        0.430   0.217   9.164   9.811
   35        0.405   0.204   9.178   9.786
   36        0.388   0.355   4.220   4.963
   37        1.342   2.440   0.000   3.781
   38        1.342   2.440   0.000   3.781
tot         17.571  13.686 325.074 356.330

 BZINTS: Fermi energy:    0.852286;  401.000000 electrons
         Band energy:-0.134267E+04;  BLOECHL correction:   -0.024319