 vasp.6.2.0 18Jan21 (build Jun 12 2021 23:27:24) complex

 executed on             LinuxIFC date 2022.05.30  16:50:51

 INCAR:
   ISMEAR = -5
   SIGMA = 0.1
   ISPIN = 1
   EDIFF = 1.d-5
   EDIFFG = -0.01
   NSW = 0
   NELM = 150
   ENCUT = 500
   ISIF = 2
   IBRION = 2
   LREAL = Auto
   ALGO = Fast
   ICHARG = 11
   LORBIT = 10
   LCHARG = .F.
   LWAVE = .F.

 POTCAR:    PAW_PBE Ag 02Apr2005
 POTCAR:    PAW_PBE V 08Apr2002
 POTCAR:    PAW_PBE C 08Apr2002
|           W    W    AA    RRRRR   N    N  II  N    N   GGGG   !!!           |
|           W    W   A  A   R    R  NN   N  II  NN   N  G    G  !!!           |
|           W    W  A    A  R    R  N N  N  II  N N  N  G       !!!           |
|           W WW W  AAAAAA  RRRRR   N  N N  II  N  N N  G  GGG   !            |
|           WW  WW  A    A  R   R   N   NN  II  N   NN  G    G                |
|           W    W  A    A  R    R  N    N  II  N    N   GGGG   !!!           |
|     For optimal performance we recommend to set                             |
|       NCORE = 2 up to number-of-cores-per-socket                            |
|     This setting can greatly improve the performance of VASP for DFT.       |
|     The default, NCORE=1 might be grossly inefficient on modern             |
|     multi-core architectures or massively parallel machines. Do your        |
|     Unfortunately you need to use the default for GW and RPA                |
|     calculations (for HF NCORE is supported but not extensively tested      |
|     yet).                                                                   |

 POTCAR:    PAW_PBE Ag 02Apr2005
   VRHFIN =Ag : s1 d10

   TITEL  = PAW_PBE Ag 02Apr2005
   POMASS =  107.868; ZVAL   =   11.000    mass and valenz
   ENMAX  =  249.844; ENMIN  =  187.383 eV

 POTCAR:    PAW_PBE V 08Apr2002
   VRHFIN =V: p6 d4 s1

[...]

 POTCAR:    PAW_PBE C 08Apr2002
   VRHFIN =C: s2p2

   TITEL  = PAW_PBE C 08Apr2002
   POMASS =   12.011; ZVAL   =    4.000    mass and valenz
   ENMAX  =  400.000; ENMIN  =  300.000 eV

 Optimization of the real space projectors (new method)

 maximal supplied QI-value         = 15.12
 optimisation between [QCUT,QGAM] = [ 11.34, 22.83] = [ 36.00,145.93] Ry
 Optimized for a Real-space Cutoff    1.43 Angstroem

   l    n(q)    QCUT    max X(q) W(low)/X(q) W(high)/X(q)  e(spline)
   2      9    11.338    53.897    0.16E-03    0.20E-03    0.28E-06
   2      9    11.338    52.416    0.16E-03    0.20E-03    0.29E-06
   0     10    11.338   122.045    0.31E-04    0.76E-04    0.15E-06
   0     10    11.338    73.629    0.30E-04    0.72E-04    0.15E-06
   1      9    11.338    15.255    0.20E-03    0.19E-04    0.17E-06
   1      9    11.338     9.562    0.16E-03    0.15E-04    0.14E-06
 Optimization of the real space projectors (new method)

[...]

   l    n(q)    QCUT    max X(q) W(low)/X(q) W(high)/X(q)  e(spline)
   2     10    11.327    96.114    0.36E-03    0.35E-03    0.42E-06
   2     10    11.327    88.986    0.37E-03    0.35E-03    0.42E-06
   0     11    11.327    20.919    0.40E-04    0.56E-04    0.79E-06
   0     11    11.327     9.593    0.30E-04    0.41E-04    0.60E-06
   1     10    11.327    11.615    0.15E-03    0.10E-03    0.19E-06
   1     10    11.327     7.031    0.11E-03    0.73E-04    0.14E-06
 Optimization of the real space projectors (new method)

 maximal supplied QI-value         = 25.13
 optimisation between [QCUT,QGAM] = [ 11.31, 22.87] = [ 35.82,146.48] Ry
 Optimized for a Real-space Cutoff    1.00 Angstroem

   l    n(q)    QCUT    max X(q) W(low)/X(q) W(high)/X(q)  e(spline)
   0      7    11.310   115.676    0.43E-03    0.13E-02    0.19E-06
   0      7    11.310    87.132    0.43E-03    0.13E-02    0.18E-06
   1      6    11.310     4.429    0.42E-03    0.74E-03    0.11E-06
   1      6    11.310     2.733    0.34E-03    0.55E-03    0.92E-07
  PAW_PBE Ag 02Apr2005                  :
  PAW_PBE V 08Apr2002                   :
  PAW_PBE C 08Apr2002                   :

 POSCAR: Ag-V-C
  positions in direct lattice
  velocities in cartesian coordinates
 exchange correlation table for  LEXCH =        8
   RHO(1)=    0.500       N(1)  =     2000
   RHO(2)=  100.500       N(2)  =     4000

 VTST: version 3.2, (02/03/18)

 CHAIN: initializing optimizer

 OPT: Using VASP Conjugate-Gradient optimizer
 CHAIN: Read ICHAIN            0

 POSCAR: Ag-V-C
  positions in direct lattice
  velocities in cartesian coordinates

 ion  position               nearest neighbor table
   1  0.000  0.000  0.217-   2 2.93   8 2.93   7 2.93   6 2.93   4 2.93  12 2.93  16 2.93  10 2.93
                             3 2.93
   2  0.333  0.000  0.217-   1 2.93   8 2.93   9 2.93   3 2.93   4 2.93   5 2.93  10 2.93  17 2.93
                            11 2.93
   3  0.667  0.000  0.217-   9 2.93   2 2.93   5 2.93  11 2.93   7 2.93  18 2.93   1 2.93   6 2.93
                            12 2.93
   4  0.000  0.333  0.217-   5 2.93   6 2.93   2 2.93   1 2.93   7 2.93  13 2.93  15 2.93   9 2.93
                            10 2.93
   5  0.333  0.333  0.217-   4 2.93   3 2.93   7 2.93   2 2.93   8 2.93  14 2.93  13 2.93  11 2.93
                             6 2.93
   6  0.667  0.333  0.217-   4 2.93   9 2.93   1 2.93  15 2.93   8 2.93  12 2.93   3 2.93   5 2.93
                            14 2.93
   7  0.000  0.667  0.217-   8 2.93   1 2.93   5 2.93   3 2.93   4 2.93  16 2.93  18 2.93  13 2.93
                             9 2.93
   8  0.333  0.667  0.217-   7 2.93   1 2.93   2 2.93   9 2.93   5 2.93  16 2.93   6 2.93  17 2.93
                            14 2.93
   9  0.667  0.667  0.217-   3 2.93   2 2.93   8 2.93   6 2.93  17 2.93   4 2.93  15 2.93   7 2.93
                            18 2.93
  10  0.111  0.111  0.315-  20 2.91  19 2.92  26 2.92  12 2.93  16 2.93  15 2.93  17 2.93  13 2.93
                            11 2.93   2 2.93   1 2.93   4 2.93
  11  0.444  0.111  0.315-  21 2.90  20 2.90  27 2.92  14 2.93  17 2.93  18 2.93   3 2.93  12 2.93
                            13 2.93  10 2.93   5 2.93   2 2.93
  12  0.778  0.111  0.315-  21 2.91  25 2.92  19 2.92  10 2.93  16 2.93  18 2.93  15 2.93  11 2.93
                             1 2.93  14 2.93   6 2.93   3 2.93
  13  0.111  0.444  0.315-  20 2.90  23 2.90  22 2.92  15 2.93  14 2.93  18 2.93  10 2.93  11 2.93
                            16 2.93   4 2.93   5 2.93   7 2.93
  14  0.444  0.444  0.315-  23 2.90  21 2.90  24 2.92  13 2.93  11 2.93  16 2.93   5 2.93  12 2.93
                            17 2.93   8 2.93  15 2.93   6 2.93
  15  0.778  0.444  0.315-  24 2.92  22 2.92  19 2.92  13 2.93  10 2.93  12 2.93  17 2.93  18 2.93
                             4 2.93   6 2.93   9 2.93  14 2.93
  16  0.111  0.778  0.315-  23 2.91  26 2.92  25 2.92  18 2.93  12 2.93  10 2.93  14 2.93  17 2.93
                            13 2.93   7 2.93   8 2.93   1 2.93
  17  0.444  0.778  0.315-  27 2.92  24 2.92  26 2.92  11 2.93  10 2.93   9 2.93  18 2.93  15 2.93
                            16 2.93   2 2.93  14 2.93   8 2.93
  18  0.778  0.778  0.315-  22 2.92  27 2.92  25 2.92  16 2.93  12 2.93  13 2.93  11 2.93  17 2.93
                            15 2.93   7 2.93   3 2.93   9 2.93
  19  0.889  0.222  0.413-  28 2.91  15 2.92  10 2.92  12 2.92  24 2.93  22 2.93  26 2.93  25 2.93
                            20 2.94  21 2.94  32 2.96  31 2.96
  20  0.223  0.223  0.412-  36 2.75  13 2.90  11 2.90  10 2.91  21 2.92  23 2.92  31 2.92  29 2.92
                            27 2.93  22 2.93  19 2.94  26 2.94
  21  0.555  0.223  0.412-  36 2.75  11 2.90  14 2.90  12 2.91  20 2.92  23 2.92  30 2.92  32 2.92
                            27 2.93  24 2.93  25 2.94  19 2.94
  22  0.889  0.556  0.413-  18 2.92  15 2.92  35 2.92  13 2.92  24 2.93  27 2.93  25 2.93  19 2.93
                            23 2.93  20 2.93  33 2.94  31 2.94
  23  0.223  0.555  0.412-  36 2.75  14 2.90  13 2.90  16 2.91  21 2.92  20 2.92  34 2.92  33 2.92
                            22 2.93  24 2.93  26 2.94  25 2.94
  24  0.556  0.556  0.413-  15 2.92  17 2.92  35 2.92  14 2.92  27 2.93  22 2.93  19 2.93  26 2.93
                            23 2.93  21 2.93  32 2.94  34 2.94
  25  0.889  0.889  0.413-  28 2.91  18 2.92  16 2.92  12 2.92  22 2.93  27 2.93  26 2.93  19 2.93
                            23 2.94  21 2.94  33 2.96  30 2.96
  26  0.222  0.889  0.413-  28 2.91  17 2.92  16 2.92  10 2.92  27 2.93  24 2.93  25 2.93  19 2.93
                            23 2.94  20 2.94  34 2.96  29 2.96
  27  0.556  0.889  0.413-  17 2.92  18 2.92  35 2.92  11 2.92  24 2.93  22 2.93  26 2.93  25 2.93
                            20 2.93  21 2.93  29 2.94  30 2.94
  28  0.000  0.000  0.510-  26 2.91  25 2.91  19 2.91  29 2.96  34 2.96  33 2.96  32 2.96  31 2.96
                            30 2.96
  29  0.334  0.006  0.511-  30 2.87  31 2.88  36 2.89  20 2.92  27 2.94  35 2.96  28 2.96  26 2.96
                            34 3.04
  30  0.660  0.006  0.511-  29 2.87  32 2.88  36 2.89  21 2.92  27 2.94  35 2.96  28 2.96  25 2.96
                            33 3.04
  31  0.006  0.334  0.511-  33 2.87  29 2.88  36 2.89  20 2.92  22 2.94  35 2.96  28 2.96  19 2.96
                            32 3.04
  32  0.660  0.334  0.511-  34 2.87  30 2.88  36 2.89  21 2.92  24 2.94  35 2.96  28 2.96  19 2.96
                            31 3.04
  33  0.006  0.660  0.511-  31 2.87  34 2.88  36 2.89  23 2.92  22 2.94  35 2.96  28 2.96  25 2.96
                            30 3.04
  34  0.334  0.660  0.511-  32 2.87  33 2.88  36 2.89  23 2.92  24 2.94  35 2.96  28 2.96  26 2.96
                            29 3.04
  35  0.667  0.667  0.510-  24 2.92  27 2.92  22 2.92  30 2.96  32 2.96  29 2.96  34 2.96  31 2.96
                            33 2.96
  36  0.333  0.333  0.501-  37 1.68  21 2.75  20 2.75  23 2.75  31 2.89  33 2.89  30 2.89  29 2.89
                            34 2.89  32 2.89
  37  0.333  0.333  0.571-  36 1.68

  LATTYP: Found a hexagonal cell.
 ALAT       =     8.7913665772
 C/A-ratio  =     2.7711238095

  Lattice vectors:

 A1 = (  -4.3956832886,  -7.6135467898,   0.0000000000)
 A2 = (   8.7913665771,   0.0000000000,   0.0000000000)
 A3 = (   0.0000000000,   0.0000000000,  24.3619652401)

Analysis of symmetry for initial positions (statically):
 Subroutine PRICEL returns:
 Original cell was already a primitive cell.

 Routine SETGRP: Setting up the symmetry group for a
 hexagonal supercell.

 Subroutine GETGRP returns: Found  6 space group operations
 (whereof  6 operations were pure point group operations)
 out of a pool of 24 trial point group operations.

The static configuration has the point symmetry C_3v.

Analysis of symmetry for dynamics (positions and initial velocities):
 Subroutine PRICEL returns:
 Original cell was already a primitive cell.

[...]

The dynamic configuration has the point symmetry C_3v.

Analysis of constrained symmetry for selective dynamics:
 Subroutine PRICEL returns:
 Original cell was already a primitive cell.

 Routine SETGRP: Setting up the symmetry group for a
 hexagonal supercell.

 Subroutine GETGRP returns: Found  6 space group operations
 (whereof  6 operations were pure point group operations)
 out of a pool of 24 trial point group operations.

[...]
     24      -5.2463      2.00000
     25      -5.2231      2.00000
     26      -5.2067      2.00000
     27      -5.1923      2.00000
     28      -5.1750      2.00000
     29      -5.1716      2.00000
     30      -5.1481      2.00000
     31      -5.1367      2.00000
     32      -5.1344      2.00000
     33      -5.1045      2.00000
     34      -5.0491      2.00000
     35      -5.0408      2.00000
     36      -5.0086      2.00000
     37      -5.0052      2.00000
     38      -4.9767      2.00000
     39      -4.9462      2.00000
     40      -4.9374      2.00000
     41      -4.9320      2.00000
     42      -4.9236      2.00000
     43      -4.9108      2.00000
     44      -4.8211      2.00000
     45      -4.7949      2.00000
     46      -4.7845      2.00000
     47      -4.7785      2.00000
     48      -4.7777      2.00000
     49      -4.7722      2.00000
     50      -4.7565      2.00000
     51      -4.7510      2.00000
     52      -4.7448      2.00000
     53      -4.7294      2.00000
     54      -4.6688      2.00000
     55      -4.6604      2.00000
     56      -4.6520      2.00000
     57      -4.6429      2.00000
     58      -4.6283      2.00000
     59      -4.6137      2.00000
     60      -4.5798      2.00000
[...]
    238       5.7813      0.00000
    239       5.8594      0.00000
    240       5.9874      0.00000
    241       6.4209      0.00000
    242       6.4385      0.00000
    243       6.6048      0.00000
    244       6.6144      0.00000
    245       6.6335      0.00000
    246       6.6721      0.00000
    247       6.7228      0.00000
    248       6.8219      0.00000
    249       6.9215      0.00000
    250       7.0151      0.00000
    251       7.1023      0.00000
    252       7.1790      0.00000

 soft charge-density along one line, spin component           1
         0         1         2         3         4         5         6         7         8         9
 total charge-density along one line

------------------------ aborting loop because EDIFF is reached ----------------------------------------

 total charge

# of ion       s       p       d       tot
    1        0.414   0.205   9.177   9.796
    2        0.416   0.203   9.177   9.797
    3        0.416   0.203   9.177   9.797
    4        0.416   0.203   9.177   9.797
    5        0.419   0.201   9.178   9.798
    6        0.416   0.203   9.177   9.797
    7        0.416   0.203   9.177   9.797
    8        0.416   0.203   9.177   9.797
    9        0.414   0.204   9.177   9.795
   10        0.406   0.272   9.163   9.841
   11        0.407   0.269   9.166   9.843
   12        0.406   0.272   9.163   9.841
   13        0.407   0.269   9.166   9.843
   14        0.407   0.269   9.166   9.843
   15        0.403   0.271   9.163   9.838
   16        0.406   0.272   9.163   9.841
   17        0.403   0.271   9.163   9.838
   18        0.403   0.271   9.163   9.838
   19        0.400   0.266   9.168   9.834
   20        0.424   0.294   9.147   9.865
   21        0.424   0.294   9.147   9.865
   22        0.395   0.276   9.164   9.835
   23        0.424   0.294   9.147   9.865
   24        0.395   0.276   9.164   9.835
   25        0.400   0.266   9.168   9.834
   26        0.400   0.266   9.168   9.834
   27        0.395   0.276   9.164   9.835
   28        0.412   0.197   9.179   9.788
   29        0.420   0.208   9.168   9.795
   30        0.420   0.208   9.168   9.795
   31        0.420   0.208   9.168   9.795
   32        0.420   0.208   9.168   9.795
   33        0.420   0.208   9.168   9.795
   34        0.420   0.208   9.168   9.795
   35        0.415   0.197   9.177   9.789
   36        0.495   0.582   3.802   4.878
   37        0.996   1.240   0.000   2.236
tot         15.893  10.234 324.670 350.797

  FORCE on cell =-STRESS in cart. coord.  units (eV):
  Direction    XX          YY          ZZ          XY          YZ          ZX
  Alpha Z   673.86955   673.86955   673.86955
  Ewald  151316.96343151316.96337************     0.00000    -0.00001     0.00001
  Hartree161112.13230161112.13227************     0.00000    -0.00000     0.00000
  E(xc)   -2063.73123 -2063.73122 -2072.66024    -0.00001     0.00000     0.00000
  Local  ************************323729.28153     0.00029    -0.00003    -0.00009
  n-local  -324.95000  -310.18821  -324.20221     9.12147    -0.42304     0.45773
  augment  3237.39313  3237.39329  3253.44860    -0.00014    -0.00000     0.00003
  Kinetic  4853.21087  4855.57198  4885.38717     3.77802     0.78490    -0.25341
  Fock        0.00000     0.00000     0.00000     0.00000     0.00000     0.00000
  Total      -8.70064    -8.70064    -0.39533    -0.00000    -0.00000     0.00000
  in kB      -8.54882    -8.54882    -0.38843    -0.00000    -0.00000     0.00000

 VOLUME and BASIS-vectors are now :
  energy-cutoff  :      500.00
  volume of cell :     1630.63
      direct lattice vectors                 reciprocal lattice vectors
     8.791366577  0.000000000  0.000000000     0.113747958 -0.065672414  0.000000000
     4.395683289  7.613546790  0.000000000     0.000000000  0.131344829  0.000000000
     0.000000000  0.000000000 24.361965240     0.000000000  0.000000000  0.041047592

  length of vectors
     8.791366577  8.791366577 24.361965240     0.131344829  0.131344829  0.041047592

 FORCES acting on ions
    electron-ion (+dipol)            ewald-force                    non-local-force                 convergence-correction
   0.464E-04 -.280E-04 0.266E+04   -.953E-04 0.593E-04 -.266E+04   -.238E-17 -.190E-17 -.197E+01   -.141E-03 -.188E-03 -.126E+00
   -.218E+00 -.576E-02 0.266E+04   -.286E-01 0.402E-02 -.266E+04   0.789E-01 0.406E-01 -.165E+01   0.157E+00 -.400E-01 -.677E-01
   0.218E+00 -.577E-02 0.266E+04   0.287E-01 0.404E-02 -.266E+04   -.789E-01 0.406E-01 -.165E+01   -.158E+00 -.382E-01 -.669E-01
   -.114E+00 -.186E+00 0.266E+04   -.109E-01 -.267E-01 -.266E+04   0.746E-01 0.481E-01 -.165E+01   0.441E-01 0.156E+00 -.677E-01
   -.706E-05 -.195E-04 0.266E+04   0.981E-04 -.200E-05 -.266E+04   -.261E-17 -.545E-18 -.154E+01   0.622E-02 0.380E-02 0.530E-01
   0.114E+00 -.186E+00 0.266E+04   0.108E-01 -.268E-01 -.266E+04   -.746E-01 0.481E-01 -.165E+01   -.455E-01 0.157E+00 -.669E-01
   0.104E+00 0.192E+00 0.266E+04   0.177E-01 0.228E-01 -.266E+04   -.433E-02 -.886E-01 -.165E+01   -.111E+00 -.117E+00 -.669E-01
   -.104E+00 0.192E+00 0.266E+04   -.177E-01 0.227E-01 -.266E+04   0.433E-02 -.886E-01 -.165E+01   0.113E+00 -.118E+00 -.669E-01
   0.364E-04 -.131E-04 0.266E+04   0.792E-04 -.642E-04 -.266E+04   -.249E-17 0.732E-18 -.183E+01   -.661E-02 -.340E-02 -.515E-01
   0.447E+00 0.258E+00 0.873E+03   -.380E+00 -.219E+00 -.873E+03   -.191E+00 -.110E+00 -.616E+00   0.116E+00 0.668E-01 0.370E+00
   -.285E-04 0.176E+00 0.873E+03   0.409E-04 -.338E+00 -.873E+03   0.378E-12 0.575E-01 -.629E+00   0.653E-02 0.828E-01 0.376E+00
   -.447E+00 0.258E+00 0.873E+03   0.380E+00 -.219E+00 -.873E+03   0.191E+00 -.110E+00 -.616E+00   -.117E+00 0.675E-01 0.370E+00
   0.152E+00 -.880E-01 0.873E+03   -.293E+00 0.169E+00 -.873E+03   0.498E-01 -.288E-01 -.629E+00   0.749E-01 -.357E-01 0.376E+00
   -.152E+00 -.880E-01 0.873E+03   0.293E+00 0.169E+00 -.873E+03   -.498E-01 -.288E-01 -.629E+00   -.644E-01 -.369E-01 0.375E+00
   0.157E-04 0.546E+00 0.874E+03   -.108E-03 -.657E+00 -.873E+03   0.267E-12 0.407E-01 -.669E+00   -.147E-02 0.637E-01 0.279E+00
   -.788E-05 -.516E+00 0.873E+03   0.206E-04 0.439E+00 -.873E+03   0.145E-11 0.221E+00 -.616E+00   -.196E-03 -.135E+00 0.370E+00
   0.472E+00 -.273E+00 0.874E+03   -.569E+00 0.329E+00 -.873E+03   0.353E-01 -.204E-01 -.669E+00   0.544E-01 -.331E-01 0.279E+00
   -.473E+00 -.273E+00 0.874E+03   0.569E+00 0.329E+00 -.873E+03   -.353E-01 -.204E-01 -.669E+00   -.539E-01 -.312E-01 0.280E+00
   0.387E-04 -.378E+01 -.925E+03   -.126E-03 0.359E+01 0.924E+03   0.935E-12 0.142E+00 0.937E+00   -.501E-02 0.605E-01 0.435E+00
   -.176E+02 -.101E+02 -.937E+03   0.177E+02 0.102E+02 0.937E+03   -.546E+00 -.315E+00 -.521E+00   0.253E+00 0.146E+00 0.625E+00
   0.176E+02 -.101E+02 -.937E+03   -.177E+02 0.102E+02 0.937E+03   0.546E+00 -.315E+00 -.521E+00   -.262E+00 0.145E+00 0.625E+00
   -.846E+01 0.488E+01 -.922E+03   0.807E+01 -.466E+01 0.921E+03   0.239E+00 -.138E+00 0.532E+00   0.170E+00 -.961E-01 0.372E+00
   -.525E-04 0.203E+02 -.937E+03   0.379E-04 -.204E+02 0.937E+03   0.414E-11 0.631E+00 -.521E+00   -.542E-02 -.298E+00 0.625E+00
   0.846E+01 0.488E+01 -.922E+03   -.807E+01 -.466E+01 0.921E+03   -.239E+00 -.138E+00 0.532E+00   -.168E+00 -.970E-01 0.372E+00
   0.328E+01 0.189E+01 -.925E+03   -.311E+01 -.180E+01 0.924E+03   -.123E+00 -.712E-01 0.937E+00   -.602E-01 -.349E-01 0.435E+00
   -.328E+01 0.189E+01 -.925E+03   0.311E+01 -.180E+01 0.924E+03   0.123E+00 -.712E-01 0.937E+00   0.496E-01 -.347E-01 0.435E+00
   0.198E-04 -.976E+01 -.922E+03   0.110E-03 0.932E+01 0.921E+03   0.181E-11 0.276E+00 0.532E+00   0.110E-02 0.195E+00 0.372E+00
   0.537E-04 -.364E-04 -.265E+04   -.114E-03 0.769E-04 0.265E+04   0.265E-17 -.467E-18 0.193E+01   -.407E-04 -.158E-03 0.134E+00
   -.395E+01 -.116E+02 -.265E+04   0.431E+01 0.122E+02 0.265E+04   -.563E+00 -.914E+00 0.234E+01   0.172E+00 0.284E+00 0.124E-01
   0.395E+01 -.116E+02 -.265E+04   -.431E+01 0.122E+02 0.265E+04   0.563E+00 -.914E+00 0.234E+01   -.172E+00 0.285E+00 0.117E-01
   -.120E+02 0.239E+01 -.265E+04   0.127E+02 -.237E+01 0.265E+04   -.107E+01 -.307E-01 0.234E+01   0.332E+00 0.730E-02 0.124E-01
   0.120E+02 0.239E+01 -.265E+04   -.127E+02 -.237E+01 0.265E+04   0.107E+01 -.307E-01 0.234E+01   -.332E+00 0.784E-02 0.126E-01
   -.808E+01 0.922E+01 -.265E+04   0.843E+01 -.985E+01 0.265E+04   -.510E+00 0.944E+00 0.234E+01   0.161E+00 -.291E+00 0.117E-01
   0.808E+01 0.922E+01 -.265E+04   -.843E+01 -.985E+01 0.265E+04   0.510E+00 0.944E+00 0.234E+01   -.160E+00 -.291E+00 0.126E-01
   0.252E-04 -.134E-04 -.265E+04   0.104E-03 -.653E-04 0.265E+04   0.400E-17 0.218E-17 0.191E+01   -.615E-02 -.312E-02 0.147E+00
   -.203E-04 -.378E-05 -.108E+04   0.479E-04 0.613E-05 0.107E+04   0.275E-17 0.128E-17 0.775E+00   0.823E-03 0.502E-03 -.282E-01
   0.441E-04 -.255E-04 -.115E+04   0.202E-04 0.311E-06 0.116E+04   -.145E-17 -.404E-18 -.431E+01   0.628E-03 0.385E-03 -.450E+00
   0.365E-03 -.724E-03 -.296E+01   0.997E-13 0.830E-13 -.318E-11   -.217E-15 -.108E-15 -.381E+01   -.184E-01 -.743E-02 0.672E+01

 POSITION                                       TOTAL-FORCE (eV/Angst)
      0.00000      0.00000      5.28219         0.000000      0.000000      0.011877
      2.93046      0.00000      5.28219        -0.010290     -0.000224      0.019816
      5.86091      0.00000      5.28219         0.010290     -0.000224      0.019816
      1.46523      2.53785      5.28219        -0.005339     -0.008799      0.019816
      4.39568      2.53785      5.28219         0.000000      0.000000     -0.025744
      7.32614      2.53785      5.28219         0.005339     -0.008799      0.019816
      2.93046      5.07570      5.28219         0.004951      0.009024      0.019816
      5.86091      5.07570      5.28219        -0.004951      0.009024      0.019816
      8.79137      5.07570      5.28219         0.000000      0.000000      0.025972
      1.46523      0.84595      7.67490        -0.007461     -0.004308     -0.021997
      4.39568      0.84595      7.67490        -0.000000     -0.024397     -0.074036
      7.32614      0.84595      7.67490         0.007461     -0.004308     -0.021997
      2.93046      3.38380      7.67490        -0.021129      0.012199     -0.074036
      5.86091      3.38380      7.67490         0.021129      0.012199     -0.074036
      8.79137      3.38380      7.67490        -0.000000     -0.007721      0.010795
      4.39568      5.92165      7.67490         0.000000      0.008615     -0.021997
      7.32614      5.92165      7.67490        -0.006687      0.003861      0.010795
     10.25659      5.92165      7.67490         0.006687      0.003861      0.010795
      8.79137      1.69254     10.05636         0.000000      0.012983      0.074871
      2.93602      1.69511     10.03837        -0.167123     -0.096488     -0.118893
      5.85534      1.69511     10.03837         0.167123     -0.096488     -0.118893
     10.25423      4.23112     10.05516         0.025892     -0.014949      0.042299
      4.39568      4.22332     10.03837         0.000000      0.192977     -0.118893
      7.32851      4.23112     10.05516        -0.025892     -0.014949      0.042299
     11.72126      6.76728     10.05636        -0.011244     -0.006492      0.074871
      5.86147      6.76728     10.05636         0.011244     -0.006492      0.074871
      8.79137      6.76486     10.05516         0.000000      0.029898      0.042299
      0.00000      0.00000     12.42937         0.000000      0.000000     -0.035292
      2.95945      0.04653     12.45339        -0.022163     -0.013292      0.030106
      5.83191      0.04653     12.45339         0.022163     -0.013292      0.030106
      1.52003      2.53970     12.45339        -0.022593     -0.012547      0.030106
      7.27134      2.53970     12.45339         0.022593     -0.012547      0.030106
      2.95626      5.02732     12.45339        -0.000430      0.025840      0.030106
      5.83511      5.02732     12.45339         0.000430      0.025840      0.030106
      8.79137      5.07570     12.43676         0.000000      0.000000     -0.046435
      4.39568      2.53785     12.21669         0.000000      0.000000     -0.023777
      4.39568      2.53785     13.90129         0.000000      0.000000      0.054748
    total drift:                               -0.018079     -0.008154     -0.049782

  FREE ENERGIE OF THE ION-ELECTRON SYSTEM (eV)
  free  energy   TOTEN  =      -102.43194488 eV

  energy  without entropy=     -102.43194488  energy(sigma->0) =     -102.43194488

 stress matrix after NEB project (eV)
     -8.70064     -0.00000      0.00000
     -0.00000     -8.70064     -0.00000
      0.00000     -0.00000     -0.39533
  FORCES: max atom, RMS     0.054748    0.009000
  FORCE total and by dimension    0.054748    0.054748
  Stress total and by dimension   12.310909    8.700638
|           W    W    AA    RRRRR   N    N  II  N    N   GGGG   !!!           |
|           W    W   A  A   R    R  NN   N  II  NN   N  G    G  !!!           |
|           W    W  A    A  R    R  N N  N  II  N N  N  G       !!!           |
|           W WW W  AAAAAA  RRRRR   N  N N  II  N  N N  G  GGG   !            |
|           WW  WW  A    A  R   R   N   NN  II  N   NN  G    G                |
|           W    W  A    A  R    R  N    N  II  N    N   GGGG   !!!           |
|     Tetrahedron method does not include variations of the Fermi             |
|     occupations, so forces and stress will be inaccurate. We suggest        |
|     using a different smearing scheme ISMEAR = 1 or 2 for metals in         |
|     relaxations.                                                            |

 total charge

# of ion       s       p       d       tot
    1        0.414   0.205   9.177   9.796
    2        0.416   0.203   9.177   9.797
    3        0.416   0.203   9.177   9.797
    4        0.416   0.203   9.177   9.797
    5        0.419   0.201   9.178   9.798
    6        0.416   0.203   9.177   9.797
    7        0.416   0.203   9.177   9.797
    8        0.416   0.203   9.177   9.797
    9        0.414   0.204   9.177   9.795
   10        0.406   0.272   9.163   9.841
   11        0.407   0.269   9.166   9.843
   12        0.406   0.272   9.163   9.841
   13        0.407   0.269   9.166   9.843
   14        0.407   0.269   9.166   9.843
   15        0.403   0.271   9.163   9.838
   16        0.406   0.272   9.163   9.841
   17        0.403   0.271   9.163   9.838
   18        0.403   0.271   9.163   9.838
   19        0.400   0.266   9.168   9.834
   20        0.424   0.294   9.147   9.865
   21        0.424   0.294   9.147   9.865
   22        0.395   0.276   9.164   9.835
   23        0.424   0.294   9.147   9.865
   24        0.395   0.276   9.164   9.835
   25        0.400   0.266   9.168   9.834
   26        0.400   0.266   9.168   9.834
   27        0.395   0.276   9.164   9.835
   28        0.412   0.197   9.179   9.788
   29        0.420   0.208   9.168   9.795
   30        0.420   0.208   9.168   9.795
   31        0.420   0.208   9.168   9.795
   32        0.420   0.208   9.168   9.795
   33        0.420   0.208   9.168   9.795
   34        0.420   0.208   9.168   9.795
   35        0.415   0.197   9.177   9.789
   36        0.495   0.582   3.802   4.878
   37        0.996   1.240   0.000   2.236
tot         15.893  10.234 324.670 350.797

 BZINTS: Fermi energy:    0.248436;  394.000000 electrons
         Band energy:-0.152070E+04;  BLOECHL correction:   -0.045776