 vasp.6.2.0 18Jan21 (build Jun 12 2021 23:27:24) complex

 executed on             LinuxIFC date 2022.05.27  05:52:37

 INCAR:
   ISMEAR = -5
   SIGMA = 0.1
   ISPIN = 1
   EDIFF = 1.d-5
   EDIFFG = -0.01
   NSW = 0
   NELM = 150
   ENCUT = 500
   ISIF = 2
   IBRION = 2
   LREAL = Auto
   ALGO = Fast
   ICHARG = 11
   LORBIT = 10
   LCHARG = .F.
   LWAVE = .F.

 POTCAR:    PAW_PBE Ag 02Apr2005
 POTCAR:    PAW_PBE Os 17Jan2003
 POTCAR:    PAW_PBE C 08Apr2002
 POTCAR:    PAW_PBE O 08Apr2002
|           W    W    AA    RRRRR   N    N  II  N    N   GGGG   !!!           |
|           W    W   A  A   R    R  NN   N  II  NN   N  G    G  !!!           |
|           W    W  A    A  R    R  N N  N  II  N N  N  G       !!!           |
|           W WW W  AAAAAA  RRRRR   N  N N  II  N  N N  G  GGG   !            |
|           WW  WW  A    A  R   R   N   NN  II  N   NN  G    G                |
|           W    W  A    A  R    R  N    N  II  N    N   GGGG   !!!           |
|     For optimal performance we recommend to set                             |
|       NCORE = 2 up to number-of-cores-per-socket                            |
|     This setting can greatly improve the performance of VASP for DFT.       |
|     The default, NCORE=1 might be grossly inefficient on modern             |
|     multi-core architectures or massively parallel machines. Do your        |
|     Unfortunately you need to use the default for GW and RPA                |
|     calculations (for HF NCORE is supported but not extensively tested      |
|     yet).                                                                   |

 POTCAR:    PAW_PBE Ag 02Apr2005
   VRHFIN =Ag : s1 d10

   TITEL  = PAW_PBE Ag 02Apr2005
   POMASS =  107.868; ZVAL   =   11.000    mass and valenz
   ENMAX  =  249.844; ENMIN  =  187.383 eV

 POTCAR:    PAW_PBE Os 17Jan2003
   VRHFIN =Os: 6s5d

   TITEL  = PAW_PBE Os 17Jan2003
   POMASS =  190.200; ZVAL   =    8.000    mass and valenz
   ENMAX  =  228.022; ENMIN  =  171.017 eV

 POTCAR:    PAW_PBE C 08Apr2002
   VRHFIN =C: s2p2

[...]

 POTCAR:    PAW_PBE O 08Apr2002
   VRHFIN =O: s2p4

   TITEL  = PAW_PBE O 08Apr2002
   POMASS =   16.000; ZVAL   =    6.000    mass and valenz
   ENMAX  =  400.000; ENMIN  =  300.000 eV

 Optimization of the real space projectors (new method)

 maximal supplied QI-value         = 15.12
 optimisation between [QCUT,QGAM] = [ 11.34, 22.83] = [ 36.00,145.93] Ry
 Optimized for a Real-space Cutoff    1.43 Angstroem

   l    n(q)    QCUT    max X(q) W(low)/X(q) W(high)/X(q)  e(spline)
   2      9    11.338    53.897    0.16E-03    0.20E-03    0.28E-06
   2      9    11.338    52.416    0.16E-03    0.20E-03    0.29E-06
   0     10    11.338   122.045    0.31E-04    0.76E-04    0.15E-06
   0     10    11.338    73.629    0.30E-04    0.72E-04    0.15E-06
   1      9    11.338    15.255    0.20E-03    0.19E-04    0.17E-06
   1      9    11.338     9.562    0.16E-03    0.15E-04    0.14E-06
 Optimization of the real space projectors (new method)

[...]

   l    n(q)    QCUT    max X(q) W(low)/X(q) W(high)/X(q)  e(spline)
   0      7    11.310   115.676    0.43E-03    0.13E-02    0.19E-06
   0      7    11.310    87.132    0.43E-03    0.13E-02    0.18E-06
   1      6    11.310     4.429    0.42E-03    0.74E-03    0.11E-06
   1      6    11.310     2.733    0.34E-03    0.55E-03    0.92E-07
 Optimization of the real space projectors (new method)

 maximal supplied QI-value         = 24.76
 optimisation between [QCUT,QGAM] = [ 11.39, 22.77] = [ 36.31,145.25] Ry
 Optimized for a Real-space Cutoff    1.00 Angstroem

   l    n(q)    QCUT    max X(q) W(low)/X(q) W(high)/X(q)  e(spline)
   0      7    11.387    20.381    0.39E-03    0.13E-02    0.15E-06
   0      7    11.387    15.268    0.42E-03    0.14E-02    0.17E-06
   1      6    11.387     5.964    0.41E-03    0.11E-02    0.17E-06
   1      6    11.387     5.382    0.39E-03    0.87E-03    0.15E-06
  PAW_PBE Ag 02Apr2005                  :
  PAW_PBE Os 17Jan2003                  :
  PAW_PBE C 08Apr2002                   :
  PAW_PBE O 08Apr2002                   :

 POSCAR: Ag-Os-CO
  positions in direct lattice
  velocities in cartesian coordinates
 exchange correlation table for  LEXCH =        8
   RHO(1)=    0.500       N(1)  =     2000
   RHO(2)=  100.500       N(2)  =     4000

 VTST: version 3.2, (02/03/18)

 CHAIN: initializing optimizer

 OPT: Using VASP Conjugate-Gradient optimizer
 CHAIN: Read ICHAIN            0

 POSCAR: Ag-Os-CO
  positions in direct lattice
  velocities in cartesian coordinates

 ion  position               nearest neighbor table
   1  0.000  0.000  0.238-   2 2.93   8 2.93   7 2.93   6 2.93   4 2.93  12 2.93  16 2.93  10 2.93
                             3 2.93
   2  0.333  0.000  0.238-   1 2.93   8 2.93   9 2.93   3 2.93   4 2.93   5 2.93  10 2.93  17 2.93
                            11 2.93
   3  0.667  0.000  0.238-   9 2.93   2 2.93   5 2.93  11 2.93   7 2.93  18 2.93   1 2.93   6 2.93
                            12 2.93
   4  0.000  0.333  0.238-   5 2.93   6 2.93   2 2.93   1 2.93   7 2.93  13 2.93  15 2.93   9 2.93
                            10 2.93
   5  0.333  0.333  0.238-   4 2.93   3 2.93   7 2.93   2 2.93   8 2.93  14 2.93  13 2.93  11 2.93
                             6 2.93
   6  0.667  0.333  0.238-   4 2.93   9 2.93   1 2.93  15 2.93   8 2.93  12 2.93   3 2.93   5 2.93
                            14 2.93
   7  0.000  0.667  0.238-   8 2.93   1 2.93   5 2.93   3 2.93   4 2.93  16 2.93  18 2.93  13 2.93
                             9 2.93
   8  0.333  0.667  0.238-   7 2.93   1 2.93   2 2.93   9 2.93   5 2.93  16 2.93   6 2.93  17 2.93
                            14 2.93
   9  0.667  0.667  0.238-   3 2.93   2 2.93   8 2.93   6 2.93  17 2.93   4 2.93  15 2.93   7 2.93
                            18 2.93
  10  0.111  0.111  0.346-  20 2.89  12 2.93  16 2.93  15 2.93  17 2.93  13 2.93  11 2.93   2 2.93
                             1 2.93   4 2.93  19 2.93  26 2.93
  11  0.444  0.111  0.346-  21 2.89  20 2.89  27 2.92  14 2.93  17 2.93  18 2.93   3 2.93  12 2.93
                            13 2.93  10 2.93   5 2.93   2 2.93
  12  0.778  0.111  0.346-  21 2.89  10 2.93  16 2.93  18 2.93  15 2.93  11 2.93   1 2.93  14 2.93
                             6 2.93   3 2.93  25 2.93  19 2.93
  13  0.111  0.444  0.346-  20 2.89  23 2.89  22 2.92  15 2.93  14 2.93  18 2.93  10 2.93  11 2.93
                            16 2.93   4 2.93   5 2.93   7 2.93
  14  0.444  0.444  0.346-  23 2.89  21 2.89  24 2.92  13 2.93  11 2.93  16 2.93   5 2.93  12 2.93
                            17 2.93   8 2.93  15 2.93   6 2.93
  15  0.778  0.444  0.346-  24 2.92  22 2.92  19 2.93  13 2.93  10 2.93  12 2.93  17 2.93  18 2.93
                             4 2.93   6 2.93   9 2.93  14 2.93
  16  0.111  0.778  0.346-  23 2.89  18 2.93  12 2.93  10 2.93  14 2.93  17 2.93  13 2.93   7 2.93
                             8 2.93   1 2.93  26 2.93  25 2.93
  17  0.444  0.778  0.346-  27 2.92  24 2.92  26 2.93  11 2.93  10 2.93   9 2.93  18 2.93  15 2.93
                            16 2.93   2 2.93  14 2.93   8 2.93
  18  0.778  0.778  0.346-  22 2.92  27 2.92  25 2.93  16 2.93  12 2.93  13 2.93  11 2.93  17 2.93
                            15 2.93   7 2.93   3 2.93   9 2.93
  19  0.888  0.223  0.454-  28 2.90  24 2.93  22 2.93  15 2.93  20 2.93  21 2.93  10 2.93  12 2.93
                            26 2.94  25 2.94  32 2.95  31 2.95
  20  0.222  0.222  0.452-  36 2.76  13 2.89  11 2.89  10 2.89  31 2.93  29 2.93  21 2.93  23 2.93
                            19 2.93  26 2.93  27 2.94  22 2.94
  21  0.556  0.222  0.452-  36 2.76  11 2.89  14 2.89  12 2.89  30 2.93  32 2.93  20 2.93  23 2.93
                            25 2.93  19 2.93  27 2.94  24 2.94
  22  0.888  0.556  0.453-  35 2.90  18 2.92  15 2.92  24 2.92  27 2.92  13 2.92  25 2.93  19 2.93
                            33 2.94  31 2.94  23 2.94  20 2.94
  23  0.222  0.556  0.452-  36 2.76  14 2.89  13 2.89  16 2.89  34 2.93  33 2.93  21 2.93  20 2.93
                            26 2.93  25 2.93  22 2.94  24 2.94
  24  0.556  0.556  0.453-  35 2.90  15 2.92  17 2.92  27 2.92  22 2.92  14 2.92  19 2.93  26 2.93
                            32 2.94  34 2.94  23 2.94  21 2.94
  25  0.888  0.888  0.454-  28 2.90  22 2.93  27 2.93  18 2.93  23 2.93  21 2.93  16 2.93  12 2.93
                            26 2.94  19 2.94  33 2.95  30 2.95
  26  0.223  0.888  0.454-  28 2.90  27 2.93  24 2.93  17 2.93  23 2.93  20 2.93  16 2.93  10 2.93
                            25 2.94  19 2.94  34 2.95  29 2.95
  27  0.556  0.888  0.453-  35 2.90  17 2.92  18 2.92  24 2.92  22 2.92  11 2.92  26 2.93  25 2.93
                            29 2.94  30 2.94  20 2.94  21 2.94
  28  0.000  0.000  0.560-  26 2.90  25 2.90  19 2.90  29 2.96  34 2.96  33 2.96  32 2.96  31 2.96
                            30 2.96
  29  0.333  0.008  0.561-  31 2.86  30 2.87  36 2.88  20 2.93  27 2.94  26 2.95  28 2.96  35 2.97
                            34 3.06
  30  0.659  0.008  0.561-  32 2.86  29 2.87  36 2.88  21 2.93  27 2.94  25 2.95  28 2.96  35 2.97
                            33 3.06
  31  0.008  0.333  0.561-  29 2.86  33 2.87  36 2.88  20 2.93  22 2.94  19 2.95  28 2.96  35 2.97
                            32 3.06
  32  0.659  0.333  0.561-  30 2.86  34 2.87  36 2.88  21 2.93  24 2.94  19 2.95  28 2.96  35 2.97
                            31 3.06
  33  0.008  0.659  0.561-  34 2.86  31 2.87  36 2.88  23 2.93  22 2.94  25 2.95  28 2.96  35 2.97
                            30 3.06
  34  0.333  0.659  0.561-  33 2.86  32 2.87  36 2.88  23 2.93  24 2.94  26 2.95  28 2.96  35 2.97
                            29 3.06
  35  0.667  0.667  0.560-  24 2.90  27 2.90  22 2.90  30 2.97  32 2.97  29 2.97  34 2.97  31 2.97
                            33 2.97
  36  0.333  0.333  0.550-  37 1.86  21 2.76  20 2.76  23 2.76  31 2.88  30 2.88  33 2.88  29 2.88
                            34 2.88  32 2.88
  37  0.333  0.333  0.634-  38 1.18  36 1.86
  38  0.333  0.333  0.687-  37 1.18

  LATTYP: Found a hexagonal cell.
 ALAT       =     8.7913665772
 C/A-ratio  =     2.5227160501

  Lattice vectors:

 A1 = (  -4.3956832886,  -7.6135467898,   0.0000000000)
 A2 = (   8.7913665771,   0.0000000000,   0.0000000000)
 A3 = (   0.0000000000,   0.0000000000,  22.1781215668)

Analysis of symmetry for initial positions (statically):
 Subroutine PRICEL returns:
 Original cell was already a primitive cell.

 Routine SETGRP: Setting up the symmetry group for a
 hexagonal supercell.

 Subroutine GETGRP returns: Found  6 space group operations
 (whereof  6 operations were pure point group operations)
 out of a pool of 24 trial point group operations.

The static configuration has the point symmetry C_3v.

Analysis of symmetry for dynamics (positions and initial velocities):
 Subroutine PRICEL returns:
 Original cell was already a primitive cell.

[...]

The dynamic configuration has the point symmetry C_3v.

Analysis of constrained symmetry for selective dynamics:
 Subroutine PRICEL returns:
 Original cell was already a primitive cell.

 Routine SETGRP: Setting up the symmetry group for a
 hexagonal supercell.

[...]
     33      -4.6024      2.00000
     34      -4.5776      2.00000
     35      -4.5661      2.00000
     36      -4.5472      2.00000
     37      -4.5170      2.00000
     38      -4.5067      2.00000
     39      -4.4567      2.00000
     40      -4.4416      2.00000
     41      -4.4225      2.00000
     42      -4.3944      2.00000
     43      -4.3748      2.00000
     44      -4.3659      2.00000
     45      -4.3451      2.00000
     46      -4.3349      2.00000
     47      -4.3097      2.00000
     48      -4.2483      2.00000
     49      -4.2239      2.00000
     50      -4.2128      2.00000
     51      -4.2032      2.00000
     52      -4.2010      2.00000
     53      -4.1933      2.00000
     54      -4.1835      2.00000
     55      -4.1739      2.00000
     56      -4.1685      2.00000
     57      -4.1603      2.00000
     58      -4.0863      2.00000
     59      -4.0812      2.00000
     60      -4.0769      2.00000
[...]
    238       6.0765      0.00000
    239       6.1531      0.00000
    240       6.2067      0.00000
    241       6.3217      0.00000
    242       6.3873      0.00000
    243       6.3889      0.00000
    244       7.1910      0.00000
    245       7.2619      0.00000
    246       7.2908      0.00000
    247       7.3883      0.00000
    248       7.4093      0.00000
    249       7.4242      0.00000
    250       7.4330      0.00000
    251       7.5907      0.00000
    252       7.6485      0.00000

 soft charge-density along one line, spin component           1
         0         1         2         3         4         5         6         7         8         9
 total charge-density along one line

------------------------ aborting loop because EDIFF is reached ----------------------------------------

 total charge

# of ion       s       p       d       tot
    1        0.417   0.201   9.179   9.797
    2        0.418   0.203   9.178   9.798
    3        0.418   0.203   9.178   9.798
    4        0.418   0.203   9.178   9.798
    5        0.419   0.203   9.176   9.798
    6        0.418   0.203   9.178   9.798
    7        0.418   0.203   9.178   9.798
    8        0.418   0.203   9.178   9.798
    9        0.413   0.202   9.180   9.795
   10        0.407   0.269   9.164   9.841
   11        0.411   0.268   9.169   9.847
   12        0.407   0.269   9.164   9.841
   13        0.411   0.268   9.169   9.847
   14        0.411   0.268   9.169   9.847
   15        0.401   0.271   9.165   9.837
   16        0.407   0.269   9.164   9.841
   17        0.401   0.271   9.165   9.837
   18        0.401   0.271   9.165   9.837
   19        0.403   0.265   9.166   9.834
   20        0.433   0.299   9.148   9.879
   21        0.433   0.299   9.148   9.879
   22        0.394   0.274   9.168   9.836
   23        0.433   0.299   9.148   9.879
   24        0.394   0.274   9.168   9.836
   25        0.403   0.265   9.166   9.834
   26        0.403   0.265   9.166   9.834
   27        0.394   0.274   9.168   9.836
   28        0.413   0.193   9.183   9.789
   29        0.412   0.218   9.171   9.801
   30        0.412   0.218   9.171   9.801
   31        0.412   0.218   9.171   9.801
   32        0.412   0.218   9.171   9.801
   33        0.412   0.218   9.171   9.801
   34        0.412   0.218   9.171   9.801
   35        0.405   0.196   9.183   9.785
   36        0.598   0.511   6.144   7.253
   37        0.947   1.575   0.000   2.522
   38        1.607   3.533   0.000   5.140
tot         17.544  14.074 327.079 358.697

  FORCE on cell =-STRESS in cart. coord.  units (eV):
  Direction    XX          YY          ZZ          XY          YZ          ZX
  Alpha Z   783.32242   783.32242   783.32242
  Ewald  119000.96446119000.96451************     0.00004    -0.00000     0.00005
  Hartree129395.43382129395.43384************     0.00002     0.00000     0.00001
  E(xc)   -2110.75436 -2110.75444 -2115.35100     0.00007    -0.00000    -0.00001
  Local  ************************259332.63496     0.00052    -0.00006    -0.00018
  n-local  -379.42289  -359.35722  -375.72466    11.57325    -0.48121     0.66680
  augment  3243.23789  3243.23803  3250.97336    -0.00012     0.00000     0.00006
  Kinetic  5083.07523  5090.08881  5072.20218     6.03743     0.73925    -0.23852
  Fock        0.00000     0.00000     0.00000     0.00000     0.00000     0.00000
  Total      -8.07784    -8.07784     0.86606    -0.00000    -0.00000    -0.00000
  in kB      -8.71842    -8.71842     0.93474    -0.00000    -0.00000    -0.00000

 VOLUME and BASIS-vectors are now :
  energy-cutoff  :      500.00
  volume of cell :     1484.46
      direct lattice vectors                 reciprocal lattice vectors
     8.791366577  0.000000000  0.000000000     0.113747958 -0.065672414  0.000000000
     4.395683289  7.613546790  0.000000000     0.000000000  0.131344829  0.000000000
     0.000000000  0.000000000 22.178121567     0.000000000  0.000000000  0.045089481

  length of vectors
     8.791366577  8.791366577 22.178121567     0.131344829  0.131344829  0.045089481

 FORCES acting on ions
    electron-ion (+dipol)            ewald-force                    non-local-force                 convergence-correction
   0.460E-04 -.282E-04 0.251E+04   -.954E-04 0.593E-04 -.251E+04   -.986E-18 0.149E-17 -.229E+01   -.126E-03 -.180E-03 -.220E+00
   0.466E+00 0.569E+00 0.251E+04   -.579E+00 -.586E+00 -.251E+04   0.694E-01 0.882E-01 -.158E+01   0.514E-01 -.485E-01 -.218E+00
   -.466E+00 0.569E+00 0.251E+04   0.579E+00 -.586E+00 -.251E+04   -.694E-01 0.882E-01 -.158E+01   -.519E-01 -.465E-01 -.217E+00
   0.726E+00 0.119E+00 0.251E+04   -.798E+00 -.208E+00 -.251E+04   0.111E+00 0.160E-01 -.158E+01   -.161E-01 0.689E-01 -.218E+00
   -.611E-05 -.191E-04 0.251E+04   0.980E-04 -.197E-05 -.251E+04   -.741E-18 0.604E-18 -.130E+01   0.630E-02 0.385E-02 -.203E+00
   -.726E+00 0.119E+00 0.251E+04   0.797E+00 -.209E+00 -.251E+04   -.111E+00 0.160E-01 -.158E+01   0.147E-01 0.699E-01 -.217E+00
   0.260E+00 -.688E+00 0.251E+04   -.218E+00 0.795E+00 -.251E+04   0.417E-01 -.104E+00 -.158E+01   -.658E-01 -.212E-01 -.217E+00
   -.260E+00 -.688E+00 0.251E+04   0.218E+00 0.795E+00 -.251E+04   -.417E-01 -.104E+00 -.158E+01   0.675E-01 -.222E-01 -.217E+00
   0.367E-04 -.127E-04 0.251E+04   0.792E-04 -.643E-04 -.251E+04   -.605E-17 -.224E-17 -.209E+01   -.670E-02 -.346E-02 -.265E+00
   0.675E+01 0.390E+01 0.869E+03   -.635E+01 -.366E+01 -.869E+03   -.424E+00 -.245E+00 -.821E+00   0.118E-01 0.684E-02 0.286E+00
   -.286E-04 0.581E+01 0.877E+03   0.410E-04 -.598E+01 -.877E+03   0.114E-11 0.173E+00 -.359E+00   0.644E-02 -.516E-01 0.308E+00
   -.675E+01 0.389E+01 0.869E+03   0.635E+01 -.366E+01 -.869E+03   0.424E+00 -.245E+00 -.821E+00   -.136E-01 0.833E-02 0.286E+00
   0.503E+01 -.291E+01 0.877E+03   -.518E+01 0.299E+01 -.877E+03   0.150E+00 -.865E-01 -.359E+00   -.416E-01 0.314E-01 0.308E+00
   -.503E+01 -.291E+01 0.877E+03   0.518E+01 0.299E+01 -.877E+03   -.150E+00 -.865E-01 -.359E+00   0.527E-01 0.307E-01 0.309E+00
   0.162E-04 0.160E+01 0.870E+03   -.109E-03 -.174E+01 -.870E+03   0.381E-12 0.580E-01 -.804E+00   -.195E-02 0.478E-01 0.230E+00
   -.782E-05 -.779E+01 0.869E+03   0.205E-04 0.733E+01 -.869E+03   0.322E-11 0.490E+00 -.821E+00   0.387E-03 -.160E-01 0.286E+00
   0.139E+01 -.800E+00 0.870E+03   -.150E+01 0.868E+00 -.870E+03   0.502E-01 -.290E-01 -.804E+00   0.404E-01 -.256E-01 0.230E+00
   -.139E+01 -.800E+00 0.870E+03   0.150E+01 0.868E+00 -.870E+03   -.502E-01 -.290E-01 -.804E+00   -.405E-01 -.234E-01 0.230E+00
   0.389E-04 0.232E+01 -.808E+03   -.129E-03 -.232E+01 0.807E+03   -.293E-13 -.446E-02 0.691E+00   -.616E-02 0.126E-01 0.698E+00
   0.126E+02 0.727E+01 -.766E+03   -.115E+02 -.661E+01 0.766E+03   -.143E+01 -.824E+00 -.122E+01   0.177E+00 0.102E+00 0.877E+00
   -.126E+02 0.727E+01 -.766E+03   0.115E+02 -.661E+01 0.766E+03   0.143E+01 -.824E+00 -.122E+01   -.175E+00 0.104E+00 0.877E+00
   0.291E+01 -.168E+01 -.795E+03   -.330E+01 0.190E+01 0.794E+03   0.370E+00 -.214E+00 0.558E+00   0.447E-01 -.307E-01 0.636E+00
   -.543E-04 -.145E+02 -.766E+03   0.431E-04 0.132E+02 0.766E+03   0.108E-10 0.165E+01 -.122E+01   0.231E-02 -.203E+00 0.877E+00
   -.291E+01 -.168E+01 -.795E+03   0.330E+01 0.190E+01 0.794E+03   -.370E+00 -.214E+00 0.558E+00   -.554E-01 -.319E-01 0.636E+00
   -.201E+01 -.116E+01 -.808E+03   0.201E+01 0.116E+01 0.807E+03   0.386E-02 0.223E-02 0.691E+00   -.169E-01 -.991E-02 0.697E+00
   0.201E+01 -.116E+01 -.808E+03   -.201E+01 0.116E+01 0.807E+03   -.386E-02 0.223E-02 0.691E+00   0.753E-02 -.118E-01 0.698E+00
   0.202E-04 0.336E+01 -.795E+03   0.110E-03 -.381E+01 0.794E+03   0.281E-11 0.428E+00 0.558E+00   -.488E-02 0.541E-01 0.636E+00
   0.541E-04 -.362E-04 -.244E+04   -.115E-03 0.781E-04 0.244E+04   0.857E-17 0.611E-17 0.220E+01   0.113E-02 0.516E-03 0.410E+00
   0.284E+02 0.505E+02 -.242E+04   -.277E+02 -.496E+02 0.242E+04   -.831E+00 -.119E+01 0.195E+01   0.403E-01 0.223E+00 0.347E+00
   -.284E+02 0.505E+02 -.242E+04   0.277E+02 -.496E+02 0.242E+04   0.831E+00 -.119E+01 0.195E+01   -.508E-01 0.225E+00 0.347E+00
   0.579E+02 -.646E+00 -.242E+04   -.568E+02 0.859E+00 0.242E+04   -.144E+01 -.125E+00 0.195E+01   0.214E+00 -.765E-01 0.347E+00
   -.579E+02 -.646E+00 -.242E+04   0.568E+02 0.858E+00 0.242E+04   0.144E+01 -.125E+00 0.195E+01   -.225E+00 -.757E-01 0.346E+00
   0.295E+02 -.498E+02 -.242E+04   -.291E+02 0.488E+02 0.242E+04   -.614E+00 0.131E+01 0.195E+01   0.170E+00 -.156E+00 0.347E+00
   -.295E+02 -.498E+02 -.242E+04   0.291E+02 0.488E+02 0.242E+04   0.614E+00 0.131E+01 0.195E+01   -.179E+00 -.157E+00 0.346E+00
   0.210E-04 -.117E-04 -.244E+04   0.106E-03 -.661E-04 0.244E+04   0.767E-18 0.403E-18 0.229E+01   -.553E-02 -.276E-02 0.391E+00
   -.464E-05 -.150E-04 -.154E+04   0.774E-04 0.978E-05 0.154E+04   -.215E-18 -.745E-18 -.167E+01   0.276E-02 0.164E-02 0.300E+00
   0.225E-05 -.804E-04 -.860E+03   0.178E-04 0.230E-06 0.846E+03   0.101E-18 0.159E-19 0.134E+02   0.141E-02 0.858E-03 -.179E+00
   0.235E-03 -.933E-04 -.152E+04   0.930E-05 0.117E-07 0.158E+04   0.130E-19 -.776E-19 -.577E+02   0.381E-02 0.233E-02 -.196E+00
   0.610E-03 -.860E-03 0.409E+02   0.243E-13 -.516E-13 0.728E-11   -.110E-15 -.667E-15 -.508E+02   -.411E-01 -.204E-01 0.992E+01

 POSITION                                       TOTAL-FORCE (eV/Angst)
      0.00000      0.00000      5.28219        -0.000000      0.000000     -0.008779
      2.93046      0.00000      5.28219         0.007972      0.023252      0.035756
      5.86091      0.00000      5.28219        -0.007972      0.023252      0.035756
      1.46523      2.53785      5.28219         0.024123     -0.004722      0.035756
      4.39568      2.53785      5.28219        -0.000000      0.000000      0.006558
      7.32614      2.53785      5.28219        -0.024123     -0.004722      0.035756
      2.93046      5.07570      5.28219         0.016151     -0.018530      0.035756
      5.86091      5.07570      5.28219        -0.016151     -0.018530      0.035756
      8.79137      5.07570      5.28219        -0.000000      0.000000      0.027693
      1.46523      0.84595      7.67490        -0.009975     -0.005759     -0.003134
      4.39568      0.84595      7.67490        -0.000000     -0.052802     -0.073776
      7.32614      0.84595      7.67490         0.009975     -0.005759     -0.003134
      2.93046      3.38380      7.67490        -0.045728      0.026401     -0.073776
      5.86091      3.38380      7.67490         0.045728      0.026401     -0.073776
      8.79137      3.38380      7.67490        -0.000000     -0.031273      0.008587
      4.39568      5.92165      7.67490         0.000000      0.011518     -0.003134
      7.32614      5.92165      7.67490        -0.027083      0.015636      0.008587
     10.25659      5.92165      7.67490         0.027083      0.015636      0.008587
      8.79137      1.69824     10.07044         0.000000      0.003631      0.012908
      2.93075      1.69207     10.02201        -0.105848     -0.061111     -0.236328
      5.86061      1.69207     10.02201         0.105848     -0.061111     -0.236328
     10.25044      4.23330     10.05478         0.036636     -0.021152     -0.002772
      4.39568      4.22940     10.02201         0.000000      0.122223     -0.236328
      7.33230      4.23330     10.05478        -0.036636     -0.021152     -0.002772
     11.71633      6.76443     10.07044        -0.003145     -0.001816      0.012908
      5.86640      6.76443     10.07044         0.003145     -0.001816      0.012908
      8.79137      6.76048     10.05478         0.000000      0.042303     -0.002772
      0.00000      0.00000     12.42728        -0.000000      0.000000     -0.029728
      2.96092      0.05748     12.44843        -0.045865     -0.106241     -0.054012
      5.83045      0.05748     12.44843         0.045865     -0.106241     -0.054012
      1.53024      2.53549     12.44843        -0.114940      0.013400     -0.054012
      7.26113      2.53549     12.44843         0.114940      0.013400     -0.054012
      2.96500      5.02058     12.44843        -0.069075      0.092841     -0.054012
      5.82636      5.02058     12.44843         0.069075      0.092841     -0.054012
      8.79137      5.07570     12.42122        -0.000000      0.000000     -0.013179
      4.39568      2.53785     12.20312        -0.000000      0.000000      0.975047
      4.39568      2.53785     14.05918        -0.000000      0.000000      0.066907
      4.39568      2.53785     15.23919        -0.000000      0.000000     -0.031439
    total drift:                               -0.040489     -0.021213      0.048877

  FREE ENERGIE OF THE ION-ELECTRON SYSTEM (eV)
  free  energy   TOTEN  =      -114.53836994 eV

  energy  without entropy=     -114.53836994  energy(sigma->0) =     -114.53836994

 stress matrix after NEB project (eV)
     -8.07784     -0.00000     -0.00000
     -0.00000     -8.07784     -0.00000
      0.00000     -0.00000      0.86606
  FORCES: max atom, RMS     0.066907    0.011992
  FORCE total and by dimension    0.073925    0.066907
  Stress total and by dimension   11.456573    8.077840
|           W    W    AA    RRRRR   N    N  II  N    N   GGGG   !!!           |
|           W    W   A  A   R    R  NN   N  II  NN   N  G    G  !!!           |
|           W    W  A    A  R    R  N N  N  II  N N  N  G       !!!           |
|           W WW W  AAAAAA  RRRRR   N  N N  II  N  N N  G  GGG   !            |
|           WW  WW  A    A  R   R   N   NN  II  N   NN  G    G                |
|           W    W  A    A  R    R  N    N  II  N    N   GGGG   !!!           |
|     Tetrahedron method does not include variations of the Fermi             |
|     occupations, so forces and stress will be inaccurate. We suggest        |
|     using a different smearing scheme ISMEAR = 1 or 2 for metals in         |
|     relaxations.                                                            |

 total charge

# of ion       s       p       d       tot
    1        0.417   0.201   9.179   9.797
    2        0.418   0.203   9.178   9.798
    3        0.418   0.203   9.178   9.798
    4        0.418   0.203   9.178   9.798
    5        0.419   0.203   9.176   9.798
    6        0.418   0.203   9.178   9.798
    7        0.418   0.203   9.178   9.798
    8        0.418   0.203   9.178   9.798
    9        0.413   0.202   9.180   9.795
   10        0.407   0.269   9.164   9.841
   11        0.411   0.268   9.169   9.847
   12        0.407   0.269   9.164   9.841
   13        0.411   0.268   9.169   9.847
   14        0.411   0.268   9.169   9.847
   15        0.401   0.271   9.165   9.837
   16        0.407   0.269   9.164   9.841
   17        0.401   0.271   9.165   9.837
   18        0.401   0.271   9.165   9.837
   19        0.403   0.265   9.166   9.834
   20        0.433   0.299   9.148   9.879
   21        0.433   0.299   9.148   9.879
   22        0.394   0.274   9.168   9.836
   23        0.433   0.299   9.148   9.879
   24        0.394   0.274   9.168   9.836
   25        0.403   0.265   9.166   9.834
   26        0.403   0.265   9.166   9.834
   27        0.394   0.274   9.168   9.836
   28        0.413   0.193   9.183   9.789
   29        0.412   0.218   9.171   9.801
   30        0.412   0.218   9.171   9.801
   31        0.412   0.218   9.171   9.801
   32        0.412   0.218   9.171   9.801
   33        0.412   0.218   9.171   9.801
   34        0.412   0.218   9.171   9.801
   35        0.405   0.196   9.183   9.785
   36        0.598   0.511   6.144   7.253
   37        0.947   1.575   0.000   2.522
   38        1.607   3.533   0.000   5.140
tot         17.544  14.074 327.079 358.697

 BZINTS: Fermi energy:    0.747202;  403.000000 electrons
         Band energy:-0.137159E+04;  BLOECHL correction:   -0.040096