 vasp.6.2.0 18Jan21 (build Jun 12 2021 23:27:24) complex

 executed on             LinuxIFC date 2022.05.27  06:01:02

 INCAR:
   ISMEAR = -5
   SIGMA = 0.1
   ISPIN = 1
   EDIFF = 1.d-5
   EDIFFG = -0.01
   NSW = 0
   NELM = 150
   ENCUT = 500
   ISIF = 2
   IBRION = 2
   LREAL = Auto
   ALGO = Fast
   ICHARG = 11
   LORBIT = 10
   LCHARG = .F.
   LWAVE = .F.

 POTCAR:    PAW_PBE Cu 22Jun2005
 POTCAR:    PAW_PBE Mn 06Sep2000
 POTCAR:    PAW_PBE H 15Jun2001
|           W    W    AA    RRRRR   N    N  II  N    N   GGGG   !!!           |
|           W    W   A  A   R    R  NN   N  II  NN   N  G    G  !!!           |
|           W    W  A    A  R    R  N N  N  II  N N  N  G       !!!           |
|           W WW W  AAAAAA  RRRRR   N  N N  II  N  N N  G  GGG   !            |
|           WW  WW  A    A  R   R   N   NN  II  N   NN  G    G                |
|           W    W  A    A  R    R  N    N  II  N    N   GGGG   !!!           |
|     For optimal performance we recommend to set                             |
|       NCORE = 2 up to number-of-cores-per-socket                            |
|     This setting can greatly improve the performance of VASP for DFT.       |
|     The default, NCORE=1 might be grossly inefficient on modern             |
|     multi-core architectures or massively parallel machines. Do your        |
|     Unfortunately you need to use the default for GW and RPA                |
|     calculations (for HF NCORE is supported but not extensively tested      |
|     yet).                                                                   |

 POTCAR:    PAW_PBE Cu 22Jun2005
   VRHFIN =Cu: d10 p1

   TITEL  = PAW_PBE Cu 22Jun2005
   POMASS =   63.546; ZVAL   =   11.000    mass and valenz
   ENMAX  =  295.446; ENMIN  =  221.585 eV

 POTCAR:    PAW_PBE Mn 06Sep2000
   VRHFIN =Mn: d6 s1

   TITEL  = PAW_PBE Mn 06Sep2000
   POMASS =   54.938; ZVAL   =    7.000    mass and valenz
   ENMAX  =  269.864; ENMIN  =  202.398 eV

 POTCAR:    PAW_PBE H 15Jun2001
   VRHFIN =H: ultrasoft test

   TITEL  = PAW_PBE H 15Jun2001
   POMASS =    1.000; ZVAL   =    1.000    mass and valenz
   ENMAX  =  250.000; ENMIN  =  200.000 eV

 Optimization of the real space projectors (new method)

 maximal supplied QI-value         = 16.25
 optimisation between [QCUT,QGAM] = [ 11.38, 22.75] = [ 36.24,144.96] Ry
 Optimized for a Real-space Cutoff    1.52 Angstroem

   l    n(q)    QCUT    max X(q) W(low)/X(q) W(high)/X(q)  e(spline)
   2      9    11.376     4.610    0.21E-03    0.10E-03    0.26E-06
   2      9    11.376     8.522    0.33E-03    0.16E-03    0.37E-06
   0     10    11.376    51.609    0.62E-04    0.20E-04    0.13E-06
   0     10    11.376    27.747    0.54E-04    0.20E-04    0.13E-06
   1     10    11.376    20.408    0.13E-04    0.99E-04    0.19E-06
   1     10    11.376    13.425    0.12E-04    0.87E-04    0.17E-06
 Optimization of the real space projectors (new method)

[...]

   l    n(q)    QCUT    max X(q) W(low)/X(q) W(high)/X(q)  e(spline)
   2      8    11.376   110.144    0.49E-03    0.27E-04    0.26E-06
   2      8    11.376   103.200    0.49E-03    0.28E-04    0.27E-06
   0      9    11.376    68.437    0.57E-04    0.92E-04    0.15E-06
   0      9    11.376    33.971    0.51E-04    0.83E-04    0.14E-06
   1      9    11.376    17.065    0.34E-03    0.68E-04    0.14E-06
   1      9    11.376    12.540    0.27E-03    0.59E-04    0.11E-06
 Optimization of the real space projectors (new method)

 maximal supplied QI-value         = 34.20
 optimisation between [QCUT,QGAM] = [ 11.29, 22.57] = [ 35.68,142.71] Ry
 Optimized for a Real-space Cutoff    1.16 Angstroem

   l    n(q)    QCUT    max X(q) W(low)/X(q) W(high)/X(q)  e(spline)
   0      8    11.287    19.460    0.40E-03    0.73E-03    0.16E-06
   0      8    11.287    12.209    0.38E-03    0.70E-03    0.15E-06
   1      7    11.287     4.655    0.22E-03    0.25E-04    0.22E-06
  PAW_PBE Cu 22Jun2005                  :
  PAW_PBE Mn 06Sep2000                  :
  PAW_PBE H 15Jun2001                   :

 POSCAR: Cu-Mn-H2
  positions in direct lattice
  velocities in cartesian coordinates
 exchange correlation table for  LEXCH =        8
   RHO(1)=    0.500       N(1)  =     2000
   RHO(2)=  100.500       N(2)  =     4000

 VTST: version 3.2, (02/03/18)

 CHAIN: initializing optimizer

 OPT: Using VASP Conjugate-Gradient optimizer
 CHAIN: Read ICHAIN            0

 POSCAR: Cu-Mn-H2
  positions in direct lattice
  velocities in cartesian coordinates

 ion  position               nearest neighbor table
   1  0.000  0.000  0.252-   7 2.57   3 2.57   4 2.57   2 2.57   6 2.57   8 2.57  12 2.57  10 2.57
                            16 2.57
   2  0.333  0.000  0.252-   8 2.57   9 2.57   5 2.57   1 2.57   3 2.57  11 2.57   4 2.57  10 2.57
                            17 2.57
   3  0.667  0.000  0.252-   1 2.57   7 2.57   6 2.57   9 2.57   2 2.57  12 2.57   5 2.57  18 2.57
                            11 2.57
   4  0.000  0.333  0.252-   5 2.57   6 2.57   1 2.57   7 2.57   2 2.57  13 2.57   9 2.57  10 2.57
                            15 2.57
   5  0.333  0.333  0.252-   4 2.57   2 2.57   7 2.57  13 2.57   8 2.57   6 2.57   3 2.57  11 2.57
                            14 2.57
   6  0.667  0.333  0.252-   4 2.57   9 2.57  15 2.57   3 2.57   1 2.57   8 2.57  14 2.57   5 2.57
                            12 2.57
   7  0.000  0.667  0.252-   1 2.57   3 2.57  16 2.57  18 2.57   4 2.57   5 2.57   8 2.57   9 2.57
                            13 2.57
   8  0.333  0.667  0.252-   9 2.57   2 2.57  17 2.57   6 2.57   1 2.57   7 2.57   5 2.57  14 2.57
                            16 2.57
   9  0.667  0.667  0.252-   8 2.57   6 2.57   2 2.57  17 2.57   3 2.57   7 2.57   4 2.57  15 2.57
                            18 2.57
  10  0.111  0.111  0.351-  20 2.55  26 2.56  19 2.56  11 2.57  12 2.57  13 2.57   1 2.57   2 2.57
                             4 2.57  15 2.57  16 2.57  17 2.57
  11  0.444  0.111  0.351-  20 2.55  21 2.55  27 2.56  10 2.57  13 2.57   2 2.57  17 2.57  14 2.57
                            12 2.57   5 2.57   3 2.57  18 2.57
  12  0.778  0.111  0.351-  21 2.55  19 2.56  25 2.56  15 2.57  10 2.57  14 2.57  18 2.57   3 2.57
                             1 2.57  16 2.57  11 2.57   6 2.57
  13  0.111  0.444  0.351-  23 2.55  20 2.55  22 2.56  16 2.57  18 2.57  10 2.57  11 2.57  14 2.57
                             5 2.57   4 2.57   7 2.57  15 2.57
  14  0.444  0.444  0.351-  21 2.55  23 2.55  24 2.56  15 2.57  17 2.57  12 2.57  16 2.57  13 2.57
                            11 2.57   6 2.57   8 2.57   5 2.57
  15  0.778  0.444  0.351-  19 2.56  24 2.56  22 2.56  14 2.57  17 2.57  12 2.57   6 2.57  18 2.57
                            10 2.57   9 2.57  13 2.57   4 2.57
  16  0.111  0.778  0.351-  23 2.55  25 2.56  26 2.56  18 2.57  13 2.57   7 2.57  14 2.57  17 2.57
                            12 2.57  10 2.57   8 2.57   1 2.57
  17  0.444  0.778  0.351-  26 2.56  27 2.56  24 2.56  14 2.57  15 2.57   8 2.57   9 2.57  11 2.57
                            16 2.57  18 2.57  10 2.57   2 2.57
  18  0.778  0.778  0.351-  25 2.56  22 2.56  27 2.56  16 2.57  13 2.57   7 2.57  15 2.57  12 2.57
                            17 2.57   9 2.57   3 2.57  11 2.57
  19  0.889  0.222  0.449-  28 2.55  15 2.56  12 2.56  10 2.56  22 2.56  24 2.56  21 2.57  20 2.57
                            25 2.57  26 2.57  32 2.57  31 2.57
  20  0.222  0.222  0.448-  36 2.48  11 2.55  13 2.55  10 2.55  29 2.56  31 2.56  23 2.56  21 2.56
                            26 2.57  19 2.57  27 2.57  22 2.57
  21  0.555  0.222  0.448-  36 2.48  14 2.55  11 2.55  12 2.55  32 2.56  30 2.56  20 2.56  23 2.56
                            19 2.57  25 2.57  24 2.57  27 2.57
  22  0.888  0.556  0.449-  35 2.55  24 2.56  27 2.56  31 2.56  33 2.56  18 2.56  15 2.56  13 2.56
                            19 2.56  25 2.56  23 2.57  20 2.57
  23  0.222  0.555  0.448-  36 2.48  13 2.55  14 2.55  16 2.55  33 2.56  34 2.56  20 2.56  21 2.56
                            25 2.57  26 2.57  22 2.57  24 2.57
  24  0.556  0.556  0.449-  35 2.55  22 2.56  27 2.56  32 2.56  34 2.56  15 2.56  17 2.56  14 2.56
                            19 2.56  26 2.56  21 2.57  23 2.57
  25  0.889  0.889  0.449-  28 2.55  18 2.56  16 2.56  12 2.56  22 2.56  27 2.56  21 2.57  23 2.57
                            19 2.57  26 2.57  33 2.57  30 2.57
  26  0.222  0.889  0.449-  28 2.55  17 2.56  10 2.56  16 2.56  27 2.56  24 2.56  20 2.57  23 2.57
                            25 2.57  19 2.57  29 2.57  34 2.57
  27  0.556  0.888  0.449-  35 2.55  24 2.56  22 2.56  29 2.56  30 2.56  17 2.56  18 2.56  11 2.56
                            26 2.56  25 2.56  20 2.57  21 2.57
  28  0.000  0.000  0.547-  25 2.55  19 2.55  26 2.55  33 2.58  30 2.58  31 2.58  29 2.58  32 2.58
                            34 2.58
  29  0.333  0.003  0.547-  31 2.54  36 2.55  30 2.55  20 2.56  27 2.56  26 2.57  28 2.58  35 2.58
                            34 2.61
  30  0.664  0.003  0.547-  32 2.54  36 2.55  29 2.55  21 2.56  27 2.56  25 2.57  28 2.58  35 2.58
                            33 2.61
  31  0.003  0.333  0.547-  29 2.54  36 2.55  33 2.55  20 2.56  22 2.56  19 2.57  28 2.58  35 2.58
                            32 2.61
  32  0.664  0.333  0.547-  30 2.54  36 2.55  34 2.55  21 2.56  24 2.56  19 2.57  28 2.58  35 2.58
                            31 2.61
  33  0.003  0.664  0.547-  34 2.54  36 2.55  31 2.55  23 2.56  22 2.56  25 2.57  28 2.58  35 2.58
                            30 2.61
  34  0.333  0.664  0.547-  33 2.54  36 2.55  32 2.55  23 2.56  24 2.56  26 2.57  28 2.58  35 2.58
                            29 2.61
  35  0.667  0.667  0.547-  24 2.55  27 2.55  22 2.55  34 2.58  32 2.58  29 2.58  30 2.58  33 2.58
                            31 2.58
  36  0.333  0.333  0.542-  37 1.62  38 1.62  23 2.48  20 2.48  21 2.48  31 2.55  29 2.55  33 2.55
                            34 2.55  32 2.55  30 2.55
  37  0.275  0.328  0.615-  36 1.62
  38  0.398  0.328  0.615-  36 1.62

  LATTYP: Found a hexagonal cell.
 ALAT       =     7.6967864036
 C/A-ratio  =     2.7653617908

  Lattice vectors:

 A1 = (  -3.8483927580,  -6.6656128093,   0.0000000000)
 A2 = (   7.6967864037,   0.0000000000,   0.0000000000)
 A3 = (   0.0000000000,   0.0000000000,  21.2843990326)

Analysis of symmetry for initial positions (statically):
 Subroutine PRICEL returns:
 Original cell was already a primitive cell.

 Routine SETGRP: Setting up the symmetry group for a
 hexagonal supercell.

 Subroutine GETGRP returns: Found  2 space group operations
 (whereof  2 operations were pure point group operations)
 out of a pool of 24 trial point group operations.

The static configuration has the point symmetry C_1h.

Analysis of symmetry for dynamics (positions and initial velocities):
 Subroutine PRICEL returns:
 Original cell was already a primitive cell.

[...]

The dynamic configuration has the point symmetry C_1h.

Analysis of constrained symmetry for selective dynamics:
 Subroutine PRICEL returns:
 Original cell was already a primitive cell.

 Routine SETGRP: Setting up the symmetry group for a
 hexagonal supercell.

 Subroutine GETGRP returns: Found  2 space group operations
[...]
     33      -3.8948      2.00000
     34      -3.8894      2.00000
     35      -3.8564      2.00000
     36      -3.7745      2.00000
     37      -3.7614      2.00000
     38      -3.6723      2.00000
     39      -3.6648      2.00000
     40      -3.5873      2.00000
     41      -3.5842      2.00000
     42      -3.5682      2.00000
     43      -3.5447      2.00000
     44      -3.5392      2.00000
     45      -3.5204      2.00000
     46      -3.5102      2.00000
     47      -3.3369      2.00000
     48      -3.3165      2.00000
     49      -3.3148      2.00000
     50      -3.3058      2.00000
     51      -3.2569      2.00000
     52      -3.2523      2.00000
     53      -3.2402      2.00000
     54      -3.2170      2.00000
     55      -3.2146      2.00000
     56      -3.1928      2.00000
     57      -3.1797      2.00000
     58      -3.1716      2.00000
     59      -3.1632      2.00000
     60      -3.1555      2.00000
[...]
    238       6.7192      0.00000
    239       6.8281      0.00000
    240       6.9580      0.00000
    241       6.9963      0.00000
    242       7.0480      0.00000
    243       7.2167      0.00000
    244       7.2693      0.00000
    245       7.3350      0.00000
    246       7.4418      0.00000
    247       7.5219      0.00000
    248       7.6550      0.00000
    249       7.8396      0.00000
    250       8.0774      0.00000
    251       8.1672      0.00000
    252       8.3772      0.00000

 soft charge-density along one line, spin component           1
         0         1         2         3         4         5         6         7         8         9
 total charge-density along one line

------------------------ aborting loop because EDIFF is reached ----------------------------------------

 total charge

# of ion       s       p       d       tot
    1        0.449   0.283   9.189   9.922
    2        0.449   0.285   9.186   9.920
    3        0.449   0.285   9.186   9.920
    4        0.449   0.285   9.186   9.920
    5        0.449   0.286   9.179   9.914
    6        0.449   0.285   9.186   9.920
    7        0.449   0.285   9.186   9.920
    8        0.449   0.285   9.186   9.920
    9        0.448   0.282   9.191   9.920
   10        0.442   0.372   9.175   9.989
   11        0.445   0.365   9.185   9.995
   12        0.442   0.372   9.175   9.989
   13        0.444   0.366   9.184   9.994
   14        0.444   0.366   9.184   9.994
   15        0.439   0.370   9.177   9.986
   16        0.443   0.372   9.174   9.989
   17        0.438   0.371   9.177   9.986
   18        0.438   0.371   9.177   9.986
   19        0.441   0.369   9.180   9.990
   20        0.460   0.392   9.164  10.016
   21        0.460   0.392   9.164  10.016
   22        0.432   0.376   9.180   9.988
   23        0.461   0.394   9.162  10.017
   24        0.432   0.376   9.180   9.988
   25        0.441   0.368   9.182   9.991
   26        0.441   0.368   9.182   9.991
   27        0.433   0.375   9.181   9.988
   28        0.446   0.284   9.188   9.917
   29        0.458   0.297   9.176   9.931
   30        0.458   0.297   9.176   9.931
   31        0.454   0.303   9.173   9.930
   32        0.454   0.303   9.173   9.930
   33        0.458   0.297   9.175   9.930
   34        0.458   0.297   9.175   9.930
   35        0.442   0.287   9.186   9.915
   36        0.345   0.372   5.188   5.904
   37        0.530   0.030   0.000   0.560
   38        0.530   0.030   0.000   0.560
tot         17.049  12.095 326.469 355.613

  FORCE on cell =-STRESS in cart. coord.  units (eV):
  Direction    XX          YY          ZZ          XY          YZ          ZX
  Alpha Z   869.81560   869.81560   869.81560
  Ewald  172813.68241172793.85520************     0.00038    -0.14316     0.00016
  Hartree185746.32347185741.91292************     0.00004     0.40564     0.00006
  E(xc)   -2284.63760 -2284.85294 -2289.71098    -0.00030     0.03026    -0.00004
  Local  ************************371821.47584     0.01949    -0.18971    -0.00069
  n-local  -785.66398  -785.65357  -798.75361     1.67625     0.17787     0.08648
  augment  3336.24022  3336.22743  3357.54860    -0.01818    -0.13260     0.00018
  Kinetic  3212.95102  3217.02324  3241.87677     1.31813    -0.09225    -0.18929
  Fock        0.00000     0.00000     0.00000     0.00000     0.00000     0.00000
  Total      -8.53273    -8.55160     0.40173     0.00000     0.05604    -0.00000
  in kB     -12.51953   -12.54721     0.58944     0.00000     0.08223    -0.00000

 VOLUME and BASIS-vectors are now :
  energy-cutoff  :      500.00
  volume of cell :     1091.97
      direct lattice vectors                 reciprocal lattice vectors
     7.696786404  0.000000000  0.000000000     0.129924354 -0.075011849  0.000000000
     3.848392758  6.665612809  0.000000000     0.000000000  0.150023716  0.000000000
     0.000000000  0.000000000 21.284399033     0.000000000  0.000000000  0.046982769

  length of vectors
     7.696786404  7.696786404 21.284399033     0.150023716  0.150023716  0.046982769

 FORCES acting on ions
    electron-ion (+dipol)            ewald-force                    non-local-force                 convergence-correction
   -.408E-04 -.349E-01 0.347E+04   0.580E-04 -.483E-02 -.346E+04   -.178E-08 0.267E-01 -.270E+01   -.251E-03 0.157E-01 -.122E+00
   -.338E+00 -.753E-01 0.347E+04   0.904E-01 0.771E-01 -.346E+04   0.126E+00 0.801E-01 -.182E+01   0.126E+00 -.626E-01 -.140E+00
   0.338E+00 -.753E-01 0.347E+04   -.905E-01 0.770E-01 -.346E+04   -.126E+00 0.801E-01 -.182E+01   -.125E+00 -.602E-01 -.140E+00
   -.214E+00 -.244E+00 0.347E+04   0.116E+00 0.402E-01 -.346E+04   0.110E+00 0.439E-01 -.182E+01   0.114E-01 0.153E+00 -.123E+00
   -.615E-04 -.117E-01 0.346E+04   0.116E-03 0.285E-02 -.346E+04   -.139E-08 0.209E-01 -.146E+01   0.120E-01 -.888E-02 -.429E-01
   0.214E+00 -.244E+00 0.347E+04   -.116E+00 0.401E-01 -.346E+04   -.110E+00 0.439E-01 -.182E+01   -.128E-01 0.154E+00 -.122E+00
   0.764E-01 0.312E+00 0.347E+04   0.257E-01 -.117E+00 -.346E+04   0.635E-01 -.132E+00 -.178E+01   -.149E+00 -.765E-01 -.107E+00
   -.763E-01 0.312E+00 0.347E+04   -.260E-01 -.117E+00 -.346E+04   -.635E-01 -.132E+00 -.178E+01   0.152E+00 -.778E-01 -.107E+00
   -.143E-03 0.582E-01 0.347E+04   0.263E-03 0.206E-02 -.346E+04   0.187E-08 -.281E-01 -.236E+01   -.131E-01 -.352E-01 -.174E+00
   0.939E-01 0.163E-01 0.114E+04   0.296E+00 0.147E+00 -.114E+04   -.457E+00 -.212E+00 -.110E+01   0.619E-01 0.520E-01 -.130E+00
   -.903E-04 -.738E+00 0.114E+04   0.189E-03 0.264E+00 -.114E+04   -.208E-07 0.312E+00 -.385E+00   0.113E-01 0.107E+00 -.167E+00
   -.938E-01 0.163E-01 0.114E+04   -.296E+00 0.147E+00 -.114E+04   0.457E+00 -.212E+00 -.110E+01   -.629E-01 0.524E-01 -.132E+00
   -.601E+00 0.408E+00 0.114E+04   0.253E+00 -.110E+00 -.114E+04   0.258E+00 -.221E+00 -.412E+00   0.644E-01 -.550E-01 -.147E+00
   0.601E+00 0.408E+00 0.114E+04   -.253E+00 -.110E+00 -.114E+04   -.258E+00 -.221E+00 -.412E+00   -.414E-01 -.563E-01 -.150E+00
   -.143E-03 -.205E+00 0.114E+04   0.299E-03 -.177E+00 -.114E+04   -.133E-07 0.200E+00 -.983E+00   -.271E-02 0.168E+00 -.898E-01
   -.919E-04 -.137E+00 0.114E+04   0.186E-03 -.354E+00 -.114E+04   -.364E-07 0.547E+00 -.111E+01   -.104E-02 -.606E-01 -.140E+00
   -.691E-01 0.984E-01 0.114E+04   -.181E+00 0.965E-01 -.114E+04   0.128E+00 -.946E-01 -.989E+00   0.108E+00 -.907E-01 -.108E+00
   0.692E-01 0.985E-01 0.114E+04   0.181E+00 0.964E-01 -.114E+04   -.128E+00 -.946E-01 -.989E+00   -.107E+00 -.889E-01 -.107E+00
   -.632E-04 -.252E+01 -.119E+04   0.700E-04 0.227E+01 0.119E+04   -.318E-08 0.478E-01 0.894E+00   0.129E-01 0.198E+00 0.108E+00
   -.205E+02 -.118E+02 -.121E+04   0.217E+02 0.125E+02 0.121E+04   -.129E+01 -.740E+00 -.103E+01   0.410E-01 0.149E-01 0.189E+00
   0.205E+02 -.118E+02 -.121E+04   -.217E+02 0.125E+02 0.121E+04   0.129E+01 -.740E+00 -.103E+01   -.639E-01 0.131E-01 0.188E+00
   -.128E+02 0.723E+01 -.120E+04   0.124E+02 -.695E+01 0.120E+04   0.426E+00 -.307E+00 0.624E+00   -.977E-02 0.174E-02 0.783E-01
   -.794E-04 0.233E+02 -.121E+04   0.146E-03 -.248E+02 0.121E+04   -.109E-06 0.163E+01 -.122E+01   -.143E-01 -.478E-01 0.170E+00
   0.128E+02 0.723E+01 -.120E+04   -.124E+02 -.695E+01 0.120E+04   -.426E+00 -.307E+00 0.624E+00   0.333E-01 0.373E-02 0.789E-01
   0.220E+01 0.145E+01 -.119E+04   -.198E+01 -.134E+01 0.119E+04   -.567E-01 -.153E-01 0.915E+00   -.156E+00 -.894E-01 0.107E+00
   -.220E+01 0.145E+01 -.119E+04   0.198E+01 -.134E+01 0.119E+04   0.567E-01 -.153E-01 0.915E+00   0.177E+00 -.867E-01 0.107E+00
   -.123E-03 -.148E+02 -.120E+04   0.241E-03 0.142E+02 0.120E+04   -.417E-07 0.627E+00 0.604E+00   0.924E-02 0.207E-01 0.808E-01
   -.372E-04 0.910E+00 -.347E+04   0.391E-04 -.892E+00 0.347E+04   0.293E-08 -.439E-01 0.239E+01   -.121E-02 -.459E-02 0.300E+00
   -.161E+02 -.264E+02 -.347E+04   0.168E+02 0.272E+02 0.347E+04   -.798E+00 -.889E+00 0.194E+01   0.527E-01 0.281E-01 0.275E+00
   0.161E+02 -.264E+02 -.347E+04   -.168E+02 0.272E+02 0.347E+04   0.798E+00 -.889E+00 0.194E+01   -.311E-01 0.289E-01 0.275E+00
   -.300E+02 -.473E+00 -.347E+04   0.312E+02 0.541E+00 0.347E+04   -.120E+01 -.139E+00 0.209E+01   0.103E+00 0.749E-01 0.265E+00
   0.300E+02 -.473E+00 -.347E+04   -.312E+02 0.541E+00 0.347E+04   0.120E+01 -.139E+00 0.209E+01   -.804E-01 0.762E-01 0.267E+00
   -.170E+02 0.275E+02 -.347E+04   0.175E+02 -.284E+02 0.347E+04   -.567E+00 0.988E+00 0.190E+01   0.132E-01 -.101E+00 0.288E+00
   0.170E+02 0.275E+02 -.347E+04   -.175E+02 -.284E+02 0.347E+04   0.567E+00 0.988E+00 0.190E+01   0.113E-01 -.101E+00 0.290E+00
   -.127E-03 -.490E+00 -.348E+04   0.251E-03 0.453E+00 0.347E+04   -.665E-08 0.999E-01 0.267E+01   -.141E-01 -.393E-01 0.344E+00
   -.527E-04 -.177E+01 -.211E+04   0.913E-04 0.170E+01 0.211E+04   -.461E-08 0.692E-01 0.251E+00   0.889E-03 0.301E-01 0.131E+00
   0.135E+02 -.451E-01 -.379E+03   -.160E+02 0.355E-02 0.380E+03   0.257E+01 0.341E-01 -.142E+01   -.162E-01 0.625E-02 0.159E-01
   -.135E+02 -.451E-01 -.379E+03   0.160E+02 0.355E-02 0.380E+03   -.257E+01 0.341E-01 -.142E+01   0.162E-01 0.626E-02 0.159E-01
   -.234E-03 -.368E+00 0.788E+01   0.551E-13 0.481E-13 0.500E-11   -.203E-07 0.305E+00 -.919E+01   0.116E+00 0.625E-01 0.133E+01

 POSITION                                       TOTAL-FORCE (eV/Angst)
      0.00000      0.00000      5.37156        -0.000000      0.002676     -0.027601
      2.56560      0.00000      5.37156         0.004042      0.020492      0.058242
      5.13119      0.00000      5.37156        -0.004042      0.020492      0.058242
      1.28280      2.22187      5.37156         0.024328     -0.006259      0.054686
      3.84839      2.22187      5.37156        -0.000000      0.003077      0.018206
      6.41399      2.22187      5.37156        -0.024328     -0.006259      0.054686
      2.56560      4.44374      5.37156         0.015483     -0.014660      0.058092
      5.13119      4.44374      5.37156        -0.015483     -0.014660      0.058092
      7.69679      4.44374      5.37156         0.000000     -0.002996      0.011655
      1.28280      0.74062      7.46636        -0.004925      0.004162     -0.061157
      3.84839      0.74062      7.46636         0.000000     -0.054197     -0.077220
      6.41399      0.74062      7.46636         0.004925      0.004162     -0.061157
      2.56560      2.96249      7.46636        -0.036456      0.021405     -0.065585
      5.13119      2.96249      7.46636         0.036456      0.021405     -0.065585
      7.69679      2.96249      7.46636         0.000000     -0.014332     -0.027207
      3.84839      5.18437      7.46636         0.000000     -0.004917     -0.057208
      6.41399      5.18437      7.46636        -0.013954      0.010526     -0.021602
      8.97958      5.18437      7.46636         0.013954      0.010526     -0.021602
      7.69679      1.48275      9.55327         0.000000     -0.006666      0.060843
      2.56715      1.48214      9.54261        -0.034444     -0.045457     -0.142771
      5.12964      1.48214      9.54261         0.034444     -0.045457     -0.142771
      8.97640      3.70496      9.55687         0.038704     -0.023328      0.011110
      3.84839      3.70133      9.54261        -0.000000      0.055340     -0.112546
      6.41717      3.70496      9.55687        -0.038704     -0.023328      0.011110
     10.26108      5.92424      9.55327         0.000173      0.003990      0.034560
      5.13249      5.92424      9.55327        -0.000173      0.003990      0.034560
      7.69679      5.92131      9.55687        -0.000000      0.051800      0.007126
      0.00000      0.00000     11.63217         0.000000     -0.030541     -0.052722
      2.57513      0.01976     11.64308        -0.016272     -0.020495     -0.007438
      5.12165      0.01976     11.64308         0.016272     -0.020495     -0.007438
      1.30468      2.22025     11.64308         0.052920      0.004232      0.065250
      6.39211      2.22025     11.64308        -0.052920      0.004232      0.065250
      2.57794      4.42560     11.64308        -0.018150      0.022119     -0.014368
      5.11885      4.42560     11.64308         0.018150      0.022119     -0.014368
      7.69679      4.44374     11.63403        -0.000000      0.022779     -0.042138
      3.84839      2.22187     11.52902        -0.000000      0.026822      0.403585
      3.37557      2.18409     13.08115         0.041357     -0.001152     -0.021407
      4.32122      2.18409     13.08115        -0.041357     -0.001152     -0.021407
    total drift:                                0.116078      0.000208      0.009687

  FREE ENERGIE OF THE ION-ELECTRON SYSTEM (eV)
  free  energy   TOTEN  =      -136.70448140 eV

  energy  without entropy=     -136.70448140  energy(sigma->0) =     -136.70448140

 stress matrix after NEB project (eV)
     -8.53273      0.00000     -0.00000
      0.00000     -8.55160      0.05604
     -0.00000      0.05604      0.40173
  FORCES: max atom, RMS     0.046584    0.010687
  FORCE total and by dimension    0.065879    0.041357
  Stress total and by dimension   12.087394    8.551600
|           W    W    AA    RRRRR   N    N  II  N    N   GGGG   !!!           |
|           W    W   A  A   R    R  NN   N  II  NN   N  G    G  !!!           |
|           W    W  A    A  R    R  N N  N  II  N N  N  G       !!!           |
|           W WW W  AAAAAA  RRRRR   N  N N  II  N  N N  G  GGG   !            |
|           WW  WW  A    A  R   R   N   NN  II  N   NN  G    G                |
|           W    W  A    A  R    R  N    N  II  N    N   GGGG   !!!           |
|     Tetrahedron method does not include variations of the Fermi             |
|     occupations, so forces and stress will be inaccurate. We suggest        |
|     using a different smearing scheme ISMEAR = 1 or 2 for metals in         |
|     relaxations.                                                            |

 total charge

# of ion       s       p       d       tot
    1        0.449   0.283   9.189   9.922
    2        0.449   0.285   9.186   9.920
    3        0.449   0.285   9.186   9.920
    4        0.449   0.285   9.186   9.920
    5        0.449   0.286   9.179   9.914
    6        0.449   0.285   9.186   9.920
    7        0.449   0.285   9.186   9.920
    8        0.449   0.285   9.186   9.920
    9        0.448   0.282   9.191   9.920
   10        0.442   0.372   9.175   9.989
   11        0.445   0.365   9.185   9.995
   12        0.442   0.372   9.175   9.989
   13        0.444   0.366   9.184   9.994
   14        0.444   0.366   9.184   9.994
   15        0.439   0.370   9.177   9.986
   16        0.443   0.372   9.174   9.989
   17        0.438   0.371   9.177   9.986
   18        0.438   0.371   9.177   9.986
   19        0.441   0.369   9.180   9.990
   20        0.460   0.392   9.164  10.016
   21        0.460   0.392   9.164  10.016
   22        0.432   0.376   9.180   9.988
   23        0.461   0.394   9.162  10.017
   24        0.432   0.376   9.180   9.988
   25        0.441   0.368   9.182   9.991
   26        0.441   0.368   9.182   9.991
   27        0.433   0.375   9.181   9.988
   28        0.446   0.284   9.188   9.917
   29        0.458   0.297   9.176   9.931
   30        0.458   0.297   9.176   9.931
   31        0.454   0.303   9.173   9.930
   32        0.454   0.303   9.173   9.930
   33        0.458   0.297   9.175   9.930
   34        0.458   0.297   9.175   9.930
   35        0.442   0.287   9.186   9.915
   36        0.345   0.372   5.188   5.904
   37        0.530   0.030   0.000   0.560
   38        0.530   0.030   0.000   0.560
tot         17.049  12.095 326.469 355.613

 BZINTS: Fermi energy:    0.107099;  394.000000 electrons
         Band energy:-0.106170E+04;  BLOECHL correction:   -0.027387