 vasp.6.2.0 18Jan21 (build Jun 12 2021 23:27:24) complex

 executed on             LinuxIFC date 2022.05.26  19:17:26

 INCAR:
   ISMEAR = -5
   SIGMA = 0.1
   ISPIN = 1
   EDIFF = 1.d-5
   EDIFFG = -0.01
   NSW = 0
   NELM = 150
   ENCUT = 500
   ISIF = 2
   IBRION = 2
   LREAL = Auto
   ALGO = Fast
   ICHARG = 11
   LORBIT = 10
   LCHARG = .F.
   LWAVE = .F.

 POTCAR:    PAW_PBE Au 04Oct2007
 POTCAR:    PAW_PBE Ti 08Apr2002
 POTCAR:    PAW_PBE N 08Apr2002
|           W    W    AA    RRRRR   N    N  II  N    N   GGGG   !!!           |
|           W    W   A  A   R    R  NN   N  II  NN   N  G    G  !!!           |
|           W    W  A    A  R    R  N N  N  II  N N  N  G       !!!           |
|           W WW W  AAAAAA  RRRRR   N  N N  II  N  N N  G  GGG   !            |
|           WW  WW  A    A  R   R   N   NN  II  N   NN  G    G                |
|           W    W  A    A  R    R  N    N  II  N    N   GGGG   !!!           |
|     For optimal performance we recommend to set                             |
|       NCORE = 2 up to number-of-cores-per-socket                            |
|     This setting can greatly improve the performance of VASP for DFT.       |
|     The default, NCORE=1 might be grossly inefficient on modern             |
|     multi-core architectures or massively parallel machines. Do your        |
|     Unfortunately you need to use the default for GW and RPA                |
|     calculations (for HF NCORE is supported but not extensively tested      |
|     yet).                                                                   |

 POTCAR:    PAW_PBE Au 04Oct2007
   VRHFIN =Au: s1d10

   TITEL  = PAW_PBE Au 04Oct2007
   POMASS =  196.966; ZVAL   =   11.000    mass and valenz
   ENMAX  =  229.943; ENMIN  =  172.457 eV

 POTCAR:    PAW_PBE Ti 08Apr2002
   VRHFIN =Ti: d3 s1

   TITEL  = PAW_PBE Ti 08Apr2002
   POMASS =   47.880; ZVAL   =    4.000    mass and valenz
   ENMAX  =  178.330; ENMIN  =  133.747 eV

 POTCAR:    PAW_PBE N 08Apr2002
   VRHFIN =N: s2p3

   TITEL  = PAW_PBE N 08Apr2002
   POMASS =   14.001; ZVAL   =    5.000    mass and valenz
   ENMAX  =  400.000; ENMIN  =  300.000 eV

 Optimization of the real space projectors (new method)

 maximal supplied QI-value         = 15.12
 optimisation between [QCUT,QGAM] = [ 11.34, 22.83] = [ 36.00,145.93] Ry
 Optimized for a Real-space Cutoff    1.39 Angstroem

   l    n(q)    QCUT    max X(q) W(low)/X(q) W(high)/X(q)  e(spline)
   2      9    11.338    60.898    0.39E-03    0.42E-03    0.21E-06
   2      9    11.338    58.894    0.40E-03    0.42E-03    0.22E-06
   0      9    11.338   109.617    0.13E-03    0.20E-04    0.13E-06
   0      9    11.338    75.026    0.13E-03    0.20E-04    0.13E-06
   1      9    11.338    16.344    0.33E-04    0.24E-03    0.18E-06
   1      9    11.338    10.160    0.26E-04    0.19E-03    0.15E-06
 Optimization of the real space projectors (new method)

[...]

   l    n(q)    QCUT    max X(q) W(low)/X(q) W(high)/X(q)  e(spline)
   2     10    11.404    49.363    0.27E-03    0.67E-03    0.76E-06
   2     10    11.404    47.669    0.26E-03    0.65E-03    0.73E-06
   0     11    11.404    26.374    0.17E-03    0.20E-03    0.34E-06
   0     11    11.404    11.549    0.14E-03    0.16E-03    0.29E-06
   1     10    11.404     9.492    0.33E-04    0.56E-04    0.16E-06
 Optimization of the real space projectors (new method)

 maximal supplied QI-value         = 25.13
 optimisation between [QCUT,QGAM] = [ 11.31, 22.87] = [ 35.82,146.48] Ry
 Optimized for a Real-space Cutoff    1.27 Angstroem

   l    n(q)    QCUT    max X(q) W(low)/X(q) W(high)/X(q)  e(spline)
   0      9    11.310    79.467    0.75E-04    0.16E-03    0.36E-06
   0      9    11.310    66.151    0.74E-04    0.16E-03    0.36E-06
   1      8    11.310    17.416    0.35E-03    0.12E-03    0.95E-06
   1      8    11.310    12.382    0.37E-03    0.13E-03    0.98E-06
  PAW_PBE Au 04Oct2007                  :
  PAW_PBE Ti 08Apr2002                  :
  PAW_PBE N 08Apr2002                   :

 POSCAR: Au-Ti-N
  positions in direct lattice
  velocities in cartesian coordinates
 exchange correlation table for  LEXCH =        8
   RHO(1)=    0.500       N(1)  =     2000
   RHO(2)=  100.500       N(2)  =     4000

 VTST: version 3.2, (02/03/18)

 CHAIN: initializing optimizer

 OPT: Using VASP Conjugate-Gradient optimizer
 CHAIN: Read ICHAIN            0

 POSCAR: Au-Ti-N
  positions in direct lattice
  velocities in cartesian coordinates

 ion  position               nearest neighbor table
   1  0.000  0.000  0.238-  16 2.94  12 2.94   6 2.94   8 2.94   7 2.94   3 2.94  10 2.94   4 2.94
                             2 2.94
   2  0.333  0.000  0.238-   9 2.94  11 2.94  17 2.94  10 2.94   8 2.94   4 2.94   5 2.94   1 2.94
                             3 2.94
   3  0.667  0.000  0.238-   7 2.94  18 2.94  12 2.94   1 2.94  11 2.94   5 2.94   6 2.94   9 2.94
                             2 2.94
   4  0.000  0.333  0.238-  10 2.94   6 2.94   5 2.94  13 2.94   2 2.94  15 2.94   9 2.94   1 2.94
                             7 2.94
   5  0.333  0.333  0.238-  13 2.94   7 2.94  11 2.94   4 2.94   2 2.94  14 2.94   3 2.94   8 2.94
                             6 2.94
   6  0.667  0.333  0.238-  15 2.94  14 2.94   1 2.94  12 2.94   4 2.94   9 2.94   8 2.94   3 2.94
                             5 2.94
   7  0.000  0.667  0.238-  18 2.94   3 2.94  16 2.94   5 2.94   1 2.94  13 2.94   8 2.94   4 2.94
                             9 2.94
   8  0.333  0.667  0.238-   9 2.94  17 2.94   1 2.94   2 2.94  14 2.94  16 2.94   6 2.94   7 2.94
                             5 2.94
   9  0.667  0.667  0.238-   2 2.94   8 2.94  17 2.94   6 2.94  15 2.94   4 2.94   3 2.94  18 2.94
                             7 2.94
  10  0.111  0.111  0.346-  26 2.93  19 2.93  20 2.93  11 2.94  17 2.94   2 2.94   4 2.94   1 2.94
                            12 2.94  16 2.94  13 2.94  15 2.94
  11  0.444  0.111  0.346-  20 2.92  21 2.92  27 2.94  13 2.94   2 2.94  10 2.94  17 2.94   5 2.94
                             3 2.94  18 2.94  14 2.94  12 2.94
  12  0.778  0.111  0.346-  25 2.93  19 2.93  21 2.93  16 2.94  18 2.94   1 2.94  14 2.94  15 2.94
                             3 2.94   6 2.94  10 2.94  11 2.94
  13  0.111  0.444  0.346-  23 2.92  20 2.92  22 2.94   5 2.94  18 2.94  11 2.94   7 2.94   4 2.94
                            16 2.94  10 2.94  14 2.94  15 2.94
  14  0.444  0.444  0.346-  21 2.92  23 2.92  24 2.94  15 2.94   6 2.94  12 2.94   8 2.94  17 2.94
                             5 2.94  16 2.94  13 2.94  11 2.94
  15  0.778  0.444  0.346-  24 2.92  22 2.92  19 2.93  14 2.94   6 2.94  17 2.94  12 2.94   9 2.94
                             4 2.94  10 2.94  13 2.94  18 2.94
  16  0.111  0.778  0.346-  25 2.93  26 2.93  23 2.93  18 2.94  12 2.94   7 2.94   1 2.94   8 2.94
                            13 2.94  10 2.94  14 2.94  17 2.94
  17  0.444  0.778  0.346-  27 2.92  24 2.92  26 2.93   9 2.94  15 2.94   2 2.94  10 2.94  11 2.94
                             8 2.94  14 2.94  16 2.94  18 2.94
  18  0.778  0.778  0.346-  22 2.92  27 2.92  25 2.93  16 2.94   7 2.94  13 2.94  12 2.94   3 2.94
                            11 2.94   9 2.94  15 2.94  17 2.94
  19  0.889  0.222  0.454-  10 2.93  12 2.93  15 2.93  26 2.94  25 2.94  24 2.94  22 2.94  21 2.95
                            20 2.95  28 2.95  32 3.03  31 3.03
  20  0.223  0.223  0.453-  36 2.76  23 2.91  21 2.91  11 2.92  13 2.92  10 2.93  27 2.95  22 2.95
                            26 2.95  19 2.95  29 2.96  31 2.96
  21  0.554  0.223  0.453-  36 2.76  20 2.91  23 2.91  14 2.92  11 2.92  12 2.93  27 2.95  24 2.95
                            25 2.95  19 2.95  30 2.96  32 2.96
  22  0.887  0.556  0.454-  24 2.92  27 2.92  18 2.92  15 2.92  13 2.94  25 2.94  19 2.94  23 2.95
                            20 2.95  35 2.96  33 2.99  31 2.99
  23  0.223  0.554  0.453-  36 2.76  20 2.91  21 2.91  13 2.92  14 2.92  16 2.93  22 2.95  24 2.95
                            25 2.95  26 2.95  33 2.96  34 2.96
  24  0.556  0.556  0.454-  27 2.92  22 2.92  15 2.92  17 2.92  14 2.94  26 2.94  19 2.94  21 2.95
                            23 2.95  35 2.96  32 2.99  34 2.99
  25  0.889  0.889  0.454-  16 2.93  12 2.93  18 2.93  19 2.94  26 2.94  22 2.94  27 2.94  23 2.95
                            21 2.95  28 2.95  33 3.03  30 3.03
  26  0.222  0.889  0.454-  10 2.93  16 2.93  17 2.93  19 2.94  25 2.94  27 2.94  24 2.94  20 2.95
                            23 2.95  28 2.95  29 3.03  34 3.03
  27  0.556  0.887  0.454-  24 2.92  22 2.92  17 2.92  18 2.92  11 2.94  26 2.94  25 2.94  20 2.95
                            21 2.95  35 2.96  29 2.99  30 2.99
  28  0.000  0.000  0.563-  25 2.95  19 2.95  26 2.95  34 2.98  32 2.98  33 2.98  30 2.98  31 2.98
                            29 2.98
  29  0.334  0.009  0.564-  30 2.85  31 2.86  36 2.87  20 2.96  35 2.98  28 2.98  27 2.99  26 3.03
                            34 3.10
  30  0.657  0.009  0.564-  29 2.85  32 2.86  36 2.87  21 2.96  35 2.98  28 2.98  27 2.99  25 3.03
                            33 3.10
  31  0.009  0.334  0.564-  33 2.85  29 2.86  36 2.87  20 2.96  35 2.98  28 2.98  22 2.99  19 3.03
                            32 3.10
  32  0.657  0.334  0.564-  34 2.85  30 2.86  36 2.87  21 2.96  35 2.98  28 2.98  24 2.99  19 3.03
                            31 3.10
  33  0.009  0.657  0.564-  31 2.85  34 2.86  36 2.87  23 2.96  35 2.98  28 2.98  22 2.99  25 3.03
                            30 3.10
  34  0.334  0.657  0.564-  32 2.85  33 2.86  36 2.87  23 2.96  35 2.98  28 2.98  24 2.99  26 3.03
                            29 3.10
  35  0.667  0.667  0.563-  24 2.96  27 2.96  22 2.96  29 2.98  34 2.98  32 2.98  31 2.98  30 2.98
                            33 2.98
  36  0.333  0.333  0.552-  37 1.73  20 2.76  23 2.76  21 2.76  33 2.87  31 2.87  29 2.87  30 2.87
                            34 2.87  32 2.87
  37  0.333  0.333  0.630-  36 1.73

  LATTYP: Found a hexagonal cell.
 ALAT       =     8.8135128021
 C/A-ratio  =     2.5184286595

  Lattice vectors:

 A1 = (  -4.4067569092,  -7.6327256898,   0.0000000000)
 A2 = (   8.8135128021,   0.0000000000,   0.0000000000)
 A3 = (   0.0000000000,   0.0000000000,  22.1962032318)

Analysis of symmetry for initial positions (statically):
 Subroutine PRICEL returns:
 Original cell was already a primitive cell.

 Routine SETGRP: Setting up the symmetry group for a
 hexagonal supercell.

 Subroutine GETGRP returns: Found  6 space group operations
 (whereof  6 operations were pure point group operations)
 out of a pool of 24 trial point group operations.

The static configuration has the point symmetry C_3v.

Analysis of symmetry for dynamics (positions and initial velocities):
 Subroutine PRICEL returns:
 Original cell was already a primitive cell.

[...]

The dynamic configuration has the point symmetry C_3v.

Analysis of constrained symmetry for selective dynamics:
 Subroutine PRICEL returns:
 Original cell was already a primitive cell.

 Routine SETGRP: Setting up the symmetry group for a
 hexagonal supercell.

 Subroutine GETGRP returns: Found  6 space group operations
 (whereof  6 operations were pure point group operations)
[...]
     24      -5.2283      2.00000
     25      -5.1961      2.00000
     26      -5.1691      2.00000
     27      -5.1514      2.00000
     28      -5.0793      2.00000
     29      -5.0367      2.00000
     30      -4.9340      2.00000
     31      -4.9266      2.00000
     32      -4.9002      2.00000
     33      -4.8859      2.00000
     34      -4.8708      2.00000
     35      -4.8423      2.00000
     36      -4.7420      2.00000
     37      -4.7327      2.00000
     38      -4.6859      2.00000
     39      -4.6727      2.00000
     40      -4.6195      2.00000
     41      -4.5545      2.00000
     42      -4.5200      2.00000
     43      -4.4710      2.00000
     44      -4.4512      2.00000
     45      -4.4483      2.00000
     46      -4.4230      2.00000
     47      -4.3301      2.00000
     48      -4.3117      2.00000
     49      -4.2895      2.00000
     50      -4.2589      2.00000
     51      -4.2498      2.00000
     52      -4.2443      2.00000
     53      -4.2280      2.00000
     54      -4.2094      2.00000
     55      -4.1638      2.00000
     56      -4.1380      2.00000
     57      -4.1184      2.00000
     58      -4.1131      2.00000
     59      -4.0915      2.00000
     60      -4.0883      2.00000
[...]
    238       6.3725      0.00000
    239       6.5175      0.00000
    240       6.5416      0.00000
    241       6.6042      0.00000
    242       6.6555      0.00000
    243       6.7331      0.00000
    244       6.7494      0.00000
    245       6.9445      0.00000
    246       7.0720      0.00000
    247       7.1348      0.00000
    248       7.2355      0.00000
    249       7.5600      0.00000
    250       7.6339      0.00000
    251       7.7518      0.00000
    252       7.8412      0.00000

 soft charge-density along one line, spin component           1
         0         1         2         3         4         5         6         7         8         9
 total charge-density along one line

------------------------ aborting loop because EDIFF is reached ----------------------------------------

 total charge

# of ion       s       p       d       tot
    1        0.544   0.239   8.767   9.550
    2        0.542   0.241   8.765   9.548
    3        0.542   0.241   8.765   9.548
    4        0.542   0.241   8.765   9.548
    5        0.546   0.240   8.763   9.548
    6        0.542   0.241   8.765   9.548
    7        0.542   0.241   8.765   9.548
    8        0.542   0.241   8.765   9.548
    9        0.542   0.240   8.767   9.550
   10        0.519   0.307   8.773   9.600
   11        0.521   0.307   8.776   9.604
   12        0.519   0.307   8.773   9.600
   13        0.521   0.307   8.776   9.604
   14        0.521   0.307   8.776   9.604
   15        0.517   0.310   8.772   9.599
   16        0.519   0.307   8.773   9.600
   17        0.517   0.310   8.772   9.599
   18        0.517   0.310   8.772   9.599
   19        0.514   0.297   8.774   9.586
   20        0.550   0.324   8.754   9.628
   21        0.550   0.324   8.754   9.628
   22        0.509   0.306   8.775   9.591
   23        0.550   0.324   8.754   9.628
   24        0.509   0.306   8.775   9.591
   25        0.514   0.297   8.774   9.586
   26        0.514   0.297   8.774   9.586
   27        0.509   0.306   8.775   9.591
   28        0.541   0.225   8.762   9.528
   29        0.561   0.231   8.758   9.550
   30        0.561   0.231   8.758   9.550
   31        0.561   0.231   8.758   9.550
   32        0.561   0.231   8.758   9.550
   33        0.561   0.231   8.758   9.550
   34        0.561   0.231   8.758   9.550
   35        0.544   0.225   8.759   9.528
   36        0.503   0.707   2.852   4.063
   37        1.342   2.155   0.000   3.497
tot         20.574  12.419 309.684 342.678

  FORCE on cell =-STRESS in cart. coord.  units (eV):
  Direction    XX          YY          ZZ          XY          YZ          ZX
  Alpha Z  1006.87891  1006.87891  1006.87891
  Ewald  116688.35562116688.35601************    -0.00033    -0.00009    -0.00014
  Hartree125241.16023125241.16022************     0.00000    -0.00002    -0.00004
  E(xc)   -1763.17374 -1763.17373 -1773.26776    -0.00001     0.00000    -0.00000
  Local  ************************254221.98300     0.00192     0.00003     0.00003
  n-local   -83.07228   -40.82096   -47.33190    22.04108    -1.54934     1.58152
  augment  2370.76640  2370.76794  2390.34042    -0.00134     0.00001     0.00003
  Kinetic  5457.89465  5465.46261  5521.70829     5.63897     0.22561     0.44988
  Fock        0.00000     0.00000     0.00000     0.00000     0.00000     0.00000
  Total     -19.60938   -19.60938     2.09722    -0.00000     0.00000     0.00000
  in kB     -21.04103   -21.04103     2.25033    -0.00000     0.00000     0.00000

 VOLUME and BASIS-vectors are now :
  energy-cutoff  :      500.00
  volume of cell :     1493.16
      direct lattice vectors                 reciprocal lattice vectors
     8.813512802  0.000000000  0.000000000     0.113462137 -0.065507406  0.000000000
     4.406756909  7.632725690  0.000000000     0.000000000  0.131014796  0.000000000
     0.000000000  0.000000000 22.196203232     0.000000000  0.000000000  0.045052750

  length of vectors
     8.813512802  8.813512802 22.196203232     0.131014796  0.131014796  0.045052750

 FORCES acting on ions
    electron-ion (+dipol)            ewald-force                    non-local-force                 convergence-correction
   -.194E-04 -.161E-04 0.246E+04   0.518E-04 0.432E-04 -.246E+04   -.774E-18 -.222E-17 -.641E+00   -.181E-03 -.118E-03 -.451E+00
   0.915E-01 -.421E+00 0.246E+04   -.127E+00 0.257E+00 -.246E+04   0.191E-01 0.825E-01 -.363E+00   0.143E-01 0.688E-01 -.415E+00
   -.916E-01 -.421E+00 0.246E+04   0.127E+00 0.257E+00 -.246E+04   -.191E-01 0.825E-01 -.363E+00   -.141E-01 0.707E-01 -.414E+00
   -.319E+00 0.290E+00 0.246E+04   0.159E+00 -.239E+00 -.246E+04   0.810E-01 -.247E-01 -.363E+00   0.668E-01 -.221E-01 -.415E+00
   0.861E-05 -.233E-04 0.246E+04   0.951E-04 0.172E-05 -.246E+04   -.127E-17 -.780E-18 -.252E+00   0.424E-02 0.258E-02 -.349E+00
   0.319E+00 0.290E+00 0.246E+04   -.159E+00 -.239E+00 -.246E+04   -.810E-01 -.247E-01 -.363E+00   -.683E-01 -.211E-01 -.414E+00
   -.410E+00 0.131E+00 0.246E+04   0.286E+00 -.186E-01 -.246E+04   0.619E-01 -.578E-01 -.363E+00   0.543E-01 -.475E-01 -.414E+00
   0.410E+00 0.131E+00 0.246E+04   -.286E+00 -.186E-01 -.246E+04   -.619E-01 -.578E-01 -.363E+00   -.524E-01 -.486E-01 -.414E+00
   0.194E-04 -.418E-04 0.246E+04   0.166E-03 -.200E-04 -.246E+04   0.847E-17 0.140E-17 -.510E+00   -.461E-02 -.238E-02 -.351E+00
   -.231E+00 -.134E+00 0.801E+03   0.314E+00 0.181E+00 -.800E+03   -.177E+00 -.102E+00 -.429E+00   0.632E-01 0.364E-01 -.124E-01
   0.140E-04 -.107E+01 0.801E+03   0.148E-03 0.967E+00 -.800E+03   0.349E-08 0.525E-01 -.337E+00   0.363E-02 0.278E-01 0.555E-02
   0.231E+00 -.133E+00 0.801E+03   -.314E+00 0.181E+00 -.800E+03   0.177E+00 -.102E+00 -.429E+00   -.643E-01 0.375E-01 -.134E-01
   -.928E+00 0.536E+00 0.801E+03   0.837E+00 -.483E+00 -.800E+03   0.455E-01 -.262E-01 -.337E+00   0.262E-01 -.105E-01 0.554E-02
   0.928E+00 0.536E+00 0.801E+03   -.837E+00 -.483E+00 -.800E+03   -.455E-01 -.262E-01 -.337E+00   -.188E-01 -.110E-01 0.456E-02
   0.320E-04 0.297E+01 0.805E+03   0.235E-03 -.305E+01 -.804E+03   0.160E-08 0.241E-01 -.491E+00   -.207E-02 0.248E-01 -.422E-01
   -.209E-04 0.267E+00 0.801E+03   0.162E-03 -.362E+00 -.800E+03   0.136E-07 0.204E+00 -.429E+00   0.357E-04 -.745E-01 -.134E-01
   0.258E+01 -.149E+01 0.805E+03   -.264E+01 0.152E+01 -.804E+03   0.208E-01 -.120E-01 -.491E+00   0.207E-01 -.138E-01 -.421E-01
   -.258E+01 -.149E+01 0.805E+03   0.264E+01 0.152E+01 -.804E+03   -.208E-01 -.120E-01 -.491E+00   -.206E-01 -.122E-01 -.422E-01
   -.423E-04 -.406E+01 -.869E+03   0.559E-04 0.391E+01 0.868E+03   0.872E-08 0.131E+00 0.893E+00   0.350E-02 0.358E-01 0.443E+00
   -.159E+02 -.920E+01 -.883E+03   0.164E+02 0.949E+01 0.883E+03   -.874E+00 -.505E+00 -.740E+00   0.103E+00 0.591E-01 0.538E+00
   0.159E+02 -.920E+01 -.883E+03   -.164E+02 0.949E+01 0.883E+03   0.874E+00 -.505E+00 -.740E+00   -.103E+00 0.601E-01 0.538E+00
   -.132E+02 0.762E+01 -.862E+03   0.129E+02 -.742E+01 0.861E+03   0.319E+00 -.184E+00 0.652E+00   0.960E-01 -.568E-01 0.409E+00
   -.809E-05 0.184E+02 -.883E+03   0.138E-03 -.190E+02 0.883E+03   0.672E-07 0.101E+01 -.740E+00   0.158E-03 -.119E+00 0.538E+00
   0.132E+02 0.762E+01 -.862E+03   -.129E+02 -.742E+01 0.861E+03   -.319E+00 -.184E+00 0.652E+00   -.963E-01 -.555E-01 0.409E+00
   0.352E+01 0.203E+01 -.869E+03   -.339E+01 -.196E+01 0.868E+03   -.113E+00 -.655E-01 0.893E+00   -.259E-01 -.150E-01 0.443E+00
   -.352E+01 0.203E+01 -.869E+03   0.339E+01 -.196E+01 0.868E+03   0.113E+00 -.655E-01 0.893E+00   0.331E-01 -.148E-01 0.443E+00
   0.818E-05 -.152E+02 -.862E+03   0.199E-03 0.148E+02 0.861E+03   0.245E-07 0.368E+00 0.652E+00   -.176E-02 0.112E+00 0.409E+00
   -.110E-04 -.114E-04 -.243E+04   0.278E-04 0.315E-04 0.243E+04   -.245E-17 0.109E-17 0.549E+00   0.287E-03 0.150E-03 0.516E+00
   0.301E+01 -.657E+00 -.243E+04   -.257E+01 0.138E+01 0.243E+04   -.714E+00 -.116E+01 0.922E+00   0.139E+00 0.212E+00 0.502E+00
   -.301E+01 -.657E+00 -.243E+04   0.257E+01 0.138E+01 0.243E+04   0.714E+00 -.116E+01 0.922E+00   -.139E+00 0.213E+00 0.503E+00
   0.935E+00 0.293E+01 -.243E+04   -.951E-01 -.292E+01 0.243E+04   -.137E+01 -.360E-01 0.922E+00   0.253E+00 0.146E-01 0.502E+00
   -.935E+00 0.293E+01 -.243E+04   0.950E-01 -.292E+01 0.243E+04   0.137E+01 -.360E-01 0.922E+00   -.253E+00 0.158E-01 0.503E+00
   -.207E+01 -.228E+01 -.243E+04   0.248E+01 0.154E+01 0.243E+04   -.651E+00 0.120E+01 0.922E+00   0.115E+00 -.227E+00 0.503E+00
   0.207E+01 -.228E+01 -.243E+04   -.248E+01 0.154E+01 0.243E+04   0.651E+00 0.120E+01 0.922E+00   -.113E+00 -.227E+00 0.503E+00
   0.327E-04 -.319E-04 -.244E+04   0.144E-03 -.468E-04 0.244E+04   -.121E-16 -.146E-17 0.427E+00   -.455E-02 -.233E-02 0.501E+00
   -.829E-05 0.403E-05 -.770E+03   0.413E-04 0.374E-05 0.770E+03   -.129E-17 -.542E-18 0.133E+01   0.388E-03 0.237E-03 0.275E+00
   0.100E-03 -.576E-04 -.128E+04   0.205E-04 0.132E-05 0.129E+04   -.171E-18 0.108E-18 -.140E+02   0.146E-02 0.895E-03 -.168E+00
   -.687E-03 -.820E-03 0.715E+01   -.794E-13 0.213E-12 0.455E-12   -.236E-15 -.224E-15 -.111E+02   0.147E-01 0.910E-02 0.452E+01

 POSITION                                       TOTAL-FORCE (eV/Angst)
      0.00000      0.00000      5.28038        -0.000000      0.000000     -0.111209
      2.93784      0.00000      5.28038        -0.001657     -0.011397     -0.051387
      5.87568      0.00000      5.28038         0.001657     -0.011397     -0.051387
      1.46892      2.54424      5.28038        -0.010698      0.004263     -0.051387
      4.40676      2.54424      5.28038        -0.000000      0.000000     -0.093759
      7.34459      2.54424      5.28038         0.010698      0.004263     -0.051387
      2.93784      5.08848      5.28038        -0.009041      0.007133     -0.051387
      5.87568      5.08848      5.28038         0.009041      0.007133     -0.051387
      8.81351      5.08848      5.28038        -0.000000      0.000000     -0.068205
      1.46892      0.84808      7.67911        -0.030440     -0.017574      0.078457
      4.40676      0.84808      7.67911        -0.000000     -0.027153      0.048493
      7.34459      0.84808      7.67911         0.030440     -0.017574      0.078457
      2.93784      3.39232      7.67911        -0.023516      0.013577      0.048493
      5.87568      3.39232      7.67911         0.023516      0.013577      0.048493
      8.81351      3.39232      7.67911        -0.000000     -0.025552      0.109523
      4.40676      5.93656      7.67911         0.000000      0.035149      0.078457
      7.34459      5.93656      7.67911        -0.022128      0.012776      0.109523
     10.28243      5.93656      7.67911         0.022128      0.012776      0.109523
      8.81351      1.69614     10.07331         0.000000      0.013858      0.110075
      2.94950      1.70289     10.06400        -0.260964     -0.150667     -0.228367
      5.86402      1.70289     10.06400         0.260964     -0.150667     -0.228367
     10.27143      4.24676     10.06599         0.069161     -0.039930      0.072090
      4.40676      4.22694     10.06400         0.000000      0.301335     -0.228367
      7.35560      4.24676     10.06599        -0.069161     -0.039930      0.072090
     11.75137      6.78466     10.07331        -0.012001     -0.006929      0.110075
      5.87566      6.78466     10.07331         0.012001     -0.006929      0.110075
      8.81351      6.77194     10.06599         0.000000      0.079861      0.072090
      0.00000      0.00000     12.49013        -0.000000      0.000000     -0.050434
      2.98093      0.06833     12.52966        -0.140725     -0.232502     -0.123597
      5.83259      0.06833     12.52966         0.140725     -0.232502     -0.123597
      1.54964      2.54739     12.52966        -0.271715     -0.005621     -0.123597
      7.26387      2.54739     12.52966         0.271715     -0.005621     -0.123597
      2.97547      5.01700     12.52966        -0.130990      0.238122     -0.123597
      5.83804      5.01700     12.52966         0.130990      0.238122     -0.123597
      8.81351      5.08848     12.50181        -0.000000      0.000000     -0.032941
      4.40676      2.54424     12.25739        -0.000000      0.000000      0.791409
      4.40676      2.54424     13.98271        -0.000000      0.000000      0.044223
    total drift:                                0.014026      0.008279      0.603181

  FREE ENERGIE OF THE ION-ELECTRON SYSTEM (eV)
  free  energy   TOTEN  =      -121.86433979 eV

  energy  without entropy=     -121.86433979  energy(sigma->0) =     -121.86433979

 stress matrix after NEB project (eV)
    -19.60938     -0.00000      0.00000
     -0.00000    -19.60938      0.00000
     -0.00000      0.00000      2.09722
  FORCES: max atom, RMS     0.044223    0.007270
  FORCE total and by dimension    0.044223    0.044223
  Stress total and by dimension   27.811035   19.609378
|           W    W    AA    RRRRR   N    N  II  N    N   GGGG   !!!           |
|           W    W   A  A   R    R  NN   N  II  NN   N  G    G  !!!           |
|           W    W  A    A  R    R  N N  N  II  N N  N  G       !!!           |
|           W WW W  AAAAAA  RRRRR   N  N N  II  N  N N  G  GGG   !            |
|           WW  WW  A    A  R   R   N   NN  II  N   NN  G    G                |
|           W    W  A    A  R    R  N    N  II  N    N   GGGG   !!!           |
|     Tetrahedron method does not include variations of the Fermi             |
|     occupations, so forces and stress will be inaccurate. We suggest        |
|     using a different smearing scheme ISMEAR = 1 or 2 for metals in         |
|     relaxations.                                                            |

 total charge

# of ion       s       p       d       tot
    1        0.544   0.239   8.767   9.550
    2        0.542   0.241   8.765   9.548
    3        0.542   0.241   8.765   9.548
    4        0.542   0.241   8.765   9.548
    5        0.546   0.240   8.763   9.548
    6        0.542   0.241   8.765   9.548
    7        0.542   0.241   8.765   9.548
    8        0.542   0.241   8.765   9.548
    9        0.542   0.240   8.767   9.550
   10        0.519   0.307   8.773   9.600
   11        0.521   0.307   8.776   9.604
   12        0.519   0.307   8.773   9.600
   13        0.521   0.307   8.776   9.604
   14        0.521   0.307   8.776   9.604
   15        0.517   0.310   8.772   9.599
   16        0.519   0.307   8.773   9.600
   17        0.517   0.310   8.772   9.599
   18        0.517   0.310   8.772   9.599
   19        0.514   0.297   8.774   9.586
   20        0.550   0.324   8.754   9.628
   21        0.550   0.324   8.754   9.628
   22        0.509   0.306   8.775   9.591
   23        0.550   0.324   8.754   9.628
   24        0.509   0.306   8.775   9.591
   25        0.514   0.297   8.774   9.586
   26        0.514   0.297   8.774   9.586
   27        0.509   0.306   8.775   9.591
   28        0.541   0.225   8.762   9.528
   29        0.561   0.231   8.758   9.550
   30        0.561   0.231   8.758   9.550
   31        0.561   0.231   8.758   9.550
   32        0.561   0.231   8.758   9.550
   33        0.561   0.231   8.758   9.550
   34        0.561   0.231   8.758   9.550
   35        0.544   0.225   8.759   9.528
   36        0.503   0.707   2.852   4.063
   37        1.342   2.155   0.000   3.497
tot         20.574  12.419 309.684 342.678

 BZINTS: Fermi energy:    0.532928;  394.000000 electrons
         Band energy:-0.126510E+04;  BLOECHL correction:   -0.086640