 vasp.6.2.0 18Jan21 (build Jun 12 2021 23:27:24) complex

 executed on             LinuxIFC date 2022.05.27  06:05:40

 INCAR:
   ISMEAR = -5
   SIGMA = 0.1
   ISPIN = 1
   EDIFF = 1.d-5
   EDIFFG = -0.01
   NSW = 0
   NELM = 150
   ENCUT = 500
   ISIF = 2
   IBRION = 2
   LREAL = Auto
   ALGO = Fast
   ICHARG = 11
   LORBIT = 10
   LCHARG = .F.
   LWAVE = .F.

 POTCAR:    PAW_PBE Cu 22Jun2005
 POTCAR:    PAW_PBE Mo 08Apr2002
 POTCAR:    PAW_PBE O 08Apr2002
 POTCAR:    PAW_PBE H 15Jun2001
|           W    W    AA    RRRRR   N    N  II  N    N   GGGG   !!!           |
|           W    W   A  A   R    R  NN   N  II  NN   N  G    G  !!!           |
|           W    W  A    A  R    R  N N  N  II  N N  N  G       !!!           |
|           W WW W  AAAAAA  RRRRR   N  N N  II  N  N N  G  GGG   !            |
|           WW  WW  A    A  R   R   N   NN  II  N   NN  G    G                |
|           W    W  A    A  R    R  N    N  II  N    N   GGGG   !!!           |
|     For optimal performance we recommend to set                             |
|       NCORE = 2 up to number-of-cores-per-socket                            |
|     This setting can greatly improve the performance of VASP for DFT.       |
|     The default, NCORE=1 might be grossly inefficient on modern             |
|     multi-core architectures or massively parallel machines. Do your        |
|     Unfortunately you need to use the default for GW and RPA                |
|     calculations (for HF NCORE is supported but not extensively tested      |
|     yet).                                                                   |

 POTCAR:    PAW_PBE Cu 22Jun2005
   VRHFIN =Cu: d10 p1

   TITEL  = PAW_PBE Cu 22Jun2005
   POMASS =   63.546; ZVAL   =   11.000    mass and valenz
   ENMAX  =  295.446; ENMIN  =  221.585 eV

 POTCAR:    PAW_PBE Mo 08Apr2002
   VRHFIN =Mo: 4p5s4d

   TITEL  = PAW_PBE Mo 08Apr2002
   POMASS =   95.940; ZVAL   =    6.000    mass and valenz
   ENMAX  =  224.584; ENMIN  =  168.438 eV

 POTCAR:    PAW_PBE O 08Apr2002
   VRHFIN =O: s2p4

   TITEL  = PAW_PBE O 08Apr2002
   POMASS =   16.000; ZVAL   =    6.000    mass and valenz
   ENMAX  =  400.000; ENMIN  =  300.000 eV

 POTCAR:    PAW_PBE H 15Jun2001
   VRHFIN =H: ultrasoft test

   TITEL  = PAW_PBE H 15Jun2001
   POMASS =    1.000; ZVAL   =    1.000    mass and valenz
   ENMAX  =  250.000; ENMIN  =  200.000 eV

 Optimization of the real space projectors (new method)

 maximal supplied QI-value         = 16.25
 optimisation between [QCUT,QGAM] = [ 11.38, 22.75] = [ 36.24,144.96] Ry
 Optimized for a Real-space Cutoff    1.52 Angstroem

   l    n(q)    QCUT    max X(q) W(low)/X(q) W(high)/X(q)  e(spline)
   2      9    11.376     4.610    0.21E-03    0.10E-03    0.26E-06
   2      9    11.376     8.522    0.33E-03    0.16E-03    0.37E-06
   0     10    11.376    51.609    0.62E-04    0.20E-04    0.13E-06
   0     10    11.376    27.747    0.54E-04    0.20E-04    0.13E-06
   1     10    11.376    20.408    0.13E-04    0.99E-04    0.19E-06
   1     10    11.376    13.425    0.12E-04    0.87E-04    0.17E-06
 Optimization of the real space projectors (new method)

[...]

   l    n(q)    QCUT    max X(q) W(low)/X(q) W(high)/X(q)  e(spline)
   0      7    11.387    20.381    0.39E-03    0.13E-02    0.15E-06
   0      7    11.387    15.268    0.42E-03    0.14E-02    0.17E-06
   1      6    11.387     5.964    0.41E-03    0.11E-02    0.17E-06
   1      6    11.387     5.382    0.39E-03    0.87E-03    0.15E-06
 Optimization of the real space projectors (new method)

 maximal supplied QI-value         = 34.20
 optimisation between [QCUT,QGAM] = [ 11.29, 22.57] = [ 35.68,142.71] Ry
 Optimized for a Real-space Cutoff    1.16 Angstroem

   l    n(q)    QCUT    max X(q) W(low)/X(q) W(high)/X(q)  e(spline)
   0      8    11.287    19.460    0.40E-03    0.73E-03    0.16E-06
   0      8    11.287    12.209    0.38E-03    0.70E-03    0.15E-06
   1      7    11.287     4.655    0.22E-03    0.25E-04    0.22E-06
  PAW_PBE Cu 22Jun2005                  :
  PAW_PBE Mo 08Apr2002                  :
  PAW_PBE O 08Apr2002                   :
  PAW_PBE H 15Jun2001                   :

 POSCAR: Cu-Mo-OH
  positions in direct lattice
  velocities in cartesian coordinates
 exchange correlation table for  LEXCH =        8
   RHO(1)=    0.500       N(1)  =     2000
   RHO(2)=  100.500       N(2)  =     4000

 VTST: version 3.2, (02/03/18)

 CHAIN: initializing optimizer

 OPT: Using VASP Conjugate-Gradient optimizer
 CHAIN: Read ICHAIN            0

 POSCAR: Cu-Mo-OH
  positions in direct lattice
  velocities in cartesian coordinates

 ion  position               nearest neighbor table
   1  0.000  0.000  0.252-   7 2.57   3 2.57   4 2.57   2 2.57   6 2.57   8 2.57  12 2.57  10 2.57
                            16 2.57
   2  0.333  0.000  0.252-   8 2.57   9 2.57   5 2.57   1 2.57   3 2.57  11 2.57   4 2.57  10 2.57
                            17 2.57
   3  0.667  0.000  0.252-   1 2.57   7 2.57   6 2.57   9 2.57   2 2.57  12 2.57   5 2.57  18 2.57
                            11 2.57
   4  0.000  0.333  0.252-   5 2.57   6 2.57   1 2.57   7 2.57   2 2.57  13 2.57   9 2.57  10 2.57
                            15 2.57
   5  0.333  0.333  0.252-   4 2.57   2 2.57   7 2.57  13 2.57   8 2.57   6 2.57   3 2.57  11 2.57
                            14 2.57
   6  0.667  0.333  0.252-   4 2.57   9 2.57  15 2.57   3 2.57   1 2.57   8 2.57  14 2.57   5 2.57
                            12 2.57
   7  0.000  0.667  0.252-   1 2.57   3 2.57  16 2.57  18 2.57   4 2.57   5 2.57   8 2.57   9 2.57
                            13 2.57
   8  0.333  0.667  0.252-   9 2.57   2 2.57  17 2.57   6 2.57   1 2.57   7 2.57   5 2.57  14 2.57
                            16 2.57
   9  0.667  0.667  0.252-   8 2.57   6 2.57   2 2.57  17 2.57   3 2.57   7 2.57   4 2.57  15 2.57
                            18 2.57
  10  0.111  0.111  0.351-  20 2.55  26 2.56  19 2.56  11 2.57  12 2.57  13 2.57   1 2.57   2 2.57
                             4 2.57  15 2.57  16 2.57  17 2.57
  11  0.444  0.111  0.351-  20 2.56  21 2.56  10 2.57  13 2.57   2 2.57  17 2.57  14 2.57  12 2.57
                             5 2.57   3 2.57  18 2.57  27 2.57
  12  0.778  0.111  0.351-  21 2.55  19 2.56  25 2.56  15 2.57  10 2.57  14 2.57  18 2.57   3 2.57
                             1 2.57  16 2.57  11 2.57   6 2.57
  13  0.111  0.444  0.351-  23 2.56  20 2.56  16 2.57  18 2.57  10 2.57  11 2.57  14 2.57   5 2.57
                             4 2.57   7 2.57  15 2.57  22 2.57
  14  0.444  0.444  0.351-  21 2.56  23 2.56  15 2.57  17 2.57  12 2.57  16 2.57  13 2.57  11 2.57
                             6 2.57   8 2.57   5 2.57  24 2.57
  15  0.778  0.444  0.351-  19 2.56  14 2.57  17 2.57  12 2.57   6 2.57  18 2.57  10 2.57   9 2.57
                            13 2.57   4 2.57  24 2.57  22 2.57
  16  0.111  0.778  0.351-  23 2.55  25 2.56  26 2.56  18 2.57  13 2.57   7 2.57  14 2.57  17 2.57
                            12 2.57  10 2.57   8 2.57   1 2.57
  17  0.444  0.778  0.351-  26 2.56  14 2.57  15 2.57   8 2.57   9 2.57  11 2.57  16 2.57  18 2.57
                            10 2.57   2 2.57  27 2.57  24 2.57
  18  0.778  0.778  0.351-  25 2.56  16 2.57  13 2.57   7 2.57  15 2.57  12 2.57  17 2.57   9 2.57
                             3 2.57  11 2.57  22 2.57  27 2.57
  19  0.889  0.222  0.449-  15 2.56  12 2.56  10 2.56  21 2.56  20 2.56  22 2.57  24 2.57  25 2.57
                            26 2.57  28 2.57  32 2.58  31 2.58
  20  0.222  0.222  0.449-  10 2.55  11 2.56  13 2.56  26 2.56  19 2.56  27 2.57  22 2.57  23 2.57
                            21 2.57  36 2.58  29 2.60  31 2.60
  21  0.556  0.222  0.449-  12 2.55  14 2.56  11 2.56  19 2.56  25 2.56  24 2.57  27 2.57  20 2.57
                            23 2.57  36 2.58  32 2.60  30 2.60
  22  0.888  0.556  0.450-  24 2.56  27 2.56  35 2.56  19 2.57  25 2.57  23 2.57  20 2.57  18 2.57
                            15 2.57  13 2.57  31 2.58  33 2.58
  23  0.222  0.556  0.449-  16 2.55  13 2.56  14 2.56  25 2.56  26 2.56  22 2.57  24 2.57  20 2.57
                            21 2.57  36 2.58  33 2.60  34 2.60
  24  0.556  0.556  0.450-  22 2.56  27 2.56  35 2.56  19 2.57  26 2.57  21 2.57  23 2.57  15 2.57
                            17 2.57  14 2.57  32 2.58  34 2.58
  25  0.889  0.889  0.449-  18 2.56  12 2.56  16 2.56  21 2.56  23 2.56  22 2.57  27 2.57  19 2.57
                            26 2.57  28 2.57  33 2.58  30 2.58
  26  0.222  0.889  0.449-  17 2.56  10 2.56  16 2.56  20 2.56  23 2.56  27 2.57  24 2.57  25 2.57
                            19 2.57  28 2.57  29 2.58  34 2.58
  27  0.556  0.888  0.450-  24 2.56  22 2.56  35 2.56  26 2.57  25 2.57  20 2.57  21 2.57  17 2.57
                            18 2.57  11 2.57  29 2.58  30 2.58
  28  0.000  0.000  0.547-  33 2.56  30 2.56  31 2.56  29 2.56  32 2.56  34 2.56  25 2.57  19 2.57
                            26 2.57
  29  0.333  0.998  0.548-  34 2.54  28 2.56  35 2.56  27 2.58  31 2.58  26 2.58  36 2.58  30 2.58
                            20 2.60
  30  0.669  0.998  0.548-  33 2.54  28 2.56  35 2.56  27 2.58  32 2.58  25 2.58  36 2.58  29 2.58
                            21 2.60
  31  0.998  0.333  0.548-  32 2.54  28 2.56  35 2.56  22 2.58  29 2.58  19 2.58  36 2.58  33 2.58
                            20 2.60
  32  0.669  0.333  0.548-  31 2.54  28 2.56  35 2.56  24 2.58  30 2.58  19 2.58  36 2.58  34 2.58
                            21 2.60
  33  0.998  0.669  0.548-  30 2.54  28 2.56  35 2.56  22 2.58  34 2.58  25 2.58  36 2.58  31 2.58
                            23 2.60
  34  0.333  0.669  0.548-  29 2.54  28 2.56  35 2.56  24 2.58  33 2.58  26 2.58  36 2.58  32 2.58
                            23 2.60
  35  0.667  0.667  0.548-  34 2.56  32 2.56  29 2.56  30 2.56  33 2.56  31 2.56  24 2.56  27 2.56
                            22 2.56
  36  0.333  0.333  0.547-  37 1.89  23 2.58  20 2.58  21 2.58  31 2.58  29 2.58  33 2.58  34 2.58
                            32 2.58  30 2.58
  37  0.333  0.333  0.636-  38 0.97  36 1.89
  38  0.333  0.333  0.681-  37 0.97

  LATTYP: Found a hexagonal cell.
 ALAT       =     7.6967864036
 C/A-ratio  =     2.7653617908

  Lattice vectors:

 A1 = (  -3.8483927580,  -6.6656128093,   0.0000000000)
 A2 = (   7.6967864037,   0.0000000000,   0.0000000000)
 A3 = (   0.0000000000,   0.0000000000,  21.2843990326)

Analysis of symmetry for initial positions (statically):
 Subroutine PRICEL returns:
 Original cell was already a primitive cell.

 Routine SETGRP: Setting up the symmetry group for a
 hexagonal supercell.

 Subroutine GETGRP returns: Found  6 space group operations
 (whereof  6 operations were pure point group operations)
 out of a pool of 24 trial point group operations.

The static configuration has the point symmetry C_3v.

Analysis of symmetry for dynamics (positions and initial velocities):
 Subroutine PRICEL returns:
 Original cell was already a primitive cell.

[...]

The dynamic configuration has the point symmetry C_3v.

Analysis of constrained symmetry for selective dynamics:
 Subroutine PRICEL returns:
 Original cell was already a primitive cell.

[...]
     33      -3.7136      2.00000
     34      -3.7087      2.00000
     35      -3.7015      2.00000
     36      -3.6893      2.00000
     37      -3.6491      2.00000
     38      -3.5980      2.00000
     39      -3.5526      2.00000
     40      -3.5196      2.00000
     41      -3.4045      2.00000
     42      -3.3988      2.00000
     43      -3.3225      2.00000
     44      -3.3142      2.00000
     45      -3.3099      2.00000
     46      -3.2823      2.00000
     47      -3.2757      2.00000
     48      -3.2585      2.00000
     49      -3.2507      2.00000
     50      -3.0889      2.00000
     51      -3.0692      2.00000
     52      -3.0624      2.00000
     53      -3.0439      2.00000
     54      -3.0062      2.00000
     55      -3.0008      2.00000
     56      -2.9805      2.00000
     57      -2.9708      2.00000
     58      -2.9675      2.00000
     59      -2.9523      2.00000
     60      -2.9303      2.00000
[...]
    238       6.4270      0.00000
    239       6.6292      0.00000
    240       6.7250      0.00000
    241       6.7994      0.00000
    242       6.8335      0.00000
    243       7.0200      0.00000
    244       7.0284      0.00000
    245       7.2042      0.00000
    246       7.3810      0.00000
    247       7.5890      0.00000
    248       7.6521      0.00000
    249       7.7296      0.00000
    250       7.8028      0.00000
    251       8.0174      0.00000
    252       8.2469      0.00000

 soft charge-density along one line, spin component           1
         0         1         2         3         4         5         6         7         8         9
 total charge-density along one line

------------------------ aborting loop because EDIFF is reached ----------------------------------------

 total charge

# of ion       s       p       d       tot
    1        0.450   0.282   9.189   9.921
    2        0.448   0.286   9.185   9.919
    3        0.448   0.286   9.185   9.919
    4        0.448   0.286   9.185   9.919
    5        0.449   0.285   9.183   9.917
    6        0.448   0.286   9.185   9.919
    7        0.448   0.286   9.185   9.919
    8        0.448   0.286   9.185   9.919
    9        0.447   0.286   9.186   9.919
   10        0.444   0.370   9.178   9.992
   11        0.440   0.367   9.181   9.988
   12        0.444   0.370   9.178   9.992
   13        0.440   0.367   9.181   9.988
   14        0.440   0.367   9.181   9.988
   15        0.438   0.369   9.179   9.985
   16        0.444   0.370   9.178   9.992
   17        0.438   0.369   9.179   9.985
   18        0.438   0.369   9.179   9.985
   19        0.443   0.366   9.182   9.992
   20        0.469   0.399   9.155  10.024
   21        0.469   0.399   9.155  10.024
   22        0.429   0.372   9.180   9.981
   23        0.469   0.399   9.155  10.024
   24        0.429   0.372   9.180   9.981
   25        0.443   0.366   9.182   9.992
   26        0.443   0.366   9.182   9.992
   27        0.429   0.372   9.180   9.981
   28        0.454   0.292   9.182   9.928
   29        0.464   0.314   9.173   9.951
   30        0.464   0.314   9.173   9.951
   31        0.464   0.314   9.173   9.951
   32        0.464   0.314   9.173   9.951
   33        0.464   0.314   9.173   9.951
   34        0.464   0.314   9.173   9.951
   35        0.443   0.296   9.184   9.923
   36        0.508   0.534   4.295   5.337
   37        1.556   3.531   0.000   5.087
   38        0.605   0.124   0.000   0.729
tot         18.376  15.959 325.534 359.869

  FORCE on cell =-STRESS in cart. coord.  units (eV):
  Direction    XX          YY          ZZ          XY          YZ          ZX
  Alpha Z   899.15116   899.15116   899.15116
  Ewald  170285.35395170285.35357************     0.00037     0.00013     0.00017
  Hartree183447.10281183447.10281************     0.00003     0.00007     0.00006
  E(xc)   -2308.01757 -2308.01713 -2311.04600    -0.00038    -0.00003    -0.00006
  Local  ************************366703.81345     0.01883    -0.00062    -0.00097
  n-local  -805.11359  -790.94008  -804.83590     7.41783    -0.15109     0.33357
  augment  3325.00576  3325.02605  3341.29520    -0.01757     0.00026     0.00044
  Kinetic  3356.39103  3359.94543  3340.34781     3.50272     1.58737    -1.37949
  Fock        0.00000     0.00000     0.00000     0.00000     0.00000     0.00000
  Total      -4.21533    -4.21533     0.51406     0.00000    -0.00000    -0.00000
  in kB      -6.18488    -6.18488     0.75425     0.00000    -0.00000    -0.00000

 VOLUME and BASIS-vectors are now :
  energy-cutoff  :      500.00
  volume of cell :     1091.97
      direct lattice vectors                 reciprocal lattice vectors
     7.696786404  0.000000000  0.000000000     0.129924354 -0.075011849  0.000000000
     3.848392758  6.665612809  0.000000000     0.000000000  0.150023716  0.000000000
     0.000000000  0.000000000 21.284399033     0.000000000  0.000000000  0.046982769

  length of vectors
     7.696786404  7.696786404 21.284399033     0.150023716  0.150023716  0.046982769

 FORCES acting on ions
    electron-ion (+dipol)            ewald-force                    non-local-force                 convergence-correction
   -.416E-04 0.162E-06 0.347E+04   0.580E-04 -.430E-05 -.347E+04   0.381E-17 0.709E-19 -.256E+01   -.354E-03 -.171E-03 -.466E+00
   -.677E+00 -.633E+00 0.347E+04   0.636E+00 0.345E+00 -.347E+04   0.186E-01 0.216E+00 -.188E+01   0.274E-01 0.768E-01 -.408E+00
   0.677E+00 -.633E+00 0.347E+04   -.636E+00 0.345E+00 -.347E+04   -.186E-01 0.216E+00 -.188E+01   -.265E-01 0.793E-01 -.407E+00
   -.887E+00 -.270E+00 0.347E+04   0.616E+00 0.378E+00 -.347E+04   0.197E+00 -.921E-01 -.188E+01   0.803E-01 -.147E-01 -.408E+00
   -.654E-04 -.549E-05 0.347E+04   0.116E-03 -.101E-04 -.347E+04   0.815E-17 -.377E-17 -.169E+01   0.121E-01 0.743E-02 -.289E+00
   0.887E+00 -.270E+00 0.347E+04   -.617E+00 0.378E+00 -.347E+04   -.197E+00 -.921E-01 -.188E+01   -.819E-01 -.136E-01 -.407E+00
   -.210E+00 0.903E+00 0.347E+04   -.191E-01 -.723E+00 -.347E+04   0.178E+00 -.124E+00 -.188E+01   0.555E-01 -.627E-01 -.407E+00
   0.210E+00 0.903E+00 0.347E+04   0.189E-01 -.723E+00 -.347E+04   -.178E+00 -.124E+00 -.188E+01   -.520E-01 -.641E-01 -.407E+00
   -.144E-03 -.328E-04 0.347E+04   0.263E-03 0.204E-04 -.347E+04   0.224E-17 0.757E-18 -.221E+01   -.131E-01 -.678E-02 -.400E+00
   -.346E+01 -.200E+01 0.117E+04   0.395E+01 0.228E+01 -.117E+04   -.546E+00 -.315E+00 -.974E+00   0.419E-01 0.242E-01 -.497E+00
   -.913E-04 -.384E+01 0.116E+04   0.190E-03 0.340E+01 -.115E+04   -.194E-07 0.291E+00 -.306E+00   0.120E-01 0.946E-01 -.540E+00
   0.346E+01 -.200E+01 0.117E+04   -.395E+01 0.228E+01 -.117E+04   0.546E+00 -.315E+00 -.974E+00   -.436E-01 0.253E-01 -.497E+00
   -.333E+01 0.192E+01 0.116E+04   0.295E+01 -.170E+01 -.115E+04   0.252E+00 -.146E+00 -.306E+00   0.884E-01 -.361E-01 -.540E+00
   0.333E+01 0.192E+01 0.116E+04   -.295E+01 -.170E+01 -.115E+04   -.252E+00 -.146E+00 -.306E+00   -.646E-01 -.377E-01 -.542E+00
   -.141E-03 -.239E+01 0.116E+04   0.297E-03 0.220E+01 -.116E+04   -.652E-08 0.979E-01 -.945E+00   -.338E-02 0.736E-01 -.464E+00
   -.922E-04 0.399E+01 0.117E+04   0.186E-03 -.456E+01 -.117E+04   -.420E-07 0.631E+00 -.974E+00   -.835E-03 -.516E-01 -.497E+00
   -.207E+01 0.120E+01 0.116E+04   0.191E+01 -.110E+01 -.116E+04   0.848E-01 -.490E-01 -.945E+00   0.627E-01 -.397E-01 -.464E+00
   0.207E+01 0.120E+01 0.116E+04   -.191E+01 -.110E+01 -.116E+04   -.848E-01 -.490E-01 -.945E+00   -.612E-01 -.370E-01 -.462E+00
   -.649E-04 -.614E+01 -.114E+04   0.708E-04 0.618E+01 0.114E+04   0.247E-08 -.371E-01 0.998E+00   -.108E-01 -.259E-01 -.334E+00
   -.454E+02 -.262E+02 -.119E+04   0.467E+02 0.270E+02 0.119E+04   -.135E+01 -.778E+00 -.104E+01   -.670E-01 -.388E-01 -.613E+00
   0.454E+02 -.262E+02 -.119E+04   -.467E+02 0.270E+02 0.119E+04   0.135E+01 -.778E+00 -.104E+01   0.482E-01 -.404E-01 -.614E+00
   -.236E+02 0.136E+02 -.116E+04   0.234E+02 -.135E+02 0.116E+04   0.475E+00 -.274E+00 0.866E+00   -.179E+00 0.105E+00 -.449E+00
   -.829E-04 0.524E+02 -.119E+04   0.150E-03 -.540E+02 0.119E+04   -.104E-06 0.156E+01 -.104E+01   -.121E-01 0.608E-01 -.614E+00
   0.236E+02 0.136E+02 -.116E+04   -.234E+02 -.135E+02 0.116E+04   -.475E+00 -.274E+00 0.866E+00   0.181E+00 0.103E+00 -.449E+00
   0.532E+01 0.307E+01 -.114E+04   -.535E+01 -.309E+01 0.114E+04   0.321E-01 0.186E-01 0.998E+00   0.621E-02 0.360E-02 -.334E+00
   -.532E+01 0.307E+01 -.114E+04   0.535E+01 -.309E+01 0.114E+04   -.321E-01 0.186E-01 0.998E+00   -.275E-01 0.378E-02 -.334E+00
   -.121E-03 -.273E+02 -.116E+04   0.240E-03 0.270E+02 0.116E+04   -.366E-07 0.549E+00 0.866E+00   0.109E-02 -.207E+00 -.449E+00
   -.392E-04 0.157E-04 -.339E+04   0.412E-04 -.324E-04 0.339E+04   -.137E-17 -.431E-17 0.148E+01   -.247E-03 -.900E-04 0.905E-01
   -.278E+02 -.500E+02 -.338E+04   0.279E+02 0.499E+02 0.338E+04   -.228E+00 0.192E+00 0.184E+01   -.768E-01 -.264E+00 0.231E+00
   0.278E+02 -.500E+02 -.338E+04   -.279E+02 0.499E+02 0.338E+04   0.228E+00 0.192E+00 0.184E+01   0.778E-01 -.263E+00 0.230E+00
   -.572E+02 0.970E+00 -.338E+04   0.572E+02 -.741E+00 0.338E+04   0.525E-01 -.293E+00 0.184E+01   -.267E+00 0.656E-01 0.231E+00
   0.572E+02 0.970E+00 -.338E+04   -.572E+02 -.741E+00 0.338E+04   -.525E-01 -.293E+00 0.184E+01   0.267E+00 0.663E-01 0.231E+00
   -.294E+02 0.490E+02 -.338E+04   0.292E+02 -.491E+02 0.338E+04   0.280E+00 0.101E+00 0.184E+01   -.189E+00 0.199E+00 0.230E+00
   0.294E+02 0.490E+02 -.338E+04   -.292E+02 -.491E+02 0.338E+04   -.280E+00 0.101E+00 0.184E+01   0.192E+00 0.198E+00 0.232E+00
   -.146E-03 -.242E-04 -.341E+04   0.252E-03 0.200E-05 0.340E+04   0.124E-17 0.706E-18 0.214E+01   -.125E-01 -.642E-02 0.264E+00
   -.322E-04 -.102E-04 -.171E+04   0.738E-04 0.151E-04 0.172E+04   -.491E-17 -.955E-18 0.125E+01   0.708E-03 0.419E-03 0.986E-01
   0.188E-03 -.796E-04 -.203E+04   0.145E-04 0.709E-05 0.201E+04   -.370E-18 -.552E-18 0.200E+02   0.311E-02 0.190E-02 0.365E+00
   0.518E-05 -.130E-04 -.379E+03   0.564E-06 0.478E-06 0.388E+03   0.204E-18 0.488E-19 -.845E+01   0.170E-03 0.103E-03 0.206E-01
   -.111E-03 -.112E-03 0.455E+01   0.552E-13 0.149E-12 -.534E-11   0.329E-15 -.153E-15 0.545E+01   -.328E-01 -.219E-01 -.101E+02

 POSITION                                       TOTAL-FORCE (eV/Angst)
      0.00000      0.00000      5.37156         0.000000     -0.000000     -0.009648
      2.56560      0.00000      5.37156         0.004704      0.006278      0.070511
      5.13119      0.00000      5.37156        -0.004704      0.006278      0.070511
      1.28280      2.22187      5.37156         0.007788      0.000935      0.070511
      3.84839      2.22187      5.37156         0.000000     -0.000000      0.055500
      6.41399      2.22187      5.37156        -0.007788      0.000935      0.070511
      2.56560      4.44374      5.37156         0.003085     -0.007212      0.070511
      5.13119      4.44374      5.37156        -0.003085     -0.007212      0.070511
      7.69679      4.44374      5.37156         0.000000     -0.000000      0.024292
      1.28280      0.74062      7.46636        -0.013329     -0.007696     -0.077297
      3.84839      0.74062      7.46636         0.000000     -0.059262     -0.061850
      6.41399      0.74062      7.46636         0.013329     -0.007696     -0.077297
      2.56560      2.96249      7.46636        -0.051323      0.029631     -0.061850
      5.13119      2.96249      7.46636         0.051323      0.029631     -0.061850
      7.69679      2.96249      7.46636         0.000000     -0.016423      0.007850
      3.84839      5.18437      7.46636        -0.000000      0.015391     -0.077297
      6.41399      5.18437      7.46636        -0.014223      0.008211      0.007850
      8.97958      5.18437      7.46636         0.014223      0.008211      0.007850
      7.69679      1.48128      9.55134         0.000000     -0.014004      0.018703
      2.56091      1.47854      9.54628        -0.068121     -0.039330     -0.187081
      5.13587      1.47854      9.54628         0.068121     -0.039330     -0.187081
      8.97673      3.70477      9.56818         0.081318     -0.046949      0.008899
      3.84839      3.70853      9.54628        -0.000000      0.078660     -0.187081
      6.41684      3.70477      9.56818        -0.081318     -0.046949      0.008899
     10.26235      5.92497      9.55134         0.012128      0.007002      0.018703
      5.13122      5.92497      9.55134        -0.012128      0.007002      0.018703
      7.69679      5.92169      9.56818        -0.000000      0.093898      0.008899
      0.00000      0.00000     11.64671         0.000000     -0.000000     -0.011667
      6.40484      6.65345     11.67351        -0.126570     -0.221553     -0.262786
      8.98873      6.65345     11.67351         0.126571     -0.221553     -0.262786
      8.96447      2.22003     11.67351        -0.255156      0.001163     -0.262786
      6.42910      2.22003     11.67351         0.255156      0.001163     -0.262786
     10.25642      4.45775     11.67351        -0.128586      0.220390     -0.262786
      5.13715      4.45775     11.67351         0.128586      0.220390     -0.262786
      7.69679      4.44374     11.65978         0.000000     -0.000000      0.023841
      3.84839      2.22187     11.64991         0.000000     -0.000000      1.985815
      3.84839      2.22187     13.53571         0.000000     -0.000000     -0.057086
      3.84839      2.22187     14.50304         0.000000     -0.000000      0.014928
    total drift:                               -0.032891     -0.022028     -0.065799

  FREE ENERGIE OF THE ION-ELECTRON SYSTEM (eV)
  free  energy   TOTEN  =      -142.26392641 eV

  energy  without entropy=     -142.26392641  energy(sigma->0) =     -142.26392641

 stress matrix after NEB project (eV)
     -4.21533      0.00000     -0.00000
      0.00000     -4.21533     -0.00000
     -0.00000     -0.00000      0.51406
  FORCES: max atom, RMS     0.057086    0.009572
  FORCE total and by dimension    0.059006    0.057086
  Stress total and by dimension    5.983501    4.215331
|           W    W    AA    RRRRR   N    N  II  N    N   GGGG   !!!           |
|           W    W   A  A   R    R  NN   N  II  NN   N  G    G  !!!           |
|           W    W  A    A  R    R  N N  N  II  N N  N  G       !!!           |
|           W WW W  AAAAAA  RRRRR   N  N N  II  N  N N  G  GGG   !            |
|           WW  WW  A    A  R   R   N   NN  II  N   NN  G    G                |
|           W    W  A    A  R    R  N    N  II  N    N   GGGG   !!!           |
|     Tetrahedron method does not include variations of the Fermi             |
|     occupations, so forces and stress will be inaccurate. We suggest        |
|     using a different smearing scheme ISMEAR = 1 or 2 for metals in         |
|     relaxations.                                                            |

 total charge

# of ion       s       p       d       tot
    1        0.450   0.282   9.189   9.921
    2        0.448   0.286   9.185   9.919
    3        0.448   0.286   9.185   9.919
    4        0.448   0.286   9.185   9.919
    5        0.449   0.285   9.183   9.917
    6        0.448   0.286   9.185   9.919
    7        0.448   0.286   9.185   9.919
    8        0.448   0.286   9.185   9.919
    9        0.447   0.286   9.186   9.919
   10        0.444   0.370   9.178   9.992
   11        0.440   0.367   9.181   9.988
   12        0.444   0.370   9.178   9.992
   13        0.440   0.367   9.181   9.988
   14        0.440   0.367   9.181   9.988
   15        0.438   0.369   9.179   9.985
   16        0.444   0.370   9.178   9.992
   17        0.438   0.369   9.179   9.985
   18        0.438   0.369   9.179   9.985
   19        0.443   0.366   9.182   9.992
   20        0.469   0.399   9.155  10.024
   21        0.469   0.399   9.155  10.024
   22        0.429   0.372   9.180   9.981
   23        0.469   0.399   9.155  10.024
   24        0.429   0.372   9.180   9.981
   25        0.443   0.366   9.182   9.992
   26        0.443   0.366   9.182   9.992
   27        0.429   0.372   9.180   9.981
   28        0.454   0.292   9.182   9.928
   29        0.464   0.314   9.173   9.951
   30        0.464   0.314   9.173   9.951
   31        0.464   0.314   9.173   9.951
   32        0.464   0.314   9.173   9.951
   33        0.464   0.314   9.173   9.951
   34        0.464   0.314   9.173   9.951
   35        0.443   0.296   9.184   9.923
   36        0.508   0.534   4.295   5.337
   37        1.556   3.531   0.000   5.087
   38        0.605   0.124   0.000   0.729
tot         18.376  15.959 325.534 359.869

 BZINTS: Fermi energy:    0.408633;  398.000000 electrons
         Band energy:-0.102258E+04;  BLOECHL correction:   -0.028711