 vasp.6.2.0 18Jan21 (build Jun 12 2021 23:27:24) complex

 executed on             LinuxIFC date 2022.05.28  02:22:55

 INCAR:
   ISMEAR = -5
   SIGMA = 0.1
   ISPIN = 1
   EDIFF = 1.d-5
   EDIFFG = -0.01
   NSW = 0
   NELM = 150
   ENCUT = 500
   ISIF = 2
   IBRION = 2
   LREAL = Auto
   ALGO = Fast
   ICHARG = 11
   LORBIT = 10
   LCHARG = .F.
   LWAVE = .F.

 POTCAR:    PAW_PBE Cu 22Jun2005
 POTCAR:    PAW_PBE Co 02Aug2007
 POTCAR:    PAW_PBE C 08Apr2002
 POTCAR:    PAW_PBE O 08Apr2002
|           W    W    AA    RRRRR   N    N  II  N    N   GGGG   !!!           |
|           W    W   A  A   R    R  NN   N  II  NN   N  G    G  !!!           |
|           W    W  A    A  R    R  N N  N  II  N N  N  G       !!!           |
|           W WW W  AAAAAA  RRRRR   N  N N  II  N  N N  G  GGG   !            |
|           WW  WW  A    A  R   R   N   NN  II  N   NN  G    G                |
|           W    W  A    A  R    R  N    N  II  N    N   GGGG   !!!           |
|     For optimal performance we recommend to set                             |
|       NCORE = 2 up to number-of-cores-per-socket                            |
|     This setting can greatly improve the performance of VASP for DFT.       |
|     The default, NCORE=1 might be grossly inefficient on modern             |
|     multi-core architectures or massively parallel machines. Do your        |
|     Unfortunately you need to use the default for GW and RPA                |
|     calculations (for HF NCORE is supported but not extensively tested      |
|     yet).                                                                   |

 POTCAR:    PAW_PBE Cu 22Jun2005
   VRHFIN =Cu: d10 p1

   TITEL  = PAW_PBE Cu 22Jun2005
   POMASS =   63.546; ZVAL   =   11.000    mass and valenz
   ENMAX  =  295.446; ENMIN  =  221.585 eV

 POTCAR:    PAW_PBE Co 02Aug2007
   VRHFIN =Co: d8 s1

   TITEL  = PAW_PBE Co 02Aug2007
   POMASS =   58.933; ZVAL   =    9.000    mass and valenz
   ENMAX  =  267.968; ENMIN  =  200.976 eV

 POTCAR:    PAW_PBE C 08Apr2002
   VRHFIN =C: s2p2

   TITEL  = PAW_PBE C 08Apr2002
   POMASS =   12.011; ZVAL   =    4.000    mass and valenz
   ENMAX  =  400.000; ENMIN  =  300.000 eV

 POTCAR:    PAW_PBE O 08Apr2002
   VRHFIN =O: s2p4

   TITEL  = PAW_PBE O 08Apr2002
   POMASS =   16.000; ZVAL   =    6.000    mass and valenz
   ENMAX  =  400.000; ENMIN  =  300.000 eV

 Optimization of the real space projectors (new method)

 maximal supplied QI-value         = 16.25
 optimisation between [QCUT,QGAM] = [ 11.38, 22.75] = [ 36.24,144.96] Ry
 Optimized for a Real-space Cutoff    1.52 Angstroem

   l    n(q)    QCUT    max X(q) W(low)/X(q) W(high)/X(q)  e(spline)
   2      9    11.376     4.610    0.21E-03    0.10E-03    0.26E-06
   2      9    11.376     8.522    0.33E-03    0.16E-03    0.37E-06
   0     10    11.376    51.609    0.62E-04    0.20E-04    0.13E-06
   0     10    11.376    27.747    0.54E-04    0.20E-04    0.13E-06
   1     10    11.376    20.408    0.13E-04    0.99E-04    0.19E-06
   1     10    11.376    13.425    0.12E-04    0.87E-04    0.17E-06
 Optimization of the real space projectors (new method)

[...]

   l    n(q)    QCUT    max X(q) W(low)/X(q) W(high)/X(q)  e(spline)
   0      7    11.310   115.676    0.43E-03    0.13E-02    0.19E-06
   0      7    11.310    87.132    0.43E-03    0.13E-02    0.18E-06
   1      6    11.310     4.429    0.42E-03    0.74E-03    0.11E-06
   1      6    11.310     2.733    0.34E-03    0.55E-03    0.92E-07
 Optimization of the real space projectors (new method)

 maximal supplied QI-value         = 24.76
 optimisation between [QCUT,QGAM] = [ 11.39, 22.77] = [ 36.31,145.25] Ry
 Optimized for a Real-space Cutoff    1.00 Angstroem

   l    n(q)    QCUT    max X(q) W(low)/X(q) W(high)/X(q)  e(spline)
   0      7    11.387    20.381    0.39E-03    0.13E-02    0.15E-06
   0      7    11.387    15.268    0.42E-03    0.14E-02    0.17E-06
   1      6    11.387     5.964    0.41E-03    0.11E-02    0.17E-06
   1      6    11.387     5.382    0.39E-03    0.87E-03    0.15E-06
  PAW_PBE Cu 22Jun2005                  :
  PAW_PBE Co 02Aug2007                  :
  PAW_PBE C 08Apr2002                   :
  PAW_PBE O 08Apr2002                   :

 POSCAR: Cu-Co-CO2
  positions in direct lattice
  velocities in cartesian coordinates
 exchange correlation table for  LEXCH =        8
   RHO(1)=    0.500       N(1)  =     2000
   RHO(2)=  100.500       N(2)  =     4000

 VTST: version 3.2, (02/03/18)

 CHAIN: initializing optimizer

 OPT: Using VASP Conjugate-Gradient optimizer
 CHAIN: Read ICHAIN            0

 POSCAR: Cu-Co-CO2
  positions in direct lattice
  velocities in cartesian coordinates

 ion  position               nearest neighbor table
   1  0.000  0.000  0.229-   7 2.57   3 2.57   4 2.57   2 2.57   6 2.57   8 2.57  12 2.57  10 2.57
                            16 2.57
   2  0.333  0.000  0.229-   8 2.57   9 2.57   5 2.57   1 2.57   3 2.57  11 2.57   4 2.57  10 2.57
                            17 2.57
   3  0.667  0.000  0.229-   1 2.57   7 2.57   6 2.57   9 2.57   2 2.57  12 2.57   5 2.57  18 2.57
                            11 2.57
   4  0.000  0.333  0.229-   5 2.57   6 2.57   1 2.57   7 2.57   2 2.57  13 2.57   9 2.57  10 2.57
                            15 2.57
   5  0.333  0.333  0.229-   4 2.57   2 2.57   7 2.57  13 2.57   8 2.57   6 2.57   3 2.57  11 2.57
                            14 2.57
   6  0.667  0.333  0.229-   4 2.57   9 2.57  15 2.57   3 2.57   1 2.57   8 2.57  14 2.57   5 2.57
                            12 2.57
   7  0.000  0.667  0.229-   1 2.57   3 2.57  16 2.57  18 2.57   4 2.57   5 2.57   8 2.57   9 2.57
                            13 2.57
   8  0.333  0.667  0.229-   9 2.57   2 2.57  17 2.57   6 2.57   1 2.57   7 2.57   5 2.57  14 2.57
                            16 2.57
   9  0.667  0.667  0.229-   8 2.57   6 2.57   2 2.57  17 2.57   3 2.57   7 2.57   4 2.57  15 2.57
                            18 2.57
  10  0.111  0.111  0.318-  20 2.55  26 2.56  19 2.56  11 2.57  12 2.57  13 2.57   1 2.57   2 2.57
                             4 2.57  15 2.57  16 2.57  17 2.57
  11  0.444  0.111  0.318-  20 2.55  21 2.55  27 2.56  10 2.57  13 2.57   2 2.57  17 2.57  14 2.57
                            12 2.57   5 2.57   3 2.57  18 2.57
  12  0.778  0.111  0.318-  21 2.55  19 2.56  25 2.56  15 2.57  10 2.57  14 2.57  18 2.57   3 2.57
                             1 2.57  16 2.57  11 2.57   6 2.57
  13  0.111  0.444  0.318-  23 2.55  20 2.55  22 2.56  16 2.57  18 2.57  10 2.57  11 2.57  14 2.57
                             5 2.57   4 2.57   7 2.57  15 2.57
  14  0.444  0.444  0.318-  21 2.55  23 2.55  24 2.56  15 2.57  17 2.57  12 2.57  16 2.57  13 2.57
                            11 2.57   6 2.57   8 2.57   5 2.57
  15  0.778  0.444  0.318-  24 2.56  22 2.56  19 2.56  14 2.57  17 2.57  12 2.57   6 2.57  18 2.57
                            10 2.57   9 2.57  13 2.57   4 2.57
  16  0.111  0.778  0.318-  23 2.55  25 2.56  26 2.56  18 2.57  13 2.57   7 2.57  14 2.57  17 2.57
                            12 2.57  10 2.57   8 2.57   1 2.57
  17  0.444  0.778  0.318-  27 2.56  24 2.56  26 2.56  14 2.57  15 2.57   8 2.57   9 2.57  11 2.57
                            16 2.57  18 2.57  10 2.57   2 2.57
  18  0.778  0.778  0.318-  22 2.56  27 2.56  25 2.56  16 2.57  13 2.57   7 2.57  15 2.57  12 2.57
                            17 2.57   9 2.57   3 2.57  11 2.57
  19  0.889  0.223  0.407-  28 2.54  32 2.56  31 2.56  15 2.56  12 2.56  10 2.56  22 2.56  24 2.56
                            21 2.57  20 2.57  25 2.57  26 2.57
  20  0.222  0.222  0.407-  36 2.46  29 2.55  31 2.55  11 2.55  13 2.55  10 2.55  23 2.56  21 2.56
                            26 2.57  19 2.57  27 2.57  22 2.57
  21  0.555  0.222  0.407-  36 2.46  32 2.55  30 2.55  14 2.55  11 2.55  12 2.55  20 2.56  23 2.56
                            19 2.57  25 2.57  24 2.57  27 2.57
  22  0.889  0.556  0.407-  35 2.54  31 2.55  33 2.55  18 2.56  15 2.56  13 2.56  24 2.56  27 2.56
                            19 2.56  25 2.56  23 2.57  20 2.57
  23  0.222  0.555  0.407-  36 2.46  33 2.55  34 2.55  13 2.55  14 2.55  16 2.55  20 2.56  21 2.56
                            25 2.57  26 2.57  22 2.57  24 2.57
  24  0.556  0.556  0.407-  35 2.54  32 2.55  34 2.55  15 2.56  17 2.56  14 2.56  22 2.56  27 2.56
                            19 2.56  26 2.56  21 2.57  23 2.57
  25  0.889  0.889  0.407-  28 2.54  33 2.56  30 2.56  18 2.56  16 2.56  12 2.56  22 2.56  27 2.56
                            21 2.57  23 2.57  19 2.57  26 2.57
  26  0.223  0.889  0.407-  28 2.54  29 2.56  34 2.56  17 2.56  10 2.56  16 2.56  27 2.56  24 2.56
                            20 2.57  23 2.57  25 2.57  19 2.57
  27  0.556  0.889  0.407-  35 2.54  29 2.55  30 2.55  17 2.56  18 2.56  11 2.56  24 2.56  22 2.56
                            26 2.56  25 2.56  20 2.57  21 2.57
  28  0.000  0.000  0.495-  25 2.54  19 2.54  26 2.54  33 2.58  30 2.58  31 2.58  29 2.58  32 2.58
                            34 2.58
  29  0.333  0.003  0.496-  31 2.54  36 2.54  30 2.55  20 2.55  27 2.55  26 2.56  28 2.58  35 2.58
                            34 2.61
  30  0.664  0.003  0.496-  32 2.54  36 2.54  29 2.55  21 2.55  27 2.55  25 2.56  28 2.58  35 2.58
                            33 2.61
  31  0.003  0.333  0.496-  29 2.54  36 2.54  33 2.55  20 2.55  22 2.55  19 2.56  28 2.58  35 2.58
                            32 2.61
  32  0.664  0.333  0.496-  30 2.54  36 2.54  34 2.55  21 2.55  24 2.55  19 2.56  28 2.58  35 2.58
                            31 2.61
  33  0.003  0.664  0.496-  34 2.54  36 2.54  31 2.55  23 2.55  22 2.55  25 2.56  28 2.58  35 2.58
                            30 2.61
  34  0.333  0.664  0.496-  33 2.54  36 2.54  32 2.55  23 2.55  24 2.55  26 2.56  28 2.58  35 2.58
                            29 2.61
  35  0.667  0.667  0.495-  24 2.54  27 2.54  22 2.54  34 2.58  32 2.58  29 2.58  30 2.58  33 2.58
                            31 2.58
  36  0.333  0.333  0.491-  37 1.91  23 2.46  20 2.46  21 2.46  31 2.54  29 2.54  33 2.54  34 2.54
                            32 2.54  30 2.54
  37  0.333  0.335  0.572-  38 1.25  39 1.25  36 1.91
  38  0.182  0.333  0.591-  37 1.25
  39  0.485  0.333  0.591-  37 1.25

  LATTYP: Found a hexagonal cell.
 ALAT       =     7.6967864036
 C/A-ratio  =     3.0484540560

  Lattice vectors:

 A1 = (  -3.8483927580,  -6.6656128093,   0.0000000000)
 A2 = (   7.6967864037,   0.0000000000,   0.0000000000)
 A3 = (   0.0000000000,   0.0000000000,  23.4632997305)

Analysis of symmetry for initial positions (statically):
 Subroutine PRICEL returns:
 Original cell was already a primitive cell.

 Routine SETGRP: Setting up the symmetry group for a
 hexagonal supercell.

 Subroutine GETGRP returns: Found  2 space group operations
 (whereof  2 operations were pure point group operations)
 out of a pool of 24 trial point group operations.

The static configuration has the point symmetry C_1h.

Analysis of symmetry for dynamics (positions and initial velocities):
 Subroutine PRICEL returns:
 Original cell was already a primitive cell.

[...]

The dynamic configuration has the point symmetry C_1h.

Analysis of constrained symmetry for selective dynamics:
[...]
     41      -4.3785      2.00000
     42      -4.3729      2.00000
     43      -4.2734      2.00000
     44      -4.2703      2.00000
     45      -4.1903      2.00000
     46      -4.1855      2.00000
     47      -4.1678      2.00000
     48      -4.1457      2.00000
     49      -4.1426      2.00000
     50      -4.1308      2.00000
     51      -4.1125      2.00000
     52      -3.9693      2.00000
     53      -3.9338      2.00000
     54      -3.9187      2.00000
     55      -3.9095      2.00000
     56      -3.9021      2.00000
     57      -3.8523      2.00000
     58      -3.8486      2.00000
     59      -3.8378      2.00000
     60      -3.8175      2.00000
[...]
    238       5.2334      0.00000
    239       5.3573      0.00000
    240       5.4422      0.00000
    241       5.5640      0.00000
    242       5.6780      0.00000
    243       5.7581      0.00000
    244       5.8985      0.00000
    245       5.9630      0.00000
    246       5.9731      0.00000
    247       6.3138      0.00000
    248       6.4151      0.00000
    249       6.5144      0.00000
    250       6.5280      0.00000
    251       6.7587      0.00000
    252       6.8468      0.00000

 soft charge-density along one line, spin component           1
         0         1         2         3         4         5         6         7         8         9
 total charge-density along one line

------------------------ aborting loop because EDIFF is reached ----------------------------------------

 total charge

# of ion       s       p       d       tot
    1        0.449   0.285   9.188   9.921
    2        0.448   0.285   9.186   9.918
    3        0.448   0.285   9.186   9.918
    4        0.448   0.285   9.188   9.921
    5        0.449   0.284   9.184   9.918
    6        0.448   0.285   9.188   9.921
    7        0.448   0.286   9.185   9.918
    8        0.448   0.286   9.185   9.918
    9        0.447   0.284   9.188   9.919
   10        0.440   0.373   9.176   9.989
   11        0.442   0.369   9.183   9.993
   12        0.440   0.373   9.176   9.989
   13        0.442   0.370   9.181   9.992
   14        0.442   0.370   9.181   9.992
   15        0.439   0.372   9.175   9.987
   16        0.440   0.371   9.178   9.989
   17        0.440   0.369   9.179   9.989
   18        0.440   0.369   9.179   9.989
   19        0.438   0.374   9.178   9.989
   20        0.450   0.388   9.173  10.011
   21        0.450   0.388   9.173  10.011
   22        0.436   0.375   9.181   9.992
   23        0.451   0.382   9.177  10.011
   24        0.436   0.375   9.181   9.992
   25        0.441   0.369   9.182   9.991
   26        0.441   0.369   9.182   9.991
   27        0.436   0.374   9.181   9.991
   28        0.450   0.280   9.195   9.924
   29        0.449   0.287   9.188   9.925
   30        0.449   0.287   9.188   9.925
   31        0.432   0.290   9.189   9.911
   32        0.432   0.290   9.189   9.911
   33        0.449   0.287   9.188   9.925
   34        0.449   0.287   9.188   9.925
   35        0.444   0.283   9.192   9.919
   36        0.462   0.403   7.474   8.339
   37        0.887   1.688   0.000   2.575
   38        1.599   3.475   0.000   5.074
   39        1.599   3.475   0.000   5.074
tot         20.076  20.627 328.884 369.587

  FORCE on cell =-STRESS in cart. coord.  units (eV):
  Direction    XX          YY          ZZ          XY          YZ          ZX
  Alpha Z   831.36209   831.36209   831.36209
  Ewald  219401.63352218698.75518************     0.00043    -0.84253     0.00018
  Hartree232279.87266231921.62806************     0.00006    -0.48170     0.00007
  E(xc)   -2366.66020 -2368.42162 -2372.10480    -0.00028    -0.00641    -0.00005
  Local  ************************463935.13352     0.02023     1.39955    -0.00076
  n-local  -820.82188  -815.59408  -830.19309     1.88521     0.13470     0.12458
  augment  3473.97828  3477.27883  3492.61319    -0.01823    -0.07808     0.00035
  Kinetic  3501.58365  3547.82356  3564.20160     0.86260    -0.23929    -0.14608
  Fock        0.00000     0.00000     0.00000     0.00000     0.00000     0.00000
  Total      -7.71527    -6.81541    -1.11438     0.00000    -0.11375     0.00000
  in kB     -10.26888    -9.07118    -1.48322     0.00000    -0.15140     0.00000

 VOLUME and BASIS-vectors are now :
  energy-cutoff  :      500.00
  volume of cell :     1203.76
      direct lattice vectors                 reciprocal lattice vectors
     7.696786404  0.000000000  0.000000000     0.129924354 -0.075011849  0.000000000
     3.848392758  6.665612809  0.000000000     0.000000000  0.150023716  0.000000000
     0.000000000  0.000000000 23.463299730     0.000000000  0.000000000  0.042619751

  length of vectors
     7.696786404  7.696786404 23.463299730     0.150023716  0.150023716  0.042619751

 FORCES acting on ions
    electron-ion (+dipol)            ewald-force                    non-local-force                 convergence-correction
   -.417E-04 0.373E-01 0.377E+04   0.578E-04 -.565E-01 -.377E+04   0.246E-08 -.370E-01 -.227E+01   -.280E-03 0.485E-01 -.384E+00
   0.187E+00 0.412E+00 0.377E+04   -.289E+00 -.428E+00 -.377E+04   -.843E-02 0.940E-02 -.202E+01   0.110E+00 0.601E-02 -.358E+00
   -.187E+00 0.412E+00 0.377E+04   0.289E+00 -.428E+00 -.377E+04   0.843E-02 0.940E-02 -.202E+01   -.109E+00 0.849E-02 -.357E+00
   0.379E+00 0.449E-01 0.377E+04   -.467E+00 -.664E-01 -.377E+04   0.780E-01 -.134E-01 -.208E+01   0.137E-01 0.374E-01 -.354E+00
   -.633E-04 0.238E-01 0.377E+04   0.116E-03 -.136E-02 -.377E+04   -.238E-09 0.357E-02 -.186E+01   0.121E-01 -.320E-01 -.274E+00
   -.379E+00 0.450E-01 0.377E+04   0.467E+00 -.665E-01 -.377E+04   -.780E-01 -.134E-01 -.208E+01   -.152E-01 0.386E-01 -.353E+00
   0.210E+00 -.421E+00 0.377E+04   -.177E+00 0.494E+00 -.377E+04   0.210E-01 -.436E-02 -.195E+01   -.537E-01 -.639E-01 -.317E+00
   -.210E+00 -.421E+00 0.377E+04   0.176E+00 0.494E+00 -.377E+04   -.210E-01 -.436E-02 -.195E+01   0.572E-01 -.653E-01 -.317E+00
   -.144E-03 -.168E+00 0.377E+04   0.264E-03 0.578E-01 -.377E+04   -.580E-08 0.871E-01 -.217E+01   -.132E-01 0.248E-01 -.359E+00
   0.339E+01 0.263E+01 0.136E+04   -.336E+01 -.240E+01 -.136E+04   -.176E+00 -.192E+00 -.881E+00   0.118E+00 -.307E-01 -.357E-01
   -.908E-04 0.430E+01 0.137E+04   0.189E-03 -.428E+01 -.136E+04   -.102E-08 0.153E-01 -.847E+00   0.115E-01 -.271E-01 -.100E+00
   -.339E+01 0.263E+01 0.136E+04   0.336E+01 -.240E+01 -.136E+04   0.176E+00 -.192E+00 -.881E+00   -.119E+00 -.297E-01 -.368E-01
   0.311E+01 -.228E+01 0.137E+04   -.329E+01 0.221E+01 -.137E+04   0.969E-01 0.180E-01 -.726E+00   0.767E-01 0.615E-01 -.833E-01
   -.311E+01 -.228E+01 0.137E+04   0.329E+01 0.221E+01 -.137E+04   -.969E-01 0.180E-01 -.726E+00   -.533E-01 0.603E-01 -.854E-01
   -.141E-03 -.387E+00 0.136E+04   0.300E-03 0.806E-01 -.136E+04   -.892E-08 0.134E+00 -.102E+01   -.319E-02 0.150E+00 -.894E-01
   -.865E-04 -.404E+01 0.136E+04   0.185E-03 0.403E+01 -.136E+04   -.101E-07 0.151E+00 -.700E+00   -.760E-03 -.131E+00 -.313E-01
   -.570E-01 -.275E+00 0.136E+04   -.180E+00 0.280E+00 -.136E+04   0.130E+00 0.615E-02 -.734E+00   0.100E+00 -.164E-01 -.879E-01
   0.571E-01 -.275E+00 0.136E+04   0.180E+00 0.280E+00 -.136E+04   -.130E+00 0.615E-02 -.734E+00   -.989E-01 -.142E-01 -.869E-01
   -.590E-04 0.456E+01 -.108E+04   0.654E-04 -.466E+01 0.108E+04   -.819E-08 0.123E+00 0.975E+00   0.113E-01 -.740E-02 -.570E-01
   0.106E+02 0.863E+01 -.105E+04   -.989E+01 -.830E+01 0.105E+04   -.727E+00 -.339E+00 -.578E+00   0.891E-02 -.135E-01 -.466E-01
   -.106E+02 0.863E+01 -.105E+04   0.989E+01 -.830E+01 0.105E+04   0.727E+00 -.339E+00 -.578E+00   -.949E-02 -.139E-01 -.470E-01
   0.573E+01 -.643E+01 -.107E+04   -.608E+01 0.672E+01 0.107E+04   0.307E+00 -.306E+00 0.712E+00   0.892E-01 -.875E-02 -.137E+00
   -.785E-04 -.158E+02 -.105E+04   0.141E-03 0.151E+02 0.105E+04   -.471E-07 0.707E+00 -.244E+00   -.197E-02 0.575E-02 -.826E-01
   -.573E+01 -.643E+01 -.107E+04   0.608E+01 0.672E+01 0.107E+04   -.307E+00 -.306E+00 0.712E+00   -.678E-01 -.810E-02 -.137E+00
   -.228E+01 -.132E+00 -.108E+04   0.229E+01 0.157E+00 0.108E+04   -.308E-02 -.360E-01 0.930E+00   -.775E-02 0.143E-01 -.914E-01
   0.228E+01 -.132E+00 -.108E+04   -.229E+01 0.157E+00 0.108E+04   0.308E-02 -.360E-01 0.930E+00   0.291E-01 0.154E-01 -.909E-01
   -.125E-03 0.731E+01 -.108E+04   0.244E-03 -.763E+01 0.108E+04   -.202E-07 0.303E+00 0.814E+00   0.936E-02 0.756E-01 -.180E+00
   -.246E-04 0.153E+02 -.353E+04   0.275E-04 -.152E+02 0.353E+04   0.114E-07 -.171E+00 0.262E+01   0.102E-03 0.490E-01 0.746E-01
   0.273E+02 0.764E+02 -.349E+04   -.268E+02 -.769E+02 0.349E+04   -.539E+00 0.209E+00 0.312E+01   0.130E-01 0.604E-01 -.962E-03
   -.273E+02 0.764E+02 -.349E+04   0.268E+02 -.769E+02 0.349E+04   0.539E+00 0.209E+00 0.312E+01   -.128E-01 0.619E-01 -.811E-03
   0.835E+02 -.571E+00 -.345E+04   -.845E+02 0.744E+00 0.345E+04   0.947E+00 -.131E+00 0.425E+01   -.318E-01 -.393E-01 -.114E-01
   -.835E+02 -.571E+00 -.345E+04   0.845E+02 0.744E+00 0.345E+04   -.947E+00 -.131E+00 0.425E+01   0.315E-01 -.381E-01 -.105E-01
   0.292E+02 -.760E+02 -.349E+04   -.289E+02 0.763E+02 0.349E+04   -.276E+00 -.122E+00 0.309E+01   0.195E-02 -.573E-02 -.367E-01
   -.292E+02 -.760E+02 -.349E+04   0.289E+02 0.763E+02 0.349E+04   0.276E+00 -.122E+00 0.309E+01   0.932E-03 -.601E-02 -.359E-01
   -.139E-03 -.155E+02 -.353E+04   0.263E-03 0.154E+02 0.353E+04   -.103E-07 0.155E+00 0.278E+01   -.128E-01 -.344E-01 0.126E+00
   -.531E-04 0.926E+00 -.257E+04   0.119E-03 -.798E+00 0.257E+04   0.741E-08 -.111E+00 0.158E+01   0.472E-02 -.564E-01 -.307E+00
   -.126E-05 -.341E+01 -.144E+04   0.106E-04 0.355E+01 0.144E+04   0.819E-08 -.123E+00 0.568E+01   0.218E-03 -.178E-01 0.108E+00
   0.223E+03 0.126E+01 -.230E+04   -.270E+03 -.164E+01 0.232E+04   0.466E+02 0.388E+00 -.206E+02   -.137E+00 -.134E-01 0.632E-01
   -.223E+03 0.126E+01 -.230E+04   0.270E+03 -.164E+01 0.232E+04   -.466E+02 0.388E+00 -.206E+02   0.137E+00 -.133E-01 0.629E-01
   0.325E-04 -.253E+00 0.340E+02   0.568E-13 -.178E-14 0.114E-10   -.144E-07 0.216E+00 -.295E+02   0.877E-01 0.312E-01 -.455E+01

 POSITION                                       TOTAL-FORCE (eV/Angst)
      0.00000      0.00000      5.37156         0.000000     -0.007452      0.057969
      2.56560      0.00000      5.37156        -0.001295      0.001042      0.077236
      5.13119      0.00000      5.37156         0.001295      0.001042      0.077236
      1.28280      2.22187      5.37156         0.004861      0.003211      0.063279
      3.84839      2.22187      5.37156         0.000000     -0.005774      0.040246
      6.41399      2.22187      5.37156        -0.004861      0.003211      0.063279
      2.56560      4.44374      5.37156        -0.001347      0.004351      0.072832
      5.13119      4.44374      5.37156         0.001347      0.004351      0.072832
      7.69679      4.44374      5.37156        -0.000000      0.001908      0.052991
      1.28280      0.74062      7.46636        -0.019561      0.003730     -0.043648
      3.84839      0.74062      7.46636        -0.000000      0.010604     -0.083890
      6.41399      0.74062      7.46636         0.019561      0.003730     -0.043648
      2.56560      2.96249      7.46636        -0.015824      0.001287     -0.089072
      5.13119      2.96249      7.46636         0.015824      0.001287     -0.089072
      7.69679      2.96249      7.46636         0.000000     -0.023098     -0.055401
      3.84839      5.18437      7.46636        -0.000000      0.014468     -0.042599
      6.41399      5.18437      7.46636        -0.008009     -0.004446     -0.034660
      8.97958      5.18437      7.46636         0.008009     -0.004446     -0.034660
      7.69679      1.48420      9.55496        -0.000000      0.014971      0.083245
      2.56664      1.48185      9.54157        -0.044537     -0.019333     -0.089657
      5.13014      1.48185      9.54157         0.044537     -0.019333     -0.089657
      8.97778      3.70416      9.55304         0.029376     -0.022373      0.011332
      3.84839      3.70191      9.54157        -0.000000      0.067883     -0.113883
      6.41579      3.70416      9.55304        -0.029376     -0.022373      0.011332
     10.25982      5.92351      9.55496        -0.007041      0.003716      0.017624
      5.13375      5.92351      9.55496         0.007041      0.003716      0.017624
      7.69679      5.92291      9.55304        -0.000000      0.050013     -0.001317
      0.00000      0.00000     11.62172         0.000000     -0.050408     -0.030560
      2.57582      0.02145     11.62841        -0.010883     -0.198300     -0.112510
      5.12097      0.02145     11.62841         0.010883     -0.198300     -0.112510
      1.30649      2.22000     11.62841        -0.086245      0.003644      0.172863
      6.39030      2.22000     11.62841         0.086245      0.003644      0.172863
      2.57906      4.42416     11.62841        -0.006292      0.176769     -0.092924
      5.11773      4.42416     11.62841         0.006292      0.176769     -0.092924
      7.69679      4.44374     11.62071        -0.000000      0.057998     -0.029859
      3.84839      2.22187     11.51210         0.000000     -0.039988      0.259786
      3.84839      2.23264     13.42281        -0.000000      0.003087     -0.115374
      2.68062      2.22264     13.85622        -0.008159     -0.000403      0.036627
      5.01616      2.22264     13.85622         0.008159     -0.000403      0.036627
    total drift:                                0.087782     -0.005147     -0.052415

  FREE ENERGIE OF THE ION-ELECTRON SYSTEM (eV)
  free  energy   TOTEN  =      -150.77527656 eV

  energy  without entropy=     -150.77527656  energy(sigma->0) =     -150.77527656

 stress matrix after NEB project (eV)
     -7.71527      0.00000      0.00000
      0.00000     -6.81541     -0.11375
      0.00000     -0.11375     -1.11438
  FORCES: max atom, RMS     0.115415    0.020341
  FORCE total and by dimension    0.127032    0.115374
  Stress total and by dimension   10.355813    7.715266
|           W    W    AA    RRRRR   N    N  II  N    N   GGGG   !!!           |
|           W    W   A  A   R    R  NN   N  II  NN   N  G    G  !!!           |
|           W    W  A    A  R    R  N N  N  II  N N  N  G       !!!           |
|           W WW W  AAAAAA  RRRRR   N  N N  II  N  N N  G  GGG   !            |
|           WW  WW  A    A  R   R   N   NN  II  N   NN  G    G                |
|           W    W  A    A  R    R  N    N  II  N    N   GGGG   !!!           |
|     Tetrahedron method does not include variations of the Fermi             |
|     occupations, so forces and stress will be inaccurate. We suggest        |
|     using a different smearing scheme ISMEAR = 1 or 2 for metals in         |
|     relaxations.                                                            |

 total charge

# of ion       s       p       d       tot
    1        0.449   0.285   9.188   9.921
    2        0.448   0.285   9.186   9.918
    3        0.448   0.285   9.186   9.918
    4        0.448   0.285   9.188   9.921
    5        0.449   0.284   9.184   9.918
    6        0.448   0.285   9.188   9.921
    7        0.448   0.286   9.185   9.918
    8        0.448   0.286   9.185   9.918
    9        0.447   0.284   9.188   9.919
   10        0.440   0.373   9.176   9.989
   11        0.442   0.369   9.183   9.993
   12        0.440   0.373   9.176   9.989
   13        0.442   0.370   9.181   9.992
   14        0.442   0.370   9.181   9.992
   15        0.439   0.372   9.175   9.987
   16        0.440   0.371   9.178   9.989
   17        0.440   0.369   9.179   9.989
   18        0.440   0.369   9.179   9.989
   19        0.438   0.374   9.178   9.989
   20        0.450   0.388   9.173  10.011
   21        0.450   0.388   9.173  10.011
   22        0.436   0.375   9.181   9.992
   23        0.451   0.382   9.177  10.011
   24        0.436   0.375   9.181   9.992
   25        0.441   0.369   9.182   9.991
   26        0.441   0.369   9.182   9.991
   27        0.436   0.374   9.181   9.991
   28        0.450   0.280   9.195   9.924
   29        0.449   0.287   9.188   9.925
   30        0.449   0.287   9.188   9.925
   31        0.432   0.290   9.189   9.911
   32        0.432   0.290   9.189   9.911
   33        0.449   0.287   9.188   9.925
   34        0.449   0.287   9.188   9.925
   35        0.444   0.283   9.192   9.919
   36        0.462   0.403   7.474   8.339
   37        0.887   1.688   0.000   2.575
   38        1.599   3.475   0.000   5.074
   39        1.599   3.475   0.000   5.074
tot         20.076  20.627 328.884 369.587

 BZINTS: Fermi energy:   -0.502228;  410.000000 electrons
         Band energy:-0.144489E+04;  BLOECHL correction:   -0.056899