 vasp.6.2.0 18Jan21 (build Jun 12 2021 23:27:24) complex

 executed on             LinuxIFC date 2022.05.26  20:09:38

 INCAR:
   ISMEAR = -5
   SIGMA = 0.1
   ISPIN = 1
   EDIFF = 1.d-5
   EDIFFG = -0.01
   NSW = 0
   NELM = 150
   ENCUT = 500
   ISIF = 2
   IBRION = 2
   LREAL = Auto
   ALGO = Fast
   ICHARG = 11
   LORBIT = 10
   LCHARG = .F.
   LWAVE = .F.

 POTCAR:    PAW_PBE Cu 22Jun2005
 POTCAR:    PAW_PBE Os 17Jan2003
 POTCAR:    PAW_PBE O 08Apr2002
|           W    W    AA    RRRRR   N    N  II  N    N   GGGG   !!!           |
|           W    W   A  A   R    R  NN   N  II  NN   N  G    G  !!!           |
|           W    W  A    A  R    R  N N  N  II  N N  N  G       !!!           |
|           W WW W  AAAAAA  RRRRR   N  N N  II  N  N N  G  GGG   !            |
|           WW  WW  A    A  R   R   N   NN  II  N   NN  G    G                |
|           W    W  A    A  R    R  N    N  II  N    N   GGGG   !!!           |
|     For optimal performance we recommend to set                             |
|       NCORE = 2 up to number-of-cores-per-socket                            |
|     This setting can greatly improve the performance of VASP for DFT.       |
|     The default, NCORE=1 might be grossly inefficient on modern             |
|     multi-core architectures or massively parallel machines. Do your        |
|     Unfortunately you need to use the default for GW and RPA                |
|     calculations (for HF NCORE is supported but not extensively tested      |
|     yet).                                                                   |

 POTCAR:    PAW_PBE Cu 22Jun2005
   VRHFIN =Cu: d10 p1

   TITEL  = PAW_PBE Cu 22Jun2005
   POMASS =   63.546; ZVAL   =   11.000    mass and valenz
   ENMAX  =  295.446; ENMIN  =  221.585 eV

 POTCAR:    PAW_PBE Os 17Jan2003
   VRHFIN =Os: 6s5d

   TITEL  = PAW_PBE Os 17Jan2003
   POMASS =  190.200; ZVAL   =    8.000    mass and valenz
   ENMAX  =  228.022; ENMIN  =  171.017 eV

 POTCAR:    PAW_PBE O 08Apr2002
   VRHFIN =O: s2p4

   TITEL  = PAW_PBE O 08Apr2002
   POMASS =   16.000; ZVAL   =    6.000    mass and valenz
   ENMAX  =  400.000; ENMIN  =  300.000 eV

 Optimization of the real space projectors (new method)

 maximal supplied QI-value         = 16.25
 optimisation between [QCUT,QGAM] = [ 11.38, 22.75] = [ 36.24,144.96] Ry
 Optimized for a Real-space Cutoff    1.52 Angstroem

   l    n(q)    QCUT    max X(q) W(low)/X(q) W(high)/X(q)  e(spline)
   2      9    11.376     4.610    0.21E-03    0.10E-03    0.26E-06
   2      9    11.376     8.522    0.33E-03    0.16E-03    0.37E-06
   0     10    11.376    51.609    0.62E-04    0.20E-04    0.13E-06
   0     10    11.376    27.747    0.54E-04    0.20E-04    0.13E-06
   1     10    11.376    20.408    0.13E-04    0.99E-04    0.19E-06
   1     10    11.376    13.425    0.12E-04    0.87E-04    0.17E-06
 Optimization of the real space projectors (new method)

[...]

   l    n(q)    QCUT    max X(q) W(low)/X(q) W(high)/X(q)  e(spline)
   2     10    11.327   152.873    0.32E-03    0.72E-03    0.11E-05
   2     10    11.327   151.010    0.32E-03    0.72E-03    0.11E-05
   0     11    11.327    72.114    0.43E-04    0.61E-04    0.13E-06
   0     11    11.327    44.596    0.40E-04    0.57E-04    0.12E-06
   1     10    11.327    13.742    0.16E-03    0.10E-03    0.19E-06
   1     10    11.327     8.461    0.12E-03    0.78E-04    0.15E-06
 Optimization of the real space projectors (new method)

 maximal supplied QI-value         = 24.76
 optimisation between [QCUT,QGAM] = [ 11.39, 22.77] = [ 36.31,145.25] Ry
 Optimized for a Real-space Cutoff    1.00 Angstroem

   l    n(q)    QCUT    max X(q) W(low)/X(q) W(high)/X(q)  e(spline)
   0      7    11.387    20.381    0.39E-03    0.13E-02    0.15E-06
   0      7    11.387    15.268    0.42E-03    0.14E-02    0.17E-06
   1      6    11.387     5.964    0.41E-03    0.11E-02    0.17E-06
   1      6    11.387     5.382    0.39E-03    0.87E-03    0.15E-06
  PAW_PBE Cu 22Jun2005                  :
  PAW_PBE Os 17Jan2003                  :
  PAW_PBE O 08Apr2002                   :

 POSCAR: Cu-Os-O
  positions in direct lattice
  velocities in cartesian coordinates
 exchange correlation table for  LEXCH =        8
   RHO(1)=    0.500       N(1)  =     2000
   RHO(2)=  100.500       N(2)  =     4000

 VTST: version 3.2, (02/03/18)

 CHAIN: initializing optimizer

 OPT: Using VASP Conjugate-Gradient optimizer
 CHAIN: Read ICHAIN            0

 POSCAR: Cu-Os-O
  positions in direct lattice
  velocities in cartesian coordinates

 ion  position               nearest neighbor table
   1  0.000  0.000  0.252-   7 2.57   3 2.57   4 2.57   2 2.57   6 2.57   8 2.57  12 2.57  10 2.57
                            16 2.57
   2  0.333  0.000  0.252-   8 2.57   9 2.57   5 2.57   1 2.57   3 2.57  11 2.57   4 2.57  10 2.57
                            17 2.57
   3  0.667  0.000  0.252-   1 2.57   7 2.57   6 2.57   9 2.57   2 2.57  12 2.57   5 2.57  18 2.57
                            11 2.57
   4  0.000  0.333  0.252-   5 2.57   6 2.57   1 2.57   7 2.57   2 2.57  13 2.57   9 2.57  10 2.57
                            15 2.57
   5  0.333  0.333  0.252-   4 2.57   2 2.57   7 2.57  13 2.57   8 2.57   6 2.57   3 2.57  11 2.57
                            14 2.57
   6  0.667  0.333  0.252-   4 2.57   9 2.57  15 2.57   3 2.57   1 2.57   8 2.57  14 2.57   5 2.57
                            12 2.57
   7  0.000  0.667  0.252-   1 2.57   3 2.57  16 2.57  18 2.57   4 2.57   5 2.57   8 2.57   9 2.57
                            13 2.57
   8  0.333  0.667  0.252-   9 2.57   2 2.57  17 2.57   6 2.57   1 2.57   7 2.57   5 2.57  14 2.57
                            16 2.57
   9  0.667  0.667  0.252-   8 2.57   6 2.57   2 2.57  17 2.57   3 2.57   7 2.57   4 2.57  15 2.57
                            18 2.57
  10  0.111  0.111  0.351-  20 2.53  11 2.57  12 2.57  13 2.57   1 2.57   2 2.57   4 2.57  15 2.57
                            16 2.57  17 2.57  26 2.57  19 2.57
  11  0.444  0.111  0.351-  20 2.54  21 2.54  10 2.57  13 2.57   2 2.57  17 2.57  14 2.57  12 2.57
                             5 2.57   3 2.57  18 2.57  27 2.57
  12  0.778  0.111  0.351-  21 2.53  15 2.57  10 2.57  14 2.57  18 2.57   3 2.57   1 2.57  16 2.57
                            11 2.57   6 2.57  19 2.57  25 2.57
  13  0.111  0.444  0.351-  23 2.54  20 2.54  16 2.57  18 2.57  10 2.57  11 2.57  14 2.57   5 2.57
                             4 2.57   7 2.57  15 2.57  22 2.57
  14  0.444  0.444  0.351-  21 2.54  23 2.54  15 2.57  17 2.57  12 2.57  16 2.57  13 2.57  11 2.57
                             6 2.57   8 2.57   5 2.57  24 2.57
  15  0.778  0.444  0.351-  19 2.56  14 2.57  17 2.57  12 2.57   6 2.57  18 2.57  10 2.57   9 2.57
                            13 2.57   4 2.57  24 2.57  22 2.57
  16  0.111  0.778  0.351-  23 2.53  18 2.57  13 2.57   7 2.57  14 2.57  17 2.57  12 2.57  10 2.57
                             8 2.57   1 2.57  25 2.57  26 2.57
  17  0.444  0.778  0.351-  26 2.56  14 2.57  15 2.57   8 2.57   9 2.57  11 2.57  16 2.57  18 2.57
                            10 2.57   2 2.57  27 2.57  24 2.57
  18  0.778  0.778  0.351-  25 2.56  16 2.57  13 2.57   7 2.57  15 2.57  12 2.57  17 2.57   9 2.57
                             3 2.57  11 2.57  22 2.57  27 2.57
  19  0.888  0.223  0.449-  21 2.55  20 2.55  28 2.55  22 2.56  24 2.56  15 2.56  12 2.57  10 2.57
                            32 2.57  31 2.57  25 2.57  26 2.57
  20  0.221  0.221  0.448-  10 2.53  36 2.53  11 2.54  13 2.54  26 2.55  19 2.55  27 2.57  22 2.57
                            23 2.59  21 2.59  29 2.60  31 2.60
  21  0.558  0.221  0.448-  12 2.53  36 2.53  14 2.54  11 2.54  19 2.55  25 2.55  24 2.57  27 2.57
                            20 2.59  23 2.59  32 2.60  30 2.60
  22  0.888  0.556  0.449-  35 2.55  24 2.55  27 2.55  19 2.56  25 2.56  18 2.57  15 2.57  23 2.57
                            20 2.57  13 2.57  31 2.58  33 2.58
  23  0.221  0.558  0.448-  16 2.53  36 2.53  13 2.54  14 2.54  25 2.55  26 2.55  22 2.57  24 2.57
                            20 2.59  21 2.59  33 2.60  34 2.60
  24  0.556  0.556  0.449-  35 2.55  22 2.55  27 2.55  19 2.56  26 2.56  15 2.57  17 2.57  21 2.57
                            23 2.57  14 2.57  32 2.58  34 2.58
  25  0.888  0.888  0.449-  21 2.55  23 2.55  28 2.55  22 2.56  27 2.56  18 2.56  16 2.57  12 2.57
                            33 2.57  30 2.57  19 2.57  26 2.57
  26  0.223  0.888  0.449-  20 2.55  23 2.55  28 2.55  27 2.56  24 2.56  17 2.56  10 2.57  16 2.57
                            29 2.57  34 2.57  25 2.57  19 2.57
  27  0.556  0.888  0.449-  35 2.55  24 2.55  22 2.55  26 2.56  25 2.56  17 2.57  18 2.57  20 2.57
                            21 2.57  11 2.57  29 2.58  30 2.58
  28  0.000  0.000  0.547-  25 2.55  19 2.55  26 2.55  33 2.56  30 2.56  31 2.56  29 2.56  32 2.56
                            34 2.56
  29  0.333  0.000  0.548-  31 2.56  28 2.56  34 2.57  36 2.57  35 2.57  30 2.57  26 2.57  27 2.58
                            20 2.60
  30  0.667  0.000  0.548-  32 2.56  28 2.56  33 2.57  36 2.57  35 2.57  29 2.57  25 2.57  27 2.58
                            21 2.60
  31  0.000  0.333  0.548-  29 2.56  28 2.56  32 2.57  36 2.57  35 2.57  33 2.57  19 2.57  22 2.58
                            20 2.60
  32  0.667  0.333  0.548-  30 2.56  28 2.56  31 2.57  36 2.57  35 2.57  34 2.57  19 2.57  24 2.58
                            21 2.60
  33  0.000  0.667  0.548-  34 2.56  28 2.56  30 2.57  36 2.57  35 2.57  31 2.57  25 2.57  22 2.58
                            23 2.60
  34  0.333  0.667  0.548-  33 2.56  28 2.56  29 2.57  36 2.57  35 2.57  32 2.57  26 2.57  24 2.58
                            23 2.60
  35  0.667  0.667  0.547-  24 2.55  27 2.55  22 2.55  34 2.57  32 2.57  29 2.57  30 2.57  33 2.57
                            31 2.57
  36  0.333  0.333  0.544-  37 1.76  23 2.53  20 2.53  21 2.53  31 2.57  29 2.57  33 2.57  34 2.57
                            32 2.57  30 2.57
  37  0.333  0.333  0.627-  36 1.76

  LATTYP: Found a hexagonal cell.
 ALAT       =     7.6967864036
 C/A-ratio  =     2.7653617908

  Lattice vectors:

 A1 = (  -3.8483927580,  -6.6656128093,   0.0000000000)
 A2 = (   7.6967864037,   0.0000000000,   0.0000000000)
 A3 = (   0.0000000000,   0.0000000000,  21.2843990326)

Analysis of symmetry for initial positions (statically):
 Subroutine PRICEL returns:
 Original cell was already a primitive cell.

 Routine SETGRP: Setting up the symmetry group for a
 hexagonal supercell.

 Subroutine GETGRP returns: Found  6 space group operations
 (whereof  6 operations were pure point group operations)
 out of a pool of 24 trial point group operations.

The static configuration has the point symmetry C_3v.

Analysis of symmetry for dynamics (positions and initial velocities):
 Subroutine PRICEL returns:
 Original cell was already a primitive cell.

[...]

The dynamic configuration has the point symmetry C_3v.

Analysis of constrained symmetry for selective dynamics:
 Subroutine PRICEL returns:
 Original cell was already a primitive cell.

 Routine SETGRP: Setting up the symmetry group for a
 hexagonal supercell.

 Subroutine GETGRP returns: Found  6 space group operations
[...]
     24      -4.3799      2.00000
     25      -4.3541      2.00000
     26      -4.3109      2.00000
     27      -4.2900      2.00000
     28      -4.2568      2.00000
     29      -4.1994      2.00000
     30      -4.1195      2.00000
     31      -4.1050      2.00000
     32      -4.0647      2.00000
     33      -4.0412      2.00000
     34      -4.0376      2.00000
     35      -4.0256      2.00000
     36      -4.0175      2.00000
     37      -3.9788      2.00000
     38      -3.9428      2.00000
     39      -3.8824      2.00000
     40      -3.8613      2.00000
     41      -3.7314      2.00000
     42      -3.7220      2.00000
     43      -3.6540      2.00000
     44      -3.6409      2.00000
     45      -3.6260      2.00000
     46      -3.6100      2.00000
     47      -3.5999      2.00000
     48      -3.5688      2.00000
     49      -3.5631      2.00000
     50      -3.4239      2.00000
     51      -3.3970      2.00000
     52      -3.3774      2.00000
     53      -3.3636      2.00000
     54      -3.3316      2.00000
     55      -3.3251      2.00000
     56      -3.3016      2.00000
     57      -3.2943      2.00000
     58      -3.2878      2.00000
     59      -3.2701      2.00000
     60      -3.2564      2.00000
[...]
    238       6.2465      0.00000
    239       6.4162      0.00000
    240       6.4981      0.00000
    241       7.0090      0.00000
    242       7.0166      0.00000
    243       7.1025      0.00000
    244       7.1585      0.00000
    245       7.2886      0.00000
    246       7.3772      0.00000
    247       7.3991      0.00000
    248       7.4874      0.00000
    249       7.5645      0.00000
    250       7.7978      0.00000
    251       7.8246      0.00000
    252       8.0090      0.00000

 soft charge-density along one line, spin component           1
         0         1         2         3         4         5         6         7         8         9
 total charge-density along one line

------------------------ aborting loop because EDIFF is reached ----------------------------------------

 total charge

# of ion       s       p       d       tot
    1        0.450   0.282   9.192   9.923
    2        0.449   0.285   9.187   9.921
    3        0.449   0.285   9.187   9.921
    4        0.449   0.285   9.187   9.921
    5        0.451   0.284   9.185   9.920
    6        0.449   0.285   9.187   9.921
    7        0.449   0.285   9.187   9.921
    8        0.449   0.285   9.187   9.921
    9        0.446   0.285   9.187   9.918
   10        0.445   0.370   9.179   9.994
   11        0.441   0.371   9.182   9.993
   12        0.445   0.370   9.179   9.994
   13        0.441   0.371   9.182   9.993
   14        0.441   0.371   9.182   9.993
   15        0.439   0.367   9.183   9.989
   16        0.445   0.370   9.179   9.994
   17        0.439   0.367   9.183   9.989
   18        0.439   0.367   9.183   9.989
   19        0.440   0.367   9.184   9.991
   20        0.466   0.403   9.162  10.031
   21        0.466   0.403   9.162  10.031
   22        0.431   0.369   9.185   9.985
   23        0.466   0.403   9.162  10.031
   24        0.431   0.369   9.185   9.985
   25        0.440   0.367   9.184   9.991
   26        0.440   0.367   9.184   9.991
   27        0.431   0.369   9.185   9.985
   28        0.454   0.286   9.191   9.931
   29        0.446   0.309   9.187   9.941
   30        0.446   0.309   9.187   9.941
   31        0.446   0.309   9.187   9.941
   32        0.446   0.309   9.187   9.941
   33        0.446   0.309   9.187   9.941
   34        0.446   0.309   9.187   9.941
   35        0.445   0.289   9.191   9.925
   36        0.727   0.736   6.037   7.499
   37        1.607   3.256   0.000   4.863
tot         17.932  15.717 327.452 361.101

  FORCE on cell =-STRESS in cart. coord.  units (eV):
  Direction    XX          YY          ZZ          XY          YZ          ZX
  Alpha Z   908.15722   908.15722   908.15722
  Ewald  172684.69776172684.69733************     0.00039     0.00012     0.00018
  Hartree185755.50530185755.50527************     0.00004     0.00006     0.00007
  E(xc)   -2313.72493 -2313.72446 -2317.53146    -0.00041    -0.00003    -0.00006
  Local  ************************371683.22665     0.01868    -0.00060    -0.00097
  n-local  -805.04720  -789.39279  -804.55246     8.59833    -0.02914     0.27118
  augment  3331.18908  3331.20934  3345.52210    -0.01755     0.00028     0.00052
  Kinetic  3381.24915  3384.45613  3380.56928     3.17883     1.74631    -1.08043
  Fock        0.00000     0.00000     0.00000     0.00000     0.00000     0.00000
  Total      -0.56201    -0.56201     4.02263     0.00000     0.00000    -0.00000
  in kB      -0.82460    -0.82460     5.90215     0.00000     0.00000    -0.00000

 VOLUME and BASIS-vectors are now :
  energy-cutoff  :      500.00
  volume of cell :     1091.97
      direct lattice vectors                 reciprocal lattice vectors
     7.696786404  0.000000000  0.000000000     0.129924354 -0.075011849  0.000000000
     3.848392758  6.665612809  0.000000000     0.000000000  0.150023716  0.000000000
     0.000000000  0.000000000 21.284399033     0.000000000  0.000000000  0.046982769

  length of vectors
     7.696786404  7.696786404 21.284399033     0.150023716  0.150023716  0.046982769

 FORCES acting on ions
    electron-ion (+dipol)            ewald-force                    non-local-force                 convergence-correction
   -.417E-04 0.931E-07 0.349E+04   0.580E-04 -.436E-05 -.348E+04   0.769E-17 -.384E-17 -.276E+01   -.344E-03 -.219E-03 -.643E+00
   -.184E+00 0.348E-02 0.349E+04   0.888E-02 -.189E+00 -.348E+04   0.872E-01 0.204E+00 -.187E+01   0.883E-01 -.403E-02 -.550E+00
   0.184E+00 0.351E-02 0.349E+04   -.896E-02 -.189E+00 -.348E+04   -.872E-01 0.204E+00 -.187E+01   -.874E-01 -.149E-02 -.549E+00
   -.888E-01 -.161E+00 0.349E+04   -.159E+00 0.102E+00 -.348E+04   0.220E+00 -.267E-01 -.187E+01   0.408E-01 0.784E-01 -.550E+00
   -.652E-04 -.550E-05 0.349E+04   0.116E-03 -.101E-04 -.349E+04   0.593E-17 -.266E-17 -.165E+01   0.122E-01 0.745E-02 -.462E+00
   0.888E-01 -.161E+00 0.349E+04   0.159E+00 0.102E+00 -.348E+04   -.220E+00 -.267E-01 -.187E+01   -.424E-01 0.796E-01 -.549E+00
   0.949E-01 0.157E+00 0.349E+04   -.168E+00 0.868E-01 -.348E+04   0.133E+00 -.178E+00 -.187E+01   -.449E-01 -.750E-01 -.549E+00
   -.948E-01 0.157E+00 0.349E+04   0.168E+00 0.868E-01 -.348E+04   -.133E+00 -.178E+00 -.187E+01   0.484E-01 -.764E-01 -.549E+00
   -.144E-03 -.329E-04 0.349E+04   0.263E-03 0.206E-04 -.348E+04   -.220E-17 -.415E-17 -.228E+01   -.132E-01 -.677E-02 -.585E+00
   0.354E+01 0.204E+01 0.118E+04   -.304E+01 -.175E+01 -.118E+04   -.598E+00 -.345E+00 -.112E+01   0.670E-01 0.384E-01 0.235E+00
   -.911E-04 0.138E+01 0.118E+04   0.190E-03 -.163E+01 -.118E+04   -.150E-07 0.226E+00 -.275E+00   0.121E-01 -.811E-02 0.251E+00
   -.354E+01 0.204E+01 0.118E+04   0.304E+01 -.175E+01 -.118E+04   0.598E+00 -.345E+00 -.112E+01   -.688E-01 0.397E-01 0.235E+00
   0.119E+01 -.688E+00 0.118E+04   -.142E+01 0.817E+00 -.118E+04   0.196E+00 -.113E+00 -.275E+00   -.502E-03 0.153E-01 0.251E+00
   -.119E+01 -.688E+00 0.118E+04   0.141E+01 0.817E+00 -.118E+04   -.196E+00 -.113E+00 -.275E+00   0.243E-01 0.140E-01 0.250E+00
   -.143E-03 -.301E+00 0.118E+04   0.299E-03 0.117E+00 -.118E+04   -.694E-08 0.104E+00 -.870E+00   -.359E-02 0.543E-01 0.178E+00
   -.918E-04 -.409E+01 0.118E+04   0.186E-03 0.351E+01 -.118E+04   -.460E-07 0.690E+00 -.112E+01   -.506E-03 -.809E-01 0.236E+00
   -.261E+00 0.150E+00 0.118E+04   0.101E+00 -.580E-01 -.118E+04   0.902E-01 -.521E-01 -.870E+00   0.456E-01 -.302E-01 0.178E+00
   0.261E+00 0.150E+00 0.118E+04   -.101E+00 -.581E-01 -.118E+04   -.902E-01 -.521E-01 -.870E+00   -.443E-01 -.272E-01 0.180E+00
   -.563E-04 -.386E+00 -.114E+04   0.686E-04 0.308E+00 0.114E+04   -.152E-08 0.228E-01 0.836E+00   -.110E-01 0.197E-02 0.822E+00
   -.220E+02 -.127E+02 -.114E+04   0.230E+02 0.133E+02 0.114E+04   -.123E+01 -.708E+00 -.659E+00   0.156E+00 0.892E-01 0.931E+00
   0.220E+02 -.127E+02 -.114E+04   -.230E+02 0.133E+02 0.114E+04   0.123E+01 -.708E+00 -.659E+00   -.175E+00 0.887E-01 0.931E+00
   -.162E+02 0.933E+01 -.114E+04   0.154E+02 -.892E+01 0.114E+04   0.762E+00 -.440E+00 0.106E+01   0.201E-01 -.102E-01 0.849E+00
   -.882E-04 0.254E+02 -.114E+04   0.144E-03 -.266E+02 0.114E+04   -.942E-07 0.142E+01 -.659E+00   0.302E-04 -.177E+00 0.931E+00
   0.162E+02 0.933E+01 -.114E+04   -.154E+02 -.892E+01 0.114E+04   -.762E+00 -.440E+00 0.106E+01   -.203E-01 -.116E-01 0.849E+00
   0.334E+00 0.193E+00 -.114E+04   -.267E+00 -.154E+00 0.114E+04   -.198E-01 -.114E-01 0.836E+00   -.173E-01 -.109E-01 0.821E+00
   -.334E+00 0.193E+00 -.114E+04   0.266E+00 -.154E+00 0.114E+04   0.198E-01 -.114E-01 0.836E+00   -.397E-02 -.118E-01 0.822E+00
   -.115E-03 -.187E+02 -.114E+04   0.242E-03 0.178E+02 0.114E+04   -.586E-07 0.880E+00 0.106E+01   0.938E-03 0.232E-01 0.849E+00
   -.454E-04 0.116E-04 -.342E+04   0.366E-04 -.334E-04 0.341E+04   -.208E-17 -.384E-17 0.185E+01   -.224E-03 -.445E-03 0.758E+00
   -.614E+01 -.546E+01 -.341E+04   0.540E+01 0.376E+01 0.341E+04   0.372E+00 0.110E+01 0.235E+01   0.143E+00 0.172E+00 0.834E+00
   0.614E+01 -.546E+01 -.341E+04   -.540E+01 0.376E+01 0.341E+04   -.372E+00 0.110E+01 0.235E+01   -.142E+00 0.174E+00 0.833E+00
   -.780E+01 -.258E+01 -.341E+04   0.596E+01 0.279E+01 0.341E+04   0.114E+01 -.226E+00 0.235E+01   0.221E+00 0.380E-01 0.834E+00
   0.780E+01 -.258E+01 -.341E+04   -.596E+01 0.279E+01 0.341E+04   -.114E+01 -.226E+00 0.235E+01   -.221E+00 0.389E-01 0.834E+00
   -.166E+01 0.805E+01 -.341E+04   0.559E+00 -.656E+01 0.341E+04   0.764E+00 -.871E+00 0.235E+01   0.795E-01 -.210E+00 0.833E+00
   0.166E+01 0.805E+01 -.341E+04   -.559E+00 -.656E+01 0.341E+04   -.764E+00 -.871E+00 0.235E+01   -.766E-01 -.211E+00 0.834E+00
   -.158E-03 -.310E-04 -.342E+04   0.255E-03 0.461E-05 0.342E+04   0.411E-17 0.159E-17 0.223E+01   -.128E-01 -.638E-02 0.788E+00
   -.299E-04 -.200E-04 -.225E+04   0.102E-03 0.192E-04 0.225E+04   0.286E-17 -.353E-18 0.255E+01   0.168E-02 0.813E-03 0.666E+00
   0.174E-03 -.850E-04 -.219E+04   0.188E-04 0.846E-05 0.223E+04   -.369E-17 0.133E-17 -.323E+02   0.312E-02 0.190E-02 -.592E-01
   -.108E-03 -.103E-03 0.206E+02   0.175E-12 0.469E-12 -.182E-11   -.108E-15 -.219E-15 -.326E+02   -.228E-01 -.455E-02 0.120E+02

 POSITION                                       TOTAL-FORCE (eV/Angst)
      0.00000      0.00000      5.37156         0.000000      0.000000     -0.017313
      2.56560      0.00000      5.37156         0.001002      0.015828      0.067865
      5.13119      0.00000      5.37156        -0.001002      0.015828      0.067865
      1.28280      2.22187      5.37156         0.014209     -0.007046      0.067865
      3.84839      2.22187      5.37156         0.000000     -0.000000      0.041358
      6.41399      2.22187      5.37156        -0.014209     -0.007046      0.067865
      2.56560      4.44374      5.37156         0.013206     -0.008782      0.067865
      5.13119      4.44374      5.37156        -0.013206     -0.008782      0.067865
      7.69679      4.44374      5.37156         0.000000     -0.000000      0.031170
      1.28280      0.74062      7.46636        -0.027356     -0.015794     -0.060599
      3.84839      0.74062      7.46636         0.000000     -0.045688     -0.074245
      6.41399      0.74062      7.46636         0.027356     -0.015794     -0.060599
      2.56560      2.96249      7.46636        -0.039567      0.022844     -0.074245
      5.13119      2.96249      7.46636         0.039567      0.022844     -0.074245
      7.69679      2.96249      7.46636         0.000000     -0.026439     -0.002977
      3.84839      5.18437      7.46636        -0.000000      0.031588     -0.060599
      6.41399      5.18437      7.46636        -0.022896      0.013219     -0.002977
      8.97958      5.18437      7.46636         0.022896      0.013219     -0.002977
      7.69679      1.48657      9.56400         0.000000     -0.047190     -0.015176
      2.55408      1.47460      9.52990        -0.050433     -0.029117     -0.205849
      5.14271      1.47460      9.52990         0.050433     -0.029117     -0.205849
      8.97350      3.70663      9.56526         0.062487     -0.036077     -0.010507
      3.84839      3.71642      9.52990        -0.000000      0.058235     -0.205849
      6.42007      3.70663      9.56526        -0.062487     -0.036077     -0.010507
     10.25777      5.92233      9.56400         0.040868      0.023595     -0.015176
      5.13580      5.92233      9.56400        -0.040868      0.023595     -0.015176
      7.69679      5.91797      9.56526        -0.000000      0.072154     -0.010507
      0.00000      0.00000     11.64184         0.000000      0.000000      0.007134
      2.56182      0.00242     11.67254        -0.224480     -0.432525     -0.281955
      5.13496      0.00242     11.67254         0.224480     -0.432525     -0.281955
      1.28301      2.21740     11.67254        -0.486818      0.021857     -0.281955
      6.41378      2.21740     11.67254         0.486818      0.021857     -0.281955
      2.56958      4.44580     11.67254        -0.262338      0.410668     -0.281955
      5.12721      4.44580     11.67254         0.262338      0.410668     -0.281955
      7.69679      4.44374     11.64035         0.000000     -0.000000      0.062273
      3.84839      2.22187     11.57579         0.000000     -0.000000      2.361736
      3.84839      2.22187     13.33581         0.000000      0.000000     -0.093762
    total drift:                               -0.022886     -0.004657      0.006062

  FREE ENERGIE OF THE ION-ELECTRON SYSTEM (eV)
  free  energy   TOTEN  =      -138.40774858 eV

  energy  without entropy=     -138.40774858  energy(sigma->0) =     -138.40774858

 stress matrix after NEB project (eV)
     -0.56201      0.00000     -0.00000
      0.00000     -0.56201     -0.00000
     -0.00000      0.00000      4.02263
  FORCES: max atom, RMS     0.093762    0.015414
  FORCE total and by dimension    0.093762    0.093762
  Stress total and by dimension    4.100399    4.022632
|           W    W    AA    RRRRR   N    N  II  N    N   GGGG   !!!           |
|           W    W   A  A   R    R  NN   N  II  NN   N  G    G  !!!           |
|           W    W  A    A  R    R  N N  N  II  N N  N  G       !!!           |
|           W WW W  AAAAAA  RRRRR   N  N N  II  N  N N  G  GGG   !            |
|           WW  WW  A    A  R   R   N   NN  II  N   NN  G    G                |
|           W    W  A    A  R    R  N    N  II  N    N   GGGG   !!!           |
|     Tetrahedron method does not include variations of the Fermi             |
|     occupations, so forces and stress will be inaccurate. We suggest        |
|     using a different smearing scheme ISMEAR = 1 or 2 for metals in         |
|     relaxations.                                                            |

 total charge

# of ion       s       p       d       tot
    1        0.450   0.282   9.192   9.923
    2        0.449   0.285   9.187   9.921
    3        0.449   0.285   9.187   9.921
    4        0.449   0.285   9.187   9.921
    5        0.451   0.284   9.185   9.920
    6        0.449   0.285   9.187   9.921
    7        0.449   0.285   9.187   9.921
    8        0.449   0.285   9.187   9.921
    9        0.446   0.285   9.187   9.918
   10        0.445   0.370   9.179   9.994
   11        0.441   0.371   9.182   9.993
   12        0.445   0.370   9.179   9.994
   13        0.441   0.371   9.182   9.993
   14        0.441   0.371   9.182   9.993
   15        0.439   0.367   9.183   9.989
   16        0.445   0.370   9.179   9.994
   17        0.439   0.367   9.183   9.989
   18        0.439   0.367   9.183   9.989
   19        0.440   0.367   9.184   9.991
   20        0.466   0.403   9.162  10.031
   21        0.466   0.403   9.162  10.031
   22        0.431   0.369   9.185   9.985
   23        0.466   0.403   9.162  10.031
   24        0.431   0.369   9.185   9.985
   25        0.440   0.367   9.184   9.991
   26        0.440   0.367   9.184   9.991
   27        0.431   0.369   9.185   9.985
   28        0.454   0.286   9.191   9.931
   29        0.446   0.309   9.187   9.941
   30        0.446   0.309   9.187   9.941
   31        0.446   0.309   9.187   9.941
   32        0.446   0.309   9.187   9.941
   33        0.446   0.309   9.187   9.941
   34        0.446   0.309   9.187   9.941
   35        0.445   0.289   9.191   9.925
   36        0.727   0.736   6.037   7.499
   37        1.607   3.256   0.000   4.863
tot         17.932  15.717 327.452 361.101

 BZINTS: Fermi energy:    0.076845;  399.000000 electrons
         Band energy:-0.114556E+04;  BLOECHL correction:   -0.045135