 vasp.6.2.0 18Jan21 (build Jun 12 2021 23:27:24) complex

 executed on             LinuxIFC date 2022.05.30  17:18:27

 INCAR:
   ISMEAR = -5
   SIGMA = 0.1
   ISPIN = 1
   EDIFF = 1.d-5
   EDIFFG = -0.01
   NSW = 0
   NELM = 150
   ENCUT = 500
   ISIF = 2
   IBRION = 2
   LREAL = Auto
   ALGO = Fast
   ICHARG = 11
   LORBIT = 10
   LCHARG = .F.
   LWAVE = .F.

 POTCAR:    PAW_PBE Ag 02Apr2005
 POTCAR:    PAW_PBE Nb_sv 25May2007
 POTCAR:    PAW_PBE O 08Apr2002
|           W    W    AA    RRRRR   N    N  II  N    N   GGGG   !!!           |
|           W    W   A  A   R    R  NN   N  II  NN   N  G    G  !!!           |
|           W    W  A    A  R    R  N N  N  II  N N  N  G       !!!           |
|           W WW W  AAAAAA  RRRRR   N  N N  II  N  N N  G  GGG   !            |
|           WW  WW  A    A  R   R   N   NN  II  N   NN  G    G                |
|           W    W  A    A  R    R  N    N  II  N    N   GGGG   !!!           |
|     For optimal performance we recommend to set                             |
|       NCORE = 2 up to number-of-cores-per-socket                            |
|     This setting can greatly improve the performance of VASP for DFT.       |
|     The default, NCORE=1 might be grossly inefficient on modern             |
|     multi-core architectures or massively parallel machines. Do your        |
|     Unfortunately you need to use the default for GW and RPA                |
|     calculations (for HF NCORE is supported but not extensively tested      |
|     yet).                                                                   |

 POTCAR:    PAW_PBE Ag 02Apr2005
   VRHFIN =Ag : s1 d10

   TITEL  = PAW_PBE Ag 02Apr2005
   POMASS =  107.868; ZVAL   =   11.000    mass and valenz
   ENMAX  =  249.844; ENMIN  =  187.383 eV

 POTCAR:    PAW_PBE Nb_sv 25May2007
   VRHFIN =Nb: 4p5s4d

   TITEL  = PAW_PBE Nb_sv 25May2007
   POMASS =   92.910; ZVAL   =   13.000    mass and valenz
   ENMAX  =  293.235; ENMIN  =  219.927 eV

 POTCAR:    PAW_PBE O 08Apr2002
   VRHFIN =O: s2p4

   TITEL  = PAW_PBE O 08Apr2002
   POMASS =   16.000; ZVAL   =    6.000    mass and valenz
   ENMAX  =  400.000; ENMIN  =  300.000 eV

 Optimization of the real space projectors (new method)

 maximal supplied QI-value         = 15.12
 optimisation between [QCUT,QGAM] = [ 11.34, 22.83] = [ 36.00,145.93] Ry
 Optimized for a Real-space Cutoff    1.43 Angstroem

   l    n(q)    QCUT    max X(q) W(low)/X(q) W(high)/X(q)  e(spline)
   2      9    11.338    53.897    0.16E-03    0.20E-03    0.28E-06
   2      9    11.338    52.416    0.16E-03    0.20E-03    0.29E-06
   0     10    11.338   122.045    0.31E-04    0.76E-04    0.15E-06
   0     10    11.338    73.629    0.30E-04    0.72E-04    0.15E-06
   1      9    11.338    15.255    0.20E-03    0.19E-04    0.17E-06
   1      9    11.338     9.562    0.16E-03    0.15E-04    0.14E-06
 Optimization of the real space projectors (new method)

[...]

   l    n(q)    QCUT    max X(q) W(low)/X(q) W(high)/X(q)  e(spline)
   0     11    11.450    10.201    0.21E-04    0.96E-05    0.78E-07
   0     11    11.450     8.174    0.31E-04    0.18E-04    0.14E-06
   1     10    11.450     3.488    0.27E-04    0.12E-04    0.96E-07
   1     10    11.450     4.917    0.11E-03    0.11E-03    0.37E-06
   2     10    11.450   153.744    0.37E-03    0.81E-03    0.10E-05
   2     10    11.450   126.342    0.37E-03    0.81E-03    0.10E-05
 Optimization of the real space projectors (new method)

 maximal supplied QI-value         = 24.76
 optimisation between [QCUT,QGAM] = [ 11.39, 22.77] = [ 36.31,145.25] Ry
 Optimized for a Real-space Cutoff    1.00 Angstroem

   l    n(q)    QCUT    max X(q) W(low)/X(q) W(high)/X(q)  e(spline)
   0      7    11.387    20.381    0.39E-03    0.13E-02    0.15E-06
   0      7    11.387    15.268    0.42E-03    0.14E-02    0.17E-06
   1      6    11.387     5.964    0.41E-03    0.11E-02    0.17E-06
   1      6    11.387     5.382    0.39E-03    0.87E-03    0.15E-06
  PAW_PBE Ag 02Apr2005                  :
  PAW_PBE Nb_sv 25May2007               :
  PAW_PBE O 08Apr2002                   :

 POSCAR: Ag-Nb-O2
  positions in direct lattice
  velocities in cartesian coordinates
 exchange correlation table for  LEXCH =        8
   RHO(1)=    0.500       N(1)  =     2000
   RHO(2)=  100.500       N(2)  =     4000

 VTST: version 3.2, (02/03/18)

 CHAIN: initializing optimizer

 OPT: Using VASP Conjugate-Gradient optimizer
 CHAIN: Read ICHAIN            0

 POSCAR: Ag-Nb-O2
  positions in direct lattice
  velocities in cartesian coordinates

 ion  position               nearest neighbor table
   1  0.000  0.000  0.217-   2 2.93   8 2.93   7 2.93   6 2.93   4 2.93  12 2.93  16 2.93  10 2.93
                             3 2.93
   2  0.333  0.000  0.217-   1 2.93   8 2.93   9 2.93   3 2.93   4 2.93   5 2.93  10 2.93  17 2.93
                            11 2.93
   3  0.667  0.000  0.217-   9 2.93   2 2.93   5 2.93  11 2.93   7 2.93  18 2.93   1 2.93   6 2.93
                            12 2.93
   4  0.000  0.333  0.217-   5 2.93   6 2.93   2 2.93   1 2.93   7 2.93  13 2.93  15 2.93   9 2.93
                            10 2.93
   5  0.333  0.333  0.217-   4 2.93   3 2.93   7 2.93   2 2.93   8 2.93  14 2.93  13 2.93  11 2.93
                             6 2.93
   6  0.667  0.333  0.217-   4 2.93   9 2.93   1 2.93  15 2.93   8 2.93  12 2.93   3 2.93   5 2.93
                            14 2.93
   7  0.000  0.667  0.217-   8 2.93   1 2.93   5 2.93   3 2.93   4 2.93  16 2.93  18 2.93  13 2.93
                             9 2.93
   8  0.333  0.667  0.217-   7 2.93   1 2.93   2 2.93   9 2.93   5 2.93  16 2.93   6 2.93  17 2.93
                            14 2.93
   9  0.667  0.667  0.217-   3 2.93   2 2.93   8 2.93   6 2.93  17 2.93   4 2.93  15 2.93   7 2.93
                            18 2.93
  10  0.111  0.111  0.315-  20 2.90  19 2.93  26 2.93  12 2.93  16 2.93  15 2.93  17 2.93  13 2.93
                            11 2.93   2 2.93   1 2.93   4 2.93
  11  0.444  0.111  0.315-  21 2.90  20 2.90  14 2.93  17 2.93  18 2.93   3 2.93  12 2.93  13 2.93
                            10 2.93   5 2.93   2 2.93  27 2.93
  12  0.778  0.111  0.315-  21 2.90  25 2.93  19 2.93  10 2.93  16 2.93  18 2.93  15 2.93  11 2.93
                             1 2.93  14 2.93   6 2.93   3 2.93
  13  0.111  0.444  0.315-  20 2.90  23 2.90  15 2.93  14 2.93  18 2.93  10 2.93  11 2.93  16 2.93
                             4 2.93   5 2.93   7 2.93  22 2.93
  14  0.444  0.444  0.315-  23 2.90  21 2.90  13 2.93  11 2.93  16 2.93   5 2.93  12 2.93  17 2.93
                             8 2.93  15 2.93   6 2.93  24 2.93
  15  0.778  0.444  0.315-  19 2.93  13 2.93  10 2.93  12 2.93  17 2.93  18 2.93   4 2.93   6 2.93
                             9 2.93  14 2.93  24 2.93  22 2.93
  16  0.111  0.778  0.315-  23 2.90  26 2.93  25 2.93  18 2.93  12 2.93  10 2.93  14 2.93  17 2.93
                            13 2.93   7 2.93   8 2.93   1 2.93
  17  0.444  0.778  0.315-  26 2.93  11 2.93  10 2.93   9 2.93  18 2.93  15 2.93  16 2.93   2 2.93
                            14 2.93   8 2.93  27 2.93  24 2.93
  18  0.778  0.778  0.315-  25 2.93  16 2.93  12 2.93  13 2.93  11 2.93  17 2.93  15 2.93   7 2.93
                             3 2.93   9 2.93  22 2.93  27 2.93
  19  0.889  0.222  0.413-  15 2.93  10 2.93  12 2.93  20 2.93  21 2.93  28 2.93  24 2.93  22 2.93
                            26 2.93  25 2.93  32 2.97  31 2.97
  20  0.222  0.222  0.412-  36 2.82  10 2.90  13 2.90  11 2.90  19 2.93  26 2.93  27 2.93  22 2.93
                            21 2.94  23 2.94  31 2.97  29 2.97
  21  0.556  0.222  0.412-  36 2.82  12 2.90  11 2.90  14 2.90  25 2.93  19 2.93  27 2.93  24 2.93
                            20 2.94  23 2.94  30 2.97  32 2.97
  22  0.889  0.556  0.413-  24 2.93  27 2.93  25 2.93  19 2.93  18 2.93  15 2.93  23 2.93  20 2.93
                            35 2.93  13 2.93  33 2.95  31 2.95
  23  0.222  0.556  0.412-  36 2.82  16 2.90  14 2.90  13 2.90  26 2.93  25 2.93  22 2.93  24 2.93
                            21 2.94  20 2.94  34 2.97  33 2.97
  24  0.556  0.556  0.413-  27 2.93  22 2.93  19 2.93  26 2.93  15 2.93  17 2.93  23 2.93  21 2.93
                            35 2.93  14 2.93  32 2.95  34 2.95
  25  0.889  0.889  0.413-  18 2.93  16 2.93  12 2.93  23 2.93  21 2.93  28 2.93  22 2.93  27 2.93
                            26 2.93  19 2.93  33 2.97  30 2.97
  26  0.222  0.889  0.413-  17 2.93  16 2.93  10 2.93  23 2.93  20 2.93  28 2.93  27 2.93  24 2.93
                            25 2.93  19 2.93  34 2.97  29 2.97
  27  0.556  0.889  0.413-  24 2.93  22 2.93  26 2.93  25 2.93  17 2.93  18 2.93  20 2.93  21 2.93
                            35 2.93  11 2.93  29 2.95  30 2.95
  28  0.000  0.000  0.511-  26 2.93  25 2.93  19 2.93  29 2.95  34 2.95  33 2.95  32 2.95  31 2.95
                            30 2.95
  29  0.333  0.004  0.513-  30 2.90  31 2.90  36 2.91  35 2.95  28 2.95  27 2.95  20 2.97  26 2.97
                            34 2.99
  30  0.663  0.004  0.513-  29 2.90  32 2.90  36 2.91  35 2.95  28 2.95  27 2.95  21 2.97  25 2.97
                            33 2.99
  31  0.004  0.333  0.513-  37 2.70  33 2.90  29 2.90  36 2.91  35 2.95  28 2.95  22 2.95  20 2.97
                            19 2.97  32 2.99
  32  0.663  0.333  0.513-  38 2.70  34 2.90  30 2.90  36 2.91  35 2.95  28 2.95  24 2.95  21 2.97
                            19 2.97  31 2.99
  33  0.004  0.663  0.513-  31 2.90  34 2.90  36 2.91  35 2.95  28 2.95  22 2.95  23 2.97  25 2.97
                            30 2.99
  34  0.333  0.663  0.513-  32 2.90  33 2.90  36 2.91  35 2.95  28 2.95  24 2.95  23 2.97  26 2.97
                            29 2.99
  35  0.667  0.667  0.512-  24 2.93  27 2.93  22 2.93  30 2.95  29 2.95  32 2.95  34 2.95  31 2.95
                            33 2.95
  36  0.333  0.333  0.504-  37 1.97  38 1.97  21 2.82  20 2.82  23 2.82  31 2.91  33 2.91  30 2.91
                            29 2.91  34 2.91  32 2.91
  37  0.247  0.337  0.579-  38 1.49  36 1.97  31 2.70
  38  0.416  0.337  0.579-  37 1.49  36 1.97  32 2.70

  LATTYP: Found a hexagonal cell.
 ALAT       =     8.7913665772
 C/A-ratio  =     2.7711238095

  Lattice vectors:

 A1 = (  -4.3956832886,  -7.6135467898,   0.0000000000)
 A2 = (   8.7913665771,   0.0000000000,   0.0000000000)
 A3 = (   0.0000000000,   0.0000000000,  24.3619652401)

Analysis of symmetry for initial positions (statically):
 Subroutine PRICEL returns:
 Original cell was already a primitive cell.

 Routine SETGRP: Setting up the symmetry group for a
 hexagonal supercell.

 Subroutine GETGRP returns: Found  2 space group operations
 (whereof  2 operations were pure point group operations)
 out of a pool of 24 trial point group operations.

The static configuration has the point symmetry C_1h.

Analysis of symmetry for dynamics (positions and initial velocities):
 Subroutine PRICEL returns:
 Original cell was already a primitive cell.

[...]

The dynamic configuration has the point symmetry C_1h.

Analysis of constrained symmetry for selective dynamics:
 Subroutine PRICEL returns:
 Original cell was already a primitive cell.

[...]
     33      -5.0697      2.00000
     34      -5.0586      2.00000
     35      -5.0472      2.00000
     36      -5.0175      2.00000
     37      -5.0143      2.00000
     38      -4.9942      2.00000
     39      -4.9734      2.00000
     40      -4.9565      2.00000
     41      -4.9382      2.00000
     42      -4.9056      2.00000
     43      -4.9000      2.00000
     44      -4.8802      2.00000
     45      -4.8620      2.00000
     46      -4.8075      2.00000
     47      -4.7967      2.00000
     48      -4.7954      2.00000
     49      -4.7721      2.00000
     50      -4.7572      2.00000
     51      -4.7534      2.00000
     52      -4.6663      2.00000
     53      -4.6379      2.00000
     54      -4.6290      2.00000
     55      -4.6244      2.00000
     56      -4.6172      2.00000
     57      -4.6101      2.00000
     58      -4.6047      2.00000
     59      -4.6033      2.00000
     60      -4.5876      2.00000
[...]
    238       5.2979      0.00000
    239       5.3849      0.00000
    240       5.4575      0.00000
    241       5.5314      0.00000
    242       5.6294      0.00000
    243       5.7526      0.00000
    244       5.7942      0.00000
    245       5.8718      0.00000
    246       5.9743      0.00000
    247       5.9905      0.00000
    248       6.1167      0.00000
    249       6.5589      0.00000
    250       6.5617      0.00000
    251       6.7154      0.00000
    252       6.7790      0.00000

 soft charge-density along one line, spin component           1
         0         1         2         3         4         5         6         7         8         9
 total charge-density along one line

------------------------ aborting loop because EDIFF is reached ----------------------------------------

 total charge

# of ion       s       p       d       tot
    1        0.421   0.201   9.176   9.798
    2        0.415   0.204   9.177   9.797
    3        0.415   0.204   9.177   9.797
    4        0.415   0.203   9.177   9.796
    5        0.418   0.202   9.177   9.797
    6        0.415   0.203   9.177   9.796
    7        0.415   0.204   9.177   9.796
    8        0.415   0.204   9.177   9.796
    9        0.414   0.204   9.177   9.795
   10        0.409   0.268   9.164   9.842
   11        0.404   0.270   9.168   9.842
   12        0.409   0.268   9.164   9.842
   13        0.403   0.270   9.167   9.841
   14        0.403   0.270   9.167   9.841
   15        0.400   0.270   9.164   9.834
   16        0.410   0.269   9.162   9.842
   17        0.401   0.269   9.165   9.835
   18        0.401   0.269   9.165   9.835
   19        0.402   0.263   9.169   9.833
   20        0.439   0.302   9.135   9.876
   21        0.439   0.302   9.135   9.876
   22        0.393   0.275   9.162   9.830
   23        0.442   0.306   9.129   9.878
   24        0.393   0.275   9.162   9.830
   25        0.404   0.264   9.167   9.835
   26        0.404   0.264   9.167   9.835
   27        0.394   0.273   9.165   9.831
   28        0.419   0.199   9.174   9.792
   29        0.429   0.217   9.164   9.810
   30        0.429   0.217   9.164   9.810
   31        0.435   0.210   9.167   9.813
   32        0.435   0.210   9.167   9.813
   33        0.427   0.217   9.167   9.811
   34        0.427   0.217   9.167   9.811
   35        0.415   0.203   9.173   9.791
   36        2.198   6.028   2.320  10.546
   37        1.615   3.249   0.000   4.864
   38        1.615   3.249   0.000   4.864
tot         19.936  20.998 323.132 364.066

  FORCE on cell =-STRESS in cart. coord.  units (eV):
  Direction    XX          YY          ZZ          XY          YZ          ZX
  Alpha Z   720.95882   720.95882   720.95882
  Ewald  156851.34690156398.51485************     0.00008     6.87780     0.00009
  Hartree167147.54244166898.62076************     0.00004     2.63344     0.00003
  E(xc)   -2147.14734 -2147.94586 -2152.73056    -0.00002    -0.00612     0.00000
  Local  ************************334722.62931     0.00100    -8.11744    -0.00022
  n-local  -361.48120  -371.00582  -370.47412     2.14713     0.12204     0.08566
  augment  3247.07660  3251.27697  3262.68959    -0.00017    -0.05769     0.00002
  Kinetic  5249.98636  5294.38186  5301.14690     0.82955    -1.40450    -0.12021
  Fock        0.00000     0.00000     0.00000     0.00000     0.00000     0.00000
  Total      -4.59591    -5.94589    -0.81400    -0.00000     0.04753     0.00000
  in kB      -4.51572    -5.84214    -0.79980    -0.00000     0.04670     0.00000

 VOLUME and BASIS-vectors are now :
  energy-cutoff  :      500.00
  volume of cell :     1630.63
      direct lattice vectors                 reciprocal lattice vectors
     8.791366577  0.000000000  0.000000000     0.113747958 -0.065672414  0.000000000
     4.395683289  7.613546790  0.000000000     0.000000000  0.131344829  0.000000000
     0.000000000  0.000000000 24.361965240     0.000000000  0.000000000  0.041047592

  length of vectors
     8.791366577  8.791366577 24.361965240     0.131344829  0.131344829  0.041047592

 FORCES acting on ions
    electron-ion (+dipol)            ewald-force                    non-local-force                 convergence-correction
   0.461E-04 0.195E-01 0.273E+04   -.954E-04 -.249E-01 -.273E+04   0.700E-13 0.107E-01 -.184E+01   -.129E-03 -.121E-01 0.399E-01
   0.446E+00 0.108E+01 0.273E+04   -.448E+00 -.122E+01 -.273E+04   0.363E-01 0.132E+00 -.161E+01   -.366E-01 0.710E-02 -.142E-02
   -.446E+00 0.108E+01 0.273E+04   0.449E+00 -.122E+01 -.273E+04   -.363E-01 0.132E+00 -.161E+01   0.361E-01 0.908E-02 -.681E-03
   0.117E+01 -.247E+00 0.273E+04   -.126E+01 0.199E+00 -.273E+04   0.855E-01 -.417E-01 -.163E+01   -.377E-03 0.816E-01 0.515E-01
   -.750E-05 -.762E-01 0.274E+04   0.980E-04 -.884E-02 -.274E+04   0.120E-12 0.183E-01 -.157E+01   0.630E-02 0.681E-01 0.435E-01
   -.117E+01 -.247E+00 0.273E+04   0.126E+01 0.199E+00 -.273E+04   -.855E-01 -.417E-01 -.163E+01   -.108E-02 0.825E-01 0.524E-01
   0.797E+00 -.850E+00 0.273E+04   -.808E+00 0.102E+01 -.273E+04   0.455E-01 -.989E-01 -.161E+01   -.289E-01 -.630E-01 0.118E-01
   -.797E+00 -.850E+00 0.273E+04   0.808E+00 0.102E+01 -.273E+04   -.455E-01 -.989E-01 -.161E+01   0.305E-01 -.640E-01 0.121E-01
   0.363E-04 0.929E-01 0.273E+04   0.793E-04 0.335E-01 -.273E+04   -.567E-13 -.863E-02 -.177E+01   -.670E-02 -.110E+00 0.137E-01
   0.708E+01 0.425E+01 0.996E+03   -.668E+01 -.410E+01 -.996E+03   -.366E+00 -.202E+00 -.600E+00   -.557E-01 0.478E-01 0.228E+00
   -.257E-04 0.113E+02 0.101E+04   0.412E-04 -.116E+02 -.101E+04   0.982E-12 0.150E+00 -.295E+00   0.640E-02 0.780E-01 0.245E+00
   -.708E+01 0.425E+01 0.996E+03   0.668E+01 -.410E+01 -.996E+03   0.366E+00 -.202E+00 -.600E+00   0.538E-01 0.493E-01 0.229E+00
   0.952E+01 -.567E+01 0.101E+04   -.979E+01 0.577E+01 -.101E+04   0.234E+00 -.873E-01 -.367E+00   -.134E-01 0.184E-01 0.174E+00
   -.952E+01 -.567E+01 0.101E+04   0.979E+01 0.577E+01 -.101E+04   -.234E+00 -.873E-01 -.367E+00   0.244E-01 0.177E-01 0.174E+00
   0.164E-04 -.274E+01 0.991E+03   -.109E-03 0.276E+01 -.991E+03   -.609E-13 -.928E-02 -.649E+00   -.202E-02 -.286E-01 0.148E+00
   -.827E-05 -.830E+01 0.996E+03   0.207E-04 0.784E+01 -.996E+03   0.328E-11 0.500E+00 -.708E+00   0.334E-03 -.948E-02 0.154E+00
   -.230E+01 0.132E+01 0.991E+03   0.231E+01 -.119E+01 -.990E+03   0.256E-01 -.526E-01 -.556E+00   -.301E-01 -.844E-01 0.168E+00
   0.230E+01 0.132E+01 0.991E+03   -.231E+01 -.119E+01 -.990E+03   -.256E-01 -.526E-01 -.556E+00   0.300E-01 -.822E-01 0.169E+00
   0.417E-04 0.258E+01 -.787E+03   -.133E-03 -.270E+01 0.786E+03   0.474E-12 0.721E-01 0.109E+01   -.187E-02 0.185E-01 0.439E+00
   0.521E+02 0.318E+02 -.699E+03   -.512E+02 -.315E+02 0.699E+03   -.110E+01 -.414E+00 -.507E+00   0.386E-01 0.581E-01 0.531E+00
   -.521E+02 0.318E+02 -.699E+03   0.512E+02 -.315E+02 0.699E+03   0.110E+01 -.414E+00 -.507E+00   -.278E-01 0.593E-01 0.530E+00
   0.250E+02 -.157E+02 -.779E+03   -.251E+02 0.160E+02 0.778E+03   0.178E+00 -.206E+00 0.634E+00   0.462E-02 -.141E+00 0.328E+00
   -.535E-04 -.625E+02 -.700E+03   0.512E-04 0.613E+02 0.700E+03   0.975E-11 0.148E+01 -.786E+00   0.679E-02 -.141E+00 0.367E+00
   -.250E+02 -.157E+02 -.779E+03   0.251E+02 0.160E+02 0.778E+03   -.178E+00 -.206E+00 0.634E+00   -.617E-02 -.142E+00 0.328E+00
   -.123E+01 -.565E+00 -.789E+03   0.130E+01 0.480E+00 0.788E+03   -.105E+00 -.177E-01 0.865E+00   0.232E-01 0.120E+00 0.372E+00
   0.123E+01 -.565E+00 -.789E+03   -.130E+01 0.480E+00 0.788E+03   0.105E+00 -.177E-01 0.865E+00   -.235E-01 0.117E+00 0.373E+00
   0.211E-04 0.282E+02 -.782E+03   0.109E-03 -.286E+02 0.781E+03   0.272E-11 0.414E+00 0.760E+00   -.470E-03 0.914E-01 0.350E+00
   0.546E-04 0.496E+01 -.259E+04   -.119E-03 -.518E+01 0.259E+04   0.561E-12 0.854E-01 0.148E+01   -.105E-03 0.125E+00 0.882E-01
   0.676E+02 0.129E+03 -.257E+04   -.670E+02 -.129E+03 0.257E+04   -.776E+00 -.534E+00 0.200E+01   0.382E-01 0.281E+00 0.163E+00
   -.676E+02 0.129E+03 -.257E+04   0.670E+02 -.129E+03 0.257E+04   0.776E+00 -.534E+00 0.200E+01   -.386E-01 0.283E+00 0.163E+00
   0.161E+03 0.429E+01 -.255E+04   -.160E+03 -.410E+01 0.255E+04   -.958E+00 -.141E+00 0.246E+01   0.196E+00 -.723E-01 0.130E+00
   -.161E+03 0.429E+01 -.255E+04   0.160E+03 -.410E+01 0.255E+04   0.958E+00 -.141E+00 0.246E+01   -.197E+00 -.715E-01 0.129E+00
   0.655E+02 -.135E+03 -.257E+04   -.652E+02 0.135E+03 0.257E+04   -.436E+00 0.641E+00 0.218E+01   0.382E-01 -.178E+00 0.220E+00
   -.655E+02 -.135E+03 -.257E+04   0.652E+02 0.135E+03 0.257E+04   0.436E+00 0.641E+00 0.218E+01   -.366E-01 -.179E+00 0.220E+00
   0.166E-04 -.656E+01 -.260E+04   0.108E-03 0.664E+01 0.260E+04   -.101E-12 -.153E-01 0.176E+01   -.676E-02 -.557E-01 0.240E+00
   0.241E-03 0.852E+01 -.249E+04   0.123E-03 -.843E+01 0.250E+04   -.599E-12 -.913E-01 -.350E+01   0.730E-02 -.102E+00 0.341E+00
   0.234E+03 -.118E+01 -.184E+04   -.264E+03 0.154E+01 0.186E+04   0.300E+02 -.326E+00 -.191E+02   0.114E+00 -.247E-01 -.182E+00
   -.234E+03 -.118E+01 -.184E+04   0.264E+03 0.154E+01 0.186E+04   -.300E+02 -.326E+00 -.191E+02   -.114E+00 -.246E-01 -.184E+00
   0.881E-03 0.282E-01 0.348E+02   0.568E-13 -.197E-12 0.955E-11   -.558E-12 -.847E-01 -.417E+02   0.270E-01 0.260E-01 0.686E+01

 POSITION                                       TOTAL-FORCE (eV/Angst)
      0.00000      0.00000      5.28219        -0.000000     -0.006024     -0.043066
      2.93046      0.00000      5.28219        -0.002677      0.001612      0.029999
      5.86091      0.00000      5.28219         0.002677      0.001612      0.029999
      1.46523      2.53785      5.28219         0.001000     -0.007212      0.021056
      4.39568      2.53785      5.28219         0.000000      0.002140      0.002504
      7.32614      2.53785      5.28219        -0.001000     -0.007212      0.021056
      2.93046      5.07570      5.28219         0.005095      0.006926      0.026100
      5.86091      5.07570      5.28219        -0.005095      0.006926      0.026100
      8.79137      5.07570      5.28219         0.000000      0.008731      0.003580
      1.46523      0.84595      7.67490        -0.016519     -0.004712     -0.051072
      4.39568      0.84595      7.67490        -0.000000     -0.069234     -0.065662
      7.32614      0.84595      7.67490         0.016519     -0.004712     -0.051072
      2.93046      3.38380      7.67490        -0.055947      0.033648     -0.054007
      5.86091      3.38380      7.67490         0.055947      0.033648     -0.054007
      8.79137      3.38380      7.67490        -0.000000     -0.013313      0.056478
      4.39568      5.92165      7.67490         0.000000      0.027630     -0.032684
      7.32614      5.92165      7.67490        -0.001303     -0.001966      0.048679
     10.25659      5.92165      7.67490         0.001303     -0.001966      0.048679
      8.79137      1.69211     10.06133        -0.000000     -0.030994      0.010411
      2.92756      1.69022     10.03254        -0.139512     -0.076545     -0.182581
      5.86381      1.69022     10.03254         0.139512     -0.076545     -0.182581
     10.25459      4.23091     10.07004         0.045070     -0.005477      0.043232
      4.39568      4.23310     10.03254         0.000000      0.163818     -0.105074
      7.32815      4.23091     10.07004        -0.045070     -0.005477      0.043232
     11.72164      6.76749     10.06133        -0.012233      0.015746      0.025697
      5.86110      6.76749     10.06133         0.012233      0.015746      0.025697
      8.79137      6.76528     10.07004         0.000000      0.059935      0.031043
      0.00000      0.00000     12.45237        -0.000000     -0.008611      0.008869
      2.94700      0.02679     12.48745        -0.127682     -0.292687     -0.225078
      5.84437      0.02679     12.48745         0.127682     -0.292687     -0.225078
      1.49670      2.53878     12.48745        -0.524161     -0.013264     -0.355780
      7.29466      2.53878     12.48745         0.524161     -0.013264     -0.355780
      2.94539      5.04797     12.48745        -0.133588      0.313639     -0.239003
      5.84598      5.04797     12.48745         0.133588      0.313639     -0.239003
      8.79137      5.07570     12.46721         0.000000      0.015335      0.010173
      4.39568      2.53785     12.28926        -0.000000     -0.097669      1.961630
      3.65194      2.56806     14.10970         0.002760      0.004420     -0.006343
      5.13943      2.56806     14.10970        -0.002760      0.004420     -0.006343
    total drift:                                0.027888     -0.030412     -0.024479

  FREE ENERGIE OF THE ION-ELECTRON SYSTEM (eV)
  free  energy   TOTEN  =      -109.68260965 eV

  energy  without entropy=     -109.68260965  energy(sigma->0) =     -109.68260965

 stress matrix after NEB project (eV)
     -4.59591     -0.00000      0.00000
     -0.00000     -5.94589      0.04753
      0.00000      0.04753     -0.81400
  FORCES: max atom, RMS     0.008209    0.001883
  FORCE total and by dimension    0.011609    0.006343
  Stress total and by dimension    7.559307    5.945888
|           W    W    AA    RRRRR   N    N  II  N    N   GGGG   !!!           |
|           W    W   A  A   R    R  NN   N  II  NN   N  G    G  !!!           |
|           W    W  A    A  R    R  N N  N  II  N N  N  G       !!!           |
|           W WW W  AAAAAA  RRRRR   N  N N  II  N  N N  G  GGG   !            |
|           WW  WW  A    A  R   R   N   NN  II  N   NN  G    G                |
|           W    W  A    A  R    R  N    N  II  N    N   GGGG   !!!           |
|     Tetrahedron method does not include variations of the Fermi             |
|     occupations, so forces and stress will be inaccurate. We suggest        |
|     using a different smearing scheme ISMEAR = 1 or 2 for metals in         |
|     relaxations.                                                            |

 total charge

# of ion       s       p       d       tot
    1        0.421   0.201   9.176   9.798
    2        0.415   0.204   9.177   9.797
    3        0.415   0.204   9.177   9.797
    4        0.415   0.203   9.177   9.796
    5        0.418   0.202   9.177   9.797
    6        0.415   0.203   9.177   9.796
    7        0.415   0.204   9.177   9.796
    8        0.415   0.204   9.177   9.796
    9        0.414   0.204   9.177   9.795
   10        0.409   0.268   9.164   9.842
   11        0.404   0.270   9.168   9.842
   12        0.409   0.268   9.164   9.842
   13        0.403   0.270   9.167   9.841
   14        0.403   0.270   9.167   9.841
   15        0.400   0.270   9.164   9.834
   16        0.410   0.269   9.162   9.842
   17        0.401   0.269   9.165   9.835
   18        0.401   0.269   9.165   9.835
   19        0.402   0.263   9.169   9.833
   20        0.439   0.302   9.135   9.876
   21        0.439   0.302   9.135   9.876
   22        0.393   0.275   9.162   9.830
   23        0.442   0.306   9.129   9.878
   24        0.393   0.275   9.162   9.830
   25        0.404   0.264   9.167   9.835
   26        0.404   0.264   9.167   9.835
   27        0.394   0.273   9.165   9.831
   28        0.419   0.199   9.174   9.792
   29        0.429   0.217   9.164   9.810
   30        0.429   0.217   9.164   9.810
   31        0.435   0.210   9.167   9.813
   32        0.435   0.210   9.167   9.813
   33        0.427   0.217   9.167   9.811
   34        0.427   0.217   9.167   9.811
   35        0.415   0.203   9.173   9.791
   36        2.198   6.028   2.320  10.546
   37        1.615   3.249   0.000   4.864
   38        1.615   3.249   0.000   4.864
tot         19.936  20.998 323.132 364.066

 BZINTS: Fermi energy:    0.393101;  410.000000 electrons
         Band energy:-0.186746E+04;  BLOECHL correction:   -0.031612