 vasp.6.2.0 18Jan21 (build Jun 12 2021 23:27:24) complex

 executed on             LinuxIFC date 2022.05.26  19:59:37

 INCAR:
   ISMEAR = -5
   SIGMA = 0.1
   ISPIN = 1
   EDIFF = 1.d-5
   EDIFFG = -0.01
   NSW = 0
   NELM = 150
   ENCUT = 500
   ISIF = 2
   IBRION = 2
   LREAL = Auto
   ALGO = Fast
   ICHARG = 11
   LORBIT = 10
   LCHARG = .F.
   LWAVE = .F.

 POTCAR:    PAW_PBE Cu 22Jun2005
 POTCAR:    PAW_PBE Fe 06Sep2000
 POTCAR:    PAW_PBE O 08Apr2002
|           W    W    AA    RRRRR   N    N  II  N    N   GGGG   !!!           |
|           W    W   A  A   R    R  NN   N  II  NN   N  G    G  !!!           |
|           W    W  A    A  R    R  N N  N  II  N N  N  G       !!!           |
|           W WW W  AAAAAA  RRRRR   N  N N  II  N  N N  G  GGG   !            |
|           WW  WW  A    A  R   R   N   NN  II  N   NN  G    G                |
|           W    W  A    A  R    R  N    N  II  N    N   GGGG   !!!           |
|     For optimal performance we recommend to set                             |
|       NCORE = 2 up to number-of-cores-per-socket                            |
|     This setting can greatly improve the performance of VASP for DFT.       |
|     The default, NCORE=1 might be grossly inefficient on modern             |
|     multi-core architectures or massively parallel machines. Do your        |
|     Unfortunately you need to use the default for GW and RPA                |
|     calculations (for HF NCORE is supported but not extensively tested      |
|     yet).                                                                   |

 POTCAR:    PAW_PBE Cu 22Jun2005
   VRHFIN =Cu: d10 p1

   TITEL  = PAW_PBE Cu 22Jun2005
   POMASS =   63.546; ZVAL   =   11.000    mass and valenz
   ENMAX  =  295.446; ENMIN  =  221.585 eV

 POTCAR:    PAW_PBE Fe 06Sep2000
   VRHFIN =Fe:  d7 s1

   TITEL  = PAW_PBE Fe 06Sep2000
   POMASS =   55.847; ZVAL   =    8.000    mass and valenz
   ENMAX  =  267.882; ENMIN  =  200.911 eV

 POTCAR:    PAW_PBE O 08Apr2002
   VRHFIN =O: s2p4

   TITEL  = PAW_PBE O 08Apr2002
   POMASS =   16.000; ZVAL   =    6.000    mass and valenz
   ENMAX  =  400.000; ENMIN  =  300.000 eV

 Optimization of the real space projectors (new method)

 maximal supplied QI-value         = 16.25
 optimisation between [QCUT,QGAM] = [ 11.38, 22.75] = [ 36.24,144.96] Ry
 Optimized for a Real-space Cutoff    1.52 Angstroem

   l    n(q)    QCUT    max X(q) W(low)/X(q) W(high)/X(q)  e(spline)
   2      9    11.376     4.610    0.21E-03    0.10E-03    0.26E-06
   2      9    11.376     8.522    0.33E-03    0.16E-03    0.37E-06
   0     10    11.376    51.609    0.62E-04    0.20E-04    0.13E-06
   0     10    11.376    27.747    0.54E-04    0.20E-04    0.13E-06
   1     10    11.376    20.408    0.13E-04    0.99E-04    0.19E-06
   1     10    11.376    13.425    0.12E-04    0.87E-04    0.17E-06
 Optimization of the real space projectors (new method)

[...]

   l    n(q)    QCUT    max X(q) W(low)/X(q) W(high)/X(q)  e(spline)
   2      8    11.376    80.901    0.45E-03    0.44E-04    0.21E-06
   2      8    11.376    75.754    0.45E-03    0.45E-04    0.22E-06
   0      9    11.376    58.752    0.65E-04    0.95E-04    0.17E-06
   0      9    11.376    30.679    0.59E-04    0.87E-04    0.16E-06
   1      9    11.376    17.977    0.38E-03    0.10E-03    0.14E-06
   1      9    11.376    13.559    0.31E-03    0.90E-04    0.12E-06
 Optimization of the real space projectors (new method)

 maximal supplied QI-value         = 24.76
 optimisation between [QCUT,QGAM] = [ 11.39, 22.77] = [ 36.31,145.25] Ry
 Optimized for a Real-space Cutoff    1.00 Angstroem

   l    n(q)    QCUT    max X(q) W(low)/X(q) W(high)/X(q)  e(spline)
   0      7    11.387    20.381    0.39E-03    0.13E-02    0.15E-06
   0      7    11.387    15.268    0.42E-03    0.14E-02    0.17E-06
   1      6    11.387     5.964    0.41E-03    0.11E-02    0.17E-06
   1      6    11.387     5.382    0.39E-03    0.87E-03    0.15E-06
  PAW_PBE Cu 22Jun2005                  :
  PAW_PBE Fe 06Sep2000                  :
  PAW_PBE O 08Apr2002                   :

 POSCAR: Cu-Fe-O
  positions in direct lattice
  velocities in cartesian coordinates
 exchange correlation table for  LEXCH =        8
   RHO(1)=    0.500       N(1)  =     2000
   RHO(2)=  100.500       N(2)  =     4000

 VTST: version 3.2, (02/03/18)

 CHAIN: initializing optimizer

 OPT: Using VASP Conjugate-Gradient optimizer
 CHAIN: Read ICHAIN            0

 POSCAR: Cu-Fe-O
  positions in direct lattice
  velocities in cartesian coordinates

 ion  position               nearest neighbor table
   1  0.000  0.000  0.252-   7 2.57   3 2.57   4 2.57   2 2.57   6 2.57   8 2.57  12 2.57  10 2.57
                            16 2.57
   2  0.333  0.000  0.252-   8 2.57   9 2.57   5 2.57   1 2.57   3 2.57  11 2.57   4 2.57  10 2.57
                            17 2.57
   3  0.667  0.000  0.252-   1 2.57   7 2.57   6 2.57   9 2.57   2 2.57  12 2.57   5 2.57  18 2.57
                            11 2.57
   4  0.000  0.333  0.252-   5 2.57   6 2.57   1 2.57   7 2.57   2 2.57  13 2.57   9 2.57  10 2.57
                            15 2.57
   5  0.333  0.333  0.252-   4 2.57   2 2.57   7 2.57  13 2.57   8 2.57   6 2.57   3 2.57  11 2.57
                            14 2.57
   6  0.667  0.333  0.252-   4 2.57   9 2.57  15 2.57   3 2.57   1 2.57   8 2.57  14 2.57   5 2.57
                            12 2.57
   7  0.000  0.667  0.252-   1 2.57   3 2.57  16 2.57  18 2.57   4 2.57   5 2.57   8 2.57   9 2.57
                            13 2.57
   8  0.333  0.667  0.252-   9 2.57   2 2.57  17 2.57   6 2.57   1 2.57   7 2.57   5 2.57  14 2.57
                            16 2.57
   9  0.667  0.667  0.252-   8 2.57   6 2.57   2 2.57  17 2.57   3 2.57   7 2.57   4 2.57  15 2.57
                            18 2.57
  10  0.111  0.111  0.351-  20 2.55  26 2.56  19 2.56  11 2.57  12 2.57  13 2.57   1 2.57   2 2.57
                             4 2.57  15 2.57  16 2.57  17 2.57
  11  0.444  0.111  0.351-  20 2.55  21 2.55  27 2.56  10 2.57  13 2.57   2 2.57  17 2.57  14 2.57
                            12 2.57   5 2.57   3 2.57  18 2.57
  12  0.778  0.111  0.351-  21 2.55  19 2.56  25 2.56  15 2.57  10 2.57  14 2.57  18 2.57   3 2.57
                             1 2.57  16 2.57  11 2.57   6 2.57
  13  0.111  0.444  0.351-  23 2.55  20 2.55  22 2.56  16 2.57  18 2.57  10 2.57  11 2.57  14 2.57
                             5 2.57   4 2.57   7 2.57  15 2.57
  14  0.444  0.444  0.351-  21 2.55  23 2.55  24 2.56  15 2.57  17 2.57  12 2.57  16 2.57  13 2.57
                            11 2.57   6 2.57   8 2.57   5 2.57
  15  0.778  0.444  0.351-  19 2.56  24 2.56  22 2.56  14 2.57  17 2.57  12 2.57   6 2.57  18 2.57
                            10 2.57   9 2.57  13 2.57   4 2.57
  16  0.111  0.778  0.351-  23 2.55  25 2.56  26 2.56  18 2.57  13 2.57   7 2.57  14 2.57  17 2.57
                            12 2.57  10 2.57   8 2.57   1 2.57
  17  0.444  0.778  0.351-  26 2.56  27 2.56  24 2.56  14 2.57  15 2.57   8 2.57   9 2.57  11 2.57
                            16 2.57  18 2.57  10 2.57   2 2.57
  18  0.778  0.778  0.351-  25 2.56  22 2.56  27 2.56  16 2.57  13 2.57   7 2.57  15 2.57  12 2.57
                            17 2.57   9 2.57   3 2.57  11 2.57
  19  0.889  0.223  0.449-  28 2.55  15 2.56  12 2.56  10 2.56  22 2.56  24 2.56  32 2.57  31 2.57
                            21 2.57  20 2.57  25 2.57  26 2.57
  20  0.222  0.222  0.448-  36 2.47  11 2.55  13 2.55  10 2.55  29 2.55  31 2.55  23 2.56  21 2.56
                            26 2.57  19 2.57  27 2.57  22 2.57
  21  0.555  0.222  0.448-  36 2.47  14 2.55  11 2.55  12 2.55  32 2.55  30 2.55  20 2.56  23 2.56
                            19 2.57  25 2.57  24 2.57  27 2.57
  22  0.888  0.556  0.449-  35 2.54  31 2.56  33 2.56  18 2.56  15 2.56  24 2.56  27 2.56  13 2.56
                            19 2.56  25 2.56  23 2.57  20 2.57
  23  0.222  0.555  0.448-  36 2.47  13 2.55  14 2.55  16 2.55  33 2.55  34 2.55  20 2.56  21 2.56
                            25 2.57  26 2.57  22 2.57  24 2.57
  24  0.556  0.556  0.449-  35 2.54  32 2.56  34 2.56  15 2.56  17 2.56  22 2.56  27 2.56  14 2.56
                            19 2.56  26 2.56  21 2.57  23 2.57
  25  0.889  0.889  0.449-  28 2.55  18 2.56  16 2.56  12 2.56  22 2.56  27 2.56  33 2.57  30 2.57
                            21 2.57  23 2.57  19 2.57  26 2.57
  26  0.223  0.889  0.449-  28 2.55  17 2.56  10 2.56  16 2.56  27 2.56  24 2.56  29 2.57  34 2.57
                            20 2.57  23 2.57  25 2.57  19 2.57
  27  0.556  0.888  0.449-  35 2.54  29 2.56  30 2.56  17 2.56  18 2.56  24 2.56  22 2.56  11 2.56
                            26 2.56  25 2.56  20 2.57  21 2.57
  28  0.000  0.000  0.546-  25 2.55  19 2.55  26 2.55  33 2.58  30 2.58  31 2.58  29 2.58  32 2.58
                            34 2.58
  29  0.333  0.003  0.547-  31 2.54  30 2.54  36 2.54  20 2.55  27 2.56  26 2.57  28 2.58  35 2.58
                            34 2.61
  30  0.664  0.003  0.547-  32 2.54  29 2.54  36 2.54  21 2.55  27 2.56  25 2.57  28 2.58  35 2.58
                            33 2.61
  31  0.003  0.333  0.547-  29 2.54  33 2.54  36 2.54  20 2.55  22 2.56  19 2.57  28 2.58  35 2.58
                            32 2.61
  32  0.664  0.333  0.547-  30 2.54  34 2.54  36 2.54  21 2.55  24 2.56  19 2.57  28 2.58  35 2.58
                            31 2.61
  33  0.003  0.664  0.547-  34 2.54  31 2.54  36 2.54  23 2.55  22 2.56  25 2.57  28 2.58  35 2.58
                            30 2.61
  34  0.333  0.664  0.547-  33 2.54  32 2.54  36 2.54  23 2.55  24 2.56  26 2.57  28 2.58  35 2.58
                            29 2.61
  35  0.667  0.667  0.546-  24 2.54  27 2.54  22 2.54  34 2.58  32 2.58  29 2.58  30 2.58  33 2.58
                            31 2.58
  36  0.333  0.333  0.541-  37 1.61  23 2.47  20 2.47  21 2.47  31 2.54  29 2.54  33 2.54  34 2.54
                            32 2.54  30 2.54
  37  0.333  0.333  0.617-  36 1.61

  LATTYP: Found a hexagonal cell.
 ALAT       =     7.6967864036
 C/A-ratio  =     2.7653617908

  Lattice vectors:

 A1 = (  -3.8483927580,  -6.6656128093,   0.0000000000)
 A2 = (   7.6967864037,   0.0000000000,   0.0000000000)
 A3 = (   0.0000000000,   0.0000000000,  21.2843990326)

Analysis of symmetry for initial positions (statically):
 Subroutine PRICEL returns:
 Original cell was already a primitive cell.

 Routine SETGRP: Setting up the symmetry group for a
 hexagonal supercell.

 Subroutine GETGRP returns: Found  6 space group operations
 (whereof  6 operations were pure point group operations)
 out of a pool of 24 trial point group operations.

The static configuration has the point symmetry C_3v.

Analysis of symmetry for dynamics (positions and initial velocities):
 Subroutine PRICEL returns:
 Original cell was already a primitive cell.

[...]

The dynamic configuration has the point symmetry C_3v.

Analysis of constrained symmetry for selective dynamics:
 Subroutine PRICEL returns:
 Original cell was already a primitive cell.

 Routine SETGRP: Setting up the symmetry group for a
 hexagonal supercell.

 Subroutine GETGRP returns: Found  6 space group operations
[...]
     24      -4.4026      2.00000
     25      -4.3571      2.00000
     26      -4.3252      2.00000
     27      -4.2768      2.00000
     28      -4.1710      2.00000
     29      -4.1405      2.00000
     30      -4.1172      2.00000
     31      -4.1075      2.00000
     32      -4.1031      2.00000
     33      -4.0902      2.00000
     34      -4.0608      2.00000
     35      -4.0511      2.00000
     36      -4.0055      2.00000
     37      -3.9783      2.00000
     38      -3.9573      2.00000
     39      -3.8760      2.00000
     40      -3.8588      2.00000
     41      -3.7881      2.00000
     42      -3.7725      2.00000
     43      -3.7020      2.00000
     44      -3.6958      2.00000
     45      -3.6642      2.00000
     46      -3.6548      2.00000
     47      -3.6453      2.00000
     48      -3.6119      2.00000
     49      -3.5778      2.00000
     50      -3.4489      2.00000
     51      -3.4254      2.00000
     52      -3.4233      2.00000
     53      -3.4142      2.00000
     54      -3.3714      2.00000
     55      -3.3660      2.00000
     56      -3.3492      2.00000
     57      -3.3204      2.00000
     58      -3.3094      2.00000
     59      -3.2973      2.00000
     60      -3.2872      2.00000
[...]
    238       6.1610      0.00000
    239       6.3074      0.00000
    240       6.3850      0.00000
    241       6.9170      0.00000
    242       6.9356      0.00000
    243       7.0643      0.00000
    244       7.1048      0.00000
    245       7.1592      0.00000
    246       7.2278      0.00000
    247       7.3438      0.00000
    248       7.4453      0.00000
    249       7.4719      0.00000
    250       7.6698      0.00000
    251       7.7650      0.00000
    252       7.9159      0.00000

 soft charge-density along one line, spin component           1
         0         1         2         3         4         5         6         7         8         9
 total charge-density along one line

------------------------ aborting loop because EDIFF is reached ----------------------------------------

 total charge

# of ion       s       p       d       tot
    1        0.450   0.282   9.191   9.922
    2        0.449   0.285   9.187   9.921
    3        0.449   0.285   9.187   9.921
    4        0.449   0.285   9.187   9.921
    5        0.450   0.285   9.185   9.921
    6        0.449   0.285   9.187   9.921
    7        0.449   0.285   9.187   9.921
    8        0.449   0.285   9.187   9.921
    9        0.446   0.285   9.187   9.918
   10        0.443   0.370   9.180   9.992
   11        0.441   0.371   9.181   9.993
   12        0.443   0.370   9.180   9.992
   13        0.441   0.371   9.181   9.993
   14        0.441   0.371   9.181   9.993
   15        0.440   0.368   9.182   9.990
   16        0.443   0.370   9.180   9.992
   17        0.440   0.368   9.182   9.990
   18        0.440   0.368   9.182   9.990
   19        0.440   0.368   9.181   9.990
   20        0.460   0.391   9.169  10.020
   21        0.460   0.391   9.169  10.020
   22        0.435   0.372   9.183   9.990
   23        0.460   0.391   9.169  10.020
   24        0.435   0.372   9.183   9.990
   25        0.440   0.368   9.181   9.990
   26        0.440   0.368   9.181   9.990
   27        0.435   0.372   9.183   9.990
   28        0.451   0.280   9.195   9.926
   29        0.439   0.291   9.193   9.923
   30        0.439   0.291   9.193   9.923
   31        0.439   0.291   9.193   9.923
   32        0.439   0.291   9.193   9.923
   33        0.439   0.291   9.193   9.923
   34        0.439   0.291   9.193   9.923
   35        0.445   0.283   9.193   9.921
   36        0.530   0.651   6.405   7.585
   37        1.610   3.233   0.000   4.843
tot         17.690  15.471 327.867 361.028

  FORCE on cell =-STRESS in cart. coord.  units (eV):
  Direction    XX          YY          ZZ          XY          YZ          ZX
  Alpha Z   890.28517   890.28517   890.28517
  Ewald  174187.70242174187.70197************     0.00041     0.00012     0.00019
  Hartree187315.84923187315.84918************     0.00005     0.00005     0.00008
  E(xc)   -2315.62995 -2315.62948 -2319.67681    -0.00040    -0.00003    -0.00006
  Local  ************************374752.98783     0.01860    -0.00059    -0.00101
  n-local  -813.15665  -799.38213  -816.09285     7.62222    -0.17358     0.32852
  augment  3353.72881  3353.74870  3362.97326    -0.01722     0.00028     0.00055
  Kinetic  3335.99809  3339.27307  3344.35324     2.78219     1.87884    -1.14317
  Fock        0.00000     0.00000     0.00000     0.00000     0.00000     0.00000
  Total      -4.66401    -4.66401     2.08949     0.00000     0.00000    -0.00000
  in kB      -6.84320    -6.84320     3.06577     0.00000     0.00000    -0.00000

 VOLUME and BASIS-vectors are now :
  energy-cutoff  :      500.00
  volume of cell :     1091.97
      direct lattice vectors                 reciprocal lattice vectors
     7.696786404  0.000000000  0.000000000     0.129924354 -0.075011849  0.000000000
     3.848392758  6.665612809  0.000000000     0.000000000  0.150023716  0.000000000
     0.000000000  0.000000000 21.284399033     0.000000000  0.000000000  0.046982769

  length of vectors
     7.696786404  7.696786404 21.284399033     0.150023716  0.150023716  0.046982769

 FORCES acting on ions
    electron-ion (+dipol)            ewald-force                    non-local-force                 convergence-correction
   -.416E-04 0.137E-06 0.350E+04   0.579E-04 -.441E-05 -.349E+04   0.260E-17 0.609E-18 -.262E+01   -.326E-03 -.155E-03 -.358E+00
   0.743E-01 0.186E+00 0.350E+04   -.170E+00 -.210E+00 -.349E+04   0.616E-01 0.102E+00 -.189E+01   0.364E-01 -.582E-01 -.307E+00
   -.743E-01 0.186E+00 0.350E+04   0.170E+00 -.210E+00 -.349E+04   -.616E-01 0.102E+00 -.189E+01   -.355E-01 -.558E-01 -.306E+00
   0.198E+00 -.287E-01 0.350E+04   -.267E+00 -.424E-01 -.349E+04   0.119E+00 0.215E-02 -.189E+01   -.322E-01 0.605E-01 -.307E+00
   -.658E-04 -.585E-05 0.350E+04   0.116E-03 -.101E-04 -.349E+04   -.187E-17 -.197E-17 -.173E+01   0.121E-01 0.738E-02 -.313E+00
   -.198E+00 -.286E-01 0.350E+04   0.267E+00 -.426E-01 -.349E+04   -.119E+00 0.215E-02 -.189E+01   0.307E-01 0.617E-01 -.306E+00
   0.124E+00 -.157E+00 0.350E+04   -.967E-01 0.252E+00 -.349E+04   0.579E-01 -.105E+00 -.189E+01   -.661E-01 -.292E-02 -.306E+00
   -.124E+00 -.157E+00 0.350E+04   0.964E-01 0.252E+00 -.349E+04   -.579E-01 -.105E+00 -.189E+01   0.694E-01 -.430E-02 -.306E+00
   -.144E-03 -.329E-04 0.350E+04   0.263E-03 0.206E-04 -.349E+04   0.215E-18 -.115E-17 -.219E+01   -.131E-01 -.675E-02 -.298E+00
   0.255E+01 0.147E+01 0.119E+04   -.210E+01 -.121E+01 -.119E+04   -.431E+00 -.249E+00 -.101E+01   -.220E-01 -.127E-01 0.287E+00
   -.901E-04 0.246E+01 0.119E+04   0.189E-03 -.249E+01 -.119E+04   -.111E-07 0.167E+00 -.388E+00   0.118E-01 -.161E+00 0.357E+00
   -.255E+01 0.147E+01 0.119E+04   0.210E+01 -.121E+01 -.119E+04   0.431E+00 -.249E+00 -.101E+01   0.206E-01 -.121E-01 0.286E+00
   0.213E+01 -.123E+01 0.119E+04   -.216E+01 0.124E+01 -.119E+04   0.145E+00 -.836E-01 -.388E+00   -.133E+00 0.915E-01 0.357E+00
   -.213E+01 -.123E+01 0.119E+04   0.215E+01 0.124E+01 -.119E+04   -.145E+00 -.836E-01 -.388E+00   0.156E+00 0.897E-01 0.354E+00
   -.143E-03 0.177E+00 0.119E+04   0.299E-03 -.354E+00 -.119E+04   -.578E-08 0.868E-01 -.839E+00   -.297E-02 0.770E-01 0.274E+00
   -.913E-04 -.295E+01 0.119E+04   0.185E-03 0.242E+01 -.119E+04   -.331E-07 0.498E+00 -.101E+01   -.116E-02 0.227E-01 0.286E+00
   0.153E+00 -.885E-01 0.119E+04   -.306E+00 0.177E+00 -.119E+04   0.751E-01 -.434E-01 -.839E+00   0.659E-01 -.411E-01 0.274E+00
   -.153E+00 -.885E-01 0.119E+04   0.306E+00 0.177E+00 -.119E+04   -.751E-01 -.434E-01 -.839E+00   -.643E-01 -.388E-01 0.276E+00
   -.582E-04 0.764E+00 -.114E+04   0.672E-04 -.897E+00 0.114E+04   -.606E-08 0.910E-01 0.788E+00   0.132E-02 0.291E-01 0.602E+00
   0.410E+00 0.237E+00 -.113E+04   0.517E+00 0.298E+00 0.113E+04   -.113E+01 -.650E+00 -.543E+00   0.150E+00 0.862E-01 0.845E+00
   -.410E+00 0.237E+00 -.113E+04   -.517E+00 0.298E+00 0.113E+04   0.113E+01 -.650E+00 -.543E+00   -.171E+00 0.841E-01 0.845E+00
   -.151E+01 0.874E+00 -.114E+04   0.114E+01 -.657E+00 0.114E+04   0.388E+00 -.224E+00 0.902E+00   0.458E-01 -.131E-01 0.552E+00
   -.764E-04 -.473E+00 -.113E+04   0.142E-03 -.596E+00 0.113E+04   -.866E-07 0.130E+01 -.543E+00   -.137E-01 -.191E+00 0.845E+00
   0.151E+01 0.874E+00 -.114E+04   -.114E+01 -.657E+00 0.114E+04   -.388E+00 -.224E+00 0.902E+00   -.223E-01 -.137E-01 0.551E+00
   -.662E+00 -.382E+00 -.114E+04   0.777E+00 0.448E+00 0.114E+04   -.788E-01 -.455E-01 0.788E+00   -.272E-01 -.157E-01 0.601E+00
   0.662E+00 -.382E+00 -.114E+04   -.777E+00 0.448E+00 0.114E+04   0.788E-01 -.455E-01 0.788E+00   0.262E-01 -.132E-01 0.602E+00
   -.127E-03 -.175E+01 -.114E+04   0.243E-03 0.131E+01 0.114E+04   -.299E-07 0.448E+00 0.902E+00   0.115E-01 0.462E-01 0.552E+00
   -.327E-04 0.173E-04 -.344E+04   0.330E-04 -.349E-04 0.344E+04   0.273E-17 0.562E-18 0.220E+01   0.142E-02 0.870E-03 0.534E+00
   0.153E+02 0.270E+02 -.343E+04   -.159E+02 -.284E+02 0.342E+04   0.317E+00 0.855E+00 0.313E+01   0.168E+00 0.275E+00 0.512E+00
   -.153E+02 0.270E+02 -.343E+04   0.159E+02 -.284E+02 0.342E+04   -.317E+00 0.855E+00 0.313E+01   -.189E+00 0.276E+00 0.511E+00
   0.310E+02 -.255E+00 -.343E+04   -.326E+02 0.395E+00 0.342E+04   0.899E+00 -.153E+00 0.313E+01   0.322E+00 0.775E-02 0.512E+00
   -.310E+02 -.255E+00 -.343E+04   0.326E+02 0.395E+00 0.342E+04   -.899E+00 -.153E+00 0.313E+01   -.344E+00 0.848E-02 0.513E+00
   0.157E+02 -.267E+02 -.343E+04   -.166E+02 0.280E+02 0.342E+04   0.582E+00 -.702E+00 0.313E+01   0.145E+00 -.302E+00 0.511E+00
   -.157E+02 -.267E+02 -.343E+04   0.166E+02 0.280E+02 0.342E+04   -.582E+00 -.702E+00 0.313E+01   -.164E+00 -.302E+00 0.513E+00
   -.133E-03 -.183E-04 -.345E+04   0.257E-03 0.693E-05 0.344E+04   -.346E-17 0.167E-17 0.228E+01   -.108E-01 -.543E-02 0.575E+00
   -.648E-04 -.317E-04 -.222E+04   0.105E-03 0.189E-04 0.222E+04   -.221E-17 0.303E-18 0.194E+01   0.489E-02 0.295E-02 0.578E+00
   0.171E-03 -.825E-04 -.228E+04   0.229E-04 0.990E-05 0.231E+04   -.193E-17 -.770E-18 -.279E+02   0.350E-02 0.212E-02 -.328E+00
   -.134E-03 -.125E-03 0.134E+02   0.186E-12 0.202E-12 -.546E-11   0.214E-15 -.110E-15 -.238E+02   -.305E-01 -.205E-01 0.104E+02

 POSITION                                       TOTAL-FORCE (eV/Angst)
      0.00000      0.00000      5.37156        -0.000000     -0.000000     -0.005508
      2.56560      0.00000      5.37156         0.002468      0.021378      0.063678
      5.13119      0.00000      5.37156        -0.002468      0.021378      0.063678
      1.28280      2.22187      5.37156         0.019748     -0.008552      0.063678
      3.84839      2.22187      5.37156        -0.000000     -0.000000      0.052331
      6.41399      2.22187      5.37156        -0.019748     -0.008552      0.063678
      2.56560      4.44374      5.37156         0.017280     -0.012826      0.063678
      5.13119      4.44374      5.37156        -0.017280     -0.012826      0.063678
      7.69679      4.44374      5.37156        -0.000000     -0.000000      0.034331
      1.28280      0.74062      7.46636         0.001999      0.001154     -0.047952
      3.84839      0.74062      7.46636         0.000000     -0.024238     -0.060933
      6.41399      0.74062      7.46636        -0.001999      0.001154     -0.047952
      2.56560      2.96249      7.46636        -0.020991      0.012119     -0.060933
      5.13119      2.96249      7.46636         0.020991      0.012119     -0.060933
      7.69679      2.96249      7.46636         0.000000     -0.013618     -0.035501
      3.84839      5.18437      7.46636         0.000000     -0.002308     -0.047952
      6.41399      5.18437      7.46636        -0.011794      0.006809     -0.035501
      8.97958      5.18437      7.46636         0.011794      0.006809     -0.035501
      7.69679      1.48386      9.55425         0.000000     -0.011989      0.039608
      2.56752      1.48236      9.54187        -0.040165     -0.023189     -0.162328
      5.12927      1.48236      9.54187         0.040165     -0.023189     -0.162328
      8.97669      3.70479      9.55452         0.046337     -0.026753      0.009647
      3.84839      3.70090      9.54187        -0.000000      0.046379     -0.162328
      6.41688      3.70479      9.55452        -0.046337     -0.026753      0.009647
     10.26012      5.92368      9.55425         0.010383      0.005995      0.039608
      5.13345      5.92368      9.55425        -0.010383      0.005995      0.039608
      7.69679      5.92165      9.55452        -0.000000      0.053505      0.009647
      0.00000      0.00000     11.62539        -0.000000     -0.000000     -0.014934
      2.57645      0.02208     11.63568        -0.153696     -0.268579     -0.135284
      5.12034      0.02208     11.63568         0.153696     -0.268579     -0.135284
      1.30734      2.22023     11.63568        -0.309445      0.001185     -0.135284
      6.38944      2.22023     11.63568         0.309445      0.001185     -0.135284
      2.57929      4.42331     11.63568        -0.155748      0.267395     -0.135284
      5.11749      4.42331     11.63568         0.155748      0.267395     -0.135284
      7.69679      4.44374     11.62587        -0.000000     -0.000000      0.013120
      3.84839      2.22187     11.51524        -0.000000     -0.000000      1.204501
      3.84839      2.22187     13.12935        -0.000000     -0.000000     -0.081827
    total drift:                               -0.030622     -0.020622     -0.028515

  FREE ENERGIE OF THE ION-ELECTRON SYSTEM (eV)
  free  energy   TOTEN  =      -135.74658118 eV

  energy  without entropy=     -135.74658118  energy(sigma->0) =     -135.74658118

 stress matrix after NEB project (eV)
     -4.66401      0.00000     -0.00000
      0.00000     -4.66401     -0.00000
     -0.00000      0.00000      2.08949
  FORCES: max atom, RMS     0.081827    0.013452
  FORCE total and by dimension    0.081827    0.081827
  Stress total and by dimension    6.918960    4.664013
|           W    W    AA    RRRRR   N    N  II  N    N   GGGG   !!!           |
|           W    W   A  A   R    R  NN   N  II  NN   N  G    G  !!!           |
|           W    W  A    A  R    R  N N  N  II  N N  N  G       !!!           |
|           W WW W  AAAAAA  RRRRR   N  N N  II  N  N N  G  GGG   !            |
|           WW  WW  A    A  R   R   N   NN  II  N   NN  G    G                |
|           W    W  A    A  R    R  N    N  II  N    N   GGGG   !!!           |
|     Tetrahedron method does not include variations of the Fermi             |
|     occupations, so forces and stress will be inaccurate. We suggest        |
|     using a different smearing scheme ISMEAR = 1 or 2 for metals in         |
|     relaxations.                                                            |

 total charge

# of ion       s       p       d       tot
    1        0.450   0.282   9.191   9.922
    2        0.449   0.285   9.187   9.921
    3        0.449   0.285   9.187   9.921
    4        0.449   0.285   9.187   9.921
    5        0.450   0.285   9.185   9.921
    6        0.449   0.285   9.187   9.921
    7        0.449   0.285   9.187   9.921
    8        0.449   0.285   9.187   9.921
    9        0.446   0.285   9.187   9.918
   10        0.443   0.370   9.180   9.992
   11        0.441   0.371   9.181   9.993
   12        0.443   0.370   9.180   9.992
   13        0.441   0.371   9.181   9.993
   14        0.441   0.371   9.181   9.993
   15        0.440   0.368   9.182   9.990
   16        0.443   0.370   9.180   9.992
   17        0.440   0.368   9.182   9.990
   18        0.440   0.368   9.182   9.990
   19        0.440   0.368   9.181   9.990
   20        0.460   0.391   9.169  10.020
   21        0.460   0.391   9.169  10.020
   22        0.435   0.372   9.183   9.990
   23        0.460   0.391   9.169  10.020
   24        0.435   0.372   9.183   9.990
   25        0.440   0.368   9.181   9.990
   26        0.440   0.368   9.181   9.990
   27        0.435   0.372   9.183   9.990
   28        0.451   0.280   9.195   9.926
   29        0.439   0.291   9.193   9.923
   30        0.439   0.291   9.193   9.923
   31        0.439   0.291   9.193   9.923
   32        0.439   0.291   9.193   9.923
   33        0.439   0.291   9.193   9.923
   34        0.439   0.291   9.193   9.923
   35        0.445   0.283   9.193   9.921
   36        0.530   0.651   6.405   7.585
   37        1.610   3.233   0.000   4.843
tot         17.690  15.471 327.867 361.028

 BZINTS: Fermi energy:   -0.001845;  399.000000 electrons
         Band energy:-0.115141E+04;  BLOECHL correction:   -0.047749