 vasp.6.2.0 18Jan21 (build Jun 12 2021 23:27:24) complex

 executed on             LinuxIFC date 2022.05.30  16:13:48

 INCAR:
   ISMEAR = -5
   SIGMA = 0.1
   ISPIN = 1
   EDIFF = 1.d-5
   EDIFFG = -0.01
   NSW = 0
   NELM = 150
   ENCUT = 500
   ISIF = 2
   IBRION = 2
   LREAL = Auto
   ALGO = Fast
   ICHARG = 11
   LORBIT = 10
   LCHARG = .F.
   LWAVE = .F.

 POTCAR:    PAW_PBE Au 04Oct2007
 POTCAR:    PAW_PBE Nb_sv 25May2007
 POTCAR:    PAW_PBE O 08Apr2002
|           W    W    AA    RRRRR   N    N  II  N    N   GGGG   !!!           |
|           W    W   A  A   R    R  NN   N  II  NN   N  G    G  !!!           |
|           W    W  A    A  R    R  N N  N  II  N N  N  G       !!!           |
|           W WW W  AAAAAA  RRRRR   N  N N  II  N  N N  G  GGG   !            |
|           WW  WW  A    A  R   R   N   NN  II  N   NN  G    G                |
|           W    W  A    A  R    R  N    N  II  N    N   GGGG   !!!           |
|     For optimal performance we recommend to set                             |
|       NCORE = 2 up to number-of-cores-per-socket                            |
|     This setting can greatly improve the performance of VASP for DFT.       |
|     The default, NCORE=1 might be grossly inefficient on modern             |
|     multi-core architectures or massively parallel machines. Do your        |
|     Unfortunately you need to use the default for GW and RPA                |
|     calculations (for HF NCORE is supported but not extensively tested      |
|     yet).                                                                   |

 POTCAR:    PAW_PBE Au 04Oct2007
   VRHFIN =Au: s1d10

   TITEL  = PAW_PBE Au 04Oct2007
   POMASS =  196.966; ZVAL   =   11.000    mass and valenz
   ENMAX  =  229.943; ENMIN  =  172.457 eV

 POTCAR:    PAW_PBE Nb_sv 25May2007
   VRHFIN =Nb: 4p5s4d

   TITEL  = PAW_PBE Nb_sv 25May2007
   POMASS =   92.910; ZVAL   =   13.000    mass and valenz
   ENMAX  =  293.235; ENMIN  =  219.927 eV

 POTCAR:    PAW_PBE O 08Apr2002
   VRHFIN =O: s2p4

   TITEL  = PAW_PBE O 08Apr2002
   POMASS =   16.000; ZVAL   =    6.000    mass and valenz
   ENMAX  =  400.000; ENMIN  =  300.000 eV

 Optimization of the real space projectors (new method)

 maximal supplied QI-value         = 15.12
 optimisation between [QCUT,QGAM] = [ 11.34, 22.83] = [ 36.00,145.93] Ry
 Optimized for a Real-space Cutoff    1.39 Angstroem

   l    n(q)    QCUT    max X(q) W(low)/X(q) W(high)/X(q)  e(spline)
   2      9    11.338    60.898    0.39E-03    0.42E-03    0.21E-06
   2      9    11.338    58.894    0.40E-03    0.42E-03    0.22E-06
   0      9    11.338   109.617    0.13E-03    0.20E-04    0.13E-06
   0      9    11.338    75.026    0.13E-03    0.20E-04    0.13E-06
   1      9    11.338    16.344    0.33E-04    0.24E-03    0.18E-06
   1      9    11.338    10.160    0.26E-04    0.19E-03    0.15E-06
 Optimization of the real space projectors (new method)

[...]

   l    n(q)    QCUT    max X(q) W(low)/X(q) W(high)/X(q)  e(spline)
   0     11    11.450    10.201    0.21E-04    0.96E-05    0.78E-07
   0     11    11.450     8.174    0.31E-04    0.18E-04    0.14E-06
   1     10    11.450     3.488    0.27E-04    0.12E-04    0.96E-07
   1     10    11.450     4.917    0.11E-03    0.11E-03    0.37E-06
   2     10    11.450   153.744    0.37E-03    0.81E-03    0.10E-05
   2     10    11.450   126.342    0.37E-03    0.81E-03    0.10E-05
 Optimization of the real space projectors (new method)

 maximal supplied QI-value         = 24.76
 optimisation between [QCUT,QGAM] = [ 11.39, 22.77] = [ 36.31,145.25] Ry
 Optimized for a Real-space Cutoff    1.00 Angstroem

   l    n(q)    QCUT    max X(q) W(low)/X(q) W(high)/X(q)  e(spline)
   0      7    11.387    20.381    0.39E-03    0.13E-02    0.15E-06
   0      7    11.387    15.268    0.42E-03    0.14E-02    0.17E-06
   1      6    11.387     5.964    0.41E-03    0.11E-02    0.17E-06
   1      6    11.387     5.382    0.39E-03    0.87E-03    0.15E-06
  PAW_PBE Au 04Oct2007                  :
  PAW_PBE Nb_sv 25May2007               :
  PAW_PBE O 08Apr2002                   :

 POSCAR: Au-Nb-O2
  positions in direct lattice
  velocities in cartesian coordinates
 exchange correlation table for  LEXCH =        8
   RHO(1)=    0.500       N(1)  =     2000
   RHO(2)=  100.500       N(2)  =     4000

 VTST: version 3.2, (02/03/18)

 CHAIN: initializing optimizer

 OPT: Using VASP Conjugate-Gradient optimizer
 CHAIN: Read ICHAIN            0

 POSCAR: Au-Nb-O2
  positions in direct lattice
  velocities in cartesian coordinates

 ion  position               nearest neighbor table
   1  0.000  0.000  0.217-  16 2.94  12 2.94   6 2.94   8 2.94   7 2.94   3 2.94  10 2.94   4 2.94
                             2 2.94
   2  0.333  0.000  0.217-   9 2.94  11 2.94  17 2.94  10 2.94   8 2.94   4 2.94   5 2.94   1 2.94
                             3 2.94
   3  0.667  0.000  0.217-   7 2.94  18 2.94  12 2.94   1 2.94  11 2.94   5 2.94   6 2.94   9 2.94
                             2 2.94
   4  0.000  0.333  0.217-  10 2.94   6 2.94   5 2.94  13 2.94   2 2.94  15 2.94   9 2.94   1 2.94
                             7 2.94
   5  0.333  0.333  0.217-  13 2.94   7 2.94  11 2.94   4 2.94   2 2.94  14 2.94   3 2.94   8 2.94
                             6 2.94
   6  0.667  0.333  0.217-  15 2.94  14 2.94   1 2.94  12 2.94   4 2.94   9 2.94   8 2.94   3 2.94
                             5 2.94
   7  0.000  0.667  0.217-  18 2.94   3 2.94  16 2.94   5 2.94   1 2.94  13 2.94   8 2.94   4 2.94
                             9 2.94
   8  0.333  0.667  0.217-   9 2.94  17 2.94   1 2.94   2 2.94  14 2.94  16 2.94   6 2.94   7 2.94
                             5 2.94
   9  0.667  0.667  0.217-   2 2.94   8 2.94  17 2.94   6 2.94  15 2.94   4 2.94   3 2.94  18 2.94
                             7 2.94
  10  0.111  0.111  0.316-  20 2.91  11 2.94  17 2.94   2 2.94   4 2.94   1 2.94  12 2.94  16 2.94
                            13 2.94  15 2.94  26 2.95  19 2.95
  11  0.444  0.111  0.316-  20 2.91  21 2.91  13 2.94   2 2.94  10 2.94  17 2.94   5 2.94   3 2.94
                            18 2.94  14 2.94  12 2.94  27 2.94
  12  0.778  0.111  0.316-  21 2.91  16 2.94  18 2.94   1 2.94  14 2.94  15 2.94   3 2.94   6 2.94
                            10 2.94  11 2.94  25 2.95  19 2.95
  13  0.111  0.444  0.316-  23 2.91  20 2.91   5 2.94  18 2.94  11 2.94   7 2.94   4 2.94  16 2.94
                            10 2.94  14 2.94  15 2.94  22 2.94
  14  0.444  0.444  0.316-  21 2.91  23 2.91  15 2.94   6 2.94  12 2.94   8 2.94  17 2.94   5 2.94
                            16 2.94  13 2.94  11 2.94  24 2.94
  15  0.778  0.444  0.316-  24 2.93  22 2.93  14 2.94   6 2.94  17 2.94  12 2.94   9 2.94   4 2.94
                            10 2.94  13 2.94  18 2.94  19 2.94
  16  0.111  0.778  0.316-  23 2.91  18 2.94  12 2.94   7 2.94   1 2.94   8 2.94  13 2.94  10 2.94
                            14 2.94  17 2.94  25 2.95  26 2.95
  17  0.444  0.778  0.316-  27 2.93  24 2.93   9 2.94  15 2.94   2 2.94  10 2.94  11 2.94   8 2.94
                            14 2.94  16 2.94  18 2.94  26 2.94
  18  0.778  0.778  0.316-  22 2.93  27 2.93  16 2.94   7 2.94  13 2.94  12 2.94   3 2.94  11 2.94
                             9 2.94  15 2.94  17 2.94  25 2.94
  19  0.889  0.223  0.415-  24 2.93  22 2.93  21 2.94  20 2.94  15 2.94  26 2.94  25 2.94  10 2.95
                            12 2.95  28 2.95  32 3.04  31 3.04
  20  0.222  0.222  0.413-  36 2.78  10 2.91  11 2.91  13 2.91  26 2.94  19 2.94  23 2.94  21 2.94
                            27 2.95  22 2.95  29 2.99  31 2.99
  21  0.556  0.222  0.413-  36 2.78  12 2.91  14 2.91  11 2.91  25 2.94  19 2.94  20 2.94  23 2.94
                            27 2.95  24 2.95  30 2.99  32 2.99
  22  0.887  0.557  0.414-  24 2.91  27 2.91  18 2.93  15 2.93  25 2.93  19 2.93  13 2.94  23 2.95
                            20 2.95  35 2.96  33 3.02  31 3.02
  23  0.222  0.556  0.413-  36 2.78  16 2.91  13 2.91  14 2.91  25 2.94  26 2.94  20 2.94  21 2.94
                            22 2.95  24 2.95  33 2.99  34 2.99
  24  0.557  0.557  0.414-  27 2.91  22 2.91  15 2.93  17 2.93  26 2.93  19 2.93  14 2.94  21 2.95
                            23 2.95  35 2.96  32 3.02  34 3.02
  25  0.889  0.889  0.415-  22 2.93  27 2.93  23 2.94  21 2.94  18 2.94  19 2.94  26 2.94  16 2.95
                            12 2.95  28 2.95  33 3.04  30 3.04
  26  0.223  0.889  0.415-  27 2.93  24 2.93  20 2.94  23 2.94  17 2.94  19 2.94  25 2.94  10 2.95
                            16 2.95  28 2.95  29 3.04  34 3.04
  27  0.557  0.887  0.414-  24 2.91  22 2.91  17 2.93  18 2.93  26 2.93  25 2.93  11 2.94  20 2.95
                            21 2.95  35 2.96  29 3.02  30 3.02
  28  0.000  0.000  0.514-  25 2.95  19 2.95  26 2.95  34 2.98  32 2.98  33 2.98  30 2.98  31 2.98
                            29 2.98
  29  0.334  0.009  0.516-  30 2.85  31 2.86  36 2.87  35 2.98  28 2.98  20 2.99  27 3.02  26 3.04
                            34 3.10
  30  0.657  0.009  0.516-  29 2.85  32 2.86  36 2.87  35 2.98  28 2.98  21 2.99  27 3.02  25 3.04
                            33 3.10
  31  0.009  0.334  0.516-  37 2.63  33 2.85  29 2.86  36 2.87  35 2.98  28 2.98  20 2.99  22 3.02
                            19 3.04  32 3.10
  32  0.657  0.334  0.516-  38 2.63  34 2.85  30 2.86  36 2.87  35 2.98  28 2.98  21 2.99  24 3.02
                            19 3.04  31 3.10
  33  0.009  0.657  0.516-  31 2.85  34 2.86  36 2.87  35 2.98  28 2.98  23 2.99  22 3.02  25 3.04
                            30 3.10
  34  0.334  0.657  0.516-  32 2.85  33 2.86  36 2.87  35 2.98  28 2.98  23 2.99  24 3.02  26 3.04
                            29 3.10
  35  0.667  0.667  0.514-  24 2.96  27 2.96  22 2.96  29 2.98  34 2.98  32 2.98  31 2.98  30 2.98
                            33 2.98
  36  0.333  0.333  0.504-  37 2.00  38 2.00  20 2.78  23 2.78  21 2.78  33 2.87  31 2.87  29 2.87
                            30 2.87  34 2.87  32 2.87
  37  0.251  0.333  0.580-  38 1.45  36 2.00  31 2.63
  38  0.416  0.333  0.580-  37 1.45  36 2.00  32 2.63

  LATTYP: Found a hexagonal cell.
 ALAT       =     8.8135128021
 C/A-ratio  =     2.7586513333

  Lattice vectors:

 A1 = (  -4.4067569092,  -7.6327256898,   0.0000000000)
 A2 = (   8.8135128021,   0.0000000000,   0.0000000000)
 A3 = (   0.0000000000,   0.0000000000,  24.3134088421)

Analysis of symmetry for initial positions (statically):
 Subroutine PRICEL returns:
 Original cell was already a primitive cell.

 Routine SETGRP: Setting up the symmetry group for a
 hexagonal supercell.

 Subroutine GETGRP returns: Found  2 space group operations
 (whereof  2 operations were pure point group operations)
 out of a pool of 24 trial point group operations.

The static configuration has the point symmetry C_1h.

Analysis of symmetry for dynamics (positions and initial velocities):
 Subroutine PRICEL returns:
 Original cell was already a primitive cell.

[...]

The dynamic configuration has the point symmetry C_1h.

Analysis of constrained symmetry for selective dynamics:
 Subroutine PRICEL returns:
 Original cell was already a primitive cell.

[...]
     33      -5.4543      2.00000
     34      -5.4427      2.00000
     35      -5.4120      2.00000
     36      -5.3664      2.00000
     37      -5.3446      2.00000
     38      -5.2983      2.00000
     39      -5.2502      2.00000
     40      -5.1928      2.00000
     41      -5.1752      2.00000
     42      -5.1693      2.00000
     43      -5.1572      2.00000
     44      -5.1315      2.00000
     45      -5.1176      2.00000
     46      -4.9613      2.00000
     47      -4.9527      2.00000
     48      -4.8954      2.00000
     49      -4.8469      2.00000
     50      -4.8141      2.00000
     51      -4.7971      2.00000
     52      -4.7532      2.00000
     53      -4.7493      2.00000
     54      -4.7111      2.00000
     55      -4.6455      2.00000
     56      -4.6096      2.00000
     57      -4.6020      2.00000
     58      -4.5712      2.00000
     59      -4.5648      2.00000
     60      -4.5416      2.00000
[...]
    238       4.9551      0.00000
    239       5.0410      0.00000
    240       5.3732      0.00000
    241       5.5281      0.00000
    242       5.6722      0.00000
    243       5.7752      0.00000
    244       5.9509      0.00000
    245       6.0572      0.00000
    246       6.1206      0.00000
    247       6.1350      0.00000
    248       6.1961      0.00000
    249       6.3137      0.00000
    250       6.3316      0.00000
    251       6.4285      0.00000
    252       6.4798      0.00000

 soft charge-density along one line, spin component           1
         0         1         2         3         4         5         6         7         8         9
 total charge-density along one line

------------------------ aborting loop because EDIFF is reached ----------------------------------------

 total charge

# of ion       s       p       d       tot
    1        0.549   0.238   8.765   9.551
    2        0.541   0.241   8.764   9.547
    3        0.541   0.241   8.764   9.547
    4        0.542   0.241   8.765   9.548
    5        0.543   0.241   8.763   9.547
    6        0.542   0.241   8.765   9.548
    7        0.541   0.241   8.765   9.548
    8        0.541   0.241   8.765   9.548
    9        0.541   0.240   8.766   9.548
   10        0.523   0.306   8.773   9.603
   11        0.517   0.309   8.778   9.604
   12        0.523   0.306   8.773   9.603
   13        0.518   0.309   8.778   9.605
   14        0.518   0.309   8.778   9.605
   15        0.514   0.309   8.775   9.598
   16        0.525   0.307   8.767   9.599
   17        0.514   0.309   8.773   9.596
   18        0.514   0.309   8.773   9.596
   19        0.516   0.296   8.774   9.586
   20        0.567   0.340   8.733   9.640
   21        0.567   0.340   8.733   9.640
   22        0.510   0.308   8.772   9.590
   23        0.573   0.341   8.727   9.640
   24        0.510   0.308   8.772   9.590
   25        0.519   0.295   8.773   9.587
   26        0.519   0.295   8.773   9.587
   27        0.510   0.306   8.775   9.591
   28        0.546   0.227   8.756   9.529
   29        0.574   0.243   8.747   9.565
   30        0.574   0.243   8.747   9.565
   31        0.576   0.237   8.757   9.570
   32        0.576   0.237   8.757   9.570
   33        0.574   0.243   8.749   9.565
   34        0.574   0.243   8.749   9.565
   35        0.540   0.230   8.757   9.527
   36        2.187   6.043   2.242  10.473
   37        1.618   3.251   0.000   4.869
   38        1.618   3.251   0.000   4.869
tot         24.299  22.214 308.948 355.460

  FORCE on cell =-STRESS in cart. coord.  units (eV):
  Direction    XX          YY          ZZ          XY          YZ          ZX
  Alpha Z   969.39279   969.39279   969.39279
  Ewald  154017.52720153569.75676************    -0.00030     0.21955    -0.00008
  Hartree162738.83704162498.89924************     0.00002    -0.27994    -0.00003
  E(xc)   -1845.67017 -1846.63763 -1852.93850     0.00000    -0.01607     0.00000
  Local  ************************328562.08235     0.00253     1.14682    -0.00003
  n-local   -95.32193   -99.65582   -73.20104     4.31348    -0.02225     0.06597
  augment  2391.99318  2396.47105  2414.05728    -0.00134     0.00529     0.00003
  Kinetic  5826.90154  5870.89881  5908.48740     1.13371    -0.85827    -0.05625
  Fock        0.00000     0.00000     0.00000     0.00000     0.00000     0.00000
  Total     -16.52064   -17.52188     1.22935    -0.00000     0.19514     0.00000
  in kB     -16.18314   -17.16393     1.20424    -0.00000     0.19116     0.00000

 VOLUME and BASIS-vectors are now :
  energy-cutoff  :      500.00
  volume of cell :     1635.59
      direct lattice vectors                 reciprocal lattice vectors
     8.813512802  0.000000000  0.000000000     0.113462137 -0.065507406  0.000000000
     4.406756909  7.632725690  0.000000000     0.000000000  0.131014796  0.000000000
     0.000000000  0.000000000 24.313408842     0.000000000  0.000000000  0.041129568

  length of vectors
     8.813512802  8.813512802 24.313408842     0.131014796  0.131014796  0.041129568

 FORCES acting on ions
    electron-ion (+dipol)            ewald-force                    non-local-force                 convergence-correction
   -.201E-04 0.268E-01 0.271E+04   0.521E-04 -.281E-01 -.270E+04   0.198E-08 0.297E-01 -.587E+00   -.240E-03 -.383E-01 -.150E+00
   0.925E+00 0.109E+01 0.271E+04   -.970E+00 -.110E+01 -.271E+04   -.509E-02 0.549E-01 -.274E+00   0.465E-01 -.427E-01 -.153E+00
   -.925E+00 0.109E+01 0.271E+04   0.970E+00 -.110E+01 -.271E+04   0.509E-02 0.549E-01 -.274E+00   -.462E-01 -.408E-01 -.152E+00
   0.131E+01 0.348E+00 0.271E+04   -.142E+01 -.303E+00 -.271E+04   0.503E-01 -.566E-01 -.304E+00   0.514E-01 0.923E-02 -.219E+00
   0.822E-05 -.300E-01 0.271E+04   0.951E-04 -.225E-03 -.271E+04   0.118E-08 0.177E-01 -.298E+00   0.428E-02 0.117E-01 -.162E+00
   -.131E+01 0.348E+00 0.271E+04   0.142E+01 -.303E+00 -.271E+04   -.503E-01 -.566E-01 -.304E+00   -.529E-01 0.101E-01 -.218E+00
   0.405E+00 -.139E+01 0.271E+04   -.446E+00 0.141E+01 -.271E+04   0.508E-01 -.197E-01 -.290E+00   -.886E-02 0.933E-02 -.171E+00
   -.405E+00 -.139E+01 0.271E+04   0.446E+00 0.141E+01 -.271E+04   -.508E-01 -.197E-01 -.290E+00   0.107E-01 0.823E-02 -.171E+00
   0.197E-04 -.122E+00 0.271E+04   0.166E-03 0.284E-01 -.271E+04   0.512E-09 0.769E-02 -.419E+00   -.459E-02 0.822E-01 -.190E+00
   0.991E+01 0.610E+01 0.981E+03   -.969E+01 -.582E+01 -.980E+03   -.326E+00 -.171E+00 -.508E+00   0.630E-01 -.118E+00 -.115E+00
   0.191E-04 0.117E+02 0.996E+03   0.147E-03 -.117E+02 -.996E+03   0.232E-08 0.349E-01 -.262E+00   0.402E-02 -.534E-01 -.767E-01
   -.991E+01 0.610E+01 0.981E+03   0.969E+01 -.582E+01 -.980E+03   0.326E+00 -.171E+00 -.508E+00   -.644E-01 -.117E+00 -.115E+00
   0.967E+01 -.590E+01 0.997E+03   -.996E+01 0.591E+01 -.996E+03   0.102E+00 -.269E-01 -.284E+00   0.106E+00 0.595E-01 -.651E-01
   -.967E+01 -.590E+01 0.997E+03   0.996E+01 0.591E+01 -.996E+03   -.102E+00 -.269E-01 -.284E+00   -.983E-01 0.586E-01 -.658E-01
   0.298E-04 0.201E+01 0.982E+03   0.236E-03 -.213E+01 -.981E+03   -.121E-08 -.182E-01 -.439E+00   -.230E-02 0.835E-01 -.140E+00
   -.223E-04 -.116E+02 0.981E+03   0.164E-03 0.113E+02 -.980E+03   0.289E-07 0.433E+00 -.582E+00   -.674E-04 -.222E-01 -.381E-01
   0.194E+01 -.125E+01 0.981E+03   -.197E+01 0.122E+01 -.980E+03   0.210E-02 -.179E-01 -.353E+00   -.111E-01 0.636E-01 -.740E-01
   -.194E+01 -.125E+01 0.981E+03   0.197E+01 0.122E+01 -.980E+03   -.210E-02 -.179E-01 -.353E+00   0.114E-01 0.656E-01 -.734E-01
   -.424E-04 0.559E+01 -.799E+03   0.504E-04 -.560E+01 0.797E+03   0.190E-08 0.285E-01 0.848E+00   -.649E-03 -.814E-01 0.211E+00
   0.685E+02 0.410E+02 -.680E+03   -.676E+02 -.405E+02 0.681E+03   -.114E+01 -.503E+00 -.882E+00   0.158E+00 -.427E-01 0.282E+00
   -.685E+02 0.410E+02 -.680E+03   0.676E+02 -.405E+02 0.681E+03   0.114E+01 -.503E+00 -.882E+00   -.158E+00 -.422E-01 0.282E+00
   0.222E+02 -.144E+02 -.774E+03   -.227E+02 0.146E+02 0.773E+03   0.413E+00 -.284E+00 0.768E+00   0.111E+00 0.700E-01 0.149E+00
   -.502E-05 -.815E+02 -.682E+03   0.146E-03 0.801E+02 0.683E+03   0.101E-06 0.152E+01 -.108E+01   0.451E-03 -.226E-02 0.247E+00
   -.222E+02 -.144E+02 -.774E+03   0.227E+02 0.146E+02 0.773E+03   -.413E+00 -.284E+00 0.768E+00   -.111E+00 0.697E-01 0.149E+00
   -.404E+01 -.162E+01 -.801E+03   0.409E+01 0.174E+01 0.800E+03   -.403E-01 -.261E-01 0.650E+00   0.568E-02 -.490E-01 0.127E+00
   0.404E+01 -.162E+01 -.801E+03   -.409E+01 0.174E+01 0.800E+03   0.403E-01 -.261E-01 0.650E+00   -.529E-02 -.497E-01 0.128E+00
   0.177E-04 0.256E+02 -.776E+03   0.192E-03 -.263E+02 0.775E+03   0.405E-07 0.608E+00 0.865E+00   -.330E-03 0.106E+00 0.104E+00
   -.205E-04 0.576E+01 -.255E+04   0.331E-04 -.569E+01 0.255E+04   -.128E-08 -.192E-01 0.289E+00   -.749E-04 -.710E-01 0.169E+00
   0.900E+02 0.169E+03 -.255E+04   -.892E+02 -.168E+03 0.255E+04   -.120E+01 -.118E+01 0.338E+00   0.140E+00 0.117E+00 0.139E+00
   -.900E+02 0.169E+03 -.255E+04   0.892E+02 -.168E+03 0.255E+04   0.120E+01 -.118E+01 0.338E+00   -.139E+00 0.118E+00 0.139E+00
   0.205E+03 0.252E+01 -.253E+04   -.205E+03 -.236E+01 0.253E+04   -.146E+01 -.161E+00 0.816E+00   0.215E+00 0.262E-02 0.167E+00
   -.205E+03 0.252E+01 -.253E+04   0.205E+03 -.236E+01 0.253E+04   0.146E+01 -.161E+00 0.816E+00   -.216E+00 0.341E-02 0.167E+00
   0.857E+02 -.171E+03 -.255E+04   -.852E+02 0.170E+03 0.255E+04   -.867E+00 0.132E+01 0.384E+00   0.979E-01 -.120E+00 0.146E+00
   -.857E+02 -.171E+03 -.255E+04   0.852E+02 0.170E+03 0.255E+04   0.867E+00 0.132E+01 0.384E+00   -.963E-01 -.121E+00 0.146E+00
   0.335E-04 -.586E+01 -.256E+04   0.138E-03 0.574E+01 0.256E+04   0.411E-08 0.617E-01 0.456E+00   -.445E-02 0.726E-01 0.238E+00
   0.242E-03 0.296E+00 -.241E+04   0.135E-03 -.203E+00 0.242E+04   0.108E-08 0.163E-01 -.246E+01   0.693E-02 -.249E-01 0.195E+00
   0.235E+03 0.243E+00 -.183E+04   -.266E+03 -.402E-01 0.185E+04   0.318E+02 -.192E+00 -.185E+02   0.850E-01 -.498E-02 -.960E-01
   -.234E+03 0.243E+00 -.183E+04   0.266E+03 -.402E-01 0.185E+04   -.318E+02 -.192E+00 -.185E+02   -.844E-01 -.491E-02 -.970E-01
   -.169E-03 -.179E+00 0.403E+02   -.568E-13 0.107E-12 0.209E-10   0.138E-07 0.207E+00 -.406E+02   0.120E-01 -.244E-01 0.643E+00

 POSITION                                       TOTAL-FORCE (eV/Angst)
      0.00000      0.00000      5.28038        -0.000000     -0.009959     -0.121280
      2.93784      0.00000      5.28038        -0.004052     -0.000753     -0.020362
      5.87568      0.00000      5.28038         0.004052     -0.000753     -0.020362
      1.46892      2.54424      5.28038        -0.000256     -0.001992     -0.030908
      4.40676      2.54424      5.28038        -0.000000     -0.001023     -0.047445
      7.34459      2.54424      5.28038         0.000256     -0.001992     -0.030908
      2.93784      5.08848      5.28038         0.000043      0.008224     -0.017597
      5.87568      5.08848      5.28038        -0.000043      0.008224     -0.017597
      8.81351      5.08848      5.28038        -0.000000     -0.004087     -0.044297
      1.46892      0.84808      7.67911        -0.042418     -0.014783      0.024033
      4.40676      0.84808      7.67911        -0.000000     -0.087741     -0.045160
      7.34459      0.84808      7.67911         0.042418     -0.014783      0.024033
      2.93784      3.39232      7.67911        -0.081676      0.044298     -0.036842
      5.87568      3.39232      7.67911         0.081676      0.044298     -0.036842
      8.81351      3.39232      7.67911        -0.000000     -0.050761      0.100598
      4.40676      5.93656      7.67911         0.000000      0.050893      0.047149
      7.34459      5.93656      7.67911        -0.036657      0.015819      0.086956
     10.28243      5.93656      7.67911         0.036657      0.015819      0.086956
      8.81351      1.70030     10.08698        -0.000000     -0.069515     -0.050270
      2.93503      1.69454     10.04736        -0.121381     -0.095392     -0.176680
      5.87848      1.69454     10.04736         0.121381     -0.095392     -0.176680
     10.26776      4.24887     10.06889         0.060552     -0.013623      0.070805
      4.40676      4.24365     10.04736         0.000000      0.096609     -0.058728
      7.35926      4.24887     10.06889        -0.060552     -0.013623      0.070805
     11.74777      6.78258     10.08698         0.011121      0.039517     -0.025695
      5.87926      6.78258     10.08698        -0.011121      0.039517     -0.025695
      8.81351      6.76771     10.06889         0.000000      0.057395      0.064562
      0.00000      0.00000     12.49943        -0.000000     -0.016140     -0.023646
      2.98194      0.07009     12.55649        -0.231899     -0.476121     -0.353894
      5.83157      0.07009     12.55649         0.231899     -0.476121     -0.353894
      1.55167      2.54739     12.55649        -0.925870     -0.001033     -0.622833
      7.26184      2.54739     12.55649         0.925870     -0.001033     -0.622833
      2.97649      5.01524     12.55649        -0.232761      0.456287     -0.357981
      5.83702      5.01524     12.55649         0.232761      0.456287     -0.357981
      8.81351      5.08848     12.50498         0.000000      0.015867      0.046507
      4.40676      2.54424     12.24418         0.000000      0.085187      3.025966
      3.67998      2.54501     14.10594         0.020996      0.006189      0.014020
      5.13353      2.54501     14.10594        -0.020996      0.006189      0.014020
    total drift:                                0.011837      0.002776      0.263232

  FREE ENERGIE OF THE ION-ELECTRON SYSTEM (eV)
  free  energy   TOTEN  =      -128.07502535 eV

  energy  without entropy=     -128.07502535  energy(sigma->0) =     -128.07502535

 stress matrix after NEB project (eV)
    -16.52064     -0.00000      0.00000
     -0.00000    -17.52188      0.19514
      0.00000      0.19514      1.22935
  FORCES: max atom, RMS     0.025994    0.005963
  FORCE total and by dimension    0.036761    0.020996
  Stress total and by dimension   24.115044   17.521883
|           W    W    AA    RRRRR   N    N  II  N    N   GGGG   !!!           |
|           W    W   A  A   R    R  NN   N  II  NN   N  G    G  !!!           |
|           W    W  A    A  R    R  N N  N  II  N N  N  G       !!!           |
|           W WW W  AAAAAA  RRRRR   N  N N  II  N  N N  G  GGG   !            |
|           WW  WW  A    A  R   R   N   NN  II  N   NN  G    G                |
|           W    W  A    A  R    R  N    N  II  N    N   GGGG   !!!           |
|     Tetrahedron method does not include variations of the Fermi             |
|     occupations, so forces and stress will be inaccurate. We suggest        |
|     using a different smearing scheme ISMEAR = 1 or 2 for metals in         |
|     relaxations.                                                            |

 total charge

# of ion       s       p       d       tot
    1        0.549   0.238   8.765   9.551
    2        0.541   0.241   8.764   9.547
    3        0.541   0.241   8.764   9.547
    4        0.542   0.241   8.765   9.548
    5        0.543   0.241   8.763   9.547
    6        0.542   0.241   8.765   9.548
    7        0.541   0.241   8.765   9.548
    8        0.541   0.241   8.765   9.548
    9        0.541   0.240   8.766   9.548
   10        0.523   0.306   8.773   9.603
   11        0.517   0.309   8.778   9.604
   12        0.523   0.306   8.773   9.603
   13        0.518   0.309   8.778   9.605
   14        0.518   0.309   8.778   9.605
   15        0.514   0.309   8.775   9.598
   16        0.525   0.307   8.767   9.599
   17        0.514   0.309   8.773   9.596
   18        0.514   0.309   8.773   9.596
   19        0.516   0.296   8.774   9.586
   20        0.567   0.340   8.733   9.640
   21        0.567   0.340   8.733   9.640
   22        0.510   0.308   8.772   9.590
   23        0.573   0.341   8.727   9.640
   24        0.510   0.308   8.772   9.590
   25        0.519   0.295   8.773   9.587
   26        0.519   0.295   8.773   9.587
   27        0.510   0.306   8.775   9.591
   28        0.546   0.227   8.756   9.529
   29        0.574   0.243   8.747   9.565
   30        0.574   0.243   8.747   9.565
   31        0.576   0.237   8.757   9.570
   32        0.576   0.237   8.757   9.570
   33        0.574   0.243   8.749   9.565
   34        0.574   0.243   8.749   9.565
   35        0.540   0.230   8.757   9.527
   36        2.187   6.043   2.242  10.473
   37        1.618   3.251   0.000   4.869
   38        1.618   3.251   0.000   4.869
tot         24.299  22.214 308.948 355.460

 BZINTS: Fermi energy:    0.256176;  410.000000 electrons
         Band energy:-0.178571E+04;  BLOECHL correction:   -0.053761