 vasp.6.2.0 18Jan21 (build Jun 12 2021 23:27:24) complex

 executed on             LinuxIFC date 2022.05.27  06:06:49

 INCAR:
   ISMEAR = -5
   SIGMA = 0.1
   ISPIN = 1
   EDIFF = 1.d-5
   EDIFFG = -0.01
   NSW = 0
   NELM = 150
   ENCUT = 500
   ISIF = 2
   IBRION = 2
   LREAL = Auto
   ALGO = Fast
   ICHARG = 11
   LORBIT = 10
   LCHARG = .F.
   LWAVE = .F.

 POTCAR:    PAW_PBE Cu 22Jun2005
 POTCAR:    PAW_PBE Zr_sv 04Jan2005
 POTCAR:    PAW_PBE C 08Apr2002
 POTCAR:    PAW_PBE O 08Apr2002
|           W    W    AA    RRRRR   N    N  II  N    N   GGGG   !!!           |
|           W    W   A  A   R    R  NN   N  II  NN   N  G    G  !!!           |
|           W    W  A    A  R    R  N N  N  II  N N  N  G       !!!           |
|           W WW W  AAAAAA  RRRRR   N  N N  II  N  N N  G  GGG   !            |
|           WW  WW  A    A  R   R   N   NN  II  N   NN  G    G                |
|           W    W  A    A  R    R  N    N  II  N    N   GGGG   !!!           |
|     For optimal performance we recommend to set                             |
|       NCORE = 2 up to number-of-cores-per-socket                            |
|     This setting can greatly improve the performance of VASP for DFT.       |
|     The default, NCORE=1 might be grossly inefficient on modern             |
|     multi-core architectures or massively parallel machines. Do your        |
|     Unfortunately you need to use the default for GW and RPA                |
|     calculations (for HF NCORE is supported but not extensively tested      |
|     yet).                                                                   |

 POTCAR:    PAW_PBE Cu 22Jun2005
   VRHFIN =Cu: d10 p1

   TITEL  = PAW_PBE Cu 22Jun2005
   POMASS =   63.546; ZVAL   =   11.000    mass and valenz
   ENMAX  =  295.446; ENMIN  =  221.585 eV

 POTCAR:    PAW_PBE Zr_sv 04Jan2005
   VRHFIN =Zr: 4s4p5s4d

   TITEL  = PAW_PBE Zr_sv 04Jan2005
   POMASS =   91.224; ZVAL   =   12.000    mass and valenz
   ENMAX  =  229.898; ENMIN  =  172.424 eV

 POTCAR:    PAW_PBE C 08Apr2002
   VRHFIN =C: s2p2

   TITEL  = PAW_PBE C 08Apr2002
   POMASS =   12.011; ZVAL   =    4.000    mass and valenz
   ENMAX  =  400.000; ENMIN  =  300.000 eV

 POTCAR:    PAW_PBE O 08Apr2002
   VRHFIN =O: s2p4

   TITEL  = PAW_PBE O 08Apr2002
   POMASS =   16.000; ZVAL   =    6.000    mass and valenz
   ENMAX  =  400.000; ENMIN  =  300.000 eV

 Optimization of the real space projectors (new method)

 maximal supplied QI-value         = 16.25
 optimisation between [QCUT,QGAM] = [ 11.38, 22.75] = [ 36.24,144.96] Ry
 Optimized for a Real-space Cutoff    1.52 Angstroem

   l    n(q)    QCUT    max X(q) W(low)/X(q) W(high)/X(q)  e(spline)
   2      9    11.376     4.610    0.21E-03    0.10E-03    0.26E-06
   2      9    11.376     8.522    0.33E-03    0.16E-03    0.37E-06
   0     10    11.376    51.609    0.62E-04    0.20E-04    0.13E-06
   0     10    11.376    27.747    0.54E-04    0.20E-04    0.13E-06
   1     10    11.376    20.408    0.13E-04    0.99E-04    0.19E-06
   1     10    11.376    13.425    0.12E-04    0.87E-04    0.17E-06
 Optimization of the real space projectors (new method)

[...]

   l    n(q)    QCUT    max X(q) W(low)/X(q) W(high)/X(q)  e(spline)
   0      7    11.310   115.676    0.43E-03    0.13E-02    0.19E-06
   0      7    11.310    87.132    0.43E-03    0.13E-02    0.18E-06
   1      6    11.310     4.429    0.42E-03    0.74E-03    0.11E-06
   1      6    11.310     2.733    0.34E-03    0.55E-03    0.92E-07
 Optimization of the real space projectors (new method)

 maximal supplied QI-value         = 24.76
 optimisation between [QCUT,QGAM] = [ 11.39, 22.77] = [ 36.31,145.25] Ry
 Optimized for a Real-space Cutoff    1.00 Angstroem

   l    n(q)    QCUT    max X(q) W(low)/X(q) W(high)/X(q)  e(spline)
   0      7    11.387    20.381    0.39E-03    0.13E-02    0.15E-06
   0      7    11.387    15.268    0.42E-03    0.14E-02    0.17E-06
   1      6    11.387     5.964    0.41E-03    0.11E-02    0.17E-06
   1      6    11.387     5.382    0.39E-03    0.87E-03    0.15E-06
  PAW_PBE Cu 22Jun2005                  :
  PAW_PBE Zr_sv 04Jan2005               :
  PAW_PBE C 08Apr2002                   :
  PAW_PBE O 08Apr2002                   :

 POSCAR: Cu-Zr-CO
  positions in direct lattice
  velocities in cartesian coordinates
 exchange correlation table for  LEXCH =        8
   RHO(1)=    0.500       N(1)  =     2000
   RHO(2)=  100.500       N(2)  =     4000

 VTST: version 3.2, (02/03/18)

 CHAIN: initializing optimizer

 OPT: Using VASP Conjugate-Gradient optimizer
 CHAIN: Read ICHAIN            0

 POSCAR: Cu-Zr-CO
  positions in direct lattice
  velocities in cartesian coordinates

 ion  position               nearest neighbor table
   1  0.000  0.000  0.252-   7 2.57   3 2.57   4 2.57   2 2.57   6 2.57   8 2.57  12 2.57  10 2.57
                            16 2.57
   2  0.333  0.000  0.252-   8 2.57   9 2.57   5 2.57   1 2.57   3 2.57  11 2.57   4 2.57  10 2.57
                            17 2.57
   3  0.667  0.000  0.252-   1 2.57   7 2.57   6 2.57   9 2.57   2 2.57  12 2.57   5 2.57  18 2.57
                            11 2.57
   4  0.000  0.333  0.252-   5 2.57   6 2.57   1 2.57   7 2.57   2 2.57  13 2.57   9 2.57  10 2.57
                            15 2.57
   5  0.333  0.333  0.252-   4 2.57   2 2.57   7 2.57  13 2.57   8 2.57   6 2.57   3 2.57  11 2.57
                            14 2.57
   6  0.667  0.333  0.252-   4 2.57   9 2.57  15 2.57   3 2.57   1 2.57   8 2.57  14 2.57   5 2.57
                            12 2.57
   7  0.000  0.667  0.252-   1 2.57   3 2.57  16 2.57  18 2.57   4 2.57   5 2.57   8 2.57   9 2.57
                            13 2.57
   8  0.333  0.667  0.252-   9 2.57   2 2.57  17 2.57   6 2.57   1 2.57   7 2.57   5 2.57  14 2.57
                            16 2.57
   9  0.667  0.667  0.252-   8 2.57   6 2.57   2 2.57  17 2.57   3 2.57   7 2.57   4 2.57  15 2.57
                            18 2.57
  10  0.111  0.111  0.351-  26 2.54  19 2.54  11 2.57  12 2.57  13 2.57   1 2.57   2 2.57   4 2.57
                            15 2.57  16 2.57  17 2.57  20 2.59
  11  0.444  0.111  0.351-  27 2.56  10 2.57  13 2.57   2 2.57  17 2.57  14 2.57  12 2.57   5 2.57
                             3 2.57  18 2.57  20 2.58  21 2.58
  12  0.778  0.111  0.351-  19 2.54  25 2.54  15 2.57  10 2.57  14 2.57  18 2.57   3 2.57   1 2.57
                            16 2.57  11 2.57   6 2.57  21 2.59
  13  0.111  0.444  0.351-  22 2.56  16 2.57  18 2.57  10 2.57  11 2.57  14 2.57   5 2.57   4 2.57
                             7 2.57  15 2.57  23 2.58  20 2.58
  14  0.444  0.444  0.351-  24 2.56  15 2.57  17 2.57  12 2.57  16 2.57  13 2.57  11 2.57   6 2.57
                             8 2.57   5 2.57  21 2.58  23 2.58
  15  0.778  0.444  0.351-  19 2.54  24 2.56  22 2.56  14 2.57  17 2.57  12 2.57   6 2.57  18 2.57
                            10 2.57   9 2.57  13 2.57   4 2.57
  16  0.111  0.778  0.351-  25 2.54  26 2.54  18 2.57  13 2.57   7 2.57  14 2.57  17 2.57  12 2.57
                            10 2.57   8 2.57   1 2.57  23 2.59
  17  0.444  0.778  0.351-  26 2.54  27 2.56  24 2.56  14 2.57  15 2.57   8 2.57   9 2.57  11 2.57
                            16 2.57  18 2.57  10 2.57   2 2.57
  18  0.778  0.778  0.351-  25 2.54  22 2.56  27 2.56  16 2.57  13 2.57   7 2.57  15 2.57  12 2.57
                            17 2.57   9 2.57   3 2.57  11 2.57
  19  0.889  0.221  0.448-  12 2.54  10 2.54  15 2.54  25 2.55  26 2.55  32 2.56  31 2.56  22 2.57
                            24 2.57  28 2.57  21 2.58  20 2.58
  20  0.223  0.223  0.450-  23 2.55  21 2.55  29 2.57  31 2.57  27 2.57  22 2.57  26 2.58  19 2.58
                            11 2.58  13 2.58  10 2.59  36 2.86
  21  0.554  0.223  0.450-  20 2.55  23 2.55  32 2.57  30 2.57  24 2.57  27 2.57  19 2.58  25 2.58
                            14 2.58  11 2.58  12 2.59  36 2.86
  22  0.889  0.556  0.449-  18 2.56  15 2.56  13 2.56  31 2.56  33 2.56  24 2.57  27 2.57  23 2.57
                            20 2.57  19 2.57  25 2.57  35 2.58
  23  0.223  0.554  0.450-  20 2.55  21 2.55  33 2.57  34 2.57  22 2.57  24 2.57  25 2.58  26 2.58
                            13 2.58  14 2.58  16 2.59  36 2.86
  24  0.556  0.556  0.449-  15 2.56  17 2.56  14 2.56  32 2.56  34 2.56  22 2.57  27 2.57  21 2.57
                            23 2.57  19 2.57  26 2.57  35 2.58
  25  0.889  0.889  0.448-  12 2.54  16 2.54  18 2.54  19 2.55  26 2.55  33 2.56  30 2.56  22 2.57
                            27 2.57  28 2.57  21 2.58  23 2.58
  26  0.221  0.889  0.448-  10 2.54  16 2.54  17 2.54  25 2.55  19 2.55  29 2.56  34 2.56  27 2.57
                            24 2.57  28 2.57  20 2.58  23 2.58
  27  0.556  0.889  0.449-  17 2.56  18 2.56  11 2.56  29 2.56  30 2.56  24 2.57  22 2.57  20 2.57
                            21 2.57  26 2.57  25 2.57  35 2.58
  28  0.000  0.000  0.547-  33 2.55  30 2.55  31 2.55  29 2.55  32 2.55  34 2.55  25 2.57  19 2.57
                            26 2.57
  29  0.334  0.994  0.547-  34 2.47  35 2.54  28 2.55  27 2.56  26 2.56  20 2.57  30 2.60  31 2.62
                            36 2.64
  30  0.672  0.994  0.547-  33 2.47  35 2.54  28 2.55  27 2.56  25 2.56  21 2.57  29 2.60  32 2.62
                            36 2.64
  31  0.994  0.334  0.547-  32 2.47  35 2.54  28 2.55  22 2.56  19 2.56  20 2.57  33 2.60  29 2.62
                            36 2.64
  32  0.672  0.334  0.547-  31 2.47  35 2.54  28 2.55  24 2.56  19 2.56  21 2.57  34 2.60  30 2.62
                            36 2.64
  33  0.994  0.672  0.547-  30 2.47  35 2.54  28 2.55  22 2.56  25 2.56  23 2.57  31 2.60  34 2.62
                            36 2.64
  34  0.334  0.672  0.547-  29 2.47  35 2.54  28 2.55  24 2.56  26 2.56  23 2.57  32 2.60  33 2.62
                            36 2.64
  35  0.667  0.667  0.548-  34 2.54  32 2.54  29 2.54  30 2.54  33 2.54  31 2.54  24 2.58  27 2.58
                            22 2.58
  36  0.333  0.333  0.565-  37 2.30  31 2.64  29 2.64  33 2.64  32 2.64  34 2.64  30 2.64  23 2.86
                            20 2.86  21 2.86
  37  0.333  0.333  0.673-  38 1.15  36 2.30
  38  0.333  0.333  0.728-  37 1.15

  LATTYP: Found a hexagonal cell.
 ALAT       =     7.6967864036
 C/A-ratio  =     2.7653617908

  Lattice vectors:

 A1 = (  -3.8483927580,  -6.6656128093,   0.0000000000)
 A2 = (   7.6967864037,   0.0000000000,   0.0000000000)
 A3 = (   0.0000000000,   0.0000000000,  21.2843990326)

Analysis of symmetry for initial positions (statically):
 Subroutine PRICEL returns:
 Original cell was already a primitive cell.

 Routine SETGRP: Setting up the symmetry group for a
 hexagonal supercell.

 Subroutine GETGRP returns: Found  6 space group operations
 (whereof  6 operations were pure point group operations)
 out of a pool of 24 trial point group operations.

The static configuration has the point symmetry C_3v.

Analysis of symmetry for dynamics (positions and initial velocities):
 Subroutine PRICEL returns:
 Original cell was already a primitive cell.

[...]

The dynamic configuration has the point symmetry C_3v.

Analysis of constrained symmetry for selective dynamics:
 Subroutine PRICEL returns:
[...]
     33      -3.8860      2.00000
     34      -3.8347      2.00000
     35      -3.8170      2.00000
     36      -3.8022      2.00000
     37      -3.7772      2.00000
     38      -3.7581      2.00000
     39      -3.7568      2.00000
     40      -3.7477      2.00000
     41      -3.7452      2.00000
     42      -3.7034      2.00000
     43      -3.6362      2.00000
     44      -3.6177      2.00000
     45      -3.5795      2.00000
     46      -3.4506      2.00000
     47      -3.4314      2.00000
     48      -3.3942      2.00000
     49      -3.3755      2.00000
     50      -3.3530      2.00000
     51      -3.3457      2.00000
     52      -3.3383      2.00000
     53      -3.3283      2.00000
     54      -3.3057      2.00000
     55      -3.1785      2.00000
     56      -3.1576      2.00000
     57      -3.1333      2.00000
     58      -3.1180      2.00000
     59      -3.0655      2.00000
     60      -3.0546      2.00000
[...]
    238       5.8083      0.00000
    239       5.8175      0.00000
    240       6.0539      0.00000
    241       6.1282      0.00000
    242       6.1703      0.00000
    243       6.3112      0.00000
    244       6.4583      0.00000
    245       6.5495      0.00000
    246       7.0507      0.00000
    247       7.0671      0.00000
    248       7.0864      0.00000
    249       7.1433      0.00000
    250       7.1759      0.00000
    251       7.2226      0.00000
    252       7.5358      0.00000

 soft charge-density along one line, spin component           1
         0         1         2         3         4         5         6         7         8         9
 total charge-density along one line

------------------------ aborting loop because EDIFF is reached ----------------------------------------

 total charge

# of ion       s       p       d       tot
    1        0.449   0.282   9.189   9.920
    2        0.447   0.286   9.186   9.919
    3        0.447   0.286   9.186   9.919
    4        0.447   0.286   9.186   9.919
    5        0.450   0.287   9.181   9.917
    6        0.447   0.286   9.186   9.919
    7        0.447   0.286   9.186   9.919
    8        0.447   0.286   9.186   9.919
    9        0.450   0.283   9.189   9.921
   10        0.442   0.372   9.176   9.990
   11        0.442   0.364   9.182   9.987
   12        0.442   0.372   9.176   9.990
   13        0.442   0.364   9.182   9.987
   14        0.442   0.364   9.182   9.987
   15        0.440   0.373   9.175   9.988
   16        0.442   0.372   9.176   9.990
   17        0.440   0.373   9.175   9.988
   18        0.440   0.373   9.175   9.988
   19        0.446   0.373   9.179   9.997
   20        0.455   0.377   9.165   9.998
   21        0.455   0.377   9.165   9.998
   22        0.434   0.376   9.177   9.988
   23        0.455   0.377   9.165   9.998
   24        0.434   0.376   9.177   9.988
   25        0.446   0.373   9.179   9.997
   26        0.446   0.373   9.179   9.997
   27        0.434   0.376   9.177   9.988
   28        0.441   0.299   9.182   9.922
   29        0.488   0.321   9.160   9.968
   30        0.488   0.321   9.160   9.968
   31        0.488   0.321   9.160   9.968
   32        0.488   0.321   9.160   9.968
   33        0.488   0.321   9.160   9.968
   34        0.488   0.321   9.160   9.968
   35        0.440   0.304   9.182   9.926
   36        2.214   5.984   1.621   9.820
   37        0.992   1.520   0.000   2.512
   38        1.623   3.516   0.000   5.139
tot         20.642  22.820 322.780 366.243

  FORCE on cell =-STRESS in cart. coord.  units (eV):
  Direction    XX          YY          ZZ          XY          YZ          ZX
  Alpha Z   924.85818   924.85818   924.85818
  Ewald  169122.63309169122.63265************     0.00040     0.00014     0.00021
  Hartree182563.08462182563.08460************     0.00004     0.00007     0.00007
  E(xc)   -2341.87130 -2341.87082 -2345.08697    -0.00041    -0.00003    -0.00005
  Local  ************************364623.44154     0.01857    -0.00062    -0.00099
  n-local  -792.88014  -780.91695  -800.02309     6.63552    -0.28306     0.16601
  augment  3316.35851  3316.37820  3336.80018    -0.01706     0.00028     0.00049
  Kinetic  3552.86771  3552.29415  3553.68641    -0.28046     2.10380    -1.55466
  Fock        0.00000     0.00000     0.00000     0.00000     0.00000     0.00000
  Total      -6.54312    -6.54312    -2.18022     0.00000     0.00000    -0.00000
  in kB      -9.60030    -9.60030    -3.19890     0.00000     0.00000    -0.00000

 VOLUME and BASIS-vectors are now :
  energy-cutoff  :      500.00
  volume of cell :     1091.97
      direct lattice vectors                 reciprocal lattice vectors
     7.696786404  0.000000000  0.000000000     0.129924354 -0.075011849  0.000000000
     3.848392758  6.665612809  0.000000000     0.000000000  0.150023716  0.000000000
     0.000000000  0.000000000 21.284399033     0.000000000  0.000000000  0.046982769

  length of vectors
     7.696786404  7.696786404 21.284399033     0.150023716  0.150023716  0.046982769

 FORCES acting on ions
    electron-ion (+dipol)            ewald-force                    non-local-force                 convergence-correction
   -.409E-04 0.538E-06 0.350E+04   0.579E-04 -.430E-05 -.350E+04   0.118E-16 -.399E-17 -.227E+01   -.335E-03 -.160E-03 0.158E+00
   -.915E+00 -.892E+00 0.350E+04   0.885E+00 0.939E+00 -.350E+04   0.704E-01 0.115E+00 -.193E+01   -.258E-01 -.148E+00 0.237E+00
   0.915E+00 -.892E+00 0.350E+04   -.885E+00 0.939E+00 -.350E+04   -.704E-01 0.115E+00 -.193E+01   0.266E-01 -.145E+00 0.238E+00
   -.123E+01 -.346E+00 0.350E+04   0.126E+01 0.297E+00 -.350E+04   0.135E+00 0.337E-02 -.193E+01   -.141E+00 0.514E-01 0.237E+00
   -.623E-04 -.381E-05 0.350E+04   0.116E-03 -.101E-04 -.350E+04   0.152E-17 -.653E-17 -.149E+01   0.122E-01 0.748E-02 0.422E+00
   0.123E+01 -.346E+00 0.350E+04   -.126E+01 0.297E+00 -.350E+04   -.135E+00 0.337E-02 -.193E+01   0.139E+00 0.527E-01 0.238E+00
   -.315E+00 0.124E+01 0.350E+04   0.371E+00 -.124E+01 -.350E+04   0.645E-01 -.118E+00 -.193E+01   -.112E+00 0.956E-01 0.238E+00
   0.315E+00 0.124E+01 0.350E+04   -.371E+00 -.124E+01 -.350E+04   -.645E-01 -.118E+00 -.193E+01   0.116E+00 0.941E-01 0.238E+00
   -.143E-03 -.327E-04 0.350E+04   0.263E-03 0.205E-04 -.350E+04   0.168E-17 -.119E-17 -.200E+01   -.133E-01 -.685E-02 0.186E+00
   -.105E+02 -.605E+01 0.123E+04   0.107E+02 0.616E+01 -.123E+04   -.174E+00 -.101E+00 -.894E+00   0.865E-02 0.498E-02 0.968E-01
   -.903E-04 -.859E+01 0.122E+04   0.189E-03 0.831E+01 -.122E+04   -.193E-07 0.290E+00 -.274E+00   0.118E-01 -.806E-02 0.832E-01
   0.105E+02 -.605E+01 0.123E+04   -.107E+02 0.616E+01 -.123E+04   0.174E+00 -.101E+00 -.894E+00   -.106E-01 0.702E-02 0.975E-01
   -.744E+01 0.429E+01 0.122E+04   0.719E+01 -.415E+01 -.122E+04   0.251E+00 -.145E+00 -.274E+00   -.613E-03 0.151E-01 0.832E-01
   0.744E+01 0.429E+01 0.122E+04   -.719E+01 -.415E+01 -.122E+04   -.251E+00 -.145E+00 -.274E+00   0.250E-01 0.141E-01 0.833E-01
   -.140E-03 -.203E+01 0.123E+04   0.296E-03 0.192E+01 -.123E+04   -.543E-08 0.815E-01 -.992E+00   -.405E-02 0.365E-01 0.287E-01
   -.920E-04 0.121E+02 0.123E+04   0.186E-03 -.123E+02 -.123E+04   -.134E-07 0.201E+00 -.894E+00   -.169E-03 -.139E-01 0.974E-01
   -.176E+01 0.102E+01 0.123E+04   0.167E+01 -.962E+00 -.123E+04   0.706E-01 -.408E-01 -.992E+00   0.303E-01 -.218E-01 0.285E-01
   0.176E+01 0.102E+01 0.123E+04   -.167E+01 -.962E+00 -.123E+04   -.706E-01 -.408E-01 -.992E+00   -.295E-01 -.187E-01 0.291E-01
   -.678E-04 -.482E+01 -.103E+04   0.672E-04 0.491E+01 0.103E+04   0.438E-08 -.658E-01 0.986E+00   -.248E-02 -.395E-01 -.771E-01
   -.262E+02 -.151E+02 -.111E+04   0.274E+02 0.158E+02 0.111E+04   -.118E+01 -.684E+00 -.735E+00   -.869E-01 -.503E-01 -.406E-01
   0.262E+02 -.151E+02 -.111E+04   -.274E+02 0.158E+02 0.111E+04   0.118E+01 -.684E+00 -.735E+00   0.111E+00 -.489E-01 -.411E-01
   -.113E+02 0.652E+01 -.105E+04   0.110E+02 -.637E+01 0.105E+04   0.243E+00 -.140E+00 0.587E+00   0.307E-01 -.188E-01 -.577E-01
   -.464E-04 0.302E+02 -.111E+04   0.149E-03 -.316E+02 0.111E+04   -.911E-07 0.137E+01 -.735E+00   0.120E-01 0.119E+00 -.412E-01
   0.113E+02 0.652E+01 -.105E+04   -.110E+02 -.637E+01 0.105E+04   -.243E+00 -.140E+00 0.587E+00   -.333E-01 -.201E-01 -.576E-01
   0.417E+01 0.241E+01 -.103E+04   -.425E+01 -.246E+01 0.103E+04   0.570E-01 0.329E-01 0.986E+00   0.357E-01 0.206E-01 -.775E-01
   -.417E+01 0.241E+01 -.103E+04   0.425E+01 -.246E+01 0.103E+04   -.570E-01 0.329E-01 0.986E+00   -.351E-01 0.178E-01 -.770E-01
   -.147E-03 -.130E+02 -.105E+04   0.243E-03 0.127E+02 0.105E+04   -.187E-07 0.280E+00 0.587E+00   -.950E-03 0.359E-01 -.575E-01
   -.150E-04 0.313E-04 -.334E+04   0.384E-04 -.333E-04 0.334E+04   0.203E-17 -.607E-18 0.201E+01   -.339E-03 -.144E-03 -.252E-01
   0.259E+01 -.947E+01 -.330E+04   -.233E+01 0.960E+01 0.330E+04   -.332E+00 -.239E+00 0.449E+00   0.344E-01 0.714E-01 -.910E-01
   -.259E+01 -.947E+01 -.330E+04   0.233E+01 0.960E+01 0.330E+04   0.332E+00 -.239E+00 0.449E+00   -.334E-01 0.740E-01 -.911E-01
   -.691E+01 0.698E+01 -.330E+04   0.715E+01 -.681E+01 0.330E+04   -.373E+00 -.168E+00 0.449E+00   0.791E-01 -.595E-02 -.911E-01
   0.691E+01 0.698E+01 -.330E+04   -.715E+01 -.681E+01 0.330E+04   0.373E+00 -.168E+00 0.449E+00   -.809E-01 -.499E-02 -.919E-01
   -.950E+01 0.249E+01 -.330E+04   0.947E+01 -.278E+01 0.330E+04   -.413E-01 0.407E+00 0.449E+00   0.474E-01 -.659E-01 -.911E-01
   0.950E+01 0.249E+01 -.330E+04   -.947E+01 -.278E+01 0.330E+04   0.413E-01 0.407E+00 0.449E+00   -.440E-01 -.676E-01 -.918E-01
   -.131E-03 -.737E-05 -.336E+04   0.259E-03 -.121E-06 0.336E+04   -.166E-16 0.129E-17 0.224E+01   -.133E-01 -.687E-02 0.271E-02
   0.150E-03 -.153E-03 -.370E+04   0.122E-03 0.327E-04 0.370E+04   -.893E-18 0.768E-18 0.110E+01   0.525E-02 0.316E-02 -.190E-01
   -.468E-05 -.829E-04 -.106E+04   0.298E-05 0.218E-05 0.104E+04   0.188E-18 0.280E-18 0.213E+02   0.102E-02 0.622E-03 -.309E-01
   0.224E-03 -.770E-04 -.167E+04   0.690E-06 0.108E-05 0.173E+04   -.675E-18 0.748E-19 -.604E+02   0.323E-02 0.198E-02 -.660E-01
   0.175E-03 -.253E-03 0.506E+02   0.136E-12 0.998E-13 -.193E-10   0.149E-15 -.275E-15 -.523E+02   0.612E-01 0.325E-01 0.160E+01

 POSITION                                       TOTAL-FORCE (eV/Angst)
      0.00000      0.00000      5.37156         0.000000     -0.000000     -0.000616
      2.56560      0.00000      5.37156         0.015400      0.016009      0.050113
      5.13119      0.00000      5.37156        -0.015400      0.016009      0.050113
      1.28280      2.22187      5.37156         0.021565      0.005333      0.050113
      3.84839      2.22187      5.37156         0.000000     -0.000000      0.053968
      6.41399      2.22187      5.37156        -0.021565      0.005333      0.050113
      2.56560      4.44374      5.37156         0.006164     -0.021342      0.050113
      5.13119      4.44374      5.37156        -0.006164     -0.021342      0.050113
      7.69679      4.44374      5.37156        -0.000000     -0.000000      0.020228
      1.28280      0.74062      7.46636         0.024477      0.014132     -0.110918
      3.84839      0.74062      7.46636         0.000000     -0.002596     -0.005045
      6.41399      0.74062      7.46636        -0.024477      0.014132     -0.110918
      2.56560      2.96249      7.46636        -0.002248      0.001298     -0.005045
      5.13119      2.96249      7.46636         0.002248      0.001298     -0.005045
      7.69679      2.96249      7.46636        -0.000000      0.006808     -0.049880
      3.84839      5.18437      7.46636         0.000000     -0.028264     -0.110918
      6.41399      5.18437      7.46636         0.005896     -0.003404     -0.049880
      8.97958      5.18437      7.46636        -0.005896     -0.003404     -0.049880
      7.69679      1.47435      9.52922         0.000000     -0.011291      0.026076
      2.57570      1.48708      9.58099        -0.057065     -0.032947     -0.093039
      5.12109      1.48708      9.58099         0.057065     -0.032947     -0.093039
      8.97941      3.70322      9.55185         0.003359     -0.001939      0.030249
      3.84839      3.69145      9.58099        -0.000000      0.065893     -0.093039
      6.41416      3.70322      9.55185        -0.003359     -0.001939      0.030249
     10.26835      5.92844      9.52922         0.009778      0.005646      0.026076
      5.12522      5.92844      9.52922        -0.009778      0.005646      0.026076
      7.69679      5.92479      9.55185        -0.000000      0.003878      0.030249
      0.00000      0.00000     11.63765         0.000000     -0.000000      0.038500
      6.39598      6.62341     11.64088        -0.029607     -0.042743      0.022206
      8.99759      6.62341     11.64088         0.029607     -0.042743      0.022206
      8.93403      2.22738     11.64088        -0.051820     -0.004269      0.022206
      6.45955      2.22738     11.64088         0.051820     -0.004269      0.022206
     10.23483      4.48044     11.64088        -0.022213      0.047012      0.022206
      5.15874      4.48044     11.64088         0.022213      0.047012      0.022206
      7.69679      4.44374     11.66679         0.000000      0.000000      0.012881
      3.84839      2.22187     12.03290         0.000000     -0.000000      0.064454
      3.84839      2.22187     14.33301         0.000000     -0.000000     -0.021847
      3.84839      2.22187     15.48667         0.000000      0.000000      0.006191
    total drift:                                0.061368      0.032224     -0.083825

  FREE ENERGIE OF THE ION-ELECTRON SYSTEM (eV)
  free  energy   TOTEN  =      -146.29441577 eV

  energy  without entropy=     -146.29441577  energy(sigma->0) =     -146.29441577

 stress matrix after NEB project (eV)
     -6.54312      0.00000     -0.00000
      0.00000     -6.54312      0.00000
     -0.00000      0.00000     -2.18022
  FORCES: max atom, RMS     0.021847    0.003684
  FORCE total and by dimension    0.022707    0.021847
  Stress total and by dimension    9.506751    6.543124
|           W    W    AA    RRRRR   N    N  II  N    N   GGGG   !!!           |
|           W    W   A  A   R    R  NN   N  II  NN   N  G    G  !!!           |
|           W    W  A    A  R    R  N N  N  II  N N  N  G       !!!           |
|           W WW W  AAAAAA  RRRRR   N  N N  II  N  N N  G  GGG   !            |
|           WW  WW  A    A  R   R   N   NN  II  N   NN  G    G                |
|           W    W  A    A  R    R  N    N  II  N    N   GGGG   !!!           |
|     Tetrahedron method does not include variations of the Fermi             |
|     occupations, so forces and stress will be inaccurate. We suggest        |
|     using a different smearing scheme ISMEAR = 1 or 2 for metals in         |
|     relaxations.                                                            |

 total charge

# of ion       s       p       d       tot
    1        0.449   0.282   9.189   9.920
    2        0.447   0.286   9.186   9.919
    3        0.447   0.286   9.186   9.919
    4        0.447   0.286   9.186   9.919
    5        0.450   0.287   9.181   9.917
    6        0.447   0.286   9.186   9.919
    7        0.447   0.286   9.186   9.919
    8        0.447   0.286   9.186   9.919
    9        0.450   0.283   9.189   9.921
   10        0.442   0.372   9.176   9.990
   11        0.442   0.364   9.182   9.987
   12        0.442   0.372   9.176   9.990
   13        0.442   0.364   9.182   9.987
   14        0.442   0.364   9.182   9.987
   15        0.440   0.373   9.175   9.988
   16        0.442   0.372   9.176   9.990
   17        0.440   0.373   9.175   9.988
   18        0.440   0.373   9.175   9.988
   19        0.446   0.373   9.179   9.997
   20        0.455   0.377   9.165   9.998
   21        0.455   0.377   9.165   9.998
   22        0.434   0.376   9.177   9.988
   23        0.455   0.377   9.165   9.998
   24        0.434   0.376   9.177   9.988
   25        0.446   0.373   9.179   9.997
   26        0.446   0.373   9.179   9.997
   27        0.434   0.376   9.177   9.988
   28        0.441   0.299   9.182   9.922
   29        0.488   0.321   9.160   9.968
   30        0.488   0.321   9.160   9.968
   31        0.488   0.321   9.160   9.968
   32        0.488   0.321   9.160   9.968
   33        0.488   0.321   9.160   9.968
   34        0.488   0.321   9.160   9.968
   35        0.440   0.304   9.182   9.926
   36        2.214   5.984   1.621   9.820
   37        0.992   1.520   0.000   2.512
   38        1.623   3.516   0.000   5.139
tot         20.642  22.820 322.780 366.243

 BZINTS: Fermi energy:    0.398595;  407.000000 electrons
         Band energy:-0.133322E+04;  BLOECHL correction:   -0.026637