 vasp.6.2.0 18Jan21 (build Jun 12 2021 23:27:24) complex

 executed on             LinuxIFC date 2022.05.28  02:42:39

 INCAR:
   ISMEAR = -5
   SIGMA = 0.1
   ISPIN = 1
   EDIFF = 1.d-5
   EDIFFG = -0.01
   NSW = 0
   NELM = 150
   ENCUT = 500
   ISIF = 2
   IBRION = 2
   LREAL = Auto
   ALGO = Fast
   ICHARG = 11
   LORBIT = 10
   LCHARG = .F.
   LWAVE = .F.

 POTCAR:    PAW_PBE Cu 22Jun2005
 POTCAR:    PAW_PBE Hf 20Jan2003
 POTCAR:    PAW_PBE H 15Jun2001
 POTCAR:    PAW_PBE O 08Apr2002
|           W    W    AA    RRRRR   N    N  II  N    N   GGGG   !!!           |
|           W    W   A  A   R    R  NN   N  II  NN   N  G    G  !!!           |
|           W    W  A    A  R    R  N N  N  II  N N  N  G       !!!           |
|           W WW W  AAAAAA  RRRRR   N  N N  II  N  N N  G  GGG   !            |
|           WW  WW  A    A  R   R   N   NN  II  N   NN  G    G                |
|           W    W  A    A  R    R  N    N  II  N    N   GGGG   !!!           |
|     For optimal performance we recommend to set                             |
|       NCORE = 2 up to number-of-cores-per-socket                            |
|     This setting can greatly improve the performance of VASP for DFT.       |
|     The default, NCORE=1 might be grossly inefficient on modern             |
|     multi-core architectures or massively parallel machines. Do your        |
|     Unfortunately you need to use the default for GW and RPA                |
|     calculations (for HF NCORE is supported but not extensively tested      |
|     yet).                                                                   |

 POTCAR:    PAW_PBE Cu 22Jun2005
   VRHFIN =Cu: d10 p1

   TITEL  = PAW_PBE Cu 22Jun2005
   POMASS =   63.546; ZVAL   =   11.000    mass and valenz
   ENMAX  =  295.446; ENMIN  =  221.585 eV

 POTCAR:    PAW_PBE Hf 20Jan2003
   VRHFIN =Hf: 6s5d

   TITEL  = PAW_PBE Hf 20Jan2003
   POMASS =  178.490; ZVAL   =    4.000    mass and valenz
   ENMAX  =  220.334; ENMIN  =  165.250 eV

 POTCAR:    PAW_PBE H 15Jun2001
   VRHFIN =H: ultrasoft test

   TITEL  = PAW_PBE H 15Jun2001
   POMASS =    1.000; ZVAL   =    1.000    mass and valenz
   ENMAX  =  250.000; ENMIN  =  200.000 eV

 POTCAR:    PAW_PBE O 08Apr2002
   VRHFIN =O: s2p4

   TITEL  = PAW_PBE O 08Apr2002
   POMASS =   16.000; ZVAL   =    6.000    mass and valenz
   ENMAX  =  400.000; ENMIN  =  300.000 eV

 Optimization of the real space projectors (new method)

 maximal supplied QI-value         = 16.25
 optimisation between [QCUT,QGAM] = [ 11.38, 22.75] = [ 36.24,144.96] Ry
 Optimized for a Real-space Cutoff    1.52 Angstroem

   l    n(q)    QCUT    max X(q) W(low)/X(q) W(high)/X(q)  e(spline)
   2      9    11.376     4.610    0.21E-03    0.10E-03    0.26E-06
   2      9    11.376     8.522    0.33E-03    0.16E-03    0.37E-06
   0     10    11.376    51.609    0.62E-04    0.20E-04    0.13E-06
   0     10    11.376    27.747    0.54E-04    0.20E-04    0.13E-06
   1     10    11.376    20.408    0.13E-04    0.99E-04    0.19E-06
   1     10    11.376    13.425    0.12E-04    0.87E-04    0.17E-06
 Optimization of the real space projectors (new method)

[...]

   l    n(q)    QCUT    max X(q) W(low)/X(q) W(high)/X(q)  e(spline)
   0      8    11.287    19.460    0.40E-03    0.73E-03    0.16E-06
   0      8    11.287    12.209    0.38E-03    0.70E-03    0.15E-06
   1      7    11.287     4.655    0.22E-03    0.25E-04    0.22E-06
 Optimization of the real space projectors (new method)

 maximal supplied QI-value         = 24.76
 optimisation between [QCUT,QGAM] = [ 11.39, 22.77] = [ 36.31,145.25] Ry
 Optimized for a Real-space Cutoff    1.00 Angstroem

   l    n(q)    QCUT    max X(q) W(low)/X(q) W(high)/X(q)  e(spline)
   0      7    11.387    20.381    0.39E-03    0.13E-02    0.15E-06
   0      7    11.387    15.268    0.42E-03    0.14E-02    0.17E-06
   1      6    11.387     5.964    0.41E-03    0.11E-02    0.17E-06
   1      6    11.387     5.382    0.39E-03    0.87E-03    0.15E-06
  PAW_PBE Cu 22Jun2005                  :
  PAW_PBE Hf 20Jan2003                  :
  PAW_PBE H 15Jun2001                   :
  PAW_PBE O 08Apr2002                   :

 POSCAR: Cu-Hf-H2O
  positions in direct lattice
  velocities in cartesian coordinates
 exchange correlation table for  LEXCH =        8
   RHO(1)=    0.500       N(1)  =     2000
   RHO(2)=  100.500       N(2)  =     4000

 VTST: version 3.2, (02/03/18)

 CHAIN: initializing optimizer

 OPT: Using VASP Conjugate-Gradient optimizer
 CHAIN: Read ICHAIN            0

 POSCAR: Cu-Hf-H2O
  positions in direct lattice
  velocities in cartesian coordinates

 ion  position               nearest neighbor table
   1  0.000  0.000  0.221-   7 2.57   3 2.57   4 2.57   2 2.57   6 2.57   8 2.57  12 2.57  10 2.57
                            16 2.57
   2  0.333  0.000  0.221-   8 2.57   9 2.57   5 2.57   1 2.57   3 2.57  11 2.57   4 2.57  10 2.57
                            17 2.57
   3  0.667  0.000  0.221-   1 2.57   7 2.57   6 2.57   9 2.57   2 2.57  12 2.57   5 2.57  18 2.57
                            11 2.57
   4  0.000  0.333  0.221-   5 2.57   6 2.57   1 2.57   7 2.57   2 2.57  13 2.57   9 2.57  10 2.57
                            15 2.57
   5  0.333  0.333  0.221-   4 2.57   2 2.57   7 2.57  13 2.57   8 2.57   6 2.57   3 2.57  11 2.57
                            14 2.57
   6  0.667  0.333  0.221-   4 2.57   9 2.57  15 2.57   3 2.57   1 2.57   8 2.57  14 2.57   5 2.57
                            12 2.57
   7  0.000  0.667  0.221-   1 2.57   3 2.57  16 2.57  18 2.57   4 2.57   5 2.57   8 2.57   9 2.57
                            13 2.57
   8  0.333  0.667  0.221-   9 2.57   2 2.57  17 2.57   6 2.57   1 2.57   7 2.57   5 2.57  14 2.57
                            16 2.57
   9  0.667  0.667  0.221-   8 2.57   6 2.57   2 2.57  17 2.57   3 2.57   7 2.57   4 2.57  15 2.57
                            18 2.57
  10  0.111  0.111  0.308-  26 2.54  19 2.54  11 2.57  12 2.57  13 2.57   1 2.57   2 2.57   4 2.57
                            15 2.57  16 2.57  17 2.57  20 2.58
  11  0.444  0.111  0.308-  27 2.56  10 2.57  13 2.57   2 2.57  17 2.57  14 2.57  12 2.57   5 2.57
                             3 2.57  18 2.57  20 2.57  21 2.57
  12  0.778  0.111  0.308-  19 2.54  25 2.54  15 2.57  10 2.57  14 2.57  18 2.57   3 2.57   1 2.57
                            16 2.57  11 2.57   6 2.57  21 2.58
  13  0.111  0.444  0.308-  22 2.56  16 2.57  18 2.57  10 2.57  11 2.57  14 2.57   5 2.57   4 2.57
                             7 2.57  15 2.57  23 2.57  20 2.57
  14  0.444  0.444  0.308-  24 2.56  15 2.57  17 2.57  12 2.57  16 2.57  13 2.57  11 2.57   6 2.57
                             8 2.57   5 2.57  21 2.57  23 2.57
  15  0.778  0.444  0.308-  19 2.55  24 2.56  22 2.56  14 2.57  17 2.57  12 2.57   6 2.57  18 2.57
                            10 2.57   9 2.57  13 2.57   4 2.57
  16  0.111  0.778  0.308-  25 2.54  26 2.54  18 2.57  13 2.57   7 2.57  14 2.57  17 2.57  12 2.57
                            10 2.57   8 2.57   1 2.57  23 2.58
  17  0.444  0.778  0.308-  26 2.55  27 2.56  24 2.56  14 2.57  15 2.57   8 2.57   9 2.57  11 2.57
                            16 2.57  18 2.57  10 2.57   2 2.57
  18  0.778  0.778  0.308-  25 2.55  22 2.56  27 2.56  16 2.57  13 2.57   7 2.57  15 2.57  12 2.57
                            17 2.57   9 2.57   3 2.57  11 2.57
  19  0.889  0.221  0.393-  12 2.54  10 2.54  15 2.55  25 2.56  26 2.56  32 2.57  31 2.57  22 2.57
                            24 2.57  21 2.57  20 2.57  28 2.57
  20  0.223  0.223  0.394-  23 2.55  21 2.55  27 2.57  22 2.57  26 2.57  19 2.57  11 2.57  13 2.57
                            10 2.58  29 2.58  31 2.58  36 2.77
  21  0.555  0.223  0.394-  20 2.55  23 2.55  24 2.57  27 2.57  19 2.57  25 2.57  14 2.57  11 2.57
                            12 2.58  32 2.58  30 2.58  36 2.77
  22  0.889  0.556  0.394-  18 2.56  15 2.56  13 2.56  24 2.56  27 2.56  23 2.57  20 2.57  31 2.57
                            33 2.57  19 2.57  25 2.57  35 2.58
  23  0.223  0.555  0.394-  20 2.55  21 2.55  22 2.57  24 2.57  25 2.57  26 2.57  13 2.57  14 2.57
                            16 2.58  33 2.58  34 2.58  36 2.77
  24  0.556  0.556  0.394-  15 2.56  17 2.56  14 2.56  22 2.56  27 2.56  21 2.57  23 2.57  32 2.57
                            34 2.57  19 2.57  26 2.57  35 2.58
  25  0.889  0.889  0.393-  12 2.54  16 2.54  18 2.55  19 2.56  26 2.56  33 2.57  30 2.57  22 2.57
                            27 2.57  21 2.57  23 2.57  28 2.57
  26  0.221  0.889  0.393-  10 2.54  16 2.54  17 2.55  25 2.56  19 2.56  29 2.57  34 2.57  27 2.57
                            24 2.57  20 2.57  23 2.57  28 2.57
  27  0.556  0.889  0.394-  17 2.56  18 2.56  11 2.56  24 2.56  22 2.56  20 2.57  21 2.57  29 2.57
                            30 2.57  26 2.57  25 2.57  35 2.58
  28  0.000  0.000  0.480-  33 2.55  30 2.55  31 2.55  29 2.55  32 2.55  34 2.55  25 2.57  19 2.57
                            26 2.57
  29  0.334  0.994  0.480-  34 2.48  35 2.54  28 2.55  26 2.57  27 2.57  20 2.58  30 2.60  31 2.61
                            36 2.62
  30  0.672  0.994  0.480-  33 2.48  35 2.54  28 2.55  25 2.57  27 2.57  21 2.58  29 2.60  32 2.61
                            36 2.62
  31  0.994  0.334  0.480-  32 2.48  35 2.54  28 2.55  19 2.57  22 2.57  20 2.58  33 2.60  29 2.61
                            36 2.62
  32  0.672  0.334  0.480-  31 2.48  35 2.54  28 2.55  19 2.57  24 2.57  21 2.58  34 2.60  30 2.61
                            36 2.62
  33  0.994  0.672  0.480-  30 2.48  35 2.54  28 2.55  25 2.57  22 2.57  23 2.58  31 2.60  34 2.61
                            36 2.62
  34  0.334  0.672  0.480-  29 2.48  35 2.54  28 2.55  26 2.57  24 2.57  23 2.58  32 2.60  33 2.61
                            36 2.62
  35  0.667  0.667  0.481-  34 2.54  32 2.54  29 2.54  30 2.54  33 2.54  31 2.54  24 2.58  27 2.58
                            22 2.58
  36  0.333  0.333  0.491-  39 2.26  31 2.62  29 2.62  33 2.62  32 2.62  34 2.62  30 2.62  23 2.77
                            20 2.77  21 2.77
  37  0.289  0.210  0.592-  39 0.98
  38  0.498  0.201  0.591-  39 0.98
  39  0.355  0.289  0.583-  37 0.98  38 0.98  36 2.26

  LATTYP: Found a hexagonal cell.
 ALAT       =     7.6967864036
 C/A-ratio  =     3.1535378041

  Lattice vectors:

 A1 = (  -3.8483927580,  -6.6656128093,   0.0000000000)
 A2 = (   7.6967864037,   0.0000000000,   0.0000000000)
 A3 = (   0.0000000000,   0.0000000000,  24.2721068937)

Analysis of symmetry for initial positions (statically):
 Subroutine PRICEL returns:
 Original cell was already a primitive cell.

 Routine SETGRP: Setting up the symmetry group for a
 hexagonal supercell.

 Subroutine GETGRP returns: Found  1 space group operations
 (whereof  1 operations were pure point group operations)
 out of a pool of 24 trial point group operations.

The static configuration has the point symmetry C_1 .

Analysis of symmetry for dynamics (positions and initial velocities):
 Subroutine PRICEL returns:
 Original cell was already a primitive cell.

[...]

The dynamic configuration has the point symmetry C_1 .

Analysis of constrained symmetry for selective dynamics:
 Subroutine PRICEL returns:
[...]
     41      -3.7979      2.00000
     42      -3.7848      2.00000
     43      -3.7374      2.00000
     44      -3.7296      2.00000
     45      -3.7018      2.00000
     46      -3.6919      2.00000
     47      -3.6860      2.00000
     48      -3.6776      2.00000
     49      -3.6702      2.00000
     50      -3.5366      2.00000
     51      -3.5136      2.00000
     52      -3.4957      2.00000
     53      -3.4695      2.00000
     54      -3.4205      2.00000
     55      -3.3996      2.00000
     56      -3.3954      2.00000
     57      -3.3801      2.00000
     58      -3.3642      2.00000
     59      -3.3631      2.00000
     60      -3.3409      2.00000
[...]
    238       5.8444      0.00000
    239       5.8736      0.00000
    240       5.9674      0.00000
    241       6.0124      0.00000
    242       6.0560      0.00000
    243       6.1918      0.00000
    244       6.3430      0.00000
    245       6.3813      0.00000
    246       6.5711      0.00000
    247       6.8099      0.00000
    248       6.9098      0.00000
    249       7.0234      0.00000
    250       7.1835      0.00000
    251       7.3572      0.00000
    252       7.5374      0.00000

 soft charge-density along one line, spin component           1
         0         1         2         3         4         5         6         7         8         9
 total charge-density along one line

------------------------ aborting loop because EDIFF is reached ----------------------------------------

 total charge

# of ion       s       p       d       tot
    1        0.450   0.283   9.187   9.920
    2        0.448   0.286   9.185   9.919
    3        0.448   0.286   9.185   9.919
    4        0.448   0.286   9.185   9.919
    5        0.448   0.286   9.182   9.916
    6        0.448   0.286   9.185   9.919
    7        0.448   0.286   9.185   9.919
    8        0.447   0.286   9.185   9.919
    9        0.450   0.284   9.186   9.920
   10        0.443   0.371   9.176   9.990
   11        0.441   0.365   9.181   9.987
   12        0.443   0.371   9.176   9.990
   13        0.440   0.365   9.181   9.987
   14        0.440   0.365   9.181   9.987
   15        0.440   0.372   9.176   9.988
   16        0.442   0.371   9.176   9.990
   17        0.439   0.372   9.176   9.988
   18        0.439   0.372   9.176   9.988
   19        0.445   0.373   9.178   9.996
   20        0.459   0.387   9.159  10.005
   21        0.460   0.387   9.159  10.005
   22        0.435   0.375   9.177   9.987
   23        0.459   0.386   9.160  10.005
   24        0.435   0.375   9.177   9.987
   25        0.445   0.372   9.179   9.997
   26        0.445   0.372   9.179   9.996
   27        0.435   0.375   9.177   9.987
   28        0.443   0.303   9.176   9.923
   29        0.489   0.330   9.157   9.976
   30        0.489   0.331   9.157   9.977
   31        0.488   0.330   9.156   9.974
   32        0.488   0.330   9.156   9.973
   33        0.488   0.326   9.158   9.972
   34        0.488   0.326   9.158   9.972
   35        0.442   0.307   9.177   9.926
   36        0.623   0.541   1.979   3.143
   37        0.593   0.116   0.000   0.709
   38        0.593   0.116   0.000   0.709
   39        1.564   3.636   0.000   5.200
tot         19.206  16.286 323.090 358.582

  FORCE on cell =-STRESS in cart. coord.  units (eV):
  Direction    XX          YY          ZZ          XY          YZ          ZX
  Alpha Z   777.10848   777.10848   777.10848
  Ewald  227230.73368227164.85095************    -2.71664     9.60997    -0.58091
  Hartree239984.35409239969.61783************    -0.58476    32.50556     0.62239
  E(xc)   -2299.01976 -2299.26388 -2302.66382    -0.01006     0.01966    -0.00182
  Local  ************************479898.00535     2.59137   -49.67262    -0.45766
  n-local  -775.37998  -776.01975  -787.12504    -0.01452    -0.52547    -0.03039
  augment  3315.06302  3316.31215  3339.28843     0.02881     0.41623     0.02514
  Kinetic  3298.13056  3315.98804  3350.21832     0.71932     7.62845     0.40045
  Fock        0.00000     0.00000     0.00000     0.00000     0.00000     0.00000
  Total      -6.50934    -6.38644    -1.29475     0.01353    -0.01822    -0.02280
  in kB      -8.37511    -8.21698    -1.66586     0.01741    -0.02344    -0.02933

 VOLUME and BASIS-vectors are now :
  energy-cutoff  :      500.00
  volume of cell :     1245.25
      direct lattice vectors                 reciprocal lattice vectors
     7.696786404  0.000000000  0.000000000     0.129924354 -0.075011849  0.000000000
     3.848392758  6.665612809  0.000000000     0.000000000  0.150023716  0.000000000
     0.000000000  0.000000000 24.272106894     0.000000000  0.000000000  0.041199555

  length of vectors
     7.696786404  7.696786404 24.272106894     0.150023716  0.150023716  0.041199555

 FORCES acting on ions
    electron-ion (+dipol)            ewald-force                    non-local-force                 convergence-correction
   -.753E-03 0.307E-01 0.374E+04   -.442E-03 -.185E-01 -.374E+04   0.105E-02 -.327E-02 -.208E+01   0.217E-03 -.816E-02 -.561E-01
   -.120E+01 -.148E+01 0.374E+04   0.114E+01 0.145E+01 -.373E+04   0.343E-01 0.628E-01 -.190E+01   0.370E-01 -.267E-01 0.339E-01
   0.120E+01 -.150E+01 0.374E+04   -.114E+01 0.145E+01 -.373E+04   -.345E-01 0.635E-01 -.190E+01   -.361E-01 -.125E-01 0.326E-01
   -.191E+01 -.348E+00 0.374E+04   0.184E+01 0.294E+00 -.373E+04   0.770E-01 0.636E-02 -.191E+01   -.464E-03 0.485E-01 0.386E-01
   -.186E-01 -.364E-01 0.373E+04   0.110E-02 0.415E-01 -.373E+04   -.836E-02 -.206E-01 -.180E+01   0.261E-01 0.142E-01 0.375E-01
   0.192E+01 -.354E+00 0.374E+04   -.184E+01 0.294E+00 -.373E+04   -.768E-01 0.494E-02 -.191E+01   -.120E-01 0.570E-01 0.420E-01
   -.701E+00 0.182E+01 0.374E+04   0.702E+00 -.174E+01 -.373E+04   0.261E-01 -.602E-01 -.194E+01   -.247E-01 -.233E-01 0.153E-01
   0.690E+00 0.183E+01 0.374E+04   -.702E+00 -.174E+01 -.373E+04   -.290E-01 -.580E-01 -.195E+01   0.384E-01 -.314E-01 0.177E-01
   0.175E-01 0.383E-01 0.374E+04   -.214E-03 -.226E-01 -.373E+04   0.927E-02 0.238E-02 -.192E+01   -.270E-01 -.170E-01 0.259E-01
   -.124E+02 -.722E+01 0.124E+04   0.125E+02 0.731E+01 -.124E+04   -.172E+00 -.112E+00 -.866E+00   0.358E-01 0.347E-01 -.559E+00
   -.188E-01 -.138E+02 0.122E+04   0.570E-02 0.135E+02 -.122E+04   -.659E-02 0.251E+00 -.376E+00   0.199E-01 -.305E-03 -.570E+00
   0.124E+02 -.724E+01 0.124E+04   -.126E+02 0.732E+01 -.124E+04   0.170E+00 -.113E+00 -.865E+00   -.428E-01 0.450E-01 -.568E+00
   -.119E+02 0.666E+01 0.122E+04   0.116E+02 -.650E+01 -.122E+04   0.206E+00 -.132E+00 -.365E+00   -.290E-02 -.937E-02 -.560E+00
   0.118E+02 0.665E+01 0.122E+04   -.116E+02 -.650E+01 -.122E+04   -.224E+00 -.130E+00 -.366E+00   0.450E-01 -.767E-02 -.565E+00
   0.201E-01 -.817E+00 0.125E+04   -.626E-02 0.722E+00 -.124E+04   0.184E-02 0.642E-01 -.882E+00   -.155E-01 0.406E-01 -.537E+00
   -.108E-01 0.146E+02 0.124E+04   0.134E-02 -.148E+02 -.124E+04   0.303E-02 0.201E+00 -.841E+00   0.641E-02 -.360E-01 -.562E+00
   -.521E+00 0.590E+00 0.125E+04   0.440E+00 -.540E+00 -.124E+04   0.388E-01 -.232E-01 -.871E+00   0.491E-01 -.302E-01 -.551E+00
   0.530E+00 0.570E+00 0.125E+04   -.442E+00 -.534E+00 -.124E+04   -.407E-01 -.232E-01 -.871E+00   -.544E-01 -.174E-01 -.553E+00
   0.442E-01 -.102E+02 -.122E+04   -.457E-01 0.102E+02 0.122E+04   -.219E-02 -.758E-01 0.816E+00   0.344E-02 0.391E-02 -.553E+00
   -.762E+02 -.458E+02 -.136E+04   0.771E+02 0.463E+02 0.136E+04   -.956E+00 -.584E+00 -.555E+00   -.876E-02 -.494E-02 -.546E+00
   0.762E+02 -.458E+02 -.136E+04   -.771E+02 0.464E+02 0.136E+04   0.975E+00 -.580E+00 -.555E+00   -.195E-01 0.516E-02 -.553E+00
   -.378E+02 0.216E+02 -.125E+04   0.376E+02 -.214E+02 0.125E+04   0.257E+00 -.125E+00 0.669E+00   -.460E-01 -.226E-01 -.577E+00
   -.457E-01 0.879E+02 -.136E+04   0.398E-01 -.890E+02 0.136E+04   -.193E-02 0.108E+01 -.384E+00   0.720E-02 -.222E-02 -.559E+00
   0.379E+02 0.216E+02 -.125E+04   -.377E+02 -.215E+02 0.125E+04   -.239E+00 -.129E+00 0.677E+00   0.109E-01 -.142E-01 -.578E+00
   0.742E+01 0.612E+01 -.122E+04   -.752E+01 -.615E+01 0.122E+04   0.988E-01 0.149E-01 0.902E+00   0.163E-01 0.166E-01 -.541E+00
   -.742E+01 0.617E+01 -.122E+04   0.751E+01 -.619E+01 0.122E+04   -.976E-01 0.179E-01 0.910E+00   -.365E-02 0.131E-01 -.540E+00
   0.958E-02 -.417E+02 -.125E+04   0.914E-02 0.414E+02 0.125E+04   0.641E-02 0.304E+00 0.666E+00   -.256E-01 -.154E-01 -.574E+00
   0.130E+00 0.449E+01 -.365E+04   -.131E+00 -.453E+01 0.365E+04   -.479E-03 0.466E-01 0.144E+01   0.124E-02 -.888E-03 -.163E+00
   -.531E+02 -.107E+03 -.362E+04   0.533E+02 0.108E+03 0.362E+04   -.275E+00 -.191E+00 0.138E+00   -.323E-01 -.595E-01 -.335E+00
   0.529E+02 -.108E+03 -.362E+04   -.532E+02 0.108E+03 0.362E+04   0.265E+00 -.206E+00 0.895E-01   0.576E-01 -.493E-01 -.330E+00
   -.128E+03 -.199E+01 -.363E+04   0.129E+03 0.219E+01 0.363E+04   -.406E+00 -.194E+00 0.600E-01   -.687E-01 -.776E-02 -.334E+00
   0.129E+03 -.196E+01 -.363E+04   -.129E+03 0.215E+01 0.363E+04   0.385E+00 -.196E+00 0.948E-01   0.968E-01 0.446E-02 -.327E+00
   -.749E+02 0.115E+03 -.364E+04   0.750E+02 -.116E+03 0.364E+04   -.838E-01 0.437E+00 0.373E+00   -.173E-01 0.963E-01 -.326E+00
   0.748E+02 0.116E+03 -.364E+04   -.749E+02 -.116E+03 0.364E+04   0.656E-01 0.440E+00 0.380E+00   0.651E-01 0.990E-01 -.335E+00
   0.141E+00 0.580E+01 -.367E+04   -.122E+00 -.578E+01 0.366E+04   0.141E-01 -.880E-02 0.174E+01   -.328E-01 -.110E-01 -.299E+00
   -.284E+00 -.121E+02 -.132E+04   0.278E+00 0.119E+02 0.132E+04   0.861E-02 0.236E+00 0.273E+01   0.104E-03 -.446E-02 -.804E-01
   0.692E+02 0.404E+02 -.365E+03   -.761E+02 -.445E+02 0.367E+03   0.683E+01 0.416E+01 -.169E+01   -.215E-02 -.157E-02 0.184E-01
   -.660E+02 0.456E+02 -.365E+03   0.725E+02 -.503E+02 0.366E+03   -.650E+01 0.468E+01 -.163E+01   0.218E-02 -.150E-02 0.183E-01
   -.225E+01 -.643E+02 -.211E+04   0.383E+01 0.105E+03 0.210E+04   -.158E+01 -.408E+02 0.469E+01   0.128E-02 -.148E-02 0.117E+00
   0.122E+01 0.316E+02 0.243E+02   0.284E-13 0.711E-13 -.909E-11   -.127E+01 -.317E+02 -.121E+02   0.473E-01 0.616E-01 -.122E+02

 POSITION                                       TOTAL-FORCE (eV/Angst)
      0.00000      0.00000      5.37156         0.000081      0.000930      0.001889
      2.56560      0.00000      5.37156         0.007043      0.006408      0.042132
      5.13119      0.00000      5.37156        -0.006905      0.006193      0.041853
      1.28280      2.22187      5.37156         0.007689      0.001389      0.044476
      3.84839      2.22187      5.37156         0.000277     -0.001169      0.055905
      6.41399      2.22187      5.37156        -0.007457      0.001500      0.045076
      2.56560      4.44374      5.37156         0.002849     -0.007500      0.045032
      5.13119      4.44374      5.37156        -0.003023     -0.007504      0.044844
      7.69679      4.44374      5.37156        -0.000424      0.001170      0.022604
      1.28280      0.74062      7.46636         0.018189      0.010522     -0.101450
      3.84839      0.74062      7.46636         0.000263     -0.020901     -0.031926
      6.41399      0.74062      7.46636        -0.017971      0.010365     -0.101486
      2.56560      2.96249      7.46636        -0.013805      0.012720     -0.029692
      5.13119      2.96249      7.46636         0.014668      0.012857     -0.029533
      7.69679      2.96249      7.46636         0.000143      0.009768     -0.029797
      3.84839      5.18437      7.46636        -0.000041     -0.024166     -0.104020
      6.41399      5.18437      7.46636         0.007577     -0.003329     -0.022806
      8.97958      5.18437      7.46636        -0.007215     -0.003755     -0.023058
      7.69679      1.47625      9.53578        -0.000286     -0.014942     -0.016149
      2.57143      1.48462      9.57247        -0.033647     -0.023206     -0.093072
      5.12535      1.48462      9.57247         0.033581     -0.023209     -0.093813
      8.97869      3.70363      9.55450         0.013166     -0.010844      0.021293
      3.84839      3.69638      9.57247        -0.000624      0.064338     -0.104010
      6.41488      3.70363      9.55450        -0.014271     -0.011620      0.022496
     10.26671      5.92749      9.53578         0.017398      0.008804     -0.013912
      5.12686      5.92749      9.53578        -0.017691      0.009096     -0.014162
      7.69679      5.92396      9.55450        -0.000465      0.017325      0.014229
      0.00000      0.00000     11.64309         0.000086      0.006867      0.052352
      6.39641      6.62889     11.65568        -0.052771     -0.067007     -0.086850
      8.99717      6.62889     11.65568         0.053318     -0.064616     -0.083998
      8.93899      2.22500     11.65568        -0.036494     -0.001343     -0.032633
      6.45458      2.22500     11.65568         0.037971     -0.003293     -0.032954
     10.23937      4.47733     11.65568        -0.035567      0.041112     -0.045363
      5.15420      4.47733     11.65568         0.036135      0.042919     -0.048228
      7.69679      4.44374     11.66757         0.000302      0.002466      0.038638
      3.84839      2.22187     11.91603         0.002884      0.033518      0.639135
      3.03513      1.40266     14.36193        -0.002996     -0.000476     -0.000831
      4.60861      1.34133     14.35497         0.005922     -0.002483     -0.000310
      3.84249      1.92421     14.15715        -0.007891     -0.008899      0.008100
    total drift:                               -0.000397     -0.004477      0.034354

  FREE ENERGIE OF THE ION-ELECTRON SYSTEM (eV)
  free  energy   TOTEN  =      -147.19242809 eV

  energy  without entropy=     -147.19242809  energy(sigma->0) =     -147.19242809

 stress matrix after NEB project (eV)
     -6.50934      0.01353     -0.02280
      0.01353     -6.38644     -0.01822
     -0.02280     -0.01822     -1.29475
  FORCES: max atom, RMS     0.014391    0.002574
  FORCE total and by dimension    0.016072    0.008899
  Stress total and by dimension    9.210676    6.509343
|           W    W    AA    RRRRR   N    N  II  N    N   GGGG   !!!           |
|           W    W   A  A   R    R  NN   N  II  NN   N  G    G  !!!           |
|           W    W  A    A  R    R  N N  N  II  N N  N  G       !!!           |
|           W WW W  AAAAAA  RRRRR   N  N N  II  N  N N  G  GGG   !            |
|           WW  WW  A    A  R   R   N   NN  II  N   NN  G    G                |
|           W    W  A    A  R    R  N    N  II  N    N   GGGG   !!!           |
|     Tetrahedron method does not include variations of the Fermi             |
|     occupations, so forces and stress will be inaccurate. We suggest        |
|     using a different smearing scheme ISMEAR = 1 or 2 for metals in         |
|     relaxations.                                                            |

 total charge

# of ion       s       p       d       tot
    1        0.450   0.283   9.187   9.920
    2        0.448   0.286   9.185   9.919
    3        0.448   0.286   9.185   9.919
    4        0.448   0.286   9.185   9.919
    5        0.448   0.286   9.182   9.916
    6        0.448   0.286   9.185   9.919
    7        0.448   0.286   9.185   9.919
    8        0.447   0.286   9.185   9.919
    9        0.450   0.284   9.186   9.920
   10        0.443   0.371   9.176   9.990
   11        0.441   0.365   9.181   9.987
   12        0.443   0.371   9.176   9.990
   13        0.440   0.365   9.181   9.987
   14        0.440   0.365   9.181   9.987
   15        0.440   0.372   9.176   9.988
   16        0.442   0.371   9.176   9.990
   17        0.439   0.372   9.176   9.988
   18        0.439   0.372   9.176   9.988
   19        0.445   0.373   9.178   9.996
   20        0.459   0.387   9.159  10.005
   21        0.460   0.387   9.159  10.005
   22        0.435   0.375   9.177   9.987
   23        0.459   0.386   9.160  10.005
   24        0.435   0.375   9.177   9.987
   25        0.445   0.372   9.179   9.997
   26        0.445   0.372   9.179   9.996
   27        0.435   0.375   9.177   9.987
   28        0.443   0.303   9.176   9.923
   29        0.489   0.330   9.157   9.976
   30        0.489   0.331   9.157   9.977
   31        0.488   0.330   9.156   9.974
   32        0.488   0.330   9.156   9.973
   33        0.488   0.326   9.158   9.972
   34        0.488   0.326   9.158   9.972
   35        0.442   0.307   9.177   9.926
   36        0.623   0.541   1.979   3.143
   37        0.593   0.116   0.000   0.709
   38        0.593   0.116   0.000   0.709
   39        1.564   3.636   0.000   5.200
tot         19.206  16.286 323.090 358.582

 BZINTS: Fermi energy:    0.084790;  397.000000 electrons
         Band energy:-0.120576E+04;  BLOECHL correction:   -0.044895