 vasp.6.2.0 18Jan21 (build Jun 12 2021 23:27:24) complex

 executed on             LinuxIFC date 2022.05.28  02:53:57

 INCAR:
   ISMEAR = -5
   SIGMA = 0.1
   ISPIN = 1
   EDIFF = 1.d-5
   EDIFFG = -0.01
   NSW = 0
   NELM = 150
   ENCUT = 500
   ISIF = 2
   IBRION = 2
   LREAL = Auto
   ALGO = Fast
   ICHARG = 11
   LORBIT = 10
   LCHARG = .F.
   LWAVE = .F.

 POTCAR:    PAW_PBE Cu 22Jun2005
 POTCAR:    PAW_PBE Ir 06Sep2000
 POTCAR:    PAW_PBE O 08Apr2002
 POTCAR:    PAW_PBE H 15Jun2001
|           W    W    AA    RRRRR   N    N  II  N    N   GGGG   !!!           |
|           W    W   A  A   R    R  NN   N  II  NN   N  G    G  !!!           |
|           W    W  A    A  R    R  N N  N  II  N N  N  G       !!!           |
|           W WW W  AAAAAA  RRRRR   N  N N  II  N  N N  G  GGG   !            |
|           WW  WW  A    A  R   R   N   NN  II  N   NN  G    G                |
|           W    W  A    A  R    R  N    N  II  N    N   GGGG   !!!           |
|     For optimal performance we recommend to set                             |
|       NCORE = 2 up to number-of-cores-per-socket                            |
|     This setting can greatly improve the performance of VASP for DFT.       |
|     The default, NCORE=1 might be grossly inefficient on modern             |
|     multi-core architectures or massively parallel machines. Do your        |
|     Unfortunately you need to use the default for GW and RPA                |
|     calculations (for HF NCORE is supported but not extensively tested      |
|     yet).                                                                   |

 POTCAR:    PAW_PBE Cu 22Jun2005
   VRHFIN =Cu: d10 p1

   TITEL  = PAW_PBE Cu 22Jun2005
   POMASS =   63.546; ZVAL   =   11.000    mass and valenz
   ENMAX  =  295.446; ENMIN  =  221.585 eV

 POTCAR:    PAW_PBE Ir 06Sep2000
   VRHFIN =Ir: s1d8

   TITEL  = PAW_PBE Ir 06Sep2000
   POMASS =  192.220; ZVAL   =    9.000    mass and valenz
   ENMAX  =  210.864; ENMIN  =  158.148 eV

 POTCAR:    PAW_PBE O 08Apr2002
   VRHFIN =O: s2p4

   TITEL  = PAW_PBE O 08Apr2002
   POMASS =   16.000; ZVAL   =    6.000    mass and valenz
   ENMAX  =  400.000; ENMIN  =  300.000 eV

 POTCAR:    PAW_PBE H 15Jun2001
   VRHFIN =H: ultrasoft test

   TITEL  = PAW_PBE H 15Jun2001
   POMASS =    1.000; ZVAL   =    1.000    mass and valenz
   ENMAX  =  250.000; ENMIN  =  200.000 eV

 Optimization of the real space projectors (new method)

 maximal supplied QI-value         = 16.25
 optimisation between [QCUT,QGAM] = [ 11.38, 22.75] = [ 36.24,144.96] Ry
 Optimized for a Real-space Cutoff    1.52 Angstroem

   l    n(q)    QCUT    max X(q) W(low)/X(q) W(high)/X(q)  e(spline)
   2      9    11.376     4.610    0.21E-03    0.10E-03    0.26E-06
   2      9    11.376     8.522    0.33E-03    0.16E-03    0.37E-06
   0     10    11.376    51.609    0.62E-04    0.20E-04    0.13E-06
   0     10    11.376    27.747    0.54E-04    0.20E-04    0.13E-06
   1     10    11.376    20.408    0.13E-04    0.99E-04    0.19E-06
   1     10    11.376    13.425    0.12E-04    0.87E-04    0.17E-06
 Optimization of the real space projectors (new method)

[...]

   l    n(q)    QCUT    max X(q) W(low)/X(q) W(high)/X(q)  e(spline)
   0      7    11.387    20.381    0.39E-03    0.13E-02    0.15E-06
   0      7    11.387    15.268    0.42E-03    0.14E-02    0.17E-06
   1      6    11.387     5.964    0.41E-03    0.11E-02    0.17E-06
   1      6    11.387     5.382    0.39E-03    0.87E-03    0.15E-06
 Optimization of the real space projectors (new method)

 maximal supplied QI-value         = 34.20
 optimisation between [QCUT,QGAM] = [ 11.29, 22.57] = [ 35.68,142.71] Ry
 Optimized for a Real-space Cutoff    1.16 Angstroem

   l    n(q)    QCUT    max X(q) W(low)/X(q) W(high)/X(q)  e(spline)
   0      8    11.287    19.460    0.40E-03    0.73E-03    0.16E-06
   0      8    11.287    12.209    0.38E-03    0.70E-03    0.15E-06
   1      7    11.287     4.655    0.22E-03    0.25E-04    0.22E-06
  PAW_PBE Cu 22Jun2005                  :
  PAW_PBE Ir 06Sep2000                  :
  PAW_PBE O 08Apr2002                   :
  PAW_PBE H 15Jun2001                   :

 POSCAR: Cu-Ir-OOH
  positions in direct lattice
  velocities in cartesian coordinates
 exchange correlation table for  LEXCH =        8
   RHO(1)=    0.500       N(1)  =     2000
   RHO(2)=  100.500       N(2)  =     4000

 VTST: version 3.2, (02/03/18)

 CHAIN: initializing optimizer

 OPT: Using VASP Conjugate-Gradient optimizer
 CHAIN: Read ICHAIN            0

 POSCAR: Cu-Ir-OOH
  positions in direct lattice
  velocities in cartesian coordinates

 ion  position               nearest neighbor table
   1  0.000  0.000  0.212-   7 2.57   3 2.57   4 2.57   2 2.57   6 2.57   8 2.57  12 2.57  10 2.57
                            16 2.57
   2  0.333  0.000  0.212-   8 2.57   9 2.57   5 2.57   1 2.57   3 2.57  11 2.57   4 2.57  10 2.57
                            17 2.57
   3  0.667  0.000  0.212-   1 2.57   7 2.57   6 2.57   9 2.57   2 2.57  12 2.57   5 2.57  18 2.57
                            11 2.57
   4  0.000  0.333  0.212-   5 2.57   6 2.57   1 2.57   7 2.57   2 2.57  13 2.57   9 2.57  10 2.57
                            15 2.57
   5  0.333  0.333  0.212-   4 2.57   2 2.57   7 2.57  13 2.57   8 2.57   6 2.57   3 2.57  11 2.57
                            14 2.57
   6  0.667  0.333  0.212-   4 2.57   9 2.57  15 2.57   3 2.57   1 2.57   8 2.57  14 2.57   5 2.57
                            12 2.57
   7  0.000  0.667  0.212-   1 2.57   3 2.57  16 2.57  18 2.57   4 2.57   5 2.57   8 2.57   9 2.57
                            13 2.57
   8  0.333  0.667  0.212-   9 2.57   2 2.57  17 2.57   6 2.57   1 2.57   7 2.57   5 2.57  14 2.57
                            16 2.57
   9  0.667  0.667  0.212-   8 2.57   6 2.57   2 2.57  17 2.57   3 2.57   7 2.57   4 2.57  15 2.57
                            18 2.57
  10  0.111  0.111  0.294-  20 2.53  11 2.57  12 2.57  13 2.57   1 2.57   2 2.57   4 2.57  15 2.57
                            16 2.57  17 2.57  26 2.57  19 2.57
  11  0.444  0.111  0.294-  20 2.55  21 2.55  10 2.57  13 2.57   2 2.57  17 2.57  14 2.57  12 2.57
                             5 2.57   3 2.57  18 2.57  27 2.57
  12  0.778  0.111  0.294-  21 2.53  15 2.57  10 2.57  14 2.57  18 2.57   3 2.57   1 2.57  16 2.57
                            11 2.57   6 2.57  19 2.57  25 2.57
  13  0.111  0.444  0.294-  23 2.55  20 2.55  16 2.57  18 2.57  10 2.57  11 2.57  14 2.57   5 2.57
                             4 2.57   7 2.57  15 2.57  22 2.57
  14  0.444  0.444  0.294-  21 2.55  23 2.55  15 2.57  17 2.57  12 2.57  16 2.57  13 2.57  11 2.57
                             6 2.57   8 2.57   5 2.57  24 2.57
  15  0.778  0.444  0.294-  19 2.56  24 2.56  22 2.56  14 2.57  17 2.57  12 2.57   6 2.57  18 2.57
                            10 2.57   9 2.57  13 2.57   4 2.57
  16  0.111  0.778  0.294-  23 2.53  18 2.57  13 2.57   7 2.57  14 2.57  17 2.57  12 2.57  10 2.57
                             8 2.57   1 2.57  25 2.57  26 2.57
  17  0.444  0.778  0.294-  26 2.56  27 2.56  24 2.56  14 2.57  15 2.57   8 2.57   9 2.57  11 2.57
                            16 2.57  18 2.57  10 2.57   2 2.57
  18  0.778  0.778  0.294-  25 2.56  22 2.56  27 2.56  16 2.57  13 2.57   7 2.57  15 2.57  12 2.57
                            17 2.57   9 2.57   3 2.57  11 2.57
  19  0.888  0.223  0.377-  28 2.55  21 2.55  20 2.55  22 2.56  24 2.56  15 2.56  32 2.56  31 2.56
                            12 2.57  10 2.57  25 2.58  26 2.58
  20  0.221  0.221  0.376-  10 2.53  11 2.55  13 2.55  26 2.55  19 2.55  36 2.55  27 2.57  22 2.57
                            29 2.59  31 2.59  23 2.59  21 2.59
  21  0.558  0.221  0.376-  12 2.53  14 2.55  11 2.55  19 2.55  25 2.55  36 2.55  24 2.57  27 2.57
                            32 2.59  30 2.59  20 2.59  23 2.59
  22  0.888  0.556  0.377-  35 2.54  24 2.56  27 2.56  19 2.56  25 2.56  18 2.56  15 2.56  13 2.57
                            23 2.57  20 2.57  31 2.57  33 2.57
  23  0.221  0.558  0.376-  16 2.53  13 2.55  14 2.55  25 2.55  26 2.55  36 2.55  22 2.57  24 2.57
                            33 2.59  34 2.59  20 2.59  21 2.59
  24  0.556  0.556  0.377-  35 2.54  22 2.56  27 2.56  19 2.56  26 2.56  15 2.56  17 2.56  14 2.57
                            21 2.57  23 2.57  32 2.57  34 2.57
  25  0.888  0.888  0.377-  28 2.55  21 2.55  23 2.55  22 2.56  27 2.56  18 2.56  33 2.56  30 2.56
                            16 2.57  12 2.57  19 2.58  26 2.58
  26  0.223  0.888  0.377-  28 2.55  20 2.55  23 2.55  27 2.56  24 2.56  17 2.56  29 2.56  34 2.56
                            10 2.57  16 2.57  25 2.58  19 2.58
  27  0.556  0.888  0.377-  35 2.54  24 2.56  22 2.56  26 2.56  25 2.56  17 2.56  18 2.56  11 2.57
                            20 2.57  21 2.57  29 2.57  30 2.57
  28  0.000  0.000  0.458-  25 2.55  19 2.55  26 2.55  33 2.56  30 2.56  31 2.56  29 2.56  32 2.56
                            34 2.56
  29  0.333  0.999  0.459-  34 2.55  28 2.56  26 2.56  35 2.57  31 2.57  27 2.57  36 2.57  30 2.58
                            20 2.59
  30  0.668  0.999  0.459-  33 2.55  28 2.56  25 2.56  35 2.57  32 2.57  27 2.57  36 2.57  29 2.58
                            21 2.59
  31  0.999  0.333  0.459-  32 2.55  28 2.56  19 2.56  35 2.57  29 2.57  22 2.57  36 2.57  33 2.58
                            20 2.59
  32  0.668  0.333  0.459-  31 2.55  28 2.56  19 2.56  35 2.57  30 2.57  24 2.57  36 2.57  34 2.58
                            21 2.59
  33  0.999  0.668  0.459-  30 2.55  28 2.56  25 2.56  35 2.57  34 2.57  22 2.57  36 2.57  31 2.58
                            23 2.59
  34  0.333  0.668  0.459-  29 2.55  28 2.56  26 2.56  35 2.57  33 2.57  24 2.57  36 2.57  32 2.58
                            23 2.59
  35  0.667  0.667  0.458-  24 2.54  27 2.54  22 2.54  34 2.57  32 2.57  29 2.57  30 2.57  33 2.57
                            31 2.57
  36  0.333  0.333  0.457-  37 1.97  23 2.55  20 2.55  21 2.55  31 2.57  29 2.57  33 2.57  34 2.57
                            32 2.57  30 2.57
  37  0.335  0.326  0.535-  38 1.51  36 1.97
  38  0.265  0.188  0.556-  39 0.98  37 1.51
  39  0.355  0.132  0.586-  38 0.98

  LATTYP: Found a hexagonal cell.
 ALAT       =     7.6967864036
 C/A-ratio  =     3.2973366172

  Lattice vectors:

 A1 = (  -3.8483927580,  -6.6656128093,   0.0000000000)
 A2 = (   7.6967864037,   0.0000000000,   0.0000000000)
 A3 = (   0.0000000000,   0.0000000000,  25.3788956434)

Analysis of symmetry for initial positions (statically):
 Subroutine PRICEL returns:
 Original cell was already a primitive cell.

 Routine SETGRP: Setting up the symmetry group for a
 hexagonal supercell.

 Subroutine GETGRP returns: Found  1 space group operations
 (whereof  1 operations were pure point group operations)
 out of a pool of 24 trial point group operations.

The static configuration has the point symmetry C_1 .

Analysis of symmetry for dynamics (positions and initial velocities):
 Subroutine PRICEL returns:
 Original cell was already a primitive cell.

[...]

The dynamic configuration has the point symmetry C_1 .

Analysis of constrained symmetry for selective dynamics:
 Subroutine PRICEL returns:
[...]
     41      -4.4239      2.00000
     42      -4.3367      2.00000
     43      -4.2701      2.00000
     44      -4.2560      2.00000
     45      -4.2180      2.00000
     46      -4.1989      2.00000
     47      -4.1883      2.00000
     48      -4.1639      2.00000
     49      -4.1533      2.00000
     50      -4.1472      2.00000
     51      -4.0500      2.00000
     52      -3.9646      2.00000
     53      -3.9368      2.00000
     54      -3.9279      2.00000
     55      -3.9007      2.00000
     56      -3.8722      2.00000
     57      -3.8621      2.00000
     58      -3.8528      2.00000
     59      -3.8471      2.00000
     60      -3.8338      2.00000
[...]
    238       5.2124      0.00000
    239       5.2338      0.00000
    240       5.2590      0.00000
    241       5.4871      0.00000
    242       5.5805      0.00000
    243       5.6031      0.00000
    244       5.6511      0.00000
    245       5.8438      0.00000
    246       5.8962      0.00000
    247       5.9287      0.00000
    248       5.9736      0.00000
    249       6.0169      0.00000
    250       6.2899      0.00000
    251       6.6998      0.00000
    252       6.8209      0.00000

 soft charge-density along one line, spin component           1
         0         1         2         3         4         5         6         7         8         9
 total charge-density along one line

------------------------ aborting loop because EDIFF is reached ----------------------------------------

 total charge

# of ion       s       p       d       tot
    1        0.449   0.284   9.189   9.921
    2        0.448   0.285   9.186   9.919
    3        0.449   0.284   9.187   9.920
    4        0.449   0.285   9.186   9.920
    5        0.448   0.287   9.181   9.915
    6        0.450   0.284   9.186   9.920
    7        0.449   0.286   9.186   9.920
    8        0.450   0.285   9.185   9.920
    9        0.447   0.283   9.189   9.919
   10        0.441   0.372   9.176   9.989
   11        0.443   0.367   9.184   9.993
   12        0.442   0.374   9.174   9.989
   13        0.442   0.367   9.183   9.993
   14        0.443   0.367   9.184   9.993
   15        0.438   0.368   9.180   9.987
   16        0.443   0.372   9.174   9.989
   17        0.438   0.368   9.181   9.987
   18        0.437   0.370   9.179   9.986
   19        0.441   0.371   9.181   9.993
   20        0.449   0.393   9.173  10.015
   21        0.454   0.397   9.165  10.016
   22        0.434   0.369   9.186   9.989
   23        0.456   0.393   9.168  10.017
   24        0.433   0.370   9.184   9.988
   25        0.442   0.370   9.183   9.994
   26        0.440   0.372   9.180   9.992
   27        0.433   0.371   9.184   9.988
   28        0.453   0.288   9.195   9.935
   29        0.443   0.303   9.185   9.931
   30        0.448   0.302   9.189   9.939
   31        0.448   0.299   9.190   9.937
   32        0.448   0.302   9.187   9.938
   33        0.447   0.302   9.187   9.936
   34        0.451   0.302   9.186   9.940
   35        0.444   0.293   9.192   9.930
   36        0.694   0.589   7.049   8.331
   37        1.601   3.231   0.000   4.831
   38        1.594   3.376   0.000   4.970
   39        0.617   0.112   0.000   0.729
tot         20.075  18.993 328.454 367.522

  FORCE on cell =-STRESS in cart. coord.  units (eV):
  Direction    XX          YY          ZZ          XY          YZ          ZX
  Alpha Z   782.21977   782.21977   782.21977
  Ewald  257614.59100257583.89311************   132.19148   -93.52598   -36.74225
  Hartree270508.35937270493.23580************    77.77213   -28.09973   -20.93831
  E(xc)   -2350.69728 -2350.77643 -2354.40450     0.13482    -0.30027    -0.02046
  Local  ************************541136.61850  -196.50055   103.46401    56.47389
  n-local  -812.02956  -812.33463  -828.36230     4.24094    -1.81355    -1.76957
  augment  3358.89093  3359.28994  3376.08157    -1.67944     1.79714     0.60986
  Kinetic  3516.81377  3523.01861  3533.29888   -15.85399    18.19495     2.45955
  Fock        0.00000     0.00000     0.00000     0.00000     0.00000     0.00000
  Total      -4.33911    -4.38482     1.01965     0.30539    -0.28343     0.07271
  in kB      -5.33936    -5.39560     1.25470     0.37579    -0.34876     0.08947

 VOLUME and BASIS-vectors are now :
  energy-cutoff  :      500.00
  volume of cell :     1302.03
      direct lattice vectors                 reciprocal lattice vectors
     7.696786404  0.000000000  0.000000000     0.129924354 -0.075011849  0.000000000
     3.848392758  6.665612809  0.000000000     0.000000000  0.150023716  0.000000000
     0.000000000  0.000000000 25.378895643     0.000000000  0.000000000  0.039402818

  length of vectors
     7.696786404  7.696786404 25.378895643     0.150023716  0.150023716  0.039402818

 FORCES acting on ions
    electron-ion (+dipol)            ewald-force                    non-local-force                 convergence-correction
   0.790E-01 -.948E-02 0.391E+04   -.739E-01 -.406E-01 -.391E+04   0.793E-02 0.413E-01 -.288E+01   -.174E-01 0.336E-03 -.481E+00
   -.952E-01 0.214E+00 0.391E+04   -.218E-01 -.194E+00 -.391E+04   0.452E-01 0.321E-01 -.199E+01   0.776E-01 -.295E-01 -.509E+00
   -.304E-03 0.211E-01 0.391E+04   0.956E-01 -.143E+00 -.391E+04   -.474E-01 0.635E-01 -.182E+01   -.506E-01 0.736E-01 -.527E+00
   0.153E+00 -.203E+00 0.391E+04   -.180E+00 0.113E+00 -.391E+04   0.324E-01 0.471E-01 -.186E+01   0.132E-01 0.422E-01 -.489E+00
   -.207E+00 -.987E-01 0.391E+04   0.808E-01 0.809E-01 -.391E+04   0.653E-01 0.437E-01 -.172E+01   0.715E-01 -.179E-01 -.399E+00
   0.244E-01 -.143E+00 0.391E+04   0.994E-01 0.735E-01 -.391E+04   -.763E-01 -.909E-02 -.177E+01   -.717E-01 0.749E-01 -.511E+00
   0.122E+00 0.383E-01 0.391E+04   -.779E-01 0.119E+00 -.391E+04   -.251E-01 -.121E+00 -.171E+01   -.340E-02 -.487E-01 -.478E+00
   -.169E+00 0.123E+00 0.391E+04   0.838E-01 0.302E-01 -.391E+04   -.297E-01 -.941E-01 -.171E+01   0.884E-01 -.782E-01 -.466E+00
   0.163E+00 0.750E-01 0.391E+04   -.588E-02 -.396E-01 -.391E+04   -.339E-01 -.189E-01 -.237E+01   -.121E+00 -.192E-01 -.505E+00
   0.407E+01 0.223E+01 0.139E+04   -.370E+01 -.194E+01 -.139E+04   -.430E+00 -.296E+00 -.114E+01   0.687E-01 -.262E-02 -.437E+00
   -.524E+00 0.298E+00 0.139E+04   0.634E+00 -.729E+00 -.139E+04   -.712E-01 0.269E+00 -.484E+00   -.328E-01 0.109E+00 -.475E+00
   -.364E+01 0.204E+01 0.139E+04   0.307E+01 -.177E+01 -.139E+04   0.596E+00 -.311E+00 -.115E+01   -.275E-01 0.522E-01 -.476E+00
   0.134E+00 -.813E+00 0.139E+04   -.487E+00 0.110E+01 -.139E+04   0.193E+00 -.165E+00 -.279E+00   0.105E+00 -.891E-01 -.430E+00
   -.529E+00 -.471E+00 0.139E+04   0.927E+00 0.623E+00 -.138E+04   -.317E+00 -.138E+00 -.298E+00   -.433E-01 0.790E-02 -.468E+00
   0.569E+00 -.313E+00 0.139E+04   -.440E+00 0.898E-01 -.139E+04   -.558E-01 0.139E+00 -.781E+00   -.790E-01 0.564E-01 -.497E+00
   0.125E-01 -.395E+01 0.139E+04   -.171E+00 0.336E+01 -.139E+04   0.842E-01 0.646E+00 -.113E+01   0.896E-01 -.464E-01 -.456E+00
   0.373E-02 0.808E+00 0.139E+04   -.218E+00 -.671E+00 -.139E+04   0.163E+00 -.698E-01 -.857E+00   0.298E-01 -.603E-01 -.530E+00
   -.124E+00 0.105E+00 0.139E+04   0.388E+00 -.580E-01 -.139E+04   -.169E+00 -.253E-01 -.758E+00   -.754E-01 -.707E-02 -.520E+00
   0.438E+01 0.316E+00 -.116E+04   -.449E+01 -.397E+00 0.116E+04   0.135E+00 0.341E-01 0.829E+00   -.572E-02 0.170E-01 -.575E-01
   -.194E+02 -.133E+02 -.114E+04   0.203E+02 0.140E+02 0.114E+04   -.951E+00 -.685E+00 -.317E+00   0.710E-01 0.608E-01 -.710E-01
   0.148E+02 -.126E+02 -.115E+04   -.161E+02 0.134E+02 0.115E+04   0.128E+01 -.864E+00 -.823E+00   -.485E-01 0.917E-01 -.409E-01
   -.126E+02 0.512E+01 -.116E+04   0.118E+02 -.454E+01 0.116E+04   0.723E+00 -.477E+00 0.966E+00   0.156E+00 -.125E+00 -.116E+00
   -.188E+01 0.189E+02 -.115E+04   0.180E+01 -.206E+02 0.115E+04   0.368E-01 0.164E+01 -.753E+00   0.354E-01 -.672E-01 -.646E-01
   0.145E+02 0.907E+01 -.117E+04   -.137E+02 -.861E+01 0.116E+04   -.679E+00 -.373E+00 0.968E+00   -.150E+00 -.107E+00 -.187E+00
   -.166E+01 0.251E+00 -.116E+04   0.164E+01 -.210E+00 0.116E+04   0.223E-02 -.249E-01 0.838E+00   0.415E-01 -.161E-02 -.272E-01
   0.431E+01 0.398E+01 -.116E+04   -.435E+01 -.400E+01 0.116E+04   0.684E-01 0.661E-01 0.765E+00   -.305E-01 -.800E-02 -.103E+00
   -.265E+01 -.115E+02 -.116E+04   0.273E+01 0.106E+02 0.116E+04   -.637E-01 0.770E+00 0.100E+01   -.299E-01 0.159E+00 -.137E+00
   0.209E+02 0.108E+02 -.368E+04   -.211E+02 -.109E+02 0.368E+04   0.188E+00 0.495E-01 0.219E+01   -.196E-01 0.413E-01 0.379E+00
   0.535E+01 0.457E+02 -.361E+04   -.538E+01 -.467E+02 0.361E+04   -.101E+00 0.663E+00 0.325E+01   0.365E-01 0.129E+00 0.341E+00
   -.253E+02 0.117E+02 -.367E+04   0.255E+02 -.129E+02 0.367E+04   -.961E-01 0.764E+00 0.220E+01   -.147E-01 0.171E+00 0.332E+00
   0.349E+02 -.299E+02 -.364E+04   -.359E+02 0.302E+02 0.364E+04   0.628E+00 -.309E+00 0.271E+01   0.121E+00 -.413E-02 0.333E+00
   0.162E+01 -.876E+01 -.369E+04   -.955E+00 0.927E+01 0.369E+04   -.335E+00 -.366E+00 0.208E+01   -.109E+00 -.851E-01 0.299E+00
   -.181E+01 -.123E+02 -.369E+04   0.112E+01 0.132E+02 0.369E+04   0.501E+00 -.575E+00 0.212E+01   0.728E-01 -.138E+00 0.292E+00
   0.115E+01 0.118E+02 -.369E+04   -.647E+00 -.117E+02 0.369E+04   -.292E+00 0.633E-01 0.205E+01   -.861E-01 -.825E-01 0.279E+00
   0.691E+00 0.103E+02 -.369E+04   -.636E+00 -.102E+02 0.369E+04   -.609E-01 -.307E-01 0.238E+01   0.104E-01 -.237E-01 0.483E+00
   -.296E+02 -.310E+02 -.277E+04   0.297E+02 0.310E+02 0.277E+04   -.496E-01 0.101E+00 0.792E+00   -.149E-02 -.517E-02 0.204E+00
   -.139E+03 -.127E+03 -.237E+04   0.161E+03 0.147E+03 0.238E+04   -.212E+02 -.196E+02 -.126E+02   -.312E-01 -.366E-01 0.795E-01
   0.151E+03 0.912E+02 -.235E+04   -.189E+03 -.908E+02 0.233E+04   0.376E+02 -.339E+00 0.201E+02   0.373E-01 0.162E-01 0.477E-01
   -.331E+02 0.439E+02 -.427E+03   0.370E+02 -.470E+02 0.433E+03   -.390E+01 0.312E+01 -.643E+01   -.261E-02 0.562E-02 0.116E-02
   -.134E+02 0.164E+02 0.674E+01   0.711E-13 0.284E-13 0.796E-12   0.134E+02 -.163E+02 -.378E+00   0.754E-01 0.242E-01 -.639E+01

 POSITION                                       TOTAL-FORCE (eV/Angst)
      0.00000      0.00000      5.37156        -0.004787     -0.010775      0.008354
      2.56560      0.00000      5.37156         0.005409      0.020312      0.073225
      5.13119      0.00000      5.37156        -0.003057      0.012662      0.071099
      1.28280      2.22187      5.37156         0.018061     -0.002866      0.082900
      3.84839      2.22187      5.37156         0.010094      0.005627      0.034388
      6.41399      2.22187      5.37156        -0.024582     -0.005789      0.074231
      2.56560      4.44374      5.37156         0.014933     -0.014545      0.083223
      5.13119      4.44374      5.37156        -0.027346     -0.021894      0.069763
      7.69679      4.44374      5.37156         0.001021     -0.005106      0.028253
      1.28280      0.74062      7.46636         0.000275     -0.003538     -0.075625
      3.84839      0.74062      7.46636         0.005703     -0.055092     -0.102345
      6.41399      0.74062      7.46636         0.001415      0.005522     -0.039357
      2.56560      2.96249      7.46636        -0.055130      0.027017     -0.085240
      5.13119      2.96249      7.46636         0.037544      0.019760     -0.073013
      7.69679      2.96249      7.46636        -0.005911     -0.029557     -0.015243
      3.84839      5.18437      7.46636         0.015178      0.007616     -0.060701
      6.41399      5.18437      7.46636        -0.021138      0.004830     -0.021482
      8.97958      5.18437      7.46636         0.018663      0.012133     -0.002817
      7.69679      1.48769      9.56171         0.019244     -0.032402     -0.006370
      2.55203      1.47342      9.53141         0.043369      0.026648     -0.152211
      5.14476      1.47342      9.53141        -0.075717      0.032616     -0.083928
      8.97489      3.70583      9.56026         0.037528     -0.026298     -0.015000
      3.84839      3.71878      9.53141        -0.009364     -0.038900     -0.137123
      6.41868      3.70583      9.56026        -0.034970     -0.024504     -0.017731
     10.25680      5.92177      9.56171         0.018668      0.012686     -0.038324
      5.13677      5.92177      9.56171        -0.005447      0.037586      0.005119
      7.69679      5.91957      9.56026        -0.012756      0.025741      0.003373
      0.00000      0.00000     11.63002        -0.039685     -0.017280     -0.018998
      6.40663      6.66047     11.66109        -0.091367     -0.187766      0.079945
      8.98694      6.66047     11.66109         0.129713     -0.232546     -0.153458
      8.97145      2.21807     11.66109        -0.278004      0.033680     -0.136987
      6.42212      2.21807     11.66109         0.222211      0.048385     -0.093815
     10.26160      4.45269     11.66109        -0.114436      0.215514     -0.120371
      5.13197      4.45269     11.66109         0.125856      0.136373     -0.081549
      7.69679      4.44374     11.62915         0.003992     -0.009239      0.011385
      3.84839      2.22187     11.60012         0.068575      0.021488      0.910817
      3.82949      2.17236     13.57388        -0.009670      0.011383      0.013931
      2.76042      1.25027     14.10848         0.006057      0.013167     -0.010976
      3.23946      0.87733     14.88108         0.009855     -0.012651     -0.007346
    total drift:                                0.016396      0.090951     -0.025591

  FREE ENERGIE OF THE ION-ELECTRON SYSTEM (eV)
  free  energy   TOTEN  =      -145.27583184 eV

  energy  without entropy=     -145.27583184  energy(sigma->0) =     -145.27583184

 stress matrix after NEB project (eV)
     -4.33911      0.30539      0.07271
      0.30539     -4.38482     -0.28343
      0.07271     -0.28343      1.01965
  FORCES: max atom, RMS     0.020425    0.005211
  FORCE total and by dimension    0.032540    0.013931
  Stress total and by dimension    6.281081    4.384815
|           W    W    AA    RRRRR   N    N  II  N    N   GGGG   !!!           |
|           W    W   A  A   R    R  NN   N  II  NN   N  G    G  !!!           |
|           W    W  A    A  R    R  N N  N  II  N N  N  G       !!!           |
|           W WW W  AAAAAA  RRRRR   N  N N  II  N  N N  G  GGG   !            |
|           WW  WW  A    A  R   R   N   NN  II  N   NN  G    G                |
|           W    W  A    A  R    R  N    N  II  N    N   GGGG   !!!           |
|     Tetrahedron method does not include variations of the Fermi             |
|     occupations, so forces and stress will be inaccurate. We suggest        |
|     using a different smearing scheme ISMEAR = 1 or 2 for metals in         |
|     relaxations.                                                            |

 total charge

# of ion       s       p       d       tot
    1        0.449   0.284   9.189   9.921
    2        0.448   0.285   9.186   9.919
    3        0.449   0.284   9.187   9.920
    4        0.449   0.285   9.186   9.920
    5        0.448   0.287   9.181   9.915
    6        0.450   0.284   9.186   9.920
    7        0.449   0.286   9.186   9.920
    8        0.450   0.285   9.185   9.920
    9        0.447   0.283   9.189   9.919
   10        0.441   0.372   9.176   9.989
   11        0.443   0.367   9.184   9.993
   12        0.442   0.374   9.174   9.989
   13        0.442   0.367   9.183   9.993
   14        0.443   0.367   9.184   9.993
   15        0.438   0.368   9.180   9.987
   16        0.443   0.372   9.174   9.989
   17        0.438   0.368   9.181   9.987
   18        0.437   0.370   9.179   9.986
   19        0.441   0.371   9.181   9.993
   20        0.449   0.393   9.173  10.015
   21        0.454   0.397   9.165  10.016
   22        0.434   0.369   9.186   9.989
   23        0.456   0.393   9.168  10.017
   24        0.433   0.370   9.184   9.988
   25        0.442   0.370   9.183   9.994
   26        0.440   0.372   9.180   9.992
   27        0.433   0.371   9.184   9.988
   28        0.453   0.288   9.195   9.935
   29        0.443   0.303   9.185   9.931
   30        0.448   0.302   9.189   9.939
   31        0.448   0.299   9.190   9.937
   32        0.448   0.302   9.187   9.938
   33        0.447   0.302   9.187   9.936
   34        0.451   0.302   9.186   9.940
   35        0.444   0.293   9.192   9.930
   36        0.694   0.589   7.049   8.331
   37        1.601   3.231   0.000   4.831
   38        1.594   3.376   0.000   4.970
   39        0.617   0.112   0.000   0.729
tot         20.075  18.993 328.454 367.522

 BZINTS: Fermi energy:   -0.500260;  407.000000 electrons
         Band energy:-0.143081E+04;  BLOECHL correction:   -0.052631