 vasp.6.2.0 18Jan21 (build Jun 12 2021 23:27:24) complex

 executed on             LinuxIFC date 2022.05.30  17:39:42

 INCAR:
   ISMEAR = -5
   SIGMA = 0.1
   ISPIN = 1
   EDIFF = 1.d-5
   EDIFFG = -0.01
   NSW = 0
   NELM = 150
   ENCUT = 500
   ISIF = 2
   IBRION = 2
   LREAL = Auto
   ALGO = Fast
   ICHARG = 11
   LORBIT = 10
   LCHARG = .F.
   LWAVE = .F.

 POTCAR:    PAW_PBE Ag 02Apr2005
 POTCAR:    PAW_PBE Re 17Jan2003
 POTCAR:    PAW_PBE O 08Apr2002
|           W    W    AA    RRRRR   N    N  II  N    N   GGGG   !!!           |
|           W    W   A  A   R    R  NN   N  II  NN   N  G    G  !!!           |
|           W    W  A    A  R    R  N N  N  II  N N  N  G       !!!           |
|           W WW W  AAAAAA  RRRRR   N  N N  II  N  N N  G  GGG   !            |
|           WW  WW  A    A  R   R   N   NN  II  N   NN  G    G                |
|           W    W  A    A  R    R  N    N  II  N    N   GGGG   !!!           |
|     For optimal performance we recommend to set                             |
|       NCORE = 2 up to number-of-cores-per-socket                            |
|     This setting can greatly improve the performance of VASP for DFT.       |
|     The default, NCORE=1 might be grossly inefficient on modern             |
|     multi-core architectures or massively parallel machines. Do your        |
|     Unfortunately you need to use the default for GW and RPA                |
|     calculations (for HF NCORE is supported but not extensively tested      |
|     yet).                                                                   |

 POTCAR:    PAW_PBE Ag 02Apr2005
   VRHFIN =Ag : s1 d10

   TITEL  = PAW_PBE Ag 02Apr2005
   POMASS =  107.868; ZVAL   =   11.000    mass and valenz
   ENMAX  =  249.844; ENMIN  =  187.383 eV

 POTCAR:    PAW_PBE Re 17Jan2003
   VRHFIN =Re: 5p6s5d

   TITEL  = PAW_PBE Re 17Jan2003
   POMASS =  186.207; ZVAL   =    7.000    mass and valenz
   ENMAX  =  226.216; ENMIN  =  169.662 eV

 POTCAR:    PAW_PBE O 08Apr2002
   VRHFIN =O: s2p4

   TITEL  = PAW_PBE O 08Apr2002
   POMASS =   16.000; ZVAL   =    6.000    mass and valenz
   ENMAX  =  400.000; ENMIN  =  300.000 eV

 Optimization of the real space projectors (new method)

 maximal supplied QI-value         = 15.12
 optimisation between [QCUT,QGAM] = [ 11.34, 22.83] = [ 36.00,145.93] Ry
 Optimized for a Real-space Cutoff    1.43 Angstroem

   l    n(q)    QCUT    max X(q) W(low)/X(q) W(high)/X(q)  e(spline)
   2      9    11.338    53.897    0.16E-03    0.20E-03    0.28E-06
   2      9    11.338    52.416    0.16E-03    0.20E-03    0.29E-06
   0     10    11.338   122.045    0.31E-04    0.76E-04    0.15E-06
   0     10    11.338    73.629    0.30E-04    0.72E-04    0.15E-06
   1      9    11.338    15.255    0.20E-03    0.19E-04    0.17E-06
   1      9    11.338     9.562    0.16E-03    0.15E-04    0.14E-06
 Optimization of the real space projectors (new method)

[...]

   l    n(q)    QCUT    max X(q) W(low)/X(q) W(high)/X(q)  e(spline)
   2     10    11.327   884.633    0.22E-03    0.51E-03    0.88E-06
   2     10    11.327   796.723    0.22E-03    0.51E-03    0.88E-06
   0     11    11.327    65.348    0.44E-04    0.11E-03    0.75E-06
   0     11    11.327    39.642    0.40E-04    0.10E-03    0.69E-06
   1     10    11.327    13.988    0.15E-03    0.10E-03    0.19E-06
   1     10    11.327     8.682    0.11E-03    0.76E-04    0.14E-06
 Optimization of the real space projectors (new method)

 maximal supplied QI-value         = 24.76
 optimisation between [QCUT,QGAM] = [ 11.39, 22.77] = [ 36.31,145.25] Ry
 Optimized for a Real-space Cutoff    1.00 Angstroem

   l    n(q)    QCUT    max X(q) W(low)/X(q) W(high)/X(q)  e(spline)
   0      7    11.387    20.381    0.39E-03    0.13E-02    0.15E-06
   0      7    11.387    15.268    0.42E-03    0.14E-02    0.17E-06
   1      6    11.387     5.964    0.41E-03    0.11E-02    0.17E-06
   1      6    11.387     5.382    0.39E-03    0.87E-03    0.15E-06
  PAW_PBE Ag 02Apr2005                  :
  PAW_PBE Re 17Jan2003                  :
  PAW_PBE O 08Apr2002                   :

 POSCAR: Ag-Re-O2
  positions in direct lattice
  velocities in cartesian coordinates
 exchange correlation table for  LEXCH =        8
   RHO(1)=    0.500       N(1)  =     2000
   RHO(2)=  100.500       N(2)  =     4000

 VTST: version 3.2, (02/03/18)

 CHAIN: initializing optimizer

 OPT: Using VASP Conjugate-Gradient optimizer
 CHAIN: Read ICHAIN            0

 POSCAR: Ag-Re-O2
  positions in direct lattice
  velocities in cartesian coordinates

 ion  position               nearest neighbor table
   1  0.000  0.000  0.217-   2 2.93   8 2.93   7 2.93   6 2.93   4 2.93  12 2.93  16 2.93  10 2.93
                             3 2.93
   2  0.333  0.000  0.217-   1 2.93   8 2.93   9 2.93   3 2.93   4 2.93   5 2.93  10 2.93  17 2.93
                            11 2.93
   3  0.667  0.000  0.217-   9 2.93   2 2.93   5 2.93  11 2.93   7 2.93  18 2.93   1 2.93   6 2.93
                            12 2.93
   4  0.000  0.333  0.217-   5 2.93   6 2.93   2 2.93   1 2.93   7 2.93  13 2.93  15 2.93   9 2.93
                            10 2.93
   5  0.333  0.333  0.217-   4 2.93   3 2.93   7 2.93   2 2.93   8 2.93  14 2.93  13 2.93  11 2.93
                             6 2.93
   6  0.667  0.333  0.217-   4 2.93   9 2.93   1 2.93  15 2.93   8 2.93  12 2.93   3 2.93   5 2.93
                            14 2.93
   7  0.000  0.667  0.217-   8 2.93   1 2.93   5 2.93   3 2.93   4 2.93  16 2.93  18 2.93  13 2.93
                             9 2.93
   8  0.333  0.667  0.217-   7 2.93   1 2.93   2 2.93   9 2.93   5 2.93  16 2.93   6 2.93  17 2.93
                            14 2.93
   9  0.667  0.667  0.217-   3 2.93   2 2.93   8 2.93   6 2.93  17 2.93   4 2.93  15 2.93   7 2.93
                            18 2.93
  10  0.111  0.111  0.315-  20 2.89  12 2.93  16 2.93  15 2.93  17 2.93  13 2.93  11 2.93   2 2.93
                             1 2.93   4 2.93  19 2.93  26 2.93
  11  0.444  0.111  0.315-  21 2.89  20 2.89  27 2.93  14 2.93  17 2.93  18 2.93   3 2.93  12 2.93
                            13 2.93  10 2.93   5 2.93   2 2.93
  12  0.778  0.111  0.315-  21 2.89  10 2.93  16 2.93  18 2.93  15 2.93  11 2.93   1 2.93  14 2.93
                             6 2.93   3 2.93  25 2.93  19 2.93
  13  0.111  0.444  0.315-  20 2.89  23 2.89  22 2.93  15 2.93  14 2.93  18 2.93  10 2.93  11 2.93
                            16 2.93   4 2.93   5 2.93   7 2.93
  14  0.444  0.444  0.315-  23 2.89  21 2.89  24 2.93  13 2.93  11 2.93  16 2.93   5 2.93  12 2.93
                            17 2.93   8 2.93  15 2.93   6 2.93
  15  0.778  0.444  0.315-  24 2.92  22 2.92  19 2.93  13 2.93  10 2.93  12 2.93  17 2.93  18 2.93
                             4 2.93   6 2.93   9 2.93  14 2.93
  16  0.111  0.778  0.315-  23 2.89  18 2.93  12 2.93  10 2.93  14 2.93  17 2.93  13 2.93   7 2.93
                             8 2.93   1 2.93  26 2.93  25 2.93
  17  0.444  0.778  0.315-  27 2.92  24 2.92  26 2.93  11 2.93  10 2.93   9 2.93  18 2.93  15 2.93
                            16 2.93   2 2.93  14 2.93   8 2.93
  18  0.778  0.778  0.315-  22 2.92  27 2.92  25 2.93  16 2.93  12 2.93  13 2.93  11 2.93  17 2.93
                            15 2.93   7 2.93   3 2.93   9 2.93
  19  0.889  0.223  0.413-  28 2.91  24 2.93  22 2.93  15 2.93  20 2.93  21 2.93  10 2.93  12 2.93
                            26 2.94  25 2.94  32 2.97  31 2.97
  20  0.222  0.222  0.411-  36 2.76  10 2.89  13 2.89  11 2.89  19 2.93  26 2.93  21 2.93  23 2.93
                            27 2.94  22 2.94  31 2.94  29 2.94
  21  0.556  0.222  0.411-  36 2.76  12 2.89  11 2.89  14 2.89  25 2.93  19 2.93  20 2.93  23 2.93
                            27 2.94  24 2.94  30 2.94  32 2.94
  22  0.888  0.556  0.413-  35 2.91  24 2.92  27 2.92  18 2.92  15 2.92  13 2.93  25 2.93  19 2.93
                            23 2.94  20 2.94  33 2.95  31 2.95
  23  0.222  0.556  0.411-  36 2.76  16 2.89  14 2.89  13 2.89  26 2.93  25 2.93  21 2.93  20 2.93
                            22 2.94  24 2.94  34 2.94  33 2.94
  24  0.556  0.556  0.413-  35 2.91  27 2.92  22 2.92  15 2.92  17 2.92  14 2.93  19 2.93  26 2.93
                            23 2.94  21 2.94  32 2.95  34 2.95
  25  0.889  0.889  0.413-  28 2.91  22 2.93  27 2.93  18 2.93  23 2.93  21 2.93  16 2.93  12 2.93
                            26 2.94  19 2.94  33 2.97  30 2.97
  26  0.223  0.889  0.413-  28 2.91  27 2.93  24 2.93  17 2.93  23 2.93  20 2.93  16 2.93  10 2.93
                            25 2.94  19 2.94  34 2.97  29 2.97
  27  0.556  0.888  0.413-  35 2.91  24 2.92  22 2.92  17 2.92  18 2.92  11 2.93  26 2.93  25 2.93
                            20 2.94  21 2.94  29 2.95  30 2.95
  28  0.000  0.000  0.510-  26 2.91  25 2.91  19 2.91  29 2.96  34 2.96  33 2.96  32 2.96  31 2.96
                            30 2.96
  29  0.333  0.008  0.512-  31 2.86  30 2.87  36 2.88  20 2.94  27 2.95  28 2.96  26 2.97  35 2.97
                            34 3.06
  30  0.659  0.008  0.512-  32 2.86  29 2.87  36 2.88  21 2.94  27 2.95  28 2.96  25 2.97  35 2.97
                            33 3.06
  31  0.008  0.333  0.512-  37 2.67  29 2.86  33 2.87  36 2.88  20 2.94  22 2.95  28 2.96  19 2.97
                            35 2.97  32 3.06
  32  0.659  0.333  0.512-  38 2.67  30 2.86  34 2.87  36 2.88  21 2.94  24 2.95  28 2.96  19 2.97
                            35 2.97  31 3.06
  33  0.008  0.659  0.512-  34 2.86  31 2.87  36 2.88  23 2.94  22 2.95  28 2.96  25 2.97  35 2.97
                            30 3.06
  34  0.333  0.659  0.512-  33 2.86  32 2.87  36 2.88  23 2.94  24 2.95  28 2.96  26 2.97  35 2.97
                            29 3.06
  35  0.667  0.667  0.510-  24 2.91  27 2.91  22 2.91  30 2.97  32 2.97  29 2.97  34 2.97  31 2.97
                            33 2.97
  36  0.333  0.333  0.501-  38 2.00  37 2.00  21 2.76  20 2.76  23 2.76  31 2.88  30 2.88  33 2.88
                            29 2.88  34 2.88  32 2.88
  37  0.252  0.330  0.577-  38 1.46  36 2.00  31 2.67
  38  0.418  0.330  0.577-  37 1.46  36 2.00  32 2.67

  LATTYP: Found a hexagonal cell.
 ALAT       =     8.7913665772
 C/A-ratio  =     2.7711238095

  Lattice vectors:

 A1 = (  -4.3956832886,  -7.6135467898,   0.0000000000)
 A2 = (   8.7913665771,   0.0000000000,   0.0000000000)
 A3 = (   0.0000000000,   0.0000000000,  24.3619652401)

Analysis of symmetry for initial positions (statically):
 Subroutine PRICEL returns:
 Original cell was already a primitive cell.

 Routine SETGRP: Setting up the symmetry group for a
 hexagonal supercell.

 Subroutine GETGRP returns: Found  2 space group operations
 (whereof  2 operations were pure point group operations)
 out of a pool of 24 trial point group operations.

The static configuration has the point symmetry C_1h.

Analysis of symmetry for dynamics (positions and initial velocities):
 Subroutine PRICEL returns:
 Original cell was already a primitive cell.

[...]

The dynamic configuration has the point symmetry C_1h.

Analysis of constrained symmetry for selective dynamics:
 Subroutine PRICEL returns:
 Original cell was already a primitive cell.

[...]
     33      -5.0634      2.00000
     34      -5.0456      2.00000
     35      -5.0300      2.00000
     36      -5.0177      2.00000
     37      -4.9754      2.00000
     38      -4.9576      2.00000
     39      -4.9369      2.00000
     40      -4.9199      2.00000
     41      -4.9127      2.00000
     42      -4.8577      2.00000
     43      -4.8485      2.00000
     44      -4.8315      2.00000
     45      -4.8216      2.00000
     46      -4.8066      2.00000
     47      -4.7929      2.00000
     48      -4.7131      2.00000
     49      -4.6861      2.00000
     50      -4.6764      2.00000
     51      -4.6705      2.00000
     52      -4.6669      2.00000
     53      -4.6607      2.00000
     54      -4.6583      2.00000
     55      -4.6480      2.00000
     56      -4.6410      2.00000
     57      -4.6248      2.00000
     58      -4.5589      2.00000
     59      -4.5528      2.00000
     60      -4.5464      2.00000
[...]
    238       5.5218      0.00000
    239       5.6478      0.00000
    240       5.7377      0.00000
    241       5.8338      0.00000
    242       5.8874      0.00000
    243       5.9307      0.00000
    244       6.0693      0.00000
    245       6.4291      0.00000
    246       6.4356      0.00000
    247       6.6342      0.00000
    248       6.6635      0.00000
    249       6.7261      0.00000
    250       6.7719      0.00000
    251       6.8441      0.00000
    252       6.8573      0.00000

 soft charge-density along one line, spin component           1
         0         1         2         3         4         5         6         7         8         9
 total charge-density along one line

------------------------ aborting loop because EDIFF is reached ----------------------------------------

 total charge

# of ion       s       p       d       tot
    1        0.420   0.200   9.177   9.798
    2        0.415   0.204   9.178   9.796
    3        0.415   0.204   9.178   9.796
    4        0.417   0.203   9.177   9.797
    5        0.418   0.203   9.175   9.796
    6        0.417   0.203   9.177   9.797
    7        0.417   0.204   9.177   9.797
    8        0.417   0.204   9.177   9.797
    9        0.414   0.203   9.178   9.795
   10        0.410   0.268   9.163   9.841
   11        0.406   0.269   9.169   9.845
   12        0.410   0.268   9.163   9.841
   13        0.406   0.270   9.168   9.844
   14        0.406   0.270   9.168   9.844
   15        0.402   0.268   9.166   9.836
   16        0.409   0.270   9.161   9.841
   17        0.401   0.270   9.166   9.837
   18        0.401   0.270   9.166   9.837
   19        0.401   0.262   9.169   9.833
   20        0.438   0.309   9.137   9.883
   21        0.438   0.309   9.137   9.883
   22        0.391   0.274   9.167   9.832
   23        0.439   0.319   9.125   9.883
   24        0.391   0.274   9.167   9.832
   25        0.401   0.264   9.168   9.833
   26        0.401   0.264   9.168   9.833
   27        0.392   0.270   9.171   9.834
   28        0.418   0.195   9.178   9.791
   29        0.413   0.216   9.175   9.803
   30        0.413   0.216   9.175   9.803
   31        0.410   0.221   9.176   9.806
   32        0.410   0.221   9.176   9.806
   33        0.413   0.216   9.174   9.803
   34        0.413   0.216   9.174   9.803
   35        0.410   0.198   9.178   9.786
   36        0.538   0.473   4.705   5.715
   37        1.611   3.247   0.000   4.857
   38        1.611   3.247   0.000   4.857
tot         18.150  15.460 325.601 359.211

  FORCE on cell =-STRESS in cart. coord.  units (eV):
  Direction    XX          YY          ZZ          XY          YZ          ZX
  Alpha Z   715.51435   715.51435   715.51435
  Ewald  153804.59575153425.58124************     0.00006     1.31899     0.00008
  Hartree163792.61044163604.63300************     0.00002     2.57401     0.00003
  E(xc)   -2119.95164 -2120.67958 -2125.51606    -0.00002    -0.04806     0.00000
  Local  ************************328452.48377     0.00103    -4.15346    -0.00021
  n-local  -379.85542  -388.06657  -386.60558     2.85908     0.21439     0.10035
  augment  3238.19278  3242.72256  3250.90913    -0.00016     0.00703    -0.00005
  Kinetic  5102.29867  5149.81253  5143.95387     0.99102     0.28343    -0.00409
  Fock        0.00000     0.00000     0.00000     0.00000     0.00000     0.00000
  Total      -5.16413    -7.02639    -0.58034    -0.00000     0.19633     0.00000
  in kB      -5.07402    -6.90379    -0.57021    -0.00000     0.19290     0.00000

 VOLUME and BASIS-vectors are now :
  energy-cutoff  :      500.00
  volume of cell :     1630.63
      direct lattice vectors                 reciprocal lattice vectors
     8.791366577  0.000000000  0.000000000     0.113747958 -0.065672414  0.000000000
     4.395683289  7.613546790  0.000000000     0.000000000  0.131344829  0.000000000
     0.000000000  0.000000000 24.361965240     0.000000000  0.000000000  0.041047592

  length of vectors
     8.791366577  8.791366577 24.361965240     0.131344829  0.131344829  0.041047592

 FORCES acting on ions
    electron-ion (+dipol)            ewald-force                    non-local-force                 convergence-correction
   0.461E-04 -.917E-01 0.270E+04   -.954E-04 -.333E-01 -.270E+04   0.357E-12 0.544E-01 -.215E+01   -.272E-04 0.587E-01 0.157E-01
   0.455E+00 0.468E+00 0.270E+04   -.491E+00 -.624E+00 -.270E+04   0.475E-01 0.142E+00 -.160E+01   -.145E-01 0.231E-01 -.391E-01
   -.455E+00 0.468E+00 0.270E+04   0.491E+00 -.624E+00 -.270E+04   -.475E-01 0.142E+00 -.160E+01   0.139E-01 0.249E-01 -.386E-01
   0.692E+00 0.817E-01 0.270E+04   -.757E+00 -.122E+00 -.270E+04   0.921E-01 -.125E-01 -.159E+01   -.188E-01 0.481E-01 0.204E-01
   -.795E-05 -.884E-01 0.270E+04   0.980E-04 0.863E-02 -.270E+04   0.331E-12 0.505E-01 -.144E+01   0.615E-02 0.317E-01 -.192E-01
   -.692E+00 0.818E-01 0.270E+04   0.757E+00 -.122E+00 -.270E+04   -.921E-01 -.125E-01 -.159E+01   0.175E-01 0.491E-01 0.210E-01
   0.292E+00 -.513E+00 0.270E+04   -.265E+00 0.745E+00 -.270E+04   0.485E-01 -.159E+00 -.155E+01   -.603E-01 -.738E-01 0.118E-01
   -.292E+00 -.513E+00 0.270E+04   0.265E+00 0.745E+00 -.270E+04   -.485E-01 -.159E+00 -.155E+01   0.619E-01 -.747E-01 0.119E-01
   0.361E-04 0.548E-01 0.270E+04   0.792E-04 0.248E-01 -.270E+04   -.275E-13 -.419E-02 -.188E+01   -.665E-02 -.720E-01 0.152E-01
   0.646E+01 0.387E+01 0.945E+03   -.593E+01 -.365E+01 -.945E+03   -.490E+00 -.253E+00 -.794E+00   -.390E-01 0.313E-01 0.113E+00
   -.261E-04 0.592E+01 0.952E+03   0.409E-04 -.622E+01 -.952E+03   0.145E-11 0.221E+00 -.225E+00   0.582E-02 0.145E-02 0.137E+00
   -.646E+01 0.387E+01 0.945E+03   0.593E+01 -.365E+01 -.945E+03   0.490E+00 -.253E+00 -.794E+00   0.381E-01 0.319E-01 0.112E+00
   0.506E+01 -.311E+01 0.952E+03   -.517E+01 0.320E+01 -.952E+03   0.159E+00 -.100E+00 -.322E+00   -.916E-01 0.438E-01 0.120E+00
   -.506E+01 -.311E+01 0.952E+03   0.517E+01 0.320E+01 -.952E+03   -.159E+00 -.100E+00 -.322E+00   0.102E+00 0.433E-01 0.118E+00
   0.159E-04 0.891E+00 0.945E+03   -.109E-03 -.913E+00 -.945E+03   -.297E-12 -.452E-01 -.740E+00   -.107E-02 0.303E-01 0.127E+00
   -.818E-05 -.763E+01 0.945E+03   0.205E-04 0.686E+01 -.944E+03   0.486E-11 0.740E+00 -.959E+00   0.440E-05 0.301E-01 0.666E-01
   0.879E+00 -.359E+00 0.945E+03   -.956E+00 0.582E+00 -.944E+03   0.507E-01 -.111E+00 -.666E+00   0.135E-01 -.988E-01 0.124E+00
   -.879E+00 -.359E+00 0.945E+03   0.956E+00 0.582E+00 -.944E+03   -.507E-01 -.111E+00 -.666E+00   -.136E-01 -.976E-01 0.124E+00
   0.399E-04 0.177E+01 -.844E+03   -.129E-03 -.194E+01 0.843E+03   0.483E-12 0.735E-01 0.836E+00   0.690E-02 0.608E-01 0.253E+00
   0.106E+02 0.695E+01 -.798E+03   -.901E+01 -.637E+01 0.799E+03   -.154E+01 -.690E+00 -.129E+01   -.129E+00 0.454E-01 0.201E+00
   -.106E+02 0.695E+01 -.798E+03   0.901E+01 -.637E+01 0.799E+03   0.154E+01 -.690E+00 -.129E+01   0.117E+00 0.455E-01 0.201E+00
   0.356E+01 -.355E+01 -.832E+03   -.370E+01 0.378E+01 0.831E+03   0.262E+00 -.242E+00 0.655E+00   -.676E-01 -.185E-01 0.243E+00
   -.479E-04 -.145E+02 -.800E+03   0.426E-04 0.125E+02 0.802E+03   0.133E-10 0.202E+01 -.158E+01   -.572E-02 -.152E-01 0.275E+00
   -.356E+01 -.355E+01 -.832E+03   0.370E+01 0.378E+01 0.831E+03   -.262E+00 -.242E+00 0.655E+00   0.690E-01 -.161E-01 0.244E+00
   -.946E+00 0.380E+00 -.847E+03   0.115E+01 -.349E+00 0.846E+03   -.141E+00 -.933E-02 0.801E+00   -.572E-01 -.880E-02 0.326E+00
   0.946E+00 0.380E+00 -.847E+03   -.115E+01 -.349E+00 0.846E+03   0.141E+00 -.933E-02 0.801E+00   0.682E-01 -.736E-02 0.326E+00
   0.199E-04 0.423E+01 -.834E+03   0.109E-03 -.477E+01 0.833E+03   0.457E-11 0.697E+00 0.735E+00   -.189E-02 -.854E-01 0.264E+00
   0.538E-04 0.629E+01 -.260E+04   -.116E-03 -.638E+01 0.260E+04   0.650E-12 0.989E-01 0.174E+01   -.606E-03 -.108E-01 0.888E-01
   0.364E+02 0.803E+02 -.257E+04   -.359E+02 -.801E+02 0.257E+04   -.650E+00 -.489E+00 0.227E+01   -.385E-01 -.710E-01 0.139E+00
   -.364E+02 0.803E+02 -.257E+04   0.359E+02 -.801E+02 0.257E+04   0.650E+00 -.489E+00 0.227E+01   0.474E-01 -.701E-01 0.140E+00
   0.988E+02 -.179E+01 -.255E+04   -.989E+02 0.201E+01 0.255E+04   -.621E+00 -.210E+00 0.264E+01   0.817E-01 0.141E-01 0.518E-01
   -.988E+02 -.179E+01 -.255E+04   0.989E+02 0.201E+01 0.255E+04   0.621E+00 -.210E+00 0.264E+01   -.712E-01 0.154E-01 0.531E-01
   0.344E+02 -.764E+02 -.257E+04   -.343E+02 0.762E+02 0.257E+04   -.339E+00 0.623E+00 0.220E+01   0.173E-01 -.126E-01 0.639E-01
   -.344E+02 -.764E+02 -.257E+04   0.343E+02 0.762E+02 0.257E+04   0.339E+00 0.623E+00 0.220E+01   -.551E-02 -.122E-01 0.644E-01
   0.199E-04 -.512E+01 -.260E+04   0.107E-03 0.502E+01 0.260E+04   0.292E-12 0.444E-01 0.198E+01   -.767E-02 0.410E-01 0.504E-01
   -.133E-04 -.429E+01 -.134E+04   0.677E-04 0.402E+01 0.134E+04   0.227E-11 0.345E+00 0.215E+01   -.213E-03 0.764E-01 0.153E+00
   0.190E+03 -.774E+00 -.172E+04   -.222E+03 0.653E+00 0.174E+04   0.321E+02 0.117E+00 -.197E+02   -.222E-02 0.554E-02 0.380E-01
   -.190E+03 -.774E+00 -.172E+04   0.222E+03 0.653E+00 0.174E+04   -.321E+02 0.117E+00 -.197E+02   0.182E-02 0.563E-02 0.381E-01
   0.693E-03 -.149E+01 0.351E+02   0.568E-13 -.201E-12 -.273E-11   0.988E-11 0.151E+01 -.394E+02   0.348E-01 0.122E-01 0.425E+01

 POSITION                                       TOTAL-FORCE (eV/Angst)
      0.00000      0.00000      5.28219        -0.000000     -0.012663     -0.046349
      2.93046      0.00000      5.28219        -0.002350      0.009602      0.034553
      5.86091      0.00000      5.28219         0.002350      0.009602      0.034553
      1.46523      2.53785      5.28219         0.008583     -0.004677      0.023755
      4.39568      2.53785      5.28219         0.000000      0.001613      0.002015
      7.32614      2.53785      5.28219        -0.008583     -0.004677      0.023755
      2.93046      5.07570      5.28219         0.013800     -0.001309      0.020421
      5.86091      5.07570      5.28219        -0.013800     -0.001309      0.020421
      8.79137      5.07570      5.28219         0.000000      0.002757     -0.001906
      1.46523      0.84595      7.67490        -0.002424      0.000423     -0.019987
      4.39568      0.84595      7.67490        -0.000000     -0.073400     -0.108561
      7.32614      0.84595      7.67490         0.002424      0.000423     -0.019987
      2.93046      3.38380      7.67490        -0.050950      0.033608     -0.080326
      5.86091      3.38380      7.67490         0.050950      0.033608     -0.080326
      8.79137      3.38380      7.67490        -0.000000     -0.037280      0.023171
      4.39568      5.92165      7.67490         0.000000      0.000511      0.008818
      7.32614      5.92165      7.67490        -0.012406      0.013221      0.020353
     10.25659      5.92165      7.67490         0.012406      0.013221      0.020353
      8.79137      1.69725     10.06774        -0.000000     -0.033305      0.021804
      2.92950      1.69135     10.02116        -0.023110     -0.063992     -0.116460
      5.86187      1.69135     10.02116         0.023110     -0.063992     -0.116460
     10.25061      4.23320     10.05696         0.058109     -0.024573      0.035084
      4.39568      4.23086     10.02116         0.000000      0.004825     -0.044320
      7.33212      4.23320     10.05696        -0.058109     -0.024573      0.035084
     11.71719      6.76492     10.06774         0.002917      0.012421      0.021278
      5.86555      6.76492     10.06774        -0.002917      0.012421      0.021278
      8.79137      6.76069     10.05696         0.000000      0.068782      0.017210
      0.00000      0.00000     12.43040        -0.000000     -0.009337      0.044448
      2.96174      0.05879     12.46433        -0.161091     -0.359885     -0.225608
      5.82963      0.05879     12.46433         0.161091     -0.359885     -0.225608
      1.53179      2.53554     12.46433        -0.643518      0.021863     -0.416487
      7.25958      2.53554     12.46433         0.643518      0.021863     -0.416487
      2.96573      5.01921     12.46433        -0.167353      0.336931     -0.208825
      5.82563      5.01921     12.46433         0.167353      0.336931     -0.208825
      8.79137      5.07570     12.42552        -0.000000     -0.011236      0.067679
      4.39568      2.53785     12.19879         0.000000      0.149994      1.858636
      3.66679      2.50945     14.06603         0.032098      0.000736     -0.009073
      5.12458      2.50945     14.06603        -0.032098      0.000736     -0.009073
    total drift:                                0.035468      0.027638     -0.079478

  FREE ENERGIE OF THE ION-ELECTRON SYSTEM (eV)
  free  energy   TOTEN  =      -109.25075420 eV

  energy  without entropy=     -109.25075420  energy(sigma->0) =     -109.25075420

 stress matrix after NEB project (eV)
     -5.16413     -0.00000      0.00000
     -0.00000     -7.02639      0.19633
      0.00000      0.19633     -0.58034
  FORCES: max atom, RMS     0.033363    0.007654
  FORCE total and by dimension    0.047183    0.032098
  Stress total and by dimension    8.743706    7.026395
|           W    W    AA    RRRRR   N    N  II  N    N   GGGG   !!!           |
|           W    W   A  A   R    R  NN   N  II  NN   N  G    G  !!!           |
|           W    W  A    A  R    R  N N  N  II  N N  N  G       !!!           |
|           W WW W  AAAAAA  RRRRR   N  N N  II  N  N N  G  GGG   !            |
|           WW  WW  A    A  R   R   N   NN  II  N   NN  G    G                |
|           W    W  A    A  R    R  N    N  II  N    N   GGGG   !!!           |
|     Tetrahedron method does not include variations of the Fermi             |
|     occupations, so forces and stress will be inaccurate. We suggest        |
|     using a different smearing scheme ISMEAR = 1 or 2 for metals in         |
|     relaxations.                                                            |

 total charge

# of ion       s       p       d       tot
    1        0.420   0.200   9.177   9.798
    2        0.415   0.204   9.178   9.796
    3        0.415   0.204   9.178   9.796
    4        0.417   0.203   9.177   9.797
    5        0.418   0.203   9.175   9.796
    6        0.417   0.203   9.177   9.797
    7        0.417   0.204   9.177   9.797
    8        0.417   0.204   9.177   9.797
    9        0.414   0.203   9.178   9.795
   10        0.410   0.268   9.163   9.841
   11        0.406   0.269   9.169   9.845
   12        0.410   0.268   9.163   9.841
   13        0.406   0.270   9.168   9.844
   14        0.406   0.270   9.168   9.844
   15        0.402   0.268   9.166   9.836
   16        0.409   0.270   9.161   9.841
   17        0.401   0.270   9.166   9.837
   18        0.401   0.270   9.166   9.837
   19        0.401   0.262   9.169   9.833
   20        0.438   0.309   9.137   9.883
   21        0.438   0.309   9.137   9.883
   22        0.391   0.274   9.167   9.832
   23        0.439   0.319   9.125   9.883
   24        0.391   0.274   9.167   9.832
   25        0.401   0.264   9.168   9.833
   26        0.401   0.264   9.168   9.833
   27        0.392   0.270   9.171   9.834
   28        0.418   0.195   9.178   9.791
   29        0.413   0.216   9.175   9.803
   30        0.413   0.216   9.175   9.803
   31        0.410   0.221   9.176   9.806
   32        0.410   0.221   9.176   9.806
   33        0.413   0.216   9.174   9.803
   34        0.413   0.216   9.174   9.803
   35        0.410   0.198   9.178   9.786
   36        0.538   0.473   4.705   5.715
   37        1.611   3.247   0.000   4.857
   38        1.611   3.247   0.000   4.857
tot         18.150  15.460 325.601 359.211

 BZINTS: Fermi energy:    0.323822;  404.000000 electrons
         Band energy:-0.158520E+04;  BLOECHL correction:   -0.030716