 vasp.6.2.0 18Jan21 (build Jun 12 2021 23:27:24) complex

 executed on             LinuxIFC date 2022.05.28  02:54:29

 INCAR:
   ISMEAR = -5
   SIGMA = 0.1
   ISPIN = 1
   EDIFF = 1.d-5
   EDIFFG = -0.01
   NSW = 0
   NELM = 150
   ENCUT = 500
   ISIF = 2
   IBRION = 2
   LREAL = Auto
   ALGO = Fast
   ICHARG = 11
   LORBIT = 10
   LCHARG = .F.
   LWAVE = .F.

 POTCAR:    PAW_PBE Cu 22Jun2005
 POTCAR:    PAW_PBE Pt 04Feb2005
 POTCAR:    PAW_PBE H 15Jun2001
 POTCAR:    PAW_PBE O 08Apr2002
|           W    W    AA    RRRRR   N    N  II  N    N   GGGG   !!!           |
|           W    W   A  A   R    R  NN   N  II  NN   N  G    G  !!!           |
|           W    W  A    A  R    R  N N  N  II  N N  N  G       !!!           |
|           W WW W  AAAAAA  RRRRR   N  N N  II  N  N N  G  GGG   !            |
|           WW  WW  A    A  R   R   N   NN  II  N   NN  G    G                |
|           W    W  A    A  R    R  N    N  II  N    N   GGGG   !!!           |
|     For optimal performance we recommend to set                             |
|       NCORE = 2 up to number-of-cores-per-socket                            |
|     This setting can greatly improve the performance of VASP for DFT.       |
|     The default, NCORE=1 might be grossly inefficient on modern             |
|     multi-core architectures or massively parallel machines. Do your        |
|     Unfortunately you need to use the default for GW and RPA                |
|     calculations (for HF NCORE is supported but not extensively tested      |
|     yet).                                                                   |

 POTCAR:    PAW_PBE Cu 22Jun2005
   VRHFIN =Cu: d10 p1

   TITEL  = PAW_PBE Cu 22Jun2005
   POMASS =   63.546; ZVAL   =   11.000    mass and valenz
   ENMAX  =  295.446; ENMIN  =  221.585 eV

 POTCAR:    PAW_PBE Pt 04Feb2005
   VRHFIN =Pt: s1d9

   TITEL  = PAW_PBE Pt 04Feb2005
   POMASS =  195.080; ZVAL   =   10.000    mass and valenz
   ENMAX  =  230.283; ENMIN  =  172.712 eV

 POTCAR:    PAW_PBE H 15Jun2001
   VRHFIN =H: ultrasoft test

   TITEL  = PAW_PBE H 15Jun2001
   POMASS =    1.000; ZVAL   =    1.000    mass and valenz
   ENMAX  =  250.000; ENMIN  =  200.000 eV

 POTCAR:    PAW_PBE O 08Apr2002
   VRHFIN =O: s2p4

   TITEL  = PAW_PBE O 08Apr2002
   POMASS =   16.000; ZVAL   =    6.000    mass and valenz
   ENMAX  =  400.000; ENMIN  =  300.000 eV

 Optimization of the real space projectors (new method)

 maximal supplied QI-value         = 16.25
 optimisation between [QCUT,QGAM] = [ 11.38, 22.75] = [ 36.24,144.96] Ry
 Optimized for a Real-space Cutoff    1.52 Angstroem

   l    n(q)    QCUT    max X(q) W(low)/X(q) W(high)/X(q)  e(spline)
   2      9    11.376     4.610    0.21E-03    0.10E-03    0.26E-06
   2      9    11.376     8.522    0.33E-03    0.16E-03    0.37E-06
   0     10    11.376    51.609    0.62E-04    0.20E-04    0.13E-06
   0     10    11.376    27.747    0.54E-04    0.20E-04    0.13E-06
   1     10    11.376    20.408    0.13E-04    0.99E-04    0.19E-06
   1     10    11.376    13.425    0.12E-04    0.87E-04    0.17E-06
 Optimization of the real space projectors (new method)

[...]

   l    n(q)    QCUT    max X(q) W(low)/X(q) W(high)/X(q)  e(spline)
   0      8    11.287    19.460    0.40E-03    0.73E-03    0.16E-06
   0      8    11.287    12.209    0.38E-03    0.70E-03    0.15E-06
   1      7    11.287     4.655    0.22E-03    0.25E-04    0.22E-06
 Optimization of the real space projectors (new method)

 maximal supplied QI-value         = 24.76
 optimisation between [QCUT,QGAM] = [ 11.39, 22.77] = [ 36.31,145.25] Ry
 Optimized for a Real-space Cutoff    1.00 Angstroem

   l    n(q)    QCUT    max X(q) W(low)/X(q) W(high)/X(q)  e(spline)
   0      7    11.387    20.381    0.39E-03    0.13E-02    0.15E-06
   0      7    11.387    15.268    0.42E-03    0.14E-02    0.17E-06
   1      6    11.387     5.964    0.41E-03    0.11E-02    0.17E-06
   1      6    11.387     5.382    0.39E-03    0.87E-03    0.15E-06
  PAW_PBE Cu 22Jun2005                  :
  PAW_PBE Pt 04Feb2005                  :
  PAW_PBE H 15Jun2001                   :
  PAW_PBE O 08Apr2002                   :

 POSCAR: Cu-Pt-H2O
  positions in direct lattice
  velocities in cartesian coordinates
 exchange correlation table for  LEXCH =        8
   RHO(1)=    0.500       N(1)  =     2000
   RHO(2)=  100.500       N(2)  =     4000

 VTST: version 3.2, (02/03/18)

 CHAIN: initializing optimizer

 OPT: Using VASP Conjugate-Gradient optimizer
 CHAIN: Read ICHAIN            0

 POSCAR: Cu-Pt-H2O
  positions in direct lattice
  velocities in cartesian coordinates

 ion  position               nearest neighbor table
   1  0.000  0.000  0.221-   7 2.57   3 2.57   4 2.57   2 2.57   6 2.57   8 2.57  12 2.57  10 2.57
                            16 2.57
   2  0.333  0.000  0.221-   8 2.57   9 2.57   5 2.57   1 2.57   3 2.57  11 2.57   4 2.57  10 2.57
                            17 2.57
   3  0.667  0.000  0.221-   1 2.57   7 2.57   6 2.57   9 2.57   2 2.57  12 2.57   5 2.57  18 2.57
                            11 2.57
   4  0.000  0.333  0.221-   5 2.57   6 2.57   1 2.57   7 2.57   2 2.57  13 2.57   9 2.57  10 2.57
                            15 2.57
   5  0.333  0.333  0.221-   4 2.57   2 2.57   7 2.57  13 2.57   8 2.57   6 2.57   3 2.57  11 2.57
                            14 2.57
   6  0.667  0.333  0.221-   4 2.57   9 2.57  15 2.57   3 2.57   1 2.57   8 2.57  14 2.57   5 2.57
                            12 2.57
   7  0.000  0.667  0.221-   1 2.57   3 2.57  16 2.57  18 2.57   4 2.57   5 2.57   8 2.57   9 2.57
                            13 2.57
   8  0.333  0.667  0.221-   9 2.57   2 2.57  17 2.57   6 2.57   1 2.57   7 2.57   5 2.57  14 2.57
                            16 2.57
   9  0.667  0.667  0.221-   8 2.57   6 2.57   2 2.57  17 2.57   3 2.57   7 2.57   4 2.57  15 2.57
                            18 2.57
  10  0.111  0.111  0.308-  20 2.53  26 2.56  19 2.56  11 2.57  12 2.57  13 2.57   1 2.57   2 2.57
                             4 2.57  15 2.57  16 2.57  17 2.57
  11  0.444  0.111  0.308-  20 2.55  21 2.55  27 2.56  10 2.57  13 2.57   2 2.57  17 2.57  14 2.57
                            12 2.57   5 2.57   3 2.57  18 2.57
  12  0.778  0.111  0.308-  21 2.53  19 2.56  25 2.56  15 2.57  10 2.57  14 2.57  18 2.57   3 2.57
                             1 2.57  16 2.57  11 2.57   6 2.57
  13  0.111  0.444  0.308-  23 2.55  20 2.55  22 2.56  16 2.57  18 2.57  10 2.57  11 2.57  14 2.57
                             5 2.57   4 2.57   7 2.57  15 2.57
  14  0.444  0.444  0.308-  21 2.55  23 2.55  24 2.56  15 2.57  17 2.57  12 2.57  16 2.57  13 2.57
                            11 2.57   6 2.57   8 2.57   5 2.57
  15  0.778  0.444  0.308-  19 2.56  24 2.56  22 2.56  14 2.57  17 2.57  12 2.57   6 2.57  18 2.57
                            10 2.57   9 2.57  13 2.57   4 2.57
  16  0.111  0.778  0.308-  23 2.53  25 2.56  26 2.56  18 2.57  13 2.57   7 2.57  14 2.57  17 2.57
                            12 2.57  10 2.57   8 2.57   1 2.57
  17  0.444  0.778  0.308-  26 2.56  27 2.56  24 2.56  14 2.57  15 2.57   8 2.57   9 2.57  11 2.57
                            16 2.57  18 2.57  10 2.57   2 2.57
  18  0.778  0.778  0.308-  25 2.56  22 2.56  27 2.56  16 2.57  13 2.57   7 2.57  15 2.57  12 2.57
                            17 2.57   9 2.57   3 2.57  11 2.57
  19  0.888  0.223  0.394-  28 2.54  32 2.55  31 2.55  21 2.55  20 2.55  15 2.56  12 2.56  10 2.56
                            22 2.56  24 2.56  25 2.58  26 2.58
  20  0.221  0.221  0.393-  10 2.53  11 2.55  13 2.55  26 2.55  19 2.55  27 2.57  22 2.57  29 2.59
                            31 2.59  36 2.60  23 2.60  21 2.60
  21  0.558  0.221  0.393-  12 2.53  14 2.55  11 2.55  19 2.55  25 2.55  24 2.57  27 2.57  32 2.59
                            30 2.59  36 2.60  20 2.60  23 2.60
  22  0.889  0.556  0.393-  35 2.54  18 2.56  15 2.56  13 2.56  19 2.56  25 2.56  24 2.56  27 2.56
                            31 2.57  33 2.57  23 2.57  20 2.57
  23  0.221  0.558  0.393-  16 2.53  13 2.55  14 2.55  25 2.55  26 2.55  22 2.57  24 2.57  33 2.59
                            34 2.59  36 2.60  20 2.60  21 2.60
  24  0.556  0.556  0.393-  35 2.54  15 2.56  17 2.56  14 2.56  19 2.56  26 2.56  22 2.56  27 2.56
                            32 2.57  34 2.57  21 2.57  23 2.57
  25  0.888  0.888  0.394-  28 2.54  33 2.55  30 2.55  21 2.55  23 2.55  18 2.56  16 2.56  12 2.56
                            22 2.56  27 2.56  19 2.58  26 2.58
  26  0.223  0.888  0.394-  28 2.54  29 2.55  34 2.55  20 2.55  23 2.55  17 2.56  10 2.56  16 2.56
                            27 2.56  24 2.56  25 2.58  19 2.58
  27  0.556  0.889  0.393-  35 2.54  17 2.56  18 2.56  11 2.56  26 2.56  25 2.56  24 2.56  22 2.56
                            29 2.57  30 2.57  20 2.57  21 2.57
  28  0.000  0.000  0.479-  25 2.54  19 2.54  26 2.54  33 2.55  30 2.55  31 2.55  29 2.55  32 2.55
                            34 2.55
  29  0.333  0.997  0.480-  34 2.52  26 2.55  28 2.55  35 2.56  27 2.57  31 2.59  20 2.59  36 2.59
                            30 2.59
  30  0.670  0.997  0.480-  33 2.52  25 2.55  28 2.55  35 2.56  27 2.57  32 2.59  21 2.59  36 2.59
                            29 2.59
  31  0.997  0.333  0.480-  32 2.52  19 2.55  28 2.55  35 2.56  22 2.57  29 2.59  20 2.59  36 2.59
                            33 2.59
  32  0.670  0.333  0.480-  31 2.52  19 2.55  28 2.55  35 2.56  24 2.57  30 2.59  21 2.59  36 2.59
                            34 2.59
  33  0.997  0.670  0.480-  30 2.52  25 2.55  28 2.55  35 2.56  22 2.57  34 2.59  23 2.59  36 2.59
                            31 2.59
  34  0.333  0.670  0.480-  29 2.52  26 2.55  28 2.55  35 2.56  24 2.57  33 2.59  23 2.59  36 2.59
                            32 2.59
  35  0.667  0.667  0.479-  24 2.54  27 2.54  22 2.54  34 2.56  32 2.56  29 2.56  30 2.56  33 2.56
                            31 2.56
  36  0.333  0.333  0.480-  31 2.59  29 2.59  33 2.59  34 2.59  32 2.59  30 2.59  23 2.60  20 2.60
                            21 2.60
  37  0.259  0.280  0.597-  39 0.98
  38  0.456  0.285  0.597-  39 0.98
  39  0.311  0.372  0.596-  37 0.98  38 0.98

  LATTYP: Found a hexagonal cell.
 ALAT       =     7.6967864036
 C/A-ratio  =     3.1535378041

  Lattice vectors:

 A1 = (  -3.8483927580,  -6.6656128093,   0.0000000000)
 A2 = (   7.6967864037,   0.0000000000,   0.0000000000)
 A3 = (   0.0000000000,   0.0000000000,  24.2721068937)

Analysis of symmetry for initial positions (statically):
 Subroutine PRICEL returns:
 Original cell was already a primitive cell.

 Routine SETGRP: Setting up the symmetry group for a
 hexagonal supercell.

 Subroutine GETGRP returns: Found  1 space group operations
 (whereof  1 operations were pure point group operations)
 out of a pool of 24 trial point group operations.

The static configuration has the point symmetry C_1 .

Analysis of symmetry for dynamics (positions and initial velocities):
 Subroutine PRICEL returns:
 Original cell was already a primitive cell.

[...]

The dynamic configuration has the point symmetry C_1 .

Analysis of constrained symmetry for selective dynamics:
 Subroutine PRICEL returns:
 Original cell was already a primitive cell.

[...]
     41      -4.0497      2.00000
     42      -4.0267      2.00000
     43      -4.0145      2.00000
     44      -3.9889      2.00000
     45      -3.9700      2.00000
     46      -3.9489      2.00000
     47      -3.9312      2.00000
     48      -3.9280      2.00000
     49      -3.8708      2.00000
     50      -3.7617      2.00000
     51      -3.7143      2.00000
     52      -3.7110      2.00000
     53      -3.7031      2.00000
     54      -3.6615      2.00000
     55      -3.6481      2.00000
     56      -3.6415      2.00000
     57      -3.6283      2.00000
     58      -3.6095      2.00000
     59      -3.6036      2.00000
     60      -3.5867      2.00000
[...]
    238       5.6725      0.00000
    239       5.7203      0.00000
    240       5.8326      0.00000
    241       5.9850      0.00000
    242       6.0028      0.00000
    243       6.0681      0.00000
    244       6.1154      0.00000
    245       6.1744      0.00000
    246       6.2389      0.00000
    247       6.4592      0.00000
    248       6.8321      0.00000
    249       6.9494      0.00000
    250       7.0278      0.00000
    251       7.2373      0.00000
    252       7.4086      0.00000

 soft charge-density along one line, spin component           1
         0         1         2         3         4         5         6         7         8         9
 total charge-density along one line

------------------------ aborting loop because EDIFF is reached ----------------------------------------

 total charge

# of ion       s       p       d       tot
    1        0.445   0.287   9.187   9.919
    2        0.450   0.284   9.188   9.921
    3        0.450   0.284   9.188   9.921
    4        0.450   0.284   9.187   9.921
    5        0.445   0.287   9.185   9.917
    6        0.450   0.284   9.187   9.921
    7        0.450   0.284   9.188   9.921
    8        0.450   0.284   9.188   9.921
    9        0.448   0.284   9.187   9.918
   10        0.441   0.375   9.176   9.991
   11        0.444   0.369   9.182   9.994
   12        0.441   0.375   9.176   9.991
   13        0.444   0.369   9.182   9.994
   14        0.444   0.369   9.182   9.994
   15        0.439   0.370   9.181   9.989
   16        0.441   0.375   9.176   9.991
   17        0.439   0.370   9.180   9.989
   18        0.439   0.370   9.180   9.989
   19        0.444   0.374   9.183  10.001
   20        0.437   0.380   9.182   9.999
   21        0.437   0.380   9.182   9.999
   22        0.439   0.373   9.181   9.992
   23        0.437   0.380   9.183  10.000
   24        0.439   0.373   9.181   9.993
   25        0.444   0.374   9.183  10.001
   26        0.444   0.374   9.183  10.001
   27        0.439   0.372   9.182   9.993
   28        0.453   0.294   9.192   9.939
   29        0.450   0.303   9.188   9.941
   30        0.450   0.303   9.188   9.940
   31        0.451   0.303   9.188   9.941
   32        0.450   0.303   9.188   9.941
   33        0.448   0.299   9.190   9.937
   34        0.449   0.299   9.190   9.938
   35        0.450   0.296   9.192   9.938
   36        0.699   0.444   8.128   9.271
   37        0.618   0.119   0.000   0.736
   38        0.617   0.119   0.000   0.736
   39        1.573   3.582   0.000   5.155
tot         19.073  15.946 329.579 364.597

  FORCE on cell =-STRESS in cart. coord.  units (eV):
  Direction    XX          YY          ZZ          XY          YZ          ZX
  Alpha Z   792.90595   792.90595   792.90595
  Ewald  233140.92484233088.33818************     1.04994    -1.90053     0.54648
  Hartree246007.76251245998.76396************     0.18696    -0.99266     0.35340
  E(xc)   -2327.67943 -2327.88354 -2332.65689     0.00376     0.01649     0.00009
  Local  ************************492434.04594    -0.90857     2.10539    -0.78352
  n-local  -778.45675  -779.18802  -795.80612     0.02057    -0.18375     0.01536
  augment  3365.47205  3366.54179  3385.64779    -0.03926     0.05805    -0.00753
  Kinetic  3409.49374  3424.66276  3468.21954    -0.29417     0.74937    -0.10689
  Fock        0.00000     0.00000     0.00000     0.00000     0.00000     0.00000
  Total      -1.86098    -1.82472     3.93429     0.01923    -0.14764     0.01740
  in kB      -2.39439    -2.34774     5.06198     0.02475    -0.18995     0.02238

 VOLUME and BASIS-vectors are now :
  energy-cutoff  :      500.00
  volume of cell :     1245.25
      direct lattice vectors                 reciprocal lattice vectors
     7.696786404  0.000000000  0.000000000     0.129924354 -0.075011849  0.000000000
     3.848392758  6.665612809  0.000000000     0.000000000  0.150023716  0.000000000
     0.000000000  0.000000000 24.272106894     0.000000000  0.000000000  0.041199555

  length of vectors
     7.696786404  7.696786404 24.272106894     0.150023716  0.150023716  0.041199555

 FORCES acting on ions
    electron-ion (+dipol)            ewald-force                    non-local-force                 convergence-correction
   0.365E-02 -.444E-01 0.380E+04   -.715E-03 0.366E-02 -.379E+04   -.687E-04 0.216E-01 -.252E+01   -.292E-02 0.238E-01 -.966E+00
   -.198E+00 0.164E+00 0.379E+04   0.140E+00 0.101E+00 -.379E+04   -.121E-01 -.104E+00 -.197E+01   0.672E-01 -.156E+00 -.719E+00
   0.195E+00 0.152E+00 0.379E+04   -.139E+00 0.103E+00 -.379E+04   0.116E-01 -.106E+00 -.197E+01   -.639E-01 -.144E+00 -.715E+00
   0.575E-01 -.262E+00 0.379E+04   0.154E+00 0.625E-01 -.379E+04   -.103E+00 0.544E-01 -.195E+01   -.106E+00 0.140E+00 -.702E+00
   -.156E-01 -.354E-02 0.379E+04   0.174E-02 -.953E-02 -.379E+04   -.948E-02 0.130E-02 -.211E+01   0.239E-01 0.920E-02 -.649E+00
   -.472E-01 -.264E+00 0.379E+04   -.156E+00 0.624E-01 -.379E+04   0.104E+00 0.530E-01 -.195E+01   0.961E-01 0.144E+00 -.699E+00
   0.224E+00 0.108E+00 0.379E+04   0.155E-01 -.164E+00 -.379E+04   -.801E-01 0.476E-01 -.201E+01   -.154E+00 0.884E-02 -.703E+00
   -.232E+00 0.115E+00 0.379E+04   -.149E-01 -.165E+00 -.379E+04   0.773E-01 0.489E-01 -.201E+01   0.165E+00 0.196E-02 -.705E+00
   0.147E-01 0.156E-01 0.380E+04   -.569E-03 0.578E-02 -.379E+04   0.931E-02 0.136E-02 -.224E+01   -.240E-01 -.221E-01 -.687E+00
   0.152E+01 0.873E+00 0.132E+04   -.142E+01 -.839E+00 -.132E+04   -.129E+00 -.687E-01 -.822E+00   0.492E-01 0.482E-01 -.504E+00
   -.213E-01 -.180E+01 0.131E+04   0.899E-02 0.186E+01 -.131E+04   -.865E-02 -.869E-01 -.857E+00   0.215E-01 0.118E-01 -.381E+00
   -.151E+01 0.863E+00 0.132E+04   0.141E+01 -.831E+00 -.132E+04   0.131E+00 -.694E-01 -.820E+00   -.566E-01 0.508E-01 -.506E+00
   -.156E+01 0.960E+00 0.131E+04   0.163E+01 -.983E+00 -.131E+04   -.103E+00 0.372E-01 -.874E+00   0.120E-01 -.350E-02 -.398E+00
   0.153E+01 0.971E+00 0.131E+04   -.162E+01 -.987E+00 -.131E+04   0.839E-01 0.372E-01 -.873E+00   0.228E-01 -.109E-01 -.412E+00
   0.192E-01 -.219E+00 0.132E+04   -.106E-01 0.304E-01 -.132E+04   0.930E-03 0.552E-01 -.616E+00   -.948E-02 0.133E+00 -.578E+00
   0.111E-03 -.173E+01 0.132E+04   0.249E-02 0.170E+01 -.132E+04   0.769E-03 0.106E+00 -.894E+00   -.335E-02 -.104E+00 -.516E+00
   -.250E+00 0.469E-01 0.132E+04   0.648E-01 0.230E-01 -.132E+04   0.550E-01 -.959E-02 -.648E+00   0.122E+00 -.545E-01 -.588E+00
   0.249E+00 0.259E-01 0.132E+04   -.673E-01 0.341E-01 -.132E+04   -.555E-01 -.940E-02 -.651E+00   -.119E+00 -.448E-01 -.577E+00
   0.702E-01 0.591E+00 -.118E+04   -.739E-01 -.604E+00 0.118E+04   0.151E-02 -.120E+00 0.474E+00   0.242E-02 0.118E+00 -.137E+00
   -.275E+02 -.154E+02 -.119E+04   0.270E+02 0.151E+02 0.119E+04   0.322E+00 0.157E+00 0.454E+00   0.214E+00 0.109E+00 -.104E+00
   0.274E+02 -.154E+02 -.119E+04   -.269E+02 0.152E+02 0.119E+04   -.304E+00 0.159E+00 0.455E+00   -.244E+00 0.989E-01 -.107E+00
   -.147E+02 0.852E+01 -.119E+04   0.141E+02 -.819E+01 0.119E+04   0.410E+00 -.232E+00 0.864E+00   0.946E-01 -.954E-01 -.145E+00
   -.523E-01 0.317E+02 -.119E+04   0.657E-01 -.311E+02 0.119E+04   0.118E-01 -.324E+00 0.421E+00   -.253E-01 -.278E+00 -.136E+00
   0.147E+02 0.859E+01 -.119E+04   -.142E+02 -.824E+01 0.119E+04   -.430E+00 -.234E+00 0.863E+00   -.565E-01 -.991E-01 -.144E+00
   -.184E+00 -.542E+00 -.118E+04   0.185E+00 0.563E+00 0.118E+04   0.119E+00 0.440E-02 0.526E+00   -.109E+00 -.274E-01 -.148E+00
   0.205E+00 -.473E+00 -.118E+04   -.199E+00 0.485E+00 0.118E+04   -.119E+00 0.564E-02 0.525E+00   0.102E+00 -.196E-01 -.145E+00
   -.271E-01 -.176E+02 -.119E+04   0.139E-01 0.168E+02 0.119E+04   -.718E-02 0.517E+00 0.846E+00   0.206E-01 0.189E+00 -.144E+00
   0.198E+00 -.869E+00 -.366E+04   -.196E+00 0.816E+00 0.365E+04   -.923E-03 0.262E-01 0.202E+01   -.644E-03 0.363E-01 0.709E+00
   -.136E+02 -.178E+02 -.366E+04   0.136E+02 0.175E+02 0.366E+04   -.455E-01 0.201E+00 0.167E+01   0.477E-01 0.375E-01 0.502E+00
   0.135E+02 -.184E+02 -.366E+04   -.134E+02 0.181E+02 0.366E+04   0.459E-01 0.201E+00 0.168E+01   -.470E-01 0.414E-01 0.497E+00
   -.201E+02 -.228E+00 -.366E+04   0.198E+02 0.362E+00 0.365E+04   0.172E+00 -.145E+00 0.175E+01   0.978E-03 0.474E-02 0.494E+00
   0.208E+02 -.241E+00 -.366E+04   -.206E+02 0.376E+00 0.365E+04   -.162E+00 -.148E+00 0.173E+01   -.232E-02 0.649E-02 0.499E+00
   -.753E+01 0.168E+02 -.365E+04   0.720E+01 -.166E+02 0.365E+04   0.291E+00 -.160E+00 0.218E+01   -.474E-02 -.412E-01 0.497E+00
   0.733E+01 0.174E+02 -.365E+04   -.701E+01 -.171E+02 0.365E+04   -.289E+00 -.150E+00 0.216E+01   0.102E-01 -.420E-01 0.507E+00
   0.219E+00 -.142E+01 -.366E+04   -.210E+00 0.145E+01 0.366E+04   0.828E-02 0.159E-02 0.226E+01   -.181E-01 -.293E-01 0.543E+00
   -.765E+00 0.469E+01 -.324E+04   0.777E+00 -.494E+01 0.324E+04   -.188E-01 0.290E+00 0.342E+01   0.447E-02 -.207E-01 0.385E+00
   0.687E+02 0.515E+02 -.353E+03   -.753E+02 -.565E+02 0.353E+03   0.660E+01 0.500E+01 -.860E-01   0.138E-01 0.849E-02 0.140E-01
   -.707E+02 0.487E+02 -.353E+03   0.775E+02 -.534E+02 0.353E+03   -.679E+01 0.473E+01 -.129E+00   -.140E-01 0.824E-02 0.137E-01
   0.118E+01 -.618E+02 -.211E+04   -.212E+01 0.110E+03 0.211E+04   0.939E+00 -.480E+02 0.536E-01   0.522E-02 -.287E-01 0.514E-01
   -.783E+00 0.383E+02 0.920E+01   -.853E-13 -.142E-12 -.728E-11   0.732E+00 -.382E+02 -.163E+01   0.368E-01 0.753E-02 -.750E+01

 POSITION                                       TOTAL-FORCE (eV/Angst)
      0.00000      0.00000      5.37156         0.000319      0.003622      0.119915
      2.56560      0.00000      5.37156        -0.002847      0.004199      0.066025
      5.13119      0.00000      5.37156         0.003563      0.004101      0.065992
      1.28280      2.22187      5.37156         0.002826     -0.006165      0.067819
      3.84839      2.22187      5.37156         0.000857     -0.003643      0.057213
      6.41399      2.22187      5.37156        -0.002048     -0.006097      0.067756
      2.56560      4.44374      5.37156         0.005089     -0.000486      0.067129
      5.13119      4.44374      5.37156        -0.004342     -0.000545      0.067104
      7.69679      4.44374      5.37156        -0.000214     -0.000481      0.065640
      1.28280      0.74062      7.46636         0.028870      0.012263     -0.071110
      3.84839      0.74062      7.46636         0.000876     -0.020085     -0.131677
      6.41399      0.74062      7.46636        -0.028068      0.012248     -0.070492
      2.56560      2.96249      7.46636        -0.020648      0.009301     -0.130880
      5.13119      2.96249      7.46636         0.022190      0.009194     -0.130989
      7.69679      2.96249      7.46636         0.000411     -0.002279     -0.043048
      3.84839      5.18437      7.46636         0.000388     -0.035910     -0.083445
      6.41399      5.18437      7.46636        -0.007137      0.004692     -0.044540
      8.97958      5.18437      7.46636         0.007928      0.004694     -0.044812
      7.69679      1.48680      9.55287         0.000618     -0.017017     -0.020015
      2.54973      1.47208      9.52995         0.037010      0.025238      0.018246
      5.14706      1.47208      9.52995        -0.038783      0.026529      0.020882
      8.97744      3.70436      9.55084        -0.010564      0.010694      0.009227
      3.84839      3.72144      9.52995         0.000242     -0.022142     -0.007336
      6.41613      3.70436      9.55084         0.012613      0.011196      0.008386
     10.25757      5.92221      9.55287         0.012014     -0.003056     -0.010406
      5.13600      5.92221      9.55287        -0.010834     -0.003023     -0.010912
      7.69679      5.92251      9.55084         0.000605     -0.030434     -0.003340
      0.00000      0.00000     11.61595         0.000618      0.009172      0.018211
      6.40108      6.64688     11.64473        -0.024377     -0.045644     -0.004522
      8.99249      6.64688     11.64473         0.024839     -0.044495     -0.002646
      8.95691      2.22006     11.64473        -0.055315     -0.007398     -0.028249
      6.43666      2.22006     11.64473         0.054680     -0.006815     -0.024876
     10.25261      4.46428     11.64473        -0.042321      0.043720     -0.024154
      5.14096      4.46428     11.64473         0.043992      0.043446     -0.024394
      7.69679      4.44374     11.61500        -0.000417      0.000601      0.010841
      3.84839      2.22187     11.65010        -0.001514      0.020963      0.187001
      3.06726      1.86630     14.48610        -0.010457     -0.006353      0.002551
      4.60739      1.89675     14.49113         0.002912      0.000637      0.004613
      3.82541      2.47986     14.47301        -0.003571      0.005560     -0.012708
    total drift:                               -0.014429      0.041941      0.069118

  FREE ENERGIE OF THE ION-ELECTRON SYSTEM (eV)
  free  energy   TOTEN  =      -143.19734907 eV

  energy  without entropy=     -143.19734907  energy(sigma->0) =     -143.19734907

 stress matrix after NEB project (eV)
     -1.86098      0.01923      0.01740
      0.01923     -1.82472     -0.14764
      0.01740     -0.14764      3.93429
  FORCES: max atom, RMS     0.014324    0.003169
  FORCE total and by dimension    0.019787    0.012708
  Stress total and by dimension    4.724026    3.934292
|           W    W    AA    RRRRR   N    N  II  N    N   GGGG   !!!           |
|           W    W   A  A   R    R  NN   N  II  NN   N  G    G  !!!           |
|           W    W  A    A  R    R  N N  N  II  N N  N  G       !!!           |
|           W WW W  AAAAAA  RRRRR   N  N N  II  N  N N  G  GGG   !            |
|           WW  WW  A    A  R   R   N   NN  II  N   NN  G    G                |
|           W    W  A    A  R    R  N    N  II  N    N   GGGG   !!!           |
|     Tetrahedron method does not include variations of the Fermi             |
|     occupations, so forces and stress will be inaccurate. We suggest        |
|     using a different smearing scheme ISMEAR = 1 or 2 for metals in         |
|     relaxations.                                                            |

 total charge

# of ion       s       p       d       tot
    1        0.445   0.287   9.187   9.919
    2        0.450   0.284   9.188   9.921
    3        0.450   0.284   9.188   9.921
    4        0.450   0.284   9.187   9.921
    5        0.445   0.287   9.185   9.917
    6        0.450   0.284   9.187   9.921
    7        0.450   0.284   9.188   9.921
    8        0.450   0.284   9.188   9.921
    9        0.448   0.284   9.187   9.918
   10        0.441   0.375   9.176   9.991
   11        0.444   0.369   9.182   9.994
   12        0.441   0.375   9.176   9.991
   13        0.444   0.369   9.182   9.994
   14        0.444   0.369   9.182   9.994
   15        0.439   0.370   9.181   9.989
   16        0.441   0.375   9.176   9.991
   17        0.439   0.370   9.180   9.989
   18        0.439   0.370   9.180   9.989
   19        0.444   0.374   9.183  10.001
   20        0.437   0.380   9.182   9.999
   21        0.437   0.380   9.182   9.999
   22        0.439   0.373   9.181   9.992
   23        0.437   0.380   9.183  10.000
   24        0.439   0.373   9.181   9.993
   25        0.444   0.374   9.183  10.001
   26        0.444   0.374   9.183  10.001
   27        0.439   0.372   9.182   9.993
   28        0.453   0.294   9.192   9.939
   29        0.450   0.303   9.188   9.941
   30        0.450   0.303   9.188   9.940
   31        0.451   0.303   9.188   9.941
   32        0.450   0.303   9.188   9.941
   33        0.448   0.299   9.190   9.937
   34        0.449   0.299   9.190   9.938
   35        0.450   0.296   9.192   9.938
   36        0.699   0.444   8.128   9.271
   37        0.618   0.119   0.000   0.736
   38        0.617   0.119   0.000   0.736
   39        1.573   3.582   0.000   5.155
tot         19.073  15.946 329.579 364.597

 BZINTS: Fermi energy:   -0.292214;  403.000000 electrons
         Band energy:-0.129324E+04;  BLOECHL correction:   -0.075867