 vasp.6.2.0 18Jan21 (build Jun 12 2021 23:27:24) complex

 executed on             LinuxIFC date 2022.05.30  17:37:46

 INCAR:
   ISMEAR = -5
   SIGMA = 0.1
   ISPIN = 1
   EDIFF = 1.d-5
   EDIFFG = -0.01
   NSW = 0
   NELM = 150
   ENCUT = 500
   ISIF = 2
   IBRION = 2
   LREAL = Auto
   ALGO = Fast
   ICHARG = 11
   LORBIT = 10
   LCHARG = .F.
   LWAVE = .F.

 POTCAR:    PAW_PBE Ag 02Apr2005
 POTCAR:    PAW_PBE Re 17Jan2003
 POTCAR:    PAW_PBE C 08Apr2002
 POTCAR:    PAW_PBE O 08Apr2002
 POTCAR:    PAW_PBE H 15Jun2001
|           W    W    AA    RRRRR   N    N  II  N    N   GGGG   !!!           |
|           W    W   A  A   R    R  NN   N  II  NN   N  G    G  !!!           |
|           W    W  A    A  R    R  N N  N  II  N N  N  G       !!!           |
|           W WW W  AAAAAA  RRRRR   N  N N  II  N  N N  G  GGG   !            |
|           WW  WW  A    A  R   R   N   NN  II  N   NN  G    G                |
|           W    W  A    A  R    R  N    N  II  N    N   GGGG   !!!           |
|     For optimal performance we recommend to set                             |
|       NCORE = 2 up to number-of-cores-per-socket                            |
|     This setting can greatly improve the performance of VASP for DFT.       |
|     The default, NCORE=1 might be grossly inefficient on modern             |
|     multi-core architectures or massively parallel machines. Do your        |
|     Unfortunately you need to use the default for GW and RPA                |
|     calculations (for HF NCORE is supported but not extensively tested      |
|     yet).                                                                   |

 POTCAR:    PAW_PBE Ag 02Apr2005
   VRHFIN =Ag : s1 d10

   TITEL  = PAW_PBE Ag 02Apr2005
   POMASS =  107.868; ZVAL   =   11.000    mass and valenz
   ENMAX  =  249.844; ENMIN  =  187.383 eV

 POTCAR:    PAW_PBE Re 17Jan2003
   VRHFIN =Re: 5p6s5d

   TITEL  = PAW_PBE Re 17Jan2003
   POMASS =  186.207; ZVAL   =    7.000    mass and valenz
   ENMAX  =  226.216; ENMIN  =  169.662 eV

 POTCAR:    PAW_PBE C 08Apr2002
   VRHFIN =C: s2p2

[...]

 POTCAR:    PAW_PBE O 08Apr2002
   VRHFIN =O: s2p4

   TITEL  = PAW_PBE O 08Apr2002
   POMASS =   16.000; ZVAL   =    6.000    mass and valenz
   ENMAX  =  400.000; ENMIN  =  300.000 eV

 POTCAR:    PAW_PBE H 15Jun2001
   VRHFIN =H: ultrasoft test

   TITEL  = PAW_PBE H 15Jun2001
   POMASS =    1.000; ZVAL   =    1.000    mass and valenz
   ENMAX  =  250.000; ENMIN  =  200.000 eV

 Optimization of the real space projectors (new method)

 maximal supplied QI-value         = 15.12
 optimisation between [QCUT,QGAM] = [ 11.34, 22.83] = [ 36.00,145.93] Ry
 Optimized for a Real-space Cutoff    1.43 Angstroem

   l    n(q)    QCUT    max X(q) W(low)/X(q) W(high)/X(q)  e(spline)
   2      9    11.338    53.897    0.16E-03    0.20E-03    0.28E-06
   2      9    11.338    52.416    0.16E-03    0.20E-03    0.29E-06
   0     10    11.338   122.045    0.31E-04    0.76E-04    0.15E-06
   0     10    11.338    73.629    0.30E-04    0.72E-04    0.15E-06
   1      9    11.338    15.255    0.20E-03    0.19E-04    0.17E-06
   1      9    11.338     9.562    0.16E-03    0.15E-04    0.14E-06
 Optimization of the real space projectors (new method)

[...]

   l    n(q)    QCUT    max X(q) W(low)/X(q) W(high)/X(q)  e(spline)
   0      7    11.387    20.381    0.39E-03    0.13E-02    0.15E-06
   0      7    11.387    15.268    0.42E-03    0.14E-02    0.17E-06
   1      6    11.387     5.964    0.41E-03    0.11E-02    0.17E-06
   1      6    11.387     5.382    0.39E-03    0.87E-03    0.15E-06
 Optimization of the real space projectors (new method)

 maximal supplied QI-value         = 34.20
 optimisation between [QCUT,QGAM] = [ 11.29, 22.57] = [ 35.68,142.71] Ry
 Optimized for a Real-space Cutoff    1.16 Angstroem

   l    n(q)    QCUT    max X(q) W(low)/X(q) W(high)/X(q)  e(spline)
   0      8    11.287    19.460    0.40E-03    0.73E-03    0.16E-06
   0      8    11.287    12.209    0.38E-03    0.70E-03    0.15E-06
   1      7    11.287     4.655    0.22E-03    0.25E-04    0.22E-06
  PAW_PBE Ag 02Apr2005                  :
  PAW_PBE Re 17Jan2003                  :
  PAW_PBE C 08Apr2002                   :
  PAW_PBE O 08Apr2002                   :
  PAW_PBE H 15Jun2001                   :

 POSCAR: Ag-Re-COH
  positions in direct lattice
  velocities in cartesian coordinates
 exchange correlation table for  LEXCH =        8
   RHO(1)=    0.500       N(1)  =     2000
   RHO(2)=  100.500       N(2)  =     4000

 VTST: version 3.2, (02/03/18)

 CHAIN: initializing optimizer

 OPT: Using VASP Conjugate-Gradient optimizer
 CHAIN: Read ICHAIN            0

 POSCAR: Ag-Re-COH
  positions in direct lattice
  velocities in cartesian coordinates

 ion  position               nearest neighbor table
   1  0.000  0.000  0.199-   2 2.93   8 2.93   7 2.93   6 2.93   4 2.93  12 2.93  16 2.93  10 2.93
                             3 2.93
   2  0.333  0.000  0.199-   1 2.93   8 2.93   9 2.93   3 2.93   4 2.93   5 2.93  10 2.93  17 2.93
                            11 2.93
   3  0.667  0.000  0.199-   9 2.93   2 2.93   5 2.93  11 2.93   7 2.93  18 2.93   1 2.93   6 2.93
                            12 2.93
   4  0.000  0.333  0.199-   5 2.93   6 2.93   2 2.93   1 2.93   7 2.93  13 2.93  15 2.93   9 2.93
                            10 2.93
   5  0.333  0.333  0.199-   4 2.93   3 2.93   7 2.93   2 2.93   8 2.93  14 2.93  13 2.93  11 2.93
                             6 2.93
   6  0.667  0.333  0.199-   4 2.93   9 2.93   1 2.93  15 2.93   8 2.93  12 2.93   3 2.93   5 2.93
                            14 2.93
   7  0.000  0.667  0.199-   8 2.93   1 2.93   5 2.93   3 2.93   4 2.93  16 2.93  18 2.93  13 2.93
                             9 2.93
   8  0.333  0.667  0.199-   7 2.93   1 2.93   2 2.93   9 2.93   5 2.93  16 2.93   6 2.93  17 2.93
                            14 2.93
   9  0.667  0.667  0.199-   3 2.93   2 2.93   8 2.93   6 2.93  17 2.93   4 2.93  15 2.93   7 2.93
                            18 2.93
  10  0.111  0.111  0.289-  20 2.89  12 2.93  16 2.93  15 2.93  17 2.93  13 2.93  11 2.93   2 2.93
                             1 2.93   4 2.93  19 2.93  26 2.93
  11  0.444  0.111  0.289-  21 2.89  20 2.89  27 2.93  14 2.93  17 2.93  18 2.93   3 2.93  12 2.93
                            13 2.93  10 2.93   5 2.93   2 2.93
  12  0.778  0.111  0.289-  21 2.89  10 2.93  16 2.93  18 2.93  15 2.93  11 2.93   1 2.93  14 2.93
                             6 2.93   3 2.93  25 2.93  19 2.93
  13  0.111  0.444  0.289-  20 2.89  23 2.89  22 2.93  15 2.93  14 2.93  18 2.93  10 2.93  11 2.93
                            16 2.93   4 2.93   5 2.93   7 2.93
  14  0.444  0.444  0.289-  23 2.89  21 2.89  24 2.93  13 2.93  11 2.93  16 2.93   5 2.93  12 2.93
                            17 2.93   8 2.93  15 2.93   6 2.93
  15  0.778  0.444  0.289-  24 2.92  22 2.92  19 2.93  13 2.93  10 2.93  12 2.93  17 2.93  18 2.93
                             4 2.93   6 2.93   9 2.93  14 2.93
  16  0.111  0.778  0.289-  23 2.89  18 2.93  12 2.93  10 2.93  14 2.93  17 2.93  13 2.93   7 2.93
                             8 2.93   1 2.93  26 2.93  25 2.93
  17  0.444  0.778  0.289-  27 2.92  24 2.92  26 2.93  11 2.93  10 2.93   9 2.93  18 2.93  15 2.93
                            16 2.93   2 2.93  14 2.93   8 2.93
  18  0.778  0.778  0.289-  22 2.92  27 2.92  25 2.93  16 2.93  12 2.93  13 2.93  11 2.93  17 2.93
                            15 2.93   7 2.93   3 2.93   9 2.93
  19  0.889  0.223  0.379-  28 2.91  24 2.93  22 2.93  15 2.93  20 2.93  21 2.93  10 2.93  12 2.93
                            26 2.94  25 2.94  32 2.97  31 2.97
  20  0.222  0.222  0.377-  36 2.76  10 2.89  13 2.89  11 2.89  19 2.93  26 2.93  21 2.93  23 2.93
                            27 2.94  22 2.94  31 2.94  29 2.94
  21  0.556  0.222  0.377-  36 2.76  12 2.89  11 2.89  14 2.89  25 2.93  19 2.93  20 2.93  23 2.93
                            27 2.94  24 2.94  30 2.94  32 2.94
  22  0.888  0.556  0.378-  35 2.91  24 2.92  27 2.92  18 2.92  15 2.92  13 2.93  25 2.93  19 2.93
                            23 2.94  20 2.94  33 2.95  31 2.95
  23  0.222  0.556  0.377-  36 2.76  16 2.89  14 2.89  13 2.89  26 2.93  25 2.93  21 2.93  20 2.93
                            22 2.94  24 2.94  34 2.94  33 2.94
  24  0.556  0.556  0.378-  35 2.91  27 2.92  22 2.92  15 2.92  17 2.92  14 2.93  19 2.93  26 2.93
                            23 2.94  21 2.94  32 2.95  34 2.95
  25  0.889  0.889  0.379-  28 2.91  22 2.93  27 2.93  18 2.93  23 2.93  21 2.93  16 2.93  12 2.93
                            26 2.94  19 2.94  33 2.97  30 2.97
  26  0.223  0.889  0.379-  28 2.91  27 2.93  24 2.93  17 2.93  23 2.93  20 2.93  16 2.93  10 2.93
                            25 2.94  19 2.94  34 2.97  29 2.97
  27  0.556  0.888  0.378-  35 2.91  24 2.92  22 2.92  17 2.92  18 2.92  11 2.93  26 2.93  25 2.93
                            20 2.94  21 2.94  29 2.95  30 2.95
  28  0.000  0.000  0.468-  26 2.91  25 2.91  19 2.91  29 2.96  34 2.96  33 2.96  32 2.96  31 2.96
                            30 2.96
  29  0.333  0.008  0.469-  31 2.86  30 2.87  36 2.88  20 2.94  27 2.95  28 2.96  26 2.97  35 2.97
                            34 3.06
  30  0.659  0.008  0.469-  32 2.86  29 2.87  36 2.88  21 2.94  27 2.95  28 2.96  25 2.97  35 2.97
                            33 3.06
  31  0.008  0.333  0.469-  29 2.86  33 2.87  36 2.88  20 2.94  22 2.95  28 2.96  19 2.97  35 2.97
                            32 3.06
  32  0.659  0.333  0.469-  30 2.86  34 2.87  36 2.88  21 2.94  24 2.95  28 2.96  19 2.97  35 2.97
                            31 3.06
  33  0.008  0.659  0.469-  34 2.86  31 2.87  36 2.88  23 2.94  22 2.95  28 2.96  25 2.97  35 2.97
                            30 3.06
  34  0.333  0.659  0.469-  33 2.86  32 2.87  36 2.88  23 2.94  24 2.95  28 2.96  26 2.97  35 2.97
                            29 3.06
  35  0.667  0.667  0.467-  24 2.91  27 2.91  22 2.91  30 2.97  32 2.97  29 2.97  34 2.97  31 2.97
                            33 2.97
  36  0.333  0.333  0.459-  37 1.80  21 2.76  20 2.76  23 2.76  31 2.88  30 2.88  33 2.88  29 2.88
                            34 2.88  32 2.88
  37  0.333  0.333  0.527-  38 1.27  36 1.80
  38  0.333  0.333  0.574-  39 0.96  37 1.27
  39  0.333  0.333  0.610-  38 0.96

  LATTYP: Found a hexagonal cell.
 ALAT       =     8.7913665772
 C/A-ratio  =     3.0233954145

  Lattice vectors:

 A1 = (  -4.3956832886,  -7.6135467898,   0.0000000000)
 A2 = (   8.7913665771,   0.0000000000,   0.0000000000)
 A3 = (   0.0000000000,   0.0000000000,  26.5797773968)

Analysis of symmetry for initial positions (statically):
 Subroutine PRICEL returns:
 Original cell was already a primitive cell.

 Routine SETGRP: Setting up the symmetry group for a
 hexagonal supercell.

 Subroutine GETGRP returns: Found  6 space group operations
 (whereof  6 operations were pure point group operations)
 out of a pool of 24 trial point group operations.

The static configuration has the point symmetry C_3v.

Analysis of symmetry for dynamics (positions and initial velocities):
 Subroutine PRICEL returns:
 Original cell was already a primitive cell.

[...]

[...]
     41      -4.7546      2.00000
     42      -4.7276      2.00000
     43      -4.7034      2.00000
     44      -4.6904      2.00000
     45      -4.6827      2.00000
     46      -4.6687      2.00000
     47      -4.6620      2.00000
     48      -4.5728      2.00000
     49      -4.5459      2.00000
     50      -4.5373      2.00000
     51      -4.5286      2.00000
     52      -4.5270      2.00000
     53      -4.5178      2.00000
     54      -4.5103      2.00000
     55      -4.5006      2.00000
     56      -4.4953      2.00000
     57      -4.4875      2.00000
     58      -4.4178      2.00000
     59      -4.4112      2.00000
     60      -4.4024      2.00000
[...]
    238       5.3302      0.00000
    239       5.4035      0.00000
    240       5.4504      0.00000
    241       5.5773      0.00000
    242       5.7265      0.00000
    243       5.7741      0.00000
    244       5.7814      0.00000
    245       5.8510      0.00000
    246       5.8914      0.00000
    247       5.8971      0.00000
    248       5.9215      0.00000
    249       6.1309      0.00000
    250       6.1713      0.00000
    251       6.6553      0.00000
    252       6.8748      0.00000

 soft charge-density along one line, spin component           1
         0         1         2         3         4         5         6         7         8         9
 total charge-density along one line

------------------------ aborting loop because EDIFF is reached ----------------------------------------

 total charge

# of ion       s       p       d       tot
    1        0.419   0.201   9.178   9.799
    2        0.419   0.203   9.177   9.799
    3        0.419   0.203   9.177   9.799
    4        0.419   0.203   9.177   9.799
    5        0.419   0.204   9.175   9.798
    6        0.419   0.203   9.177   9.799
    7        0.419   0.203   9.177   9.799
    8        0.419   0.203   9.177   9.799
    9        0.413   0.204   9.178   9.795
   10        0.408   0.269   9.164   9.841
   11        0.410   0.270   9.168   9.847
   12        0.408   0.269   9.164   9.841
   13        0.410   0.270   9.168   9.847
   14        0.410   0.270   9.168   9.847
   15        0.400   0.271   9.165   9.836
   16        0.408   0.269   9.164   9.841
   17        0.400   0.271   9.165   9.836
   18        0.400   0.271   9.165   9.836
   19        0.402   0.264   9.167   9.833
   20        0.437   0.305   9.143   9.885
   21        0.437   0.305   9.143   9.885
   22        0.393   0.276   9.165   9.834
   23        0.437   0.305   9.143   9.885
   24        0.393   0.276   9.165   9.834
   25        0.402   0.264   9.167   9.833
   26        0.402   0.264   9.167   9.833
   27        0.393   0.276   9.165   9.834
   28        0.417   0.195   9.179   9.791
   29        0.417   0.224   9.166   9.808
   30        0.417   0.224   9.166   9.808
   31        0.417   0.224   9.166   9.808
   32        0.417   0.224   9.166   9.808
   33        0.417   0.224   9.166   9.808
   34        0.417   0.224   9.166   9.808
   35        0.410   0.200   9.178   9.787
   36        0.567   0.505   4.960   6.032
   37        0.913   1.482   0.000   2.396
   38        1.519   3.771   0.000   5.290
   39        0.566   0.138   0.000   0.704
tot         18.006  14.432 325.820 358.258

  FORCE on cell =-STRESS in cart. coord.  units (eV):
  Direction    XX          YY          ZZ          XY          YZ          ZX
  Alpha Z   654.14647   654.14647   654.14647
  Ewald  185497.24132185497.24135************     0.00004    -0.00000     0.00005
  Hartree195624.39883195624.39884************     0.00002     0.00000     0.00001
  E(xc)   -2109.23222 -2109.23237 -2114.05275     0.00013    -0.00001    -0.00002
  Local  ************************392068.20828     0.00062    -0.00007    -0.00019
  n-local  -376.84996  -358.65655  -369.37343    10.77428    -0.46161     0.57768
  augment  3236.88352  3236.88373  3243.07055    -0.00018    -0.00003    -0.00006
  Kinetic  5084.03886  5089.44036  5038.93179     5.39066     0.84925    -0.37904
  Fock        0.00000     0.00000     0.00000     0.00000     0.00000     0.00000
  Total      -7.07963    -7.07963     1.19559    -0.00000     0.00000     0.00000
  in kB      -6.37568    -6.37568     1.07671    -0.00000     0.00000     0.00000

 VOLUME and BASIS-vectors are now :
  energy-cutoff  :      500.00
  volume of cell :     1779.08
      direct lattice vectors                 reciprocal lattice vectors
     8.791366577  0.000000000  0.000000000     0.113747958 -0.065672414  0.000000000
     4.395683289  7.613546790  0.000000000     0.000000000  0.131344829  0.000000000
     0.000000000  0.000000000 26.579777397     0.000000000  0.000000000  0.037622587

  length of vectors
     8.791366577  8.791366577 26.579777397     0.131344829  0.131344829  0.037622587

 FORCES acting on ions
    electron-ion (+dipol)            ewald-force                    non-local-force                 convergence-correction
   0.455E-04 -.285E-04 0.284E+04   -.954E-04 0.593E-04 -.284E+04   -.827E-18 0.814E-18 -.223E+01   -.274E-04 -.123E-03 -.366E+00
   0.386E+00 0.564E+00 0.284E+04   -.428E+00 -.488E+00 -.284E+04   0.430E-01 0.600E-01 -.155E+01   0.734E-02 -.111E+00 -.398E+00
   -.386E+00 0.564E+00 0.284E+04   0.428E+00 -.488E+00 -.284E+04   -.430E-01 0.600E-01 -.155E+01   -.797E-02 -.109E+00 -.398E+00
   0.681E+00 0.521E-01 0.284E+04   -.636E+00 -.126E+00 -.284E+04   0.735E-01 0.723E-02 -.155E+01   -.920E-01 0.619E-01 -.398E+00
   -.422E-05 -.180E-04 0.284E+04   0.980E-04 -.197E-05 -.284E+04   0.262E-17 -.448E-18 -.134E+01   0.615E-02 0.376E-02 -.412E+00
   -.681E+00 0.521E-01 0.284E+04   0.636E+00 -.126E+00 -.284E+04   -.735E-01 0.723E-02 -.155E+01   0.907E-01 0.628E-01 -.398E+00
   0.296E+00 -.616E+00 0.284E+04   -.209E+00 0.614E+00 -.284E+04   0.305E-01 -.673E-01 -.155E+01   -.978E-01 0.480E-01 -.398E+00
   -.296E+00 -.616E+00 0.284E+04   0.209E+00 0.614E+00 -.284E+04   -.305E-01 -.673E-01 -.155E+01   0.994E-01 0.471E-01 -.398E+00
   0.370E-04 -.125E-04 0.284E+04   0.792E-04 -.643E-04 -.284E+04   -.283E-17 -.260E-17 -.203E+01   -.665E-02 -.343E-02 -.408E+00
   0.581E+01 0.335E+01 0.981E+03   -.526E+01 -.304E+01 -.981E+03   -.463E+00 -.267E+00 -.836E+00   -.862E-01 -.497E-01 0.141E+00
   -.285E-04 0.491E+01 0.987E+03   0.408E-04 -.504E+01 -.986E+03   0.104E-11 0.159E+00 -.460E+00   0.582E-02 -.884E-01 0.115E+00
   -.581E+01 0.335E+01 0.981E+03   0.526E+01 -.304E+01 -.981E+03   0.463E+00 -.267E+00 -.836E+00   0.852E-01 -.492E-01 0.139E+00
   0.425E+01 -.245E+01 0.987E+03   -.436E+01 0.252E+01 -.986E+03   0.137E+00 -.793E-01 -.460E+00   -.738E-01 0.493E-01 0.115E+00
   -.425E+01 -.245E+01 0.987E+03   0.436E+01 0.252E+01 -.986E+03   -.137E+00 -.793E-01 -.460E+00   0.839E-01 0.487E-01 0.113E+00
   0.155E-04 0.111E+01 0.982E+03   -.108E-03 -.124E+01 -.981E+03   0.307E-12 0.468E-01 -.804E+00   -.108E-02 0.532E-01 0.111E+00
   -.728E-05 -.670E+01 0.981E+03   0.205E-04 0.608E+01 -.981E+03   0.351E-11 0.535E+00 -.836E+00   0.548E-05 0.983E-01 0.139E+00
   0.964E+00 -.557E+00 0.982E+03   -.107E+01 0.619E+00 -.981E+03   0.405E-01 -.234E-01 -.804E+00   0.455E-01 -.275E-01 0.111E+00
   -.964E+00 -.557E+00 0.982E+03   0.107E+01 0.619E+00 -.981E+03   -.405E-01 -.234E-01 -.804E+00   -.456E-01 -.264E-01 0.111E+00
   0.383E-04 0.160E+00 -.906E+03   -.128E-03 -.126E+00 0.905E+03   0.664E-13 0.101E-01 0.796E+00   0.687E-02 -.378E-01 0.564E+00
   0.419E+01 0.242E+01 -.871E+03   -.301E+01 -.174E+01 0.871E+03   -.129E+01 -.742E+00 -.113E+01   -.673E-01 -.388E-01 0.515E+00
   -.419E+01 0.242E+01 -.871E+03   0.301E+01 -.174E+01 0.871E+03   0.129E+01 -.742E+00 -.113E+01   0.550E-01 -.387E-01 0.515E+00
   -.863E+00 0.498E+00 -.895E+03   0.596E+00 -.344E+00 0.894E+03   0.387E+00 -.223E+00 0.619E+00   -.733E-01 0.409E-01 0.472E+00
   -.537E-04 -.484E+01 -.871E+03   0.416E-04 0.348E+01 0.871E+03   0.975E-11 0.148E+01 -.113E+01   -.568E-02 0.677E-01 0.515E+00
   0.863E+00 0.498E+00 -.895E+03   -.596E+00 -.344E+00 0.894E+03   -.387E+00 -.223E+00 0.619E+00   0.747E-01 0.432E-01 0.473E+00
   -.139E+00 -.801E-01 -.906E+03   0.109E+00 0.632E-01 0.905E+03   -.875E-02 -.505E-02 0.796E+00   0.407E-01 0.233E-01 0.564E+00
   0.139E+00 -.800E-01 -.906E+03   -.109E+00 0.631E-01 0.905E+03   0.875E-02 -.505E-02 0.796E+00   -.296E-01 0.247E-01 0.564E+00
   0.201E-04 -.996E+00 -.895E+03   0.110E-03 0.688E+00 0.894E+03   0.293E-11 0.447E+00 0.619E+00   -.189E-02 -.839E-01 0.472E+00
   0.532E-04 -.364E-04 -.273E+04   -.115E-03 0.778E-04 0.273E+04   0.306E-17 -.333E-17 0.194E+01   -.674E-03 -.525E-03 0.524E+00
   0.236E+02 0.416E+02 -.272E+04   -.226E+02 -.403E+02 0.272E+04   -.940E+00 -.135E+01 0.188E+01   -.116E+00 -.102E+00 0.487E+00
   -.236E+02 0.416E+02 -.272E+04   0.226E+02 -.403E+02 0.272E+04   0.940E+00 -.135E+01 0.188E+01   0.125E+00 -.101E+00 0.488E+00
   0.478E+02 -.362E+00 -.272E+04   -.462E+02 0.557E+00 0.272E+04   -.164E+01 -.138E+00 0.188E+01   -.146E+00 -.491E-01 0.487E+00
   -.478E+02 -.362E+00 -.272E+04   0.462E+02 0.557E+00 0.272E+04   0.164E+01 -.138E+00 0.188E+01   0.156E+00 -.478E-01 0.488E+00
   0.242E+02 -.412E+02 -.272E+04   -.236E+02 0.397E+02 0.272E+04   -.701E+00 0.149E+01 0.188E+01   -.243E-01 0.159E+00 0.488E+00
   -.242E+02 -.412E+02 -.272E+04   0.236E+02 0.397E+02 0.272E+04   0.701E+00 0.149E+01 0.188E+01   0.361E-01 0.159E+00 0.488E+00
   0.224E-04 -.114E-04 -.273E+04   0.106E-03 -.659E-04 0.273E+04   0.588E-17 -.600E-19 0.206E+01   -.774E-02 -.404E-02 0.578E+00
   -.670E-05 -.961E-05 -.151E+04   0.677E-04 0.862E-05 0.151E+04   -.183E-17 -.588E-18 -.596E+00   0.614E-04 0.680E-04 0.338E+00
   -.705E-07 -.757E-04 -.104E+04   0.190E-04 0.262E-06 0.102E+04   0.890E-18 0.525E-18 0.187E+02   0.861E-03 0.537E-03 0.590E-03
   0.240E-03 -.905E-04 -.173E+04   0.918E-05 0.122E-07 0.174E+04   0.488E-18 0.295E-18 -.475E+01   0.372E-02 0.229E-02 -.283E-01
   0.657E-05 -.143E-04 -.333E+03   0.624E-06 -.287E-08 0.341E+03   0.140E-20 -.170E-19 -.869E+01   0.198E-03 0.121E-03 -.648E-02
   0.615E-03 -.861E-03 -.601E+01   -.559E-13 0.145E-12 0.142E-11   -.328E-15 -.222E-15 -.360E+00   0.398E-01 0.264E-01 0.651E+01

 POSITION                                       TOTAL-FORCE (eV/Angst)
      0.00000      0.00000      5.28219         0.000000      0.000000     -0.009618
      2.93046      0.00000      5.28219         0.009214      0.026391      0.036746
      5.86091      0.00000      5.28219        -0.009214      0.026391      0.036746
      1.46523      2.53785      5.28219         0.027462     -0.005216      0.036746
      4.39568      2.53785      5.28219        -0.000000     -0.000000      0.010412
      7.32614      2.53785      5.28219        -0.027462     -0.005216      0.036746
      2.93046      5.07570      5.28219         0.018248     -0.021175      0.036746
      5.86091      5.07570      5.28219        -0.018248     -0.021175      0.036746
      8.79137      5.07570      5.28219        -0.000000     -0.000000      0.037295
      1.46523      0.84595      7.67490        -0.003710     -0.002142     -0.018106
      4.39568      0.84595      7.67490        -0.000000     -0.063122     -0.080062
      7.32614      0.84595      7.67490         0.003710     -0.002142     -0.018106
      2.93046      3.38380      7.67490        -0.054665      0.031561     -0.080062
      5.86091      3.38380      7.67490         0.054665      0.031561     -0.080062
      8.79137      3.38380      7.67490        -0.000000     -0.024692      0.020264
      4.39568      5.92165      7.67490         0.000000      0.004283     -0.018106
      7.32614      5.92165      7.67490        -0.021384      0.012346      0.020264
     10.25659      5.92165      7.67490         0.021384      0.012346      0.020264
      8.79137      1.69725     10.06774         0.000000      0.003045      0.029088
      2.92950      1.69135     10.02116        -0.170462     -0.098417     -0.262396
      5.86187      1.69135     10.02116         0.170462     -0.098417     -0.262396
     10.25061      4.23320     10.05696         0.046715     -0.026971      0.008359
      4.39568      4.23086     10.02116         0.000000      0.196833     -0.262396
      7.33212      4.23320     10.05696        -0.046715     -0.026971      0.008359
     11.71719      6.76492     10.06774        -0.002637     -0.001523      0.029088
      5.86555      6.76492     10.06774         0.002637     -0.001523      0.029088
      8.79137      6.76069     10.05696         0.000000      0.053942      0.008359
      0.00000      0.00000     12.43040         0.000000      0.000000     -0.023996
      2.96174      0.05879     12.46433        -0.064010     -0.121275     -0.104850
      5.82963      0.05879     12.46433         0.064010     -0.121275     -0.104850
      1.53179      2.53554     12.46433        -0.137032      0.005204     -0.104850
      7.25958      2.53554     12.46433         0.137032      0.005204     -0.104850
      2.96573      5.01921     12.46433        -0.073023      0.116072     -0.104850
      5.82563      5.01921     12.46433         0.073023      0.116072     -0.104850
      8.79137      5.07570     12.42552         0.000000     -0.000000     -0.016450
      4.39568      2.53785     12.19879        -0.000000     -0.000000      1.301459
      4.39568      2.53785     13.99807         0.000000      0.000000      0.015871
      4.39568      2.53785     15.26612         0.000000      0.000000     -0.003445
      4.39568      2.53785     16.22196         0.000000      0.000000      0.005656
    total drift:                                0.040421      0.025495      0.135904

  FREE ENERGIE OF THE ION-ELECTRON SYSTEM (eV)
  free  energy   TOTEN  =      -116.79972671 eV

  energy  without entropy=     -116.79972671  energy(sigma->0) =     -116.79972671

 stress matrix after NEB project (eV)
     -7.07963     -0.00000      0.00000
     -0.00000     -7.07963      0.00000
     -0.00000      0.00000      1.19559
  FORCES: max atom, RMS     0.015871    0.002754
  FORCE total and by dimension    0.017197    0.015871
  Stress total and by dimension   10.083239    7.079628
|           W    W    AA    RRRRR   N    N  II  N    N   GGGG   !!!           |
|           W    W   A  A   R    R  NN   N  II  NN   N  G    G  !!!           |
|           W    W  A    A  R    R  N N  N  II  N N  N  G       !!!           |
|           W WW W  AAAAAA  RRRRR   N  N N  II  N  N N  G  GGG   !            |
|           WW  WW  A    A  R   R   N   NN  II  N   NN  G    G                |
|           W    W  A    A  R    R  N    N  II  N    N   GGGG   !!!           |
|     Tetrahedron method does not include variations of the Fermi             |
|     occupations, so forces and stress will be inaccurate. We suggest        |
|     using a different smearing scheme ISMEAR = 1 or 2 for metals in         |
|     relaxations.                                                            |

 total charge

# of ion       s       p       d       tot
    1        0.419   0.201   9.178   9.799
    2        0.419   0.203   9.177   9.799
    3        0.419   0.203   9.177   9.799
    4        0.419   0.203   9.177   9.799
    5        0.419   0.204   9.175   9.798
    6        0.419   0.203   9.177   9.799
    7        0.419   0.203   9.177   9.799
    8        0.419   0.203   9.177   9.799
    9        0.413   0.204   9.178   9.795
   10        0.408   0.269   9.164   9.841
   11        0.410   0.270   9.168   9.847
   12        0.408   0.269   9.164   9.841
   13        0.410   0.270   9.168   9.847
   14        0.410   0.270   9.168   9.847
   15        0.400   0.271   9.165   9.836
   16        0.408   0.269   9.164   9.841
   17        0.400   0.271   9.165   9.836
   18        0.400   0.271   9.165   9.836
   19        0.402   0.264   9.167   9.833
   20        0.437   0.305   9.143   9.885
   21        0.437   0.305   9.143   9.885
   22        0.393   0.276   9.165   9.834
   23        0.437   0.305   9.143   9.885
   24        0.393   0.276   9.165   9.834
   25        0.402   0.264   9.167   9.833
   26        0.402   0.264   9.167   9.833
   27        0.393   0.276   9.165   9.834
   28        0.417   0.195   9.179   9.791
   29        0.417   0.224   9.166   9.808
   30        0.417   0.224   9.166   9.808
   31        0.417   0.224   9.166   9.808
   32        0.417   0.224   9.166   9.808
   33        0.417   0.224   9.166   9.808
   34        0.417   0.224   9.166   9.808
   35        0.410   0.200   9.178   9.787
   36        0.567   0.505   4.960   6.032
   37        0.913   1.482   0.000   2.396
   38        1.519   3.771   0.000   5.290
   39        0.566   0.138   0.000   0.704
tot         18.006  14.432 325.820 358.258

 BZINTS: Fermi energy:    0.457916;  403.000000 electrons
         Band energy:-0.152918E+04;  BLOECHL correction:   -0.025052