 vasp.6.2.0 18Jan21 (build Jun 12 2021 23:27:24) complex

 executed on             LinuxIFC date 2022.05.30  18:13:48

 INCAR:
   ISMEAR = -5
   SIGMA = 0.1
   ISPIN = 1
   EDIFF = 1.d-5
   EDIFFG = -0.01
   NSW = 0
   NELM = 150
   ENCUT = 500
   ISIF = 2
   IBRION = 2
   LREAL = Auto
   ALGO = Fast
   ICHARG = 11
   LORBIT = 10
   LCHARG = .F.
   LWAVE = .F.

 POTCAR:    PAW_PBE Cu 22Jun2005
 POTCAR:    PAW_PBE Zr_sv 04Jan2005
 POTCAR:    PAW_PBE C 08Apr2002
|           W    W    AA    RRRRR   N    N  II  N    N   GGGG   !!!           |
|           W    W   A  A   R    R  NN   N  II  NN   N  G    G  !!!           |
|           W    W  A    A  R    R  N N  N  II  N N  N  G       !!!           |
|           W WW W  AAAAAA  RRRRR   N  N N  II  N  N N  G  GGG   !            |
|           WW  WW  A    A  R   R   N   NN  II  N   NN  G    G                |
|           W    W  A    A  R    R  N    N  II  N    N   GGGG   !!!           |
|     For optimal performance we recommend to set                             |
|       NCORE = 2 up to number-of-cores-per-socket                            |
|     This setting can greatly improve the performance of VASP for DFT.       |
|     The default, NCORE=1 might be grossly inefficient on modern             |
|     multi-core architectures or massively parallel machines. Do your        |
|     Unfortunately you need to use the default for GW and RPA                |
|     calculations (for HF NCORE is supported but not extensively tested      |
|     yet).                                                                   |

 POTCAR:    PAW_PBE Cu 22Jun2005
   VRHFIN =Cu: d10 p1

   TITEL  = PAW_PBE Cu 22Jun2005
   POMASS =   63.546; ZVAL   =   11.000    mass and valenz
   ENMAX  =  295.446; ENMIN  =  221.585 eV

 POTCAR:    PAW_PBE Zr_sv 04Jan2005
   VRHFIN =Zr: 4s4p5s4d

   TITEL  = PAW_PBE Zr_sv 04Jan2005
   POMASS =   91.224; ZVAL   =   12.000    mass and valenz
   ENMAX  =  229.898; ENMIN  =  172.424 eV

 POTCAR:    PAW_PBE C 08Apr2002
   VRHFIN =C: s2p2

   TITEL  = PAW_PBE C 08Apr2002
   POMASS =   12.011; ZVAL   =    4.000    mass and valenz
   ENMAX  =  400.000; ENMIN  =  300.000 eV

 Optimization of the real space projectors (new method)

 maximal supplied QI-value         = 16.25
 optimisation between [QCUT,QGAM] = [ 11.38, 22.75] = [ 36.24,144.96] Ry
 Optimized for a Real-space Cutoff    1.52 Angstroem

   l    n(q)    QCUT    max X(q) W(low)/X(q) W(high)/X(q)  e(spline)
   2      9    11.376     4.610    0.21E-03    0.10E-03    0.26E-06
   2      9    11.376     8.522    0.33E-03    0.16E-03    0.37E-06
   0     10    11.376    51.609    0.62E-04    0.20E-04    0.13E-06
   0     10    11.376    27.747    0.54E-04    0.20E-04    0.13E-06
   1     10    11.376    20.408    0.13E-04    0.99E-04    0.19E-06
   1     10    11.376    13.425    0.12E-04    0.87E-04    0.17E-06
 Optimization of the real space projectors (new method)

[...]

   l    n(q)    QCUT    max X(q) W(low)/X(q) W(high)/X(q)  e(spline)
   0     10    11.338    12.107    0.38E-04    0.13E-04    0.27E-07
   0     10    11.338     9.948    0.69E-04    0.30E-04    0.38E-07
   1     10    11.338     3.563    0.26E-04    0.18E-04    0.40E-07
   1     10    11.338     4.524    0.25E-03    0.39E-04    0.44E-06
   2      9    11.338    87.261    0.26E-03    0.91E-05    0.26E-06
   2      9    11.338    70.950    0.25E-03    0.91E-05    0.25E-06
 Optimization of the real space projectors (new method)

 maximal supplied QI-value         = 25.13
 optimisation between [QCUT,QGAM] = [ 11.31, 22.87] = [ 35.82,146.48] Ry
 Optimized for a Real-space Cutoff    1.00 Angstroem

   l    n(q)    QCUT    max X(q) W(low)/X(q) W(high)/X(q)  e(spline)
   0      7    11.310   115.676    0.43E-03    0.13E-02    0.19E-06
   0      7    11.310    87.132    0.43E-03    0.13E-02    0.18E-06
   1      6    11.310     4.429    0.42E-03    0.74E-03    0.11E-06
   1      6    11.310     2.733    0.34E-03    0.55E-03    0.92E-07
  PAW_PBE Cu 22Jun2005                  :
  PAW_PBE Zr_sv 04Jan2005               :
  PAW_PBE C 08Apr2002                   :

 POSCAR: Cu-Zr-C
  positions in direct lattice
  velocities in cartesian coordinates
 exchange correlation table for  LEXCH =        8
   RHO(1)=    0.500       N(1)  =     2000
   RHO(2)=  100.500       N(2)  =     4000

 VTST: version 3.2, (02/03/18)

 CHAIN: initializing optimizer

 OPT: Using VASP Conjugate-Gradient optimizer
 CHAIN: Read ICHAIN            0

 POSCAR: Cu-Zr-C
  positions in direct lattice
  velocities in cartesian coordinates

 ion  position               nearest neighbor table
   1  0.000  0.000  0.226-   7 2.57   3 2.57   4 2.57   2 2.57   6 2.57   8 2.57  12 2.57  10 2.57
                            16 2.57
   2  0.333  0.000  0.226-   8 2.57   9 2.57   5 2.57   1 2.57   3 2.57  11 2.57   4 2.57  10 2.57
                            17 2.57
   3  0.667  0.000  0.226-   1 2.57   7 2.57   6 2.57   9 2.57   2 2.57  12 2.57   5 2.57  18 2.57
                            11 2.57
   4  0.000  0.333  0.226-   5 2.57   6 2.57   1 2.57   7 2.57   2 2.57  13 2.57   9 2.57  10 2.57
                            15 2.57
   5  0.333  0.333  0.226-   4 2.57   2 2.57   7 2.57  13 2.57   8 2.57   6 2.57   3 2.57  11 2.57
                            14 2.57
   6  0.667  0.333  0.226-   4 2.57   9 2.57  15 2.57   3 2.57   1 2.57   8 2.57  14 2.57   5 2.57
                            12 2.57
   7  0.000  0.667  0.226-   1 2.57   3 2.57  16 2.57  18 2.57   4 2.57   5 2.57   8 2.57   9 2.57
                            13 2.57
   8  0.333  0.667  0.226-   9 2.57   2 2.57  17 2.57   6 2.57   1 2.57   7 2.57   5 2.57  14 2.57
                            16 2.57
   9  0.667  0.667  0.226-   8 2.57   6 2.57   2 2.57  17 2.57   3 2.57   7 2.57   4 2.57  15 2.57
                            18 2.57
  10  0.111  0.111  0.314-  26 2.54  19 2.54  11 2.57  12 2.57  13 2.57   1 2.57   2 2.57   4 2.57
                            15 2.57  16 2.57  17 2.57  20 2.59
  11  0.444  0.111  0.314-  27 2.56  10 2.57  13 2.57   2 2.57  17 2.57  14 2.57  12 2.57   5 2.57
                             3 2.57  18 2.57  20 2.58  21 2.58
  12  0.778  0.111  0.314-  19 2.54  25 2.54  15 2.57  10 2.57  14 2.57  18 2.57   3 2.57   1 2.57
                            16 2.57  11 2.57   6 2.57  21 2.59
  13  0.111  0.444  0.314-  22 2.56  16 2.57  18 2.57  10 2.57  11 2.57  14 2.57   5 2.57   4 2.57
                             7 2.57  15 2.57  23 2.58  20 2.58
  14  0.444  0.444  0.314-  24 2.56  15 2.57  17 2.57  12 2.57  16 2.57  13 2.57  11 2.57   6 2.57
                             8 2.57   5 2.57  21 2.58  23 2.58
  15  0.778  0.444  0.314-  19 2.54  24 2.56  22 2.56  14 2.57  17 2.57  12 2.57   6 2.57  18 2.57
                            10 2.57   9 2.57  13 2.57   4 2.57
  16  0.111  0.778  0.314-  25 2.54  26 2.54  18 2.57  13 2.57   7 2.57  14 2.57  17 2.57  12 2.57
                            10 2.57   8 2.57   1 2.57  23 2.59
  17  0.444  0.778  0.314-  26 2.54  27 2.56  24 2.56  14 2.57  15 2.57   8 2.57   9 2.57  11 2.57
                            16 2.57  18 2.57  10 2.57   2 2.57
  18  0.778  0.778  0.314-  25 2.54  22 2.56  27 2.56  16 2.57  13 2.57   7 2.57  15 2.57  12 2.57
                            17 2.57   9 2.57   3 2.57  11 2.57
  19  0.889  0.221  0.401-  12 2.54  10 2.54  15 2.54  25 2.55  26 2.55  32 2.56  31 2.56  22 2.57
                            24 2.57  28 2.57  21 2.58  20 2.58
  20  0.223  0.223  0.403-  23 2.55  21 2.55  29 2.57  31 2.57  27 2.57  22 2.57  26 2.58  19 2.58
                            11 2.58  13 2.58  10 2.59  36 2.86
  21  0.554  0.223  0.403-  20 2.55  23 2.55  32 2.57  30 2.57  24 2.57  27 2.57  19 2.58  25 2.58
                            14 2.58  11 2.58  12 2.59  36 2.86
  22  0.889  0.556  0.402-  18 2.56  15 2.56  13 2.56  31 2.56  33 2.56  24 2.57  27 2.57  23 2.57
                            20 2.57  19 2.57  25 2.57  35 2.58
  23  0.223  0.554  0.403-  20 2.55  21 2.55  33 2.57  34 2.57  22 2.57  24 2.57  25 2.58  26 2.58
                            13 2.58  14 2.58  16 2.59  36 2.86
  24  0.556  0.556  0.402-  15 2.56  17 2.56  14 2.56  32 2.56  34 2.56  22 2.57  27 2.57  21 2.57
                            23 2.57  19 2.57  26 2.57  35 2.58
  25  0.889  0.889  0.401-  12 2.54  16 2.54  18 2.54  19 2.55  26 2.55  33 2.56  30 2.56  22 2.57
                            27 2.57  28 2.57  21 2.58  23 2.58
  26  0.221  0.889  0.401-  10 2.54  16 2.54  17 2.54  25 2.55  19 2.55  29 2.56  34 2.56  27 2.57
                            24 2.57  28 2.57  20 2.58  23 2.58
  27  0.556  0.889  0.402-  17 2.56  18 2.56  11 2.56  29 2.56  30 2.56  24 2.57  22 2.57  20 2.57
                            21 2.57  26 2.57  25 2.57  35 2.58
  28  0.000  0.000  0.489-  33 2.55  30 2.55  31 2.55  29 2.55  32 2.55  34 2.55  25 2.57  19 2.57
                            26 2.57
  29  0.334  0.994  0.489-  34 2.47  35 2.54  28 2.55  27 2.56  26 2.56  20 2.57  30 2.60  31 2.62
                            36 2.64
  30  0.672  0.994  0.489-  33 2.47  35 2.54  28 2.55  27 2.56  25 2.56  21 2.57  29 2.60  32 2.62
                            36 2.64
  31  0.994  0.334  0.489-  32 2.47  35 2.54  28 2.55  22 2.56  19 2.56  20 2.57  33 2.60  29 2.62
                            36 2.64
  32  0.672  0.334  0.489-  31 2.47  35 2.54  28 2.55  24 2.56  19 2.56  21 2.57  34 2.60  30 2.62
                            36 2.64
  33  0.994  0.672  0.489-  30 2.47  35 2.54  28 2.55  22 2.56  25 2.56  23 2.57  31 2.60  34 2.62
                            36 2.64
  34  0.334  0.672  0.489-  29 2.47  35 2.54  28 2.55  24 2.56  26 2.56  23 2.57  32 2.60  33 2.62
                            36 2.64
  35  0.667  0.667  0.490-  34 2.54  32 2.54  29 2.54  30 2.54  33 2.54  31 2.54  24 2.58  27 2.58
                            22 2.58
  36  0.333  0.333  0.506-  37 1.92  31 2.64  29 2.64  33 2.64  32 2.64  34 2.64  30 2.64  23 2.86
                            20 2.86  21 2.86
  37  0.333  0.333  0.586-  36 1.92

  LATTYP: Found a hexagonal cell.
 ALAT       =     7.6967864036
 C/A-ratio  =     3.0908716217

  Lattice vectors:

 A1 = (  -3.8483927580,  -6.6656128093,   0.0000000000)
 A2 = (   7.6967864037,   0.0000000000,   0.0000000000)
 A3 = (   0.0000000000,   0.0000000000,  23.7897786731)

Analysis of symmetry for initial positions (statically):
 Subroutine PRICEL returns:
 Original cell was already a primitive cell.

 Routine SETGRP: Setting up the symmetry group for a
 hexagonal supercell.

 Subroutine GETGRP returns: Found  6 space group operations
 (whereof  6 operations were pure point group operations)
 out of a pool of 24 trial point group operations.

The static configuration has the point symmetry C_3v.

Analysis of symmetry for dynamics (positions and initial velocities):
 Subroutine PRICEL returns:
 Original cell was already a primitive cell.

[...]

The dynamic configuration has the point symmetry C_3v.

Analysis of constrained symmetry for selective dynamics:
 Subroutine PRICEL returns:
 Original cell was already a primitive cell.

 Routine SETGRP: Setting up the symmetry group for a
 hexagonal supercell.

 Subroutine GETGRP returns: Found  6 space group operations
[...]
     24      -5.0704      2.00000
     25      -5.0138      2.00000
     26      -5.0077      2.00000
     27      -4.9986      2.00000
     28      -4.9204      2.00000
     29      -4.7931      2.00000
     30      -4.7737      2.00000
     31      -4.7610      2.00000
     32      -4.7242      2.00000
     33      -4.7108      2.00000
     34      -4.7085      2.00000
     35      -4.6985      2.00000
     36      -4.6942      2.00000
     37      -4.6857      2.00000
     38      -4.6546      2.00000
     39      -4.5747      2.00000
     40      -4.5620      2.00000
     41      -4.4837      2.00000
     42      -4.3952      2.00000
     43      -4.3750      2.00000
     44      -4.3314      2.00000
     45      -4.3169      2.00000
     46      -4.2973      2.00000
     47      -4.2847      2.00000
     48      -4.2770      2.00000
     49      -4.2717      2.00000
     50      -4.2432      2.00000
     51      -4.1040      2.00000
     52      -4.0847      2.00000
     53      -4.0609      2.00000
     54      -4.0450      2.00000
     55      -4.0007      2.00000
     56      -3.9971      2.00000
     57      -3.9745      2.00000
     58      -3.9694      2.00000
     59      -3.9589      2.00000
     60      -3.9524      2.00000
[...]
    238       5.4859      0.00000
    239       5.6261      0.00000
    240       5.6403      0.00000
    241       5.8689      0.00000
    242       6.0530      0.00000
    243       6.2519      0.00000
    244       6.2909      0.00000
    245       6.2953      0.00000
    246       6.3889      0.00000
    247       6.4162      0.00000
    248       6.4560      0.00000
    249       6.7393      0.00000
    250       6.7763      0.00000
    251       6.8174      0.00000
    252       6.8408      0.00000

 soft charge-density along one line, spin component           1
         0         1         2         3         4         5         6         7         8         9
 total charge-density along one line

------------------------ aborting loop because EDIFF is reached ----------------------------------------

 total charge

# of ion       s       p       d       tot
    1        0.447   0.285   9.187   9.919
    2        0.448   0.285   9.187   9.920
    3        0.448   0.285   9.187   9.920
    4        0.448   0.285   9.187   9.920
    5        0.450   0.284   9.186   9.920
    6        0.448   0.285   9.187   9.920
    7        0.448   0.285   9.187   9.920
    8        0.448   0.285   9.187   9.920
    9        0.448   0.284   9.189   9.920
   10        0.441   0.373   9.178   9.992
   11        0.443   0.365   9.181   9.989
   12        0.441   0.373   9.178   9.992
   13        0.443   0.365   9.181   9.989
   14        0.443   0.365   9.181   9.989
   15        0.440   0.374   9.177   9.990
   16        0.441   0.373   9.178   9.992
   17        0.440   0.374   9.177   9.990
   18        0.440   0.374   9.177   9.990
   19        0.443   0.372   9.180   9.996
   20        0.444   0.374   9.174   9.992
   21        0.444   0.374   9.174   9.992
   22        0.434   0.374   9.180   9.987
   23        0.444   0.374   9.174   9.992
   24        0.434   0.374   9.180   9.987
   25        0.443   0.372   9.180   9.996
   26        0.443   0.372   9.180   9.996
   27        0.434   0.374   9.180   9.987
   28        0.443   0.291   9.188   9.922
   29        0.480   0.303   9.179   9.962
   30        0.480   0.303   9.179   9.962
   31        0.480   0.303   9.179   9.962
   32        0.480   0.303   9.179   9.962
   33        0.480   0.303   9.179   9.962
   34        0.480   0.303   9.179   9.962
   35        0.442   0.296   9.188   9.926
   36        2.216   5.968   1.984  10.169
   37        1.014   1.152   0.000   2.166
tot         18.963  18.782 323.329 361.074

  FORCE on cell =-STRESS in cart. coord.  units (eV):
  Direction    XX          YY          ZZ          XY          YZ          ZX
  Alpha Z   807.65096   807.65096   807.65096
  Ewald  224300.78034224300.77990************     0.00039     0.00014     0.00021
  Hartree237081.39161237081.39158************     0.00004     0.00007     0.00007
  E(xc)   -2311.97641 -2311.97594 -2315.84735    -0.00041    -0.00004    -0.00006
  Local  ************************474936.29110     0.01834    -0.00058    -0.00093
  n-local  -767.65015  -756.14904  -780.58140     6.76581    -0.17749     0.28601
  augment  3308.18526  3308.20498  3332.56430    -0.01708     0.00030     0.00054
  Kinetic  3412.16895  3414.88739  3446.62445     3.35489     1.71928    -1.26755
  Fock        0.00000     0.00000     0.00000     0.00000     0.00000     0.00000
  Total      -0.67493    -0.67493    -0.02872     0.00000     0.00000     0.00000
  in kB      -0.88599    -0.88599    -0.03770     0.00000     0.00000     0.00000

 VOLUME and BASIS-vectors are now :
  energy-cutoff  :      500.00
  volume of cell :     1220.51
      direct lattice vectors                 reciprocal lattice vectors
     7.696786404  0.000000000  0.000000000     0.129924354 -0.075011849  0.000000000
     3.848392758  6.665612809  0.000000000     0.000000000  0.150023716  0.000000000
     0.000000000  0.000000000 23.789778673     0.000000000  0.000000000  0.042034859

  length of vectors
     7.696786404  7.696786404 23.789778673     0.150023716  0.150023716  0.042034859

 FORCES acting on ions
    electron-ion (+dipol)            ewald-force                    non-local-force                 convergence-correction
   -.420E-04 -.914E-07 0.375E+04   0.579E-04 -.430E-05 -.375E+04   -.415E-17 0.193E-17 -.237E+01   -.335E-03 -.160E-03 -.386E+00
   -.952E+00 -.109E+01 0.375E+04   0.893E+00 0.952E+00 -.374E+04   0.527E-01 0.976E-01 -.199E+01   0.930E-02 0.354E-01 -.358E+00
   0.952E+00 -.109E+01 0.375E+04   -.893E+00 0.952E+00 -.374E+04   -.527E-01 0.976E-01 -.199E+01   -.846E-02 0.380E-01 -.357E+00
   -.142E+01 -.280E+00 0.375E+04   0.127E+01 0.297E+00 -.374E+04   0.111E+00 -.315E-02 -.199E+01   0.354E-01 -.971E-02 -.358E+00
   -.627E-04 -.402E-05 0.374E+04   0.116E-03 -.101E-04 -.374E+04   0.194E-17 0.227E-18 -.179E+01   0.122E-01 0.748E-02 -.407E+00
   0.142E+01 -.280E+00 0.375E+04   -.127E+01 0.297E+00 -.374E+04   -.111E+00 -.315E-02 -.199E+01   -.371E-01 -.847E-02 -.357E+00
   -.468E+00 0.137E+01 0.375E+04   0.378E+00 -.125E+01 -.374E+04   0.582E-01 -.944E-01 -.199E+01   0.287E-01 -.264E-01 -.357E+00
   0.468E+00 0.137E+01 0.375E+04   -.378E+00 -.125E+01 -.374E+04   -.582E-01 -.944E-01 -.199E+01   -.252E-01 -.279E-01 -.357E+00
   -.144E-03 -.329E-04 0.375E+04   0.263E-03 0.205E-04 -.374E+04   0.178E-17 0.708E-18 -.223E+01   -.133E-01 -.685E-02 -.280E+00
   -.105E+02 -.605E+01 0.129E+04   0.107E+02 0.617E+01 -.129E+04   -.144E+00 -.833E-01 -.890E+00   -.177E-01 -.102E-01 0.294E+00
   -.877E-04 -.829E+01 0.128E+04   0.189E-03 0.834E+01 -.128E+04   -.785E-08 0.118E+00 -.693E+00   0.118E-01 -.118E+00 0.306E+00
   0.105E+02 -.605E+01 0.129E+04   -.107E+02 0.617E+01 -.129E+04   0.144E+00 -.833E-01 -.890E+00   0.157E-01 -.819E-02 0.294E+00
   -.718E+01 0.415E+01 0.128E+04   0.722E+01 -.417E+01 -.128E+04   0.102E+00 -.590E-01 -.693E+00   -.962E-01 0.703E-01 0.306E+00
   0.718E+01 0.415E+01 0.128E+04   -.722E+01 -.417E+01 -.128E+04   -.102E+00 -.590E-01 -.693E+00   0.121E+00 0.693E-01 0.306E+00
   -.139E-03 -.204E+01 0.129E+04   0.296E-03 0.192E+01 -.129E+04   -.620E-08 0.931E-01 -.990E+00   -.405E-02 0.315E-01 0.306E+00
   -.906E-04 0.121E+02 0.129E+04   0.186E-03 -.123E+02 -.129E+04   -.111E-07 0.167E+00 -.890E+00   -.169E-03 0.165E-01 0.294E+00
   -.177E+01 0.102E+01 0.129E+04   0.166E+01 -.958E+00 -.129E+04   0.806E-01 -.465E-01 -.990E+00   0.259E-01 -.193E-01 0.306E+00
   0.177E+01 0.102E+01 0.129E+04   -.166E+01 -.958E+00 -.129E+04   -.806E-01 -.465E-01 -.990E+00   -.252E-01 -.162E-01 0.307E+00
   -.707E-04 -.492E+01 -.115E+04   0.673E-04 0.498E+01 0.115E+04   0.100E-08 -.150E-01 0.119E+01   -.248E-02 -.181E-01 0.575E+00
   -.271E+02 -.156E+02 -.123E+04   0.275E+02 0.159E+02 0.123E+04   -.577E+00 -.333E+00 -.120E+00   0.321E-01 0.184E-01 0.672E+00
   0.271E+02 -.156E+02 -.123E+04   -.275E+02 0.159E+02 0.123E+04   0.577E+00 -.333E+00 -.120E+00   -.807E-02 0.199E-01 0.671E+00
   -.115E+02 0.665E+01 -.118E+04   0.112E+02 -.648E+01 0.118E+04   0.247E+00 -.143E+00 0.696E+00   0.491E-01 -.294E-01 0.498E+00
   -.487E-04 0.313E+02 -.123E+04   0.149E-03 -.318E+02 0.123E+04   -.444E-07 0.667E+00 -.120E+00   0.120E-01 -.181E-01 0.671E+00
   0.115E+02 0.665E+01 -.118E+04   -.112E+02 -.648E+01 0.118E+04   -.247E+00 -.143E+00 0.696E+00   -.517E-01 -.307E-01 0.498E+00
   0.426E+01 0.246E+01 -.115E+04   -.432E+01 -.249E+01 0.115E+04   0.130E-01 0.752E-02 0.119E+01   0.171E-01 0.991E-02 0.575E+00
   -.426E+01 0.246E+01 -.115E+04   0.432E+01 -.249E+01 0.115E+04   -.130E-01 0.752E-02 0.119E+01   -.165E-01 0.709E-02 0.575E+00
   -.145E-03 -.133E+02 -.118E+04   0.243E-03 0.130E+02 0.118E+04   -.190E-07 0.286E+00 0.696E+00   -.950E-03 0.571E-01 0.498E+00
   -.163E-04 0.306E-04 -.364E+04   0.394E-04 -.329E-04 0.364E+04   0.271E-17 0.160E-17 0.246E+01   -.332E-03 -.140E-03 0.547E+00
   0.973E+00 -.124E+02 -.361E+04   -.970E+00 0.120E+02 0.361E+04   -.159E+00 0.587E-01 0.178E+01   0.244E-01 0.128E+00 0.439E+00
   -.973E+00 -.124E+02 -.361E+04   0.970E+00 0.120E+02 0.361E+04   0.159E+00 0.587E-01 0.178E+01   -.233E-01 0.130E+00 0.438E+00
   -.102E+02 0.702E+01 -.361E+04   0.987E+01 -.682E+01 0.361E+04   -.286E-01 -.167E+00 0.178E+01   0.123E+00 -.429E-01 0.439E+00
   0.102E+02 0.702E+01 -.361E+04   -.987E+01 -.682E+01 0.361E+04   0.286E-01 -.167E+00 0.178E+01   -.125E+00 -.419E-01 0.438E+00
   -.112E+02 0.533E+01 -.361E+04   0.108E+02 -.514E+01 0.361E+04   0.130E+00 0.108E+00 0.178E+01   0.101E+00 -.854E-01 0.438E+00
   0.112E+02 0.533E+01 -.361E+04   -.108E+02 -.514E+01 0.361E+04   -.130E+00 0.108E+00 0.178E+01   -.979E-01 -.871E-01 0.438E+00
   -.129E-03 -.663E-05 -.367E+04   0.258E-03 -.440E-06 0.366E+04   0.353E-18 -.984E-18 0.261E+01   -.133E-01 -.687E-02 0.391E+00
   0.145E-03 -.162E-03 -.406E+04   0.122E-03 0.327E-04 0.406E+04   -.970E-18 0.716E-18 -.232E+00   0.529E-02 0.319E-02 0.538E+00
   0.572E-04 -.255E-04 -.158E+04   0.526E-05 0.312E-05 0.158E+04   -.343E-18 0.352E-19 -.143E+01   0.709E-03 0.428E-03 -.210E-01
   0.388E-04 -.111E-03 -.222E+01   -.314E-13 -.939E-13 -.196E-10   -.140E-15 -.181E-15 -.662E+01   0.577E-01 0.303E-01 0.882E+01

 POSITION                                       TOTAL-FORCE (eV/Angst)
      0.00000      0.00000      5.37156         0.000000     -0.000000      0.041469
      2.56560      0.00000      5.37156         0.002670     -0.003568      0.054911
      5.13119      0.00000      5.37156        -0.002670     -0.003568      0.054911
      1.28280      2.22187      5.37156        -0.001755      0.004097      0.054911
      3.84839      2.22187      5.37156        -0.000000     -0.000000      0.042838
      6.41399      2.22187      5.37156         0.001755      0.004097      0.054911
      2.56560      4.44374      5.37156        -0.004425     -0.000528      0.054911
      5.13119      4.44374      5.37156         0.004425     -0.000528      0.054911
      7.69679      4.44374      5.37156        -0.000000     -0.000000      0.039826
      1.28280      0.74062      7.46636         0.049382      0.028510     -0.087620
      3.84839      0.74062      7.46636        -0.000000      0.034738     -0.025266
      6.41399      0.74062      7.46636        -0.049382      0.028510     -0.087620
      2.56560      2.96249      7.46636         0.030084     -0.017369     -0.025266
      5.13119      2.96249      7.46636        -0.030084     -0.017369     -0.025266
      7.69679      2.96249      7.46636        -0.000000      0.000906     -0.052303
      3.84839      5.18437      7.46636         0.000000     -0.057021     -0.087620
      6.41399      5.18437      7.46636         0.000785     -0.000453     -0.052303
      8.97958      5.18437      7.46636        -0.000785     -0.000453     -0.052303
      7.69679      1.47435      9.52922        -0.000000      0.030699      0.094495
      2.57570      1.48708      9.58099        -0.112276     -0.064823     -0.092849
      5.12109      1.48708      9.58099         0.112276     -0.064823     -0.092849
      8.97941      3.70322      9.55185         0.003337     -0.001927      0.065427
      3.84839      3.69145      9.58099        -0.000000      0.129646     -0.092849
      6.41416      3.70322      9.55185        -0.003337     -0.001927      0.065427
     10.26835      5.92844      9.52922        -0.026586     -0.015349      0.094495
      5.12522      5.92844      9.52922         0.026586     -0.015349      0.094495
      7.69679      5.92479      9.55185        -0.000000      0.003853      0.065427
      0.00000      0.00000     11.63765         0.000000     -0.000000     -0.082277
      6.39598      6.62341     11.64088        -0.131521     -0.204625      0.042197
      8.99759      6.62341     11.64088         0.131521     -0.204625      0.042197
      8.93403      2.22738     11.64088        -0.242971     -0.011588      0.042197
      6.45955      2.22738     11.64088         0.242971     -0.011588      0.042197
     10.23483      4.48044     11.64088        -0.111450      0.216213      0.042197
      5.15874      4.48044     11.64088         0.111450      0.216213      0.042197
      7.69679      4.44374     11.66679        -0.000000     -0.000000     -0.100860
      3.84839      2.22187     12.03290        -0.000000     -0.000000     -0.235083
      3.84839      2.22187     13.95205        -0.000000     -0.000000      0.005787
    total drift:                                0.057723      0.030216     -0.014134

  FREE ENERGIE OF THE ION-ELECTRON SYSTEM (eV)
  free  energy   TOTEN  =      -134.81809668 eV

  energy  without entropy=     -134.81809668  energy(sigma->0) =     -134.81809668

 stress matrix after NEB project (eV)
     -0.67493      0.00000      0.00000
      0.00000     -0.67493      0.00000
     -0.00000      0.00000     -0.02872
  FORCES: max atom, RMS     0.005787    0.000951
  FORCE total and by dimension    0.005787    0.005787
  Stress total and by dimension    0.954921    0.674926
|           W    W    AA    RRRRR   N    N  II  N    N   GGGG   !!!           |
|           W    W   A  A   R    R  NN   N  II  NN   N  G    G  !!!           |
|           W    W  A    A  R    R  N N  N  II  N N  N  G       !!!           |
|           W WW W  AAAAAA  RRRRR   N  N N  II  N  N N  G  GGG   !            |
|           WW  WW  A    A  R   R   N   NN  II  N   NN  G    G                |
|           W    W  A    A  R    R  N    N  II  N    N   GGGG   !!!           |
|     Tetrahedron method does not include variations of the Fermi             |
|     occupations, so forces and stress will be inaccurate. We suggest        |
|     using a different smearing scheme ISMEAR = 1 or 2 for metals in         |
|     relaxations.                                                            |

 total charge

# of ion       s       p       d       tot
    1        0.447   0.285   9.187   9.919
    2        0.448   0.285   9.187   9.920
    3        0.448   0.285   9.187   9.920
    4        0.448   0.285   9.187   9.920
    5        0.450   0.284   9.186   9.920
    6        0.448   0.285   9.187   9.920
    7        0.448   0.285   9.187   9.920
    8        0.448   0.285   9.187   9.920
    9        0.448   0.284   9.189   9.920
   10        0.441   0.373   9.178   9.992
   11        0.443   0.365   9.181   9.989
   12        0.441   0.373   9.178   9.992
   13        0.443   0.365   9.181   9.989
   14        0.443   0.365   9.181   9.989
   15        0.440   0.374   9.177   9.990
   16        0.441   0.373   9.178   9.992
   17        0.440   0.374   9.177   9.990
   18        0.440   0.374   9.177   9.990
   19        0.443   0.372   9.180   9.996
   20        0.444   0.374   9.174   9.992
   21        0.444   0.374   9.174   9.992
   22        0.434   0.374   9.180   9.987
   23        0.444   0.374   9.174   9.992
   24        0.434   0.374   9.180   9.987
   25        0.443   0.372   9.180   9.996
   26        0.443   0.372   9.180   9.996
   27        0.434   0.374   9.180   9.987
   28        0.443   0.291   9.188   9.922
   29        0.480   0.303   9.179   9.962
   30        0.480   0.303   9.179   9.962
   31        0.480   0.303   9.179   9.962
   32        0.480   0.303   9.179   9.962
   33        0.480   0.303   9.179   9.962
   34        0.480   0.303   9.179   9.962
   35        0.442   0.296   9.188   9.926
   36        2.216   5.968   1.984  10.169
   37        1.014   1.152   0.000   2.166
tot         18.963  18.782 323.329 361.074

 BZINTS: Fermi energy:   -0.601704;  401.000000 electrons
         Band energy:-0.160942E+04;  BLOECHL correction:   -0.056201