 vasp.6.2.0 18Jan21 (build Jun 12 2021 23:27:24) complex

 executed on             LinuxIFC date 2022.05.28  00:42:09

 INCAR:
   ISMEAR = -5
   SIGMA = 0.1
   ISPIN = 1
   EDIFF = 1.d-5
   EDIFFG = -0.01
   NSW = 0
   NELM = 150
   ENCUT = 500
   ISIF = 2
   IBRION = 2
   LREAL = Auto
   ALGO = Fast
   ICHARG = 11
   LORBIT = 10
   LCHARG = .F.
   LWAVE = .F.

 POTCAR:    PAW_PBE Au 04Oct2007
 POTCAR:    PAW_PBE Mn 06Sep2000
 POTCAR:    PAW_PBE C 08Apr2002
 POTCAR:    PAW_PBE O 08Apr2002
|           W    W    AA    RRRRR   N    N  II  N    N   GGGG   !!!           |
|           W    W   A  A   R    R  NN   N  II  NN   N  G    G  !!!           |
|           W    W  A    A  R    R  N N  N  II  N N  N  G       !!!           |
|           W WW W  AAAAAA  RRRRR   N  N N  II  N  N N  G  GGG   !            |
|           WW  WW  A    A  R   R   N   NN  II  N   NN  G    G                |
|           W    W  A    A  R    R  N    N  II  N    N   GGGG   !!!           |
|     For optimal performance we recommend to set                             |
|       NCORE = 2 up to number-of-cores-per-socket                            |
|     This setting can greatly improve the performance of VASP for DFT.       |
|     The default, NCORE=1 might be grossly inefficient on modern             |
|     multi-core architectures or massively parallel machines. Do your        |
|     Unfortunately you need to use the default for GW and RPA                |
|     calculations (for HF NCORE is supported but not extensively tested      |
|     yet).                                                                   |

 POTCAR:    PAW_PBE Au 04Oct2007
   VRHFIN =Au: s1d10

   TITEL  = PAW_PBE Au 04Oct2007
   POMASS =  196.966; ZVAL   =   11.000    mass and valenz
   ENMAX  =  229.943; ENMIN  =  172.457 eV

 POTCAR:    PAW_PBE Mn 06Sep2000
   VRHFIN =Mn: d6 s1

   TITEL  = PAW_PBE Mn 06Sep2000
   POMASS =   54.938; ZVAL   =    7.000    mass and valenz
   ENMAX  =  269.864; ENMIN  =  202.398 eV

 POTCAR:    PAW_PBE C 08Apr2002
   VRHFIN =C: s2p2

   TITEL  = PAW_PBE C 08Apr2002
   POMASS =   12.011; ZVAL   =    4.000    mass and valenz
   ENMAX  =  400.000; ENMIN  =  300.000 eV

 POTCAR:    PAW_PBE O 08Apr2002
   VRHFIN =O: s2p4

   TITEL  = PAW_PBE O 08Apr2002
   POMASS =   16.000; ZVAL   =    6.000    mass and valenz
   ENMAX  =  400.000; ENMIN  =  300.000 eV

 Optimization of the real space projectors (new method)

 maximal supplied QI-value         = 15.12
 optimisation between [QCUT,QGAM] = [ 11.34, 22.83] = [ 36.00,145.93] Ry
 Optimized for a Real-space Cutoff    1.39 Angstroem

   l    n(q)    QCUT    max X(q) W(low)/X(q) W(high)/X(q)  e(spline)
   2      9    11.338    60.898    0.39E-03    0.42E-03    0.21E-06
   2      9    11.338    58.894    0.40E-03    0.42E-03    0.22E-06
   0      9    11.338   109.617    0.13E-03    0.20E-04    0.13E-06
   0      9    11.338    75.026    0.13E-03    0.20E-04    0.13E-06
   1      9    11.338    16.344    0.33E-04    0.24E-03    0.18E-06
   1      9    11.338    10.160    0.26E-04    0.19E-03    0.15E-06
 Optimization of the real space projectors (new method)

[...]

   l    n(q)    QCUT    max X(q) W(low)/X(q) W(high)/X(q)  e(spline)
   0      7    11.310   115.676    0.43E-03    0.13E-02    0.19E-06
   0      7    11.310    87.132    0.43E-03    0.13E-02    0.18E-06
   1      6    11.310     4.429    0.42E-03    0.74E-03    0.11E-06
   1      6    11.310     2.733    0.34E-03    0.55E-03    0.92E-07
 Optimization of the real space projectors (new method)

 maximal supplied QI-value         = 24.76
 optimisation between [QCUT,QGAM] = [ 11.39, 22.77] = [ 36.31,145.25] Ry
 Optimized for a Real-space Cutoff    1.00 Angstroem

   l    n(q)    QCUT    max X(q) W(low)/X(q) W(high)/X(q)  e(spline)
   0      7    11.387    20.381    0.39E-03    0.13E-02    0.15E-06
   0      7    11.387    15.268    0.42E-03    0.14E-02    0.17E-06
   1      6    11.387     5.964    0.41E-03    0.11E-02    0.17E-06
   1      6    11.387     5.382    0.39E-03    0.87E-03    0.15E-06
  PAW_PBE Au 04Oct2007                  :
  PAW_PBE Mn 06Sep2000                  :
  PAW_PBE C 08Apr2002                   :
  PAW_PBE O 08Apr2002                   :

 POSCAR: Au-Mn-CO2
  positions in direct lattice
  velocities in cartesian coordinates
 exchange correlation table for  LEXCH =        8
   RHO(1)=    0.500       N(1)  =     2000
   RHO(2)=  100.500       N(2)  =     4000

 VTST: version 3.2, (02/03/18)

 CHAIN: initializing optimizer

 OPT: Using VASP Conjugate-Gradient optimizer
 CHAIN: Read ICHAIN            0

 POSCAR: Au-Mn-CO2
  positions in direct lattice
  velocities in cartesian coordinates

 ion  position               nearest neighbor table
   1  0.000  0.000  0.217-  16 2.94  12 2.94   6 2.94   8 2.94   7 2.94   3 2.94  10 2.94   4 2.94
                             2 2.94
   2  0.333  0.000  0.217-   9 2.94  11 2.94  17 2.94  10 2.94   8 2.94   4 2.94   5 2.94   1 2.94
                             3 2.94
   3  0.667  0.000  0.217-   7 2.94  18 2.94  12 2.94   1 2.94  11 2.94   5 2.94   6 2.94   9 2.94
                             2 2.94
   4  0.000  0.333  0.217-  10 2.94   6 2.94   5 2.94  13 2.94   2 2.94  15 2.94   9 2.94   1 2.94
                             7 2.94
   5  0.333  0.333  0.217-  13 2.94   7 2.94  11 2.94   4 2.94   2 2.94  14 2.94   3 2.94   8 2.94
                             6 2.94
   6  0.667  0.333  0.217-  15 2.94  14 2.94   1 2.94  12 2.94   4 2.94   9 2.94   8 2.94   3 2.94
                             5 2.94
   7  0.000  0.667  0.217-  18 2.94   3 2.94  16 2.94   5 2.94   1 2.94  13 2.94   8 2.94   4 2.94
                             9 2.94
   8  0.333  0.667  0.217-   9 2.94  17 2.94   1 2.94   2 2.94  14 2.94  16 2.94   6 2.94   7 2.94
                             5 2.94
   9  0.667  0.667  0.217-   2 2.94   8 2.94  17 2.94   6 2.94  15 2.94   4 2.94   3 2.94  18 2.94
                             7 2.94
  10  0.111  0.111  0.315-  20 2.93  26 2.94  19 2.94  11 2.94  17 2.94   2 2.94   4 2.94   1 2.94
                            12 2.94  16 2.94  13 2.94  15 2.94
  11  0.444  0.111  0.315-  20 2.91  21 2.91  27 2.93  13 2.94   2 2.94  10 2.94  17 2.94   5 2.94
                             3 2.94  18 2.94  14 2.94  12 2.94
  12  0.778  0.111  0.315-  21 2.93  25 2.94  19 2.94  16 2.94  18 2.94   1 2.94  14 2.94  15 2.94
                             3 2.94   6 2.94  10 2.94  11 2.94
  13  0.111  0.444  0.315-  23 2.91  20 2.91  22 2.93   5 2.94  18 2.94  11 2.94   7 2.94   4 2.94
                            16 2.94  10 2.94  14 2.94  15 2.94
  14  0.444  0.444  0.315-  21 2.91  23 2.91  24 2.93  15 2.94   6 2.94  12 2.94   8 2.94  17 2.94
                             5 2.94  16 2.94  13 2.94  11 2.94
  15  0.778  0.444  0.315-  24 2.92  22 2.92  19 2.94  14 2.94   6 2.94  17 2.94  12 2.94   9 2.94
                             4 2.94  10 2.94  13 2.94  18 2.94
  16  0.111  0.778  0.315-  23 2.93  25 2.94  26 2.94  18 2.94  12 2.94   7 2.94   1 2.94   8 2.94
                            13 2.94  10 2.94  14 2.94  17 2.94
  17  0.444  0.778  0.315-  27 2.92  24 2.92  26 2.94   9 2.94  15 2.94   2 2.94  10 2.94  11 2.94
                             8 2.94  14 2.94  16 2.94  18 2.94
  18  0.778  0.778  0.315-  22 2.92  27 2.92  25 2.94  16 2.94   7 2.94  13 2.94  12 2.94   3 2.94
                            11 2.94   9 2.94  15 2.94  17 2.94
  19  0.889  0.222  0.413-  10 2.94  12 2.94  15 2.94  26 2.94  25 2.94  24 2.94  22 2.94  28 2.95
                            21 2.95  20 2.95  32 2.99  31 2.99
  20  0.223  0.223  0.412-  36 2.70  23 2.91  21 2.91  11 2.91  13 2.91  29 2.92  31 2.92  10 2.93
                            26 2.95  19 2.95  27 2.95  22 2.95
  21  0.553  0.223  0.412-  36 2.70  20 2.91  23 2.91  14 2.91  11 2.91  30 2.92  32 2.92  12 2.93
                            25 2.95  19 2.95  27 2.95  24 2.95
  22  0.886  0.557  0.413-  24 2.91  27 2.91  18 2.92  15 2.92  13 2.93  25 2.94  19 2.94  23 2.95
                            20 2.95  33 2.96  31 2.96  35 2.96
  23  0.223  0.553  0.412-  36 2.70  20 2.91  21 2.91  13 2.91  14 2.91  33 2.92  34 2.92  16 2.93
                            25 2.95  26 2.95  22 2.95  24 2.95
  24  0.557  0.557  0.413-  27 2.91  22 2.91  15 2.92  17 2.92  14 2.93  26 2.94  19 2.94  21 2.95
                            23 2.95  32 2.96  34 2.96  35 2.96
  25  0.889  0.889  0.413-  16 2.94  12 2.94  18 2.94  19 2.94  26 2.94  22 2.94  27 2.94  28 2.95
                            23 2.95  21 2.95  33 2.99  30 2.99
  26  0.222  0.889  0.413-  10 2.94  16 2.94  17 2.94  19 2.94  25 2.94  27 2.94  24 2.94  28 2.95
                            20 2.95  23 2.95  29 2.99  34 2.99
  27  0.557  0.886  0.413-  24 2.91  22 2.91  17 2.92  18 2.92  11 2.93  26 2.94  25 2.94  20 2.95
                            21 2.95  29 2.96  30 2.96  35 2.96
  28  0.000  0.000  0.512-  25 2.95  19 2.95  26 2.95  34 2.99  32 2.99  33 2.99  30 2.99  31 2.99
                            29 2.99
  29  0.334  0.010  0.512-  30 2.84  31 2.85  36 2.86  20 2.92  27 2.96  35 2.98  26 2.99  28 2.99
                            34 3.12
  30  0.656  0.010  0.512-  29 2.84  32 2.85  36 2.86  21 2.92  27 2.96  35 2.98  25 2.99  28 2.99
                            33 3.12
  31  0.010  0.334  0.512-  33 2.84  29 2.85  36 2.86  20 2.92  22 2.96  35 2.98  19 2.99  28 2.99
                            32 3.12
  32  0.656  0.334  0.512-  34 2.84  30 2.85  36 2.86  21 2.92  24 2.96  35 2.98  19 2.99  28 2.99
                            31 3.12
  33  0.010  0.656  0.512-  31 2.84  34 2.85  36 2.86  23 2.92  22 2.96  35 2.98  25 2.99  28 2.99
                            30 3.12
  34  0.334  0.656  0.512-  32 2.84  33 2.85  36 2.86  23 2.92  24 2.96  35 2.98  26 2.99  28 2.99
                            29 3.12
  35  0.667  0.667  0.513-  24 2.96  27 2.96  22 2.96  29 2.98  34 2.98  32 2.98  31 2.98  30 2.98
                            33 2.98
  36  0.333  0.333  0.499-  20 2.70  23 2.70  21 2.70  33 2.86  31 2.86  29 2.86  30 2.86  34 2.86
                            32 2.86
  37  0.332  0.332  0.662-  38 1.18  39 1.18
  38  0.197  0.333  0.662-  37 1.18
  39  0.466  0.330  0.661-  37 1.18

  LATTYP: Found a hexagonal cell.
 ALAT       =     8.8135128021
 C/A-ratio  =     2.7649717827

  Lattice vectors:

 A1 = (  -4.4067569092,  -7.6327256898,   0.0000000000)
 A2 = (   8.8135128021,   0.0000000000,   0.0000000000)
 A3 = (   0.0000000000,   0.0000000000,  24.3691142040)

Analysis of symmetry for initial positions (statically):
 Subroutine PRICEL returns:
 Original cell was already a primitive cell.

 Routine SETGRP: Setting up the symmetry group for a
 hexagonal supercell.

 Subroutine GETGRP returns: Found  1 space group operations
 (whereof  1 operations were pure point group operations)
 out of a pool of 24 trial point group operations.

The static configuration has the point symmetry C_1 .

Analysis of symmetry for dynamics (positions and initial velocities):
 Subroutine PRICEL returns:
 Original cell was already a primitive cell.

[...]

The dynamic configuration has the point symmetry C_1 .

Analysis of constrained symmetry for selective dynamics:
 Subroutine PRICEL returns:
[...]
     41      -4.9998      2.00000
     42      -4.9685      2.00000
     43      -4.9494      2.00000
     44      -4.9385      2.00000
     45      -4.8828      2.00000
     46      -4.8066      2.00000
     47      -4.7755      2.00000
     48      -4.7198      2.00000
     49      -4.6992      2.00000
     50      -4.6972      2.00000
     51      -4.6834      2.00000
     52      -4.5776      2.00000
     53      -4.5731      2.00000
     54      -4.5388      2.00000
     55      -4.5122      2.00000
     56      -4.5097      2.00000
     57      -4.5035      2.00000
     58      -4.4807      2.00000
     59      -4.4530      2.00000
     60      -4.4061      2.00000
[...]
    238       5.0392      0.00000
    239       5.2724      0.00000
    240       5.3321      0.00000
    241       5.5389      0.00000
    242       5.7246      0.00000
    243       5.7773      0.00000
    244       5.9062      0.00000
    245       6.0294      0.00000
    246       6.0553      0.00000
    247       6.0758      0.00000
    248       6.1761      0.00000
    249       6.3715      0.00000
    250       6.4176      0.00000
    251       6.4426      0.00000
    252       6.5021      0.00000

 soft charge-density along one line, spin component           1
         0         1         2         3         4         5         6         7         8         9
 total charge-density along one line

------------------------ aborting loop because EDIFF is reached ----------------------------------------

 total charge

# of ion       s       p       d       tot
    1        0.547   0.239   8.764   9.550
    2        0.544   0.241   8.764   9.549
    3        0.544   0.241   8.764   9.549
    4        0.544   0.241   8.764   9.549
    5        0.543   0.241   8.761   9.545
    6        0.544   0.241   8.764   9.549
    7        0.544   0.241   8.764   9.549
    8        0.544   0.241   8.764   9.549
    9        0.543   0.239   8.768   9.550
   10        0.524   0.308   8.767   9.599
   11        0.521   0.308   8.781   9.610
   12        0.524   0.308   8.767   9.599
   13        0.521   0.308   8.781   9.610
   14        0.521   0.308   8.781   9.610
   15        0.518   0.309   8.775   9.601
   16        0.524   0.308   8.767   9.599
   17        0.518   0.309   8.775   9.601
   18        0.518   0.309   8.775   9.601
   19        0.516   0.300   8.775   9.590
   20        0.550   0.335   8.746   9.630
   21        0.550   0.335   8.746   9.630
   22        0.510   0.309   8.777   9.596
   23        0.550   0.335   8.746   9.630
   24        0.510   0.309   8.777   9.596
   25        0.516   0.300   8.775   9.591
   26        0.516   0.300   8.775   9.591
   27        0.510   0.309   8.777   9.596
   28        0.538   0.224   8.761   9.523
   29        0.565   0.243   8.744   9.552
   30        0.565   0.242   8.744   9.552
   31        0.564   0.241   8.745   9.550
   32        0.563   0.241   8.745   9.550
   33        0.565   0.242   8.744   9.552
   34        0.565   0.242   8.744   9.552
   35        0.534   0.223   8.763   9.521
   36        0.255   0.190   5.013   5.458
   37        0.933   1.801   0.000   2.733
   38        1.607   3.528   0.000   5.136
   39        1.607   3.529   0.000   5.136
tot         23.174  18.714 311.747 353.635

  FORCE on cell =-STRESS in cart. coord.  units (eV):
  Direction    XX          YY          ZZ          XY          YZ          ZX
  Alpha Z   958.66263   958.66263   958.66263
  Ewald  145206.05553144415.65703************    -8.44854     0.36062    -7.07424
  Hartree153666.95013153295.71337************    -3.89730     0.27070    -3.12510
  E(xc)   -1832.11082 -1834.21530 -1841.55881    -0.02230    -0.00045    -0.01964
  Local  ************************310091.30861    11.57207    -0.64160     9.52064
  n-local  -132.57913  -126.57185  -101.24287     0.06244    -0.00572     0.04110
  augment  2403.99168  2406.68196  2424.71924     0.02641     0.00510     0.02351
  Kinetic  5687.73378  5753.05538  5811.88438     0.70763     0.00721     0.61204
  Fock        0.00000     0.00000     0.00000     0.00000     0.00000     0.00000
  Total     -24.42537   -24.46002     1.70235     0.00041    -0.00413    -0.02169
  in kB     -23.87170   -23.90557     1.66376     0.00041    -0.00404    -0.02120

 VOLUME and BASIS-vectors are now :
  energy-cutoff  :      500.00
  volume of cell :     1639.34
      direct lattice vectors                 reciprocal lattice vectors
     8.813512802  0.000000000  0.000000000     0.113462137 -0.065507406  0.000000000
     4.406756909  7.632725690  0.000000000     0.000000000  0.131014796  0.000000000
     0.000000000  0.000000000 24.369114204     0.000000000  0.000000000  0.041035550

  length of vectors
     8.813512802  8.813512802 24.369114204     0.131014796  0.131014796  0.041035550

 FORCES acting on ions
    electron-ion (+dipol)            ewald-force                    non-local-force                 convergence-correction
   0.298E-02 0.194E-01 0.266E+04   -.778E-04 -.155E-01 -.266E+04   0.680E-05 -.166E-02 -.743E+00   -.289E-02 -.278E-02 -.520E-01
   0.505E+00 0.159E+00 0.266E+04   -.559E+00 -.215E+00 -.266E+04   0.381E-01 0.553E-01 -.291E+00   0.857E-02 0.267E-02 -.147E+00
   -.508E+00 0.147E+00 0.266E+04   0.559E+00 -.214E+00 -.266E+04   -.382E-01 0.555E-01 -.291E+00   -.562E-02 0.136E-01 -.142E+00
   0.374E+00 0.365E+00 0.266E+04   -.453E+00 -.384E+00 -.266E+04   0.694E-01 0.485E-02 -.299E+00   0.696E-02 0.607E-02 -.146E+00
   -.157E-01 -.101E-01 0.266E+04   0.963E-03 0.102E-02 -.266E+04   -.529E-04 -.499E-03 -.193E+00   0.150E-01 0.974E-02 -.171E+00
   -.363E+00 0.362E+00 0.266E+04   0.452E+00 -.383E+00 -.266E+04   -.694E-01 0.488E-02 -.299E+00   -.172E-01 0.944E-02 -.140E+00
   -.143E+00 -.520E+00 0.266E+04   0.107E+00 0.599E+00 -.266E+04   0.304E-01 -.607E-01 -.292E+00   0.111E-01 -.120E-01 -.141E+00
   0.134E+00 -.512E+00 0.266E+04   -.107E+00 0.598E+00 -.266E+04   -.303E-01 -.606E-01 -.292E+00   -.235E-02 -.195E-01 -.140E+00
   0.141E-01 -.103E-01 0.266E+04   -.573E-03 0.146E-01 -.266E+04   -.170E-03 0.290E-02 -.453E+00   -.135E-01 -.692E-02 -.152E+00
   0.401E+01 0.243E+01 0.926E+03   -.356E+01 -.217E+01 -.925E+03   -.285E+00 -.163E+00 -.752E+00   -.124E+00 -.726E-01 0.874E-01
   -.179E-01 0.407E+01 0.932E+03   0.235E-02 -.411E+01 -.932E+03   -.359E-04 0.415E-01 -.327E+00   0.158E-01 -.447E-01 0.136E+00
   -.400E+01 0.241E+01 0.926E+03   0.356E+01 -.216E+01 -.925E+03   0.285E+00 -.163E+00 -.752E+00   0.112E+00 -.651E-01 0.907E-01
   0.342E+01 -.207E+01 0.932E+03   -.346E+01 0.208E+01 -.932E+03   0.333E-01 -.190E-01 -.330E+00   -.305E-01 0.393E-01 0.137E+00
   -.344E+01 -.207E+01 0.932E+03   0.347E+01 0.208E+01 -.932E+03   -.337E-01 -.193E-01 -.330E+00   0.525E-01 0.323E-01 0.134E+00
   0.188E-01 0.387E+01 0.930E+03   -.517E-02 -.401E+01 -.929E+03   -.252E-03 0.269E-01 -.572E+00   -.135E-01 0.625E-01 0.182E+00
   -.309E-02 -.464E+01 0.926E+03   0.323E-02 0.414E+01 -.925E+03   0.334E-04 0.326E+00 -.747E+00   -.178E-03 0.127E+00 0.921E-01
   0.343E+01 -.199E+01 0.929E+03   -.354E+01 0.207E+01 -.929E+03   0.240E-01 -.147E-01 -.560E+00   0.457E-01 -.425E-01 0.183E+00
   -.342E+01 -.201E+01 0.929E+03   0.353E+01 0.208E+01 -.929E+03   -.239E-01 -.144E-01 -.561E+00   -.447E-01 -.283E-01 0.189E+00
   0.442E-01 0.148E+01 -.834E+03   -.275E-01 -.169E+01 0.833E+03   -.655E-03 0.555E-01 0.521E+00   -.164E-01 0.150E+00 0.803E+00
   0.130E+02 0.803E+01 -.806E+03   -.123E+02 -.764E+01 0.806E+03   -.919E+00 -.527E+00 -.833E+00   0.214E+00 0.123E+00 0.130E+01
   -.130E+02 0.800E+01 -.806E+03   0.123E+02 -.761E+01 0.806E+03   0.919E+00 -.526E+00 -.832E+00   -.202E+00 0.123E+00 0.130E+01
   -.223E+01 0.510E+00 -.820E+03   0.187E+01 -.303E+00 0.819E+03   0.355E+00 -.212E+00 0.563E+00   0.189E-01 -.116E-02 0.888E+00
   -.425E-01 -.159E+02 -.807E+03   0.369E-01 0.151E+02 0.807E+03   0.262E-03 0.105E+01 -.834E+00   0.527E-02 -.233E+00 0.130E+01
   0.227E+01 0.532E+00 -.820E+03   -.191E+01 -.315E+00 0.819E+03   -.354E+00 -.212E+00 0.564E+00   -.229E-01 -.112E-01 0.888E+00
   -.892E+00 -.194E+00 -.835E+03   0.107E+01 0.300E+00 0.834E+03   -.422E-01 -.219E-01 0.500E+00   -.136E+00 -.819E-01 0.800E+00
   0.896E+00 -.148E+00 -.835E+03   -.106E+01 0.264E+00 0.834E+03   0.418E-01 -.227E-01 0.499E+00   0.122E+00 -.915E-01 0.803E+00
   0.403E-02 -.234E+01 -.821E+03   -.994E-02 0.193E+01 0.820E+03   0.521E-03 0.408E+00 0.558E+00   0.544E-02 0.148E-01 0.890E+00
   0.365E-01 0.459E+01 -.253E+04   -.344E-01 -.459E+01 0.252E+04   0.340E-03 -.237E-02 0.535E+00   -.250E-02 -.240E-02 0.568E+00
   0.145E+02 0.288E+02 -.250E+04   -.139E+02 -.278E+02 0.250E+04   -.866E+00 -.134E+01 0.804E-01   0.315E+00 0.408E+00 0.482E+00
   -.145E+02 0.286E+02 -.250E+04   0.140E+02 -.277E+02 0.250E+04   0.865E+00 -.134E+01 0.882E-01   -.312E+00 0.416E+00 0.477E+00
   0.302E+02 0.145E+01 -.249E+04   -.291E+02 -.143E+01 0.249E+04   -.157E+01 -.760E-01 0.200E+00   0.506E+00 0.659E-01 0.481E+00
   -.299E+02 0.126E+01 -.249E+04   0.289E+02 -.125E+01 0.249E+04   0.157E+01 -.763E-01 0.205E+00   -.513E+00 0.685E-01 0.477E+00
   0.114E+02 -.301E+02 -.250E+04   -.109E+02 0.292E+02 0.250E+04   -.733E+00 0.141E+01 0.820E-01   0.208E+00 -.474E+00 0.475E+00
   -.117E+02 -.299E+02 -.250E+04   0.112E+02 0.290E+02 0.250E+04   0.733E+00 0.141E+01 0.837E-01   -.201E+00 -.481E+00 0.475E+00
   0.231E+00 -.434E+01 -.253E+04   -.219E+00 0.434E+01 0.253E+04   0.180E-03 0.316E-02 0.649E+00   -.121E-01 -.491E-02 0.461E+00
   -.117E+00 -.205E+00 -.149E+04   0.107E+00 0.205E+00 0.149E+04   0.246E-02 -.557E-03 0.284E+01   0.823E-02 0.486E-02 0.563E+00
   -.127E+00 -.134E+00 -.842E+03   0.126E+00 0.133E+00 0.842E+03   -.800E-05 0.395E-02 -.842E-01   0.712E-03 0.605E-04 -.157E+00
   0.260E+03 -.283E+01 -.126E+04   -.324E+03 0.352E+01 0.126E+04   0.639E+02 -.679E+00 -.379E+00   0.464E-01 -.273E-02 -.197E+00
   -.260E+03 0.284E+01 -.126E+04   0.324E+03 -.356E+01 0.126E+04   -.639E+02 0.708E+00 0.827E+00   -.427E-01 0.406E-02 -.215E+00
   -.147E-01 -.261E-01 -.108E+02   0.000E+00 0.199E-12 -.477E-11   0.206E-01 0.306E-01 -.225E+01   0.399E-02 0.198E-02 0.129E+02

 POSITION                                       TOTAL-FORCE (eV/Angst)
      0.00000      0.00000      5.28038        -0.000238     -0.000747     -0.129089
      2.93784      0.00000      5.28038        -0.008084      0.001113     -0.064128
      5.87568      0.00000      5.28038         0.007545      0.001076     -0.064083
      1.46892      2.54424      5.28038        -0.002602     -0.007669     -0.065321
      4.40676      2.54424      5.28038        -0.000061     -0.000049     -0.097620
      7.34459      2.54424      5.28038         0.002123     -0.007643     -0.065196
      2.93784      5.08848      5.28038         0.005231      0.006049     -0.065101
      5.87568      5.08848      5.28038        -0.005751      0.006034     -0.064979
      8.81351      5.08848      5.28038        -0.000425      0.000049     -0.089079
      1.46892      0.84808      7.67911         0.039919      0.023214      0.089954
      4.40676      0.84808      7.67911        -0.000067     -0.049391     -0.019044
      7.34459      0.84808      7.67911        -0.040361      0.023206      0.089909
      2.93784      3.39232      7.67911        -0.043504      0.024854     -0.020060
      5.87568      3.39232      7.67911         0.043469      0.024855     -0.020053
      8.81351      3.39232      7.67911        -0.000369     -0.047815      0.046400
      4.40676      5.93656      7.67911        -0.000256     -0.047143      0.090391
      7.34459      5.93656      7.67911        -0.041641      0.023327      0.046733
     10.28243      5.93656      7.67911         0.041193      0.023462      0.046706
      8.81351      1.69603     10.07479        -0.000569     -0.004326      0.045167
      2.95306      1.70495     10.04990        -0.021762     -0.012630     -0.025852
      5.86045      1.70495     10.04990         0.021559     -0.012863     -0.026291
     10.26640      4.24966     10.05812         0.011215     -0.006016      0.033220
      4.40676      4.22282     10.04990        -0.000289      0.022384     -0.028648
      7.36062      4.24966     10.05812        -0.011807     -0.006067      0.033329
     11.75147      6.78471     10.07479         0.001847      0.001708      0.041440
      5.87556      6.78471     10.07479        -0.002776      0.001540      0.041304
      8.81351      6.76613     10.05812        -0.000212      0.011332      0.028571
      0.00000      0.00000     12.48774        -0.000292     -0.000734     -0.063683
      2.98478      0.07843     12.47445         0.002498     -0.006977      0.056111
      5.82873      0.07843     12.47445        -0.002901     -0.007651      0.055440
      1.56032      2.54568     12.47445        -0.009341      0.004661      0.052092
      7.25320      2.54568     12.47445         0.009481      0.004983      0.051020
      2.98229      5.00861     12.47445        -0.003660      0.002196      0.056921
      5.83122      5.00861     12.47445         0.003352      0.002307      0.056518
      8.81351      5.08848     12.49541        -0.000522      0.000267     -0.017467
      4.40676      2.54424     12.16834         0.000979      0.003866     -0.034014
      4.38569      2.53171     16.12297        -0.000948      0.002851      0.004321
      3.20910      2.54429     16.12946         0.007317      0.001913     -0.005366
      5.56227      2.51870     16.10705         0.000709      0.000475     -0.000475
    total drift:                                0.009853      0.006470     -0.170421

  FREE ENERGIE OF THE ION-ELECTRON SYSTEM (eV)
  free  energy   TOTEN  =      -136.13877401 eV

  energy  without entropy=     -136.13877401  energy(sigma->0) =     -136.13877401

 stress matrix after NEB project (eV)
    -24.42537      0.00041     -0.02169
      0.00041    -24.46002     -0.00413
     -0.02169     -0.00413      1.70235
  FORCES: max atom, RMS     0.009273    0.001714
  FORCE total and by dimension    0.010707    0.007317
  Stress total and by dimension   34.609113   24.460025
|           W    W    AA    RRRRR   N    N  II  N    N   GGGG   !!!           |
|           W    W   A  A   R    R  NN   N  II  NN   N  G    G  !!!           |
|           W    W  A    A  R    R  N N  N  II  N N  N  G       !!!           |
|           W WW W  AAAAAA  RRRRR   N  N N  II  N  N N  G  GGG   !            |
|           WW  WW  A    A  R   R   N   NN  II  N   NN  G    G                |
|           W    W  A    A  R    R  N    N  II  N    N   GGGG   !!!           |
|     Tetrahedron method does not include variations of the Fermi             |
|     occupations, so forces and stress will be inaccurate. We suggest        |
|     using a different smearing scheme ISMEAR = 1 or 2 for metals in         |
|     relaxations.                                                            |

 total charge

# of ion       s       p       d       tot
    1        0.547   0.239   8.764   9.550
    2        0.544   0.241   8.764   9.549
    3        0.544   0.241   8.764   9.549
    4        0.544   0.241   8.764   9.549
    5        0.543   0.241   8.761   9.545
    6        0.544   0.241   8.764   9.549
    7        0.544   0.241   8.764   9.549
    8        0.544   0.241   8.764   9.549
    9        0.543   0.239   8.768   9.550
   10        0.524   0.308   8.767   9.599
   11        0.521   0.308   8.781   9.610
   12        0.524   0.308   8.767   9.599
   13        0.521   0.308   8.781   9.610
   14        0.521   0.308   8.781   9.610
   15        0.518   0.309   8.775   9.601
   16        0.524   0.308   8.767   9.599
   17        0.518   0.309   8.775   9.601
   18        0.518   0.309   8.775   9.601
   19        0.516   0.300   8.775   9.590
   20        0.550   0.335   8.746   9.630
   21        0.550   0.335   8.746   9.630
   22        0.510   0.309   8.777   9.596
   23        0.550   0.335   8.746   9.630
   24        0.510   0.309   8.777   9.596
   25        0.516   0.300   8.775   9.591
   26        0.516   0.300   8.775   9.591
   27        0.510   0.309   8.777   9.596
   28        0.538   0.224   8.761   9.523
   29        0.565   0.243   8.744   9.552
   30        0.565   0.242   8.744   9.552
   31        0.564   0.241   8.745   9.550
   32        0.563   0.241   8.745   9.550
   33        0.565   0.242   8.744   9.552
   34        0.565   0.242   8.744   9.552
   35        0.534   0.223   8.763   9.521
   36        0.255   0.190   5.013   5.458
   37        0.933   1.801   0.000   2.733
   38        1.607   3.528   0.000   5.136
   39        1.607   3.529   0.000   5.136
tot         23.174  18.714 311.747 353.635

 BZINTS: Fermi energy:    0.276928;  408.000000 electrons
         Band energy:-0.150145E+04;  BLOECHL correction:   -0.037838