 vasp.6.2.0 18Jan21 (build Jun 12 2021 23:27:24) complex

 executed on             LinuxIFC date 2022.05.26  20:28:09

 INCAR:
   ISMEAR = -5
   SIGMA = 0.1
   ISPIN = 1
   EDIFF = 1.d-5
   EDIFFG = -0.01
   NSW = 0
   NELM = 150
   ENCUT = 500
   ISIF = 2
   IBRION = 2
   LREAL = Auto
   ALGO = Fast
   ICHARG = 11
   LORBIT = 10
   LCHARG = .F.
   LWAVE = .F.

 POTCAR:    PAW_PBE Cu 22Jun2005
 POTCAR:    PAW_PBE Hf 20Jan2003
|           W    W    AA    RRRRR   N    N  II  N    N   GGGG   !!!           |
|           W    W   A  A   R    R  NN   N  II  NN   N  G    G  !!!           |
|           W    W  A    A  R    R  N N  N  II  N N  N  G       !!!           |
|           W WW W  AAAAAA  RRRRR   N  N N  II  N  N N  G  GGG   !            |
|           WW  WW  A    A  R   R   N   NN  II  N   NN  G    G                |
|           W    W  A    A  R    R  N    N  II  N    N   GGGG   !!!           |
|     For optimal performance we recommend to set                             |
|       NCORE = 2 up to number-of-cores-per-socket                            |
|     This setting can greatly improve the performance of VASP for DFT.       |
|     The default, NCORE=1 might be grossly inefficient on modern             |
|     multi-core architectures or massively parallel machines. Do your        |
|     Unfortunately you need to use the default for GW and RPA                |
|     calculations (for HF NCORE is supported but not extensively tested      |
|     yet).                                                                   |

 POTCAR:    PAW_PBE Cu 22Jun2005
   VRHFIN =Cu: d10 p1

   TITEL  = PAW_PBE Cu 22Jun2005
   POMASS =   63.546; ZVAL   =   11.000    mass and valenz
   ENMAX  =  295.446; ENMIN  =  221.585 eV

 POTCAR:    PAW_PBE Hf 20Jan2003
   VRHFIN =Hf: 6s5d

   TITEL  = PAW_PBE Hf 20Jan2003
   POMASS =  178.490; ZVAL   =    4.000    mass and valenz
   ENMAX  =  220.334; ENMIN  =  165.250 eV

 Optimization of the real space projectors (new method)

 maximal supplied QI-value         = 16.25
 optimisation between [QCUT,QGAM] = [ 11.38, 22.75] = [ 36.24,144.96] Ry
 Optimized for a Real-space Cutoff    1.52 Angstroem

   l    n(q)    QCUT    max X(q) W(low)/X(q) W(high)/X(q)  e(spline)
   2      9    11.376     4.610    0.21E-03    0.10E-03    0.26E-06
   2      9    11.376     8.522    0.33E-03    0.16E-03    0.37E-06
   0     10    11.376    51.609    0.62E-04    0.20E-04    0.13E-06
   0     10    11.376    27.747    0.54E-04    0.20E-04    0.13E-06
   1     10    11.376    20.408    0.13E-04    0.99E-04    0.19E-06
   1     10    11.376    13.425    0.12E-04    0.87E-04    0.17E-06
 Optimization of the real space projectors (new method)

 maximal supplied QI-value         = 12.47
 optimisation between [QCUT,QGAM] = [ 11.35, 22.82] = [ 36.07,145.88] Ry
 Optimized for a Real-space Cutoff    1.66 Angstroem

   l    n(q)    QCUT    max X(q) W(low)/X(q) W(high)/X(q)  e(spline)
   2     10    11.350    48.111    0.20E-03    0.11E-03    0.41E-06
   2     10    11.350    40.545    0.19E-03    0.10E-03    0.39E-06
   0     11    11.350   121.658    0.22E-04    0.19E-04    0.24E-06
   0     11    11.350    71.177    0.17E-04    0.17E-04    0.23E-06
   1     11    11.350    14.183    0.25E-03    0.43E-03    0.12E-05
   1     11    11.350     8.257    0.17E-03    0.29E-03    0.81E-06
  PAW_PBE Cu 22Jun2005                  :
  PAW_PBE Hf 20Jan2003                  :

 POSCAR: Cu-Hf
  positions in direct lattice
  velocities in cartesian coordinates
 exchange correlation table for  LEXCH =        8
   RHO(1)=    0.500       N(1)  =     2000
   RHO(2)=  100.500       N(2)  =     4000

 VTST: version 3.2, (02/03/18)

 CHAIN: initializing optimizer

 OPT: Using VASP Conjugate-Gradient optimizer
 CHAIN: Read ICHAIN            0

 POSCAR: Cu-Hf
  positions in direct lattice
  velocities in cartesian coordinates

 ion  position               nearest neighbor table
   1  0.000  0.000  0.252-   7 2.57   3 2.57   4 2.57   2 2.57   6 2.57   8 2.57  12 2.57  10 2.57
                            16 2.57
   2  0.333  0.000  0.252-   8 2.57   9 2.57   5 2.57   1 2.57   3 2.57  11 2.57   4 2.57  10 2.57
                            17 2.57
   3  0.667  0.000  0.252-   1 2.57   7 2.57   6 2.57   9 2.57   2 2.57  12 2.57   5 2.57  18 2.57
                            11 2.57
   4  0.000  0.333  0.252-   5 2.57   6 2.57   1 2.57   7 2.57   2 2.57  13 2.57   9 2.57  10 2.57
                            15 2.57
   5  0.333  0.333  0.252-   4 2.57   2 2.57   7 2.57  13 2.57   8 2.57   6 2.57   3 2.57  11 2.57
                            14 2.57
   6  0.667  0.333  0.252-   4 2.57   9 2.57  15 2.57   3 2.57   1 2.57   8 2.57  14 2.57   5 2.57
                            12 2.57
   7  0.000  0.667  0.252-   1 2.57   3 2.57  16 2.57  18 2.57   4 2.57   5 2.57   8 2.57   9 2.57
                            13 2.57
   8  0.333  0.667  0.252-   9 2.57   2 2.57  17 2.57   6 2.57   1 2.57   7 2.57   5 2.57  14 2.57
                            16 2.57
   9  0.667  0.667  0.252-   8 2.57   6 2.57   2 2.57  17 2.57   3 2.57   7 2.57   4 2.57  15 2.57
                            18 2.57
  10  0.111  0.111  0.351-  26 2.54  19 2.54  11 2.57  12 2.57  13 2.57   1 2.57   2 2.57   4 2.57
                            15 2.57  16 2.57  17 2.57  20 2.58
  11  0.444  0.111  0.351-  27 2.56  10 2.57  13 2.57   2 2.57  17 2.57  14 2.57  12 2.57   5 2.57
                             3 2.57  18 2.57  20 2.57  21 2.57
  12  0.778  0.111  0.351-  19 2.54  25 2.54  15 2.57  10 2.57  14 2.57  18 2.57   3 2.57   1 2.57
                            16 2.57  11 2.57   6 2.57  21 2.58
  13  0.111  0.444  0.351-  22 2.56  16 2.57  18 2.57  10 2.57  11 2.57  14 2.57   5 2.57   4 2.57
                             7 2.57  15 2.57  23 2.57  20 2.57
  14  0.444  0.444  0.351-  24 2.56  15 2.57  17 2.57  12 2.57  16 2.57  13 2.57  11 2.57   6 2.57
                             8 2.57   5 2.57  21 2.57  23 2.57
  15  0.778  0.444  0.351-  19 2.55  24 2.56  22 2.56  14 2.57  17 2.57  12 2.57   6 2.57  18 2.57
                            10 2.57   9 2.57  13 2.57   4 2.57
  16  0.111  0.778  0.351-  25 2.54  26 2.54  18 2.57  13 2.57   7 2.57  14 2.57  17 2.57  12 2.57
                            10 2.57   8 2.57   1 2.57  23 2.58
  17  0.444  0.778  0.351-  26 2.55  27 2.56  24 2.56  14 2.57  15 2.57   8 2.57   9 2.57  11 2.57
                            16 2.57  18 2.57  10 2.57   2 2.57
  18  0.778  0.778  0.351-  25 2.55  22 2.56  27 2.56  16 2.57  13 2.57   7 2.57  15 2.57  12 2.57
                            17 2.57   9 2.57   3 2.57  11 2.57
  19  0.889  0.221  0.448-  12 2.54  10 2.54  15 2.55  25 2.56  26 2.56  32 2.57  31 2.57  22 2.57
                            24 2.57  21 2.57  20 2.57  28 2.57
  20  0.223  0.223  0.450-  23 2.55  21 2.55  27 2.57  22 2.57  26 2.57  19 2.57  11 2.57  13 2.57
                            10 2.58  29 2.58  31 2.58  36 2.77
  21  0.555  0.223  0.450-  20 2.55  23 2.55  24 2.57  27 2.57  19 2.57  25 2.57  14 2.57  11 2.57
                            12 2.58  32 2.58  30 2.58  36 2.77
  22  0.889  0.556  0.449-  18 2.56  15 2.56  13 2.56  24 2.56  27 2.56  23 2.57  20 2.57  31 2.57
                            33 2.57  19 2.57  25 2.57  35 2.58
  23  0.223  0.555  0.450-  20 2.55  21 2.55  22 2.57  24 2.57  25 2.57  26 2.57  13 2.57  14 2.57
                            16 2.58  33 2.58  34 2.58  36 2.77
  24  0.556  0.556  0.449-  15 2.56  17 2.56  14 2.56  22 2.56  27 2.56  21 2.57  23 2.57  32 2.57
                            34 2.57  19 2.57  26 2.57  35 2.58
  25  0.889  0.889  0.448-  12 2.54  16 2.54  18 2.55  19 2.56  26 2.56  33 2.57  30 2.57  22 2.57
                            27 2.57  21 2.57  23 2.57  28 2.57
  26  0.221  0.889  0.448-  10 2.54  16 2.54  17 2.55  25 2.56  19 2.56  29 2.57  34 2.57  27 2.57
                            24 2.57  20 2.57  23 2.57  28 2.57
  27  0.556  0.889  0.449-  17 2.56  18 2.56  11 2.56  24 2.56  22 2.56  20 2.57  21 2.57  29 2.57
                            30 2.57  26 2.57  25 2.57  35 2.58
  28  0.000  0.000  0.547-  33 2.55  30 2.55  31 2.55  29 2.55  32 2.55  34 2.55  25 2.57  19 2.57
                            26 2.57
  29  0.334  0.994  0.548-  34 2.48  35 2.54  28 2.55  26 2.57  27 2.57  20 2.58  30 2.60  31 2.61
                            36 2.62
  30  0.672  0.994  0.548-  33 2.48  35 2.54  28 2.55  25 2.57  27 2.57  21 2.58  29 2.60  32 2.61
                            36 2.62
  31  0.994  0.334  0.548-  32 2.48  35 2.54  28 2.55  19 2.57  22 2.57  20 2.58  33 2.60  29 2.61
                            36 2.62
  32  0.672  0.334  0.548-  31 2.48  35 2.54  28 2.55  19 2.57  24 2.57  21 2.58  34 2.60  30 2.61
                            36 2.62
  33  0.994  0.672  0.548-  30 2.48  35 2.54  28 2.55  25 2.57  22 2.57  23 2.58  31 2.60  34 2.61
                            36 2.62
  34  0.334  0.672  0.548-  29 2.48  35 2.54  28 2.55  26 2.57  24 2.57  23 2.58  32 2.60  33 2.61
                            36 2.62
  35  0.667  0.667  0.548-  34 2.54  32 2.54  29 2.54  30 2.54  33 2.54  31 2.54  24 2.58  27 2.58
                            22 2.58
  36  0.333  0.333  0.560-  31 2.62  29 2.62  33 2.62  32 2.62  34 2.62  30 2.62  23 2.77  20 2.77
                            21 2.77

  LATTYP: Found a hexagonal cell.
 ALAT       =     7.6967864036
 C/A-ratio  =     2.7653617908

  Lattice vectors:

 A1 = (  -3.8483927580,  -6.6656128093,   0.0000000000)
 A2 = (   7.6967864037,   0.0000000000,   0.0000000000)
 A3 = (   0.0000000000,   0.0000000000,  21.2843990326)

Analysis of symmetry for initial positions (statically):
 Subroutine PRICEL returns:
 Original cell was already a primitive cell.

 Routine SETGRP: Setting up the symmetry group for a
 hexagonal supercell.

 Subroutine GETGRP returns: Found  6 space group operations
 (whereof  6 operations were pure point group operations)
 out of a pool of 24 trial point group operations.

The static configuration has the point symmetry C_3v.

Analysis of symmetry for dynamics (positions and initial velocities):
 Subroutine PRICEL returns:
 Original cell was already a primitive cell.

[...]

The dynamic configuration has the point symmetry C_3v.

Analysis of constrained symmetry for selective dynamics:
 Subroutine PRICEL returns:
 Original cell was already a primitive cell.

 Routine SETGRP: Setting up the symmetry group for a
 hexagonal supercell.

 Subroutine GETGRP returns: Found  6 space group operations
 (whereof  6 operations were pure point group operations)
 out of a pool of 24 trial point group operations.

The constrained configuration has the point symmetry C_3v.

 Subroutine INISYM returns: Found  6 space group operations
 (whereof  6 operations are pure point group operations),
 and found     1 'primitive' translations

                                     Primitive cell

  volume of cell :    1091.9705

  direct lattice vectors                    reciprocal lattice vectors
     7.696786404  0.000000000  0.000000000     0.129924354 -0.075011849  0.000000000
     3.848392758  6.665612809  0.000000000     0.000000000  0.150023716  0.000000000
[...]
     15      -4.3742      2.00000
     16      -4.3704      2.00000
     17      -4.3559      2.00000
     18      -4.2915      2.00000
     19      -4.2770      2.00000
     20      -4.2364      2.00000
     21      -4.2163      2.00000
     22      -4.2033      2.00000
     23      -4.1938      2.00000
     24      -4.0700      2.00000
     25      -3.9965      2.00000
     26      -3.9824      2.00000
     27      -3.9660      2.00000
     28      -3.9274      2.00000
     29      -3.9088      2.00000
     30      -3.9023      2.00000
     31      -3.8952      2.00000
     32      -3.8884      2.00000
     33      -3.8809      2.00000
     34      -3.8423      2.00000
     35      -3.7627      2.00000
     36      -3.7460      2.00000
     37      -3.5988      2.00000
     38      -3.5863      2.00000
     39      -3.5430      2.00000
     40      -3.5298      2.00000
     41      -3.5033      2.00000
     42      -3.4928      2.00000
     43      -3.4859      2.00000
     44      -3.4775      2.00000
     45      -3.4725      2.00000
     46      -3.3370      2.00000
     47      -3.3131      2.00000
     48      -3.2971      2.00000
     49      -3.2703      2.00000
     50      -3.2200      2.00000
     51      -3.2038      2.00000
     52      -3.1993      2.00000
     53      -3.1800      2.00000
     54      -3.1666      2.00000
     55      -3.1637      2.00000
     56      -3.1417      2.00000
     57      -3.1245      2.00000
     58      -3.1141      2.00000
     59      -3.1029      2.00000
     60      -3.0930      2.00000
[...]
    238       6.9214      0.00000
    239       6.9480      0.00000
    240       7.0572      0.00000
    241       7.0743      0.00000
    242       7.3151      0.00000
    243       7.4351      0.00000
    244       7.5030      0.00000
    245       7.5899      0.00000
    246       7.7276      0.00000
    247       7.7493      0.00000
    248       7.9714      0.00000
    249       8.1101      0.00000
    250       8.2877      0.00000
    251       8.3748      0.00000
    252       8.4549      0.00000

 soft charge-density along one line, spin component           1
         0         1         2         3         4         5         6         7         8         9
 total charge-density along one line

------------------------ aborting loop because EDIFF is reached ----------------------------------------

 total charge

# of ion       s       p       d       tot
    1        0.451   0.282   9.188   9.921
    2        0.447   0.285   9.186   9.919
    3        0.447   0.285   9.186   9.919
    4        0.447   0.285   9.186   9.919
    5        0.449   0.286   9.181   9.916
    6        0.447   0.285   9.186   9.919
    7        0.447   0.285   9.186   9.919
    8        0.447   0.285   9.186   9.919
    9        0.450   0.283   9.187   9.921
   10        0.443   0.371   9.176   9.990
   11        0.441   0.365   9.182   9.987
   12        0.443   0.371   9.176   9.990
   13        0.441   0.365   9.182   9.987
   14        0.441   0.365   9.182   9.987
   15        0.440   0.371   9.177   9.988
   16        0.443   0.371   9.176   9.990
   17        0.440   0.371   9.177   9.988
   18        0.440   0.371   9.177   9.988
   19        0.444   0.373   9.178   9.995
   20        0.458   0.387   9.157  10.002
   21        0.458   0.387   9.157  10.002
   22        0.435   0.374   9.178   9.987
   23        0.458   0.387   9.157  10.002
   24        0.435   0.374   9.178   9.987
   25        0.444   0.373   9.178   9.995
   26        0.444   0.373   9.178   9.995
   27        0.435   0.374   9.178   9.987
   28        0.443   0.300   9.178   9.921
   29        0.488   0.325   9.156   9.969
   30        0.488   0.325   9.156   9.969
   31        0.488   0.325   9.156   9.969
   32        0.488   0.325   9.156   9.969
   33        0.488   0.325   9.156   9.969
   34        0.488   0.325   9.156   9.969
   35        0.441   0.305   9.178   9.924
   36        0.651   0.460   1.918   3.029
tot         16.476  12.305 323.028 351.810

  FORCE on cell =-STRESS in cart. coord.  units (eV):
  Direction    XX          YY          ZZ          XY          YZ          ZX
  Alpha Z   858.34822   858.34822   858.34822
  Ewald  169530.04633169530.04603************     0.00033     0.00013     0.00014
  Hartree182326.85688182326.85693************     0.00001     0.00006     0.00005
  E(xc)   -2262.73084 -2262.73036 -2265.73935    -0.00041    -0.00003    -0.00006
  Local  ************************364605.64322     0.01833    -0.00056    -0.00085
  n-local  -752.19239  -738.62864  -760.12493     7.11080    -0.24701     0.22948
  augment  3308.92333  3308.94309  3331.84347    -0.01713     0.00020     0.00039
  Kinetic  3161.45071  3160.78096  3191.03841     0.86615     1.93746    -1.47099
  Fock        0.00000     0.00000     0.00000     0.00000     0.00000     0.00000
  Total      -6.70118    -6.70118    -1.83425     0.00000    -0.00000     0.00000
  in kB      -9.83221    -9.83221    -2.69128     0.00000    -0.00000     0.00000

 VOLUME and BASIS-vectors are now :
  energy-cutoff  :      500.00
  volume of cell :     1091.97
      direct lattice vectors                 reciprocal lattice vectors
     7.696786404  0.000000000  0.000000000     0.129924354 -0.075011849  0.000000000
     3.848392758  6.665612809  0.000000000     0.000000000  0.150023716  0.000000000
     0.000000000  0.000000000 21.284399033     0.000000000  0.000000000  0.046982769

  length of vectors
     7.696786404  7.696786404 21.284399033     0.150023716  0.150023716  0.046982769

 FORCES acting on ions
    electron-ion (+dipol)            ewald-force                    non-local-force                 convergence-correction
   -.413E-04 0.308E-06 0.343E+04   0.582E-04 -.422E-05 -.342E+04   -.591E-18 -.200E-17 -.209E+01   -.222E-03 -.146E-03 0.489E-02
   -.125E+01 -.163E+01 0.342E+04   0.121E+01 0.155E+01 -.342E+04   0.282E-01 0.685E-01 -.194E+01   0.209E-01 0.109E-01 0.112E+00
   0.125E+01 -.163E+01 0.342E+04   -.121E+01 0.155E+01 -.342E+04   -.282E-01 0.685E-01 -.194E+01   -.202E-01 0.135E-01 0.112E+00
   -.203E+01 -.271E+00 0.342E+04   0.195E+01 0.273E+00 -.342E+04   0.734E-01 -.981E-02 -.194E+01   0.200E-01 0.126E-01 0.112E+00
   -.613E-04 -.309E-05 0.342E+04   0.116E-03 -.101E-04 -.342E+04   -.335E-17 0.213E-17 -.170E+01   0.122E-01 0.744E-02 0.134E+00
   0.203E+01 -.271E+00 0.342E+04   -.195E+01 0.273E+00 -.342E+04   -.734E-01 -.981E-02 -.194E+01   -.216E-01 0.139E-01 0.113E+00
   -.782E+00 0.190E+01 0.342E+04   0.738E+00 -.182E+01 -.342E+04   0.452E-01 -.586E-01 -.194E+01   0.169E-02 -.242E-01 0.113E+00
   0.782E+00 0.190E+01 0.342E+04   -.738E+00 -.182E+01 -.342E+04   -.452E-01 -.586E-01 -.194E+01   0.186E-02 -.256E-01 0.113E+00
   -.143E-03 -.327E-04 0.343E+04   0.263E-03 0.204E-04 -.342E+04   0.219E-18 -.689E-18 -.190E+01   -.133E-01 -.683E-02 0.984E-01
   -.131E+02 -.754E+01 0.109E+04   0.132E+02 0.763E+01 -.109E+04   -.183E+00 -.106E+00 -.928E+00   0.399E-01 0.228E-01 -.253E+00
   -.907E-04 -.145E+02 0.107E+04   0.189E-03 0.142E+02 -.107E+04   -.160E-07 0.240E+00 -.338E+00   0.113E-01 0.136E-01 -.238E+00
   0.131E+02 -.754E+01 0.109E+04   -.132E+02 0.763E+01 -.109E+04   0.183E+00 -.106E+00 -.928E+00   -.410E-01 0.244E-01 -.254E+00
   -.125E+02 0.724E+01 0.107E+04   0.123E+02 -.711E+01 -.107E+04   0.208E+00 -.120E+00 -.338E+00   0.179E-01 0.382E-02 -.239E+00
   0.125E+02 0.724E+01 0.107E+04   -.123E+02 -.711E+01 -.107E+04   -.208E+00 -.120E+00 -.338E+00   0.610E-02 0.351E-02 -.239E+00
   -.138E-03 -.632E+00 0.109E+04   0.294E-03 0.523E+00 -.109E+04   -.354E-08 0.531E-01 -.950E+00   -.345E-02 0.644E-01 -.227E+00
   -.932E-04 0.151E+02 0.109E+04   0.187E-03 -.153E+02 -.109E+04   -.141E-07 0.212E+00 -.928E+00   0.842E-04 -.492E-01 -.253E+00
   -.547E+00 0.316E+00 0.109E+04   0.453E+00 -.261E+00 -.109E+04   0.460E-01 -.266E-01 -.950E+00   0.545E-01 -.351E-01 -.227E+00
   0.547E+00 0.316E+00 0.109E+04   -.453E+00 -.261E+00 -.109E+04   -.460E-01 -.266E-01 -.950E+00   -.540E-01 -.328E-01 -.227E+00
   -.722E-04 -.105E+02 -.122E+04   0.750E-04 0.107E+02 0.122E+04   0.735E-08 -.110E+00 0.902E+00   0.106E-02 -.449E-01 -.282E+00
   -.821E+02 -.474E+02 -.136E+04   0.829E+02 0.479E+02 0.137E+04   -.885E+00 -.511E+00 -.410E+00   0.525E-02 0.193E-02 -.380E+00
   0.821E+02 -.474E+02 -.136E+04   -.829E+02 0.479E+02 0.137E+04   0.885E+00 -.511E+00 -.410E+00   -.257E-01 0.387E-02 -.381E+00
   -.411E+02 0.237E+02 -.125E+04   0.409E+02 -.236E+02 0.125E+04   0.196E+00 -.113E+00 0.638E+00   -.271E-01 0.658E-03 -.395E+00
   -.709E-04 0.947E+02 -.136E+04   0.158E-03 -.958E+02 0.137E+04   -.680E-07 0.102E+01 -.410E+00   0.130E-02 -.560E-02 -.381E+00
   0.411E+02 0.237E+02 -.125E+04   -.409E+02 -.236E+02 0.125E+04   -.196E+00 -.113E+00 0.638E+00   0.458E-02 0.279E-02 -.394E+00
   0.913E+01 0.527E+01 -.122E+04   -.927E+01 -.535E+01 0.122E+04   0.956E-01 0.552E-01 0.902E+00   0.417E-01 0.232E-01 -.282E+00
   -.913E+01 0.527E+01 -.122E+04   0.927E+01 -.535E+01 0.122E+04   -.956E-01 0.552E-01 0.902E+00   -.385E-01 0.221E-01 -.282E+00
   -.137E-03 -.475E+02 -.125E+04   0.238E-03 0.473E+02 0.125E+04   -.151E-07 0.227E+00 0.638E+00   -.132E-01 -.231E-01 -.395E+00
   -.318E-04 0.213E-04 -.346E+04   0.535E-04 -.296E-04 0.346E+04   -.122E-17 0.435E-18 0.156E+01   -.102E-02 -.910E-03 -.164E+00
   -.776E+02 -.144E+03 -.346E+04   0.780E+02 0.144E+03 0.346E+04   -.312E+00 -.228E+00 0.220E+00   -.488E-01 -.773E-01 -.241E+00
   0.776E+02 -.144E+03 -.346E+04   -.780E+02 0.144E+03 0.346E+04   0.312E+00 -.228E+00 0.220E+00   0.708E-01 -.754E-01 -.240E+00
   -.163E+03 0.473E+01 -.346E+04   0.164E+03 -.457E+01 0.346E+04   -.353E+00 -.157E+00 0.220E+00   -.912E-01 -.381E-02 -.241E+00
   0.163E+03 0.473E+01 -.346E+04   -.164E+03 -.457E+01 0.346E+04   0.353E+00 -.157E+00 0.220E+00   0.113E+00 -.200E-02 -.241E+00
   -.858E+02 0.139E+03 -.346E+04   0.859E+02 -.140E+03 0.346E+04   -.410E-01 0.384E+00 0.220E+00   -.296E-01 0.994E-01 -.240E+00
   0.858E+02 0.139E+03 -.346E+04   -.859E+02 -.140E+03 0.346E+04   0.410E-01 0.384E+00 0.220E+00   0.551E-01 0.991E-01 -.241E+00
   -.119E-03 -.116E-04 -.348E+04   0.244E-03 -.311E-05 0.348E+04   0.585E-17 0.483E-17 0.187E+01   -.148E-01 -.757E-02 -.220E+00
   -.369E-04 -.704E-05 -.131E+04   0.434E-04 0.109E-04 0.130E+04   0.214E-17 0.866E-18 0.443E+01   -.172E-03 -.138E-03 -.618E-01
   -.251E-03 0.115E-04 0.177E+02   0.129E-12 0.305E-12 -.182E-11   0.357E-16 0.117E-15 -.114E+02   0.353E-01 0.290E-01 -.631E+01

 POSITION                                       TOTAL-FORCE (eV/Angst)
      0.00000      0.00000      5.37156         0.000000     -0.000000      0.002683
      2.56560      0.00000      5.37156         0.007893      0.005875      0.041461
      5.13119      0.00000      5.37156        -0.007893      0.005875      0.041461
      1.28280      2.22187      5.37156         0.009034      0.003898      0.041461
      3.84839      2.22187      5.37156         0.000000      0.000000      0.056274
      6.41399      2.22187      5.37156        -0.009034      0.003898      0.041461
      2.56560      4.44374      5.37156         0.001141     -0.009773      0.041461
      5.13119      4.44374      5.37156        -0.001141     -0.009773      0.041461
      7.69679      4.44374      5.37156         0.000000      0.000000      0.019029
      1.28280      0.74062      7.46636         0.020842      0.012033     -0.098282
      3.84839      0.74062      7.46636         0.000000     -0.024281     -0.034913
      6.41399      0.74062      7.46636        -0.020842      0.012033     -0.098282
      2.56560      2.96249      7.46636        -0.021028      0.012140     -0.034913
      5.13119      2.96249      7.46636         0.021028      0.012140     -0.034913
      7.69679      2.96249      7.46636        -0.000000      0.008933     -0.030131
      3.84839      5.18437      7.46636         0.000000     -0.024066     -0.098282
      6.41399      5.18437      7.46636         0.007736     -0.004467     -0.030131
      8.97958      5.18437      7.46636        -0.007736     -0.004467     -0.030131
      7.69679      1.47625      9.53578         0.000000     -0.001395     -0.002982
      2.57143      1.48462      9.57247         0.010327      0.005962      0.005079
      5.12535      1.48462      9.57247        -0.010327      0.005962      0.005079
      8.97869      3.70363      9.55450        -0.002921      0.001687      0.005329
      3.84839      3.69638      9.57247         0.000000     -0.011925      0.005079
      6.41488      3.70363      9.55450         0.002921      0.001687      0.005329
     10.26671      5.92749      9.53578         0.001208      0.000698     -0.002982
      5.12686      5.92749      9.53578        -0.001208      0.000698     -0.002982
      7.69679      5.92396      9.55450         0.000000     -0.003373      0.005329
      0.00000      0.00000     11.64309         0.000000      0.000000      0.036807
      6.39641      6.62889     11.65568        -0.003799     -0.003175      0.016398
      8.99717      6.62889     11.65568         0.003799     -0.003175      0.016398
      8.93899      2.22500     11.65568        -0.004649     -0.001702      0.016398
      6.45458      2.22500     11.65568         0.004649     -0.001702      0.016398
     10.23937      4.47733     11.65568        -0.000851      0.004878      0.016398
      5.15420      4.47733     11.65568         0.000851      0.004878      0.016398
      7.69679      4.44374     11.66757        -0.000000     -0.000000      0.024956
      3.84839      2.22187     11.91603        -0.000000     -0.000000     -0.019198
    total drift:                                0.035092      0.029019      0.007868

  FREE ENERGIE OF THE ION-ELECTRON SYSTEM (eV)
  free  energy   TOTEN  =      -131.89402230 eV

  energy  without entropy=     -131.89402230  energy(sigma->0) =     -131.89402230

 stress matrix after NEB project (eV)
     -6.70118      0.00000      0.00000
      0.00000     -6.70118     -0.00000
     -0.00000     -0.00000     -1.83425
  FORCES: max atom, RMS     0.036807    0.011502
  FORCE total and by dimension    0.069010    0.036807
  Stress total and by dimension    9.652779    6.701182
|           W    W    AA    RRRRR   N    N  II  N    N   GGGG   !!!           |
|           W    W   A  A   R    R  NN   N  II  NN   N  G    G  !!!           |
|           W    W  A    A  R    R  N N  N  II  N N  N  G       !!!           |
|           W WW W  AAAAAA  RRRRR   N  N N  II  N  N N  G  GGG   !            |
|           WW  WW  A    A  R   R   N   NN  II  N   NN  G    G                |
|           W    W  A    A  R    R  N    N  II  N    N   GGGG   !!!           |
|     Tetrahedron method does not include variations of the Fermi             |
|     occupations, so forces and stress will be inaccurate. We suggest        |
|     using a different smearing scheme ISMEAR = 1 or 2 for metals in         |
|     relaxations.                                                            |

 total charge

# of ion       s       p       d       tot
    1        0.451   0.282   9.188   9.921
    2        0.447   0.285   9.186   9.919
    3        0.447   0.285   9.186   9.919
    4        0.447   0.285   9.186   9.919
    5        0.449   0.286   9.181   9.916
    6        0.447   0.285   9.186   9.919
    7        0.447   0.285   9.186   9.919
    8        0.447   0.285   9.186   9.919
    9        0.450   0.283   9.187   9.921
   10        0.443   0.371   9.176   9.990
   11        0.441   0.365   9.182   9.987
   12        0.443   0.371   9.176   9.990
   13        0.441   0.365   9.182   9.987
   14        0.441   0.365   9.182   9.987
   15        0.440   0.371   9.177   9.988
   16        0.443   0.371   9.176   9.990
   17        0.440   0.371   9.177   9.988
   18        0.440   0.371   9.177   9.988
   19        0.444   0.373   9.178   9.995
   20        0.458   0.387   9.157  10.002
   21        0.458   0.387   9.157  10.002
   22        0.435   0.374   9.178   9.987
   23        0.458   0.387   9.157  10.002
   24        0.435   0.374   9.178   9.987
   25        0.444   0.373   9.178   9.995
   26        0.444   0.373   9.178   9.995
   27        0.435   0.374   9.178   9.987
   28        0.443   0.300   9.178   9.921
   29        0.488   0.325   9.156   9.969
   30        0.488   0.325   9.156   9.969
   31        0.488   0.325   9.156   9.969
   32        0.488   0.325   9.156   9.969
   33        0.488   0.325   9.156   9.969
   34        0.488   0.325   9.156   9.969
   35        0.441   0.305   9.178   9.924
   36        0.651   0.460   1.918   3.029
tot         16.476  12.305 323.028 351.810

 BZINTS: Fermi energy:    0.296317;  389.000000 electrons
         Band energy:-0.102944E+04;  BLOECHL correction:   -0.042644