 vasp.6.2.0 18Jan21 (build Jun 12 2021 23:27:24) complex

 executed on             LinuxIFC date 2022.05.26  19:55:06

 INCAR:
   ISMEAR = -5
   SIGMA = 0.1
   ISPIN = 1
   EDIFF = 1.d-5
   EDIFFG = -0.01
   NSW = 0
   NELM = 150
   ENCUT = 500
   ISIF = 2
   IBRION = 2
   LREAL = Auto
   ALGO = Fast
   ICHARG = 11
   LORBIT = 10
   LCHARG = .F.
   LWAVE = .F.

 POTCAR:    PAW_PBE Ag 02Apr2005
 POTCAR:    PAW_PBE Pt 04Feb2005
 POTCAR:    PAW_PBE H 15Jun2001
|           W    W    AA    RRRRR   N    N  II  N    N   GGGG   !!!           |
|           W    W   A  A   R    R  NN   N  II  NN   N  G    G  !!!           |
|           W    W  A    A  R    R  N N  N  II  N N  N  G       !!!           |
|           W WW W  AAAAAA  RRRRR   N  N N  II  N  N N  G  GGG   !            |
|           WW  WW  A    A  R   R   N   NN  II  N   NN  G    G                |
|           W    W  A    A  R    R  N    N  II  N    N   GGGG   !!!           |
|     For optimal performance we recommend to set                             |
|       NCORE = 2 up to number-of-cores-per-socket                            |
|     This setting can greatly improve the performance of VASP for DFT.       |
|     The default, NCORE=1 might be grossly inefficient on modern             |
|     multi-core architectures or massively parallel machines. Do your        |
|     Unfortunately you need to use the default for GW and RPA                |
|     calculations (for HF NCORE is supported but not extensively tested      |
|     yet).                                                                   |

 POTCAR:    PAW_PBE Ag 02Apr2005
   VRHFIN =Ag : s1 d10

   TITEL  = PAW_PBE Ag 02Apr2005
   POMASS =  107.868; ZVAL   =   11.000    mass and valenz
   ENMAX  =  249.844; ENMIN  =  187.383 eV

 POTCAR:    PAW_PBE Pt 04Feb2005
   VRHFIN =Pt: s1d9

   TITEL  = PAW_PBE Pt 04Feb2005
   POMASS =  195.080; ZVAL   =   10.000    mass and valenz
   ENMAX  =  230.283; ENMIN  =  172.712 eV

 POTCAR:    PAW_PBE H 15Jun2001
   VRHFIN =H: ultrasoft test

   TITEL  = PAW_PBE H 15Jun2001
   POMASS =    1.000; ZVAL   =    1.000    mass and valenz
   ENMAX  =  250.000; ENMIN  =  200.000 eV

 Optimization of the real space projectors (new method)

 maximal supplied QI-value         = 15.12
 optimisation between [QCUT,QGAM] = [ 11.34, 22.83] = [ 36.00,145.93] Ry
 Optimized for a Real-space Cutoff    1.43 Angstroem

   l    n(q)    QCUT    max X(q) W(low)/X(q) W(high)/X(q)  e(spline)
   2      9    11.338    53.897    0.16E-03    0.20E-03    0.28E-06
   2      9    11.338    52.416    0.16E-03    0.20E-03    0.29E-06
   0     10    11.338   122.045    0.31E-04    0.76E-04    0.15E-06
   0     10    11.338    73.629    0.30E-04    0.72E-04    0.15E-06
   1      9    11.338    15.255    0.20E-03    0.19E-04    0.17E-06
   1      9    11.338     9.562    0.16E-03    0.15E-04    0.14E-06
 Optimization of the real space projectors (new method)

[...]

   l    n(q)    QCUT    max X(q) W(low)/X(q) W(high)/X(q)  e(spline)
   2      9    11.346    66.195    0.31E-03    0.12E-04    0.29E-06
   2      9    11.346    64.643    0.32E-03    0.12E-04    0.29E-06
   0     10    11.346    95.520    0.90E-04    0.16E-04    0.19E-06
   0     10    11.346    63.403    0.87E-04    0.15E-04    0.19E-06
   1     10    11.346    19.961    0.17E-03    0.21E-03    0.11E-06
   1     10    11.346    13.289    0.14E-03    0.18E-03    0.89E-07
 Optimization of the real space projectors (new method)

 maximal supplied QI-value         = 34.20
 optimisation between [QCUT,QGAM] = [ 11.29, 22.57] = [ 35.68,142.71] Ry
 Optimized for a Real-space Cutoff    1.16 Angstroem

   l    n(q)    QCUT    max X(q) W(low)/X(q) W(high)/X(q)  e(spline)
   0      8    11.287    19.460    0.40E-03    0.73E-03    0.16E-06
   0      8    11.287    12.209    0.38E-03    0.70E-03    0.15E-06
   1      7    11.287     4.655    0.22E-03    0.25E-04    0.22E-06
  PAW_PBE Ag 02Apr2005                  :
  PAW_PBE Pt 04Feb2005                  :
  PAW_PBE H 15Jun2001                   :

 POSCAR: Ag-Pt-H
  positions in direct lattice
  velocities in cartesian coordinates
 exchange correlation table for  LEXCH =        8
   RHO(1)=    0.500       N(1)  =     2000
   RHO(2)=  100.500       N(2)  =     4000

 VTST: version 3.2, (02/03/18)

 CHAIN: initializing optimizer

 OPT: Using VASP Conjugate-Gradient optimizer
 CHAIN: Read ICHAIN            0

 POSCAR: Ag-Pt-H
  positions in direct lattice
  velocities in cartesian coordinates

 ion  position               nearest neighbor table
   1  0.000  0.000  0.238-   2 2.93   8 2.93   7 2.93   6 2.93   4 2.93  12 2.93  16 2.93  10 2.93
                             3 2.93
   2  0.333  0.000  0.238-   1 2.93   8 2.93   9 2.93   3 2.93   4 2.93   5 2.93  10 2.93  17 2.93
                            11 2.93
   3  0.667  0.000  0.238-   9 2.93   2 2.93   5 2.93  11 2.93   7 2.93  18 2.93   1 2.93   6 2.93
                            12 2.93
   4  0.000  0.333  0.238-   5 2.93   6 2.93   2 2.93   1 2.93   7 2.93  13 2.93  15 2.93   9 2.93
                            10 2.93
   5  0.333  0.333  0.238-   4 2.93   3 2.93   7 2.93   2 2.93   8 2.93  14 2.93  13 2.93  11 2.93
                             6 2.93
   6  0.667  0.333  0.238-   4 2.93   9 2.93   1 2.93  15 2.93   8 2.93  12 2.93   3 2.93   5 2.93
                            14 2.93
   7  0.000  0.667  0.238-   8 2.93   1 2.93   5 2.93   3 2.93   4 2.93  16 2.93  18 2.93  13 2.93
                             9 2.93
   8  0.333  0.667  0.238-   7 2.93   1 2.93   2 2.93   9 2.93   5 2.93  16 2.93   6 2.93  17 2.93
                            14 2.93
   9  0.667  0.667  0.238-   3 2.93   2 2.93   8 2.93   6 2.93  17 2.93   4 2.93  15 2.93   7 2.93
                            18 2.93
  10  0.111  0.111  0.346-  20 2.89  19 2.93  26 2.93  12 2.93  16 2.93  15 2.93  17 2.93  13 2.93
                            11 2.93   2 2.93   1 2.93   4 2.93
  11  0.444  0.111  0.346-  21 2.90  20 2.90  27 2.91  14 2.93  17 2.93  18 2.93   3 2.93  12 2.93
                            13 2.93  10 2.93   5 2.93   2 2.93
  12  0.778  0.111  0.346-  21 2.89  25 2.93  19 2.93  10 2.93  16 2.93  18 2.93  15 2.93  11 2.93
                             1 2.93  14 2.93   6 2.93   3 2.93
  13  0.111  0.444  0.346-  20 2.90  23 2.90  22 2.91  15 2.93  14 2.93  18 2.93  10 2.93  11 2.93
                            16 2.93   4 2.93   5 2.93   7 2.93
  14  0.444  0.444  0.346-  23 2.90  21 2.90  24 2.91  13 2.93  11 2.93  16 2.93   5 2.93  12 2.93
                            17 2.93   8 2.93  15 2.93   6 2.93
  15  0.778  0.444  0.346-  24 2.91  22 2.91  19 2.92  13 2.93  10 2.93  12 2.93  17 2.93  18 2.93
                             4 2.93   6 2.93   9 2.93  14 2.93
  16  0.111  0.778  0.346-  23 2.89  26 2.93  25 2.93  18 2.93  12 2.93  10 2.93  14 2.93  17 2.93
                            13 2.93   7 2.93   8 2.93   1 2.93
  17  0.444  0.778  0.346-  27 2.91  24 2.91  26 2.92  11 2.93  10 2.93   9 2.93  18 2.93  15 2.93
                            16 2.93   2 2.93  14 2.93   8 2.93
  18  0.778  0.778  0.346-  22 2.91  27 2.91  25 2.92  16 2.93  12 2.93  13 2.93  11 2.93  17 2.93
                            15 2.93   7 2.93   3 2.93   9 2.93
  19  0.888  0.223  0.454-  28 2.91  15 2.92  20 2.92  21 2.92  24 2.92  22 2.92  10 2.93  12 2.93
                            32 2.93  31 2.93  26 2.94  25 2.94
  20  0.221  0.221  0.452-  36 2.81  10 2.89  13 2.90  11 2.90  19 2.92  26 2.92  31 2.92  29 2.92
                            27 2.93  22 2.93  21 2.95  23 2.95
  21  0.557  0.221  0.452-  36 2.81  12 2.89  11 2.90  14 2.90  25 2.92  19 2.92  30 2.92  32 2.92
                            27 2.93  24 2.93  20 2.95  23 2.95
  22  0.889  0.556  0.453-  35 2.91  18 2.91  15 2.91  13 2.91  25 2.92  19 2.92  24 2.93  27 2.93
                            33 2.93  31 2.93  23 2.93  20 2.93
  23  0.221  0.557  0.452-  36 2.81  16 2.89  14 2.90  13 2.90  26 2.92  25 2.92  34 2.92  33 2.92
                            22 2.93  24 2.93  21 2.95  20 2.95
  24  0.556  0.556  0.453-  35 2.91  15 2.91  17 2.91  14 2.91  19 2.92  26 2.92  27 2.93  22 2.93
                            32 2.93  34 2.93  23 2.93  21 2.93
  25  0.888  0.888  0.454-  28 2.91  18 2.92  23 2.92  21 2.92  22 2.92  27 2.92  16 2.93  12 2.93
                            33 2.93  30 2.93  26 2.94  19 2.94
  26  0.223  0.888  0.454-  28 2.91  17 2.92  23 2.92  20 2.92  27 2.92  24 2.92  16 2.93  10 2.93
                            34 2.93  29 2.93  25 2.94  19 2.94
  27  0.556  0.889  0.453-  35 2.91  17 2.91  18 2.91  11 2.91  26 2.92  25 2.92  24 2.93  22 2.93
                            29 2.93  30 2.93  20 2.93  21 2.93
  28  0.000  0.000  0.560-  26 2.91  25 2.91  19 2.91  29 2.95  34 2.95  33 2.95  32 2.95  31 2.95
                            30 2.95
  29  0.333  0.004  0.561-  30 2.89  31 2.89  36 2.90  20 2.92  27 2.93  26 2.93  35 2.95  28 2.95
                            34 3.00
  30  0.662  0.004  0.561-  29 2.89  32 2.89  36 2.90  21 2.92  27 2.93  25 2.93  35 2.95  28 2.95
                            33 3.00
  31  0.004  0.333  0.561-  33 2.89  29 2.89  36 2.90  20 2.92  22 2.93  19 2.93  35 2.95  28 2.95
                            32 3.00
  32  0.662  0.333  0.561-  34 2.89  30 2.89  36 2.90  21 2.92  24 2.93  19 2.93  35 2.95  28 2.95
                            31 3.00
  33  0.004  0.662  0.561-  31 2.89  34 2.89  36 2.90  23 2.92  22 2.93  25 2.93  35 2.95  28 2.95
                            30 3.00
  34  0.333  0.662  0.561-  32 2.89  33 2.89  36 2.90  23 2.92  24 2.93  26 2.93  35 2.95  28 2.95
                            29 3.00
  35  0.667  0.667  0.560-  24 2.91  27 2.91  22 2.91  30 2.95  32 2.95  29 2.95  34 2.95  31 2.95
                            33 2.95
  36  0.333  0.333  0.553-  37 1.58  21 2.81  20 2.81  23 2.81  31 2.90  33 2.90  30 2.90  29 2.90
                            34 2.90  32 2.90
  37  0.333  0.333  0.624-  36 1.58

  LATTYP: Found a hexagonal cell.
 ALAT       =     8.7913665772
 C/A-ratio  =     2.5227160501

  Lattice vectors:

 A1 = (  -4.3956832886,  -7.6135467898,   0.0000000000)
 A2 = (   8.7913665771,   0.0000000000,   0.0000000000)
 A3 = (   0.0000000000,   0.0000000000,  22.1781215668)

Analysis of symmetry for initial positions (statically):
 Subroutine PRICEL returns:
 Original cell was already a primitive cell.

 Routine SETGRP: Setting up the symmetry group for a
 hexagonal supercell.

 Subroutine GETGRP returns: Found  6 space group operations
 (whereof  6 operations were pure point group operations)
 out of a pool of 24 trial point group operations.

The static configuration has the point symmetry C_3v.

Analysis of symmetry for dynamics (positions and initial velocities):
 Subroutine PRICEL returns:
 Original cell was already a primitive cell.

[...]

The dynamic configuration has the point symmetry C_3v.

Analysis of constrained symmetry for selective dynamics:
 Subroutine PRICEL returns:
 Original cell was already a primitive cell.

 Routine SETGRP: Setting up the symmetry group for a
 hexagonal supercell.

 Subroutine GETGRP returns: Found  6 space group operations
 (whereof  6 operations were pure point group operations)
[...]
     24      -4.5876      2.00000
     25      -4.5482      2.00000
     26      -4.5305      2.00000
     27      -4.5247      2.00000
     28      -4.5122      2.00000
     29      -4.5080      2.00000
     30      -4.4830      2.00000
     31      -4.4766      2.00000
     32      -4.4434      2.00000
     33      -4.4338      2.00000
     34      -4.3875      2.00000
     35      -4.3593      2.00000
     36      -4.3425      2.00000
     37      -4.3269      2.00000
     38      -4.2887      2.00000
     39      -4.2767      2.00000
     40      -4.2735      2.00000
     41      -4.2541      2.00000
     42      -4.2490      2.00000
     43      -4.2362      2.00000
     44      -4.1519      2.00000
     45      -4.1312      2.00000
     46      -4.1226      2.00000
     47      -4.1116      2.00000
     48      -4.1054      2.00000
     49      -4.1013      2.00000
     50      -4.0925      2.00000
     51      -4.0850      2.00000
     52      -4.0801      2.00000
     53      -4.0098      2.00000
     54      -3.9866      2.00000
     55      -3.9846      2.00000
     56      -3.9793      2.00000
     57      -3.9578      2.00000
     58      -3.9498      2.00000
     59      -3.9335      2.00000
     60      -3.9047      2.00000
[...]
    238       7.2089      0.00000
    239       7.2600      0.00000
    240       7.2658      0.00000
    241       7.2841      0.00000
    242       7.3112      0.00000
    243       7.3548      0.00000
    244       7.3885      0.00000
    245       7.5305      0.00000
    246       7.5790      0.00000
    247       7.6165      0.00000
    248       7.6568      0.00000
    249       7.7132      0.00000
    250       7.9555      0.00000
    251       7.9936      0.00000
    252       8.1570      0.00000

 soft charge-density along one line, spin component           1
         0         1         2         3         4         5         6         7         8         9
 total charge-density along one line

------------------------ aborting loop because EDIFF is reached ----------------------------------------

 total charge

# of ion       s       p       d       tot
    1        0.417   0.202   9.179   9.797
    2        0.418   0.203   9.177   9.798
    3        0.418   0.203   9.177   9.798
    4        0.418   0.203   9.177   9.798
    5        0.419   0.204   9.175   9.798
    6        0.418   0.203   9.177   9.798
    7        0.418   0.203   9.177   9.798
    8        0.418   0.203   9.177   9.798
    9        0.414   0.203   9.179   9.796
   10        0.406   0.270   9.165   9.840
   11        0.409   0.268   9.167   9.845
   12        0.406   0.270   9.165   9.840
   13        0.409   0.268   9.167   9.845
   14        0.409   0.268   9.167   9.845
   15        0.401   0.272   9.165   9.838
   16        0.406   0.270   9.165   9.840
   17        0.401   0.272   9.165   9.838
   18        0.401   0.272   9.165   9.838
   19        0.403   0.270   9.165   9.838
   20        0.420   0.284   9.157   9.861
   21        0.420   0.284   9.157   9.861
   22        0.400   0.273   9.167   9.840
   23        0.420   0.284   9.157   9.861
   24        0.400   0.273   9.167   9.840
   25        0.403   0.270   9.165   9.838
   26        0.403   0.270   9.165   9.838
   27        0.400   0.273   9.167   9.840
   28        0.415   0.197   9.182   9.795
   29        0.406   0.208   9.180   9.793
   30        0.406   0.208   9.180   9.793
   31        0.406   0.208   9.180   9.793
   32        0.406   0.208   9.180   9.793
   33        0.406   0.208   9.180   9.793
   34        0.406   0.208   9.180   9.793
   35        0.412   0.199   9.182   9.793
   36        0.678   0.453   8.136   9.268
   37        0.510   0.024   0.000   0.534
tot         15.525   8.855 329.136 353.517

  FORCE on cell =-STRESS in cart. coord.  units (eV):
  Direction    XX          YY          ZZ          XY          YZ          ZX
  Alpha Z   747.97368   747.97368   747.97368
  Ewald  121820.30793121820.30794************     0.00001     0.00000    -0.00000
  Hartree132032.49923132032.49923************     0.00000    -0.00000     0.00000
  E(xc)   -2077.01417 -2077.01415 -2082.37041    -0.00002    -0.00000    -0.00000
  Local  ************************265427.79638     0.00024    -0.00004    -0.00007
  n-local  -328.66230  -308.55500  -322.19555    11.96806    -0.53970     0.58037
  augment  3273.40130  3273.40154  3279.12067    -0.00021    -0.00003    -0.00004
  Kinetic  4922.44282  4926.88831  4940.24170     5.28197     1.00251    -0.31146
  Fock        0.00000     0.00000     0.00000     0.00000     0.00000     0.00000
  Total      -8.04445    -8.04445    -0.09205    -0.00000     0.00000     0.00000
  in kB      -8.68238    -8.68238    -0.09935    -0.00000     0.00000     0.00000

 VOLUME and BASIS-vectors are now :
  energy-cutoff  :      500.00
  volume of cell :     1484.46
      direct lattice vectors                 reciprocal lattice vectors
     8.791366577  0.000000000  0.000000000     0.113747958 -0.065672414  0.000000000
     4.395683289  7.613546790  0.000000000     0.000000000  0.131344829  0.000000000
     0.000000000  0.000000000 22.178121567     0.000000000  0.000000000  0.045089481

  length of vectors
     8.791366577  8.791366577 22.178121567     0.131344829  0.131344829  0.045089481

 FORCES acting on ions
    electron-ion (+dipol)            ewald-force                    non-local-force                 convergence-correction
   0.460E-04 -.282E-04 0.251E+04   -.954E-04 0.593E-04 -.251E+04   -.180E-17 0.638E-19 -.232E+01   -.107E-03 -.169E-03 -.251E+00
   0.320E+00 0.217E+00 0.251E+04   -.391E+00 -.292E+00 -.251E+04   0.540E-01 0.775E-01 -.166E+01   0.262E-01 0.170E-01 -.249E+00
   -.320E+00 0.217E+00 0.251E+04   0.391E+00 -.292E+00 -.251E+04   -.540E-01 0.775E-01 -.166E+01   -.268E-01 0.189E-01 -.249E+00
   0.348E+00 0.168E+00 0.251E+04   -.449E+00 -.192E+00 -.251E+04   0.941E-01 0.801E-02 -.166E+01   0.280E-01 0.144E-01 -.249E+00
   -.800E-05 -.201E-04 0.251E+04   0.981E-04 -.197E-05 -.251E+04   0.178E-17 -.126E-17 -.137E+01   0.624E-02 0.382E-02 -.212E+00
   -.348E+00 0.168E+00 0.251E+04   0.449E+00 -.192E+00 -.251E+04   -.941E-01 0.801E-02 -.166E+01   -.294E-01 0.153E-01 -.249E+00
   0.282E-01 -.386E+00 0.251E+04   -.578E-01 0.485E+00 -.251E+04   0.401E-01 -.855E-01 -.166E+01   0.341E-02 -.321E-01 -.249E+00
   -.282E-01 -.386E+00 0.251E+04   0.578E-01 0.485E+00 -.251E+04   -.401E-01 -.855E-01 -.166E+01   -.177E-02 -.331E-01 -.249E+00
   0.363E-04 -.129E-04 0.251E+04   0.792E-04 -.643E-04 -.251E+04   0.411E-17 0.126E-17 -.210E+01   -.667E-02 -.344E-02 -.256E+00
   0.507E+01 0.293E+01 0.843E+03   -.476E+01 -.275E+01 -.842E+03   -.353E+00 -.204E+00 -.828E+00   0.338E-01 0.195E-01 0.818E-02
   -.287E-04 0.242E+01 0.847E+03   0.410E-04 -.251E+01 -.846E+03   0.626E-12 0.953E-01 -.355E+00   0.629E-02 -.162E-01 0.284E-01
   -.507E+01 0.293E+01 0.843E+03   0.476E+01 -.275E+01 -.842E+03   0.353E+00 -.204E+00 -.828E+00   -.353E-01 0.206E-01 0.806E-02
   0.209E+01 -.121E+01 0.847E+03   -.218E+01 0.126E+01 -.846E+03   0.825E-01 -.476E-01 -.355E+00   -.110E-01 0.136E-01 0.284E-01
   -.209E+01 -.121E+01 0.847E+03   0.218E+01 0.126E+01 -.846E+03   -.825E-01 -.476E-01 -.355E+00   0.217E-01 0.128E-01 0.276E-01
   0.162E-04 0.131E+01 0.843E+03   -.108E-03 -.143E+01 -.843E+03   0.201E-12 0.306E-01 -.797E+00   -.166E-02 0.640E-01 -.130E-01
   -.798E-05 -.586E+01 0.843E+03   0.205E-04 0.550E+01 -.842E+03   0.267E-11 0.407E+00 -.828E+00   0.117E-03 -.410E-01 0.808E-02
   0.114E+01 -.655E+00 0.843E+03   -.124E+01 0.714E+00 -.843E+03   0.265E-01 -.153E-01 -.797E+00   0.545E-01 -.334E-01 -.130E-01
   -.114E+01 -.655E+00 0.843E+03   0.124E+01 0.714E+00 -.843E+03   -.265E-01 -.153E-01 -.797E+00   -.545E-01 -.315E-01 -.124E-01
   0.417E-04 0.362E+01 -.856E+03   -.130E-03 -.360E+01 0.855E+03   -.182E-12 -.278E-01 0.658E+00   -.628E-03 -.501E-03 0.108E+00
   0.770E+01 0.445E+01 -.825E+03   -.685E+01 -.395E+01 0.825E+03   -.913E+00 -.527E+00 -.717E+00   0.767E-01 0.443E-01 0.203E+00
   -.770E+01 0.445E+01 -.825E+03   0.685E+01 -.395E+01 0.825E+03   0.913E+00 -.527E+00 -.717E+00   -.766E-01 0.444E-01 0.202E+00
   0.194E+01 -.112E+01 -.845E+03   -.209E+01 0.121E+01 0.844E+03   0.160E+00 -.926E-01 0.576E+00   0.199E-01 -.114E-01 0.884E-01
   -.551E-04 -.890E+01 -.825E+03   0.432E-04 0.790E+01 0.825E+03   0.692E-11 0.105E+01 -.717E+00   0.509E-03 -.879E-01 0.202E+00
   -.194E+01 -.112E+01 -.845E+03   0.209E+01 0.121E+01 0.844E+03   -.160E+00 -.926E-01 0.576E+00   -.199E-01 -.114E-01 0.891E-01
   -.313E+01 -.181E+01 -.856E+03   0.312E+01 0.180E+01 0.855E+03   0.241E-01 0.139E-01 0.658E+00   0.111E-02 0.486E-03 0.108E+00
   0.313E+01 -.181E+01 -.856E+03   -.312E+01 0.180E+01 0.855E+03   -.241E-01 0.139E-01 0.658E+00   -.106E-02 -.417E-03 0.108E+00
   0.196E-04 0.224E+01 -.845E+03   0.110E-03 -.241E+01 0.844E+03   0.122E-11 0.185E+00 0.576E+00   -.557E-03 0.229E-01 0.885E-01
   0.542E-04 -.372E-04 -.251E+04   -.116E-03 0.779E-04 0.251E+04   0.114E-17 0.102E-17 0.201E+01   -.113E-02 -.788E-03 0.353E+00
   0.875E+01 0.152E+02 -.252E+04   -.855E+01 -.150E+02 0.252E+04   -.248E+00 -.268E+00 0.201E+01   0.395E-01 0.105E+00 0.287E+00
   -.875E+01 0.152E+02 -.252E+04   0.855E+01 -.150E+02 0.252E+04   0.248E+00 -.268E+00 0.201E+01   -.299E-01 0.107E+00 0.286E+00
   0.175E+02 -.780E-02 -.252E+04   -.173E+02 0.118E+00 0.252E+04   -.356E+00 -.810E-01 0.201E+01   0.111E+00 -.183E-01 0.287E+00
   -.175E+02 -.776E-02 -.252E+04   0.173E+02 0.118E+00 0.252E+04   0.356E+00 -.810E-01 0.201E+01   -.102E+00 -.174E-01 0.286E+00
   0.876E+01 -.152E+02 -.252E+04   -.875E+01 0.149E+02 0.252E+04   -.108E+00 0.349E+00 0.201E+01   0.780E-01 -.787E-01 0.286E+00
   -.876E+01 -.152E+02 -.252E+04   0.875E+01 0.149E+02 0.252E+04   0.108E+00 0.349E+00 0.201E+01   -.663E-01 -.793E-01 0.286E+00
   0.239E-04 -.118E-04 -.251E+04   0.106E-03 -.661E-04 0.251E+04   0.126E-17 0.132E-17 0.204E+01   -.775E-02 -.404E-02 0.292E+00
   -.231E-05 -.288E-04 -.216E+04   0.953E-04 0.113E-04 0.217E+04   0.556E-17 0.523E-18 -.541E+01   0.189E-02 0.119E-02 0.127E+00
   0.592E-05 -.459E-05 -.298E+03   0.519E-05 0.852E-07 0.301E+03   0.138E-20 0.669E-19 -.277E+01   0.719E-04 0.459E-04 -.576E-02
   0.353E-03 -.724E-03 0.107E+02   0.110E-12 0.195E-12 -.955E-11   -.160E-15 0.113E-15 -.122E+02   0.364E-01 0.243E-01 0.154E+01

 POSITION                                       TOTAL-FORCE (eV/Angst)
      0.00000      0.00000      5.28219         0.000000     -0.000000      0.024315
      2.93046      0.00000      5.28219         0.009800      0.020340      0.052449
      5.86091      0.00000      5.28219        -0.009800      0.020340      0.052449
      1.46523      2.53785      5.28219         0.022515     -0.001683      0.052449
      4.39568      2.53785      5.28219         0.000000     -0.000000      0.034346
      7.32614      2.53785      5.28219        -0.022515     -0.001683      0.052449
      2.93046      5.07570      5.28219         0.012715     -0.018657      0.052449
      5.86091      5.07570      5.28219        -0.012715     -0.018657      0.052449
      8.79137      5.07570      5.28219         0.000000     -0.000000      0.040051
      1.46523      0.84595      7.67490        -0.005748     -0.003319     -0.023084
      4.39568      0.84595      7.67490        -0.000000     -0.020708     -0.072990
      7.32614      0.84595      7.67490         0.005748     -0.003319     -0.023084
      2.93046      3.38380      7.67490        -0.017934      0.010354     -0.072990
      5.86091      3.38380      7.67490         0.017934      0.010354     -0.072990
      8.79137      3.38380      7.67490        -0.000000     -0.022773     -0.032311
      4.39568      5.92165      7.67490         0.000000      0.006637     -0.023084
      7.32614      5.92165      7.67490        -0.019722      0.011386     -0.032311
     10.25659      5.92165      7.67490         0.019722      0.011386     -0.032311
      8.79137      1.70009     10.06101        -0.000000     -0.006628      0.017634
      2.92042      1.68610     10.02751         0.022004      0.012704     -0.138984
      5.87095      1.68610     10.02751        -0.022004      0.012704     -0.138984
     10.25445      4.23098     10.04520         0.025800     -0.014896      0.009813
      4.39568      4.24134     10.02751        -0.000000     -0.025408     -0.138984
      7.32828      4.23098     10.04520        -0.025800     -0.014896      0.009813
     11.71473      6.76350     10.06101         0.005740      0.003314      0.017634
      5.86800      6.76350     10.06101        -0.005740      0.003314      0.017634
      8.79137      6.76512     10.04520         0.000000      0.029791      0.009813
      0.00000      0.00000     12.42233         0.000000     -0.000000     -0.014491
      2.94927      0.03214     12.43461        -0.013879     -0.039895     -0.008165
      5.84210      0.03214     12.43461         0.013879     -0.039895     -0.008165
      1.50247      2.53807     12.43461        -0.041490      0.007928     -0.008165
      7.28890      2.53807     12.43461         0.041490      0.007928     -0.008165
      2.94888      5.04334     12.43461        -0.027611      0.031967     -0.008165
      5.84248      5.04334     12.43461         0.027611      0.031967     -0.008165
      8.79137      5.07570     12.41249        -0.000000     -0.000000     -0.009435
      4.39568      2.53785     12.25656         0.000000     -0.000000      0.403506
      4.39568      2.53785     13.83753         0.000000     -0.000000     -0.024227
    total drift:                                0.036750      0.023538      0.054278

  FREE ENERGIE OF THE ION-ELECTRON SYSTEM (eV)
  free  energy   TOTEN  =       -98.67919944 eV

  energy  without entropy=      -98.67919944  energy(sigma->0) =      -98.67919944

 stress matrix after NEB project (eV)
     -8.04445     -0.00000      0.00000
     -0.00000     -8.04445      0.00000
      0.00000      0.00000     -0.09205
  FORCES: max atom, RMS     0.024227    0.003983
  FORCE total and by dimension    0.024227    0.024227
  Stress total and by dimension   11.376943    8.044450
|           W    W    AA    RRRRR   N    N  II  N    N   GGGG   !!!           |
|           W    W   A  A   R    R  NN   N  II  NN   N  G    G  !!!           |
|           W    W  A    A  R    R  N N  N  II  N N  N  G       !!!           |
|           W WW W  AAAAAA  RRRRR   N  N N  II  N  N N  G  GGG   !            |
|           WW  WW  A    A  R   R   N   NN  II  N   NN  G    G                |
|           W    W  A    A  R    R  N    N  II  N    N   GGGG   !!!           |
|     Tetrahedron method does not include variations of the Fermi             |
|     occupations, so forces and stress will be inaccurate. We suggest        |
|     using a different smearing scheme ISMEAR = 1 or 2 for metals in         |
|     relaxations.                                                            |

 total charge

# of ion       s       p       d       tot
    1        0.417   0.202   9.179   9.797
    2        0.418   0.203   9.177   9.798
    3        0.418   0.203   9.177   9.798
    4        0.418   0.203   9.177   9.798
    5        0.419   0.204   9.175   9.798
    6        0.418   0.203   9.177   9.798
    7        0.418   0.203   9.177   9.798
    8        0.418   0.203   9.177   9.798
    9        0.414   0.203   9.179   9.796
   10        0.406   0.270   9.165   9.840
   11        0.409   0.268   9.167   9.845
   12        0.406   0.270   9.165   9.840
   13        0.409   0.268   9.167   9.845
   14        0.409   0.268   9.167   9.845
   15        0.401   0.272   9.165   9.838
   16        0.406   0.270   9.165   9.840
   17        0.401   0.272   9.165   9.838
   18        0.401   0.272   9.165   9.838
   19        0.403   0.270   9.165   9.838
   20        0.420   0.284   9.157   9.861
   21        0.420   0.284   9.157   9.861
   22        0.400   0.273   9.167   9.840
   23        0.420   0.284   9.157   9.861
   24        0.400   0.273   9.167   9.840
   25        0.403   0.270   9.165   9.838
   26        0.403   0.270   9.165   9.838
   27        0.400   0.273   9.167   9.840
   28        0.415   0.197   9.182   9.795
   29        0.406   0.208   9.180   9.793
   30        0.406   0.208   9.180   9.793
   31        0.406   0.208   9.180   9.793
   32        0.406   0.208   9.180   9.793
   33        0.406   0.208   9.180   9.793
   34        0.406   0.208   9.180   9.793
   35        0.412   0.199   9.182   9.793
   36        0.678   0.453   8.136   9.268
   37        0.510   0.024   0.000   0.534
tot         15.525   8.855 329.136 353.517

 BZINTS: Fermi energy:    0.854711;  396.000000 electrons
         Band energy:-0.125875E+04;  BLOECHL correction:   -0.069472