 vasp.6.2.0 18Jan21 (build Jun 12 2021 23:27:24) complex

 executed on             LinuxIFC date 2022.05.26  20:28:40

 INCAR:
   ISMEAR = -5
   SIGMA = 0.1
   ISPIN = 1
   EDIFF = 1.d-5
   EDIFFG = -0.01
   NSW = 0
   NELM = 150
   ENCUT = 500
   ISIF = 2
   IBRION = 2
   LREAL = Auto
   ALGO = Fast
   ICHARG = 11
   LORBIT = 10
   LCHARG = .F.
   LWAVE = .F.

 POTCAR:    PAW_PBE Cu 22Jun2005
 POTCAR:    PAW_PBE Ta 17Jan2003
|           W    W    AA    RRRRR   N    N  II  N    N   GGGG   !!!           |
|           W    W   A  A   R    R  NN   N  II  NN   N  G    G  !!!           |
|           W    W  A    A  R    R  N N  N  II  N N  N  G       !!!           |
|           W WW W  AAAAAA  RRRRR   N  N N  II  N  N N  G  GGG   !            |
|           WW  WW  A    A  R   R   N   NN  II  N   NN  G    G                |
|           W    W  A    A  R    R  N    N  II  N    N   GGGG   !!!           |
|     For optimal performance we recommend to set                             |
|       NCORE = 2 up to number-of-cores-per-socket                            |
|     This setting can greatly improve the performance of VASP for DFT.       |
|     The default, NCORE=1 might be grossly inefficient on modern             |
|     multi-core architectures or massively parallel machines. Do your        |
|     Unfortunately you need to use the default for GW and RPA                |
|     calculations (for HF NCORE is supported but not extensively tested      |
|     yet).                                                                   |

 POTCAR:    PAW_PBE Cu 22Jun2005
   VRHFIN =Cu: d10 p1

   TITEL  = PAW_PBE Cu 22Jun2005
   POMASS =   63.546; ZVAL   =   11.000    mass and valenz
   ENMAX  =  295.446; ENMIN  =  221.585 eV

 POTCAR:    PAW_PBE Ta 17Jan2003
   VRHFIN =Ta:  6s5d

   TITEL  = PAW_PBE Ta 17Jan2003
   POMASS =  180.948; ZVAL   =    5.000    mass and valenz
   ENMAX  =  223.667; ENMIN  =  167.750 eV

 Optimization of the real space projectors (new method)

 maximal supplied QI-value         = 16.25
 optimisation between [QCUT,QGAM] = [ 11.38, 22.75] = [ 36.24,144.96] Ry
 Optimized for a Real-space Cutoff    1.52 Angstroem

   l    n(q)    QCUT    max X(q) W(low)/X(q) W(high)/X(q)  e(spline)
   2      9    11.376     4.610    0.21E-03    0.10E-03    0.26E-06
   2      9    11.376     8.522    0.33E-03    0.16E-03    0.37E-06
   0     10    11.376    51.609    0.62E-04    0.20E-04    0.13E-06
   0     10    11.376    27.747    0.54E-04    0.20E-04    0.13E-06
   1     10    11.376    20.408    0.13E-04    0.99E-04    0.19E-06
   1     10    11.376    13.425    0.12E-04    0.87E-04    0.17E-06
 Optimization of the real space projectors (new method)

 maximal supplied QI-value         = 12.85
 optimisation between [QCUT,QGAM] = [ 11.44, 22.87] = [ 36.63,146.51] Ry
 Optimized for a Real-space Cutoff    1.61 Angstroem

   l    n(q)    QCUT    max X(q) W(low)/X(q) W(high)/X(q)  e(spline)
   2     10    11.437    62.315    0.14E-03    0.26E-03    0.80E-06
   2     10    11.437    52.185    0.14E-03    0.26E-03    0.80E-06
   0     11    11.437   103.837    0.25E-04    0.17E-04    0.84E-07
   0     11    11.437    59.728    0.20E-04    0.15E-04    0.73E-07
   1     11    11.437    13.958    0.47E-03    0.12E-03    0.89E-06
   1     11    11.437     8.441    0.33E-03    0.88E-04    0.61E-06
  PAW_PBE Cu 22Jun2005                  :
  PAW_PBE Ta 17Jan2003                  :

 POSCAR: Cu-Ta
  positions in direct lattice
  velocities in cartesian coordinates
 exchange correlation table for  LEXCH =        8
   RHO(1)=    0.500       N(1)  =     2000
   RHO(2)=  100.500       N(2)  =     4000

 VTST: version 3.2, (02/03/18)

 CHAIN: initializing optimizer

 OPT: Using VASP Conjugate-Gradient optimizer
 CHAIN: Read ICHAIN            0

 POSCAR: Cu-Ta
  positions in direct lattice
  velocities in cartesian coordinates

 ion  position               nearest neighbor table
   1  0.000  0.000  0.252-   7 2.57   3 2.57   4 2.57   2 2.57   6 2.57   8 2.57  12 2.57  10 2.57
                            16 2.57
   2  0.333  0.000  0.252-   8 2.57   9 2.57   5 2.57   1 2.57   3 2.57  11 2.57   4 2.57  10 2.57
                            17 2.57
   3  0.667  0.000  0.252-   1 2.57   7 2.57   6 2.57   9 2.57   2 2.57  12 2.57   5 2.57  18 2.57
                            11 2.57
   4  0.000  0.333  0.252-   5 2.57   6 2.57   1 2.57   7 2.57   2 2.57  13 2.57   9 2.57  10 2.57
                            15 2.57
   5  0.333  0.333  0.252-   4 2.57   2 2.57   7 2.57  13 2.57   8 2.57   6 2.57   3 2.57  11 2.57
                            14 2.57
   6  0.667  0.333  0.252-   4 2.57   9 2.57  15 2.57   3 2.57   1 2.57   8 2.57  14 2.57   5 2.57
                            12 2.57
   7  0.000  0.667  0.252-   1 2.57   3 2.57  16 2.57  18 2.57   4 2.57   5 2.57   8 2.57   9 2.57
                            13 2.57
   8  0.333  0.667  0.252-   9 2.57   2 2.57  17 2.57   6 2.57   1 2.57   7 2.57   5 2.57  14 2.57
                            16 2.57
   9  0.667  0.667  0.252-   8 2.57   6 2.57   2 2.57  17 2.57   3 2.57   7 2.57   4 2.57  15 2.57
                            18 2.57
  10  0.111  0.111  0.351-  20 2.55  26 2.56  19 2.56  11 2.57  12 2.57  13 2.57   1 2.57   2 2.57
                             4 2.57  15 2.57  16 2.57  17 2.57
  11  0.444  0.111  0.351-  20 2.56  21 2.56  10 2.57  13 2.57   2 2.57  17 2.57  14 2.57  12 2.57
                             5 2.57   3 2.57  18 2.57  27 2.57
  12  0.778  0.111  0.351-  21 2.55  19 2.56  25 2.56  15 2.57  10 2.57  14 2.57  18 2.57   3 2.57
                             1 2.57  16 2.57  11 2.57   6 2.57
  13  0.111  0.444  0.351-  23 2.56  20 2.56  16 2.57  18 2.57  10 2.57  11 2.57  14 2.57   5 2.57
                             4 2.57   7 2.57  15 2.57  22 2.57
  14  0.444  0.444  0.351-  21 2.56  23 2.56  15 2.57  17 2.57  12 2.57  16 2.57  13 2.57  11 2.57
                             6 2.57   8 2.57   5 2.57  24 2.57
  15  0.778  0.444  0.351-  19 2.56  14 2.57  17 2.57  12 2.57   6 2.57  18 2.57  10 2.57   9 2.57
                            13 2.57   4 2.57  24 2.57  22 2.57
  16  0.111  0.778  0.351-  23 2.55  25 2.56  26 2.56  18 2.57  13 2.57   7 2.57  14 2.57  17 2.57
                            12 2.57  10 2.57   8 2.57   1 2.57
  17  0.444  0.778  0.351-  26 2.56  14 2.57  15 2.57   8 2.57   9 2.57  11 2.57  16 2.57  18 2.57
                            10 2.57   2 2.57  27 2.57  24 2.57
  18  0.778  0.778  0.351-  25 2.56  16 2.57  13 2.57   7 2.57  15 2.57  12 2.57  17 2.57   9 2.57
                             3 2.57  11 2.57  22 2.57  27 2.57
  19  0.889  0.222  0.449-  12 2.56  10 2.56  15 2.56  21 2.56  20 2.56  25 2.56  26 2.56  22 2.57
                            24 2.57  28 2.57  32 2.59  31 2.59
  20  0.222  0.222  0.449-  10 2.55  11 2.56  13 2.56  26 2.56  19 2.56  27 2.57  22 2.57  23 2.58
                            21 2.58  36 2.61  29 2.61  31 2.61
  21  0.557  0.222  0.449-  12 2.55  14 2.56  11 2.56  19 2.56  25 2.56  24 2.57  27 2.57  20 2.58
                            23 2.58  36 2.61  32 2.61  30 2.61
  22  0.888  0.556  0.450-  24 2.56  27 2.56  19 2.57  25 2.57  23 2.57  20 2.57  18 2.57  15 2.57
                            35 2.57  13 2.57  31 2.59  33 2.59
  23  0.222  0.557  0.449-  16 2.55  13 2.56  14 2.56  25 2.56  26 2.56  22 2.57  24 2.57  20 2.58
                            21 2.58  36 2.61  33 2.61  34 2.61
  24  0.556  0.556  0.450-  22 2.56  27 2.56  19 2.57  26 2.57  21 2.57  23 2.57  15 2.57  17 2.57
                            35 2.57  14 2.57  32 2.59  34 2.59
  25  0.889  0.889  0.449-  12 2.56  16 2.56  18 2.56  21 2.56  23 2.56  19 2.56  26 2.56  22 2.57
                            27 2.57  28 2.57  33 2.59  30 2.59
  26  0.222  0.889  0.449-  10 2.56  16 2.56  17 2.56  20 2.56  23 2.56  25 2.56  19 2.56  27 2.57
                            24 2.57  28 2.57  29 2.59  34 2.59
  27  0.556  0.888  0.450-  24 2.56  22 2.56  26 2.57  25 2.57  20 2.57  21 2.57  17 2.57  18 2.57
                            35 2.57  11 2.57  29 2.59  30 2.59
  28  0.000  0.000  0.548-  33 2.55  30 2.55  31 2.55  29 2.55  32 2.55  34 2.55  25 2.57  19 2.57
                            26 2.57
  29  0.333  0.997  0.549-  34 2.52  35 2.55  28 2.55  31 2.59  27 2.59  36 2.59  30 2.59  26 2.59
                            20 2.61
  30  0.670  0.997  0.549-  33 2.52  35 2.55  28 2.55  32 2.59  27 2.59  36 2.59  29 2.59  25 2.59
                            21 2.61
  31  0.997  0.333  0.549-  32 2.52  35 2.55  28 2.55  29 2.59  22 2.59  36 2.59  33 2.59  19 2.59
                            20 2.61
  32  0.670  0.333  0.549-  31 2.52  35 2.55  28 2.55  30 2.59  24 2.59  36 2.59  34 2.59  19 2.59
                            21 2.61
  33  0.997  0.670  0.549-  30 2.52  35 2.55  28 2.55  34 2.59  22 2.59  36 2.59  31 2.59  25 2.59
                            23 2.61
  34  0.333  0.670  0.549-  29 2.52  35 2.55  28 2.55  33 2.59  24 2.59  36 2.59  32 2.59  26 2.59
                            23 2.61
  35  0.667  0.667  0.549-  34 2.55  32 2.55  29 2.55  30 2.55  33 2.55  31 2.55  24 2.57  27 2.57
                            22 2.57
  36  0.333  0.333  0.549-  31 2.59  29 2.59  33 2.59  34 2.59  32 2.59  30 2.59  23 2.61  20 2.61
                            21 2.61

  LATTYP: Found a hexagonal cell.
 ALAT       =     7.6967864036
 C/A-ratio  =     2.7653617908

  Lattice vectors:

 A1 = (  -3.8483927580,  -6.6656128093,   0.0000000000)
 A2 = (   7.6967864037,   0.0000000000,   0.0000000000)
 A3 = (   0.0000000000,   0.0000000000,  21.2843990326)

Analysis of symmetry for initial positions (statically):
 Subroutine PRICEL returns:
 Original cell was already a primitive cell.

 Routine SETGRP: Setting up the symmetry group for a
 hexagonal supercell.

 Subroutine GETGRP returns: Found  6 space group operations
 (whereof  6 operations were pure point group operations)
 out of a pool of 24 trial point group operations.

The static configuration has the point symmetry C_3v.

Analysis of symmetry for dynamics (positions and initial velocities):
 Subroutine PRICEL returns:
 Original cell was already a primitive cell.

[...]

The dynamic configuration has the point symmetry C_3v.

Analysis of constrained symmetry for selective dynamics:
 Subroutine PRICEL returns:
 Original cell was already a primitive cell.

 Routine SETGRP: Setting up the symmetry group for a
 hexagonal supercell.

 Subroutine GETGRP returns: Found  6 space group operations
 (whereof  6 operations were pure point group operations)
 out of a pool of 24 trial point group operations.

The constrained configuration has the point symmetry C_3v.

 Subroutine INISYM returns: Found  6 space group operations
 (whereof  6 operations are pure point group operations),
 and found     1 'primitive' translations

                                     Primitive cell

  volume of cell :    1091.9705

  direct lattice vectors                    reciprocal lattice vectors
     7.696786404  0.000000000  0.000000000     0.129924354 -0.075011849  0.000000000
     3.848392758  6.665612809  0.000000000     0.000000000  0.150023716  0.000000000
[...]
     15      -4.5017      2.00000
     16      -4.4959      2.00000
     17      -4.4771      2.00000
     18      -4.4313      2.00000
     19      -4.3943      2.00000
     20      -4.3669      2.00000
     21      -4.3284      2.00000
     22      -4.3150      2.00000
     23      -4.2995      2.00000
     24      -4.2025      2.00000
     25      -4.1292      2.00000
     26      -4.1011      2.00000
     27      -4.0840      2.00000
     28      -4.0420      2.00000
     29      -4.0218      2.00000
     30      -4.0168      2.00000
     31      -4.0071      2.00000
     32      -3.9950      2.00000
     33      -3.9891      2.00000
     34      -3.9565      2.00000
     35      -3.8804      2.00000
     36      -3.8542      2.00000
     37      -3.7152      2.00000
     38      -3.7055      2.00000
     39      -3.6523      2.00000
     40      -3.6306      2.00000
     41      -3.6191      2.00000
     42      -3.6079      2.00000
     43      -3.5922      2.00000
     44      -3.5803      2.00000
     45      -3.5785      2.00000
     46      -3.4374      2.00000
     47      -3.4057      2.00000
     48      -3.3962      2.00000
     49      -3.3755      2.00000
     50      -3.3290      2.00000
     51      -3.3130      2.00000
     52      -3.3063      2.00000
     53      -3.2953      2.00000
     54      -3.2824      2.00000
     55      -3.2713      2.00000
     56      -3.2478      2.00000
     57      -3.2404      2.00000
     58      -3.2322      2.00000
     59      -3.2219      2.00000
     60      -3.2081      2.00000
[...]
    238       6.8869      0.00000
    239       6.9386      0.00000
    240       7.0108      0.00000
    241       7.0813      0.00000
    242       7.3249      0.00000
    243       7.3566      0.00000
    244       7.3989      0.00000
    245       7.4977      0.00000
    246       7.6609      0.00000
    247       7.7131      0.00000
    248       7.9012      0.00000
    249       8.0668      0.00000
    250       8.2063      0.00000
    251       8.3331      0.00000
    252       8.4768      0.00000

 soft charge-density along one line, spin component           1
         0         1         2         3         4         5         6         7         8         9
 total charge-density along one line

------------------------ aborting loop because EDIFF is reached ----------------------------------------

 total charge

# of ion       s       p       d       tot
    1        0.450   0.281   9.188   9.919
    2        0.446   0.286   9.185   9.917
    3        0.446   0.286   9.185   9.917
    4        0.446   0.286   9.185   9.917
    5        0.449   0.287   9.178   9.915
    6        0.446   0.286   9.185   9.917
    7        0.446   0.286   9.185   9.917
    8        0.446   0.286   9.185   9.917
    9        0.449   0.282   9.188   9.919
   10        0.443   0.372   9.173   9.988
   11        0.441   0.364   9.183   9.988
   12        0.443   0.372   9.173   9.988
   13        0.441   0.364   9.183   9.988
   14        0.441   0.364   9.183   9.988
   15        0.439   0.370   9.174   9.982
   16        0.443   0.372   9.173   9.988
   17        0.439   0.370   9.174   9.982
   18        0.439   0.370   9.174   9.982
   19        0.440   0.370   9.177   9.987
   20        0.468   0.402   9.151  10.021
   21        0.468   0.402   9.151  10.021
   22        0.430   0.371   9.180   9.980
   23        0.468   0.402   9.151  10.021
   24        0.430   0.371   9.180   9.980
   25        0.440   0.370   9.177   9.987
   26        0.440   0.370   9.177   9.987
   27        0.430   0.371   9.180   9.980
   28        0.444   0.295   9.179   9.918
   29        0.483   0.321   9.154   9.957
   30        0.483   0.321   9.154   9.957
   31        0.483   0.321   9.154   9.957
   32        0.483   0.321   9.154   9.957
   33        0.483   0.321   9.154   9.957
   34        0.483   0.321   9.154   9.957
   35        0.438   0.299   9.177   9.914
   36        0.751   0.565   3.099   4.415
tot         16.538  12.395 324.152 353.086

  FORCE on cell =-STRESS in cart. coord.  units (eV):
  Direction    XX          YY          ZZ          XY          YZ          ZX
  Alpha Z   870.68955   870.68955   870.68955
  Ewald  169594.30952169594.30919************     0.00034     0.00012     0.00014
  Hartree182341.35715182341.35718************     0.00001     0.00006     0.00005
  E(xc)   -2268.12750 -2268.12702 -2272.02330    -0.00042    -0.00003    -0.00005
  Local  ************************364812.28591     0.01845    -0.00057    -0.00086
  n-local  -765.33287  -750.30224  -771.66630     7.56220    -0.28963     0.40691
  augment  3309.99667  3310.01677  3334.52220    -0.01741     0.00029     0.00045
  Kinetic  3179.44796  3178.28714  3214.46125     0.74996     1.63900    -1.40189
  Fock        0.00000     0.00000     0.00000     0.00000     0.00000     0.00000
  Total     -11.44205   -11.44205    -5.31139     0.00000     0.00000    -0.00000
  in kB     -16.78818   -16.78818    -7.79306     0.00000     0.00000    -0.00000

 VOLUME and BASIS-vectors are now :
  energy-cutoff  :      500.00
  volume of cell :     1091.97
      direct lattice vectors                 reciprocal lattice vectors
     7.696786404  0.000000000  0.000000000     0.129924354 -0.075011849  0.000000000
     3.848392758  6.665612809  0.000000000     0.000000000  0.150023716  0.000000000
     0.000000000  0.000000000 21.284399033     0.000000000  0.000000000  0.046982769

  length of vectors
     7.696786404  7.696786404 21.284399033     0.150023716  0.150023716  0.046982769

 FORCES acting on ions
    electron-ion (+dipol)            ewald-force                    non-local-force                 convergence-correction
   -.415E-04 0.168E-06 0.343E+04   0.582E-04 -.424E-05 -.343E+04   -.250E-17 -.555E-17 -.235E+01   -.363E-03 -.175E-03 0.374E+00
   -.929E+00 -.665E+00 0.343E+04   0.885E+00 0.752E+00 -.343E+04   0.647E-01 0.141E+00 -.189E+01   -.749E-02 -.205E+00 0.434E+00
   0.929E+00 -.665E+00 0.343E+04   -.886E+00 0.752E+00 -.343E+04   -.647E-01 0.141E+00 -.189E+01   0.836E-02 -.203E+00 0.435E+00
   -.104E+01 -.472E+00 0.343E+04   0.109E+01 0.391E+00 -.343E+04   0.154E+00 -.145E-01 -.189E+01   -.182E+00 0.962E-01 0.434E+00
   -.615E-04 -.336E-05 0.342E+04   0.116E-03 -.101E-04 -.342E+04   -.452E-17 -.274E-17 -.113E+01   0.121E-01 0.742E-02 0.812E+00
   0.104E+01 -.472E+00 0.343E+04   -.109E+01 0.391E+00 -.343E+04   -.154E+00 -.145E-01 -.189E+01   0.180E+00 0.973E-01 0.435E+00
   -.112E+00 0.114E+01 0.343E+04   0.208E+00 -.114E+01 -.343E+04   0.897E-01 -.126E+00 -.189E+01   -.172E+00 0.109E+00 0.435E+00
   0.112E+00 0.114E+01 0.343E+04   -.208E+00 -.114E+01 -.343E+04   -.897E-01 -.126E+00 -.189E+01   0.175E+00 0.107E+00 0.435E+00
   -.143E-03 -.328E-04 0.343E+04   0.263E-03 0.204E-04 -.343E+04   0.292E-18 -.167E-17 -.208E+01   -.131E-01 -.679E-02 0.280E+00
   -.625E+01 -.361E+01 0.110E+04   0.660E+01 0.381E+01 -.110E+04   -.394E+00 -.227E+00 -.995E+00   0.230E-01 0.136E-01 -.318E+00
   -.911E-04 -.758E+01 0.108E+04   0.190E-03 0.728E+01 -.108E+04   -.139E-07 0.209E+00 0.225E-01   0.120E-01 0.368E-01 -.364E+00
   0.625E+01 -.361E+01 0.110E+04   -.660E+01 0.381E+01 -.110E+04   0.394E+00 -.227E+00 -.995E+00   -.247E-01 0.139E-01 -.318E+00
   -.656E+01 0.379E+01 0.108E+04   0.630E+01 -.364E+01 -.108E+04   0.181E+00 -.104E+00 0.225E-01   0.381E-01 -.709E-02 -.364E+00
   0.656E+01 0.379E+01 0.108E+04   -.630E+01 -.364E+01 -.108E+04   -.181E+00 -.104E+00 0.225E-01   -.150E-01 -.898E-02 -.367E+00
   -.140E-03 -.197E+01 0.109E+04   0.296E-03 0.175E+01 -.109E+04   -.840E-08 0.126E+00 -.986E+00   -.291E-02 0.968E-01 -.371E+00
   -.927E-04 0.721E+01 0.110E+04   0.187E-03 -.762E+01 -.110E+04   -.303E-07 0.455E+00 -.995E+00   -.126E-02 -.296E-01 -.318E+00
   -.170E+01 0.984E+00 0.109E+04   0.151E+01 -.873E+00 -.109E+04   0.109E+00 -.631E-01 -.986E+00   0.832E-01 -.514E-01 -.372E+00
   0.170E+01 0.984E+00 0.109E+04   -.151E+01 -.874E+00 -.109E+04   -.109E+00 -.631E-01 -.986E+00   -.812E-01 -.488E-01 -.369E+00
   -.671E-04 -.928E+01 -.122E+04   0.738E-04 0.940E+01 0.122E+04   0.700E-08 -.105E+00 0.976E+00   0.924E-03 -.306E-02 -.755E+00
   -.673E+02 -.389E+02 -.131E+04   0.687E+02 0.397E+02 0.131E+04   -.104E+01 -.598E+00 -.729E+00   -.375E+00 -.216E+00 -.123E+01
   0.673E+02 -.389E+02 -.131E+04   -.687E+02 0.397E+02 0.131E+04   0.104E+01 -.598E+00 -.729E+00   0.354E+00 -.220E+00 -.123E+01
   -.365E+02 0.210E+02 -.125E+04   0.362E+02 -.209E+02 0.125E+04   0.404E+00 -.233E+00 0.688E+00   -.180E+00 0.117E+00 -.876E+00
   -.865E-04 0.777E+02 -.131E+04   0.153E-03 -.793E+02 0.131E+04   -.796E-07 0.120E+01 -.729E+00   -.144E-01 0.416E+00 -.123E+01
   0.365E+02 0.210E+02 -.125E+04   -.362E+02 -.209E+02 0.125E+04   -.404E+00 -.233E+00 0.688E+00   0.204E+00 0.116E+00 -.875E+00
   0.804E+01 0.464E+01 -.122E+04   -.814E+01 -.470E+01 0.122E+04   0.910E-01 0.525E-01 0.976E+00   0.188E-02 0.142E-03 -.755E+00
   -.804E+01 0.464E+01 -.122E+04   0.814E+01 -.470E+01 0.122E+04   -.910E-01 0.525E-01 0.976E+00   -.250E-01 0.208E-02 -.755E+00
   -.119E-03 -.421E+02 -.125E+04   0.238E-03 0.419E+02 0.125E+04   -.311E-07 0.467E+00 0.688E+00   0.127E-01 -.215E+00 -.875E+00
   -.475E-04 0.114E-04 -.345E+04   0.497E-04 -.300E-04 0.345E+04   -.470E-17 -.326E-18 0.155E+01   -.169E-02 -.118E-02 -.497E+00
   -.645E+02 -.117E+03 -.347E+04   0.655E+02 0.118E+03 0.347E+04   -.727E+00 -.787E+00 0.199E+00   -.197E+00 -.415E+00 -.508E+00
   0.645E+02 -.117E+03 -.347E+04   -.655E+02 0.118E+03 0.347E+04   0.727E+00 -.787E+00 0.199E+00   0.220E+00 -.415E+00 -.510E+00
   -.134E+03 0.264E+01 -.347E+04   0.135E+03 -.243E+01 0.347E+04   -.104E+01 -.236E+00 0.199E+00   -.459E+00 0.369E-01 -.509E+00
   0.134E+03 0.264E+01 -.347E+04   -.135E+03 -.243E+01 0.347E+04   0.104E+01 -.236E+00 0.199E+00   0.481E+00 0.375E-01 -.508E+00
   -.691E+02 0.114E+03 -.347E+04   0.697E+02 -.116E+03 0.347E+04   -.318E+00 0.102E+01 0.199E+00   -.249E+00 0.398E+00 -.510E+00
   0.691E+02 0.114E+03 -.347E+04   -.697E+02 -.116E+03 0.347E+04   0.318E+00 0.102E+01 0.199E+00   0.273E+00 0.398E+00 -.508E+00
   -.138E-03 -.232E-04 -.346E+04   0.244E-03 -.103E-05 0.346E+04   -.162E-17 0.196E-17 0.231E+01   -.136E-01 -.739E-02 -.359E+00
   -.420E-04 -.715E-05 -.158E+04   0.604E-04 0.127E-04 0.157E+04   0.712E-18 0.131E-17 0.356E+01   -.461E-03 -.196E-03 -.182E+00
   -.254E-03 0.114E-04 0.231E+02   0.648E-13 0.350E-12 0.205E-11   -.909E-18 0.327E-17 -.113E+02   0.654E-01 0.461E-01 -.118E+02

 POSITION                                       TOTAL-FORCE (eV/Angst)
      0.00000      0.00000      5.37156        -0.000000      0.000000     -0.031450
      2.56560      0.00000      5.37156         0.013989      0.022969      0.042058
      5.13119      0.00000      5.37156        -0.013989      0.022969      0.042058
      1.28280      2.22187      5.37156         0.026886      0.000630      0.042058
      3.84839      2.22187      5.37156         0.000000      0.000000      0.042281
      6.41399      2.22187      5.37156        -0.026886      0.000630      0.042058
      2.56560      4.44374      5.37156         0.012897     -0.023599      0.042058
      5.13119      4.44374      5.37156        -0.012897     -0.023599      0.042058
      7.69679      4.44374      5.37156         0.000000      0.000000      0.019408
      1.28280      0.74062      7.46636        -0.021861     -0.012622     -0.086675
      3.84839      0.74062      7.46636         0.000000     -0.064790     -0.058256
      6.41399      0.74062      7.46636         0.021861     -0.012622     -0.086675
      2.56560      2.96249      7.46636        -0.056110      0.032395     -0.058256
      5.13119      2.96249      7.46636         0.056110      0.032395     -0.058256
      7.69679      2.96249      7.46636        -0.000000      0.002065     -0.002103
      3.84839      5.18437      7.46636        -0.000000      0.025243     -0.086675
      6.41399      5.18437      7.46636         0.001788     -0.001032     -0.002103
      8.97958      5.18437      7.46636        -0.001788     -0.001032     -0.002103
      7.69679      1.48082      9.55187         0.000000     -0.000260      0.014153
      2.55960      1.47778      9.55047         0.007907      0.004565      0.005648
      5.13719      1.47778      9.55047        -0.007907      0.004565      0.005648
      8.97653      3.70488      9.56926         0.003327     -0.001921      0.003055
      3.84839      3.71005      9.55047         0.000000     -0.009131      0.005648
      6.41705      3.70488      9.56926        -0.003327     -0.001921      0.003055
     10.26275      5.92520      9.55187         0.000225      0.000130      0.014153
      5.13082      5.92520      9.55187        -0.000225      0.000130      0.014153
      7.69679      5.92146      9.56926        -0.000000      0.003842      0.003055
      0.00000      0.00000     11.65662        -0.000000      0.000000      0.014780
      6.40243      6.64574     11.69071         0.004891      0.001088      0.009943
      8.99114      6.64574     11.69071        -0.004891      0.001088      0.009943
      8.95659      2.22180     11.69071         0.003388      0.003691      0.009943
      6.43698      2.22180     11.69071        -0.003388      0.003691      0.009943
     10.25095      4.46369     11.69071        -0.001503     -0.004780      0.009943
      5.14262      4.46369     11.69071         0.001503     -0.004780      0.009943
      7.69679      4.44374     11.67656         0.000000      0.000000      0.008984
      3.84839      2.22187     11.69355        -0.000000      0.000000      0.006524
    total drift:                                0.065183      0.046091     -0.005808

  FREE ENERGIE OF THE ION-ELECTRON SYSTEM (eV)
  free  energy   TOTEN  =      -132.38572467 eV

  energy  without entropy=     -132.38572467  energy(sigma->0) =     -132.38572467

 stress matrix after NEB project (eV)
    -11.44205      0.00000     -0.00000
      0.00000    -11.44205      0.00000
     -0.00000      0.00000     -5.31139
  FORCES: max atom, RMS     0.014780    0.007646
  FORCE total and by dimension    0.045878    0.014780
  Stress total and by dimension   17.030916   11.442054
|           W    W    AA    RRRRR   N    N  II  N    N   GGGG   !!!           |
|           W    W   A  A   R    R  NN   N  II  NN   N  G    G  !!!           |
|           W    W  A    A  R    R  N N  N  II  N N  N  G       !!!           |
|           W WW W  AAAAAA  RRRRR   N  N N  II  N  N N  G  GGG   !            |
|           WW  WW  A    A  R   R   N   NN  II  N   NN  G    G                |
|           W    W  A    A  R    R  N    N  II  N    N   GGGG   !!!           |
|     Tetrahedron method does not include variations of the Fermi             |
|     occupations, so forces and stress will be inaccurate. We suggest        |
|     using a different smearing scheme ISMEAR = 1 or 2 for metals in         |
|     relaxations.                                                            |

 total charge

# of ion       s       p       d       tot
    1        0.450   0.281   9.188   9.919
    2        0.446   0.286   9.185   9.917
    3        0.446   0.286   9.185   9.917
    4        0.446   0.286   9.185   9.917
    5        0.449   0.287   9.178   9.915
    6        0.446   0.286   9.185   9.917
    7        0.446   0.286   9.185   9.917
    8        0.446   0.286   9.185   9.917
    9        0.449   0.282   9.188   9.919
   10        0.443   0.372   9.173   9.988
   11        0.441   0.364   9.183   9.988
   12        0.443   0.372   9.173   9.988
   13        0.441   0.364   9.183   9.988
   14        0.441   0.364   9.183   9.988
   15        0.439   0.370   9.174   9.982
   16        0.443   0.372   9.173   9.988
   17        0.439   0.370   9.174   9.982
   18        0.439   0.370   9.174   9.982
   19        0.440   0.370   9.177   9.987
   20        0.468   0.402   9.151  10.021
   21        0.468   0.402   9.151  10.021
   22        0.430   0.371   9.180   9.980
   23        0.468   0.402   9.151  10.021
   24        0.430   0.371   9.180   9.980
   25        0.440   0.370   9.177   9.987
   26        0.440   0.370   9.177   9.987
   27        0.430   0.371   9.180   9.980
   28        0.444   0.295   9.179   9.918
   29        0.483   0.321   9.154   9.957
   30        0.483   0.321   9.154   9.957
   31        0.483   0.321   9.154   9.957
   32        0.483   0.321   9.154   9.957
   33        0.483   0.321   9.154   9.957
   34        0.483   0.321   9.154   9.957
   35        0.438   0.299   9.177   9.914
   36        0.751   0.565   3.099   4.415
tot         16.538  12.395 324.152 353.086

 BZINTS: Fermi energy:    0.147641;  390.000000 electrons
         Band energy:-0.107331E+04;  BLOECHL correction:   -0.022843