 vasp.6.2.0 18Jan21 (build Jun 12 2021 23:27:24) complex

 executed on             LinuxIFC date 2022.05.26  19:42:19

 INCAR:
   ISMEAR = -5
   SIGMA = 0.1
   ISPIN = 1
   EDIFF = 1.d-5
   EDIFFG = -0.01
   NSW = 0
   NELM = 150
   ENCUT = 500
   ISIF = 2
   IBRION = 2
   LREAL = Auto
   ALGO = Fast
   ICHARG = 11
   LORBIT = 10
   LCHARG = .F.
   LWAVE = .F.

 POTCAR:    PAW_PBE Ag 02Apr2005
 POTCAR:    PAW_PBE Co 02Aug2007
 POTCAR:    PAW_PBE N 08Apr2002
|           W    W    AA    RRRRR   N    N  II  N    N   GGGG   !!!           |
|           W    W   A  A   R    R  NN   N  II  NN   N  G    G  !!!           |
|           W    W  A    A  R    R  N N  N  II  N N  N  G       !!!           |
|           W WW W  AAAAAA  RRRRR   N  N N  II  N  N N  G  GGG   !            |
|           WW  WW  A    A  R   R   N   NN  II  N   NN  G    G                |
|           W    W  A    A  R    R  N    N  II  N    N   GGGG   !!!           |
|     For optimal performance we recommend to set                             |
|       NCORE = 2 up to number-of-cores-per-socket                            |
|     This setting can greatly improve the performance of VASP for DFT.       |
|     The default, NCORE=1 might be grossly inefficient on modern             |
|     multi-core architectures or massively parallel machines. Do your        |
|     Unfortunately you need to use the default for GW and RPA                |
|     calculations (for HF NCORE is supported but not extensively tested      |
|     yet).                                                                   |

 POTCAR:    PAW_PBE Ag 02Apr2005
   VRHFIN =Ag : s1 d10

   TITEL  = PAW_PBE Ag 02Apr2005
   POMASS =  107.868; ZVAL   =   11.000    mass and valenz
   ENMAX  =  249.844; ENMIN  =  187.383 eV

 POTCAR:    PAW_PBE Co 02Aug2007
   VRHFIN =Co: d8 s1

   TITEL  = PAW_PBE Co 02Aug2007
   POMASS =   58.933; ZVAL   =    9.000    mass and valenz
   ENMAX  =  267.968; ENMIN  =  200.976 eV

 POTCAR:    PAW_PBE N 08Apr2002
   VRHFIN =N: s2p3

   TITEL  = PAW_PBE N 08Apr2002
   POMASS =   14.001; ZVAL   =    5.000    mass and valenz
   ENMAX  =  400.000; ENMIN  =  300.000 eV

 Optimization of the real space projectors (new method)

 maximal supplied QI-value         = 15.12
 optimisation between [QCUT,QGAM] = [ 11.34, 22.83] = [ 36.00,145.93] Ry
 Optimized for a Real-space Cutoff    1.43 Angstroem

   l    n(q)    QCUT    max X(q) W(low)/X(q) W(high)/X(q)  e(spline)
   2      9    11.338    53.897    0.16E-03    0.20E-03    0.28E-06
   2      9    11.338    52.416    0.16E-03    0.20E-03    0.29E-06
   0     10    11.338   122.045    0.31E-04    0.76E-04    0.15E-06
   0     10    11.338    73.629    0.30E-04    0.72E-04    0.15E-06
   1      9    11.338    15.255    0.20E-03    0.19E-04    0.17E-06
   1      9    11.338     9.562    0.16E-03    0.15E-04    0.14E-06
 Optimization of the real space projectors (new method)

[...]

   l    n(q)    QCUT    max X(q) W(low)/X(q) W(high)/X(q)  e(spline)
   2      8    11.376    65.824    0.20E-03    0.32E-04    0.13E-06
   2      8    11.376    61.429    0.20E-03    0.33E-04    0.14E-06
   0      9    11.376    56.174    0.76E-04    0.11E-03    0.19E-06
   0      9    11.376    31.263    0.69E-04    0.99E-04    0.17E-06
   1      9    11.376    19.828    0.35E-03    0.11E-03    0.12E-06
   1      9    11.376    15.139    0.29E-03    0.94E-04    0.10E-06
 Optimization of the real space projectors (new method)

 maximal supplied QI-value         = 25.13
 optimisation between [QCUT,QGAM] = [ 11.31, 22.87] = [ 35.82,146.48] Ry
 Optimized for a Real-space Cutoff    1.27 Angstroem

   l    n(q)    QCUT    max X(q) W(low)/X(q) W(high)/X(q)  e(spline)
   0      9    11.310    79.467    0.75E-04    0.16E-03    0.36E-06
   0      9    11.310    66.151    0.74E-04    0.16E-03    0.36E-06
   1      8    11.310    17.416    0.35E-03    0.12E-03    0.95E-06
   1      8    11.310    12.382    0.37E-03    0.13E-03    0.98E-06
  PAW_PBE Ag 02Apr2005                  :
  PAW_PBE Co 02Aug2007                  :
  PAW_PBE N 08Apr2002                   :

 POSCAR: Ag-Co-N
  positions in direct lattice
  velocities in cartesian coordinates
 exchange correlation table for  LEXCH =        8
   RHO(1)=    0.500       N(1)  =     2000
   RHO(2)=  100.500       N(2)  =     4000

 VTST: version 3.2, (02/03/18)

 CHAIN: initializing optimizer

 OPT: Using VASP Conjugate-Gradient optimizer
 CHAIN: Read ICHAIN            0

 POSCAR: Ag-Co-N
  positions in direct lattice
  velocities in cartesian coordinates

 ion  position               nearest neighbor table
   1  0.000  0.000  0.238-   2 2.93   8 2.93   7 2.93   6 2.93   4 2.93  12 2.93  16 2.93  10 2.93
                             3 2.93
   2  0.333  0.000  0.238-   1 2.93   8 2.93   9 2.93   3 2.93   4 2.93   5 2.93  10 2.93  17 2.93
                            11 2.93
   3  0.667  0.000  0.238-   9 2.93   2 2.93   5 2.93  11 2.93   7 2.93  18 2.93   1 2.93   6 2.93
                            12 2.93
   4  0.000  0.333  0.238-   5 2.93   6 2.93   2 2.93   1 2.93   7 2.93  13 2.93  15 2.93   9 2.93
                            10 2.93
   5  0.333  0.333  0.238-   4 2.93   3 2.93   7 2.93   2 2.93   8 2.93  14 2.93  13 2.93  11 2.93
                             6 2.93
   6  0.667  0.333  0.238-   4 2.93   9 2.93   1 2.93  15 2.93   8 2.93  12 2.93   3 2.93   5 2.93
                            14 2.93
   7  0.000  0.667  0.238-   8 2.93   1 2.93   5 2.93   3 2.93   4 2.93  16 2.93  18 2.93  13 2.93
                             9 2.93
   8  0.333  0.667  0.238-   7 2.93   1 2.93   2 2.93   9 2.93   5 2.93  16 2.93   6 2.93  17 2.93
                            14 2.93
   9  0.667  0.667  0.238-   3 2.93   2 2.93   8 2.93   6 2.93  17 2.93   4 2.93  15 2.93   7 2.93
                            18 2.93
  10  0.111  0.111  0.346-  20 2.92  19 2.93  26 2.93  12 2.93  16 2.93  15 2.93  17 2.93  13 2.93
                            11 2.93   2 2.93   1 2.93   4 2.93
  11  0.444  0.111  0.346-  21 2.90  20 2.90  27 2.92  14 2.93  17 2.93  18 2.93   3 2.93  12 2.93
                            13 2.93  10 2.93   5 2.93   2 2.93
  12  0.778  0.111  0.346-  21 2.92  25 2.93  19 2.93  10 2.93  16 2.93  18 2.93  15 2.93  11 2.93
                             1 2.93  14 2.93   6 2.93   3 2.93
  13  0.111  0.444  0.346-  20 2.90  23 2.90  22 2.92  15 2.93  14 2.93  18 2.93  10 2.93  11 2.93
                            16 2.93   4 2.93   5 2.93   7 2.93
  14  0.444  0.444  0.346-  23 2.90  21 2.90  24 2.92  13 2.93  11 2.93  16 2.93   5 2.93  12 2.93
                            17 2.93   8 2.93  15 2.93   6 2.93
  15  0.778  0.444  0.346-  24 2.91  22 2.91  19 2.92  13 2.93  10 2.93  12 2.93  17 2.93  18 2.93
                             4 2.93   6 2.93   9 2.93  14 2.93
  16  0.111  0.778  0.346-  23 2.92  26 2.93  25 2.93  18 2.93  12 2.93  10 2.93  14 2.93  17 2.93
                            13 2.93   7 2.93   8 2.93   1 2.93
  17  0.444  0.778  0.346-  27 2.91  24 2.91  26 2.92  11 2.93  10 2.93   9 2.93  18 2.93  15 2.93
                            16 2.93   2 2.93  14 2.93   8 2.93
  18  0.778  0.778  0.346-  22 2.91  27 2.91  25 2.92  16 2.93  12 2.93  13 2.93  11 2.93  17 2.93
                            15 2.93   7 2.93   3 2.93   9 2.93
  19  0.889  0.222  0.454-  28 2.91  15 2.92  10 2.93  12 2.93  24 2.93  22 2.93  26 2.93  25 2.93
                            32 2.94  31 2.94  20 2.94  21 2.94
  20  0.223  0.223  0.453-  36 2.69  31 2.89  29 2.89  13 2.90  11 2.90  21 2.91  23 2.91  10 2.92
                            27 2.93  22 2.93  19 2.94  26 2.94
  21  0.554  0.223  0.453-  36 2.69  30 2.89  32 2.89  11 2.90  14 2.90  20 2.91  23 2.91  12 2.92
                            27 2.93  24 2.93  25 2.94  19 2.94
  22  0.888  0.556  0.453-  35 2.91  33 2.91  31 2.91  18 2.91  15 2.91  13 2.92  24 2.92  27 2.92
                            25 2.93  19 2.93  23 2.93  20 2.93
  23  0.223  0.554  0.453-  36 2.69  34 2.89  33 2.89  14 2.90  13 2.90  21 2.91  20 2.91  16 2.92
                            22 2.93  24 2.93  26 2.94  25 2.94
  24  0.556  0.556  0.453-  35 2.91  32 2.91  34 2.91  15 2.91  17 2.91  14 2.92  27 2.92  22 2.92
                            19 2.93  26 2.93  23 2.93  21 2.93
  25  0.889  0.889  0.454-  28 2.91  18 2.92  16 2.93  12 2.93  22 2.93  27 2.93  26 2.93  19 2.93
                            33 2.94  30 2.94  23 2.94  21 2.94
  26  0.222  0.889  0.454-  28 2.91  17 2.92  16 2.93  10 2.93  27 2.93  24 2.93  25 2.93  19 2.93
                            34 2.94  29 2.94  23 2.94  20 2.94
  27  0.556  0.888  0.453-  35 2.91  29 2.91  30 2.91  17 2.91  18 2.91  11 2.92  24 2.92  22 2.92
                            26 2.93  25 2.93  20 2.93  21 2.93
  28  0.000  0.000  0.560-  26 2.91  25 2.91  19 2.91  29 2.97  34 2.97  33 2.97  32 2.97  31 2.97
                            30 2.97
  29  0.333  0.008  0.560-  31 2.86  30 2.86  36 2.87  20 2.89  27 2.91  26 2.94  28 2.97  35 2.97
                            34 3.07
  30  0.659  0.008  0.560-  32 2.86  29 2.86  36 2.87  21 2.89  27 2.91  25 2.94  28 2.97  35 2.97
                            33 3.07
  31  0.008  0.333  0.560-  29 2.86  33 2.86  36 2.87  20 2.89  22 2.91  19 2.94  28 2.97  35 2.97
                            32 3.07
  32  0.659  0.333  0.560-  30 2.86  34 2.86  36 2.87  21 2.89  24 2.91  19 2.94  28 2.97  35 2.97
                            31 3.07
  33  0.008  0.659  0.560-  34 2.86  31 2.86  36 2.87  23 2.89  22 2.91  25 2.94  28 2.97  35 2.97
                            30 3.07
  34  0.333  0.659  0.560-  33 2.86  32 2.86  36 2.87  23 2.89  24 2.91  26 2.94  28 2.97  35 2.97
                            29 3.07
  35  0.667  0.667  0.560-  24 2.91  27 2.91  22 2.91  32 2.97  30 2.97  29 2.97  34 2.97  31 2.97
                            33 2.97
  36  0.333  0.333  0.547-  37 1.57  21 2.69  20 2.69  23 2.69  31 2.87  30 2.87  33 2.87  29 2.87
                            34 2.87  32 2.87
  37  0.333  0.333  0.618-  36 1.57

  LATTYP: Found a hexagonal cell.
 ALAT       =     8.7913665772
 C/A-ratio  =     2.5227160501

  Lattice vectors:

 A1 = (  -4.3956832886,  -7.6135467898,   0.0000000000)
 A2 = (   8.7913665771,   0.0000000000,   0.0000000000)
 A3 = (   0.0000000000,   0.0000000000,  22.1781215668)

Analysis of symmetry for initial positions (statically):
 Subroutine PRICEL returns:
 Original cell was already a primitive cell.

 Routine SETGRP: Setting up the symmetry group for a
 hexagonal supercell.

 Subroutine GETGRP returns: Found  6 space group operations
 (whereof  6 operations were pure point group operations)
 out of a pool of 24 trial point group operations.

The static configuration has the point symmetry C_3v.

Analysis of symmetry for dynamics (positions and initial velocities):
 Subroutine PRICEL returns:
 Original cell was already a primitive cell.

[...]

The dynamic configuration has the point symmetry C_3v.

Analysis of constrained symmetry for selective dynamics:
 Subroutine PRICEL returns:
 Original cell was already a primitive cell.

 Routine SETGRP: Setting up the symmetry group for a
 hexagonal supercell.

 Subroutine GETGRP returns: Found  6 space group operations
[...]
     24      -4.6686      2.00000
     25      -4.6597      2.00000
     26      -4.6319      2.00000
     27      -4.6090      2.00000
     28      -4.5999      2.00000
     29      -4.5922      2.00000
     30      -4.5745      2.00000
     31      -4.5638      2.00000
     32      -4.5582      2.00000
     33      -4.5268      2.00000
     34      -4.4800      2.00000
     35      -4.4557      2.00000
     36      -4.4302      2.00000
     37      -4.4126      2.00000
     38      -4.3976      2.00000
     39      -4.3694      2.00000
     40      -4.3608      2.00000
     41      -4.3526      2.00000
     42      -4.3330      2.00000
     43      -4.3132      2.00000
     44      -4.2639      2.00000
     45      -4.2258      2.00000
     46      -4.2160      2.00000
     47      -4.2086      2.00000
     48      -4.1966      2.00000
     49      -4.1921      2.00000
     50      -4.1764      2.00000
     51      -4.1701      2.00000
     52      -4.1599      2.00000
     53      -4.1490      2.00000
     54      -4.0889      2.00000
     55      -4.0766      2.00000
     56      -4.0669      2.00000
     57      -4.0616      2.00000
     58      -4.0489      2.00000
     59      -4.0290      2.00000
     60      -4.0085      2.00000
[...]
    238       6.2677      0.00000
    239       6.3353      0.00000
    240       6.3869      0.00000
    241       7.0330      0.00000
    242       7.1816      0.00000
    243       7.2265      0.00000
    244       7.2785      0.00000
    245       7.3393      0.00000
    246       7.3663      0.00000
    247       7.4105      0.00000
    248       7.5161      0.00000
    249       7.5997      0.00000
    250       7.6308      0.00000
    251       7.6502      0.00000
    252       7.7388      0.00000

 soft charge-density along one line, spin component           1
         0         1         2         3         4         5         6         7         8         9
 total charge-density along one line

------------------------ aborting loop because EDIFF is reached ----------------------------------------

 total charge

# of ion       s       p       d       tot
    1        0.417   0.202   9.178   9.796
    2        0.416   0.203   9.177   9.796
    3        0.416   0.203   9.177   9.796
    4        0.416   0.203   9.177   9.796
    5        0.417   0.204   9.176   9.797
    6        0.416   0.203   9.177   9.796
    7        0.416   0.203   9.177   9.796
    8        0.416   0.203   9.177   9.796
    9        0.414   0.203   9.177   9.794
   10        0.407   0.268   9.164   9.839
   11        0.403   0.273   9.165   9.841
   12        0.407   0.268   9.164   9.839
   13        0.403   0.273   9.165   9.841
   14        0.403   0.273   9.165   9.841
   15        0.404   0.269   9.166   9.838
   16        0.407   0.268   9.164   9.839
   17        0.404   0.269   9.166   9.838
   18        0.404   0.269   9.166   9.838
   19        0.403   0.268   9.164   9.835
   20        0.424   0.292   9.152   9.869
   21        0.424   0.292   9.152   9.869
   22        0.399   0.273   9.167   9.839
   23        0.424   0.292   9.152   9.869
   24        0.399   0.273   9.167   9.839
   25        0.403   0.268   9.164   9.835
   26        0.403   0.268   9.164   9.835
   27        0.399   0.273   9.167   9.839
   28        0.415   0.192   9.183   9.790
   29        0.398   0.207   9.183   9.787
   30        0.398   0.207   9.183   9.787
   31        0.398   0.207   9.183   9.787
   32        0.398   0.207   9.183   9.787
   33        0.398   0.207   9.183   9.787
   34        0.398   0.207   9.183   9.787
   35        0.413   0.193   9.182   9.788
   36        0.506   0.553   7.462   8.521
   37        1.357   2.144   0.000   3.501
tot         16.141  11.077 328.446 355.665

  FORCE on cell =-STRESS in cart. coord.  units (eV):
  Direction    XX          YY          ZZ          XY          YZ          ZX
  Alpha Z   745.87733   745.87733   745.87733
  Ewald  122202.48074122202.48082************     0.00004     0.00000     0.00003
  Hartree132522.01183132522.01187************     0.00002    -0.00000     0.00002
  E(xc)   -2095.80948 -2095.80945 -2100.80711    -0.00003     0.00000     0.00000
  Local  ************************265981.87248     0.00045    -0.00005    -0.00015
  n-local  -345.04561  -327.72788  -336.92484    10.59908    -0.35770     0.45510
  augment  3381.57917  3381.57938  3372.41378    -0.00018     0.00001     0.00006
  Kinetic  4939.77486  4939.85565  4950.16873     2.61122     1.33151    -0.51830
  Fock        0.00000     0.00000     0.00000     0.00000     0.00000     0.00000
  Total      -8.95641    -8.95641    -0.21588    -0.00000     0.00000    -0.00000
  in kB      -9.66666    -9.66666    -0.23300    -0.00000     0.00000    -0.00000

 VOLUME and BASIS-vectors are now :
  energy-cutoff  :      500.00
  volume of cell :     1484.46
      direct lattice vectors                 reciprocal lattice vectors
     8.791366577  0.000000000  0.000000000     0.113747958 -0.065672414  0.000000000
     4.395683289  7.613546790  0.000000000     0.000000000  0.131344829  0.000000000
     0.000000000  0.000000000 22.178121567     0.000000000  0.000000000  0.045089481

  length of vectors
     8.791366577  8.791366577 22.178121567     0.131344829  0.131344829  0.045089481

 FORCES acting on ions
    electron-ion (+dipol)            ewald-force                    non-local-force                 convergence-correction
   0.458E-04 -.283E-04 0.252E+04   -.954E-04 0.593E-04 -.252E+04   -.379E-17 0.634E-18 -.188E+01   -.201E-03 -.223E-03 0.105E-01
   0.629E+00 0.788E+00 0.252E+04   -.646E+00 -.661E+00 -.252E+04   0.431E-01 0.156E-01 -.161E+01   -.245E-01 -.132E+00 0.530E-01
   -.629E+00 0.788E+00 0.252E+04   0.646E+00 -.661E+00 -.252E+04   -.431E-01 0.156E-01 -.161E+01   0.240E-01 -.131E+00 0.539E-01
   0.997E+00 0.150E+00 0.252E+04   -.896E+00 -.229E+00 -.252E+04   0.350E-01 0.295E-01 -.161E+01   -.127E+00 0.452E-01 0.530E-01
   -.584E-05 -.188E-04 0.252E+04   0.981E-04 -.199E-05 -.252E+04   0.110E-17 0.112E-17 -.167E+01   0.626E-02 0.382E-02 0.653E-01
   -.997E+00 0.150E+00 0.252E+04   0.895E+00 -.229E+00 -.252E+04   -.350E-01 0.295E-01 -.161E+01   0.125E+00 0.460E-01 0.539E-01
   0.369E+00 -.939E+00 0.252E+04   -.250E+00 0.890E+00 -.252E+04   -.805E-02 -.451E-01 -.161E+01   -.101E+00 0.866E-01 0.539E-01
   -.368E+00 -.939E+00 0.252E+04   0.249E+00 0.890E+00 -.252E+04   0.805E-02 -.451E-01 -.161E+01   0.102E+00 0.855E-01 0.539E-01
   0.362E-04 -.132E-04 0.252E+04   0.792E-04 -.643E-04 -.252E+04   0.491E-17 -.105E-17 -.165E+01   -.659E-02 -.339E-02 0.407E-01
   0.573E+01 0.331E+01 0.861E+03   -.551E+01 -.318E+01 -.860E+03   -.174E+00 -.101E+00 -.690E+00   -.553E-01 -.319E-01 0.204E-01
   -.295E-04 0.732E+01 0.872E+03   0.419E-04 -.728E+01 -.871E+03   0.683E-12 0.104E+00 -.392E+00   0.686E-02 -.166E+00 0.409E-01
   -.573E+01 0.331E+01 0.861E+03   0.551E+01 -.318E+01 -.860E+03   0.174E+00 -.101E+00 -.690E+00   0.532E-01 -.311E-01 0.213E-01
   0.634E+01 -.366E+01 0.872E+03   -.631E+01 0.364E+01 -.871E+03   0.901E-01 -.520E-01 -.392E+00   -.140E+00 0.889E-01 0.409E-01
   -.634E+01 -.366E+01 0.872E+03   0.631E+01 0.364E+01 -.871E+03   -.901E-01 -.520E-01 -.392E+00   0.151E+00 0.873E-01 0.396E-01
   0.164E-04 0.143E+01 0.862E+03   -.109E-03 -.142E+01 -.861E+03   -.118E-12 -.179E-01 -.538E+00   -.175E-02 0.277E-04 0.499E-01
   -.796E-05 -.662E+01 0.861E+03   0.208E-04 0.637E+01 -.860E+03   0.132E-11 0.201E+00 -.690E+00   -.348E-03 0.615E-01 0.213E-01
   0.124E+01 -.713E+00 0.862E+03   -.123E+01 0.710E+00 -.861E+03   -.155E-01 0.897E-02 -.538E+00   -.881E-03 -.154E-02 0.499E-01
   -.124E+01 -.713E+00 0.862E+03   0.123E+01 0.710E+00 -.861E+03   0.155E-01 0.897E-02 -.538E+00   0.152E-02 0.849E-03 0.521E-01
   0.419E-04 0.310E+01 -.833E+03   -.129E-03 -.309E+01 0.832E+03   0.394E-13 0.600E-02 0.456E+00   -.659E-02 -.128E-01 0.818E-01
   0.364E+02 0.210E+02 -.778E+03   -.353E+02 -.204E+02 0.779E+03   -.909E+00 -.525E+00 -.372E+00   -.193E+00 -.112E+00 0.240E-03
   -.364E+02 0.210E+02 -.778E+03   0.353E+02 -.204E+02 0.779E+03   0.909E+00 -.525E+00 -.372E+00   0.195E+00 -.113E+00 0.853E-04
   0.141E+02 -.813E+01 -.818E+03   -.142E+02 0.821E+01 0.818E+03   0.218E+00 -.126E+00 0.674E+00   -.652E-01 0.466E-01 0.225E-01
   -.612E-04 -.420E+02 -.778E+03   0.470E-04 0.408E+02 0.779E+03   0.689E-11 0.105E+01 -.372E+00   -.614E-03 0.226E+00 0.118E-03
   -.141E+02 -.813E+01 -.818E+03   0.142E+02 0.821E+01 0.818E+03   -.218E+00 -.126E+00 0.674E+00   0.762E-01 0.441E-01 0.227E-01
   -.269E+01 -.155E+01 -.833E+03   0.268E+01 0.155E+01 0.832E+03   -.520E-02 -.300E-02 0.456E+00   0.233E-02 0.119E-02 0.814E-01
   0.269E+01 -.155E+01 -.833E+03   -.268E+01 0.155E+01 0.832E+03   0.520E-02 -.300E-02 0.456E+00   -.147E-01 0.569E-03 0.818E-01
   0.213E-04 0.163E+02 -.818E+03   0.109E-03 -.164E+02 0.818E+03   0.166E-11 0.252E+00 0.674E+00   0.711E-02 -.798E-01 0.226E-01
   0.545E-04 -.373E-04 -.250E+04   -.115E-03 0.779E-04 0.250E+04   -.206E-18 0.998E-18 0.199E+01   -.460E-03 -.402E-03 -.132E-01
   0.365E+02 0.634E+02 -.249E+04   -.364E+02 -.632E+02 0.249E+04   -.106E+00 -.153E+00 0.226E+01   -.127E+00 -.216E+00 -.328E-01
   -.365E+02 0.634E+02 -.249E+04   0.364E+02 -.632E+02 0.249E+04   0.106E+00 -.153E+00 0.226E+01   0.127E+00 -.214E+00 -.343E-01
   0.732E+02 -.579E-01 -.249E+04   -.729E+02 0.775E-01 0.249E+04   -.186E+00 -.151E-01 0.226E+01   -.250E+00 -.231E-02 -.327E-01
   -.732E+02 -.578E-01 -.249E+04   0.729E+02 0.774E-01 0.249E+04   0.186E+00 -.151E-01 0.226E+01   0.249E+00 -.221E-02 -.332E-01
   0.366E+02 -.633E+02 -.249E+04   -.365E+02 0.631E+02 0.249E+04   -.799E-01 0.169E+00 0.226E+01   -.122E+00 0.218E+00 -.343E-01
   -.366E+02 -.633E+02 -.249E+04   0.365E+02 0.631E+02 0.249E+04   0.799E-01 0.169E+00 0.226E+01   0.122E+00 0.217E+00 -.333E-01
   0.219E-04 -.128E-04 -.250E+04   0.106E-03 -.661E-04 0.250E+04   -.381E-17 -.143E-17 0.194E+01   -.609E-02 -.309E-02 -.313E-02
   -.248E-04 -.179E-04 -.172E+04   0.866E-04 0.126E-04 0.172E+04   -.697E-17 -.769E-17 0.152E+01   0.641E-02 0.392E-02 -.126E+00
   0.105E-03 -.556E-04 -.147E+04   0.287E-04 0.540E-06 0.149E+04   0.711E-18 0.755E-18 -.194E+02   0.190E-02 0.116E-02 0.317E-01
   0.465E-03 -.756E-03 0.171E+02   0.116E-12 0.161E-12 0.227E-11   0.316E-16 0.194E-16 -.179E+02   0.143E-01 0.117E-01 0.776E+00

 POSITION                                       TOTAL-FORCE (eV/Angst)
      0.00000      0.00000      5.28219         0.000000     -0.000000      0.003672
      2.93046      0.00000      5.28219         0.001962      0.011687      0.030822
      5.86091      0.00000      5.28219        -0.001962      0.011687      0.030822
      1.46523      2.53785      5.28219         0.011102     -0.004144      0.030822
      4.39568      2.53785      5.28219        -0.000000     -0.000000      0.023609
      7.32614      2.53785      5.28219        -0.011102     -0.004144      0.030822
      2.93046      5.07570      5.28219         0.009140     -0.007543      0.030822
      5.86091      5.07570      5.28219        -0.009140     -0.007543      0.030822
      8.79137      5.07570      5.28219        -0.000000     -0.000000      0.024972
      1.46523      0.84595      7.67490        -0.009071     -0.005237      0.011719
      4.39568      0.84595      7.67490        -0.000000     -0.024835     -0.039681
      7.32614      0.84595      7.67490         0.009071     -0.005237      0.011719
      2.93046      3.38380      7.67490        -0.021507      0.012417     -0.039681
      5.86091      3.38380      7.67490         0.021507      0.012417     -0.039681
      8.79137      3.38380      7.67490        -0.000000     -0.011747     -0.008202
      4.39568      5.92165      7.67490         0.000000      0.010475      0.011719
      7.32614      5.92165      7.67490        -0.010173      0.005873     -0.008202
     10.25659      5.92165      7.67490         0.010173      0.005873     -0.008202
      8.79137      1.69398     10.06180         0.000000      0.009410      0.009923
      2.94231      1.69874     10.03918        -0.048551     -0.028031     -0.141269
      5.84906      1.69874     10.03918         0.048551     -0.028031     -0.141269
     10.25255      4.23208     10.04993         0.003166     -0.001828     -0.009768
      4.39568      4.21606     10.03918         0.000000      0.056062     -0.141269
      7.33018      4.23208     10.04993        -0.003166     -0.001828     -0.009768
     11.72002      6.76656     10.06180        -0.008149     -0.004705      0.009923
      5.86271      6.76656     10.06180         0.008149     -0.004705      0.009923
      8.79137      6.76293     10.04993         0.000000      0.003656     -0.009768
      0.00000      0.00000     12.42562         0.000000     -0.000000     -0.018659
      2.96563      0.06260     12.41952        -0.071519     -0.127436     -0.024926
      5.82574      0.06260     12.41952         0.071519     -0.127436     -0.024926
      1.53702      2.53701     12.41952        -0.146122      0.001781     -0.024926
      7.25434      2.53701     12.41952         0.146122      0.001781     -0.024926
      2.96708      5.01394     12.41952        -0.074604      0.125655     -0.024926
      5.82429      5.01394     12.41952         0.074604      0.125655     -0.024926
      8.79137      5.07570     12.42127         0.000000     -0.000000     -0.007781
      4.39568      2.53785     12.13550         0.000000     -0.000000      0.440025
      4.39568      2.53785     13.70700         0.000000     -0.000000      0.030619
    total drift:                                0.014760      0.010923      0.035511

  FREE ENERGIE OF THE ION-ELECTRON SYSTEM (eV)
  free  energy   TOTEN  =      -101.53952552 eV

  energy  without entropy=     -101.53952552  energy(sigma->0) =     -101.53952552

 stress matrix after NEB project (eV)
     -8.95641     -0.00000     -0.00000
     -0.00000     -8.95641      0.00000
     -0.00000      0.00000     -0.21588
  FORCES: max atom, RMS     0.030619    0.005034
  FORCE total and by dimension    0.030619    0.030619
  Stress total and by dimension   12.668120    8.956413
|           W    W    AA    RRRRR   N    N  II  N    N   GGGG   !!!           |
|           W    W   A  A   R    R  NN   N  II  NN   N  G    G  !!!           |
|           W    W  A    A  R    R  N N  N  II  N N  N  G       !!!           |
|           W WW W  AAAAAA  RRRRR   N  N N  II  N  N N  G  GGG   !            |
|           WW  WW  A    A  R   R   N   NN  II  N   NN  G    G                |
|           W    W  A    A  R    R  N    N  II  N    N   GGGG   !!!           |
|     Tetrahedron method does not include variations of the Fermi             |
|     occupations, so forces and stress will be inaccurate. We suggest        |
|     using a different smearing scheme ISMEAR = 1 or 2 for metals in         |
|     relaxations.                                                            |

 total charge

# of ion       s       p       d       tot
    1        0.417   0.202   9.178   9.796
    2        0.416   0.203   9.177   9.796
    3        0.416   0.203   9.177   9.796
    4        0.416   0.203   9.177   9.796
    5        0.417   0.204   9.176   9.797
    6        0.416   0.203   9.177   9.796
    7        0.416   0.203   9.177   9.796
    8        0.416   0.203   9.177   9.796
    9        0.414   0.203   9.177   9.794
   10        0.407   0.268   9.164   9.839
   11        0.403   0.273   9.165   9.841
   12        0.407   0.268   9.164   9.839
   13        0.403   0.273   9.165   9.841
   14        0.403   0.273   9.165   9.841
   15        0.404   0.269   9.166   9.838
   16        0.407   0.268   9.164   9.839
   17        0.404   0.269   9.166   9.838
   18        0.404   0.269   9.166   9.838
   19        0.403   0.268   9.164   9.835
   20        0.424   0.292   9.152   9.869
   21        0.424   0.292   9.152   9.869
   22        0.399   0.273   9.167   9.839
   23        0.424   0.292   9.152   9.869
   24        0.399   0.273   9.167   9.839
   25        0.403   0.268   9.164   9.835
   26        0.403   0.268   9.164   9.835
   27        0.399   0.273   9.167   9.839
   28        0.415   0.192   9.183   9.790
   29        0.398   0.207   9.183   9.787
   30        0.398   0.207   9.183   9.787
   31        0.398   0.207   9.183   9.787
   32        0.398   0.207   9.183   9.787
   33        0.398   0.207   9.183   9.787
   34        0.398   0.207   9.183   9.787
   35        0.413   0.193   9.182   9.788
   36        0.506   0.553   7.462   8.521
   37        1.357   2.144   0.000   3.501
tot         16.141  11.077 328.446 355.665

 BZINTS: Fermi energy:    0.794586;  399.000000 electrons
         Band energy:-0.131666E+04;  BLOECHL correction:   -0.064852