 vasp.6.2.0 18Jan21 (build Jun 12 2021 23:27:24) complex

 executed on             LinuxIFC date 2022.05.27  05:55:50

 INCAR:
   ISMEAR = -5
   SIGMA = 0.1
   ISPIN = 1
   EDIFF = 1.d-5
   EDIFFG = -0.01
   NSW = 0
   NELM = 150
   ENCUT = 500
   ISIF = 2
   IBRION = 2
   LREAL = Auto
   ALGO = Fast
   ICHARG = 11
   LORBIT = 10
   LCHARG = .F.
   LWAVE = .F.

 POTCAR:    PAW_PBE Ag 02Apr2005
 POTCAR:    PAW_PBE Pt 04Feb2005
 POTCAR:    PAW_PBE O 08Apr2002
 POTCAR:    PAW_PBE H 15Jun2001
|           W    W    AA    RRRRR   N    N  II  N    N   GGGG   !!!           |
|           W    W   A  A   R    R  NN   N  II  NN   N  G    G  !!!           |
|           W    W  A    A  R    R  N N  N  II  N N  N  G       !!!           |
|           W WW W  AAAAAA  RRRRR   N  N N  II  N  N N  G  GGG   !            |
|           WW  WW  A    A  R   R   N   NN  II  N   NN  G    G                |
|           W    W  A    A  R    R  N    N  II  N    N   GGGG   !!!           |
|     For optimal performance we recommend to set                             |
|       NCORE = 2 up to number-of-cores-per-socket                            |
|     This setting can greatly improve the performance of VASP for DFT.       |
|     The default, NCORE=1 might be grossly inefficient on modern             |
|     multi-core architectures or massively parallel machines. Do your        |
|     Unfortunately you need to use the default for GW and RPA                |
|     calculations (for HF NCORE is supported but not extensively tested      |
|     yet).                                                                   |

 POTCAR:    PAW_PBE Ag 02Apr2005
   VRHFIN =Ag : s1 d10

   TITEL  = PAW_PBE Ag 02Apr2005
   POMASS =  107.868; ZVAL   =   11.000    mass and valenz
   ENMAX  =  249.844; ENMIN  =  187.383 eV

 POTCAR:    PAW_PBE Pt 04Feb2005
   VRHFIN =Pt: s1d9

   TITEL  = PAW_PBE Pt 04Feb2005
   POMASS =  195.080; ZVAL   =   10.000    mass and valenz
   ENMAX  =  230.283; ENMIN  =  172.712 eV

 POTCAR:    PAW_PBE O 08Apr2002
   VRHFIN =O: s2p4

   TITEL  = PAW_PBE O 08Apr2002
   POMASS =   16.000; ZVAL   =    6.000    mass and valenz
   ENMAX  =  400.000; ENMIN  =  300.000 eV

 POTCAR:    PAW_PBE H 15Jun2001
   VRHFIN =H: ultrasoft test

   TITEL  = PAW_PBE H 15Jun2001
   POMASS =    1.000; ZVAL   =    1.000    mass and valenz
   ENMAX  =  250.000; ENMIN  =  200.000 eV

 Optimization of the real space projectors (new method)

 maximal supplied QI-value         = 15.12
 optimisation between [QCUT,QGAM] = [ 11.34, 22.83] = [ 36.00,145.93] Ry
 Optimized for a Real-space Cutoff    1.43 Angstroem

   l    n(q)    QCUT    max X(q) W(low)/X(q) W(high)/X(q)  e(spline)
   2      9    11.338    53.897    0.16E-03    0.20E-03    0.28E-06
   2      9    11.338    52.416    0.16E-03    0.20E-03    0.29E-06
   0     10    11.338   122.045    0.31E-04    0.76E-04    0.15E-06
   0     10    11.338    73.629    0.30E-04    0.72E-04    0.15E-06
   1      9    11.338    15.255    0.20E-03    0.19E-04    0.17E-06
   1      9    11.338     9.562    0.16E-03    0.15E-04    0.14E-06
 Optimization of the real space projectors (new method)

[...]

   l    n(q)    QCUT    max X(q) W(low)/X(q) W(high)/X(q)  e(spline)
   0      7    11.387    20.381    0.39E-03    0.13E-02    0.15E-06
   0      7    11.387    15.268    0.42E-03    0.14E-02    0.17E-06
   1      6    11.387     5.964    0.41E-03    0.11E-02    0.17E-06
   1      6    11.387     5.382    0.39E-03    0.87E-03    0.15E-06
 Optimization of the real space projectors (new method)

 maximal supplied QI-value         = 34.20
 optimisation between [QCUT,QGAM] = [ 11.29, 22.57] = [ 35.68,142.71] Ry
 Optimized for a Real-space Cutoff    1.16 Angstroem

   l    n(q)    QCUT    max X(q) W(low)/X(q) W(high)/X(q)  e(spline)
   0      8    11.287    19.460    0.40E-03    0.73E-03    0.16E-06
   0      8    11.287    12.209    0.38E-03    0.70E-03    0.15E-06
   1      7    11.287     4.655    0.22E-03    0.25E-04    0.22E-06
  PAW_PBE Ag 02Apr2005                  :
  PAW_PBE Pt 04Feb2005                  :
  PAW_PBE O 08Apr2002                   :
  PAW_PBE H 15Jun2001                   :

 POSCAR: Ag-Pt-OH
  positions in direct lattice
  velocities in cartesian coordinates
 exchange correlation table for  LEXCH =        8
   RHO(1)=    0.500       N(1)  =     2000
   RHO(2)=  100.500       N(2)  =     4000

 VTST: version 3.2, (02/03/18)

 CHAIN: initializing optimizer

 OPT: Using VASP Conjugate-Gradient optimizer
 CHAIN: Read ICHAIN            0

 POSCAR: Ag-Pt-OH
  positions in direct lattice
  velocities in cartesian coordinates

 ion  position               nearest neighbor table
   1  0.000  0.000  0.209-   2 2.93   8 2.93   7 2.93   6 2.93   4 2.93  12 2.93  16 2.93  10 2.93
                             3 2.93
   2  0.333  0.000  0.209-   1 2.93   8 2.93   9 2.93   3 2.93   4 2.93   5 2.93  10 2.93  17 2.93
                            11 2.93
   3  0.667  0.000  0.209-   9 2.93   2 2.93   5 2.93  11 2.93   7 2.93  18 2.93   1 2.93   6 2.93
                            12 2.93
   4  0.000  0.333  0.209-   5 2.93   6 2.93   2 2.93   1 2.93   7 2.93  13 2.93  15 2.93   9 2.93
                            10 2.93
   5  0.333  0.333  0.209-   4 2.93   3 2.93   7 2.93   2 2.93   8 2.93  14 2.93  13 2.93  11 2.93
                             6 2.93
   6  0.667  0.333  0.209-   4 2.93   9 2.93   1 2.93  15 2.93   8 2.93  12 2.93   3 2.93   5 2.93
                            14 2.93
   7  0.000  0.667  0.209-   8 2.93   1 2.93   5 2.93   3 2.93   4 2.93  16 2.93  18 2.93  13 2.93
                             9 2.93
   8  0.333  0.667  0.209-   7 2.93   1 2.93   2 2.93   9 2.93   5 2.93  16 2.93   6 2.93  17 2.93
                            14 2.93
   9  0.667  0.667  0.209-   3 2.93   2 2.93   8 2.93   6 2.93  17 2.93   4 2.93  15 2.93   7 2.93
                            18 2.93
  10  0.111  0.111  0.304-  20 2.89  19 2.93  26 2.93  12 2.93  16 2.93  15 2.93  17 2.93  13 2.93
                            11 2.93   2 2.93   1 2.93   4 2.93
  11  0.444  0.111  0.304-  21 2.90  20 2.90  27 2.91  14 2.93  17 2.93  18 2.93   3 2.93  12 2.93
                            13 2.93  10 2.93   5 2.93   2 2.93
  12  0.778  0.111  0.304-  21 2.89  25 2.93  19 2.93  10 2.93  16 2.93  18 2.93  15 2.93  11 2.93
                             1 2.93  14 2.93   6 2.93   3 2.93
  13  0.111  0.444  0.304-  20 2.90  23 2.90  22 2.91  15 2.93  14 2.93  18 2.93  10 2.93  11 2.93
                            16 2.93   4 2.93   5 2.93   7 2.93
  14  0.444  0.444  0.304-  23 2.90  21 2.90  24 2.91  13 2.93  11 2.93  16 2.93   5 2.93  12 2.93
                            17 2.93   8 2.93  15 2.93   6 2.93
  15  0.778  0.444  0.304-  24 2.91  22 2.91  19 2.92  13 2.93  10 2.93  12 2.93  17 2.93  18 2.93
                             4 2.93   6 2.93   9 2.93  14 2.93
  16  0.111  0.778  0.304-  23 2.89  26 2.93  25 2.93  18 2.93  12 2.93  10 2.93  14 2.93  17 2.93
                            13 2.93   7 2.93   8 2.93   1 2.93
  17  0.444  0.778  0.304-  27 2.91  24 2.91  26 2.92  11 2.93  10 2.93   9 2.93  18 2.93  15 2.93
                            16 2.93   2 2.93  14 2.93   8 2.93
  18  0.778  0.778  0.304-  22 2.91  27 2.91  25 2.92  16 2.93  12 2.93  13 2.93  11 2.93  17 2.93
                            15 2.93   7 2.93   3 2.93   9 2.93
  19  0.888  0.223  0.398-  28 2.91  15 2.92  20 2.92  21 2.92  24 2.92  22 2.92  10 2.93  12 2.93
                            32 2.93  31 2.93  26 2.94  25 2.94
  20  0.221  0.221  0.397-  36 2.81  10 2.89  13 2.90  11 2.90  19 2.92  26 2.92  31 2.92  29 2.92
                            27 2.93  22 2.93  21 2.95  23 2.95
  21  0.557  0.221  0.397-  36 2.81  12 2.89  11 2.90  14 2.90  25 2.92  19 2.92  30 2.92  32 2.92
                            27 2.93  24 2.93  20 2.95  23 2.95
  22  0.889  0.556  0.398-  35 2.91  18 2.91  15 2.91  13 2.91  25 2.92  19 2.92  24 2.93  27 2.93
                            33 2.93  31 2.93  23 2.93  20 2.93
  23  0.221  0.557  0.397-  36 2.81  16 2.89  14 2.90  13 2.90  26 2.92  25 2.92  34 2.92  33 2.92
                            22 2.93  24 2.93  21 2.95  20 2.95
  24  0.556  0.556  0.398-  35 2.91  15 2.91  17 2.91  14 2.91  19 2.92  26 2.92  27 2.93  22 2.93
                            32 2.93  34 2.93  23 2.93  21 2.93
  25  0.888  0.888  0.398-  28 2.91  18 2.92  23 2.92  21 2.92  22 2.92  27 2.92  16 2.93  12 2.93
                            33 2.93  30 2.93  26 2.94  19 2.94
  26  0.223  0.888  0.398-  28 2.91  17 2.92  23 2.92  20 2.92  27 2.92  24 2.92  16 2.93  10 2.93
                            34 2.93  29 2.93  25 2.94  19 2.94
  27  0.556  0.889  0.398-  35 2.91  17 2.91  18 2.91  11 2.91  26 2.92  25 2.92  24 2.93  22 2.93
                            29 2.93  30 2.93  20 2.93  21 2.93
  28  0.000  0.000  0.492-  26 2.91  25 2.91  19 2.91  29 2.95  34 2.95  33 2.95  32 2.95  31 2.95
                            30 2.95
  29  0.333  0.004  0.492-  30 2.89  31 2.89  36 2.90  20 2.92  27 2.93  26 2.93  35 2.95  28 2.95
                            34 3.00
  30  0.662  0.004  0.492-  29 2.89  32 2.89  36 2.90  21 2.92  27 2.93  25 2.93  35 2.95  28 2.95
                            33 3.00
  31  0.004  0.333  0.492-  33 2.89  29 2.89  36 2.90  20 2.92  22 2.93  19 2.93  35 2.95  28 2.95
                            32 3.00
  32  0.662  0.333  0.492-  34 2.89  30 2.89  36 2.90  21 2.92  24 2.93  19 2.93  35 2.95  28 2.95
                            31 3.00
  33  0.004  0.662  0.492-  31 2.89  34 2.89  36 2.90  23 2.92  22 2.93  25 2.93  35 2.95  28 2.95
                            30 3.00
  34  0.333  0.662  0.492-  32 2.89  33 2.89  36 2.90  23 2.92  24 2.93  26 2.93  35 2.95  28 2.95
                            29 3.00
  35  0.667  0.667  0.492-  24 2.91  27 2.91  22 2.91  30 2.95  32 2.95  29 2.95  34 2.95  31 2.95
                            33 2.95
  36  0.333  0.333  0.485-  37 2.03  21 2.81  20 2.81  23 2.81  31 2.90  33 2.90  30 2.90  29 2.90
                            34 2.90  32 2.90
  37  0.333  0.333  0.566-  38 0.97  36 2.03
  38  0.333  0.333  0.604-  37 0.97

  LATTYP: Found a hexagonal cell.
 ALAT       =     8.7913665772
 C/A-ratio  =     2.8719070141

  Lattice vectors:

 A1 = (  -4.3956832886,  -7.6135467898,   0.0000000000)
 A2 = (   8.7913665771,   0.0000000000,   0.0000000000)
 A3 = (   0.0000000000,   0.0000000000,  25.2479873362)

Analysis of symmetry for initial positions (statically):
 Subroutine PRICEL returns:
 Original cell was already a primitive cell.

 Routine SETGRP: Setting up the symmetry group for a
 hexagonal supercell.

 Subroutine GETGRP returns: Found  6 space group operations
 (whereof  6 operations were pure point group operations)
 out of a pool of 24 trial point group operations.

The static configuration has the point symmetry C_3v.

Analysis of symmetry for dynamics (positions and initial velocities):
 Subroutine PRICEL returns:
 Original cell was already a primitive cell.

[...]

The dynamic configuration has the point symmetry C_3v.

Analysis of constrained symmetry for selective dynamics:
 Subroutine PRICEL returns:
 Original cell was already a primitive cell.

[...]
     33      -5.0530      2.00000
     34      -5.0292      2.00000
     35      -5.0172      2.00000
     36      -4.9605      2.00000
     37      -4.9419      2.00000
     38      -4.9333      2.00000
     39      -4.8997      2.00000
     40      -4.8668      2.00000
     41      -4.8608      2.00000
     42      -4.8549      2.00000
     43      -4.8382      2.00000
     44      -4.8249      2.00000
     45      -4.7427      2.00000
     46      -4.7165      2.00000
     47      -4.7035      2.00000
     48      -4.6964      2.00000
     49      -4.6890      2.00000
     50      -4.6848      2.00000
     51      -4.6807      2.00000
     52      -4.6655      2.00000
     53      -4.6606      2.00000
     54      -4.6315      2.00000
     55      -4.5700      2.00000
     56      -4.5687      2.00000
     57      -4.5589      2.00000
     58      -4.5523      2.00000
     59      -4.5424      2.00000
     60      -4.5307      2.00000
[...]
    242       6.1153      0.00000
    243       6.2393      0.00000
    244       6.3463      0.00000
    245       6.4296      0.00000
    246       6.4991      0.00000
    247       6.6548      0.00000
    248       6.6969      0.00000
    249       6.7406      0.00000
    250       6.9231      0.00000
    251       6.9566      0.00000
    252       7.1148      0.00000
    253       7.2259      0.00000
    254       7.3701      0.00000
    255       7.3907      0.00000
    256       7.5185      0.00000

 soft charge-density along one line, spin component           1
         0         1         2         3         4         5         6         7         8         9
 total charge-density along one line

------------------------ aborting loop because EDIFF is reached ----------------------------------------

 total charge

# of ion       s       p       d       tot
    1        0.414   0.204   9.177   9.796
    2        0.420   0.203   9.177   9.800
    3        0.420   0.203   9.177   9.800
    4        0.420   0.203   9.177   9.800
    5        0.414   0.206   9.176   9.796
    6        0.420   0.203   9.177   9.800
    7        0.420   0.203   9.177   9.800
    8        0.420   0.203   9.177   9.800
    9        0.414   0.204   9.179   9.796
   10        0.405   0.271   9.163   9.839
   11        0.410   0.267   9.168   9.844
   12        0.405   0.271   9.163   9.839
   13        0.410   0.267   9.168   9.844
   14        0.410   0.267   9.168   9.844
   15        0.400   0.271   9.166   9.837
   16        0.405   0.271   9.163   9.839
   17        0.400   0.271   9.166   9.837
   18        0.400   0.271   9.166   9.837
   19        0.403   0.270   9.165   9.838
   20        0.409   0.291   9.155   9.855
   21        0.409   0.291   9.155   9.855
   22        0.402   0.270   9.169   9.841
   23        0.409   0.291   9.155   9.855
   24        0.402   0.270   9.169   9.841
   25        0.403   0.270   9.165   9.838
   26        0.403   0.270   9.165   9.838
   27        0.402   0.270   9.169   9.841
   28        0.419   0.198   9.180   9.797
   29        0.400   0.203   9.187   9.790
   30        0.400   0.203   9.187   9.790
   31        0.400   0.203   9.187   9.790
   32        0.400   0.203   9.187   9.790
   33        0.400   0.203   9.187   9.790
   34        0.400   0.203   9.187   9.790
   35        0.414   0.201   9.179   9.794
   36        0.588   0.427   8.066   9.081
   37        1.536   3.521   0.000   5.057
   38        0.607   0.127   0.000   0.734
tot         17.010  12.445 329.098 358.553

  FORCE on cell =-STRESS in cart. coord.  units (eV):
  Direction    XX          YY          ZZ          XY          YZ          ZX
  Alpha Z   672.49269   672.49269   672.49269
  Ewald  168136.36928168136.36935************     0.00004     0.00000     0.00004
  Hartree178227.84666178227.84669************     0.00002     0.00000     0.00002
  E(xc)   -2107.36137 -2107.36142 -2111.50691     0.00005    -0.00000    -0.00000
  Local  ************************357727.57002     0.00055    -0.00007    -0.00018
  n-local  -355.05616  -335.55653  -355.11583    11.07274    -0.36175     0.34915
  augment  3280.94068  3280.94095  3286.52349    -0.00024    -0.00000    -0.00003
  Kinetic  5062.47797  5068.29633  5055.43518     5.54178     1.00583    -0.30202
  Fock        0.00000     0.00000     0.00000     0.00000     0.00000     0.00000
  Total      -7.31231    -7.31231    -0.84156    -0.00000     0.00000    -0.00000
  in kB      -6.93259    -6.93259    -0.79786    -0.00000     0.00000    -0.00000

 VOLUME and BASIS-vectors are now :
  energy-cutoff  :      500.00
  volume of cell :     1689.94
      direct lattice vectors                 reciprocal lattice vectors
     8.791366577  0.000000000  0.000000000     0.113747958 -0.065672414  0.000000000
     4.395683289  7.613546790  0.000000000     0.000000000  0.131344829  0.000000000
     0.000000000  0.000000000 25.247987336     0.000000000  0.000000000  0.039607117

  length of vectors
     8.791366577  8.791366577 25.247987336     0.131344829  0.131344829  0.039607117

 FORCES acting on ions
    electron-ion (+dipol)            ewald-force                    non-local-force                 convergence-correction
   0.464E-04 -.280E-04 0.276E+04   -.954E-04 0.593E-04 -.276E+04   -.236E-17 0.159E-17 -.247E+01   -.107E-03 -.169E-03 -.223E+00
   0.452E+00 0.485E+00 0.276E+04   -.457E+00 -.407E+00 -.276E+04   0.125E-01 -.201E-01 -.166E+01   -.225E-02 -.400E-01 -.177E+00
   -.451E+00 0.485E+00 0.276E+04   0.457E+00 -.407E+00 -.276E+04   -.125E-01 -.201E-01 -.166E+01   0.171E-02 -.381E-01 -.177E+00
   0.645E+00 0.149E+00 0.276E+04   -.581E+00 -.192E+00 -.276E+04   -.112E-01 0.209E-01 -.166E+01   -.355E-01 0.182E-01 -.177E+00
   -.499E-05 -.183E-04 0.276E+04   0.981E-04 -.197E-05 -.276E+04   -.182E-18 0.110E-17 -.149E+01   0.624E-02 0.382E-02 -.101E+00
   -.645E+00 0.149E+00 0.276E+04   0.581E+00 -.192E+00 -.276E+04   0.112E-01 0.209E-01 -.166E+01   0.341E-01 0.192E-01 -.177E+00
   0.194E+00 -.633E+00 0.276E+04   -.124E+00 0.599E+00 -.276E+04   -.237E-01 -.739E-03 -.166E+01   -.317E-01 0.210E-01 -.177E+00
   -.194E+00 -.633E+00 0.276E+04   0.124E+00 0.599E+00 -.276E+04   0.237E-01 -.739E-03 -.166E+01   0.333E-01 0.200E-01 -.176E+00
   0.365E-04 -.128E-04 0.276E+04   0.792E-04 -.643E-04 -.276E+04   -.753E-18 0.245E-18 -.211E+01   -.667E-02 -.344E-02 -.199E+00
   0.588E+01 0.339E+01 0.959E+03   -.548E+01 -.316E+01 -.959E+03   -.370E+00 -.214E+00 -.866E+00   -.870E-02 -.500E-02 0.976E-01
   -.283E-04 0.357E+01 0.965E+03   0.411E-04 -.356E+01 -.965E+03   -.632E-13 -.962E-02 -.475E+00   0.629E-02 -.225E-01 0.182E+00
   -.588E+01 0.339E+01 0.959E+03   0.548E+01 -.316E+01 -.959E+03   0.370E+00 -.214E+00 -.866E+00   0.713E-02 -.393E-02 0.975E-01
   0.309E+01 -.178E+01 0.965E+03   -.309E+01 0.178E+01 -.965E+03   -.833E-02 0.481E-02 -.475E+00   -.164E-01 0.167E-01 0.182E+00
   -.309E+01 -.178E+01 0.965E+03   0.309E+01 0.178E+01 -.965E+03   0.833E-02 0.481E-02 -.475E+00   0.271E-01 0.159E-01 0.182E+00
   0.161E-04 0.120E+01 0.960E+03   -.108E-03 -.125E+01 -.959E+03   0.591E-13 0.900E-02 -.658E+00   -.166E-02 0.177E-01 0.646E-01
   -.737E-05 -.679E+01 0.959E+03   0.205E-04 0.632E+01 -.959E+03   0.281E-11 0.427E+00 -.866E+00   0.118E-03 0.806E-02 0.975E-01
   0.104E+01 -.602E+00 0.960E+03   -.108E+01 0.624E+00 -.959E+03   0.780E-02 -.450E-02 -.658E+00   0.145E-01 -.103E-01 0.646E-01
   -.104E+01 -.602E+00 0.960E+03   0.108E+01 0.624E+00 -.959E+03   -.780E-02 -.450E-02 -.658E+00   -.145E-01 -.837E-02 0.652E-01
   0.412E-04 0.456E+01 -.881E+03   -.131E-03 -.468E+01 0.880E+03   0.434E-12 0.660E-01 0.667E+00   -.648E-03 0.276E-01 0.695E-01
   0.144E+02 0.831E+01 -.835E+03   -.136E+02 -.785E+01 0.836E+03   -.822E+00 -.475E+00 -.924E+00   0.147E+00 0.848E-01 0.203E+00
   -.144E+02 0.831E+01 -.835E+03   0.136E+02 -.785E+01 0.836E+03   0.822E+00 -.475E+00 -.924E+00   -.147E+00 0.849E-01 0.202E+00
   0.656E+01 -.379E+01 -.867E+03   -.683E+01 0.394E+01 0.866E+03   0.233E+00 -.135E+00 0.673E+00   0.480E-01 -.276E-01 0.984E-01
   -.571E-04 -.166E+02 -.835E+03   0.444E-04 0.157E+02 0.836E+03   0.624E-11 0.950E+00 -.924E+00   0.528E-03 -.169E+00 0.202E+00
   -.656E+01 -.379E+01 -.867E+03   0.683E+01 0.394E+01 0.866E+03   -.233E+00 -.135E+00 0.673E+00   -.480E-01 -.276E-01 0.990E-01
   -.395E+01 -.228E+01 -.881E+03   0.405E+01 0.234E+01 0.880E+03   -.572E-01 -.330E-01 0.667E+00   -.233E-01 -.136E-01 0.696E-01
   0.395E+01 -.228E+01 -.881E+03   -.405E+01 0.234E+01 0.880E+03   0.572E-01 -.330E-01 0.667E+00   0.233E-01 -.145E-01 0.696E-01
   0.196E-04 0.757E+01 -.867E+03   0.110E-03 -.788E+01 0.866E+03   0.177E-11 0.269E+00 0.673E+00   -.553E-03 0.553E-01 0.984E-01
   0.543E-04 -.374E-04 -.270E+04   -.117E-03 0.786E-04 0.270E+04   0.116E-17 0.452E-17 0.185E+01   -.117E-02 -.813E-03 0.281E+00
   0.287E+02 0.497E+02 -.268E+04   -.288E+02 -.501E+02 0.268E+04   -.281E-01 0.198E+00 0.235E+01   0.662E-02 0.611E-01 0.191E+00
   -.287E+02 0.497E+02 -.268E+04   0.288E+02 -.501E+02 0.268E+04   0.281E-01 0.198E+00 0.235E+01   0.307E-02 0.628E-01 0.191E+00
   0.574E+02 0.416E-01 -.268E+04   -.577E+02 0.121E+00 0.268E+04   0.158E+00 -.124E+00 0.235E+01   0.565E-01 -.247E-01 0.191E+00
   -.574E+02 0.416E-01 -.268E+04   0.577E+02 0.121E+00 0.268E+04   -.158E+00 -.124E+00 0.235E+01   -.473E-01 -.238E-01 0.191E+00
   0.286E+02 -.497E+02 -.268E+04   -.290E+02 0.499E+02 0.268E+04   0.186E+00 -.749E-01 0.235E+01   0.564E-01 -.282E-01 0.191E+00
   -.286E+02 -.497E+02 -.268E+04   0.290E+02 0.499E+02 0.268E+04   -.186E+00 -.749E-01 0.235E+01   -.446E-01 -.290E-01 0.191E+00
   0.217E-04 -.103E-04 -.269E+04   0.107E-03 -.669E-04 0.269E+04   0.298E-17 0.127E-17 0.189E+01   -.779E-02 -.407E-02 0.256E+00
   0.268E-04 -.191E-04 -.219E+04   0.953E-04 0.113E-04 0.219E+04   -.539E-17 -.172E-17 0.330E+01   0.218E-02 0.136E-02 -.169E+00
   0.198E-03 -.958E-04 -.175E+04   0.218E-04 0.221E-06 0.173E+04   0.360E-17 -.455E-18 0.213E+02   0.347E-02 0.214E-02 -.225E+00
   0.782E-05 -.133E-04 -.347E+03   0.152E-05 0.184E-08 0.355E+03   -.989E-19 -.542E-19 -.823E+01   0.194E-03 0.119E-03 0.350E-01
   0.648E-03 -.782E-03 -.153E+02   0.301E-13 0.104E-12 -.608E-11   0.288E-16 0.124E-15 0.134E+02   0.400E-01 0.265E-01 0.188E+01

 POSITION                                       TOTAL-FORCE (eV/Angst)
      0.00000      0.00000      5.28219         0.000000      0.000000      0.075914
      2.93046      0.00000      5.28219         0.005323      0.018602      0.046702
      5.86091      0.00000      5.28219        -0.005323      0.018602      0.046702
      1.46523      2.53785      5.28219         0.018771     -0.004691      0.046702
      4.39568      2.53785      5.28219         0.000000      0.000000      0.030099
      7.32614      2.53785      5.28219        -0.018771     -0.004691      0.046702
      2.93046      5.07570      5.28219         0.013448     -0.013911      0.046702
      5.86091      5.07570      5.28219        -0.013448     -0.013911      0.046702
      8.79137      5.07570      5.28219         0.000000     -0.000000      0.051907
      1.46523      0.84595      7.67490         0.026352      0.015214     -0.004538
      4.39568      0.84595      7.67490        -0.000000     -0.032641     -0.104969
      7.32614      0.84595      7.67490        -0.026352      0.015214     -0.004538
      2.93046      3.38380      7.67490        -0.028268      0.016320     -0.104969
      5.86091      3.38380      7.67490         0.028268      0.016320     -0.104969
      8.79137      3.38380      7.67490        -0.000000     -0.018245     -0.021083
      4.39568      5.92165      7.67490        -0.000000     -0.030428     -0.004538
      7.32614      5.92165      7.67490        -0.015801      0.009123     -0.021083
     10.25659      5.92165      7.67490         0.015801      0.009123     -0.021083
      8.79137      1.70009     10.06101        -0.000000     -0.022717      0.015253
      2.92042      1.68610     10.02751         0.115922      0.066928     -0.000873
      5.87095      1.68610     10.02751        -0.115922      0.066928     -0.000873
     10.25445      4.23098     10.04520         0.014124     -0.008154      0.026770
      4.39568      4.24134     10.02751        -0.000000     -0.133855     -0.000873
      7.32828      4.23098     10.04520        -0.014124     -0.008154      0.026770
     11.71473      6.76350     10.06101         0.019673      0.011358      0.015253
      5.86800      6.76350     10.06101        -0.019673      0.011358      0.015253
      8.79137      6.76512     10.04520         0.000000      0.016309      0.026770
      0.00000      0.00000     12.42233         0.000000     -0.000000     -0.030538
      2.94927      0.03214     12.43461        -0.076661     -0.156012     -0.056424
      5.84210      0.03214     12.43461         0.076661     -0.156012     -0.056424
      1.50247      2.53807     12.43461        -0.173441      0.011615     -0.056424
      7.28890      2.53807     12.43461         0.173441      0.011615     -0.056424
      2.94888      5.04334     12.43461        -0.096780      0.144397     -0.056424
      5.84248      5.04334     12.43461         0.096780      0.144397     -0.056424
      8.79137      5.07570     12.41249         0.000000      0.000000     -0.006331
      4.39568      2.53785     12.25656         0.000000      0.000000      0.257985
      4.39568      2.53785     14.28734         0.000000     -0.000000     -0.000463
      4.39568      2.53785     15.25324         0.000000      0.000000     -0.051923
    total drift:                                0.040666      0.025707      0.059409

  FREE ENERGIE OF THE ION-ELECTRON SYSTEM (eV)
  free  energy   TOTEN  =      -104.25969511 eV

  energy  without entropy=     -104.25969511  energy(sigma->0) =     -104.25969511

 stress matrix after NEB project (eV)
     -7.31231     -0.00000     -0.00000
     -0.00000     -7.31231      0.00000
      0.00000      0.00000     -0.84156
  FORCES: max atom, RMS     0.051923    0.008423
  FORCE total and by dimension    0.051925    0.051923
  Stress total and by dimension   10.375360    7.312314
|           W    W    AA    RRRRR   N    N  II  N    N   GGGG   !!!           |
|           W    W   A  A   R    R  NN   N  II  NN   N  G    G  !!!           |
|           W    W  A    A  R    R  N N  N  II  N N  N  G       !!!           |
|           W WW W  AAAAAA  RRRRR   N  N N  II  N  N N  G  GGG   !            |
|           WW  WW  A    A  R   R   N   NN  II  N   NN  G    G                |
|           W    W  A    A  R    R  N    N  II  N    N   GGGG   !!!           |
|     Tetrahedron method does not include variations of the Fermi             |
|     occupations, so forces and stress will be inaccurate. We suggest        |
|     using a different smearing scheme ISMEAR = 1 or 2 for metals in         |
|     relaxations.                                                            |

 total charge

# of ion       s       p       d       tot
    1        0.414   0.204   9.177   9.796
    2        0.420   0.203   9.177   9.800
    3        0.420   0.203   9.177   9.800
    4        0.420   0.203   9.177   9.800
    5        0.414   0.206   9.176   9.796
    6        0.420   0.203   9.177   9.800
    7        0.420   0.203   9.177   9.800
    8        0.420   0.203   9.177   9.800
    9        0.414   0.204   9.179   9.796
   10        0.405   0.271   9.163   9.839
   11        0.410   0.267   9.168   9.844
   12        0.405   0.271   9.163   9.839
   13        0.410   0.267   9.168   9.844
   14        0.410   0.267   9.168   9.844
   15        0.400   0.271   9.166   9.837
   16        0.405   0.271   9.163   9.839
   17        0.400   0.271   9.166   9.837
   18        0.400   0.271   9.166   9.837
   19        0.403   0.270   9.165   9.838
   20        0.409   0.291   9.155   9.855
   21        0.409   0.291   9.155   9.855
   22        0.402   0.270   9.169   9.841
   23        0.409   0.291   9.155   9.855
   24        0.402   0.270   9.169   9.841
   25        0.403   0.270   9.165   9.838
   26        0.403   0.270   9.165   9.838
   27        0.402   0.270   9.169   9.841
   28        0.419   0.198   9.180   9.797
   29        0.400   0.203   9.187   9.790
   30        0.400   0.203   9.187   9.790
   31        0.400   0.203   9.187   9.790
   32        0.400   0.203   9.187   9.790
   33        0.400   0.203   9.187   9.790
   34        0.400   0.203   9.187   9.790
   35        0.414   0.201   9.179   9.794
   36        0.588   0.427   8.066   9.081
   37        1.536   3.521   0.000   5.057
   38        0.607   0.127   0.000   0.734
tot         17.010  12.445 329.098 358.553

 BZINTS: Fermi energy:    0.279228;  402.000000 electrons
         Band energy:-0.153668E+04;  BLOECHL correction:   -0.045721