 vasp.6.2.0 18Jan21 (build Jun 12 2021 23:27:24) complex

 executed on             LinuxIFC date 2022.05.28  02:34:57

 INCAR:
   ISMEAR = -5
   SIGMA = 0.1
   ISPIN = 1
   EDIFF = 1.d-5
   EDIFFG = -0.01
   NSW = 0
   NELM = 150
   ENCUT = 500
   ISIF = 2
   IBRION = 2
   LREAL = Auto
   ALGO = Fast
   ICHARG = 11
   LORBIT = 10
   LCHARG = .F.
   LWAVE = .F.

 POTCAR:    PAW_PBE Cu 22Jun2005
 POTCAR:    PAW_PBE Ru 04Feb2005
 POTCAR:    PAW_PBE H 15Jun2001
 POTCAR:    PAW_PBE O 08Apr2002
|           W    W    AA    RRRRR   N    N  II  N    N   GGGG   !!!           |
|           W    W   A  A   R    R  NN   N  II  NN   N  G    G  !!!           |
|           W    W  A    A  R    R  N N  N  II  N N  N  G       !!!           |
|           W WW W  AAAAAA  RRRRR   N  N N  II  N  N N  G  GGG   !            |
|           WW  WW  A    A  R   R   N   NN  II  N   NN  G    G                |
|           W    W  A    A  R    R  N    N  II  N    N   GGGG   !!!           |
|     For optimal performance we recommend to set                             |
|       NCORE = 2 up to number-of-cores-per-socket                            |
|     This setting can greatly improve the performance of VASP for DFT.       |
|     The default, NCORE=1 might be grossly inefficient on modern             |
|     multi-core architectures or massively parallel machines. Do your        |
|     Unfortunately you need to use the default for GW and RPA                |
|     calculations (for HF NCORE is supported but not extensively tested      |
|     yet).                                                                   |

 POTCAR:    PAW_PBE Cu 22Jun2005
   VRHFIN =Cu: d10 p1

   TITEL  = PAW_PBE Cu 22Jun2005
   POMASS =   63.546; ZVAL   =   11.000    mass and valenz
   ENMAX  =  295.446; ENMIN  =  221.585 eV

 POTCAR:    PAW_PBE Ru 04Feb2005
   VRHFIN =Ru: s1 d7

   TITEL  = PAW_PBE Ru 04Feb2005
   POMASS =  101.070; ZVAL   =    8.000    mass and valenz
   ENMAX  =  213.271; ENMIN  =  159.953 eV

 POTCAR:    PAW_PBE H 15Jun2001
   VRHFIN =H: ultrasoft test

   TITEL  = PAW_PBE H 15Jun2001
   POMASS =    1.000; ZVAL   =    1.000    mass and valenz
   ENMAX  =  250.000; ENMIN  =  200.000 eV

 POTCAR:    PAW_PBE O 08Apr2002
   VRHFIN =O: s2p4

   TITEL  = PAW_PBE O 08Apr2002
   POMASS =   16.000; ZVAL   =    6.000    mass and valenz
   ENMAX  =  400.000; ENMIN  =  300.000 eV

 Optimization of the real space projectors (new method)

 maximal supplied QI-value         = 16.25
 optimisation between [QCUT,QGAM] = [ 11.38, 22.75] = [ 36.24,144.96] Ry
 Optimized for a Real-space Cutoff    1.52 Angstroem

   l    n(q)    QCUT    max X(q) W(low)/X(q) W(high)/X(q)  e(spline)
   2      9    11.376     4.610    0.21E-03    0.10E-03    0.26E-06
   2      9    11.376     8.522    0.33E-03    0.16E-03    0.37E-06
   0     10    11.376    51.609    0.62E-04    0.20E-04    0.13E-06
   0     10    11.376    27.747    0.54E-04    0.20E-04    0.13E-06
   1     10    11.376    20.408    0.13E-04    0.99E-04    0.19E-06
   1     10    11.376    13.425    0.12E-04    0.87E-04    0.17E-06
 Optimization of the real space projectors (new method)

[...]

   l    n(q)    QCUT    max X(q) W(low)/X(q) W(high)/X(q)  e(spline)
   0      8    11.287    19.460    0.40E-03    0.73E-03    0.16E-06
   0      8    11.287    12.209    0.38E-03    0.70E-03    0.15E-06
   1      7    11.287     4.655    0.22E-03    0.25E-04    0.22E-06
 Optimization of the real space projectors (new method)

 maximal supplied QI-value         = 24.76
 optimisation between [QCUT,QGAM] = [ 11.39, 22.77] = [ 36.31,145.25] Ry
 Optimized for a Real-space Cutoff    1.00 Angstroem

   l    n(q)    QCUT    max X(q) W(low)/X(q) W(high)/X(q)  e(spline)
   0      7    11.387    20.381    0.39E-03    0.13E-02    0.15E-06
   0      7    11.387    15.268    0.42E-03    0.14E-02    0.17E-06
   1      6    11.387     5.964    0.41E-03    0.11E-02    0.17E-06
   1      6    11.387     5.382    0.39E-03    0.87E-03    0.15E-06
  PAW_PBE Cu 22Jun2005                  :
  PAW_PBE Ru 04Feb2005                  :
  PAW_PBE H 15Jun2001                   :
  PAW_PBE O 08Apr2002                   :

 POSCAR: Cu-Ru-H2O
  positions in direct lattice
  velocities in cartesian coordinates
 exchange correlation table for  LEXCH =        8
   RHO(1)=    0.500       N(1)  =     2000
   RHO(2)=  100.500       N(2)  =     4000

 VTST: version 3.2, (02/03/18)

 CHAIN: initializing optimizer

 OPT: Using VASP Conjugate-Gradient optimizer
 CHAIN: Read ICHAIN            0

 POSCAR: Cu-Ru-H2O
  positions in direct lattice
  velocities in cartesian coordinates

 ion  position               nearest neighbor table
   1  0.000  0.000  0.221-   7 2.57   3 2.57   4 2.57   2 2.57   6 2.57   8 2.57  12 2.57  10 2.57
                            16 2.57
   2  0.333  0.000  0.221-   8 2.57   9 2.57   5 2.57   1 2.57   3 2.57  11 2.57   4 2.57  10 2.57
                            17 2.57
   3  0.667  0.000  0.221-   1 2.57   7 2.57   6 2.57   9 2.57   2 2.57  12 2.57   5 2.57  18 2.57
                            11 2.57
   4  0.000  0.333  0.221-   5 2.57   6 2.57   1 2.57   7 2.57   2 2.57  13 2.57   9 2.57  10 2.57
                            15 2.57
   5  0.333  0.333  0.221-   4 2.57   2 2.57   7 2.57  13 2.57   8 2.57   6 2.57   3 2.57  11 2.57
                            14 2.57
   6  0.667  0.333  0.221-   4 2.57   9 2.57  15 2.57   3 2.57   1 2.57   8 2.57  14 2.57   5 2.57
                            12 2.57
   7  0.000  0.667  0.221-   1 2.57   3 2.57  16 2.57  18 2.57   4 2.57   5 2.57   8 2.57   9 2.57
                            13 2.57
   8  0.333  0.667  0.221-   9 2.57   2 2.57  17 2.57   6 2.57   1 2.57   7 2.57   5 2.57  14 2.57
                            16 2.57
   9  0.667  0.667  0.221-   8 2.57   6 2.57   2 2.57  17 2.57   3 2.57   7 2.57   4 2.57  15 2.57
                            18 2.57
  10  0.111  0.111  0.308-  20 2.55  26 2.56  19 2.56  11 2.57  12 2.57  13 2.57   1 2.57   2 2.57
                             4 2.57  15 2.57  16 2.57  17 2.57
  11  0.444  0.111  0.308-  20 2.55  21 2.55  10 2.57  13 2.57   2 2.57  17 2.57  14 2.57  12 2.57
                             5 2.57   3 2.57  18 2.57  27 2.57
  12  0.778  0.111  0.308-  21 2.55  19 2.56  25 2.56  15 2.57  10 2.57  14 2.57  18 2.57   3 2.57
                             1 2.57  16 2.57  11 2.57   6 2.57
  13  0.111  0.444  0.308-  23 2.55  20 2.55  16 2.57  18 2.57  10 2.57  11 2.57  14 2.57   5 2.57
                             4 2.57   7 2.57  15 2.57  22 2.57
  14  0.444  0.444  0.308-  21 2.55  23 2.55  15 2.57  17 2.57  12 2.57  16 2.57  13 2.57  11 2.57
                             6 2.57   8 2.57   5 2.57  24 2.57
  15  0.778  0.444  0.308-  19 2.56  14 2.57  17 2.57  12 2.57   6 2.57  18 2.57  10 2.57   9 2.57
                            13 2.57   4 2.57  24 2.57  22 2.57
  16  0.111  0.778  0.308-  23 2.55  25 2.56  26 2.56  18 2.57  13 2.57   7 2.57  14 2.57  17 2.57
                            12 2.57  10 2.57   8 2.57   1 2.57
  17  0.444  0.778  0.308-  26 2.56  14 2.57  15 2.57   8 2.57   9 2.57  11 2.57  16 2.57  18 2.57
                            10 2.57   2 2.57  27 2.57  24 2.57
  18  0.778  0.778  0.308-  25 2.56  16 2.57  13 2.57   7 2.57  15 2.57  12 2.57  17 2.57   9 2.57
                             3 2.57  11 2.57  22 2.57  27 2.57
  19  0.889  0.223  0.394-  28 2.55  15 2.56  21 2.56  20 2.56  12 2.56  10 2.56  22 2.56  24 2.56
                            32 2.56  31 2.56  25 2.57  26 2.57
  20  0.222  0.222  0.393-  10 2.55  11 2.55  13 2.55  36 2.55  26 2.56  19 2.56  27 2.57  22 2.57
                            23 2.57  21 2.57  29 2.58  31 2.58
  21  0.556  0.222  0.393-  12 2.55  14 2.55  11 2.55  36 2.55  19 2.56  25 2.56  24 2.57  27 2.57
                            20 2.57  23 2.57  32 2.58  30 2.58
  22  0.888  0.556  0.394-  35 2.55  24 2.56  27 2.56  19 2.56  25 2.56  18 2.57  15 2.57  31 2.57
                            33 2.57  23 2.57  20 2.57  13 2.57
  23  0.222  0.556  0.393-  16 2.55  13 2.55  14 2.55  36 2.55  25 2.56  26 2.56  22 2.57  24 2.57
                            20 2.57  21 2.57  33 2.58  34 2.58
  24  0.556  0.556  0.394-  35 2.55  22 2.56  27 2.56  19 2.56  26 2.56  15 2.57  17 2.57  32 2.57
                            34 2.57  21 2.57  23 2.57  14 2.57
  25  0.889  0.889  0.394-  28 2.55  18 2.56  21 2.56  23 2.56  16 2.56  12 2.56  22 2.56  27 2.56
                            33 2.56  30 2.56  19 2.57  26 2.57
  26  0.223  0.889  0.394-  28 2.55  17 2.56  20 2.56  23 2.56  10 2.56  16 2.56  27 2.56  24 2.56
                            29 2.56  34 2.56  25 2.57  19 2.57
  27  0.556  0.888  0.394-  35 2.55  24 2.56  22 2.56  26 2.56  25 2.56  17 2.57  18 2.57  29 2.57
                            30 2.57  20 2.57  21 2.57  11 2.57
  28  0.000  0.000  0.479-  25 2.55  19 2.55  26 2.55  33 2.56  30 2.56  31 2.56  29 2.56  32 2.56
                            34 2.56
  29  0.333  0.999  0.480-  34 2.55  28 2.56  26 2.56  35 2.56  27 2.57  31 2.57  36 2.57  30 2.58
                            20 2.58
  30  0.668  0.999  0.480-  33 2.55  28 2.56  25 2.56  35 2.56  27 2.57  32 2.57  36 2.57  29 2.58
                            21 2.58
  31  0.999  0.333  0.480-  32 2.55  28 2.56  19 2.56  35 2.56  22 2.57  29 2.57  36 2.57  33 2.58
                            20 2.58
  32  0.668  0.333  0.480-  31 2.55  28 2.56  19 2.56  35 2.56  24 2.57  30 2.57  36 2.57  34 2.58
                            21 2.58
  33  0.999  0.668  0.480-  30 2.55  28 2.56  25 2.56  35 2.56  22 2.57  34 2.57  36 2.57  31 2.58
                            23 2.58
  34  0.333  0.668  0.480-  29 2.55  28 2.56  26 2.56  35 2.56  24 2.57  33 2.57  36 2.57  32 2.58
                            23 2.58
  35  0.667  0.667  0.479-  24 2.55  27 2.55  22 2.55  34 2.56  32 2.56  29 2.56  30 2.56  33 2.56
                            31 2.56
  36  0.333  0.333  0.478-  39 2.32  23 2.55  20 2.55  21 2.55  31 2.57  29 2.57  33 2.57  34 2.57
                            32 2.57  30 2.57
  37  0.230  0.333  0.597-  39 0.97
  38  0.436  0.333  0.597-  39 0.97
  39  0.333  0.334  0.574-  37 0.97  38 0.97  36 2.32

  LATTYP: Found a hexagonal cell.
 ALAT       =     7.6967864036
 C/A-ratio  =     3.1535378041

  Lattice vectors:

 A1 = (  -3.8483927580,  -6.6656128093,   0.0000000000)
 A2 = (   7.6967864037,   0.0000000000,   0.0000000000)
 A3 = (   0.0000000000,   0.0000000000,  24.2721068937)

Analysis of symmetry for initial positions (statically):
 Subroutine PRICEL returns:
 Original cell was already a primitive cell.

 Routine SETGRP: Setting up the symmetry group for a
 hexagonal supercell.

 Subroutine GETGRP returns: Found  1 space group operations
 (whereof  1 operations were pure point group operations)
 out of a pool of 24 trial point group operations.

The static configuration has the point symmetry C_1 .

Analysis of symmetry for dynamics (positions and initial velocities):
 Subroutine PRICEL returns:
 Original cell was already a primitive cell.

[...]

The dynamic configuration has the point symmetry C_1 .

Analysis of constrained symmetry for selective dynamics:
 Subroutine PRICEL returns:
[...]
     41      -3.7036      2.00000
     42      -3.6985      2.00000
     43      -3.6295      2.00000
     44      -3.6250      2.00000
     45      -3.6147      2.00000
     46      -3.5894      2.00000
     47      -3.5825      2.00000
     48      -3.5762      2.00000
     49      -3.5738      2.00000
     50      -3.3770      2.00000
     51      -3.3653      2.00000
     52      -3.3586      2.00000
     53      -3.3550      2.00000
     54      -3.2939      2.00000
     55      -3.2867      2.00000
     56      -3.2813      2.00000
     57      -3.2724      2.00000
     58      -3.2657      2.00000
     59      -3.2474      2.00000
     60      -3.2170      2.00000
[...]
    238       5.7582      0.00000
    239       5.8749      0.00000
    240       5.9466      0.00000
    241       5.9980      0.00000
    242       6.0690      0.00000
    243       6.1050      0.00000
    244       6.2925      0.00000
    245       6.3878      0.00000
    246       6.4144      0.00000
    247       6.5183      0.00000
    248       6.9244      0.00000
    249       7.2206      0.00000
    250       7.2618      0.00000
    251       7.4536      0.00000
    252       7.5950      0.00000

 soft charge-density along one line, spin component           1
         0         1         2         3         4         5         6         7         8         9
 total charge-density along one line

------------------------ aborting loop because EDIFF is reached ----------------------------------------

 total charge

# of ion       s       p       d       tot
    1        0.448   0.285   9.187   9.920
    2        0.449   0.285   9.186   9.920
    3        0.449   0.285   9.186   9.920
    4        0.450   0.285   9.185   9.920
    5        0.446   0.289   9.180   9.915
    6        0.450   0.285   9.185   9.920
    7        0.449   0.285   9.186   9.920
    8        0.449   0.285   9.186   9.920
    9        0.447   0.283   9.189   9.919
   10        0.442   0.373   9.174   9.989
   11        0.444   0.365   9.184   9.992
   12        0.442   0.373   9.174   9.989
   13        0.444   0.365   9.184   9.992
   14        0.444   0.365   9.184   9.992
   15        0.438   0.369   9.179   9.986
   16        0.442   0.373   9.173   9.989
   17        0.438   0.369   9.179   9.986
   18        0.438   0.369   9.179   9.986
   19        0.442   0.370   9.181   9.994
   20        0.454   0.392   9.164  10.010
   21        0.454   0.392   9.163  10.010
   22        0.432   0.372   9.183   9.987
   23        0.455   0.393   9.163  10.010
   24        0.432   0.372   9.183   9.987
   25        0.442   0.370   9.181   9.993
   26        0.442   0.370   9.181   9.993
   27        0.432   0.372   9.183   9.987
   28        0.449   0.293   9.188   9.930
   29        0.458   0.305   9.178   9.941
   30        0.458   0.305   9.178   9.941
   31        0.460   0.308   9.176   9.944
   32        0.460   0.308   9.176   9.944
   33        0.458   0.305   9.178   9.941
   34        0.458   0.305   9.178   9.941
   35        0.440   0.297   9.189   9.926
   36        0.523   0.492   6.655   7.670
   37        0.615   0.122   0.000   0.737
   38        0.615   0.122   0.000   0.737
   39        1.552   3.638   0.000   5.190
tot         18.941  16.089 327.957 362.987

  FORCE on cell =-STRESS in cart. coord.  units (eV):
  Direction    XX          YY          ZZ          XY          YZ          ZX
  Alpha Z   776.82873   776.82873   776.82873
  Ewald  232083.19989231956.53346************    -0.06638    -0.53354    -0.01302
  Hartree244988.75058244965.74219************    -0.01399    -0.21356     0.03485
  E(xc)   -2320.42623 -2320.97710 -2324.57549    -0.00048     0.00166    -0.00058
  Local  ************************490167.34683     0.08496     0.65028    -0.03762
  n-local  -776.96376  -777.84694  -794.97747    -0.00148     0.00705     0.00381
  augment  3359.19395  3361.80792  3380.47156    -0.01831    -0.00735     0.00123
  Kinetic  3355.73792  3391.64426  3396.90137     0.02071     0.11214     0.01290
  Fock        0.00000     0.00000     0.00000     0.00000     0.00000     0.00000
  Total      -6.58874    -6.78748     0.51043     0.00503     0.01668     0.00157
  in kB      -8.47727    -8.73297     0.65674     0.00647     0.02146     0.00203

 VOLUME and BASIS-vectors are now :
  energy-cutoff  :      500.00
  volume of cell :     1245.25
      direct lattice vectors                 reciprocal lattice vectors
     7.696786404  0.000000000  0.000000000     0.129924354 -0.075011849  0.000000000
     3.848392758  6.665612809  0.000000000     0.000000000  0.150023716  0.000000000
     0.000000000  0.000000000 24.272106894     0.000000000  0.000000000  0.041199555

  length of vectors
     7.696786404  7.696786404 24.272106894     0.150023716  0.150023716  0.041199555

 FORCES acting on ions
    electron-ion (+dipol)            ewald-force                    non-local-force                 convergence-correction
   0.272E-02 0.309E-02 0.378E+04   -.158E-05 -.229E-02 -.378E+04   0.228E-03 0.881E-02 -.294E+01   -.297E-02 -.769E-02 -.392E+00
   -.275E+00 0.556E-03 0.378E+04   0.217E+00 0.360E-01 -.378E+04   0.415E-01 -.130E-01 -.175E+01   0.233E-01 -.321E-02 -.371E+00
   0.273E+00 -.116E-01 0.378E+04   -.217E+00 0.361E-01 -.378E+04   -.423E-01 -.142E-01 -.176E+01   -.199E-01 0.988E-02 -.366E+00
   -.129E+00 -.237E+00 0.378E+04   0.141E+00 0.168E+00 -.378E+04   0.416E-03 0.326E-01 -.173E+01   0.826E-02 0.316E-01 -.366E+00
   -.165E-01 -.255E-01 0.378E+04   0.243E-03 -.517E-03 -.378E+04   -.862E-02 0.369E-02 -.179E+01   0.252E-01 0.235E-01 -.281E+00
   0.140E+00 -.242E+00 0.378E+04   -.142E+00 0.168E+00 -.378E+04   0.842E-04 0.322E-01 -.173E+01   -.197E-01 0.362E-01 -.360E+00
   0.104E+00 0.239E+00 0.378E+04   -.753E-01 -.204E+00 -.378E+04   -.211E-01 -.253E-01 -.175E+01   0.514E-02 -.257E-01 -.372E+00
   -.114E+00 0.247E+00 0.378E+04   0.751E-01 -.204E+00 -.378E+04   0.191E-01 -.246E-01 -.175E+01   0.693E-02 -.344E-01 -.371E+00
   0.147E-01 0.377E-01 0.378E+04   0.198E-03 0.280E-02 -.378E+04   0.953E-02 -.120E-01 -.241E+01   -.248E-01 -.300E-01 -.364E+00
   0.307E+00 0.184E+00 0.130E+04   0.188E+00 0.872E-01 -.129E+04   -.516E+00 -.287E+00 -.120E+01   0.488E-01 0.330E-01 -.602E+00
   -.162E-01 -.643E+00 0.129E+04   0.877E-03 0.288E+00 -.129E+04   -.857E-02 0.225E+00 -.388E+00   0.243E-01 0.739E-01 -.527E+00
   -.296E+00 0.178E+00 0.130E+04   -.189E+00 0.878E-01 -.129E+04   0.517E+00 -.287E+00 -.120E+01   -.600E-01 0.390E-01 -.602E+00
   -.596E+00 0.331E+00 0.129E+04   0.269E+00 -.144E+00 -.129E+04   0.204E+00 -.144E+00 -.400E+00   0.805E-01 -.173E-01 -.539E+00
   0.575E+00 0.338E+00 0.129E+04   -.268E+00 -.144E+00 -.129E+04   -.221E+00 -.143E+00 -.399E+00   -.409E-01 -.251E-01 -.548E+00
   0.122E-01 -.123E+01 0.129E+04   -.550E-03 0.910E+00 -.129E+04   0.208E-02 0.209E+00 -.808E+00   -.137E-01 0.887E-01 -.647E+00
   0.123E-02 -.361E+00 0.130E+04   0.371E-03 -.207E+00 -.129E+04   0.532E-03 0.611E+00 -.121E+01   -.211E-02 -.762E-01 -.606E+00
   -.102E+01 0.608E+00 0.129E+04   0.779E+00 -.439E+00 -.129E+04   0.164E+00 -.102E+00 -.845E+00   0.604E-01 -.562E-01 -.641E+00
   0.102E+01 0.595E+00 0.129E+04   -.779E+00 -.438E+00 -.129E+04   -.165E+00 -.104E+00 -.846E+00   -.580E-01 -.422E-01 -.632E+00
   0.119E-01 -.173E+01 -.120E+04   -.559E-02 0.170E+01 0.120E+04   0.704E-03 0.725E-02 0.633E+00   -.692E-02 0.190E-01 -.341E+00
   -.249E+02 -.142E+02 -.122E+04   0.261E+02 0.150E+02 0.122E+04   -.135E+01 -.765E+00 -.124E+01   0.119E+00 0.587E-01 -.261E+00
   0.249E+02 -.142E+02 -.122E+04   -.261E+02 0.150E+02 0.122E+04   0.135E+01 -.765E+00 -.124E+01   -.112E+00 0.518E-01 -.268E+00
   -.160E+02 0.909E+01 -.121E+04   0.152E+02 -.865E+01 0.121E+04   0.667E+00 -.371E+00 0.729E+00   0.171E+00 -.741E-01 -.404E+00
   -.177E-02 0.285E+02 -.122E+04   0.543E-02 -.300E+02 0.122E+04   0.103E-02 0.160E+01 -.130E+01   -.454E-02 -.126E+00 -.273E+00
   0.160E+02 0.910E+01 -.121E+04   -.152E+02 -.866E+01 0.121E+04   -.684E+00 -.371E+00 0.728E+00   -.142E+00 -.805E-01 -.403E+00
   0.162E+01 0.964E+00 -.120E+04   -.157E+01 -.934E+00 0.120E+04   -.262E-01 -.165E-01 0.708E+00   -.280E-01 -.128E-01 -.341E+00
   -.162E+01 0.973E+00 -.120E+04   0.157E+01 -.940E+00 0.120E+04   0.265E-01 -.163E-01 0.709E+00   0.216E-01 -.162E-01 -.340E+00
   -.117E-01 -.185E+02 -.121E+04   0.129E-02 0.176E+02 0.121E+04   -.826E-02 0.794E+00 0.732E+00   0.190E-01 0.202E+00 -.404E+00
   0.194E-01 0.668E+00 -.366E+04   -.131E-01 -.703E+00 0.366E+04   0.604E-03 0.441E-01 0.188E+01   -.688E-02 -.465E-02 0.134E+00
   -.138E+02 -.203E+02 -.365E+04   0.140E+02 0.203E+02 0.365E+04   -.377E+00 -.260E+00 0.154E+01   0.828E-01 0.137E+00 0.113E+00
   0.137E+02 -.203E+02 -.365E+04   -.140E+02 0.204E+02 0.365E+04   0.360E+00 -.261E+00 0.154E+01   -.494E-01 0.142E+00 0.107E+00
   -.242E+02 -.987E+00 -.365E+04   0.246E+02 0.121E+01 0.365E+04   -.608E+00 -.222E+00 0.125E+01   0.158E+00 0.117E-02 0.123E+00
   0.243E+02 -.990E+00 -.365E+04   -.246E+02 0.121E+01 0.365E+04   0.592E+00 -.222E+00 0.124E+01   -.130E+00 0.284E-02 0.121E+00
   -.118E+02 0.212E+02 -.365E+04   0.116E+02 -.214E+02 0.365E+04   0.243E-02 0.468E+00 0.157E+01   0.991E-01 -.110E+00 0.112E+00
   0.117E+02 0.212E+02 -.365E+04   -.116E+02 -.215E+02 0.365E+04   -.201E-01 0.469E+00 0.157E+01   -.618E-01 -.112E+00 0.116E+00
   0.292E-01 -.776E+00 -.367E+04   -.146E-01 0.814E+00 0.367E+04   0.972E-02 -.300E-01 0.231E+01   -.247E-01 -.131E-01 0.300E+00
   -.568E-01 0.227E+00 -.254E+04   0.575E-01 -.238E+00 0.253E+04   -.195E-02 0.131E-01 0.440E+01   0.453E-03 -.189E-02 -.483E-02
   0.715E+02 0.340E+00 -.397E+03   -.786E+02 -.376E+00 0.401E+03   0.709E+01 0.333E-01 -.465E+01   0.142E-02 0.879E-04 0.145E-01
   -.716E+02 0.416E+00 -.397E+03   0.787E+02 -.460E+00 0.401E+03   -.710E+01 0.407E-01 -.464E+01   -.142E-02 0.113E-03 0.148E-01
   0.171E-01 -.388E+00 -.220E+04   -.296E-01 0.803E+00 0.216E+04   0.190E-01 -.411E+00 0.384E+02   -.434E-02 -.826E-03 0.674E-01
   -.654E-01 0.199E+00 -.115E+02   -.569E-13 -.675E-13 0.455E-11   -.741E-01 -.279E+00 0.220E+02   0.142E+00 0.803E-01 -.104E+02

 POSITION                                       TOTAL-FORCE (eV/Angst)
      0.00000      0.00000      5.37156        -0.000107      0.001909      0.015714
      2.56560      0.00000      5.37156         0.006365      0.020297      0.064206
      5.13119      0.00000      5.37156        -0.006513      0.020172      0.064163
      1.28280      2.22187      5.37156         0.021472     -0.005167      0.064546
      3.84839      2.22187      5.37156         0.000290      0.001106      0.025316
      6.41399      2.22187      5.37156        -0.021498     -0.005228      0.064553
      2.56560      4.44374      5.37156         0.012974     -0.016275      0.064303
      5.13119      4.44374      5.37156        -0.013180     -0.016229      0.064359
      7.69679      4.44374      5.37156        -0.000465     -0.001549      0.012989
      1.28280      0.74062      7.46636         0.027688      0.017200     -0.057056
      3.84839      0.74062      7.46636         0.000326     -0.056617     -0.089247
      6.41399      0.74062      7.46636        -0.027686      0.017153     -0.057104
      2.56560      2.96249      7.46636        -0.043525      0.025777     -0.085605
      5.13119      2.96249      7.46636         0.044387      0.025865     -0.085577
      7.69679      2.96249      7.46636        -0.000017     -0.019129      0.005207
      3.84839      5.18437      7.46636        -0.000052     -0.033630     -0.055972
      6.41399      5.18437      7.46636        -0.018036      0.010813      0.003598
      8.97958      5.18437      7.46636         0.017908      0.010695      0.003510
      7.69679      1.48414      9.55535         0.000034      0.000177     -0.018729
      2.56128      1.47875      9.53998         0.027159      0.012498     -0.064317
      5.13551      1.47875      9.53998        -0.027320      0.012737     -0.064021
      8.97644      3.70493      9.56275         0.021323     -0.012970     -0.017853
      3.84839      3.70811      9.53998         0.000078     -0.029372     -0.050079
      6.41713      3.70493      9.56275        -0.020610     -0.012950     -0.017856
     10.25987      5.92354      9.55535         0.001255      0.000452     -0.010975
      5.13370      5.92354      9.55535        -0.001295      0.000506     -0.010849
      7.69679      5.92136      9.56275         0.000305      0.028974     -0.011140
      0.00000      0.00000     11.63109        -0.000017      0.004168      0.026259
      6.40750      6.66078     11.65531        -0.060790     -0.077015     -0.057357
      8.98608      6.66078     11.65531         0.061555     -0.076756     -0.056984
      8.97216      2.21866     11.65531        -0.095807     -0.002642     -0.055588
      6.42142      2.21866     11.65531         0.096251     -0.002718     -0.055026
     10.26144      4.45178     11.65531        -0.058637      0.082093     -0.059960
      5.13213      4.45178     11.65531         0.059434      0.081967     -0.059997
      7.69679      4.44374     11.63516        -0.000417     -0.004616      0.024545
      3.84839      2.22187     11.61289        -0.000849     -0.000366      0.583353
      3.05358      2.22260     14.48802        -0.001407     -0.002487     -0.009778
      4.64156      2.22176     14.48727        -0.002731     -0.002977     -0.011244
      3.84725      2.22669     13.92976         0.002153      0.004136     -0.024310
    total drift:                                0.002903      0.000414      0.068835

  FREE ENERGIE OF THE ION-ELECTRON SYSTEM (eV)
  free  energy   TOTEN  =      -144.59515405 eV

  energy  without entropy=     -144.59515405  energy(sigma->0) =     -144.59515405

 stress matrix after NEB project (eV)
     -6.58874      0.00503      0.00157
      0.00503     -6.78748      0.01668
      0.00157      0.01668      0.51043
  FORCES: max atom, RMS     0.024753    0.004694
  FORCE total and by dimension    0.029312    0.024310
  Stress total and by dimension    9.473254    6.787480
|           W    W    AA    RRRRR   N    N  II  N    N   GGGG   !!!           |
|           W    W   A  A   R    R  NN   N  II  NN   N  G    G  !!!           |
|           W    W  A    A  R    R  N N  N  II  N N  N  G       !!!           |
|           W WW W  AAAAAA  RRRRR   N  N N  II  N  N N  G  GGG   !            |
|           WW  WW  A    A  R   R   N   NN  II  N   NN  G    G                |
|           W    W  A    A  R    R  N    N  II  N    N   GGGG   !!!           |
|     Tetrahedron method does not include variations of the Fermi             |
|     occupations, so forces and stress will be inaccurate. We suggest        |
|     using a different smearing scheme ISMEAR = 1 or 2 for metals in         |
|     relaxations.                                                            |

 total charge

# of ion       s       p       d       tot
    1        0.448   0.285   9.187   9.920
    2        0.449   0.285   9.186   9.920
    3        0.449   0.285   9.186   9.920
    4        0.450   0.285   9.185   9.920
    5        0.446   0.289   9.180   9.915
    6        0.450   0.285   9.185   9.920
    7        0.449   0.285   9.186   9.920
    8        0.449   0.285   9.186   9.920
    9        0.447   0.283   9.189   9.919
   10        0.442   0.373   9.174   9.989
   11        0.444   0.365   9.184   9.992
   12        0.442   0.373   9.174   9.989
   13        0.444   0.365   9.184   9.992
   14        0.444   0.365   9.184   9.992
   15        0.438   0.369   9.179   9.986
   16        0.442   0.373   9.173   9.989
   17        0.438   0.369   9.179   9.986
   18        0.438   0.369   9.179   9.986
   19        0.442   0.370   9.181   9.994
   20        0.454   0.392   9.164  10.010
   21        0.454   0.392   9.163  10.010
   22        0.432   0.372   9.183   9.987
   23        0.455   0.393   9.163  10.010
   24        0.432   0.372   9.183   9.987
   25        0.442   0.370   9.181   9.993
   26        0.442   0.370   9.181   9.993
   27        0.432   0.372   9.183   9.987
   28        0.449   0.293   9.188   9.930
   29        0.458   0.305   9.178   9.941
   30        0.458   0.305   9.178   9.941
   31        0.460   0.308   9.176   9.944
   32        0.460   0.308   9.176   9.944
   33        0.458   0.305   9.178   9.941
   34        0.458   0.305   9.178   9.941
   35        0.440   0.297   9.189   9.926
   36        0.523   0.492   6.655   7.670
   37        0.615   0.122   0.000   0.737
   38        0.615   0.122   0.000   0.737
   39        1.552   3.638   0.000   5.190
tot         18.941  16.089 327.957 362.987

 BZINTS: Fermi energy:    0.060164;  401.000000 electrons
         Band energy:-0.115596E+04;  BLOECHL correction:   -0.058831