 vasp.6.2.0 18Jan21 (build Jun 12 2021 23:27:24) complex

 executed on             LinuxIFC date 2022.05.26  19:21:38

 INCAR:
   ISMEAR = -5
   SIGMA = 0.1
   ISPIN = 1
   EDIFF = 1.d-5
   EDIFFG = -0.01
   NSW = 0
   NELM = 150
   ENCUT = 500
   ISIF = 2
   IBRION = 2
   LREAL = Auto
   ALGO = Fast
   ICHARG = 11
   LORBIT = 10
   LCHARG = .F.
   LWAVE = .F.

 POTCAR:    PAW_PBE Au 04Oct2007
 POTCAR:    PAW_PBE Co 02Aug2007
 POTCAR:    PAW_PBE N 08Apr2002
|           W    W    AA    RRRRR   N    N  II  N    N   GGGG   !!!           |
|           W    W   A  A   R    R  NN   N  II  NN   N  G    G  !!!           |
|           W    W  A    A  R    R  N N  N  II  N N  N  G       !!!           |
|           W WW W  AAAAAA  RRRRR   N  N N  II  N  N N  G  GGG   !            |
|           WW  WW  A    A  R   R   N   NN  II  N   NN  G    G                |
|           W    W  A    A  R    R  N    N  II  N    N   GGGG   !!!           |
|     For optimal performance we recommend to set                             |
|       NCORE = 2 up to number-of-cores-per-socket                            |
|     This setting can greatly improve the performance of VASP for DFT.       |
|     The default, NCORE=1 might be grossly inefficient on modern             |
|     multi-core architectures or massively parallel machines. Do your        |
|     Unfortunately you need to use the default for GW and RPA                |
|     calculations (for HF NCORE is supported but not extensively tested      |
|     yet).                                                                   |

 POTCAR:    PAW_PBE Au 04Oct2007
   VRHFIN =Au: s1d10

   TITEL  = PAW_PBE Au 04Oct2007
   POMASS =  196.966; ZVAL   =   11.000    mass and valenz
   ENMAX  =  229.943; ENMIN  =  172.457 eV

 POTCAR:    PAW_PBE Co 02Aug2007
   VRHFIN =Co: d8 s1

   TITEL  = PAW_PBE Co 02Aug2007
   POMASS =   58.933; ZVAL   =    9.000    mass and valenz
   ENMAX  =  267.968; ENMIN  =  200.976 eV

 POTCAR:    PAW_PBE N 08Apr2002
   VRHFIN =N: s2p3

   TITEL  = PAW_PBE N 08Apr2002
   POMASS =   14.001; ZVAL   =    5.000    mass and valenz
   ENMAX  =  400.000; ENMIN  =  300.000 eV

 Optimization of the real space projectors (new method)

 maximal supplied QI-value         = 15.12
 optimisation between [QCUT,QGAM] = [ 11.34, 22.83] = [ 36.00,145.93] Ry
 Optimized for a Real-space Cutoff    1.39 Angstroem

   l    n(q)    QCUT    max X(q) W(low)/X(q) W(high)/X(q)  e(spline)
   2      9    11.338    60.898    0.39E-03    0.42E-03    0.21E-06
   2      9    11.338    58.894    0.40E-03    0.42E-03    0.22E-06
   0      9    11.338   109.617    0.13E-03    0.20E-04    0.13E-06
   0      9    11.338    75.026    0.13E-03    0.20E-04    0.13E-06
   1      9    11.338    16.344    0.33E-04    0.24E-03    0.18E-06
   1      9    11.338    10.160    0.26E-04    0.19E-03    0.15E-06
 Optimization of the real space projectors (new method)

[...]

   l    n(q)    QCUT    max X(q) W(low)/X(q) W(high)/X(q)  e(spline)
   2      8    11.376    65.824    0.20E-03    0.32E-04    0.13E-06
   2      8    11.376    61.429    0.20E-03    0.33E-04    0.14E-06
   0      9    11.376    56.174    0.76E-04    0.11E-03    0.19E-06
   0      9    11.376    31.263    0.69E-04    0.99E-04    0.17E-06
   1      9    11.376    19.828    0.35E-03    0.11E-03    0.12E-06
   1      9    11.376    15.139    0.29E-03    0.94E-04    0.10E-06
 Optimization of the real space projectors (new method)

 maximal supplied QI-value         = 25.13
 optimisation between [QCUT,QGAM] = [ 11.31, 22.87] = [ 35.82,146.48] Ry
 Optimized for a Real-space Cutoff    1.27 Angstroem

   l    n(q)    QCUT    max X(q) W(low)/X(q) W(high)/X(q)  e(spline)
   0      9    11.310    79.467    0.75E-04    0.16E-03    0.36E-06
   0      9    11.310    66.151    0.74E-04    0.16E-03    0.36E-06
   1      8    11.310    17.416    0.35E-03    0.12E-03    0.95E-06
   1      8    11.310    12.382    0.37E-03    0.13E-03    0.98E-06
  PAW_PBE Au 04Oct2007                  :
  PAW_PBE Co 02Aug2007                  :
  PAW_PBE N 08Apr2002                   :

 POSCAR: Au-Co-N
  positions in direct lattice
  velocities in cartesian coordinates
 exchange correlation table for  LEXCH =        8
   RHO(1)=    0.500       N(1)  =     2000
   RHO(2)=  100.500       N(2)  =     4000

 VTST: version 3.2, (02/03/18)

 CHAIN: initializing optimizer

 OPT: Using VASP Conjugate-Gradient optimizer
 CHAIN: Read ICHAIN            0

 POSCAR: Au-Co-N
  positions in direct lattice
  velocities in cartesian coordinates

 ion  position               nearest neighbor table
   1  0.000  0.000  0.238-  16 2.94  12 2.94   6 2.94   8 2.94   7 2.94   3 2.94  10 2.94   4 2.94
                             2 2.94
   2  0.333  0.000  0.238-   9 2.94  11 2.94  17 2.94  10 2.94   8 2.94   4 2.94   5 2.94   1 2.94
                             3 2.94
   3  0.667  0.000  0.238-   7 2.94  18 2.94  12 2.94   1 2.94  11 2.94   5 2.94   6 2.94   9 2.94
                             2 2.94
   4  0.000  0.333  0.238-  10 2.94   6 2.94   5 2.94  13 2.94   2 2.94  15 2.94   9 2.94   1 2.94
                             7 2.94
   5  0.333  0.333  0.238-  13 2.94   7 2.94  11 2.94   4 2.94   2 2.94  14 2.94   3 2.94   8 2.94
                             6 2.94
   6  0.667  0.333  0.238-  15 2.94  14 2.94   1 2.94  12 2.94   4 2.94   9 2.94   8 2.94   3 2.94
                             5 2.94
   7  0.000  0.667  0.238-  18 2.94   3 2.94  16 2.94   5 2.94   1 2.94  13 2.94   8 2.94   4 2.94
                             9 2.94
   8  0.333  0.667  0.238-   9 2.94  17 2.94   1 2.94   2 2.94  14 2.94  16 2.94   6 2.94   7 2.94
                             5 2.94
   9  0.667  0.667  0.238-   2 2.94   8 2.94  17 2.94   6 2.94  15 2.94   4 2.94   3 2.94  18 2.94
                             7 2.94
  10  0.111  0.111  0.346-  20 2.92  26 2.93  19 2.93  11 2.94  17 2.94   2 2.94   4 2.94   1 2.94
                            12 2.94  16 2.94  13 2.94  15 2.94
  11  0.444  0.111  0.346-  20 2.91  21 2.91  27 2.93  13 2.94   2 2.94  10 2.94  17 2.94   5 2.94
                             3 2.94  18 2.94  14 2.94  12 2.94
  12  0.778  0.111  0.346-  21 2.92  25 2.93  19 2.93  16 2.94  18 2.94   1 2.94  14 2.94  15 2.94
                             3 2.94   6 2.94  10 2.94  11 2.94
  13  0.111  0.444  0.346-  23 2.91  20 2.91  22 2.93   5 2.94  18 2.94  11 2.94   7 2.94   4 2.94
                            16 2.94  10 2.94  14 2.94  15 2.94
  14  0.444  0.444  0.346-  21 2.91  23 2.91  24 2.93  15 2.94   6 2.94  12 2.94   8 2.94  17 2.94
                             5 2.94  16 2.94  13 2.94  11 2.94
  15  0.778  0.444  0.346-  24 2.92  22 2.92  19 2.93  14 2.94   6 2.94  17 2.94  12 2.94   9 2.94
                             4 2.94  10 2.94  13 2.94  18 2.94
  16  0.111  0.778  0.346-  23 2.92  25 2.93  26 2.93  18 2.94  12 2.94   7 2.94   1 2.94   8 2.94
                            13 2.94  10 2.94  14 2.94  17 2.94
  17  0.444  0.778  0.346-  27 2.92  24 2.92  26 2.93   9 2.94  15 2.94   2 2.94  10 2.94  11 2.94
                             8 2.94  14 2.94  16 2.94  18 2.94
  18  0.778  0.778  0.346-  22 2.92  27 2.92  25 2.93  16 2.94   7 2.94  13 2.94  12 2.94   3 2.94
                            11 2.94   9 2.94  15 2.94  17 2.94
  19  0.889  0.222  0.454-  10 2.93  12 2.93  15 2.93  26 2.94  25 2.94  24 2.94  22 2.94  28 2.94
                            21 2.95  20 2.95  32 2.96  31 2.96
  20  0.223  0.223  0.453-  36 2.69  29 2.91  31 2.91  11 2.91  13 2.91  23 2.91  21 2.91  10 2.92
                            27 2.95  22 2.95  26 2.95  19 2.95
  21  0.554  0.223  0.453-  36 2.69  30 2.91  32 2.91  14 2.91  11 2.91  20 2.91  23 2.91  12 2.92
                            27 2.95  24 2.95  25 2.95  19 2.95
  22  0.887  0.557  0.453-  24 2.91  27 2.91  18 2.92  15 2.92  13 2.93  25 2.94  19 2.94  33 2.94
                            31 2.94  23 2.95  20 2.95  35 2.96
  23  0.223  0.554  0.453-  36 2.69  33 2.91  34 2.91  13 2.91  14 2.91  20 2.91  21 2.91  16 2.92
                            22 2.95  24 2.95  25 2.95  26 2.95
  24  0.557  0.557  0.453-  27 2.91  22 2.91  15 2.92  17 2.92  14 2.93  26 2.94  19 2.94  32 2.94
                            34 2.94  21 2.95  23 2.95  35 2.96
  25  0.889  0.889  0.454-  16 2.93  12 2.93  18 2.93  19 2.94  26 2.94  22 2.94  27 2.94  28 2.94
                            23 2.95  21 2.95  33 2.96  30 2.96
  26  0.222  0.889  0.454-  10 2.93  16 2.93  17 2.93  19 2.94  25 2.94  27 2.94  24 2.94  28 2.94
                            20 2.95  23 2.95  29 2.96  34 2.96
  27  0.557  0.887  0.453-  24 2.91  22 2.91  17 2.92  18 2.92  11 2.93  26 2.94  25 2.94  29 2.94
                            30 2.94  20 2.95  21 2.95  35 2.96
  28  0.000  0.000  0.562-  25 2.94  19 2.94  26 2.94  34 2.98  32 2.98  33 2.98  30 2.98  31 2.98
                            29 2.98
  29  0.334  0.008  0.561-  30 2.86  31 2.87  36 2.88  20 2.91  27 2.94  26 2.96  35 2.98  28 2.98
                            34 3.09
  30  0.658  0.008  0.561-  29 2.86  32 2.87  36 2.88  21 2.91  27 2.94  25 2.96  35 2.98  28 2.98
                            33 3.09
  31  0.008  0.334  0.561-  33 2.86  29 2.87  36 2.88  20 2.91  22 2.94  19 2.96  35 2.98  28 2.98
                            32 3.09
  32  0.658  0.334  0.561-  34 2.86  30 2.87  36 2.88  21 2.91  24 2.94  19 2.96  35 2.98  28 2.98
                            31 3.09
  33  0.008  0.658  0.561-  31 2.86  34 2.87  36 2.88  23 2.91  22 2.94  25 2.96  35 2.98  28 2.98
                            30 3.09
  34  0.334  0.658  0.561-  32 2.86  33 2.87  36 2.88  23 2.91  24 2.94  26 2.96  35 2.98  28 2.98
                            29 3.09
  35  0.667  0.667  0.563-  24 2.96  27 2.96  22 2.96  29 2.98  34 2.98  32 2.98  31 2.98  30 2.98
                            33 2.98
  36  0.333  0.333  0.547-  37 1.57  20 2.69  23 2.69  21 2.69  33 2.88  31 2.88  29 2.88  30 2.88
                            34 2.88  32 2.88
  37  0.333  0.333  0.618-  36 1.57

  LATTYP: Found a hexagonal cell.
 ALAT       =     8.8135128021
 C/A-ratio  =     2.5184286595

  Lattice vectors:

 A1 = (  -4.4067569092,  -7.6327256898,   0.0000000000)
 A2 = (   8.8135128021,   0.0000000000,   0.0000000000)
 A3 = (   0.0000000000,   0.0000000000,  22.1962032318)

Analysis of symmetry for initial positions (statically):
 Subroutine PRICEL returns:
 Original cell was already a primitive cell.

 Routine SETGRP: Setting up the symmetry group for a
 hexagonal supercell.

 Subroutine GETGRP returns: Found  6 space group operations
 (whereof  6 operations were pure point group operations)
 out of a pool of 24 trial point group operations.

The static configuration has the point symmetry C_3v.

Analysis of symmetry for dynamics (positions and initial velocities):
 Subroutine PRICEL returns:
 Original cell was already a primitive cell.

[...]

The dynamic configuration has the point symmetry C_3v.

Analysis of constrained symmetry for selective dynamics:
 Subroutine PRICEL returns:
 Original cell was already a primitive cell.

 Routine SETGRP: Setting up the symmetry group for a
 hexagonal supercell.

 Subroutine GETGRP returns: Found  6 space group operations
[...]
     24      -5.0912      2.00000
     25      -5.0620      2.00000
     26      -5.0496      2.00000
     27      -5.0048      2.00000
     28      -4.9289      2.00000
     29      -4.8906      2.00000
     30      -4.7816      2.00000
     31      -4.7733      2.00000
     32      -4.7614      2.00000
     33      -4.7564      2.00000
     34      -4.7443      2.00000
     35      -4.6721      2.00000
     36      -4.5859      2.00000
     37      -4.5754      2.00000
     38      -4.5648      2.00000
     39      -4.5450      2.00000
     40      -4.4907      2.00000
     41      -4.4128      2.00000
     42      -4.3873      2.00000
     43      -4.3592      2.00000
     44      -4.3072      2.00000
     45      -4.3048      2.00000
     46      -4.2795      2.00000
     47      -4.1859      2.00000
     48      -4.1780      2.00000
     49      -4.1354      2.00000
     50      -4.1266      2.00000
     51      -4.1223      2.00000
     52      -4.1021      2.00000
     53      -4.0925      2.00000
     54      -4.0642      2.00000
     55      -4.0354      2.00000
     56      -3.9917      2.00000
     57      -3.9788      2.00000
     58      -3.9538      2.00000
     59      -3.9453      2.00000
     60      -3.9370      2.00000
[...]
    238       6.4604      0.00000
    239       6.4727      0.00000
    240       6.5373      0.00000
    241       6.5743      0.00000
    242       6.8014      0.00000
    243       6.8143      0.00000
    244       6.8409      0.00000
    245       6.8737      0.00000
    246       7.1606      0.00000
    247       7.1981      0.00000
    248       7.3182      0.00000
    249       7.5098      0.00000
    250       7.6405      0.00000
    251       7.7563      0.00000
    252       7.7769      0.00000

 soft charge-density along one line, spin component           1
         0         1         2         3         4         5         6         7         8         9
 total charge-density along one line

------------------------ aborting loop because EDIFF is reached ----------------------------------------

 total charge

# of ion       s       p       d       tot
    1        0.544   0.239   8.767   9.550
    2        0.543   0.241   8.765   9.549
    3        0.543   0.241   8.765   9.549
    4        0.543   0.241   8.765   9.549
    5        0.544   0.240   8.765   9.549
    6        0.543   0.241   8.765   9.549
    7        0.543   0.241   8.765   9.549
    8        0.543   0.241   8.765   9.549
    9        0.541   0.241   8.764   9.545
   10        0.522   0.308   8.772   9.602
   11        0.516   0.312   8.774   9.602
   12        0.522   0.308   8.772   9.602
   13        0.516   0.312   8.774   9.602
   14        0.516   0.312   8.774   9.602
   15        0.517   0.310   8.775   9.601
   16        0.522   0.308   8.772   9.602
   17        0.517   0.310   8.775   9.601
   18        0.517   0.310   8.775   9.601
   19        0.516   0.303   8.772   9.592
   20        0.541   0.330   8.756   9.627
   21        0.541   0.330   8.756   9.627
   22        0.514   0.310   8.774   9.598
   23        0.541   0.330   8.756   9.627
   24        0.514   0.310   8.774   9.598
   25        0.516   0.303   8.772   9.592
   26        0.516   0.303   8.772   9.592
   27        0.514   0.310   8.774   9.598
   28        0.540   0.223   8.771   9.535
   29        0.533   0.237   8.771   9.541
   30        0.533   0.237   8.771   9.541
   31        0.533   0.237   8.771   9.541
   32        0.533   0.237   8.771   9.541
   33        0.533   0.237   8.771   9.541
   34        0.533   0.237   8.771   9.541
   35        0.537   0.222   8.772   9.531
   36        0.470   0.572   7.471   8.514
   37        1.368   2.116   0.000   3.484
tot         20.374  12.342 314.393 347.109

  FORCE on cell =-STRESS in cart. coord.  units (eV):
  Direction    XX          YY          ZZ          XY          YZ          ZX
  Alpha Z  1008.68938  1008.68938  1008.68938
  Ewald  120836.44299120836.44344************    -0.00031    -0.00008    -0.00012
  Hartree129638.74879129638.74881************     0.00001    -0.00003    -0.00003
  E(xc)   -1794.40522 -1794.40517 -1800.73341    -0.00004     0.00000     0.00000
  Local  ************************262874.46223     0.00202     0.00002    -0.00001
  n-local   -93.24618   -47.88791   -46.41710    22.79144    -1.42377     1.52747
  augment  2529.98308  2529.98465  2523.88663    -0.00137     0.00002     0.00009
  Kinetic  5519.67799  5524.88482  5551.98555     3.79261     0.56869     0.18353
  Fock        0.00000     0.00000     0.00000     0.00000     0.00000     0.00000
  Total     -19.37213   -19.37213     2.17855    -0.00000     0.00000     0.00000
  in kB     -20.78646   -20.78646     2.33761    -0.00000     0.00000     0.00000

 VOLUME and BASIS-vectors are now :
  energy-cutoff  :      500.00
  volume of cell :     1493.16
      direct lattice vectors                 reciprocal lattice vectors
     8.813512802  0.000000000  0.000000000     0.113462137 -0.065507406  0.000000000
     4.406756909  7.632725690  0.000000000     0.000000000  0.131014796  0.000000000
     0.000000000  0.000000000 22.196203232     0.000000000  0.000000000  0.045052750

  length of vectors
     8.813512802  8.813512802 22.196203232     0.131014796  0.131014796  0.045052750

 FORCES acting on ions
    electron-ion (+dipol)            ewald-force                    non-local-force                 convergence-correction
   -.196E-04 -.162E-04 0.250E+04   0.519E-04 0.434E-04 -.250E+04   0.435E-18 0.185E-17 -.607E+00   -.175E-03 -.113E-03 -.442E+00
   0.617E+00 0.626E+00 0.250E+04   -.680E+00 -.552E+00 -.250E+04   0.219E-01 0.203E-01 -.356E+00   0.415E-01 -.862E-01 -.405E+00
   -.617E+00 0.626E+00 0.250E+04   0.680E+00 -.552E+00 -.250E+04   -.219E-01 0.203E-01 -.356E+00   -.412E-01 -.843E-01 -.404E+00
   0.850E+00 0.222E+00 0.250E+04   -.818E+00 -.313E+00 -.250E+04   0.285E-01 0.876E-02 -.356E+00   -.539E-01 0.790E-01 -.405E+00
   0.903E-05 -.230E-04 0.250E+04   0.951E-04 0.173E-05 -.250E+04   -.707E-18 0.275E-18 -.434E+00   0.427E-02 0.263E-02 -.349E+00
   -.850E+00 0.222E+00 0.250E+04   0.818E+00 -.313E+00 -.250E+04   -.285E-01 0.876E-02 -.356E+00   0.524E-01 0.800E-01 -.404E+00
   0.233E+00 -.847E+00 0.250E+04   -.138E+00 0.865E+00 -.250E+04   0.668E-02 -.291E-01 -.356E+00   -.936E-01 0.639E-02 -.404E+00
   -.233E+00 -.847E+00 0.250E+04   0.138E+00 0.865E+00 -.250E+04   -.668E-02 -.291E-01 -.356E+00   0.955E-01 0.532E-02 -.404E+00
   0.195E-04 -.415E-04 0.250E+04   0.166E-03 -.201E-04 -.250E+04   0.466E-17 0.107E-17 -.411E+00   -.464E-02 -.244E-02 -.461E+00
   0.527E+01 0.304E+01 0.852E+03   -.517E+01 -.299E+01 -.851E+03   -.157E+00 -.904E-01 -.550E+00   0.403E-01 0.235E-01 -.144E+00
   0.149E-04 0.688E+01 0.863E+03   0.147E-03 -.702E+01 -.862E+03   0.565E-08 0.849E-01 -.339E+00   0.365E-02 0.739E-02 -.210E+00
   -.527E+01 0.304E+01 0.852E+03   0.517E+01 -.299E+01 -.851E+03   0.157E+00 -.904E-01 -.550E+00   -.416E-01 0.247E-01 -.145E+00
   0.596E+01 -.344E+01 0.863E+03   -.608E+01 0.351E+01 -.862E+03   0.735E-01 -.425E-01 -.339E+00   0.830E-02 -.202E-03 -.210E+00
   -.596E+01 -.344E+01 0.863E+03   0.608E+01 0.351E+01 -.862E+03   -.735E-01 -.425E-01 -.339E+00   -.665E-03 -.477E-03 -.210E+00
   0.307E-04 0.275E+01 0.854E+03   0.237E-03 -.282E+01 -.854E+03   -.176E-08 -.265E-01 -.409E+00   -.217E-02 0.612E-01 -.170E+00
   -.217E-04 -.609E+01 0.852E+03   0.163E-03 0.597E+01 -.851E+03   0.120E-07 0.181E+00 -.550E+00   0.341E-03 -.484E-01 -.145E+00
   0.238E+01 -.137E+01 0.854E+03   -.244E+01 0.141E+01 -.854E+03   -.230E-01 0.133E-01 -.409E+00   0.522E-01 -.324E-01 -.171E+00
   -.238E+01 -.137E+01 0.854E+03   0.244E+01 0.141E+01 -.854E+03   0.230E-01 0.133E-01 -.409E+00   -.523E-01 -.306E-01 -.171E+00
   -.400E-04 0.303E+01 -.832E+03   0.533E-04 -.302E+01 0.831E+03   0.254E-08 0.382E-01 0.533E+00   0.345E-02 -.319E-01 0.206E+00
   0.387E+02 0.223E+02 -.774E+03   -.377E+02 -.218E+02 0.774E+03   -.829E+00 -.479E+00 -.421E+00   -.113E+00 -.645E-01 0.701E-01
   -.387E+02 0.223E+02 -.774E+03   0.377E+02 -.218E+02 0.774E+03   0.829E+00 -.479E+00 -.421E+00   0.112E+00 -.625E-01 0.699E-01
   0.117E+02 -.673E+01 -.816E+03   -.118E+02 0.683E+01 0.816E+03   0.269E+00 -.155E+00 0.633E+00   -.783E-01 0.393E-01 0.172E+00
   -.120E-04 -.446E+02 -.774E+03   0.144E-03 0.436E+02 0.774E+03   0.638E-07 0.958E+00 -.421E+00   0.168E-02 0.129E+00 0.700E-01
   -.117E+02 -.673E+01 -.816E+03   0.118E+02 0.683E+01 0.816E+03   -.269E+00 -.155E+00 0.633E+00   0.713E-01 0.405E-01 0.172E+00
   -.262E+01 -.151E+01 -.832E+03   0.261E+01 0.151E+01 0.831E+03   -.331E-01 -.191E-01 0.533E+00   0.348E-01 0.193E-01 0.205E+00
   0.262E+01 -.151E+01 -.832E+03   -.261E+01 0.151E+01 0.831E+03   0.331E-01 -.191E-01 0.533E+00   -.329E-01 0.186E-01 0.206E+00
   0.115E-04 0.135E+02 -.816E+03   0.196E-03 -.137E+02 0.816E+03   0.207E-07 0.311E+00 0.633E+00   -.451E-02 -.877E-01 0.172E+00
   -.127E-04 -.139E-04 -.248E+04   0.298E-04 0.346E-04 0.248E+04   -.497E-17 -.436E-18 0.626E+00   0.354E-03 -.157E-04 0.349E+00
   0.385E+02 0.644E+02 -.246E+04   -.384E+02 -.642E+02 0.246E+04   -.199E+00 -.266E+00 0.785E+00   -.651E-01 -.166E+00 0.381E+00
   -.385E+02 0.644E+02 -.246E+04   0.384E+02 -.642E+02 0.246E+04   0.199E+00 -.266E+00 0.785E+00   0.650E-01 -.164E+00 0.382E+00
   0.750E+02 0.120E+01 -.246E+04   -.748E+02 -.119E+01 0.246E+04   -.330E+00 -.394E-01 0.785E+00   -.177E+00 0.268E-01 0.381E+00
   -.750E+02 0.120E+01 -.246E+04   0.748E+02 -.119E+01 0.246E+04   0.330E+00 -.394E-01 0.785E+00   0.175E+00 0.282E-01 0.381E+00
   0.365E+02 -.656E+02 -.246E+04   -.364E+02 0.654E+02 0.246E+04   -.131E+00 0.306E+00 0.785E+00   -.110E+00 0.138E+00 0.382E+00
   -.365E+02 -.656E+02 -.246E+04   0.364E+02 0.654E+02 0.246E+04   0.131E+00 0.306E+00 0.785E+00   0.112E+00 0.138E+00 0.381E+00
   0.342E-04 -.280E-04 -.249E+04   0.142E-03 -.501E-04 0.249E+04   0.391E-17 -.700E-17 0.535E+00   -.473E-02 -.272E-02 0.403E+00
   -.179E-04 -.100E-04 -.170E+04   0.951E-04 0.891E-05 0.169E+04   0.384E-17 0.341E-17 0.297E+01   0.642E-02 0.405E-02 0.349E+00
   0.106E-03 -.566E-04 -.146E+04   0.247E-04 0.158E-05 0.148E+04   0.161E-17 0.618E-18 -.202E+02   0.189E-02 0.118E-02 0.304E+00
   -.637E-03 -.821E-03 0.172E+02   -.157E-13 -.313E-13 0.500E-11   -.102E-15 0.108E-15 -.166E+02   0.791E-02 0.822E-02 -.220E+00

 POSITION                                       TOTAL-FORCE (eV/Angst)
      0.00000      0.00000      5.28038         0.000000      0.000000     -0.080804
      2.93784      0.00000      5.28038         0.001121      0.008909     -0.042359
      5.87568      0.00000      5.28038        -0.001121      0.008909     -0.042359
      1.46892      2.54424      5.28038         0.008276     -0.003484     -0.042359
      4.40676      2.54424      5.28038         0.000000     -0.000000     -0.070591
      7.34459      2.54424      5.28038        -0.008276     -0.003484     -0.042359
      2.93784      5.08848      5.28038         0.007155     -0.005425     -0.042359
      5.87568      5.08848      5.28038        -0.007155     -0.005425     -0.042359
      8.81351      5.08848      5.28038         0.000000     -0.000000     -0.049540
      1.46892      0.84808      7.67911        -0.013206     -0.007624      0.127011
      4.40676      0.84808      7.67911        -0.000000     -0.051133      0.051557
      7.34459      0.84808      7.67911         0.013206     -0.007624      0.127011
      2.93784      3.39232      7.67911        -0.044282      0.025566      0.051557
      5.87568      3.39232      7.67911         0.044282      0.025566      0.051557
      8.81351      3.39232      7.67911        -0.000000     -0.034231      0.082538
      4.40676      5.93656      7.67911         0.000000      0.015249      0.127011
      7.34459      5.93656      7.67911        -0.029645      0.017115      0.082538
     10.28243      5.93656      7.67911         0.029645      0.017115      0.082538
      8.81351      1.69524     10.07173         0.000000      0.013434      0.002286
      2.95099      1.70376     10.05075        -0.008931     -0.005156     -0.125174
      5.86252      1.70376     10.05075         0.008931     -0.005156     -0.125174
     10.26977      4.24772     10.05674         0.023481     -0.013557     -0.009969
      4.40676      4.22522     10.05075         0.000000      0.010313     -0.125174
      7.35726      4.24772     10.05674        -0.023481     -0.013557     -0.009969
     11.75215      6.78511     10.07173        -0.011634     -0.006717      0.002286
      5.87488      6.78511     10.07173         0.011634     -0.006717      0.002286
      8.81351      6.77002     10.05674         0.000000      0.027114     -0.009969
      0.00000      0.00000     12.47665         0.000000      0.000000     -0.017543
      2.97645      0.06424     12.45579        -0.157621     -0.264695     -0.084336
      5.83706      0.06424     12.45579         0.157621     -0.264695     -0.084336
      1.54386      2.54556     12.45579        -0.308043     -0.004156     -0.084336
      7.26966      2.54556     12.45579         0.308043     -0.004156     -0.084336
      2.97417      5.02293     12.45579        -0.150422      0.268851     -0.084336
      5.83935      5.02293     12.45579         0.150422      0.268851     -0.084336
      8.81351      5.08848     12.49078         0.000000     -0.000000     -0.029218
      4.40676      2.54424     12.15093         0.000000     -0.000000      0.632958
      4.40676      2.54424     13.71659         0.000000     -0.000000     -0.009840
    total drift:                                0.007273      0.007400      0.459166

  FREE ENERGIE OF THE ION-ELECTRON SYSTEM (eV)
  free  energy   TOTEN  =      -119.03591150 eV

  energy  without entropy=     -119.03591150  energy(sigma->0) =     -119.03591150

 stress matrix after NEB project (eV)
    -19.37213     -0.00000      0.00000
     -0.00000    -19.37213      0.00000
     -0.00000      0.00000      2.17855
  FORCES: max atom, RMS     0.009840    0.001618
  FORCE total and by dimension    0.009840    0.009840
  Stress total and by dimension   27.482810   19.372130
|           W    W    AA    RRRRR   N    N  II  N    N   GGGG   !!!           |
|           W    W   A  A   R    R  NN   N  II  NN   N  G    G  !!!           |
|           W    W  A    A  R    R  N N  N  II  N N  N  G       !!!           |
|           W WW W  AAAAAA  RRRRR   N  N N  II  N  N N  G  GGG   !            |
|           WW  WW  A    A  R   R   N   NN  II  N   NN  G    G                |
|           W    W  A    A  R    R  N    N  II  N    N   GGGG   !!!           |
|     Tetrahedron method does not include variations of the Fermi             |
|     occupations, so forces and stress will be inaccurate. We suggest        |
|     using a different smearing scheme ISMEAR = 1 or 2 for metals in         |
|     relaxations.                                                            |

 total charge

# of ion       s       p       d       tot
    1        0.544   0.239   8.767   9.550
    2        0.543   0.241   8.765   9.549
    3        0.543   0.241   8.765   9.549
    4        0.543   0.241   8.765   9.549
    5        0.544   0.240   8.765   9.549
    6        0.543   0.241   8.765   9.549
    7        0.543   0.241   8.765   9.549
    8        0.543   0.241   8.765   9.549
    9        0.541   0.241   8.764   9.545
   10        0.522   0.308   8.772   9.602
   11        0.516   0.312   8.774   9.602
   12        0.522   0.308   8.772   9.602
   13        0.516   0.312   8.774   9.602
   14        0.516   0.312   8.774   9.602
   15        0.517   0.310   8.775   9.601
   16        0.522   0.308   8.772   9.602
   17        0.517   0.310   8.775   9.601
   18        0.517   0.310   8.775   9.601
   19        0.516   0.303   8.772   9.592
   20        0.541   0.330   8.756   9.627
   21        0.541   0.330   8.756   9.627
   22        0.514   0.310   8.774   9.598
   23        0.541   0.330   8.756   9.627
   24        0.514   0.310   8.774   9.598
   25        0.516   0.303   8.772   9.592
   26        0.516   0.303   8.772   9.592
   27        0.514   0.310   8.774   9.598
   28        0.540   0.223   8.771   9.535
   29        0.533   0.237   8.771   9.541
   30        0.533   0.237   8.771   9.541
   31        0.533   0.237   8.771   9.541
   32        0.533   0.237   8.771   9.541
   33        0.533   0.237   8.771   9.541
   34        0.533   0.237   8.771   9.541
   35        0.537   0.222   8.772   9.531
   36        0.470   0.572   7.471   8.514
   37        1.368   2.116   0.000   3.484
tot         20.374  12.342 314.393 347.109

 BZINTS: Fermi energy:    0.675264;  399.000000 electrons
         Band energy:-0.122088E+04;  BLOECHL correction:   -0.081789