 vasp.6.2.0 18Jan21 (build Jun 12 2021 23:27:24) complex

 executed on             LinuxIFC date 2022.05.26  19:32:03

 INCAR:
   ISMEAR = -5
   SIGMA = 0.1
   ISPIN = 1
   EDIFF = 1.d-5
   EDIFFG = -0.01
   NSW = 0
   NELM = 150
   ENCUT = 500
   ISIF = 2
   IBRION = 2
   LREAL = Auto
   ALGO = Fast
   ICHARG = 11
   LORBIT = 10
   LCHARG = .F.
   LWAVE = .F.

 POTCAR:    PAW_PBE Au 04Oct2007
 POTCAR:    PAW_PBE W 08Apr2002
 POTCAR:    PAW_PBE N 08Apr2002
|           W    W    AA    RRRRR   N    N  II  N    N   GGGG   !!!           |
|           W    W   A  A   R    R  NN   N  II  NN   N  G    G  !!!           |
|           W    W  A    A  R    R  N N  N  II  N N  N  G       !!!           |
|           W WW W  AAAAAA  RRRRR   N  N N  II  N  N N  G  GGG   !            |
|           WW  WW  A    A  R   R   N   NN  II  N   NN  G    G                |
|           W    W  A    A  R    R  N    N  II  N    N   GGGG   !!!           |
|     For optimal performance we recommend to set                             |
|       NCORE = 2 up to number-of-cores-per-socket                            |
|     This setting can greatly improve the performance of VASP for DFT.       |
|     The default, NCORE=1 might be grossly inefficient on modern             |
|     multi-core architectures or massively parallel machines. Do your        |
|     Unfortunately you need to use the default for GW and RPA                |
|     calculations (for HF NCORE is supported but not extensively tested      |
|     yet).                                                                   |

 POTCAR:    PAW_PBE Au 04Oct2007
   VRHFIN =Au: s1d10

   TITEL  = PAW_PBE Au 04Oct2007
   POMASS =  196.966; ZVAL   =   11.000    mass and valenz
   ENMAX  =  229.943; ENMIN  =  172.457 eV

 POTCAR:    PAW_PBE W 08Apr2002
   VRHFIN =W : 6s5d

   TITEL  = PAW_PBE W 08Apr2002
   POMASS =  183.850; ZVAL   =    6.000    mass and valenz
   ENMAX  =  223.057; ENMIN  =  167.293 eV

 POTCAR:    PAW_PBE N 08Apr2002
   VRHFIN =N: s2p3

   TITEL  = PAW_PBE N 08Apr2002
   POMASS =   14.001; ZVAL   =    5.000    mass and valenz
   ENMAX  =  400.000; ENMIN  =  300.000 eV

 Optimization of the real space projectors (new method)

 maximal supplied QI-value         = 15.12
 optimisation between [QCUT,QGAM] = [ 11.34, 22.83] = [ 36.00,145.93] Ry
 Optimized for a Real-space Cutoff    1.39 Angstroem

   l    n(q)    QCUT    max X(q) W(low)/X(q) W(high)/X(q)  e(spline)
   2      9    11.338    60.898    0.39E-03    0.42E-03    0.21E-06
   2      9    11.338    58.894    0.40E-03    0.42E-03    0.22E-06
   0      9    11.338   109.617    0.13E-03    0.20E-04    0.13E-06
   0      9    11.338    75.026    0.13E-03    0.20E-04    0.13E-06
   1      9    11.338    16.344    0.33E-04    0.24E-03    0.18E-06
   1      9    11.338    10.160    0.26E-04    0.19E-03    0.15E-06
 Optimization of the real space projectors (new method)

[...]

   l    n(q)    QCUT    max X(q) W(low)/X(q) W(high)/X(q)  e(spline)
   2     10    11.429   130.855    0.22E-03    0.64E-03    0.11E-05
   2     10    11.429   114.007    0.22E-03    0.64E-03    0.11E-05
   0     11    11.429    84.709    0.39E-04    0.67E-04    0.23E-06
   0     11    11.429    49.163    0.35E-04    0.62E-04    0.21E-06
   1     10    11.429    15.765    0.84E-04    0.15E-03    0.24E-06
   1     10    11.429    10.638    0.58E-04    0.12E-03    0.19E-06
 Optimization of the real space projectors (new method)

 maximal supplied QI-value         = 25.13
 optimisation between [QCUT,QGAM] = [ 11.31, 22.87] = [ 35.82,146.48] Ry
 Optimized for a Real-space Cutoff    1.27 Angstroem

   l    n(q)    QCUT    max X(q) W(low)/X(q) W(high)/X(q)  e(spline)
   0      9    11.310    79.467    0.75E-04    0.16E-03    0.36E-06
   0      9    11.310    66.151    0.74E-04    0.16E-03    0.36E-06
   1      8    11.310    17.416    0.35E-03    0.12E-03    0.95E-06
   1      8    11.310    12.382    0.37E-03    0.13E-03    0.98E-06
  PAW_PBE Au 04Oct2007                  :
  PAW_PBE W 08Apr2002                   :
  PAW_PBE N 08Apr2002                   :

 POSCAR: Au-W-N
  positions in direct lattice
  velocities in cartesian coordinates
 exchange correlation table for  LEXCH =        8
   RHO(1)=    0.500       N(1)  =     2000
   RHO(2)=  100.500       N(2)  =     4000

 VTST: version 3.2, (02/03/18)

 CHAIN: initializing optimizer

 OPT: Using VASP Conjugate-Gradient optimizer
 CHAIN: Read ICHAIN            0

 POSCAR: Au-W-N
  positions in direct lattice
  velocities in cartesian coordinates

 ion  position               nearest neighbor table
   1  0.000  0.000  0.238-  16 2.94  12 2.94   6 2.94   8 2.94   7 2.94   3 2.94  10 2.94   4 2.94
                             2 2.94
   2  0.333  0.000  0.238-   9 2.94  11 2.94  17 2.94  10 2.94   8 2.94   4 2.94   5 2.94   1 2.94
                             3 2.94
   3  0.667  0.000  0.238-   7 2.94  18 2.94  12 2.94   1 2.94  11 2.94   5 2.94   6 2.94   9 2.94
                             2 2.94
   4  0.000  0.333  0.238-  10 2.94   6 2.94   5 2.94  13 2.94   2 2.94  15 2.94   9 2.94   1 2.94
                             7 2.94
   5  0.333  0.333  0.238-  13 2.94   7 2.94  11 2.94   4 2.94   2 2.94  14 2.94   3 2.94   8 2.94
                             6 2.94
   6  0.667  0.333  0.238-  15 2.94  14 2.94   1 2.94  12 2.94   4 2.94   9 2.94   8 2.94   3 2.94
                             5 2.94
   7  0.000  0.667  0.238-  18 2.94   3 2.94  16 2.94   5 2.94   1 2.94  13 2.94   8 2.94   4 2.94
                             9 2.94
   8  0.333  0.667  0.238-   9 2.94  17 2.94   1 2.94   2 2.94  14 2.94  16 2.94   6 2.94   7 2.94
                             5 2.94
   9  0.667  0.667  0.238-   2 2.94   8 2.94  17 2.94   6 2.94  15 2.94   4 2.94   3 2.94  18 2.94
                             7 2.94
  10  0.111  0.111  0.346-  20 2.90  11 2.94  17 2.94   2 2.94   4 2.94   1 2.94  12 2.94  16 2.94
                            13 2.94  15 2.94  26 2.96  19 2.96
  11  0.444  0.111  0.346-  20 2.91  21 2.91  13 2.94   2 2.94  10 2.94  17 2.94   5 2.94   3 2.94
                            18 2.94  14 2.94  12 2.94  27 2.94
  12  0.778  0.111  0.346-  21 2.90  16 2.94  18 2.94   1 2.94  14 2.94  15 2.94   3 2.94   6 2.94
                            10 2.94  11 2.94  25 2.96  19 2.96
  13  0.111  0.444  0.346-  23 2.91  20 2.91   5 2.94  18 2.94  11 2.94   7 2.94   4 2.94  16 2.94
                            10 2.94  14 2.94  15 2.94  22 2.94
  14  0.444  0.444  0.346-  21 2.91  23 2.91  15 2.94   6 2.94  12 2.94   8 2.94  17 2.94   5 2.94
                            16 2.94  13 2.94  11 2.94  24 2.94
  15  0.778  0.444  0.346-  24 2.92  22 2.92  14 2.94   6 2.94  17 2.94  12 2.94   9 2.94   4 2.94
                            10 2.94  13 2.94  18 2.94  19 2.95
  16  0.111  0.778  0.346-  23 2.90  18 2.94  12 2.94   7 2.94   1 2.94   8 2.94  13 2.94  10 2.94
                            14 2.94  17 2.94  25 2.96  26 2.96
  17  0.444  0.778  0.346-  27 2.92  24 2.92   9 2.94  15 2.94   2 2.94  10 2.94  11 2.94   8 2.94
                            14 2.94  16 2.94  18 2.94  26 2.95
  18  0.778  0.778  0.346-  22 2.92  27 2.92  16 2.94   7 2.94  13 2.94  12 2.94   3 2.94  11 2.94
                             9 2.94  15 2.94  17 2.94  25 2.95
  19  0.888  0.224  0.455-  24 2.93  22 2.93  21 2.93  20 2.93  28 2.94  15 2.95  26 2.96  25 2.96
                            10 2.96  12 2.96  32 3.04  31 3.04
  20  0.222  0.222  0.452-  36 2.74  10 2.90  11 2.91  13 2.91  26 2.93  19 2.93  23 2.95  21 2.95
                            27 2.96  22 2.96  29 2.98  31 2.98
  21  0.557  0.222  0.452-  36 2.74  12 2.90  14 2.91  11 2.91  25 2.93  19 2.93  20 2.95  23 2.95
                            27 2.96  24 2.96  30 2.98  32 2.98
  22  0.886  0.557  0.454-  24 2.90  27 2.90  18 2.92  15 2.92  25 2.93  19 2.93  13 2.94  35 2.95
                            23 2.96  20 2.96  33 3.02  31 3.02
  23  0.222  0.557  0.452-  36 2.74  16 2.90  13 2.91  14 2.91  25 2.93  26 2.93  20 2.95  21 2.95
                            22 2.96  24 2.96  33 2.98  34 2.98
  24  0.557  0.557  0.454-  27 2.90  22 2.90  15 2.92  17 2.92  26 2.93  19 2.93  14 2.94  35 2.95
                            21 2.96  23 2.96  32 3.02  34 3.02
  25  0.888  0.888  0.455-  22 2.93  27 2.93  23 2.93  21 2.93  28 2.94  18 2.95  19 2.96  26 2.96
                            16 2.96  12 2.96  33 3.04  30 3.04
  26  0.224  0.888  0.455-  27 2.93  24 2.93  20 2.93  23 2.93  28 2.94  17 2.95  19 2.96  25 2.96
                            10 2.96  16 2.96  29 3.04  34 3.04
  27  0.557  0.886  0.454-  24 2.90  22 2.90  17 2.92  18 2.92  26 2.93  25 2.93  11 2.94  35 2.95
                            20 2.96  21 2.96  29 3.02  30 3.02
  28  0.000  0.000  0.563-  25 2.94  19 2.94  26 2.94  34 3.00  32 3.00  33 3.00  30 3.00  31 3.00
                            29 3.00
  29  0.334  0.013  0.566-  30 2.82  31 2.82  36 2.84  20 2.98  35 3.00  28 3.00  27 3.02  26 3.04
                            34 3.17
  30  0.653  0.013  0.566-  29 2.82  32 2.82  36 2.84  21 2.98  35 3.00  28 3.00  27 3.02  25 3.04
                            33 3.17
  31  0.013  0.334  0.566-  33 2.82  29 2.82  36 2.84  20 2.98  35 3.00  28 3.00  22 3.02  19 3.04
                            32 3.17
  32  0.653  0.334  0.566-  34 2.82  30 2.82  36 2.84  21 2.98  35 3.00  28 3.00  24 3.02  19 3.04
                            31 3.17
  33  0.013  0.653  0.566-  31 2.82  34 2.82  36 2.84  23 2.98  35 3.00  28 3.00  22 3.02  25 3.04
                            30 3.17
  34  0.334  0.653  0.566-  32 2.82  33 2.82  36 2.84  23 2.98  35 3.00  28 3.00  24 3.02  26 3.04
                            29 3.17
  35  0.667  0.667  0.563-  24 2.95  27 2.95  22 2.95  29 3.00  34 3.00  32 3.00  31 3.00  30 3.00
                            33 3.00
  36  0.333  0.333  0.549-  37 1.73  20 2.74  23 2.74  21 2.74  33 2.84  31 2.84  29 2.84  30 2.84
                            34 2.84  32 2.84
  37  0.333  0.333  0.627-  36 1.73

  LATTYP: Found a hexagonal cell.
 ALAT       =     8.8135128021
 C/A-ratio  =     2.5184286595

  Lattice vectors:

 A1 = (  -4.4067569092,  -7.6327256898,   0.0000000000)
 A2 = (   8.8135128021,   0.0000000000,   0.0000000000)
 A3 = (   0.0000000000,   0.0000000000,  22.1962032318)

Analysis of symmetry for initial positions (statically):
 Subroutine PRICEL returns:
 Original cell was already a primitive cell.

 Routine SETGRP: Setting up the symmetry group for a
 hexagonal supercell.

 Subroutine GETGRP returns: Found  6 space group operations
 (whereof  6 operations were pure point group operations)
 out of a pool of 24 trial point group operations.

The static configuration has the point symmetry C_3v.

Analysis of symmetry for dynamics (positions and initial velocities):
 Subroutine PRICEL returns:
 Original cell was already a primitive cell.

[...]

The dynamic configuration has the point symmetry C_3v.

Analysis of constrained symmetry for selective dynamics:
 Subroutine PRICEL returns:
 Original cell was already a primitive cell.

 Routine SETGRP: Setting up the symmetry group for a
 hexagonal supercell.

 Subroutine GETGRP returns: Found  6 space group operations
[...]
     24      -5.1193      2.00000
     25      -5.0866      2.00000
     26      -5.0779      2.00000
     27      -5.0388      2.00000
     28      -4.9851      2.00000
     29      -4.9676      2.00000
     30      -4.9095      2.00000
     31      -4.8954      2.00000
     32      -4.8660      2.00000
     33      -4.7852      2.00000
     34      -4.7724      2.00000
     35      -4.7526      2.00000
     36      -4.7302      2.00000
     37      -4.7191      2.00000
     38      -4.6185      2.00000
     39      -4.5520      2.00000
     40      -4.5116      2.00000
     41      -4.4900      2.00000
     42      -4.4451      2.00000
     43      -4.4275      2.00000
     44      -4.4077      2.00000
     45      -4.3548      2.00000
     46      -4.3215      2.00000
     47      -4.2431      2.00000
     48      -4.2288      2.00000
     49      -4.2026      2.00000
     50      -4.1774      2.00000
     51      -4.1728      2.00000
     52      -4.1533      2.00000
     53      -4.1308      2.00000
     54      -4.1213      2.00000
     55      -4.0925      2.00000
     56      -4.0545      2.00000
     57      -4.0368      2.00000
     58      -4.0165      2.00000
     59      -4.0099      2.00000
     60      -3.9887      2.00000
[...]
    238       6.5082      0.00000
    239       6.5599      0.00000
    240       6.5978      0.00000
    241       6.7217      0.00000
    242       6.7751      0.00000
    243       6.8457      0.00000
    244       6.8882      0.00000
    245       7.0153      0.00000
    246       7.1964      0.00000
    247       7.2440      0.00000
    248       7.3467      0.00000
    249       7.6501      0.00000
    250       7.6575      0.00000
    251       7.8489      0.00000
    252       7.8749      0.00000

 soft charge-density along one line, spin component           1
         0         1         2         3         4         5         6         7         8         9
 total charge-density along one line

------------------------ aborting loop because EDIFF is reached ----------------------------------------

 total charge

# of ion       s       p       d       tot
    1        0.547   0.239   8.765   9.552
    2        0.544   0.241   8.764   9.549
    3        0.544   0.241   8.764   9.549
    4        0.544   0.241   8.764   9.549
    5        0.541   0.242   8.763   9.545
    6        0.544   0.241   8.764   9.549
    7        0.544   0.241   8.764   9.549
    8        0.544   0.241   8.764   9.549
    9        0.541   0.241   8.766   9.547
   10        0.519   0.308   8.771   9.598
   11        0.519   0.311   8.776   9.605
   12        0.519   0.308   8.771   9.598
   13        0.519   0.311   8.776   9.605
   14        0.519   0.311   8.776   9.605
   15        0.514   0.309   8.772   9.595
   16        0.519   0.308   8.771   9.598
   17        0.514   0.309   8.772   9.595
   18        0.514   0.309   8.772   9.595
   19        0.517   0.294   8.775   9.586
   20        0.559   0.342   8.745   9.647
   21        0.559   0.342   8.745   9.647
   22        0.509   0.308   8.773   9.590
   23        0.559   0.342   8.745   9.647
   24        0.509   0.308   8.773   9.590
   25        0.517   0.294   8.775   9.586
   26        0.517   0.294   8.775   9.586
   27        0.509   0.308   8.773   9.590
   28        0.542   0.224   8.757   9.523
   29        0.566   0.248   8.748   9.562
   30        0.566   0.248   8.748   9.562
   31        0.566   0.248   8.748   9.562
   32        0.566   0.248   8.748   9.562
   33        0.566   0.248   8.748   9.562
   34        0.566   0.248   8.748   9.562
   35        0.538   0.227   8.754   9.519
   36        0.669   0.653   4.286   5.608
   37        1.344   2.219   0.000   3.563
tot         20.790  12.600 311.001 344.391

  FORCE on cell =-STRESS in cart. coord.  units (eV):
  Direction    XX          YY          ZZ          XY          YZ          ZX
  Alpha Z  1020.83890  1020.83890  1020.83890
  Ewald  117411.97846117411.97887************    -0.00032    -0.00009    -0.00014
  Hartree126000.35393126000.35394************     0.00001    -0.00002    -0.00004
  E(xc)   -1774.36492 -1774.36491 -1784.16437    -0.00000     0.00000     0.00000
  Local  ************************255793.30092     0.00187     0.00003     0.00003
  n-local   -90.76747   -46.33098   -45.36689    22.77242    -1.63568     1.43292
  augment  2369.42823  2369.42969  2388.99476    -0.00126     0.00001     0.00007
  Kinetic  5509.07059  5517.28161  5567.28931     5.60474     0.41067     0.10331
  Fock        0.00000     0.00000     0.00000     0.00000     0.00000     0.00000
  Total     -19.58258   -19.58258     2.49595    -0.00000    -0.00000    -0.00000
  in kB     -21.01228   -21.01228     2.67818    -0.00000    -0.00000    -0.00000

 VOLUME and BASIS-vectors are now :
  energy-cutoff  :      500.00
  volume of cell :     1493.16
      direct lattice vectors                 reciprocal lattice vectors
     8.813512802  0.000000000  0.000000000     0.113462137 -0.065507406  0.000000000
     4.406756909  7.632725690  0.000000000     0.000000000  0.131014796  0.000000000
     0.000000000  0.000000000 22.196203232     0.000000000  0.000000000  0.045052750

  length of vectors
     8.813512802  8.813512802 22.196203232     0.131014796  0.131014796  0.045052750

 FORCES acting on ions
    electron-ion (+dipol)            ewald-force                    non-local-force                 convergence-correction
   -.195E-04 -.161E-04 0.247E+04   0.520E-04 0.433E-04 -.247E+04   -.336E-17 0.240E-17 -.595E+00   -.201E-03 -.130E-03 -.194E+00
   0.706E+00 0.209E+00 0.247E+04   -.770E+00 -.196E+00 -.247E+04   -.360E-01 0.189E-01 -.317E+00   0.102E+00 -.315E-01 -.213E+00
   -.706E+00 0.209E+00 0.247E+04   0.770E+00 -.196E+00 -.247E+04   0.360E-01 0.189E-01 -.317E+00   -.102E+00 -.295E-01 -.212E+00
   0.534E+00 0.507E+00 0.247E+04   -.555E+00 -.569E+00 -.247E+04   -.168E-02 -.406E-01 -.317E+00   0.240E-01 0.104E+00 -.213E+00
   0.864E-05 -.232E-04 0.247E+04   0.951E-04 0.175E-05 -.247E+04   0.314E-17 -.323E-17 -.354E+00   0.430E-02 0.262E-02 -.222E+00
   -.534E+00 0.507E+00 0.247E+04   0.555E+00 -.569E+00 -.247E+04   0.168E-02 -.406E-01 -.317E+00   -.256E-01 0.105E+00 -.212E+00
   -.172E+00 -.715E+00 0.247E+04   0.215E+00 0.765E+00 -.247E+04   0.344E-01 0.218E-01 -.317E+00   -.766E-01 -.738E-01 -.212E+00
   0.172E+00 -.716E+00 0.247E+04   -.215E+00 0.765E+00 -.247E+04   -.344E-01 0.218E-01 -.317E+00   0.785E-01 -.749E-01 -.212E+00
   0.195E-04 -.416E-04 0.247E+04   0.166E-03 -.200E-04 -.247E+04   0.170E-17 -.101E-18 -.500E+00   -.464E-02 -.240E-02 -.171E+00
   0.737E+01 0.425E+01 0.814E+03   -.727E+01 -.420E+01 -.813E+03   -.258E+00 -.149E+00 -.423E+00   0.120E+00 0.691E-01 0.103E-01
   0.141E-04 0.306E+01 0.821E+03   0.148E-03 -.316E+01 -.821E+03   0.138E-08 0.208E-01 -.407E+00   0.379E-02 0.945E-02 0.108E+00
   -.737E+01 0.425E+01 0.814E+03   0.727E+01 -.420E+01 -.813E+03   0.258E+00 -.149E+00 -.423E+00   -.121E+00 0.706E-01 0.994E-02
   0.265E+01 -.153E+01 0.821E+03   -.274E+01 0.158E+01 -.821E+03   0.180E-01 -.104E-01 -.407E+00   0.104E-01 -.117E-02 0.108E+00
   -.265E+01 -.153E+01 0.821E+03   0.274E+01 0.158E+01 -.821E+03   -.180E-01 -.104E-01 -.407E+00   -.255E-02 -.161E-02 0.108E+00
   0.311E-04 0.541E+01 0.819E+03   0.236E-03 -.573E+01 -.819E+03   0.294E-08 0.442E-01 -.356E+00   -.239E-02 0.203E+00 0.560E-01
   -.214E-04 -.851E+01 0.814E+03   0.163E-03 0.840E+01 -.813E+03   0.198E-07 0.297E+00 -.423E+00   0.297E-03 -.140E+00 0.993E-02
   0.469E+01 -.271E+01 0.819E+03   -.496E+01 0.286E+01 -.819E+03   0.383E-01 -.221E-01 -.356E+00   0.175E+00 -.103E+00 0.560E-01
   -.469E+01 -.271E+01 0.819E+03   0.496E+01 0.286E+01 -.819E+03   -.383E-01 -.221E-01 -.356E+00   -.175E+00 -.101E+00 0.557E-01
   -.435E-04 0.281E+01 -.871E+03   0.551E-04 -.321E+01 0.870E+03   0.148E-08 0.223E-01 0.699E+00   -.254E-03 0.306E+00 0.282E+00
   0.153E+01 0.884E+00 -.828E+03   -.136E+01 -.786E+00 0.828E+03   -.852E+00 -.492E+00 -.662E+00   0.332E+00 0.192E+00 0.501E+00
   -.153E+01 0.884E+00 -.828E+03   0.136E+01 -.786E+00 0.828E+03   0.852E+00 -.492E+00 -.662E+00   -.331E+00 0.194E+00 0.501E+00
   -.888E+01 0.513E+01 -.848E+03   0.831E+01 -.480E+01 0.847E+03   0.555E+00 -.320E+00 0.813E+00   0.812E-01 -.512E-01 0.219E+00
   -.104E-04 -.177E+01 -.828E+03   0.139E-03 0.157E+01 0.828E+03   0.655E-07 0.984E+00 -.662E+00   0.180E-02 -.384E+00 0.501E+00
   0.888E+01 0.513E+01 -.848E+03   -.831E+01 -.480E+01 0.847E+03   -.555E+00 -.320E+00 0.813E+00   -.881E-01 -.508E-01 0.219E+00
   -.243E+01 -.140E+01 -.871E+03   0.278E+01 0.160E+01 0.870E+03   -.193E-01 -.111E-01 0.699E+00   -.263E+00 -.152E+00 0.281E+00
   0.243E+01 -.140E+01 -.871E+03   -.278E+01 0.160E+01 0.870E+03   0.193E-01 -.111E-01 0.699E+00   0.265E+00 -.153E+00 0.282E+00
   0.111E-04 -.103E+02 -.848E+03   0.197E-03 0.959E+01 0.847E+03   0.427E-07 0.641E+00 0.813E+00   -.428E-02 0.959E-01 0.219E+00
   -.136E-04 -.125E-04 -.243E+04   0.300E-04 0.331E-04 0.243E+04   -.229E-17 -.108E-17 0.463E+00   0.131E-02 0.739E-03 0.426E+00
   0.274E+02 0.435E+02 -.244E+04   -.268E+02 -.428E+02 0.243E+04   -.104E+01 -.141E+01 0.607E+00   0.209E+00 0.279E+00 0.237E+00
   -.274E+02 0.435E+02 -.244E+04   0.268E+02 -.428E+02 0.243E+04   0.104E+01 -.141E+01 0.607E+00   -.215E+00 0.281E+00 0.237E+00
   0.514E+02 0.199E+01 -.244E+04   -.505E+02 -.181E+01 0.243E+04   -.174E+01 -.201E+00 0.607E+00   0.346E+00 0.414E-01 0.237E+00
   -.514E+02 0.199E+01 -.244E+04   0.505E+02 -.181E+01 0.243E+04   0.174E+01 -.201E+00 0.607E+00   -.353E+00 0.425E-01 0.236E+00
   0.240E+02 -.455E+02 -.244E+04   -.237E+02 0.446E+02 0.243E+04   -.697E+00 0.161E+01 0.607E+00   0.136E+00 -.326E+00 0.237E+00
   -.240E+02 -.455E+02 -.244E+04   0.237E+02 0.446E+02 0.243E+04   0.697E+00 0.161E+01 0.607E+00   -.140E+00 -.327E+00 0.236E+00
   0.348E-04 -.299E-04 -.244E+04   0.140E-03 -.489E-04 0.243E+04   0.572E-17 -.681E-17 0.550E+00   -.357E-02 -.177E-02 0.304E+00
   -.552E-05 -.111E-05 -.112E+04   0.638E-04 0.589E-05 0.113E+04   0.134E-17 0.157E-17 -.902E-01   0.137E-02 0.809E-03 0.137E+00
   0.106E-03 -.587E-04 -.133E+04   0.224E-04 0.139E-05 0.135E+04   -.275E-17 -.102E-17 -.210E+02   0.190E-02 0.115E-02 -.238E+00
   -.697E-03 -.834E-03 0.174E+02   -.292E-13 -.577E-13 -.909E-12   -.107E-15 0.438E-15 -.207E+02   -.154E-01 -.828E-02 0.372E+01

 POSITION                                       TOTAL-FORCE (eV/Angst)
      0.00000      0.00000      5.28038        -0.000000      0.000000     -0.103371
      2.93784      0.00000      5.28038         0.002203      0.000719     -0.061218
      5.87568      0.00000      5.28038        -0.002203      0.000719     -0.061218
      1.46892      2.54424      5.28038         0.001724      0.001548     -0.061218
      4.40676      2.54424      5.28038         0.000000      0.000000     -0.085162
      7.34459      2.54424      5.28038        -0.001724      0.001548     -0.061218
      2.93784      5.08848      5.28038        -0.000478     -0.002267     -0.061218
      5.87568      5.08848      5.28038         0.000478     -0.002267     -0.061218
      8.81351      5.08848      5.28038         0.000000      0.000000     -0.062999
      1.46892      0.84808      7.67911        -0.039662     -0.022899      0.123360
      4.40676      0.84808      7.67911        -0.000000     -0.075207      0.033193
      7.34459      0.84808      7.67911         0.039662     -0.022899      0.123360
      2.93784      3.39232      7.67911        -0.065131      0.037603      0.033193
      5.87568      3.39232      7.67911         0.065131      0.037603      0.033193
      8.81351      3.39232      7.67911        -0.000000     -0.065646      0.137757
      4.40676      5.93656      7.67911         0.000000      0.045797      0.123360
      7.34459      5.93656      7.67911        -0.056851      0.032823      0.137757
     10.28243      5.93656      7.67911         0.056851      0.032823      0.137757
      8.81351      1.70807     10.10081        -0.000000     -0.072404     -0.017466
      2.93151      1.69251     10.04012        -0.349853     -0.201988     -0.342576
      5.88200      1.69251     10.04012         0.349853     -0.201988     -0.342576
     10.26425      4.25090     10.06644         0.067036     -0.038703      0.018140
      4.40676      4.24770     10.04012         0.000000      0.403976     -0.342576
      7.36277      4.25090     10.06644        -0.067036     -0.038703      0.018140
     11.74104      6.77869     10.10081         0.062704      0.036202     -0.017466
      5.88599      6.77869     10.10081        -0.062704      0.036202     -0.017466
      8.81351      6.76365     10.06644         0.000000      0.077406      0.018140
      0.00000      0.00000     12.49922         0.000000      0.000000     -0.067914
      2.99894      0.10048     12.55446        -0.201776     -0.383419     -0.272523
      5.81457      0.10048     12.55446         0.201775     -0.383419     -0.272523
      1.58649      2.54692     12.55446        -0.432939      0.016967     -0.272523
      7.22703      2.54692     12.55446         0.432939      0.016967     -0.272523
      2.99430      4.98533     12.55446        -0.231163      0.366452     -0.272523
      5.81921      4.98533     12.55446         0.231163      0.366452     -0.272523
      8.81351      5.08848     12.49869        -0.000000      0.000000      0.054568
      4.40676      2.54424     12.18560        -0.000000      0.000000      2.414893
      4.40676      2.54424     13.92005         0.000000      0.000000     -0.004798
    total drift:                               -0.016088     -0.009114      0.382997

  FREE ENERGIE OF THE ION-ELECTRON SYSTEM (eV)
  free  energy   TOTEN  =      -125.58244869 eV

  energy  without entropy=     -125.58244869  energy(sigma->0) =     -125.58244869

 stress matrix after NEB project (eV)
    -19.58258     -0.00000     -0.00000
     -0.00000    -19.58258      0.00000
     -0.00000     -0.00000      2.49595
  FORCES: max atom, RMS     0.004798    0.000789
  FORCE total and by dimension    0.004798    0.004798
  Stress total and by dimension   27.806200   19.582582
|           W    W    AA    RRRRR   N    N  II  N    N   GGGG   !!!           |
|           W    W   A  A   R    R  NN   N  II  NN   N  G    G  !!!           |
|           W    W  A    A  R    R  N N  N  II  N N  N  G       !!!           |
|           W WW W  AAAAAA  RRRRR   N  N N  II  N  N N  G  GGG   !            |
|           WW  WW  A    A  R   R   N   NN  II  N   NN  G    G                |
|           W    W  A    A  R    R  N    N  II  N    N   GGGG   !!!           |
|     Tetrahedron method does not include variations of the Fermi             |
|     occupations, so forces and stress will be inaccurate. We suggest        |
|     using a different smearing scheme ISMEAR = 1 or 2 for metals in         |
|     relaxations.                                                            |

 total charge

# of ion       s       p       d       tot
    1        0.547   0.239   8.765   9.552
    2        0.544   0.241   8.764   9.549
    3        0.544   0.241   8.764   9.549
    4        0.544   0.241   8.764   9.549
    5        0.541   0.242   8.763   9.545
    6        0.544   0.241   8.764   9.549
    7        0.544   0.241   8.764   9.549
    8        0.544   0.241   8.764   9.549
    9        0.541   0.241   8.766   9.547
   10        0.519   0.308   8.771   9.598
   11        0.519   0.311   8.776   9.605
   12        0.519   0.308   8.771   9.598
   13        0.519   0.311   8.776   9.605
   14        0.519   0.311   8.776   9.605
   15        0.514   0.309   8.772   9.595
   16        0.519   0.308   8.771   9.598
   17        0.514   0.309   8.772   9.595
   18        0.514   0.309   8.772   9.595
   19        0.517   0.294   8.775   9.586
   20        0.559   0.342   8.745   9.647
   21        0.559   0.342   8.745   9.647
   22        0.509   0.308   8.773   9.590
   23        0.559   0.342   8.745   9.647
   24        0.509   0.308   8.773   9.590
   25        0.517   0.294   8.775   9.586
   26        0.517   0.294   8.775   9.586
   27        0.509   0.308   8.773   9.590
   28        0.542   0.224   8.757   9.523
   29        0.566   0.248   8.748   9.562
   30        0.566   0.248   8.748   9.562
   31        0.566   0.248   8.748   9.562
   32        0.566   0.248   8.748   9.562
   33        0.566   0.248   8.748   9.562
   34        0.566   0.248   8.748   9.562
   35        0.538   0.227   8.754   9.519
   36        0.669   0.653   4.286   5.608
   37        1.344   2.219   0.000   3.563
tot         20.790  12.600 311.001 344.391

 BZINTS: Fermi energy:    0.674753;  396.000000 electrons
         Band energy:-0.123924E+04;  BLOECHL correction:   -0.048293