 vasp.6.2.0 18Jan21 (build Jun 12 2021 23:27:24) complex

 executed on             LinuxIFC date 2022.05.30  16:15:15

 INCAR:
   ISMEAR = -5
   SIGMA = 0.1
   ISPIN = 1
   EDIFF = 1.d-5
   EDIFFG = -0.01
   NSW = 0
   NELM = 150
   ENCUT = 500
   ISIF = 2
   IBRION = 2
   LREAL = Auto
   ALGO = Fast
   ICHARG = 11
   LORBIT = 10
   LCHARG = .F.
   LWAVE = .F.

 POTCAR:    PAW_PBE Au 04Oct2007
 POTCAR:    PAW_PBE Ru 04Feb2005
 POTCAR:    PAW_PBE C 08Apr2002
 POTCAR:    PAW_PBE O 08Apr2002
 POTCAR:    PAW_PBE H 15Jun2001
|           W    W    AA    RRRRR   N    N  II  N    N   GGGG   !!!           |
|           W    W   A  A   R    R  NN   N  II  NN   N  G    G  !!!           |
|           W    W  A    A  R    R  N N  N  II  N N  N  G       !!!           |
|           W WW W  AAAAAA  RRRRR   N  N N  II  N  N N  G  GGG   !            |
|           WW  WW  A    A  R   R   N   NN  II  N   NN  G    G                |
|           W    W  A    A  R    R  N    N  II  N    N   GGGG   !!!           |
|     For optimal performance we recommend to set                             |
|       NCORE = 2 up to number-of-cores-per-socket                            |
|     This setting can greatly improve the performance of VASP for DFT.       |
|     The default, NCORE=1 might be grossly inefficient on modern             |
|     multi-core architectures or massively parallel machines. Do your        |
|     Unfortunately you need to use the default for GW and RPA                |
|     calculations (for HF NCORE is supported but not extensively tested      |
|     yet).                                                                   |

 POTCAR:    PAW_PBE Au 04Oct2007
   VRHFIN =Au: s1d10

   TITEL  = PAW_PBE Au 04Oct2007
   POMASS =  196.966; ZVAL   =   11.000    mass and valenz
   ENMAX  =  229.943; ENMIN  =  172.457 eV

 POTCAR:    PAW_PBE Ru 04Feb2005
   VRHFIN =Ru: s1 d7

   TITEL  = PAW_PBE Ru 04Feb2005
   POMASS =  101.070; ZVAL   =    8.000    mass and valenz
   ENMAX  =  213.271; ENMIN  =  159.953 eV

 POTCAR:    PAW_PBE C 08Apr2002
   VRHFIN =C: s2p2

   TITEL  = PAW_PBE C 08Apr2002
   POMASS =   12.011; ZVAL   =    4.000    mass and valenz
   ENMAX  =  400.000; ENMIN  =  300.000 eV

 POTCAR:    PAW_PBE O 08Apr2002
   VRHFIN =O: s2p4

   TITEL  = PAW_PBE O 08Apr2002
   POMASS =   16.000; ZVAL   =    6.000    mass and valenz
   ENMAX  =  400.000; ENMIN  =  300.000 eV

 POTCAR:    PAW_PBE H 15Jun2001
   VRHFIN =H: ultrasoft test

   TITEL  = PAW_PBE H 15Jun2001
   POMASS =    1.000; ZVAL   =    1.000    mass and valenz
   ENMAX  =  250.000; ENMIN  =  200.000 eV

 Optimization of the real space projectors (new method)

 maximal supplied QI-value         = 15.12
 optimisation between [QCUT,QGAM] = [ 11.34, 22.83] = [ 36.00,145.93] Ry
 Optimized for a Real-space Cutoff    1.39 Angstroem

   l    n(q)    QCUT    max X(q) W(low)/X(q) W(high)/X(q)  e(spline)
   2      9    11.338    60.898    0.39E-03    0.42E-03    0.21E-06
   2      9    11.338    58.894    0.40E-03    0.42E-03    0.22E-06
   0      9    11.338   109.617    0.13E-03    0.20E-04    0.13E-06
   0      9    11.338    75.026    0.13E-03    0.20E-04    0.13E-06
   1      9    11.338    16.344    0.33E-04    0.24E-03    0.18E-06
   1      9    11.338    10.160    0.26E-04    0.19E-03    0.15E-06
 Optimization of the real space projectors (new method)

[...]

   l    n(q)    QCUT    max X(q) W(low)/X(q) W(high)/X(q)  e(spline)
   0      7    11.387    20.381    0.39E-03    0.13E-02    0.15E-06
   0      7    11.387    15.268    0.42E-03    0.14E-02    0.17E-06
   1      6    11.387     5.964    0.41E-03    0.11E-02    0.17E-06
   1      6    11.387     5.382    0.39E-03    0.87E-03    0.15E-06
 Optimization of the real space projectors (new method)

 maximal supplied QI-value         = 34.20
 optimisation between [QCUT,QGAM] = [ 11.29, 22.57] = [ 35.68,142.71] Ry
 Optimized for a Real-space Cutoff    1.16 Angstroem

   l    n(q)    QCUT    max X(q) W(low)/X(q) W(high)/X(q)  e(spline)
   0      8    11.287    19.460    0.40E-03    0.73E-03    0.16E-06
   0      8    11.287    12.209    0.38E-03    0.70E-03    0.15E-06
   1      7    11.287     4.655    0.22E-03    0.25E-04    0.22E-06
  PAW_PBE Au 04Oct2007                  :
  PAW_PBE Ru 04Feb2005                  :
  PAW_PBE C 08Apr2002                   :
  PAW_PBE O 08Apr2002                   :
  PAW_PBE H 15Jun2001                   :

 POSCAR: Au-Ru-COH
  positions in direct lattice
  velocities in cartesian coordinates
 exchange correlation table for  LEXCH =        8
   RHO(1)=    0.500       N(1)  =     2000
   RHO(2)=  100.500       N(2)  =     4000

 VTST: version 3.2, (02/03/18)

 CHAIN: initializing optimizer

 OPT: Using VASP Conjugate-Gradient optimizer
 CHAIN: Read ICHAIN            0

 POSCAR: Au-Ru-COH
  positions in direct lattice
  velocities in cartesian coordinates

 ion  position               nearest neighbor table
   1  0.000  0.000  0.197-  16 2.94  12 2.94   6 2.94   8 2.94   7 2.94   3 2.94  10 2.94   4 2.94
                             2 2.94
   2  0.333  0.000  0.197-   9 2.94  11 2.94  17 2.94  10 2.94   8 2.94   4 2.94   5 2.94   1 2.94
                             3 2.94
   3  0.667  0.000  0.197-   7 2.94  18 2.94  12 2.94   1 2.94  11 2.94   5 2.94   6 2.94   9 2.94
                             2 2.94
   4  0.000  0.333  0.197-  10 2.94   6 2.94   5 2.94  13 2.94   2 2.94  15 2.94   9 2.94   1 2.94
                             7 2.94
   5  0.333  0.333  0.197-  13 2.94   7 2.94  11 2.94   4 2.94   2 2.94  14 2.94   3 2.94   8 2.94
                             6 2.94
   6  0.667  0.333  0.197-  15 2.94  14 2.94   1 2.94  12 2.94   4 2.94   9 2.94   8 2.94   3 2.94
                             5 2.94
   7  0.000  0.667  0.197-  18 2.94   3 2.94  16 2.94   5 2.94   1 2.94  13 2.94   8 2.94   4 2.94
                             9 2.94
   8  0.333  0.667  0.197-   9 2.94  17 2.94   1 2.94   2 2.94  14 2.94  16 2.94   6 2.94   7 2.94
                             5 2.94
   9  0.667  0.667  0.197-   2 2.94   8 2.94  17 2.94   6 2.94  15 2.94   4 2.94   3 2.94  18 2.94
                             7 2.94
  10  0.111  0.111  0.287-  20 2.91  26 2.94  19 2.94  11 2.94  17 2.94   2 2.94   4 2.94   1 2.94
                            12 2.94  16 2.94  13 2.94  15 2.94
  11  0.444  0.111  0.287-  20 2.91  21 2.91  27 2.94  13 2.94   2 2.94  10 2.94  17 2.94   5 2.94
                             3 2.94  18 2.94  14 2.94  12 2.94
  12  0.778  0.111  0.287-  21 2.91  25 2.94  19 2.94  16 2.94  18 2.94   1 2.94  14 2.94  15 2.94
                             3 2.94   6 2.94  10 2.94  11 2.94
  13  0.111  0.444  0.287-  23 2.91  20 2.91  22 2.94   5 2.94  18 2.94  11 2.94   7 2.94   4 2.94
                            16 2.94  10 2.94  14 2.94  15 2.94
  14  0.444  0.444  0.287-  21 2.91  23 2.91  24 2.94  15 2.94   6 2.94  12 2.94   8 2.94  17 2.94
                             5 2.94  16 2.94  13 2.94  11 2.94
  15  0.778  0.444  0.287-  24 2.92  22 2.92  19 2.94  14 2.94   6 2.94  17 2.94  12 2.94   9 2.94
                             4 2.94  10 2.94  13 2.94  18 2.94
  16  0.111  0.778  0.287-  23 2.91  25 2.94  26 2.94  18 2.94  12 2.94   7 2.94   1 2.94   8 2.94
                            13 2.94  10 2.94  14 2.94  17 2.94
  17  0.444  0.778  0.287-  27 2.92  24 2.92  26 2.94   9 2.94  15 2.94   2 2.94  10 2.94  11 2.94
                             8 2.94  14 2.94  16 2.94  18 2.94
  18  0.778  0.778  0.287-  22 2.92  27 2.92  25 2.94  16 2.94   7 2.94  13 2.94  12 2.94   3 2.94
                            11 2.94   9 2.94  15 2.94  17 2.94
  19  0.889  0.222  0.377-  15 2.94  10 2.94  12 2.94  24 2.94  22 2.94  26 2.94  25 2.94  21 2.94
                            20 2.94  28 2.95  32 2.97  31 2.97
  20  0.223  0.223  0.375-  36 2.78  11 2.91  13 2.91  10 2.91  23 2.93  21 2.93  29 2.94  31 2.94
                            26 2.94  19 2.94  27 2.95  22 2.95
  21  0.555  0.223  0.375-  36 2.78  14 2.91  11 2.91  12 2.91  20 2.93  23 2.93  30 2.94  32 2.94
                            25 2.94  19 2.94  27 2.95  24 2.95
  22  0.887  0.557  0.376-  24 2.91  27 2.91  18 2.92  15 2.92  13 2.94  25 2.94  19 2.94  23 2.95
                            20 2.95  35 2.96  33 2.96  31 2.96
  23  0.223  0.555  0.375-  36 2.78  13 2.91  14 2.91  16 2.91  20 2.93  21 2.93  33 2.94  34 2.94
                            25 2.94  26 2.94  22 2.95  24 2.95
  24  0.557  0.557  0.376-  27 2.91  22 2.91  15 2.92  17 2.92  14 2.94  26 2.94  19 2.94  21 2.95
                            23 2.95  35 2.96  32 2.96  34 2.96
  25  0.889  0.889  0.377-  18 2.94  16 2.94  12 2.94  22 2.94  27 2.94  19 2.94  26 2.94  23 2.94
                            21 2.94  28 2.95  33 2.97  30 2.97
  26  0.222  0.889  0.377-  17 2.94  10 2.94  16 2.94  27 2.94  24 2.94  19 2.94  25 2.94  20 2.94
                            23 2.94  28 2.95  29 2.97  34 2.97
  27  0.557  0.887  0.376-  24 2.91  22 2.91  17 2.92  18 2.92  11 2.94  26 2.94  25 2.94  20 2.95
                            21 2.95  35 2.96  29 2.96  30 2.96
  28  0.000  0.000  0.467-  25 2.95  19 2.95  26 2.95  34 2.97  32 2.97  33 2.97  30 2.97  31 2.97
                            29 2.97
  29  0.333  0.007  0.466-  31 2.88  30 2.88  36 2.89  20 2.94  27 2.96  28 2.97  35 2.97  26 2.97
                            34 3.05
  30  0.660  0.007  0.466-  32 2.88  29 2.88  36 2.89  21 2.94  27 2.96  28 2.97  35 2.97  25 2.97
                            33 3.05
  31  0.007  0.333  0.466-  29 2.88  33 2.88  36 2.89  20 2.94  22 2.96  28 2.97  35 2.97  19 2.97
                            32 3.05
  32  0.660  0.333  0.466-  30 2.88  34 2.88  36 2.89  21 2.94  24 2.96  28 2.97  35 2.97  19 2.97
                            31 3.05
  33  0.007  0.660  0.466-  34 2.88  31 2.88  36 2.89  23 2.94  22 2.96  28 2.97  35 2.97  25 2.97
                            30 3.05
  34  0.333  0.660  0.466-  33 2.88  32 2.88  36 2.89  23 2.94  24 2.96  28 2.97  35 2.97  26 2.97
                            29 3.05
  35  0.667  0.667  0.467-  24 2.96  27 2.96  22 2.96  29 2.97  34 2.97  32 2.97  31 2.97  30 2.97
                            33 2.97
  36  0.333  0.333  0.458-  37 1.74  20 2.78  23 2.78  21 2.78  33 2.89  31 2.89  29 2.89  30 2.89
                            34 2.89  32 2.89
  37  0.333  0.333  0.523-  38 1.25  36 1.74
  38  0.333  0.333  0.569-  39 0.96  37 1.25
  39  0.333  0.333  0.605-  38 0.96

  LATTYP: Found a hexagonal cell.
 ALAT       =     8.8135128021
 C/A-ratio  =     3.0356784858

  Lattice vectors:

 A1 = (  -4.4067569092,  -7.6327256898,   0.0000000000)
 A2 = (   8.8135128021,   0.0000000000,   0.0000000000)
 A3 = (   0.0000000000,   0.0000000000,  26.7549911976)

Analysis of symmetry for initial positions (statically):
 Subroutine PRICEL returns:
 Original cell was already a primitive cell.

 Routine SETGRP: Setting up the symmetry group for a
 hexagonal supercell.

 Subroutine GETGRP returns: Found  6 space group operations
 (whereof  6 operations were pure point group operations)
 out of a pool of 24 trial point group operations.

The static configuration has the point symmetry C_3v.

Analysis of symmetry for dynamics (positions and initial velocities):
[...]
     41      -4.9126      2.00000
     42      -4.8551      2.00000
     43      -4.8376      2.00000
     44      -4.7824      2.00000
     45      -4.7192      2.00000
     46      -4.7033      2.00000
     47      -4.6592      2.00000
     48      -4.6389      2.00000
     49      -4.6058      2.00000
     50      -4.5996      2.00000
     51      -4.4949      2.00000
     52      -4.4744      2.00000
     53      -4.4459      2.00000
     54      -4.4305      2.00000
     55      -4.4233      2.00000
     56      -4.4180      2.00000
     57      -4.4084      2.00000
     58      -4.3677      2.00000
     59      -4.3337      2.00000
     60      -4.2909      2.00000
[...]
    238       5.2828      0.00000
    239       5.3241      0.00000
    240       5.4829      0.00000
    241       5.5935      0.00000
    242       5.7150      0.00000
    243       5.9301      0.00000
    244       5.9600      0.00000
    245       6.0605      0.00000
    246       6.0833      0.00000
    247       6.1421      0.00000
    248       6.1751      0.00000
    249       6.1861      0.00000
    250       6.2613      0.00000
    251       6.4041      0.00000
    252       6.4107      0.00000

 soft charge-density along one line, spin component           1
         0         1         2         3         4         5         6         7         8         9
 total charge-density along one line

------------------------ aborting loop because EDIFF is reached ----------------------------------------

 total charge

# of ion       s       p       d       tot
    1        0.546   0.239   8.769   9.553
    2        0.546   0.241   8.764   9.551
    3        0.546   0.241   8.764   9.551
    4        0.546   0.241   8.764   9.551
    5        0.544   0.242   8.760   9.547
    6        0.546   0.241   8.764   9.551
    7        0.546   0.241   8.764   9.551
    8        0.546   0.241   8.764   9.551
    9        0.542   0.240   8.769   9.552
   10        0.520   0.308   8.770   9.598
   11        0.522   0.307   8.779   9.608
   12        0.520   0.308   8.770   9.598
   13        0.522   0.307   8.779   9.608
   14        0.522   0.307   8.779   9.608
   15        0.513   0.310   8.773   9.597
   16        0.520   0.308   8.770   9.598
   17        0.513   0.310   8.773   9.597
   18        0.513   0.310   8.773   9.597
   19        0.519   0.301   8.775   9.594
   20        0.549   0.329   8.755   9.633
   21        0.549   0.329   8.755   9.633
   22        0.510   0.312   8.772   9.594
   23        0.549   0.329   8.755   9.633
   24        0.510   0.312   8.772   9.594
   25        0.519   0.301   8.775   9.594
   26        0.519   0.301   8.775   9.594
   27        0.510   0.312   8.772   9.594
   28        0.546   0.228   8.768   9.542
   29        0.544   0.249   8.763   9.556
   30        0.544   0.249   8.763   9.556
   31        0.544   0.249   8.763   9.556
   32        0.544   0.249   8.763   9.556
   33        0.544   0.249   8.763   9.556
   34        0.544   0.249   8.763   9.556
   35        0.542   0.228   8.771   9.541
   36        0.550   0.725   6.813   8.088
   37        0.928   1.467   0.000   2.395
   38        1.527   3.769   0.000   5.296
   39        0.556   0.133   0.000   0.689
tot         22.220  15.809 313.683 351.712

  FORCE on cell =-STRESS in cart. coord.  units (eV):
  Direction    XX          YY          ZZ          XY          YZ          ZX
  Alpha Z   855.13235   855.13235   855.13235
  Ewald  187415.52581187415.52625************    -0.00032    -0.00008    -0.00012
  Hartree196001.00803196001.00804************     0.00001    -0.00002    -0.00003
  E(xc)   -1813.93091 -1813.93106 -1819.31231     0.00013    -0.00001    -0.00002
  Local  ************************395567.26534     0.00220    -0.00000    -0.00004
  n-local   -99.43357   -48.94704   -42.48125    24.06986    -1.39423     1.42273
  augment  2423.29603  2423.29762  2425.89022    -0.00137     0.00000     0.00004
  Kinetic  5660.50136  5672.69233  5634.71905     6.33962     0.10226     0.30620
  Fock        0.00000     0.00000     0.00000     0.00000     0.00000     0.00000
  Total     -18.68118   -18.68118     3.26928    -0.00000     0.00000     0.00000
  in kB     -16.62959   -16.62959     2.91025    -0.00000     0.00000     0.00000

 VOLUME and BASIS-vectors are now :
  energy-cutoff  :      500.00
  volume of cell :     1799.84
      direct lattice vectors                 reciprocal lattice vectors
     8.813512802  0.000000000  0.000000000     0.113462137 -0.065507406  0.000000000
     4.406756909  7.632725690  0.000000000     0.000000000  0.131014796  0.000000000
     0.000000000  0.000000000 26.754991198     0.000000000  0.000000000  0.037376204

  length of vectors
     8.813512802  8.813512802 26.754991198     0.131014796  0.131014796  0.037376204

 FORCES acting on ions
    electron-ion (+dipol)            ewald-force                    non-local-force                 convergence-correction
   -.201E-04 -.165E-04 0.284E+04   0.519E-04 0.434E-04 -.283E+04   0.162E-17 -.114E-17 -.916E+00   -.182E-03 -.118E-03 -.328E+00
   0.387E+00 0.281E+00 0.284E+04   -.495E+00 -.376E+00 -.284E+04   0.414E-01 0.729E-01 -.298E+00   0.669E-01 0.381E-01 -.342E+00
   -.387E+00 0.281E+00 0.284E+04   0.495E+00 -.376E+00 -.284E+04   -.414E-01 0.729E-01 -.298E+00   -.666E-01 0.400E-01 -.341E+00
   0.437E+00 0.195E+00 0.284E+04   -.573E+00 -.241E+00 -.284E+04   0.838E-01 -.531E-03 -.298E+00   0.665E-01 0.388E-01 -.342E+00
   0.103E-04 -.223E-04 0.284E+04   0.951E-04 0.173E-05 -.284E+04   0.167E-17 -.154E-17 -.119E+00   0.424E-02 0.258E-02 -.339E+00
   -.437E+00 0.195E+00 0.284E+04   0.573E+00 -.241E+00 -.284E+04   -.838E-01 -.531E-03 -.298E+00   -.680E-01 0.398E-01 -.341E+00
   0.497E-01 -.476E+00 0.284E+04   -.776E-01 0.617E+00 -.284E+04   0.424E-01 -.723E-01 -.298E+00   0.140E-02 -.777E-01 -.341E+00
   -.498E-01 -.476E+00 0.284E+04   0.775E-01 0.617E+00 -.284E+04   -.424E-01 -.723E-01 -.298E+00   0.462E-03 -.787E-01 -.341E+00
   0.197E-04 -.414E-04 0.284E+04   0.166E-03 -.201E-04 -.284E+04   0.313E-17 0.153E-18 -.593E+00   -.461E-02 -.238E-02 -.334E+00
   0.482E+01 0.278E+01 0.987E+03   -.457E+01 -.264E+01 -.986E+03   -.303E+00 -.175E+00 -.636E+00   0.589E-01 0.339E-01 -.235E+00
   0.147E-04 0.502E+01 0.994E+03   0.148E-03 -.501E+01 -.993E+03   0.249E-08 0.375E-01 -.295E+00   0.364E-02 -.890E-01 -.298E+00
   -.482E+01 0.278E+01 0.987E+03   0.457E+01 -.264E+01 -.986E+03   0.303E+00 -.175E+00 -.636E+00   -.600E-01 0.350E-01 -.236E+00
   0.434E+01 -.251E+01 0.994E+03   -.434E+01 0.251E+01 -.993E+03   0.324E-01 -.187E-01 -.295E+00   -.750E-01 0.479E-01 -.298E+00
   -.434E+01 -.251E+01 0.994E+03   0.434E+01 0.251E+01 -.993E+03   -.324E-01 -.187E-01 -.295E+00   0.824E-01 0.474E-01 -.299E+00
   0.314E-04 0.271E+01 0.989E+03   0.236E-03 -.273E+01 -.988E+03   -.130E-08 -.195E-01 -.507E+00   -.209E-02 0.154E-01 -.253E+00
   -.209E-04 -.556E+01 0.987E+03   0.163E-03 0.528E+01 -.986E+03   0.233E-07 0.350E+00 -.636E+00   0.383E-04 -.695E-01 -.236E+00
   0.235E+01 -.135E+01 0.989E+03   -.237E+01 0.137E+01 -.988E+03   -.169E-01 0.976E-02 -.507E+00   0.126E-01 -.909E-02 -.253E+00
   -.235E+01 -.135E+01 0.989E+03   0.237E+01 0.137E+01 -.988E+03   0.169E-01 0.976E-02 -.507E+00   -.125E-01 -.749E-02 -.254E+00
   -.421E-04 0.277E+01 -.893E+03   0.535E-04 -.276E+01 0.893E+03   -.463E-09 -.696E-02 0.630E+00   0.343E-02 0.417E-02 -.104E+00
   0.145E+02 0.836E+01 -.852E+03   -.135E+02 -.780E+01 0.852E+03   -.999E+00 -.577E+00 -.995E+00   -.558E-01 -.323E-01 -.122E+00
   -.145E+02 0.836E+01 -.852E+03   0.135E+02 -.780E+01 0.852E+03   0.999E+00 -.577E+00 -.995E+00   0.551E-01 -.312E-01 -.122E+00
   0.738E+00 -.426E+00 -.881E+03   -.104E+01 0.598E+00 0.880E+03   0.335E+00 -.193E+00 0.578E+00   0.150E-01 -.101E-01 -.171E+00
   -.121E-04 -.167E+02 -.852E+03   0.142E-03 0.156E+02 0.852E+03   0.768E-07 0.115E+01 -.995E+00   0.268E-03 0.633E-01 -.122E+00
   -.738E+00 -.426E+00 -.881E+03   0.104E+01 0.598E+00 0.880E+03   -.335E+00 -.193E+00 0.578E+00   -.154E-01 -.884E-02 -.171E+00
   -.240E+01 -.138E+01 -.893E+03   0.239E+01 0.138E+01 0.893E+03   0.603E-02 0.348E-02 0.630E+00   0.151E-02 0.811E-03 -.104E+00
   0.240E+01 -.138E+01 -.893E+03   -.239E+01 0.138E+01 0.893E+03   -.603E-02 0.348E-02 0.630E+00   0.565E-02 0.917E-03 -.104E+00
   0.843E-05 0.852E+00 -.881E+03   0.198E-03 -.120E+01 0.880E+03   0.257E-07 0.387E+00 0.578E+00   -.175E-02 0.180E-01 -.171E+00
   -.134E-04 -.135E-04 -.274E+04   0.295E-04 0.349E-04 0.274E+04   0.404E-17 -.168E-17 0.262E+00   0.217E-03 0.107E-03 0.273E+00
   0.293E+02 0.500E+02 -.270E+04   -.290E+02 -.497E+02 0.270E+04   -.404E+00 -.576E+00 0.412E+00   0.148E-02 -.698E-02 0.310E+00
   -.293E+02 0.500E+02 -.270E+04   0.290E+02 -.497E+02 0.270E+04   0.404E+00 -.576E+00 0.412E+00   -.168E-02 -.526E-02 0.311E+00
   0.579E+02 0.363E+00 -.270E+04   -.575E+02 -.280E+00 0.270E+04   -.701E+00 -.617E-01 0.412E+00   -.522E-02 0.471E-02 0.310E+00
   -.579E+02 0.363E+00 -.270E+04   0.575E+02 -.280E+00 0.270E+04   0.701E+00 -.617E-01 0.412E+00   0.416E-02 0.590E-02 0.311E+00
   0.286E+02 -.503E+02 -.270E+04   -.285E+02 0.500E+02 0.270E+04   -.297E+00 0.638E+00 0.412E+00   -.534E-02 0.116E-02 0.311E+00
   -.286E+02 -.503E+02 -.270E+04   0.285E+02 0.500E+02 0.270E+04   0.297E+00 0.638E+00 0.412E+00   0.722E-02 0.687E-03 0.311E+00
   0.325E-04 -.273E-04 -.274E+04   0.143E-03 -.502E-04 0.274E+04   -.437E-17 -.268E-17 0.380E+00   -.462E-02 -.238E-02 0.334E+00
   0.275E-05 -.616E-05 -.170E+04   0.824E-04 0.740E-05 0.171E+04   0.741E-17 -.378E-17 -.723E+01   0.195E-02 0.119E-02 0.218E+00
   -.706E-05 -.814E-04 -.106E+04   0.157E-04 0.101E-05 0.104E+04   0.133E-18 0.291E-18 0.192E+02   0.118E-02 0.723E-03 0.442E-01
   0.245E-03 -.903E-04 -.176E+04   0.556E-05 0.533E-06 0.177E+04   -.440E-18 -.171E-18 -.700E+01   0.386E-02 0.236E-02 0.405E-01
   0.634E-05 -.144E-04 -.335E+03   0.256E-06 0.397E-07 0.344E+03   -.231E-19 -.758E-20 -.857E+01   0.201E-03 0.123E-03 0.481E-02
   -.480E-03 -.932E-03 0.118E+02   0.107E-12 0.676E-15 -.279E-11   -.219E-15 -.634E-17 -.761E+01   0.194E-01 0.120E-01 -.382E+01

 POSITION                                       TOTAL-FORCE (eV/Angst)
      0.00000      0.00000      5.28038        -0.000000     -0.000000     -0.094855
      2.93784      0.00000      5.28038         0.000601      0.017335     -0.035521
      5.87568      0.00000      5.28038        -0.000601      0.017335     -0.035521
      1.46892      2.54424      5.28038         0.015313     -0.008147     -0.035521
      4.40676      2.54424      5.28038        -0.000000     -0.000000     -0.044801
      7.34459      2.54424      5.28038        -0.015313     -0.008147     -0.035521
      2.93784      5.08848      5.28038         0.014712     -0.009188     -0.035521
      5.87568      5.08848      5.28038        -0.014712     -0.009188     -0.035521
      8.81351      5.08848      5.28038        -0.000000      0.000000     -0.041928
      1.46892      0.84808      7.67911        -0.000664     -0.000383      0.126388
      4.40676      0.84808      7.67911        -0.000000     -0.050377      0.044141
      7.34459      0.84808      7.67911         0.000664     -0.000383      0.126388
      2.93784      3.39232      7.67911        -0.043628      0.025188      0.044141
      5.87568      3.39232      7.67911         0.043628      0.025188      0.044141
      8.81351      3.39232      7.67911        -0.000000     -0.028295      0.121176
      4.40676      5.93656      7.67911         0.000000      0.000767      0.126388
      7.34459      5.93656      7.67911        -0.024504      0.014147      0.121176
     10.28243      5.93656      7.67911         0.024504      0.014147      0.121176
      8.81351      1.69681     10.07567        -0.000000     -0.000607     -0.015568
      2.94232      1.69875     10.04120        -0.084243     -0.048638     -0.268478
      5.87120      1.69875     10.04120         0.084243     -0.048638     -0.268478
     10.26751      4.24902     10.06295         0.051640     -0.029814     -0.007557
      4.40676      4.23523     10.04120         0.000000      0.097275     -0.268478
      7.35952      4.24902     10.06295        -0.051640     -0.029814     -0.007557
     11.75079      6.78432     10.07567         0.000526      0.000304     -0.015568
      5.87624      6.78432     10.07567        -0.000526      0.000304     -0.015568
      8.81351      6.76742     10.06295         0.000000      0.059629     -0.007557
      0.00000      0.00000     12.49459        -0.000000     -0.000000     -0.132198
      2.96623      0.05046     12.47837        -0.144801     -0.304080     -0.096853
      5.84728      0.05046     12.47837         0.144801     -0.304080     -0.096853
      1.52682      2.54360     12.47837        -0.335742      0.026639     -0.096853
      7.28669      2.54360     12.47837         0.335742      0.026639     -0.096853
      2.96734      5.03866     12.47837        -0.190941      0.277441     -0.096853
      5.84617      5.03866     12.47837         0.190941      0.277441     -0.096853
      8.81351      5.08848     12.49555        -0.000000     -0.000000     -0.108646
      4.40676      2.54424     12.24198        -0.000000      0.000000      1.219835
      4.40676      2.54424     13.98312        -0.000000     -0.000000      0.023053
      4.40676      2.54424     15.23095        -0.000000      0.000000     -0.025214
      4.40676      2.54424     16.19193        -0.000000     -0.000000     -0.001309
    total drift:                                0.018918      0.011035      0.363232

  FREE ENERGIE OF THE ION-ELECTRON SYSTEM (eV)
  free  energy   TOTEN  =      -132.61226912 eV

  energy  without entropy=     -132.61226912  energy(sigma->0) =     -132.61226912

 stress matrix after NEB project (eV)
    -18.68118     -0.00000      0.00000
     -0.00000    -18.68118      0.00000
      0.00000      0.00000      3.26928
  FORCES: max atom, RMS     0.025214    0.005475
  FORCE total and by dimension    0.034189    0.025214
  Stress total and by dimension   26.620695   18.681184
|           W    W    AA    RRRRR   N    N  II  N    N   GGGG   !!!           |
|           W    W   A  A   R    R  NN   N  II  NN   N  G    G  !!!           |
|           W    W  A    A  R    R  N N  N  II  N N  N  G       !!!           |
|           W WW W  AAAAAA  RRRRR   N  N N  II  N  N N  G  GGG   !            |
|           WW  WW  A    A  R   R   N   NN  II  N   NN  G    G                |
|           W    W  A    A  R    R  N    N  II  N    N   GGGG   !!!           |
|     Tetrahedron method does not include variations of the Fermi             |
|     occupations, so forces and stress will be inaccurate. We suggest        |
|     using a different smearing scheme ISMEAR = 1 or 2 for metals in         |
|     relaxations.                                                            |

 total charge

# of ion       s       p       d       tot
    1        0.546   0.239   8.769   9.553
    2        0.546   0.241   8.764   9.551
    3        0.546   0.241   8.764   9.551
    4        0.546   0.241   8.764   9.551
    5        0.544   0.242   8.760   9.547
    6        0.546   0.241   8.764   9.551
    7        0.546   0.241   8.764   9.551
    8        0.546   0.241   8.764   9.551
    9        0.542   0.240   8.769   9.552
   10        0.520   0.308   8.770   9.598
   11        0.522   0.307   8.779   9.608
   12        0.520   0.308   8.770   9.598
   13        0.522   0.307   8.779   9.608
   14        0.522   0.307   8.779   9.608
   15        0.513   0.310   8.773   9.597
   16        0.520   0.308   8.770   9.598
   17        0.513   0.310   8.773   9.597
   18        0.513   0.310   8.773   9.597
   19        0.519   0.301   8.775   9.594
   20        0.549   0.329   8.755   9.633
   21        0.549   0.329   8.755   9.633
   22        0.510   0.312   8.772   9.594
   23        0.549   0.329   8.755   9.633
   24        0.510   0.312   8.772   9.594
   25        0.519   0.301   8.775   9.594
   26        0.519   0.301   8.775   9.594
   27        0.510   0.312   8.772   9.594
   28        0.546   0.228   8.768   9.542
   29        0.544   0.249   8.763   9.556
   30        0.544   0.249   8.763   9.556
   31        0.544   0.249   8.763   9.556
   32        0.544   0.249   8.763   9.556
   33        0.544   0.249   8.763   9.556
   34        0.544   0.249   8.763   9.556
   35        0.542   0.228   8.771   9.541
   36        0.550   0.725   6.813   8.088
   37        0.928   1.467   0.000   2.395
   38        1.527   3.769   0.000   5.296
   39        0.556   0.133   0.000   0.689
tot         22.220  15.809 313.683 351.712

 BZINTS: Fermi energy:    0.357083;  404.000000 electrons
         Band energy:-0.143491E+04;  BLOECHL correction:   -0.075467