 vasp.6.2.0 18Jan21 (build Jun 12 2021 23:27:24) complex

 executed on             LinuxIFC date 2022.05.27  06:01:58

 INCAR:
   ISMEAR = -5
   SIGMA = 0.1
   ISPIN = 1
   EDIFF = 1.d-5
   EDIFFG = -0.01
   NSW = 0
   NELM = 150
   ENCUT = 500
   ISIF = 2
   IBRION = 2
   LREAL = Auto
   ALGO = Fast
   ICHARG = 11
   LORBIT = 10
   LCHARG = .F.
   LWAVE = .F.

 POTCAR:    PAW_PBE Cu 22Jun2005
 POTCAR:    PAW_PBE Fe 06Sep2000
 POTCAR:    PAW_PBE C 08Apr2002
 POTCAR:    PAW_PBE O 08Apr2002
|           W    W    AA    RRRRR   N    N  II  N    N   GGGG   !!!           |
|           W    W   A  A   R    R  NN   N  II  NN   N  G    G  !!!           |
|           W    W  A    A  R    R  N N  N  II  N N  N  G       !!!           |
|           W WW W  AAAAAA  RRRRR   N  N N  II  N  N N  G  GGG   !            |
|           WW  WW  A    A  R   R   N   NN  II  N   NN  G    G                |
|           W    W  A    A  R    R  N    N  II  N    N   GGGG   !!!           |
|     For optimal performance we recommend to set                             |
|       NCORE = 2 up to number-of-cores-per-socket                            |
|     This setting can greatly improve the performance of VASP for DFT.       |
|     The default, NCORE=1 might be grossly inefficient on modern             |
|     multi-core architectures or massively parallel machines. Do your        |
|     Unfortunately you need to use the default for GW and RPA                |
|     calculations (for HF NCORE is supported but not extensively tested      |
|     yet).                                                                   |

 POTCAR:    PAW_PBE Cu 22Jun2005
   VRHFIN =Cu: d10 p1

   TITEL  = PAW_PBE Cu 22Jun2005
   POMASS =   63.546; ZVAL   =   11.000    mass and valenz
   ENMAX  =  295.446; ENMIN  =  221.585 eV

 POTCAR:    PAW_PBE Fe 06Sep2000
   VRHFIN =Fe:  d7 s1

   TITEL  = PAW_PBE Fe 06Sep2000
   POMASS =   55.847; ZVAL   =    8.000    mass and valenz
   ENMAX  =  267.882; ENMIN  =  200.911 eV

 POTCAR:    PAW_PBE C 08Apr2002
   VRHFIN =C: s2p2

   TITEL  = PAW_PBE C 08Apr2002
   POMASS =   12.011; ZVAL   =    4.000    mass and valenz
   ENMAX  =  400.000; ENMIN  =  300.000 eV

 POTCAR:    PAW_PBE O 08Apr2002
   VRHFIN =O: s2p4

   TITEL  = PAW_PBE O 08Apr2002
   POMASS =   16.000; ZVAL   =    6.000    mass and valenz
   ENMAX  =  400.000; ENMIN  =  300.000 eV

 Optimization of the real space projectors (new method)

 maximal supplied QI-value         = 16.25
 optimisation between [QCUT,QGAM] = [ 11.38, 22.75] = [ 36.24,144.96] Ry
 Optimized for a Real-space Cutoff    1.52 Angstroem

   l    n(q)    QCUT    max X(q) W(low)/X(q) W(high)/X(q)  e(spline)
   2      9    11.376     4.610    0.21E-03    0.10E-03    0.26E-06
   2      9    11.376     8.522    0.33E-03    0.16E-03    0.37E-06
   0     10    11.376    51.609    0.62E-04    0.20E-04    0.13E-06
   0     10    11.376    27.747    0.54E-04    0.20E-04    0.13E-06
   1     10    11.376    20.408    0.13E-04    0.99E-04    0.19E-06
   1     10    11.376    13.425    0.12E-04    0.87E-04    0.17E-06
 Optimization of the real space projectors (new method)

[...]

   l    n(q)    QCUT    max X(q) W(low)/X(q) W(high)/X(q)  e(spline)
   0      7    11.310   115.676    0.43E-03    0.13E-02    0.19E-06
   0      7    11.310    87.132    0.43E-03    0.13E-02    0.18E-06
   1      6    11.310     4.429    0.42E-03    0.74E-03    0.11E-06
   1      6    11.310     2.733    0.34E-03    0.55E-03    0.92E-07
 Optimization of the real space projectors (new method)

 maximal supplied QI-value         = 24.76
 optimisation between [QCUT,QGAM] = [ 11.39, 22.77] = [ 36.31,145.25] Ry
 Optimized for a Real-space Cutoff    1.00 Angstroem

   l    n(q)    QCUT    max X(q) W(low)/X(q) W(high)/X(q)  e(spline)
   0      7    11.387    20.381    0.39E-03    0.13E-02    0.15E-06
   0      7    11.387    15.268    0.42E-03    0.14E-02    0.17E-06
   1      6    11.387     5.964    0.41E-03    0.11E-02    0.17E-06
   1      6    11.387     5.382    0.39E-03    0.87E-03    0.15E-06
  PAW_PBE Cu 22Jun2005                  :
  PAW_PBE Fe 06Sep2000                  :
  PAW_PBE C 08Apr2002                   :
  PAW_PBE O 08Apr2002                   :

 POSCAR: Cu-Fe-CO
  positions in direct lattice
  velocities in cartesian coordinates
 exchange correlation table for  LEXCH =        8
   RHO(1)=    0.500       N(1)  =     2000
   RHO(2)=  100.500       N(2)  =     4000

 VTST: version 3.2, (02/03/18)

 CHAIN: initializing optimizer

 OPT: Using VASP Conjugate-Gradient optimizer
 CHAIN: Read ICHAIN            0

 POSCAR: Cu-Fe-CO
  positions in direct lattice
  velocities in cartesian coordinates

 ion  position               nearest neighbor table
   1  0.000  0.000  0.252-   7 2.57   3 2.57   4 2.57   2 2.57   6 2.57   8 2.57  12 2.57  10 2.57
                            16 2.57
   2  0.333  0.000  0.252-   8 2.57   9 2.57   5 2.57   1 2.57   3 2.57  11 2.57   4 2.57  10 2.57
                            17 2.57
   3  0.667  0.000  0.252-   1 2.57   7 2.57   6 2.57   9 2.57   2 2.57  12 2.57   5 2.57  18 2.57
                            11 2.57
   4  0.000  0.333  0.252-   5 2.57   6 2.57   1 2.57   7 2.57   2 2.57  13 2.57   9 2.57  10 2.57
                            15 2.57
   5  0.333  0.333  0.252-   4 2.57   2 2.57   7 2.57  13 2.57   8 2.57   6 2.57   3 2.57  11 2.57
                            14 2.57
   6  0.667  0.333  0.252-   4 2.57   9 2.57  15 2.57   3 2.57   1 2.57   8 2.57  14 2.57   5 2.57
                            12 2.57
   7  0.000  0.667  0.252-   1 2.57   3 2.57  16 2.57  18 2.57   4 2.57   5 2.57   8 2.57   9 2.57
                            13 2.57
   8  0.333  0.667  0.252-   9 2.57   2 2.57  17 2.57   6 2.57   1 2.57   7 2.57   5 2.57  14 2.57
                            16 2.57
   9  0.667  0.667  0.252-   8 2.57   6 2.57   2 2.57  17 2.57   3 2.57   7 2.57   4 2.57  15 2.57
                            18 2.57
  10  0.111  0.111  0.351-  20 2.55  26 2.56  19 2.56  11 2.57  12 2.57  13 2.57   1 2.57   2 2.57
                             4 2.57  15 2.57  16 2.57  17 2.57
  11  0.444  0.111  0.351-  20 2.55  21 2.55  27 2.56  10 2.57  13 2.57   2 2.57  17 2.57  14 2.57
                            12 2.57   5 2.57   3 2.57  18 2.57
  12  0.778  0.111  0.351-  21 2.55  19 2.56  25 2.56  15 2.57  10 2.57  14 2.57  18 2.57   3 2.57
                             1 2.57  16 2.57  11 2.57   6 2.57
  13  0.111  0.444  0.351-  23 2.55  20 2.55  22 2.56  16 2.57  18 2.57  10 2.57  11 2.57  14 2.57
                             5 2.57   4 2.57   7 2.57  15 2.57
  14  0.444  0.444  0.351-  21 2.55  23 2.55  24 2.56  15 2.57  17 2.57  12 2.57  16 2.57  13 2.57
                            11 2.57   6 2.57   8 2.57   5 2.57
  15  0.778  0.444  0.351-  19 2.56  24 2.56  22 2.56  14 2.57  17 2.57  12 2.57   6 2.57  18 2.57
                            10 2.57   9 2.57  13 2.57   4 2.57
  16  0.111  0.778  0.351-  23 2.55  25 2.56  26 2.56  18 2.57  13 2.57   7 2.57  14 2.57  17 2.57
                            12 2.57  10 2.57   8 2.57   1 2.57
  17  0.444  0.778  0.351-  26 2.56  27 2.56  24 2.56  14 2.57  15 2.57   8 2.57   9 2.57  11 2.57
                            16 2.57  18 2.57  10 2.57   2 2.57
  18  0.778  0.778  0.351-  25 2.56  22 2.56  27 2.56  16 2.57  13 2.57   7 2.57  15 2.57  12 2.57
                            17 2.57   9 2.57   3 2.57  11 2.57
  19  0.889  0.223  0.449-  28 2.55  15 2.56  12 2.56  10 2.56  22 2.56  24 2.56  32 2.57  31 2.57
                            21 2.57  20 2.57  25 2.57  26 2.57
  20  0.222  0.222  0.448-  36 2.47  11 2.55  13 2.55  10 2.55  29 2.55  31 2.55  23 2.56  21 2.56
                            26 2.57  19 2.57  27 2.57  22 2.57
  21  0.555  0.222  0.448-  36 2.47  14 2.55  11 2.55  12 2.55  32 2.55  30 2.55  20 2.56  23 2.56
                            19 2.57  25 2.57  24 2.57  27 2.57
  22  0.888  0.556  0.449-  35 2.54  31 2.56  33 2.56  18 2.56  15 2.56  24 2.56  27 2.56  13 2.56
                            19 2.56  25 2.56  23 2.57  20 2.57
  23  0.222  0.555  0.448-  36 2.47  13 2.55  14 2.55  16 2.55  33 2.55  34 2.55  20 2.56  21 2.56
                            25 2.57  26 2.57  22 2.57  24 2.57
  24  0.556  0.556  0.449-  35 2.54  32 2.56  34 2.56  15 2.56  17 2.56  22 2.56  27 2.56  14 2.56
                            19 2.56  26 2.56  21 2.57  23 2.57
  25  0.889  0.889  0.449-  28 2.55  18 2.56  16 2.56  12 2.56  22 2.56  27 2.56  33 2.57  30 2.57
                            21 2.57  23 2.57  19 2.57  26 2.57
  26  0.223  0.889  0.449-  28 2.55  17 2.56  10 2.56  16 2.56  27 2.56  24 2.56  29 2.57  34 2.57
                            20 2.57  23 2.57  25 2.57  19 2.57
  27  0.556  0.888  0.449-  35 2.54  29 2.56  30 2.56  17 2.56  18 2.56  24 2.56  22 2.56  11 2.56
                            26 2.56  25 2.56  20 2.57  21 2.57
  28  0.000  0.000  0.546-  25 2.55  19 2.55  26 2.55  33 2.58  30 2.58  31 2.58  29 2.58  32 2.58
                            34 2.58
  29  0.333  0.003  0.547-  31 2.54  30 2.54  36 2.54  20 2.55  27 2.56  26 2.57  28 2.58  35 2.58
                            34 2.61
  30  0.664  0.003  0.547-  32 2.54  29 2.54  36 2.54  21 2.55  27 2.56  25 2.57  28 2.58  35 2.58
                            33 2.61
  31  0.003  0.333  0.547-  29 2.54  33 2.54  36 2.54  20 2.55  22 2.56  19 2.57  28 2.58  35 2.58
                            32 2.61
  32  0.664  0.333  0.547-  30 2.54  34 2.54  36 2.54  21 2.55  24 2.56  19 2.57  28 2.58  35 2.58
                            31 2.61
  33  0.003  0.664  0.547-  34 2.54  31 2.54  36 2.54  23 2.55  22 2.56  25 2.57  28 2.58  35 2.58
                            30 2.61
  34  0.333  0.664  0.547-  33 2.54  32 2.54  36 2.54  23 2.55  24 2.56  26 2.57  28 2.58  35 2.58
                            29 2.61
  35  0.667  0.667  0.546-  24 2.54  27 2.54  22 2.54  34 2.58  32 2.58  29 2.58  30 2.58  33 2.58
                            31 2.58
  36  0.333  0.333  0.541-  37 1.75  23 2.47  20 2.47  21 2.47  31 2.54  29 2.54  33 2.54  34 2.54
                            32 2.54  30 2.54
  37  0.333  0.333  0.623-  38 1.17  36 1.75
  38  0.333  0.333  0.678-  37 1.17

  LATTYP: Found a hexagonal cell.
 ALAT       =     7.6967864036
 C/A-ratio  =     2.7653617908

  Lattice vectors:

 A1 = (  -3.8483927580,  -6.6656128093,   0.0000000000)
 A2 = (   7.6967864037,   0.0000000000,   0.0000000000)
 A3 = (   0.0000000000,   0.0000000000,  21.2843990326)

Analysis of symmetry for initial positions (statically):
 Subroutine PRICEL returns:
 Original cell was already a primitive cell.

 Routine SETGRP: Setting up the symmetry group for a
 hexagonal supercell.

 Subroutine GETGRP returns: Found  6 space group operations
 (whereof  6 operations were pure point group operations)
 out of a pool of 24 trial point group operations.

The static configuration has the point symmetry C_3v.

Analysis of symmetry for dynamics (positions and initial velocities):
 Subroutine PRICEL returns:
 Original cell was already a primitive cell.

[...]

The dynamic configuration has the point symmetry C_3v.

Analysis of constrained symmetry for selective dynamics:
 Subroutine PRICEL returns:
[...]
     33      -4.0784      2.00000
     34      -4.0678      2.00000
     35      -4.0485      2.00000
     36      -4.0364      2.00000
     37      -3.9803      2.00000
     38      -3.9700      2.00000
     39      -3.9313      2.00000
     40      -3.8463      2.00000
     41      -3.8367      2.00000
     42      -3.7620      2.00000
     43      -3.7514      2.00000
     44      -3.6760      2.00000
     45      -3.6722      2.00000
     46      -3.6517      2.00000
     47      -3.6310      2.00000
     48      -3.6279      2.00000
     49      -3.6024      2.00000
     50      -3.5883      2.00000
     51      -3.4248      2.00000
     52      -3.4038      2.00000
     53      -3.4010      2.00000
     54      -3.3957      2.00000
     55      -3.3442      2.00000
     56      -3.3393      2.00000
     57      -3.3292      2.00000
     58      -3.2997      2.00000
     59      -3.2949      2.00000
     60      -3.2724      2.00000
[...]
    238       5.8213      0.00000
    239       6.1101      0.00000
    240       6.1452      0.00000
    241       6.2011      0.00000
    242       6.3042      0.00000
    243       6.4328      0.00000
    244       7.0025      0.00000
    245       7.0107      0.00000
    246       7.0795      0.00000
    247       7.1378      0.00000
    248       7.2027      0.00000
    249       7.2659      0.00000
    250       7.4332      0.00000
    251       7.4701      0.00000
    252       7.5176      0.00000

 soft charge-density along one line, spin component           1
         0         1         2         3         4         5         6         7         8         9
 total charge-density along one line

------------------------ aborting loop because EDIFF is reached ----------------------------------------

 total charge

# of ion       s       p       d       tot
    1        0.449   0.283   9.190   9.922
    2        0.449   0.285   9.187   9.920
    3        0.449   0.285   9.187   9.920
    4        0.449   0.285   9.187   9.920
    5        0.449   0.286   9.180   9.916
    6        0.449   0.285   9.187   9.920
    7        0.449   0.285   9.187   9.920
    8        0.449   0.285   9.187   9.920
    9        0.447   0.283   9.191   9.921
   10        0.441   0.372   9.176   9.988
   11        0.444   0.366   9.184   9.994
   12        0.441   0.372   9.176   9.988
   13        0.444   0.366   9.184   9.994
   14        0.444   0.366   9.184   9.994
   15        0.438   0.371   9.177   9.986
   16        0.441   0.372   9.176   9.988
   17        0.438   0.371   9.177   9.986
   18        0.438   0.371   9.177   9.986
   19        0.441   0.369   9.181   9.992
   20        0.459   0.389   9.168  10.016
   21        0.459   0.389   9.168  10.016
   22        0.434   0.377   9.180   9.990
   23        0.459   0.389   9.168  10.016
   24        0.434   0.377   9.180   9.990
   25        0.441   0.369   9.181   9.992
   26        0.441   0.369   9.181   9.992
   27        0.434   0.377   9.180   9.990
   28        0.447   0.282   9.193   9.922
   29        0.449   0.295   9.183   9.927
   30        0.449   0.295   9.183   9.927
   31        0.449   0.295   9.183   9.927
   32        0.449   0.295   9.183   9.927
   33        0.449   0.295   9.183   9.927
   34        0.449   0.295   9.183   9.927
   35        0.444   0.285   9.191   9.920
   36        0.478   0.567   6.459   7.504
   37        0.958   1.555   0.000   2.513
   38        1.610   3.530   0.000   5.140
tot         18.640  17.285 327.818 363.743

  FORCE on cell =-STRESS in cart. coord.  units (eV):
  Direction    XX          YY          ZZ          XY          YZ          ZX
  Alpha Z   906.78955   906.78955   906.78955
  Ewald  171810.63520171810.63476************     0.00042     0.00012     0.00019
  Hartree185070.14370185070.14366************     0.00005     0.00006     0.00007
  E(xc)   -2330.57037 -2330.56996 -2334.00995    -0.00035    -0.00003    -0.00006
  Local  ************************369759.33667     0.01868    -0.00060    -0.00100
  n-local  -813.22294  -799.73936  -825.14783     7.31565    -0.01686     0.21017
  augment  3352.30391  3352.32378  3367.61072    -0.01721     0.00030     0.00058
  Kinetic  3399.89274  3404.53107  3395.03496     3.79426     1.70877    -1.32160
  Fock        0.00000     0.00000     0.00000     0.00000     0.00000     0.00000
  Total      -6.47148    -6.47148     2.39385     0.00000    -0.00000    -0.00000
  in kB      -9.49518    -9.49518     3.51234     0.00000    -0.00000    -0.00000

 VOLUME and BASIS-vectors are now :
  energy-cutoff  :      500.00
  volume of cell :     1091.97
      direct lattice vectors                 reciprocal lattice vectors
     7.696786404  0.000000000  0.000000000     0.129924354 -0.075011849  0.000000000
     3.848392758  6.665612809  0.000000000     0.000000000  0.150023716  0.000000000
     0.000000000  0.000000000 21.284399033     0.000000000  0.000000000  0.046982769

  length of vectors
     7.696786404  7.696786404 21.284399033     0.150023716  0.150023716  0.046982769

 FORCES acting on ions
    electron-ion (+dipol)            ewald-force                    non-local-force                 convergence-correction
   -.416E-04 0.130E-06 0.350E+04   0.579E-04 -.441E-05 -.350E+04   -.618E-18 -.410E-17 -.288E+01   -.325E-03 -.155E-03 -.361E+00
   0.586E-02 0.160E+00 0.350E+04   -.158E+00 -.188E+00 -.350E+04   0.752E-01 0.793E-01 -.190E+01   0.857E-01 -.284E-01 -.272E+00
   -.584E-02 0.160E+00 0.350E+04   0.158E+00 -.188E+00 -.350E+04   -.752E-01 0.793E-01 -.190E+01   -.848E-01 -.260E-01 -.271E+00
   0.141E+00 -.748E-01 0.350E+04   -.242E+00 -.424E-01 -.350E+04   0.106E+00 0.255E-01 -.190E+01   0.183E-01 0.884E-01 -.272E+00
   -.653E-04 -.557E-05 0.350E+04   0.116E-03 -.101E-04 -.350E+04   -.101E-17 -.329E-17 -.153E+01   0.121E-01 0.738E-02 -.160E+00
   -.141E+00 -.747E-01 0.350E+04   0.242E+00 -.426E-01 -.350E+04   -.106E+00 0.255E-01 -.190E+01   -.198E-01 0.895E-01 -.271E+00
   0.135E+00 -.849E-01 0.350E+04   -.843E-01 0.231E+00 -.350E+04   0.311E-01 -.105E+00 -.190E+01   -.649E-01 -.605E-01 -.271E+00
   -.135E+00 -.849E-01 0.350E+04   0.840E-01 0.231E+00 -.350E+04   -.311E-01 -.105E+00 -.190E+01   0.683E-01 -.619E-01 -.271E+00
   -.144E-03 -.329E-04 0.350E+04   0.263E-03 0.206E-04 -.350E+04   -.380E-18 -.279E-17 -.248E+01   -.131E-01 -.675E-02 -.273E+00
   0.225E+01 0.130E+01 0.121E+04   -.195E+01 -.113E+01 -.121E+04   -.424E+00 -.245E+00 -.105E+01   0.125E+00 0.723E-01 -.248E+00
   -.902E-04 0.187E+01 0.121E+04   0.189E-03 -.226E+01 -.121E+04   -.174E-07 0.262E+00 -.466E+00   0.118E-01 0.902E-01 -.200E+00
   -.225E+01 0.130E+01 0.121E+04   0.195E+01 -.113E+01 -.121E+04   0.424E+00 -.245E+00 -.105E+01   -.127E+00 0.729E-01 -.249E+00
   0.162E+01 -.935E+00 0.121E+04   -.195E+01 0.113E+01 -.121E+04   0.227E+00 -.131E+00 -.466E+00   0.845E-01 -.341E-01 -.200E+00
   -.162E+01 -.935E+00 0.121E+04   0.195E+01 0.113E+01 -.121E+04   -.227E+00 -.131E+00 -.466E+00   -.613E-01 -.358E-01 -.203E+00
   -.143E-03 0.134E+00 0.121E+04   0.299E-03 -.386E+00 -.121E+04   -.881E-08 0.132E+00 -.101E+01   -.297E-02 0.105E+00 -.269E+00
   -.913E-04 -.259E+01 0.121E+04   0.185E-03 0.226E+01 -.121E+04   -.326E-07 0.490E+00 -.105E+01   -.116E-02 -.147E+00 -.249E+00
   0.116E+00 -.669E-01 0.121E+04   -.334E+00 0.193E+00 -.121E+04   0.115E+00 -.661E-01 -.101E+01   0.900E-01 -.550E-01 -.269E+00
   -.116E+00 -.669E-01 0.121E+04   0.334E+00 0.193E+00 -.121E+04   -.115E+00 -.661E-01 -.101E+01   -.884E-01 -.527E-01 -.267E+00
   -.583E-04 0.648E+00 -.110E+04   0.674E-04 -.789E+00 0.110E+04   -.131E-08 0.197E-01 0.938E+00   0.132E-02 0.123E+00 -.233E+00
   -.127E+01 -.731E+00 -.109E+04   0.228E+01 0.132E+01 0.109E+04   -.128E+01 -.740E+00 -.104E+01   0.195E+00 0.113E+00 -.124E+00
   0.127E+01 -.731E+00 -.109E+04   -.228E+01 0.132E+01 0.109E+04   0.128E+01 -.740E+00 -.104E+01   -.216E+00 0.110E+00 -.124E+00
   -.241E+01 0.139E+01 -.110E+04   0.192E+01 -.111E+01 0.110E+04   0.394E+00 -.227E+00 0.705E+00   0.160E+00 -.790E-01 -.362E+00
   -.769E-04 0.146E+01 -.109E+04   0.142E-03 -.263E+01 0.109E+04   -.985E-07 0.148E+01 -.104E+01   -.137E-01 -.244E+00 -.124E+00
   0.241E+01 0.139E+01 -.110E+04   -.192E+01 -.111E+01 0.110E+04   -.394E+00 -.227E+00 0.705E+00   -.136E+00 -.797E-01 -.363E+00
   -.561E+00 -.324E+00 -.110E+04   0.683E+00 0.394E+00 0.110E+04   -.170E-01 -.984E-02 0.938E+00   -.109E+00 -.627E-01 -.233E+00
   0.561E+00 -.324E+00 -.110E+04   -.683E+00 0.394E+00 0.110E+04   0.170E-01 -.984E-02 0.938E+00   0.108E+00 -.602E-01 -.232E+00
   -.127E-03 -.279E+01 -.110E+04   0.243E-03 0.222E+01 0.110E+04   -.303E-07 0.454E+00 0.705E+00   0.115E-01 0.178E+00 -.362E+00
   -.322E-04 0.176E-04 -.339E+04   0.322E-04 -.352E-04 0.339E+04   -.156E-18 -.729E-18 0.254E+01   0.141E-02 0.867E-03 0.419E+00
   0.151E+02 0.266E+02 -.337E+04   -.148E+02 -.264E+02 0.336E+04   -.401E+00 -.445E+00 0.263E+01   0.126E+00 0.264E+00 0.276E+00
   -.151E+02 0.266E+02 -.337E+04   0.148E+02 -.264E+02 0.336E+04   0.401E+00 -.445E+00 0.263E+01   -.147E+00 0.266E+00 0.275E+00
   0.306E+02 -.248E+00 -.337E+04   -.303E+02 0.396E+00 0.336E+04   -.586E+00 -.125E+00 0.263E+01   0.292E+00 -.234E-01 0.276E+00
   -.306E+02 -.248E+00 -.337E+04   0.303E+02 0.396E+00 0.336E+04   0.586E+00 -.125E+00 0.263E+01   -.314E+00 -.227E-01 0.277E+00
   0.155E+02 -.263E+02 -.337E+04   -.155E+02 0.260E+02 0.336E+04   -.184E+00 0.570E+00 0.263E+01   0.157E+00 -.260E+00 0.275E+00
   -.155E+02 -.263E+02 -.337E+04   0.155E+02 0.260E+02 0.336E+04   0.184E+00 0.570E+00 0.263E+01   -.176E+00 -.260E+00 0.277E+00
   -.134E-03 -.185E-04 -.340E+04   0.258E-03 0.720E-05 0.339E+04   -.188E-17 -.595E-17 0.269E+01   -.108E-01 -.543E-02 0.419E+00
   -.687E-04 -.287E-04 -.223E+04   0.105E-03 0.189E-04 0.223E+04   0.732E-18 0.387E-18 -.666E+00   0.472E-02 0.285E-02 0.199E+00
   -.483E-05 -.763E-04 -.126E+04   0.129E-04 0.591E-05 0.125E+04   -.234E-18 -.891E-19 0.156E+02   0.123E-02 0.737E-03 0.969E-02
   0.223E-03 -.745E-04 -.201E+04   0.307E-05 0.297E-05 0.207E+04   -.372E-19 -.107E-18 -.581E+02   0.328E-02 0.200E-02 -.403E-02
   -.838E-04 -.184E-03 0.502E+02   0.186E-12 0.202E-12 0.637E-11   0.304E-15 0.105E-15 -.462E+02   -.295E-01 -.199E-01 -.403E+01

 POSITION                                       TOTAL-FORCE (eV/Angst)
      0.00000      0.00000      5.37156         0.000000      0.000000     -0.001717
      2.56560      0.00000      5.37156         0.009325      0.023186      0.072788
      5.13119      0.00000      5.37156        -0.009325      0.023186      0.072788
      1.28280      2.22187      5.37156         0.024742     -0.003517      0.072788
      3.84839      2.22187      5.37156         0.000000      0.000000      0.051758
      6.41399      2.22187      5.37156        -0.024742     -0.003517      0.072788
      2.56560      4.44374      5.37156         0.015417     -0.019669      0.072788
      5.13119      4.44374      5.37156        -0.015417     -0.019669      0.072788
      7.69679      4.44374      5.37156         0.000000     -0.000000      0.026738
      1.28280      0.74062      7.46636        -0.005775     -0.003334     -0.060374
      3.84839      0.74062      7.46636         0.000000     -0.039161     -0.076750
      6.41399      0.74062      7.46636         0.005775     -0.003334     -0.060374
      2.56560      2.96249      7.46636        -0.033914      0.019580     -0.076750
      5.13119      2.96249      7.46636         0.033914      0.019580     -0.076750
      7.69679      2.96249      7.46636         0.000000     -0.015608     -0.029654
      3.84839      5.18437      7.46636        -0.000000      0.006668     -0.060374
      6.41399      5.18437      7.46636        -0.013517      0.007804     -0.029654
      8.97958      5.18437      7.46636         0.013517      0.007804     -0.029654
      7.69679      1.48386      9.55425        -0.000000      0.002944      0.060386
      2.56752      1.48236      9.54187        -0.062915     -0.036324     -0.207345
      5.12927      1.48236      9.54187         0.062915     -0.036324     -0.207345
      8.97669      3.70479      9.55452         0.047154     -0.027225      0.010829
      3.84839      3.70090      9.54187        -0.000000      0.072648     -0.207345
      6.41688      3.70479      9.55452        -0.047154     -0.027225      0.010829
     10.26012      5.92368      9.55425        -0.002550     -0.001472      0.060386
      5.13345      5.92368      9.55425         0.002550     -0.001472      0.060386
      7.69679      5.92165      9.55452        -0.000000      0.054449      0.010829
      0.00000      0.00000     11.62539         0.000000      0.000000     -0.054410
      2.57645      0.02208     11.63568        -0.013130     -0.034618     -0.017343
      5.12034      0.02208     11.63568         0.013130     -0.034618     -0.017343
      1.30734      2.22023     11.63568        -0.036545      0.005938     -0.017343
      6.38944      2.22023     11.63568         0.036545      0.005938     -0.017343
      2.57929      4.42331     11.63568        -0.023415      0.028680     -0.017343
      5.11749      4.42331     11.63568         0.023415      0.028680     -0.017343
      7.69679      4.44374     11.62587         0.000000      0.000000     -0.035069
      3.84839      2.22187     11.51524         0.000000      0.000000      0.554252
      3.84839      2.22187     13.26231         0.000000      0.000000      0.072794
      3.84839      2.22187     14.43709         0.000000      0.000000     -0.038291
    total drift:                               -0.029625     -0.020099     -0.047672

  FREE ENERGIE OF THE ION-ELECTRON SYSTEM (eV)
  free  energy   TOTEN  =      -145.86976789 eV

  energy  without entropy=     -145.86976789  energy(sigma->0) =     -145.86976789

 stress matrix after NEB project (eV)
     -6.47148      0.00000     -0.00000
      0.00000     -6.47148      0.00000
      0.00000     -0.00000      2.39385
  FORCES: max atom, RMS     0.072794    0.013343
  FORCE total and by dimension    0.082251    0.072794
  Stress total and by dimension    9.459951    6.471481
|           W    W    AA    RRRRR   N    N  II  N    N   GGGG   !!!           |
|           W    W   A  A   R    R  NN   N  II  NN   N  G    G  !!!           |
|           W    W  A    A  R    R  N N  N  II  N N  N  G       !!!           |
|           W WW W  AAAAAA  RRRRR   N  N N  II  N  N N  G  GGG   !            |
|           WW  WW  A    A  R   R   N   NN  II  N   NN  G    G                |
|           W    W  A    A  R    R  N    N  II  N    N   GGGG   !!!           |
|     Tetrahedron method does not include variations of the Fermi             |
|     occupations, so forces and stress will be inaccurate. We suggest        |
|     using a different smearing scheme ISMEAR = 1 or 2 for metals in         |
|     relaxations.                                                            |

 total charge

# of ion       s       p       d       tot
    1        0.449   0.283   9.190   9.922
    2        0.449   0.285   9.187   9.920
    3        0.449   0.285   9.187   9.920
    4        0.449   0.285   9.187   9.920
    5        0.449   0.286   9.180   9.916
    6        0.449   0.285   9.187   9.920
    7        0.449   0.285   9.187   9.920
    8        0.449   0.285   9.187   9.920
    9        0.447   0.283   9.191   9.921
   10        0.441   0.372   9.176   9.988
   11        0.444   0.366   9.184   9.994
   12        0.441   0.372   9.176   9.988
   13        0.444   0.366   9.184   9.994
   14        0.444   0.366   9.184   9.994
   15        0.438   0.371   9.177   9.986
   16        0.441   0.372   9.176   9.988
   17        0.438   0.371   9.177   9.986
   18        0.438   0.371   9.177   9.986
   19        0.441   0.369   9.181   9.992
   20        0.459   0.389   9.168  10.016
   21        0.459   0.389   9.168  10.016
   22        0.434   0.377   9.180   9.990
   23        0.459   0.389   9.168  10.016
   24        0.434   0.377   9.180   9.990
   25        0.441   0.369   9.181   9.992
   26        0.441   0.369   9.181   9.992
   27        0.434   0.377   9.180   9.990
   28        0.447   0.282   9.193   9.922
   29        0.449   0.295   9.183   9.927
   30        0.449   0.295   9.183   9.927
   31        0.449   0.295   9.183   9.927
   32        0.449   0.295   9.183   9.927
   33        0.449   0.295   9.183   9.927
   34        0.449   0.295   9.183   9.927
   35        0.444   0.285   9.191   9.920
   36        0.478   0.567   6.459   7.504
   37        0.958   1.555   0.000   2.513
   38        1.610   3.530   0.000   5.140
tot         18.640  17.285 327.818 363.743

 BZINTS: Fermi energy:    0.009744;  403.000000 electrons
         Band energy:-0.117934E+04;  BLOECHL correction:   -0.042220