 vasp.6.2.0 18Jan21 (build Jun 12 2021 23:27:24) complex

 executed on             LinuxIFC date 2022.05.27  05:07:19

 INCAR:
   ISMEAR = -5
   SIGMA = 0.1
   ISPIN = 1
   EDIFF = 1.d-5
   EDIFFG = -0.01
   NSW = 0
   NELM = 150
   ENCUT = 500
   ISIF = 2
   IBRION = 2
   LREAL = Auto
   ALGO = Fast
   ICHARG = 11
   LORBIT = 10
   LCHARG = .F.
   LWAVE = .F.

 POTCAR:    PAW_PBE Au 04Oct2007
 POTCAR:    PAW_PBE Mo 08Apr2002
 POTCAR:    PAW_PBE O 08Apr2002
 POTCAR:    PAW_PBE H 15Jun2001
|           W    W    AA    RRRRR   N    N  II  N    N   GGGG   !!!           |
|           W    W   A  A   R    R  NN   N  II  NN   N  G    G  !!!           |
|           W    W  A    A  R    R  N N  N  II  N N  N  G       !!!           |
|           W WW W  AAAAAA  RRRRR   N  N N  II  N  N N  G  GGG   !            |
|           WW  WW  A    A  R   R   N   NN  II  N   NN  G    G                |
|           W    W  A    A  R    R  N    N  II  N    N   GGGG   !!!           |
|     For optimal performance we recommend to set                             |
|       NCORE = 2 up to number-of-cores-per-socket                            |
|     This setting can greatly improve the performance of VASP for DFT.       |
|     The default, NCORE=1 might be grossly inefficient on modern             |
|     multi-core architectures or massively parallel machines. Do your        |
|     Unfortunately you need to use the default for GW and RPA                |
|     calculations (for HF NCORE is supported but not extensively tested      |
|     yet).                                                                   |

 POTCAR:    PAW_PBE Au 04Oct2007
   VRHFIN =Au: s1d10

   TITEL  = PAW_PBE Au 04Oct2007
   POMASS =  196.966; ZVAL   =   11.000    mass and valenz
   ENMAX  =  229.943; ENMIN  =  172.457 eV

 POTCAR:    PAW_PBE Mo 08Apr2002
   VRHFIN =Mo: 4p5s4d

   TITEL  = PAW_PBE Mo 08Apr2002
   POMASS =   95.940; ZVAL   =    6.000    mass and valenz
   ENMAX  =  224.584; ENMIN  =  168.438 eV

 POTCAR:    PAW_PBE O 08Apr2002
   VRHFIN =O: s2p4

   TITEL  = PAW_PBE O 08Apr2002
   POMASS =   16.000; ZVAL   =    6.000    mass and valenz
   ENMAX  =  400.000; ENMIN  =  300.000 eV

 POTCAR:    PAW_PBE H 15Jun2001
   VRHFIN =H: ultrasoft test

   TITEL  = PAW_PBE H 15Jun2001
   POMASS =    1.000; ZVAL   =    1.000    mass and valenz
   ENMAX  =  250.000; ENMIN  =  200.000 eV

 Optimization of the real space projectors (new method)

 maximal supplied QI-value         = 15.12
 optimisation between [QCUT,QGAM] = [ 11.34, 22.83] = [ 36.00,145.93] Ry
 Optimized for a Real-space Cutoff    1.39 Angstroem

   l    n(q)    QCUT    max X(q) W(low)/X(q) W(high)/X(q)  e(spline)
   2      9    11.338    60.898    0.39E-03    0.42E-03    0.21E-06
   2      9    11.338    58.894    0.40E-03    0.42E-03    0.22E-06
   0      9    11.338   109.617    0.13E-03    0.20E-04    0.13E-06
   0      9    11.338    75.026    0.13E-03    0.20E-04    0.13E-06
   1      9    11.338    16.344    0.33E-04    0.24E-03    0.18E-06
   1      9    11.338    10.160    0.26E-04    0.19E-03    0.15E-06
 Optimization of the real space projectors (new method)

[...]

   l    n(q)    QCUT    max X(q) W(low)/X(q) W(high)/X(q)  e(spline)
   0      7    11.387    20.381    0.39E-03    0.13E-02    0.15E-06
   0      7    11.387    15.268    0.42E-03    0.14E-02    0.17E-06
   1      6    11.387     5.964    0.41E-03    0.11E-02    0.17E-06
   1      6    11.387     5.382    0.39E-03    0.87E-03    0.15E-06
 Optimization of the real space projectors (new method)

 maximal supplied QI-value         = 34.20
 optimisation between [QCUT,QGAM] = [ 11.29, 22.57] = [ 35.68,142.71] Ry
 Optimized for a Real-space Cutoff    1.16 Angstroem

   l    n(q)    QCUT    max X(q) W(low)/X(q) W(high)/X(q)  e(spline)
   0      8    11.287    19.460    0.40E-03    0.73E-03    0.16E-06
   0      8    11.287    12.209    0.38E-03    0.70E-03    0.15E-06
   1      7    11.287     4.655    0.22E-03    0.25E-04    0.22E-06
  PAW_PBE Au 04Oct2007                  :
  PAW_PBE Mo 08Apr2002                  :
  PAW_PBE O 08Apr2002                   :
  PAW_PBE H 15Jun2001                   :

 POSCAR: Au-Mo-OH
  positions in direct lattice
  velocities in cartesian coordinates
 exchange correlation table for  LEXCH =        8
   RHO(1)=    0.500       N(1)  =     2000
   RHO(2)=  100.500       N(2)  =     4000

 VTST: version 3.2, (02/03/18)

 CHAIN: initializing optimizer

 OPT: Using VASP Conjugate-Gradient optimizer
 CHAIN: Read ICHAIN            0

 POSCAR: Au-Mo-OH
  positions in direct lattice
  velocities in cartesian coordinates

 ion  position               nearest neighbor table
   1  0.000  0.000  0.238-  16 2.94  12 2.94   6 2.94   8 2.94   7 2.94   3 2.94  10 2.94   4 2.94
                             2 2.94
   2  0.333  0.000  0.238-   9 2.94  11 2.94  17 2.94  10 2.94   8 2.94   4 2.94   5 2.94   1 2.94
                             3 2.94
   3  0.667  0.000  0.238-   7 2.94  18 2.94  12 2.94   1 2.94  11 2.94   5 2.94   6 2.94   9 2.94
                             2 2.94
   4  0.000  0.333  0.238-  10 2.94   6 2.94   5 2.94  13 2.94   2 2.94  15 2.94   9 2.94   1 2.94
                             7 2.94
   5  0.333  0.333  0.238-  13 2.94   7 2.94  11 2.94   4 2.94   2 2.94  14 2.94   3 2.94   8 2.94
                             6 2.94
   6  0.667  0.333  0.238-  15 2.94  14 2.94   1 2.94  12 2.94   4 2.94   9 2.94   8 2.94   3 2.94
                             5 2.94
   7  0.000  0.667  0.238-  18 2.94   3 2.94  16 2.94   5 2.94   1 2.94  13 2.94   8 2.94   4 2.94
                             9 2.94
   8  0.333  0.667  0.238-   9 2.94  17 2.94   1 2.94   2 2.94  14 2.94  16 2.94   6 2.94   7 2.94
                             5 2.94
   9  0.667  0.667  0.238-   2 2.94   8 2.94  17 2.94   6 2.94  15 2.94   4 2.94   3 2.94  18 2.94
                             7 2.94
  10  0.111  0.111  0.346-  20 2.91  11 2.94  17 2.94   2 2.94   4 2.94   1 2.94  12 2.94  16 2.94
                            13 2.94  15 2.94  26 2.95  19 2.95
  11  0.444  0.111  0.346-  20 2.91  21 2.91  13 2.94   2 2.94  10 2.94  17 2.94   5 2.94   3 2.94
                            18 2.94  14 2.94  12 2.94  27 2.94
  12  0.778  0.111  0.346-  21 2.91  16 2.94  18 2.94   1 2.94  14 2.94  15 2.94   3 2.94   6 2.94
                            10 2.94  11 2.94  25 2.95  19 2.95
  13  0.111  0.444  0.346-  23 2.91  20 2.91   5 2.94  18 2.94  11 2.94   7 2.94   4 2.94  16 2.94
                            10 2.94  14 2.94  15 2.94  22 2.94
  14  0.444  0.444  0.346-  21 2.91  23 2.91  15 2.94   6 2.94  12 2.94   8 2.94  17 2.94   5 2.94
                            16 2.94  13 2.94  11 2.94  24 2.94
  15  0.778  0.444  0.346-  24 2.93  22 2.93  14 2.94   6 2.94  17 2.94  12 2.94   9 2.94   4 2.94
                            10 2.94  13 2.94  18 2.94  19 2.95
  16  0.111  0.778  0.346-  23 2.91  18 2.94  12 2.94   7 2.94   1 2.94   8 2.94  13 2.94  10 2.94
                            14 2.94  17 2.94  25 2.95  26 2.95
  17  0.444  0.778  0.346-  27 2.93  24 2.93   9 2.94  15 2.94   2 2.94  10 2.94  11 2.94   8 2.94
                            14 2.94  16 2.94  18 2.94  26 2.95
  18  0.778  0.778  0.346-  22 2.93  27 2.93  16 2.94   7 2.94  13 2.94  12 2.94   3 2.94  11 2.94
                             9 2.94  15 2.94  17 2.94  25 2.95
  19  0.889  0.223  0.455-  24 2.93  22 2.93  21 2.94  20 2.94  28 2.95  26 2.95  25 2.95  15 2.95
                            10 2.95  12 2.95  32 3.02  31 3.02
  20  0.222  0.222  0.453-  36 2.77  11 2.91  13 2.91  10 2.91  23 2.94  21 2.94  26 2.94  19 2.94
                            27 2.95  22 2.95  29 2.98  31 2.98
  21  0.555  0.222  0.453-  36 2.77  14 2.91  11 2.91  12 2.91  20 2.94  23 2.94  25 2.94  19 2.94
                            27 2.95  24 2.95  30 2.98  32 2.98
  22  0.887  0.557  0.454-  24 2.91  27 2.91  18 2.93  15 2.93  25 2.93  19 2.93  13 2.94  35 2.95
                            23 2.95  20 2.95  33 3.00  31 3.00
  23  0.222  0.555  0.453-  36 2.77  13 2.91  14 2.91  16 2.91  20 2.94  21 2.94  25 2.94  26 2.94
                            22 2.95  24 2.95  33 2.98  34 2.98
  24  0.557  0.557  0.454-  27 2.91  22 2.91  15 2.93  17 2.93  26 2.93  19 2.93  14 2.94  35 2.95
                            21 2.95  23 2.95  32 3.00  34 3.00
  25  0.889  0.889  0.455-  22 2.93  27 2.93  23 2.94  21 2.94  28 2.95  19 2.95  26 2.95  18 2.95
                            16 2.95  12 2.95  33 3.02  30 3.02
  26  0.223  0.889  0.455-  27 2.93  24 2.93  20 2.94  23 2.94  28 2.95  19 2.95  25 2.95  17 2.95
                            10 2.95  16 2.95  29 3.02  34 3.02
  27  0.557  0.887  0.454-  24 2.91  22 2.91  17 2.93  18 2.93  26 2.93  25 2.93  11 2.94  35 2.95
                            20 2.95  21 2.95  29 3.00  30 3.00
  28  0.000  0.000  0.563-  25 2.95  19 2.95  26 2.95  34 2.98  32 2.98  33 2.98  30 2.98  31 2.98
                            29 2.98
  29  0.333  0.010  0.565-  30 2.85  31 2.85  36 2.87  20 2.98  35 2.98  28 2.98  27 3.00  26 3.02
                            34 3.11
  30  0.657  0.010  0.565-  29 2.85  32 2.85  36 2.87  21 2.98  35 2.98  28 2.98  27 3.00  25 3.02
                            33 3.11
  31  0.010  0.333  0.565-  33 2.85  29 2.85  36 2.87  20 2.98  35 2.98  28 2.98  22 3.00  19 3.02
                            32 3.11
  32  0.657  0.333  0.565-  34 2.85  30 2.85  36 2.87  21 2.98  35 2.98  28 2.98  24 3.00  19 3.02
                            31 3.11
  33  0.010  0.657  0.565-  31 2.85  34 2.85  36 2.87  23 2.98  35 2.98  28 2.98  22 3.00  25 3.02
                            30 3.11
  34  0.333  0.657  0.565-  32 2.85  33 2.85  36 2.87  23 2.98  35 2.98  28 2.98  24 3.00  26 3.02
                            29 3.11
  35  0.667  0.667  0.563-  24 2.95  27 2.95  22 2.95  29 2.98  34 2.98  32 2.98  31 2.98  30 2.98
                            33 2.98
  36  0.333  0.333  0.551-  37 1.87  20 2.77  23 2.77  21 2.77  33 2.87  31 2.87  29 2.87  30 2.87
                            34 2.87  32 2.87
  37  0.333  0.333  0.636-  38 0.97  36 1.87
  38  0.333  0.333  0.679-  37 0.97

  LATTYP: Found a hexagonal cell.
 ALAT       =     8.8135128021
 C/A-ratio  =     2.5184286595

  Lattice vectors:

 A1 = (  -4.4067569092,  -7.6327256898,   0.0000000000)
 A2 = (   8.8135128021,   0.0000000000,   0.0000000000)
 A3 = (   0.0000000000,   0.0000000000,  22.1962032318)

Analysis of symmetry for initial positions (statically):
 Subroutine PRICEL returns:
 Original cell was already a primitive cell.

 Routine SETGRP: Setting up the symmetry group for a
 hexagonal supercell.

 Subroutine GETGRP returns: Found  6 space group operations
 (whereof  6 operations were pure point group operations)
 out of a pool of 24 trial point group operations.

The static configuration has the point symmetry C_3v.

Analysis of symmetry for dynamics (positions and initial velocities):
 Subroutine PRICEL returns:
 Original cell was already a primitive cell.

[...]

The dynamic configuration has the point symmetry C_3v.

Analysis of constrained symmetry for selective dynamics:
 Subroutine PRICEL returns:
 Original cell was already a primitive cell.

[...]
     33      -4.5409      2.00000
     34      -4.4920      2.00000
     35      -4.4771      2.00000
     36      -4.4644      2.00000
     37      -4.4107      2.00000
     38      -4.3974      2.00000
     39      -4.2898      2.00000
     40      -4.2658      2.00000
     41      -4.2565      2.00000
     42      -4.2167      2.00000
     43      -4.1897      2.00000
     44      -4.1422      2.00000
     45      -4.1063      2.00000
     46      -4.0453      2.00000
     47      -4.0226      2.00000
     48      -3.9565      2.00000
     49      -3.9362      2.00000
     50      -3.9087      2.00000
     51      -3.8881      2.00000
     52      -3.8760      2.00000
     53      -3.8538      2.00000
     54      -3.8488      2.00000
     55      -3.8261      2.00000
     56      -3.8161      2.00000
     57      -3.7547      2.00000
     58      -3.7471      2.00000
     59      -3.7260      2.00000
     60      -3.7130      2.00000
[...]
    238       6.5429      0.00000
    239       6.6420      0.00000
    240       6.6641      0.00000
    241       6.7527      0.00000
    242       6.8040      0.00000
    243       6.9948      0.00000
    244       7.0242      0.00000
    245       7.0463      0.00000
    246       7.1250      0.00000
    247       7.4236      0.00000
    248       7.4354      0.00000
    249       7.5187      0.00000
    250       7.5568      0.00000
    251       7.6482      0.00000
    252       7.6669      0.00000

 soft charge-density along one line, spin component           1
         0         1         2         3         4         5         6         7         8         9
 total charge-density along one line

------------------------ aborting loop because EDIFF is reached ----------------------------------------

 total charge

# of ion       s       p       d       tot
    1        0.549   0.237   8.767   9.553
    2        0.543   0.242   8.764   9.549
    3        0.543   0.242   8.764   9.549
    4        0.543   0.242   8.764   9.549
    5        0.546   0.241   8.762   9.549
    6        0.543   0.242   8.764   9.549
    7        0.543   0.242   8.764   9.549
    8        0.543   0.242   8.764   9.549
    9        0.542   0.241   8.766   9.550
   10        0.524   0.306   8.770   9.600
   11        0.519   0.309   8.778   9.606
   12        0.524   0.306   8.770   9.600
   13        0.519   0.309   8.778   9.606
   14        0.519   0.309   8.778   9.606
   15        0.514   0.308   8.774   9.596
   16        0.524   0.306   8.770   9.600
   17        0.514   0.308   8.774   9.596
   18        0.514   0.308   8.774   9.596
   19        0.518   0.294   8.776   9.588
   20        0.570   0.340   8.728   9.638
   21        0.570   0.340   8.728   9.638
   22        0.506   0.307   8.776   9.589
   23        0.570   0.340   8.728   9.638
   24        0.506   0.307   8.776   9.589
   25        0.518   0.294   8.776   9.588
   26        0.518   0.294   8.776   9.588
   27        0.506   0.307   8.776   9.589
   28        0.547   0.230   8.754   9.530
   29        0.567   0.246   8.748   9.561
   30        0.567   0.246   8.748   9.561
   31        0.567   0.246   8.748   9.561
   32        0.567   0.246   8.748   9.561
   33        0.567   0.246   8.748   9.561
   34        0.567   0.246   8.748   9.561
   35        0.537   0.229   8.759   9.525
   36        0.427   0.493   4.089   5.009
   37        1.555   3.535   0.000   5.090
   38        0.600   0.125   0.000   0.725
tot         21.420  13.847 310.777 346.044

  FORCE on cell =-STRESS in cart. coord.  units (eV):
  Direction    XX          YY          ZZ          XY          YZ          ZX
  Alpha Z  1025.18887  1025.18887  1025.18887
  Ewald  117104.62523117104.62564************    -0.00032    -0.00009    -0.00013
  Hartree125914.87669125914.87669************     0.00001    -0.00002    -0.00004
  E(xc)   -1788.32494 -1788.32496 -1794.50753     0.00002    -0.00000    -0.00000
  Local  ************************255285.20798     0.00204     0.00001     0.00000
  n-local  -119.09912   -69.27697   -60.48903    24.37437    -1.66430     1.46170
  augment  2380.98348  2380.98499  2395.10223    -0.00131     0.00000     0.00004
  Kinetic  5566.78644  5577.76234  5582.58214     6.76564     0.03379     0.23483
  Fock        0.00000     0.00000     0.00000     0.00000     0.00000     0.00000
  Total     -20.16024   -20.16024     1.77436    -0.00000     0.00000    -0.00000
  in kB     -21.63211   -21.63211     1.90390    -0.00000     0.00000    -0.00000

 VOLUME and BASIS-vectors are now :
  energy-cutoff  :      500.00
  volume of cell :     1493.16
      direct lattice vectors                 reciprocal lattice vectors
     8.813512802  0.000000000  0.000000000     0.113462137 -0.065507406  0.000000000
     4.406756909  7.632725690  0.000000000     0.000000000  0.131014796  0.000000000
     0.000000000  0.000000000 22.196203232     0.000000000  0.000000000  0.045052750

  length of vectors
     8.813512802  8.813512802 22.196203232     0.131014796  0.131014796  0.045052750

 FORCES acting on ions
    electron-ion (+dipol)            ewald-force                    non-local-force                 convergence-correction
   -.194E-04 -.161E-04 0.247E+04   0.519E-04 0.433E-04 -.247E+04   0.205E-17 -.632E-17 -.816E+00   -.280E-03 -.175E-03 -.283E+00
   0.533E+00 0.247E-02 0.247E+04   -.596E+00 -.192E+00 -.247E+04   0.266E-01 0.143E+00 -.289E+00   0.298E-01 0.404E-01 -.297E+00
   -.534E+00 0.247E-02 0.247E+04   0.596E+00 -.192E+00 -.247E+04   -.266E-01 0.143E+00 -.289E+00   -.294E-01 0.424E-01 -.296E+00
   0.269E+00 0.461E+00 0.247E+04   -.465E+00 -.420E+00 -.247E+04   0.137E+00 -.485E-01 -.289E+00   0.499E-01 0.555E-02 -.297E+00
   0.918E-05 -.230E-04 0.248E+04   0.951E-04 0.174E-05 -.247E+04   0.205E-17 0.160E-17 -.780E-01   0.440E-02 0.267E-02 -.287E+00
   -.269E+00 0.461E+00 0.247E+04   0.465E+00 -.420E+00 -.247E+04   -.137E+00 -.485E-01 -.289E+00   -.516E-01 0.648E-02 -.296E+00
   -.265E+00 -.463E+00 0.247E+04   0.132E+00 0.613E+00 -.247E+04   0.111E+00 -.946E-01 -.289E+00   0.221E-01 -.467E-01 -.296E+00
   0.265E+00 -.463E+00 0.247E+04   -.132E+00 0.613E+00 -.247E+04   -.111E+00 -.946E-01 -.289E+00   -.202E-01 -.479E-01 -.296E+00
   0.194E-04 -.417E-04 0.247E+04   0.166E-03 -.200E-04 -.247E+04   -.528E-17 -.368E-18 -.480E+00   -.466E-02 -.241E-02 -.232E+00
   0.568E+01 0.328E+01 0.826E+03   -.530E+01 -.306E+01 -.825E+03   -.437E+00 -.252E+00 -.587E+00   0.451E-01 0.259E-01 -.786E-01
   0.143E-04 0.313E+01 0.831E+03   0.148E-03 -.317E+01 -.831E+03   0.210E-08 0.316E-01 -.175E+00   0.426E-02 -.585E-01 -.174E-01
   -.568E+01 0.328E+01 0.826E+03   0.530E+01 -.306E+01 -.825E+03   0.437E+00 -.252E+00 -.587E+00   -.471E-01 0.279E-01 -.774E-01
   0.271E+01 -.157E+01 0.831E+03   -.275E+01 0.159E+01 -.831E+03   0.273E-01 -.158E-01 -.175E+00   -.482E-01 0.332E-01 -.174E-01
   -.271E+01 -.157E+01 0.831E+03   0.275E+01 0.159E+01 -.831E+03   -.273E-01 -.158E-01 -.175E+00   0.566E-01 0.325E-01 -.164E-01
   0.313E-04 0.443E+01 0.830E+03   0.236E-03 -.452E+01 -.829E+03   -.366E-09 -.549E-02 -.499E+00   -.297E-02 0.400E-01 -.632E-01
   -.212E-04 -.656E+01 0.826E+03   0.162E-03 0.612E+01 -.825E+03   0.336E-07 0.505E+00 -.587E+00   0.398E-03 -.547E-01 -.774E-01
   0.384E+01 -.222E+01 0.830E+03   -.392E+01 0.226E+01 -.829E+03   -.476E-02 0.275E-02 -.499E+00   0.334E-01 -.222E-01 -.632E-01
   -.384E+01 -.222E+01 0.830E+03   0.392E+01 0.226E+01 -.829E+03   0.476E-02 0.275E-02 -.499E+00   -.334E-01 -.195E-01 -.630E-01
   -.426E-04 0.465E+00 -.847E+03   0.546E-04 -.723E+00 0.846E+03   0.181E-08 0.273E-01 0.653E+00   -.593E-02 0.166E+00 0.374E+00
   0.712E+00 0.411E+00 -.817E+03   0.363E+00 0.210E+00 0.818E+03   -.124E+01 -.719E+00 -.121E+01   0.182E+00 0.105E+00 0.605E+00
   -.712E+00 0.411E+00 -.817E+03   -.363E+00 0.210E+00 0.818E+03   0.124E+01 -.719E+00 -.121E+01   -.173E+00 0.107E+00 0.604E+00
   -.831E+01 0.480E+01 -.830E+03   0.797E+01 -.460E+01 0.829E+03   0.437E+00 -.252E+00 0.671E+00   -.261E-01 0.122E-01 0.412E+00
   -.958E-05 -.822E+00 -.817E+03   0.139E-03 -.419E+00 0.818E+03   0.957E-07 0.144E+01 -.121E+01   0.583E-02 -.203E+00 0.604E+00
   0.831E+01 0.480E+01 -.830E+03   -.797E+01 -.460E+01 0.829E+03   -.437E+00 -.252E+00 0.671E+00   0.179E-01 0.104E-01 0.412E+00
   -.403E+00 -.233E+00 -.847E+03   0.626E+00 0.362E+00 0.846E+03   -.236E-01 -.136E-01 0.653E+00   -.146E+00 -.842E-01 0.374E+00
   0.403E+00 -.233E+00 -.847E+03   -.626E+00 0.362E+00 0.846E+03   0.236E-01 -.136E-01 0.653E+00   0.141E+00 -.879E-01 0.374E+00
   0.101E-04 -.960E+01 -.830E+03   0.198E-03 0.920E+01 0.829E+03   0.336E-07 0.505E+00 0.671E+00   -.308E-02 -.288E-01 0.412E+00
   -.130E-04 -.125E-04 -.242E+04   0.293E-04 0.333E-04 0.242E+04   0.134E-17 0.410E-17 0.345E+00   -.325E-03 -.205E-03 0.469E+00
   0.220E+02 0.361E+02 -.241E+04   -.215E+02 -.355E+02 0.241E+04   -.896E+00 -.120E+01 0.696E-01   0.240E+00 0.241E+00 0.402E+00
   -.220E+02 0.361E+02 -.241E+04   0.215E+02 -.355E+02 0.241E+04   0.896E+00 -.120E+01 0.696E-01   -.239E+00 0.243E+00 0.402E+00
   0.423E+02 0.962E+00 -.241E+04   -.415E+02 -.849E+00 0.241E+04   -.149E+01 -.175E+00 0.696E-01   0.329E+00 0.872E-01 0.402E+00
   -.423E+02 0.962E+00 -.241E+04   0.415E+02 -.849E+00 0.241E+04   0.149E+01 -.175E+00 0.696E-01   -.330E+00 0.879E-01 0.401E+00
   0.203E+02 -.371E+02 -.241E+04   -.200E+02 0.364E+02 0.241E+04   -.593E+00 0.138E+01 0.696E-01   0.908E-01 -.328E+00 0.402E+00
   -.203E+02 -.371E+02 -.241E+04   0.200E+02 0.364E+02 0.241E+04   0.593E+00 0.138E+01 0.696E-01   -.888E-01 -.330E+00 0.401E+00
   0.329E-04 -.294E-04 -.242E+04   0.142E-03 -.489E-04 0.242E+04   -.181E-17 0.158E-17 0.624E+00   -.477E-02 -.246E-02 0.373E+00
   -.583E-05 0.103E-05 -.112E+04   0.625E-04 0.565E-05 0.113E+04   0.184E-17 -.146E-17 -.910E-01   0.130E-02 0.773E-03 0.304E+00
   0.198E-03 -.941E-04 -.150E+04   0.220E-04 0.140E-05 0.148E+04   0.272E-17 0.295E-18 0.186E+02   0.371E-02 0.226E-02 -.305E+00
   0.806E-05 -.131E-04 -.309E+03   0.117E-05 0.104E-06 0.317E+03   0.156E-19 0.200E-18 -.849E+01   0.206E-03 0.126E-03 -.461E-01
   -.570E-03 -.867E-03 -.866E+01   -.352E-13 0.281E-12 -.178E-10   0.276E-17 -.443E-15 0.485E+01   0.245E-02 0.210E-02 0.432E+01

 POSITION                                       TOTAL-FORCE (eV/Angst)
      0.00000      0.00000      5.28038         0.000000      0.000000     -0.165700
      2.93784      0.00000      5.28038        -0.006036     -0.005158     -0.054323
      5.87568      0.00000      5.28038         0.006036     -0.005158     -0.054323
      1.46892      2.54424      5.28038        -0.007485     -0.002648     -0.054323
      4.40676      2.54424      5.28038         0.000000      0.000000     -0.063350
      7.34459      2.54424      5.28038         0.007485     -0.002648     -0.054323
      2.93784      5.08848      5.28038        -0.001449      0.007807     -0.054323
      5.87568      5.08848      5.28038         0.001449      0.007807     -0.054323
      8.81351      5.08848      5.28038        -0.000000      0.000000     -0.088753
      1.46892      0.84808      7.67911        -0.008654     -0.004996      0.141520
      4.40676      0.84808      7.67911        -0.000000     -0.068341      0.008956
      7.34459      0.84808      7.67911         0.008654     -0.004996      0.141520
      2.93784      3.39232      7.67911        -0.059185      0.034170      0.008956
      5.87568      3.39232      7.67911         0.059185      0.034170      0.008956
      8.81351      3.39232      7.67911        -0.000000     -0.056153      0.130414
      4.40676      5.93656      7.67911         0.000000      0.009992      0.141520
      7.34459      5.93656      7.67911        -0.048630      0.028076      0.130414
     10.28243      5.93656      7.67911         0.048630      0.028076      0.130414
      8.81351      1.70181     10.09390        -0.000000     -0.064199     -0.056395
      2.93906      1.69686     10.04479         0.008371      0.004833     -0.013127
      5.87446      1.69686     10.04479        -0.008371      0.004833     -0.013127
     10.26694      4.24935     10.06849         0.070334     -0.040607     -0.011056
      4.40676      4.23900     10.04479        -0.000000     -0.009666     -0.013127
      7.36009      4.24935     10.06849        -0.070334     -0.040607     -0.011056
     11.74646      6.78182     10.09390         0.055598      0.032099     -0.056395
      5.88057      6.78182     10.09390        -0.055598      0.032099     -0.056395
      8.81351      6.76675     10.06849         0.000000      0.081215     -0.011056
      0.00000      0.00000     12.49934         0.000000      0.000000     -0.002824
      2.98260      0.07565     12.53968        -0.192643     -0.384725     -0.246472
      5.83091      0.07565     12.53968         0.192643     -0.384725     -0.246472
      1.55682      2.54518     12.53968        -0.429503      0.025528     -0.246472
      7.25669      2.54518     12.53968         0.429503      0.025528     -0.246472
      2.98097      5.01189     12.53968        -0.236860      0.359196     -0.246472
      5.83254      5.01189     12.53968         0.236860      0.359196     -0.246472
      8.81351      5.08848     12.49853         0.000000      0.000000      0.101429
      4.40676      2.54424     12.23451        -0.000000      0.000000      1.457229
      4.40676      2.54424     14.10648        -0.000000      0.000000     -0.054140
      4.40676      2.54424     15.07333        -0.000000      0.000000      0.019940
    total drift:                                0.001878      0.001233      0.506971

  FREE ENERGIE OF THE ION-ELECTRON SYSTEM (eV)
  free  energy   TOTEN  =      -126.52191795 eV

  energy  without entropy=     -126.52191795  energy(sigma->0) =     -126.52191795

 stress matrix after NEB project (eV)
    -20.16024     -0.00000     -0.00000
     -0.00000    -20.16024      0.00000
      0.00000      0.00000      1.77436
  FORCES: max atom, RMS     0.054140    0.009359
  FORCE total and by dimension    0.057695    0.054140
  Stress total and by dimension   28.566042   20.160239
|           W    W    AA    RRRRR   N    N  II  N    N   GGGG   !!!           |
|           W    W   A  A   R    R  NN   N  II  NN   N  G    G  !!!           |
|           W    W  A    A  R    R  N N  N  II  N N  N  G       !!!           |
|           W WW W  AAAAAA  RRRRR   N  N N  II  N  N N  G  GGG   !            |
|           WW  WW  A    A  R   R   N   NN  II  N   NN  G    G                |
|           W    W  A    A  R    R  N    N  II  N    N   GGGG   !!!           |
|     Tetrahedron method does not include variations of the Fermi             |
|     occupations, so forces and stress will be inaccurate. We suggest        |
|     using a different smearing scheme ISMEAR = 1 or 2 for metals in         |
|     relaxations.                                                            |

 total charge

# of ion       s       p       d       tot
    1        0.549   0.237   8.767   9.553
    2        0.543   0.242   8.764   9.549
    3        0.543   0.242   8.764   9.549
    4        0.543   0.242   8.764   9.549
    5        0.546   0.241   8.762   9.549
    6        0.543   0.242   8.764   9.549
    7        0.543   0.242   8.764   9.549
    8        0.543   0.242   8.764   9.549
    9        0.542   0.241   8.766   9.550
   10        0.524   0.306   8.770   9.600
   11        0.519   0.309   8.778   9.606
   12        0.524   0.306   8.770   9.600
   13        0.519   0.309   8.778   9.606
   14        0.519   0.309   8.778   9.606
   15        0.514   0.308   8.774   9.596
   16        0.524   0.306   8.770   9.600
   17        0.514   0.308   8.774   9.596
   18        0.514   0.308   8.774   9.596
   19        0.518   0.294   8.776   9.588
   20        0.570   0.340   8.728   9.638
   21        0.570   0.340   8.728   9.638
   22        0.506   0.307   8.776   9.589
   23        0.570   0.340   8.728   9.638
   24        0.506   0.307   8.776   9.589
   25        0.518   0.294   8.776   9.588
   26        0.518   0.294   8.776   9.588
   27        0.506   0.307   8.776   9.589
   28        0.547   0.230   8.754   9.530
   29        0.567   0.246   8.748   9.561
   30        0.567   0.246   8.748   9.561
   31        0.567   0.246   8.748   9.561
   32        0.567   0.246   8.748   9.561
   33        0.567   0.246   8.748   9.561
   34        0.567   0.246   8.748   9.561
   35        0.537   0.229   8.759   9.525
   36        0.427   0.493   4.089   5.009
   37        1.555   3.535   0.000   5.090
   38        0.600   0.125   0.000   0.725
tot         21.420  13.847 310.777 346.044

 BZINTS: Fermi energy:    0.958870;  398.000000 electrons
         Band energy:-0.115381E+04;  BLOECHL correction:   -0.033987