 vasp.6.2.0 18Jan21 (build Jun 12 2021 23:27:24) complex

 executed on             LinuxIFC date 2022.05.27  06:03:19

 INCAR:
   ISMEAR = -5
   SIGMA = 0.1
   ISPIN = 1
   EDIFF = 1.d-5
   EDIFFG = -0.01
   NSW = 0
   NELM = 150
   ENCUT = 500
   ISIF = 2
   IBRION = 2
   LREAL = Auto
   ALGO = Fast
   ICHARG = 11
   LORBIT = 10
   LCHARG = .F.
   LWAVE = .F.

 POTCAR:    PAW_PBE Cu 22Jun2005
 POTCAR:    PAW_PBE Co 02Aug2007
 POTCAR:    PAW_PBE H 15Jun2001
|           W    W    AA    RRRRR   N    N  II  N    N   GGGG   !!!           |
|           W    W   A  A   R    R  NN   N  II  NN   N  G    G  !!!           |
|           W    W  A    A  R    R  N N  N  II  N N  N  G       !!!           |
|           W WW W  AAAAAA  RRRRR   N  N N  II  N  N N  G  GGG   !            |
|           WW  WW  A    A  R   R   N   NN  II  N   NN  G    G                |
|           W    W  A    A  R    R  N    N  II  N    N   GGGG   !!!           |
|     For optimal performance we recommend to set                             |
|       NCORE = 2 up to number-of-cores-per-socket                            |
|     This setting can greatly improve the performance of VASP for DFT.       |
|     The default, NCORE=1 might be grossly inefficient on modern             |
|     multi-core architectures or massively parallel machines. Do your        |
|     Unfortunately you need to use the default for GW and RPA                |
|     calculations (for HF NCORE is supported but not extensively tested      |
|     yet).                                                                   |

 POTCAR:    PAW_PBE Cu 22Jun2005
   VRHFIN =Cu: d10 p1

   TITEL  = PAW_PBE Cu 22Jun2005
   POMASS =   63.546; ZVAL   =   11.000    mass and valenz
   ENMAX  =  295.446; ENMIN  =  221.585 eV

 POTCAR:    PAW_PBE Co 02Aug2007
   VRHFIN =Co: d8 s1

   TITEL  = PAW_PBE Co 02Aug2007
   POMASS =   58.933; ZVAL   =    9.000    mass and valenz
   ENMAX  =  267.968; ENMIN  =  200.976 eV

 POTCAR:    PAW_PBE H 15Jun2001
   VRHFIN =H: ultrasoft test

   TITEL  = PAW_PBE H 15Jun2001
   POMASS =    1.000; ZVAL   =    1.000    mass and valenz
   ENMAX  =  250.000; ENMIN  =  200.000 eV

 Optimization of the real space projectors (new method)

 maximal supplied QI-value         = 16.25
 optimisation between [QCUT,QGAM] = [ 11.38, 22.75] = [ 36.24,144.96] Ry
 Optimized for a Real-space Cutoff    1.52 Angstroem

   l    n(q)    QCUT    max X(q) W(low)/X(q) W(high)/X(q)  e(spline)
   2      9    11.376     4.610    0.21E-03    0.10E-03    0.26E-06
   2      9    11.376     8.522    0.33E-03    0.16E-03    0.37E-06
   0     10    11.376    51.609    0.62E-04    0.20E-04    0.13E-06
   0     10    11.376    27.747    0.54E-04    0.20E-04    0.13E-06
   1     10    11.376    20.408    0.13E-04    0.99E-04    0.19E-06
   1     10    11.376    13.425    0.12E-04    0.87E-04    0.17E-06
 Optimization of the real space projectors (new method)

[...]

   l    n(q)    QCUT    max X(q) W(low)/X(q) W(high)/X(q)  e(spline)
   2      8    11.376    65.824    0.20E-03    0.32E-04    0.13E-06
   2      8    11.376    61.429    0.20E-03    0.33E-04    0.14E-06
   0      9    11.376    56.174    0.76E-04    0.11E-03    0.19E-06
   0      9    11.376    31.263    0.69E-04    0.99E-04    0.17E-06
   1      9    11.376    19.828    0.35E-03    0.11E-03    0.12E-06
   1      9    11.376    15.139    0.29E-03    0.94E-04    0.10E-06
 Optimization of the real space projectors (new method)

 maximal supplied QI-value         = 34.20
 optimisation between [QCUT,QGAM] = [ 11.29, 22.57] = [ 35.68,142.71] Ry
 Optimized for a Real-space Cutoff    1.16 Angstroem

   l    n(q)    QCUT    max X(q) W(low)/X(q) W(high)/X(q)  e(spline)
   0      8    11.287    19.460    0.40E-03    0.73E-03    0.16E-06
   0      8    11.287    12.209    0.38E-03    0.70E-03    0.15E-06
   1      7    11.287     4.655    0.22E-03    0.25E-04    0.22E-06
  PAW_PBE Cu 22Jun2005                  :
  PAW_PBE Co 02Aug2007                  :
  PAW_PBE H 15Jun2001                   :

 POSCAR: Cu-Co-H2
  positions in direct lattice
  velocities in cartesian coordinates
 exchange correlation table for  LEXCH =        8
   RHO(1)=    0.500       N(1)  =     2000
   RHO(2)=  100.500       N(2)  =     4000

 VTST: version 3.2, (02/03/18)

 CHAIN: initializing optimizer

 OPT: Using VASP Conjugate-Gradient optimizer
 CHAIN: Read ICHAIN            0

 POSCAR: Cu-Co-H2
  positions in direct lattice
  velocities in cartesian coordinates

 ion  position               nearest neighbor table
   1  0.000  0.000  0.252-   7 2.57   3 2.57   4 2.57   2 2.57   6 2.57   8 2.57  12 2.57  10 2.57
                            16 2.57
   2  0.333  0.000  0.252-   8 2.57   9 2.57   5 2.57   1 2.57   3 2.57  11 2.57   4 2.57  10 2.57
                            17 2.57
   3  0.667  0.000  0.252-   1 2.57   7 2.57   6 2.57   9 2.57   2 2.57  12 2.57   5 2.57  18 2.57
                            11 2.57
   4  0.000  0.333  0.252-   5 2.57   6 2.57   1 2.57   7 2.57   2 2.57  13 2.57   9 2.57  10 2.57
                            15 2.57
   5  0.333  0.333  0.252-   4 2.57   2 2.57   7 2.57  13 2.57   8 2.57   6 2.57   3 2.57  11 2.57
                            14 2.57
   6  0.667  0.333  0.252-   4 2.57   9 2.57  15 2.57   3 2.57   1 2.57   8 2.57  14 2.57   5 2.57
                            12 2.57
   7  0.000  0.667  0.252-   1 2.57   3 2.57  16 2.57  18 2.57   4 2.57   5 2.57   8 2.57   9 2.57
                            13 2.57
   8  0.333  0.667  0.252-   9 2.57   2 2.57  17 2.57   6 2.57   1 2.57   7 2.57   5 2.57  14 2.57
                            16 2.57
   9  0.667  0.667  0.252-   8 2.57   6 2.57   2 2.57  17 2.57   3 2.57   7 2.57   4 2.57  15 2.57
                            18 2.57
  10  0.111  0.111  0.351-  20 2.55  26 2.56  19 2.56  11 2.57  12 2.57  13 2.57   1 2.57   2 2.57
                             4 2.57  15 2.57  16 2.57  17 2.57
  11  0.444  0.111  0.351-  20 2.55  21 2.55  27 2.56  10 2.57  13 2.57   2 2.57  17 2.57  14 2.57
                            12 2.57   5 2.57   3 2.57  18 2.57
  12  0.778  0.111  0.351-  21 2.55  19 2.56  25 2.56  15 2.57  10 2.57  14 2.57  18 2.57   3 2.57
                             1 2.57  16 2.57  11 2.57   6 2.57
  13  0.111  0.444  0.351-  23 2.55  20 2.55  22 2.56  16 2.57  18 2.57  10 2.57  11 2.57  14 2.57
                             5 2.57   4 2.57   7 2.57  15 2.57
  14  0.444  0.444  0.351-  21 2.55  23 2.55  24 2.56  15 2.57  17 2.57  12 2.57  16 2.57  13 2.57
                            11 2.57   6 2.57   8 2.57   5 2.57
  15  0.778  0.444  0.351-  24 2.56  22 2.56  19 2.56  14 2.57  17 2.57  12 2.57   6 2.57  18 2.57
                            10 2.57   9 2.57  13 2.57   4 2.57
  16  0.111  0.778  0.351-  23 2.55  25 2.56  26 2.56  18 2.57  13 2.57   7 2.57  14 2.57  17 2.57
                            12 2.57  10 2.57   8 2.57   1 2.57
  17  0.444  0.778  0.351-  27 2.56  24 2.56  26 2.56  14 2.57  15 2.57   8 2.57   9 2.57  11 2.57
                            16 2.57  18 2.57  10 2.57   2 2.57
  18  0.778  0.778  0.351-  22 2.56  27 2.56  25 2.56  16 2.57  13 2.57   7 2.57  15 2.57  12 2.57
                            17 2.57   9 2.57   3 2.57  11 2.57
  19  0.889  0.223  0.449-  28 2.54  32 2.56  31 2.56  15 2.56  12 2.56  10 2.56  22 2.56  24 2.56
                            21 2.57  20 2.57  25 2.57  26 2.57
  20  0.222  0.222  0.448-  36 2.46  29 2.55  31 2.55  11 2.55  13 2.55  10 2.55  23 2.56  21 2.56
                            26 2.57  19 2.57  27 2.57  22 2.57
  21  0.555  0.222  0.448-  36 2.46  32 2.55  30 2.55  14 2.55  11 2.55  12 2.55  20 2.56  23 2.56
                            19 2.57  25 2.57  24 2.57  27 2.57
  22  0.889  0.556  0.449-  35 2.54  31 2.55  33 2.55  18 2.56  15 2.56  13 2.56  24 2.56  27 2.56
                            19 2.56  25 2.56  23 2.57  20 2.57
  23  0.222  0.555  0.448-  36 2.46  33 2.55  34 2.55  13 2.55  14 2.55  16 2.55  20 2.56  21 2.56
                            25 2.57  26 2.57  22 2.57  24 2.57
  24  0.556  0.556  0.449-  35 2.54  32 2.55  34 2.55  15 2.56  17 2.56  14 2.56  22 2.56  27 2.56
                            19 2.56  26 2.56  21 2.57  23 2.57
  25  0.889  0.889  0.449-  28 2.54  33 2.56  30 2.56  18 2.56  16 2.56  12 2.56  22 2.56  27 2.56
                            21 2.57  23 2.57  19 2.57  26 2.57
  26  0.223  0.889  0.449-  28 2.54  29 2.56  34 2.56  17 2.56  10 2.56  16 2.56  27 2.56  24 2.56
                            20 2.57  23 2.57  25 2.57  19 2.57
  27  0.556  0.889  0.449-  35 2.54  29 2.55  30 2.55  17 2.56  18 2.56  11 2.56  24 2.56  22 2.56
                            26 2.56  25 2.56  20 2.57  21 2.57
  28  0.000  0.000  0.546-  25 2.54  19 2.54  26 2.54  33 2.58  30 2.58  31 2.58  29 2.58  32 2.58
                            34 2.58
  29  0.333  0.003  0.546-  31 2.54  36 2.54  30 2.55  20 2.55  27 2.55  26 2.56  28 2.58  35 2.58
                            34 2.61
  30  0.664  0.003  0.546-  32 2.54  36 2.54  29 2.55  21 2.55  27 2.55  25 2.56  28 2.58  35 2.58
                            33 2.61
  31  0.003  0.333  0.546-  29 2.54  36 2.54  33 2.55  20 2.55  22 2.55  19 2.56  28 2.58  35 2.58
                            32 2.61
  32  0.664  0.333  0.546-  30 2.54  36 2.54  34 2.55  21 2.55  24 2.55  19 2.56  28 2.58  35 2.58
                            31 2.61
  33  0.003  0.664  0.546-  34 2.54  36 2.54  31 2.55  23 2.55  22 2.55  25 2.56  28 2.58  35 2.58
                            30 2.61
  34  0.333  0.664  0.546-  33 2.54  36 2.54  32 2.55  23 2.55  24 2.55  26 2.56  28 2.58  35 2.58
                            29 2.61
  35  0.667  0.667  0.546-  24 2.54  27 2.54  22 2.54  34 2.58  32 2.58  29 2.58  30 2.58  33 2.58
                            31 2.58
  36  0.333  0.333  0.541-  37 1.55  38 1.55  23 2.46  20 2.46  21 2.46  31 2.54  29 2.54  33 2.54
                            34 2.54  32 2.54  30 2.54
  37  0.271  0.332  0.610-  36 1.55
  38  0.397  0.332  0.610-  36 1.55

  LATTYP: Found a hexagonal cell.
 ALAT       =     7.6967864036
 C/A-ratio  =     2.7653617908

  Lattice vectors:

 A1 = (  -3.8483927580,  -6.6656128093,   0.0000000000)
 A2 = (   7.6967864037,   0.0000000000,   0.0000000000)
 A3 = (   0.0000000000,   0.0000000000,  21.2843990326)

Analysis of symmetry for initial positions (statically):
 Subroutine PRICEL returns:
 Original cell was already a primitive cell.

 Routine SETGRP: Setting up the symmetry group for a
 hexagonal supercell.

 Subroutine GETGRP returns: Found  2 space group operations
 (whereof  2 operations were pure point group operations)
 out of a pool of 24 trial point group operations.

The static configuration has the point symmetry C_1h.

Analysis of symmetry for dynamics (positions and initial velocities):
 Subroutine PRICEL returns:
 Original cell was already a primitive cell.

[...]

The dynamic configuration has the point symmetry C_1h.

Analysis of constrained symmetry for selective dynamics:
 Subroutine PRICEL returns:
 Original cell was already a primitive cell.

 Routine SETGRP: Setting up the symmetry group for a
 hexagonal supercell.

 Subroutine GETGRP returns: Found  2 space group operations
[...]
     33      -3.7962      2.00000
     34      -3.7919      2.00000
     35      -3.7445      2.00000
     36      -3.6600      2.00000
     37      -3.6567      2.00000
     38      -3.5785      2.00000
     39      -3.5720      2.00000
     40      -3.4928      2.00000
     41      -3.4900      2.00000
     42      -3.4696      2.00000
     43      -3.4491      2.00000
     44      -3.4446      2.00000
     45      -3.4204      2.00000
     46      -3.4059      2.00000
     47      -3.2431      2.00000
     48      -3.2235      2.00000
     49      -3.2182      2.00000
     50      -3.2130      2.00000
     51      -3.1595      2.00000
     52      -3.1566      2.00000
     53      -3.1472      2.00000
     54      -3.1126      2.00000
     55      -3.1081      2.00000
     56      -3.0932      2.00000
     57      -3.0818      2.00000
     58      -3.0731      2.00000
     59      -3.0675      2.00000
     60      -3.0607      2.00000
[...]
    238       6.6972      0.00000
    239       6.8197      0.00000
    240       6.9733      0.00000
    241       7.0370      0.00000
    242       7.0701      0.00000
    243       7.2254      0.00000
    244       7.3090      0.00000
    245       7.3997      0.00000
    246       7.4823      0.00000
    247       7.5942      0.00000
    248       7.6895      0.00000
    249       7.8989      0.00000
    250       8.1313      0.00000
    251       8.2273      0.00000
    252       8.3846      0.00000

 soft charge-density along one line, spin component           1
         0         1         2         3         4         5         6         7         8         9
 total charge-density along one line

------------------------ aborting loop because EDIFF is reached ----------------------------------------

 total charge

# of ion       s       p       d       tot
    1        0.447   0.284   9.188   9.920
    2        0.450   0.285   9.187   9.921
    3        0.450   0.285   9.187   9.921
    4        0.450   0.285   9.187   9.921
    5        0.448   0.288   9.183   9.918
    6        0.450   0.285   9.187   9.921
    7        0.450   0.285   9.186   9.921
    8        0.450   0.285   9.186   9.921
    9        0.446   0.284   9.190   9.920
   10        0.440   0.372   9.175   9.987
   11        0.444   0.367   9.183   9.995
   12        0.440   0.372   9.175   9.987
   13        0.444   0.367   9.183   9.994
   14        0.444   0.367   9.183   9.994
   15        0.437   0.372   9.177   9.986
   16        0.440   0.372   9.176   9.987
   17        0.437   0.372   9.177   9.986
   18        0.437   0.372   9.177   9.986
   19        0.442   0.370   9.181   9.993
   20        0.454   0.389   9.170  10.013
   21        0.454   0.389   9.170  10.013
   22        0.435   0.378   9.178   9.991
   23        0.453   0.390   9.170  10.013
   24        0.435   0.378   9.178   9.991
   25        0.442   0.370   9.181   9.993
   26        0.442   0.370   9.181   9.993
   27        0.435   0.377   9.178   9.991
   28        0.448   0.283   9.194   9.925
   29        0.449   0.292   9.189   9.930
   30        0.449   0.292   9.189   9.930
   31        0.446   0.298   9.185   9.930
   32        0.446   0.298   9.185   9.930
   33        0.449   0.292   9.189   9.930
   34        0.449   0.292   9.189   9.930
   35        0.444   0.285   9.195   9.924
   36        0.443   0.517   7.443   8.404
   37        0.523   0.031   0.000   0.554
   38        0.523   0.031   0.000   0.554
tot         17.063  12.221 328.833 358.117

  FORCE on cell =-STRESS in cart. coord.  units (eV):
  Direction    XX          YY          ZZ          XY          YZ          ZX
  Alpha Z   862.69743   862.69743   862.69743
  Ewald  174736.28321174711.34880************     0.00040    -0.13515     0.00017
  Hartree187811.72344187805.21689************     0.00005     0.02521     0.00007
  E(xc)   -2298.65993 -2298.92190 -2303.21038    -0.00031    -0.00430    -0.00004
  Local  ************************375889.17910     0.01951    -0.06781    -0.00070
  n-local  -768.30961  -768.26577  -782.78487     1.74139     0.02278     0.05272
  augment  3465.53595  3466.82741  3475.75450    -0.01811     0.10769     0.00027
  Kinetic  3224.58093  3229.15659  3243.44323     0.98723     0.11190    -0.22388
  Fock        0.00000     0.00000     0.00000     0.00000     0.00000     0.00000
  Total      -5.68923    -5.69514     2.01811     0.00000     0.06033    -0.00000
  in kB      -8.34744    -8.35611     2.96104     0.00000     0.08852    -0.00000

 VOLUME and BASIS-vectors are now :
  energy-cutoff  :      500.00
  volume of cell :     1091.97
      direct lattice vectors                 reciprocal lattice vectors
     7.696786404  0.000000000  0.000000000     0.129924354 -0.075011849  0.000000000
     3.848392758  6.665612809  0.000000000     0.000000000  0.150023716  0.000000000
     0.000000000  0.000000000 21.284399033     0.000000000  0.000000000  0.046982769

  length of vectors
     7.696786404  7.696786404 21.284399033     0.150023716  0.150023716  0.046982769

 FORCES acting on ions
    electron-ion (+dipol)            ewald-force                    non-local-force                 convergence-correction
   -.407E-04 0.138E-01 0.349E+04   0.579E-04 -.430E-02 -.348E+04   -.593E-09 0.891E-02 -.305E+01   -.280E-03 -.182E-01 -.539E+00
   0.210E+00 0.339E+00 0.348E+04   -.205E+00 -.227E+00 -.348E+04   0.312E-01 0.294E-01 -.195E+01   -.262E-01 -.119E+00 -.439E+00
   -.210E+00 0.339E+00 0.348E+04   0.205E+00 -.227E+00 -.348E+04   -.312E-01 0.294E-01 -.195E+01   0.270E-01 -.117E+00 -.438E+00
   0.344E+00 0.569E-02 0.349E+04   -.295E+00 -.654E-01 -.348E+04   0.576E-01 0.170E-01 -.196E+01   -.852E-01 0.399E-01 -.450E+00
   -.613E-04 -.192E-01 0.349E+04   0.116E-03 0.571E-03 -.348E+04   0.483E-09 -.725E-02 -.168E+01   0.121E-01 0.262E-01 -.363E+00
   -.344E+00 0.578E-02 0.349E+04   0.295E+00 -.655E-01 -.348E+04   -.576E-01 0.170E-01 -.196E+01   0.837E-01 0.411E-01 -.449E+00
   0.173E+00 -.337E+00 0.348E+04   -.904E-01 0.292E+00 -.348E+04   0.857E-02 -.467E-01 -.194E+01   -.726E-01 0.735E-01 -.434E+00
   -.173E+00 -.337E+00 0.348E+04   0.901E-01 0.292E+00 -.348E+04   -.857E-02 -.467E-01 -.194E+01   0.760E-01 0.722E-01 -.434E+00
   -.143E-03 -.314E-01 0.349E+04   0.263E-03 0.375E-02 -.348E+04   -.983E-09 0.148E-01 -.256E+01   -.132E-01 0.113E-01 -.490E+00
   0.289E+01 0.170E+01 0.117E+04   -.242E+01 -.143E+01 -.117E+04   -.442E+00 -.242E+00 -.103E+01   -.181E-01 -.262E-01 -.414E+00
   -.900E-04 0.249E+01 0.117E+04   0.189E-03 -.249E+01 -.117E+04   -.796E-08 0.120E+00 -.599E+00   0.115E-01 -.145E+00 -.338E+00
   -.288E+01 0.170E+01 0.117E+04   0.242E+01 -.143E+01 -.117E+04   0.442E+00 -.242E+00 -.103E+01   0.167E-01 -.252E-01 -.415E+00
   0.213E+01 -.125E+01 0.117E+04   -.212E+01 0.125E+01 -.117E+04   0.947E-01 -.813E-01 -.578E+00   -.114E+00 0.940E-01 -.338E+00
   -.213E+01 -.125E+01 0.117E+04   0.212E+01 0.125E+01 -.117E+04   -.947E-01 -.813E-01 -.578E+00   0.137E+00 0.928E-01 -.340E+00
   -.144E-03 0.212E+00 0.117E+04   0.300E-03 -.437E+00 -.117E+04   -.832E-08 0.125E+00 -.918E+00   -.319E-02 0.863E-01 -.432E+00
   -.914E-04 -.332E+01 0.117E+04   0.185E-03 0.280E+01 -.117E+04   -.331E-07 0.496E+00 -.103E+01   -.760E-03 0.133E-01 -.406E+00
   0.260E+00 -.147E+00 0.117E+04   -.398E+00 0.239E+00 -.117E+04   0.727E-01 -.463E-01 -.899E+00   0.508E-01 -.358E-01 -.442E+00
   -.260E+00 -.147E+00 0.117E+04   0.398E+00 0.239E+00 -.117E+04   -.727E-01 -.463E-01 -.899E+00   -.498E-01 -.336E-01 -.441E+00
   -.597E-04 0.107E+01 -.117E+04   0.675E-04 -.113E+01 0.117E+04   -.931E-09 0.140E-01 0.835E+00   0.113E-01 0.432E-01 -.297E+00
   0.277E+01 0.189E+01 -.116E+04   -.169E+01 -.117E+01 0.116E+04   -.112E+01 -.727E+00 -.124E+01   0.318E-01 -.124E-02 -.221E+00
   -.277E+01 0.189E+01 -.116E+04   0.169E+01 -.117E+01 0.116E+04   0.112E+01 -.727E+00 -.124E+01   -.324E-01 -.170E-02 -.221E+00
   -.102E+01 0.391E+00 -.117E+04   0.642E+00 -.150E+00 0.117E+04   0.373E+00 -.244E+00 0.726E+00   0.507E-01 -.213E-01 -.395E+00
   -.769E-04 -.355E+01 -.116E+04   0.142E-03 0.224E+01 0.116E+04   -.872E-07 0.131E+01 -.119E+01   -.196E-02 -.157E-01 -.204E+00
   0.102E+01 0.391E+00 -.117E+04   -.642E+00 -.150E+00 0.117E+04   -.373E+00 -.244E+00 0.726E+00   -.293E-01 -.207E-01 -.395E+00
   -.894E+00 -.356E+00 -.117E+04   0.893E+00 0.402E+00 0.117E+04   0.844E-02 -.251E-01 0.860E+00   0.506E-02 -.211E-01 -.327E+00
   0.895E+00 -.356E+00 -.117E+04   -.893E+00 0.402E+00 0.117E+04   -.844E-02 -.251E-01 0.860E+00   0.162E-01 -.200E-01 -.326E+00
   -.127E-03 -.123E+01 -.117E+04   0.243E-03 0.710E+00 0.117E+04   -.325E-07 0.489E+00 0.720E+00   0.936E-02 0.736E-01 -.396E+00
   -.313E-04 0.837E+00 -.348E+04   0.360E-04 -.790E+00 0.348E+04   0.495E-08 -.744E-01 0.241E+01   0.763E-04 0.797E-02 0.465E+00
   0.266E+01 0.835E+01 -.348E+04   -.229E+01 -.829E+01 0.348E+04   -.402E+00 -.227E+00 0.265E+01   -.175E-01 0.762E-01 0.253E+00
   -.266E+01 0.835E+01 -.348E+04   0.229E+01 -.829E+01 0.348E+04   0.402E+00 -.227E+00 0.265E+01   0.178E-01 0.778E-01 0.253E+00
   0.104E+02 -.937E+00 -.348E+04   -.100E+02 0.113E+01 0.348E+04   -.411E+00 -.125E+00 0.264E+01   0.279E-01 -.550E-01 0.252E+00
   -.104E+02 -.937E+00 -.348E+04   0.100E+02 0.113E+01 0.348E+04   0.411E+00 -.125E+00 0.264E+01   -.284E-01 -.539E-01 0.253E+00
   0.404E+01 -.729E+01 -.348E+04   -.394E+01 0.702E+01 0.348E+04   -.233E+00 0.366E+00 0.263E+01   0.634E-01 -.131E-01 0.238E+00
   -.404E+01 -.729E+01 -.348E+04   0.394E+01 0.702E+01 0.348E+04   0.233E+00 0.366E+00 0.263E+01   -.605E-01 -.135E-01 0.238E+00
   -.128E-03 -.760E+00 -.348E+04   0.254E-03 0.705E+00 0.348E+04   -.622E-08 0.934E-01 0.263E+01   -.128E-01 -.227E-01 0.406E+00
   -.609E-04 -.428E+00 -.271E+04   0.118E-03 0.469E+00 0.270E+04   -.180E-08 0.270E-01 0.215E+01   0.487E-02 -.920E-02 0.626E-01
   0.171E+02 0.342E-01 -.396E+03   -.195E+02 -.458E-01 0.398E+03   0.238E+01 0.422E-02 -.157E+01   0.863E-02 -.146E-02 0.202E-01
   -.171E+02 0.342E-01 -.396E+03   0.195E+02 -.458E-01 0.398E+03   -.238E+01 0.422E-02 -.157E+01   -.845E-02 -.145E-02 0.201E-01
   -.224E-03 0.463E-01 0.135E+02   0.675E-13 0.476E-12 0.113E-10   0.536E-08 -.805E-01 -.561E+01   0.877E-01 0.369E-01 -.793E+01

 POSITION                                       TOTAL-FORCE (eV/Angst)
      0.00000      0.00000      5.37156        -0.000000      0.000127      0.035625
      2.56560      0.00000      5.37156         0.009985      0.023182      0.086884
      5.13119      0.00000      5.37156        -0.009985      0.023182      0.086884
      1.28280      2.22187      5.37156         0.022211     -0.002250      0.086940
      3.84839      2.22187      5.37156        -0.000000      0.000198      0.072074
      6.41399      2.22187      5.37156        -0.022211     -0.002250      0.086940
      2.56560      4.44374      5.37156         0.017049     -0.018959      0.087576
      5.13119      4.44374      5.37156        -0.017049     -0.018959      0.087576
      7.69679      4.44374      5.37156         0.000000     -0.001681      0.050816
      1.28280      0.74062      7.46636         0.009777      0.007242     -0.063045
      3.84839      0.74062      7.46636         0.000000     -0.027116     -0.110884
      6.41399      0.74062      7.46636        -0.009777      0.007242     -0.063045
      2.56560      2.96249      7.46636        -0.022820      0.011172     -0.105591
      5.13119      2.96249      7.46636         0.022820      0.011172     -0.105591
      7.69679      2.96249      7.46636         0.000000     -0.013889     -0.038738
      3.84839      5.18437      7.46636         0.000000     -0.016844     -0.062858
      6.41399      5.18437      7.46636        -0.015705      0.010086     -0.032191
      8.97958      5.18437      7.46636         0.015705      0.010086     -0.032191
      7.69679      1.48420      9.55496         0.000000     -0.002769      0.045125
      2.56664      1.48185      9.54157        -0.008071     -0.012958     -0.167033
      5.13014      1.48185      9.54157         0.008071     -0.012958     -0.167033
      8.97778      3.70416      9.55304         0.038706     -0.025161      0.015080
      3.84839      3.70191      9.54157         0.000000     -0.012061     -0.146732
      6.41579      3.70416      9.55304        -0.038706     -0.025161      0.015080
     10.25982      5.92351      9.55496         0.001364     -0.000124      0.030385
      5.13375      5.92351      9.55496        -0.001364     -0.000124      0.030385
      7.69679      5.92291      9.55304        -0.000000      0.042739      0.014231
      0.00000      0.00000     11.62172         0.000000     -0.020001     -0.036986
      2.57582      0.02145     11.62841        -0.048835     -0.090501     -0.053078
      5.12097      0.02145     11.62841         0.048835     -0.090501     -0.053078
      1.30649      2.22000     11.62841        -0.031804      0.014504      0.006829
      6.39030      2.22000     11.62841         0.031804      0.014504      0.006829
      2.57906      4.42416     11.62841        -0.069148      0.081119     -0.049120
      5.11773      4.42416     11.62841         0.069148      0.081119     -0.049120
      7.69679      4.44374     11.62071        -0.000000      0.016107     -0.021492
      3.84839      2.22187     11.51210        -0.000000      0.058365      0.549528
      3.36174      2.21488     12.98122        -0.001505     -0.008939     -0.018491
      4.33504      2.21488     12.98122         0.001505     -0.008939     -0.018491
    total drift:                                0.087491      0.002781     -0.010283

  FREE ENERGIE OF THE ION-ELECTRON SYSTEM (eV)
  free  energy   TOTEN  =      -135.69748533 eV

  energy  without entropy=     -135.69748533  energy(sigma->0) =     -135.69748533

 stress matrix after NEB project (eV)
     -5.68923      0.00000     -0.00000
      0.00000     -5.69514      0.06033
     -0.00000      0.06033      2.01811
  FORCES: max atom, RMS     0.020593    0.004724
  FORCE total and by dimension    0.029123    0.018491
  Stress total and by dimension    8.299522    5.695144
|           W    W    AA    RRRRR   N    N  II  N    N   GGGG   !!!           |
|           W    W   A  A   R    R  NN   N  II  NN   N  G    G  !!!           |
|           W    W  A    A  R    R  N N  N  II  N N  N  G       !!!           |
|           W WW W  AAAAAA  RRRRR   N  N N  II  N  N N  G  GGG   !            |
|           WW  WW  A    A  R   R   N   NN  II  N   NN  G    G                |
|           W    W  A    A  R    R  N    N  II  N    N   GGGG   !!!           |
|     Tetrahedron method does not include variations of the Fermi             |
|     occupations, so forces and stress will be inaccurate. We suggest        |
|     using a different smearing scheme ISMEAR = 1 or 2 for metals in         |
|     relaxations.                                                            |

 total charge

# of ion       s       p       d       tot
    1        0.447   0.284   9.188   9.920
    2        0.450   0.285   9.187   9.921
    3        0.450   0.285   9.187   9.921
    4        0.450   0.285   9.187   9.921
    5        0.448   0.288   9.183   9.918
    6        0.450   0.285   9.187   9.921
    7        0.450   0.285   9.186   9.921
    8        0.450   0.285   9.186   9.921
    9        0.446   0.284   9.190   9.920
   10        0.440   0.372   9.175   9.987
   11        0.444   0.367   9.183   9.995
   12        0.440   0.372   9.175   9.987
   13        0.444   0.367   9.183   9.994
   14        0.444   0.367   9.183   9.994
   15        0.437   0.372   9.177   9.986
   16        0.440   0.372   9.176   9.987
   17        0.437   0.372   9.177   9.986
   18        0.437   0.372   9.177   9.986
   19        0.442   0.370   9.181   9.993
   20        0.454   0.389   9.170  10.013
   21        0.454   0.389   9.170  10.013
   22        0.435   0.378   9.178   9.991
   23        0.453   0.390   9.170  10.013
   24        0.435   0.378   9.178   9.991
   25        0.442   0.370   9.181   9.993
   26        0.442   0.370   9.181   9.993
   27        0.435   0.377   9.178   9.991
   28        0.448   0.283   9.194   9.925
   29        0.449   0.292   9.189   9.930
   30        0.449   0.292   9.189   9.930
   31        0.446   0.298   9.185   9.930
   32        0.446   0.298   9.185   9.930
   33        0.449   0.292   9.189   9.930
   34        0.449   0.292   9.189   9.930
   35        0.444   0.285   9.195   9.924
   36        0.443   0.517   7.443   8.404
   37        0.523   0.031   0.000   0.554
   38        0.523   0.031   0.000   0.554
tot         17.063  12.221 328.833 358.117

 BZINTS: Fermi energy:    0.177064;  396.000000 electrons
         Band energy:-0.102720E+04;  BLOECHL correction:   -0.051071