 vasp.6.2.0 18Jan21 (build Jun 12 2021 23:27:24) complex

 executed on             LinuxIFC date 2022.05.27  05:13:18

 INCAR:
   ISMEAR = -5
   SIGMA = 0.1
   ISPIN = 1
   EDIFF = 1.d-5
   EDIFFG = -0.01
   NSW = 0
   NELM = 150
   ENCUT = 500
   ISIF = 2
   IBRION = 2
   LREAL = Auto
   ALGO = Fast
   ICHARG = 11
   LORBIT = 10
   LCHARG = .F.
   LWAVE = .F.

 POTCAR:    PAW_PBE Au 04Oct2007
 POTCAR:    PAW_PBE Ru 04Feb2005
 POTCAR:    PAW_PBE H 15Jun2001
|           W    W    AA    RRRRR   N    N  II  N    N   GGGG   !!!           |
|           W    W   A  A   R    R  NN   N  II  NN   N  G    G  !!!           |
|           W    W  A    A  R    R  N N  N  II  N N  N  G       !!!           |
|           W WW W  AAAAAA  RRRRR   N  N N  II  N  N N  G  GGG   !            |
|           WW  WW  A    A  R   R   N   NN  II  N   NN  G    G                |
|           W    W  A    A  R    R  N    N  II  N    N   GGGG   !!!           |
|     For optimal performance we recommend to set                             |
|       NCORE = 2 up to number-of-cores-per-socket                            |
|     This setting can greatly improve the performance of VASP for DFT.       |
|     The default, NCORE=1 might be grossly inefficient on modern             |
|     multi-core architectures or massively parallel machines. Do your        |
|     Unfortunately you need to use the default for GW and RPA                |
|     calculations (for HF NCORE is supported but not extensively tested      |
|     yet).                                                                   |

 POTCAR:    PAW_PBE Au 04Oct2007
   VRHFIN =Au: s1d10

   TITEL  = PAW_PBE Au 04Oct2007
   POMASS =  196.966; ZVAL   =   11.000    mass and valenz
   ENMAX  =  229.943; ENMIN  =  172.457 eV

 POTCAR:    PAW_PBE Ru 04Feb2005
   VRHFIN =Ru: s1 d7

   TITEL  = PAW_PBE Ru 04Feb2005
   POMASS =  101.070; ZVAL   =    8.000    mass and valenz
   ENMAX  =  213.271; ENMIN  =  159.953 eV

 POTCAR:    PAW_PBE H 15Jun2001
   VRHFIN =H: ultrasoft test

   TITEL  = PAW_PBE H 15Jun2001
   POMASS =    1.000; ZVAL   =    1.000    mass and valenz
   ENMAX  =  250.000; ENMIN  =  200.000 eV

 Optimization of the real space projectors (new method)

 maximal supplied QI-value         = 15.12
 optimisation between [QCUT,QGAM] = [ 11.34, 22.83] = [ 36.00,145.93] Ry
 Optimized for a Real-space Cutoff    1.39 Angstroem

   l    n(q)    QCUT    max X(q) W(low)/X(q) W(high)/X(q)  e(spline)
   2      9    11.338    60.898    0.39E-03    0.42E-03    0.21E-06
   2      9    11.338    58.894    0.40E-03    0.42E-03    0.22E-06
   0      9    11.338   109.617    0.13E-03    0.20E-04    0.13E-06
   0      9    11.338    75.026    0.13E-03    0.20E-04    0.13E-06
   1      9    11.338    16.344    0.33E-04    0.24E-03    0.18E-06
   1      9    11.338    10.160    0.26E-04    0.19E-03    0.15E-06
 Optimization of the real space projectors (new method)

[...]

   l    n(q)    QCUT    max X(q) W(low)/X(q) W(high)/X(q)  e(spline)
   2      9    11.327    61.733    0.26E-03    0.14E-03    0.16E-06
   2      9    11.327    59.886    0.26E-03    0.14E-03    0.17E-06
   0     10    11.327    23.358    0.19E-03    0.14E-04    0.46E-06
   0     10    11.327    11.320    0.15E-03    0.11E-04    0.37E-06
   1     10    11.327    14.765    0.49E-04    0.26E-03    0.24E-06
   1     10    11.327     8.283    0.37E-04    0.20E-03    0.18E-06
 Optimization of the real space projectors (new method)

 maximal supplied QI-value         = 34.20
 optimisation between [QCUT,QGAM] = [ 11.29, 22.57] = [ 35.68,142.71] Ry
 Optimized for a Real-space Cutoff    1.16 Angstroem

   l    n(q)    QCUT    max X(q) W(low)/X(q) W(high)/X(q)  e(spline)
   0      8    11.287    19.460    0.40E-03    0.73E-03    0.16E-06
   0      8    11.287    12.209    0.38E-03    0.70E-03    0.15E-06
   1      7    11.287     4.655    0.22E-03    0.25E-04    0.22E-06
  PAW_PBE Au 04Oct2007                  :
  PAW_PBE Ru 04Feb2005                  :
  PAW_PBE H 15Jun2001                   :

 POSCAR: Au-Ru-H2
  positions in direct lattice
  velocities in cartesian coordinates
 exchange correlation table for  LEXCH =        8
   RHO(1)=    0.500       N(1)  =     2000
   RHO(2)=  100.500       N(2)  =     4000

 VTST: version 3.2, (02/03/18)

 CHAIN: initializing optimizer

 OPT: Using VASP Conjugate-Gradient optimizer
 CHAIN: Read ICHAIN            0

 POSCAR: Au-Ru-H2
  positions in direct lattice
  velocities in cartesian coordinates

 ion  position               nearest neighbor table
   1  0.000  0.000  0.224-  16 2.94  12 2.94   6 2.94   8 2.94   7 2.94   3 2.94  10 2.94   4 2.94
                             2 2.94
   2  0.333  0.000  0.224-   9 2.94  11 2.94  17 2.94  10 2.94   8 2.94   4 2.94   5 2.94   1 2.94
                             3 2.94
   3  0.667  0.000  0.224-   7 2.94  18 2.94  12 2.94   1 2.94  11 2.94   5 2.94   6 2.94   9 2.94
                             2 2.94
   4  0.000  0.333  0.224-  10 2.94   6 2.94   5 2.94  13 2.94   2 2.94  15 2.94   9 2.94   1 2.94
                             7 2.94
   5  0.333  0.333  0.224-  13 2.94   7 2.94  11 2.94   4 2.94   2 2.94  14 2.94   3 2.94   8 2.94
                             6 2.94
   6  0.667  0.333  0.224-  15 2.94  14 2.94   1 2.94  12 2.94   4 2.94   9 2.94   8 2.94   3 2.94
                             5 2.94
   7  0.000  0.667  0.224-  18 2.94   3 2.94  16 2.94   5 2.94   1 2.94  13 2.94   8 2.94   4 2.94
                             9 2.94
   8  0.333  0.667  0.224-   9 2.94  17 2.94   1 2.94   2 2.94  14 2.94  16 2.94   6 2.94   7 2.94
                             5 2.94
   9  0.667  0.667  0.224-   2 2.94   8 2.94  17 2.94   6 2.94  15 2.94   4 2.94   3 2.94  18 2.94
                             7 2.94
  10  0.111  0.111  0.326-  20 2.91  26 2.94  19 2.94  11 2.94  17 2.94   2 2.94   4 2.94   1 2.94
                            12 2.94  16 2.94  13 2.94  15 2.94
  11  0.444  0.111  0.326-  20 2.91  21 2.91  27 2.94  13 2.94   2 2.94  10 2.94  17 2.94   5 2.94
                             3 2.94  18 2.94  14 2.94  12 2.94
  12  0.778  0.111  0.326-  21 2.91  25 2.94  19 2.94  16 2.94  18 2.94   1 2.94  14 2.94  15 2.94
                             3 2.94   6 2.94  10 2.94  11 2.94
  13  0.111  0.444  0.326-  23 2.91  20 2.91  22 2.94   5 2.94  18 2.94  11 2.94   7 2.94   4 2.94
                            16 2.94  10 2.94  14 2.94  15 2.94
  14  0.444  0.444  0.326-  21 2.91  23 2.91  24 2.94  15 2.94   6 2.94  12 2.94   8 2.94  17 2.94
                             5 2.94  16 2.94  13 2.94  11 2.94
  15  0.778  0.444  0.326-  24 2.92  22 2.92  19 2.94  14 2.94   6 2.94  17 2.94  12 2.94   9 2.94
                             4 2.94  10 2.94  13 2.94  18 2.94
  16  0.111  0.778  0.326-  23 2.91  25 2.94  26 2.94  18 2.94  12 2.94   7 2.94   1 2.94   8 2.94
                            13 2.94  10 2.94  14 2.94  17 2.94
  17  0.444  0.778  0.326-  27 2.92  24 2.92  26 2.94   9 2.94  15 2.94   2 2.94  10 2.94  11 2.94
                             8 2.94  14 2.94  16 2.94  18 2.94
  18  0.778  0.778  0.326-  22 2.92  27 2.92  25 2.94  16 2.94   7 2.94  13 2.94  12 2.94   3 2.94
                            11 2.94   9 2.94  15 2.94  17 2.94
  19  0.889  0.222  0.428-  15 2.94  10 2.94  12 2.94  24 2.94  22 2.94  26 2.94  25 2.94  21 2.94
                            20 2.94  28 2.95  32 2.97  31 2.97
  20  0.223  0.223  0.426-  36 2.78  11 2.91  13 2.91  10 2.91  23 2.93  21 2.93  29 2.94  31 2.94
                            26 2.94  19 2.94  27 2.95  22 2.95
  21  0.555  0.223  0.426-  36 2.78  14 2.91  11 2.91  12 2.91  20 2.93  23 2.93  30 2.94  32 2.94
                            25 2.94  19 2.94  27 2.95  24 2.95
  22  0.887  0.557  0.427-  24 2.91  27 2.91  18 2.92  15 2.92  13 2.94  25 2.94  19 2.94  23 2.95
                            20 2.95  35 2.96  33 2.96  31 2.96
  23  0.223  0.555  0.426-  36 2.78  13 2.91  14 2.91  16 2.91  20 2.93  21 2.93  33 2.94  34 2.94
                            25 2.94  26 2.94  22 2.95  24 2.95
  24  0.557  0.557  0.427-  27 2.91  22 2.91  15 2.92  17 2.92  14 2.94  26 2.94  19 2.94  21 2.95
                            23 2.95  35 2.96  32 2.96  34 2.96
  25  0.889  0.889  0.428-  18 2.94  16 2.94  12 2.94  22 2.94  27 2.94  19 2.94  26 2.94  23 2.94
                            21 2.94  28 2.95  33 2.97  30 2.97
  26  0.222  0.889  0.428-  17 2.94  10 2.94  16 2.94  27 2.94  24 2.94  19 2.94  25 2.94  20 2.94
                            23 2.94  28 2.95  29 2.97  34 2.97
  27  0.557  0.887  0.427-  24 2.91  22 2.91  17 2.92  18 2.92  11 2.94  26 2.94  25 2.94  20 2.95
                            21 2.95  35 2.96  29 2.96  30 2.96
  28  0.000  0.000  0.530-  25 2.95  19 2.95  26 2.95  34 2.97  32 2.97  33 2.97  30 2.97  31 2.97
                            29 2.97
  29  0.333  0.007  0.529-  31 2.88  30 2.88  36 2.89  20 2.94  27 2.96  28 2.97  35 2.97  26 2.97
                            34 3.05
  30  0.660  0.007  0.529-  32 2.88  29 2.88  36 2.89  21 2.94  27 2.96  28 2.97  35 2.97  25 2.97
                            33 3.05
  31  0.007  0.333  0.529-  29 2.88  33 2.88  36 2.89  20 2.94  22 2.96  28 2.97  35 2.97  19 2.97
                            32 3.05
  32  0.660  0.333  0.529-  30 2.88  34 2.88  36 2.89  21 2.94  24 2.96  28 2.97  35 2.97  19 2.97
                            31 3.05
  33  0.007  0.660  0.529-  34 2.88  31 2.88  36 2.89  23 2.94  22 2.96  28 2.97  35 2.97  25 2.97
                            30 3.05
  34  0.333  0.660  0.529-  33 2.88  32 2.88  36 2.89  23 2.94  24 2.96  28 2.97  35 2.97  26 2.97
                            29 3.05
  35  0.667  0.667  0.530-  24 2.96  27 2.96  22 2.96  29 2.97  34 2.97  32 2.97  31 2.97  30 2.97
                            33 2.97
  36  0.333  0.333  0.519-  38 1.68  37 1.68  20 2.78  23 2.78  21 2.78  33 2.89  31 2.89  29 2.89
                            30 2.89  34 2.89  32 2.89
  37  0.281  0.329  0.588-  36 1.68
  38  0.390  0.329  0.588-  36 1.68

  LATTYP: Found a hexagonal cell.
 ALAT       =     8.8135128021
 C/A-ratio  =     2.6740913326

  Lattice vectors:

 A1 = (  -4.4067569092,  -7.6327256898,   0.0000000000)
 A2 = (   8.8135128021,   0.0000000000,   0.0000000000)
 A3 = (   0.0000000000,   0.0000000000,  23.5681381942)

Analysis of symmetry for initial positions (statically):
 Subroutine PRICEL returns:
 Original cell was already a primitive cell.

 Routine SETGRP: Setting up the symmetry group for a
 hexagonal supercell.

 Subroutine GETGRP returns: Found  2 space group operations
 (whereof  2 operations were pure point group operations)
 out of a pool of 24 trial point group operations.

The static configuration has the point symmetry C_1h.

Analysis of symmetry for dynamics (positions and initial velocities):
 Subroutine PRICEL returns:
 Original cell was already a primitive cell.

[...]

The dynamic configuration has the point symmetry C_1h.

Analysis of constrained symmetry for selective dynamics:
 Subroutine PRICEL returns:
 Original cell was already a primitive cell.

 Routine SETGRP: Setting up the symmetry group for a
 hexagonal supercell.

 Subroutine GETGRP returns: Found  2 space group operations
[...]
     33      -4.9717      2.00000
     34      -4.9615      2.00000
     35      -4.9160      2.00000
     36      -4.8193      2.00000
     37      -4.8123      2.00000
     38      -4.7663      2.00000
     39      -4.7429      2.00000
     40      -4.6851      2.00000
     41      -4.6293      2.00000
     42      -4.6042      2.00000
     43      -4.5577      2.00000
     44      -4.5374      2.00000
     45      -4.5154      2.00000
     46      -4.5110      2.00000
     47      -4.4038      2.00000
     48      -4.3811      2.00000
     49      -4.3496      2.00000
     50      -4.3421      2.00000
     51      -4.3291      2.00000
     52      -4.3284      2.00000
     53      -4.3196      2.00000
     54      -4.2783      2.00000
     55      -4.2373      2.00000
     56      -4.1958      2.00000
     57      -4.1839      2.00000
     58      -4.1743      2.00000
     59      -4.1657      2.00000
     60      -4.1599      2.00000
[...]
    226       4.9463      0.00000
    227       5.1644      0.00000
    228       5.1860      0.00000
    229       5.4249      0.00000
    230       5.4862      0.00000
    231       5.6161      0.00000
    232       5.7993      0.00000
    233       6.0296      0.00000
    234       6.0947      0.00000
    235       6.0978      0.00000
    236       6.2059      0.00000
    237       6.2887      0.00000
    238       6.3905      0.00000
    239       6.4518      0.00000
    240       6.6013      0.00000

 soft charge-density along one line, spin component           1
         0         1         2         3         4         5         6         7         8         9
 total charge-density along one line

------------------------ aborting loop because EDIFF is reached ----------------------------------------

 total charge

# of ion       s       p       d       tot
    1        0.545   0.238   8.769   9.552
    2        0.545   0.241   8.764   9.550
    3        0.545   0.241   8.764   9.550
    4        0.545   0.240   8.765   9.550
    5        0.544   0.242   8.759   9.545
    6        0.545   0.240   8.765   9.550
    7        0.546   0.241   8.765   9.551
    8        0.546   0.241   8.765   9.551
    9        0.542   0.239   8.771   9.552
   10        0.521   0.309   8.768   9.598
   11        0.525   0.306   8.781   9.612
   12        0.521   0.309   8.768   9.598
   13        0.524   0.307   8.780   9.611
   14        0.524   0.307   8.780   9.611
   15        0.515   0.309   8.776   9.600
   16        0.522   0.309   8.766   9.598
   17        0.514   0.309   8.776   9.600
   18        0.514   0.309   8.776   9.600
   19        0.517   0.302   8.774   9.592
   20        0.547   0.327   8.755   9.629
   21        0.547   0.327   8.755   9.629
   22        0.508   0.310   8.776   9.594
   23        0.549   0.330   8.750   9.629
   24        0.508   0.310   8.776   9.594
   25        0.518   0.301   8.774   9.593
   26        0.518   0.301   8.774   9.593
   27        0.508   0.309   8.777   9.594
   28        0.540   0.227   8.769   9.535
   29        0.552   0.244   8.755   9.551
   30        0.552   0.244   8.755   9.551
   31        0.548   0.248   8.753   9.549
   32        0.548   0.248   8.753   9.549
   33        0.553   0.244   8.754   9.551
   34        0.553   0.244   8.754   9.551
   35        0.534   0.228   8.770   9.532
   36        0.473   0.573   6.654   7.700
   37        0.521   0.031   0.000   0.553
   38        0.521   0.031   0.000   0.553
tot         20.196  10.317 313.484 343.997

  FORCE on cell =-STRESS in cart. coord.  units (eV):
  Direction    XX          YY          ZZ          XY          YZ          ZX
  Alpha Z   938.85693   938.85693   938.85693
  Ewald  139437.31880139415.50632************    -0.00033    -0.75931    -0.00015
  Hartree147858.79644147853.80158************     0.00000     0.09169    -0.00004
  E(xc)   -1771.15674 -1771.36345 -1778.46007     0.00000    -0.02712    -0.00000
  Local  ************************299918.55378     0.00187     0.09026     0.00010
  n-local   -52.51249   -52.98712   -25.41974     5.34689     0.19872     0.28597
  augment  2413.02875  2413.30295  2426.49654    -0.00138     0.13797     0.00003
  Kinetic  5458.09788  5462.53683  5504.99209     1.70026     0.47111     0.14609
  Fock        0.00000     0.00000     0.00000     0.00000     0.00000     0.00000
  Total     -21.13622   -21.17454     3.40725    -0.00000     0.20333     0.00000
  in kB     -21.35915   -21.39788     3.44318    -0.00000     0.20547     0.00000

 VOLUME and BASIS-vectors are now :
  energy-cutoff  :      500.00
  volume of cell :     1585.46
      direct lattice vectors                 reciprocal lattice vectors
     8.813512802  0.000000000  0.000000000     0.113462137 -0.065507406  0.000000000
     4.406756909  7.632725690  0.000000000     0.000000000  0.131014796  0.000000000
     0.000000000  0.000000000 23.568138194     0.000000000  0.000000000  0.042430165

  length of vectors
     8.813512802  8.813512802 23.568138194     0.131014796  0.131014796  0.042430165

 FORCES acting on ions
    electron-ion (+dipol)            ewald-force                    non-local-force                 convergence-correction
   -.199E-04 -.197E-01 0.259E+04   0.519E-04 -.359E-02 -.259E+04   0.954E-09 0.143E-01 -.100E+01   -.182E-03 0.723E-02 -.155E+00
   0.351E+00 0.131E+00 0.259E+04   -.424E+00 -.253E+00 -.259E+04   0.559E-01 0.740E-01 -.276E+00   0.207E-01 0.665E-01 -.249E+00
   -.351E+00 0.131E+00 0.259E+04   0.424E+00 -.253E+00 -.259E+04   -.559E-01 0.740E-01 -.276E+00   -.204E-01 0.684E-01 -.248E+00
   0.293E+00 0.244E+00 0.259E+04   -.428E+00 -.240E+00 -.259E+04   0.920E-01 0.863E-02 -.285E+00   0.592E-01 -.190E-01 -.251E+00
   0.708E-05 -.123E-01 0.259E+04   0.951E-04 0.217E-02 -.259E+04   0.815E-09 0.122E-01 -.103E+00   0.424E-02 -.735E-03 -.238E+00
   -.293E+00 0.244E+00 0.259E+04   0.428E+00 -.240E+00 -.259E+04   -.920E-01 0.863E-02 -.285E+00   -.607E-01 -.181E-01 -.250E+00
   -.644E-01 -.371E+00 0.259E+04   -.438E-02 0.494E+00 -.259E+04   0.395E-01 -.866E-01 -.263E+00   0.448E-01 -.455E-01 -.249E+00
   0.644E-01 -.371E+00 0.259E+04   0.425E-02 0.494E+00 -.259E+04   -.395E-01 -.866E-01 -.263E+00   -.430E-01 -.466E-01 -.249E+00
   0.195E-04 0.202E-01 0.259E+04   0.166E-03 0.151E-02 -.259E+04   -.889E-09 -.134E-01 -.637E+00   -.461E-02 -.904E-02 -.256E+00
   0.413E+01 0.239E+01 0.858E+03   -.380E+01 -.221E+01 -.857E+03   -.330E+00 -.169E+00 -.782E+00   0.927E-02 0.121E-02 0.890E-01
   0.145E-04 0.377E+01 0.862E+03   0.148E-03 -.388E+01 -.862E+03   0.467E-08 0.702E-01 -.317E+00   0.364E-02 -.233E-01 0.100E+00
   -.413E+01 0.239E+01 0.858E+03   0.380E+01 -.221E+01 -.857E+03   0.330E+00 -.169E+00 -.782E+00   -.104E-01 0.229E-02 0.880E-01
   0.326E+01 -.187E+01 0.862E+03   -.334E+01 0.196E+01 -.862E+03   0.651E-01 -.626E-01 -.316E+00   -.214E-01 -.225E-02 0.917E-01
   -.326E+01 -.187E+01 0.862E+03   0.334E+01 0.196E+01 -.862E+03   -.651E-01 -.626E-01 -.316E+00   0.288E-01 -.278E-02 0.908E-01
   0.312E-04 0.285E+01 0.860E+03   0.236E-03 -.291E+01 -.859E+03   0.235E-08 0.353E-01 -.583E+00   -.208E-02 -.727E-02 0.992E-01
   -.215E-04 -.484E+01 0.858E+03   0.163E-03 0.438E+01 -.857E+03   0.279E-07 0.419E+00 -.818E+00   0.373E-04 0.182E-01 0.917E-01
   0.251E+01 -.144E+01 0.860E+03   -.254E+01 0.146E+01 -.859E+03   0.129E-01 -.180E-01 -.580E+00   -.119E-01 0.119E-01 0.975E-01
   -.251E+01 -.144E+01 0.860E+03   0.254E+01 0.146E+01 -.859E+03   -.129E-01 -.180E-01 -.580E+00   0.120E-01 0.135E-01 0.974E-01
   -.410E-04 0.157E+01 -.900E+03   0.541E-04 -.162E+01 0.899E+03   0.262E-08 0.394E-01 0.631E+00   0.346E-02 0.244E-01 0.487E+00
   0.690E+01 0.408E+01 -.874E+03   -.614E+01 -.360E+01 0.874E+03   -.100E+01 -.625E+00 -.984E+00   0.208E+00 0.933E-01 0.861E+00
   -.690E+01 0.408E+01 -.874E+03   0.614E+01 -.360E+01 0.874E+03   0.100E+01 -.625E+00 -.984E+00   -.209E+00 0.944E-01 0.861E+00
   -.460E+01 0.249E+01 -.891E+03   0.416E+01 -.225E+01 0.890E+03   0.360E+00 -.208E+00 0.581E+00   0.978E-01 -.502E-01 0.554E+00
   -.105E-04 -.828E+01 -.874E+03   0.141E-03 0.727E+01 0.874E+03   0.831E-07 0.125E+01 -.106E+01   0.236E-03 -.232E+00 0.910E+00
   0.460E+01 0.249E+01 -.891E+03   -.416E+01 -.225E+01 0.890E+03   -.360E+00 -.208E+00 0.581E+00   -.982E-01 -.489E-01 0.554E+00
   -.136E+01 -.631E+00 -.901E+03   0.140E+01 0.660E+00 0.900E+03   -.302E-01 -.225E-01 0.611E+00   -.213E-01 -.132E-01 0.519E+00
   0.136E+01 -.631E+00 -.901E+03   -.140E+01 0.660E+00 0.900E+03   0.302E-01 -.225E-01 0.611E+00   0.284E-01 -.131E-01 0.519E+00
   0.955E-05 -.528E+01 -.891E+03   0.200E-03 0.469E+01 0.890E+03   0.312E-07 0.468E+00 0.585E+00   -.175E-02 0.130E+00 0.571E+00
   -.972E-05 0.683E+00 -.260E+04   0.273E-04 -.608E+00 0.259E+04   -.325E-08 -.488E-01 0.559E+00   0.285E-03 -.405E-01 0.551E+00
   0.613E+01 0.111E+02 -.259E+04   -.578E+01 -.108E+02 0.258E+04   -.614E+00 -.777E+00 0.384E+00   0.216E+00 0.325E+00 0.546E+00
   -.613E+01 0.111E+02 -.259E+04   0.578E+01 -.108E+02 0.258E+04   0.614E+00 -.777E+00 0.384E+00   -.216E+00 0.326E+00 0.547E+00
   0.134E+02 0.616E-01 -.258E+04   -.131E+02 0.312E-01 0.258E+04   -.889E+00 -.922E-01 0.472E+00   0.432E+00 0.132E-01 0.539E+00
   -.134E+02 0.616E-01 -.258E+04   0.131E+02 0.312E-01 0.258E+04   0.889E+00 -.922E-01 0.472E+00   -.433E+00 0.144E-01 0.539E+00
   0.485E+01 -.107E+02 -.259E+04   -.463E+01 0.103E+02 0.259E+04   -.471E+00 0.889E+00 0.366E+00   0.200E+00 -.337E+00 0.546E+00
   -.485E+01 -.107E+02 -.259E+04   0.463E+01 0.103E+02 0.259E+04   0.471E+00 0.889E+00 0.366E+00   -.198E+00 -.338E+00 0.546E+00
   0.312E-04 -.380E+00 -.260E+04   0.145E-03 0.310E+00 0.260E+04   0.303E-08 0.455E-01 0.642E+00   -.456E-02 0.280E-01 0.548E+00
   -.190E-04 -.168E+01 -.174E+04   0.825E-04 0.162E+01 0.175E+04   0.111E-07 0.166E+00 -.304E+01   0.160E-02 0.518E-02 0.419E+00
   0.151E+02 0.118E+00 -.294E+03   -.176E+02 -.153E+00 0.296E+03   0.251E+01 0.321E-01 -.163E+01   0.240E-01 -.104E-03 -.747E-01
   -.151E+02 0.118E+00 -.294E+03   0.176E+02 -.153E+00 0.296E+03   -.251E+01 0.321E-01 -.163E+01   -.239E-01 -.907E-04 -.747E-01
   -.780E-03 -.339E+00 0.153E+01   -.995E-13 -.168E-12 0.665E-11   0.229E-07 0.344E+00 -.105E+02   0.143E-01 -.424E-02 0.917E+01

 POSITION                                       TOTAL-FORCE (eV/Angst)
      0.00000      0.00000      5.28038        -0.000000     -0.001734     -0.103625
      2.93784      0.00000      5.28038         0.003313      0.018696     -0.041469
      5.87568      0.00000      5.28038        -0.003313      0.018696     -0.041469
      1.46892      2.54424      5.28038         0.017009     -0.006561     -0.041472
      4.40676      2.54424      5.28038         0.000000      0.001374     -0.075687
      7.34459      2.54424      5.28038        -0.017009     -0.006561     -0.041472
      2.93784      5.08848      5.28038         0.014677     -0.010516     -0.043247
      5.87568      5.08848      5.28038        -0.014677     -0.010516     -0.043247
      8.81351      5.08848      5.28038        -0.000000     -0.000694     -0.062885
      1.46892      0.84808      7.67911         0.015758      0.011848      0.090716
      4.40676      0.84808      7.67911        -0.000000     -0.061388      0.002353
      7.34459      0.84808      7.67911        -0.015758      0.011848      0.090716
      2.93784      3.39232      7.67911        -0.043016      0.027085      0.015269
      5.87568      3.39232      7.67911         0.043016      0.027085      0.015269
      8.81351      3.39232      7.67911        -0.000000     -0.035114      0.071766
      4.40676      5.93656      7.67911        -0.000000     -0.031782      0.099921
      7.34459      5.93656      7.67911        -0.032301      0.020076      0.075653
     10.28243      5.93656      7.67911         0.032301      0.020076      0.075653
      8.81351      1.69681     10.07567         0.000000      0.011073      0.037469
      2.94232      1.69875     10.04120        -0.042030     -0.048404     -0.218465
      5.87120      1.69875     10.04120         0.042030     -0.048404     -0.218465
     10.26751      4.24902     10.06295         0.021050     -0.009401     -0.015284
      4.40676      4.23523     10.04120         0.000000      0.012882     -0.170784
      7.35952      4.24902     10.06295        -0.021050     -0.009401     -0.015284
     11.75079      6.78432     10.07567        -0.016218     -0.006606      0.024221
      5.87624      6.78432     10.07567         0.016218     -0.006606      0.024221
      8.81351      6.76742     10.06295         0.000000      0.015511     -0.015288
      0.00000      0.00000     12.49459        -0.000000     -0.013876     -0.075235
      2.96623      0.05046     12.47837        -0.045505     -0.132008     -0.036186
      5.84728      0.05046     12.47837         0.045505     -0.132008     -0.036186
      1.52682      2.54360     12.47837        -0.129146      0.014348     -0.009491
      7.28669      2.54360     12.47837         0.129146      0.014348     -0.009491
      2.96734      5.03866     12.47837        -0.056641      0.114910     -0.013628
      5.84617      5.03866     12.47837         0.056641      0.114910     -0.013628
      8.81351      5.08848     12.49555         0.000000      0.003979     -0.040174
      4.40676      2.54424     12.24198         0.000000      0.118798      0.762752
      3.92460      2.50976     13.84852         0.028495     -0.002983     -0.001909
      4.88892      2.50976     13.84852        -0.028495     -0.002983     -0.001909
    total drift:                                0.013560      0.000517      0.155065

  FREE ENERGIE OF THE ION-ELECTRON SYSTEM (eV)
  free  energy   TOTEN  =      -121.62271597 eV

  energy  without entropy=     -121.62271597  energy(sigma->0) =     -121.62271597

 stress matrix after NEB project (eV)
    -21.13622     -0.00000      0.00000
     -0.00000    -21.17454      0.20333
      0.00000      0.20333      3.40725
  FORCES: max atom, RMS     0.028714    0.006587
  FORCE total and by dimension    0.040608    0.028495
  Stress total and by dimension   30.113006   21.174544
|           W    W    AA    RRRRR   N    N  II  N    N   GGGG   !!!           |
|           W    W   A  A   R    R  NN   N  II  NN   N  G    G  !!!           |
|           W    W  A    A  R    R  N N  N  II  N N  N  G       !!!           |
|           W WW W  AAAAAA  RRRRR   N  N N  II  N  N N  G  GGG   !            |
|           WW  WW  A    A  R   R   N   NN  II  N   NN  G    G                |
|           W    W  A    A  R    R  N    N  II  N    N   GGGG   !!!           |
|     Tetrahedron method does not include variations of the Fermi             |
|     occupations, so forces and stress will be inaccurate. We suggest        |
|     using a different smearing scheme ISMEAR = 1 or 2 for metals in         |
|     relaxations.                                                            |

 total charge

# of ion       s       p       d       tot
    1        0.545   0.238   8.769   9.552
    2        0.545   0.241   8.764   9.550
    3        0.545   0.241   8.764   9.550
    4        0.545   0.240   8.765   9.550
    5        0.544   0.242   8.759   9.545
    6        0.545   0.240   8.765   9.550
    7        0.546   0.241   8.765   9.551
    8        0.546   0.241   8.765   9.551
    9        0.542   0.239   8.771   9.552
   10        0.521   0.309   8.768   9.598
   11        0.525   0.306   8.781   9.612
   12        0.521   0.309   8.768   9.598
   13        0.524   0.307   8.780   9.611
   14        0.524   0.307   8.780   9.611
   15        0.515   0.309   8.776   9.600
   16        0.522   0.309   8.766   9.598
   17        0.514   0.309   8.776   9.600
   18        0.514   0.309   8.776   9.600
   19        0.517   0.302   8.774   9.592
   20        0.547   0.327   8.755   9.629
   21        0.547   0.327   8.755   9.629
   22        0.508   0.310   8.776   9.594
   23        0.549   0.330   8.750   9.629
   24        0.508   0.310   8.776   9.594
   25        0.518   0.301   8.774   9.593
   26        0.518   0.301   8.774   9.593
   27        0.508   0.309   8.777   9.594
   28        0.540   0.227   8.769   9.535
   29        0.552   0.244   8.755   9.551
   30        0.552   0.244   8.755   9.551
   31        0.548   0.248   8.753   9.549
   32        0.548   0.248   8.753   9.549
   33        0.553   0.244   8.754   9.551
   34        0.553   0.244   8.754   9.551
   35        0.534   0.228   8.770   9.532
   36        0.473   0.573   6.654   7.700
   37        0.521   0.031   0.000   0.553
   38        0.521   0.031   0.000   0.553
tot         20.196  10.317 313.484 343.997

 BZINTS: Fermi energy:    0.441675;  395.000000 electrons
         Band energy:-0.128407E+04;  BLOECHL correction:   -0.078294