 vasp.6.2.0 18Jan21 (build Jun 12 2021 23:27:24) complex

 executed on             LinuxIFC date 2022.05.27  05:31:22

 INCAR:
   ISMEAR = -5
   SIGMA = 0.1
   ISPIN = 1
   EDIFF = 1.d-5
   EDIFFG = -0.01
   NSW = 0
   NELM = 150
   ENCUT = 500
   ISIF = 2
   IBRION = 2
   LREAL = Auto
   ALGO = Fast
   ICHARG = 11
   LORBIT = 10
   LCHARG = .F.
   LWAVE = .F.

 POTCAR:    PAW_PBE Ag 02Apr2005
 POTCAR:    PAW_PBE Co 02Aug2007
 POTCAR:    PAW_PBE C 08Apr2002
 POTCAR:    PAW_PBE O 08Apr2002
|           W    W    AA    RRRRR   N    N  II  N    N   GGGG   !!!           |
|           W    W   A  A   R    R  NN   N  II  NN   N  G    G  !!!           |
|           W    W  A    A  R    R  N N  N  II  N N  N  G       !!!           |
|           W WW W  AAAAAA  RRRRR   N  N N  II  N  N N  G  GGG   !            |
|           WW  WW  A    A  R   R   N   NN  II  N   NN  G    G                |
|           W    W  A    A  R    R  N    N  II  N    N   GGGG   !!!           |
|     For optimal performance we recommend to set                             |
|       NCORE = 2 up to number-of-cores-per-socket                            |
|     This setting can greatly improve the performance of VASP for DFT.       |
|     The default, NCORE=1 might be grossly inefficient on modern             |
|     multi-core architectures or massively parallel machines. Do your        |
|     Unfortunately you need to use the default for GW and RPA                |
|     calculations (for HF NCORE is supported but not extensively tested      |
|     yet).                                                                   |

 POTCAR:    PAW_PBE Ag 02Apr2005
   VRHFIN =Ag : s1 d10

   TITEL  = PAW_PBE Ag 02Apr2005
   POMASS =  107.868; ZVAL   =   11.000    mass and valenz
   ENMAX  =  249.844; ENMIN  =  187.383 eV

 POTCAR:    PAW_PBE Co 02Aug2007
   VRHFIN =Co: d8 s1

   TITEL  = PAW_PBE Co 02Aug2007
   POMASS =   58.933; ZVAL   =    9.000    mass and valenz
   ENMAX  =  267.968; ENMIN  =  200.976 eV

 POTCAR:    PAW_PBE C 08Apr2002
   VRHFIN =C: s2p2

[...]

 POTCAR:    PAW_PBE O 08Apr2002
   VRHFIN =O: s2p4

   TITEL  = PAW_PBE O 08Apr2002
   POMASS =   16.000; ZVAL   =    6.000    mass and valenz
   ENMAX  =  400.000; ENMIN  =  300.000 eV

 Optimization of the real space projectors (new method)

 maximal supplied QI-value         = 15.12
 optimisation between [QCUT,QGAM] = [ 11.34, 22.83] = [ 36.00,145.93] Ry
 Optimized for a Real-space Cutoff    1.43 Angstroem

   l    n(q)    QCUT    max X(q) W(low)/X(q) W(high)/X(q)  e(spline)
   2      9    11.338    53.897    0.16E-03    0.20E-03    0.28E-06
   2      9    11.338    52.416    0.16E-03    0.20E-03    0.29E-06
   0     10    11.338   122.045    0.31E-04    0.76E-04    0.15E-06
   0     10    11.338    73.629    0.30E-04    0.72E-04    0.15E-06
   1      9    11.338    15.255    0.20E-03    0.19E-04    0.17E-06
   1      9    11.338     9.562    0.16E-03    0.15E-04    0.14E-06
 Optimization of the real space projectors (new method)

[...]

   l    n(q)    QCUT    max X(q) W(low)/X(q) W(high)/X(q)  e(spline)
   0      7    11.310   115.676    0.43E-03    0.13E-02    0.19E-06
   0      7    11.310    87.132    0.43E-03    0.13E-02    0.18E-06
   1      6    11.310     4.429    0.42E-03    0.74E-03    0.11E-06
   1      6    11.310     2.733    0.34E-03    0.55E-03    0.92E-07
 Optimization of the real space projectors (new method)

 maximal supplied QI-value         = 24.76
 optimisation between [QCUT,QGAM] = [ 11.39, 22.77] = [ 36.31,145.25] Ry
 Optimized for a Real-space Cutoff    1.00 Angstroem

   l    n(q)    QCUT    max X(q) W(low)/X(q) W(high)/X(q)  e(spline)
   0      7    11.387    20.381    0.39E-03    0.13E-02    0.15E-06
   0      7    11.387    15.268    0.42E-03    0.14E-02    0.17E-06
   1      6    11.387     5.964    0.41E-03    0.11E-02    0.17E-06
   1      6    11.387     5.382    0.39E-03    0.87E-03    0.15E-06
  PAW_PBE Ag 02Apr2005                  :
  PAW_PBE Co 02Aug2007                  :
  PAW_PBE C 08Apr2002                   :
  PAW_PBE O 08Apr2002                   :

 POSCAR: Ag-Co-CO
  positions in direct lattice
  velocities in cartesian coordinates
 exchange correlation table for  LEXCH =        8
   RHO(1)=    0.500       N(1)  =     2000
   RHO(2)=  100.500       N(2)  =     4000

 VTST: version 3.2, (02/03/18)

 CHAIN: initializing optimizer

 OPT: Using VASP Conjugate-Gradient optimizer
 CHAIN: Read ICHAIN            0

 POSCAR: Ag-Co-CO
  positions in direct lattice
  velocities in cartesian coordinates

 ion  position               nearest neighbor table
   1  0.000  0.000  0.238-   2 2.93   8 2.93   7 2.93   6 2.93   4 2.93  12 2.93  16 2.93  10 2.93
                             3 2.93
   2  0.333  0.000  0.238-   1 2.93   8 2.93   9 2.93   3 2.93   4 2.93   5 2.93  10 2.93  17 2.93
                            11 2.93
   3  0.667  0.000  0.238-   9 2.93   2 2.93   5 2.93  11 2.93   7 2.93  18 2.93   1 2.93   6 2.93
                            12 2.93
   4  0.000  0.333  0.238-   5 2.93   6 2.93   2 2.93   1 2.93   7 2.93  13 2.93  15 2.93   9 2.93
                            10 2.93
   5  0.333  0.333  0.238-   4 2.93   3 2.93   7 2.93   2 2.93   8 2.93  14 2.93  13 2.93  11 2.93
                             6 2.93
   6  0.667  0.333  0.238-   4 2.93   9 2.93   1 2.93  15 2.93   8 2.93  12 2.93   3 2.93   5 2.93
                            14 2.93
   7  0.000  0.667  0.238-   8 2.93   1 2.93   5 2.93   3 2.93   4 2.93  16 2.93  18 2.93  13 2.93
                             9 2.93
   8  0.333  0.667  0.238-   7 2.93   1 2.93   2 2.93   9 2.93   5 2.93  16 2.93   6 2.93  17 2.93
                            14 2.93
   9  0.667  0.667  0.238-   3 2.93   2 2.93   8 2.93   6 2.93  17 2.93   4 2.93  15 2.93   7 2.93
                            18 2.93
  10  0.111  0.111  0.346-  20 2.92  19 2.93  26 2.93  12 2.93  16 2.93  15 2.93  17 2.93  13 2.93
                            11 2.93   2 2.93   1 2.93   4 2.93
  11  0.444  0.111  0.346-  21 2.90  20 2.90  27 2.92  14 2.93  17 2.93  18 2.93   3 2.93  12 2.93
                            13 2.93  10 2.93   5 2.93   2 2.93
  12  0.778  0.111  0.346-  21 2.92  25 2.93  19 2.93  10 2.93  16 2.93  18 2.93  15 2.93  11 2.93
                             1 2.93  14 2.93   6 2.93   3 2.93
  13  0.111  0.444  0.346-  20 2.90  23 2.90  22 2.92  15 2.93  14 2.93  18 2.93  10 2.93  11 2.93
                            16 2.93   4 2.93   5 2.93   7 2.93
  14  0.444  0.444  0.346-  23 2.90  21 2.90  24 2.92  13 2.93  11 2.93  16 2.93   5 2.93  12 2.93
                            17 2.93   8 2.93  15 2.93   6 2.93
  15  0.778  0.444  0.346-  24 2.91  22 2.91  19 2.92  13 2.93  10 2.93  12 2.93  17 2.93  18 2.93
                             4 2.93   6 2.93   9 2.93  14 2.93
  16  0.111  0.778  0.346-  23 2.92  26 2.93  25 2.93  18 2.93  12 2.93  10 2.93  14 2.93  17 2.93
                            13 2.93   7 2.93   8 2.93   1 2.93
  17  0.444  0.778  0.346-  27 2.91  24 2.91  26 2.92  11 2.93  10 2.93   9 2.93  18 2.93  15 2.93
                            16 2.93   2 2.93  14 2.93   8 2.93
  18  0.778  0.778  0.346-  22 2.91  27 2.91  25 2.92  16 2.93  12 2.93  13 2.93  11 2.93  17 2.93
                            15 2.93   7 2.93   3 2.93   9 2.93
  19  0.889  0.222  0.454-  28 2.91  15 2.92  10 2.93  12 2.93  24 2.93  22 2.93  26 2.93  25 2.93
                            32 2.94  31 2.94  20 2.94  21 2.94
  20  0.223  0.223  0.453-  36 2.69  31 2.89  29 2.89  13 2.90  11 2.90  21 2.91  23 2.91  10 2.92
                            27 2.93  22 2.93  19 2.94  26 2.94
  21  0.554  0.223  0.453-  36 2.69  30 2.89  32 2.89  11 2.90  14 2.90  20 2.91  23 2.91  12 2.92
                            27 2.93  24 2.93  25 2.94  19 2.94
  22  0.888  0.556  0.453-  35 2.91  33 2.91  31 2.91  18 2.91  15 2.91  13 2.92  24 2.92  27 2.92
                            25 2.93  19 2.93  23 2.93  20 2.93
  23  0.223  0.554  0.453-  36 2.69  34 2.89  33 2.89  14 2.90  13 2.90  21 2.91  20 2.91  16 2.92
                            22 2.93  24 2.93  26 2.94  25 2.94
  24  0.556  0.556  0.453-  35 2.91  32 2.91  34 2.91  15 2.91  17 2.91  14 2.92  27 2.92  22 2.92
                            19 2.93  26 2.93  23 2.93  21 2.93
  25  0.889  0.889  0.454-  28 2.91  18 2.92  16 2.93  12 2.93  22 2.93  27 2.93  26 2.93  19 2.93
                            33 2.94  30 2.94  23 2.94  21 2.94
  26  0.222  0.889  0.454-  28 2.91  17 2.92  16 2.93  10 2.93  27 2.93  24 2.93  25 2.93  19 2.93
                            34 2.94  29 2.94  23 2.94  20 2.94
  27  0.556  0.888  0.453-  35 2.91  29 2.91  30 2.91  17 2.91  18 2.91  11 2.92  24 2.92  22 2.92
                            26 2.93  25 2.93  20 2.93  21 2.93
  28  0.000  0.000  0.560-  26 2.91  25 2.91  19 2.91  29 2.97  34 2.97  33 2.97  32 2.97  31 2.97
                            30 2.97
  29  0.333  0.008  0.560-  31 2.86  30 2.86  36 2.87  20 2.89  27 2.91  26 2.94  28 2.97  35 2.97
                            34 3.07
  30  0.659  0.008  0.560-  32 2.86  29 2.86  36 2.87  21 2.89  27 2.91  25 2.94  28 2.97  35 2.97
                            33 3.07
  31  0.008  0.333  0.560-  29 2.86  33 2.86  36 2.87  20 2.89  22 2.91  19 2.94  28 2.97  35 2.97
                            32 3.07
  32  0.659  0.333  0.560-  30 2.86  34 2.86  36 2.87  21 2.89  24 2.91  19 2.94  28 2.97  35 2.97
                            31 3.07
  33  0.008  0.659  0.560-  34 2.86  31 2.86  36 2.87  23 2.89  22 2.91  25 2.94  28 2.97  35 2.97
                            30 3.07
  34  0.333  0.659  0.560-  33 2.86  32 2.86  36 2.87  23 2.89  24 2.91  26 2.94  28 2.97  35 2.97
                            29 3.07
  35  0.667  0.667  0.560-  24 2.91  27 2.91  22 2.91  32 2.97  30 2.97  29 2.97  34 2.97  31 2.97
                            33 2.97
  36  0.333  0.333  0.547-  37 1.72  21 2.69  20 2.69  23 2.69  31 2.87  30 2.87  33 2.87  29 2.87
                            34 2.87  32 2.87
  37  0.333  0.333  0.625-  38 1.18  36 1.72
  38  0.333  0.333  0.678-  37 1.18

  LATTYP: Found a hexagonal cell.
 ALAT       =     8.7913665772
 C/A-ratio  =     2.5227160501

  Lattice vectors:

 A1 = (  -4.3956832886,  -7.6135467898,   0.0000000000)
 A2 = (   8.7913665771,   0.0000000000,   0.0000000000)
 A3 = (   0.0000000000,   0.0000000000,  22.1781215668)

Analysis of symmetry for initial positions (statically):
 Subroutine PRICEL returns:
 Original cell was already a primitive cell.

 Routine SETGRP: Setting up the symmetry group for a
 hexagonal supercell.

 Subroutine GETGRP returns: Found  6 space group operations
 (whereof  6 operations were pure point group operations)
 out of a pool of 24 trial point group operations.

The static configuration has the point symmetry C_3v.

Analysis of symmetry for dynamics (positions and initial velocities):
 Subroutine PRICEL returns:
 Original cell was already a primitive cell.

[...]

The dynamic configuration has the point symmetry C_3v.

Analysis of constrained symmetry for selective dynamics:
 Subroutine PRICEL returns:
 Original cell was already a primitive cell.

 Routine SETGRP: Setting up the symmetry group for a
 hexagonal supercell.

[...]
     33      -4.5372      2.00000
     34      -4.5095      2.00000
     35      -4.5058      2.00000
     36      -4.4926      2.00000
     37      -4.4588      2.00000
     38      -4.4051      2.00000
     39      -4.3787      2.00000
     40      -4.3551      2.00000
     41      -4.3518      2.00000
     42      -4.3192      2.00000
     43      -4.3114      2.00000
     44      -4.3013      2.00000
     45      -4.2795      2.00000
     46      -4.2735      2.00000
     47      -4.2451      2.00000
     48      -4.1951      2.00000
     49      -4.1631      2.00000
     50      -4.1579      2.00000
     51      -4.1454      2.00000
     52      -4.1405      2.00000
     53      -4.1353      2.00000
     54      -4.1176      2.00000
     55      -4.1144      2.00000
     56      -4.0972      2.00000
     57      -4.0941      2.00000
     58      -4.0278      2.00000
     59      -4.0218      2.00000
     60      -4.0074      2.00000
[...]
    238       6.0150      0.00000
    239       6.1621      0.00000
    240       6.2306      0.00000
    241       6.3374      0.00000
    242       6.3527      0.00000
    243       6.4008      0.00000
    244       7.1446      0.00000
    245       7.2291      0.00000
    246       7.3188      0.00000
    247       7.3521      0.00000
    248       7.3602      0.00000
    249       7.3977      0.00000
    250       7.4253      0.00000
    251       7.5909      0.00000
    252       7.6820      0.00000

 soft charge-density along one line, spin component           1
         0         1         2         3         4         5         6         7         8         9
 total charge-density along one line

------------------------ aborting loop because EDIFF is reached ----------------------------------------

 total charge

# of ion       s       p       d       tot
    1        0.416   0.201   9.179   9.797
    2        0.418   0.203   9.177   9.798
    3        0.418   0.203   9.177   9.798
    4        0.418   0.203   9.177   9.798
    5        0.419   0.204   9.175   9.798
    6        0.418   0.203   9.177   9.798
    7        0.418   0.203   9.177   9.798
    8        0.418   0.203   9.177   9.798
    9        0.414   0.203   9.179   9.796
   10        0.406   0.268   9.165   9.838
   11        0.409   0.268   9.167   9.844
   12        0.406   0.268   9.165   9.838
   13        0.409   0.268   9.167   9.844
   14        0.409   0.268   9.167   9.844
   15        0.401   0.271   9.165   9.837
   16        0.406   0.268   9.165   9.838
   17        0.401   0.271   9.165   9.837
   18        0.401   0.271   9.165   9.837
   19        0.402   0.266   9.166   9.835
   20        0.427   0.290   9.151   9.868
   21        0.427   0.290   9.151   9.868
   22        0.397   0.277   9.165   9.839
   23        0.427   0.290   9.151   9.868
   24        0.397   0.277   9.165   9.839
   25        0.402   0.266   9.166   9.835
   26        0.402   0.266   9.166   9.835
   27        0.397   0.277   9.165   9.839
   28        0.414   0.192   9.182   9.789
   29        0.409   0.206   9.180   9.794
   30        0.409   0.206   9.180   9.794
   31        0.409   0.206   9.180   9.794
   32        0.409   0.206   9.180   9.794
   33        0.409   0.206   9.180   9.794
   34        0.409   0.206   9.180   9.794
   35        0.411   0.193   9.183   9.788
   36        0.423   0.450   7.462   8.335
   37        0.960   1.555   0.000   2.515
   38        1.610   3.530   0.000   5.140
tot         17.356  13.902 328.438 359.696

  FORCE on cell =-STRESS in cart. coord.  units (eV):
  Direction    XX          YY          ZZ          XY          YZ          ZX
  Alpha Z   761.25142   761.25142   761.25142
  Ewald  120555.22445120555.22456************     0.00006     0.00000     0.00005
  Hartree131088.55806131088.55811************     0.00003    -0.00000     0.00003
  E(xc)   -2120.14562 -2120.14569 -2124.08854     0.00007    -0.00001    -0.00002
  Local  ************************262455.72888     0.00058    -0.00006    -0.00020
  n-local  -359.96756  -342.56637  -361.05139    10.86256    -0.45089     0.53687
  augment  3385.77350  3385.77373  3383.36075    -0.00019    -0.00001     0.00002
  Kinetic  5042.88493  5046.36970  5032.80251     5.04494     0.94839    -0.32896
  Fock        0.00000     0.00000     0.00000     0.00000     0.00000     0.00000
  Total      -8.58444    -8.58444    -0.16564    -0.00000     0.00000     0.00000
  in kB      -9.26519    -9.26519    -0.17878    -0.00000     0.00000     0.00000

 VOLUME and BASIS-vectors are now :
  energy-cutoff  :      500.00
  volume of cell :     1484.46
      direct lattice vectors                 reciprocal lattice vectors
     8.791366577  0.000000000  0.000000000     0.113747958 -0.065672414  0.000000000
     4.395683289  7.613546790  0.000000000     0.000000000  0.131344829  0.000000000
     0.000000000  0.000000000 22.178121567     0.000000000  0.000000000  0.045089481

  length of vectors
     8.791366577  8.791366577 22.178121567     0.131344829  0.131344829  0.045089481

 FORCES acting on ions
    electron-ion (+dipol)            ewald-force                    non-local-force                 convergence-correction
   0.459E-04 -.283E-04 0.252E+04   -.954E-04 0.593E-04 -.252E+04   -.676E-17 0.555E-18 -.233E+01   -.201E-03 -.223E-03 -.214E+00
   0.610E+00 0.661E+00 0.253E+04   -.663E+00 -.690E+00 -.252E+04   0.502E-01 0.745E-01 -.167E+01   0.115E-01 -.263E-01 -.205E+00
   -.610E+00 0.661E+00 0.253E+04   0.663E+00 -.690E+00 -.252E+04   -.502E-01 0.745E-01 -.167E+01   -.119E-01 -.244E-01 -.204E+00
   0.877E+00 0.198E+00 0.253E+04   -.929E+00 -.229E+00 -.252E+04   0.896E-01 0.619E-02 -.167E+01   -.168E-01 0.232E-01 -.205E+00
   -.573E-05 -.188E-04 0.253E+04   0.981E-04 -.199E-05 -.253E+04   -.299E-17 0.107E-17 -.141E+01   0.626E-02 0.382E-02 -.164E+00
   -.877E+00 0.198E+00 0.253E+04   0.928E+00 -.229E+00 -.252E+04   -.896E-01 0.619E-02 -.167E+01   0.154E-01 0.241E-01 -.204E+00
   0.268E+00 -.859E+00 0.253E+04   -.266E+00 0.919E+00 -.252E+04   0.394E-01 -.807E-01 -.167E+01   -.266E-01 0.240E-02 -.204E+00
   -.268E+00 -.859E+00 0.253E+04   0.266E+00 0.919E+00 -.252E+04   -.394E-01 -.807E-01 -.167E+01   0.282E-01 0.134E-02 -.204E+00
   0.368E-04 -.126E-04 0.253E+04   0.792E-04 -.643E-04 -.252E+04   -.160E-17 0.172E-17 -.208E+01   -.659E-02 -.339E-02 -.209E+00
   0.602E+01 0.347E+01 0.883E+03   -.565E+01 -.326E+01 -.882E+03   -.365E+00 -.211E+00 -.775E+00   0.109E-01 0.629E-02 0.201E-02
   -.294E-04 0.736E+01 0.894E+03   0.419E-04 -.746E+01 -.894E+03   0.716E-12 0.109E+00 -.396E+00   0.686E-02 -.392E-01 0.791E-02
   -.602E+01 0.347E+01 0.883E+03   0.565E+01 -.326E+01 -.882E+03   0.365E+00 -.211E+00 -.775E+00   -.129E-01 0.712E-02 0.293E-02
   0.638E+01 -.368E+01 0.894E+03   -.646E+01 0.373E+01 -.894E+03   0.944E-01 -.545E-01 -.396E+00   -.306E-01 0.256E-01 0.790E-02
   -.638E+01 -.368E+01 0.894E+03   0.646E+01 0.373E+01 -.894E+03   -.944E-01 -.545E-01 -.396E+00   0.411E-01 0.240E-01 0.664E-02
   0.167E-04 0.130E+01 0.884E+03   -.109E-03 -.138E+01 -.884E+03   0.861E-13 0.131E-01 -.789E+00   -.175E-02 0.463E-01 -.100E-01
   -.768E-05 -.695E+01 0.883E+03   0.208E-04 0.653E+01 -.882E+03   0.277E-11 0.422E+00 -.775E+00   -.348E-03 -.148E-01 0.294E-02
   0.113E+01 -.650E+00 0.884E+03   -.120E+01 0.690E+00 -.884E+03   0.113E-01 -.655E-02 -.789E+00   0.392E-01 -.247E-01 -.100E-01
   -.113E+01 -.650E+00 0.884E+03   0.120E+01 0.691E+00 -.884E+03   -.113E-01 -.655E-02 -.789E+00   -.386E-01 -.223E-01 -.779E-02
   0.416E-04 0.345E+01 -.796E+03   -.130E-03 -.341E+01 0.795E+03   -.997E-14 -.152E-02 0.730E+00   -.659E-02 -.147E-01 0.163E+00
   0.373E+02 0.216E+02 -.738E+03   -.362E+02 -.209E+02 0.739E+03   -.117E+01 -.678E+00 -.111E+01   -.147E-01 -.844E-02 0.151E+00
   -.373E+02 0.216E+02 -.738E+03   0.362E+02 -.209E+02 0.739E+03   0.117E+01 -.678E+00 -.111E+01   0.159E-01 -.103E-01 0.151E+00
   0.152E+02 -.879E+01 -.780E+03   -.153E+02 0.886E+01 0.780E+03   0.172E+00 -.993E-01 0.512E+00   -.558E-02 0.122E-01 0.102E+00
   -.615E-04 -.431E+02 -.738E+03   0.472E-04 0.418E+02 0.739E+03   0.890E-11 0.136E+01 -.111E+01   -.612E-03 0.196E-01 0.151E+00
   -.152E+02 -.879E+01 -.780E+03   0.153E+02 0.886E+01 0.780E+03   -.172E+00 -.993E-01 0.512E+00   0.166E-01 0.966E-02 0.103E+00
   -.299E+01 -.172E+01 -.796E+03   0.296E+01 0.171E+01 0.795E+03   0.131E-02 0.759E-03 0.730E+00   0.396E-02 0.213E-02 0.163E+00
   0.299E+01 -.172E+01 -.796E+03   -.296E+01 0.171E+01 0.795E+03   -.131E-02 0.759E-03 0.730E+00   -.163E-01 0.150E-02 0.163E+00
   0.211E-04 0.176E+02 -.780E+03   0.109E-03 -.177E+02 0.780E+03   0.130E-11 0.199E+00 0.512E+00   0.711E-02 -.110E-01 0.102E+00
   0.548E-04 -.371E-04 -.246E+04   -.116E-03 0.783E-04 0.246E+04   -.695E-18 -.360E-17 0.207E+01   -.481E-03 -.415E-03 0.251E+00
   0.440E+02 0.762E+02 -.243E+04   -.437E+02 -.758E+02 0.243E+04   -.355E+00 -.518E+00 0.235E+01   -.274E-01 0.670E-03 0.227E+00
   -.440E+02 0.762E+02 -.243E+04   0.437E+02 -.758E+02 0.243E+04   0.355E+00 -.518E+00 0.235E+01   0.274E-01 0.185E-02 0.226E+00
   0.880E+02 0.136E-01 -.243E+04   -.874E+02 0.728E-01 0.243E+04   -.626E+00 -.487E-01 0.235E+01   -.129E-01 -.239E-01 0.227E+00
   -.880E+02 0.137E-01 -.243E+04   0.874E+02 0.726E-01 0.243E+04   0.626E+00 -.487E-01 0.235E+01   0.119E-01 -.238E-01 0.227E+00
   0.440E+02 -.762E+02 -.243E+04   -.438E+02 0.757E+02 0.243E+04   -.271E+00 0.566E+00 0.235E+01   0.158E-01 0.234E-01 0.226E+00
   -.440E+02 -.762E+02 -.243E+04   0.438E+02 0.757E+02 0.243E+04   0.271E+00 0.566E+00 0.235E+01   -.150E-01 0.223E-01 0.227E+00
   0.204E-04 -.122E-04 -.246E+04   0.107E-03 -.665E-04 0.246E+04   0.386E-17 -.498E-18 0.212E+01   -.611E-02 -.310E-02 0.281E+00
   -.300E-04 -.147E-04 -.170E+04   0.866E-04 0.126E-04 0.170E+04   0.275E-17 0.372E-18 -.117E+01   0.631E-02 0.385E-02 0.282E+00
   0.307E-05 -.769E-04 -.917E+03   0.206E-04 0.334E-06 0.901E+03   0.364E-18 -.645E-19 0.159E+02   0.132E-02 0.805E-03 0.122E+00
   0.234E-03 -.927E-04 -.159E+04   0.110E-04 0.318E-07 0.164E+04   -.198E-18 -.105E-18 -.576E+02   0.375E-02 0.230E-02 -.282E-01
   0.597E-03 -.865E-03 0.442E+02   0.109E-12 0.164E-12 0.682E-12   -.487E-16 -.222E-15 -.459E+02   0.173E-01 0.135E-01 0.171E+01

 POSITION                                       TOTAL-FORCE (eV/Angst)
      0.00000      0.00000      5.28219         0.000000     -0.000000      0.021796
      2.93046      0.00000      5.28219         0.009564      0.020597      0.055248
      5.86091      0.00000      5.28219        -0.009564      0.020597      0.055248
      1.46523      2.53785      5.28219         0.022620     -0.002016      0.055248
      4.39568      2.53785      5.28219         0.000000     -0.000000      0.033857
      7.32614      2.53785      5.28219        -0.022620     -0.002016      0.055248
      2.93046      5.07570      5.28219         0.013056     -0.018582      0.055248
      5.86091      5.07570      5.28219        -0.013056     -0.018582      0.055248
      8.79137      5.07570      5.28219         0.000000     -0.000000      0.046181
      1.46523      0.84595      7.67490         0.009919      0.005727     -0.001707
      4.39568      0.84595      7.67490        -0.000000     -0.033730     -0.071696
      7.32614      0.84595      7.67490        -0.009919      0.005727     -0.001707
      2.93046      3.38380      7.67490        -0.029211      0.016865     -0.071696
      5.86091      3.38380      7.67490         0.029211      0.016865     -0.071696
      8.79137      3.38380      7.67490        -0.000000     -0.021622     -0.004153
      4.39568      5.92165      7.67490        -0.000000     -0.011454     -0.001707
      7.32614      5.92165      7.67490        -0.018725      0.010811     -0.004153
     10.25659      5.92165      7.67490         0.018725      0.010811     -0.004153
      8.79137      1.69398     10.06180         0.000000      0.019567      0.025522
      2.94231      1.69874     10.03918        -0.027631     -0.015953     -0.139202
      5.84906      1.69874     10.03918         0.027631     -0.015953     -0.139202
     10.25255      4.23208     10.04993         0.040587     -0.023433      0.004692
      4.39568      4.21606     10.03918         0.000000      0.031906     -0.139202
      7.33018      4.23208     10.04993        -0.040587     -0.023433      0.004692
     11.72002      6.76656     10.06180        -0.016945     -0.009783      0.025522
      5.86271      6.76656     10.06180         0.016945     -0.009783      0.025522
      8.79137      6.76293     10.04993         0.000000      0.046866      0.004692
      0.00000      0.00000     12.42562         0.000000     -0.000000     -0.026021
      2.96563      0.06260     12.41952        -0.030808     -0.080005     -0.057383
      5.82574      0.06260     12.41952         0.030808     -0.080005     -0.057383
      1.53702      2.53701     12.41952        -0.084690      0.013322     -0.057383
      7.25434      2.53701     12.41952         0.084690      0.013322     -0.057383
      2.96708      5.01394     12.41952        -0.053882      0.066683     -0.057383
      5.82429      5.01394     12.41952         0.053882      0.066683     -0.057383
      8.79137      5.07570     12.42127        -0.000000     -0.000000     -0.013531
      4.39568      2.53785     12.13550         0.000000     -0.000000      0.520249
      4.39568      2.53785     13.85320         0.000000     -0.000000      0.013874
      4.39568      2.53785     15.02848         0.000000     -0.000000     -0.023961
    total drift:                                0.017936      0.012680     -0.074317

  FREE ENERGIE OF THE ION-ELECTRON SYSTEM (eV)
  free  energy   TOTEN  =      -111.14256246 eV

  energy  without entropy=     -111.14256246  energy(sigma->0) =     -111.14256246

 stress matrix after NEB project (eV)
     -8.58444     -0.00000      0.00000
     -0.00000     -8.58444      0.00000
      0.00000      0.00000     -0.16564
  FORCES: max atom, RMS     0.023961    0.004492
  FORCE total and by dimension    0.027688    0.023961
  Stress total and by dimension   12.141364    8.584442
|           W    W    AA    RRRRR   N    N  II  N    N   GGGG   !!!           |
|           W    W   A  A   R    R  NN   N  II  NN   N  G    G  !!!           |
|           W    W  A    A  R    R  N N  N  II  N N  N  G       !!!           |
|           W WW W  AAAAAA  RRRRR   N  N N  II  N  N N  G  GGG   !            |
|           WW  WW  A    A  R   R   N   NN  II  N   NN  G    G                |
|           W    W  A    A  R    R  N    N  II  N    N   GGGG   !!!           |
|     Tetrahedron method does not include variations of the Fermi             |
|     occupations, so forces and stress will be inaccurate. We suggest        |
|     using a different smearing scheme ISMEAR = 1 or 2 for metals in         |
|     relaxations.                                                            |

 total charge

# of ion       s       p       d       tot
    1        0.416   0.201   9.179   9.797
    2        0.418   0.203   9.177   9.798
    3        0.418   0.203   9.177   9.798
    4        0.418   0.203   9.177   9.798
    5        0.419   0.204   9.175   9.798
    6        0.418   0.203   9.177   9.798
    7        0.418   0.203   9.177   9.798
    8        0.418   0.203   9.177   9.798
    9        0.414   0.203   9.179   9.796
   10        0.406   0.268   9.165   9.838
   11        0.409   0.268   9.167   9.844
   12        0.406   0.268   9.165   9.838
   13        0.409   0.268   9.167   9.844
   14        0.409   0.268   9.167   9.844
   15        0.401   0.271   9.165   9.837
   16        0.406   0.268   9.165   9.838
   17        0.401   0.271   9.165   9.837
   18        0.401   0.271   9.165   9.837
   19        0.402   0.266   9.166   9.835
   20        0.427   0.290   9.151   9.868
   21        0.427   0.290   9.151   9.868
   22        0.397   0.277   9.165   9.839
   23        0.427   0.290   9.151   9.868
   24        0.397   0.277   9.165   9.839
   25        0.402   0.266   9.166   9.835
   26        0.402   0.266   9.166   9.835
   27        0.397   0.277   9.165   9.839
   28        0.414   0.192   9.182   9.789
   29        0.409   0.206   9.180   9.794
   30        0.409   0.206   9.180   9.794
   31        0.409   0.206   9.180   9.794
   32        0.409   0.206   9.180   9.794
   33        0.409   0.206   9.180   9.794
   34        0.409   0.206   9.180   9.794
   35        0.411   0.193   9.183   9.788
   36        0.423   0.450   7.462   8.335
   37        0.960   1.555   0.000   2.515
   38        1.610   3.530   0.000   5.140
tot         17.356  13.902 328.438 359.696

 BZINTS: Fermi energy:    0.834603;  404.000000 electrons
         Band energy:-0.134644E+04;  BLOECHL correction:   -0.051329