 vasp.6.2.0 18Jan21 (build Jun 12 2021 23:27:24) complex

 executed on             LinuxIFC date 2022.05.28  02:51:25

 INCAR:
   ISMEAR = -5
   SIGMA = 0.1
   ISPIN = 1
   EDIFF = 1.d-5
   EDIFFG = -0.01
   NSW = 0
   NELM = 150
   ENCUT = 500
   ISIF = 2
   IBRION = 2
   LREAL = Auto
   ALGO = Fast
   ICHARG = 11
   LORBIT = 10
   LCHARG = .F.
   LWAVE = .F.

 POTCAR:    PAW_PBE Cu 22Jun2005
 POTCAR:    PAW_PBE Os 17Jan2003
 POTCAR:    PAW_PBE O 08Apr2002
 POTCAR:    PAW_PBE H 15Jun2001
|           W    W    AA    RRRRR   N    N  II  N    N   GGGG   !!!           |
|           W    W   A  A   R    R  NN   N  II  NN   N  G    G  !!!           |
|           W    W  A    A  R    R  N N  N  II  N N  N  G       !!!           |
|           W WW W  AAAAAA  RRRRR   N  N N  II  N  N N  G  GGG   !            |
|           WW  WW  A    A  R   R   N   NN  II  N   NN  G    G                |
|           W    W  A    A  R    R  N    N  II  N    N   GGGG   !!!           |
|     For optimal performance we recommend to set                             |
|       NCORE = 2 up to number-of-cores-per-socket                            |
|     This setting can greatly improve the performance of VASP for DFT.       |
|     The default, NCORE=1 might be grossly inefficient on modern             |
|     multi-core architectures or massively parallel machines. Do your        |
|     Unfortunately you need to use the default for GW and RPA                |
|     calculations (for HF NCORE is supported but not extensively tested      |
|     yet).                                                                   |

 POTCAR:    PAW_PBE Cu 22Jun2005
   VRHFIN =Cu: d10 p1

   TITEL  = PAW_PBE Cu 22Jun2005
   POMASS =   63.546; ZVAL   =   11.000    mass and valenz
   ENMAX  =  295.446; ENMIN  =  221.585 eV

 POTCAR:    PAW_PBE Os 17Jan2003
   VRHFIN =Os: 6s5d

   TITEL  = PAW_PBE Os 17Jan2003
   POMASS =  190.200; ZVAL   =    8.000    mass and valenz
   ENMAX  =  228.022; ENMIN  =  171.017 eV

 POTCAR:    PAW_PBE O 08Apr2002
   VRHFIN =O: s2p4

   TITEL  = PAW_PBE O 08Apr2002
   POMASS =   16.000; ZVAL   =    6.000    mass and valenz
   ENMAX  =  400.000; ENMIN  =  300.000 eV

 POTCAR:    PAW_PBE H 15Jun2001
   VRHFIN =H: ultrasoft test

   TITEL  = PAW_PBE H 15Jun2001
   POMASS =    1.000; ZVAL   =    1.000    mass and valenz
   ENMAX  =  250.000; ENMIN  =  200.000 eV

 Optimization of the real space projectors (new method)

 maximal supplied QI-value         = 16.25
 optimisation between [QCUT,QGAM] = [ 11.38, 22.75] = [ 36.24,144.96] Ry
 Optimized for a Real-space Cutoff    1.52 Angstroem

   l    n(q)    QCUT    max X(q) W(low)/X(q) W(high)/X(q)  e(spline)
   2      9    11.376     4.610    0.21E-03    0.10E-03    0.26E-06
   2      9    11.376     8.522    0.33E-03    0.16E-03    0.37E-06
   0     10    11.376    51.609    0.62E-04    0.20E-04    0.13E-06
   0     10    11.376    27.747    0.54E-04    0.20E-04    0.13E-06
   1     10    11.376    20.408    0.13E-04    0.99E-04    0.19E-06
   1     10    11.376    13.425    0.12E-04    0.87E-04    0.17E-06
 Optimization of the real space projectors (new method)

[...]

   l    n(q)    QCUT    max X(q) W(low)/X(q) W(high)/X(q)  e(spline)
   0      7    11.387    20.381    0.39E-03    0.13E-02    0.15E-06
   0      7    11.387    15.268    0.42E-03    0.14E-02    0.17E-06
   1      6    11.387     5.964    0.41E-03    0.11E-02    0.17E-06
   1      6    11.387     5.382    0.39E-03    0.87E-03    0.15E-06
 Optimization of the real space projectors (new method)

 maximal supplied QI-value         = 34.20
 optimisation between [QCUT,QGAM] = [ 11.29, 22.57] = [ 35.68,142.71] Ry
 Optimized for a Real-space Cutoff    1.16 Angstroem

   l    n(q)    QCUT    max X(q) W(low)/X(q) W(high)/X(q)  e(spline)
   0      8    11.287    19.460    0.40E-03    0.73E-03    0.16E-06
   0      8    11.287    12.209    0.38E-03    0.70E-03    0.15E-06
   1      7    11.287     4.655    0.22E-03    0.25E-04    0.22E-06
  PAW_PBE Cu 22Jun2005                  :
  PAW_PBE Os 17Jan2003                  :
  PAW_PBE O 08Apr2002                   :
  PAW_PBE H 15Jun2001                   :

 POSCAR: Cu-Os-OOH
  positions in direct lattice
  velocities in cartesian coordinates
 exchange correlation table for  LEXCH =        8
   RHO(1)=    0.500       N(1)  =     2000
   RHO(2)=  100.500       N(2)  =     4000

 VTST: version 3.2, (02/03/18)

 CHAIN: initializing optimizer

 OPT: Using VASP Conjugate-Gradient optimizer
 CHAIN: Read ICHAIN            0

 POSCAR: Cu-Os-OOH
  positions in direct lattice
  velocities in cartesian coordinates

 ion  position               nearest neighbor table
   1  0.000  0.000  0.212-   7 2.57   3 2.57   4 2.57   2 2.57   6 2.57   8 2.57  12 2.57  10 2.57
                            16 2.57
   2  0.333  0.000  0.212-   8 2.57   9 2.57   5 2.57   1 2.57   3 2.57  11 2.57   4 2.57  10 2.57
                            17 2.57
   3  0.667  0.000  0.212-   1 2.57   7 2.57   6 2.57   9 2.57   2 2.57  12 2.57   5 2.57  18 2.57
                            11 2.57
   4  0.000  0.333  0.212-   5 2.57   6 2.57   1 2.57   7 2.57   2 2.57  13 2.57   9 2.57  10 2.57
                            15 2.57
   5  0.333  0.333  0.212-   4 2.57   2 2.57   7 2.57  13 2.57   8 2.57   6 2.57   3 2.57  11 2.57
                            14 2.57
   6  0.667  0.333  0.212-   4 2.57   9 2.57  15 2.57   3 2.57   1 2.57   8 2.57  14 2.57   5 2.57
                            12 2.57
   7  0.000  0.667  0.212-   1 2.57   3 2.57  16 2.57  18 2.57   4 2.57   5 2.57   8 2.57   9 2.57
                            13 2.57
   8  0.333  0.667  0.212-   9 2.57   2 2.57  17 2.57   6 2.57   1 2.57   7 2.57   5 2.57  14 2.57
                            16 2.57
   9  0.667  0.667  0.212-   8 2.57   6 2.57   2 2.57  17 2.57   3 2.57   7 2.57   4 2.57  15 2.57
                            18 2.57
  10  0.111  0.111  0.294-  20 2.53  11 2.57  12 2.57  13 2.57   1 2.57   2 2.57   4 2.57  15 2.57
                            16 2.57  17 2.57  26 2.57  19 2.57
  11  0.444  0.111  0.294-  20 2.54  21 2.54  10 2.57  13 2.57   2 2.57  17 2.57  14 2.57  12 2.57
                             5 2.57   3 2.57  18 2.57  27 2.57
  12  0.778  0.111  0.294-  21 2.53  15 2.57  10 2.57  14 2.57  18 2.57   3 2.57   1 2.57  16 2.57
                            11 2.57   6 2.57  19 2.57  25 2.57
  13  0.111  0.444  0.294-  23 2.54  20 2.54  16 2.57  18 2.57  10 2.57  11 2.57  14 2.57   5 2.57
                             4 2.57   7 2.57  15 2.57  22 2.57
  14  0.444  0.444  0.294-  21 2.54  23 2.54  15 2.57  17 2.57  12 2.57  16 2.57  13 2.57  11 2.57
                             6 2.57   8 2.57   5 2.57  24 2.57
  15  0.778  0.444  0.294-  19 2.56  14 2.57  17 2.57  12 2.57   6 2.57  18 2.57  10 2.57   9 2.57
                            13 2.57   4 2.57  24 2.57  22 2.57
  16  0.111  0.778  0.294-  23 2.53  18 2.57  13 2.57   7 2.57  14 2.57  17 2.57  12 2.57  10 2.57
                             8 2.57   1 2.57  25 2.57  26 2.57
  17  0.444  0.778  0.294-  26 2.56  14 2.57  15 2.57   8 2.57   9 2.57  11 2.57  16 2.57  18 2.57
                            10 2.57   2 2.57  27 2.57  24 2.57
  18  0.778  0.778  0.294-  25 2.56  16 2.57  13 2.57   7 2.57  15 2.57  12 2.57  17 2.57   9 2.57
                             3 2.57  11 2.57  22 2.57  27 2.57
  19  0.888  0.223  0.377-  21 2.55  20 2.55  28 2.55  22 2.56  24 2.56  15 2.56  12 2.57  10 2.57
                            32 2.57  31 2.57  25 2.57  26 2.57
  20  0.221  0.221  0.376-  10 2.53  36 2.53  11 2.54  13 2.54  26 2.55  19 2.55  27 2.57  22 2.57
                            23 2.59  21 2.59  29 2.60  31 2.60
  21  0.558  0.221  0.376-  12 2.53  36 2.53  14 2.54  11 2.54  19 2.55  25 2.55  24 2.57  27 2.57
                            20 2.59  23 2.59  32 2.60  30 2.60
  22  0.888  0.556  0.377-  35 2.55  24 2.55  27 2.55  19 2.56  25 2.56  18 2.57  15 2.57  23 2.57
                            20 2.57  13 2.57  31 2.58  33 2.58
  23  0.221  0.558  0.376-  16 2.53  36 2.53  13 2.54  14 2.54  25 2.55  26 2.55  22 2.57  24 2.57
                            20 2.59  21 2.59  33 2.60  34 2.60
  24  0.556  0.556  0.377-  35 2.55  22 2.55  27 2.55  19 2.56  26 2.56  15 2.57  17 2.57  21 2.57
                            23 2.57  14 2.57  32 2.58  34 2.58
  25  0.888  0.888  0.377-  21 2.55  23 2.55  28 2.55  22 2.56  27 2.56  18 2.56  16 2.57  12 2.57
                            33 2.57  30 2.57  19 2.57  26 2.57
  26  0.223  0.888  0.377-  20 2.55  23 2.55  28 2.55  27 2.56  24 2.56  17 2.56  10 2.57  16 2.57
                            29 2.57  34 2.57  25 2.57  19 2.57
  27  0.556  0.888  0.377-  35 2.55  24 2.55  22 2.55  26 2.56  25 2.56  17 2.57  18 2.57  20 2.57
                            21 2.57  11 2.57  29 2.58  30 2.58
  28  0.000  0.000  0.459-  38 1.98  25 2.55  19 2.55  26 2.55  33 2.56  30 2.56  31 2.56  29 2.56
                            32 2.56  34 2.56
  29  0.333  0.000  0.460-  38 2.07  31 2.56  28 2.56  34 2.57  36 2.57  35 2.57  30 2.57  26 2.57
                            27 2.58  20 2.60
  30  0.667  0.000  0.460-  32 2.56  28 2.56  33 2.57  36 2.57  35 2.57  29 2.57  25 2.57  27 2.58
                            21 2.60
  31  0.000  0.333  0.460-  38 2.08  29 2.56  28 2.56  32 2.57  36 2.57  35 2.57  33 2.57  19 2.57
                            22 2.58  20 2.60
  32  0.667  0.333  0.460-  30 2.56  28 2.56  31 2.57  36 2.57  35 2.57  34 2.57  19 2.57  24 2.58
                            21 2.60
  33  0.000  0.667  0.460-  34 2.56  28 2.56  30 2.57  36 2.57  35 2.57  31 2.57  25 2.57  22 2.58
                            23 2.60
  34  0.333  0.667  0.460-  33 2.56  28 2.56  29 2.57  36 2.57  35 2.57  32 2.57  26 2.57  24 2.58
                            23 2.60
  35  0.667  0.667  0.459-  24 2.55  27 2.55  22 2.55  34 2.57  32 2.57  29 2.57  30 2.57  33 2.57
                            31 2.57
  36  0.333  0.333  0.456-  37 1.76  23 2.53  20 2.53  21 2.53  31 2.57  29 2.57  33 2.57  34 2.57
                            32 2.57  30 2.57
  37  0.338  0.341  0.525-  36 1.76
  38  0.104  0.101  0.515-  39 0.97  28 1.98  29 2.07  31 2.08
  39  0.100  0.096  0.553-  38 0.97

  LATTYP: Found a hexagonal cell.
 ALAT       =     7.6967864036
 C/A-ratio  =     3.2973366172

  Lattice vectors:

 A1 = (  -3.8483927580,  -6.6656128093,   0.0000000000)
 A2 = (   7.6967864037,   0.0000000000,   0.0000000000)
 A3 = (   0.0000000000,   0.0000000000,  25.3788956434)

Analysis of symmetry for initial positions (statically):
 Subroutine PRICEL returns:
 Original cell was already a primitive cell.

 Routine SETGRP: Setting up the symmetry group for a
 hexagonal supercell.

 Subroutine GETGRP returns: Found  1 space group operations
 (whereof  1 operations were pure point group operations)
 out of a pool of 24 trial point group operations.

The static configuration has the point symmetry C_1 .

Analysis of symmetry for dynamics (positions and initial velocities):
 Subroutine PRICEL returns:
 Original cell was already a primitive cell.

[...]

The dynamic configuration has the point symmetry C_1 .

Analysis of constrained symmetry for selective dynamics:
 Subroutine PRICEL returns:
[...]
     41      -4.4864      2.00000
     42      -4.4584      2.00000
     43      -4.4178      2.00000
     44      -4.3654      2.00000
     45      -4.2965      2.00000
     46      -4.2915      2.00000
     47      -4.2264      2.00000
     48      -4.2078      2.00000
     49      -4.1972      2.00000
     50      -4.1691      2.00000
     51      -4.1545      2.00000
     52      -4.1406      2.00000
     53      -4.1103      2.00000
     54      -4.0054      2.00000
     55      -3.9701      2.00000
     56      -3.9582      2.00000
     57      -3.9320      2.00000
     58      -3.9071      2.00000
     59      -3.9019      2.00000
     60      -3.8762      2.00000
[...]
    238       5.2390      0.00000
    239       5.2507      0.00000
    240       5.3659      0.00000
    241       5.5085      0.00000
    242       5.5700      0.00000
    243       5.6094      0.00000
    244       5.8269      0.00000
    245       5.8920      0.00000
    246       5.9632      0.00000
    247       6.0980      0.00000
    248       6.1645      0.00000
    249       6.3141      0.00000
    250       6.3821      0.00000
    251       6.7147      0.00000
    252       6.8319      0.00000

 soft charge-density along one line, spin component           1
         0         1         2         3         4         5         6         7         8         9
 total charge-density along one line

------------------------ aborting loop because EDIFF is reached ----------------------------------------

 total charge

# of ion       s       p       d       tot
    1        0.449   0.282   9.191   9.922
    2        0.448   0.285   9.187   9.920
    3        0.448   0.285   9.187   9.920
    4        0.448   0.285   9.187   9.920
    5        0.450   0.285   9.183   9.918
    6        0.448   0.285   9.187   9.920
    7        0.448   0.285   9.187   9.920
    8        0.448   0.285   9.186   9.920
    9        0.445   0.285   9.186   9.917
   10        0.444   0.370   9.179   9.993
   11        0.441   0.370   9.181   9.993
   12        0.447   0.369   9.178   9.994
   13        0.441   0.371   9.181   9.993
   14        0.439   0.371   9.182   9.992
   15        0.439   0.367   9.182   9.988
   16        0.447   0.369   9.178   9.994
   17        0.439   0.366   9.182   9.988
   18        0.437   0.372   9.177   9.986
   19        0.442   0.370   9.181   9.993
   20        0.465   0.408   9.159  10.032
   21        0.468   0.402   9.161  10.031
   22        0.430   0.372   9.183   9.984
   23        0.467   0.403   9.161  10.031
   24        0.429   0.369   9.185   9.983
   25        0.437   0.375   9.176   9.988
   26        0.442   0.370   9.181   9.993
   27        0.430   0.372   9.183   9.984
   28        0.423   0.354   9.188   9.965
   29        0.415   0.350   9.192   9.957
   30        0.446   0.307   9.192   9.945
   31        0.415   0.347   9.193   9.954
   32        0.440   0.301   9.203   9.944
   33        0.446   0.307   9.192   9.945
   34        0.440   0.301   9.204   9.944
   35        0.447   0.287   9.195   9.930
   36        0.728   0.734   6.042   7.505
   37        1.606   3.266   0.000   4.872
   38        1.549   3.533   0.000   5.082
   39        0.608   0.120   0.000   0.728
tot         19.983  19.533 327.474 366.990

  FORCE on cell =-STRESS in cart. coord.  units (eV):
  Direction    XX          YY          ZZ          XY          YZ          ZX
  Alpha Z   782.98316   782.98316   782.98316
  Ewald  259665.79294259614.47171************    44.33831    16.29219    26.94115
  Hartree272507.51087272471.26965************    32.16634    13.08978    23.00083
  E(xc)   -2347.60121 -2347.61021 -2350.45721     0.00503     0.00771     0.00650
  Local  ************************545328.69893   -76.65444   -29.23673   -49.80335
  n-local  -825.34898  -825.36495  -832.45607     0.00755     0.33788     0.45931
  augment  3339.00735  3339.15593  3350.09657    -0.09670    -0.26668    -0.39488
  Kinetic  3533.63751  3532.80519  3504.98304     0.79055    -0.24162    -0.28551
  Fock        0.00000     0.00000     0.00000     0.00000     0.00000     0.00000
  Total       0.20579    -0.46966     1.64986     0.55664    -0.01747    -0.07593
  in kB       0.25323    -0.57792     2.03018     0.68495    -0.02150    -0.09344

 VOLUME and BASIS-vectors are now :
  energy-cutoff  :      500.00
  volume of cell :     1302.03
      direct lattice vectors                 reciprocal lattice vectors
     7.696786404  0.000000000  0.000000000     0.129924354 -0.075011849  0.000000000
     3.848392758  6.665612809  0.000000000     0.000000000  0.150023716  0.000000000
     0.000000000  0.000000000 25.378895643     0.000000000  0.000000000  0.039402818

  length of vectors
     7.696786404  7.696786404 25.378895643     0.150023716  0.150023716  0.039402818

 FORCES acting on ions
    electron-ion (+dipol)            ewald-force                    non-local-force                 convergence-correction
   0.309E+00 0.172E+00 0.391E+04   -.233E+00 -.131E+00 -.391E+04   -.708E-01 -.399E-01 -.265E+01   -.165E-02 0.379E-03 -.412E+00
   -.611E+00 0.246E+00 0.391E+04   0.271E+00 -.309E+00 -.391E+04   0.198E+00 0.772E-01 -.182E+01   0.145E+00 0.393E-02 -.432E+00
   0.291E+00 0.110E+00 0.391E+04   -.385E-01 -.240E+00 -.391E+04   -.122E+00 0.153E+00 -.182E+01   -.134E+00 -.962E-02 -.453E+00
   -.948E-01 -.649E+00 0.391E+04   -.135E+00 0.389E+00 -.391E+04   0.171E+00 0.131E+00 -.182E+01   0.762E-01 0.122E+00 -.435E+00
   -.173E+00 -.994E-01 0.391E+04   0.173E+00 0.978E-01 -.391E+04   0.328E-01 0.211E-01 -.172E+01   -.168E-01 -.105E-01 -.343E+00
   0.221E+00 -.352E+00 0.391E+04   -.378E-01 0.220E+00 -.391E+04   -.168E+00 -.270E-01 -.173E+01   -.424E-01 0.148E+00 -.400E+00
   0.247E+00 0.199E+00 0.391E+04   -.230E+00 0.868E-01 -.391E+04   0.699E-01 -.184E+00 -.183E+01   -.766E-01 -.110E+00 -.451E+00
   -.201E+00 0.368E+00 0.391E+04   0.174E+00 -.146E+00 -.391E+04   -.105E+00 -.131E+00 -.173E+01   0.110E+00 -.111E+00 -.396E+00
   0.268E-01 0.174E-01 0.391E+04   0.567E-01 0.308E-01 -.391E+04   -.149E-01 -.106E-01 -.230E+01   -.629E-01 -.347E-01 -.479E+00
   0.330E+01 0.189E+01 0.139E+04   -.281E+01 -.160E+01 -.139E+04   -.569E+00 -.325E+00 -.128E+01   0.412E-01 0.229E-01 0.559E-02
   -.183E+01 0.127E+01 0.138E+04   0.172E+01 -.161E+01 -.138E+04   0.123E+00 0.200E+00 -.212E+00   -.517E-02 0.864E-01 -.293E-01
   -.149E+01 0.191E+01 0.139E+04   0.109E+01 -.172E+01 -.139E+04   0.464E+00 -.303E+00 -.114E+01   -.317E-01 0.980E-01 0.153E-01
   0.203E+00 -.220E+01 0.138E+04   -.550E+00 0.228E+01 -.138E+04   0.234E+00 0.131E-02 -.206E+00   0.758E-01 -.490E-01 -.308E-01
   -.916E+00 -.505E+00 0.138E+04   0.131E+01 0.735E+00 -.138E+04   -.320E+00 -.185E+00 -.284E-01   -.287E-01 -.155E-01 0.160E-01
   0.806E+00 -.200E+01 0.139E+04   -.765E+00 0.177E+01 -.138E+04   -.290E-01 0.160E+00 -.761E+00   -.355E-01 0.417E-01 -.720E-02
   0.926E+00 -.227E+01 0.139E+04   -.965E+00 0.182E+01 -.139E+04   -.284E-01 0.560E+00 -.115E+01   0.698E-01 -.787E-01 0.167E-01
   -.135E+01 0.170E+01 0.139E+04   0.117E+01 -.156E+01 -.138E+04   0.117E+00 -.104E+00 -.760E+00   0.201E-01 -.486E-01 -.635E-02
   0.422E+00 0.241E+00 0.138E+04   -.210E+00 -.116E+00 -.138E+04   -.115E+00 -.699E-01 -.862E+00   -.717E-01 -.413E-01 -.669E-01
   0.131E+02 -.954E+01 -.114E+04   -.129E+02 0.942E+01 0.114E+04   -.117E+00 0.923E-01 0.254E-01   -.237E-01 -.135E-01 0.571E+00
   -.359E+02 -.208E+02 -.114E+04   0.368E+02 0.213E+02 0.114E+04   -.983E+00 -.563E+00 -.868E+00   0.122E-01 0.520E-02 0.594E+00
   0.230E+02 -.143E+02 -.116E+04   -.245E+02 0.149E+02 0.116E+04   0.156E+01 -.733E+00 -.485E+00   -.294E-01 0.915E-01 0.571E+00
   -.164E+02 -.816E+00 -.117E+04   0.157E+02 0.114E+01 0.117E+04   0.762E+00 -.438E+00 0.893E+00   -.485E-01 -.512E-01 0.562E+00
   -.879E+00 0.272E+02 -.116E+04   0.694E+00 -.288E+02 0.116E+04   0.136E+00 0.171E+01 -.471E+00   0.800E-01 -.436E-01 0.574E+00
   0.172E+02 0.101E+02 -.117E+04   -.165E+02 -.968E+01 0.117E+04   -.716E+00 -.418E+00 0.132E+01   -.240E-01 -.113E-01 0.510E+00
   0.108E+02 0.610E+01 -.117E+04   -.106E+02 -.596E+01 0.116E+04   -.134E+00 -.726E-01 0.405E+00   0.612E-01 0.305E-01 0.576E+00
   -.169E+01 0.159E+02 -.114E+04   0.166E+01 -.158E+02 0.114E+04   0.207E-01 -.139E+00 0.228E-01   -.244E-01 -.187E-01 0.571E+00
   -.906E+01 -.138E+02 -.117E+04   0.901E+01 0.131E+02 0.117E+04   0.108E-01 0.871E+00 0.867E+00   -.711E-01 -.152E-01 0.560E+00
   0.136E+03 0.770E+02 -.356E+04   -.139E+03 -.789E+02 0.356E+04   0.267E+01 0.152E+01 0.260E+01   0.364E-01 0.207E-01 0.567E+00
   -.143E+03 0.584E+02 -.359E+04   0.146E+03 -.609E+02 0.358E+04   -.283E+01 0.167E+01 0.330E+01   0.741E-01 0.123E+00 0.629E+00
   0.128E+02 0.262E+01 -.371E+04   -.122E+02 -.419E+01 0.371E+04   -.385E+00 0.100E+01 0.231E+01   -.991E-01 0.116E+00 0.659E+00
   -.194E+02 -.152E+03 -.359E+04   0.186E+02 0.155E+03 0.359E+04   0.811E-01 -.333E+01 0.342E+01   0.145E+00 0.422E-02 0.632E+00
   0.498E+02 -.294E+02 -.370E+04   -.493E+02 0.304E+02 0.369E+04   -.135E+00 -.807E+00 0.351E+01   -.137E+00 0.466E-01 0.580E+00
   0.961E+01 0.931E+01 -.371E+04   -.107E+02 -.789E+01 0.371E+04   0.701E+00 -.884E+00 0.235E+01   0.521E-01 -.146E+00 0.659E+00
   -.109E+01 0.586E+02 -.370E+04   0.222E+01 -.587E+02 0.369E+04   -.778E+00 0.325E+00 0.357E+01   -.290E-01 -.143E+00 0.577E+00
   -.887E+01 -.475E+01 -.372E+04   0.865E+01 0.461E+01 0.371E+04   0.261E+00 0.160E+00 0.204E+01   -.315E-01 -.170E-01 0.574E+00
   -.194E+02 -.986E+01 -.245E+04   0.196E+02 0.995E+01 0.245E+04   0.141E+00 0.900E-01 0.242E+01   0.693E-02 0.624E-02 0.550E+00
   -.303E+02 -.176E+02 -.251E+04   0.310E+02 0.182E+02 0.254E+04   -.641E+00 -.545E+00 -.319E+02   -.221E-01 -.987E-02 -.780E-01
   0.104E+02 0.526E+01 -.254E+04   -.677E+01 -.281E+01 0.252E+04   -.363E+01 -.246E+01 0.216E+02   0.293E-01 0.196E-01 0.109E+00
   0.711E+01 0.464E+01 -.477E+03   -.751E+01 -.492E+01 0.485E+03   0.400E+00 0.280E+00 -.817E+01   0.599E-02 0.368E-02 -.659E-02
   0.374E+01 0.271E+01 0.840E+01   -.160E-13 0.398E-12 -.750E-11   -.373E+01 -.275E+01 -.151E+02   -.594E-02 0.113E-01 0.665E+01

 POSITION                                       TOTAL-FORCE (eV/Angst)
      0.00000      0.00000      5.37156         0.003552      0.002353     -0.034043
      2.56560      0.00000      5.37156         0.003435      0.018629      0.068090
      5.13119      0.00000      5.37156        -0.003407      0.013980      0.071982
      1.28280      2.22187      5.37156         0.017184     -0.005851      0.068345
      3.84839      2.22187      5.37156         0.015925      0.009588      0.028181
      6.41399      2.22187      5.37156        -0.027483     -0.009328      0.061657
      2.56560      4.44374      5.37156         0.010052     -0.008615      0.072337
      5.13119      4.44374      5.37156        -0.022547     -0.018099      0.061255
      7.69679      4.44374      5.37156         0.005714      0.003550      0.047396
      1.28280      0.74062      7.46636        -0.029602     -0.015989     -0.115611
      3.84839      0.74062      7.46636         0.003797     -0.044631     -0.089545
      6.41399      0.74062      7.46636         0.029508     -0.013619     -0.094742
      2.56560      2.96249      7.46636        -0.036862      0.026160     -0.089333
      5.13119      2.96249      7.46636         0.049809      0.029372     -0.063706
      7.69679      2.96249      7.46636        -0.023439     -0.024958     -0.032275
      3.84839      5.18437      7.46636         0.002156      0.033064     -0.093970
      6.41399      5.18437      7.46636        -0.034242     -0.006598     -0.032952
      8.97958      5.18437      7.46636         0.025782      0.014837      0.059854
      7.69679      1.48657      9.56400         0.014688     -0.042454     -0.034611
      2.55408      1.47460      9.52990        -0.092262     -0.053104     -0.158229
      5.14271      1.47460      9.52990         0.066885     -0.001043     -0.179785
      8.97350      3.70663      9.56526         0.057053     -0.164317      0.084072
      3.84839      3.71642      9.52990         0.031805      0.056262     -0.173512
      6.42007      3.70663      9.56526        -0.028982     -0.015360      0.050183
     10.25777      5.92233      9.56400         0.157971      0.092241      0.121815
      5.13580      5.92233      9.56400        -0.029151      0.034444     -0.036814
      7.69679      5.91797      9.56526        -0.115429      0.134657      0.085924
      0.00000      0.00000     11.64184        -0.639976     -0.365463      0.050839
      2.56182      0.00242     11.67254         0.241765     -0.689341     -0.075742
      5.13496      0.00242     11.67254         0.177424     -0.452294     -0.333910
      1.28301      2.21740     11.67254        -0.485748      0.530555     -0.065606
      6.41378      2.21740     11.67254         0.283681      0.211554     -0.438120
      2.56958      4.44580     11.67254        -0.310207      0.389025     -0.331742
      5.12721      4.44580     11.67254         0.328031      0.139446     -0.440048
      7.69679      4.44374     11.64035         0.011309      0.003820     -0.030342
      3.84839      2.22187     11.57579         0.333098      0.183234      2.068563
      3.91571      2.27292     13.33070        -0.000251     -0.000704     -0.036347
      1.19023      0.67511     13.07140         0.006260      0.003816     -0.016104
      1.13903      0.63937     14.04247         0.002701      0.001178     -0.003407
    total drift:                               -0.002264     -0.025025     -0.063601

  FREE ENERGIE OF THE ION-ELECTRON SYSTEM (eV)
  free  energy   TOTEN  =      -148.89987679 eV

  energy  without entropy=     -148.89987679  energy(sigma->0) =     -148.89987679

 stress matrix after NEB project (eV)
      0.20579      0.55664     -0.07593
      0.55664     -0.46966     -0.01747
     -0.07593     -0.01747      1.64986
  FORCES: max atom, RMS     0.036354    0.006514
  FORCE total and by dimension    0.040682    0.036347
  Stress total and by dimension    1.901787    1.649858
|           W    W    AA    RRRRR   N    N  II  N    N   GGGG   !!!           |
|           W    W   A  A   R    R  NN   N  II  NN   N  G    G  !!!           |
|           W    W  A    A  R    R  N N  N  II  N N  N  G       !!!           |
|           W WW W  AAAAAA  RRRRR   N  N N  II  N  N N  G  GGG   !            |
|           WW  WW  A    A  R   R   N   NN  II  N   NN  G    G                |
|           W    W  A    A  R    R  N    N  II  N    N   GGGG   !!!           |
|     Tetrahedron method does not include variations of the Fermi             |
|     occupations, so forces and stress will be inaccurate. We suggest        |
|     using a different smearing scheme ISMEAR = 1 or 2 for metals in         |
|     relaxations.                                                            |

 total charge

# of ion       s       p       d       tot
    1        0.449   0.282   9.191   9.922
    2        0.448   0.285   9.187   9.920
    3        0.448   0.285   9.187   9.920
    4        0.448   0.285   9.187   9.920
    5        0.450   0.285   9.183   9.918
    6        0.448   0.285   9.187   9.920
    7        0.448   0.285   9.187   9.920
    8        0.448   0.285   9.186   9.920
    9        0.445   0.285   9.186   9.917
   10        0.444   0.370   9.179   9.993
   11        0.441   0.370   9.181   9.993
   12        0.447   0.369   9.178   9.994
   13        0.441   0.371   9.181   9.993
   14        0.439   0.371   9.182   9.992
   15        0.439   0.367   9.182   9.988
   16        0.447   0.369   9.178   9.994
   17        0.439   0.366   9.182   9.988
   18        0.437   0.372   9.177   9.986
   19        0.442   0.370   9.181   9.993
   20        0.465   0.408   9.159  10.032
   21        0.468   0.402   9.161  10.031
   22        0.430   0.372   9.183   9.984
   23        0.467   0.403   9.161  10.031
   24        0.429   0.369   9.185   9.983
   25        0.437   0.375   9.176   9.988
   26        0.442   0.370   9.181   9.993
   27        0.430   0.372   9.183   9.984
   28        0.423   0.354   9.188   9.965
   29        0.415   0.350   9.192   9.957
   30        0.446   0.307   9.192   9.945
   31        0.415   0.347   9.193   9.954
   32        0.440   0.301   9.203   9.944
   33        0.446   0.307   9.192   9.945
   34        0.440   0.301   9.204   9.944
   35        0.447   0.287   9.195   9.930
   36        0.728   0.734   6.042   7.505
   37        1.606   3.266   0.000   4.872
   38        1.549   3.533   0.000   5.082
   39        0.608   0.120   0.000   0.728
tot         19.983  19.533 327.474 366.990

 BZINTS: Fermi energy:   -0.503369;  406.000000 electrons
         Band energy:-0.144748E+04;  BLOECHL correction:   -0.036436