 vasp.6.2.0 18Jan21 (build Jun 12 2021 23:27:24) complex

 executed on             LinuxIFC date 2022.05.27  05:51:52

 INCAR:
   ISMEAR = -5
   SIGMA = 0.1
   ISPIN = 1
   EDIFF = 1.d-5
   EDIFFG = -0.01
   NSW = 0
   NELM = 150
   ENCUT = 500
   ISIF = 2
   IBRION = 2
   LREAL = Auto
   ALGO = Fast
   ICHARG = 11
   LORBIT = 10
   LCHARG = .F.
   LWAVE = .F.

 POTCAR:    PAW_PBE Ag 02Apr2005
 POTCAR:    PAW_PBE Re 17Jan2003
 POTCAR:    PAW_PBE H 15Jun2001
|           W    W    AA    RRRRR   N    N  II  N    N   GGGG   !!!           |
|           W    W   A  A   R    R  NN   N  II  NN   N  G    G  !!!           |
|           W    W  A    A  R    R  N N  N  II  N N  N  G       !!!           |
|           W WW W  AAAAAA  RRRRR   N  N N  II  N  N N  G  GGG   !            |
|           WW  WW  A    A  R   R   N   NN  II  N   NN  G    G                |
|           W    W  A    A  R    R  N    N  II  N    N   GGGG   !!!           |
|     For optimal performance we recommend to set                             |
|       NCORE = 2 up to number-of-cores-per-socket                            |
|     This setting can greatly improve the performance of VASP for DFT.       |
|     The default, NCORE=1 might be grossly inefficient on modern             |
|     multi-core architectures or massively parallel machines. Do your        |
|     Unfortunately you need to use the default for GW and RPA                |
|     calculations (for HF NCORE is supported but not extensively tested      |
|     yet).                                                                   |

 POTCAR:    PAW_PBE Ag 02Apr2005
   VRHFIN =Ag : s1 d10

   TITEL  = PAW_PBE Ag 02Apr2005
   POMASS =  107.868; ZVAL   =   11.000    mass and valenz
   ENMAX  =  249.844; ENMIN  =  187.383 eV

 POTCAR:    PAW_PBE Re 17Jan2003
   VRHFIN =Re: 5p6s5d

   TITEL  = PAW_PBE Re 17Jan2003
   POMASS =  186.207; ZVAL   =    7.000    mass and valenz
   ENMAX  =  226.216; ENMIN  =  169.662 eV

 POTCAR:    PAW_PBE H 15Jun2001
   VRHFIN =H: ultrasoft test

   TITEL  = PAW_PBE H 15Jun2001
   POMASS =    1.000; ZVAL   =    1.000    mass and valenz
   ENMAX  =  250.000; ENMIN  =  200.000 eV

 Optimization of the real space projectors (new method)

 maximal supplied QI-value         = 15.12
 optimisation between [QCUT,QGAM] = [ 11.34, 22.83] = [ 36.00,145.93] Ry
 Optimized for a Real-space Cutoff    1.43 Angstroem

   l    n(q)    QCUT    max X(q) W(low)/X(q) W(high)/X(q)  e(spline)
   2      9    11.338    53.897    0.16E-03    0.20E-03    0.28E-06
   2      9    11.338    52.416    0.16E-03    0.20E-03    0.29E-06
   0     10    11.338   122.045    0.31E-04    0.76E-04    0.15E-06
   0     10    11.338    73.629    0.30E-04    0.72E-04    0.15E-06
   1      9    11.338    15.255    0.20E-03    0.19E-04    0.17E-06
   1      9    11.338     9.562    0.16E-03    0.15E-04    0.14E-06
 Optimization of the real space projectors (new method)

[...]

   l    n(q)    QCUT    max X(q) W(low)/X(q) W(high)/X(q)  e(spline)
   2     10    11.327   884.633    0.22E-03    0.51E-03    0.88E-06
   2     10    11.327   796.723    0.22E-03    0.51E-03    0.88E-06
   0     11    11.327    65.348    0.44E-04    0.11E-03    0.75E-06
   0     11    11.327    39.642    0.40E-04    0.10E-03    0.69E-06
   1     10    11.327    13.988    0.15E-03    0.10E-03    0.19E-06
   1     10    11.327     8.682    0.11E-03    0.76E-04    0.14E-06
 Optimization of the real space projectors (new method)

 maximal supplied QI-value         = 34.20
 optimisation between [QCUT,QGAM] = [ 11.29, 22.57] = [ 35.68,142.71] Ry
 Optimized for a Real-space Cutoff    1.16 Angstroem

   l    n(q)    QCUT    max X(q) W(low)/X(q) W(high)/X(q)  e(spline)
   0      8    11.287    19.460    0.40E-03    0.73E-03    0.16E-06
   0      8    11.287    12.209    0.38E-03    0.70E-03    0.15E-06
   1      7    11.287     4.655    0.22E-03    0.25E-04    0.22E-06
  PAW_PBE Ag 02Apr2005                  :
  PAW_PBE Re 17Jan2003                  :
  PAW_PBE H 15Jun2001                   :

 POSCAR: Ag-Re-H2
  positions in direct lattice
  velocities in cartesian coordinates
 exchange correlation table for  LEXCH =        8
   RHO(1)=    0.500       N(1)  =     2000
   RHO(2)=  100.500       N(2)  =     4000

 VTST: version 3.2, (02/03/18)

 CHAIN: initializing optimizer

 OPT: Using VASP Conjugate-Gradient optimizer
 CHAIN: Read ICHAIN            0

 POSCAR: Ag-Re-H2
  positions in direct lattice
  velocities in cartesian coordinates

 ion  position               nearest neighbor table
   1  0.000  0.000  0.222-   2 2.93   8 2.93   7 2.93   6 2.93   4 2.93  12 2.93  16 2.93  10 2.93
                             3 2.93
   2  0.333  0.000  0.222-   1 2.93   8 2.93   9 2.93   3 2.93   4 2.93   5 2.93  10 2.93  17 2.93
                            11 2.93
   3  0.667  0.000  0.222-   9 2.93   2 2.93   5 2.93  11 2.93   7 2.93  18 2.93   1 2.93   6 2.93
                            12 2.93
   4  0.000  0.333  0.222-   5 2.93   6 2.93   2 2.93   1 2.93   7 2.93  13 2.93  15 2.93   9 2.93
                            10 2.93
   5  0.333  0.333  0.222-   4 2.93   3 2.93   7 2.93   2 2.93   8 2.93  14 2.93  13 2.93  11 2.93
                             6 2.93
   6  0.667  0.333  0.222-   4 2.93   9 2.93   1 2.93  15 2.93   8 2.93  12 2.93   3 2.93   5 2.93
                            14 2.93
   7  0.000  0.667  0.222-   8 2.93   1 2.93   5 2.93   3 2.93   4 2.93  16 2.93  18 2.93  13 2.93
                             9 2.93
   8  0.333  0.667  0.222-   7 2.93   1 2.93   2 2.93   9 2.93   5 2.93  16 2.93   6 2.93  17 2.93
                            14 2.93
   9  0.667  0.667  0.222-   3 2.93   2 2.93   8 2.93   6 2.93  17 2.93   4 2.93  15 2.93   7 2.93
                            18 2.93
  10  0.111  0.111  0.323-  20 2.89  12 2.93  16 2.93  15 2.93  17 2.93  13 2.93  11 2.93   2 2.93
                             1 2.93   4 2.93  19 2.93  26 2.93
  11  0.444  0.111  0.323-  21 2.89  20 2.89  27 2.93  14 2.93  17 2.93  18 2.93   3 2.93  12 2.93
                            13 2.93  10 2.93   5 2.93   2 2.93
  12  0.778  0.111  0.323-  21 2.89  10 2.93  16 2.93  18 2.93  15 2.93  11 2.93   1 2.93  14 2.93
                             6 2.93   3 2.93  25 2.93  19 2.93
  13  0.111  0.444  0.323-  20 2.89  23 2.89  22 2.93  15 2.93  14 2.93  18 2.93  10 2.93  11 2.93
                            16 2.93   4 2.93   5 2.93   7 2.93
  14  0.444  0.444  0.323-  23 2.89  21 2.89  24 2.93  13 2.93  11 2.93  16 2.93   5 2.93  12 2.93
                            17 2.93   8 2.93  15 2.93   6 2.93
  15  0.778  0.444  0.323-  24 2.92  22 2.92  19 2.93  13 2.93  10 2.93  12 2.93  17 2.93  18 2.93
                             4 2.93   6 2.93   9 2.93  14 2.93
  16  0.111  0.778  0.323-  23 2.89  18 2.93  12 2.93  10 2.93  14 2.93  17 2.93  13 2.93   7 2.93
                             8 2.93   1 2.93  26 2.93  25 2.93
  17  0.444  0.778  0.323-  27 2.92  24 2.92  26 2.93  11 2.93  10 2.93   9 2.93  18 2.93  15 2.93
                            16 2.93   2 2.93  14 2.93   8 2.93
  18  0.778  0.778  0.323-  22 2.92  27 2.92  25 2.93  16 2.93  12 2.93  13 2.93  11 2.93  17 2.93
                            15 2.93   7 2.93   3 2.93   9 2.93
  19  0.889  0.223  0.423-  28 2.91  24 2.93  22 2.93  15 2.93  20 2.93  21 2.93  10 2.93  12 2.93
                            26 2.94  25 2.94  32 2.97  31 2.97
  20  0.222  0.222  0.421-  36 2.76  10 2.89  13 2.89  11 2.89  19 2.93  26 2.93  21 2.93  23 2.93
                            27 2.94  22 2.94  31 2.94  29 2.94
  21  0.556  0.222  0.421-  36 2.76  12 2.89  11 2.89  14 2.89  25 2.93  19 2.93  20 2.93  23 2.93
                            27 2.94  24 2.94  30 2.94  32 2.94
  22  0.888  0.556  0.423-  35 2.91  24 2.92  27 2.92  18 2.92  15 2.92  13 2.93  25 2.93  19 2.93
                            23 2.94  20 2.94  33 2.95  31 2.95
  23  0.222  0.556  0.421-  36 2.76  16 2.89  14 2.89  13 2.89  26 2.93  25 2.93  21 2.93  20 2.93
                            22 2.94  24 2.94  34 2.94  33 2.94
  24  0.556  0.556  0.423-  35 2.91  27 2.92  22 2.92  15 2.92  17 2.92  14 2.93  19 2.93  26 2.93
                            23 2.94  21 2.94  32 2.95  34 2.95
  25  0.889  0.889  0.423-  28 2.91  22 2.93  27 2.93  18 2.93  23 2.93  21 2.93  16 2.93  12 2.93
                            26 2.94  19 2.94  33 2.97  30 2.97
  26  0.223  0.889  0.423-  28 2.91  27 2.93  24 2.93  17 2.93  23 2.93  20 2.93  16 2.93  10 2.93
                            25 2.94  19 2.94  34 2.97  29 2.97
  27  0.556  0.888  0.423-  35 2.91  24 2.92  22 2.92  17 2.92  18 2.92  11 2.93  26 2.93  25 2.93
                            20 2.94  21 2.94  29 2.95  30 2.95
  28  0.000  0.000  0.523-  26 2.91  25 2.91  19 2.91  29 2.96  34 2.96  33 2.96  32 2.96  31 2.96
                            30 2.96
  29  0.333  0.008  0.524-  31 2.86  30 2.87  36 2.88  20 2.94  27 2.95  28 2.96  26 2.97  35 2.97
                            34 3.06
  30  0.659  0.008  0.524-  32 2.86  29 2.87  36 2.88  21 2.94  27 2.95  28 2.96  25 2.97  35 2.97
                            33 3.06
  31  0.008  0.333  0.524-  29 2.86  33 2.87  36 2.88  20 2.94  22 2.95  28 2.96  19 2.97  35 2.97
                            32 3.06
  32  0.659  0.333  0.524-  30 2.86  34 2.87  36 2.88  21 2.94  24 2.95  28 2.96  19 2.97  35 2.97
                            31 3.06
  33  0.008  0.659  0.524-  34 2.86  31 2.87  36 2.88  23 2.94  22 2.95  28 2.96  25 2.97  35 2.97
                            30 3.06
  34  0.333  0.659  0.524-  33 2.86  32 2.87  36 2.88  23 2.94  24 2.95  28 2.96  26 2.97  35 2.97
                            29 3.06
  35  0.667  0.667  0.522-  24 2.91  27 2.91  22 2.91  30 2.97  32 2.97  29 2.97  34 2.97  31 2.97
                            33 2.97
  36  0.333  0.333  0.513-  38 1.69  37 1.69  21 2.76  20 2.76  23 2.76  31 2.88  30 2.88  33 2.88
                            29 2.88  34 2.88  32 2.88
  37  0.253  0.293  0.572-  36 1.69
  38  0.454  0.293  0.572-  36 1.69

  LATTYP: Found a hexagonal cell.
 ALAT       =     8.7913665772
 C/A-ratio  =     2.7054077548

  Lattice vectors:

 A1 = (  -4.3956832886,  -7.6135467898,   0.0000000000)
 A2 = (   8.7913665771,   0.0000000000,   0.0000000000)
 A3 = (   0.0000000000,   0.0000000000,  23.7842313128)

Analysis of symmetry for initial positions (statically):
 Subroutine PRICEL returns:
 Original cell was already a primitive cell.

 Routine SETGRP: Setting up the symmetry group for a
 hexagonal supercell.

 Subroutine GETGRP returns: Found  2 space group operations
 (whereof  2 operations were pure point group operations)
 out of a pool of 24 trial point group operations.

The static configuration has the point symmetry C_1h.

Analysis of symmetry for dynamics (positions and initial velocities):
 Subroutine PRICEL returns:
 Original cell was already a primitive cell.

[...]

The dynamic configuration has the point symmetry C_1h.

Analysis of constrained symmetry for selective dynamics:
 Subroutine PRICEL returns:
 Original cell was already a primitive cell.

 Routine SETGRP: Setting up the symmetry group for a
 hexagonal supercell.

 Subroutine GETGRP returns: Found  2 space group operations
[...]
     33      -4.8532      2.00000
     34      -4.8238      2.00000
     35      -4.8066      2.00000
     36      -4.7820      2.00000
     37      -4.7482      2.00000
     38      -4.7283      2.00000
     39      -4.7181      2.00000
     40      -4.7037      2.00000
     41      -4.6896      2.00000
     42      -4.6824      2.00000
     43      -4.6286      2.00000
     44      -4.5841      2.00000
     45      -4.5730      2.00000
     46      -4.5474      2.00000
     47      -4.5438      2.00000
     48      -4.5416      2.00000
     49      -4.5310      2.00000
     50      -4.5258      2.00000
     51      -4.5196      2.00000
     52      -4.5068      2.00000
     53      -4.4877      2.00000
     54      -4.4664      2.00000
     55      -4.4314      2.00000
     56      -4.4270      2.00000
     57      -4.4134      2.00000
     58      -4.3956      2.00000
     59      -4.3856      2.00000
     60      -4.3662      2.00000
[...]
    226       5.2262      0.00000
    227       5.2362      0.00000
    228       5.3196      0.00000
    229       5.4582      0.00000
    230       5.4992      0.00000
    231       5.5422      0.00000
    232       5.5548      0.00000
    233       5.7248      0.00000
    234       5.8088      0.00000
    235       5.8651      0.00000
    236       5.8970      0.00000
    237       5.9936      0.00000
    238       6.5374      0.00000
    239       6.5495      0.00000
    240       6.6120      0.00000

 soft charge-density along one line, spin component           1
         0         1         2         3         4         5         6         7         8         9
 total charge-density along one line

------------------------ aborting loop because EDIFF is reached ----------------------------------------

 total charge

# of ion       s       p       d       tot
    1        0.419   0.201   9.179   9.799
    2        0.417   0.203   9.178   9.798
    3        0.417   0.203   9.178   9.798
    4        0.418   0.203   9.177   9.798
    5        0.418   0.202   9.175   9.796
    6        0.418   0.203   9.177   9.798
    7        0.416   0.203   9.177   9.797
    8        0.416   0.203   9.177   9.797
    9        0.415   0.202   9.179   9.796
   10        0.409   0.270   9.162   9.840
   11        0.411   0.267   9.169   9.847
   12        0.409   0.270   9.162   9.840
   13        0.410   0.268   9.168   9.846
   14        0.410   0.268   9.168   9.846
   15        0.403   0.268   9.166   9.837
   16        0.410   0.269   9.162   9.841
   17        0.402   0.270   9.165   9.838
   18        0.402   0.270   9.165   9.838
   19        0.397   0.266   9.166   9.830
   20        0.436   0.305   9.141   9.882
   21        0.436   0.305   9.141   9.882
   22        0.392   0.275   9.166   9.833
   23        0.444   0.304   9.136   9.885
   24        0.392   0.275   9.166   9.833
   25        0.402   0.263   9.168   9.832
   26        0.402   0.263   9.168   9.832
   27        0.392   0.273   9.168   9.833
   28        0.415   0.194   9.180   9.789
   29        0.417   0.220   9.170   9.806
   30        0.417   0.220   9.170   9.806
   31        0.410   0.235   9.161   9.805
   32        0.410   0.235   9.161   9.805
   33        0.426   0.219   9.160   9.805
   34        0.426   0.219   9.160   9.805
   35        0.405   0.197   9.182   9.784
   36        0.537   0.436   4.850   5.823
   37        0.514   0.019   0.000   0.533
   38        0.514   0.019   0.000   0.533
tot         16.001   8.983 325.702 350.687

  FORCE on cell =-STRESS in cart. coord.  units (eV):
  Direction    XX          YY          ZZ          XY          YZ          ZX
  Alpha Z   704.49612   704.49612   704.49612
  Ewald  143718.30394143694.86975************     0.00000    -2.12104     0.00000
  Hartree153572.54498153566.88129************     0.00000     3.77295    -0.00000
  E(xc)   -2066.58771 -2066.65138 -2073.18424    -0.00003     0.17705    -0.00000
  Local  ************************308718.39957     0.00030    -2.72322    -0.00004
  n-local  -344.32373  -345.69007  -348.07243     2.53833     0.37615     0.26963
  augment  3228.20156  3228.24089  3240.10165    -0.00014    -0.18052    -0.00004
  Kinetic  4878.04263  4881.64115  4910.27075     1.54666     0.75879    -0.25662
  Fock        0.00000     0.00000     0.00000     0.00000     0.00000     0.00000
  Total      -8.87308    -8.51367     0.90935    -0.00000     0.06016     0.00000
  in kB      -8.93002    -8.56831     0.91518    -0.00000     0.06055     0.00000

 VOLUME and BASIS-vectors are now :
  energy-cutoff  :      500.00
  volume of cell :     1591.96
      direct lattice vectors                 reciprocal lattice vectors
     8.791366577  0.000000000  0.000000000     0.113747958 -0.065672414  0.000000000
     4.395683289  7.613546790  0.000000000     0.000000000  0.131344829  0.000000000
     0.000000000  0.000000000 23.784231313     0.000000000  0.000000000  0.042044663

  length of vectors
     8.791366577  8.791366577 23.784231313     0.131344829  0.131344829  0.042044663

 FORCES acting on ions
    electron-ion (+dipol)            ewald-force                    non-local-force                 convergence-correction
   0.462E-04 0.188E-01 0.262E+04   -.954E-04 -.198E-01 -.262E+04   0.272E-12 0.415E-01 -.219E+01   -.273E-04 -.404E-01 -.480E-01
   0.874E-01 0.280E+00 0.262E+04   -.368E+00 -.385E+00 -.262E+04   0.147E+00 0.127E+00 -.153E+01   0.124E+00 -.126E-01 -.474E-01
   -.873E-01 0.280E+00 0.262E+04   0.368E+00 -.385E+00 -.262E+04   -.147E+00 0.127E+00 -.153E+01   -.124E+00 -.107E-01 -.469E-01
   0.406E+00 -.398E-01 0.262E+04   -.500E+00 -.114E+00 -.262E+04   0.856E-01 0.324E-01 -.157E+01   0.316E-01 0.114E+00 -.724E-02
   -.798E-05 0.568E-02 0.262E+04   0.980E-04 0.224E-01 -.262E+04   -.143E-12 -.218E-01 -.119E+01   0.615E-02 0.255E-02 0.328E-01
   -.406E+00 -.397E-01 0.262E+04   0.500E+00 -.114E+00 -.262E+04   -.856E-01 0.324E-01 -.157E+01   -.329E-01 0.115E+00 -.661E-02
   0.835E-01 -.292E+00 0.262E+04   -.132E+00 0.499E+00 -.262E+04   0.839E-01 -.142E+00 -.146E+01   -.267E-01 -.736E-01 -.731E-02
   -.835E-01 -.292E+00 0.262E+04   0.132E+00 0.499E+00 -.262E+04   -.839E-01 -.142E+00 -.146E+01   0.283E-01 -.745E-01 -.720E-02
   0.362E-04 0.802E-01 0.262E+04   0.792E-04 -.195E-02 -.262E+04   -.327E-12 -.498E-01 -.194E+01   -.665E-02 -.255E-01 -.464E-01
   0.499E+01 0.285E+01 0.863E+03   -.457E+01 -.268E+01 -.862E+03   -.468E+00 -.209E+00 -.910E+00   0.387E-01 0.293E-01 0.355E+00
   -.284E-04 0.363E+01 0.866E+03   0.407E-04 -.398E+01 -.867E+03   0.168E-11 0.255E+00 -.290E+00   0.582E-02 0.267E-01 0.335E+00
   -.499E+01 0.285E+01 0.863E+03   0.457E+01 -.268E+01 -.862E+03   0.468E+00 -.209E+00 -.910E+00   -.396E-01 0.299E-01 0.353E+00
   0.333E+01 -.194E+01 0.866E+03   -.340E+01 0.214E+01 -.866E+03   0.637E-01 -.176E+00 -.341E+00   -.282E-01 0.167E-01 0.304E+00
   -.333E+01 -.194E+01 0.866E+03   0.340E+01 0.214E+01 -.866E+03   -.637E-01 -.176E+00 -.341E+00   0.383E-01 0.162E-01 0.302E+00
   0.158E-04 0.120E+01 0.863E+03   -.108E-03 -.134E+01 -.863E+03   0.332E-12 0.505E-01 -.798E+00   -.107E-02 0.594E-01 0.337E+00
   -.776E-05 -.576E+01 0.862E+03   0.205E-04 0.515E+01 -.862E+03   0.430E-11 0.655E+00 -.798E+00   0.457E-05 -.413E-01 0.294E+00
   0.119E+01 -.479E+00 0.863E+03   -.130E+01 0.630E+00 -.862E+03   0.857E-01 -.704E-01 -.824E+00   0.942E-02 -.605E-01 0.276E+00
   -.119E+01 -.479E+00 0.863E+03   0.130E+01 0.630E+00 -.862E+03   -.857E-01 -.704E-01 -.824E+00   -.954E-02 -.593E-01 0.276E+00
   0.388E-04 -.111E+01 -.920E+03   -.127E-03 0.964E+00 0.919E+03   0.392E-12 0.597E-01 0.798E+00   0.689E-02 0.740E-01 0.390E+00
   -.258E+01 -.189E+01 -.898E+03   0.372E+01 0.258E+01 0.898E+03   -.133E+01 -.837E+00 -.141E+01   0.102E+00 0.438E-01 0.530E+00
   0.258E+01 -.189E+01 -.898E+03   -.372E+01 0.258E+01 0.898E+03   0.133E+01 -.837E+00 -.141E+01   -.114E+00 0.439E-01 0.529E+00
   -.605E+01 0.290E+01 -.912E+03   0.581E+01 -.267E+01 0.911E+03   0.256E+00 -.209E+00 0.492E+00   0.438E-01 -.505E-01 0.365E+00
   -.523E-04 0.224E+01 -.900E+03   0.402E-04 -.374E+01 0.901E+03   0.117E-10 0.178E+01 -.170E+01   -.570E-02 -.112E+00 0.595E+00
   0.605E+01 0.290E+01 -.912E+03   -.581E+01 -.267E+01 0.911E+03   -.256E+00 -.209E+00 0.492E+00   -.424E-01 -.482E-01 0.366E+00
   0.538E+00 0.136E+01 -.921E+03   -.447E+00 -.138E+01 0.920E+03   -.623E-01 0.470E-01 0.798E+00   -.387E-01 -.144E-01 0.465E+00
   -.538E+00 0.136E+01 -.921E+03   0.446E+00 -.138E+01 0.920E+03   0.623E-01 0.470E-01 0.798E+00   0.497E-01 -.129E-01 0.465E+00
   0.195E-04 -.624E+01 -.911E+03   0.110E-03 0.557E+01 0.910E+03   0.394E-11 0.600E+00 0.536E+00   -.189E-02 0.924E-01 0.396E+00
   0.534E-04 0.300E+01 -.262E+04   -.114E-03 -.293E+01 0.262E+04   -.479E-12 -.729E-01 0.196E+01   -.635E-03 -.551E-01 0.790E-01
   0.270E+01 0.100E+02 -.263E+04   -.150E+01 -.900E+01 0.263E+04   -.128E+01 -.123E+01 0.190E+01   0.626E-01 0.787E-01 0.267E-01
   -.270E+01 0.100E+02 -.263E+04   0.150E+01 -.900E+01 0.263E+04   0.128E+01 -.123E+01 0.190E+01   -.537E-01 0.798E-01 0.277E-01
   0.969E+01 -.443E+01 -.263E+04   -.857E+01 0.478E+01 0.262E+04   -.141E+01 -.344E+00 0.211E+01   0.200E+00 0.448E-01 0.364E-01
   -.969E+01 -.443E+01 -.263E+04   0.857E+01 0.478E+01 0.262E+04   0.141E+01 -.344E+00 0.211E+01   -.190E+00 0.461E-01 0.379E-01
   -.224E+01 -.490E+00 -.263E+04   0.301E+01 -.870E+00 0.263E+04   -.933E+00 0.161E+01 0.140E+01   0.173E+00 -.192E+00 0.852E-01
   0.224E+01 -.490E+00 -.263E+04   -.301E+01 -.870E+00 0.263E+04   0.933E+00 0.161E+01 0.140E+01   -.161E+00 -.192E+00 0.856E-01
   0.251E-04 -.195E+00 -.262E+04   0.104E-03 0.199E-01 0.262E+04   0.106E-11 0.161E+00 0.216E+01   -.768E-02 0.928E-02 0.102E+00
   -.237E-04 -.133E+02 -.155E+04   0.677E-04 0.125E+02 0.155E+04   0.574E-11 0.874E+00 -.226E+01   -.151E-03 0.934E-01 0.125E+00
   0.136E+01 -.752E+00 -.295E+03   -.233E+01 0.361E+00 0.297E+03   0.942E+00 0.368E+00 -.199E+01   0.220E-01 0.240E-01 -.393E-01
   -.136E+01 -.752E+00 -.295E+03   0.233E+01 0.361E+00 0.297E+03   -.942E+00 0.368E+00 -.199E+01   -.221E-01 0.241E-01 -.393E-01
   0.315E-03 -.226E+01 0.513E+01   -.133E-13 -.862E-13 -.449E-11   0.149E-10 0.227E+01 -.124E+02   0.350E-01 -.115E-01 0.728E+01

 POSITION                                       TOTAL-FORCE (eV/Angst)
      0.00000      0.00000      5.28219         0.000000      0.000089     -0.040315
      2.93046      0.00000      5.28219        -0.009952      0.009854      0.024299
      5.86091      0.00000      5.28219         0.009952      0.009854      0.024299
      1.46523      2.53785      5.28219         0.023257     -0.006467      0.023162
      4.39568      2.53785      5.28219         0.000000      0.008860     -0.014864
      7.32614      2.53785      5.28219        -0.023257     -0.006467      0.023162
      2.93046      5.07570      5.28219         0.007658     -0.008380      0.021304
      5.86091      5.07570      5.28219        -0.007658     -0.008380      0.021304
      8.79137      5.07570      5.28219         0.000000      0.003046      0.007934
      1.46523      0.84595      7.67490        -0.008813     -0.008271     -0.018313
      4.39568      0.84595      7.67490        -0.000000     -0.071795     -0.097862
      7.32614      0.84595      7.67490         0.008813     -0.008271     -0.018313
      2.93046      3.38380      7.67490        -0.036086      0.039733     -0.062975
      5.86091      3.38380      7.67490         0.036086      0.039733     -0.062975
      8.79137      3.38380      7.67490        -0.000000     -0.023282     -0.000233
      4.39568      5.92165      7.67490        -0.000000     -0.003123     -0.009514
      7.32614      5.92165      7.67490        -0.015113      0.021339      0.023809
     10.25659      5.92165      7.67490         0.015113      0.021339      0.023809
      8.79137      1.69725     10.06774        -0.000000     -0.009535      0.079195
      2.92950      1.69135     10.02116        -0.075164     -0.103212     -0.174356
      5.86187      1.69135     10.02116         0.075164     -0.103212     -0.174356
     10.25061      4.23320     10.05696         0.055207     -0.024405      0.022658
      4.39568      4.23086     10.02116         0.000000      0.172076     -0.188842
      7.33212      4.23320     10.05696        -0.055207     -0.024405      0.022658
     11.71719      6.76492     10.06774        -0.015122      0.015213      0.020298
      5.86555      6.76492     10.06774         0.015122      0.015213      0.020298
      8.79137      6.76069     10.05696         0.000000      0.019861      0.014036
      0.00000      0.00000     12.43040        -0.000000     -0.053738      0.000477
      2.96174      0.05879     12.46433        -0.022750     -0.133339     -0.039144
      5.82963      0.05879     12.46433         0.022750     -0.133339     -0.039144
      1.53179      2.53554     12.46433        -0.090785      0.051990     -0.043002
      7.25958      2.53554     12.46433         0.090785      0.051990     -0.043002
      2.96573      5.01921     12.46433         0.001136      0.061926     -0.063754
      5.82563      5.01921     12.46433        -0.001136      0.061926     -0.063754
      8.79137      5.07570     12.42552        -0.000000     -0.004559      0.024978
      4.39568      2.53785     12.19879         0.000000      0.129362      0.757452
      3.51047      2.22763     13.60381        -0.001463      0.000389     -0.000205
      5.28090      2.22763     13.60381         0.001463      0.000389     -0.000205
    total drift:                                0.035321     -0.002563      0.024427

  FREE ENERGIE OF THE ION-ELECTRON SYSTEM (eV)
  free  energy   TOTEN  =      -105.44921312 eV

  energy  without entropy=     -105.44921312  energy(sigma->0) =     -105.44921312

 stress matrix after NEB project (eV)
     -8.87308     -0.00000      0.00000
     -0.00000     -8.51367      0.06016
      0.00000      0.06016      0.90935
  FORCES: max atom, RMS     0.001528    0.000350
  FORCE total and by dimension    0.002160    0.001463
  Stress total and by dimension   12.330788    8.873081
|           W    W    AA    RRRRR   N    N  II  N    N   GGGG   !!!           |
|           W    W   A  A   R    R  NN   N  II  NN   N  G    G  !!!           |
|           W    W  A    A  R    R  N N  N  II  N N  N  G       !!!           |
|           W WW W  AAAAAA  RRRRR   N  N N  II  N  N N  G  GGG   !            |
|           WW  WW  A    A  R   R   N   NN  II  N   NN  G    G                |
|           W    W  A    A  R    R  N    N  II  N    N   GGGG   !!!           |
|     Tetrahedron method does not include variations of the Fermi             |
|     occupations, so forces and stress will be inaccurate. We suggest        |
|     using a different smearing scheme ISMEAR = 1 or 2 for metals in         |
|     relaxations.                                                            |

 total charge

# of ion       s       p       d       tot
    1        0.419   0.201   9.179   9.799
    2        0.417   0.203   9.178   9.798
    3        0.417   0.203   9.178   9.798
    4        0.418   0.203   9.177   9.798
    5        0.418   0.202   9.175   9.796
    6        0.418   0.203   9.177   9.798
    7        0.416   0.203   9.177   9.797
    8        0.416   0.203   9.177   9.797
    9        0.415   0.202   9.179   9.796
   10        0.409   0.270   9.162   9.840
   11        0.411   0.267   9.169   9.847
   12        0.409   0.270   9.162   9.840
   13        0.410   0.268   9.168   9.846
   14        0.410   0.268   9.168   9.846
   15        0.403   0.268   9.166   9.837
   16        0.410   0.269   9.162   9.841
   17        0.402   0.270   9.165   9.838
   18        0.402   0.270   9.165   9.838
   19        0.397   0.266   9.166   9.830
   20        0.436   0.305   9.141   9.882
   21        0.436   0.305   9.141   9.882
   22        0.392   0.275   9.166   9.833
   23        0.444   0.304   9.136   9.885
   24        0.392   0.275   9.166   9.833
   25        0.402   0.263   9.168   9.832
   26        0.402   0.263   9.168   9.832
   27        0.392   0.273   9.168   9.833
   28        0.415   0.194   9.180   9.789
   29        0.417   0.220   9.170   9.806
   30        0.417   0.220   9.170   9.806
   31        0.410   0.235   9.161   9.805
   32        0.410   0.235   9.161   9.805
   33        0.426   0.219   9.160   9.805
   34        0.426   0.219   9.160   9.805
   35        0.405   0.197   9.182   9.784
   36        0.537   0.436   4.850   5.823
   37        0.514   0.019   0.000   0.533
   38        0.514   0.019   0.000   0.533
tot         16.001   8.983 325.702 350.687

 BZINTS: Fermi energy:    0.416904;  394.000000 electrons
         Band energy:-0.142629E+04;  BLOECHL correction:   -0.025376