 vasp.6.2.0 18Jan21 (build Jun 12 2021 23:27:24) complex

 executed on             LinuxIFC date 2022.05.26  20:23:12

 INCAR:
   ISMEAR = -5
   SIGMA = 0.1
   ISPIN = 1
   EDIFF = 1.d-5
   EDIFFG = -0.01
   NSW = 0
   NELM = 150
   ENCUT = 500
   ISIF = 2
   IBRION = 2
   LREAL = Auto
   ALGO = Fast
   ICHARG = 11
   LORBIT = 10
   LCHARG = .F.
   LWAVE = .F.

 POTCAR:    PAW_PBE Ag 02Apr2005
 POTCAR:    PAW_PBE Os 17Jan2003
|           W    W    AA    RRRRR   N    N  II  N    N   GGGG   !!!           |
|           W    W   A  A   R    R  NN   N  II  NN   N  G    G  !!!           |
|           W    W  A    A  R    R  N N  N  II  N N  N  G       !!!           |
|           W WW W  AAAAAA  RRRRR   N  N N  II  N  N N  G  GGG   !            |
|           WW  WW  A    A  R   R   N   NN  II  N   NN  G    G                |
|           W    W  A    A  R    R  N    N  II  N    N   GGGG   !!!           |
|     For optimal performance we recommend to set                             |
|       NCORE = 2 up to number-of-cores-per-socket                            |
|     This setting can greatly improve the performance of VASP for DFT.       |
|     The default, NCORE=1 might be grossly inefficient on modern             |
|     multi-core architectures or massively parallel machines. Do your        |
|     Unfortunately you need to use the default for GW and RPA                |
|     calculations (for HF NCORE is supported but not extensively tested      |
|     yet).                                                                   |

 POTCAR:    PAW_PBE Ag 02Apr2005
   VRHFIN =Ag : s1 d10

   TITEL  = PAW_PBE Ag 02Apr2005
   POMASS =  107.868; ZVAL   =   11.000    mass and valenz
   ENMAX  =  249.844; ENMIN  =  187.383 eV

 POTCAR:    PAW_PBE Os 17Jan2003
   VRHFIN =Os: 6s5d

   TITEL  = PAW_PBE Os 17Jan2003
   POMASS =  190.200; ZVAL   =    8.000    mass and valenz
   ENMAX  =  228.022; ENMIN  =  171.017 eV

 Optimization of the real space projectors (new method)

 maximal supplied QI-value         = 15.12
 optimisation between [QCUT,QGAM] = [ 11.34, 22.83] = [ 36.00,145.93] Ry
 Optimized for a Real-space Cutoff    1.43 Angstroem

   l    n(q)    QCUT    max X(q) W(low)/X(q) W(high)/X(q)  e(spline)
   2      9    11.338    53.897    0.16E-03    0.20E-03    0.28E-06
   2      9    11.338    52.416    0.16E-03    0.20E-03    0.29E-06
   0     10    11.338   122.045    0.31E-04    0.76E-04    0.15E-06
   0     10    11.338    73.629    0.30E-04    0.72E-04    0.15E-06
   1      9    11.338    15.255    0.20E-03    0.19E-04    0.17E-06
   1      9    11.338     9.562    0.16E-03    0.15E-04    0.14E-06
 Optimization of the real space projectors (new method)

 maximal supplied QI-value         = 13.98
 optimisation between [QCUT,QGAM] = [ 11.33, 22.79] = [ 35.93,145.49] Ry
 Optimized for a Real-space Cutoff    1.56 Angstroem

   l    n(q)    QCUT    max X(q) W(low)/X(q) W(high)/X(q)  e(spline)
   2     10    11.327   152.873    0.32E-03    0.72E-03    0.11E-05
   2     10    11.327   151.010    0.32E-03    0.72E-03    0.11E-05
   0     11    11.327    72.114    0.43E-04    0.61E-04    0.13E-06
   0     11    11.327    44.596    0.40E-04    0.57E-04    0.12E-06
   1     10    11.327    13.742    0.16E-03    0.10E-03    0.19E-06
   1     10    11.327     8.461    0.12E-03    0.78E-04    0.15E-06
  PAW_PBE Ag 02Apr2005                  :
  PAW_PBE Os 17Jan2003                  :

 POSCAR: Ag-Os
  positions in direct lattice
  velocities in cartesian coordinates
 exchange correlation table for  LEXCH =        8
   RHO(1)=    0.500       N(1)  =     2000
   RHO(2)=  100.500       N(2)  =     4000

 VTST: version 3.2, (02/03/18)

 CHAIN: initializing optimizer

 OPT: Using VASP Conjugate-Gradient optimizer
 CHAIN: Read ICHAIN            0

 POSCAR: Ag-Os
  positions in direct lattice
  velocities in cartesian coordinates

 ion  position               nearest neighbor table
   1  0.000  0.000  0.238-   2 2.93   8 2.93   7 2.93   6 2.93   4 2.93  12 2.93  16 2.93  10 2.93
                             3 2.93
   2  0.333  0.000  0.238-   1 2.93   8 2.93   9 2.93   3 2.93   4 2.93   5 2.93  10 2.93  17 2.93
                            11 2.93
   3  0.667  0.000  0.238-   9 2.93   2 2.93   5 2.93  11 2.93   7 2.93  18 2.93   1 2.93   6 2.93
                            12 2.93
   4  0.000  0.333  0.238-   5 2.93   6 2.93   2 2.93   1 2.93   7 2.93  13 2.93  15 2.93   9 2.93
                            10 2.93
   5  0.333  0.333  0.238-   4 2.93   3 2.93   7 2.93   2 2.93   8 2.93  14 2.93  13 2.93  11 2.93
                             6 2.93
   6  0.667  0.333  0.238-   4 2.93   9 2.93   1 2.93  15 2.93   8 2.93  12 2.93   3 2.93   5 2.93
                            14 2.93
   7  0.000  0.667  0.238-   8 2.93   1 2.93   5 2.93   3 2.93   4 2.93  16 2.93  18 2.93  13 2.93
                             9 2.93
   8  0.333  0.667  0.238-   7 2.93   1 2.93   2 2.93   9 2.93   5 2.93  16 2.93   6 2.93  17 2.93
                            14 2.93
   9  0.667  0.667  0.238-   3 2.93   2 2.93   8 2.93   6 2.93  17 2.93   4 2.93  15 2.93   7 2.93
                            18 2.93
  10  0.111  0.111  0.346-  20 2.89  12 2.93  16 2.93  15 2.93  17 2.93  13 2.93  11 2.93   2 2.93
                             1 2.93   4 2.93  19 2.93  26 2.93
  11  0.444  0.111  0.346-  21 2.89  20 2.89  27 2.92  14 2.93  17 2.93  18 2.93   3 2.93  12 2.93
                            13 2.93  10 2.93   5 2.93   2 2.93
  12  0.778  0.111  0.346-  21 2.89  10 2.93  16 2.93  18 2.93  15 2.93  11 2.93   1 2.93  14 2.93
                             6 2.93   3 2.93  25 2.93  19 2.93
  13  0.111  0.444  0.346-  20 2.89  23 2.89  22 2.92  15 2.93  14 2.93  18 2.93  10 2.93  11 2.93
                            16 2.93   4 2.93   5 2.93   7 2.93
  14  0.444  0.444  0.346-  23 2.89  21 2.89  24 2.92  13 2.93  11 2.93  16 2.93   5 2.93  12 2.93
                            17 2.93   8 2.93  15 2.93   6 2.93
  15  0.778  0.444  0.346-  24 2.92  22 2.92  19 2.93  13 2.93  10 2.93  12 2.93  17 2.93  18 2.93
                             4 2.93   6 2.93   9 2.93  14 2.93
  16  0.111  0.778  0.346-  23 2.89  18 2.93  12 2.93  10 2.93  14 2.93  17 2.93  13 2.93   7 2.93
                             8 2.93   1 2.93  26 2.93  25 2.93
  17  0.444  0.778  0.346-  27 2.92  24 2.92  26 2.93  11 2.93  10 2.93   9 2.93  18 2.93  15 2.93
                            16 2.93   2 2.93  14 2.93   8 2.93
  18  0.778  0.778  0.346-  22 2.92  27 2.92  25 2.93  16 2.93  12 2.93  13 2.93  11 2.93  17 2.93
                            15 2.93   7 2.93   3 2.93   9 2.93
  19  0.888  0.223  0.454-  28 2.90  24 2.93  22 2.93  15 2.93  20 2.93  21 2.93  10 2.93  12 2.93
                            26 2.94  25 2.94  32 2.95  31 2.95
  20  0.222  0.222  0.452-  36 2.76  13 2.89  11 2.89  10 2.89  31 2.93  29 2.93  21 2.93  23 2.93
                            19 2.93  26 2.93  27 2.94  22 2.94
  21  0.556  0.222  0.452-  36 2.76  11 2.89  14 2.89  12 2.89  30 2.93  32 2.93  20 2.93  23 2.93
                            25 2.93  19 2.93  27 2.94  24 2.94
  22  0.888  0.556  0.453-  35 2.90  18 2.92  15 2.92  24 2.92  27 2.92  13 2.92  25 2.93  19 2.93
                            33 2.94  31 2.94  23 2.94  20 2.94
  23  0.222  0.556  0.452-  36 2.76  14 2.89  13 2.89  16 2.89  34 2.93  33 2.93  21 2.93  20 2.93
                            26 2.93  25 2.93  22 2.94  24 2.94
  24  0.556  0.556  0.453-  35 2.90  15 2.92  17 2.92  27 2.92  22 2.92  14 2.92  19 2.93  26 2.93
                            32 2.94  34 2.94  23 2.94  21 2.94
  25  0.888  0.888  0.454-  28 2.90  22 2.93  27 2.93  18 2.93  23 2.93  21 2.93  16 2.93  12 2.93
                            26 2.94  19 2.94  33 2.95  30 2.95
  26  0.223  0.888  0.454-  28 2.90  27 2.93  24 2.93  17 2.93  23 2.93  20 2.93  16 2.93  10 2.93
                            25 2.94  19 2.94  34 2.95  29 2.95
  27  0.556  0.888  0.453-  35 2.90  17 2.92  18 2.92  24 2.92  22 2.92  11 2.92  26 2.93  25 2.93
                            29 2.94  30 2.94  20 2.94  21 2.94
  28  0.000  0.000  0.560-  26 2.90  25 2.90  19 2.90  29 2.96  34 2.96  33 2.96  32 2.96  31 2.96
                            30 2.96
  29  0.333  0.008  0.561-  31 2.86  30 2.87  36 2.88  20 2.93  27 2.94  26 2.95  28 2.96  35 2.97
                            34 3.06
  30  0.659  0.008  0.561-  32 2.86  29 2.87  36 2.88  21 2.93  27 2.94  25 2.95  28 2.96  35 2.97
                            33 3.06
  31  0.008  0.333  0.561-  29 2.86  33 2.87  36 2.88  20 2.93  22 2.94  19 2.95  28 2.96  35 2.97
                            32 3.06
  32  0.659  0.333  0.561-  30 2.86  34 2.87  36 2.88  21 2.93  24 2.94  19 2.95  28 2.96  35 2.97
                            31 3.06
  33  0.008  0.659  0.561-  34 2.86  31 2.87  36 2.88  23 2.93  22 2.94  25 2.95  28 2.96  35 2.97
                            30 3.06
  34  0.333  0.659  0.561-  33 2.86  32 2.87  36 2.88  23 2.93  24 2.94  26 2.95  28 2.96  35 2.97
                            29 3.06
  35  0.667  0.667  0.560-  24 2.90  27 2.90  22 2.90  30 2.97  32 2.97  29 2.97  34 2.97  31 2.97
                            33 2.97
  36  0.333  0.333  0.550-  21 2.76  20 2.76  23 2.76  31 2.88  30 2.88  33 2.88  29 2.88  34 2.88
                            32 2.88

  LATTYP: Found a hexagonal cell.
 ALAT       =     8.7913665772
 C/A-ratio  =     2.5227160501

  Lattice vectors:

 A1 = (  -4.3956832886,  -7.6135467898,   0.0000000000)
 A2 = (   8.7913665771,   0.0000000000,   0.0000000000)
 A3 = (   0.0000000000,   0.0000000000,  22.1781215668)

Analysis of symmetry for initial positions (statically):
 Subroutine PRICEL returns:
 Original cell was already a primitive cell.

 Routine SETGRP: Setting up the symmetry group for a
 hexagonal supercell.

 Subroutine GETGRP returns: Found  6 space group operations
 (whereof  6 operations were pure point group operations)
 out of a pool of 24 trial point group operations.

The static configuration has the point symmetry C_3v.

Analysis of symmetry for dynamics (positions and initial velocities):
 Subroutine PRICEL returns:
 Original cell was already a primitive cell.

[...]

The dynamic configuration has the point symmetry C_3v.

Analysis of constrained symmetry for selective dynamics:
 Subroutine PRICEL returns:
 Original cell was already a primitive cell.

 Routine SETGRP: Setting up the symmetry group for a
 hexagonal supercell.

 Subroutine GETGRP returns: Found  6 space group operations
 (whereof  6 operations were pure point group operations)
 out of a pool of 24 trial point group operations.

The constrained configuration has the point symmetry C_3v.

 Subroutine INISYM returns: Found  6 space group operations
 (whereof  6 operations are pure point group operations),
 and found     1 'primitive' translations

                                     Primitive cell

  volume of cell :    1484.4589

  direct lattice vectors                    reciprocal lattice vectors
     8.791366577  0.000000000  0.000000000     0.113747958 -0.065672414  0.000000000
     4.395683289  7.613546790  0.000000000     0.000000000  0.131344829  0.000000000
[...]
     15      -4.7754      2.00000
     16      -4.7537      2.00000
     17      -4.7448      2.00000
     18      -4.7198      2.00000
     19      -4.7133      2.00000
     20      -4.7100      2.00000
     21      -4.7007      2.00000
     22      -4.6774      2.00000
     23      -4.6641      2.00000
     24      -4.6515      2.00000
     25      -4.6186      2.00000
     26      -4.6022      2.00000
     27      -4.5890      2.00000
     28      -4.5714      2.00000
     29      -4.5644      2.00000
     30      -4.5445      2.00000
     31      -4.5396      2.00000
     32      -4.5003      2.00000
     33      -4.4881      2.00000
     34      -4.4413      2.00000
     35      -4.4214      2.00000
     36      -4.4070      2.00000
     37      -4.3735      2.00000
     38      -4.3416      2.00000
     39      -4.3384      2.00000
     40      -4.3302      2.00000
     41      -4.3134      2.00000
     42      -4.3013      2.00000
     43      -4.2245      2.00000
     44      -4.2012      2.00000
     45      -4.1881      2.00000
     46      -4.1811      2.00000
     47      -4.1702      2.00000
     48      -4.1661      2.00000
     49      -4.1581      2.00000
     50      -4.1509      2.00000
     51      -4.1412      2.00000
     52      -4.1336      2.00000
     53      -4.0595      2.00000
     54      -4.0511      2.00000
     55      -4.0463      2.00000
     56      -4.0407      2.00000
     57      -4.0234      2.00000
     58      -4.0082      2.00000
     59      -3.9773      2.00000
     60      -3.9655      2.00000
[...]
    238       7.2169      0.00000
    239       7.2325      0.00000
    240       7.2349      0.00000
    241       7.2720      0.00000
    242       7.3026      0.00000
    243       7.3589      0.00000
    244       7.4089      0.00000
    245       7.5517      0.00000
    246       7.5612      0.00000
    247       7.6269      0.00000
    248       7.6677      0.00000
    249       7.7611      0.00000
    250       7.9515      0.00000
    251       8.0320      0.00000
    252       8.1597      0.00000

 soft charge-density along one line, spin component           1
         0         1         2         3         4         5         6         7         8         9
 total charge-density along one line

------------------------ aborting loop because EDIFF is reached ----------------------------------------

 total charge

# of ion       s       p       d       tot
    1        0.417   0.202   9.177   9.796
    2        0.418   0.203   9.177   9.798
    3        0.418   0.203   9.177   9.798
    4        0.418   0.203   9.177   9.798
    5        0.414   0.204   9.177   9.796
    6        0.418   0.203   9.177   9.798
    7        0.418   0.203   9.177   9.798
    8        0.418   0.203   9.177   9.798
    9        0.416   0.202   9.178   9.796
   10        0.408   0.270   9.161   9.838
   11        0.409   0.267   9.169   9.845
   12        0.408   0.270   9.161   9.838
   13        0.409   0.267   9.169   9.845
   14        0.409   0.267   9.169   9.845
   15        0.405   0.267   9.167   9.839
   16        0.408   0.270   9.161   9.838
   17        0.405   0.267   9.167   9.839
   18        0.405   0.267   9.167   9.839
   19        0.401   0.266   9.166   9.832
   20        0.421   0.304   9.146   9.871
   21        0.421   0.304   9.146   9.871
   22        0.395   0.271   9.170   9.836
   23        0.421   0.304   9.146   9.871
   24        0.395   0.271   9.170   9.836
   25        0.401   0.266   9.166   9.832
   26        0.401   0.266   9.166   9.832
   27        0.395   0.271   9.170   9.836
   28        0.410   0.196   9.181   9.787
   29        0.421   0.219   9.162   9.802
   30        0.421   0.219   9.162   9.802
   31        0.421   0.219   9.162   9.802
   32        0.421   0.219   9.162   9.802
   33        0.421   0.219   9.162   9.802
   34        0.421   0.219   9.162   9.802
   35        0.400   0.199   9.182   9.782
   36        0.549   0.254   5.971   6.774
tot         14.952   8.721 326.838 350.511

  FORCE on cell =-STRESS in cart. coord.  units (eV):
  Direction    XX          YY          ZZ          XY          YZ          ZX
  Alpha Z   752.31699   752.31699   752.31699
  Ewald  120620.52484120620.52480************     0.00000    -0.00000    -0.00002
  Hartree130701.36382130701.36380************    -0.00000    -0.00000    -0.00001
  E(xc)   -2064.87621 -2064.87619 -2070.87313    -0.00001     0.00000     0.00000
  Local  ************************262767.11206     0.00020    -0.00003    -0.00004
  n-local  -358.79340  -339.31386  -353.83621    10.91481    -0.37337     0.38944
  augment  3236.18254  3236.18264  3247.61458    -0.00009     0.00004     0.00008
  Kinetic  4875.24750  4887.52173  4915.01973     7.40096     0.48971     0.30064
  Fock        0.00000     0.00000     0.00000     0.00000     0.00000     0.00000
  Total     -10.43037   -10.43037     0.17216    -0.00000     0.00000    -0.00000
  in kB     -11.25750   -11.25750     0.18581    -0.00000     0.00000    -0.00000

 VOLUME and BASIS-vectors are now :
  energy-cutoff  :      500.00
  volume of cell :     1484.46
      direct lattice vectors                 reciprocal lattice vectors
     8.791366577  0.000000000  0.000000000     0.113747958 -0.065672414  0.000000000
     4.395683289  7.613546790  0.000000000     0.000000000  0.131344829  0.000000000
     0.000000000  0.000000000 22.178121567     0.000000000  0.000000000  0.045089481

  length of vectors
     8.791366577  8.791366577 22.178121567     0.131344829  0.131344829  0.045089481

 FORCES acting on ions
    electron-ion (+dipol)            ewald-force                    non-local-force                 convergence-correction
   0.460E-04 -.282E-04 0.249E+04   -.954E-04 0.593E-04 -.249E+04   -.189E-17 0.494E-17 -.216E+01   -.125E-03 -.179E-03 -.647E-02
   0.447E+00 0.416E+00 0.249E+04   -.472E+00 -.401E+00 -.249E+04   0.461E-01 0.931E-02 -.154E+01   -.201E-01 -.155E-01 0.177E-01
   -.447E+00 0.416E+00 0.249E+04   0.473E+00 -.401E+00 -.249E+04   -.461E-01 0.931E-02 -.154E+01   0.196E-01 -.135E-01 0.184E-01
   0.584E+00 0.179E+00 0.249E+04   -.584E+00 -.208E+00 -.249E+04   0.311E-01 0.353E-01 -.154E+01   -.232E-01 -.949E-02 0.177E-01
   -.790E-05 -.200E-04 0.249E+04   0.980E-04 -.197E-05 -.249E+04   -.290E-18 0.495E-19 -.146E+01   0.630E-02 0.385E-02 0.577E-02
   -.584E+00 0.179E+00 0.249E+04   0.584E+00 -.209E+00 -.249E+04   -.311E-01 0.353E-01 -.154E+01   0.218E-01 -.856E-02 0.186E-01
   0.137E+00 -.595E+00 0.249E+04   -.111E+00 0.610E+00 -.249E+04   -.150E-01 -.446E-01 -.154E+01   -.144E-02 0.242E-01 0.184E-01
   -.137E+00 -.595E+00 0.249E+04   0.111E+00 0.610E+00 -.249E+04   0.150E-01 -.446E-01 -.154E+01   0.312E-02 0.232E-01 0.186E-01
   0.364E-04 -.131E-04 0.249E+04   0.792E-04 -.643E-04 -.249E+04   -.214E-20 0.823E-18 -.180E+01   -.670E-02 -.346E-02 -.290E-02
   0.572E+01 0.330E+01 0.817E+03   -.526E+01 -.304E+01 -.816E+03   -.396E+00 -.229E+00 -.903E+00   -.412E-01 -.237E-01 0.163E+00
   -.285E-04 0.432E+01 0.822E+03   0.408E-04 -.439E+01 -.822E+03   0.390E-12 0.594E-01 -.388E+00   0.644E-02 -.401E-01 0.170E+00
   -.572E+01 0.330E+01 0.817E+03   0.526E+01 -.304E+01 -.816E+03   0.396E+00 -.229E+00 -.903E+00   0.394E-01 -.223E-01 0.163E+00
   0.374E+01 -.216E+01 0.822E+03   -.380E+01 0.219E+01 -.822E+03   0.515E-01 -.297E-01 -.388E+00   -.316E-01 0.257E-01 0.170E+00
   -.374E+01 -.216E+01 0.822E+03   0.380E+01 0.219E+01 -.822E+03   -.515E-01 -.297E-01 -.388E+00   0.427E-01 0.249E-01 0.170E+00
   0.159E-04 0.193E+01 0.818E+03   -.108E-03 -.201E+01 -.817E+03   0.502E-12 0.765E-01 -.713E+00   -.195E-02 -.200E-01 0.101E+00
   -.809E-05 -.661E+01 0.817E+03   0.205E-04 0.608E+01 -.816E+03   0.300E-11 0.457E+00 -.903E+00   0.386E-03 0.452E-01 0.163E+00
   0.167E+01 -.963E+00 0.818E+03   -.174E+01 0.100E+01 -.817E+03   0.662E-01 -.382E-01 -.713E+00   -.183E-01 0.830E-02 0.101E+00
   -.167E+01 -.963E+00 0.818E+03   0.174E+01 0.100E+01 -.817E+03   -.662E-01 -.382E-01 -.713E+00   0.182E-01 0.105E-01 0.102E+00
   0.397E-04 0.801E+00 -.886E+03   -.127E-03 -.696E+00 0.885E+03   -.914E-13 -.139E-01 0.524E+00   -.613E-02 -.830E-01 0.196E+00
   0.230E+01 0.133E+01 -.861E+03   -.124E+01 -.716E+00 0.862E+03   -.109E+01 -.628E+00 -.119E+01   0.276E-01 0.160E-01 0.316E+00
   -.230E+01 0.133E+01 -.861E+03   0.124E+01 -.716E+00 0.862E+03   0.109E+01 -.628E+00 -.119E+01   -.262E-01 0.174E-01 0.316E+00
   -.435E+01 0.251E+01 -.875E+03   0.385E+01 -.222E+01 0.875E+03   0.406E+00 -.235E+00 0.469E+00   0.900E-01 -.569E-01 0.197E+00
   -.532E-04 -.266E+01 -.861E+03   0.412E-04 0.143E+01 0.862E+03   0.825E-11 0.126E+01 -.119E+01   0.228E-02 -.307E-01 0.316E+00
   0.435E+01 0.251E+01 -.875E+03   -.385E+01 -.222E+01 0.875E+03   -.406E+00 -.235E+00 0.469E+00   -.101E+00 -.580E-01 0.197E+00
   -.694E+00 -.401E+00 -.886E+03   0.603E+00 0.348E+00 0.885E+03   0.121E-01 0.696E-02 0.524E+00   0.658E-01 0.379E-01 0.195E+00
   0.694E+00 -.400E+00 -.886E+03   -.603E+00 0.348E+00 0.885E+03   -.121E-01 0.696E-02 0.524E+00   -.752E-01 0.360E-01 0.196E+00
   0.200E-04 -.502E+01 -.875E+03   0.110E-03 0.444E+01 0.875E+03   0.308E-11 0.469E+00 0.469E+00   -.489E-02 0.106E+00 0.197E+00
   0.535E-04 -.364E-04 -.251E+04   -.113E-03 0.770E-04 0.251E+04   0.329E-17 0.224E-17 0.197E+01   0.119E-02 0.554E-03 -.570E-01
   -.228E+01 -.231E+01 -.252E+04   0.310E+01 0.354E+01 0.252E+04   -.930E+00 -.138E+01 0.143E+01   0.952E-01 0.144E+00 0.701E-01
   0.228E+01 -.231E+01 -.252E+04   -.310E+01 0.354E+01 0.252E+04   0.930E+00 -.138E+01 0.143E+01   -.106E+00 0.146E+00 0.699E-01
   -.314E+01 -.814E+00 -.252E+04   0.462E+01 0.913E+00 0.252E+04   -.166E+01 -.115E+00 0.143E+01   0.172E+00 0.107E-01 0.702E-01
   0.314E+01 -.814E+00 -.252E+04   -.462E+01 0.913E+00 0.252E+04   0.166E+01 -.115E+00 0.143E+01   -.184E+00 0.115E-01 0.691E-01
   -.866E+00 0.313E+01 -.252E+04   0.152E+01 -.445E+01 0.252E+04   -.731E+00 0.150E+01 0.143E+01   0.737E-01 -.164E+00 0.698E-01
   0.866E+00 0.313E+01 -.252E+04   -.152E+01 -.445E+01 0.252E+04   0.731E+00 0.150E+01 0.143E+01   -.823E-01 -.165E+00 0.690E-01
   0.250E-04 -.137E-04 -.251E+04   0.104E-03 -.649E-04 0.251E+04   0.226E-17 0.133E-17 0.218E+01   -.547E-02 -.272E-02 0.156E+00
   -.221E-04 -.126E-04 -.177E+04   0.774E-04 0.978E-05 0.177E+04   0.144E-16 0.227E-17 0.231E+01   0.246E-02 0.146E-02 0.148E+00
   0.313E-03 -.707E-03 0.207E+01   0.208E-13 -.517E-13 0.546E-11   0.350E-15 0.360E-17 -.624E+01   -.462E-01 -.235E-01 0.420E+01

 POSITION                                       TOTAL-FORCE (eV/Angst)
      0.00000      0.00000      5.28219         0.000000     -0.000000      0.011024
      2.93046      0.00000      5.28219         0.001205      0.009735      0.020437
      5.86091      0.00000      5.28219        -0.001205      0.009735      0.020437
      1.46523      2.53785      5.28219         0.009033     -0.003825      0.020437
      4.39568      2.53785      5.28219         0.000000     -0.000000      0.002567
      7.32614      2.53785      5.28219        -0.009033     -0.003825      0.020437
      2.93046      5.07570      5.28219         0.007829     -0.005911      0.020437
      5.86091      5.07570      5.28219        -0.007829     -0.005911      0.020437
      8.79137      5.07570      5.28219         0.000000     -0.000000      0.010191
      1.46523      0.84595      7.67490         0.023647      0.013653      0.013388
      4.39568      0.84595      7.67490        -0.000000     -0.049675     -0.093199
      7.32614      0.84595      7.67490        -0.023647      0.013653      0.013388
      2.93046      3.38380      7.67490        -0.043019      0.024837     -0.093199
      5.86091      3.38380      7.67490         0.043019      0.024837     -0.093199
      8.79137      3.38380      7.67490        -0.000000     -0.024489      0.018611
      4.39568      5.92165      7.67490        -0.000000     -0.027305      0.013388
      7.32614      5.92165      7.67490        -0.021208      0.012245      0.018611
     10.25659      5.92165      7.67490         0.021208      0.012245      0.018611
      8.79137      1.69824     10.07044         0.000000      0.010483     -0.012352
      2.93075      1.69207     10.02201        -0.001427     -0.000824     -0.005431
      5.86061      1.69207     10.02201         0.001427     -0.000824     -0.005431
     10.25044      4.23330     10.05478         0.001197     -0.000691     -0.013614
      4.39568      4.22940     10.02201         0.000000      0.001648     -0.005431
      7.33230      4.23330     10.05478        -0.001197     -0.000691     -0.013614
     11.71633      6.76443     10.07044        -0.009078     -0.005241     -0.012352
      5.86640      6.76443     10.07044         0.009078     -0.005241     -0.012352
      8.79137      6.76048     10.05478         0.000000      0.001382     -0.013614
      0.00000      0.00000     12.42728         0.000000     -0.000000      0.036055
      2.96092      0.05748     12.44843        -0.006312     -0.006003      0.012163
      5.83045      0.05748     12.44843         0.006312     -0.006003      0.012163
      1.53024      2.53549     12.44843        -0.008355     -0.002465      0.012163
      7.26113      2.53549     12.44843         0.008355     -0.002465      0.012163
      2.96500      5.02058     12.44843        -0.002043      0.008468      0.012163
      5.82636      5.02058     12.44843         0.002043      0.008468      0.012163
      8.79137      5.07570     12.42122         0.000000      0.000000      0.016878
      4.39568      2.53785     12.20312         0.000000     -0.000000      0.005476
    total drift:                               -0.045930     -0.024201      0.036810

  FREE ENERGIE OF THE ION-ELECTRON SYSTEM (eV)
  free  energy   TOTEN  =       -96.63744049 eV

  energy  without entropy=      -96.63744049  energy(sigma->0) =      -96.63744049

 stress matrix after NEB project (eV)
    -10.43037     -0.00000     -0.00000
     -0.00000    -10.43037      0.00000
      0.00000      0.00000      0.17216
  FORCES: max atom, RMS     0.036055    0.011060
  FORCE total and by dimension    0.066359    0.036055
  Stress total and by dimension   14.751770   10.430366
|           W    W    AA    RRRRR   N    N  II  N    N   GGGG   !!!           |
|           W    W   A  A   R    R  NN   N  II  NN   N  G    G  !!!           |
|           W    W  A    A  R    R  N N  N  II  N N  N  G       !!!           |
|           W WW W  AAAAAA  RRRRR   N  N N  II  N  N N  G  GGG   !            |
|           WW  WW  A    A  R   R   N   NN  II  N   NN  G    G                |
|           W    W  A    A  R    R  N    N  II  N    N   GGGG   !!!           |
|     Tetrahedron method does not include variations of the Fermi             |
|     occupations, so forces and stress will be inaccurate. We suggest        |
|     using a different smearing scheme ISMEAR = 1 or 2 for metals in         |
|     relaxations.                                                            |

 total charge

# of ion       s       p       d       tot
    1        0.417   0.202   9.177   9.796
    2        0.418   0.203   9.177   9.798
    3        0.418   0.203   9.177   9.798
    4        0.418   0.203   9.177   9.798
    5        0.414   0.204   9.177   9.796
    6        0.418   0.203   9.177   9.798
    7        0.418   0.203   9.177   9.798
    8        0.418   0.203   9.177   9.798
    9        0.416   0.202   9.178   9.796
   10        0.408   0.270   9.161   9.838
   11        0.409   0.267   9.169   9.845
   12        0.408   0.270   9.161   9.838
   13        0.409   0.267   9.169   9.845
   14        0.409   0.267   9.169   9.845
   15        0.405   0.267   9.167   9.839
   16        0.408   0.270   9.161   9.838
   17        0.405   0.267   9.167   9.839
   18        0.405   0.267   9.167   9.839
   19        0.401   0.266   9.166   9.832
   20        0.421   0.304   9.146   9.871
   21        0.421   0.304   9.146   9.871
   22        0.395   0.271   9.170   9.836
   23        0.421   0.304   9.146   9.871
   24        0.395   0.271   9.170   9.836
   25        0.401   0.266   9.166   9.832
   26        0.401   0.266   9.166   9.832
   27        0.395   0.271   9.170   9.836
   28        0.410   0.196   9.181   9.787
   29        0.421   0.219   9.162   9.802
   30        0.421   0.219   9.162   9.802
   31        0.421   0.219   9.162   9.802
   32        0.421   0.219   9.162   9.802
   33        0.421   0.219   9.162   9.802
   34        0.421   0.219   9.162   9.802
   35        0.400   0.199   9.182   9.782
   36        0.549   0.254   5.971   6.774
tot         14.952   8.721 326.838 350.511

 BZINTS: Fermi energy:    0.784688;  393.000000 electrons
         Band energy:-0.126834E+04;  BLOECHL correction:   -0.040403