 vasp.6.2.0 18Jan21 (build Jun 12 2021 23:27:24) complex

 executed on             LinuxIFC date 2022.05.28  01:23:58

 INCAR:
   ISMEAR = -5
   SIGMA = 0.1
   ISPIN = 1
   EDIFF = 1.d-5
   EDIFFG = -0.01
   NSW = 0
   NELM = 150
   ENCUT = 500
   ISIF = 2
   IBRION = 2
   LREAL = Auto
   ALGO = Fast
   ICHARG = 11
   LORBIT = 10
   LCHARG = .F.
   LWAVE = .F.

 POTCAR:    PAW_PBE Ag 02Apr2005
 POTCAR:    PAW_PBE Ti 08Apr2002
 POTCAR:    PAW_PBE O 08Apr2002
 POTCAR:    PAW_PBE H 15Jun2001
|           W    W    AA    RRRRR   N    N  II  N    N   GGGG   !!!           |
|           W    W   A  A   R    R  NN   N  II  NN   N  G    G  !!!           |
|           W    W  A    A  R    R  N N  N  II  N N  N  G       !!!           |
|           W WW W  AAAAAA  RRRRR   N  N N  II  N  N N  G  GGG   !            |
|           WW  WW  A    A  R   R   N   NN  II  N   NN  G    G                |
|           W    W  A    A  R    R  N    N  II  N    N   GGGG   !!!           |
|     For optimal performance we recommend to set                             |
|       NCORE = 2 up to number-of-cores-per-socket                            |
|     This setting can greatly improve the performance of VASP for DFT.       |
|     The default, NCORE=1 might be grossly inefficient on modern             |
|     multi-core architectures or massively parallel machines. Do your        |
|     Unfortunately you need to use the default for GW and RPA                |
|     calculations (for HF NCORE is supported but not extensively tested      |
|     yet).                                                                   |

 POTCAR:    PAW_PBE Ag 02Apr2005
   VRHFIN =Ag : s1 d10

   TITEL  = PAW_PBE Ag 02Apr2005
   POMASS =  107.868; ZVAL   =   11.000    mass and valenz
   ENMAX  =  249.844; ENMIN  =  187.383 eV

 POTCAR:    PAW_PBE Ti 08Apr2002
   VRHFIN =Ti: d3 s1

[...]

 POTCAR:    PAW_PBE O 08Apr2002
   VRHFIN =O: s2p4

   TITEL  = PAW_PBE O 08Apr2002
   POMASS =   16.000; ZVAL   =    6.000    mass and valenz
   ENMAX  =  400.000; ENMIN  =  300.000 eV

 POTCAR:    PAW_PBE H 15Jun2001
   VRHFIN =H: ultrasoft test

   TITEL  = PAW_PBE H 15Jun2001
   POMASS =    1.000; ZVAL   =    1.000    mass and valenz
   ENMAX  =  250.000; ENMIN  =  200.000 eV

 Optimization of the real space projectors (new method)

 maximal supplied QI-value         = 15.12
 optimisation between [QCUT,QGAM] = [ 11.34, 22.83] = [ 36.00,145.93] Ry
 Optimized for a Real-space Cutoff    1.43 Angstroem

   l    n(q)    QCUT    max X(q) W(low)/X(q) W(high)/X(q)  e(spline)
   2      9    11.338    53.897    0.16E-03    0.20E-03    0.28E-06
   2      9    11.338    52.416    0.16E-03    0.20E-03    0.29E-06
   0     10    11.338   122.045    0.31E-04    0.76E-04    0.15E-06
   0     10    11.338    73.629    0.30E-04    0.72E-04    0.15E-06
   1      9    11.338    15.255    0.20E-03    0.19E-04    0.17E-06
   1      9    11.338     9.562    0.16E-03    0.15E-04    0.14E-06
 Optimization of the real space projectors (new method)

[...]

   l    n(q)    QCUT    max X(q) W(low)/X(q) W(high)/X(q)  e(spline)
   0      7    11.387    20.381    0.39E-03    0.13E-02    0.15E-06
   0      7    11.387    15.268    0.42E-03    0.14E-02    0.17E-06
   1      6    11.387     5.964    0.41E-03    0.11E-02    0.17E-06
   1      6    11.387     5.382    0.39E-03    0.87E-03    0.15E-06
 Optimization of the real space projectors (new method)

 maximal supplied QI-value         = 34.20
 optimisation between [QCUT,QGAM] = [ 11.29, 22.57] = [ 35.68,142.71] Ry
 Optimized for a Real-space Cutoff    1.16 Angstroem

   l    n(q)    QCUT    max X(q) W(low)/X(q) W(high)/X(q)  e(spline)
   0      8    11.287    19.460    0.40E-03    0.73E-03    0.16E-06
   0      8    11.287    12.209    0.38E-03    0.70E-03    0.15E-06
   1      7    11.287     4.655    0.22E-03    0.25E-04    0.22E-06
  PAW_PBE Ag 02Apr2005                  :
  PAW_PBE Ti 08Apr2002                  :
  PAW_PBE O 08Apr2002                   :
  PAW_PBE H 15Jun2001                   :

 POSCAR: Ag-Ti-OOH
  positions in direct lattice
  velocities in cartesian coordinates
 exchange correlation table for  LEXCH =        8
   RHO(1)=    0.500       N(1)  =     2000
   RHO(2)=  100.500       N(2)  =     4000

 VTST: version 3.2, (02/03/18)

 CHAIN: initializing optimizer

 OPT: Using VASP Conjugate-Gradient optimizer
 CHAIN: Read ICHAIN            0

 POSCAR: Ag-Ti-OOH
  positions in direct lattice
  velocities in cartesian coordinates

 ion  position               nearest neighbor table
   1  0.000  0.000  0.204-   2 2.93   8 2.93   7 2.93   6 2.93   4 2.93  12 2.93  16 2.93  10 2.93
                             3 2.93
   2  0.333  0.000  0.204-   1 2.93   8 2.93   9 2.93   3 2.93   4 2.93   5 2.93  10 2.93  17 2.93
                            11 2.93
   3  0.667  0.000  0.204-   9 2.93   2 2.93   5 2.93  11 2.93   7 2.93  18 2.93   1 2.93   6 2.93
                            12 2.93
   4  0.000  0.333  0.204-   5 2.93   6 2.93   2 2.93   1 2.93   7 2.93  13 2.93  15 2.93   9 2.93
                            10 2.93
   5  0.333  0.333  0.204-   4 2.93   3 2.93   7 2.93   2 2.93   8 2.93  14 2.93  13 2.93  11 2.93
                             6 2.93
   6  0.667  0.333  0.204-   4 2.93   9 2.93   1 2.93  15 2.93   8 2.93  12 2.93   3 2.93   5 2.93
                            14 2.93
   7  0.000  0.667  0.204-   8 2.93   1 2.93   5 2.93   3 2.93   4 2.93  16 2.93  18 2.93  13 2.93
                             9 2.93
   8  0.333  0.667  0.204-   7 2.93   1 2.93   2 2.93   9 2.93   5 2.93  16 2.93   6 2.93  17 2.93
                            14 2.93
   9  0.667  0.667  0.204-   3 2.93   2 2.93   8 2.93   6 2.93  17 2.93   4 2.93  15 2.93   7 2.93
                            18 2.93
  10  0.111  0.111  0.296-  20 2.91  19 2.92  26 2.92  12 2.93  16 2.93  15 2.93  17 2.93  13 2.93
                            11 2.93   2 2.93   1 2.93   4 2.93
  11  0.444  0.111  0.296-  21 2.91  20 2.91  27 2.92  14 2.93  17 2.93  18 2.93   3 2.93  12 2.93
                            13 2.93  10 2.93   5 2.93   2 2.93
  12  0.778  0.111  0.296-  21 2.91  25 2.92  19 2.92  10 2.93  16 2.93  18 2.93  15 2.93  11 2.93
                             1 2.93  14 2.93   6 2.93   3 2.93
  13  0.111  0.444  0.296-  20 2.91  23 2.91  22 2.92  15 2.93  14 2.93  18 2.93  10 2.93  11 2.93
                            16 2.93   4 2.93   5 2.93   7 2.93
  14  0.444  0.444  0.296-  23 2.91  21 2.91  24 2.92  13 2.93  11 2.93  16 2.93   5 2.93  12 2.93
                            17 2.93   8 2.93  15 2.93   6 2.93
  15  0.778  0.444  0.296-  19 2.92  24 2.92  22 2.92  13 2.93  10 2.93  12 2.93  17 2.93  18 2.93
                             4 2.93   6 2.93   9 2.93  14 2.93
  16  0.111  0.778  0.296-  23 2.91  26 2.92  25 2.92  18 2.93  12 2.93  10 2.93  14 2.93  17 2.93
                            13 2.93   7 2.93   8 2.93   1 2.93
  17  0.444  0.778  0.296-  26 2.92  27 2.92  24 2.92  11 2.93  10 2.93   9 2.93  18 2.93  15 2.93
                            16 2.93   2 2.93  14 2.93   8 2.93
  18  0.778  0.778  0.296-  25 2.92  22 2.92  27 2.92  16 2.93  12 2.93  13 2.93  11 2.93  17 2.93
                            15 2.93   7 2.93   3 2.93   9 2.93
  19  0.889  0.222  0.388-  10 2.92  12 2.92  15 2.92  28 2.92  26 2.93  25 2.93  24 2.93  22 2.93
                            20 2.94  21 2.94  32 2.96  31 2.96
  20  0.223  0.223  0.388-  36 2.82  13 2.91  11 2.91  10 2.91  21 2.92  23 2.92  27 2.93  22 2.93
                            19 2.94  26 2.94  31 2.94  29 2.94
  21  0.555  0.223  0.388-  36 2.82  11 2.91  14 2.91  12 2.91  20 2.92  23 2.92  27 2.93  24 2.93
                            25 2.94  19 2.94  30 2.94  32 2.94
  22  0.889  0.556  0.388-  18 2.92  15 2.92  13 2.92  24 2.93  27 2.93  25 2.93  19 2.93  35 2.93
                            23 2.93  20 2.93  33 2.94  31 2.94
  23  0.223  0.555  0.388-  36 2.82  14 2.91  13 2.91  16 2.91  21 2.92  20 2.92  22 2.93  24 2.93
                            26 2.94  25 2.94  34 2.94  33 2.94
  24  0.556  0.556  0.388-  15 2.92  17 2.92  14 2.92  27 2.93  22 2.93  19 2.93  26 2.93  35 2.93
                            23 2.93  21 2.93  32 2.94  34 2.94
  25  0.889  0.889  0.388-  16 2.92  12 2.92  18 2.92  28 2.92  26 2.93  19 2.93  22 2.93  27 2.93
                            23 2.94  21 2.94  33 2.96  30 2.96
  26  0.222  0.889  0.388-  16 2.92  10 2.92  17 2.92  28 2.92  25 2.93  19 2.93  27 2.93  24 2.93
                            23 2.94  20 2.94  34 2.96  29 2.96
  27  0.556  0.889  0.388-  17 2.92  18 2.92  11 2.92  24 2.93  22 2.93  26 2.93  25 2.93  35 2.93
                            20 2.93  21 2.93  29 2.94  30 2.94
  28  0.000  0.000  0.480-  26 2.92  25 2.92  19 2.92  29 2.95  34 2.95  33 2.95  32 2.95  31 2.95
                            30 2.95
  29  0.334  0.004  0.481-  30 2.89  31 2.90  36 2.90  20 2.94  27 2.94  35 2.95  28 2.95  26 2.96
                            34 3.00
  30  0.662  0.004  0.481-  29 2.89  32 2.90  36 2.90  21 2.94  27 2.94  35 2.95  28 2.95  25 2.96
                            33 3.00
  31  0.004  0.334  0.481-  33 2.89  29 2.90  36 2.90  20 2.94  22 2.94  35 2.95  28 2.95  19 2.96
                            32 3.00
  32  0.662  0.334  0.481-  34 2.89  30 2.90  36 2.90  21 2.94  24 2.94  35 2.95  28 2.95  19 2.96
                            31 3.00
  33  0.004  0.662  0.481-  31 2.89  34 2.90  36 2.90  23 2.94  22 2.94  35 2.95  28 2.95  25 2.96
                            30 3.00
  34  0.334  0.662  0.481-  32 2.89  33 2.90  36 2.90  23 2.94  24 2.94  35 2.95  28 2.95  26 2.96
                            29 3.00
  35  0.667  0.667  0.481-  24 2.93  27 2.93  22 2.93  30 2.95  32 2.95  29 2.95  34 2.95  31 2.95
                            33 2.95
  36  0.333  0.333  0.475-  37 1.70  21 2.82  20 2.82  23 2.82  31 2.90  33 2.90  30 2.90  29 2.90
                            34 2.90  32 2.90
  37  0.353  0.335  0.540-  36 1.70
  38  0.308  0.334  0.619-  39 0.98
  39  0.418  0.333  0.626-  38 0.98

  LATTYP: Found a hexagonal cell.
 ALAT       =     8.7913665772
 C/A-ratio  =     2.9469639759

  Lattice vectors:

 A1 = (  -4.3956832886,  -7.6135467898,   0.0000000000)
 A2 = (   8.7913665771,   0.0000000000,   0.0000000000)
 A3 = (   0.0000000000,   0.0000000000,  25.9078406020)

Analysis of symmetry for initial positions (statically):
 Subroutine PRICEL returns:
 Original cell was already a primitive cell.

 Routine SETGRP: Setting up the symmetry group for a
 hexagonal supercell.

 Subroutine GETGRP returns: Found  1 space group operations
 (whereof  1 operations were pure point group operations)
 out of a pool of 24 trial point group operations.

The static configuration has the point symmetry C_1 .

Analysis of symmetry for dynamics (positions and initial velocities):
 Subroutine PRICEL returns:
 Original cell was already a primitive cell.

[...]

The dynamic configuration has the point symmetry C_1 .

Analysis of constrained symmetry for selective dynamics:
 Subroutine PRICEL returns:
 Original cell was already a primitive cell.

 Routine SETGRP: Setting up the symmetry group for a
 hexagonal supercell.

 Subroutine GETGRP returns: Found  1 space group operations
[...]
     41      -5.4994      2.00000
     42      -5.4915      2.00000
     43      -5.4871      2.00000
     44      -5.4683      2.00000
     45      -5.3820      2.00000
     46      -5.3577      2.00000
     47      -5.3444      2.00000
     48      -5.3369      2.00000
     49      -5.3306      2.00000
     50      -5.3232      2.00000
     51      -5.3218      2.00000
     52      -5.3101      2.00000
     53      -5.3040      2.00000
     54      -5.2898      2.00000
     55      -5.2307      2.00000
     56      -5.2196      2.00000
     57      -5.2138      2.00000
     58      -5.1991      2.00000
     59      -5.1900      2.00000
     60      -5.1713      2.00000
[...]
    238       5.0663      0.00000
    239       5.1362      0.00000
    240       5.2042      0.00000
    241       5.2796      0.00000
    242       5.2834      0.00000
    243       5.3707      0.00000
    244       5.6819      0.00000
    245       6.0138      0.00000
    246       6.0661      0.00000
    247       6.0956      0.00000
    248       6.1570      0.00000
    249       6.1738      0.00000
    250       6.2221      0.00000
    251       6.2568      0.00000
    252       6.4360      0.00000

 soft charge-density along one line, spin component           1
         0         1         2         3         4         5         6         7         8         9
 total charge-density along one line

------------------------ aborting loop because EDIFF is reached ----------------------------------------

 total charge

# of ion       s       p       d       tot
    1        0.416   0.202   9.177   9.795
    2        0.417   0.203   9.176   9.795
    3        0.416   0.203   9.176   9.796
    4        0.417   0.203   9.176   9.795
    5        0.416   0.203   9.176   9.795
    6        0.415   0.203   9.177   9.795
    7        0.416   0.203   9.176   9.795
    8        0.416   0.203   9.176   9.795
    9        0.413   0.203   9.178   9.794
   10        0.405   0.270   9.163   9.839
   11        0.406   0.269   9.166   9.841
   12        0.407   0.270   9.163   9.840
   13        0.407   0.268   9.167   9.841
   14        0.406   0.269   9.166   9.841
   15        0.402   0.271   9.163   9.836
   16        0.406   0.270   9.163   9.839
   17        0.402   0.271   9.163   9.835
   18        0.401   0.270   9.164   9.835
   19        0.402   0.265   9.168   9.835
   20        0.426   0.292   9.145   9.863
   21        0.426   0.292   9.145   9.863
   22        0.397   0.273   9.164   9.833
   23        0.426   0.291   9.145   9.862
   24        0.395   0.275   9.163   9.833
   25        0.402   0.265   9.168   9.835
   26        0.402   0.265   9.168   9.835
   27        0.396   0.274   9.163   9.833
   28        0.413   0.200   9.175   9.789
   29        0.431   0.205   9.166   9.802
   30        0.428   0.204   9.169   9.801
   31        0.433   0.205   9.164   9.803
   32        0.426   0.204   9.171   9.801
   33        0.431   0.205   9.166   9.801
   34        0.427   0.204   9.170   9.801
   35        0.415   0.200   9.173   9.788
   36        0.514   0.671   2.700   3.884
   37        1.611   3.245   0.000   4.856
   38        1.598   3.341   0.000   4.940
   39        0.628   0.115   0.000   0.743
tot         18.811  15.746 323.548 358.105

  FORCE on cell =-STRESS in cart. coord.  units (eV):
  Direction    XX          YY          ZZ          XY          YZ          ZX
  Alpha Z   659.12192   659.12192   659.12192
  Ewald  171941.32906171846.19414************    -0.14025    -2.27547   -22.56707
  Hartree181657.98603181636.72273************     0.05505    -2.28992   -36.31630
  E(xc)   -2105.66469 -2106.05666 -2113.79904     0.02148    -0.02708    -0.23405
  Local  ************************364274.09117     0.13501     4.49183    62.27649
  n-local  -368.26728  -368.41217  -371.29236    -0.06113    -0.07312    -1.28035
  augment  3235.85854  3237.71424  3249.02695     0.00834     0.03613     0.18254
  Kinetic  5048.80717  5074.67320  5080.95584    -0.09472     0.14814    -2.33350
  Fock        0.00000     0.00000     0.00000     0.00000     0.00000     0.00000
  Total      -6.24739    -5.87028    -1.56198    -0.07622     0.01051    -0.27224
  in kB      -5.77211    -5.42369    -1.44315    -0.07042     0.00971    -0.25153

 VOLUME and BASIS-vectors are now :
  energy-cutoff  :      500.00
  volume of cell :     1734.10
      direct lattice vectors                 reciprocal lattice vectors
     8.791366577  0.000000000  0.000000000     0.113747958 -0.065672414  0.000000000
     4.395683289  7.613546790  0.000000000     0.000000000  0.131344829  0.000000000
     0.000000000  0.000000000 25.907840602     0.000000000  0.000000000  0.038598354

  length of vectors
     8.791366577  8.791366577 25.907840602     0.131344829  0.131344829  0.038598354

 FORCES acting on ions
    electron-ion (+dipol)            ewald-force                    non-local-force                 convergence-correction
   0.558E-03 0.215E-01 0.278E+04   0.125E-01 -.455E-03 -.278E+04   -.198E-01 -.680E-02 -.191E+01   0.930E-02 -.139E-01 0.228E+00
   -.282E+00 -.107E+00 0.278E+04   0.174E+00 0.150E+00 -.278E+04   0.455E-01 0.310E-01 -.161E+01   0.543E-01 -.639E-01 0.250E+00
   0.305E+00 -.743E-01 0.278E+04   -.187E+00 0.127E+00 -.278E+04   -.391E-01 0.385E-01 -.163E+01   -.746E-01 -.844E-01 0.196E+00
   -.295E+00 -.191E+00 0.278E+04   0.224E+00 0.849E-01 -.278E+04   0.718E-01 0.232E-01 -.160E+01   0.357E-02 0.731E-01 0.252E+00
   0.847E-01 -.900E-02 0.278E+04   -.262E-01 -.233E-02 -.278E+04   -.208E-01 -.711E-02 -.156E+01   -.366E-01 0.178E-01 0.244E+00
   0.181E+00 -.279E+00 0.278E+04   -.197E+00 0.846E-01 -.278E+04   -.336E-01 0.283E-01 -.166E+01   0.476E-01 0.155E+00 0.151E+00
   0.335E-01 0.343E+00 0.278E+04   0.234E-01 -.234E+00 -.278E+04   0.173E-01 -.693E-01 -.161E+01   -.655E-01 -.388E-01 0.238E+00
   -.131E+00 0.280E+00 0.278E+04   -.363E-01 -.212E+00 -.278E+04   0.182E-01 -.370E-01 -.166E+01   0.136E+00 -.263E-01 0.183E+00
   0.850E-01 0.148E-01 0.278E+04   0.130E-01 0.272E-02 -.278E+04   -.217E-01 -.154E-03 -.183E+01   -.708E-01 -.160E-01 0.185E+00
   -.130E+01 -.723E+00 0.949E+03   0.147E+01 0.852E+00 -.949E+03   -.224E+00 -.143E+00 -.658E+00   0.567E-01 0.155E-01 -.348E-01
   0.249E+00 -.121E+01 0.946E+03   -.147E+00 0.107E+01 -.945E+03   -.182E-02 0.127E+00 -.493E+00   -.922E-01 -.204E-01 0.290E-01
   0.995E+00 -.546E+00 0.950E+03   -.132E+01 0.726E+00 -.949E+03   0.264E+00 -.142E+00 -.616E+00   0.622E-01 -.403E-01 0.490E-01
   -.994E+00 0.657E+00 0.946E+03   0.852E+00 -.581E+00 -.945E+03   0.116E+00 -.523E-01 -.455E+00   -.102E-01 -.364E-03 0.412E-01
   0.122E+01 0.519E+00 0.946E+03   -.102E+01 -.510E+00 -.946E+03   -.134E+00 -.664E-01 -.529E+00   -.268E-01 0.729E-01 0.285E-01
   -.233E+00 -.142E+00 0.949E+03   0.171E+00 0.134E+00 -.949E+03   0.152E-01 0.717E-02 -.645E+00   0.466E-01 0.388E-02 0.158E-01
   0.111E-01 0.135E+01 0.949E+03   -.354E-01 -.159E+01 -.949E+03   0.185E-01 0.266E+00 -.628E+00   0.375E-02 -.205E-01 0.169E-01
   -.128E+00 -.982E-01 0.949E+03   0.137E+00 0.393E-01 -.949E+03   0.249E-02 0.194E-01 -.642E+00   -.766E-02 0.356E-01 0.173E-02
   0.138E+00 0.195E+00 0.949E+03   -.102E+00 -.138E+00 -.949E+03   -.322E-01 -.222E-01 -.643E+00   -.433E-02 -.360E-01 0.304E-01
   -.106E+01 -.508E+01 -.889E+03   0.107E+01 0.475E+01 0.889E+03   -.790E-02 0.168E+00 0.983E+00   0.411E-02 0.152E+00 -.408E+00
   -.267E+02 -.160E+02 -.917E+03   0.273E+02 0.163E+02 0.917E+03   -.710E+00 -.401E+00 -.230E+00   -.373E-02 0.311E-01 -.432E+00
   0.278E+02 -.152E+02 -.914E+03   -.283E+02 0.155E+02 0.914E+03   0.675E+00 -.409E+00 -.188E+00   -.238E-01 -.218E-02 -.333E+00
   -.113E+02 0.657E+01 -.892E+03   0.112E+02 -.652E+01 0.892E+03   0.188E+00 -.101E+00 0.603E+00   0.453E-02 0.333E-01 -.466E+00
   0.123E+01 0.314E+02 -.915E+03   -.116E+01 -.320E+02 0.916E+03   -.222E-01 0.791E+00 -.172E+00   -.398E-01 -.377E-02 -.377E+00
   0.102E+02 0.568E+01 -.891E+03   -.100E+02 -.559E+01 0.890E+03   -.214E+00 -.125E+00 0.607E+00   0.517E-01 0.198E-01 -.440E+00
   0.441E+01 0.312E+01 -.889E+03   -.410E+01 -.292E+01 0.888E+03   -.165E+00 -.954E-01 0.981E+00   -.126E+00 -.903E-01 -.422E+00
   -.459E+01 0.201E+01 -.889E+03   0.434E+01 -.183E+01 0.889E+03   0.128E+00 -.877E-01 0.977E+00   0.107E+00 -.761E-01 -.423E+00
   0.187E+00 -.125E+02 -.892E+03   -.244E+00 0.124E+02 0.892E+03   0.961E-02 0.218E+00 0.607E+00   0.394E-01 -.438E-01 -.462E+00
   -.176E+01 0.224E+00 -.267E+04   0.167E+01 -.223E+00 0.267E+04   0.904E-01 0.830E-03 0.175E+01   0.469E-03 0.378E-03 -.804E+00
   -.113E+01 -.121E+02 -.265E+04   0.155E+01 0.128E+02 0.265E+04   -.542E+00 -.861E+00 0.227E+01   0.312E-01 -.955E-03 -.930E+00
   0.218E+01 -.360E+01 -.265E+04   -.254E+01 0.395E+01 0.265E+04   0.487E+00 -.531E+00 0.243E+01   -.398E-01 0.166E-01 -.945E+00
   -.137E+02 0.336E+01 -.265E+04   0.147E+02 -.326E+01 0.265E+04   -.112E+01 -.103E+00 0.218E+01   -.472E-02 0.324E-02 -.956E+00
   -.243E+00 0.332E+01 -.264E+04   -.233E-01 -.334E+01 0.264E+04   0.517E+00 -.653E-01 0.249E+01   -.417E-01 0.682E-01 -.920E+00
   -.576E+01 0.831E+01 -.265E+04   0.598E+01 -.908E+01 0.265E+04   -.336E+00 0.918E+00 0.230E+01   0.163E-01 -.146E-01 -.976E+00
   0.667E+01 -.320E+00 -.265E+04   -.695E+01 -.295E-01 0.265E+04   0.332E+00 0.598E+00 0.246E+01   0.281E-01 -.735E-01 -.920E+00
   -.174E+01 -.556E+00 -.268E+04   0.173E+01 0.567E+00 0.268E+04   0.635E-01 0.599E-02 0.179E+01   -.486E-01 -.176E-01 -.858E+00
   0.111E+02 0.902E+00 -.827E+03   -.115E+02 -.931E+00 0.827E+03   0.361E+00 0.729E-02 0.152E+01   0.115E-01 0.490E-02 -.425E+00
   -.101E+02 -.137E+00 -.161E+04   0.119E+02 0.328E+00 0.163E+04   -.187E+01 -.190E+00 -.195E+02   0.142E+00 0.335E-02 -.148E+01
   0.689E+02 0.408E+00 -.148E+04   -.107E+03 -.186E+00 0.148E+04   0.385E+02 -.223E+00 0.511E+01   -.124E+00 -.377E-02 -.883E-01
   -.831E+02 0.560E+00 -.255E+03   0.905E+02 -.602E+00 0.256E+03   -.785E+01 0.428E-01 -.151E+01   0.287E+00 -.142E-02 0.322E-01
   -.288E+02 0.425E+00 0.240E+02   0.853E-13 -.283E-13 0.341E-12   0.286E+02 -.449E+00 -.130E+02   0.302E+00 0.172E-01 -.109E+02

 POSITION                                       TOTAL-FORCE (eV/Angst)
      0.00000      0.00000      5.28219         0.000344      0.000518     -0.019034
      2.93046      0.00000      5.28219        -0.010211      0.009628      0.009106
      5.86091      0.00000      5.28219         0.002160      0.007069      0.018398
      1.46523      2.53785      5.28219         0.001589     -0.010200      0.010165
      4.39568      2.53785      5.28219        -0.001129     -0.000439     -0.012976
      7.32614      2.53785      5.28219        -0.004843     -0.011745      0.020890
      2.93046      5.07570      5.28219         0.006434      0.000729      0.013880
      5.86091      5.07570      5.28219        -0.015234      0.004654      0.016569
      8.79137      5.07570      5.28219         0.003177      0.001549      0.011072
      1.46523      0.84595      7.67490        -0.002121      0.001622     -0.035658
      4.39568      0.84595      7.67490         0.005598     -0.038034     -0.057090
      7.32614      0.84595      7.67490        -0.002661     -0.001524     -0.044786
      2.93046      3.38380      7.67490        -0.037334      0.023339     -0.058559
      5.86091      3.38380      7.67490         0.034373      0.015661     -0.061217
      8.79137      3.38380      7.67490        -0.002155      0.003442      0.019850
      4.39568      5.92165      7.67490        -0.004249      0.002283     -0.041798
      7.32614      5.92165      7.67490         0.002300     -0.003640      0.019607
     10.25659      5.92165      7.67490        -0.002894     -0.000526      0.020016
      8.79137      1.69074     10.05145         0.001709     -0.015840      0.038513
      2.93556      1.69484     10.04095        -0.143571     -0.079994     -0.117449
      5.85581      1.69484     10.04095         0.153632     -0.082703     -0.094498
     10.25435      4.23104     10.05745         0.020300     -0.017569      0.036096
      4.39568      4.22386     10.04095         0.004562      0.172327     -0.105469
      7.32838      4.23104     10.05745        -0.036197     -0.015588      0.046806
     11.72283      6.76818     10.05145         0.013464      0.007238      0.042839
      5.85990      6.76818     10.05145        -0.014555      0.010448      0.037237
      8.79137      6.76501     10.05745        -0.009979      0.032685      0.042101
      0.00000      0.00000     12.43413        -0.004162      0.001930     -0.012946
      2.95009      0.02948     12.45917        -0.091366     -0.135299     -0.082419
      5.84128      0.02948     12.45917         0.085697     -0.168284     -0.112333
      1.50057      2.54011     12.45917        -0.153244      0.001394     -0.068596
      7.29079      2.54011     12.45917         0.206390     -0.010167     -0.133682
      2.94617      5.04396     12.45917        -0.093774      0.136256     -0.078638
      5.84520      5.04396     12.45917         0.078180      0.174912     -0.115792
      8.79137      5.07570     12.45428         0.005080      0.000188     -0.022562
      4.39568      2.53785     12.30230        -0.033077     -0.017190      0.912475
      4.57413      2.55157     13.99451         0.021334      0.005105     -0.161605
      4.17546      2.53922     16.04259         0.196996     -0.004045      0.146617
      5.13725      2.53387     16.22820        -0.180565     -0.000190     -0.025128
    total drift:                                0.087913     -0.006919      0.091041

  FREE ENERGIE OF THE ION-ELECTRON SYSTEM (eV)
  free  energy   TOTEN  =      -111.59968539 eV

  energy  without entropy=     -111.59968539  energy(sigma->0) =     -111.59968539

 stress matrix after NEB project (eV)
     -6.24739     -0.07622     -0.27224
     -0.07622     -5.87028      0.01051
     -0.27224      0.01051     -1.56198
  FORCES: max atom, RMS     0.245602    0.055505
  FORCE total and by dimension    0.346631    0.196996
  Stress total and by dimension    8.722954    6.247388
|           W    W    AA    RRRRR   N    N  II  N    N   GGGG   !!!           |
|           W    W   A  A   R    R  NN   N  II  NN   N  G    G  !!!           |
|           W    W  A    A  R    R  N N  N  II  N N  N  G       !!!           |
|           W WW W  AAAAAA  RRRRR   N  N N  II  N  N N  G  GGG   !            |
|           WW  WW  A    A  R   R   N   NN  II  N   NN  G    G                |
|           W    W  A    A  R    R  N    N  II  N    N   GGGG   !!!           |
|     Tetrahedron method does not include variations of the Fermi             |
|     occupations, so forces and stress will be inaccurate. We suggest        |
|     using a different smearing scheme ISMEAR = 1 or 2 for metals in         |
|     relaxations.                                                            |

 total charge

# of ion       s       p       d       tot
    1        0.416   0.202   9.177   9.795
    2        0.417   0.203   9.176   9.795
    3        0.416   0.203   9.176   9.796
    4        0.417   0.203   9.176   9.795
    5        0.416   0.203   9.176   9.795
    6        0.415   0.203   9.177   9.795
    7        0.416   0.203   9.176   9.795
    8        0.416   0.203   9.176   9.795
    9        0.413   0.203   9.178   9.794
   10        0.405   0.270   9.163   9.839
   11        0.406   0.269   9.166   9.841
   12        0.407   0.270   9.163   9.840
   13        0.407   0.268   9.167   9.841
   14        0.406   0.269   9.166   9.841
   15        0.402   0.271   9.163   9.836
   16        0.406   0.270   9.163   9.839
   17        0.402   0.271   9.163   9.835
   18        0.401   0.270   9.164   9.835
   19        0.402   0.265   9.168   9.835
   20        0.426   0.292   9.145   9.863
   21        0.426   0.292   9.145   9.863
   22        0.397   0.273   9.164   9.833
   23        0.426   0.291   9.145   9.862
   24        0.395   0.275   9.163   9.833
   25        0.402   0.265   9.168   9.835
   26        0.402   0.265   9.168   9.835
   27        0.396   0.274   9.163   9.833
   28        0.413   0.200   9.175   9.789
   29        0.431   0.205   9.166   9.802
   30        0.428   0.204   9.169   9.801
   31        0.433   0.205   9.164   9.803
   32        0.426   0.204   9.171   9.801
   33        0.431   0.205   9.166   9.801
   34        0.427   0.204   9.170   9.801
   35        0.415   0.200   9.173   9.788
   36        0.514   0.671   2.700   3.884
   37        1.611   3.245   0.000   4.856
   38        1.598   3.341   0.000   4.940
   39        0.628   0.115   0.000   0.743
tot         18.811  15.746 323.548 358.105

 BZINTS: Fermi energy:   -0.299200;  402.000000 electrons
         Band energy:-0.182031E+04;  BLOECHL correction:   -0.033244