 vasp.6.2.0 18Jan21 (build Jun 12 2021 23:27:24) complex

 executed on             LinuxIFC date 2022.05.26  20:23:17

 INCAR:
   ISMEAR = -5
   SIGMA = 0.1
   ISPIN = 1
   EDIFF = 1.d-5
   EDIFFG = -0.01
   NSW = 0
   NELM = 150
   ENCUT = 500
   ISIF = 2
   IBRION = 2
   LREAL = Auto
   ALGO = Fast
   ICHARG = 11
   LORBIT = 10
   LCHARG = .F.
   LWAVE = .F.

 POTCAR:    PAW_PBE Ag 02Apr2005
 POTCAR:    PAW_PBE Ir 06Sep2000
|           W    W    AA    RRRRR   N    N  II  N    N   GGGG   !!!           |
|           W    W   A  A   R    R  NN   N  II  NN   N  G    G  !!!           |
|           W    W  A    A  R    R  N N  N  II  N N  N  G       !!!           |
|           W WW W  AAAAAA  RRRRR   N  N N  II  N  N N  G  GGG   !            |
|           WW  WW  A    A  R   R   N   NN  II  N   NN  G    G                |
|           W    W  A    A  R    R  N    N  II  N    N   GGGG   !!!           |
|     For optimal performance we recommend to set                             |
|       NCORE = 2 up to number-of-cores-per-socket                            |
|     This setting can greatly improve the performance of VASP for DFT.       |
|     The default, NCORE=1 might be grossly inefficient on modern             |
|     multi-core architectures or massively parallel machines. Do your        |
|     Unfortunately you need to use the default for GW and RPA                |
|     calculations (for HF NCORE is supported but not extensively tested      |
|     yet).                                                                   |

 POTCAR:    PAW_PBE Ag 02Apr2005
   VRHFIN =Ag : s1 d10

   TITEL  = PAW_PBE Ag 02Apr2005
   POMASS =  107.868; ZVAL   =   11.000    mass and valenz
   ENMAX  =  249.844; ENMIN  =  187.383 eV

 POTCAR:    PAW_PBE Ir 06Sep2000
   VRHFIN =Ir: s1d8

   TITEL  = PAW_PBE Ir 06Sep2000
   POMASS =  192.220; ZVAL   =    9.000    mass and valenz
   ENMAX  =  210.864; ENMIN  =  158.148 eV

 Optimization of the real space projectors (new method)

 maximal supplied QI-value         = 15.12
 optimisation between [QCUT,QGAM] = [ 11.34, 22.83] = [ 36.00,145.93] Ry
 Optimized for a Real-space Cutoff    1.43 Angstroem

   l    n(q)    QCUT    max X(q) W(low)/X(q) W(high)/X(q)  e(spline)
   2      9    11.338    53.897    0.16E-03    0.20E-03    0.28E-06
   2      9    11.338    52.416    0.16E-03    0.20E-03    0.29E-06
   0     10    11.338   122.045    0.31E-04    0.76E-04    0.15E-06
   0     10    11.338    73.629    0.30E-04    0.72E-04    0.15E-06
   1      9    11.338    15.255    0.20E-03    0.19E-04    0.17E-06
   1      9    11.338     9.562    0.16E-03    0.15E-04    0.14E-06
 Optimization of the real space projectors (new method)

 maximal supplied QI-value         = 14.36
 optimisation between [QCUT,QGAM] = [ 11.35, 22.84] = [ 36.05,146.02] Ry
 Optimized for a Real-space Cutoff    1.52 Angstroem

   l    n(q)    QCUT    max X(q) W(low)/X(q) W(high)/X(q)  e(spline)
   2      9    11.346   134.116    0.47E-03    0.13E-03    0.92E-06
   2      9    11.346   130.192    0.47E-03    0.13E-03    0.92E-06
   0     10    11.346    60.310    0.74E-04    0.13E-03    0.69E-06
   0     10    11.346    39.218    0.68E-04    0.12E-03    0.65E-06
   1     10    11.346    18.439    0.15E-03    0.34E-04    0.20E-06
   1     10    11.346    12.760    0.12E-03    0.31E-04    0.16E-06
  PAW_PBE Ag 02Apr2005                  :
  PAW_PBE Ir 06Sep2000                  :

 POSCAR: Ag-Ir
  positions in direct lattice
  velocities in cartesian coordinates
 exchange correlation table for  LEXCH =        8
   RHO(1)=    0.500       N(1)  =     2000
   RHO(2)=  100.500       N(2)  =     4000

 VTST: version 3.2, (02/03/18)

 CHAIN: initializing optimizer

 OPT: Using VASP Conjugate-Gradient optimizer
 CHAIN: Read ICHAIN            0

 POSCAR: Ag-Ir
  positions in direct lattice
  velocities in cartesian coordinates

 ion  position               nearest neighbor table
   1  0.000  0.000  0.238-   2 2.93   8 2.93   7 2.93   6 2.93   4 2.93  12 2.93  16 2.93  10 2.93
                             3 2.93
   2  0.333  0.000  0.238-   1 2.93   8 2.93   9 2.93   3 2.93   4 2.93   5 2.93  10 2.93  17 2.93
                            11 2.93
   3  0.667  0.000  0.238-   9 2.93   2 2.93   5 2.93  11 2.93   7 2.93  18 2.93   1 2.93   6 2.93
                            12 2.93
   4  0.000  0.333  0.238-   5 2.93   6 2.93   2 2.93   1 2.93   7 2.93  13 2.93  15 2.93   9 2.93
                            10 2.93
   5  0.333  0.333  0.238-   4 2.93   3 2.93   7 2.93   2 2.93   8 2.93  14 2.93  13 2.93  11 2.93
                             6 2.93
   6  0.667  0.333  0.238-   4 2.93   9 2.93   1 2.93  15 2.93   8 2.93  12 2.93   3 2.93   5 2.93
                            14 2.93
   7  0.000  0.667  0.238-   8 2.93   1 2.93   5 2.93   3 2.93   4 2.93  16 2.93  18 2.93  13 2.93
                             9 2.93
   8  0.333  0.667  0.238-   7 2.93   1 2.93   2 2.93   9 2.93   5 2.93  16 2.93   6 2.93  17 2.93
                            14 2.93
   9  0.667  0.667  0.238-   3 2.93   2 2.93   8 2.93   6 2.93  17 2.93   4 2.93  15 2.93   7 2.93
                            18 2.93
  10  0.111  0.111  0.346-  20 2.89  12 2.93  16 2.93  15 2.93  17 2.93  13 2.93  11 2.93   2 2.93
                             1 2.93   4 2.93  19 2.93  26 2.93
  11  0.444  0.111  0.346-  21 2.90  20 2.90  27 2.92  14 2.93  17 2.93  18 2.93   3 2.93  12 2.93
                            13 2.93  10 2.93   5 2.93   2 2.93
  12  0.778  0.111  0.346-  21 2.89  10 2.93  16 2.93  18 2.93  15 2.93  11 2.93   1 2.93  14 2.93
                             6 2.93   3 2.93  25 2.93  19 2.93
  13  0.111  0.444  0.346-  20 2.90  23 2.90  22 2.92  15 2.93  14 2.93  18 2.93  10 2.93  11 2.93
                            16 2.93   4 2.93   5 2.93   7 2.93
  14  0.444  0.444  0.346-  23 2.90  21 2.90  24 2.92  13 2.93  11 2.93  16 2.93   5 2.93  12 2.93
                            17 2.93   8 2.93  15 2.93   6 2.93
  15  0.778  0.444  0.346-  24 2.92  22 2.92  19 2.93  13 2.93  10 2.93  12 2.93  17 2.93  18 2.93
                             4 2.93   6 2.93   9 2.93  14 2.93
  16  0.111  0.778  0.346-  23 2.89  18 2.93  12 2.93  10 2.93  14 2.93  17 2.93  13 2.93   7 2.93
                             8 2.93   1 2.93  26 2.93  25 2.93
  17  0.444  0.778  0.346-  27 2.92  24 2.92  26 2.93  11 2.93  10 2.93   9 2.93  18 2.93  15 2.93
                            16 2.93   2 2.93  14 2.93   8 2.93
  18  0.778  0.778  0.346-  22 2.92  27 2.92  25 2.93  16 2.93  12 2.93  13 2.93  11 2.93  17 2.93
                            15 2.93   7 2.93   3 2.93   9 2.93
  19  0.888  0.223  0.454-  28 2.90  24 2.92  22 2.92  15 2.93  20 2.93  21 2.93  10 2.93  12 2.93
                            32 2.94  31 2.94  26 2.94  25 2.94
  20  0.222  0.222  0.452-  36 2.77  10 2.89  13 2.90  11 2.90  31 2.92  29 2.92  19 2.93  26 2.93
                            27 2.93  22 2.93  21 2.94  23 2.94
  21  0.556  0.222  0.452-  36 2.77  12 2.89  11 2.90  14 2.90  30 2.92  32 2.92  25 2.93  19 2.93
                            27 2.93  24 2.93  20 2.94  23 2.94
  22  0.888  0.556  0.453-  35 2.90  18 2.92  15 2.92  13 2.92  24 2.92  27 2.92  25 2.92  19 2.92
                            33 2.93  31 2.93  23 2.93  20 2.93
  23  0.222  0.556  0.452-  36 2.77  16 2.89  14 2.90  13 2.90  34 2.92  33 2.92  26 2.93  25 2.93
                            22 2.93  24 2.93  21 2.94  20 2.94
  24  0.556  0.556  0.453-  35 2.90  15 2.92  17 2.92  14 2.92  27 2.92  22 2.92  19 2.92  26 2.92
                            32 2.93  34 2.93  23 2.93  21 2.93
  25  0.888  0.888  0.454-  28 2.90  22 2.92  27 2.92  18 2.93  23 2.93  21 2.93  16 2.93  12 2.93
                            33 2.94  30 2.94  26 2.94  19 2.94
  26  0.223  0.888  0.454-  28 2.90  27 2.92  24 2.92  17 2.93  23 2.93  20 2.93  16 2.93  10 2.93
                            34 2.94  29 2.94  25 2.94  19 2.94
  27  0.556  0.888  0.453-  35 2.90  17 2.92  18 2.92  11 2.92  24 2.92  22 2.92  26 2.92  25 2.92
                            29 2.93  30 2.93  20 2.93  21 2.93
  28  0.000  0.000  0.560-  26 2.90  25 2.90  19 2.90  29 2.96  34 2.96  33 2.96  32 2.96  31 2.96
                            30 2.96
  29  0.333  0.007  0.561-  31 2.87  30 2.88  36 2.88  20 2.92  27 2.93  26 2.94  28 2.96  35 2.96
                            34 3.04
  30  0.660  0.007  0.561-  32 2.87  29 2.88  36 2.88  21 2.92  27 2.93  25 2.94  28 2.96  35 2.96
                            33 3.04
  31  0.007  0.333  0.561-  29 2.87  33 2.88  36 2.88  20 2.92  22 2.93  19 2.94  28 2.96  35 2.96
                            32 3.04
  32  0.660  0.333  0.561-  30 2.87  34 2.88  36 2.88  21 2.92  24 2.93  19 2.94  28 2.96  35 2.96
                            31 3.04
  33  0.007  0.660  0.561-  34 2.87  31 2.88  36 2.88  23 2.92  22 2.93  25 2.94  28 2.96  35 2.96
                            30 3.04
  34  0.333  0.660  0.561-  33 2.87  32 2.88  36 2.88  23 2.92  24 2.93  26 2.94  28 2.96  35 2.96
                            29 3.04
  35  0.667  0.667  0.560-  24 2.90  27 2.90  22 2.90  30 2.96  32 2.96  29 2.96  34 2.96  31 2.96
                            33 2.96
  36  0.333  0.333  0.551-  21 2.77  20 2.77  23 2.77  31 2.88  30 2.88  33 2.88  29 2.88  34 2.88
                            32 2.88

  LATTYP: Found a hexagonal cell.
 ALAT       =     8.7913665772
 C/A-ratio  =     2.5227160501

  Lattice vectors:

 A1 = (  -4.3956832886,  -7.6135467898,   0.0000000000)
 A2 = (   8.7913665771,   0.0000000000,   0.0000000000)
 A3 = (   0.0000000000,   0.0000000000,  22.1781215668)

Analysis of symmetry for initial positions (statically):
 Subroutine PRICEL returns:
 Original cell was already a primitive cell.

 Routine SETGRP: Setting up the symmetry group for a
 hexagonal supercell.

 Subroutine GETGRP returns: Found  6 space group operations
 (whereof  6 operations were pure point group operations)
 out of a pool of 24 trial point group operations.

The static configuration has the point symmetry C_3v.

Analysis of symmetry for dynamics (positions and initial velocities):
 Subroutine PRICEL returns:
 Original cell was already a primitive cell.

[...]

The dynamic configuration has the point symmetry C_3v.

Analysis of constrained symmetry for selective dynamics:
 Subroutine PRICEL returns:
 Original cell was already a primitive cell.

 Routine SETGRP: Setting up the symmetry group for a
 hexagonal supercell.

 Subroutine GETGRP returns: Found  6 space group operations
 (whereof  6 operations were pure point group operations)
 out of a pool of 24 trial point group operations.

The constrained configuration has the point symmetry C_3v.

 Subroutine INISYM returns: Found  6 space group operations
 (whereof  6 operations are pure point group operations),
 and found     1 'primitive' translations

                                     Primitive cell

  volume of cell :    1484.4589

  direct lattice vectors                    reciprocal lattice vectors
     8.791366577  0.000000000  0.000000000     0.113747958 -0.065672414  0.000000000
     4.395683289  7.613546790  0.000000000     0.000000000  0.131344829  0.000000000
[...]
     15      -4.7473      2.00000
     16      -4.7364      2.00000
     17      -4.7224      2.00000
     18      -4.7003      2.00000
     19      -4.6955      2.00000
     20      -4.6931      2.00000
     21      -4.6841      2.00000
     22      -4.6595      2.00000
     23      -4.6480      2.00000
     24      -4.6344      2.00000
     25      -4.5983      2.00000
     26      -4.5813      2.00000
     27      -4.5690      2.00000
     28      -4.5543      2.00000
     29      -4.5494      2.00000
     30      -4.5225      2.00000
     31      -4.5198      2.00000
     32      -4.4831      2.00000
     33      -4.4705      2.00000
     34      -4.4198      2.00000
     35      -4.4029      2.00000
     36      -4.3855      2.00000
     37      -4.3557      2.00000
     38      -4.3254      2.00000
     39      -4.3193      2.00000
     40      -4.3089      2.00000
     41      -4.2917      2.00000
     42      -4.2770      2.00000
     43      -4.2095      2.00000
     44      -4.1844      2.00000
     45      -4.1731      2.00000
     46      -4.1617      2.00000
     47      -4.1518      2.00000
     48      -4.1483      2.00000
     49      -4.1398      2.00000
     50      -4.1302      2.00000
     51      -4.1161      2.00000
     52      -4.1087      2.00000
     53      -4.0385      2.00000
     54      -4.0309      2.00000
     55      -4.0267      2.00000
     56      -4.0203      2.00000
     57      -4.0038      2.00000
     58      -3.9881      2.00000
     59      -3.9538      2.00000
     60      -3.9453      2.00000
[...]
    238       7.2307      0.00000
    239       7.2369      0.00000
    240       7.2418      0.00000
    241       7.2806      0.00000
    242       7.3150      0.00000
    243       7.3697      0.00000
    244       7.4199      0.00000
    245       7.5610      0.00000
    246       7.5730      0.00000
    247       7.6392      0.00000
    248       7.6738      0.00000
    249       7.7644      0.00000
    250       7.9643      0.00000
    251       8.0380      0.00000
    252       8.1595      0.00000

 soft charge-density along one line, spin component           1
         0         1         2         3         4         5         6         7         8         9
 total charge-density along one line

------------------------ aborting loop because EDIFF is reached ----------------------------------------

 total charge

# of ion       s       p       d       tot
    1        0.415   0.204   9.177   9.796
    2        0.419   0.202   9.178   9.799
    3        0.419   0.202   9.178   9.799
    4        0.419   0.202   9.178   9.799
    5        0.413   0.204   9.178   9.796
    6        0.419   0.202   9.178   9.799
    7        0.419   0.202   9.178   9.799
    8        0.419   0.202   9.178   9.799
    9        0.417   0.203   9.178   9.797
   10        0.406   0.270   9.162   9.839
   11        0.408   0.268   9.168   9.844
   12        0.406   0.270   9.162   9.839
   13        0.408   0.268   9.168   9.844
   14        0.408   0.268   9.168   9.844
   15        0.404   0.268   9.167   9.839
   16        0.406   0.270   9.162   9.839
   17        0.404   0.268   9.167   9.839
   18        0.404   0.268   9.167   9.839
   19        0.402   0.267   9.167   9.835
   20        0.412   0.295   9.156   9.863
   21        0.412   0.295   9.156   9.863
   22        0.398   0.272   9.169   9.839
   23        0.412   0.295   9.156   9.863
   24        0.398   0.272   9.169   9.839
   25        0.402   0.267   9.167   9.835
   26        0.402   0.267   9.167   9.835
   27        0.398   0.272   9.169   9.839
   28        0.414   0.196   9.182   9.791
   29        0.414   0.214   9.170   9.798
   30        0.414   0.214   9.170   9.798
   31        0.414   0.214   9.170   9.798
   32        0.414   0.214   9.170   9.798
   33        0.414   0.214   9.170   9.798
   34        0.414   0.214   9.170   9.798
   35        0.406   0.198   9.183   9.787
   36        0.578   0.257   7.088   7.923
tot         14.935   8.675 328.041 351.652

  FORCE on cell =-STRESS in cart. coord.  units (eV):
  Direction    XX          YY          ZZ          XY          YZ          ZX
  Alpha Z   751.94559   751.94559   751.94559
  Ewald  121284.93994121284.93992************     0.00001     0.00000    -0.00002
  Hartree131423.87839131423.87837************     0.00000    -0.00000    -0.00000
  E(xc)   -2069.85904 -2069.85903 -2075.63707    -0.00001     0.00000     0.00000
  Local  ************************264237.02608     0.00020    -0.00004    -0.00004
  n-local  -346.56370  -325.15051  -341.23572    11.87606    -0.45802     0.62901
  augment  3259.83014  3259.83030  3269.82629    -0.00014     0.00001     0.00003
  Kinetic  4879.44050  4888.50499  4913.16073     6.03853     0.58107    -0.00373
  Fock        0.00000     0.00000     0.00000     0.00000     0.00000     0.00000
  Total      -8.97673    -8.97673     0.66570    -0.00000     0.00000    -0.00000
  in kB      -9.68859    -9.68859     0.71849    -0.00000     0.00000    -0.00000

 VOLUME and BASIS-vectors are now :
  energy-cutoff  :      500.00
  volume of cell :     1484.46
      direct lattice vectors                 reciprocal lattice vectors
     8.791366577  0.000000000  0.000000000     0.113747958 -0.065672414  0.000000000
     4.395683289  7.613546790  0.000000000     0.000000000  0.131344829  0.000000000
     0.000000000  0.000000000 22.178121567     0.000000000  0.000000000  0.045089481

  length of vectors
     8.791366577  8.791366577 22.178121567     0.131344829  0.131344829  0.045089481

 FORCES acting on ions
    electron-ion (+dipol)            ewald-force                    non-local-force                 convergence-correction
   0.459E-04 -.283E-04 0.250E+04   -.954E-04 0.593E-04 -.250E+04   -.947E-19 -.125E-17 -.219E+01   -.126E-03 -.180E-03 -.243E+00
   0.413E+00 0.443E+00 0.250E+04   -.491E+00 -.417E+00 -.250E+04   0.436E-01 -.232E-01 -.161E+01   0.328E-01 0.220E-02 -.146E+00
   -.413E+00 0.443E+00 0.250E+04   0.491E+00 -.417E+00 -.250E+04   -.436E-01 -.232E-01 -.161E+01   -.333E-01 0.418E-02 -.146E+00
   0.590E+00 0.136E+00 0.250E+04   -.607E+00 -.217E+00 -.250E+04   0.173E-02 0.494E-01 -.161E+01   0.185E-01 0.275E-01 -.146E+00
   -.793E-05 -.200E-04 0.250E+04   0.981E-04 -.197E-05 -.250E+04   0.162E-17 0.647E-18 -.161E+01   0.630E-02 0.385E-02 -.208E+00
   -.590E+00 0.136E+00 0.250E+04   0.606E+00 -.217E+00 -.250E+04   -.173E-02 0.494E-01 -.161E+01   -.200E-01 0.284E-01 -.145E+00
   0.177E+00 -.579E+00 0.250E+04   -.116E+00 0.634E+00 -.250E+04   -.419E-01 -.262E-01 -.161E+01   -.126E-01 -.304E-01 -.146E+00
   -.177E+00 -.579E+00 0.250E+04   0.115E+00 0.634E+00 -.250E+04   0.419E-01 -.262E-01 -.161E+01   0.143E-01 -.315E-01 -.145E+00
   0.365E-04 -.130E-04 0.250E+04   0.792E-04 -.643E-04 -.250E+04   0.166E-17 0.156E-17 -.183E+01   -.670E-02 -.346E-02 -.195E+00
   0.594E+01 0.343E+01 0.826E+03   -.565E+01 -.326E+01 -.826E+03   -.287E+00 -.166E+00 -.819E+00   0.104E-01 0.603E-02 0.164E+00
   -.287E-04 0.411E+01 0.832E+03   0.409E-04 -.419E+01 -.832E+03   0.850E-14 0.129E-02 -.506E+00   0.644E-02 0.501E-01 0.181E+00
   -.594E+01 0.343E+01 0.826E+03   0.565E+01 -.326E+01 -.826E+03   0.287E+00 -.166E+00 -.819E+00   -.122E-01 0.752E-02 0.165E+00
   0.356E+01 -.205E+01 0.832E+03   -.363E+01 0.210E+01 -.832E+03   0.112E-02 -.647E-03 -.506E+00   0.465E-01 -.195E-01 0.181E+00
   -.356E+01 -.205E+01 0.832E+03   0.363E+01 0.210E+01 -.832E+03   -.112E-02 -.647E-03 -.506E+00   -.354E-01 -.202E-01 0.181E+00
   0.161E-04 0.184E+01 0.827E+03   -.108E-03 -.179E+01 -.827E+03   0.132E-12 0.201E-01 -.662E+00   -.196E-02 -.853E-01 0.104E+00
   -.815E-05 -.686E+01 0.826E+03   0.205E-04 0.652E+01 -.826E+03   0.218E-11 0.331E+00 -.819E+00   0.385E-03 -.144E-01 0.165E+00
   0.159E+01 -.920E+00 0.827E+03   -.155E+01 0.894E+00 -.827E+03   0.174E-01 -.100E-01 -.662E+00   -.749E-01 0.409E-01 0.104E+00
   -.159E+01 -.920E+00 0.827E+03   0.155E+01 0.894E+00 -.827E+03   -.174E-01 -.100E-01 -.662E+00   0.748E-01 0.431E-01 0.104E+00
   0.407E-04 0.268E+01 -.876E+03   -.128E-03 -.262E+01 0.876E+03   -.336E-12 -.512E-01 0.464E+00   -.637E-02 -.188E-01 0.299E+00
   0.626E+01 0.362E+01 -.846E+03   -.563E+01 -.325E+01 0.846E+03   -.737E+00 -.426E+00 -.881E+00   0.107E+00 0.618E-01 0.341E+00
   -.626E+01 0.362E+01 -.846E+03   0.563E+01 -.325E+01 0.846E+03   0.737E+00 -.426E+00 -.881E+00   -.105E+00 0.629E-01 0.341E+00
   -.118E+01 0.684E+00 -.865E+03   0.637E+00 -.368E+00 0.864E+03   0.359E+00 -.207E+00 0.517E+00   0.168E+00 -.102E+00 0.293E+00
   -.545E-04 -.723E+01 -.846E+03   0.424E-04 0.651E+01 0.846E+03   0.559E-11 0.851E+00 -.881E+00   0.216E-02 -.122E+00 0.341E+00
   0.118E+01 0.684E+00 -.865E+03   -.637E+00 -.368E+00 0.864E+03   -.359E+00 -.207E+00 0.517E+00   -.179E+00 -.103E+00 0.294E+00
   -.232E+01 -.134E+01 -.876E+03   0.227E+01 0.131E+01 0.876E+03   0.443E-01 0.256E-01 0.464E+00   0.104E-01 0.587E-02 0.298E+00
   0.232E+01 -.134E+01 -.876E+03   -.227E+01 0.131E+01 0.876E+03   -.443E-01 0.256E-01 0.464E+00   -.198E-01 0.374E-02 0.299E+00
   0.198E-04 -.137E+01 -.865E+03   0.110E-03 0.735E+00 0.864E+03   0.272E-11 0.415E+00 0.517E+00   -.504E-02 0.197E+00 0.294E+00
   0.541E-04 -.368E-04 -.252E+04   -.114E-03 0.774E-04 0.251E+04   -.623E-17 0.602E-17 0.208E+01   -.148E-04 -.144E-03 0.250E+00
   0.236E+01 0.556E+01 -.253E+04   -.166E+01 -.449E+01 0.253E+04   -.741E+00 -.109E+01 0.167E+01   0.406E-01 0.131E-01 0.278E+00
   -.236E+01 0.556E+01 -.253E+04   0.166E+01 -.449E+01 0.253E+04   0.741E+00 -.109E+01 0.167E+01   -.409E-01 0.148E-01 0.278E+00
   0.600E+01 -.742E+00 -.253E+04   -.472E+01 0.810E+00 0.253E+04   -.131E+01 -.988E-01 0.167E+01   0.318E-01 0.288E-01 0.278E+00
   -.600E+01 -.742E+00 -.253E+04   0.472E+01 0.810E+00 0.253E+04   0.131E+01 -.988E-01 0.167E+01   -.329E-01 0.296E-01 0.277E+00
   0.364E+01 -.482E+01 -.253E+04   -.306E+01 0.368E+01 0.253E+04   -.570E+00 0.118E+01 0.167E+01   -.714E-02 -.422E-01 0.278E+00
   -.364E+01 -.482E+01 -.253E+04   0.306E+01 0.368E+01 0.253E+04   0.570E+00 0.118E+01 0.167E+01   0.879E-02 -.432E-01 0.277E+00
   0.246E-04 -.131E-04 -.251E+04   0.105E-03 -.653E-04 0.251E+04   -.273E-17 -.121E-17 0.221E+01   -.667E-02 -.342E-02 0.445E+00
   -.248E-04 -.147E-04 -.200E+04   0.867E-04 0.108E-04 0.199E+04   0.208E-17 0.225E-17 0.200E+01   0.231E-02 0.139E-02 0.369E+00
   0.320E-03 -.707E-03 -.629E+00   0.423E-13 0.168E-12 -.227E-11   -.334E-15 0.104E-17 -.464E+01   -.183E-01 -.734E-02 0.536E+01

 POSITION                                       TOTAL-FORCE (eV/Angst)
      0.00000      0.00000      5.28219        -0.000000      0.000000      0.051984
      2.93046      0.00000      5.28219        -0.001161      0.005974      0.028366
      5.86091      0.00000      5.28219         0.001161      0.005974      0.028366
      1.46523      2.53785      5.28219         0.004593     -0.003993      0.028366
      4.39568      2.53785      5.28219        -0.000000      0.000000      0.014686
      7.32614      2.53785      5.28219        -0.004593     -0.003993      0.028366
      2.93046      5.07570      5.28219         0.005755     -0.001981      0.028366
      5.86091      5.07570      5.28219        -0.005755     -0.001981      0.028366
      8.79137      5.07570      5.28219        -0.000000      0.000000      0.032499
      1.46523      0.84595      7.67490         0.018638      0.010761      0.001230
      4.39568      0.84595      7.67490        -0.000000     -0.036849     -0.094427
      7.32614      0.84595      7.67490        -0.018638      0.010761      0.001230
      2.93046      3.38380      7.67490        -0.031912      0.018424     -0.094427
      5.86091      3.38380      7.67490         0.031912      0.018424     -0.094427
      8.79137      3.38380      7.67490        -0.000000     -0.014906      0.001836
      4.39568      5.92165      7.67490        -0.000000     -0.021521      0.001230
      7.32614      5.92165      7.67490        -0.012909      0.007453      0.001836
     10.25659      5.92165      7.67490         0.012909      0.007453      0.001836
      8.79137      1.70006     10.06849        -0.000000     -0.003920     -0.011915
      2.92657      1.68966     10.02287        -0.000952     -0.000550     -0.006037
      5.86479      1.68966     10.02287         0.000952     -0.000550     -0.006037
     10.25237      4.23218     10.05185        -0.015579      0.008994     -0.012536
      4.39568      4.23423     10.02287         0.000000      0.001100     -0.006037
      7.33036      4.23218     10.05185         0.015579      0.008994     -0.012536
     11.71475      6.76352     10.06849         0.003395      0.001960     -0.011915
      5.86798      6.76352     10.06849        -0.003395      0.001960     -0.011915
      8.79137      6.76272     10.05185        -0.000000     -0.017989     -0.012536
      0.00000      0.00000     12.42216        -0.000000      0.000000      0.022769
      2.95716      0.04978     12.43839        -0.003742     -0.001470      0.005019
      5.83420      0.04978     12.43839         0.003742     -0.001470      0.005019
      1.52169      2.53609     12.43839        -0.003144     -0.002505      0.005019
      7.26967      2.53609     12.43839         0.003144     -0.002505      0.005019
      2.96021      5.02768     12.43839         0.000598      0.003975      0.005019
      5.83115      5.02768     12.43839        -0.000598      0.003975      0.005019
      8.79137      5.07570     12.41166        -0.000000      0.000000     -0.000242
      4.39568      2.53785     12.21369        -0.000000      0.000000      0.043541
    total drift:                               -0.017974     -0.008051      0.083355

  FREE ENERGIE OF THE ION-ELECTRON SYSTEM (eV)
  free  energy   TOTEN  =       -95.99671118 eV

  energy  without entropy=      -95.99671118  energy(sigma->0) =      -95.99671118

 stress matrix after NEB project (eV)
     -8.97673     -0.00000     -0.00000
     -0.00000     -8.97673      0.00000
      0.00000      0.00000      0.66570
  FORCES: max atom, RMS     0.043541    0.011413
  FORCE total and by dimension    0.068481    0.043541
  Stress total and by dimension   12.712457    8.976731
|           W    W    AA    RRRRR   N    N  II  N    N   GGGG   !!!           |
|           W    W   A  A   R    R  NN   N  II  NN   N  G    G  !!!           |
|           W    W  A    A  R    R  N N  N  II  N N  N  G       !!!           |
|           W WW W  AAAAAA  RRRRR   N  N N  II  N  N N  G  GGG   !            |
|           WW  WW  A    A  R   R   N   NN  II  N   NN  G    G                |
|           W    W  A    A  R    R  N    N  II  N    N   GGGG   !!!           |
|     Tetrahedron method does not include variations of the Fermi             |
|     occupations, so forces and stress will be inaccurate. We suggest        |
|     using a different smearing scheme ISMEAR = 1 or 2 for metals in         |
|     relaxations.                                                            |

 total charge

# of ion       s       p       d       tot
    1        0.415   0.204   9.177   9.796
    2        0.419   0.202   9.178   9.799
    3        0.419   0.202   9.178   9.799
    4        0.419   0.202   9.178   9.799
    5        0.413   0.204   9.178   9.796
    6        0.419   0.202   9.178   9.799
    7        0.419   0.202   9.178   9.799
    8        0.419   0.202   9.178   9.799
    9        0.417   0.203   9.178   9.797
   10        0.406   0.270   9.162   9.839
   11        0.408   0.268   9.168   9.844
   12        0.406   0.270   9.162   9.839
   13        0.408   0.268   9.168   9.844
   14        0.408   0.268   9.168   9.844
   15        0.404   0.268   9.167   9.839
   16        0.406   0.270   9.162   9.839
   17        0.404   0.268   9.167   9.839
   18        0.404   0.268   9.167   9.839
   19        0.402   0.267   9.167   9.835
   20        0.412   0.295   9.156   9.863
   21        0.412   0.295   9.156   9.863
   22        0.398   0.272   9.169   9.839
   23        0.412   0.295   9.156   9.863
   24        0.398   0.272   9.169   9.839
   25        0.402   0.267   9.167   9.835
   26        0.402   0.267   9.167   9.835
   27        0.398   0.272   9.169   9.839
   28        0.414   0.196   9.182   9.791
   29        0.414   0.214   9.170   9.798
   30        0.414   0.214   9.170   9.798
   31        0.414   0.214   9.170   9.798
   32        0.414   0.214   9.170   9.798
   33        0.414   0.214   9.170   9.798
   34        0.414   0.214   9.170   9.798
   35        0.406   0.198   9.183   9.787
   36        0.578   0.257   7.088   7.923
tot         14.935   8.675 328.041 351.652

 BZINTS: Fermi energy:    0.785031;  394.000000 electrons
         Band energy:-0.126159E+04;  BLOECHL correction:   -0.052777