 vasp.6.2.0 18Jan21 (build Jun 12 2021 23:27:24) complex

 executed on             LinuxIFC date 2022.05.30  15:47:09

 INCAR:
   ISMEAR = -5
   SIGMA = 0.1
   ISPIN = 1
   EDIFF = 1.d-5
   EDIFFG = -0.01
   NSW = 0
   NELM = 150
   ENCUT = 500
   ISIF = 2
   IBRION = 2
   LREAL = Auto
   ALGO = Fast
   ICHARG = 11
   LORBIT = 10
   LCHARG = .F.
   LWAVE = .F.

 POTCAR:    PAW_PBE Au 04Oct2007
 POTCAR:    PAW_PBE V 08Apr2002
 POTCAR:    PAW_PBE O 08Apr2002
|           W    W    AA    RRRRR   N    N  II  N    N   GGGG   !!!           |
|           W    W   A  A   R    R  NN   N  II  NN   N  G    G  !!!           |
|           W    W  A    A  R    R  N N  N  II  N N  N  G       !!!           |
|           W WW W  AAAAAA  RRRRR   N  N N  II  N  N N  G  GGG   !            |
|           WW  WW  A    A  R   R   N   NN  II  N   NN  G    G                |
|           W    W  A    A  R    R  N    N  II  N    N   GGGG   !!!           |
|     For optimal performance we recommend to set                             |
|       NCORE = 2 up to number-of-cores-per-socket                            |
|     This setting can greatly improve the performance of VASP for DFT.       |
|     The default, NCORE=1 might be grossly inefficient on modern             |
|     multi-core architectures or massively parallel machines. Do your        |
|     Unfortunately you need to use the default for GW and RPA                |
|     calculations (for HF NCORE is supported but not extensively tested      |
|     yet).                                                                   |

 POTCAR:    PAW_PBE Au 04Oct2007
   VRHFIN =Au: s1d10

   TITEL  = PAW_PBE Au 04Oct2007
   POMASS =  196.966; ZVAL   =   11.000    mass and valenz
   ENMAX  =  229.943; ENMIN  =  172.457 eV

 POTCAR:    PAW_PBE V 08Apr2002
   VRHFIN =V: p6 d4 s1

   TITEL  = PAW_PBE V 08Apr2002
   POMASS =   50.941; ZVAL   =    5.000    mass and valenz
   ENMAX  =  192.543; ENMIN  =  144.408 eV

 POTCAR:    PAW_PBE O 08Apr2002
   VRHFIN =O: s2p4

   TITEL  = PAW_PBE O 08Apr2002
   POMASS =   16.000; ZVAL   =    6.000    mass and valenz
   ENMAX  =  400.000; ENMIN  =  300.000 eV

 Optimization of the real space projectors (new method)

 maximal supplied QI-value         = 15.12
 optimisation between [QCUT,QGAM] = [ 11.34, 22.83] = [ 36.00,145.93] Ry
 Optimized for a Real-space Cutoff    1.39 Angstroem

   l    n(q)    QCUT    max X(q) W(low)/X(q) W(high)/X(q)  e(spline)
   2      9    11.338    60.898    0.39E-03    0.42E-03    0.21E-06
   2      9    11.338    58.894    0.40E-03    0.42E-03    0.22E-06
   0      9    11.338   109.617    0.13E-03    0.20E-04    0.13E-06
   0      9    11.338    75.026    0.13E-03    0.20E-04    0.13E-06
   1      9    11.338    16.344    0.33E-04    0.24E-03    0.18E-06
   1      9    11.338    10.160    0.26E-04    0.19E-03    0.15E-06
 Optimization of the real space projectors (new method)

[...]

   l    n(q)    QCUT    max X(q) W(low)/X(q) W(high)/X(q)  e(spline)
   2     10    11.327    96.114    0.36E-03    0.35E-03    0.42E-06
   2     10    11.327    88.986    0.37E-03    0.35E-03    0.42E-06
   0     11    11.327    20.919    0.40E-04    0.56E-04    0.79E-06
   0     11    11.327     9.593    0.30E-04    0.41E-04    0.60E-06
   1     10    11.327    11.615    0.15E-03    0.10E-03    0.19E-06
   1     10    11.327     7.031    0.11E-03    0.73E-04    0.14E-06
 Optimization of the real space projectors (new method)

 maximal supplied QI-value         = 24.76
 optimisation between [QCUT,QGAM] = [ 11.39, 22.77] = [ 36.31,145.25] Ry
 Optimized for a Real-space Cutoff    1.00 Angstroem

   l    n(q)    QCUT    max X(q) W(low)/X(q) W(high)/X(q)  e(spline)
   0      7    11.387    20.381    0.39E-03    0.13E-02    0.15E-06
   0      7    11.387    15.268    0.42E-03    0.14E-02    0.17E-06
   1      6    11.387     5.964    0.41E-03    0.11E-02    0.17E-06
   1      6    11.387     5.382    0.39E-03    0.87E-03    0.15E-06
  PAW_PBE Au 04Oct2007                  :
  PAW_PBE V 08Apr2002                   :
  PAW_PBE O 08Apr2002                   :

 POSCAR: Au-V-O2
  positions in direct lattice
  velocities in cartesian coordinates
 exchange correlation table for  LEXCH =        8
   RHO(1)=    0.500       N(1)  =     2000
   RHO(2)=  100.500       N(2)  =     4000

 VTST: version 3.2, (02/03/18)

 CHAIN: initializing optimizer

 OPT: Using VASP Conjugate-Gradient optimizer
 CHAIN: Read ICHAIN            0

 POSCAR: Au-V-O2
  positions in direct lattice
  velocities in cartesian coordinates

 ion  position               nearest neighbor table
   1  0.000  0.000  0.217-  16 2.94  12 2.94   6 2.94   8 2.94   7 2.94   3 2.94  10 2.94   4 2.94
                             2 2.94
   2  0.333  0.000  0.217-   9 2.94  11 2.94  17 2.94  10 2.94   8 2.94   4 2.94   5 2.94   1 2.94
                             3 2.94
   3  0.667  0.000  0.217-   7 2.94  18 2.94  12 2.94   1 2.94  11 2.94   5 2.94   6 2.94   9 2.94
                             2 2.94
   4  0.000  0.333  0.217-  10 2.94   6 2.94   5 2.94  13 2.94   2 2.94  15 2.94   9 2.94   1 2.94
                             7 2.94
   5  0.333  0.333  0.217-  13 2.94   7 2.94  11 2.94   4 2.94   2 2.94  14 2.94   3 2.94   8 2.94
                             6 2.94
   6  0.667  0.333  0.217-  15 2.94  14 2.94   1 2.94  12 2.94   4 2.94   9 2.94   8 2.94   3 2.94
                             5 2.94
   7  0.000  0.667  0.217-  18 2.94   3 2.94  16 2.94   5 2.94   1 2.94  13 2.94   8 2.94   4 2.94
                             9 2.94
   8  0.333  0.667  0.217-   9 2.94  17 2.94   1 2.94   2 2.94  14 2.94  16 2.94   6 2.94   7 2.94
                             5 2.94
   9  0.667  0.667  0.217-   2 2.94   8 2.94  17 2.94   6 2.94  15 2.94   4 2.94   3 2.94  18 2.94
                             7 2.94
  10  0.111  0.111  0.316-  20 2.93  26 2.94  19 2.94  11 2.94  17 2.94   2 2.94   4 2.94   1 2.94
                            12 2.94  16 2.94  13 2.94  15 2.94
  11  0.444  0.111  0.316-  20 2.92  21 2.92  27 2.94  13 2.94   2 2.94  10 2.94  17 2.94   5 2.94
                             3 2.94  18 2.94  14 2.94  12 2.94
  12  0.778  0.111  0.316-  21 2.93  25 2.94  19 2.94  16 2.94  18 2.94   1 2.94  14 2.94  15 2.94
                             3 2.94   6 2.94  10 2.94  11 2.94
  13  0.111  0.444  0.316-  23 2.92  20 2.92  22 2.94   5 2.94  18 2.94  11 2.94   7 2.94   4 2.94
                            16 2.94  10 2.94  14 2.94  15 2.94
  14  0.444  0.444  0.316-  21 2.92  23 2.92  24 2.94  15 2.94   6 2.94  12 2.94   8 2.94  17 2.94
                             5 2.94  16 2.94  13 2.94  11 2.94
  15  0.778  0.444  0.316-  24 2.92  22 2.92  19 2.93  14 2.94   6 2.94  17 2.94  12 2.94   9 2.94
                             4 2.94  10 2.94  13 2.94  18 2.94
  16  0.111  0.778  0.316-  23 2.93  25 2.94  26 2.94  18 2.94  12 2.94   7 2.94   1 2.94   8 2.94
                            13 2.94  10 2.94  14 2.94  17 2.94
  17  0.444  0.778  0.316-  27 2.92  24 2.92  26 2.93   9 2.94  15 2.94   2 2.94  10 2.94  11 2.94
                             8 2.94  14 2.94  16 2.94  18 2.94
  18  0.778  0.778  0.316-  22 2.92  27 2.92  25 2.93  16 2.94   7 2.94  13 2.94  12 2.94   3 2.94
                            11 2.94   9 2.94  15 2.94  17 2.94
  19  0.889  0.222  0.414-  15 2.93  10 2.94  12 2.94  24 2.94  22 2.94  28 2.94  26 2.94  25 2.94
                            21 2.95  20 2.95  32 3.03  31 3.03
  20  0.223  0.223  0.414-  36 2.72  23 2.92  21 2.92  11 2.92  13 2.92  10 2.93  29 2.95  31 2.95
                            26 2.95  19 2.95  27 2.95  22 2.95
  21  0.554  0.223  0.414-  36 2.72  20 2.92  23 2.92  14 2.92  11 2.92  12 2.93  30 2.95  32 2.95
                            25 2.95  19 2.95  27 2.95  24 2.95
  22  0.887  0.557  0.414-  24 2.91  27 2.91  18 2.92  15 2.92  25 2.94  19 2.94  13 2.94  23 2.95
                            20 2.95  35 2.96  33 2.99  31 2.99
  23  0.223  0.554  0.414-  36 2.72  20 2.92  21 2.92  13 2.92  14 2.92  16 2.93  33 2.95  34 2.95
                            25 2.95  26 2.95  22 2.95  24 2.95
  24  0.557  0.557  0.414-  27 2.91  22 2.91  15 2.92  17 2.92  26 2.94  19 2.94  14 2.94  21 2.95
                            23 2.95  35 2.96  32 2.99  34 2.99
  25  0.889  0.889  0.414-  18 2.93  16 2.94  12 2.94  22 2.94  27 2.94  28 2.94  19 2.94  26 2.94
                            23 2.95  21 2.95  33 3.03  30 3.03
  26  0.222  0.889  0.414-  17 2.93  10 2.94  16 2.94  27 2.94  24 2.94  28 2.94  19 2.94  25 2.94
                            20 2.95  23 2.95  29 3.03  34 3.03
  27  0.557  0.887  0.414-  24 2.91  22 2.91  17 2.92  18 2.92  26 2.94  25 2.94  11 2.94  20 2.95
                            21 2.95  35 2.96  29 2.99  30 2.99
  28  0.000  0.000  0.513-  25 2.94  19 2.94  26 2.94  34 2.99  32 2.99  33 2.99  30 2.99  31 2.99
                            29 2.99
  29  0.334  0.011  0.515-  30 2.83  31 2.85  36 2.86  20 2.95  35 2.98  27 2.99  28 2.99  26 3.03
                            34 3.13
  30  0.655  0.011  0.515-  29 2.83  32 2.85  36 2.86  21 2.95  35 2.98  27 2.99  28 2.99  25 3.03
                            33 3.13
  31  0.011  0.334  0.515-  37 2.56  33 2.83  29 2.85  36 2.86  20 2.95  35 2.98  22 2.99  28 2.99
                            19 3.03  32 3.13
  32  0.655  0.334  0.515-  38 2.56  34 2.83  30 2.85  36 2.86  21 2.95  35 2.98  24 2.99  28 2.99
                            19 3.03  31 3.13
  33  0.011  0.655  0.515-  31 2.83  34 2.85  36 2.86  23 2.95  35 2.98  22 2.99  28 2.99  25 3.03
                            30 3.13
  34  0.334  0.655  0.515-  32 2.83  33 2.85  36 2.86  23 2.95  35 2.98  24 2.99  28 2.99  26 3.03
                            29 3.13
  35  0.667  0.667  0.514-  24 2.96  27 2.96  22 2.96  29 2.98  34 2.98  32 2.98  31 2.98  30 2.98
                            33 2.98
  36  0.333  0.333  0.502-  37 1.89  38 1.89  20 2.72  23 2.72  21 2.72  33 2.86  31 2.86  29 2.86
                            30 2.86  34 2.86  32 2.86
  37  0.251  0.335  0.574-  38 1.43  36 1.89  31 2.56
  38  0.414  0.335  0.574-  37 1.43  36 1.89  32 2.56

  LATTYP: Found a hexagonal cell.
 ALAT       =     8.8135128021
 C/A-ratio  =     2.7586513333

  Lattice vectors:

 A1 = (  -4.4067569092,  -7.6327256898,   0.0000000000)
 A2 = (   8.8135128021,   0.0000000000,   0.0000000000)
 A3 = (   0.0000000000,   0.0000000000,  24.3134088421)

Analysis of symmetry for initial positions (statically):
 Subroutine PRICEL returns:
 Original cell was already a primitive cell.

 Routine SETGRP: Setting up the symmetry group for a
 hexagonal supercell.

 Subroutine GETGRP returns: Found  2 space group operations
 (whereof  2 operations were pure point group operations)
 out of a pool of 24 trial point group operations.

The static configuration has the point symmetry C_1h.

Analysis of symmetry for dynamics (positions and initial velocities):
 Subroutine PRICEL returns:
 Original cell was already a primitive cell.

[...]

The dynamic configuration has the point symmetry C_1h.

Analysis of constrained symmetry for selective dynamics:
 Subroutine PRICEL returns:
 Original cell was already a primitive cell.

 Routine SETGRP: Setting up the symmetry group for a
[...]
     33      -5.3928      2.00000
     34      -5.2903      2.00000
     35      -5.2831      2.00000
     36      -5.2439      2.00000
     37      -5.2326      2.00000
     38      -5.2159      2.00000
     39      -5.1289      2.00000
     40      -5.1024      2.00000
     41      -5.0923      2.00000
     42      -5.0271      2.00000
     43      -5.0127      2.00000
     44      -4.9608      2.00000
     45      -4.9016      2.00000
     46      -4.8741      2.00000
     47      -4.8093      2.00000
     48      -4.8038      2.00000
     49      -4.7972      2.00000
     50      -4.7650      2.00000
     51      -4.6871      2.00000
     52      -4.6569      2.00000
     53      -4.6397      2.00000
     54      -4.6104      2.00000
     55      -4.6090      2.00000
     56      -4.5974      2.00000
     57      -4.5684      2.00000
     58      -4.5516      2.00000
     59      -4.5170      2.00000
     60      -4.4786      2.00000
[...]
    238       5.6192      0.00000
    239       5.6559      0.00000
    240       5.9098      0.00000
    241       5.9728      0.00000
    242       6.0050      0.00000
    243       6.0114      0.00000
    244       6.0656      0.00000
    245       6.2209      0.00000
    246       6.2678      0.00000
    247       6.3253      0.00000
    248       6.3525      0.00000
    249       6.3805      0.00000
    250       6.7654      0.00000
    251       6.8457      0.00000
    252       6.8898      0.00000

 soft charge-density along one line, spin component           1
         0         1         2         3         4         5         6         7         8         9
 total charge-density along one line

------------------------ aborting loop because EDIFF is reached ----------------------------------------

 total charge

# of ion       s       p       d       tot
    1        0.548   0.238   8.765   9.551
    2        0.542   0.242   8.764   9.548
    3        0.542   0.242   8.764   9.548
    4        0.543   0.241   8.765   9.549
    5        0.543   0.241   8.764   9.548
    6        0.543   0.241   8.765   9.549
    7        0.542   0.242   8.766   9.549
    8        0.542   0.242   8.766   9.549
    9        0.542   0.241   8.766   9.549
   10        0.522   0.307   8.773   9.602
   11        0.517   0.308   8.778   9.604
   12        0.522   0.307   8.773   9.602
   13        0.517   0.309   8.777   9.603
   14        0.517   0.309   8.777   9.603
   15        0.515   0.310   8.775   9.600
   16        0.524   0.308   8.767   9.599
   17        0.515   0.310   8.774   9.598
   18        0.515   0.310   8.774   9.598
   19        0.514   0.298   8.776   9.588
   20        0.555   0.335   8.738   9.628
   21        0.555   0.335   8.738   9.628
   22        0.510   0.309   8.772   9.592
   23        0.559   0.337   8.733   9.629
   24        0.510   0.309   8.772   9.592
   25        0.518   0.298   8.774   9.590
   26        0.518   0.298   8.774   9.590
   27        0.511   0.307   8.775   9.593
   28        0.544   0.225   8.761   9.530
   29        0.558   0.236   8.761   9.555
   30        0.558   0.236   8.761   9.555
   31        0.558   0.234   8.767   9.559
   32        0.558   0.234   8.767   9.559
   33        0.556   0.236   8.764   9.556
   34        0.556   0.236   8.764   9.556
   35        0.540   0.225   8.762   9.527
   36        0.457   0.693   3.433   4.582
   37        1.617   3.245   0.000   4.863
   38        1.617   3.245   0.000   4.863
tot         22.421  16.817 310.245 349.483

  FORCE on cell =-STRESS in cart. coord.  units (eV):
  Direction    XX          YY          ZZ          XY          YZ          ZX
  Alpha Z   937.53395   937.53395   937.53395
  Ewald  150001.25685149629.25059************    -0.00030    -0.96140    -0.00010
  Hartree158393.63903158215.76647************     0.00001    -1.10538    -0.00003
  E(xc)   -1808.30136 -1808.78745 -1816.17222     0.00000     0.11510     0.00000
  Local  ************************320364.32687     0.00258     2.52552    -0.00001
  n-local   -95.35186   -97.51736   -72.99705     4.69258     0.13973     0.14722
  augment  2395.13422  2398.87265  2412.77397    -0.00135    -0.27779     0.00000
  Kinetic  5618.76906  5661.58021  5694.50471     0.95166    -0.37222    -0.03052
  Fock        0.00000     0.00000     0.00000     0.00000     0.00000     0.00000
  Total     -17.46041   -19.01681    -0.48124    -0.00000     0.06357     0.00000
  in kB     -17.10372   -18.62833    -0.47141    -0.00000     0.06227     0.00000

 VOLUME and BASIS-vectors are now :
  energy-cutoff  :      500.00
  volume of cell :     1635.59
      direct lattice vectors                 reciprocal lattice vectors
     8.813512802  0.000000000  0.000000000     0.113462137 -0.065507406  0.000000000
     4.406756909  7.632725690  0.000000000     0.000000000  0.131014796  0.000000000
     0.000000000  0.000000000 24.313408842     0.000000000  0.000000000  0.041129568

  length of vectors
     8.813512802  8.813512802 24.313408842     0.131014796  0.131014796  0.041129568

 FORCES acting on ions
    electron-ion (+dipol)            ewald-force                    non-local-force                 convergence-correction
   -.199E-04 -.265E-02 0.266E+04   0.519E-04 -.292E-01 -.266E+04   0.255E-08 0.384E-01 -.629E+00   -.239E-03 -.137E-01 -.174E+00
   0.345E+00 0.265E-01 0.266E+04   -.380E+00 -.908E-01 -.266E+04   0.847E-03 0.494E-01 -.280E+00   0.279E-01 0.121E-01 -.202E+00
   -.345E+00 0.265E-01 0.266E+04   0.380E+00 -.908E-01 -.266E+04   -.847E-03 0.494E-01 -.280E+00   -.276E-01 0.140E-01 -.201E+00
   0.110E+00 0.332E+00 0.266E+04   -.244E+00 -.303E+00 -.266E+04   0.630E-01 -.436E-01 -.304E+00   0.698E-01 0.928E-02 -.238E+00
   0.795E-05 -.195E-01 0.266E+04   0.951E-04 -.413E-02 -.266E+04   0.931E-09 0.140E-01 -.320E+00   0.428E-02 0.922E-02 -.177E+00
   -.110E+00 0.332E+00 0.266E+04   0.244E+00 -.303E+00 -.266E+04   -.630E-01 -.436E-01 -.304E+00   -.714E-01 0.102E-01 -.237E+00
   -.208E+00 -.327E+00 0.266E+04   0.137E+00 0.394E+00 -.266E+04   0.481E-01 -.276E-01 -.286E+00   0.259E-01 -.286E-01 -.215E+00
   0.208E+00 -.327E+00 0.266E+04   -.138E+00 0.394E+00 -.266E+04   -.481E-01 -.276E-01 -.286E+00   -.240E-01 -.297E-01 -.214E+00
   0.196E-04 -.550E-01 0.266E+04   0.166E-03 0.332E-01 -.266E+04   -.307E-09 -.461E-02 -.448E+00   -.458E-02 0.223E-01 -.178E+00
   0.255E+01 0.177E+01 0.915E+03   -.230E+01 -.158E+01 -.915E+03   -.316E+00 -.147E+00 -.515E+00   0.669E-01 -.307E-01 0.140E+00
   0.178E-04 0.233E+01 0.919E+03   0.147E-03 -.252E+01 -.919E+03   0.309E-08 0.463E-01 -.306E+00   0.400E-02 0.708E-01 0.276E+00
   -.255E+01 0.177E+01 0.915E+03   0.230E+01 -.158E+01 -.915E+03   0.316E+00 -.147E+00 -.515E+00   -.684E-01 -.296E-01 0.140E+00
   0.163E+01 -.115E+01 0.920E+03   -.194E+01 0.128E+01 -.920E+03   0.117E+00 -.558E-01 -.313E+00   0.137E+00 -.358E-01 0.254E+00
   -.163E+01 -.115E+01 0.920E+03   0.194E+01 0.128E+01 -.920E+03   -.117E+00 -.558E-01 -.313E+00   -.130E+00 -.367E-01 0.254E+00
   0.317E-04 0.291E+01 0.919E+03   0.236E-03 -.308E+01 -.919E+03   0.250E-08 0.376E-01 -.508E+00   -.229E-02 0.865E-01 0.110E+00
   -.214E-04 -.308E+01 0.915E+03   0.162E-03 0.275E+01 -.915E+03   0.253E-07 0.381E+00 -.584E+00   -.708E-04 -.686E-01 0.176E+00
   0.273E+01 -.173E+01 0.919E+03   -.278E+01 0.173E+01 -.918E+03   0.404E-02 -.215E-01 -.398E+00   0.187E-01 0.346E-01 0.162E+00
   -.273E+01 -.173E+01 0.919E+03   0.278E+01 0.173E+01 -.918E+03   -.404E-02 -.215E-01 -.398E+00   -.184E-01 0.366E-01 0.162E+00
   -.421E-04 -.493E+00 -.855E+03   0.547E-04 0.237E+00 0.853E+03   0.633E-08 0.950E-01 0.894E+00   -.588E-03 0.953E-01 0.597E+00
   0.606E+01 0.541E+01 -.828E+03   -.568E+01 -.521E+01 0.828E+03   -.109E+01 -.481E+00 -.812E+00   0.619E+00 0.237E+00 0.116E+01
   -.606E+01 0.541E+01 -.828E+03   0.568E+01 -.521E+01 0.828E+03   0.109E+01 -.481E+00 -.812E+00   -.619E+00 0.237E+00 0.116E+01
   -.160E+01 -.629E+00 -.841E+03   0.112E+01 0.977E+00 0.840E+03   0.331E+00 -.265E+00 0.722E+00   0.206E+00 -.929E-01 0.641E+00
   -.396E-05 -.970E+01 -.830E+03   0.139E-03 0.893E+01 0.830E+03   0.946E-07 0.142E+01 -.891E+00   0.308E-03 -.594E+00 0.112E+01
   0.160E+01 -.629E+00 -.841E+03   -.113E+01 0.977E+00 0.840E+03   -.331E+00 -.265E+00 0.722E+00   -.206E+00 -.931E-01 0.641E+00
   0.134E+01 0.136E+01 -.857E+03   -.114E+01 -.118E+01 0.856E+03   -.897E-01 -.737E-01 0.725E+00   -.117E+00 -.691E-01 0.515E+00
   -.134E+01 0.136E+01 -.857E+03   0.114E+01 -.118E+01 0.856E+03   0.897E-01 -.737E-01 0.725E+00   0.117E+00 -.697E-01 0.516E+00
   0.121E-04 -.237E+01 -.844E+03   0.196E-03 0.151E+01 0.843E+03   0.392E-07 0.589E+00 0.823E+00   -.351E-03 0.325E+00 0.610E+00
   -.155E-04 0.557E+01 -.256E+04   0.308E-04 -.554E+01 0.256E+04   -.188E-09 -.282E-02 0.388E+00   -.939E-04 -.389E-01 0.471E+00
   0.402E+02 0.802E+02 -.254E+04   -.400E+02 -.807E+02 0.254E+04   -.934E+00 -.771E+00 0.610E+00   0.487E+00 0.694E+00 0.367E+00
   -.402E+02 0.802E+02 -.254E+04   0.400E+02 -.807E+02 0.254E+04   0.934E+00 -.771E+00 0.610E+00   -.486E+00 0.695E+00 0.368E+00
   0.107E+03 0.498E+01 -.252E+04   -.109E+03 -.485E+01 0.252E+04   -.816E+00 -.145E+00 0.105E+01   0.859E+00 0.148E-02 0.347E+00
   -.107E+03 0.498E+01 -.252E+04   0.109E+03 -.485E+01 0.252E+04   0.816E+00 -.145E+00 0.105E+01   -.860E+00 0.227E-02 0.348E+00
   0.339E+02 -.863E+02 -.254E+04   -.340E+02 0.867E+02 0.254E+04   -.624E+00 0.840E+00 0.685E+00   0.413E+00 -.716E+00 0.388E+00
   -.339E+02 -.863E+02 -.254E+04   0.340E+02 0.867E+02 0.254E+04   0.624E+00 0.840E+00 0.685E+00   -.412E+00 -.716E+00 0.388E+00
   0.344E-04 -.634E+01 -.257E+04   0.140E-03 0.622E+01 0.257E+04   0.401E-08 0.602E-01 0.481E+00   -.447E-02 0.723E-01 0.408E+00
   -.225E-04 0.146E+01 -.914E+03   0.526E-04 -.149E+01 0.915E+03   0.305E-08 0.458E-01 0.119E+01   0.990E-03 -.184E-01 0.247E+00
   0.180E+03 0.855E+00 -.169E+04   -.213E+03 -.676E+00 0.171E+04   0.325E+02 -.180E+00 -.175E+02   0.486E+00 -.573E-02 -.766E+00
   -.180E+03 0.855E+00 -.169E+04   0.213E+03 -.676E+00 0.171E+04   -.325E+02 -.180E+00 -.175E+02   -.481E+00 -.565E-02 -.766E+00
   -.508E-03 -.858E-01 0.249E+02   0.284E-13 0.328E-12 0.682E-12   0.525E-08 0.789E-01 -.332E+02   0.107E-01 -.294E-01 0.859E+01

 POSITION                                       TOTAL-FORCE (eV/Angst)
      0.00000      0.00000      5.28038        -0.000000     -0.006164     -0.117299
      2.93784      0.00000      5.28038        -0.006618     -0.000815     -0.016374
      5.87568      0.00000      5.28038         0.006618     -0.000815     -0.016374
      1.46892      2.54424      5.28038        -0.000315     -0.003649     -0.029736
      4.40676      2.54424      5.28038         0.000000      0.000486     -0.058168
      7.34459      2.54424      5.28038         0.000315     -0.003649     -0.029736
      2.93784      5.08848      5.28038         0.002062      0.010970     -0.018101
      5.87568      5.08848      5.28038        -0.002062      0.010970     -0.018101
      8.81351      5.08848      5.28038        -0.000000     -0.003186     -0.049180
      1.46892      0.84808      7.67911         0.004185      0.014973      0.058828
      4.40676      0.84808      7.67911        -0.000000     -0.063474     -0.012052
      7.34459      0.84808      7.67911        -0.004185      0.014973      0.058828
      2.93784      3.39232      7.67911        -0.060041      0.032164      0.004839
      5.87568      3.39232      7.67911         0.060041      0.032164      0.004839
      8.81351      3.39232      7.67911        -0.000000     -0.042353      0.079663
      4.40676      5.93656      7.67911        -0.000000     -0.013221      0.080993
      7.34459      5.93656      7.67911        -0.034130      0.016310      0.074340
     10.28243      5.93656      7.67911         0.034130      0.016310      0.074340
      8.81351      1.69782     10.07545        -0.000000     -0.065224      0.011424
      2.94790      1.70197     10.06171        -0.085994     -0.048335     -0.086302
      5.86562      1.70197     10.06171         0.085994     -0.048335     -0.086302
     10.26824      4.24860     10.06503         0.063722     -0.009552      0.074148
      4.40676      4.22879     10.06171         0.000000      0.055366      0.015847
      7.35878      4.24860     10.06503        -0.063722     -0.009552      0.074148
     11.74991      6.78381     10.07545        -0.003832      0.036273      0.037970
      5.87712      6.78381     10.07545         0.003832      0.036273      0.037970
      8.81351      6.76826     10.06503         0.000000      0.056156      0.075907
      0.00000      0.00000     12.47281        -0.000000     -0.010763     -0.013806
      2.99055      0.08121     12.52138        -0.245338     -0.504465     -0.350520
      5.82296      0.08121     12.52138         0.245338     -0.504465     -0.350520
      1.56560      2.54929     12.52138        -0.999205     -0.014598     -0.633988
      7.24791      2.54929     12.52138         0.999205     -0.014598     -0.633988
      2.98181      5.00223     12.52138        -0.242869      0.515122     -0.361467
      5.83171      5.00223     12.52138         0.242869      0.515122     -0.361467
      8.81351      5.08848     12.50032         0.000000      0.010546      0.047875
      4.40676      2.54424     12.20130         0.000000      0.005078      2.438350
      3.68956      2.55649     13.95235         0.000981     -0.006022     -0.003414
      5.12395      2.55649     13.95235        -0.000981     -0.006022     -0.003414
    total drift:                                0.010200     -0.036283      0.319918

  FREE ENERGIE OF THE ION-ELECTRON SYSTEM (eV)
  free  energy   TOTEN  =      -126.08059219 eV

  energy  without entropy=     -126.08059219  energy(sigma->0) =     -126.08059219

 stress matrix after NEB project (eV)
    -17.46041     -0.00000      0.00000
     -0.00000    -19.01681      0.06357
      0.00000      0.06357     -0.48124
  FORCES: max atom, RMS     0.006992    0.001604
  FORCE total and by dimension    0.009888    0.006022
  Stress total and by dimension   25.821405   19.016815
|           W    W    AA    RRRRR   N    N  II  N    N   GGGG   !!!           |
|           W    W   A  A   R    R  NN   N  II  NN   N  G    G  !!!           |
|           W    W  A    A  R    R  N N  N  II  N N  N  G       !!!           |
|           W WW W  AAAAAA  RRRRR   N  N N  II  N  N N  G  GGG   !            |
|           WW  WW  A    A  R   R   N   NN  II  N   NN  G    G                |
|           W    W  A    A  R    R  N    N  II  N    N   GGGG   !!!           |
|     Tetrahedron method does not include variations of the Fermi             |
|     occupations, so forces and stress will be inaccurate. We suggest        |
|     using a different smearing scheme ISMEAR = 1 or 2 for metals in         |
|     relaxations.                                                            |

 total charge

# of ion       s       p       d       tot
    1        0.548   0.238   8.765   9.551
    2        0.542   0.242   8.764   9.548
    3        0.542   0.242   8.764   9.548
    4        0.543   0.241   8.765   9.549
    5        0.543   0.241   8.764   9.548
    6        0.543   0.241   8.765   9.549
    7        0.542   0.242   8.766   9.549
    8        0.542   0.242   8.766   9.549
    9        0.542   0.241   8.766   9.549
   10        0.522   0.307   8.773   9.602
   11        0.517   0.308   8.778   9.604
   12        0.522   0.307   8.773   9.602
   13        0.517   0.309   8.777   9.603
   14        0.517   0.309   8.777   9.603
   15        0.515   0.310   8.775   9.600
   16        0.524   0.308   8.767   9.599
   17        0.515   0.310   8.774   9.598
   18        0.515   0.310   8.774   9.598
   19        0.514   0.298   8.776   9.588
   20        0.555   0.335   8.738   9.628
   21        0.555   0.335   8.738   9.628
   22        0.510   0.309   8.772   9.592
   23        0.559   0.337   8.733   9.629
   24        0.510   0.309   8.772   9.592
   25        0.518   0.298   8.774   9.590
   26        0.518   0.298   8.774   9.590
   27        0.511   0.307   8.775   9.593
   28        0.544   0.225   8.761   9.530
   29        0.558   0.236   8.761   9.555
   30        0.558   0.236   8.761   9.555
   31        0.558   0.234   8.767   9.559
   32        0.558   0.234   8.767   9.559
   33        0.556   0.236   8.764   9.556
   34        0.556   0.236   8.764   9.556
   35        0.540   0.225   8.762   9.527
   36        0.457   0.693   3.433   4.582
   37        1.617   3.245   0.000   4.863
   38        1.617   3.245   0.000   4.863
tot         22.421  16.817 310.245 349.483

 BZINTS: Fermi energy:    0.180147;  402.000000 electrons
         Band energy:-0.149811E+04;  BLOECHL correction:   -0.041700