 vasp.6.2.0 18Jan21 (build Jun 12 2021 23:27:24) complex

 executed on             LinuxIFC date 2022.05.26  19:30:09

 INCAR:
   ISMEAR = -5
   SIGMA = 0.1
   ISPIN = 1
   EDIFF = 1.d-5
   EDIFFG = -0.01
   NSW = 0
   NELM = 150
   ENCUT = 500
   ISIF = 2
   IBRION = 2
   LREAL = Auto
   ALGO = Fast
   ICHARG = 11
   LORBIT = 10
   LCHARG = .F.
   LWAVE = .F.

 POTCAR:    PAW_PBE Au 04Oct2007
 POTCAR:    PAW_PBE Hf 20Jan2003
 POTCAR:    PAW_PBE N 08Apr2002
|           W    W    AA    RRRRR   N    N  II  N    N   GGGG   !!!           |
|           W    W   A  A   R    R  NN   N  II  NN   N  G    G  !!!           |
|           W    W  A    A  R    R  N N  N  II  N N  N  G       !!!           |
|           W WW W  AAAAAA  RRRRR   N  N N  II  N  N N  G  GGG   !            |
|           WW  WW  A    A  R   R   N   NN  II  N   NN  G    G                |
|           W    W  A    A  R    R  N    N  II  N    N   GGGG   !!!           |
|     For optimal performance we recommend to set                             |
|       NCORE = 2 up to number-of-cores-per-socket                            |
|     This setting can greatly improve the performance of VASP for DFT.       |
|     The default, NCORE=1 might be grossly inefficient on modern             |
|     multi-core architectures or massively parallel machines. Do your        |
|     Unfortunately you need to use the default for GW and RPA                |
|     calculations (for HF NCORE is supported but not extensively tested      |
|     yet).                                                                   |

 POTCAR:    PAW_PBE Au 04Oct2007
   VRHFIN =Au: s1d10

   TITEL  = PAW_PBE Au 04Oct2007
   POMASS =  196.966; ZVAL   =   11.000    mass and valenz
   ENMAX  =  229.943; ENMIN  =  172.457 eV

 POTCAR:    PAW_PBE Hf 20Jan2003
   VRHFIN =Hf: 6s5d

   TITEL  = PAW_PBE Hf 20Jan2003
   POMASS =  178.490; ZVAL   =    4.000    mass and valenz
   ENMAX  =  220.334; ENMIN  =  165.250 eV

 POTCAR:    PAW_PBE N 08Apr2002
   VRHFIN =N: s2p3

   TITEL  = PAW_PBE N 08Apr2002
   POMASS =   14.001; ZVAL   =    5.000    mass and valenz
   ENMAX  =  400.000; ENMIN  =  300.000 eV

 Optimization of the real space projectors (new method)

 maximal supplied QI-value         = 15.12
 optimisation between [QCUT,QGAM] = [ 11.34, 22.83] = [ 36.00,145.93] Ry
 Optimized for a Real-space Cutoff    1.39 Angstroem

   l    n(q)    QCUT    max X(q) W(low)/X(q) W(high)/X(q)  e(spline)
   2      9    11.338    60.898    0.39E-03    0.42E-03    0.21E-06
   2      9    11.338    58.894    0.40E-03    0.42E-03    0.22E-06
   0      9    11.338   109.617    0.13E-03    0.20E-04    0.13E-06
   0      9    11.338    75.026    0.13E-03    0.20E-04    0.13E-06
   1      9    11.338    16.344    0.33E-04    0.24E-03    0.18E-06
   1      9    11.338    10.160    0.26E-04    0.19E-03    0.15E-06
 Optimization of the real space projectors (new method)

[...]

   l    n(q)    QCUT    max X(q) W(low)/X(q) W(high)/X(q)  e(spline)
   2     10    11.350    48.111    0.20E-03    0.11E-03    0.41E-06
   2     10    11.350    40.545    0.19E-03    0.10E-03    0.39E-06
   0     11    11.350   121.658    0.22E-04    0.19E-04    0.24E-06
   0     11    11.350    71.177    0.17E-04    0.17E-04    0.23E-06
   1     11    11.350    14.183    0.25E-03    0.43E-03    0.12E-05
   1     11    11.350     8.257    0.17E-03    0.29E-03    0.81E-06
 Optimization of the real space projectors (new method)

 maximal supplied QI-value         = 25.13
 optimisation between [QCUT,QGAM] = [ 11.31, 22.87] = [ 35.82,146.48] Ry
 Optimized for a Real-space Cutoff    1.27 Angstroem

   l    n(q)    QCUT    max X(q) W(low)/X(q) W(high)/X(q)  e(spline)
   0      9    11.310    79.467    0.75E-04    0.16E-03    0.36E-06
   0      9    11.310    66.151    0.74E-04    0.16E-03    0.36E-06
   1      8    11.310    17.416    0.35E-03    0.12E-03    0.95E-06
   1      8    11.310    12.382    0.37E-03    0.13E-03    0.98E-06
  PAW_PBE Au 04Oct2007                  :
  PAW_PBE Hf 20Jan2003                  :
  PAW_PBE N 08Apr2002                   :

 POSCAR: Au-Hf-N
  positions in direct lattice
  velocities in cartesian coordinates
 exchange correlation table for  LEXCH =        8
   RHO(1)=    0.500       N(1)  =     2000
   RHO(2)=  100.500       N(2)  =     4000

 VTST: version 3.2, (02/03/18)

 CHAIN: initializing optimizer

 OPT: Using VASP Conjugate-Gradient optimizer
 CHAIN: Read ICHAIN            0

 POSCAR: Au-Hf-N
  positions in direct lattice
  velocities in cartesian coordinates

 ion  position               nearest neighbor table
   1  0.000  0.000  0.238-  16 2.94  12 2.94   6 2.94   8 2.94   7 2.94   3 2.94  10 2.94   4 2.94
                             2 2.94
   2  0.333  0.000  0.238-   9 2.94  11 2.94  17 2.94  10 2.94   8 2.94   4 2.94   5 2.94   1 2.94
                             3 2.94
   3  0.667  0.000  0.238-   7 2.94  18 2.94  12 2.94   1 2.94  11 2.94   5 2.94   6 2.94   9 2.94
                             2 2.94
   4  0.000  0.333  0.238-  10 2.94   6 2.94   5 2.94  13 2.94   2 2.94  15 2.94   9 2.94   1 2.94
                             7 2.94
   5  0.333  0.333  0.238-  13 2.94   7 2.94  11 2.94   4 2.94   2 2.94  14 2.94   3 2.94   8 2.94
                             6 2.94
   6  0.667  0.333  0.238-  15 2.94  14 2.94   1 2.94  12 2.94   4 2.94   9 2.94   8 2.94   3 2.94
                             5 2.94
   7  0.000  0.667  0.238-  18 2.94   3 2.94  16 2.94   5 2.94   1 2.94  13 2.94   8 2.94   4 2.94
                             9 2.94
   8  0.333  0.667  0.238-   9 2.94  17 2.94   1 2.94   2 2.94  14 2.94  16 2.94   6 2.94   7 2.94
                             5 2.94
   9  0.667  0.667  0.238-   2 2.94   8 2.94  17 2.94   6 2.94  15 2.94   4 2.94   3 2.94  18 2.94
                             7 2.94
  10  0.111  0.111  0.346-  20 2.93  26 2.94  19 2.94  11 2.94  17 2.94   2 2.94   4 2.94   1 2.94
                            12 2.94  16 2.94  13 2.94  15 2.94
  11  0.444  0.111  0.346-  20 2.92  21 2.92  13 2.94   2 2.94  10 2.94  17 2.94   5 2.94   3 2.94
                            18 2.94  14 2.94  12 2.94  27 2.94
  12  0.778  0.111  0.346-  21 2.93  25 2.94  19 2.94  16 2.94  18 2.94   1 2.94  14 2.94  15 2.94
                             3 2.94   6 2.94  10 2.94  11 2.94
  13  0.111  0.444  0.346-  23 2.92  20 2.92   5 2.94  18 2.94  11 2.94   7 2.94   4 2.94  16 2.94
                            10 2.94  14 2.94  15 2.94  22 2.94
  14  0.444  0.444  0.346-  21 2.92  23 2.92  15 2.94   6 2.94  12 2.94   8 2.94  17 2.94   5 2.94
                            16 2.94  13 2.94  11 2.94  24 2.94
  15  0.778  0.444  0.346-  24 2.93  22 2.93  19 2.94  14 2.94   6 2.94  17 2.94  12 2.94   9 2.94
                             4 2.94  10 2.94  13 2.94  18 2.94
  16  0.111  0.778  0.346-  23 2.93  25 2.94  26 2.94  18 2.94  12 2.94   7 2.94   1 2.94   8 2.94
                            13 2.94  10 2.94  14 2.94  17 2.94
  17  0.444  0.778  0.346-  27 2.93  24 2.93  26 2.94   9 2.94  15 2.94   2 2.94  10 2.94  11 2.94
                             8 2.94  14 2.94  16 2.94  18 2.94
  18  0.778  0.778  0.346-  22 2.93  27 2.93  25 2.94  16 2.94   7 2.94  13 2.94  12 2.94   3 2.94
                            11 2.94   9 2.94  15 2.94  17 2.94
  19  0.889  0.222  0.454-  15 2.94  10 2.94  12 2.94  24 2.94  22 2.94  26 2.94  25 2.94  21 2.94
                            20 2.94  28 2.96  32 3.04  31 3.04
  20  0.223  0.223  0.453-  36 2.81  11 2.92  13 2.92  23 2.93  21 2.93  10 2.93  26 2.94  19 2.94
                            27 2.95  22 2.95  29 2.99  31 2.99
  21  0.555  0.223  0.453-  36 2.81  14 2.92  11 2.92  20 2.93  23 2.93  12 2.93  25 2.94  19 2.94
                            27 2.95  24 2.95  30 2.99  32 2.99
  22  0.887  0.556  0.454-  24 2.92  27 2.92  18 2.93  15 2.93  25 2.94  19 2.94  13 2.94  23 2.95
                            20 2.95  35 2.96  33 3.01  31 3.01
  23  0.223  0.555  0.453-  36 2.81  13 2.92  14 2.92  20 2.93  21 2.93  16 2.93  25 2.94  26 2.94
                            22 2.95  24 2.95  33 2.99  34 2.99
  24  0.556  0.556  0.454-  27 2.92  22 2.92  15 2.93  17 2.93  26 2.94  19 2.94  14 2.94  21 2.95
                            23 2.95  35 2.96  32 3.01  34 3.01
  25  0.889  0.889  0.454-  18 2.94  16 2.94  12 2.94  22 2.94  27 2.94  19 2.94  26 2.94  23 2.94
                            21 2.94  28 2.96  33 3.04  30 3.04
  26  0.222  0.889  0.454-  17 2.94  10 2.94  16 2.94  27 2.94  24 2.94  19 2.94  25 2.94  20 2.94
                            23 2.94  28 2.96  29 3.04  34 3.04
  27  0.556  0.887  0.454-  24 2.92  22 2.92  17 2.93  18 2.93  26 2.94  25 2.94  11 2.94  20 2.95
                            21 2.95  35 2.96  29 3.01  30 3.01
  28  0.000  0.000  0.563-  25 2.96  19 2.96  26 2.96  34 2.98  32 2.98  33 2.98  30 2.98  31 2.98
                            29 2.98
  29  0.334  0.008  0.566-  30 2.86  31 2.87  36 2.88  35 2.97  28 2.98  20 2.99  27 3.01  26 3.04
                            34 3.08
  30  0.658  0.008  0.566-  29 2.86  32 2.87  36 2.88  35 2.97  28 2.98  21 2.99  27 3.01  25 3.04
                            33 3.08
  31  0.008  0.334  0.566-  33 2.86  29 2.87  36 2.88  35 2.97  28 2.98  20 2.99  22 3.01  19 3.04
                            32 3.08
  32  0.658  0.334  0.566-  34 2.86  30 2.87  36 2.88  35 2.97  28 2.98  21 2.99  24 3.01  19 3.04
                            31 3.08
  33  0.008  0.658  0.566-  31 2.86  34 2.87  36 2.88  35 2.97  28 2.98  23 2.99  22 3.01  25 3.04
                            30 3.08
  34  0.334  0.658  0.566-  32 2.86  33 2.87  36 2.88  35 2.97  28 2.98  23 2.99  24 3.01  26 3.04
                            29 3.08
  35  0.667  0.667  0.564-  24 2.96  27 2.96  22 2.96  29 2.97  34 2.97  32 2.97  31 2.97  30 2.97
                            33 2.97
  36  0.333  0.333  0.555-  37 1.87  20 2.81  23 2.81  21 2.81  33 2.88  31 2.88  29 2.88  30 2.88
                            34 2.88  32 2.88
  37  0.333  0.333  0.639-  36 1.87

  LATTYP: Found a hexagonal cell.
 ALAT       =     8.8135128021
 C/A-ratio  =     2.5184286595

  Lattice vectors:

 A1 = (  -4.4067569092,  -7.6327256898,   0.0000000000)
 A2 = (   8.8135128021,   0.0000000000,   0.0000000000)
 A3 = (   0.0000000000,   0.0000000000,  22.1962032318)

Analysis of symmetry for initial positions (statically):
 Subroutine PRICEL returns:
 Original cell was already a primitive cell.

 Routine SETGRP: Setting up the symmetry group for a
 hexagonal supercell.

 Subroutine GETGRP returns: Found  6 space group operations
 (whereof  6 operations were pure point group operations)
 out of a pool of 24 trial point group operations.

The static configuration has the point symmetry C_3v.

Analysis of symmetry for dynamics (positions and initial velocities):
 Subroutine PRICEL returns:
 Original cell was already a primitive cell.

[...]

The dynamic configuration has the point symmetry C_3v.

Analysis of constrained symmetry for selective dynamics:
 Subroutine PRICEL returns:
 Original cell was already a primitive cell.

 Routine SETGRP: Setting up the symmetry group for a
 hexagonal supercell.

 Subroutine GETGRP returns: Found  6 space group operations
[...]
     24      -5.2252      2.00000
     25      -5.1943      2.00000
     26      -5.1742      2.00000
     27      -5.1497      2.00000
     28      -5.0837      2.00000
     29      -5.0555      2.00000
     30      -4.9607      2.00000
     31      -4.9513      2.00000
     32      -4.9411      2.00000
     33      -4.8947      2.00000
     34      -4.8812      2.00000
     35      -4.8733      2.00000
     36      -4.8063      2.00000
     37      -4.7918      2.00000
     38      -4.6945      2.00000
     39      -4.6737      2.00000
     40      -4.6167      2.00000
     41      -4.5611      2.00000
     42      -4.5265      2.00000
     43      -4.4915      2.00000
     44      -4.4690      2.00000
     45      -4.4548      2.00000
     46      -4.4259      2.00000
     47      -4.3397      2.00000
     48      -4.3225      2.00000
     49      -4.2982      2.00000
     50      -4.2650      2.00000
     51      -4.2516      2.00000
     52      -4.2482      2.00000
     53      -4.2384      2.00000
     54      -4.2197      2.00000
     55      -4.1740      2.00000
     56      -4.1462      2.00000
     57      -4.1272      2.00000
     58      -4.1221      2.00000
     59      -4.1065      2.00000
     60      -4.1002      2.00000
[...]
    238       6.4451      0.00000
    239       6.6067      0.00000
    240       6.6114      0.00000
    241       6.6578      0.00000
    242       6.7445      0.00000
    243       6.9273      0.00000
    244       7.0081      0.00000
    245       7.1126      0.00000
    246       7.1559      0.00000
    247       7.3009      0.00000
    248       7.3826      0.00000
    249       7.6907      0.00000
    250       7.7060      0.00000
    251       7.9295      0.00000
    252       7.9526      0.00000

 soft charge-density along one line, spin component           1
         0         1         2         3         4         5         6         7         8         9
 total charge-density along one line

------------------------ aborting loop because EDIFF is reached ----------------------------------------

 total charge

# of ion       s       p       d       tot
    1        0.545   0.239   8.768   9.551
    2        0.542   0.241   8.765   9.547
    3        0.542   0.241   8.765   9.547
    4        0.542   0.241   8.765   9.547
    5        0.546   0.239   8.762   9.547
    6        0.542   0.241   8.765   9.547
    7        0.542   0.241   8.765   9.547
    8        0.542   0.241   8.765   9.547
    9        0.542   0.240   8.768   9.550
   10        0.520   0.308   8.774   9.601
   11        0.521   0.307   8.776   9.603
   12        0.520   0.308   8.774   9.601
   13        0.521   0.307   8.776   9.603
   14        0.521   0.307   8.776   9.603
   15        0.517   0.309   8.773   9.599
   16        0.520   0.308   8.774   9.601
   17        0.517   0.309   8.773   9.599
   18        0.517   0.309   8.773   9.599
   19        0.515   0.297   8.772   9.584
   20        0.556   0.327   8.757   9.640
   21        0.556   0.327   8.757   9.640
   22        0.508   0.305   8.776   9.588
   23        0.556   0.327   8.757   9.640
   24        0.508   0.305   8.776   9.588
   25        0.515   0.297   8.772   9.584
   26        0.515   0.297   8.772   9.584
   27        0.508   0.305   8.776   9.588
   28        0.543   0.226   8.761   9.530
   29        0.571   0.237   8.754   9.562
   30        0.571   0.237   8.754   9.562
   31        0.571   0.237   8.754   9.562
   32        0.571   0.237   8.754   9.562
   33        0.571   0.237   8.754   9.562
   34        0.571   0.237   8.754   9.562
   35        0.545   0.227   8.758   9.530
   36        0.585   0.626   2.479   3.690
   37        1.334   2.160   0.000   3.494
tot         20.730  12.374 309.289 342.394

  FORCE on cell =-STRESS in cart. coord.  units (eV):
  Direction    XX          YY          ZZ          XY          YZ          ZX
  Alpha Z  1005.40896  1005.40896  1005.40896
  Ewald  115915.02823115915.02861************    -0.00033    -0.00009    -0.00015
  Hartree124431.14264124431.14264************     0.00000    -0.00002    -0.00004
  E(xc)   -1764.40271 -1764.40271 -1774.68408    -0.00000    -0.00000    -0.00001
  Local  ************************252580.40253     0.00193     0.00003     0.00004
  n-local   -76.12500   -33.45582   -34.05994    22.00767    -1.54778     1.60929
  augment  2365.63133  2365.63290  2384.75795    -0.00136    -0.00002    -0.00001
  Kinetic  5467.84726  5475.03029  5538.48499     5.70503     0.27047     0.35404
  Fock        0.00000     0.00000     0.00000     0.00000     0.00000     0.00000
  Total     -17.87594   -17.87594     2.66591    -0.00000     0.00000     0.00000
  in kB     -19.18104   -19.18103     2.86054    -0.00000     0.00000     0.00000

 VOLUME and BASIS-vectors are now :
  energy-cutoff  :      500.00
  volume of cell :     1493.16
      direct lattice vectors                 reciprocal lattice vectors
     8.813512802  0.000000000  0.000000000     0.113462137 -0.065507406  0.000000000
     4.406756909  7.632725690  0.000000000     0.000000000  0.131014796  0.000000000
     0.000000000  0.000000000 22.196203232     0.000000000  0.000000000  0.045052750

  length of vectors
     8.813512802  8.813512802 22.196203232     0.131014796  0.131014796  0.045052750

 FORCES acting on ions
    electron-ion (+dipol)            ewald-force                    non-local-force                 convergence-correction
   -.193E-04 -.160E-04 0.246E+04   0.518E-04 0.432E-04 -.246E+04   -.504E-19 0.136E-17 -.588E+00   -.281E-03 -.176E-03 -.327E+00
   -.696E-01 -.514E+00 0.246E+04   -.133E-01 0.293E+00 -.246E+04   0.151E-01 0.999E-01 -.379E+00   0.646E-01 0.104E+00 -.330E+00
   0.696E-01 -.514E+00 0.246E+04   0.132E-01 0.293E+00 -.246E+04   -.151E-01 0.999E-01 -.379E+00   -.642E-01 0.106E+00 -.329E+00
   -.480E+00 0.197E+00 0.246E+04   0.247E+00 -.158E+00 -.246E+04   0.940E-01 -.369E-01 -.379E+00   0.123E+00 0.372E-02 -.330E+00
   0.844E-05 -.234E-04 0.246E+04   0.951E-04 0.172E-05 -.245E+04   0.407E-17 0.262E-17 -.189E+00   0.439E-02 0.267E-02 -.271E+00
   0.480E+00 0.197E+00 0.246E+04   -.247E+00 -.158E+00 -.246E+04   -.940E-01 -.369E-01 -.379E+00   -.124E+00 0.465E-02 -.329E+00
   -.411E+00 0.317E+00 0.246E+04   0.260E+00 -.135E+00 -.246E+04   0.790E-01 -.630E-01 -.379E+00   0.600E-01 -.109E+00 -.329E+00
   0.411E+00 0.317E+00 0.246E+04   -.260E+00 -.135E+00 -.246E+04   -.790E-01 -.630E-01 -.379E+00   -.581E-01 -.110E+00 -.329E+00
   0.192E-04 -.418E-04 0.246E+04   0.166E-03 -.199E-04 -.246E+04   -.330E-17 0.332E-17 -.505E+00   -.466E-02 -.241E-02 -.301E+00
   -.652E+00 -.377E+00 0.797E+03   0.670E+00 0.387E+00 -.797E+03   -.176E+00 -.101E+00 -.403E+00   0.112E+00 0.645E-01 -.495E-01
   0.137E-04 -.180E+01 0.795E+03   0.148E-03 0.168E+01 -.795E+03   0.110E-08 0.166E-01 -.313E+00   0.426E-02 0.731E-01 -.784E-01
   0.652E+00 -.377E+00 0.797E+03   -.670E+00 0.387E+00 -.797E+03   0.176E+00 -.101E+00 -.403E+00   -.114E+00 0.665E-01 -.483E-01
   -.156E+01 0.899E+00 0.795E+03   0.146E+01 -.841E+00 -.795E+03   0.144E-01 -.829E-02 -.313E+00   0.658E-01 -.326E-01 -.784E-01
   0.156E+01 0.899E+00 0.795E+03   -.146E+01 -.841E+00 -.795E+03   -.144E-01 -.829E-02 -.313E+00   -.574E-01 -.333E-01 -.775E-01
   0.321E-04 0.248E+01 0.800E+03   0.235E-03 -.251E+01 -.800E+03   0.156E-08 0.235E-01 -.490E+00   -.297E-02 -.286E-02 -.118E+00
   -.208E-04 0.753E+00 0.797E+03   0.162E-03 -.774E+00 -.797E+03   0.135E-07 0.203E+00 -.403E+00   0.385E-03 -.132E+00 -.483E-01
   0.214E+01 -.124E+01 0.800E+03   -.218E+01 0.126E+01 -.800E+03   0.204E-01 -.117E-01 -.490E+00   -.372E-02 -.710E-03 -.118E+00
   -.214E+01 -.124E+01 0.800E+03   0.218E+01 0.126E+01 -.800E+03   -.204E-01 -.117E-01 -.490E+00   0.380E-02 0.194E-02 -.118E+00
   -.427E-04 -.564E+01 -.870E+03   0.559E-04 0.556E+01 0.869E+03   0.717E-08 0.108E+00 0.879E+00   -.609E-02 0.366E-02 0.252E+00
   -.229E+02 -.132E+02 -.889E+03   0.233E+02 0.134E+02 0.889E+03   -.791E+00 -.457E+00 -.809E+00   0.511E-01 0.294E-01 0.207E+00
   0.229E+02 -.132E+02 -.889E+03   -.233E+02 0.134E+02 0.889E+03   0.791E+00 -.457E+00 -.809E+00   -.418E-01 0.309E-01 0.206E+00
   -.170E+02 0.980E+01 -.865E+03   0.166E+02 -.959E+01 0.864E+03   0.320E+00 -.185E+00 0.684E+00   0.998E-01 -.607E-01 0.228E+00
   -.813E-05 0.264E+02 -.889E+03   0.137E-03 -.269E+02 0.889E+03   0.608E-07 0.913E+00 -.809E+00   0.563E-02 -.517E-01 0.206E+00
   0.170E+02 0.980E+01 -.865E+03   -.166E+02 -.959E+01 0.864E+03   -.320E+00 -.185E+00 0.684E+00   -.108E+00 -.622E-01 0.228E+00
   0.489E+01 0.282E+01 -.870E+03   -.482E+01 -.278E+01 0.869E+03   -.933E-01 -.539E-01 0.879E+00   -.542E-02 -.319E-02 0.252E+00
   -.489E+01 0.282E+01 -.870E+03   0.482E+01 -.278E+01 0.869E+03   0.933E-01 -.539E-01 0.879E+00   0.448E-03 -.707E-02 0.252E+00
   0.762E-05 -.196E+02 -.865E+03   0.199E-03 0.192E+02 0.864E+03   0.246E-07 0.370E+00 0.684E+00   -.321E-02 0.117E+00 0.228E+00
   -.108E-04 -.109E-04 -.242E+04   0.272E-04 0.311E-04 0.242E+04   -.277E-17 -.641E-18 0.467E+00   -.146E-02 -.860E-03 0.203E+00
   -.160E+01 -.104E+02 -.242E+04   0.229E+01 0.115E+02 0.242E+04   -.920E+00 -.145E+01 0.682E+00   0.631E-01 0.107E+00 0.218E+00
   0.160E+01 -.104E+02 -.242E+04   -.229E+01 0.114E+02 0.242E+04   0.920E+00 -.145E+01 0.682E+00   -.561E-01 0.108E+00 0.218E+00
   -.980E+01 0.382E+01 -.242E+04   0.111E+02 -.374E+01 0.242E+04   -.172E+01 -.712E-01 0.682E+00   0.124E+00 0.134E-02 0.219E+00
   0.980E+01 0.382E+01 -.242E+04   -.111E+02 -.374E+01 0.242E+04   0.172E+01 -.712E-01 0.682E+00   -.119E+00 0.204E-02 0.217E+00
   -.820E+01 0.658E+01 -.242E+04   0.877E+01 -.771E+01 0.242E+04   -.797E+00 0.152E+01 0.682E+00   0.657E-01 -.103E+00 0.218E+00
   0.820E+01 0.658E+01 -.242E+04   -.877E+01 -.771E+01 0.242E+04   0.797E+00 0.152E+01 0.682E+00   -.575E-01 -.104E+00 0.217E+00
   0.313E-04 -.324E-04 -.242E+04   0.145E-03 -.463E-04 0.242E+04   0.283E-16 -.351E-17 0.423E+00   -.591E-02 -.312E-02 0.249E+00
   -.299E-05 0.671E-05 -.778E+03   0.408E-04 0.362E-05 0.782E+03   -.710E-18 -.119E-18 -.350E+01   0.243E-03 0.145E-03 0.687E-01
   0.103E-03 -.587E-04 -.125E+04   0.173E-04 0.114E-05 0.126E+04   -.592E-18 0.564E-18 -.132E+02   0.130E-02 0.801E-03 -.262E+00
   -.685E-03 -.817E-03 0.169E+02   -.825E-13 0.417E-13 -.227E-11   0.249E-15 -.306E-17 -.166E+02   0.154E-01 0.949E-02 0.147E-01

 POSITION                                       TOTAL-FORCE (eV/Angst)
      0.00000      0.00000      5.28038         0.000000     -0.000000     -0.104382
      2.93784      0.00000      5.28038        -0.002817     -0.016232     -0.046039
      5.87568      0.00000      5.28038         0.002817     -0.016232     -0.046039
      1.46892      2.54424      5.28038        -0.015466      0.005677     -0.046039
      4.40676      2.54424      5.28038         0.000000      0.000000     -0.081304
      7.34459      2.54424      5.28038         0.015466      0.005677     -0.046039
      2.93784      5.08848      5.28038        -0.012649      0.010555     -0.046039
      5.87568      5.08848      5.28038         0.012649      0.010555     -0.046039
      8.81351      5.08848      5.28038         0.000000      0.000000     -0.056530
      1.46892      0.84808      7.67911        -0.044048     -0.025431      0.070084
      4.40676      0.84808      7.67911        -0.000000     -0.028421      0.037343
      7.34459      0.84808      7.67911         0.044048     -0.025431      0.070084
      2.93784      3.39232      7.67911        -0.024613      0.014210      0.037343
      5.87568      3.39232      7.67911         0.024613      0.014210      0.037343
      8.81351      3.39232      7.67911        -0.000000     -0.019244      0.120851
      4.40676      5.93656      7.67911         0.000000      0.050862      0.070084
      7.34459      5.93656      7.67911        -0.016666      0.009622      0.120851
     10.28243      5.93656      7.67911         0.016666      0.009622      0.120851
      8.81351      1.69636     10.07469         0.000000      0.032278      0.131415
      2.94338      1.69936     10.06127        -0.353929     -0.204341     -0.332714
      5.87013      1.69936     10.06127         0.353929     -0.204341     -0.332714
     10.27220      4.24631     10.06987         0.066351     -0.038308      0.094880
      4.40676      4.23400     10.06127         0.000000      0.408682     -0.332714
      7.35483      4.24631     10.06987        -0.066351     -0.038308      0.094880
     11.75117      6.78454     10.07469        -0.027954     -0.016139      0.131415
      5.87585      6.78454     10.07469         0.027954     -0.016139      0.131415
      8.81351      6.77283     10.06987         0.000000      0.076615      0.094880
      0.00000      0.00000     12.49672         0.000000     -0.000000     -0.054740
      2.97727      0.06002     12.55884        -0.168190     -0.290562     -0.118588
      5.83624      0.06002     12.55884         0.168190     -0.290562     -0.118588
      1.54061      2.54838     12.55884        -0.335729     -0.000376     -0.118588
      7.27290      2.54838     12.55884         0.335729     -0.000376     -0.118588
      2.97010      5.02433     12.55884        -0.167539      0.290938     -0.118588
      5.84341      5.02433     12.55884         0.167539      0.290938     -0.118588
      8.81351      5.08848     12.50791         0.000000      0.000000     -0.047695
      4.40676      2.54424     12.31155         0.000000     -0.000000      0.974472
      4.40676      2.54424     14.18155         0.000000      0.000000     -0.007634
    total drift:                                0.014719      0.008676      0.319117

  FREE ENERGIE OF THE ION-ELECTRON SYSTEM (eV)
  free  energy   TOTEN  =      -123.96726667 eV

  energy  without entropy=     -123.96726667  energy(sigma->0) =     -123.96726667

 stress matrix after NEB project (eV)
    -17.87594     -0.00000      0.00000
     -0.00000    -17.87594      0.00000
      0.00000      0.00000      2.66591
  FORCES: max atom, RMS     0.007634    0.001255
  FORCE total and by dimension    0.007634    0.007634
  Stress total and by dimension   25.420570   17.875938
|           W    W    AA    RRRRR   N    N  II  N    N   GGGG   !!!           |
|           W    W   A  A   R    R  NN   N  II  NN   N  G    G  !!!           |
|           W    W  A    A  R    R  N N  N  II  N N  N  G       !!!           |
|           W WW W  AAAAAA  RRRRR   N  N N  II  N  N N  G  GGG   !            |
|           WW  WW  A    A  R   R   N   NN  II  N   NN  G    G                |
|           W    W  A    A  R    R  N    N  II  N    N   GGGG   !!!           |
|     Tetrahedron method does not include variations of the Fermi             |
|     occupations, so forces and stress will be inaccurate. We suggest        |
|     using a different smearing scheme ISMEAR = 1 or 2 for metals in         |
|     relaxations.                                                            |

 total charge

# of ion       s       p       d       tot
    1        0.545   0.239   8.768   9.551
    2        0.542   0.241   8.765   9.547
    3        0.542   0.241   8.765   9.547
    4        0.542   0.241   8.765   9.547
    5        0.546   0.239   8.762   9.547
    6        0.542   0.241   8.765   9.547
    7        0.542   0.241   8.765   9.547
    8        0.542   0.241   8.765   9.547
    9        0.542   0.240   8.768   9.550
   10        0.520   0.308   8.774   9.601
   11        0.521   0.307   8.776   9.603
   12        0.520   0.308   8.774   9.601
   13        0.521   0.307   8.776   9.603
   14        0.521   0.307   8.776   9.603
   15        0.517   0.309   8.773   9.599
   16        0.520   0.308   8.774   9.601
   17        0.517   0.309   8.773   9.599
   18        0.517   0.309   8.773   9.599
   19        0.515   0.297   8.772   9.584
   20        0.556   0.327   8.757   9.640
   21        0.556   0.327   8.757   9.640
   22        0.508   0.305   8.776   9.588
   23        0.556   0.327   8.757   9.640
   24        0.508   0.305   8.776   9.588
   25        0.515   0.297   8.772   9.584
   26        0.515   0.297   8.772   9.584
   27        0.508   0.305   8.776   9.588
   28        0.543   0.226   8.761   9.530
   29        0.571   0.237   8.754   9.562
   30        0.571   0.237   8.754   9.562
   31        0.571   0.237   8.754   9.562
   32        0.571   0.237   8.754   9.562
   33        0.571   0.237   8.754   9.562
   34        0.571   0.237   8.754   9.562
   35        0.545   0.227   8.758   9.530
   36        0.585   0.626   2.479   3.690
   37        1.334   2.160   0.000   3.494
tot         20.730  12.374 309.289 342.394

 BZINTS: Fermi energy:    0.539882;  394.000000 electrons
         Band energy:-0.126868E+04;  BLOECHL correction:   -0.078409