 vasp.6.2.0 18Jan21 (build Jun 12 2021 23:27:24) complex

 executed on             LinuxIFC date 2022.05.26  19:43:57

 INCAR:
   ISMEAR = -5
   SIGMA = 0.1
   ISPIN = 1
   EDIFF = 1.d-5
   EDIFFG = -0.01
   NSW = 0
   NELM = 150
   ENCUT = 500
   ISIF = 2
   IBRION = 2
   LREAL = Auto
   ALGO = Fast
   ICHARG = 11
   LORBIT = 10
   LCHARG = .F.
   LWAVE = .F.

 POTCAR:    PAW_PBE Ag 02Apr2005
 POTCAR:    PAW_PBE Mo 08Apr2002
 POTCAR:    PAW_PBE H 15Jun2001
|           W    W    AA    RRRRR   N    N  II  N    N   GGGG   !!!           |
|           W    W   A  A   R    R  NN   N  II  NN   N  G    G  !!!           |
|           W    W  A    A  R    R  N N  N  II  N N  N  G       !!!           |
|           W WW W  AAAAAA  RRRRR   N  N N  II  N  N N  G  GGG   !            |
|           WW  WW  A    A  R   R   N   NN  II  N   NN  G    G                |
|           W    W  A    A  R    R  N    N  II  N    N   GGGG   !!!           |
|     For optimal performance we recommend to set                             |
|       NCORE = 2 up to number-of-cores-per-socket                            |
|     This setting can greatly improve the performance of VASP for DFT.       |
|     The default, NCORE=1 might be grossly inefficient on modern             |
|     multi-core architectures or massively parallel machines. Do your        |
|     Unfortunately you need to use the default for GW and RPA                |
|     calculations (for HF NCORE is supported but not extensively tested      |
|     yet).                                                                   |

 POTCAR:    PAW_PBE Ag 02Apr2005
   VRHFIN =Ag : s1 d10

   TITEL  = PAW_PBE Ag 02Apr2005
   POMASS =  107.868; ZVAL   =   11.000    mass and valenz
   ENMAX  =  249.844; ENMIN  =  187.383 eV

 POTCAR:    PAW_PBE Mo 08Apr2002
   VRHFIN =Mo: 4p5s4d

   TITEL  = PAW_PBE Mo 08Apr2002
   POMASS =   95.940; ZVAL   =    6.000    mass and valenz
   ENMAX  =  224.584; ENMIN  =  168.438 eV

 POTCAR:    PAW_PBE H 15Jun2001
   VRHFIN =H: ultrasoft test

   TITEL  = PAW_PBE H 15Jun2001
   POMASS =    1.000; ZVAL   =    1.000    mass and valenz
   ENMAX  =  250.000; ENMIN  =  200.000 eV

 Optimization of the real space projectors (new method)

 maximal supplied QI-value         = 15.12
 optimisation between [QCUT,QGAM] = [ 11.34, 22.83] = [ 36.00,145.93] Ry
 Optimized for a Real-space Cutoff    1.43 Angstroem

   l    n(q)    QCUT    max X(q) W(low)/X(q) W(high)/X(q)  e(spline)
   2      9    11.338    53.897    0.16E-03    0.20E-03    0.28E-06
   2      9    11.338    52.416    0.16E-03    0.20E-03    0.29E-06
   0     10    11.338   122.045    0.31E-04    0.76E-04    0.15E-06
   0     10    11.338    73.629    0.30E-04    0.72E-04    0.15E-06
   1      9    11.338    15.255    0.20E-03    0.19E-04    0.17E-06
   1      9    11.338     9.562    0.16E-03    0.15E-04    0.14E-06
 Optimization of the real space projectors (new method)

[...]

   l    n(q)    QCUT    max X(q) W(low)/X(q) W(high)/X(q)  e(spline)
   2     10    11.429    80.908    0.27E-03    0.78E-03    0.13E-05
   2     10    11.429    79.000    0.27E-03    0.78E-03    0.13E-05
   0     11    11.429    52.066    0.33E-04    0.97E-04    0.72E-06
   0     11    11.429    24.514    0.27E-04    0.80E-04    0.60E-06
   1     10    11.429    16.033    0.31E-04    0.17E-03    0.36E-06
   1     10    11.429    11.179    0.22E-04    0.13E-03    0.29E-06
 Optimization of the real space projectors (new method)

 maximal supplied QI-value         = 34.20
 optimisation between [QCUT,QGAM] = [ 11.29, 22.57] = [ 35.68,142.71] Ry
 Optimized for a Real-space Cutoff    1.16 Angstroem

   l    n(q)    QCUT    max X(q) W(low)/X(q) W(high)/X(q)  e(spline)
   0      8    11.287    19.460    0.40E-03    0.73E-03    0.16E-06
   0      8    11.287    12.209    0.38E-03    0.70E-03    0.15E-06
   1      7    11.287     4.655    0.22E-03    0.25E-04    0.22E-06
  PAW_PBE Ag 02Apr2005                  :
  PAW_PBE Mo 08Apr2002                  :
  PAW_PBE H 15Jun2001                   :

 POSCAR: Ag-Mo-H
  positions in direct lattice
  velocities in cartesian coordinates
 exchange correlation table for  LEXCH =        8
   RHO(1)=    0.500       N(1)  =     2000
   RHO(2)=  100.500       N(2)  =     4000

 VTST: version 3.2, (02/03/18)

 CHAIN: initializing optimizer

 OPT: Using VASP Conjugate-Gradient optimizer
 CHAIN: Read ICHAIN            0

 POSCAR: Ag-Mo-H
  positions in direct lattice
  velocities in cartesian coordinates

 ion  position               nearest neighbor table
   1  0.000  0.000  0.238-   2 2.93   8 2.93   7 2.93   6 2.93   4 2.93  12 2.93  16 2.93  10 2.93
                             3 2.93
   2  0.333  0.000  0.238-   1 2.93   8 2.93   9 2.93   3 2.93   4 2.93   5 2.93  10 2.93  17 2.93
                            11 2.93
   3  0.667  0.000  0.238-   9 2.93   2 2.93   5 2.93  11 2.93   7 2.93  18 2.93   1 2.93   6 2.93
                            12 2.93
   4  0.000  0.333  0.238-   5 2.93   6 2.93   2 2.93   1 2.93   7 2.93  13 2.93  15 2.93   9 2.93
                            10 2.93
   5  0.333  0.333  0.238-   4 2.93   3 2.93   7 2.93   2 2.93   8 2.93  14 2.93  13 2.93  11 2.93
                             6 2.93
   6  0.667  0.333  0.238-   4 2.93   9 2.93   1 2.93  15 2.93   8 2.93  12 2.93   3 2.93   5 2.93
                            14 2.93
   7  0.000  0.667  0.238-   8 2.93   1 2.93   5 2.93   3 2.93   4 2.93  16 2.93  18 2.93  13 2.93
                             9 2.93
   8  0.333  0.667  0.238-   7 2.93   1 2.93   2 2.93   9 2.93   5 2.93  16 2.93   6 2.93  17 2.93
                            14 2.93
   9  0.667  0.667  0.238-   3 2.93   2 2.93   8 2.93   6 2.93  17 2.93   4 2.93  15 2.93   7 2.93
                            18 2.93
  10  0.111  0.111  0.346-  20 2.90  19 2.93  26 2.93  12 2.93  16 2.93  15 2.93  17 2.93  13 2.93
                            11 2.93   2 2.93   1 2.93   4 2.93
  11  0.444  0.111  0.346-  21 2.90  20 2.90  27 2.93  14 2.93  17 2.93  18 2.93   3 2.93  12 2.93
                            13 2.93  10 2.93   5 2.93   2 2.93
  12  0.778  0.111  0.346-  21 2.90  25 2.93  19 2.93  10 2.93  16 2.93  18 2.93  15 2.93  11 2.93
                             1 2.93  14 2.93   6 2.93   3 2.93
  13  0.111  0.444  0.346-  20 2.90  23 2.90  22 2.93  15 2.93  14 2.93  18 2.93  10 2.93  11 2.93
                            16 2.93   4 2.93   5 2.93   7 2.93
  14  0.444  0.444  0.346-  23 2.90  21 2.90  24 2.93  13 2.93  11 2.93  16 2.93   5 2.93  12 2.93
                            17 2.93   8 2.93  15 2.93   6 2.93
  15  0.778  0.444  0.346-  24 2.92  22 2.92  19 2.92  13 2.93  10 2.93  12 2.93  17 2.93  18 2.93
                             4 2.93   6 2.93   9 2.93  14 2.93
  16  0.111  0.778  0.346-  23 2.90  26 2.93  25 2.93  18 2.93  12 2.93  10 2.93  14 2.93  17 2.93
                            13 2.93   7 2.93   8 2.93   1 2.93
  17  0.444  0.778  0.346-  27 2.92  24 2.92  26 2.92  11 2.93  10 2.93   9 2.93  18 2.93  15 2.93
                            16 2.93   2 2.93  14 2.93   8 2.93
  18  0.778  0.778  0.346-  22 2.92  27 2.92  25 2.92  16 2.93  12 2.93  13 2.93  11 2.93  17 2.93
                            15 2.93   7 2.93   3 2.93   9 2.93
  19  0.889  0.222  0.454-  28 2.92  15 2.92  10 2.93  12 2.93  24 2.93  22 2.93  26 2.93  25 2.93
                            20 2.93  21 2.93  32 2.96  31 2.96
  20  0.222  0.222  0.452-  36 2.79  13 2.90  11 2.90  10 2.90  21 2.93  23 2.93  19 2.93  26 2.93
                            27 2.93  22 2.93  31 2.94  29 2.94
  21  0.555  0.222  0.452-  36 2.79  11 2.90  14 2.90  12 2.90  20 2.93  23 2.93  25 2.93  19 2.93
                            27 2.93  24 2.93  30 2.94  32 2.94
  22  0.888  0.556  0.454-  35 2.91  24 2.92  27 2.92  18 2.92  15 2.92  13 2.93  25 2.93  19 2.93
                            23 2.93  20 2.93  33 2.94  31 2.94
  23  0.222  0.555  0.452-  36 2.79  14 2.90  13 2.90  16 2.90  21 2.93  20 2.93  26 2.93  25 2.93
                            22 2.93  24 2.93  34 2.94  33 2.94
  24  0.556  0.556  0.454-  35 2.91  27 2.92  22 2.92  15 2.92  17 2.92  14 2.93  19 2.93  26 2.93
                            23 2.93  21 2.93  32 2.94  34 2.94
  25  0.889  0.889  0.454-  28 2.92  18 2.92  16 2.93  12 2.93  22 2.93  27 2.93  26 2.93  19 2.93
                            23 2.93  21 2.93  33 2.96  30 2.96
  26  0.222  0.889  0.454-  28 2.92  17 2.92  16 2.93  10 2.93  27 2.93  24 2.93  25 2.93  19 2.93
                            23 2.93  20 2.93  34 2.96  29 2.96
  27  0.556  0.888  0.454-  35 2.91  24 2.92  22 2.92  17 2.92  18 2.92  11 2.93  26 2.93  25 2.93
                            20 2.93  21 2.93  29 2.94  30 2.94
  28  0.000  0.000  0.561-  26 2.92  25 2.92  19 2.92  29 2.95  34 2.95  33 2.95  32 2.95  31 2.95
                            30 2.95
  29  0.333  0.005  0.562-  31 2.88  30 2.89  36 2.89  27 2.94  20 2.94  28 2.95  35 2.96  26 2.96
                            34 3.02
  30  0.662  0.005  0.562-  32 2.88  29 2.89  36 2.89  27 2.94  21 2.94  28 2.95  35 2.96  25 2.96
                            33 3.02
  31  0.005  0.333  0.562-  29 2.88  33 2.89  36 2.89  22 2.94  20 2.94  28 2.95  35 2.96  19 2.96
                            32 3.02
  32  0.662  0.333  0.562-  30 2.88  34 2.89  36 2.89  24 2.94  21 2.94  28 2.95  35 2.96  19 2.96
                            31 3.02
  33  0.005  0.662  0.562-  34 2.88  31 2.89  36 2.89  22 2.94  23 2.94  28 2.95  35 2.96  25 2.96
                            30 3.02
  34  0.333  0.662  0.562-  33 2.88  32 2.89  36 2.89  24 2.94  23 2.94  28 2.95  35 2.96  26 2.96
                            29 3.02
  35  0.667  0.667  0.561-  24 2.91  27 2.91  22 2.91  30 2.96  32 2.96  29 2.96  34 2.96  31 2.96
                            33 2.96
  36  0.333  0.333  0.552-  37 1.71  21 2.79  20 2.79  23 2.79  31 2.89  30 2.89  33 2.89  29 2.89
                            34 2.89  32 2.89
  37  0.333  0.333  0.629-  36 1.71

  LATTYP: Found a hexagonal cell.
 ALAT       =     8.7913665772
 C/A-ratio  =     2.5227160501

  Lattice vectors:

 A1 = (  -4.3956832886,  -7.6135467898,   0.0000000000)
 A2 = (   8.7913665771,   0.0000000000,   0.0000000000)
 A3 = (   0.0000000000,   0.0000000000,  22.1781215668)

Analysis of symmetry for initial positions (statically):
 Subroutine PRICEL returns:
 Original cell was already a primitive cell.

 Routine SETGRP: Setting up the symmetry group for a
 hexagonal supercell.

 Subroutine GETGRP returns: Found  6 space group operations
 (whereof  6 operations were pure point group operations)
 out of a pool of 24 trial point group operations.

The static configuration has the point symmetry C_3v.

Analysis of symmetry for dynamics (positions and initial velocities):
 Subroutine PRICEL returns:
 Original cell was already a primitive cell.

[...]

The dynamic configuration has the point symmetry C_3v.

Analysis of constrained symmetry for selective dynamics:
 Subroutine PRICEL returns:
 Original cell was already a primitive cell.

 Routine SETGRP: Setting up the symmetry group for a
 hexagonal supercell.

 Subroutine GETGRP returns: Found  6 space group operations
 (whereof  6 operations were pure point group operations)
[...]
     24      -4.7381      2.00000
     25      -4.7102      2.00000
     26      -4.6985      2.00000
     27      -4.6724      2.00000
     28      -4.6675      2.00000
     29      -4.6539      2.00000
     30      -4.6436      2.00000
     31      -4.6335      2.00000
     32      -4.5923      2.00000
     33      -4.5774      2.00000
     34      -4.5435      2.00000
     35      -4.5143      2.00000
     36      -4.5121      2.00000
     37      -4.4691      2.00000
     38      -4.4408      2.00000
     39      -4.4337      2.00000
     40      -4.4326      2.00000
     41      -4.4148      2.00000
     42      -4.4107      2.00000
     43      -4.3155      2.00000
     44      -4.2904      2.00000
     45      -4.2865      2.00000
     46      -4.2756      2.00000
     47      -4.2718      2.00000
     48      -4.2675      2.00000
     49      -4.2531      2.00000
     50      -4.2482      2.00000
     51      -4.2397      2.00000
     52      -4.2368      2.00000
     53      -4.1635      2.00000
     54      -4.1546      2.00000
     55      -4.1448      2.00000
     56      -4.1405      2.00000
     57      -4.1247      2.00000
     58      -4.1082      2.00000
     59      -4.0794      2.00000
     60      -4.0592      2.00000
[...]
    238       7.1293      0.00000
    239       7.1772      0.00000
    240       7.2257      0.00000
    241       7.2686      0.00000
    242       7.2883      0.00000
    243       7.3079      0.00000
    244       7.3652      0.00000
    245       7.4916      0.00000
    246       7.5271      0.00000
    247       7.5754      0.00000
    248       7.6388      0.00000
    249       7.6574      0.00000
    250       7.8719      0.00000
    251       7.9110      0.00000
    252       8.0938      0.00000

 soft charge-density along one line, spin component           1
         0         1         2         3         4         5         6         7         8         9
 total charge-density along one line

------------------------ aborting loop because EDIFF is reached ----------------------------------------

 total charge

# of ion       s       p       d       tot
    1        0.421   0.198   9.179   9.799
    2        0.414   0.204   9.178   9.795
    3        0.414   0.204   9.178   9.795
    4        0.414   0.204   9.178   9.795
    5        0.422   0.201   9.176   9.800
    6        0.414   0.204   9.178   9.795
    7        0.414   0.204   9.178   9.795
    8        0.414   0.204   9.178   9.795
    9        0.416   0.202   9.178   9.796
   10        0.410   0.269   9.162   9.841
   11        0.406   0.268   9.169   9.843
   12        0.410   0.269   9.162   9.841
   13        0.406   0.268   9.169   9.843
   14        0.406   0.268   9.169   9.843
   15        0.405   0.267   9.165   9.837
   16        0.410   0.269   9.162   9.841
   17        0.405   0.267   9.165   9.837
   18        0.405   0.267   9.165   9.837
   19        0.401   0.264   9.168   9.833
   20        0.445   0.297   9.139   9.881
   21        0.445   0.297   9.139   9.881
   22        0.393   0.273   9.167   9.832
   23        0.445   0.297   9.139   9.881
   24        0.393   0.273   9.167   9.832
   25        0.401   0.264   9.168   9.833
   26        0.401   0.264   9.168   9.833
   27        0.393   0.273   9.167   9.832
   28        0.409   0.201   9.175   9.784
   29        0.434   0.214   9.157   9.805
   30        0.434   0.214   9.157   9.805
   31        0.434   0.214   9.157   9.805
   32        0.434   0.214   9.157   9.805
   33        0.434   0.214   9.157   9.805
   34        0.434   0.214   9.157   9.805
   35        0.403   0.201   9.179   9.782
   36        0.429   0.333   4.134   4.896
   37        0.520   0.011   0.000   0.531
tot         15.486   8.767 324.940 349.192

  FORCE on cell =-STRESS in cart. coord.  units (eV):
  Direction    XX          YY          ZZ          XY          YZ          ZX
  Alpha Z   745.52675   745.52675   745.52675
  Ewald  119294.30778119294.30769************    -0.00001    -0.00001    -0.00001
  Hartree129292.77260129292.77256************    -0.00001    -0.00000    -0.00001
  E(xc)   -2058.47065 -2058.47063 -2065.37172    -0.00001     0.00000     0.00000
  Local  ************************259847.21838     0.00023    -0.00002    -0.00005
  n-local  -348.36339  -328.86688  -340.71588    11.19938    -0.28167     0.44909
  augment  3227.49466  3227.49481  3241.04681    -0.00013     0.00001     0.00001
  Kinetic  4843.24653  4847.83589  4882.59687     4.34696     0.15889     0.44580
  Fock        0.00000     0.00000     0.00000     0.00000     0.00000     0.00000
  Total      -9.18760    -9.18760     0.10444    -0.00000    -0.00000     0.00000
  in kB      -9.91619    -9.91619     0.11272    -0.00000    -0.00000     0.00000

 VOLUME and BASIS-vectors are now :
  energy-cutoff  :      500.00
  volume of cell :     1484.46
      direct lattice vectors                 reciprocal lattice vectors
     8.791366577  0.000000000  0.000000000     0.113747958 -0.065672414  0.000000000
     4.395683289  7.613546790  0.000000000     0.000000000  0.131344829  0.000000000
     0.000000000  0.000000000 22.178121567     0.000000000  0.000000000  0.045089481

  length of vectors
     8.791366577  8.791366577 22.178121567     0.131344829  0.131344829  0.045089481

 FORCES acting on ions
    electron-ion (+dipol)            ewald-force                    non-local-force                 convergence-correction
   0.460E-04 -.282E-04 0.248E+04   -.953E-04 0.593E-04 -.248E+04   0.300E-17 0.611E-18 -.194E+01   -.832E-04 -.155E-03 0.860E-01
   0.264E-01 0.117E-01 0.248E+04   -.179E-01 -.132E+00 -.248E+04   0.825E-01 0.226E+00 -.160E+01   -.903E-01 -.112E+00 0.194E+00
   -.263E-01 0.117E-01 0.248E+04   0.180E-01 -.132E+00 -.248E+04   -.825E-01 0.226E+00 -.160E+01   0.897E-01 -.110E+00 0.194E+00
   0.234E-01 0.169E-01 0.248E+04   -.123E+00 0.505E-01 -.248E+04   0.237E+00 -.416E-01 -.160E+01   -.142E+00 -.220E-01 0.194E+00
   -.786E-05 -.201E-04 0.248E+04   0.980E-04 -.198E-05 -.248E+04   -.562E-17 0.986E-18 -.107E+01   0.618E-02 0.378E-02 0.293E+00
   -.234E-01 0.170E-01 0.248E+04   0.123E+00 0.504E-01 -.248E+04   -.237E+00 -.416E-01 -.160E+01   0.141E+00 -.211E-01 0.194E+00
   -.299E-02 -.288E-01 0.248E+04   -.105E+00 0.814E-01 -.248E+04   0.155E+00 -.184E+00 -.160E+01   -.500E-01 0.133E+00 0.194E+00
   0.302E-02 -.287E-01 0.248E+04   0.105E+00 0.813E-01 -.248E+04   -.155E+00 -.184E+00 -.160E+01   0.516E-01 0.132E+00 0.194E+00
   0.363E-04 -.131E-04 0.248E+04   0.792E-04 -.643E-04 -.248E+04   0.780E-18 -.122E-17 -.172E+01   -.663E-02 -.341E-02 0.229E+00
   0.168E+01 0.969E+00 0.805E+03   -.122E+01 -.705E+00 -.805E+03   -.402E+00 -.232E+00 -.701E+00   -.756E-01 -.436E-01 0.229E+00
   -.284E-04 0.170E+01 0.804E+03   0.405E-04 -.152E+01 -.804E+03   0.447E-12 0.681E-01 -.145E+00   0.617E-02 -.266E+00 0.317E+00
   -.168E+01 0.969E+00 0.805E+03   0.122E+01 -.705E+00 -.805E+03   0.402E+00 -.232E+00 -.701E+00   0.743E-01 -.430E-01 0.228E+00
   0.147E+01 -.848E+00 0.804E+03   -.131E+01 0.758E+00 -.804E+03   0.590E-01 -.341E-01 -.145E+00   -.227E+00 0.138E+00 0.317E+00
   -.147E+01 -.848E+00 0.804E+03   0.131E+01 0.758E+00 -.804E+03   -.590E-01 -.341E-01 -.145E+00   0.238E+00 0.137E+00 0.316E+00
   0.155E-04 -.143E+00 0.805E+03   -.108E-03 -.154E+00 -.804E+03   0.887E-12 0.135E+00 -.772E+00   -.127E-02 0.137E+00 0.251E+00
   -.818E-05 -.194E+01 0.805E+03   0.205E-04 0.141E+01 -.805E+03   0.305E-11 0.464E+00 -.701E+00   -.937E-04 0.858E-01 0.228E+00
   -.124E+00 0.716E-01 0.805E+03   -.133E+00 0.769E-01 -.804E+03   0.117E+00 -.675E-01 -.772E+00   0.118E+00 -.695E-01 0.251E+00
   0.124E+00 0.715E-01 0.805E+03   0.133E+00 0.770E-01 -.804E+03   -.117E+00 -.675E-01 -.772E+00   -.118E+00 -.679E-01 0.251E+00
   0.393E-04 -.462E+01 -.886E+03   -.126E-03 0.437E+01 0.885E+03   0.104E-11 0.158E+00 0.856E+00   0.107E-02 0.834E-01 0.348E+00
   -.176E+02 -.102E+02 -.896E+03   0.188E+02 0.109E+02 0.897E+03   -.132E+01 -.765E+00 -.133E+01   -.193E-01 -.111E-01 0.510E+00
   0.176E+02 -.102E+02 -.896E+03   -.188E+02 0.109E+02 0.897E+03   0.132E+01 -.765E+00 -.133E+01   0.836E-02 -.116E-01 0.510E+00
   -.112E+02 0.648E+01 -.885E+03   0.111E+02 -.643E+01 0.885E+03   0.251E+00 -.145E+00 0.334E+00   -.136E+00 0.791E-01 0.336E+00
   -.514E-04 0.204E+02 -.896E+03   0.380E-04 -.217E+02 0.897E+03   0.100E-10 0.153E+01 -.133E+01   -.551E-02 0.137E-01 0.510E+00
   0.112E+02 0.648E+01 -.885E+03   -.111E+02 -.643E+01 0.885E+03   -.251E+00 -.145E+00 0.334E+00   0.138E+00 0.797E-01 0.336E+00
   0.400E+01 0.231E+01 -.886E+03   -.378E+01 -.218E+01 0.885E+03   -.137E+00 -.792E-01 0.856E+00   -.722E-01 -.419E-01 0.348E+00
   -.400E+01 0.231E+01 -.886E+03   0.378E+01 -.218E+01 0.885E+03   0.137E+00 -.792E-01 0.856E+00   0.724E-01 -.409E-01 0.348E+00
   0.197E-04 -.130E+02 -.885E+03   0.110E-03 0.129E+02 0.885E+03   0.190E-11 0.290E+00 0.334E+00   -.318E-03 -.158E+00 0.336E+00
   0.536E-04 -.363E-04 -.249E+04   -.114E-03 0.767E-04 0.249E+04   -.915E-18 0.277E-17 0.194E+01   0.283E-03 0.294E-04 0.799E-01
   -.168E+02 -.299E+02 -.250E+04   0.176E+02 0.309E+02 0.250E+04   -.954E+00 -.139E+01 0.130E+01   0.227E+00 0.313E+00 0.106E+00
   0.168E+02 -.299E+02 -.250E+04   -.176E+02 0.309E+02 0.250E+04   0.954E+00 -.139E+01 0.130E+01   -.228E+00 0.314E+00 0.106E+00
   -.343E+02 0.371E+00 -.250E+04   0.356E+02 -.259E+00 0.250E+04   -.168E+01 -.130E+00 0.130E+01   0.385E+00 0.399E-01 0.106E+00
   0.343E+02 0.371E+00 -.250E+04   -.356E+02 -.259E+00 0.250E+04   0.168E+01 -.130E+00 0.130E+01   -.385E+00 0.408E-01 0.107E+00
   -.175E+02 0.295E+02 -.250E+04   0.180E+02 -.307E+02 0.250E+04   -.729E+00 0.152E+01 0.130E+01   0.159E+00 -.353E+00 0.106E+00
   0.175E+02 0.295E+02 -.250E+04   -.180E+02 -.307E+02 0.250E+04   0.729E+00 0.152E+01 0.130E+01   -.157E+00 -.353E+00 0.107E+00
   0.263E-04 -.134E-04 -.250E+04   0.104E-03 -.649E-04 0.249E+04   0.270E-18 -.233E-19 0.212E+01   -.630E-02 -.321E-02 -.324E-01
   -.244E-04 -.547E-05 -.129E+04   0.573E-04 0.696E-05 0.130E+04   0.994E-18 0.265E-18 -.222E+01   0.477E-03 0.294E-03 0.273E+00
   0.517E-05 -.413E-05 -.268E+03   0.487E-05 0.727E-07 0.271E+03   -.171E-18 -.135E-18 -.210E+01   0.634E-04 0.391E-04 -.846E-01
   0.300E-03 -.713E-03 0.349E+01   -.265E-13 -.851E-13 0.284E-11   -.332E-15 0.444E-15 -.121E+02   -.576E-02 -.129E-03 0.862E+01

 POSITION                                       TOTAL-FORCE (eV/Angst)
      0.00000      0.00000      5.28219        -0.000000      0.000000     -0.047945
      2.93046      0.00000      5.28219         0.001361     -0.005018      0.032161
      5.86091      0.00000      5.28219        -0.001361     -0.005018      0.032161
      1.46523      2.53785      5.28219        -0.003665      0.003687      0.032161
      4.39568      2.53785      5.28219        -0.000000      0.000000     -0.002979
      7.32614      2.53785      5.28219         0.003665      0.003687      0.032161
      2.93046      5.07570      5.28219        -0.005026      0.001331      0.032161
      5.86091      5.07570      5.28219         0.005026      0.001331      0.032161
      8.79137      5.07570      5.28219        -0.000000      0.000000     -0.002871
      1.46523      0.84595      7.67490        -0.020189     -0.011656     -0.035538
      4.39568      0.84595      7.67490        -0.000000     -0.021816     -0.052569
      7.32614      0.84595      7.67490         0.020189     -0.011656     -0.035538
      2.93046      3.38380      7.67490        -0.018893      0.010908     -0.052569
      5.86091      3.38380      7.67490         0.018893      0.010908     -0.052569
      8.79137      3.38380      7.67490        -0.000000     -0.025529      0.002015
      4.39568      5.92165      7.67490         0.000000      0.023312     -0.035538
      7.32614      5.92165      7.67490        -0.022109      0.012765      0.002015
     10.25659      5.92165      7.67490         0.022109      0.012765      0.002015
      8.79137      1.69286     10.06155        -0.000000     -0.014371      0.012203
      2.93202      1.69280     10.03008        -0.132084     -0.076258     -0.089629
      5.85935      1.69280     10.03008         0.132084     -0.076258     -0.089629
     10.25345      4.23157     10.06207         0.041118     -0.023739      0.004373
      4.39568      4.22795     10.03008         0.000000      0.152517     -0.089629
      7.32929      4.23157     10.06207        -0.041118     -0.023739      0.004373
     11.72099      6.76712     10.06155         0.012446      0.007186      0.012203
      5.86174      6.76712     10.06155        -0.012446      0.007186      0.012203
      8.79137      6.76396     10.06207         0.000000      0.047479      0.004373
      0.00000      0.00000     12.43674        -0.000000      0.000000      0.034931
      2.95191      0.04038     12.46589         0.014553     -0.018749      0.006398
      5.83946      0.04038     12.46589        -0.014553     -0.018749      0.006398
      1.51092      2.53624     12.46589        -0.008960      0.021978      0.006398
      7.28044      2.53624     12.46589         0.008960      0.021978      0.006398
      2.95470      5.03693     12.46589        -0.023513     -0.003229      0.006398
      5.83667      5.03693     12.46589         0.023513     -0.003229      0.006398
      8.79137      5.07570     12.43630        -0.000000      0.000000      0.074001
      4.39568      2.53785     12.24527        -0.000000      0.000000      0.187694
      4.39568      2.53785     13.95606        -0.000000      0.000000      0.003246
    total drift:                               -0.005455     -0.000842      0.039968

  FREE ENERGIE OF THE ION-ELECTRON SYSTEM (eV)
  free  energy   TOTEN  =       -99.93853729 eV

  energy  without entropy=      -99.93853729  energy(sigma->0) =      -99.93853729

 stress matrix after NEB project (eV)
     -9.18760     -0.00000      0.00000
     -0.00000     -9.18760      0.00000
      0.00000     -0.00000      0.10444
  FORCES: max atom, RMS     0.003246    0.000534
  FORCE total and by dimension    0.003246    0.003246
  Stress total and by dimension   12.993655    9.187605
|           W    W    AA    RRRRR   N    N  II  N    N   GGGG   !!!           |
|           W    W   A  A   R    R  NN   N  II  NN   N  G    G  !!!           |
|           W    W  A    A  R    R  N N  N  II  N N  N  G       !!!           |
|           W WW W  AAAAAA  RRRRR   N  N N  II  N  N N  G  GGG   !            |
|           WW  WW  A    A  R   R   N   NN  II  N   NN  G    G                |
|           W    W  A    A  R    R  N    N  II  N    N   GGGG   !!!           |
|     Tetrahedron method does not include variations of the Fermi             |
|     occupations, so forces and stress will be inaccurate. We suggest        |
|     using a different smearing scheme ISMEAR = 1 or 2 for metals in         |
|     relaxations.                                                            |

 total charge

# of ion       s       p       d       tot
    1        0.421   0.198   9.179   9.799
    2        0.414   0.204   9.178   9.795
    3        0.414   0.204   9.178   9.795
    4        0.414   0.204   9.178   9.795
    5        0.422   0.201   9.176   9.800
    6        0.414   0.204   9.178   9.795
    7        0.414   0.204   9.178   9.795
    8        0.414   0.204   9.178   9.795
    9        0.416   0.202   9.178   9.796
   10        0.410   0.269   9.162   9.841
   11        0.406   0.268   9.169   9.843
   12        0.410   0.269   9.162   9.841
   13        0.406   0.268   9.169   9.843
   14        0.406   0.268   9.169   9.843
   15        0.405   0.267   9.165   9.837
   16        0.410   0.269   9.162   9.841
   17        0.405   0.267   9.165   9.837
   18        0.405   0.267   9.165   9.837
   19        0.401   0.264   9.168   9.833
   20        0.445   0.297   9.139   9.881
   21        0.445   0.297   9.139   9.881
   22        0.393   0.273   9.167   9.832
   23        0.445   0.297   9.139   9.881
   24        0.393   0.273   9.167   9.832
   25        0.401   0.264   9.168   9.833
   26        0.401   0.264   9.168   9.833
   27        0.393   0.273   9.167   9.832
   28        0.409   0.201   9.175   9.784
   29        0.434   0.214   9.157   9.805
   30        0.434   0.214   9.157   9.805
   31        0.434   0.214   9.157   9.805
   32        0.434   0.214   9.157   9.805
   33        0.434   0.214   9.157   9.805
   34        0.434   0.214   9.157   9.805
   35        0.403   0.201   9.179   9.782
   36        0.429   0.333   4.134   4.896
   37        0.520   0.011   0.000   0.531
tot         15.486   8.767 324.940 349.192

 BZINTS: Fermi energy:    0.705844;  392.000000 electrons
         Band energy:-0.130990E+04;  BLOECHL correction:   -0.021247