 vasp.6.2.0 18Jan21 (build Jun 12 2021 23:27:24) complex

 executed on             LinuxIFC date 2022.05.30  17:36:59

 INCAR:
   ISMEAR = -5
   SIGMA = 0.1
   ISPIN = 1
   EDIFF = 1.d-5
   EDIFFG = -0.01
   NSW = 0
   NELM = 150
   ENCUT = 500
   ISIF = 2
   IBRION = 2
   LREAL = Auto
   ALGO = Fast
   ICHARG = 11
   LORBIT = 10
   LCHARG = .F.
   LWAVE = .F.

 POTCAR:    PAW_PBE Ag 02Apr2005
 POTCAR:    PAW_PBE W 08Apr2002
 POTCAR:    PAW_PBE O 08Apr2002
|           W    W    AA    RRRRR   N    N  II  N    N   GGGG   !!!           |
|           W    W   A  A   R    R  NN   N  II  NN   N  G    G  !!!           |
|           W    W  A    A  R    R  N N  N  II  N N  N  G       !!!           |
|           W WW W  AAAAAA  RRRRR   N  N N  II  N  N N  G  GGG   !            |
|           WW  WW  A    A  R   R   N   NN  II  N   NN  G    G                |
|           W    W  A    A  R    R  N    N  II  N    N   GGGG   !!!           |
|     For optimal performance we recommend to set                             |
|       NCORE = 2 up to number-of-cores-per-socket                            |
|     This setting can greatly improve the performance of VASP for DFT.       |
|     The default, NCORE=1 might be grossly inefficient on modern             |
|     multi-core architectures or massively parallel machines. Do your        |
|     Unfortunately you need to use the default for GW and RPA                |
|     calculations (for HF NCORE is supported but not extensively tested      |
|     yet).                                                                   |

 POTCAR:    PAW_PBE Ag 02Apr2005
   VRHFIN =Ag : s1 d10

   TITEL  = PAW_PBE Ag 02Apr2005
   POMASS =  107.868; ZVAL   =   11.000    mass and valenz
   ENMAX  =  249.844; ENMIN  =  187.383 eV

 POTCAR:    PAW_PBE W 08Apr2002
   VRHFIN =W : 6s5d

[...]

 POTCAR:    PAW_PBE O 08Apr2002
   VRHFIN =O: s2p4

   TITEL  = PAW_PBE O 08Apr2002
   POMASS =   16.000; ZVAL   =    6.000    mass and valenz
   ENMAX  =  400.000; ENMIN  =  300.000 eV

 Optimization of the real space projectors (new method)

 maximal supplied QI-value         = 15.12
 optimisation between [QCUT,QGAM] = [ 11.34, 22.83] = [ 36.00,145.93] Ry
 Optimized for a Real-space Cutoff    1.43 Angstroem

   l    n(q)    QCUT    max X(q) W(low)/X(q) W(high)/X(q)  e(spline)
   2      9    11.338    53.897    0.16E-03    0.20E-03    0.28E-06
   2      9    11.338    52.416    0.16E-03    0.20E-03    0.29E-06
   0     10    11.338   122.045    0.31E-04    0.76E-04    0.15E-06
   0     10    11.338    73.629    0.30E-04    0.72E-04    0.15E-06
   1      9    11.338    15.255    0.20E-03    0.19E-04    0.17E-06
   1      9    11.338     9.562    0.16E-03    0.15E-04    0.14E-06
 Optimization of the real space projectors (new method)

[...]

   l    n(q)    QCUT    max X(q) W(low)/X(q) W(high)/X(q)  e(spline)
   2     10    11.429   130.855    0.22E-03    0.64E-03    0.11E-05
   2     10    11.429   114.007    0.22E-03    0.64E-03    0.11E-05
   0     11    11.429    84.709    0.39E-04    0.67E-04    0.23E-06
   0     11    11.429    49.163    0.35E-04    0.62E-04    0.21E-06
   1     10    11.429    15.765    0.84E-04    0.15E-03    0.24E-06
   1     10    11.429    10.638    0.58E-04    0.12E-03    0.19E-06
 Optimization of the real space projectors (new method)

 maximal supplied QI-value         = 24.76
 optimisation between [QCUT,QGAM] = [ 11.39, 22.77] = [ 36.31,145.25] Ry
 Optimized for a Real-space Cutoff    1.00 Angstroem

   l    n(q)    QCUT    max X(q) W(low)/X(q) W(high)/X(q)  e(spline)
   0      7    11.387    20.381    0.39E-03    0.13E-02    0.15E-06
   0      7    11.387    15.268    0.42E-03    0.14E-02    0.17E-06
   1      6    11.387     5.964    0.41E-03    0.11E-02    0.17E-06
   1      6    11.387     5.382    0.39E-03    0.87E-03    0.15E-06
  PAW_PBE Ag 02Apr2005                  :
  PAW_PBE W 08Apr2002                   :
  PAW_PBE O 08Apr2002                   :

 POSCAR: Ag-W-O2
  positions in direct lattice
  velocities in cartesian coordinates
 exchange correlation table for  LEXCH =        8
   RHO(1)=    0.500       N(1)  =     2000
   RHO(2)=  100.500       N(2)  =     4000

 VTST: version 3.2, (02/03/18)

 CHAIN: initializing optimizer

 OPT: Using VASP Conjugate-Gradient optimizer
 CHAIN: Read ICHAIN            0

 POSCAR: Ag-W-O2
  positions in direct lattice
  velocities in cartesian coordinates

 ion  position               nearest neighbor table
   1  0.000  0.000  0.217-   2 2.93   8 2.93   7 2.93   6 2.93   4 2.93  12 2.93  16 2.93  10 2.93
                             3 2.93
   2  0.333  0.000  0.217-   1 2.93   8 2.93   9 2.93   3 2.93   4 2.93   5 2.93  10 2.93  17 2.93
                            11 2.93
   3  0.667  0.000  0.217-   9 2.93   2 2.93   5 2.93  11 2.93   7 2.93  18 2.93   1 2.93   6 2.93
                            12 2.93
   4  0.000  0.333  0.217-   5 2.93   6 2.93   2 2.93   1 2.93   7 2.93  13 2.93  15 2.93   9 2.93
                            10 2.93
   5  0.333  0.333  0.217-   4 2.93   3 2.93   7 2.93   2 2.93   8 2.93  14 2.93  13 2.93  11 2.93
                             6 2.93
   6  0.667  0.333  0.217-   4 2.93   9 2.93   1 2.93  15 2.93   8 2.93  12 2.93   3 2.93   5 2.93
                            14 2.93
   7  0.000  0.667  0.217-   8 2.93   1 2.93   5 2.93   3 2.93   4 2.93  16 2.93  18 2.93  13 2.93
                             9 2.93
   8  0.333  0.667  0.217-   7 2.93   1 2.93   2 2.93   9 2.93   5 2.93  16 2.93   6 2.93  17 2.93
                            14 2.93
   9  0.667  0.667  0.217-   3 2.93   2 2.93   8 2.93   6 2.93  17 2.93   4 2.93  15 2.93   7 2.93
                            18 2.93
  10  0.111  0.111  0.315-  20 2.89  12 2.93  16 2.93  15 2.93  17 2.93  13 2.93  11 2.93   2 2.93
                             1 2.93   4 2.93  19 2.93  26 2.93
  11  0.444  0.111  0.315-  21 2.90  20 2.90  14 2.93  17 2.93  18 2.93   3 2.93  12 2.93  13 2.93
                            10 2.93   5 2.93   2 2.93  27 2.93
  12  0.778  0.111  0.315-  21 2.89  10 2.93  16 2.93  18 2.93  15 2.93  11 2.93   1 2.93  14 2.93
                             6 2.93   3 2.93  25 2.93  19 2.93
  13  0.111  0.444  0.315-  20 2.90  23 2.90  15 2.93  14 2.93  18 2.93  10 2.93  11 2.93  16 2.93
                             4 2.93   5 2.93   7 2.93  22 2.93
  14  0.444  0.444  0.315-  23 2.90  21 2.90  13 2.93  11 2.93  16 2.93   5 2.93  12 2.93  17 2.93
                             8 2.93  15 2.93   6 2.93  24 2.93
  15  0.778  0.444  0.315-  24 2.93  22 2.93  13 2.93  10 2.93  12 2.93  17 2.93  18 2.93   4 2.93
                             6 2.93   9 2.93  14 2.93  19 2.93
  16  0.111  0.778  0.315-  23 2.89  18 2.93  12 2.93  10 2.93  14 2.93  17 2.93  13 2.93   7 2.93
                             8 2.93   1 2.93  26 2.93  25 2.93
  17  0.444  0.778  0.315-  27 2.93  24 2.93  11 2.93  10 2.93   9 2.93  18 2.93  15 2.93  16 2.93
                             2 2.93  14 2.93   8 2.93  26 2.93
  18  0.778  0.778  0.315-  22 2.93  27 2.93  16 2.93  12 2.93  13 2.93  11 2.93  17 2.93  15 2.93
                             7 2.93   3 2.93   9 2.93  25 2.93
  19  0.889  0.223  0.413-  28 2.92  20 2.93  21 2.93  24 2.93  22 2.93  15 2.93  10 2.93  12 2.93
                            26 2.94  25 2.94  32 2.98  31 2.98
  20  0.222  0.222  0.411-  36 2.76  10 2.89  13 2.90  11 2.90  19 2.93  26 2.93  27 2.94  22 2.94
                            21 2.94  23 2.94  31 2.96  29 2.96
  21  0.556  0.222  0.411-  36 2.76  12 2.89  11 2.90  14 2.90  25 2.93  19 2.93  27 2.94  24 2.94
                            20 2.94  23 2.94  30 2.96  32 2.96
  22  0.888  0.556  0.413-  35 2.92  24 2.92  27 2.92  18 2.93  15 2.93  25 2.93  19 2.93  13 2.93
                            23 2.94  20 2.94  33 2.96  31 2.96
  23  0.222  0.556  0.411-  36 2.76  16 2.89  14 2.90  13 2.90  26 2.93  25 2.93  22 2.94  24 2.94
                            21 2.94  20 2.94  34 2.96  33 2.96
  24  0.556  0.556  0.413-  35 2.92  27 2.92  22 2.92  15 2.93  17 2.93  19 2.93  26 2.93  14 2.93
                            23 2.94  21 2.94  32 2.96  34 2.96
  25  0.889  0.889  0.413-  28 2.92  23 2.93  21 2.93  22 2.93  27 2.93  18 2.93  16 2.93  12 2.93
                            26 2.94  19 2.94  33 2.98  30 2.98
  26  0.223  0.889  0.413-  28 2.92  23 2.93  20 2.93  27 2.93  24 2.93  17 2.93  16 2.93  10 2.93
                            25 2.94  19 2.94  34 2.98  29 2.98
  27  0.556  0.888  0.413-  35 2.92  24 2.92  22 2.92  17 2.93  18 2.93  26 2.93  25 2.93  11 2.93
                            20 2.94  21 2.94  29 2.96  30 2.96
  28  0.000  0.000  0.511-  26 2.92  25 2.92  19 2.92  29 2.96  34 2.96  33 2.96  32 2.96  31 2.96
                            30 2.96
  29  0.333  0.007  0.513-  31 2.86  30 2.87  36 2.88  20 2.96  27 2.96  28 2.96  35 2.96  26 2.98
                            34 3.06
  30  0.659  0.007  0.513-  32 2.86  29 2.87  36 2.88  21 2.96  27 2.96  28 2.96  35 2.96  25 2.98
                            33 3.06
  31  0.007  0.333  0.513-  37 2.04  29 2.86  33 2.87  36 2.88  20 2.96  22 2.96  28 2.96  35 2.96
                            19 2.98  32 3.06
  32  0.659  0.333  0.513-  38 2.04  30 2.86  34 2.87  36 2.88  21 2.96  24 2.96  28 2.96  35 2.96
                            19 2.98  31 3.06
  33  0.007  0.659  0.513-  37 2.49  34 2.86  31 2.87  36 2.88  23 2.96  22 2.96  28 2.96  35 2.96
                            25 2.98  30 3.06
  34  0.333  0.659  0.513-  38 2.49  33 2.86  32 2.87  36 2.88  23 2.96  24 2.96  28 2.96  35 2.96
                            26 2.98  29 3.06
  35  0.667  0.667  0.511-  24 2.92  27 2.92  22 2.92  30 2.96  32 2.96  29 2.96  34 2.96  31 2.96
                            33 2.96
  36  0.333  0.333  0.501-  37 1.84  38 1.84  21 2.76  20 2.76  23 2.76  31 2.88  30 2.88  33 2.88
                            29 2.88  34 2.88  32 2.88
  37  0.182  0.369  0.558-  36 1.84  31 2.04  33 2.49
  38  0.449  0.369  0.558-  36 1.84  32 2.04  34 2.49

  LATTYP: Found a hexagonal cell.
 ALAT       =     8.7913665772
 C/A-ratio  =     2.7711238095

  Lattice vectors:

 A1 = (  -4.3956832886,  -7.6135467898,   0.0000000000)
 A2 = (   8.7913665771,   0.0000000000,   0.0000000000)
 A3 = (   0.0000000000,   0.0000000000,  24.3619652401)

Analysis of symmetry for initial positions (statically):
 Subroutine PRICEL returns:
 Original cell was already a primitive cell.

 Routine SETGRP: Setting up the symmetry group for a
 hexagonal supercell.

 Subroutine GETGRP returns: Found  2 space group operations
 (whereof  2 operations were pure point group operations)
 out of a pool of 24 trial point group operations.

The static configuration has the point symmetry C_1h.

Analysis of symmetry for dynamics (positions and initial velocities):
 Subroutine PRICEL returns:
 Original cell was already a primitive cell.

[...]

The dynamic configuration has the point symmetry C_1h.

Analysis of constrained symmetry for selective dynamics:
 Subroutine PRICEL returns:
 Original cell was already a primitive cell.

 Routine SETGRP: Setting up the symmetry group for a
 hexagonal supercell.

 Subroutine GETGRP returns: Found  2 space group operations
[...]
     33      -5.0702      2.00000
     34      -5.0541      2.00000
     35      -5.0220      2.00000
     36      -5.0158      2.00000
     37      -5.0070      2.00000
     38      -4.9985      2.00000
     39      -4.9791      2.00000
     40      -4.9638      2.00000
     41      -4.9472      2.00000
     42      -4.8991      2.00000
     43      -4.8719      2.00000
     44      -4.8504      2.00000
     45      -4.8377      2.00000
     46      -4.7868      2.00000
     47      -4.7781      2.00000
     48      -4.7498      2.00000
     49      -4.7267      2.00000
     50      -4.7089      2.00000
     51      -4.6841      2.00000
     52      -4.6718      2.00000
     53      -4.6581      2.00000
     54      -4.6509      2.00000
     55      -4.6335      2.00000
     56      -4.6234      2.00000
     57      -4.6143      2.00000
     58      -4.5810      2.00000
     59      -4.5685      2.00000
     60      -4.5531      2.00000
[...]
    238       5.5934      0.00000
    239       5.6905      0.00000
    240       5.8755      0.00000
    241       5.9469      0.00000
    242       5.9710      0.00000
    243       6.0548      0.00000
    244       6.2176      0.00000
    245       6.5049      0.00000
    246       6.5388      0.00000
    247       6.6449      0.00000
    248       6.7416      0.00000
    249       6.7843      0.00000
    250       6.8403      0.00000
    251       6.9083      0.00000
    252       6.9355      0.00000

 soft charge-density along one line, spin component           1
         0         1         2         3         4         5         6         7         8         9
 total charge-density along one line

------------------------ aborting loop because EDIFF is reached ----------------------------------------

 total charge

# of ion       s       p       d       tot
    1        0.420   0.200   9.178   9.798
    2        0.414   0.205   9.176   9.795
    3        0.414   0.205   9.176   9.795
    4        0.415   0.204   9.177   9.796
    5        0.418   0.203   9.176   9.797
    6        0.415   0.204   9.177   9.796
    7        0.416   0.203   9.178   9.797
    8        0.416   0.203   9.178   9.797
    9        0.414   0.204   9.178   9.795
   10        0.411   0.268   9.163   9.841
   11        0.409   0.269   9.167   9.845
   12        0.411   0.268   9.163   9.841
   13        0.403   0.271   9.167   9.842
   14        0.403   0.271   9.167   9.842
   15        0.405   0.266   9.166   9.837
   16        0.405   0.272   9.161   9.838
   17        0.402   0.268   9.165   9.835
   18        0.402   0.268   9.165   9.835
   19        0.397   0.278   9.152   9.827
   20        0.453   0.312   9.129   9.894
   21        0.453   0.312   9.129   9.894
   22        0.397   0.273   9.164   9.834
   23        0.432   0.331   9.121   9.884
   24        0.397   0.273   9.164   9.834
   25        0.398   0.267   9.165   9.830
   26        0.398   0.267   9.165   9.830
   27        0.391   0.269   9.172   9.833
   28        0.416   0.195   9.181   9.793
   29        0.414   0.223   9.172   9.809
   30        0.414   0.223   9.172   9.809
   31        0.405   0.309   9.164   9.877
   32        0.405   0.309   9.164   9.877
   33        0.387   0.229   9.190   9.806
   34        0.387   0.229   9.190   9.806
   35        0.420   0.191   9.183   9.794
   36        0.712   0.727   4.125   5.564
   37        1.599   3.348   0.000   4.947
   38        1.599   3.348   0.000   4.947
tot         18.269  16.163 324.978 359.409

  FORCE on cell =-STRESS in cart. coord.  units (eV):
  Direction    XX          YY          ZZ          XY          YZ          ZX
  Alpha Z   710.33388   710.33388   710.33388
  Ewald  154293.39153153972.09694************     0.00009    -3.49447     0.00009
  Hartree164206.53073164061.65601************     0.00003   -23.52302     0.00002
  E(xc)   -2115.36836 -2116.08030 -2122.00259    -0.00002    -0.11275     0.00000
  Local  ************************329582.03938     0.00086    30.52863    -0.00019
  n-local  -364.23898  -368.08257  -369.50599     2.22161     1.23894     0.07060
  augment  3236.26701  3238.19236  3247.23565    -0.00009    -0.44535     0.00005
  Kinetic  5095.53659  5111.38764  5124.15258     0.93833    -3.95765    -0.15561
  Fock        0.00000     0.00000     0.00000     0.00000     0.00000     0.00000
  Total       4.64176    -3.29623    -0.56650    -0.00000     0.23433     0.00000
  in kB       4.56077    -3.23871    -0.55662    -0.00000     0.23024     0.00000

 VOLUME and BASIS-vectors are now :
  energy-cutoff  :      500.00
  volume of cell :     1630.63
      direct lattice vectors                 reciprocal lattice vectors
     8.791366577  0.000000000  0.000000000     0.113747958 -0.065672414  0.000000000
     4.395683289  7.613546790  0.000000000     0.000000000  0.131344829  0.000000000
     0.000000000  0.000000000 24.361965240     0.000000000  0.000000000  0.041047592

  length of vectors
     8.791366577  8.791366577 24.361965240     0.131344829  0.131344829  0.041047592

 FORCES acting on ions
    electron-ion (+dipol)            ewald-force                    non-local-force                 convergence-correction
   0.460E-04 0.217E+00 0.270E+04   -.953E-04 -.465E-01 -.270E+04   -.106E-11 -.161E+00 -.201E+01   -.203E-03 -.929E-03 0.187E-01
   0.364E+00 0.436E+00 0.270E+04   -.305E+00 -.600E+00 -.270E+04   -.294E-01 0.159E+00 -.151E+01   -.195E-01 0.134E-01 0.393E-01
   -.364E+00 0.436E+00 0.270E+04   0.305E+00 -.600E+00 -.270E+04   0.294E-01 0.159E+00 -.151E+01   0.191E-01 0.153E-01 0.402E-01
   0.298E+00 0.136E+00 0.270E+04   -.636E+00 -.981E-01 -.270E+04   0.290E+00 -.378E-01 -.160E+01   0.316E-01 -.144E-01 0.238E-01
   -.767E-05 -.573E-01 0.270E+04   0.980E-04 -.112E+00 -.270E+04   0.699E-12 0.106E+00 -.135E+01   0.626E-02 0.475E-01 0.674E-01
   -.298E+00 0.136E+00 0.270E+04   0.636E+00 -.981E-01 -.270E+04   -.290E+00 -.378E-01 -.160E+01   -.330E-01 -.136E-01 0.247E-01
   0.269E+00 -.561E+00 0.270E+04   -.326E+00 0.700E+00 -.270E+04   0.393E-01 -.108E+00 -.169E+01   0.179E-01 -.234E-01 0.407E-01
   -.269E+00 -.561E+00 0.270E+04   0.326E+00 0.700E+00 -.270E+04   -.393E-01 -.108E+00 -.169E+01   -.163E-01 -.244E-01 0.406E-01
   0.362E-04 -.162E+00 0.270E+04   0.792E-04 0.156E+00 -.270E+04   0.566E-13 0.863E-02 -.183E+01   -.658E-02 -.168E-02 0.253E-01
   0.522E+01 0.388E+01 0.941E+03   -.486E+01 -.376E+01 -.940E+03   -.369E+00 -.166E+00 -.705E+00   -.276E-01 0.296E-01 0.242E-01
   -.281E-04 0.619E+01 0.944E+03   0.405E-04 -.622E+01 -.944E+03   -.182E-12 -.277E-01 -.278E+00   0.687E-02 -.348E-03 0.435E-01
   -.522E+01 0.388E+01 0.941E+03   0.486E+01 -.376E+01 -.940E+03   0.369E+00 -.166E+00 -.705E+00   0.255E-01 0.304E-01 0.251E-01
   0.444E+01 -.256E+01 0.946E+03   -.453E+01 0.258E+01 -.946E+03   0.801E-01 -.788E-02 -.206E+00   -.107E-01 0.141E-01 0.269E-01
   -.444E+01 -.256E+01 0.946E+03   0.453E+01 0.258E+01 -.946E+03   -.801E-01 -.788E-02 -.206E+00   0.212E-01 0.126E-01 0.256E-01
   0.159E-04 0.319E+00 0.941E+03   -.108E-03 -.238E+00 -.940E+03   -.378E-12 -.576E-01 -.827E+00   -.173E-02 -.492E-01 -.195E-01
   -.807E-05 -.723E+01 0.941E+03   0.206E-04 0.660E+01 -.940E+03   0.438E-11 0.667E+00 -.868E+00   -.373E-03 -.623E-06 -.217E-01
   0.181E+00 -.953E+00 0.939E+03   -.138E+00 0.111E+01 -.938E+03   -.226E-01 -.142E+00 -.563E+00   -.292E-01 -.138E-01 0.156E-02
   -.181E+00 -.953E+00 0.939E+03   0.138E+00 0.111E+01 -.938E+03   0.226E-01 -.142E+00 -.563E+00   0.299E-01 -.114E-01 0.384E-02
   0.399E-04 0.453E+01 -.845E+03   -.129E-03 -.425E+01 0.845E+03   -.953E-12 -.145E+00 0.311E+00   -.649E-02 -.335E-01 0.124E+00
   -.107E+01 0.978E+01 -.808E+03   0.161E+01 -.952E+01 0.808E+03   -.814E+00 -.428E+00 -.129E+01   0.113E+00 0.246E-01 0.259E+00
   0.107E+01 0.978E+01 -.808E+03   -.161E+01 -.952E+01 0.808E+03   0.814E+00 -.428E+00 -.129E+01   -.112E+00 0.226E-01 0.259E+00
   0.411E+01 -.660E+01 -.832E+03   -.395E+01 0.669E+01 0.831E+03   -.124E+00 -.819E-01 0.435E+00   0.185E-01 -.291E-01 0.987E-01
   -.477E-04 -.746E+01 -.804E+03   0.412E-04 0.605E+01 0.805E+03   0.107E-10 0.163E+01 -.872E+00   -.659E-03 -.143E+00 0.180E+00
   -.411E+01 -.660E+01 -.832E+03   0.395E+01 0.669E+01 0.831E+03   0.124E+00 -.819E-01 0.435E+00   -.744E-02 -.319E-01 0.982E-01
   0.224E+01 -.134E+01 -.852E+03   -.214E+01 0.123E+01 0.852E+03   -.144E+00 0.563E-01 0.722E+00   -.295E-01 0.562E-01 0.113E+00
   -.224E+01 -.134E+01 -.852E+03   0.214E+01 0.123E+01 0.852E+03   0.144E+00 0.563E-01 0.722E+00   0.168E-01 0.557E-01 0.114E+00
   0.191E-04 -.191E+01 -.846E+03   0.109E-03 0.140E+01 0.845E+03   0.339E-11 0.516E+00 0.924E+00   0.732E-02 0.818E-01 0.115E+00
   0.535E-04 0.879E+01 -.261E+04   -.115E-03 -.914E+01 0.260E+04   0.160E-11 0.243E+00 0.148E+01   -.436E-03 0.472E-01 0.319E-01
   0.104E+02 0.635E+02 -.260E+04   -.975E+01 -.641E+02 0.260E+04   -.913E+00 -.144E+00 0.222E+01   0.819E-01 0.154E+00 -.139E-01
   -.104E+02 0.635E+02 -.260E+04   0.975E+01 -.641E+02 0.260E+04   0.913E+00 -.144E+00 0.222E+01   -.816E-01 0.155E+00 -.155E-01
   0.153E+03 0.309E+02 -.252E+04   -.155E+03 -.313E+02 0.252E+04   -.744E+00 -.164E-03 0.692E+00   0.848E-01 0.145E-02 0.697E-01
   -.153E+03 0.309E+02 -.252E+04   0.155E+03 -.313E+02 0.252E+04   0.744E+00 -.164E-03 0.692E+00   -.956E-01 0.741E-03 0.691E-01
   0.294E+02 -.113E+03 -.257E+04   -.293E+02 0.116E+03 0.257E+04   -.474E+00 -.130E+01 0.285E+01   0.241E-01 -.116E+00 0.734E-01
   -.294E+02 -.113E+03 -.257E+04   0.293E+02 0.116E+03 0.257E+04   0.474E+00 -.130E+01 0.285E+01   -.339E-01 -.118E+00 0.743E-01
   0.181E-04 -.248E+02 -.260E+04   0.108E-03 0.250E+02 0.260E+04   -.603E-12 -.918E-01 0.178E+01   -.475E-02 -.530E-01 0.133E+00
   -.308E-04 0.430E+02 -.115E+04   0.578E-04 -.427E+02 0.115E+04   -.450E-12 -.686E-01 0.217E+00   0.112E-02 -.405E-01 0.227E-01
   0.782E+01 0.991E+01 -.175E+04   -.118E+02 -.700E+01 0.178E+04   0.391E+01 -.291E+01 -.291E+02   0.846E-01 -.110E-01 -.139E+00
   -.782E+01 0.991E+01 -.175E+04   0.118E+02 -.700E+01 0.178E+04   -.391E+01 -.291E+01 -.291E+02   -.836E-01 -.114E-01 -.141E+00
   0.642E-03 0.756E+01 0.609E+02   -.924E-13 -.210E-12 0.500E-11   -.498E-10 -.759E+01 -.629E+02   -.103E-01 0.207E-01 0.196E+01

 POSITION                                       TOTAL-FORCE (eV/Angst)
      0.00000      0.00000      5.28219         0.000000      0.008513     -0.045832
      2.93046      0.00000      5.28219         0.010808      0.009220      0.031079
      5.86091      0.00000      5.28219        -0.010808      0.009220      0.031079
      1.46523      2.53785      5.28219        -0.015091     -0.013781      0.010173
      4.39568      2.53785      5.28219        -0.000000     -0.015203      0.017835
      7.32614      2.53785      5.28219         0.015091     -0.013781      0.010173
      2.93046      5.07570      5.28219        -0.001284      0.007349      0.027445
      5.86091      5.07570      5.28219         0.001284      0.007349      0.027445
      8.79137      5.07570      5.28219         0.000000      0.000265     -0.000742
      1.46523      0.84595      7.67490        -0.037033     -0.013847     -0.025994
      4.39568      0.84595      7.67490        -0.000000     -0.062102     -0.118156
      7.32614      0.84595      7.67490         0.037033     -0.013847     -0.025994
      2.93046      3.38380      7.67490        -0.026358      0.028197     -0.084430
      5.86091      3.38380      7.67490         0.026358      0.028197     -0.084430
      8.79137      3.38380      7.67490        -0.000000     -0.025574     -0.012618
      4.39568      5.92165      7.67490         0.000000      0.044175      0.014589
      7.32614      5.92165      7.67490        -0.008369      0.003113      0.024239
     10.25659      5.92165      7.67490         0.008369      0.003113      0.024239
      8.79137      1.69504     10.07204         0.000000      0.099372      0.280253
      2.92602      1.68934     10.02478        -0.166323     -0.143214     -0.402267
      5.86534      1.68934     10.02478         0.166323     -0.143214     -0.402267
     10.25093      4.23302     10.06482         0.050390     -0.027691      0.015394
      4.39568      4.23487     10.02478         0.000000      0.074721     -0.016941
      7.33181      4.23302     10.06482        -0.050390     -0.027691      0.015394
     11.71910      6.76603     10.07204        -0.070171     -0.000867      0.099268
      5.86363      6.76603     10.07204         0.070171     -0.000867      0.099268
      8.79137      6.76105     10.06482         0.000000      0.090103      0.016918
      0.00000      0.00000     12.45341        -0.000000     -0.054387     -0.055318
      2.96185      0.05622     12.48740        -0.133424     -0.580246     -0.301915
      5.82952      0.05622     12.48740         0.133424     -0.580246     -0.301915
      1.52961      2.53693     12.48740        -2.409586     -0.403970     -1.072483
      7.26176      2.53693     12.48740         2.409586     -0.403970     -1.072483
      2.96344      5.02040     12.48740        -0.259214      0.924751     -0.315003
      5.82792      5.02040     12.48740         0.259214      0.924751     -0.315003
      8.79137      5.07570     12.44798         0.000000      0.101906     -0.024817
      4.39568      2.53785     12.20252         0.000000      0.160599      3.961265
      3.21995      2.80803     13.59417         0.007588     -0.000208     -0.013726
      5.57142      2.80803     13.59417        -0.007588     -0.000208     -0.013726
    total drift:                               -0.009708     -0.001503     -0.077078

  FREE ENERGIE OF THE ION-ELECTRON SYSTEM (eV)
  free  energy   TOTEN  =      -112.95864145 eV

  energy  without entropy=     -112.95864145  energy(sigma->0) =     -112.95864145

 stress matrix after NEB project (eV)
      4.64176     -0.00000      0.00000
     -0.00000     -3.29623      0.23433
      0.00000      0.23433     -0.56650
  FORCES: max atom, RMS     0.015685    0.003598
  FORCE total and by dimension    0.022182    0.013726
  Stress total and by dimension    5.730781    4.641762
|           W    W    AA    RRRRR   N    N  II  N    N   GGGG   !!!           |
|           W    W   A  A   R    R  NN   N  II  NN   N  G    G  !!!           |
|           W    W  A    A  R    R  N N  N  II  N N  N  G       !!!           |
|           W WW W  AAAAAA  RRRRR   N  N N  II  N  N N  G  GGG   !            |
|           WW  WW  A    A  R   R   N   NN  II  N   NN  G    G                |
|           W    W  A    A  R    R  N    N  II  N    N   GGGG   !!!           |
|     Tetrahedron method does not include variations of the Fermi             |
|     occupations, so forces and stress will be inaccurate. We suggest        |
|     using a different smearing scheme ISMEAR = 1 or 2 for metals in         |
|     relaxations.                                                            |

 total charge

# of ion       s       p       d       tot
    1        0.420   0.200   9.178   9.798
    2        0.414   0.205   9.176   9.795
    3        0.414   0.205   9.176   9.795
    4        0.415   0.204   9.177   9.796
    5        0.418   0.203   9.176   9.797
    6        0.415   0.204   9.177   9.796
    7        0.416   0.203   9.178   9.797
    8        0.416   0.203   9.178   9.797
    9        0.414   0.204   9.178   9.795
   10        0.411   0.268   9.163   9.841
   11        0.409   0.269   9.167   9.845
   12        0.411   0.268   9.163   9.841
   13        0.403   0.271   9.167   9.842
   14        0.403   0.271   9.167   9.842
   15        0.405   0.266   9.166   9.837
   16        0.405   0.272   9.161   9.838
   17        0.402   0.268   9.165   9.835
   18        0.402   0.268   9.165   9.835
   19        0.397   0.278   9.152   9.827
   20        0.453   0.312   9.129   9.894
   21        0.453   0.312   9.129   9.894
   22        0.397   0.273   9.164   9.834
   23        0.432   0.331   9.121   9.884
   24        0.397   0.273   9.164   9.834
   25        0.398   0.267   9.165   9.830
   26        0.398   0.267   9.165   9.830
   27        0.391   0.269   9.172   9.833
   28        0.416   0.195   9.181   9.793
   29        0.414   0.223   9.172   9.809
   30        0.414   0.223   9.172   9.809
   31        0.405   0.309   9.164   9.877
   32        0.405   0.309   9.164   9.877
   33        0.387   0.229   9.190   9.806
   34        0.387   0.229   9.190   9.806
   35        0.420   0.191   9.183   9.794
   36        0.712   0.727   4.125   5.564
   37        1.599   3.348   0.000   4.947
   38        1.599   3.348   0.000   4.947
tot         18.269  16.163 324.978 359.409

 BZINTS: Fermi energy:    0.385906;  403.000000 electrons
         Band energy:-0.158612E+04;  BLOECHL correction:   -0.030208