 vasp.6.2.0 18Jan21 (build Jun 12 2021 23:27:24) complex

 executed on             LinuxIFC date 2022.05.26  19:46:26

 INCAR:
   ISMEAR = -5
   SIGMA = 0.1
   ISPIN = 1
   EDIFF = 1.d-5
   EDIFFG = -0.01
   NSW = 0
   NELM = 150
   ENCUT = 500
   ISIF = 2
   IBRION = 2
   LREAL = Auto
   ALGO = Fast
   ICHARG = 11
   LORBIT = 10
   LCHARG = .F.
   LWAVE = .F.

 POTCAR:    PAW_PBE Ag 02Apr2005
 POTCAR:    PAW_PBE Nb_sv 25May2007
 POTCAR:    PAW_PBE N 08Apr2002
|           W    W    AA    RRRRR   N    N  II  N    N   GGGG   !!!           |
|           W    W   A  A   R    R  NN   N  II  NN   N  G    G  !!!           |
|           W    W  A    A  R    R  N N  N  II  N N  N  G       !!!           |
|           W WW W  AAAAAA  RRRRR   N  N N  II  N  N N  G  GGG   !            |
|           WW  WW  A    A  R   R   N   NN  II  N   NN  G    G                |
|           W    W  A    A  R    R  N    N  II  N    N   GGGG   !!!           |
|     For optimal performance we recommend to set                             |
|       NCORE = 2 up to number-of-cores-per-socket                            |
|     This setting can greatly improve the performance of VASP for DFT.       |
|     The default, NCORE=1 might be grossly inefficient on modern             |
|     multi-core architectures or massively parallel machines. Do your        |
|     Unfortunately you need to use the default for GW and RPA                |
|     calculations (for HF NCORE is supported but not extensively tested      |
|     yet).                                                                   |

 POTCAR:    PAW_PBE Ag 02Apr2005
   VRHFIN =Ag : s1 d10

   TITEL  = PAW_PBE Ag 02Apr2005
   POMASS =  107.868; ZVAL   =   11.000    mass and valenz
   ENMAX  =  249.844; ENMIN  =  187.383 eV

 POTCAR:    PAW_PBE Nb_sv 25May2007
   VRHFIN =Nb: 4p5s4d

   TITEL  = PAW_PBE Nb_sv 25May2007
   POMASS =   92.910; ZVAL   =   13.000    mass and valenz
   ENMAX  =  293.235; ENMIN  =  219.927 eV

 POTCAR:    PAW_PBE N 08Apr2002
   VRHFIN =N: s2p3

   TITEL  = PAW_PBE N 08Apr2002
   POMASS =   14.001; ZVAL   =    5.000    mass and valenz
   ENMAX  =  400.000; ENMIN  =  300.000 eV

 Optimization of the real space projectors (new method)

 maximal supplied QI-value         = 15.12
 optimisation between [QCUT,QGAM] = [ 11.34, 22.83] = [ 36.00,145.93] Ry
 Optimized for a Real-space Cutoff    1.43 Angstroem

   l    n(q)    QCUT    max X(q) W(low)/X(q) W(high)/X(q)  e(spline)
   2      9    11.338    53.897    0.16E-03    0.20E-03    0.28E-06
   2      9    11.338    52.416    0.16E-03    0.20E-03    0.29E-06
   0     10    11.338   122.045    0.31E-04    0.76E-04    0.15E-06
   0     10    11.338    73.629    0.30E-04    0.72E-04    0.15E-06
   1      9    11.338    15.255    0.20E-03    0.19E-04    0.17E-06
   1      9    11.338     9.562    0.16E-03    0.15E-04    0.14E-06
 Optimization of the real space projectors (new method)

[...]

   l    n(q)    QCUT    max X(q) W(low)/X(q) W(high)/X(q)  e(spline)
   0     11    11.450    10.201    0.21E-04    0.96E-05    0.78E-07
   0     11    11.450     8.174    0.31E-04    0.18E-04    0.14E-06
   1     10    11.450     3.488    0.27E-04    0.12E-04    0.96E-07
   1     10    11.450     4.917    0.11E-03    0.11E-03    0.37E-06
   2     10    11.450   153.744    0.37E-03    0.81E-03    0.10E-05
   2     10    11.450   126.342    0.37E-03    0.81E-03    0.10E-05
 Optimization of the real space projectors (new method)

 maximal supplied QI-value         = 25.13
 optimisation between [QCUT,QGAM] = [ 11.31, 22.87] = [ 35.82,146.48] Ry
 Optimized for a Real-space Cutoff    1.27 Angstroem

   l    n(q)    QCUT    max X(q) W(low)/X(q) W(high)/X(q)  e(spline)
   0      9    11.310    79.467    0.75E-04    0.16E-03    0.36E-06
   0      9    11.310    66.151    0.74E-04    0.16E-03    0.36E-06
   1      8    11.310    17.416    0.35E-03    0.12E-03    0.95E-06
   1      8    11.310    12.382    0.37E-03    0.13E-03    0.98E-06
  PAW_PBE Ag 02Apr2005                  :
  PAW_PBE Nb_sv 25May2007               :
  PAW_PBE N 08Apr2002                   :

 POSCAR: Ag-Nb-N
  positions in direct lattice
  velocities in cartesian coordinates
 exchange correlation table for  LEXCH =        8
   RHO(1)=    0.500       N(1)  =     2000
   RHO(2)=  100.500       N(2)  =     4000

 VTST: version 3.2, (02/03/18)

 CHAIN: initializing optimizer

 OPT: Using VASP Conjugate-Gradient optimizer
 CHAIN: Read ICHAIN            0

 POSCAR: Ag-Nb-N
  positions in direct lattice
  velocities in cartesian coordinates

 ion  position               nearest neighbor table
   1  0.000  0.000  0.238-   2 2.93   8 2.93   7 2.93   6 2.93   4 2.93  12 2.93  16 2.93  10 2.93
                             3 2.93
   2  0.333  0.000  0.238-   1 2.93   8 2.93   9 2.93   3 2.93   4 2.93   5 2.93  10 2.93  17 2.93
                            11 2.93
   3  0.667  0.000  0.238-   9 2.93   2 2.93   5 2.93  11 2.93   7 2.93  18 2.93   1 2.93   6 2.93
                            12 2.93
   4  0.000  0.333  0.238-   5 2.93   6 2.93   2 2.93   1 2.93   7 2.93  13 2.93  15 2.93   9 2.93
                            10 2.93
   5  0.333  0.333  0.238-   4 2.93   3 2.93   7 2.93   2 2.93   8 2.93  14 2.93  13 2.93  11 2.93
                             6 2.93
   6  0.667  0.333  0.238-   4 2.93   9 2.93   1 2.93  15 2.93   8 2.93  12 2.93   3 2.93   5 2.93
                            14 2.93
   7  0.000  0.667  0.238-   8 2.93   1 2.93   5 2.93   3 2.93   4 2.93  16 2.93  18 2.93  13 2.93
                             9 2.93
   8  0.333  0.667  0.238-   7 2.93   1 2.93   2 2.93   9 2.93   5 2.93  16 2.93   6 2.93  17 2.93
                            14 2.93
   9  0.667  0.667  0.238-   3 2.93   2 2.93   8 2.93   6 2.93  17 2.93   4 2.93  15 2.93   7 2.93
                            18 2.93
  10  0.111  0.111  0.346-  20 2.90  19 2.93  26 2.93  12 2.93  16 2.93  15 2.93  17 2.93  13 2.93
                            11 2.93   2 2.93   1 2.93   4 2.93
  11  0.444  0.111  0.346-  21 2.90  20 2.90  14 2.93  17 2.93  18 2.93   3 2.93  12 2.93  13 2.93
                            10 2.93   5 2.93   2 2.93  27 2.93
  12  0.778  0.111  0.346-  21 2.90  25 2.93  19 2.93  10 2.93  16 2.93  18 2.93  15 2.93  11 2.93
                             1 2.93  14 2.93   6 2.93   3 2.93
  13  0.111  0.444  0.346-  20 2.90  23 2.90  15 2.93  14 2.93  18 2.93  10 2.93  11 2.93  16 2.93
                             4 2.93   5 2.93   7 2.93  22 2.93
  14  0.444  0.444  0.346-  23 2.90  21 2.90  13 2.93  11 2.93  16 2.93   5 2.93  12 2.93  17 2.93
                             8 2.93  15 2.93   6 2.93  24 2.93
  15  0.778  0.444  0.346-  19 2.93  13 2.93  10 2.93  12 2.93  17 2.93  18 2.93   4 2.93   6 2.93
                             9 2.93  14 2.93  24 2.93  22 2.93
  16  0.111  0.778  0.346-  23 2.90  26 2.93  25 2.93  18 2.93  12 2.93  10 2.93  14 2.93  17 2.93
                            13 2.93   7 2.93   8 2.93   1 2.93
  17  0.444  0.778  0.346-  26 2.93  11 2.93  10 2.93   9 2.93  18 2.93  15 2.93  16 2.93   2 2.93
                            14 2.93   8 2.93  27 2.93  24 2.93
  18  0.778  0.778  0.346-  25 2.93  16 2.93  12 2.93  13 2.93  11 2.93  17 2.93  15 2.93   7 2.93
                             3 2.93   9 2.93  22 2.93  27 2.93
  19  0.889  0.222  0.454-  15 2.93  10 2.93  12 2.93  20 2.93  21 2.93  28 2.93  24 2.93  22 2.93
                            26 2.93  25 2.93  32 2.97  31 2.97
  20  0.222  0.222  0.452-  36 2.82  10 2.90  13 2.90  11 2.90  19 2.93  26 2.93  27 2.93  22 2.93
                            21 2.94  23 2.94  31 2.97  29 2.97
  21  0.556  0.222  0.452-  36 2.82  12 2.90  11 2.90  14 2.90  25 2.93  19 2.93  27 2.93  24 2.93
                            20 2.94  23 2.94  30 2.97  32 2.97
  22  0.889  0.556  0.454-  24 2.93  27 2.93  25 2.93  19 2.93  18 2.93  15 2.93  23 2.93  20 2.93
                            35 2.93  13 2.93  33 2.95  31 2.95
  23  0.222  0.556  0.452-  36 2.82  16 2.90  14 2.90  13 2.90  26 2.93  25 2.93  22 2.93  24 2.93
                            21 2.94  20 2.94  34 2.97  33 2.97
  24  0.556  0.556  0.454-  27 2.93  22 2.93  19 2.93  26 2.93  15 2.93  17 2.93  23 2.93  21 2.93
                            35 2.93  14 2.93  32 2.95  34 2.95
  25  0.889  0.889  0.454-  18 2.93  16 2.93  12 2.93  23 2.93  21 2.93  28 2.93  22 2.93  27 2.93
                            26 2.93  19 2.93  33 2.97  30 2.97
  26  0.222  0.889  0.454-  17 2.93  16 2.93  10 2.93  23 2.93  20 2.93  28 2.93  27 2.93  24 2.93
                            25 2.93  19 2.93  34 2.97  29 2.97
  27  0.556  0.889  0.454-  24 2.93  22 2.93  26 2.93  25 2.93  17 2.93  18 2.93  20 2.93  21 2.93
                            35 2.93  11 2.93  29 2.95  30 2.95
  28  0.000  0.000  0.561-  26 2.93  25 2.93  19 2.93  29 2.95  34 2.95  33 2.95  32 2.95  31 2.95
                            30 2.95
  29  0.333  0.004  0.563-  30 2.90  31 2.90  36 2.91  35 2.95  28 2.95  27 2.95  20 2.97  26 2.97
                            34 2.99
  30  0.663  0.004  0.563-  29 2.90  32 2.90  36 2.91  35 2.95  28 2.95  27 2.95  21 2.97  25 2.97
                            33 2.99
  31  0.004  0.333  0.563-  33 2.90  29 2.90  36 2.91  35 2.95  28 2.95  22 2.95  20 2.97  19 2.97
                            32 2.99
  32  0.663  0.333  0.563-  34 2.90  30 2.90  36 2.91  35 2.95  28 2.95  24 2.95  21 2.97  19 2.97
                            31 2.99
  33  0.004  0.663  0.563-  31 2.90  34 2.90  36 2.91  35 2.95  28 2.95  22 2.95  23 2.97  25 2.97
                            30 2.99
  34  0.333  0.663  0.563-  32 2.90  33 2.90  36 2.91  35 2.95  28 2.95  24 2.95  23 2.97  26 2.97
                            29 2.99
  35  0.667  0.667  0.562-  24 2.93  27 2.93  22 2.93  30 2.95  29 2.95  32 2.95  34 2.95  31 2.95
                            33 2.95
  36  0.333  0.333  0.554-  37 1.71  21 2.82  20 2.82  23 2.82  31 2.91  33 2.91  30 2.91  29 2.91
                            34 2.91  32 2.91
  37  0.333  0.333  0.631-  36 1.71

  LATTYP: Found a hexagonal cell.
 ALAT       =     8.7913665772
 C/A-ratio  =     2.5227160501

  Lattice vectors:

 A1 = (  -4.3956832886,  -7.6135467898,   0.0000000000)
 A2 = (   8.7913665771,   0.0000000000,   0.0000000000)
 A3 = (   0.0000000000,   0.0000000000,  22.1781215668)

Analysis of symmetry for initial positions (statically):
 Subroutine PRICEL returns:
 Original cell was already a primitive cell.

 Routine SETGRP: Setting up the symmetry group for a
 hexagonal supercell.

 Subroutine GETGRP returns: Found  6 space group operations
 (whereof  6 operations were pure point group operations)
 out of a pool of 24 trial point group operations.

The static configuration has the point symmetry C_3v.

Analysis of symmetry for dynamics (positions and initial velocities):
 Subroutine PRICEL returns:
 Original cell was already a primitive cell.

[...]

The dynamic configuration has the point symmetry C_3v.

Analysis of constrained symmetry for selective dynamics:
 Subroutine PRICEL returns:
 Original cell was already a primitive cell.

 Routine SETGRP: Setting up the symmetry group for a
 hexagonal supercell.

 Subroutine GETGRP returns: Found  6 space group operations
[...]
     24      -4.7271      2.00000
     25      -4.7197      2.00000
     26      -4.7032      2.00000
     27      -4.6888      2.00000
     28      -4.6708      2.00000
     29      -4.6546      2.00000
     30      -4.6461      2.00000
     31      -4.6358      2.00000
     32      -4.6024      2.00000
     33      -4.5984      2.00000
     34      -4.5952      2.00000
     35      -4.5648      2.00000
     36      -4.5557      2.00000
     37      -4.5287      2.00000
     38      -4.5205      2.00000
     39      -4.4883      2.00000
     40      -4.4718      2.00000
     41      -4.4442      2.00000
     42      -4.4180      2.00000
     43      -4.3854      2.00000
     44      -4.3767      2.00000
     45      -4.3736      2.00000
     46      -4.3552      2.00000
     47      -4.3393      2.00000
     48      -4.2534      2.00000
     49      -4.2313      2.00000
     50      -4.2144      2.00000
     51      -4.2086      2.00000
     52      -4.2019      2.00000
     53      -4.1955      2.00000
     54      -4.1925      2.00000
     55      -4.1859      2.00000
     56      -4.1756      2.00000
     57      -4.1670      2.00000
     58      -4.1073      2.00000
     59      -4.0985      2.00000
     60      -4.0855      2.00000
[...]
    238       6.1042      0.00000
    239       6.1800      0.00000
    240       6.2381      0.00000
    241       6.2823      0.00000
    242       6.3652      0.00000
    243       6.4074      0.00000
    244       6.6300      0.00000
    245       7.2245      0.00000
    246       7.2801      0.00000
    247       7.3160      0.00000
    248       7.4117      0.00000
    249       7.4192      0.00000
    250       7.4332      0.00000
    251       7.4940      0.00000
    252       7.6433      0.00000

 soft charge-density along one line, spin component           1
         0         1         2         3         4         5         6         7         8         9
 total charge-density along one line

------------------------ aborting loop because EDIFF is reached ----------------------------------------

 total charge

# of ion       s       p       d       tot
    1        0.415   0.204   9.177   9.796
    2        0.417   0.203   9.176   9.796
    3        0.417   0.203   9.176   9.796
    4        0.417   0.203   9.176   9.796
    5        0.414   0.203   9.177   9.794
    6        0.417   0.203   9.176   9.796
    7        0.417   0.203   9.176   9.796
    8        0.417   0.203   9.176   9.796
    9        0.413   0.203   9.177   9.792
   10        0.405   0.271   9.163   9.839
   11        0.406   0.269   9.165   9.840
   12        0.405   0.271   9.163   9.839
   13        0.406   0.269   9.165   9.840
   14        0.406   0.269   9.165   9.840
   15        0.401   0.269   9.164   9.834
   16        0.405   0.271   9.163   9.839
   17        0.401   0.269   9.164   9.834
   18        0.401   0.269   9.164   9.834
   19        0.402   0.263   9.169   9.834
   20        0.428   0.295   9.149   9.872
   21        0.428   0.295   9.149   9.872
   22        0.394   0.275   9.162   9.831
   23        0.428   0.295   9.149   9.872
   24        0.394   0.275   9.162   9.831
   25        0.402   0.263   9.169   9.834
   26        0.402   0.263   9.169   9.834
   27        0.394   0.275   9.162   9.831
   28        0.412   0.202   9.174   9.788
   29        0.434   0.211   9.164   9.809
   30        0.434   0.211   9.164   9.809
   31        0.434   0.211   9.164   9.809
   32        0.434   0.211   9.164   9.809
   33        0.434   0.211   9.164   9.809
   34        0.434   0.211   9.164   9.809
   35        0.412   0.205   9.173   9.789
   36        2.208   6.010   2.718  10.936
   37        1.346   2.258   0.000   3.604
tot         18.031  16.696 323.555 358.282

  FORCE on cell =-STRESS in cart. coord.  units (eV):
  Direction    XX          YY          ZZ          XY          YZ          ZX
  Alpha Z   771.70509   771.70509   771.70509
  Ewald  122156.24421122156.24436************     0.00005     0.00001     0.00004
  Hartree132615.63164132615.63170************     0.00002     0.00000     0.00002
  E(xc)   -2109.77005 -2109.77004 -2114.53129    -0.00001     0.00000     0.00000
  Local  ************************266194.76481     0.00037    -0.00006    -0.00016
  n-local  -337.40336  -321.15328  -349.52845    10.21428    -0.63371     0.63981
  augment  3236.63112  3236.63132  3253.01499    -0.00018    -0.00002     0.00002
  Kinetic  5102.29302  5106.18735  5153.45871     2.95338     0.93655    -0.34950
  Fock        0.00000     0.00000     0.00000     0.00000     0.00000     0.00000
  Total      -6.03702    -6.03702     0.31380    -0.00000    -0.00000     0.00000
  in kB      -6.51576    -6.51576     0.33869    -0.00000    -0.00000     0.00000

 VOLUME and BASIS-vectors are now :
  energy-cutoff  :      500.00
  volume of cell :     1484.46
      direct lattice vectors                 reciprocal lattice vectors
     8.791366577  0.000000000  0.000000000     0.113747958 -0.065672414  0.000000000
     4.395683289  7.613546790  0.000000000     0.000000000  0.131344829  0.000000000
     0.000000000  0.000000000 22.178121567     0.000000000  0.000000000  0.045089481

  length of vectors
     8.791366577  8.791366577 22.178121567     0.131344829  0.131344829  0.045089481

 FORCES acting on ions
    electron-ion (+dipol)            ewald-force                    non-local-force                 convergence-correction
   0.462E-04 -.281E-04 0.253E+04   -.954E-04 0.593E-04 -.253E+04   -.115E-16 -.586E-17 -.185E+01   -.129E-03 -.181E-03 -.137E+00
   0.234E+00 0.131E+01 0.253E+04   -.379E+00 -.106E+01 -.253E+04   0.184E-01 -.414E-01 -.162E+01   0.119E+00 -.198E+00 -.219E-01
   -.233E+00 0.131E+01 0.253E+04   0.379E+00 -.106E+01 -.253E+04   -.184E-01 -.414E-01 -.162E+01   -.120E+00 -.196E+00 -.212E-01
   0.125E+01 -.453E+00 0.253E+04   -.111E+01 0.203E+00 -.253E+04   -.267E-01 0.366E-01 -.162E+01   -.112E+00 0.202E+00 -.219E-01
   -.573E-05 -.188E-04 0.253E+04   0.980E-04 -.199E-05 -.253E+04   0.297E-17 0.152E-17 -.169E+01   0.630E-02 0.385E-02 0.150E+00
   -.125E+01 -.453E+00 0.253E+04   0.111E+01 0.203E+00 -.253E+04   0.267E-01 0.366E-01 -.162E+01   0.110E+00 0.203E+00 -.209E-01
   0.102E+01 -.857E+00 0.253E+04   -.731E+00 0.859E+00 -.253E+04   -.451E-01 0.479E-02 -.162E+01   -.229E+00 -.506E-02 -.212E-01
   -.102E+01 -.857E+00 0.253E+04   0.731E+00 0.859E+00 -.253E+04   0.451E-01 0.479E-02 -.162E+01   0.231E+00 -.611E-02 -.209E-01
   0.363E-04 -.129E-04 0.253E+04   0.792E-04 -.643E-04 -.253E+04   -.123E-18 0.323E-18 -.180E+01   -.670E-02 -.346E-02 -.107E+00
   0.593E+01 0.342E+01 0.887E+03   -.588E+01 -.339E+01 -.886E+03   -.170E+00 -.980E-01 -.548E+00   0.106E+00 0.611E-01 -.133E+00
   -.286E-04 0.983E+01 0.896E+03   0.411E-04 -.101E+02 -.895E+03   0.719E-12 0.110E+00 -.667E+00   0.640E-02 0.129E+00 -.289E+00
   -.593E+01 0.342E+01 0.887E+03   0.588E+01 -.339E+01 -.886E+03   0.170E+00 -.980E-01 -.548E+00   -.108E+00 0.626E-01 -.132E+00
   0.851E+01 -.491E+01 0.896E+03   -.876E+01 0.506E+01 -.895E+03   0.948E-01 -.548E-01 -.667E+00   0.115E+00 -.589E-01 -.289E+00
   -.851E+01 -.491E+01 0.896E+03   0.876E+01 0.506E+01 -.895E+03   -.948E-01 -.548E-01 -.667E+00   -.104E+00 -.596E-01 -.288E+00
   0.160E-04 -.255E+01 0.882E+03   -.109E-03 0.242E+01 -.881E+03   0.373E-12 0.569E-01 -.546E+00   -.203E-02 0.677E-01 -.333E+00
   -.819E-05 -.684E+01 0.887E+03   0.207E-04 0.679E+01 -.886E+03   0.129E-11 0.196E+00 -.548E+00   0.335E-03 -.125E+00 -.132E+00
   -.220E+01 0.127E+01 0.882E+03   0.210E+01 -.121E+01 -.881E+03   0.492E-01 -.284E-01 -.546E+00   0.576E-01 -.356E-01 -.333E+00
   0.220E+01 0.127E+01 0.882E+03   -.210E+01 -.121E+01 -.881E+03   -.492E-01 -.284E-01 -.546E+00   -.578E-01 -.334E-01 -.333E+00
   0.408E-04 0.329E+00 -.797E+03   -.132E-03 -.364E+00 0.796E+03   0.880E-12 0.134E+00 0.101E+01   -.190E-02 -.111E+00 -.172E+00
   0.443E+02 0.256E+02 -.725E+03   -.441E+02 -.254E+02 0.725E+03   -.417E+00 -.241E+00 -.320E-01   -.847E-01 -.489E-01 -.374E+00
   -.443E+02 0.256E+02 -.725E+03   0.441E+02 -.254E+02 0.725E+03   0.417E+00 -.241E+00 -.320E-01   0.955E-01 -.476E-01 -.374E+00
   0.188E+02 -.108E+02 -.790E+03   -.192E+02 0.111E+02 0.790E+03   0.365E+00 -.211E+00 0.702E+00   0.101E+00 -.579E-01 -.296E+00
   -.575E-04 -.511E+02 -.725E+03   0.500E-04 0.509E+02 0.725E+03   0.316E-11 0.481E+00 -.320E-01   0.682E-02 0.107E+00 -.374E+00
   -.188E+02 -.108E+02 -.790E+03   0.192E+02 0.111E+02 0.790E+03   -.365E+00 -.211E+00 0.702E+00   -.102E+00 -.589E-01 -.296E+00
   -.285E+00 -.165E+00 -.797E+03   0.315E+00 0.182E+00 0.796E+03   -.116E+00 -.670E-01 0.101E+01   0.969E-01 0.558E-01 -.172E+00
   0.285E+00 -.164E+00 -.797E+03   -.315E+00 0.182E+00 0.796E+03   0.116E+00 -.670E-01 0.101E+01   -.971E-01 0.536E-01 -.172E+00
   0.215E-04 0.217E+02 -.790E+03   0.109E-03 -.222E+02 0.790E+03   0.277E-11 0.422E+00 0.702E+00   -.464E-03 0.116E+00 -.296E+00
   0.545E-04 -.359E-04 -.247E+04   -.118E-03 0.785E-04 0.246E+04   0.191E-17 0.106E-17 0.163E+01   -.152E-03 -.226E-03 0.692E-01
   0.501E+02 0.811E+02 -.247E+04   -.493E+02 -.802E+02 0.247E+04   -.683E+00 -.928E+00 0.222E+01   -.217E+00 -.151E+00 0.588E-01
   -.501E+02 0.811E+02 -.247E+04   0.493E+02 -.802E+02 0.247E+04   0.683E+00 -.928E+00 0.222E+01   0.216E+00 -.149E+00 0.586E-01
   0.953E+02 0.281E+01 -.247E+04   -.941E+02 -.257E+01 0.247E+04   -.115E+01 -.127E+00 0.222E+01   -.239E+00 -.112E+00 0.588E-01
   -.953E+02 0.281E+01 -.247E+04   0.941E+02 -.257E+01 0.247E+04   0.115E+01 -.127E+00 0.222E+01   0.237E+00 -.111E+00 0.580E-01
   0.452E+02 -.840E+02 -.247E+04   -.448E+02 0.828E+02 0.247E+04   -.462E+00 0.106E+01 0.222E+01   -.201E-01 0.262E+00 0.586E-01
   -.452E+02 -.840E+02 -.247E+04   0.448E+02 0.828E+02 0.247E+04   0.462E+00 0.106E+01 0.222E+01   0.217E-01 0.261E+00 0.579E-01
   0.202E-04 -.901E-05 -.247E+04   0.106E-03 -.672E-04 0.247E+04   -.155E-17 0.623E-18 0.176E+01   -.680E-02 -.350E-02 0.246E+00
   0.273E-03 -.163E-03 -.254E+04   0.123E-03 0.141E-04 0.254E+04   -.676E-18 -.322E-18 -.384E+01   0.791E-02 0.482E-02 0.604E-01
   0.123E-03 -.622E-04 -.151E+04   0.237E-04 0.339E-06 0.152E+04   -.201E-19 0.204E-18 -.171E+02   0.200E-02 0.122E-02 0.207E+00
   0.781E-03 -.885E-03 0.237E+02   -.390E-13 0.553E-13 0.796E-11   -.113E-15 -.222E-15 -.195E+02   0.286E-01 0.199E-01 -.408E+01

 POSITION                                       TOTAL-FORCE (eV/Angst)
      0.00000      0.00000      5.28219         0.000000     -0.000000      0.020337
      2.93046      0.00000      5.28219        -0.007061      0.008746      0.024417
      5.86091      0.00000      5.28219         0.007061      0.008746      0.024417
      1.46523      2.53785      5.28219         0.004044     -0.010488      0.024417
      4.39568      2.53785      5.28219         0.000000     -0.000000     -0.012499
      7.32614      2.53785      5.28219        -0.004044     -0.010488      0.024417
      2.93046      5.07570      5.28219         0.011105      0.001742      0.024417
      5.86091      5.07570      5.28219        -0.011105      0.001742      0.024417
      8.79137      5.07570      5.28219         0.000000     -0.000000      0.030683
      1.46523      0.84595      7.67490        -0.015029     -0.008677     -0.036320
      4.39568      0.84595      7.67490        -0.000000     -0.057961     -0.051087
      7.32614      0.84595      7.67490         0.015029     -0.008677     -0.036320
      2.93046      3.38380      7.67490        -0.050196      0.028980     -0.051087
      5.86091      3.38380      7.67490         0.050196      0.028980     -0.051087
      8.79137      3.38380      7.67490         0.000000      0.000846      0.064261
      4.39568      5.92165      7.67490         0.000000      0.017354     -0.036320
      7.32614      5.92165      7.67490         0.000732     -0.000423      0.064261
     10.25659      5.92165      7.67490        -0.000732     -0.000423      0.064261
      8.79137      1.69211     10.06133        -0.000000     -0.012233      0.025476
      2.92756      1.69022     10.03254        -0.320824     -0.185228     -0.253401
      5.86381      1.69022     10.03254         0.320824     -0.185228     -0.253401
     10.25459      4.23091     10.07004         0.027783     -0.016040      0.021575
      4.39568      4.23310     10.03254         0.000000      0.370455     -0.253401
      7.32815      4.23091     10.07004        -0.027783     -0.016040      0.021575
     11.72164      6.76749     10.06133         0.010594      0.006116      0.025476
      5.86110      6.76749     10.06133        -0.010594      0.006116      0.025476
      8.79137      6.76528     10.07004         0.000000      0.032081      0.021575
      0.00000      0.00000     12.45237         0.000000     -0.000000     -0.038732
      2.94700      0.02679     12.48745        -0.099586     -0.174028     -0.096270
      5.84437      0.02679     12.48745         0.099586     -0.174028     -0.096270
      1.49670      2.53878     12.48745        -0.200506      0.000770     -0.096270
      7.29466      2.53878     12.48745         0.200506      0.000770     -0.096270
      2.94539      5.04797     12.48745        -0.100920      0.173258     -0.096270
      5.84598      5.04797     12.48745         0.100920      0.173258     -0.096270
      8.79137      5.07570     12.46721         0.000000     -0.000000     -0.049051
      4.39568      2.53785     12.28926         0.000000     -0.000000      1.188751
      4.39568      2.53785     14.00319         0.000000     -0.000000     -0.019885
    total drift:                                0.029350      0.019060      0.101492

  FREE ENERGIE OF THE ION-ELECTRON SYSTEM (eV)
  free  energy   TOTEN  =      -105.74006715 eV

  energy  without entropy=     -105.74006715  energy(sigma->0) =     -105.74006715

 stress matrix after NEB project (eV)
     -6.03702     -0.00000      0.00000
     -0.00000     -6.03702      0.00000
      0.00000     -0.00000      0.31380
  FORCES: max atom, RMS     0.019885    0.003269
  FORCE total and by dimension    0.019885    0.019885
  Stress total and by dimension    8.543404    6.037023
|           W    W    AA    RRRRR   N    N  II  N    N   GGGG   !!!           |
|           W    W   A  A   R    R  NN   N  II  NN   N  G    G  !!!           |
|           W    W  A    A  R    R  N N  N  II  N N  N  G       !!!           |
|           W WW W  AAAAAA  RRRRR   N  N N  II  N  N N  G  GGG   !            |
|           WW  WW  A    A  R   R   N   NN  II  N   NN  G    G                |
|           W    W  A    A  R    R  N    N  II  N    N   GGGG   !!!           |
|     Tetrahedron method does not include variations of the Fermi             |
|     occupations, so forces and stress will be inaccurate. We suggest        |
|     using a different smearing scheme ISMEAR = 1 or 2 for metals in         |
|     relaxations.                                                            |

 total charge

# of ion       s       p       d       tot
    1        0.415   0.204   9.177   9.796
    2        0.417   0.203   9.176   9.796
    3        0.417   0.203   9.176   9.796
    4        0.417   0.203   9.176   9.796
    5        0.414   0.203   9.177   9.794
    6        0.417   0.203   9.176   9.796
    7        0.417   0.203   9.176   9.796
    8        0.417   0.203   9.176   9.796
    9        0.413   0.203   9.177   9.792
   10        0.405   0.271   9.163   9.839
   11        0.406   0.269   9.165   9.840
   12        0.405   0.271   9.163   9.839
   13        0.406   0.269   9.165   9.840
   14        0.406   0.269   9.165   9.840
   15        0.401   0.269   9.164   9.834
   16        0.405   0.271   9.163   9.839
   17        0.401   0.269   9.164   9.834
   18        0.401   0.269   9.164   9.834
   19        0.402   0.263   9.169   9.834
   20        0.428   0.295   9.149   9.872
   21        0.428   0.295   9.149   9.872
   22        0.394   0.275   9.162   9.831
   23        0.428   0.295   9.149   9.872
   24        0.394   0.275   9.162   9.831
   25        0.402   0.263   9.169   9.834
   26        0.402   0.263   9.169   9.834
   27        0.394   0.275   9.162   9.831
   28        0.412   0.202   9.174   9.788
   29        0.434   0.211   9.164   9.809
   30        0.434   0.211   9.164   9.809
   31        0.434   0.211   9.164   9.809
   32        0.434   0.211   9.164   9.809
   33        0.434   0.211   9.164   9.809
   34        0.434   0.211   9.164   9.809
   35        0.412   0.205   9.173   9.789
   36        2.208   6.010   2.718  10.936
   37        1.346   2.258   0.000   3.604
tot         18.031  16.696 323.555 358.282

 BZINTS: Fermi energy:    0.821363;  403.000000 electrons
         Band energy:-0.160414E+04;  BLOECHL correction:   -0.048763