 vasp.6.2.0 18Jan21 (build Jun 12 2021 23:27:24) complex

 executed on             LinuxIFC date 2022.05.27  06:02:15

 INCAR:
   ISMEAR = -5
   SIGMA = 0.1
   ISPIN = 1
   EDIFF = 1.d-5
   EDIFFG = -0.01
   NSW = 0
   NELM = 150
   ENCUT = 500
   ISIF = 2
   IBRION = 2
   LREAL = Auto
   ALGO = Fast
   ICHARG = 11
   LORBIT = 10
   LCHARG = .F.
   LWAVE = .F.

 POTCAR:    PAW_PBE Cu 22Jun2005
 POTCAR:    PAW_PBE Fe 06Sep2000
 POTCAR:    PAW_PBE H 15Jun2001
|           W    W    AA    RRRRR   N    N  II  N    N   GGGG   !!!           |
|           W    W   A  A   R    R  NN   N  II  NN   N  G    G  !!!           |
|           W    W  A    A  R    R  N N  N  II  N N  N  G       !!!           |
|           W WW W  AAAAAA  RRRRR   N  N N  II  N  N N  G  GGG   !            |
|           WW  WW  A    A  R   R   N   NN  II  N   NN  G    G                |
|           W    W  A    A  R    R  N    N  II  N    N   GGGG   !!!           |
|     For optimal performance we recommend to set                             |
|       NCORE = 2 up to number-of-cores-per-socket                            |
|     This setting can greatly improve the performance of VASP for DFT.       |
|     The default, NCORE=1 might be grossly inefficient on modern             |
|     multi-core architectures or massively parallel machines. Do your        |
|     Unfortunately you need to use the default for GW and RPA                |
|     calculations (for HF NCORE is supported but not extensively tested      |
|     yet).                                                                   |

 POTCAR:    PAW_PBE Cu 22Jun2005
   VRHFIN =Cu: d10 p1

   TITEL  = PAW_PBE Cu 22Jun2005
   POMASS =   63.546; ZVAL   =   11.000    mass and valenz
   ENMAX  =  295.446; ENMIN  =  221.585 eV

 POTCAR:    PAW_PBE Fe 06Sep2000
   VRHFIN =Fe:  d7 s1

   TITEL  = PAW_PBE Fe 06Sep2000
   POMASS =   55.847; ZVAL   =    8.000    mass and valenz
   ENMAX  =  267.882; ENMIN  =  200.911 eV

 POTCAR:    PAW_PBE H 15Jun2001
   VRHFIN =H: ultrasoft test

   TITEL  = PAW_PBE H 15Jun2001
   POMASS =    1.000; ZVAL   =    1.000    mass and valenz
   ENMAX  =  250.000; ENMIN  =  200.000 eV

 Optimization of the real space projectors (new method)

 maximal supplied QI-value         = 16.25
 optimisation between [QCUT,QGAM] = [ 11.38, 22.75] = [ 36.24,144.96] Ry
 Optimized for a Real-space Cutoff    1.52 Angstroem

   l    n(q)    QCUT    max X(q) W(low)/X(q) W(high)/X(q)  e(spline)
   2      9    11.376     4.610    0.21E-03    0.10E-03    0.26E-06
   2      9    11.376     8.522    0.33E-03    0.16E-03    0.37E-06
   0     10    11.376    51.609    0.62E-04    0.20E-04    0.13E-06
   0     10    11.376    27.747    0.54E-04    0.20E-04    0.13E-06
   1     10    11.376    20.408    0.13E-04    0.99E-04    0.19E-06
   1     10    11.376    13.425    0.12E-04    0.87E-04    0.17E-06
 Optimization of the real space projectors (new method)

[...]

   l    n(q)    QCUT    max X(q) W(low)/X(q) W(high)/X(q)  e(spline)
   2      8    11.376    80.901    0.45E-03    0.44E-04    0.21E-06
   2      8    11.376    75.754    0.45E-03    0.45E-04    0.22E-06
   0      9    11.376    58.752    0.65E-04    0.95E-04    0.17E-06
   0      9    11.376    30.679    0.59E-04    0.87E-04    0.16E-06
   1      9    11.376    17.977    0.38E-03    0.10E-03    0.14E-06
   1      9    11.376    13.559    0.31E-03    0.90E-04    0.12E-06
 Optimization of the real space projectors (new method)

 maximal supplied QI-value         = 34.20
 optimisation between [QCUT,QGAM] = [ 11.29, 22.57] = [ 35.68,142.71] Ry
 Optimized for a Real-space Cutoff    1.16 Angstroem

   l    n(q)    QCUT    max X(q) W(low)/X(q) W(high)/X(q)  e(spline)
   0      8    11.287    19.460    0.40E-03    0.73E-03    0.16E-06
   0      8    11.287    12.209    0.38E-03    0.70E-03    0.15E-06
   1      7    11.287     4.655    0.22E-03    0.25E-04    0.22E-06
  PAW_PBE Cu 22Jun2005                  :
  PAW_PBE Fe 06Sep2000                  :
  PAW_PBE H 15Jun2001                   :

 POSCAR: Cu-Fe-H2
  positions in direct lattice
  velocities in cartesian coordinates
 exchange correlation table for  LEXCH =        8
   RHO(1)=    0.500       N(1)  =     2000
   RHO(2)=  100.500       N(2)  =     4000

 VTST: version 3.2, (02/03/18)

 CHAIN: initializing optimizer

 OPT: Using VASP Conjugate-Gradient optimizer
 CHAIN: Read ICHAIN            0

 POSCAR: Cu-Fe-H2
  positions in direct lattice
  velocities in cartesian coordinates

 ion  position               nearest neighbor table
   1  0.000  0.000  0.252-   7 2.57   3 2.57   4 2.57   2 2.57   6 2.57   8 2.57  12 2.57  10 2.57
                            16 2.57
   2  0.333  0.000  0.252-   8 2.57   9 2.57   5 2.57   1 2.57   3 2.57  11 2.57   4 2.57  10 2.57
                            17 2.57
   3  0.667  0.000  0.252-   1 2.57   7 2.57   6 2.57   9 2.57   2 2.57  12 2.57   5 2.57  18 2.57
                            11 2.57
   4  0.000  0.333  0.252-   5 2.57   6 2.57   1 2.57   7 2.57   2 2.57  13 2.57   9 2.57  10 2.57
                            15 2.57
   5  0.333  0.333  0.252-   4 2.57   2 2.57   7 2.57  13 2.57   8 2.57   6 2.57   3 2.57  11 2.57
                            14 2.57
   6  0.667  0.333  0.252-   4 2.57   9 2.57  15 2.57   3 2.57   1 2.57   8 2.57  14 2.57   5 2.57
                            12 2.57
   7  0.000  0.667  0.252-   1 2.57   3 2.57  16 2.57  18 2.57   4 2.57   5 2.57   8 2.57   9 2.57
                            13 2.57
   8  0.333  0.667  0.252-   9 2.57   2 2.57  17 2.57   6 2.57   1 2.57   7 2.57   5 2.57  14 2.57
                            16 2.57
   9  0.667  0.667  0.252-   8 2.57   6 2.57   2 2.57  17 2.57   3 2.57   7 2.57   4 2.57  15 2.57
                            18 2.57
  10  0.111  0.111  0.351-  20 2.55  26 2.56  19 2.56  11 2.57  12 2.57  13 2.57   1 2.57   2 2.57
                             4 2.57  15 2.57  16 2.57  17 2.57
  11  0.444  0.111  0.351-  20 2.55  21 2.55  27 2.56  10 2.57  13 2.57   2 2.57  17 2.57  14 2.57
                            12 2.57   5 2.57   3 2.57  18 2.57
  12  0.778  0.111  0.351-  21 2.55  19 2.56  25 2.56  15 2.57  10 2.57  14 2.57  18 2.57   3 2.57
                             1 2.57  16 2.57  11 2.57   6 2.57
  13  0.111  0.444  0.351-  23 2.55  20 2.55  22 2.56  16 2.57  18 2.57  10 2.57  11 2.57  14 2.57
                             5 2.57   4 2.57   7 2.57  15 2.57
  14  0.444  0.444  0.351-  21 2.55  23 2.55  24 2.56  15 2.57  17 2.57  12 2.57  16 2.57  13 2.57
                            11 2.57   6 2.57   8 2.57   5 2.57
  15  0.778  0.444  0.351-  19 2.56  24 2.56  22 2.56  14 2.57  17 2.57  12 2.57   6 2.57  18 2.57
                            10 2.57   9 2.57  13 2.57   4 2.57
  16  0.111  0.778  0.351-  23 2.55  25 2.56  26 2.56  18 2.57  13 2.57   7 2.57  14 2.57  17 2.57
                            12 2.57  10 2.57   8 2.57   1 2.57
  17  0.444  0.778  0.351-  26 2.56  27 2.56  24 2.56  14 2.57  15 2.57   8 2.57   9 2.57  11 2.57
                            16 2.57  18 2.57  10 2.57   2 2.57
  18  0.778  0.778  0.351-  25 2.56  22 2.56  27 2.56  16 2.57  13 2.57   7 2.57  15 2.57  12 2.57
                            17 2.57   9 2.57   3 2.57  11 2.57
  19  0.889  0.223  0.449-  28 2.55  15 2.56  12 2.56  10 2.56  22 2.56  24 2.56  32 2.57  31 2.57
                            21 2.57  20 2.57  25 2.57  26 2.57
  20  0.222  0.222  0.448-  36 2.47  11 2.55  13 2.55  10 2.55  29 2.55  31 2.55  23 2.56  21 2.56
                            26 2.57  19 2.57  27 2.57  22 2.57
  21  0.555  0.222  0.448-  36 2.47  14 2.55  11 2.55  12 2.55  32 2.55  30 2.55  20 2.56  23 2.56
                            19 2.57  25 2.57  24 2.57  27 2.57
  22  0.888  0.556  0.449-  35 2.54  31 2.56  33 2.56  18 2.56  15 2.56  24 2.56  27 2.56  13 2.56
                            19 2.56  25 2.56  23 2.57  20 2.57
  23  0.222  0.555  0.448-  36 2.47  13 2.55  14 2.55  16 2.55  33 2.55  34 2.55  20 2.56  21 2.56
                            25 2.57  26 2.57  22 2.57  24 2.57
  24  0.556  0.556  0.449-  35 2.54  32 2.56  34 2.56  15 2.56  17 2.56  22 2.56  27 2.56  14 2.56
                            19 2.56  26 2.56  21 2.57  23 2.57
  25  0.889  0.889  0.449-  28 2.55  18 2.56  16 2.56  12 2.56  22 2.56  27 2.56  33 2.57  30 2.57
                            21 2.57  23 2.57  19 2.57  26 2.57
  26  0.223  0.889  0.449-  28 2.55  17 2.56  10 2.56  16 2.56  27 2.56  24 2.56  29 2.57  34 2.57
                            20 2.57  23 2.57  25 2.57  19 2.57
  27  0.556  0.888  0.449-  35 2.54  29 2.56  30 2.56  17 2.56  18 2.56  24 2.56  22 2.56  11 2.56
                            26 2.56  25 2.56  20 2.57  21 2.57
  28  0.000  0.000  0.546-  25 2.55  19 2.55  26 2.55  33 2.58  30 2.58  31 2.58  29 2.58  32 2.58
                            34 2.58
  29  0.333  0.003  0.547-  31 2.54  30 2.54  36 2.54  20 2.55  27 2.56  26 2.57  28 2.58  35 2.58
                            34 2.61
  30  0.664  0.003  0.547-  32 2.54  29 2.54  36 2.54  21 2.55  27 2.56  25 2.57  28 2.58  35 2.58
                            33 2.61
  31  0.003  0.333  0.547-  29 2.54  33 2.54  36 2.54  20 2.55  22 2.56  19 2.57  28 2.58  35 2.58
                            32 2.61
  32  0.664  0.333  0.547-  30 2.54  34 2.54  36 2.54  21 2.55  24 2.56  19 2.57  28 2.58  35 2.58
                            31 2.61
  33  0.003  0.664  0.547-  34 2.54  31 2.54  36 2.54  23 2.55  22 2.56  25 2.57  28 2.58  35 2.58
                            30 2.61
  34  0.333  0.664  0.547-  33 2.54  32 2.54  36 2.54  23 2.55  24 2.56  26 2.57  28 2.58  35 2.58
                            29 2.61
  35  0.667  0.667  0.546-  24 2.54  27 2.54  22 2.54  34 2.58  32 2.58  29 2.58  30 2.58  33 2.58
                            31 2.58
  36  0.333  0.333  0.541-  37 1.57  38 1.57  23 2.47  20 2.47  21 2.47  31 2.54  29 2.54  33 2.54
                            34 2.54  32 2.54  30 2.54
  37  0.273  0.327  0.611-  36 1.57
  38  0.401  0.327  0.611-  36 1.57

  LATTYP: Found a hexagonal cell.
 ALAT       =     7.6967864036
 C/A-ratio  =     2.7653617908

  Lattice vectors:

 A1 = (  -3.8483927580,  -6.6656128093,   0.0000000000)
 A2 = (   7.6967864037,   0.0000000000,   0.0000000000)
 A3 = (   0.0000000000,   0.0000000000,  21.2843990326)

Analysis of symmetry for initial positions (statically):
 Subroutine PRICEL returns:
 Original cell was already a primitive cell.

 Routine SETGRP: Setting up the symmetry group for a
 hexagonal supercell.

 Subroutine GETGRP returns: Found  2 space group operations
 (whereof  2 operations were pure point group operations)
 out of a pool of 24 trial point group operations.

The static configuration has the point symmetry C_1h.

Analysis of symmetry for dynamics (positions and initial velocities):
 Subroutine PRICEL returns:
 Original cell was already a primitive cell.

[...]

The dynamic configuration has the point symmetry C_1h.

Analysis of constrained symmetry for selective dynamics:
 Subroutine PRICEL returns:
 Original cell was already a primitive cell.

 Routine SETGRP: Setting up the symmetry group for a
 hexagonal supercell.

 Subroutine GETGRP returns: Found  2 space group operations
[...]
     33      -3.8743      2.00000
     34      -3.8687      2.00000
     35      -3.8226      2.00000
     36      -3.7424      2.00000
     37      -3.7333      2.00000
     38      -3.6547      2.00000
     39      -3.6471      2.00000
     40      -3.5688      2.00000
     41      -3.5672      2.00000
     42      -3.5463      2.00000
     43      -3.5246      2.00000
     44      -3.5225      2.00000
     45      -3.4974      2.00000
     46      -3.4845      2.00000
     47      -3.3184      2.00000
     48      -3.2982      2.00000
     49      -3.2954      2.00000
     50      -3.2890      2.00000
     51      -3.2366      2.00000
     52      -3.2325      2.00000
     53      -3.2228      2.00000
     54      -3.1928      2.00000
     55      -3.1892      2.00000
     56      -3.1707      2.00000
     57      -3.1606      2.00000
     58      -3.1502      2.00000
     59      -3.1435      2.00000
     60      -3.1368      2.00000
[...]
    238       6.6962      0.00000
    239       6.8077      0.00000
    240       6.9441      0.00000
    241       6.9934      0.00000
    242       7.0397      0.00000
    243       7.2064      0.00000
    244       7.2626      0.00000
    245       7.3388      0.00000
    246       7.4386      0.00000
    247       7.5313      0.00000
    248       7.6506      0.00000
    249       7.8461      0.00000
    250       8.0831      0.00000
    251       8.1705      0.00000
    252       8.3562      0.00000

 soft charge-density along one line, spin component           1
         0         1         2         3         4         5         6         7         8         9
 total charge-density along one line

------------------------ aborting loop because EDIFF is reached ----------------------------------------

 total charge

# of ion       s       p       d       tot
    1        0.449   0.284   9.189   9.922
    2        0.449   0.285   9.187   9.921
    3        0.449   0.285   9.187   9.921
    4        0.449   0.285   9.186   9.920
    5        0.449   0.287   9.180   9.916
    6        0.449   0.285   9.186   9.920
    7        0.449   0.285   9.186   9.921
    8        0.449   0.285   9.186   9.921
    9        0.447   0.283   9.190   9.921
   10        0.441   0.372   9.175   9.988
   11        0.445   0.366   9.184   9.994
   12        0.441   0.372   9.175   9.988
   13        0.444   0.366   9.183   9.994
   14        0.444   0.366   9.183   9.994
   15        0.438   0.371   9.177   9.986
   16        0.441   0.372   9.175   9.988
   17        0.438   0.371   9.177   9.986
   18        0.438   0.371   9.177   9.986
   19        0.441   0.370   9.181   9.992
   20        0.458   0.390   9.167  10.015
   21        0.458   0.390   9.167  10.015
   22        0.433   0.377   9.180   9.990
   23        0.458   0.393   9.164  10.014
   24        0.433   0.377   9.180   9.990
   25        0.441   0.369   9.181   9.992
   26        0.441   0.369   9.181   9.992
   27        0.434   0.376   9.180   9.990
   28        0.447   0.283   9.192   9.922
   29        0.453   0.295   9.183   9.930
   30        0.453   0.295   9.183   9.930
   31        0.449   0.302   9.179   9.930
   32        0.449   0.302   9.179   9.930
   33        0.453   0.295   9.182   9.929
   34        0.453   0.295   9.182   9.929
   35        0.443   0.286   9.191   9.920
   36        0.443   0.516   6.425   7.384
   37        0.522   0.030   0.000   0.552
   38        0.522   0.030   0.000   0.552
tot         17.093  12.233 327.761 357.088

  FORCE on cell =-STRESS in cart. coord.  units (eV):
  Direction    XX          YY          ZZ          XY          YZ          ZX
  Alpha Z   874.74512   874.74512   874.74512
  Ewald  173818.17109173795.66660************     0.00039    -0.76796     0.00017
  Hartree186814.75718186808.74190************     0.00004     0.18465     0.00007
  E(xc)   -2291.48431 -2291.70432 -2296.24731    -0.00030     0.00116    -0.00004
  Local  ************************373995.39070     0.01949     0.32842    -0.00069
  n-local  -789.41127  -789.62253  -802.85031     1.78660     0.09374     0.08955
  augment  3345.80221  3346.04166  3362.81257    -0.01807     0.02514     0.00033
  Kinetic  3219.67676  3223.63050  3243.01040     1.28067     0.24286    -0.20675
  Fock        0.00000     0.00000     0.00000     0.00000     0.00000     0.00000
  Total      -7.72849    -7.68854     1.14906     0.00000     0.10801    -0.00000
  in kB     -11.33951   -11.28090     1.68593     0.00000     0.15848    -0.00000

 VOLUME and BASIS-vectors are now :
  energy-cutoff  :      500.00
  volume of cell :     1091.97
      direct lattice vectors                 reciprocal lattice vectors
     7.696786404  0.000000000  0.000000000     0.129924354 -0.075011849  0.000000000
     3.848392758  6.665612809  0.000000000     0.000000000  0.150023716  0.000000000
     0.000000000  0.000000000 21.284399033     0.000000000  0.000000000  0.046982769

  length of vectors
     7.696786404  7.696786404 21.284399033     0.150023716  0.150023716  0.046982769

 FORCES acting on ions
    electron-ion (+dipol)            ewald-force                    non-local-force                 convergence-correction
   -.407E-04 -.112E-01 0.348E+04   0.579E-04 -.570E-02 -.347E+04   -.139E-08 0.209E-01 -.288E+01   -.325E-03 -.360E-02 -.278E+00
   -.464E-01 0.498E-01 0.348E+04   -.949E-01 -.820E-01 -.347E+04   0.700E-01 0.575E-01 -.186E+01   0.814E-01 -.718E-02 -.215E+00
   0.464E-01 0.498E-01 0.348E+04   0.949E-01 -.821E-01 -.347E+04   -.700E-01 0.575E-01 -.186E+01   -.805E-01 -.475E-02 -.214E+00
   -.167E-01 -.904E-01 0.348E+04   -.114E+00 -.406E-01 -.347E+04   0.105E+00 0.304E-01 -.189E+01   0.465E-01 0.969E-01 -.222E+00
   -.614E-04 -.367E-01 0.347E+04   0.116E-03 0.350E-02 -.347E+04   -.770E-09 0.116E-01 -.156E+01   0.121E-01 0.232E-01 -.113E+00
   0.168E-01 -.903E-01 0.348E+04   0.114E+00 -.407E-01 -.347E+04   -.105E+00 0.304E-01 -.189E+01   -.480E-01 0.980E-01 -.221E+00
   0.575E-01 0.415E-01 0.348E+04   -.186E-01 0.123E+00 -.347E+04   0.292E-01 -.974E-01 -.183E+01   -.500E-01 -.819E-01 -.209E+00
   -.574E-01 0.415E-01 0.348E+04   0.183E-01 0.123E+00 -.347E+04   -.292E-01 -.974E-01 -.183E+01   0.534E-01 -.833E-01 -.210E+00
   -.143E-03 0.414E-01 0.348E+04   0.263E-03 0.230E-02 -.347E+04   0.806E-09 -.121E-01 -.244E+01   -.131E-01 -.329E-01 -.212E+00
   0.161E+01 0.909E+00 0.116E+04   -.128E+01 -.769E+00 -.115E+04   -.458E+00 -.214E+00 -.108E+01   0.126E+00 0.773E-01 -.162E+00
   -.901E-04 0.864E+00 0.116E+04   0.189E-03 -.129E+01 -.116E+04   -.170E-07 0.256E+00 -.502E+00   0.118E-01 0.128E+00 -.114E+00
   -.161E+01 0.909E+00 0.116E+04   0.128E+01 -.769E+00 -.115E+04   0.458E+00 -.214E+00 -.108E+01   -.128E+00 0.778E-01 -.163E+00
   0.768E+00 -.438E+00 0.116E+04   -.109E+01 0.674E+00 -.116E+04   0.200E+00 -.176E+00 -.490E+00   0.106E+00 -.413E-01 -.123E+00
   -.767E+00 -.438E+00 0.116E+04   0.109E+01 0.674E+00 -.116E+04   -.200E+00 -.176E+00 -.490E+00   -.826E-01 -.430E-01 -.126E+00
   -.143E-03 0.221E+00 0.116E+04   0.299E-03 -.532E+00 -.116E+04   -.118E-07 0.178E+00 -.100E+01   -.296E-02 0.119E+00 -.206E+00
   -.917E-04 -.185E+01 0.116E+04   0.186E-03 0.147E+01 -.115E+04   -.353E-07 0.529E+00 -.110E+01   -.116E-02 -.160E+00 -.141E+00
   0.309E+00 -.109E+00 0.116E+04   -.494E+00 0.274E+00 -.116E+04   0.106E+00 -.873E-01 -.975E+00   0.630E-01 -.670E-01 -.189E+00
   -.309E+00 -.109E+00 0.116E+04   0.493E+00 0.274E+00 -.116E+04   -.106E+00 -.873E-01 -.975E+00   -.614E-01 -.647E-01 -.187E+00
   -.618E-04 -.317E+00 -.119E+04   0.687E-04 0.196E+00 0.118E+04   -.222E-08 0.334E-01 0.875E+00   0.136E-02 0.846E-01 -.175E+00
   -.770E+01 -.426E+01 -.119E+04   0.858E+01 0.489E+01 0.119E+04   -.123E+01 -.782E+00 -.114E+01   0.307E+00 0.116E+00 0.463E-01
   0.770E+01 -.426E+01 -.119E+04   -.858E+01 0.489E+01 0.119E+04   0.123E+01 -.782E+00 -.114E+01   -.329E+00 0.114E+00 0.463E-01
   -.713E+01 0.388E+01 -.118E+04   0.657E+01 -.355E+01 0.118E+04   0.402E+00 -.284E+00 0.698E+00   0.214E+00 -.744E-01 -.283E+00
   -.773E-04 0.840E+01 -.119E+04   0.144E-03 -.963E+01 0.119E+04   -.103E-06 0.155E+01 -.121E+01   -.137E-01 -.301E+00 0.846E-01
   0.713E+01 0.388E+01 -.118E+04   -.657E+01 -.355E+01 0.118E+04   -.402E+00 -.284E+00 0.698E+00   -.191E+00 -.751E-01 -.284E+00
   0.280E+00 0.431E+00 -.119E+04   -.175E+00 -.337E+00 0.118E+04   -.196E-01 -.124E-01 0.894E+00   -.892E-01 -.813E-01 -.136E+00
   -.280E+00 0.431E+00 -.119E+04   0.175E+00 -.337E+00 0.118E+04   0.196E-01 -.124E-01 0.894E+00   0.883E-01 -.788E-01 -.135E+00
   -.124E-03 -.821E+01 -.118E+04   0.242E-03 0.740E+01 0.118E+04   -.393E-07 0.590E+00 0.692E+00   0.115E-01 0.265E+00 -.244E+00
   -.357E-04 0.113E+01 -.348E+04   0.373E-04 -.101E+01 0.347E+04   0.570E-08 -.856E-01 0.245E+01   0.151E-02 -.628E-01 0.345E+00
   -.548E+01 -.717E+01 -.348E+04   0.588E+01 0.735E+01 0.348E+04   -.625E+00 -.539E+00 0.235E+01   0.180E+00 0.308E+00 0.214E+00
   0.548E+01 -.717E+01 -.348E+04   -.588E+01 0.735E+01 0.348E+04   0.625E+00 -.539E+00 0.235E+01   -.201E+00 0.309E+00 0.213E+00
   -.789E+01 -.743E+00 -.348E+04   0.830E+01 0.933E+00 0.347E+04   -.795E+00 -.155E+00 0.241E+01   0.404E+00 -.262E-01 0.208E+00
   0.789E+01 -.742E+00 -.348E+04   -.830E+01 0.932E+00 0.347E+04   0.795E+00 -.155E+00 0.241E+01   -.426E+00 -.255E-01 0.209E+00
   -.604E+01 0.867E+01 -.348E+04   0.621E+01 -.905E+01 0.348E+04   -.436E+00 0.732E+00 0.227E+01   0.226E+00 -.310E+00 0.208E+00
   0.604E+01 0.867E+01 -.348E+04   -.621E+01 -.905E+01 0.348E+04   0.436E+00 0.732E+00 0.227E+01   -.246E+00 -.310E+00 0.209E+00
   -.128E-03 -.636E+00 -.348E+04   0.253E-03 0.493E+00 0.348E+04   -.783E-08 0.118E+00 0.265E+01   -.107E-01 0.434E-01 0.383E+00
   -.562E-04 -.242E+01 -.240E+04   0.105E-03 0.247E+01 0.240E+04   -.188E-09 0.282E-02 0.985E+00   0.429E-02 0.154E-01 0.683E-01
   0.147E+02 0.147E+00 -.388E+03   -.169E+02 -.191E+00 0.390E+03   0.229E+01 0.395E-01 -.156E+01   0.219E-01 0.388E-02 -.414E-01
   -.147E+02 0.147E+00 -.388E+03   0.169E+02 -.191E+00 0.390E+03   -.229E+01 0.395E-01 -.156E+01   -.218E-01 0.389E-02 -.416E-01
   -.217E-03 -.167E+00 0.987E+01   0.185E-12 0.193E-12 0.290E-11   -.142E-07 0.214E+00 -.746E+01   -.338E-01 -.495E-01 -.241E+01

 POSITION                                       TOTAL-FORCE (eV/Angst)
      0.00000      0.00000      5.37156        -0.000000      0.000410     -0.000152
      2.56560      0.00000      5.37156         0.009684      0.019334      0.070324
      5.13119      0.00000      5.37156        -0.009684      0.019334      0.070324
      1.28280      2.22187      5.37156         0.022080     -0.003172      0.070140
      3.84839      2.22187      5.37156        -0.000000      0.001643      0.042997
      6.41399      2.22187      5.37156        -0.022080     -0.003172      0.070140
      2.56560      4.44374      5.37156         0.016392     -0.015806      0.069577
      5.13119      4.44374      5.37156        -0.016392     -0.015806      0.069577
      7.69679      4.44374      5.37156         0.000000     -0.001279      0.021149
      1.28280      0.74062      7.46636        -0.001070      0.003876     -0.060502
      3.84839      0.74062      7.46636         0.000000     -0.046261     -0.094061
      6.41399      0.74062      7.46636         0.001070      0.003876     -0.060502
      2.56560      2.96249      7.46636        -0.031820      0.018242     -0.082836
      5.13119      2.96249      7.46636         0.031820      0.018242     -0.082836
      7.69679      2.96249      7.46636         0.000000     -0.014728     -0.033154
      3.84839      5.18437      7.46636         0.000000     -0.007106     -0.055858
      6.41399      5.18437      7.46636        -0.016492      0.012646     -0.024596
      8.97958      5.18437      7.46636         0.016492      0.012646     -0.024596
      7.69679      1.48386      9.55425         0.000000     -0.003200      0.063901
      2.56752      1.48236      9.54187        -0.027065     -0.037714     -0.176739
      5.12927      1.48236      9.54187         0.027065     -0.037714     -0.176739
      8.97669      3.70479      9.55452         0.042148     -0.026621      0.010234
      3.84839      3.70090      9.54187        -0.000000      0.018832     -0.135422
      6.41688      3.70479      9.55452        -0.042148     -0.026621      0.010234
     10.26012      5.92368      9.55425        -0.003815      0.001715      0.036627
      5.13345      5.92368      9.55425         0.003815      0.001715      0.036627
      7.69679      5.92165      9.55452        -0.000000      0.048853      0.007282
      0.00000      0.00000     11.62539         0.000000     -0.029262     -0.044032
      2.57645      0.02208     11.63568        -0.031113     -0.050505     -0.029503
      5.12034      0.02208     11.63568         0.031113     -0.050505     -0.029503
      1.30734      2.22023     11.63568         0.021549      0.008983      0.040225
      6.38944      2.22023     11.63568        -0.021549      0.008983      0.040225
      2.57929      4.42331     11.63568        -0.032966      0.044212     -0.023442
      5.11749      4.42331     11.63568         0.032966      0.044212     -0.023442
      7.69679      4.44374     11.62587        -0.000000      0.018352     -0.028961
      3.84839      2.22187     11.51524        -0.000000      0.064395      0.447643
      3.35610      2.17867     13.00463         0.022748     -0.000516      0.004827
      4.34068      2.17867     13.00463        -0.022748     -0.000516      0.004827
    total drift:                               -0.033993     -0.002890      0.001002

  FREE ENERGIE OF THE ION-ELECTRON SYSTEM (eV)
  free  energy   TOTEN  =      -136.35038199 eV

  energy  without entropy=     -136.35038199  energy(sigma->0) =     -136.35038199

 stress matrix after NEB project (eV)
     -7.72849      0.00000     -0.00000
      0.00000     -7.68854      0.10801
     -0.00000      0.10801      1.14906
  FORCES: max atom, RMS     0.023261    0.005336
  FORCE total and by dimension    0.032895    0.022748
  Stress total and by dimension   10.962981    7.728492
|           W    W    AA    RRRRR   N    N  II  N    N   GGGG   !!!           |
|           W    W   A  A   R    R  NN   N  II  NN   N  G    G  !!!           |
|           W    W  A    A  R    R  N N  N  II  N N  N  G       !!!           |
|           W WW W  AAAAAA  RRRRR   N  N N  II  N  N N  G  GGG   !            |
|           WW  WW  A    A  R   R   N   NN  II  N   NN  G    G                |
|           W    W  A    A  R    R  N    N  II  N    N   GGGG   !!!           |
|     Tetrahedron method does not include variations of the Fermi             |
|     occupations, so forces and stress will be inaccurate. We suggest        |
|     using a different smearing scheme ISMEAR = 1 or 2 for metals in         |
|     relaxations.                                                            |

 total charge

# of ion       s       p       d       tot
    1        0.449   0.284   9.189   9.922
    2        0.449   0.285   9.187   9.921
    3        0.449   0.285   9.187   9.921
    4        0.449   0.285   9.186   9.920
    5        0.449   0.287   9.180   9.916
    6        0.449   0.285   9.186   9.920
    7        0.449   0.285   9.186   9.921
    8        0.449   0.285   9.186   9.921
    9        0.447   0.283   9.190   9.921
   10        0.441   0.372   9.175   9.988
   11        0.445   0.366   9.184   9.994
   12        0.441   0.372   9.175   9.988
   13        0.444   0.366   9.183   9.994
   14        0.444   0.366   9.183   9.994
   15        0.438   0.371   9.177   9.986
   16        0.441   0.372   9.175   9.988
   17        0.438   0.371   9.177   9.986
   18        0.438   0.371   9.177   9.986
   19        0.441   0.370   9.181   9.992
   20        0.458   0.390   9.167  10.015
   21        0.458   0.390   9.167  10.015
   22        0.433   0.377   9.180   9.990
   23        0.458   0.393   9.164  10.014
   24        0.433   0.377   9.180   9.990
   25        0.441   0.369   9.181   9.992
   26        0.441   0.369   9.181   9.992
   27        0.434   0.376   9.180   9.990
   28        0.447   0.283   9.192   9.922
   29        0.453   0.295   9.183   9.930
   30        0.453   0.295   9.183   9.930
   31        0.449   0.302   9.179   9.930
   32        0.449   0.302   9.179   9.930
   33        0.453   0.295   9.182   9.929
   34        0.453   0.295   9.182   9.929
   35        0.443   0.286   9.191   9.920
   36        0.443   0.516   6.425   7.384
   37        0.522   0.030   0.000   0.552
   38        0.522   0.030   0.000   0.552
tot         17.093  12.233 327.761 357.088

 BZINTS: Fermi energy:    0.119182;  395.000000 electrons
         Band energy:-0.105487E+04;  BLOECHL correction:   -0.042105