 vasp.6.2.0 18Jan21 (build Jun 12 2021 23:27:24) complex

 executed on             LinuxIFC date 2022.05.30  16:06:51

 INCAR:
   ISMEAR = -5
   SIGMA = 0.1
   ISPIN = 1
   EDIFF = 1.d-5
   EDIFFG = -0.01
   NSW = 0
   NELM = 150
   ENCUT = 500
   ISIF = 2
   IBRION = 2
   LREAL = Auto
   ALGO = Fast
   ICHARG = 11
   LORBIT = 10
   LCHARG = .F.
   LWAVE = .F.

 POTCAR:    PAW_PBE Au 04Oct2007
 POTCAR:    PAW_PBE Zr_sv 04Jan2005
 POTCAR:    PAW_PBE C 08Apr2002
 POTCAR:    PAW_PBE O 08Apr2002
 POTCAR:    PAW_PBE H 15Jun2001
|           W    W    AA    RRRRR   N    N  II  N    N   GGGG   !!!           |
|           W    W   A  A   R    R  NN   N  II  NN   N  G    G  !!!           |
|           W    W  A    A  R    R  N N  N  II  N N  N  G       !!!           |
|           W WW W  AAAAAA  RRRRR   N  N N  II  N  N N  G  GGG   !            |
|           WW  WW  A    A  R   R   N   NN  II  N   NN  G    G                |
|           W    W  A    A  R    R  N    N  II  N    N   GGGG   !!!           |
|     For optimal performance we recommend to set                             |
|       NCORE = 2 up to number-of-cores-per-socket                            |
|     This setting can greatly improve the performance of VASP for DFT.       |
|     The default, NCORE=1 might be grossly inefficient on modern             |
|     multi-core architectures or massively parallel machines. Do your        |
|     Unfortunately you need to use the default for GW and RPA                |
|     calculations (for HF NCORE is supported but not extensively tested      |
|     yet).                                                                   |

 POTCAR:    PAW_PBE Au 04Oct2007
   VRHFIN =Au: s1d10

   TITEL  = PAW_PBE Au 04Oct2007
   POMASS =  196.966; ZVAL   =   11.000    mass and valenz
   ENMAX  =  229.943; ENMIN  =  172.457 eV

 POTCAR:    PAW_PBE Zr_sv 04Jan2005
   VRHFIN =Zr: 4s4p5s4d

   TITEL  = PAW_PBE Zr_sv 04Jan2005
   POMASS =   91.224; ZVAL   =   12.000    mass and valenz
   ENMAX  =  229.898; ENMIN  =  172.424 eV

 POTCAR:    PAW_PBE C 08Apr2002
   VRHFIN =C: s2p2

   TITEL  = PAW_PBE C 08Apr2002
   POMASS =   12.011; ZVAL   =    4.000    mass and valenz
   ENMAX  =  400.000; ENMIN  =  300.000 eV

 POTCAR:    PAW_PBE O 08Apr2002
   VRHFIN =O: s2p4

   TITEL  = PAW_PBE O 08Apr2002
   POMASS =   16.000; ZVAL   =    6.000    mass and valenz
   ENMAX  =  400.000; ENMIN  =  300.000 eV

 POTCAR:    PAW_PBE H 15Jun2001
   VRHFIN =H: ultrasoft test

   TITEL  = PAW_PBE H 15Jun2001
   POMASS =    1.000; ZVAL   =    1.000    mass and valenz
   ENMAX  =  250.000; ENMIN  =  200.000 eV

 Optimization of the real space projectors (new method)

 maximal supplied QI-value         = 15.12
 optimisation between [QCUT,QGAM] = [ 11.34, 22.83] = [ 36.00,145.93] Ry
 Optimized for a Real-space Cutoff    1.39 Angstroem

   l    n(q)    QCUT    max X(q) W(low)/X(q) W(high)/X(q)  e(spline)
   2      9    11.338    60.898    0.39E-03    0.42E-03    0.21E-06
   2      9    11.338    58.894    0.40E-03    0.42E-03    0.22E-06
   0      9    11.338   109.617    0.13E-03    0.20E-04    0.13E-06
   0      9    11.338    75.026    0.13E-03    0.20E-04    0.13E-06
   1      9    11.338    16.344    0.33E-04    0.24E-03    0.18E-06
   1      9    11.338    10.160    0.26E-04    0.19E-03    0.15E-06
 Optimization of the real space projectors (new method)

[...]

   l    n(q)    QCUT    max X(q) W(low)/X(q) W(high)/X(q)  e(spline)
   0      7    11.387    20.381    0.39E-03    0.13E-02    0.15E-06
   0      7    11.387    15.268    0.42E-03    0.14E-02    0.17E-06
   1      6    11.387     5.964    0.41E-03    0.11E-02    0.17E-06
   1      6    11.387     5.382    0.39E-03    0.87E-03    0.15E-06
 Optimization of the real space projectors (new method)

 maximal supplied QI-value         = 34.20
 optimisation between [QCUT,QGAM] = [ 11.29, 22.57] = [ 35.68,142.71] Ry
 Optimized for a Real-space Cutoff    1.16 Angstroem

   l    n(q)    QCUT    max X(q) W(low)/X(q) W(high)/X(q)  e(spline)
   0      8    11.287    19.460    0.40E-03    0.73E-03    0.16E-06
   0      8    11.287    12.209    0.38E-03    0.70E-03    0.15E-06
   1      7    11.287     4.655    0.22E-03    0.25E-04    0.22E-06
  PAW_PBE Au 04Oct2007                  :
  PAW_PBE Zr_sv 04Jan2005               :
  PAW_PBE C 08Apr2002                   :
  PAW_PBE O 08Apr2002                   :
  PAW_PBE H 15Jun2001                   :

 POSCAR: Au-Zr-COH
  positions in direct lattice
  velocities in cartesian coordinates
 exchange correlation table for  LEXCH =        8
   RHO(1)=    0.500       N(1)  =     2000
   RHO(2)=  100.500       N(2)  =     4000

 VTST: version 3.2, (02/03/18)

 CHAIN: initializing optimizer

 OPT: Using VASP Conjugate-Gradient optimizer
 CHAIN: Read ICHAIN            0

 POSCAR: Au-Zr-COH
  positions in direct lattice
  velocities in cartesian coordinates

 ion  position               nearest neighbor table
   1  0.000  0.000  0.197-  16 2.94  12 2.94   6 2.94   8 2.94   7 2.94   3 2.94  10 2.94   4 2.94
                             2 2.94
   2  0.333  0.000  0.197-   9 2.94  11 2.94  17 2.94  10 2.94   8 2.94   4 2.94   5 2.94   1 2.94
                             3 2.94
   3  0.667  0.000  0.197-   7 2.94  18 2.94  12 2.94   1 2.94  11 2.94   5 2.94   6 2.94   9 2.94
                             2 2.94
   4  0.000  0.333  0.197-  10 2.94   6 2.94   5 2.94  13 2.94   2 2.94  15 2.94   9 2.94   1 2.94
                             7 2.94
   5  0.333  0.333  0.197-  13 2.94   7 2.94  11 2.94   4 2.94   2 2.94  14 2.94   3 2.94   8 2.94
                             6 2.94
   6  0.667  0.333  0.197-  15 2.94  14 2.94   1 2.94  12 2.94   4 2.94   9 2.94   8 2.94   3 2.94
                             5 2.94
   7  0.000  0.667  0.197-  18 2.94   3 2.94  16 2.94   5 2.94   1 2.94  13 2.94   8 2.94   4 2.94
                             9 2.94
   8  0.333  0.667  0.197-   9 2.94  17 2.94   1 2.94   2 2.94  14 2.94  16 2.94   6 2.94   7 2.94
                             5 2.94
   9  0.667  0.667  0.197-   2 2.94   8 2.94  17 2.94   6 2.94  15 2.94   4 2.94   3 2.94  18 2.94
                             7 2.94
  10  0.111  0.111  0.287-  20 2.93  26 2.93  19 2.93  11 2.94  17 2.94   2 2.94   4 2.94   1 2.94
                            12 2.94  16 2.94  13 2.94  15 2.94
  11  0.444  0.111  0.287-  20 2.92  21 2.92  27 2.94  13 2.94   2 2.94  10 2.94  17 2.94   5 2.94
                             3 2.94  18 2.94  14 2.94  12 2.94
  12  0.778  0.111  0.287-  21 2.93  25 2.93  19 2.93  16 2.94  18 2.94   1 2.94  14 2.94  15 2.94
                             3 2.94   6 2.94  10 2.94  11 2.94
  13  0.111  0.444  0.287-  23 2.92  20 2.92  22 2.94   5 2.94  18 2.94  11 2.94   7 2.94   4 2.94
                            16 2.94  10 2.94  14 2.94  15 2.94
  14  0.444  0.444  0.287-  21 2.92  23 2.92  24 2.94  15 2.94   6 2.94  12 2.94   8 2.94  17 2.94
                             5 2.94  16 2.94  13 2.94  11 2.94
  15  0.778  0.444  0.287-  24 2.93  22 2.93  19 2.93  14 2.94   6 2.94  17 2.94  12 2.94   9 2.94
                             4 2.94  10 2.94  13 2.94  18 2.94
  16  0.111  0.778  0.287-  23 2.93  25 2.93  26 2.93  18 2.94  12 2.94   7 2.94   1 2.94   8 2.94
                            13 2.94  10 2.94  14 2.94  17 2.94
  17  0.444  0.778  0.287-  27 2.93  24 2.93  26 2.93   9 2.94  15 2.94   2 2.94  10 2.94  11 2.94
                             8 2.94  14 2.94  16 2.94  18 2.94
  18  0.778  0.778  0.287-  22 2.93  27 2.93  25 2.93  16 2.94   7 2.94  13 2.94  12 2.94   3 2.94
                            11 2.94   9 2.94  15 2.94  17 2.94
  19  0.889  0.222  0.376-  10 2.93  12 2.93  15 2.93  26 2.94  25 2.94  24 2.94  22 2.94  21 2.95
                            20 2.95  28 2.96  32 3.04  31 3.04
  20  0.223  0.223  0.376-  36 2.86  23 2.92  21 2.92  11 2.92  13 2.92  10 2.93  27 2.94  22 2.94
                            26 2.95  19 2.95  29 3.00  31 3.00
  21  0.554  0.223  0.376-  36 2.86  20 2.92  23 2.92  14 2.92  11 2.92  12 2.93  27 2.94  24 2.94
                            25 2.95  19 2.95  30 3.00  32 3.00
  22  0.888  0.556  0.376-  24 2.92  27 2.92  18 2.93  15 2.93  13 2.94  25 2.94  19 2.94  23 2.94
                            20 2.94  35 2.96  33 3.01  31 3.01
  23  0.223  0.554  0.376-  36 2.86  20 2.92  21 2.92  13 2.92  14 2.92  16 2.93  22 2.94  24 2.94
                            25 2.95  26 2.95  33 3.00  34 3.00
  24  0.556  0.556  0.376-  27 2.92  22 2.92  15 2.93  17 2.93  14 2.94  26 2.94  19 2.94  21 2.94
                            23 2.94  35 2.96  32 3.01  34 3.01
  25  0.889  0.889  0.376-  16 2.93  12 2.93  18 2.93  19 2.94  26 2.94  22 2.94  27 2.94  23 2.95
                            21 2.95  28 2.96  33 3.04  30 3.04
  26  0.222  0.889  0.376-  10 2.93  16 2.93  17 2.93  19 2.94  25 2.94  27 2.94  24 2.94  20 2.95
                            23 2.95  28 2.96  29 3.04  34 3.04
  27  0.556  0.888  0.376-  24 2.92  22 2.92  17 2.93  18 2.93  11 2.94  26 2.94  25 2.94  20 2.94
                            21 2.94  35 2.96  29 3.01  30 3.01
  28  0.000  0.000  0.467-  25 2.96  19 2.96  26 2.96  34 2.97  32 2.97  33 2.97  30 2.97  31 2.97
                            29 2.97
  29  0.334  0.006  0.469-  30 2.88  31 2.89  36 2.89  35 2.96  28 2.97  20 3.00  27 3.01  26 3.04
                            34 3.04
  30  0.661  0.006  0.469-  29 2.88  32 2.89  36 2.89  35 2.96  28 2.97  21 3.00  27 3.01  25 3.04
                            33 3.04
  31  0.006  0.334  0.469-  33 2.88  29 2.89  36 2.89  35 2.96  28 2.97  20 3.00  22 3.01  19 3.04
                            32 3.04
  32  0.661  0.334  0.469-  34 2.88  30 2.89  36 2.89  35 2.96  28 2.97  21 3.00  24 3.01  19 3.04
                            31 3.04
  33  0.006  0.661  0.469-  31 2.88  34 2.89  36 2.89  35 2.96  28 2.97  23 3.00  22 3.01  25 3.04
                            30 3.04
  34  0.334  0.661  0.469-  32 2.88  33 2.89  36 2.89  35 2.96  28 2.97  23 3.00  24 3.01  26 3.04
                            29 3.04
  35  0.667  0.667  0.467-  24 2.96  27 2.96  22 2.96  29 2.96  34 2.96  32 2.96  31 2.96  30 2.96
                            33 2.96
  36  0.333  0.333  0.462-  37 2.09  20 2.86  23 2.86  21 2.86  33 2.89  31 2.89  29 2.89  30 2.89
                            34 2.89  32 2.89
  37  0.333  0.333  0.541-  38 1.26  36 2.09
  38  0.333  0.333  0.588-  39 0.96  37 1.26
  39  0.333  0.333  0.623-  38 0.96

  LATTYP: Found a hexagonal cell.
 ALAT       =     8.8135128021
 C/A-ratio  =     3.0356784858

  Lattice vectors:

 A1 = (  -4.4067569092,  -7.6327256898,   0.0000000000)
 A2 = (   8.8135128021,   0.0000000000,   0.0000000000)
 A3 = (   0.0000000000,   0.0000000000,  26.7549911976)

Analysis of symmetry for initial positions (statically):
 Subroutine PRICEL returns:
 Original cell was already a primitive cell.

 Routine SETGRP: Setting up the symmetry group for a
 hexagonal supercell.

 Subroutine GETGRP returns: Found  6 space group operations
 (whereof  6 operations were pure point group operations)
 out of a pool of 24 trial point group operations.

The static configuration has the point symmetry C_3v.

[...]
     41      -5.0584      2.00000
     42      -5.0417      2.00000
     43      -5.0290      2.00000
     44      -4.9913      2.00000
     45      -4.9559      2.00000
     46      -4.8372      2.00000
     47      -4.8072      2.00000
     48      -4.7604      2.00000
     49      -4.7110      2.00000
     50      -4.6944      2.00000
     51      -4.6584      2.00000
     52      -4.6398      2.00000
     53      -4.6027      2.00000
     54      -4.5892      2.00000
     55      -4.4979      2.00000
     56      -4.4679      2.00000
     57      -4.4548      2.00000
     58      -4.4273      2.00000
     59      -4.4196      2.00000
     60      -4.4101      2.00000
[...]
    238       4.9042      0.00000
    239       4.9558      0.00000
    240       5.0302      0.00000
    241       5.1570      0.00000
    242       5.3217      0.00000
    243       5.3533      0.00000
    244       5.5326      0.00000
    245       5.6328      0.00000
    246       5.8018      0.00000
    247       5.9870      0.00000
    248       6.0045      0.00000
    249       6.0489      0.00000
    250       6.1440      0.00000
    251       6.1565      0.00000
    252       6.2342      0.00000

 soft charge-density along one line, spin component           1
         0         1         2         3         4         5         6         7         8         9
 total charge-density along one line

------------------------ aborting loop because EDIFF is reached ----------------------------------------

 total charge

# of ion       s       p       d       tot
    1        0.546   0.237   8.770   9.553
    2        0.542   0.241   8.765   9.548
    3        0.542   0.241   8.765   9.548
    4        0.542   0.241   8.765   9.548
    5        0.550   0.241   8.758   9.549
    6        0.542   0.241   8.765   9.548
    7        0.542   0.241   8.765   9.548
    8        0.542   0.241   8.765   9.548
    9        0.542   0.239   8.770   9.552
   10        0.524   0.307   8.771   9.601
   11        0.525   0.304   8.778   9.607
   12        0.524   0.307   8.771   9.601
   13        0.525   0.304   8.778   9.607
   14        0.525   0.304   8.778   9.607
   15        0.517   0.308   8.774   9.599
   16        0.524   0.307   8.771   9.601
   17        0.517   0.308   8.774   9.599
   18        0.517   0.308   8.774   9.599
   19        0.520   0.298   8.768   9.586
   20        0.567   0.325   8.744   9.636
   21        0.567   0.325   8.744   9.636
   22        0.509   0.304   8.776   9.589
   23        0.567   0.325   8.744   9.636
   24        0.509   0.304   8.776   9.589
   25        0.520   0.298   8.768   9.586
   26        0.520   0.298   8.768   9.586
   27        0.509   0.304   8.776   9.589
   28        0.542   0.233   8.759   9.534
   29        0.585   0.244   8.742   9.572
   30        0.585   0.244   8.742   9.572
   31        0.585   0.244   8.742   9.572
   32        0.585   0.244   8.742   9.572
   33        0.585   0.244   8.742   9.572
   34        0.585   0.244   8.742   9.572
   35        0.544   0.233   8.759   9.536
   36        2.185   6.003   1.597   9.786
   37        0.952   1.370   0.000   2.322
   38        1.528   3.751   0.000   5.279
   39        0.561   0.135   0.000   0.697
tot         24.194  20.898 308.289 353.381

  FORCE on cell =-STRESS in cart. coord.  units (eV):
  Direction    XX          YY          ZZ          XY          YZ          ZX
  Alpha Z   875.69723   875.69723   875.69723
  Ewald  187389.56870187389.56917************    -0.00032    -0.00008    -0.00012
  Hartree196137.85860196137.85861************     0.00001    -0.00002    -0.00004
  E(xc)   -1826.66961 -1826.66968 -1832.05730     0.00006     0.00000     0.00000
  Local  ************************395693.98724     0.00215    -0.00001    -0.00003
  n-local  -103.66432   -59.99200   -57.84003    21.96735    -1.36792     1.30024
  augment  2373.18874  2373.19034  2391.36730    -0.00139     0.00000     0.00002
  Kinetic  5778.00180  5783.47832  5792.37105     4.64396     0.20783     0.31526
  Fock        0.00000     0.00000     0.00000     0.00000     0.00000     0.00000
  Total     -19.49294   -19.49294     2.77346    -0.00000     0.00000    -0.00000
  in kB     -17.35220   -17.35220     2.46887    -0.00000     0.00000    -0.00000

 VOLUME and BASIS-vectors are now :
  energy-cutoff  :      500.00
  volume of cell :     1799.84
      direct lattice vectors                 reciprocal lattice vectors
     8.813512802  0.000000000  0.000000000     0.113462137 -0.065507406  0.000000000
     4.406756909  7.632725690  0.000000000     0.000000000  0.131014796  0.000000000
     0.000000000  0.000000000 26.754991198     0.000000000  0.000000000  0.037376204

  length of vectors
     8.813512802  8.813512802 26.754991198     0.131014796  0.131014796  0.037376204

 FORCES acting on ions
    electron-ion (+dipol)            ewald-force                    non-local-force                 convergence-correction
   -.202E-04 -.165E-04 0.285E+04   0.519E-04 0.434E-04 -.285E+04   -.332E-17 0.333E-17 -.687E+00   -.146E-03 -.978E-04 -.324E+00
   0.368E+00 0.406E+00 0.285E+04   -.432E+00 -.584E+00 -.285E+04   0.593E-01 0.155E+00 -.279E+00   0.913E-02 0.176E-01 -.321E+00
   -.368E+00 0.406E+00 0.285E+04   0.432E+00 -.584E+00 -.285E+04   -.593E-01 0.155E+00 -.279E+00   -.890E-02 0.196E-01 -.321E+00
   0.536E+00 0.115E+00 0.285E+04   -.722E+00 -.821E-01 -.285E+04   0.164E+00 -.262E-01 -.279E+00   0.199E-01 -.959E-03 -.322E+00
   0.102E-04 -.226E-04 0.285E+04   0.951E-04 0.171E-05 -.285E+04   0.162E-18 0.183E-17 0.247E+00   0.427E-02 0.260E-02 -.206E+00
   -.536E+00 0.115E+00 0.285E+04   0.722E+00 -.822E-01 -.285E+04   -.164E+00 -.262E-01 -.279E+00   -.214E-01 0.555E-04 -.321E+00
   0.168E+00 -.522E+00 0.285E+04   -.290E+00 0.667E+00 -.285E+04   0.105E+00 -.129E+00 -.279E+00   0.126E-01 -.175E-01 -.321E+00
   -.168E+00 -.522E+00 0.285E+04   0.290E+00 0.667E+00 -.285E+04   -.105E+00 -.129E+00 -.279E+00   -.106E-01 -.185E-01 -.321E+00
   0.197E-04 -.414E-04 0.285E+04   0.166E-03 -.201E-04 -.285E+04   -.433E-17 0.726E-19 -.496E+00   -.466E-02 -.242E-02 -.324E+00
   0.397E+01 0.229E+01 0.101E+04   -.381E+01 -.220E+01 -.101E+04   -.258E+00 -.149E+00 -.526E+00   0.590E-01 0.340E-01 -.659E-01
   0.162E-04 0.658E+01 0.102E+04   0.147E-03 -.663E+01 -.102E+04   0.162E-08 0.243E-01 -.678E-01   0.345E-02 0.407E-02 -.530E-01
   -.397E+01 0.229E+01 0.101E+04   0.381E+01 -.220E+01 -.101E+04   0.258E+00 -.149E+00 -.526E+00   -.600E-01 0.354E-01 -.671E-01
   0.570E+01 -.329E+01 0.102E+04   -.574E+01 0.332E+01 -.102E+04   0.211E-01 -.122E-01 -.678E-01   0.554E-02 0.122E-02 -.530E-01
   -.570E+01 -.329E+01 0.102E+04   0.574E+01 0.332E+01 -.102E+04   -.211E-01 -.122E-01 -.678E-01   0.214E-02 0.109E-02 -.533E-01
   0.310E-04 0.480E+00 0.101E+04   0.236E-03 -.480E+00 -.101E+04   0.111E-08 0.167E-01 -.537E+00   -.221E-02 -.514E-01 -.134E+00
   -.207E-04 -.459E+01 0.101E+04   0.163E-03 0.440E+01 -.101E+04   0.198E-07 0.298E+00 -.526E+00   0.403E-03 -.697E-01 -.671E-01
   0.416E+00 -.240E+00 0.101E+04   -.415E+00 0.240E+00 -.101E+04   0.145E-01 -.836E-02 -.537E+00   -.454E-01 0.242E-01 -.134E+00
   -.416E+00 -.240E+00 0.101E+04   0.415E+00 0.240E+00 -.101E+04   -.145E-01 -.836E-02 -.537E+00   0.451E-01 0.258E-01 -.135E+00
   -.437E-04 -.731E+00 -.859E+03   0.520E-04 0.838E+00 0.858E+03   0.247E-08 0.371E-01 0.719E+00   0.348E-02 -.887E-01 0.284E+00
   0.408E+02 0.236E+02 -.801E+03   -.399E+02 -.230E+02 0.801E+03   -.111E+01 -.641E+00 -.126E+01   0.394E-01 0.226E-01 0.325E+00
   -.408E+02 0.236E+02 -.801E+03   0.399E+02 -.230E+02 0.801E+03   0.111E+01 -.641E+00 -.126E+01   -.399E-01 0.254E-01 0.324E+00
   0.117E+02 -.676E+01 -.848E+03   -.121E+02 0.698E+01 0.847E+03   0.230E+00 -.133E+00 0.539E+00   0.129E+00 -.807E-01 0.222E+00
   -.810E-05 -.472E+02 -.801E+03   0.144E-03 0.461E+02 0.801E+03   0.853E-07 0.128E+01 -.126E+01   0.173E-02 -.473E-01 0.324E+00
   -.117E+02 -.676E+01 -.848E+03   0.121E+02 0.698E+01 0.847E+03   -.230E+00 -.133E+00 0.539E+00   -.136E+00 -.787E-01 0.222E+00
   0.633E+00 0.365E+00 -.859E+03   -.726E+00 -.419E+00 0.858E+03   -.321E-01 -.185E-01 0.719E+00   0.834E-01 0.481E-01 0.284E+00
   -.633E+00 0.365E+00 -.859E+03   0.726E+00 -.419E+00 0.858E+03   0.321E-01 -.185E-01 0.719E+00   -.748E-01 0.474E-01 0.284E+00
   0.113E-04 0.135E+02 -.848E+03   0.194E-03 -.140E+02 0.847E+03   0.176E-07 0.265E+00 0.539E+00   -.577E-02 0.152E+00 0.222E+00
   -.171E-04 -.146E-04 -.268E+04   0.306E-04 0.368E-04 0.268E+04   -.413E-17 -.143E-18 0.336E+00   0.377E-03 0.198E-03 0.357E+00
   0.533E+02 0.888E+02 -.269E+04   -.525E+02 -.875E+02 0.269E+04   -.965E+00 -.160E+01 -.201E+00   0.682E-01 0.194E+00 0.344E+00
   -.533E+02 0.888E+02 -.269E+04   0.525E+02 -.875E+02 0.269E+04   0.965E+00 -.160E+01 -.201E+00   -.684E-01 0.197E+00 0.346E+00
   0.104E+03 0.181E+01 -.269E+04   -.102E+03 -.173E+01 0.269E+04   -.187E+01 -.343E-01 -.201E+00   0.202E+00 -.381E-01 0.344E+00
   -.104E+03 0.181E+01 -.269E+04   0.102E+03 -.173E+01 0.269E+04   0.187E+01 -.343E-01 -.201E+00   -.204E+00 -.367E-01 0.345E+00
   0.502E+02 -.906E+02 -.269E+04   -.495E+02 0.893E+02 0.269E+04   -.905E+00 0.164E+01 -.201E+00   0.136E+00 -.158E+00 0.346E+00
   -.502E+02 -.906E+02 -.269E+04   0.495E+02 0.893E+02 0.269E+04   0.905E+00 0.164E+01 -.201E+00   -.134E+00 -.158E+00 0.345E+00
   0.306E-04 -.248E-04 -.269E+04   0.142E-03 -.521E-04 0.269E+04   -.697E-17 0.559E-17 0.380E+00   -.496E-02 -.257E-02 0.430E+00
   0.239E-03 -.133E-03 -.266E+04   0.120E-03 0.103E-04 0.267E+04   -.534E-18 0.774E-18 -.198E+01   0.561E-02 0.343E-02 0.699E+00
   -.505E-06 -.826E-04 -.105E+04   0.103E-04 0.703E-06 0.103E+04   0.126E-17 0.127E-17 0.234E+02   0.119E-02 0.724E-03 -.280E-01
   0.246E-03 -.917E-04 -.170E+04   0.325E-05 0.370E-06 0.170E+04   -.114E-17 -.121E-18 -.438E+01   0.385E-02 0.236E-02 -.200E+00
   0.673E-05 -.144E-04 -.322E+03   0.147E-06 0.278E-07 0.331E+03   0.382E-19 -.250E-19 -.867E+01   0.202E-03 0.124E-03 -.327E-01
   -.243E-03 -.105E-02 -.350E+01   0.343E-13 0.150E-12 0.210E-11   0.215E-15 -.215E-15 0.193E+01   0.152E-01 0.966E-02 0.224E+01

 POSITION                                       TOTAL-FORCE (eV/Angst)
      0.00000      0.00000      5.28038         0.000000     -0.000000     -0.155281
      2.93784      0.00000      5.28038         0.004237     -0.004397     -0.062629
      5.87568      0.00000      5.28038        -0.004237     -0.004397     -0.062629
      1.46892      2.54424      5.28038        -0.001689      0.005868     -0.062629
      4.40676      2.54424      5.28038         0.000000     -0.000000     -0.096585
      7.34459      2.54424      5.28038         0.001689      0.005868     -0.062629
      2.93784      5.08848      5.28038        -0.005926     -0.001471     -0.062629
      5.87568      5.08848      5.28038         0.005926     -0.001471     -0.062629
      8.81351      5.08848      5.28038         0.000000     -0.000000     -0.074699
      1.46892      0.84808      7.67911        -0.037984     -0.021930      0.073881
      4.40676      0.84808      7.67911        -0.000000     -0.023763      0.038724
      7.34459      0.84808      7.67911         0.037984     -0.021930      0.073881
      2.93784      3.39232      7.67911        -0.020579      0.011881      0.038724
      5.87568      3.39232      7.67911         0.020579      0.011881      0.038724
      8.81351      3.39232      7.67911        -0.000000     -0.034123      0.126950
      4.40676      5.93656      7.67911         0.000000      0.043860      0.073881
      7.34459      5.93656      7.67911        -0.029551      0.017061      0.126950
     10.28243      5.93656      7.67911         0.029551      0.017061      0.126950
      8.81351      1.69571     10.07248         0.000000      0.053235      0.084738
      2.94528      1.70046     10.06340        -0.144624     -0.083499     -0.198246
      5.86824      1.70046     10.06340         0.144624     -0.083499     -0.198246
     10.27570      4.24429     10.07162        -0.020010      0.011553      0.040594
      4.40676      4.23182     10.06340         0.000000      0.166998     -0.198246
      7.35132      4.24429     10.07162         0.020010      0.011553      0.040594
     11.75174      6.78487     10.07248        -0.046103     -0.026617      0.084738
      5.87529      6.78487     10.07248         0.046103     -0.026617      0.084738
      8.81351      6.77688     10.07162        -0.000000     -0.023106      0.040594
      0.00000      0.00000     12.49858         0.000000     -0.000000     -0.102400
      2.96552      0.04535     12.55994        -0.095133     -0.166301     -0.003148
      5.84799      0.04535     12.55994         0.095133     -0.166301     -0.003148
      1.52204      2.54555     12.55994        -0.191588      0.000763     -0.003148
      7.29148      2.54555     12.55994         0.191588      0.000763     -0.003148
      2.96327      5.04183     12.55994        -0.096455      0.165538     -0.003148
      5.85025      5.04183     12.55994         0.096455      0.165538     -0.003148
      8.81351      5.08848     12.50663         0.000000     -0.000000     -0.056907
      4.40676      2.54424     12.37417         0.000000     -0.000000      0.357906
      4.40676      2.54424     14.46347         0.000000     -0.000000      0.039127
      4.40676      2.54424     15.72011         0.000000     -0.000000     -0.021672
      4.40676      2.54424     16.67913         0.000000     -0.000000      0.005255
    total drift:                                0.014972      0.008610      0.676075

  FREE ENERGIE OF THE ION-ELECTRON SYSTEM (eV)
  free  energy   TOTEN  =      -133.43870881 eV

  energy  without entropy=     -133.43870881  energy(sigma->0) =     -133.43870881

 stress matrix after NEB project (eV)
    -19.49294     -0.00000     -0.00000
     -0.00000    -19.49294     -0.00000
      0.00000      0.00000      2.77346
  FORCES: max atom, RMS     0.039127    0.007211
  FORCE total and by dimension    0.045036    0.039127
  Stress total and by dimension   27.706346   19.492942
|           W    W    AA    RRRRR   N    N  II  N    N   GGGG   !!!           |
|           W    W   A  A   R    R  NN   N  II  NN   N  G    G  !!!           |
|           W    W  A    A  R    R  N N  N  II  N N  N  G       !!!           |
|           W WW W  AAAAAA  RRRRR   N  N N  II  N  N N  G  GGG   !            |
|           WW  WW  A    A  R   R   N   NN  II  N   NN  G    G                |
|           W    W  A    A  R    R  N    N  II  N    N   GGGG   !!!           |
|     Tetrahedron method does not include variations of the Fermi             |
|     occupations, so forces and stress will be inaccurate. We suggest        |
|     using a different smearing scheme ISMEAR = 1 or 2 for metals in         |
|     relaxations.                                                            |

 total charge

# of ion       s       p       d       tot
    1        0.546   0.237   8.770   9.553
    2        0.542   0.241   8.765   9.548
    3        0.542   0.241   8.765   9.548
    4        0.542   0.241   8.765   9.548
    5        0.550   0.241   8.758   9.549
    6        0.542   0.241   8.765   9.548
    7        0.542   0.241   8.765   9.548
    8        0.542   0.241   8.765   9.548
    9        0.542   0.239   8.770   9.552
   10        0.524   0.307   8.771   9.601
   11        0.525   0.304   8.778   9.607
   12        0.524   0.307   8.771   9.601
   13        0.525   0.304   8.778   9.607
   14        0.525   0.304   8.778   9.607
   15        0.517   0.308   8.774   9.599
   16        0.524   0.307   8.771   9.601
   17        0.517   0.308   8.774   9.599
   18        0.517   0.308   8.774   9.599
   19        0.520   0.298   8.768   9.586
   20        0.567   0.325   8.744   9.636
   21        0.567   0.325   8.744   9.636
   22        0.509   0.304   8.776   9.589
   23        0.567   0.325   8.744   9.636
   24        0.509   0.304   8.776   9.589
   25        0.520   0.298   8.768   9.586
   26        0.520   0.298   8.768   9.586
   27        0.509   0.304   8.776   9.589
   28        0.542   0.233   8.759   9.534
   29        0.585   0.244   8.742   9.572
   30        0.585   0.244   8.742   9.572
   31        0.585   0.244   8.742   9.572
   32        0.585   0.244   8.742   9.572
   33        0.585   0.244   8.742   9.572
   34        0.585   0.244   8.742   9.572
   35        0.544   0.233   8.759   9.536
   36        2.185   6.003   1.597   9.786
   37        0.952   1.370   0.000   2.322
   38        1.528   3.751   0.000   5.279
   39        0.561   0.135   0.000   0.697
tot         24.194  20.898 308.289 353.381

 BZINTS: Fermi energy:    0.374339;  408.000000 electrons
         Band energy:-0.168501E+04;  BLOECHL correction:   -0.039552