 vasp.6.2.0 18Jan21 (build Jun 12 2021 23:27:24) complex

 executed on             LinuxIFC date 2022.05.26  20:02:03

 INCAR:
   ISMEAR = -5
   SIGMA = 0.1
   ISPIN = 1
   EDIFF = 1.d-5
   EDIFFG = -0.01
   NSW = 0
   NELM = 150
   ENCUT = 500
   ISIF = 2
   IBRION = 2
   LREAL = Auto
   ALGO = Fast
   ICHARG = 11
   LORBIT = 10
   LCHARG = .F.
   LWAVE = .F.

 POTCAR:    PAW_PBE Cu 22Jun2005
 POTCAR:    PAW_PBE Zr_sv 04Jan2005
 POTCAR:    PAW_PBE N 08Apr2002
|           W    W    AA    RRRRR   N    N  II  N    N   GGGG   !!!           |
|           W    W   A  A   R    R  NN   N  II  NN   N  G    G  !!!           |
|           W    W  A    A  R    R  N N  N  II  N N  N  G       !!!           |
|           W WW W  AAAAAA  RRRRR   N  N N  II  N  N N  G  GGG   !            |
|           WW  WW  A    A  R   R   N   NN  II  N   NN  G    G                |
|           W    W  A    A  R    R  N    N  II  N    N   GGGG   !!!           |
|     For optimal performance we recommend to set                             |
|       NCORE = 2 up to number-of-cores-per-socket                            |
|     This setting can greatly improve the performance of VASP for DFT.       |
|     The default, NCORE=1 might be grossly inefficient on modern             |
|     multi-core architectures or massively parallel machines. Do your        |
|     Unfortunately you need to use the default for GW and RPA                |
|     calculations (for HF NCORE is supported but not extensively tested      |
|     yet).                                                                   |

 POTCAR:    PAW_PBE Cu 22Jun2005
   VRHFIN =Cu: d10 p1

   TITEL  = PAW_PBE Cu 22Jun2005
   POMASS =   63.546; ZVAL   =   11.000    mass and valenz
   ENMAX  =  295.446; ENMIN  =  221.585 eV

 POTCAR:    PAW_PBE Zr_sv 04Jan2005
   VRHFIN =Zr: 4s4p5s4d

   TITEL  = PAW_PBE Zr_sv 04Jan2005
   POMASS =   91.224; ZVAL   =   12.000    mass and valenz
   ENMAX  =  229.898; ENMIN  =  172.424 eV

 POTCAR:    PAW_PBE N 08Apr2002
   VRHFIN =N: s2p3

   TITEL  = PAW_PBE N 08Apr2002
   POMASS =   14.001; ZVAL   =    5.000    mass and valenz
   ENMAX  =  400.000; ENMIN  =  300.000 eV

 Optimization of the real space projectors (new method)

 maximal supplied QI-value         = 16.25
 optimisation between [QCUT,QGAM] = [ 11.38, 22.75] = [ 36.24,144.96] Ry
 Optimized for a Real-space Cutoff    1.52 Angstroem

   l    n(q)    QCUT    max X(q) W(low)/X(q) W(high)/X(q)  e(spline)
   2      9    11.376     4.610    0.21E-03    0.10E-03    0.26E-06
   2      9    11.376     8.522    0.33E-03    0.16E-03    0.37E-06
   0     10    11.376    51.609    0.62E-04    0.20E-04    0.13E-06
   0     10    11.376    27.747    0.54E-04    0.20E-04    0.13E-06
   1     10    11.376    20.408    0.13E-04    0.99E-04    0.19E-06
   1     10    11.376    13.425    0.12E-04    0.87E-04    0.17E-06
 Optimization of the real space projectors (new method)

[...]

   l    n(q)    QCUT    max X(q) W(low)/X(q) W(high)/X(q)  e(spline)
   0     10    11.338    12.107    0.38E-04    0.13E-04    0.27E-07
   0     10    11.338     9.948    0.69E-04    0.30E-04    0.38E-07
   1     10    11.338     3.563    0.26E-04    0.18E-04    0.40E-07
   1     10    11.338     4.524    0.25E-03    0.39E-04    0.44E-06
   2      9    11.338    87.261    0.26E-03    0.91E-05    0.26E-06
   2      9    11.338    70.950    0.25E-03    0.91E-05    0.25E-06
 Optimization of the real space projectors (new method)

 maximal supplied QI-value         = 25.13
 optimisation between [QCUT,QGAM] = [ 11.31, 22.87] = [ 35.82,146.48] Ry
 Optimized for a Real-space Cutoff    1.27 Angstroem

   l    n(q)    QCUT    max X(q) W(low)/X(q) W(high)/X(q)  e(spline)
   0      9    11.310    79.467    0.75E-04    0.16E-03    0.36E-06
   0      9    11.310    66.151    0.74E-04    0.16E-03    0.36E-06
   1      8    11.310    17.416    0.35E-03    0.12E-03    0.95E-06
   1      8    11.310    12.382    0.37E-03    0.13E-03    0.98E-06
  PAW_PBE Cu 22Jun2005                  :
  PAW_PBE Zr_sv 04Jan2005               :
  PAW_PBE N 08Apr2002                   :

 POSCAR: Cu-Zr-N
  positions in direct lattice
  velocities in cartesian coordinates
 exchange correlation table for  LEXCH =        8
   RHO(1)=    0.500       N(1)  =     2000
   RHO(2)=  100.500       N(2)  =     4000

 VTST: version 3.2, (02/03/18)

 CHAIN: initializing optimizer

 OPT: Using VASP Conjugate-Gradient optimizer
 CHAIN: Read ICHAIN            0

 POSCAR: Cu-Zr-N
  positions in direct lattice
  velocities in cartesian coordinates

 ion  position               nearest neighbor table
   1  0.000  0.000  0.252-   7 2.57   3 2.57   4 2.57   2 2.57   6 2.57   8 2.57  12 2.57  10 2.57
                            16 2.57
   2  0.333  0.000  0.252-   8 2.57   9 2.57   5 2.57   1 2.57   3 2.57  11 2.57   4 2.57  10 2.57
                            17 2.57
   3  0.667  0.000  0.252-   1 2.57   7 2.57   6 2.57   9 2.57   2 2.57  12 2.57   5 2.57  18 2.57
                            11 2.57
   4  0.000  0.333  0.252-   5 2.57   6 2.57   1 2.57   7 2.57   2 2.57  13 2.57   9 2.57  10 2.57
                            15 2.57
   5  0.333  0.333  0.252-   4 2.57   2 2.57   7 2.57  13 2.57   8 2.57   6 2.57   3 2.57  11 2.57
                            14 2.57
   6  0.667  0.333  0.252-   4 2.57   9 2.57  15 2.57   3 2.57   1 2.57   8 2.57  14 2.57   5 2.57
                            12 2.57
   7  0.000  0.667  0.252-   1 2.57   3 2.57  16 2.57  18 2.57   4 2.57   5 2.57   8 2.57   9 2.57
                            13 2.57
   8  0.333  0.667  0.252-   9 2.57   2 2.57  17 2.57   6 2.57   1 2.57   7 2.57   5 2.57  14 2.57
                            16 2.57
   9  0.667  0.667  0.252-   8 2.57   6 2.57   2 2.57  17 2.57   3 2.57   7 2.57   4 2.57  15 2.57
                            18 2.57
  10  0.111  0.111  0.351-  26 2.54  19 2.54  11 2.57  12 2.57  13 2.57   1 2.57   2 2.57   4 2.57
                            15 2.57  16 2.57  17 2.57  20 2.59
  11  0.444  0.111  0.351-  27 2.56  10 2.57  13 2.57   2 2.57  17 2.57  14 2.57  12 2.57   5 2.57
                             3 2.57  18 2.57  20 2.58  21 2.58
  12  0.778  0.111  0.351-  19 2.54  25 2.54  15 2.57  10 2.57  14 2.57  18 2.57   3 2.57   1 2.57
                            16 2.57  11 2.57   6 2.57  21 2.59
  13  0.111  0.444  0.351-  22 2.56  16 2.57  18 2.57  10 2.57  11 2.57  14 2.57   5 2.57   4 2.57
                             7 2.57  15 2.57  23 2.58  20 2.58
  14  0.444  0.444  0.351-  24 2.56  15 2.57  17 2.57  12 2.57  16 2.57  13 2.57  11 2.57   6 2.57
                             8 2.57   5 2.57  21 2.58  23 2.58
  15  0.778  0.444  0.351-  19 2.54  24 2.56  22 2.56  14 2.57  17 2.57  12 2.57   6 2.57  18 2.57
                            10 2.57   9 2.57  13 2.57   4 2.57
  16  0.111  0.778  0.351-  25 2.54  26 2.54  18 2.57  13 2.57   7 2.57  14 2.57  17 2.57  12 2.57
                            10 2.57   8 2.57   1 2.57  23 2.59
  17  0.444  0.778  0.351-  26 2.54  27 2.56  24 2.56  14 2.57  15 2.57   8 2.57   9 2.57  11 2.57
                            16 2.57  18 2.57  10 2.57   2 2.57
  18  0.778  0.778  0.351-  25 2.54  22 2.56  27 2.56  16 2.57  13 2.57   7 2.57  15 2.57  12 2.57
                            17 2.57   9 2.57   3 2.57  11 2.57
  19  0.889  0.221  0.448-  12 2.54  10 2.54  15 2.54  25 2.55  26 2.55  32 2.56  31 2.56  22 2.57
                            24 2.57  28 2.57  21 2.58  20 2.58
  20  0.223  0.223  0.450-  23 2.55  21 2.55  29 2.57  31 2.57  27 2.57  22 2.57  26 2.58  19 2.58
                            11 2.58  13 2.58  10 2.59  36 2.86
  21  0.554  0.223  0.450-  20 2.55  23 2.55  32 2.57  30 2.57  24 2.57  27 2.57  19 2.58  25 2.58
                            14 2.58  11 2.58  12 2.59  36 2.86
  22  0.889  0.556  0.449-  18 2.56  15 2.56  13 2.56  31 2.56  33 2.56  24 2.57  27 2.57  23 2.57
                            20 2.57  19 2.57  25 2.57  35 2.58
  23  0.223  0.554  0.450-  20 2.55  21 2.55  33 2.57  34 2.57  22 2.57  24 2.57  25 2.58  26 2.58
                            13 2.58  14 2.58  16 2.59  36 2.86
  24  0.556  0.556  0.449-  15 2.56  17 2.56  14 2.56  32 2.56  34 2.56  22 2.57  27 2.57  21 2.57
                            23 2.57  19 2.57  26 2.57  35 2.58
  25  0.889  0.889  0.448-  12 2.54  16 2.54  18 2.54  19 2.55  26 2.55  33 2.56  30 2.56  22 2.57
                            27 2.57  28 2.57  21 2.58  23 2.58
  26  0.221  0.889  0.448-  10 2.54  16 2.54  17 2.54  25 2.55  19 2.55  29 2.56  34 2.56  27 2.57
                            24 2.57  28 2.57  20 2.58  23 2.58
  27  0.556  0.889  0.449-  17 2.56  18 2.56  11 2.56  29 2.56  30 2.56  24 2.57  22 2.57  20 2.57
                            21 2.57  26 2.57  25 2.57  35 2.58
  28  0.000  0.000  0.547-  33 2.55  30 2.55  31 2.55  29 2.55  32 2.55  34 2.55  25 2.57  19 2.57
                            26 2.57
  29  0.334  0.994  0.547-  34 2.47  35 2.54  28 2.55  27 2.56  26 2.56  20 2.57  30 2.60  31 2.62
                            36 2.64
  30  0.672  0.994  0.547-  33 2.47  35 2.54  28 2.55  27 2.56  25 2.56  21 2.57  29 2.60  32 2.62
                            36 2.64
  31  0.994  0.334  0.547-  32 2.47  35 2.54  28 2.55  22 2.56  19 2.56  20 2.57  33 2.60  29 2.62
                            36 2.64
  32  0.672  0.334  0.547-  31 2.47  35 2.54  28 2.55  24 2.56  19 2.56  21 2.57  34 2.60  30 2.62
                            36 2.64
  33  0.994  0.672  0.547-  30 2.47  35 2.54  28 2.55  22 2.56  25 2.56  23 2.57  31 2.60  34 2.62
                            36 2.64
  34  0.334  0.672  0.547-  29 2.47  35 2.54  28 2.55  24 2.56  26 2.56  23 2.57  32 2.60  33 2.62
                            36 2.64
  35  0.667  0.667  0.548-  34 2.54  32 2.54  29 2.54  30 2.54  33 2.54  31 2.54  24 2.58  27 2.58
                            22 2.58
  36  0.333  0.333  0.565-  37 1.79  31 2.64  29 2.64  33 2.64  32 2.64  34 2.64  30 2.64  23 2.86
                            20 2.86  21 2.86
  37  0.333  0.333  0.650-  36 1.79

  LATTYP: Found a hexagonal cell.
 ALAT       =     7.6967864036
 C/A-ratio  =     2.7653617908

  Lattice vectors:

 A1 = (  -3.8483927580,  -6.6656128093,   0.0000000000)
 A2 = (   7.6967864037,   0.0000000000,   0.0000000000)
 A3 = (   0.0000000000,   0.0000000000,  21.2843990326)

Analysis of symmetry for initial positions (statically):
 Subroutine PRICEL returns:
 Original cell was already a primitive cell.

 Routine SETGRP: Setting up the symmetry group for a
 hexagonal supercell.

 Subroutine GETGRP returns: Found  6 space group operations
 (whereof  6 operations were pure point group operations)
 out of a pool of 24 trial point group operations.

The static configuration has the point symmetry C_3v.

Analysis of symmetry for dynamics (positions and initial velocities):
 Subroutine PRICEL returns:
 Original cell was already a primitive cell.

[...]

The dynamic configuration has the point symmetry C_3v.

Analysis of constrained symmetry for selective dynamics:
 Subroutine PRICEL returns:
 Original cell was already a primitive cell.

 Routine SETGRP: Setting up the symmetry group for a
 hexagonal supercell.

 Subroutine GETGRP returns: Found  6 space group operations
[...]
     24      -4.5987      2.00000
     25      -4.5434      2.00000
     26      -4.5384      2.00000
     27      -4.5285      2.00000
     28      -4.4529      2.00000
     29      -4.3270      2.00000
     30      -4.3022      2.00000
     31      -4.2906      2.00000
     32      -4.2538      2.00000
     33      -4.2436      2.00000
     34      -4.2349      2.00000
     35      -4.2272      2.00000
     36      -4.2233      2.00000
     37      -4.2172      2.00000
     38      -4.1791      2.00000
     39      -4.1027      2.00000
     40      -4.0885      2.00000
     41      -4.0265      2.00000
     42      -3.9232      2.00000
     43      -3.9039      2.00000
     44      -3.8625      2.00000
     45      -3.8463      2.00000
     46      -3.8264      2.00000
     47      -3.8153      2.00000
     48      -3.8051      2.00000
     49      -3.8015      2.00000
     50      -3.7753      2.00000
     51      -3.6391      2.00000
     52      -3.6176      2.00000
     53      -3.5934      2.00000
     54      -3.5783      2.00000
     55      -3.5298      2.00000
     56      -3.5257      2.00000
     57      -3.5044      2.00000
     58      -3.4999      2.00000
     59      -3.4867      2.00000
     60      -3.4833      2.00000
[...]
    238       6.0266      0.00000
    239       6.1737      0.00000
    240       6.1918      0.00000
    241       6.4079      0.00000
    242       6.6561      0.00000
    243       6.7377      0.00000
    244       6.9272      0.00000
    245       7.1549      0.00000
    246       7.2020      0.00000
    247       7.2413      0.00000
    248       7.2554      0.00000
    249       7.2991      0.00000
    250       7.3314      0.00000
    251       7.5260      0.00000
    252       7.6264      0.00000

 soft charge-density along one line, spin component           1
         0         1         2         3         4         5         6         7         8         9
 total charge-density along one line

------------------------ aborting loop because EDIFF is reached ----------------------------------------

 total charge

# of ion       s       p       d       tot
    1        0.447   0.285   9.186   9.918
    2        0.448   0.285   9.187   9.920
    3        0.448   0.285   9.187   9.920
    4        0.448   0.285   9.187   9.920
    5        0.449   0.284   9.186   9.919
    6        0.448   0.285   9.187   9.920
    7        0.448   0.285   9.187   9.920
    8        0.448   0.285   9.187   9.920
    9        0.447   0.285   9.188   9.919
   10        0.440   0.372   9.180   9.992
   11        0.441   0.366   9.180   9.988
   12        0.440   0.372   9.180   9.992
   13        0.441   0.366   9.180   9.988
   14        0.441   0.366   9.180   9.988
   15        0.439   0.374   9.177   9.990
   16        0.440   0.372   9.180   9.992
   17        0.439   0.374   9.177   9.990
   18        0.439   0.374   9.177   9.990
   19        0.444   0.371   9.183   9.997
   20        0.444   0.372   9.176   9.993
   21        0.444   0.372   9.176   9.993
   22        0.434   0.375   9.179   9.988
   23        0.444   0.372   9.176   9.993
   24        0.434   0.375   9.179   9.988
   25        0.444   0.371   9.183   9.997
   26        0.444   0.371   9.183   9.997
   27        0.434   0.375   9.179   9.988
   28        0.446   0.293   9.184   9.924
   29        0.481   0.300   9.183   9.964
   30        0.481   0.300   9.183   9.964
   31        0.481   0.300   9.183   9.964
   32        0.481   0.300   9.183   9.964
   33        0.481   0.300   9.183   9.964
   34        0.481   0.300   9.183   9.964
   35        0.446   0.296   9.185   9.927
   36        2.222   5.983   2.101  10.306
   37        1.341   2.215   0.000   3.556
tot         19.302  19.837 323.474 362.612

  FORCE on cell =-STRESS in cart. coord.  units (eV):
  Direction    XX          YY          ZZ          XY          YZ          ZX
  Alpha Z   905.34321   905.34321   905.34321
  Ewald  173269.24287173269.24243************     0.00040     0.00014     0.00022
  Hartree186383.82454186383.82451************     0.00004     0.00007     0.00007
  E(xc)   -2319.73233 -2319.73188 -2323.46564    -0.00039    -0.00004    -0.00007
  Local  ************************372995.62879     0.01845    -0.00061    -0.00098
  n-local  -779.00907  -767.15189  -798.45153     6.99342    -0.13421     0.26097
  augment  3308.38024  3308.39990  3332.86455    -0.01702     0.00023     0.00043
  Kinetic  3453.11253  3453.79697  3493.08532     2.39010     1.83655    -1.31328
  Fock        0.00000     0.00000     0.00000     0.00000     0.00000     0.00000
  Total       0.13437     0.13437    -1.22871    -0.00000     0.00000    -0.00000
  in kB       0.19715     0.19715    -1.80280    -0.00000     0.00000    -0.00000

 VOLUME and BASIS-vectors are now :
  energy-cutoff  :      500.00
  volume of cell :     1091.97
      direct lattice vectors                 reciprocal lattice vectors
     7.696786404  0.000000000  0.000000000     0.129924354 -0.075011849  0.000000000
     3.848392758  6.665612809  0.000000000     0.000000000  0.150023716  0.000000000
     0.000000000  0.000000000 21.284399033     0.000000000  0.000000000  0.046982769

  length of vectors
     7.696786404  7.696786404 21.284399033     0.150023716  0.150023716  0.046982769

 FORCES acting on ions
    electron-ion (+dipol)            ewald-force                    non-local-force                 convergence-correction
   -.410E-04 0.496E-06 0.351E+04   0.579E-04 -.430E-05 -.350E+04   -.174E-17 0.440E-17 -.220E+01   -.335E-03 -.160E-03 -.434E+00
   -.880E+00 -.966E+00 0.350E+04   0.877E+00 0.925E+00 -.350E+04   0.230E-01 0.573E-01 -.202E+01   -.207E-01 -.199E-01 -.367E+00
   0.880E+00 -.966E+00 0.350E+04   -.877E+00 0.925E+00 -.350E+04   -.230E-01 0.573E-01 -.202E+01   0.216E-01 -.172E-01 -.366E+00
   -.128E+01 -.280E+00 0.350E+04   0.124E+01 0.297E+00 -.350E+04   0.611E-01 -.875E-02 -.202E+01   -.275E-01 -.808E-02 -.367E+00
   -.634E-04 -.438E-05 0.350E+04   0.116E-03 -.101E-04 -.350E+04   0.482E-17 -.851E-18 -.216E+01   0.122E-01 0.748E-02 -.364E+00
   0.128E+01 -.279E+00 0.350E+04   -.124E+01 0.297E+00 -.350E+04   -.611E-01 -.875E-02 -.202E+01   0.258E-01 -.684E-02 -.366E+00
   -.396E+00 0.125E+01 0.350E+04   0.363E+00 -.122E+01 -.350E+04   0.381E-01 -.485E-01 -.202E+01   -.412E-02 0.272E-01 -.366E+00
   0.396E+00 0.125E+01 0.350E+04   -.363E+00 -.122E+01 -.350E+04   -.381E-01 -.485E-01 -.202E+01   0.765E-02 0.258E-01 -.366E+00
   -.143E-03 -.326E-04 0.350E+04   0.263E-03 0.205E-04 -.350E+04   -.209E-17 0.443E-17 -.224E+01   -.133E-01 -.685E-02 -.381E+00
   -.104E+02 -.600E+01 0.121E+04   0.105E+02 0.608E+01 -.121E+04   -.729E-01 -.421E-01 -.704E+00   -.224E-01 -.129E-01 0.942E-01
   -.904E-04 -.820E+01 0.120E+04   0.189E-03 0.810E+01 -.120E+04   -.996E-08 0.150E+00 -.767E+00   0.118E-01 -.284E-01 0.751E-01
   0.104E+02 -.600E+01 0.121E+04   -.105E+02 0.608E+01 -.121E+04   0.729E-01 -.421E-01 -.704E+00   0.204E-01 -.109E-01 0.949E-01
   -.710E+01 0.410E+01 0.120E+04   0.702E+01 -.405E+01 -.120E+04   0.130E+00 -.748E-01 -.767E+00   -.182E-01 0.252E-01 0.752E-01
   0.710E+01 0.410E+01 0.120E+04   -.702E+01 -.405E+01 -.120E+04   -.130E+00 -.748E-01 -.767E+00   0.426E-01 0.242E-01 0.753E-01
   -.140E-03 -.206E+01 0.121E+04   0.296E-03 0.196E+01 -.121E+04   -.299E-08 0.450E-01 -.850E+00   -.405E-02 0.604E-01 0.731E-01
   -.919E-04 0.120E+02 0.121E+04   0.186E-03 -.122E+02 -.121E+04   -.560E-08 0.841E-01 -.704E+00   -.169E-03 0.219E-01 0.948E-01
   -.178E+01 0.103E+01 0.121E+04   0.169E+01 -.978E+00 -.121E+04   0.389E-01 -.225E-01 -.850E+00   0.510E-01 -.337E-01 0.730E-01
   0.178E+01 0.103E+01 0.121E+04   -.169E+01 -.978E+00 -.121E+04   -.389E-01 -.225E-01 -.850E+00   -.503E-01 -.307E-01 0.736E-01
   -.677E-04 -.472E+01 -.107E+04   0.670E-04 0.474E+01 0.107E+04   -.143E-08 0.215E-01 0.134E+01   -.248E-02 -.251E-01 0.400E+00
   -.257E+02 -.148E+02 -.114E+04   0.260E+02 0.150E+02 0.114E+04   -.403E+00 -.233E+00 0.478E+00   -.395E-01 -.229E-01 0.422E+00
   0.257E+02 -.148E+02 -.114E+04   -.260E+02 0.150E+02 0.114E+04   0.403E+00 -.233E+00 0.478E+00   0.636E-01 -.215E-01 0.421E+00
   -.103E+02 0.594E+01 -.109E+04   0.102E+02 -.587E+01 0.109E+04   0.168E+00 -.970E-01 0.919E+00   -.179E-01 0.932E-02 0.461E+00
   -.456E-04 0.296E+02 -.114E+04   0.149E-03 -.300E+02 0.114E+04   -.310E-07 0.466E+00 0.478E+00   0.120E-01 0.646E-01 0.421E+00
   0.103E+02 0.594E+01 -.109E+04   -.102E+02 -.587E+01 0.109E+04   -.168E+00 -.970E-01 0.919E+00   0.153E-01 0.796E-02 0.462E+00
   0.409E+01 0.236E+01 -.107E+04   -.411E+01 -.237E+01 0.107E+04   -.186E-01 -.108E-01 0.134E+01   0.232E-01 0.134E-01 0.400E+00
   -.409E+01 0.236E+01 -.107E+04   0.411E+01 -.237E+01 0.107E+04   0.186E-01 -.108E-01 0.134E+01   -.226E-01 0.106E-01 0.400E+00
   -.147E-03 -.119E+02 -.109E+04   0.243E-03 0.117E+02 0.109E+04   -.129E-07 0.194E+00 0.919E+00   -.949E-03 -.203E-01 0.462E+00
   -.153E-04 0.312E-04 -.340E+04   0.384E-04 -.332E-04 0.340E+04   -.168E-17 0.284E-18 0.226E+01   -.342E-03 -.146E-03 0.417E+00
   0.511E+01 -.498E+01 -.336E+04   -.524E+01 0.452E+01 0.336E+04   -.542E-01 0.214E+00 0.232E+01   -.441E-02 -.454E-01 0.313E+00
   -.511E+01 -.498E+01 -.336E+04   0.524E+01 0.452E+01 0.336E+04   0.542E-01 0.214E+00 0.232E+01   0.547E-02 -.427E-01 0.313E+00
   -.176E+01 0.692E+01 -.336E+04   0.129E+01 -.680E+01 0.336E+04   0.158E+00 -.154E+00 0.232E+01   -.415E-01 0.188E-01 0.313E+00
   0.176E+01 0.692E+01 -.336E+04   -.129E+01 -.680E+01 0.336E+04   -.158E+00 -.154E+00 0.232E+01   0.396E-01 0.198E-01 0.313E+00
   -.687E+01 -.194E+01 -.336E+04   0.653E+01 0.228E+01 0.336E+04   0.212E+00 -.600E-01 0.232E+01   -.343E-01 0.261E-01 0.313E+00
   0.687E+01 -.194E+01 -.336E+04   -.654E+01 0.228E+01 0.336E+04   -.212E+00 -.600E-01 0.232E+01   0.377E-01 0.244E-01 0.313E+00
   -.132E-03 -.748E-05 -.342E+04   0.259E-03 -.216E-06 0.342E+04   0.930E-18 -.505E-17 0.245E+01   -.133E-01 -.687E-02 0.438E+00
   0.165E-03 -.158E-03 -.368E+04   0.122E-03 0.327E-04 0.368E+04   0.281E-17 0.436E-20 -.199E+01   0.544E-02 0.328E-02 0.126E+00
   0.114E-03 -.560E-04 -.184E+04   0.788E-05 0.439E-05 0.185E+04   0.994E-19 -.665E-18 -.119E+02   0.163E-02 0.989E-03 -.647E-01
   0.807E-04 -.156E-03 0.878E+01   0.128E-12 0.927E-13 -.136E-10   -.135E-15 0.151E-16 -.128E+02   0.587E-01 0.309E-01 0.400E+01

 POSITION                                       TOTAL-FORCE (eV/Angst)
      0.00000      0.00000      5.37156         0.000000      0.000000      0.060218
      2.56560      0.00000      5.37156        -0.000470     -0.001875      0.064033
      5.13119      0.00000      5.37156         0.000470     -0.001875      0.064033
      1.28280      2.22187      5.37156        -0.001858      0.000531      0.064033
      3.84839      2.22187      5.37156         0.000000     -0.000000      0.056760
      6.41399      2.22187      5.37156         0.001858      0.000531      0.064033
      2.56560      4.44374      5.37156        -0.001389      0.001344      0.064033
      5.13119      4.44374      5.37156         0.001389      0.001344      0.064033
      7.69679      4.44374      5.37156         0.000000     -0.000000      0.054306
      1.28280      0.74062      7.46636         0.045113      0.026046     -0.082254
      3.84839      0.74062      7.46636        -0.000000      0.016221     -0.006518
      6.41399      0.74062      7.46636        -0.045113      0.026046     -0.082254
      2.56560      2.96249      7.46636         0.014048     -0.008110     -0.006518
      5.13119      2.96249      7.46636        -0.014048     -0.008110     -0.006518
      7.69679      2.96249      7.46636        -0.000000      0.005898     -0.039370
      3.84839      5.18437      7.46636         0.000000     -0.052092     -0.082254
      6.41399      5.18437      7.46636         0.005108     -0.002949     -0.039370
      8.97958      5.18437      7.46636        -0.005108     -0.002949     -0.039370
      7.69679      1.47435      9.52922        -0.000000      0.019957      0.087898
      2.57570      1.48708      9.58099        -0.171604     -0.099075     -0.193767
      5.12109      1.48708      9.58099         0.171604     -0.099075     -0.193767
      8.97941      3.70322      9.55185         0.034080     -0.019676      0.067492
      3.84839      3.69145      9.58099        -0.000000      0.198151     -0.193767
      6.41416      3.70322      9.55185        -0.034080     -0.019676      0.067492
     10.26835      5.92844      9.52922        -0.017283     -0.009978      0.087898
      5.12522      5.92844      9.52922         0.017283     -0.009978      0.087898
      7.69679      5.92479      9.55185        -0.000000      0.039352      0.067492
      0.00000      0.00000     11.63765         0.000000     -0.000000     -0.117758
      6.39598      6.62341     11.64088        -0.188331     -0.296306     -0.060009
      8.99759      6.62341     11.64088         0.188331     -0.296306     -0.060009
      8.93403      2.22738     11.64088        -0.350773     -0.014946     -0.060009
      6.45955      2.22738     11.64088         0.350773     -0.014946     -0.060009
     10.23483      4.48044     11.64088        -0.162443      0.311252     -0.060009
      5.15874      4.48044     11.64088         0.162443      0.311252     -0.060009
      7.69679      4.44374     11.66679         0.000000      0.000000     -0.139774
      3.84839      2.22187     12.03290         0.000000     -0.000000      0.571175
      3.84839      2.22187     13.82610         0.000000     -0.000000     -0.009513
    total drift:                                0.058773      0.030787      0.013684

  FREE ENERGIE OF THE ION-ELECTRON SYSTEM (eV)
  free  energy   TOTEN  =      -137.02928431 eV

  energy  without entropy=     -137.02928431  energy(sigma->0) =     -137.02928431

 stress matrix after NEB project (eV)
      0.13437     -0.00000     -0.00000
     -0.00000      0.13437     -0.00000
      0.00000      0.00000     -1.22871
  FORCES: max atom, RMS     0.009513    0.001564
  FORCE total and by dimension    0.009513    0.009513
  Stress total and by dimension    1.243315    1.228707
|           W    W    AA    RRRRR   N    N  II  N    N   GGGG   !!!           |
|           W    W   A  A   R    R  NN   N  II  NN   N  G    G  !!!           |
|           W    W  A    A  R    R  N N  N  II  N N  N  G       !!!           |
|           W WW W  AAAAAA  RRRRR   N  N N  II  N  N N  G  GGG   !            |
|           WW  WW  A    A  R   R   N   NN  II  N   NN  G    G                |
|           W    W  A    A  R    R  N    N  II  N    N   GGGG   !!!           |
|     Tetrahedron method does not include variations of the Fermi             |
|     occupations, so forces and stress will be inaccurate. We suggest        |
|     using a different smearing scheme ISMEAR = 1 or 2 for metals in         |
|     relaxations.                                                            |

 total charge

# of ion       s       p       d       tot
    1        0.447   0.285   9.186   9.918
    2        0.448   0.285   9.187   9.920
    3        0.448   0.285   9.187   9.920
    4        0.448   0.285   9.187   9.920
    5        0.449   0.284   9.186   9.919
    6        0.448   0.285   9.187   9.920
    7        0.448   0.285   9.187   9.920
    8        0.448   0.285   9.187   9.920
    9        0.447   0.285   9.188   9.919
   10        0.440   0.372   9.180   9.992
   11        0.441   0.366   9.180   9.988
   12        0.440   0.372   9.180   9.992
   13        0.441   0.366   9.180   9.988
   14        0.441   0.366   9.180   9.988
   15        0.439   0.374   9.177   9.990
   16        0.440   0.372   9.180   9.992
   17        0.439   0.374   9.177   9.990
   18        0.439   0.374   9.177   9.990
   19        0.444   0.371   9.183   9.997
   20        0.444   0.372   9.176   9.993
   21        0.444   0.372   9.176   9.993
   22        0.434   0.375   9.179   9.988
   23        0.444   0.372   9.176   9.993
   24        0.434   0.375   9.179   9.988
   25        0.444   0.371   9.183   9.997
   26        0.444   0.371   9.183   9.997
   27        0.434   0.375   9.179   9.988
   28        0.446   0.293   9.184   9.924
   29        0.481   0.300   9.183   9.964
   30        0.481   0.300   9.183   9.964
   31        0.481   0.300   9.183   9.964
   32        0.481   0.300   9.183   9.964
   33        0.481   0.300   9.183   9.964
   34        0.481   0.300   9.183   9.964
   35        0.446   0.296   9.185   9.927
   36        2.222   5.983   2.101  10.306
   37        1.341   2.215   0.000   3.556
tot         19.302  19.837 323.474 362.612

 BZINTS: Fermi energy:   -0.121201;  402.000000 electrons
         Band energy:-0.142880E+04;  BLOECHL correction:   -0.077215