 vasp.6.2.0 18Jan21 (build Jun 12 2021 23:27:24) complex

 executed on             LinuxIFC date 2022.05.28  02:01:18

 INCAR:
   ISMEAR = -5
   SIGMA = 0.1
   ISPIN = 1
   EDIFF = 1.d-5
   EDIFFG = -0.01
   NSW = 0
   NELM = 150
   ENCUT = 500
   ISIF = 2
   IBRION = 2
   LREAL = Auto
   ALGO = Fast
   ICHARG = 11
   LORBIT = 10
   LCHARG = .F.
   LWAVE = .F.

 POTCAR:    PAW_PBE Ag 02Apr2005
 POTCAR:    PAW_PBE W 08Apr2002
 POTCAR:    PAW_PBE H 15Jun2001
 POTCAR:    PAW_PBE O 08Apr2002
|           W    W    AA    RRRRR   N    N  II  N    N   GGGG   !!!           |
|           W    W   A  A   R    R  NN   N  II  NN   N  G    G  !!!           |
|           W    W  A    A  R    R  N N  N  II  N N  N  G       !!!           |
|           W WW W  AAAAAA  RRRRR   N  N N  II  N  N N  G  GGG   !            |
|           WW  WW  A    A  R   R   N   NN  II  N   NN  G    G                |
|           W    W  A    A  R    R  N    N  II  N    N   GGGG   !!!           |
|     For optimal performance we recommend to set                             |
|       NCORE = 2 up to number-of-cores-per-socket                            |
|     This setting can greatly improve the performance of VASP for DFT.       |
|     The default, NCORE=1 might be grossly inefficient on modern             |
|     multi-core architectures or massively parallel machines. Do your        |
|     Unfortunately you need to use the default for GW and RPA                |
|     calculations (for HF NCORE is supported but not extensively tested      |
|     yet).                                                                   |

 POTCAR:    PAW_PBE Ag 02Apr2005
   VRHFIN =Ag : s1 d10

   TITEL  = PAW_PBE Ag 02Apr2005
   POMASS =  107.868; ZVAL   =   11.000    mass and valenz
   ENMAX  =  249.844; ENMIN  =  187.383 eV

 POTCAR:    PAW_PBE W 08Apr2002
   VRHFIN =W : 6s5d

[...]

 POTCAR:    PAW_PBE H 15Jun2001
   VRHFIN =H: ultrasoft test

   TITEL  = PAW_PBE H 15Jun2001
   POMASS =    1.000; ZVAL   =    1.000    mass and valenz
   ENMAX  =  250.000; ENMIN  =  200.000 eV

 POTCAR:    PAW_PBE O 08Apr2002
   VRHFIN =O: s2p4

   TITEL  = PAW_PBE O 08Apr2002
   POMASS =   16.000; ZVAL   =    6.000    mass and valenz
   ENMAX  =  400.000; ENMIN  =  300.000 eV

 Optimization of the real space projectors (new method)

 maximal supplied QI-value         = 15.12
 optimisation between [QCUT,QGAM] = [ 11.34, 22.83] = [ 36.00,145.93] Ry
 Optimized for a Real-space Cutoff    1.43 Angstroem

   l    n(q)    QCUT    max X(q) W(low)/X(q) W(high)/X(q)  e(spline)
   2      9    11.338    53.897    0.16E-03    0.20E-03    0.28E-06
   2      9    11.338    52.416    0.16E-03    0.20E-03    0.29E-06
   0     10    11.338   122.045    0.31E-04    0.76E-04    0.15E-06
   0     10    11.338    73.629    0.30E-04    0.72E-04    0.15E-06
   1      9    11.338    15.255    0.20E-03    0.19E-04    0.17E-06
   1      9    11.338     9.562    0.16E-03    0.15E-04    0.14E-06
 Optimization of the real space projectors (new method)

[...]

   l    n(q)    QCUT    max X(q) W(low)/X(q) W(high)/X(q)  e(spline)
   0      8    11.287    19.460    0.40E-03    0.73E-03    0.16E-06
   0      8    11.287    12.209    0.38E-03    0.70E-03    0.15E-06
   1      7    11.287     4.655    0.22E-03    0.25E-04    0.22E-06
 Optimization of the real space projectors (new method)

 maximal supplied QI-value         = 24.76
 optimisation between [QCUT,QGAM] = [ 11.39, 22.77] = [ 36.31,145.25] Ry
 Optimized for a Real-space Cutoff    1.00 Angstroem

   l    n(q)    QCUT    max X(q) W(low)/X(q) W(high)/X(q)  e(spline)
   0      7    11.387    20.381    0.39E-03    0.13E-02    0.15E-06
   0      7    11.387    15.268    0.42E-03    0.14E-02    0.17E-06
   1      6    11.387     5.964    0.41E-03    0.11E-02    0.17E-06
   1      6    11.387     5.382    0.39E-03    0.87E-03    0.15E-06
  PAW_PBE Ag 02Apr2005                  :
  PAW_PBE W 08Apr2002                   :
  PAW_PBE H 15Jun2001                   :
  PAW_PBE O 08Apr2002                   :

 POSCAR: Ag-W-H2O
  positions in direct lattice
  velocities in cartesian coordinates
 exchange correlation table for  LEXCH =        8
   RHO(1)=    0.500       N(1)  =     2000
   RHO(2)=  100.500       N(2)  =     4000

 VTST: version 3.2, (02/03/18)

 CHAIN: initializing optimizer

 OPT: Using VASP Conjugate-Gradient optimizer
 CHAIN: Read ICHAIN            0

 POSCAR: Ag-W-H2O
  positions in direct lattice
  velocities in cartesian coordinates

 ion  position               nearest neighbor table
   1  0.000  0.000  0.212-   2 2.93   8 2.93   7 2.93   6 2.93   4 2.93  12 2.93  16 2.93  10 2.93
                             3 2.93
   2  0.333  0.000  0.212-   1 2.93   8 2.93   9 2.93   3 2.93   4 2.93   5 2.93  10 2.93  17 2.93
                            11 2.93
   3  0.667  0.000  0.212-   9 2.93   2 2.93   5 2.93  11 2.93   7 2.93  18 2.93   1 2.93   6 2.93
                            12 2.93
   4  0.000  0.333  0.212-   5 2.93   6 2.93   2 2.93   1 2.93   7 2.93  13 2.93  15 2.93   9 2.93
                            10 2.93
   5  0.333  0.333  0.212-   4 2.93   3 2.93   7 2.93   2 2.93   8 2.93  14 2.93  13 2.93  11 2.93
                             6 2.93
   6  0.667  0.333  0.212-   4 2.93   9 2.93   1 2.93  15 2.93   8 2.93  12 2.93   3 2.93   5 2.93
                            14 2.93
   7  0.000  0.667  0.212-   8 2.93   1 2.93   5 2.93   3 2.93   4 2.93  16 2.93  18 2.93  13 2.93
                             9 2.93
   8  0.333  0.667  0.212-   7 2.93   1 2.93   2 2.93   9 2.93   5 2.93  16 2.93   6 2.93  17 2.93
                            14 2.93
   9  0.667  0.667  0.212-   3 2.93   2 2.93   8 2.93   6 2.93  17 2.93   4 2.93  15 2.93   7 2.93
                            18 2.93
  10  0.111  0.111  0.308-  20 2.89  12 2.93  16 2.93  15 2.93  17 2.93  13 2.93  11 2.93   2 2.93
                             1 2.93   4 2.93  19 2.93  26 2.93
  11  0.444  0.111  0.308-  21 2.90  20 2.90  14 2.93  17 2.93  18 2.93   3 2.93  12 2.93  13 2.93
                            10 2.93   5 2.93   2 2.93  27 2.93
  12  0.778  0.111  0.308-  21 2.89  10 2.93  16 2.93  18 2.93  15 2.93  11 2.93   1 2.93  14 2.93
                             6 2.93   3 2.93  25 2.93  19 2.93
  13  0.111  0.444  0.308-  20 2.90  23 2.90  15 2.93  14 2.93  18 2.93  10 2.93  11 2.93  16 2.93
                             4 2.93   5 2.93   7 2.93  22 2.93
  14  0.444  0.444  0.308-  23 2.90  21 2.90  13 2.93  11 2.93  16 2.93   5 2.93  12 2.93  17 2.93
                             8 2.93  15 2.93   6 2.93  24 2.93
  15  0.778  0.444  0.308-  24 2.93  22 2.93  13 2.93  10 2.93  12 2.93  17 2.93  18 2.93   4 2.93
                             6 2.93   9 2.93  14 2.93  19 2.93
  16  0.111  0.778  0.308-  23 2.89  18 2.93  12 2.93  10 2.93  14 2.93  17 2.93  13 2.93   7 2.93
                             8 2.93   1 2.93  26 2.93  25 2.93
  17  0.444  0.778  0.308-  27 2.93  24 2.93  11 2.93  10 2.93   9 2.93  18 2.93  15 2.93  16 2.93
                             2 2.93  14 2.93   8 2.93  26 2.93
  18  0.778  0.778  0.308-  22 2.93  27 2.93  16 2.93  12 2.93  13 2.93  11 2.93  17 2.93  15 2.93
                             7 2.93   3 2.93   9 2.93  25 2.93
  19  0.889  0.223  0.404-  28 2.92  20 2.93  21 2.93  24 2.93  22 2.93  15 2.93  10 2.93  12 2.93
                            26 2.94  25 2.94  32 2.98  31 2.98
  20  0.222  0.222  0.402-  36 2.76  10 2.89  13 2.90  11 2.90  19 2.93  26 2.93  27 2.94  22 2.94
                            21 2.94  23 2.94  31 2.96  29 2.96
  21  0.556  0.222  0.402-  36 2.76  12 2.89  11 2.90  14 2.90  25 2.93  19 2.93  27 2.94  24 2.94
                            20 2.94  23 2.94  30 2.96  32 2.96
  22  0.888  0.556  0.403-  35 2.92  24 2.92  27 2.92  18 2.93  15 2.93  25 2.93  19 2.93  13 2.93
                            23 2.94  20 2.94  33 2.96  31 2.96
  23  0.222  0.556  0.402-  36 2.76  16 2.89  14 2.90  13 2.90  26 2.93  25 2.93  22 2.94  24 2.94
                            21 2.94  20 2.94  34 2.96  33 2.96
  24  0.556  0.556  0.403-  35 2.92  27 2.92  22 2.92  15 2.93  17 2.93  19 2.93  26 2.93  14 2.93
                            23 2.94  21 2.94  32 2.96  34 2.96
  25  0.889  0.889  0.404-  28 2.92  23 2.93  21 2.93  22 2.93  27 2.93  18 2.93  16 2.93  12 2.93
                            26 2.94  19 2.94  33 2.98  30 2.98
  26  0.223  0.889  0.404-  28 2.92  23 2.93  20 2.93  27 2.93  24 2.93  17 2.93  16 2.93  10 2.93
                            25 2.94  19 2.94  34 2.98  29 2.98
  27  0.556  0.888  0.403-  35 2.92  24 2.92  22 2.92  17 2.93  18 2.93  26 2.93  25 2.93  11 2.93
                            20 2.94  21 2.94  29 2.96  30 2.96
  28  0.000  0.000  0.499-  26 2.92  25 2.92  19 2.92  29 2.96  34 2.96  33 2.96  32 2.96  31 2.96
                            30 2.96
  29  0.333  0.007  0.500-  31 2.86  30 2.87  36 2.88  20 2.96  27 2.96  28 2.96  35 2.96  26 2.98
                            34 3.06
  30  0.659  0.007  0.500-  32 2.86  29 2.87  36 2.88  21 2.96  27 2.96  28 2.96  35 2.96  25 2.98
                            33 3.06
  31  0.007  0.333  0.500-  29 2.86  33 2.87  36 2.88  20 2.96  22 2.96  28 2.96  35 2.96  19 2.98
                            32 3.06
  32  0.659  0.333  0.500-  30 2.86  34 2.87  36 2.88  21 2.96  24 2.96  28 2.96  35 2.96  19 2.98
                            31 3.06
  33  0.007  0.659  0.500-  34 2.86  31 2.87  36 2.88  23 2.96  22 2.96  28 2.96  35 2.96  25 2.98
                            30 3.06
  34  0.333  0.659  0.500-  33 2.86  32 2.87  36 2.88  23 2.96  24 2.96  28 2.96  35 2.96  26 2.98
                            29 3.06
  35  0.667  0.667  0.499-  24 2.92  27 2.92  22 2.92  30 2.96  32 2.96  29 2.96  34 2.96  31 2.96
                            33 2.96
  36  0.333  0.333  0.489-  39 2.27  21 2.76  20 2.76  23 2.76  31 2.88  30 2.88  33 2.88  29 2.88
                            34 2.88  32 2.88
  37  0.278  0.266  0.589-  39 0.98
  38  0.456  0.267  0.590-  39 0.98
  39  0.331  0.337  0.580-  38 0.98  37 0.98  36 2.27

  LATTYP: Found a hexagonal cell.
 ALAT       =     8.7913665772
 C/A-ratio  =     2.8382349142

  Lattice vectors:

 A1 = (  -4.3956832886,  -7.6135467898,   0.0000000000)
 A2 = (   8.7913665771,   0.0000000000,   0.0000000000)
 A3 = (   0.0000000000,   0.0000000000,  24.9519635625)

Analysis of symmetry for initial positions (statically):
 Subroutine PRICEL returns:
 Original cell was already a primitive cell.

 Routine SETGRP: Setting up the symmetry group for a
 hexagonal supercell.

 Subroutine GETGRP returns: Found  1 space group operations
 (whereof  1 operations were pure point group operations)
 out of a pool of 24 trial point group operations.

The static configuration has the point symmetry C_1 .

Analysis of symmetry for dynamics (positions and initial velocities):
 Subroutine PRICEL returns:
 Original cell was already a primitive cell.

[...]

The dynamic configuration has the point symmetry C_1 .

Analysis of constrained symmetry for selective dynamics:
 Subroutine PRICEL returns:
 Original cell was already a primitive cell.

 Routine SETGRP: Setting up the symmetry group for a
 hexagonal supercell.

[...]
     41      -4.6821      2.00000
     42      -4.6592      2.00000
     43      -4.6565      2.00000
     44      -4.6454      2.00000
     45      -4.6369      2.00000
     46      -4.6220      2.00000
     47      -4.5280      2.00000
     48      -4.5011      2.00000
     49      -4.4956      2.00000
     50      -4.4848      2.00000
     51      -4.4844      2.00000
     52      -4.4815      2.00000
     53      -4.4748      2.00000
     54      -4.4725      2.00000
     55      -4.4561      2.00000
     56      -4.4488      2.00000
     57      -4.3782      2.00000
     58      -4.3719      2.00000
     59      -4.3621      2.00000
     60      -4.3527      2.00000
[...]
    238       5.7162      0.00000
    239       5.8494      0.00000
    240       5.8734      0.00000
    241       6.0280      0.00000
    242       6.1732      0.00000
    243       6.2613      0.00000
    244       6.3501      0.00000
    245       6.3913      0.00000
    246       6.4528      0.00000
    247       6.6091      0.00000
    248       6.6988      0.00000
    249       6.8857      0.00000
    250       6.9560      0.00000
    251       6.9756      0.00000
    252       7.1320      0.00000

 soft charge-density along one line, spin component           1
         0         1         2         3         4         5         6         7         8         9
 total charge-density along one line

------------------------ aborting loop because EDIFF is reached ----------------------------------------

 total charge

# of ion       s       p       d       tot
    1        0.421   0.201   9.178   9.800
    2        0.416   0.204   9.177   9.797
    3        0.416   0.204   9.177   9.797
    4        0.416   0.203   9.178   9.797
    5        0.421   0.200   9.176   9.797
    6        0.416   0.203   9.178   9.797
    7        0.415   0.203   9.178   9.797
    8        0.415   0.203   9.178   9.797
    9        0.417   0.202   9.178   9.797
   10        0.411   0.268   9.162   9.841
   11        0.409   0.266   9.169   9.845
   12        0.411   0.268   9.162   9.841
   13        0.407   0.267   9.169   9.844
   14        0.407   0.267   9.169   9.844
   15        0.404   0.267   9.165   9.837
   16        0.411   0.269   9.161   9.841
   17        0.404   0.267   9.165   9.836
   18        0.404   0.267   9.165   9.836
   19        0.403   0.262   9.166   9.831
   20        0.447   0.313   9.125   9.885
   21        0.447   0.313   9.124   9.885
   22        0.392   0.271   9.169   9.831
   23        0.448   0.313   9.124   9.885
   24        0.392   0.271   9.169   9.831
   25        0.401   0.262   9.167   9.831
   26        0.401   0.262   9.167   9.831
   27        0.393   0.271   9.169   9.832
   28        0.409   0.201   9.172   9.781
   29        0.442   0.229   9.149   9.820
   30        0.442   0.229   9.149   9.819
   31        0.442   0.228   9.149   9.819
   32        0.442   0.228   9.149   9.819
   33        0.438   0.221   9.154   9.813
   34        0.438   0.221   9.154   9.813
   35        0.402   0.202   9.176   9.780
   36        0.572   0.382   3.833   4.788
   37        0.600   0.118   0.000   0.718
   38        0.600   0.118   0.000   0.718
   39        1.566   3.614   0.000   5.180
tot         17.941  12.759 324.551 355.252

  FORCE on cell =-STRESS in cart. coord.  units (eV):
  Direction    XX          YY          ZZ          XY          YZ          ZX
  Alpha Z   682.28524   682.28524   682.28524
  Ewald  159714.18184159646.50857************     0.64629   -15.89303     0.71763
  Hartree169655.05652169642.61555************     0.11425     1.84043     0.29592
  E(xc)   -2090.46752 -2090.61311 -2096.34553     0.00197    -0.01743     0.00194
  Local  ************************340483.56763    -0.57611     6.96016    -0.86238
  n-local  -357.29180  -357.72533  -359.34069     0.01236     0.04437    -0.00552
  augment  3229.64286  3230.80050  3244.19952    -0.01154     0.37223    -0.00902
  Kinetic  4975.10349  4993.14425  5029.53260    -0.17483     6.59969    -0.13968
  Fock        0.00000     0.00000     0.00000     0.00000     0.00000     0.00000
  Total      -9.24189    -9.34957     0.31571     0.01238    -0.09358    -0.00111
  in kB      -8.86591    -8.96921     0.30287     0.01187    -0.08977    -0.00106

 VOLUME and BASIS-vectors are now :
  energy-cutoff  :      500.00
  volume of cell :     1670.12
      direct lattice vectors                 reciprocal lattice vectors
     8.791366577  0.000000000  0.000000000     0.113747958 -0.065672414  0.000000000
     4.395683289  7.613546790  0.000000000     0.000000000  0.131344829  0.000000000
     0.000000000  0.000000000 24.951963562     0.000000000  0.000000000  0.040077006

  length of vectors
     8.791366577  8.791366577 24.951963562     0.131344829  0.131344829  0.040077006

 FORCES acting on ions
    electron-ion (+dipol)            ewald-force                    non-local-force                 convergence-correction
   0.287E-02 0.406E-03 0.271E+04   -.350E-03 -.759E-02 -.271E+04   -.145E-04 0.543E-02 -.209E+01   -.249E-02 0.445E-02 0.584E-01
   -.104E+00 0.123E+00 0.271E+04   -.244E+00 -.362E+00 -.271E+04   0.181E+00 0.212E+00 -.150E+01   0.157E+00 0.256E-01 0.791E-01
   0.102E+00 0.112E+00 0.271E+04   0.244E+00 -.361E+00 -.271E+04   -.181E+00 0.212E+00 -.151E+01   -.156E+00 0.358E-01 0.840E-01
   0.531E-01 -.154E+00 0.271E+04   -.429E+00 -.228E-01 -.271E+04   0.263E+00 0.324E-01 -.152E+01   0.104E+00 0.133E+00 0.759E-01
   -.149E-01 -.850E-01 0.271E+04   0.500E-03 0.118E-01 -.271E+04   -.222E-02 0.305E-01 -.113E+01   0.168E-01 0.340E-01 0.163E+00
   -.435E-01 -.156E+00 0.271E+04   0.428E+00 -.229E-01 -.271E+04   -.263E+00 0.321E-01 -.152E+01   -.113E+00 0.135E+00 0.806E-01
   0.108E+00 0.643E-01 0.271E+04   -.184E+00 0.384E+00 -.271E+04   0.120E+00 -.263E+00 -.159E+01   -.458E-01 -.171E+00 0.789E-01
   -.115E+00 0.709E-01 0.271E+04   0.184E+00 0.384E+00 -.271E+04   -.120E+00 -.263E+00 -.159E+01   0.533E-01 -.178E+00 0.786E-01
   0.125E-01 0.339E-01 0.271E+04   -.600E-04 -.403E-02 -.271E+04   0.243E-02 -.105E-01 -.181E+01   -.151E-01 -.193E-01 0.619E-01
   0.436E+01 0.253E+01 0.917E+03   -.395E+01 -.228E+01 -.916E+03   -.501E+00 -.297E+00 -.875E+00   0.892E-01 0.496E-01 0.857E-01
   -.194E-01 0.333E+01 0.918E+03   0.261E-02 -.348E+01 -.918E+03   -.237E-02 0.712E-01 -.136E+00   0.194E-01 0.424E-01 0.934E-01
   -.435E+01 0.253E+01 0.917E+03   0.395E+01 -.228E+01 -.916E+03   0.502E+00 -.298E+00 -.875E+00   -.101E+00 0.534E-01 0.907E-01
   0.285E+01 -.173E+01 0.918E+03   -.301E+01 0.182E+01 -.918E+03   0.973E-01 -.525E-01 -.160E+00   0.419E-01 -.116E-01 0.785E-01
   -.287E+01 -.172E+01 0.918E+03   0.302E+01 0.182E+01 -.918E+03   -.102E+00 -.525E-01 -.160E+00   -.197E-01 -.206E-01 0.729E-01
   0.117E-01 0.527E+00 0.916E+03   -.257E-02 -.748E+00 -.915E+03   0.420E-03 0.121E+00 -.766E+00   -.957E-02 0.684E-01 0.460E-01
   0.270E-02 -.500E+01 0.916E+03   0.825E-04 0.449E+01 -.916E+03   -.181E-03 0.614E+00 -.883E+00   -.262E-02 -.947E-01 0.856E-01
   0.556E+00 -.227E+00 0.916E+03   -.710E+00 0.336E+00 -.915E+03   0.809E-01 -.520E-01 -.779E+00   0.465E-01 -.437E-01 0.480E-01
   -.558E+00 -.242E+00 0.916E+03   0.710E+00 0.339E+00 -.915E+03   -.810E-01 -.529E-01 -.780E+00   -.435E-01 -.308E-01 0.587E-01
   0.347E-01 -.251E+01 -.904E+03   -.188E-01 0.238E+01 0.903E+03   0.249E-02 0.131E+00 0.720E+00   -.185E-01 -.105E-01 0.298E+00
   -.826E+01 -.519E+01 -.884E+03   0.981E+01 0.604E+01 0.885E+03   -.163E+01 -.908E+00 -.174E+01   0.768E-01 0.541E-01 0.242E+00
   0.823E+01 -.518E+01 -.884E+03   -.980E+01 0.605E+01 0.885E+03   0.163E+01 -.907E+00 -.174E+01   -.660E-01 0.455E-01 0.242E+00
   -.672E+01 0.361E+01 -.896E+03   0.619E+01 -.336E+01 0.896E+03   0.399E+00 -.214E+00 0.360E+00   0.136E+00 -.485E-01 0.155E+00
   -.124E-01 0.931E+01 -.885E+03   0.142E-01 -.112E+02 0.886E+03   -.429E-04 0.194E+01 -.166E+01   -.157E-02 -.755E-01 0.223E+00
   0.672E+01 0.365E+01 -.896E+03   -.621E+01 -.338E+01 0.896E+03   -.403E+00 -.213E+00 0.359E+00   -.118E+00 -.639E-01 0.153E+00
   0.189E+01 0.168E+01 -.905E+03   -.175E+01 -.157E+01 0.904E+03   -.104E+00 -.989E-01 0.829E+00   -.268E-01 -.511E-02 0.295E+00
   -.186E+01 0.171E+01 -.905E+03   0.174E+01 -.159E+01 0.904E+03   0.108E+00 -.986E-01 0.827E+00   -.263E-02 -.101E-01 0.296E+00
   -.261E-01 -.713E+01 -.896E+03   0.733E-02 0.655E+01 0.895E+03   -.214E-02 0.469E+00 0.318E+00   0.211E-01 0.135E+00 0.157E+00
   0.536E-01 0.165E+01 -.265E+04   -.495E-01 -.173E+01 0.265E+04   0.103E-02 0.663E-01 0.170E+01   -.527E-02 0.168E-02 0.115E+00
   0.122E+02 0.205E+02 -.263E+04   -.112E+02 -.190E+02 0.263E+04   -.115E+01 -.178E+01 0.583E+00   0.210E-01 0.110E+00 0.125E+00
   -.123E+02 0.204E+02 -.263E+04   0.112E+02 -.188E+02 0.263E+04   0.115E+01 -.177E+01 0.591E+00   -.150E-01 0.115E+00 0.117E+00
   0.217E+02 -.179E+01 -.263E+04   -.197E+02 0.195E+01 0.263E+04   -.220E+01 -.124E+00 0.601E+00   0.102E+00 -.375E-01 0.106E+00
   -.215E+02 -.174E+01 -.263E+04   0.195E+02 0.191E+01 0.263E+04   0.220E+01 -.125E+00 0.596E+00   -.126E+00 -.422E-01 0.103E+00
   0.760E+01 -.167E+02 -.264E+04   -.692E+01 0.151E+02 0.264E+04   -.825E+00 0.177E+01 0.110E+01   0.617E-01 -.684E-01 0.104E+00
   -.760E+01 -.166E+02 -.264E+04   0.694E+01 0.150E+02 0.264E+04   0.831E+00 0.177E+01 0.109E+01   -.775E-01 -.778E-01 0.108E+00
   0.253E-01 0.788E+00 -.265E+04   -.211E-01 -.784E+00 0.265E+04   0.157E-02 -.462E-02 0.202E+01   -.600E-02 0.246E-02 0.167E+00
   -.146E+00 -.302E+01 -.128E+04   0.142E+00 0.296E+01 0.128E+04   -.224E-02 0.227E-01 0.201E+01   0.523E-02 -.112E-01 0.555E-01
   0.670E+02 0.429E+02 -.291E+03   -.738E+02 -.473E+02 0.293E+03   0.674E+01 0.437E+01 -.189E+01   -.334E-02 -.375E-02 -.111E-01
   -.677E+02 0.418E+02 -.292E+03   0.745E+02 -.461E+02 0.294E+03   -.681E+01 0.425E+01 -.193E+01   0.392E-02 -.354E-02 -.115E-01
   0.256E+00 -.545E+02 -.163E+04   -.596E+00 0.967E+02 0.163E+04   0.343E+00 -.422E+02 0.696E+01   0.557E-02 -.207E-01 -.746E-01
   -.267E+00 0.337E+02 0.357E+01   -.285E-13 0.000E+00 0.909E-11   0.286E+00 -.337E+02 -.798E+01   -.149E-01 -.428E-02 0.439E+01

 POSITION                                       TOTAL-FORCE (eV/Angst)
      0.00000      0.00000      5.28219        -0.000085      0.002656     -0.066667
      2.93046      0.00000      5.28219        -0.009444     -0.000857      0.018052
      5.86091      0.00000      5.28219         0.009176     -0.000931      0.018155
      1.46523      2.53785      5.28219        -0.008703     -0.011390      0.019940
      4.39568      2.53785      5.28219         0.000066     -0.008698     -0.005354
      7.32614      2.53785      5.28219         0.008576     -0.011318      0.019970
      2.93046      5.07570      5.28219        -0.002283      0.013989      0.026589
      5.86091      5.07570      5.28219         0.002068      0.013996      0.026594
      8.79137      5.07570      5.28219        -0.000322      0.000111      0.000433
      1.46523      0.84595      7.67490        -0.004503     -0.000652     -0.018356
      4.39568      0.84595      7.67490         0.000173     -0.039428     -0.074872
      7.32614      0.84595      7.67490         0.004417     -0.000684     -0.018485
      2.93046      3.38380      7.67490        -0.028149      0.020599     -0.071453
      5.86091      3.38380      7.67490         0.028381      0.020505     -0.071418
      8.79137      3.38380      7.67490        -0.000095     -0.031809      0.009583
      4.39568      5.92165      7.67490        -0.000128      0.008054     -0.023852
      7.32614      5.92165      7.67490        -0.027356      0.013704      0.013493
     10.25659      5.92165      7.67490         0.027142      0.013601      0.013530
      8.79137      1.69504     10.07204        -0.000241     -0.009554     -0.002289
      2.92602      1.68934     10.02478        -0.000774      0.005257     -0.046097
      5.86534      1.68934     10.02478         0.001011      0.005232     -0.045302
     10.25093      4.23302     10.06482         0.007655     -0.008168     -0.004803
      4.39568      4.23487     10.02478         0.000015      0.019457     -0.018248
      7.33181      4.23302     10.06482        -0.007392     -0.007931     -0.005063
     11.71910      6.76603     10.07204         0.011345      0.007810      0.002667
      5.86363      6.76603     10.07204        -0.011979      0.007717      0.002605
      8.79137      6.76105     10.06482         0.000018      0.016738     -0.013415
      0.00000      0.00000     12.45341        -0.000181     -0.002225      0.035419
      2.96185      0.05622     12.48740        -0.055646     -0.099151     -0.051959
      5.82952      0.05622     12.48740         0.055130     -0.098498     -0.051717
      1.52961      2.53693     12.48740        -0.101979      0.004439     -0.046963
      7.26176      2.53693     12.48740         0.100078      0.004764     -0.046041
      2.96344      5.02040     12.48740        -0.089743      0.098219     -0.071621
      5.82792      5.02040     12.48740         0.088923      0.097120     -0.071018
      8.79137      5.07570     12.44798        -0.000304      0.001259      0.038218
      4.39568      2.53785     12.20252        -0.001270     -0.047721      0.593718
      3.60887      2.02178     14.70621        -0.002297     -0.001590     -0.000471
      5.18328      2.03511     14.71167         0.000568     -0.001019     -0.003692
      4.39238      2.56380     14.47440         0.008132      0.006396     -0.009808
    total drift:                                0.003931      0.001506     -0.027301

  FREE ENERGIE OF THE ION-ELECTRON SYSTEM (eV)
  free  energy   TOTEN  =      -112.56933811 eV

  energy  without entropy=     -112.56933811  energy(sigma->0) =     -112.56933811

 stress matrix after NEB project (eV)
     -9.24189      0.01238     -0.00111
      0.01238     -9.34957     -0.09358
     -0.00111     -0.09358      0.31571
  FORCES: max atom, RMS     0.014256    0.002409
  FORCE total and by dimension    0.015042    0.009808
  Stress total and by dimension   13.150841    9.349572
|           W    W    AA    RRRRR   N    N  II  N    N   GGGG   !!!           |
|           W    W   A  A   R    R  NN   N  II  NN   N  G    G  !!!           |
|           W    W  A    A  R    R  N N  N  II  N N  N  G       !!!           |
|           W WW W  AAAAAA  RRRRR   N  N N  II  N  N N  G  GGG   !            |
|           WW  WW  A    A  R   R   N   NN  II  N   NN  G    G                |
|           W    W  A    A  R    R  N    N  II  N    N   GGGG   !!!           |
|     Tetrahedron method does not include variations of the Fermi             |
|     occupations, so forces and stress will be inaccurate. We suggest        |
|     using a different smearing scheme ISMEAR = 1 or 2 for metals in         |
|     relaxations.                                                            |

 total charge

# of ion       s       p       d       tot
    1        0.421   0.201   9.178   9.800
    2        0.416   0.204   9.177   9.797
    3        0.416   0.204   9.177   9.797
    4        0.416   0.203   9.178   9.797
    5        0.421   0.200   9.176   9.797
    6        0.416   0.203   9.178   9.797
    7        0.415   0.203   9.178   9.797
    8        0.415   0.203   9.178   9.797
    9        0.417   0.202   9.178   9.797
   10        0.411   0.268   9.162   9.841
   11        0.409   0.266   9.169   9.845
   12        0.411   0.268   9.162   9.841
   13        0.407   0.267   9.169   9.844
   14        0.407   0.267   9.169   9.844
   15        0.404   0.267   9.165   9.837
   16        0.411   0.269   9.161   9.841
   17        0.404   0.267   9.165   9.836
   18        0.404   0.267   9.165   9.836
   19        0.403   0.262   9.166   9.831
   20        0.447   0.313   9.125   9.885
   21        0.447   0.313   9.124   9.885
   22        0.392   0.271   9.169   9.831
   23        0.448   0.313   9.124   9.885
   24        0.392   0.271   9.169   9.831
   25        0.401   0.262   9.167   9.831
   26        0.401   0.262   9.167   9.831
   27        0.393   0.271   9.169   9.832
   28        0.409   0.201   9.172   9.781
   29        0.442   0.229   9.149   9.820
   30        0.442   0.229   9.149   9.819
   31        0.442   0.228   9.149   9.819
   32        0.442   0.228   9.149   9.819
   33        0.438   0.221   9.154   9.813
   34        0.438   0.221   9.154   9.813
   35        0.402   0.202   9.176   9.780
   36        0.572   0.382   3.833   4.788
   37        0.600   0.118   0.000   0.718
   38        0.600   0.118   0.000   0.718
   39        1.566   3.614   0.000   5.180
tot         17.941  12.759 324.551 355.252

 BZINTS: Fermi energy:    0.508817;  399.000000 electrons
         Band energy:-0.148459E+04;  BLOECHL correction:   -0.016996