 vasp.6.2.0 18Jan21 (build Jun 12 2021 23:27:24) complex

 executed on             LinuxIFC date 2022.05.30  15:57:38

 INCAR:
   ISMEAR = -5
   SIGMA = 0.1
   ISPIN = 1
   EDIFF = 1.d-5
   EDIFFG = -0.01
   NSW = 0
   NELM = 150
   ENCUT = 500
   ISIF = 2
   IBRION = 2
   LREAL = Auto
   ALGO = Fast
   ICHARG = 11
   LORBIT = 10
   LCHARG = .F.
   LWAVE = .F.

 POTCAR:    PAW_PBE Au 04Oct2007
 POTCAR:    PAW_PBE Co 02Aug2007
 POTCAR:    PAW_PBE C 08Apr2002
 POTCAR:    PAW_PBE O 08Apr2002
 POTCAR:    PAW_PBE H 15Jun2001
|           W    W    AA    RRRRR   N    N  II  N    N   GGGG   !!!           |
|           W    W   A  A   R    R  NN   N  II  NN   N  G    G  !!!           |
|           W    W  A    A  R    R  N N  N  II  N N  N  G       !!!           |
|           W WW W  AAAAAA  RRRRR   N  N N  II  N  N N  G  GGG   !            |
|           WW  WW  A    A  R   R   N   NN  II  N   NN  G    G                |
|           W    W  A    A  R    R  N    N  II  N    N   GGGG   !!!           |
|     For optimal performance we recommend to set                             |
|       NCORE = 2 up to number-of-cores-per-socket                            |
|     This setting can greatly improve the performance of VASP for DFT.       |
|     The default, NCORE=1 might be grossly inefficient on modern             |
|     multi-core architectures or massively parallel machines. Do your        |
|     Unfortunately you need to use the default for GW and RPA                |
|     calculations (for HF NCORE is supported but not extensively tested      |
|     yet).                                                                   |

 POTCAR:    PAW_PBE Au 04Oct2007
   VRHFIN =Au: s1d10

   TITEL  = PAW_PBE Au 04Oct2007
   POMASS =  196.966; ZVAL   =   11.000    mass and valenz
   ENMAX  =  229.943; ENMIN  =  172.457 eV

 POTCAR:    PAW_PBE Co 02Aug2007
   VRHFIN =Co: d8 s1

   TITEL  = PAW_PBE Co 02Aug2007
   POMASS =   58.933; ZVAL   =    9.000    mass and valenz
   ENMAX  =  267.968; ENMIN  =  200.976 eV

 POTCAR:    PAW_PBE C 08Apr2002
   VRHFIN =C: s2p2

   TITEL  = PAW_PBE C 08Apr2002
   POMASS =   12.011; ZVAL   =    4.000    mass and valenz
   ENMAX  =  400.000; ENMIN  =  300.000 eV

 POTCAR:    PAW_PBE O 08Apr2002
   VRHFIN =O: s2p4

   TITEL  = PAW_PBE O 08Apr2002
   POMASS =   16.000; ZVAL   =    6.000    mass and valenz
   ENMAX  =  400.000; ENMIN  =  300.000 eV

 POTCAR:    PAW_PBE H 15Jun2001
   VRHFIN =H: ultrasoft test

   TITEL  = PAW_PBE H 15Jun2001
   POMASS =    1.000; ZVAL   =    1.000    mass and valenz
   ENMAX  =  250.000; ENMIN  =  200.000 eV

 Optimization of the real space projectors (new method)

 maximal supplied QI-value         = 15.12
 optimisation between [QCUT,QGAM] = [ 11.34, 22.83] = [ 36.00,145.93] Ry
 Optimized for a Real-space Cutoff    1.39 Angstroem

   l    n(q)    QCUT    max X(q) W(low)/X(q) W(high)/X(q)  e(spline)
   2      9    11.338    60.898    0.39E-03    0.42E-03    0.21E-06
   2      9    11.338    58.894    0.40E-03    0.42E-03    0.22E-06
   0      9    11.338   109.617    0.13E-03    0.20E-04    0.13E-06
   0      9    11.338    75.026    0.13E-03    0.20E-04    0.13E-06
   1      9    11.338    16.344    0.33E-04    0.24E-03    0.18E-06
   1      9    11.338    10.160    0.26E-04    0.19E-03    0.15E-06
 Optimization of the real space projectors (new method)

[...]

   l    n(q)    QCUT    max X(q) W(low)/X(q) W(high)/X(q)  e(spline)
   0      7    11.387    20.381    0.39E-03    0.13E-02    0.15E-06
   0      7    11.387    15.268    0.42E-03    0.14E-02    0.17E-06
   1      6    11.387     5.964    0.41E-03    0.11E-02    0.17E-06
   1      6    11.387     5.382    0.39E-03    0.87E-03    0.15E-06
 Optimization of the real space projectors (new method)

 maximal supplied QI-value         = 34.20
 optimisation between [QCUT,QGAM] = [ 11.29, 22.57] = [ 35.68,142.71] Ry
 Optimized for a Real-space Cutoff    1.16 Angstroem

   l    n(q)    QCUT    max X(q) W(low)/X(q) W(high)/X(q)  e(spline)
   0      8    11.287    19.460    0.40E-03    0.73E-03    0.16E-06
   0      8    11.287    12.209    0.38E-03    0.70E-03    0.15E-06
   1      7    11.287     4.655    0.22E-03    0.25E-04    0.22E-06
  PAW_PBE Au 04Oct2007                  :
  PAW_PBE Co 02Aug2007                  :
  PAW_PBE C 08Apr2002                   :
  PAW_PBE O 08Apr2002                   :
  PAW_PBE H 15Jun2001                   :

 POSCAR: Au-Co-COH
  positions in direct lattice
  velocities in cartesian coordinates
 exchange correlation table for  LEXCH =        8
   RHO(1)=    0.500       N(1)  =     2000
   RHO(2)=  100.500       N(2)  =     4000

 VTST: version 3.2, (02/03/18)

 CHAIN: initializing optimizer

 OPT: Using VASP Conjugate-Gradient optimizer
 CHAIN: Read ICHAIN            0

 POSCAR: Au-Co-COH
  positions in direct lattice
  velocities in cartesian coordinates

 ion  position               nearest neighbor table
   1  0.000  0.000  0.197-  16 2.94  12 2.94   6 2.94   8 2.94   7 2.94   3 2.94  10 2.94   4 2.94
                             2 2.94
   2  0.333  0.000  0.197-   9 2.94  11 2.94  17 2.94  10 2.94   8 2.94   4 2.94   5 2.94   1 2.94
                             3 2.94
   3  0.667  0.000  0.197-   7 2.94  18 2.94  12 2.94   1 2.94  11 2.94   5 2.94   6 2.94   9 2.94
                             2 2.94
   4  0.000  0.333  0.197-  10 2.94   6 2.94   5 2.94  13 2.94   2 2.94  15 2.94   9 2.94   1 2.94
                             7 2.94
   5  0.333  0.333  0.197-  13 2.94   7 2.94  11 2.94   4 2.94   2 2.94  14 2.94   3 2.94   8 2.94
                             6 2.94
   6  0.667  0.333  0.197-  15 2.94  14 2.94   1 2.94  12 2.94   4 2.94   9 2.94   8 2.94   3 2.94
                             5 2.94
   7  0.000  0.667  0.197-  18 2.94   3 2.94  16 2.94   5 2.94   1 2.94  13 2.94   8 2.94   4 2.94
                             9 2.94
   8  0.333  0.667  0.197-   9 2.94  17 2.94   1 2.94   2 2.94  14 2.94  16 2.94   6 2.94   7 2.94
                             5 2.94
   9  0.667  0.667  0.197-   2 2.94   8 2.94  17 2.94   6 2.94  15 2.94   4 2.94   3 2.94  18 2.94
                             7 2.94
  10  0.111  0.111  0.287-  20 2.92  26 2.93  19 2.93  11 2.94  17 2.94   2 2.94   4 2.94   1 2.94
                            12 2.94  16 2.94  13 2.94  15 2.94
  11  0.444  0.111  0.287-  20 2.91  21 2.91  27 2.93  13 2.94   2 2.94  10 2.94  17 2.94   5 2.94
                             3 2.94  18 2.94  14 2.94  12 2.94
  12  0.778  0.111  0.287-  21 2.92  25 2.93  19 2.93  16 2.94  18 2.94   1 2.94  14 2.94  15 2.94
                             3 2.94   6 2.94  10 2.94  11 2.94
  13  0.111  0.444  0.287-  23 2.91  20 2.91  22 2.93   5 2.94  18 2.94  11 2.94   7 2.94   4 2.94
                            16 2.94  10 2.94  14 2.94  15 2.94
  14  0.444  0.444  0.287-  21 2.91  23 2.91  24 2.93  15 2.94   6 2.94  12 2.94   8 2.94  17 2.94
                             5 2.94  16 2.94  13 2.94  11 2.94
  15  0.778  0.444  0.287-  24 2.92  22 2.92  19 2.93  14 2.94   6 2.94  17 2.94  12 2.94   9 2.94
                             4 2.94  10 2.94  13 2.94  18 2.94
  16  0.111  0.778  0.287-  23 2.92  25 2.93  26 2.93  18 2.94  12 2.94   7 2.94   1 2.94   8 2.94
                            13 2.94  10 2.94  14 2.94  17 2.94
  17  0.444  0.778  0.287-  27 2.92  24 2.92  26 2.93   9 2.94  15 2.94   2 2.94  10 2.94  11 2.94
                             8 2.94  14 2.94  16 2.94  18 2.94
  18  0.778  0.778  0.287-  22 2.92  27 2.92  25 2.93  16 2.94   7 2.94  13 2.94  12 2.94   3 2.94
                            11 2.94   9 2.94  15 2.94  17 2.94
  19  0.889  0.222  0.376-  10 2.93  12 2.93  15 2.93  26 2.94  25 2.94  24 2.94  22 2.94  28 2.94
                            21 2.95  20 2.95  32 2.96  31 2.96
  20  0.223  0.223  0.376-  36 2.69  29 2.91  31 2.91  11 2.91  13 2.91  23 2.91  21 2.91  10 2.92
                            27 2.95  22 2.95  26 2.95  19 2.95
  21  0.554  0.223  0.376-  36 2.69  30 2.91  32 2.91  14 2.91  11 2.91  20 2.91  23 2.91  12 2.92
                            27 2.95  24 2.95  25 2.95  19 2.95
  22  0.887  0.557  0.376-  24 2.91  27 2.91  18 2.92  15 2.92  13 2.93  25 2.94  19 2.94  33 2.94
                            31 2.94  23 2.95  20 2.95  35 2.96
  23  0.223  0.554  0.376-  36 2.69  33 2.91  34 2.91  13 2.91  14 2.91  20 2.91  21 2.91  16 2.92
                            22 2.95  24 2.95  25 2.95  26 2.95
  24  0.557  0.557  0.376-  27 2.91  22 2.91  15 2.92  17 2.92  14 2.93  26 2.94  19 2.94  32 2.94
                            34 2.94  21 2.95  23 2.95  35 2.96
  25  0.889  0.889  0.376-  16 2.93  12 2.93  18 2.93  19 2.94  26 2.94  22 2.94  27 2.94  28 2.94
                            23 2.95  21 2.95  33 2.96  30 2.96
  26  0.222  0.889  0.376-  10 2.93  16 2.93  17 2.93  19 2.94  25 2.94  27 2.94  24 2.94  28 2.94
                            20 2.95  23 2.95  29 2.96  34 2.96
  27  0.557  0.887  0.376-  24 2.91  22 2.91  17 2.92  18 2.92  11 2.93  26 2.94  25 2.94  29 2.94
                            30 2.94  20 2.95  21 2.95  35 2.96
  28  0.000  0.000  0.466-  25 2.94  19 2.94  26 2.94  34 2.98  32 2.98  33 2.98  30 2.98  31 2.98
                            29 2.98
  29  0.334  0.008  0.466-  30 2.86  31 2.87  36 2.88  20 2.91  27 2.94  26 2.96  35 2.98  28 2.98
                            34 3.09
  30  0.658  0.008  0.466-  29 2.86  32 2.87  36 2.88  21 2.91  27 2.94  25 2.96  35 2.98  28 2.98
                            33 3.09
  31  0.008  0.334  0.466-  33 2.86  29 2.87  36 2.88  20 2.91  22 2.94  19 2.96  35 2.98  28 2.98
                            32 3.09
  32  0.658  0.334  0.466-  34 2.86  30 2.87  36 2.88  21 2.91  24 2.94  19 2.96  35 2.98  28 2.98
                            31 3.09
  33  0.008  0.658  0.466-  31 2.86  34 2.87  36 2.88  23 2.91  22 2.94  25 2.96  35 2.98  28 2.98
                            30 3.09
  34  0.334  0.658  0.466-  32 2.86  33 2.87  36 2.88  23 2.91  24 2.94  26 2.96  35 2.98  28 2.98
                            29 3.09
  35  0.667  0.667  0.467-  24 2.96  27 2.96  22 2.96  29 2.98  34 2.98  32 2.98  31 2.98  30 2.98
                            33 2.98
  36  0.333  0.333  0.454-  37 1.64  20 2.69  23 2.69  21 2.69  33 2.88  31 2.88  29 2.88  30 2.88
                            34 2.88  32 2.88
  37  0.333  0.333  0.515-  38 1.25  36 1.64
  38  0.333  0.333  0.562-  39 0.96  37 1.25
  39  0.333  0.333  0.598-  38 0.96

  LATTYP: Found a hexagonal cell.
 ALAT       =     8.8135128021
 C/A-ratio  =     3.0356784858

  Lattice vectors:

 A1 = (  -4.4067569092,  -7.6327256898,   0.0000000000)
 A2 = (   8.8135128021,   0.0000000000,   0.0000000000)
 A3 = (   0.0000000000,   0.0000000000,  26.7549911976)

Analysis of symmetry for initial positions (statically):
 Subroutine PRICEL returns:
 Original cell was already a primitive cell.

 Routine SETGRP: Setting up the symmetry group for a
 hexagonal supercell.

 Subroutine GETGRP returns: Found  6 space group operations
 (whereof  6 operations were pure point group operations)
 out of a pool of 24 trial point group operations.

The static configuration has the point symmetry C_3v.

Analysis of symmetry for dynamics (positions and initial velocities):
[...]
     41      -4.9014      2.00000
     42      -4.8953      2.00000
     43      -4.8726      2.00000
     44      -4.8221      2.00000
     45      -4.7505      2.00000
     46      -4.7310      2.00000
     47      -4.6721      2.00000
     48      -4.6463      2.00000
     49      -4.6360      2.00000
     50      -4.6304      2.00000
     51      -4.5233      2.00000
     52      -4.5080      2.00000
     53      -4.4739      2.00000
     54      -4.4628      2.00000
     55      -4.4541      2.00000
     56      -4.4488      2.00000
     57      -4.4315      2.00000
     58      -4.3929      2.00000
     59      -4.3557      2.00000
     60      -4.3240      2.00000
[...]
    238       5.2411      0.00000
    239       5.2905      0.00000
    240       5.4200      0.00000
    241       5.5552      0.00000
    242       5.6380      0.00000
    243       5.8811      0.00000
    244       5.9061      0.00000
    245       6.0168      0.00000
    246       6.0324      0.00000
    247       6.0981      0.00000
    248       6.1295      0.00000
    249       6.1310      0.00000
    250       6.1849      0.00000
    251       6.3345      0.00000
    252       6.3672      0.00000

 soft charge-density along one line, spin component           1
         0         1         2         3         4         5         6         7         8         9
 total charge-density along one line

------------------------ aborting loop because EDIFF is reached ----------------------------------------

 total charge

# of ion       s       p       d       tot
    1        0.543   0.240   8.766   9.548
    2        0.545   0.241   8.764   9.550
    3        0.545   0.241   8.764   9.550
    4        0.545   0.241   8.764   9.550
    5        0.543   0.241   8.764   9.549
    6        0.545   0.241   8.764   9.550
    7        0.545   0.241   8.764   9.550
    8        0.545   0.241   8.764   9.550
    9        0.541   0.241   8.768   9.549
   10        0.520   0.307   8.772   9.599
   11        0.523   0.308   8.777   9.607
   12        0.520   0.307   8.772   9.599
   13        0.523   0.308   8.777   9.607
   14        0.523   0.308   8.777   9.607
   15        0.514   0.311   8.773   9.598
   16        0.520   0.307   8.772   9.599
   17        0.514   0.311   8.773   9.598
   18        0.514   0.311   8.773   9.598
   19        0.519   0.301   8.775   9.595
   20        0.543   0.329   8.756   9.628
   21        0.543   0.329   8.756   9.628
   22        0.513   0.312   8.771   9.596
   23        0.543   0.329   8.756   9.628
   24        0.513   0.312   8.771   9.596
   25        0.519   0.301   8.775   9.595
   26        0.519   0.301   8.775   9.595
   27        0.513   0.312   8.771   9.596
   28        0.541   0.228   8.768   9.537
   29        0.541   0.241   8.770   9.552
   30        0.541   0.241   8.770   9.552
   31        0.541   0.241   8.770   9.552
   32        0.541   0.241   8.770   9.552
   33        0.541   0.241   8.770   9.552
   34        0.541   0.241   8.770   9.552
   35        0.541   0.225   8.770   9.537
   36        0.427   0.536   7.472   8.435
   37        0.945   1.432   0.000   2.377
   38        1.532   3.763   0.000   5.295
   39        0.554   0.131   0.000   0.685
tot         22.077  15.538 314.382 351.997

  FORCE on cell =-STRESS in cart. coord.  units (eV):
  Direction    XX          YY          ZZ          XY          YZ          ZX
  Alpha Z   854.93395   854.93395   854.93395
  Ewald  189482.02808189482.02854************    -0.00031    -0.00008    -0.00011
  Hartree198169.21416198169.21418************     0.00001    -0.00002    -0.00002
  E(xc)   -1822.01348 -1822.01362 -1826.94054     0.00012    -0.00002    -0.00003
  Local  ************************399694.47958     0.00226     0.00000    -0.00005
  n-local  -112.58527   -68.14669   -66.81921    22.23545    -1.31895     1.28936
  augment  2536.24482  2536.24643  2531.26549    -0.00139     0.00000     0.00005
  Kinetic  5643.58997  5651.13524  5620.45453     4.88953     0.29621     0.22119
  Fock        0.00000     0.00000     0.00000     0.00000     0.00000     0.00000
  Total     -19.01639   -19.01638     2.64733    -0.00000     0.00000    -0.00000
  in kB     -16.92798   -16.92797     2.35660    -0.00000     0.00000    -0.00000

 VOLUME and BASIS-vectors are now :
  energy-cutoff  :      500.00
  volume of cell :     1799.84
      direct lattice vectors                 reciprocal lattice vectors
     8.813512802  0.000000000  0.000000000     0.113462137 -0.065507406  0.000000000
     4.406756909  7.632725690  0.000000000     0.000000000  0.131014796  0.000000000
     0.000000000  0.000000000 26.754991198     0.000000000  0.000000000  0.037376204

  length of vectors
     8.813512802  8.813512802 26.754991198     0.131014796  0.131014796  0.037376204

 FORCES acting on ions
    electron-ion (+dipol)            ewald-force                    non-local-force                 convergence-correction
   -.200E-04 -.165E-04 0.285E+04   0.519E-04 0.434E-04 -.285E+04   0.264E-17 0.667E-18 -.920E+00   -.175E-03 -.113E-03 -.344E+00
   0.609E+00 0.544E+00 0.285E+04   -.699E+00 -.585E+00 -.285E+04   0.403E-01 0.618E-01 -.292E+00   0.451E-01 -.124E-01 -.403E+00
   -.609E+00 0.544E+00 0.285E+04   0.699E+00 -.585E+00 -.285E+04   -.403E-01 0.618E-01 -.292E+00   -.448E-01 -.104E-01 -.403E+00
   0.776E+00 0.256E+00 0.285E+04   -.857E+00 -.313E+00 -.285E+04   0.737E-01 0.395E-02 -.292E+00   0.119E-01 0.452E-01 -.403E+00
   0.109E-04 -.219E-04 0.285E+04   0.951E-04 0.173E-05 -.285E+04   -.170E-17 -.626E-18 -.245E+00   0.427E-02 0.263E-02 -.423E+00
   -.776E+00 0.256E+00 0.285E+04   0.857E+00 -.313E+00 -.285E+04   -.737E-01 0.395E-02 -.292E+00   -.134E-01 0.462E-01 -.402E+00
   0.166E+00 -.800E+00 0.285E+04   -.157E+00 0.898E+00 -.285E+04   0.334E-01 -.658E-01 -.292E+00   -.314E-01 -.337E-01 -.403E+00
   -.166E+00 -.800E+00 0.285E+04   0.157E+00 0.898E+00 -.285E+04   -.334E-01 -.658E-01 -.292E+00   0.333E-01 -.347E-01 -.402E+00
   0.197E-04 -.414E-04 0.285E+04   0.166E-03 -.201E-04 -.285E+04   0.156E-17 0.102E-17 -.549E+00   -.464E-02 -.244E-02 -.392E+00
   0.578E+01 0.333E+01 0.100E+04   -.540E+01 -.312E+01 -.100E+04   -.286E+00 -.165E+00 -.590E+00   -.565E-01 -.324E-01 -.393E+00
   0.156E-04 0.734E+01 0.101E+04   0.147E-03 -.733E+01 -.101E+04   0.307E-08 0.461E-01 -.358E+00   0.365E-02 -.963E-01 -.425E+00
   -.578E+01 0.333E+01 0.100E+04   0.540E+01 -.312E+01 -.100E+04   0.286E+00 -.165E+00 -.590E+00   0.552E-01 -.312E-01 -.394E+00
   0.636E+01 -.367E+01 0.101E+04   -.635E+01 0.367E+01 -.101E+04   0.399E-01 -.231E-01 -.358E+00   -.815E-01 0.516E-01 -.424E+00
   -.636E+01 -.367E+01 0.101E+04   0.635E+01 0.367E+01 -.101E+04   -.399E-01 -.231E-01 -.358E+00   0.891E-01 0.514E-01 -.425E+00
   0.308E-04 0.272E+01 0.100E+04   0.237E-03 -.276E+01 -.100E+04   -.206E-08 -.309E-01 -.481E+00   -.217E-02 0.406E-01 -.382E+00
   -.214E-04 -.667E+01 0.100E+04   0.163E-03 0.623E+01 -.100E+04   0.220E-07 0.330E+00 -.590E+00   0.341E-03 0.634E-01 -.393E+00
   0.235E+01 -.136E+01 0.100E+04   -.239E+01 0.138E+01 -.100E+04   -.268E-01 0.154E-01 -.481E+00   0.343E-01 -.221E-01 -.383E+00
   -.235E+01 -.136E+01 0.100E+04   0.239E+01 0.138E+01 -.100E+04   0.268E-01 0.154E-01 -.481E+00   -.344E-01 -.203E-01 -.383E+00
   -.412E-04 0.339E+01 -.886E+03   0.531E-04 -.346E+01 0.885E+03   0.255E-08 0.384E-01 0.619E+00   0.344E-02 0.254E-01 -.198E+00
   0.406E+02 0.234E+02 -.822E+03   -.395E+02 -.228E+02 0.823E+03   -.940E+00 -.543E+00 -.101E+01   -.177E+00 -.101E+00 -.325E+00
   -.406E+02 0.234E+02 -.822E+03   0.395E+02 -.228E+02 0.823E+03   0.940E+00 -.543E+00 -.101E+01   0.177E+00 -.995E-01 -.325E+00
   0.134E+02 -.772E+01 -.868E+03   -.135E+02 0.780E+01 0.868E+03   0.290E+00 -.168E+00 0.534E+00   -.107E+00 0.560E-01 -.229E+00
   -.130E-04 -.469E+02 -.822E+03   0.144E-03 0.456E+02 0.823E+03   0.722E-07 0.109E+01 -.101E+01   0.168E-02 0.203E+00 -.325E+00
   -.134E+02 -.772E+01 -.868E+03   0.135E+02 0.780E+01 0.868E+03   -.290E+00 -.168E+00 0.534E+00   0.100E+00 0.572E-01 -.229E+00
   -.293E+01 -.169E+01 -.886E+03   0.300E+01 0.173E+01 0.885E+03   -.332E-01 -.192E-01 0.619E+00   -.148E-01 -.934E-02 -.199E+00
   0.293E+01 -.169E+01 -.886E+03   -.300E+01 0.173E+01 0.885E+03   0.332E-01 -.192E-01 0.619E+00   0.167E-01 -.100E-01 -.198E+00
   0.103E-04 0.154E+02 -.868E+03   0.196E-03 -.156E+02 0.868E+03   0.223E-07 0.335E+00 0.534E+00   -.451E-02 -.121E+00 -.229E+00
   -.148E-04 -.152E-04 -.275E+04   0.310E-04 0.363E-04 0.275E+04   0.123E-17 0.397E-18 0.299E+00   0.328E-03 -.314E-04 0.166E+00
   0.481E+02 0.810E+02 -.272E+04   -.480E+02 -.807E+02 0.271E+04   -.225E+00 -.351E+00 0.542E+00   -.776E-01 -.174E+00 0.179E+00
   -.481E+02 0.810E+02 -.272E+04   0.480E+02 -.807E+02 0.271E+04   0.225E+00 -.351E+00 0.542E+00   0.775E-01 -.172E+00 0.180E+00
   0.942E+02 0.120E+01 -.272E+04   -.939E+02 -.118E+01 0.271E+04   -.417E+00 -.187E-01 0.542E+00   -.190E+00 0.202E-01 0.178E+00
   -.942E+02 0.120E+01 -.272E+04   0.939E+02 -.118E+01 0.271E+04   0.417E+00 -.187E-01 0.542E+00   0.189E+00 0.216E-01 0.179E+00
   0.461E+02 -.822E+02 -.272E+04   -.459E+02 0.819E+02 0.271E+04   -.192E+00 0.370E+00 0.542E+00   -.111E+00 0.153E+00 0.180E+00
   -.461E+02 -.822E+02 -.272E+04   0.459E+02 0.819E+02 0.271E+04   0.192E+00 0.370E+00 0.542E+00   0.113E+00 0.152E+00 0.179E+00
   0.352E-04 -.258E-04 -.276E+04   0.141E-03 -.518E-04 0.276E+04   0.283E-17 0.729E-17 0.213E+00   -.475E-02 -.273E-02 0.150E+00
   -.216E-04 -.785E-05 -.189E+04   0.951E-04 0.891E-05 0.188E+04   -.160E-17 0.273E-17 0.198E+01   0.636E-02 0.402E-02 0.999E-01
   -.540E-05 -.780E-04 -.111E+04   0.185E-04 0.120E-05 0.109E+04   0.724E-18 0.179E-18 0.207E+02   0.132E-02 0.829E-03 0.254E+00
   0.246E-03 -.889E-04 -.181E+04   0.679E-05 0.646E-06 0.182E+04   0.384E-18 -.230E-19 -.697E+01   0.390E-02 0.240E-02 0.170E+00
   0.623E-05 -.143E-04 -.343E+03   0.307E-06 0.486E-07 0.352E+03   -.471E-20 -.620E-21 -.850E+01   0.204E-03 0.125E-03 0.157E-01
   -.498E-03 -.941E-03 0.416E+01   0.544E-13 0.149E-12 -.118E-10   -.809E-16 0.102E-16 0.369E+01   0.113E-01 0.103E-01 -.750E+01

 POSITION                                       TOTAL-FORCE (eV/Angst)
      0.00000      0.00000      5.28038         0.000000     -0.000000     -0.062810
      2.93784      0.00000      5.28038        -0.004169      0.009174     -0.031045
      5.87568      0.00000      5.28038         0.004169      0.009174     -0.031045
      1.46892      2.54424      5.28038         0.005860     -0.008198     -0.031045
      4.40676      2.54424      5.28038         0.000000     -0.000000     -0.047020
      7.34459      2.54424      5.28038        -0.005860     -0.008198     -0.031045
      2.93784      5.08848      5.28038         0.010030     -0.000976     -0.031045
      5.87568      5.08848      5.28038        -0.010030     -0.000976     -0.031045
      8.81351      5.08848      5.28038         0.000000     -0.000000     -0.040498
      1.46892      0.84808      7.67911         0.035759      0.020645      0.139088
      4.40676      0.84808      7.67911        -0.000000     -0.044521      0.031355
      7.34459      0.84808      7.67911        -0.035759      0.020645      0.139088
      2.93784      3.39232      7.67911        -0.038556      0.022260      0.031355
      5.87568      3.39232      7.67911         0.038556      0.022260      0.031355
      8.81351      3.39232      7.67911        -0.000000     -0.029961      0.112539
      4.40676      5.93656      7.67911        -0.000000     -0.041291      0.139088
      7.34459      5.93656      7.67911        -0.025947      0.014980      0.112539
     10.28243      5.93656      7.67911         0.025947      0.014980      0.112539
      8.81351      1.69524     10.07173        -0.000000     -0.016013     -0.021758
      2.95099      1.70376     10.05075        -0.031522     -0.018199     -0.143656
      5.86252      1.70376     10.05075         0.031522     -0.018199     -0.143656
     10.26977      4.24772     10.05674         0.054224     -0.031306     -0.017184
      4.40676      4.22522     10.05075         0.000000      0.036398     -0.143656
      7.35726      4.24772     10.05674        -0.054224     -0.031306     -0.017184
     11.75215      6.78511     10.07173         0.013868      0.008007     -0.021758
      5.87488      6.78511     10.07173        -0.013868      0.008007     -0.021758
      8.81351      6.77002     10.05674         0.000000      0.062613     -0.017184
      0.00000      0.00000     12.47665         0.000000     -0.000000     -0.000805
      2.97645      0.06424     12.45579        -0.135610     -0.278186     -0.073739
      5.83706      0.06424     12.45579         0.135610     -0.278186     -0.073739
      1.54386      2.54556     12.45579        -0.308722      0.021651     -0.073739
      7.26966      2.54556     12.45579         0.308722      0.021651     -0.073739
      2.97417      5.02293     12.45579        -0.173111      0.256535     -0.073739
      5.83935      5.02293     12.45579         0.173111      0.256535     -0.073739
      8.81351      5.08848     12.49078         0.000000     -0.000000     -0.066912
      4.40676      2.54424     12.15093         0.000000      0.000000      0.544325
      4.40676      2.54424     13.78851         0.000000      0.000000     -0.026991
      4.40676      2.54424     15.03358         0.000000      0.000000      0.015832
      4.40676      2.54424     15.99672         0.000000     -0.000000      0.012432
    total drift:                                0.010828      0.009380      0.347039

  FREE ENERGIE OF THE ION-ELECTRON SYSTEM (eV)
  free  energy   TOTEN  =      -130.22078659 eV

  energy  without entropy=     -130.22078659  energy(sigma->0) =     -130.22078659

 stress matrix after NEB project (eV)
    -19.01639     -0.00000     -0.00000
     -0.00000    -19.01638      0.00000
      0.00000      0.00000      2.64733
  FORCES: max atom, RMS     0.026991    0.005392
  FORCE total and by dimension    0.033671    0.026991
  Stress total and by dimension   27.023215   19.016385
|           W    W    AA    RRRRR   N    N  II  N    N   GGGG   !!!           |
|           W    W   A  A   R    R  NN   N  II  NN   N  G    G  !!!           |
|           W    W  A    A  R    R  N N  N  II  N N  N  G       !!!           |
|           W WW W  AAAAAA  RRRRR   N  N N  II  N  N N  G  GGG   !            |
|           WW  WW  A    A  R   R   N   NN  II  N   NN  G    G                |
|           W    W  A    A  R    R  N    N  II  N    N   GGGG   !!!           |
|     Tetrahedron method does not include variations of the Fermi             |
|     occupations, so forces and stress will be inaccurate. We suggest        |
|     using a different smearing scheme ISMEAR = 1 or 2 for metals in         |
|     relaxations.                                                            |

 total charge

# of ion       s       p       d       tot
    1        0.543   0.240   8.766   9.548
    2        0.545   0.241   8.764   9.550
    3        0.545   0.241   8.764   9.550
    4        0.545   0.241   8.764   9.550
    5        0.543   0.241   8.764   9.549
    6        0.545   0.241   8.764   9.550
    7        0.545   0.241   8.764   9.550
    8        0.545   0.241   8.764   9.550
    9        0.541   0.241   8.768   9.549
   10        0.520   0.307   8.772   9.599
   11        0.523   0.308   8.777   9.607
   12        0.520   0.307   8.772   9.599
   13        0.523   0.308   8.777   9.607
   14        0.523   0.308   8.777   9.607
   15        0.514   0.311   8.773   9.598
   16        0.520   0.307   8.772   9.599
   17        0.514   0.311   8.773   9.598
   18        0.514   0.311   8.773   9.598
   19        0.519   0.301   8.775   9.595
   20        0.543   0.329   8.756   9.628
   21        0.543   0.329   8.756   9.628
   22        0.513   0.312   8.771   9.596
   23        0.543   0.329   8.756   9.628
   24        0.513   0.312   8.771   9.596
   25        0.519   0.301   8.775   9.595
   26        0.519   0.301   8.775   9.595
   27        0.513   0.312   8.771   9.596
   28        0.541   0.228   8.768   9.537
   29        0.541   0.241   8.770   9.552
   30        0.541   0.241   8.770   9.552
   31        0.541   0.241   8.770   9.552
   32        0.541   0.241   8.770   9.552
   33        0.541   0.241   8.770   9.552
   34        0.541   0.241   8.770   9.552
   35        0.541   0.225   8.770   9.537
   36        0.427   0.536   7.472   8.435
   37        0.945   1.432   0.000   2.377
   38        1.532   3.763   0.000   5.295
   39        0.554   0.131   0.000   0.685
tot         22.077  15.538 314.382 351.997

 BZINTS: Fermi energy:    0.326264;  405.000000 electrons
         Band energy:-0.144575E+04;  BLOECHL correction:   -0.068799