 vasp.6.2.0 18Jan21 (build Jun 12 2021 23:27:24) complex

 executed on             LinuxIFC date 2022.05.30  16:10:52

 INCAR:
   ISMEAR = -5
   SIGMA = 0.1
   ISPIN = 1
   EDIFF = 1.d-5
   NSW = 0
   NELM = 150
   ENCUT = 500
   ISIF = 2
   IBRION = 2
   LREAL = Auto
   ALGO = Fast
   ICHARG = 11
   LORBIT = 10
   LCHARG = .F.
   LWAVE = .F.

 POTCAR:    PAW_PBE Au 04Oct2007
 POTCAR:    PAW_PBE Nb_sv 25May2007
 POTCAR:    PAW_PBE C 08Apr2002
 POTCAR:    PAW_PBE O 08Apr2002
 POTCAR:    PAW_PBE H 15Jun2001
|           W    W    AA    RRRRR   N    N  II  N    N   GGGG   !!!           |
|           W    W   A  A   R    R  NN   N  II  NN   N  G    G  !!!           |
|           W    W  A    A  R    R  N N  N  II  N N  N  G       !!!           |
|           W WW W  AAAAAA  RRRRR   N  N N  II  N  N N  G  GGG   !            |
|           WW  WW  A    A  R   R   N   NN  II  N   NN  G    G                |
|           W    W  A    A  R    R  N    N  II  N    N   GGGG   !!!           |
|     For optimal performance we recommend to set                             |
|       NCORE = 2 up to number-of-cores-per-socket                            |
|     This setting can greatly improve the performance of VASP for DFT.       |
|     The default, NCORE=1 might be grossly inefficient on modern             |
|     multi-core architectures or massively parallel machines. Do your        |
|     Unfortunately you need to use the default for GW and RPA                |
|     calculations (for HF NCORE is supported but not extensively tested      |
|     yet).                                                                   |

 POTCAR:    PAW_PBE Au 04Oct2007
   VRHFIN =Au: s1d10

   TITEL  = PAW_PBE Au 04Oct2007
   POMASS =  196.966; ZVAL   =   11.000    mass and valenz
   ENMAX  =  229.943; ENMIN  =  172.457 eV

 POTCAR:    PAW_PBE Nb_sv 25May2007
   VRHFIN =Nb: 4p5s4d

   TITEL  = PAW_PBE Nb_sv 25May2007
   POMASS =   92.910; ZVAL   =   13.000    mass and valenz
   ENMAX  =  293.235; ENMIN  =  219.927 eV

 POTCAR:    PAW_PBE C 08Apr2002
   VRHFIN =C: s2p2

   TITEL  = PAW_PBE C 08Apr2002
   POMASS =   12.011; ZVAL   =    4.000    mass and valenz
   ENMAX  =  400.000; ENMIN  =  300.000 eV

 POTCAR:    PAW_PBE O 08Apr2002
   VRHFIN =O: s2p4

   TITEL  = PAW_PBE O 08Apr2002
   POMASS =   16.000; ZVAL   =    6.000    mass and valenz
   ENMAX  =  400.000; ENMIN  =  300.000 eV

 POTCAR:    PAW_PBE H 15Jun2001
   VRHFIN =H: ultrasoft test

   TITEL  = PAW_PBE H 15Jun2001
   POMASS =    1.000; ZVAL   =    1.000    mass and valenz
   ENMAX  =  250.000; ENMIN  =  200.000 eV

 Optimization of the real space projectors (new method)

 maximal supplied QI-value         = 15.12
 optimisation between [QCUT,QGAM] = [ 11.34, 22.83] = [ 36.00,145.93] Ry
 Optimized for a Real-space Cutoff    1.39 Angstroem

   l    n(q)    QCUT    max X(q) W(low)/X(q) W(high)/X(q)  e(spline)
   2      9    11.338    60.898    0.39E-03    0.42E-03    0.21E-06
   2      9    11.338    58.894    0.40E-03    0.42E-03    0.22E-06
   0      9    11.338   109.617    0.13E-03    0.20E-04    0.13E-06
   0      9    11.338    75.026    0.13E-03    0.20E-04    0.13E-06
   1      9    11.338    16.344    0.33E-04    0.24E-03    0.18E-06
   1      9    11.338    10.160    0.26E-04    0.19E-03    0.15E-06
 Optimization of the real space projectors (new method)

[...]

   l    n(q)    QCUT    max X(q) W(low)/X(q) W(high)/X(q)  e(spline)
   0      7    11.387    20.381    0.39E-03    0.13E-02    0.15E-06
   0      7    11.387    15.268    0.42E-03    0.14E-02    0.17E-06
   1      6    11.387     5.964    0.41E-03    0.11E-02    0.17E-06
   1      6    11.387     5.382    0.39E-03    0.87E-03    0.15E-06
 Optimization of the real space projectors (new method)

 maximal supplied QI-value         = 34.20
 optimisation between [QCUT,QGAM] = [ 11.29, 22.57] = [ 35.68,142.71] Ry
 Optimized for a Real-space Cutoff    1.16 Angstroem

   l    n(q)    QCUT    max X(q) W(low)/X(q) W(high)/X(q)  e(spline)
   0      8    11.287    19.460    0.40E-03    0.73E-03    0.16E-06
   0      8    11.287    12.209    0.38E-03    0.70E-03    0.15E-06
   1      7    11.287     4.655    0.22E-03    0.25E-04    0.22E-06
  PAW_PBE Au 04Oct2007                  :
  PAW_PBE Nb_sv 25May2007               :
  PAW_PBE C 08Apr2002                   :
  PAW_PBE O 08Apr2002                   :
  PAW_PBE H 15Jun2001                   :

 POSCAR: Au-Nb-COH
  positions in direct lattice
  velocities in cartesian coordinates
 exchange correlation table for  LEXCH =        8
   RHO(1)=    0.500       N(1)  =     2000
   RHO(2)=  100.500       N(2)  =     4000

 VTST: version 3.2, (02/03/18)

 CHAIN: initializing optimizer

 OPT: Using VASP Conjugate-Gradient optimizer
 CHAIN: Read ICHAIN            0

 POSCAR: Au-Nb-COH
  positions in direct lattice
  velocities in cartesian coordinates

 ion  position               nearest neighbor table
   1  0.000  0.000  0.197-  16 2.94  12 2.94   6 2.94   8 2.94   7 2.94   3 2.94  10 2.94   4 2.94
                             2 2.94
   2  0.333  0.000  0.197-   9 2.94  11 2.94  17 2.94  10 2.94   8 2.94   4 2.94   5 2.94   1 2.94
                             3 2.94
   3  0.667  0.000  0.197-   7 2.94  18 2.94  12 2.94   1 2.94  11 2.94   5 2.94   6 2.94   9 2.94
                             2 2.94
   4  0.000  0.333  0.197-  10 2.94   6 2.94   5 2.94  13 2.94   2 2.94  15 2.94   9 2.94   1 2.94
                             7 2.94
   5  0.333  0.333  0.197-  13 2.94   7 2.94  11 2.94   4 2.94   2 2.94  14 2.94   3 2.94   8 2.94
                             6 2.94
   6  0.667  0.333  0.197-  15 2.94  14 2.94   1 2.94  12 2.94   4 2.94   9 2.94   8 2.94   3 2.94
                             5 2.94
   7  0.000  0.667  0.197-  18 2.94   3 2.94  16 2.94   5 2.94   1 2.94  13 2.94   8 2.94   4 2.94
                             9 2.94
   8  0.333  0.667  0.197-   9 2.94  17 2.94   1 2.94   2 2.94  14 2.94  16 2.94   6 2.94   7 2.94
                             5 2.94
   9  0.667  0.667  0.197-   2 2.94   8 2.94  17 2.94   6 2.94  15 2.94   4 2.94   3 2.94  18 2.94
                             7 2.94
  10  0.111  0.111  0.287-  20 2.91  11 2.94  17 2.94   2 2.94   4 2.94   1 2.94  12 2.94  16 2.94
                            13 2.94  15 2.94  26 2.95  19 2.95
  11  0.444  0.111  0.287-  20 2.91  21 2.91  13 2.94   2 2.94  10 2.94  17 2.94   5 2.94   3 2.94
                            18 2.94  14 2.94  12 2.94  27 2.94
  12  0.778  0.111  0.287-  21 2.91  16 2.94  18 2.94   1 2.94  14 2.94  15 2.94   3 2.94   6 2.94
                            10 2.94  11 2.94  25 2.95  19 2.95
  13  0.111  0.444  0.287-  23 2.91  20 2.91   5 2.94  18 2.94  11 2.94   7 2.94   4 2.94  16 2.94
                            10 2.94  14 2.94  15 2.94  22 2.94
  14  0.444  0.444  0.287-  21 2.91  23 2.91  15 2.94   6 2.94  12 2.94   8 2.94  17 2.94   5 2.94
                            16 2.94  13 2.94  11 2.94  24 2.94
  15  0.778  0.444  0.287-  24 2.93  22 2.93  14 2.94   6 2.94  17 2.94  12 2.94   9 2.94   4 2.94
                            10 2.94  13 2.94  18 2.94  19 2.94
  16  0.111  0.778  0.287-  23 2.91  18 2.94  12 2.94   7 2.94   1 2.94   8 2.94  13 2.94  10 2.94
                            14 2.94  17 2.94  25 2.95  26 2.95
  17  0.444  0.778  0.287-  27 2.93  24 2.93   9 2.94  15 2.94   2 2.94  10 2.94  11 2.94   8 2.94
                            14 2.94  16 2.94  18 2.94  26 2.94
  18  0.778  0.778  0.287-  22 2.93  27 2.93  16 2.94   7 2.94  13 2.94  12 2.94   3 2.94  11 2.94
                             9 2.94  15 2.94  17 2.94  25 2.94
  19  0.889  0.223  0.377-  24 2.93  22 2.93  21 2.94  20 2.94  15 2.94  26 2.94  25 2.94  10 2.95
                            12 2.95  28 2.95  32 3.04  31 3.04
  20  0.222  0.222  0.376-  36 2.78  10 2.91  11 2.91  13 2.91  26 2.94  19 2.94  23 2.94  21 2.94
                            27 2.95  22 2.95  29 2.99  31 2.99
  21  0.556  0.222  0.376-  36 2.78  12 2.91  14 2.91  11 2.91  25 2.94  19 2.94  20 2.94  23 2.94
                            27 2.95  24 2.95  30 2.99  32 2.99
  22  0.887  0.557  0.376-  24 2.91  27 2.91  18 2.93  15 2.93  25 2.93  19 2.93  13 2.94  23 2.95
                            20 2.95  35 2.96  33 3.02  31 3.02
  23  0.222  0.556  0.376-  36 2.78  16 2.91  13 2.91  14 2.91  25 2.94  26 2.94  20 2.94  21 2.94
                            22 2.95  24 2.95  33 2.99  34 2.99
  24  0.557  0.557  0.376-  27 2.91  22 2.91  15 2.93  17 2.93  26 2.93  19 2.93  14 2.94  21 2.95
                            23 2.95  35 2.96  32 3.02  34 3.02
  25  0.889  0.889  0.377-  22 2.93  27 2.93  23 2.94  21 2.94  18 2.94  19 2.94  26 2.94  16 2.95
                            12 2.95  28 2.95  33 3.04  30 3.04
  26  0.223  0.889  0.377-  27 2.93  24 2.93  20 2.94  23 2.94  17 2.94  19 2.94  25 2.94  10 2.95
                            16 2.95  28 2.95  29 3.04  34 3.04
  27  0.557  0.887  0.376-  24 2.91  22 2.91  17 2.93  18 2.93  26 2.93  25 2.93  11 2.94  20 2.95
                            21 2.95  35 2.96  29 3.02  30 3.02
  28  0.000  0.000  0.467-  25 2.95  19 2.95  26 2.95  34 2.98  32 2.98  33 2.98  30 2.98  31 2.98
                            29 2.98
  29  0.334  0.009  0.469-  30 2.85  31 2.86  36 2.87  35 2.98  28 2.98  20 2.99  27 3.02  26 3.04
                            34 3.10
  30  0.657  0.009  0.469-  29 2.85  32 2.86  36 2.87  35 2.98  28 2.98  21 2.99  27 3.02  25 3.04
                            33 3.10
  31  0.009  0.334  0.469-  33 2.85  29 2.86  36 2.87  35 2.98  28 2.98  20 2.99  22 3.02  19 3.04
                            32 3.10
  32  0.657  0.334  0.469-  34 2.85  30 2.86  36 2.87  35 2.98  28 2.98  21 2.99  24 3.02  19 3.04
                            31 3.10
  33  0.009  0.657  0.469-  31 2.85  34 2.86  36 2.87  35 2.98  28 2.98  23 2.99  22 3.02  25 3.04
                            30 3.10
  34  0.334  0.657  0.469-  32 2.85  33 2.86  36 2.87  35 2.98  28 2.98  23 2.99  24 3.02  26 3.04
                            29 3.10
  35  0.667  0.667  0.467-  24 2.96  27 2.96  22 2.96  29 2.98  34 2.98  32 2.98  31 2.98  30 2.98
                            33 2.98
  36  0.333  0.333  0.458-  37 1.92  20 2.78  23 2.78  21 2.78  33 2.87  31 2.87  29 2.87  30 2.87
                            34 2.87  32 2.87
  37  0.333  0.333  0.529-  38 1.26  36 1.92
  38  0.333  0.333  0.577-  39 0.96  37 1.26
  39  0.333  0.333  0.612-  38 0.96

  LATTYP: Found a hexagonal cell.
 ALAT       =     8.8135128021
 C/A-ratio  =     3.0356784858

  Lattice vectors:

 A1 = (  -4.4067569092,  -7.6327256898,   0.0000000000)
 A2 = (   8.8135128021,   0.0000000000,   0.0000000000)
 A3 = (   0.0000000000,   0.0000000000,  26.7549911976)

Analysis of symmetry for initial positions (statically):
 Subroutine PRICEL returns:
 Original cell was already a primitive cell.

 Routine SETGRP: Setting up the symmetry group for a
 hexagonal supercell.

 Subroutine GETGRP returns: Found  6 space group operations
 (whereof  6 operations were pure point group operations)
 out of a pool of 24 trial point group operations.

The static configuration has the point symmetry C_3v.

Analysis of symmetry for dynamics (positions and initial velocities):
[...]
     41      -5.1001      2.00000
     42      -5.0820      2.00000
     43      -5.0731      2.00000
     44      -5.0292      2.00000
     45      -5.0167      2.00000
     46      -4.8778      2.00000
     47      -4.8637      2.00000
     48      -4.8068      2.00000
     49      -4.7611      2.00000
     50      -4.7397      2.00000
     51      -4.7049      2.00000
     52      -4.6844      2.00000
     53      -4.6511      2.00000
     54      -4.6367      2.00000
     55      -4.5465      2.00000
     56      -4.5163      2.00000
     57      -4.5060      2.00000
     58      -4.4703      2.00000
     59      -4.4664      2.00000
     60      -4.4610      2.00000
[...]
    238       4.8016      0.00000
    239       4.9690      0.00000
    240       4.9967      0.00000
    241       5.0654      0.00000
    242       5.3270      0.00000
    243       5.3590      0.00000
    244       5.5295      0.00000
    245       5.6401      0.00000
    246       5.7741      0.00000
    247       5.9742      0.00000
    248       5.9894      0.00000
    249       6.0184      0.00000
    250       6.1642      0.00000
    251       6.1909      0.00000
    252       6.2275      0.00000

 soft charge-density along one line, spin component           1
         0         1         2         3         4         5         6         7         8         9
 total charge-density along one line

------------------------ aborting loop because EDIFF is reached ----------------------------------------

 total charge

# of ion       s       p       d       tot
    1        0.544   0.237   8.770   9.552
    2        0.544   0.241   8.764   9.549
    3        0.544   0.241   8.764   9.549
    4        0.544   0.241   8.764   9.549
    5        0.547   0.242   8.759   9.547
    6        0.544   0.241   8.764   9.549
    7        0.544   0.241   8.764   9.549
    8        0.544   0.241   8.764   9.549
    9        0.541   0.240   8.770   9.551
   10        0.523   0.307   8.769   9.600
   11        0.525   0.306   8.777   9.608
   12        0.523   0.307   8.769   9.600
   13        0.525   0.306   8.777   9.608
   14        0.525   0.306   8.777   9.608
   15        0.515   0.309   8.774   9.598
   16        0.523   0.307   8.769   9.600
   17        0.515   0.309   8.774   9.598
   18        0.515   0.309   8.774   9.598
   19        0.518   0.296   8.770   9.584
   20        0.567   0.333   8.742   9.642
   21        0.567   0.333   8.742   9.642
   22        0.507   0.306   8.776   9.590
   23        0.567   0.333   8.742   9.642
   24        0.507   0.306   8.776   9.590
   25        0.518   0.296   8.770   9.584
   26        0.518   0.296   8.770   9.584
   27        0.507   0.306   8.776   9.590
   28        0.541   0.229   8.762   9.532
   29        0.577   0.247   8.743   9.567
   30        0.577   0.247   8.743   9.567
   31        0.577   0.247   8.743   9.567
   32        0.577   0.247   8.743   9.567
   33        0.577   0.247   8.743   9.567
   34        0.577   0.247   8.743   9.567
   35        0.543   0.230   8.757   9.530
   36        2.180   6.029   2.420  10.629
   37        0.938   1.425   0.000   2.364
   38        1.523   3.766   0.000   5.289
   39        0.564   0.137   0.000   0.701
tot         24.111  21.038 309.107 354.256

  FORCE on cell =-STRESS in cart. coord.  units (eV):
  Direction    XX          YY          ZZ          XY          YZ          ZX
  Alpha Z   878.73791   878.73791   878.73791
  Ewald  189560.91318189560.91368************    -0.00031    -0.00008    -0.00011
  Hartree198361.69031198361.69033************     0.00002    -0.00002    -0.00003
  E(xc)   -1834.98645 -1834.98657 -1840.23262     0.00010    -0.00001    -0.00001
  Local  ************************400050.08584     0.00211    -0.00001    -0.00004
  n-local  -101.97545   -58.07034   -57.13478    22.14888    -1.54873     1.55319
  augment  2389.90231  2389.90385  2408.66860    -0.00133     0.00000     0.00003
  Kinetic  5797.40576  5806.82555  5815.36379     5.59142     0.23021     0.35651
  Fock        0.00000     0.00000     0.00000     0.00000     0.00000     0.00000
  Total     -20.24044   -20.24044     3.38249    -0.00000     0.00000     0.00000
  in kB     -18.01760   -18.01760     3.01102    -0.00000     0.00000     0.00000

 VOLUME and BASIS-vectors are now :
  energy-cutoff  :      500.00
  volume of cell :     1799.84
      direct lattice vectors                 reciprocal lattice vectors
     8.813512802  0.000000000  0.000000000     0.113462137 -0.065507406  0.000000000
     4.406756909  7.632725690  0.000000000     0.000000000  0.131014796  0.000000000
     0.000000000  0.000000000 26.754991198     0.000000000  0.000000000  0.037376204

  length of vectors
     8.813512802  8.813512802 26.754991198     0.131014796  0.131014796  0.037376204

 FORCES acting on ions
    electron-ion (+dipol)            ewald-force                    non-local-force                 convergence-correction
   -.202E-04 -.166E-04 0.286E+04   0.520E-04 0.435E-04 -.286E+04   0.150E-16 0.206E-17 -.862E+00   -.240E-03 -.152E-03 -.293E+00
   0.854E+00 0.740E+00 0.286E+04   -.901E+00 -.956E+00 -.286E+04   0.474E-01 0.117E+00 -.233E+00   0.963E-02 0.105E+00 -.275E+00
   -.854E+00 0.740E+00 0.286E+04   0.901E+00 -.956E+00 -.286E+04   -.474E-01 0.117E+00 -.233E+00   -.931E-02 0.107E+00 -.275E+00
   0.107E+01 0.369E+00 0.286E+04   -.128E+01 -.303E+00 -.286E+04   0.125E+00 -.176E-01 -.233E+00   0.956E-01 -.441E-01 -.275E+00
   0.109E-04 -.222E-04 0.286E+04   0.951E-04 0.173E-05 -.286E+04   -.254E-17 0.108E-17 0.501E-01   0.428E-02 0.261E-02 -.191E+00
   -.107E+01 0.369E+00 0.286E+04   0.128E+01 -.303E+00 -.286E+04   -.125E+00 -.176E-01 -.233E+00   -.971E-01 -.432E-01 -.274E+00
   0.214E+00 -.111E+01 0.286E+04   -.377E+00 0.126E+01 -.286E+04   0.778E-01 -.997E-01 -.233E+00   0.878E-01 -.614E-01 -.274E+00
   -.214E+00 -.111E+01 0.286E+04   0.377E+00 0.126E+01 -.286E+04   -.778E-01 -.997E-01 -.233E+00   -.859E-01 -.625E-01 -.274E+00
   0.198E-04 -.413E-04 0.286E+04   0.166E-03 -.202E-04 -.286E+04   -.139E-18 0.177E-17 -.579E+00   -.459E-02 -.237E-02 -.266E+00
   0.917E+01 0.530E+01 0.102E+04   -.895E+01 -.517E+01 -.102E+04   -.350E+00 -.202E+00 -.592E+00   0.905E-01 0.521E-01 -.353E-01
   0.165E-04 0.102E+02 0.104E+04   0.147E-03 -.104E+02 -.104E+04   0.424E-08 0.637E-01 -.179E+00   0.402E-02 0.532E-01 -.117E-01
   -.917E+01 0.530E+01 0.102E+04   0.895E+01 -.517E+01 -.102E+04   0.350E+00 -.202E+00 -.592E+00   -.920E-01 0.533E-01 -.354E-01
   0.887E+01 -.512E+01 0.104E+04   -.901E+01 0.520E+01 -.104E+04   0.551E-01 -.318E-01 -.179E+00   0.484E-01 -.229E-01 -.117E-01
   -.887E+01 -.512E+01 0.104E+04   0.901E+01 0.520E+01 -.104E+04   -.551E-01 -.318E-01 -.179E+00   -.408E-01 -.237E-01 -.125E-01
   0.305E-04 0.247E+01 0.103E+04   0.236E-03 -.246E+01 -.102E+04   0.115E-08 0.172E-01 -.494E+00   -.231E-02 -.754E-01 -.566E-01
   -.213E-04 -.106E+02 0.102E+04   0.163E-03 0.103E+02 -.102E+04   0.269E-07 0.404E+00 -.592E+00   -.664E-04 -.106E+00 -.354E-01
   0.214E+01 -.123E+01 0.103E+04   -.213E+01 0.123E+01 -.102E+04   0.149E-01 -.860E-02 -.494E+00   -.662E-01 0.361E-01 -.566E-01
   -.214E+01 -.123E+01 0.103E+04   0.213E+01 0.123E+01 -.102E+04   -.149E-01 -.860E-02 -.494E+00   0.665E-01 0.381E-01 -.560E-01
   -.433E-04 0.352E+01 -.863E+03   0.512E-04 -.359E+01 0.862E+03   0.501E-08 0.752E-01 0.723E+00   -.680E-03 0.634E-02 0.152E+00
   0.614E+02 0.355E+02 -.757E+03   -.606E+02 -.350E+02 0.757E+03   -.113E+01 -.650E+00 -.133E+01   0.102E+00 0.588E-01 0.215E+00
   -.614E+02 0.355E+02 -.757E+03   0.606E+02 -.350E+02 0.757E+03   0.113E+01 -.650E+00 -.133E+01   -.101E+00 0.593E-01 0.215E+00
   0.171E+02 -.989E+01 -.839E+03   -.177E+02 0.102E+02 0.838E+03   0.451E+00 -.260E+00 0.660E+00   0.150E+00 -.865E-01 0.140E+00
   -.104E-04 -.709E+02 -.757E+03   0.145E-03 0.700E+02 0.757E+03   0.865E-07 0.130E+01 -.133E+01   0.480E-03 -.117E+00 0.215E+00
   -.171E+02 -.989E+01 -.839E+03   0.177E+02 0.102E+02 0.838E+03   -.451E+00 -.260E+00 0.660E+00   -.151E+00 -.869E-01 0.140E+00
   -.305E+01 -.176E+01 -.863E+03   0.310E+01 0.179E+01 0.862E+03   -.651E-01 -.376E-01 0.723E+00   -.509E-02 -.300E-02 0.152E+00
   0.305E+01 -.176E+01 -.863E+03   -.311E+01 0.179E+01 0.862E+03   0.651E-01 -.376E-01 0.723E+00   0.547E-02 -.373E-02 0.152E+00
   0.144E-04 0.198E+02 -.839E+03   0.193E-03 -.204E+02 0.838E+03   0.346E-07 0.520E+00 0.660E+00   -.324E-03 0.173E+00 0.140E+00
   -.191E-04 -.161E-04 -.270E+04   0.323E-04 0.382E-04 0.270E+04   0.145E-17 -.114E-18 0.296E+00   -.140E-03 -.101E-03 0.247E+00
   0.752E+02 0.125E+03 -.271E+04   -.744E+02 -.124E+03 0.271E+04   -.103E+01 -.161E+01 0.738E-01   0.806E-01 0.137E+00 0.170E+00
   -.752E+02 0.125E+03 -.271E+04   0.744E+02 -.124E+03 0.271E+04   0.103E+01 -.161E+01 0.738E-01   -.803E-01 0.139E+00 0.170E+00
   0.146E+03 0.251E+01 -.271E+04   -.145E+03 -.242E+01 0.271E+04   -.191E+01 -.860E-01 0.738E-01   0.159E+00 0.111E-02 0.170E+00
   -.146E+03 0.251E+01 -.271E+04   0.145E+03 -.242E+01 0.271E+04   0.191E+01 -.860E-01 0.738E-01   -.161E+00 0.190E-02 0.170E+00
   0.709E+02 -.128E+03 -.271E+04   -.702E+02 0.126E+03 0.271E+04   -.878E+00 0.169E+01 0.738E-01   0.804E-01 -.139E+00 0.170E+00
   -.709E+02 -.128E+03 -.271E+04   0.702E+02 0.126E+03 0.271E+04   0.878E+00 0.169E+01 0.738E-01   -.788E-01 -.140E+00 0.170E+00
   0.339E-04 -.230E-04 -.271E+04   0.139E-03 -.539E-04 0.271E+04   -.667E-17 -.191E-17 0.329E+00   -.451E-02 -.231E-02 0.297E+00
   0.269E-03 -.148E-03 -.278E+04   0.135E-03 0.122E-04 0.278E+04   -.745E-18 0.185E-17 -.350E+01   0.742E-02 0.453E-02 0.276E+00
   0.354E-05 -.813E-04 -.111E+04   0.141E-04 0.916E-06 0.109E+04   0.229E-17 -.106E-17 0.215E+02   0.129E-02 0.789E-03 -.516E-01
   0.248E-03 -.904E-04 -.177E+04   0.455E-05 0.481E-06 0.178E+04   0.960E-18 0.932E-18 -.483E+01   0.389E-02 0.238E-02 -.690E-01
   0.641E-05 -.147E-04 -.336E+03   0.197E-06 0.361E-07 0.344E+03   -.926E-19 -.151E-19 -.872E+01   0.206E-03 0.126E-03 -.881E-02
   -.209E-03 -.107E-02 0.809E+00   -.354E-13 0.110E-12 0.184E-10   0.329E-15 -.222E-15 -.873E+00   0.169E-01 0.107E-01 0.523E+00

 POSITION                                       TOTAL-FORCE (eV/Angst)
      0.00000      0.00000      5.28038         0.000000      0.000000     -0.130220
      2.93784      0.00000      5.28038         0.009902      0.007776     -0.061189
      5.87568      0.00000      5.28038        -0.009902      0.007776     -0.061189
      1.46892      2.54424      5.28038         0.011685      0.004687     -0.061189
      4.40676      2.54424      5.28038         0.000000      0.000000     -0.107429
      7.34459      2.54424      5.28038        -0.011685      0.004687     -0.061189
      2.93784      5.08848      5.28038         0.001784     -0.012463     -0.061189
      5.87568      5.08848      5.28038        -0.001784     -0.012463     -0.061189
      8.81351      5.08848      5.28038         0.000000      0.000000     -0.071352
      1.46892      0.84808      7.67911        -0.031640     -0.018267      0.111876
      4.40676      0.84808      7.67911        -0.000000     -0.045313      0.048183
      7.34459      0.84808      7.67911         0.031640     -0.018267      0.111876
      2.93784      3.39232      7.67911        -0.039242      0.022656      0.048183
      5.87568      3.39232      7.67911         0.039242      0.022656      0.048183
      8.81351      3.39232      7.67911        -0.000000     -0.047614      0.137667
      4.40676      5.93656      7.67911         0.000000      0.036535      0.111876
      7.34459      5.93656      7.67911        -0.041235      0.023807      0.137667
     10.28243      5.93656      7.67911         0.041235      0.023807      0.137667
      8.81351      1.70030     10.08698         0.000000      0.016598      0.085186
      2.93503      1.69454     10.04736        -0.220072     -0.127059     -0.315740
      5.87848      1.69454     10.04736         0.220072     -0.127059     -0.315740
     10.26776      4.24887     10.06889         0.033971     -0.019613      0.056354
      4.40676      4.24365     10.04736         0.000000      0.254117     -0.315740
      7.35926      4.24887     10.06889        -0.033971     -0.019613      0.056354
     11.74777      6.78258     10.08698        -0.014374     -0.008299      0.085186
      5.87926      6.78258     10.08698         0.014374     -0.008299      0.085186
      8.81351      6.76771     10.06889         0.000000      0.039226      0.056354
      0.00000      0.00000     12.49943         0.000000      0.000000     -0.141633
      2.98194      0.07009     12.55649        -0.101678     -0.188148     -0.119811
      5.83157      0.07009     12.55649         0.101678     -0.188148     -0.119811
      1.55167      2.54739     12.55649        -0.213780      0.006018     -0.119811
      7.26184      2.54739     12.55649         0.213780      0.006018     -0.119811
      2.97649      5.01524     12.55649        -0.112102      0.182130     -0.119811
      5.83702      5.01524     12.55649         0.112102      0.182130     -0.119811
      8.81351      5.08848     12.50498         0.000000     -0.000000     -0.074805
      4.40676      2.54424     12.24418         0.000000     -0.000000      1.176042
      4.40676      2.54424     14.16542         0.000000      0.000000      0.017299
      4.40676      2.54424     15.42449         0.000000      0.000000      0.050746
      4.40676      2.54424     16.38129         0.000000     -0.000000     -0.003219
    total drift:                                0.016685      0.009619      0.460281

  FREE ENERGIE OF THE ION-ELECTRON SYSTEM (eV)
  free  energy   TOTEN  =      -134.24978251 eV

  energy  without entropy=     -134.24978251  energy(sigma->0) =     -134.24978251

 stress matrix after NEB project (eV)
    -20.24044     -0.00000      0.00000
     -0.00000    -20.24044      0.00000
      0.00000      0.00000      3.38249
  FORCES: max atom, RMS     0.050746    0.008601
  FORCE total and by dimension    0.053710    0.050746
  Stress total and by dimension   28.823462   20.240439
|           W    W    AA    RRRRR   N    N  II  N    N   GGGG   !!!           |
|           W    W   A  A   R    R  NN   N  II  NN   N  G    G  !!!           |
|           W    W  A    A  R    R  N N  N  II  N N  N  G       !!!           |
|           W WW W  AAAAAA  RRRRR   N  N N  II  N  N N  G  GGG   !            |
|           WW  WW  A    A  R   R   N   NN  II  N   NN  G    G                |
|           W    W  A    A  R    R  N    N  II  N    N   GGGG   !!!           |
|     Tetrahedron method does not include variations of the Fermi             |
|     occupations, so forces and stress will be inaccurate. We suggest        |
|     using a different smearing scheme ISMEAR = 1 or 2 for metals in         |
|     relaxations.                                                            |

 total charge

# of ion       s       p       d       tot
    1        0.544   0.237   8.770   9.552
    2        0.544   0.241   8.764   9.549
    3        0.544   0.241   8.764   9.549
    4        0.544   0.241   8.764   9.549
    5        0.547   0.242   8.759   9.547
    6        0.544   0.241   8.764   9.549
    7        0.544   0.241   8.764   9.549
    8        0.544   0.241   8.764   9.549
    9        0.541   0.240   8.770   9.551
   10        0.523   0.307   8.769   9.600
   11        0.525   0.306   8.777   9.608
   12        0.523   0.307   8.769   9.600
   13        0.525   0.306   8.777   9.608
   14        0.525   0.306   8.777   9.608
   15        0.515   0.309   8.774   9.598
   16        0.523   0.307   8.769   9.600
   17        0.515   0.309   8.774   9.598
   18        0.515   0.309   8.774   9.598
   19        0.518   0.296   8.770   9.584
   20        0.567   0.333   8.742   9.642
   21        0.567   0.333   8.742   9.642
   22        0.507   0.306   8.776   9.590
   23        0.567   0.333   8.742   9.642
   24        0.507   0.306   8.776   9.590
   25        0.518   0.296   8.770   9.584
   26        0.518   0.296   8.770   9.584
   27        0.507   0.306   8.776   9.590
   28        0.541   0.229   8.762   9.532
   29        0.577   0.247   8.743   9.567
   30        0.577   0.247   8.743   9.567
   31        0.577   0.247   8.743   9.567
   32        0.577   0.247   8.743   9.567
   33        0.577   0.247   8.743   9.567
   34        0.577   0.247   8.743   9.567
   35        0.543   0.230   8.757   9.530
   36        2.180   6.029   2.420  10.629
   37        0.938   1.425   0.000   2.364
   38        1.523   3.766   0.000   5.289
   39        0.564   0.137   0.000   0.701
tot         24.111  21.038 309.107 354.256

 BZINTS: Fermi energy:    0.341446;  409.000000 electrons
         Band energy:-0.174084E+04;  BLOECHL correction:   -0.056496