 vasp.6.2.0 18Jan21 (build Jun 12 2021 23:27:24) complex

 executed on             LinuxIFC date 2022.05.30  18:32:58

 INCAR:
   ISMEAR = -5
   SIGMA = 0.1
   ISPIN = 1
   EDIFF = 1.d-5
   EDIFFG = -0.01
   NSW = 0
   NELM = 150
   ENCUT = 500
   ISIF = 2
   IBRION = 2
   LREAL = Auto
   ALGO = Fast
   ICHARG = 11
   LORBIT = 10
   LCHARG = .F.
   LWAVE = .F.

 POTCAR:    PAW_PBE Cu 22Jun2005
 POTCAR:    PAW_PBE Ta 17Jan2003
 POTCAR:    PAW_PBE C 08Apr2002
 POTCAR:    PAW_PBE O 08Apr2002
 POTCAR:    PAW_PBE H 15Jun2001
|           W    W    AA    RRRRR   N    N  II  N    N   GGGG   !!!           |
|           W    W   A  A   R    R  NN   N  II  NN   N  G    G  !!!           |
|           W    W  A    A  R    R  N N  N  II  N N  N  G       !!!           |
|           W WW W  AAAAAA  RRRRR   N  N N  II  N  N N  G  GGG   !            |
|           WW  WW  A    A  R   R   N   NN  II  N   NN  G    G                |
|           W    W  A    A  R    R  N    N  II  N    N   GGGG   !!!           |
|     For optimal performance we recommend to set                             |
|       NCORE = 2 up to number-of-cores-per-socket                            |
|     This setting can greatly improve the performance of VASP for DFT.       |
|     The default, NCORE=1 might be grossly inefficient on modern             |
|     multi-core architectures or massively parallel machines. Do your        |
|     Unfortunately you need to use the default for GW and RPA                |
|     calculations (for HF NCORE is supported but not extensively tested      |
|     yet).                                                                   |

 POTCAR:    PAW_PBE Cu 22Jun2005
   VRHFIN =Cu: d10 p1

   TITEL  = PAW_PBE Cu 22Jun2005
   POMASS =   63.546; ZVAL   =   11.000    mass and valenz
   ENMAX  =  295.446; ENMIN  =  221.585 eV

 POTCAR:    PAW_PBE Ta 17Jan2003
   VRHFIN =Ta:  6s5d

   TITEL  = PAW_PBE Ta 17Jan2003
   POMASS =  180.948; ZVAL   =    5.000    mass and valenz
   ENMAX  =  223.667; ENMIN  =  167.750 eV

 POTCAR:    PAW_PBE C 08Apr2002
   VRHFIN =C: s2p2

   TITEL  = PAW_PBE C 08Apr2002
   POMASS =   12.011; ZVAL   =    4.000    mass and valenz
   ENMAX  =  400.000; ENMIN  =  300.000 eV

 POTCAR:    PAW_PBE O 08Apr2002
   VRHFIN =O: s2p4

   TITEL  = PAW_PBE O 08Apr2002
   POMASS =   16.000; ZVAL   =    6.000    mass and valenz
   ENMAX  =  400.000; ENMIN  =  300.000 eV

 POTCAR:    PAW_PBE H 15Jun2001
   VRHFIN =H: ultrasoft test

   TITEL  = PAW_PBE H 15Jun2001
   POMASS =    1.000; ZVAL   =    1.000    mass and valenz
   ENMAX  =  250.000; ENMIN  =  200.000 eV

 Optimization of the real space projectors (new method)

 maximal supplied QI-value         = 16.25
 optimisation between [QCUT,QGAM] = [ 11.38, 22.75] = [ 36.24,144.96] Ry
 Optimized for a Real-space Cutoff    1.52 Angstroem

   l    n(q)    QCUT    max X(q) W(low)/X(q) W(high)/X(q)  e(spline)
   2      9    11.376     4.610    0.21E-03    0.10E-03    0.26E-06
   2      9    11.376     8.522    0.33E-03    0.16E-03    0.37E-06
   0     10    11.376    51.609    0.62E-04    0.20E-04    0.13E-06
   0     10    11.376    27.747    0.54E-04    0.20E-04    0.13E-06
   1     10    11.376    20.408    0.13E-04    0.99E-04    0.19E-06
   1     10    11.376    13.425    0.12E-04    0.87E-04    0.17E-06
 Optimization of the real space projectors (new method)

[...]

   l    n(q)    QCUT    max X(q) W(low)/X(q) W(high)/X(q)  e(spline)
   0      7    11.387    20.381    0.39E-03    0.13E-02    0.15E-06
   0      7    11.387    15.268    0.42E-03    0.14E-02    0.17E-06
   1      6    11.387     5.964    0.41E-03    0.11E-02    0.17E-06
   1      6    11.387     5.382    0.39E-03    0.87E-03    0.15E-06
 Optimization of the real space projectors (new method)

 maximal supplied QI-value         = 34.20
 optimisation between [QCUT,QGAM] = [ 11.29, 22.57] = [ 35.68,142.71] Ry
 Optimized for a Real-space Cutoff    1.16 Angstroem

   l    n(q)    QCUT    max X(q) W(low)/X(q) W(high)/X(q)  e(spline)
   0      8    11.287    19.460    0.40E-03    0.73E-03    0.16E-06
   0      8    11.287    12.209    0.38E-03    0.70E-03    0.15E-06
   1      7    11.287     4.655    0.22E-03    0.25E-04    0.22E-06
  PAW_PBE Cu 22Jun2005                  :
  PAW_PBE Ta 17Jan2003                  :
  PAW_PBE C 08Apr2002                   :
  PAW_PBE O 08Apr2002                   :
  PAW_PBE H 15Jun2001                   :

 POSCAR: Cu-Ta-COH
  positions in direct lattice
  velocities in cartesian coordinates
 exchange correlation table for  LEXCH =        8
   RHO(1)=    0.500       N(1)  =     2000
   RHO(2)=  100.500       N(2)  =     4000

 VTST: version 3.2, (02/03/18)

 CHAIN: initializing optimizer

 OPT: Using VASP Conjugate-Gradient optimizer
 CHAIN: Read ICHAIN            0

 POSCAR: Cu-Ta-COH
  positions in direct lattice
  velocities in cartesian coordinates

 ion  position               nearest neighbor table
   1  0.000  0.000  0.206-   7 2.57   3 2.57   4 2.57   2 2.57   6 2.57   8 2.57  12 2.57  10 2.57
                            16 2.57
   2  0.333  0.000  0.206-   8 2.57   9 2.57   5 2.57   1 2.57   3 2.57  11 2.57   4 2.57  10 2.57
                            17 2.57
   3  0.667  0.000  0.206-   1 2.57   7 2.57   6 2.57   9 2.57   2 2.57  12 2.57   5 2.57  18 2.57
                            11 2.57
   4  0.000  0.333  0.206-   5 2.57   6 2.57   1 2.57   7 2.57   2 2.57  13 2.57   9 2.57  10 2.57
                            15 2.57
   5  0.333  0.333  0.206-   4 2.57   2 2.57   7 2.57  13 2.57   8 2.57   6 2.57   3 2.57  11 2.57
                            14 2.57
   6  0.667  0.333  0.206-   4 2.57   9 2.57  15 2.57   3 2.57   1 2.57   8 2.57  14 2.57   5 2.57
                            12 2.57
   7  0.000  0.667  0.206-   1 2.57   3 2.57  16 2.57  18 2.57   4 2.57   5 2.57   8 2.57   9 2.57
                            13 2.57
   8  0.333  0.667  0.206-   9 2.57   2 2.57  17 2.57   6 2.57   1 2.57   7 2.57   5 2.57  14 2.57
                            16 2.57
   9  0.667  0.667  0.206-   8 2.57   6 2.57   2 2.57  17 2.57   3 2.57   7 2.57   4 2.57  15 2.57
                            18 2.57
  10  0.111  0.111  0.286-  20 2.55  26 2.56  19 2.56  11 2.57  12 2.57  13 2.57   1 2.57   2 2.57
                             4 2.57  15 2.57  16 2.57  17 2.57
  11  0.444  0.111  0.286-  20 2.56  21 2.56  10 2.57  13 2.57   2 2.57  17 2.57  14 2.57  12 2.57
                             5 2.57   3 2.57  18 2.57  27 2.57
  12  0.778  0.111  0.286-  21 2.55  19 2.56  25 2.56  15 2.57  10 2.57  14 2.57  18 2.57   3 2.57
                             1 2.57  16 2.57  11 2.57   6 2.57
  13  0.111  0.444  0.286-  23 2.56  20 2.56  16 2.57  18 2.57  10 2.57  11 2.57  14 2.57   5 2.57
                             4 2.57   7 2.57  15 2.57  22 2.57
  14  0.444  0.444  0.286-  21 2.56  23 2.56  15 2.57  17 2.57  12 2.57  16 2.57  13 2.57  11 2.57
                             6 2.57   8 2.57   5 2.57  24 2.57
  15  0.778  0.444  0.286-  19 2.56  14 2.57  17 2.57  12 2.57   6 2.57  18 2.57  10 2.57   9 2.57
                            13 2.57   4 2.57  24 2.57  22 2.57
  16  0.111  0.778  0.286-  23 2.55  25 2.56  26 2.56  18 2.57  13 2.57   7 2.57  14 2.57  17 2.57
                            12 2.57  10 2.57   8 2.57   1 2.57
  17  0.444  0.778  0.286-  26 2.56  14 2.57  15 2.57   8 2.57   9 2.57  11 2.57  16 2.57  18 2.57
                            10 2.57   2 2.57  27 2.57  24 2.57
  18  0.778  0.778  0.286-  25 2.56  16 2.57  13 2.57   7 2.57  15 2.57  12 2.57  17 2.57   9 2.57
                             3 2.57  11 2.57  22 2.57  27 2.57
  19  0.889  0.222  0.366-  12 2.56  10 2.56  15 2.56  21 2.56  20 2.56  25 2.56  26 2.56  22 2.57
                            24 2.57  28 2.57  32 2.59  31 2.59
  20  0.222  0.222  0.365-  10 2.55  11 2.56  13 2.56  26 2.56  19 2.56  27 2.57  22 2.57  23 2.58
                            21 2.58  36 2.61  29 2.61  31 2.61
  21  0.557  0.222  0.365-  12 2.55  14 2.56  11 2.56  19 2.56  25 2.56  24 2.57  27 2.57  20 2.58
                            23 2.58  36 2.61  32 2.61  30 2.61
  22  0.888  0.556  0.366-  24 2.56  27 2.56  19 2.57  25 2.57  23 2.57  20 2.57  18 2.57  15 2.57
                            35 2.57  13 2.57  31 2.59  33 2.59
  23  0.222  0.557  0.365-  16 2.55  13 2.56  14 2.56  25 2.56  26 2.56  22 2.57  24 2.57  20 2.58
                            21 2.58  36 2.61  33 2.61  34 2.61
  24  0.556  0.556  0.366-  22 2.56  27 2.56  19 2.57  26 2.57  21 2.57  23 2.57  15 2.57  17 2.57
                            35 2.57  14 2.57  32 2.59  34 2.59
  25  0.889  0.889  0.366-  12 2.56  16 2.56  18 2.56  21 2.56  23 2.56  19 2.56  26 2.56  22 2.57
                            27 2.57  28 2.57  33 2.59  30 2.59
  26  0.222  0.889  0.366-  10 2.56  16 2.56  17 2.56  20 2.56  23 2.56  25 2.56  19 2.56  27 2.57
                            24 2.57  28 2.57  29 2.59  34 2.59
  27  0.556  0.888  0.366-  24 2.56  22 2.56  26 2.57  25 2.57  20 2.57  21 2.57  17 2.57  18 2.57
                            35 2.57  11 2.57  29 2.59  30 2.59
  28  0.000  0.000  0.446-  33 2.55  30 2.55  31 2.55  29 2.55  32 2.55  34 2.55  25 2.57  19 2.57
                            26 2.57
  29  0.333  0.997  0.447-  34 2.52  35 2.55  28 2.55  31 2.59  27 2.59  36 2.59  30 2.59  26 2.59
                            20 2.61
  30  0.670  0.997  0.447-  33 2.52  35 2.55  28 2.55  32 2.59  27 2.59  36 2.59  29 2.59  25 2.59
                            21 2.61
  31  0.997  0.333  0.447-  32 2.52  35 2.55  28 2.55  29 2.59  22 2.59  36 2.59  33 2.59  19 2.59
                            20 2.61
  32  0.670  0.333  0.447-  31 2.52  35 2.55  28 2.55  30 2.59  24 2.59  36 2.59  34 2.59  19 2.59
                            21 2.61
  33  0.997  0.670  0.447-  30 2.52  35 2.55  28 2.55  34 2.59  22 2.59  36 2.59  31 2.59  25 2.59
                            23 2.61
  34  0.333  0.670  0.447-  29 2.52  35 2.55  28 2.55  33 2.59  24 2.59  36 2.59  32 2.59  26 2.59
                            23 2.61
  35  0.667  0.667  0.447-  34 2.55  32 2.55  29 2.55  30 2.55  33 2.55  31 2.55  24 2.57  27 2.57
                            22 2.57
  36  0.333  0.333  0.447-  37 1.94  31 2.59  29 2.59  33 2.59  34 2.59  32 2.59  30 2.59  23 2.61
                            20 2.61  21 2.61
  37  0.333  0.333  0.522-  38 1.27  36 1.94
  38  0.333  0.333  0.570-  39 0.96  37 1.27
  39  0.333  0.333  0.607-  38 0.96

  LATTYP: Found a hexagonal cell.
 ALAT       =     7.6967864036
 C/A-ratio  =     3.3950614187

  Lattice vectors:

 A1 = (  -3.8483927580,  -6.6656128093,   0.0000000000)
 A2 = (   7.6967864037,   0.0000000000,   0.0000000000)
 A3 = (   0.0000000000,   0.0000000000,  26.1310625667)

Analysis of symmetry for initial positions (statically):
 Subroutine PRICEL returns:
 Original cell was already a primitive cell.

 Routine SETGRP: Setting up the symmetry group for a
 hexagonal supercell.

 Subroutine GETGRP returns: Found  6 space group operations
 (whereof  6 operations were pure point group operations)
 out of a pool of 24 trial point group operations.

The static configuration has the point symmetry C_3v.

Analysis of symmetry for dynamics (positions and initial velocities):
[...]
     41      -4.1281      2.00000
     42      -3.9804      2.00000
     43      -3.9740      2.00000
     44      -3.9197      2.00000
     45      -3.9025      2.00000
     46      -3.8855      2.00000
     47      -3.8725      2.00000
     48      -3.8623      2.00000
     49      -3.8539      2.00000
     50      -3.8491      2.00000
     51      -3.6923      2.00000
     52      -3.6599      2.00000
     53      -3.6511      2.00000
     54      -3.6367      2.00000
     55      -3.5946      2.00000
     56      -3.5808      2.00000
     57      -3.5696      2.00000
     58      -3.5568      2.00000
     59      -3.5512      2.00000
     60      -3.5430      2.00000
[...]
    238       5.2187      0.00000
    239       5.4517      0.00000
    240       5.5367      0.00000
    241       5.5497      0.00000
    242       5.5651      0.00000
    243       5.6719      0.00000
    244       5.7292      0.00000
    245       5.8786      0.00000
    246       5.9240      0.00000
    247       5.9265      0.00000
    248       6.0639      0.00000
    249       6.3316      0.00000
    250       6.3451      0.00000
    251       6.8415      0.00000
    252       6.8947      0.00000

 soft charge-density along one line, spin component           1
         0         1         2         3         4         5         6         7         8         9
 total charge-density along one line

------------------------ aborting loop because EDIFF is reached ----------------------------------------

 total charge

# of ion       s       p       d       tot
    1        0.449   0.283   9.191   9.922
    2        0.447   0.286   9.187   9.920
    3        0.447   0.286   9.187   9.920
    4        0.447   0.286   9.187   9.920
    5        0.451   0.286   9.182   9.919
    6        0.447   0.286   9.187   9.920
    7        0.447   0.286   9.187   9.920
    8        0.447   0.286   9.187   9.920
    9        0.448   0.284   9.190   9.922
   10        0.443   0.371   9.176   9.991
   11        0.445   0.365   9.182   9.991
   12        0.443   0.371   9.176   9.991
   13        0.445   0.365   9.182   9.991
   14        0.445   0.365   9.182   9.991
   15        0.438   0.371   9.176   9.985
   16        0.443   0.371   9.176   9.991
   17        0.438   0.371   9.176   9.985
   18        0.438   0.371   9.176   9.985
   19        0.441   0.368   9.178   9.987
   20        0.465   0.394   9.163  10.023
   21        0.465   0.394   9.163  10.023
   22        0.429   0.371   9.180   9.980
   23        0.465   0.394   9.163  10.023
   24        0.429   0.371   9.180   9.980
   25        0.441   0.368   9.178   9.987
   26        0.441   0.368   9.178   9.987
   27        0.429   0.371   9.180   9.980
   28        0.446   0.294   9.185   9.925
   29        0.474   0.314   9.167   9.955
   30        0.474   0.314   9.167   9.955
   31        0.474   0.314   9.167   9.955
   32        0.474   0.314   9.167   9.955
   33        0.474   0.314   9.167   9.955
   34        0.474   0.314   9.167   9.955
   35        0.446   0.295   9.184   9.925
   36        0.728   0.821   3.508   5.057
   37        0.930   1.419   0.000   2.349
   38        1.520   3.761   0.000   5.281
   39        0.569   0.139   0.000   0.707
tot         19.494  17.900 324.731 362.125

  FORCE on cell =-STRESS in cart. coord.  units (eV):
  Direction    XX          YY          ZZ          XY          YZ          ZX
  Alpha Z   743.00001   743.00001   743.00001
  Ewald  264902.59730264902.59695************     0.00037     0.00014     0.00016
  Hartree277743.51936277743.51938************     0.00002     0.00007     0.00005
  E(xc)   -2316.72896 -2316.72854 -2321.26474    -0.00037    -0.00003    -0.00005
  Local  ************************555264.02728     0.01888    -0.00063    -0.00095
  n-local  -789.74657  -777.47094  -797.54250     6.59836    -0.13224     0.30427
  augment  3316.94792  3316.96824  3339.69133    -0.01759     0.00031     0.00047
  Kinetic  3398.16695  3400.24520  3374.69337     2.85844     1.80012    -1.18565
  Fock        0.00000     0.00000     0.00000     0.00000     0.00000     0.00000
  Total      -4.23495    -4.23495     1.10623     0.00000     0.00000    -0.00000
  in kB      -5.06118    -5.06118     1.32205     0.00000     0.00000    -0.00000

 VOLUME and BASIS-vectors are now :
  energy-cutoff  :      500.00
  volume of cell :     1340.62
      direct lattice vectors                 reciprocal lattice vectors
     7.696786404  0.000000000  0.000000000     0.129924354 -0.075011849  0.000000000
     3.848392758  6.665612809  0.000000000     0.000000000  0.150023716  0.000000000
     0.000000000  0.000000000 26.131062567     0.000000000  0.000000000  0.038268631

  length of vectors
     7.696786404  7.696786404 26.131062567     0.150023716  0.150023716  0.038268631

 FORCES acting on ions
    electron-ion (+dipol)            ewald-force                    non-local-force                 convergence-correction
   -.435E-04 -.939E-06 0.390E+04   0.581E-04 -.426E-05 -.390E+04   -.319E-17 -.292E-17 -.253E+01   -.364E-03 -.176E-03 0.197E-01
   -.989E+00 -.917E+00 0.390E+04   0.814E+00 0.628E+00 -.390E+04   0.123E+00 0.221E+00 -.180E+01   0.646E-01 0.797E-01 0.118E-01
   0.989E+00 -.917E+00 0.390E+04   -.814E+00 0.628E+00 -.390E+04   -.123E+00 0.221E+00 -.180E+01   -.637E-01 0.822E-01 0.128E-01
   -.129E+01 -.399E+00 0.390E+04   0.950E+00 0.391E+00 -.390E+04   0.253E+00 -.455E-02 -.180E+01   0.101E+00 0.160E-01 0.120E-01
   -.688E-04 -.763E-05 0.390E+04   0.116E-03 -.101E-04 -.390E+04   -.892E-18 -.102E-17 -.118E+01   0.121E-01 0.742E-02 0.832E-01
   0.129E+01 -.398E+00 0.390E+04   -.951E+00 0.391E+00 -.390E+04   -.253E+00 -.455E-02 -.180E+01   -.103E+00 0.171E-01 0.130E-01
   -.299E+00 0.132E+01 0.390E+04   0.137E+00 -.102E+01 -.390E+04   0.130E+00 -.217E+00 -.180E+01   0.393E-01 -.963E-01 0.131E-01
   0.299E+00 0.132E+01 0.390E+04   -.137E+00 -.102E+01 -.390E+04   -.130E+00 -.217E+00 -.180E+01   -.360E-01 -.977E-01 0.129E-01
   -.145E-03 -.336E-04 0.390E+04   0.263E-03 0.204E-04 -.390E+04   0.277E-17 0.681E-19 -.233E+01   -.131E-01 -.679E-02 0.137E-01
   -.549E+01 -.317E+01 0.133E+04   0.582E+01 0.336E+01 -.133E+04   -.432E+00 -.249E+00 -.983E+00   0.768E-01 0.447E-01 0.277E+00
   -.905E-04 -.638E+01 0.131E+04   0.190E-03 0.615E+01 -.131E+04   -.164E-07 0.247E+00 -.199E+00   0.120E-01 -.145E-01 0.308E+00
   0.549E+01 -.317E+01 0.133E+04   -.582E+01 0.336E+01 -.133E+04   0.432E+00 -.249E+00 -.983E+00   -.786E-01 0.450E-01 0.276E+00
   -.553E+01 0.319E+01 0.131E+04   0.532E+01 -.307E+01 -.131E+04   0.214E+00 -.123E+00 -.199E+00   -.635E-02 0.186E-01 0.308E+00
   0.553E+01 0.319E+01 0.131E+04   -.532E+01 -.307E+01 -.131E+04   -.214E+00 -.123E+00 -.199E+00   0.294E-01 0.167E-01 0.305E+00
   -.139E-03 -.205E+01 0.132E+04   0.296E-03 0.194E+01 -.132E+04   -.877E-08 0.132E+00 -.102E+01   -.292E-02 -.253E-01 0.233E+00
   -.920E-04 0.634E+01 0.133E+04   0.187E-03 -.672E+01 -.133E+04   -.332E-07 0.499E+00 -.983E+00   -.125E-02 -.918E-01 0.277E+00
   -.178E+01 0.103E+01 0.132E+04   0.168E+01 -.972E+00 -.132E+04   0.114E+00 -.658E-01 -.102E+01   -.226E-01 0.963E-02 0.232E+00
   0.178E+01 0.103E+01 0.132E+04   -.168E+01 -.972E+00 -.132E+04   -.114E+00 -.658E-01 -.102E+01   0.245E-01 0.122E-01 0.235E+00
   -.676E-04 -.820E+01 -.124E+04   0.722E-04 0.815E+01 0.124E+04   -.277E-08 0.416E-01 0.115E+01   0.901E-03 0.312E-01 0.711E-01
   -.607E+02 -.351E+02 -.132E+04   0.614E+02 0.355E+02 0.132E+04   -.945E+00 -.546E+00 -.405E+00   0.309E-01 0.187E-01 0.600E-01
   0.607E+02 -.351E+02 -.132E+04   -.614E+02 0.355E+02 0.132E+04   0.945E+00 -.546E+00 -.405E+00   -.515E-01 0.148E-01 0.586E-01
   -.315E+02 0.182E+02 -.126E+04   0.309E+02 -.178E+02 0.126E+04   0.509E+00 -.294E+00 0.731E+00   0.150E+00 -.736E-01 0.289E-01
   -.889E-04 0.701E+02 -.132E+04   0.152E-03 -.709E+02 0.132E+04   -.727E-07 0.109E+01 -.405E+00   -.143E-01 -.525E-01 0.585E-01
   0.315E+02 0.182E+02 -.126E+04   -.309E+02 -.178E+02 0.126E+04   -.509E+00 -.294E+00 0.731E+00   -.126E+00 -.746E-01 0.294E-01
   0.710E+01 0.410E+01 -.124E+04   -.706E+01 -.407E+01 0.124E+04   -.360E-01 -.208E-01 0.115E+01   -.278E-01 -.170E-01 0.713E-01
   -.710E+01 0.410E+01 -.124E+04   0.706E+01 -.407E+01 0.124E+04   0.360E-01 -.208E-01 0.115E+01   0.467E-02 -.151E-01 0.712E-01
   -.124E-03 -.364E+02 -.126E+04   0.239E-03 0.356E+02 0.126E+04   -.392E-07 0.588E+00 0.731E+00   0.127E-01 0.166E+00 0.291E-01
   -.442E-04 0.133E-04 -.374E+04   0.435E-04 -.316E-04 0.374E+04   0.304E-17 -.859E-18 0.188E+01   -.175E-02 -.122E-02 0.234E+00
   -.415E+02 -.770E+02 -.374E+04   0.418E+02 0.773E+02 0.374E+04   -.451E+00 -.560E+00 0.129E+01   0.855E-01 0.168E+00 0.285E+00
   0.415E+02 -.770E+02 -.374E+04   -.418E+02 0.773E+02 0.374E+04   0.451E+00 -.560E+00 0.129E+01   -.628E-01 0.168E+00 0.283E+00
   -.875E+02 0.256E+01 -.374E+04   0.879E+02 -.243E+01 0.374E+04   -.710E+00 -.110E+00 0.129E+01   0.188E+00 -.979E-02 0.284E+00
   0.875E+02 0.256E+01 -.374E+04   -.879E+02 -.243E+01 0.374E+04   0.710E+00 -.110E+00 0.129E+01   -.166E+00 -.923E-02 0.285E+00
   -.460E+02 0.745E+02 -.374E+04   0.461E+02 -.749E+02 0.374E+04   -.259E+00 0.670E+00 0.129E+01   0.115E+00 -.139E+00 0.283E+00
   0.460E+02 0.745E+02 -.374E+04   -.461E+02 -.749E+02 0.374E+04   0.259E+00 0.670E+00 0.129E+01   -.906E-01 -.139E+00 0.285E+00
   -.144E-03 -.232E-04 -.376E+04   0.250E-03 0.458E-06 0.376E+04   0.161E-17 0.401E-17 0.226E+01   -.137E-01 -.742E-02 0.285E+00
   -.285E-04 -.601E-05 -.161E+04   0.604E-04 0.127E-04 0.162E+04   0.174E-17 -.614E-18 -.208E+01   -.340E-03 -.122E-03 0.153E+00
   -.699E-05 -.729E-04 -.140E+04   0.864E-05 0.435E-05 0.138E+04   -.105E-18 -.117E-18 0.213E+02   0.734E-03 0.462E-03 -.278E-01
   0.228E-03 -.716E-04 -.219E+04   0.182E-05 0.196E-05 0.220E+04   -.206E-18 -.454E-18 -.350E+01   0.326E-02 0.200E-02 -.132E+00
   0.313E-05 -.143E-04 -.398E+03   0.548E-07 0.130E-06 0.406E+03   0.233E-19 0.490E-20 -.874E+01   0.171E-03 0.105E-03 -.225E-01
   -.108E-03 -.190E-03 -.526E+01   -.385E-13 -.232E-13 0.273E-10   0.281E-15 0.336E-15 -.131E+00   0.694E-01 0.486E-01 0.532E+01

 POSITION                                       TOTAL-FORCE (eV/Angst)
      0.00000      0.00000      5.37156         0.000000      0.000000     -0.032373
      2.56560      0.00000      5.37156         0.012058      0.013159      0.059819
      5.13119      0.00000      5.37156        -0.012058      0.013159      0.059819
      1.28280      2.22187      5.37156         0.017425      0.003863      0.059819
      3.84839      2.22187      5.37156         0.000000      0.000000      0.049679
      6.41399      2.22187      5.37156        -0.017425      0.003863      0.059819
      2.56560      4.44374      5.37156         0.005367     -0.017022      0.059819
      5.13119      4.44374      5.37156        -0.005367     -0.017022      0.059819
      7.69679      4.44374      5.37156         0.000000      0.000000      0.017858
      1.28280      0.74062      7.46636        -0.024847     -0.014345     -0.088942
      3.84839      0.74062      7.46636         0.000000     -0.011544     -0.051705
      6.41399      0.74062      7.46636         0.024847     -0.014345     -0.088942
      2.56560      2.96249      7.46636        -0.009998      0.005772     -0.051705
      5.13119      2.96249      7.46636         0.009998      0.005772     -0.051705
      7.69679      2.96249      7.46636         0.000000     -0.001726     -0.009339
      3.84839      5.18437      7.46636        -0.000000      0.028691     -0.088942
      6.41399      5.18437      7.46636        -0.001494      0.000863     -0.009339
      8.97958      5.18437      7.46636         0.001494      0.000863     -0.009339
      7.69679      1.48082      9.55187        -0.000000      0.014020      0.099236
      2.55960      1.47778      9.55047        -0.237013     -0.136839     -0.321727
      5.13719      1.47778      9.55047         0.237013     -0.136839     -0.321727
      8.97653      3.70488      9.56926         0.029386     -0.016966      0.052575
      3.84839      3.71005      9.55047        -0.000000      0.273679     -0.321727
      6.41705      3.70488      9.56926        -0.029386     -0.016966      0.052575
     10.26275      5.92520      9.55187        -0.012142     -0.007010      0.099236
      5.13082      5.92520      9.55187         0.012142     -0.007010      0.099236
      7.69679      5.92146      9.56926        -0.000000      0.033932      0.052575
      0.00000      0.00000     11.65662         0.000000      0.000000     -0.102705
      6.40243      6.64574     11.69071        -0.054615     -0.096865      0.020551
      8.99114      6.64574     11.69071         0.054615     -0.096865      0.020551
      8.95659      2.22180     11.69071        -0.111195      0.001134      0.020551
      6.43698      2.22180     11.69071         0.111195      0.001134      0.020551
     10.25095      4.46369     11.69071        -0.056580      0.095730      0.020551
      5.14262      4.46369     11.69071         0.056580      0.095730      0.020551
      7.69679      4.44374     11.67656        -0.000000      0.000000     -0.115514
      3.84839      2.22187     11.69355         0.000000      0.000000      0.666951
      3.84839      2.22187     13.63763         0.000000      0.000000      0.022691
      3.84839      2.22187     14.90697         0.000000      0.000000     -0.037222
      3.84839      2.22187     15.86217         0.000000      0.000000      0.008116
    total drift:                                0.069331      0.048361     -0.073650

  FREE ENERGIE OF THE ION-ELECTRON SYSTEM (eV)
  free  energy   TOTEN  =      -150.55605006 eV

  energy  without entropy=     -150.55605006  energy(sigma->0) =     -150.55605006

 stress matrix after NEB project (eV)
     -4.23495      0.00000     -0.00000
      0.00000     -4.23495      0.00000
      0.00000      0.00000      1.10623
  FORCES: max atom, RMS     0.037222    0.007101
  FORCE total and by dimension    0.044343    0.037222
  Stress total and by dimension    6.090425    4.234946
|           W    W    AA    RRRRR   N    N  II  N    N   GGGG   !!!           |
|           W    W   A  A   R    R  NN   N  II  NN   N  G    G  !!!           |
|           W    W  A    A  R    R  N N  N  II  N N  N  G       !!!           |
|           W WW W  AAAAAA  RRRRR   N  N N  II  N  N N  G  GGG   !            |
|           WW  WW  A    A  R   R   N   NN  II  N   NN  G    G                |
|           W    W  A    A  R    R  N    N  II  N    N   GGGG   !!!           |
|     Tetrahedron method does not include variations of the Fermi             |
|     occupations, so forces and stress will be inaccurate. We suggest        |
|     using a different smearing scheme ISMEAR = 1 or 2 for metals in         |
|     relaxations.                                                            |

 total charge

# of ion       s       p       d       tot
    1        0.449   0.283   9.191   9.922
    2        0.447   0.286   9.187   9.920
    3        0.447   0.286   9.187   9.920
    4        0.447   0.286   9.187   9.920
    5        0.451   0.286   9.182   9.919
    6        0.447   0.286   9.187   9.920
    7        0.447   0.286   9.187   9.920
    8        0.447   0.286   9.187   9.920
    9        0.448   0.284   9.190   9.922
   10        0.443   0.371   9.176   9.991
   11        0.445   0.365   9.182   9.991
   12        0.443   0.371   9.176   9.991
   13        0.445   0.365   9.182   9.991
   14        0.445   0.365   9.182   9.991
   15        0.438   0.371   9.176   9.985
   16        0.443   0.371   9.176   9.991
   17        0.438   0.371   9.176   9.985
   18        0.438   0.371   9.176   9.985
   19        0.441   0.368   9.178   9.987
   20        0.465   0.394   9.163  10.023
   21        0.465   0.394   9.163  10.023
   22        0.429   0.371   9.180   9.980
   23        0.465   0.394   9.163  10.023
   24        0.429   0.371   9.180   9.980
   25        0.441   0.368   9.178   9.987
   26        0.441   0.368   9.178   9.987
   27        0.429   0.371   9.180   9.980
   28        0.446   0.294   9.185   9.925
   29        0.474   0.314   9.167   9.955
   30        0.474   0.314   9.167   9.955
   31        0.474   0.314   9.167   9.955
   32        0.474   0.314   9.167   9.955
   33        0.474   0.314   9.167   9.955
   34        0.474   0.314   9.167   9.955
   35        0.446   0.295   9.184   9.925
   36        0.728   0.821   3.508   5.057
   37        0.930   1.419   0.000   2.349
   38        1.520   3.761   0.000   5.281
   39        0.569   0.139   0.000   0.707
tot         19.494  17.900 324.731 362.125

 BZINTS: Fermi energy:   -0.150179;  401.000000 electrons
         Band energy:-0.129883E+04;  BLOECHL correction:   -0.043540