 vasp.6.2.0 18Jan21 (build Jun 12 2021 23:27:24) complex

 executed on             LinuxIFC date 2022.05.28  02:47:30

 INCAR:
   ISMEAR = -5
   SIGMA = 0.1
   ISPIN = 1
   EDIFF = 1.d-5
   EDIFFG = -0.01
   NSW = 0
   NELM = 150
   ENCUT = 500
   ISIF = 2
   IBRION = 2
   LREAL = Auto
   ALGO = Fast
   ICHARG = 11
   LORBIT = 10
   LCHARG = .F.
   LWAVE = .F.

 POTCAR:    PAW_PBE Cu 22Jun2005
 POTCAR:    PAW_PBE Re 17Jan2003
 POTCAR:    PAW_PBE C 08Apr2002
 POTCAR:    PAW_PBE O 08Apr2002
|           W    W    AA    RRRRR   N    N  II  N    N   GGGG   !!!           |
|           W    W   A  A   R    R  NN   N  II  NN   N  G    G  !!!           |
|           W    W  A    A  R    R  N N  N  II  N N  N  G       !!!           |
|           W WW W  AAAAAA  RRRRR   N  N N  II  N  N N  G  GGG   !            |
|           WW  WW  A    A  R   R   N   NN  II  N   NN  G    G                |
|           W    W  A    A  R    R  N    N  II  N    N   GGGG   !!!           |
|     For optimal performance we recommend to set                             |
|       NCORE = 2 up to number-of-cores-per-socket                            |
|     This setting can greatly improve the performance of VASP for DFT.       |
|     The default, NCORE=1 might be grossly inefficient on modern             |
|     multi-core architectures or massively parallel machines. Do your        |
|     Unfortunately you need to use the default for GW and RPA                |
|     calculations (for HF NCORE is supported but not extensively tested      |
|     yet).                                                                   |

 POTCAR:    PAW_PBE Cu 22Jun2005
   VRHFIN =Cu: d10 p1

   TITEL  = PAW_PBE Cu 22Jun2005
   POMASS =   63.546; ZVAL   =   11.000    mass and valenz
   ENMAX  =  295.446; ENMIN  =  221.585 eV

 POTCAR:    PAW_PBE Re 17Jan2003
   VRHFIN =Re: 5p6s5d

   TITEL  = PAW_PBE Re 17Jan2003
   POMASS =  186.207; ZVAL   =    7.000    mass and valenz
   ENMAX  =  226.216; ENMIN  =  169.662 eV

 POTCAR:    PAW_PBE C 08Apr2002
   VRHFIN =C: s2p2

   TITEL  = PAW_PBE C 08Apr2002
   POMASS =   12.011; ZVAL   =    4.000    mass and valenz
   ENMAX  =  400.000; ENMIN  =  300.000 eV

 POTCAR:    PAW_PBE O 08Apr2002
   VRHFIN =O: s2p4

   TITEL  = PAW_PBE O 08Apr2002
   POMASS =   16.000; ZVAL   =    6.000    mass and valenz
   ENMAX  =  400.000; ENMIN  =  300.000 eV

 Optimization of the real space projectors (new method)

 maximal supplied QI-value         = 16.25
 optimisation between [QCUT,QGAM] = [ 11.38, 22.75] = [ 36.24,144.96] Ry
 Optimized for a Real-space Cutoff    1.52 Angstroem

   l    n(q)    QCUT    max X(q) W(low)/X(q) W(high)/X(q)  e(spline)
   2      9    11.376     4.610    0.21E-03    0.10E-03    0.26E-06
   2      9    11.376     8.522    0.33E-03    0.16E-03    0.37E-06
   0     10    11.376    51.609    0.62E-04    0.20E-04    0.13E-06
   0     10    11.376    27.747    0.54E-04    0.20E-04    0.13E-06
   1     10    11.376    20.408    0.13E-04    0.99E-04    0.19E-06
   1     10    11.376    13.425    0.12E-04    0.87E-04    0.17E-06
 Optimization of the real space projectors (new method)

[...]

   l    n(q)    QCUT    max X(q) W(low)/X(q) W(high)/X(q)  e(spline)
   0      7    11.310   115.676    0.43E-03    0.13E-02    0.19E-06
   0      7    11.310    87.132    0.43E-03    0.13E-02    0.18E-06
   1      6    11.310     4.429    0.42E-03    0.74E-03    0.11E-06
   1      6    11.310     2.733    0.34E-03    0.55E-03    0.92E-07
 Optimization of the real space projectors (new method)

 maximal supplied QI-value         = 24.76
 optimisation between [QCUT,QGAM] = [ 11.39, 22.77] = [ 36.31,145.25] Ry
 Optimized for a Real-space Cutoff    1.00 Angstroem

   l    n(q)    QCUT    max X(q) W(low)/X(q) W(high)/X(q)  e(spline)
   0      7    11.387    20.381    0.39E-03    0.13E-02    0.15E-06
   0      7    11.387    15.268    0.42E-03    0.14E-02    0.17E-06
   1      6    11.387     5.964    0.41E-03    0.11E-02    0.17E-06
   1      6    11.387     5.382    0.39E-03    0.87E-03    0.15E-06
  PAW_PBE Cu 22Jun2005                  :
  PAW_PBE Re 17Jan2003                  :
  PAW_PBE C 08Apr2002                   :
  PAW_PBE O 08Apr2002                   :

 POSCAR: Cu-Re-CO2
  positions in direct lattice
  velocities in cartesian coordinates
 exchange correlation table for  LEXCH =        8
   RHO(1)=    0.500       N(1)  =     2000
   RHO(2)=  100.500       N(2)  =     4000

 VTST: version 3.2, (02/03/18)

 CHAIN: initializing optimizer

 OPT: Using VASP Conjugate-Gradient optimizer
 CHAIN: Read ICHAIN            0

 POSCAR: Cu-Re-CO2
  positions in direct lattice
  velocities in cartesian coordinates

 ion  position               nearest neighbor table
   1  0.000  0.000  0.229-   7 2.57   3 2.57   4 2.57   2 2.57   6 2.57   8 2.57  12 2.57  10 2.57
                            16 2.57
   2  0.333  0.000  0.229-   8 2.57   9 2.57   5 2.57   1 2.57   3 2.57  11 2.57   4 2.57  10 2.57
                            17 2.57
   3  0.667  0.000  0.229-   1 2.57   7 2.57   6 2.57   9 2.57   2 2.57  12 2.57   5 2.57  18 2.57
                            11 2.57
   4  0.000  0.333  0.229-   5 2.57   6 2.57   1 2.57   7 2.57   2 2.57  13 2.57   9 2.57  10 2.57
                            15 2.57
   5  0.333  0.333  0.229-   4 2.57   2 2.57   7 2.57  13 2.57   8 2.57   6 2.57   3 2.57  11 2.57
                            14 2.57
   6  0.667  0.333  0.229-   4 2.57   9 2.57  15 2.57   3 2.57   1 2.57   8 2.57  14 2.57   5 2.57
                            12 2.57
   7  0.000  0.667  0.229-   1 2.57   3 2.57  16 2.57  18 2.57   4 2.57   5 2.57   8 2.57   9 2.57
                            13 2.57
   8  0.333  0.667  0.229-   9 2.57   2 2.57  17 2.57   6 2.57   1 2.57   7 2.57   5 2.57  14 2.57
                            16 2.57
   9  0.667  0.667  0.229-   8 2.57   6 2.57   2 2.57  17 2.57   3 2.57   7 2.57   4 2.57  15 2.57
                            18 2.57
  10  0.111  0.111  0.318-  20 2.53  11 2.57  12 2.57  13 2.57   1 2.57   2 2.57   4 2.57  15 2.57
                            16 2.57  17 2.57  26 2.57  19 2.57
  11  0.444  0.111  0.318-  20 2.55  21 2.55  10 2.57  13 2.57   2 2.57  17 2.57  14 2.57  12 2.57
                             5 2.57   3 2.57  18 2.57  27 2.58
  12  0.778  0.111  0.318-  21 2.53  15 2.57  10 2.57  14 2.57  18 2.57   3 2.57   1 2.57  16 2.57
                            11 2.57   6 2.57  19 2.57  25 2.57
  13  0.111  0.444  0.318-  23 2.55  20 2.55  16 2.57  18 2.57  10 2.57  11 2.57  14 2.57   5 2.57
                             4 2.57   7 2.57  15 2.57  22 2.58
  14  0.444  0.444  0.318-  21 2.55  23 2.55  15 2.57  17 2.57  12 2.57  16 2.57  13 2.57  11 2.57
                             6 2.57   8 2.57   5 2.57  24 2.58
  15  0.778  0.444  0.318-  19 2.57  14 2.57  17 2.57  12 2.57   6 2.57  18 2.57  10 2.57   9 2.57
                            13 2.57   4 2.57  24 2.57  22 2.57
  16  0.111  0.778  0.318-  23 2.53  18 2.57  13 2.57   7 2.57  14 2.57  17 2.57  12 2.57  10 2.57
                             8 2.57   1 2.57  25 2.57  26 2.57
  17  0.444  0.778  0.318-  26 2.57  14 2.57  15 2.57   8 2.57   9 2.57  11 2.57  16 2.57  18 2.57
                            10 2.57   2 2.57  27 2.57  24 2.57
  18  0.778  0.778  0.318-  25 2.57  16 2.57  13 2.57   7 2.57  15 2.57  12 2.57  17 2.57   9 2.57
                             3 2.57  11 2.57  22 2.57  27 2.57
  19  0.889  0.223  0.408-  21 2.55  20 2.55  22 2.56  24 2.56  28 2.56  15 2.57  12 2.57  10 2.57
                            25 2.57  26 2.57  32 2.59  31 2.59
  20  0.221  0.221  0.406-  36 2.53  10 2.53  11 2.55  13 2.55  26 2.55  19 2.55  27 2.57  22 2.57
                            23 2.59  21 2.59  29 2.61  31 2.61
  21  0.558  0.221  0.406-  36 2.53  12 2.53  14 2.55  11 2.55  19 2.55  25 2.55  24 2.57  27 2.57
                            20 2.59  23 2.59  32 2.61  30 2.61
  22  0.888  0.556  0.408-  24 2.55  27 2.55  35 2.55  19 2.56  25 2.56  18 2.57  15 2.57  23 2.57
                            20 2.57  13 2.58  31 2.59  33 2.59
  23  0.221  0.558  0.406-  36 2.53  16 2.53  13 2.55  14 2.55  25 2.55  26 2.55  22 2.57  24 2.57
                            20 2.59  21 2.59  33 2.61  34 2.61
  24  0.556  0.556  0.408-  22 2.55  27 2.55  35 2.55  19 2.56  26 2.56  15 2.57  17 2.57  21 2.57
                            23 2.57  14 2.58  32 2.59  34 2.59
  25  0.889  0.889  0.408-  21 2.55  23 2.55  22 2.56  27 2.56  28 2.56  18 2.57  16 2.57  12 2.57
                            19 2.57  26 2.57  33 2.59  30 2.59
  26  0.223  0.889  0.408-  20 2.55  23 2.55  27 2.56  24 2.56  28 2.56  17 2.57  10 2.57  16 2.57
                            25 2.57  19 2.57  29 2.59  34 2.59
  27  0.556  0.888  0.408-  24 2.55  22 2.55  35 2.55  26 2.56  25 2.56  17 2.57  18 2.57  20 2.57
                            21 2.57  11 2.58  29 2.59  30 2.59
  28  0.000  0.000  0.497-  33 2.56  30 2.56  31 2.56  29 2.56  32 2.56  34 2.56  25 2.56  19 2.56
                            26 2.56
  29  0.333  0.000  0.498-  31 2.56  28 2.56  36 2.57  34 2.57  35 2.57  30 2.57  26 2.59  27 2.59
                            20 2.61
  30  0.667  0.000  0.498-  32 2.56  28 2.56  36 2.57  33 2.57  35 2.57  29 2.57  25 2.59  27 2.59
                            21 2.61
  31  0.000  0.333  0.498-  29 2.56  28 2.56  36 2.57  32 2.57  35 2.57  33 2.57  19 2.59  22 2.59
                            20 2.61
  32  0.667  0.333  0.498-  30 2.56  28 2.56  36 2.57  31 2.57  35 2.57  34 2.57  19 2.59  24 2.59
                            21 2.61
  33  0.000  0.667  0.498-  34 2.56  28 2.56  36 2.57  30 2.57  35 2.57  31 2.57  25 2.59  22 2.59
                            23 2.61
  34  0.333  0.667  0.498-  33 2.56  28 2.56  36 2.57  29 2.57  35 2.57  32 2.57  26 2.59  24 2.59
                            23 2.61
  35  0.667  0.667  0.497-  24 2.55  27 2.55  22 2.55  34 2.57  32 2.57  29 2.57  30 2.57  33 2.57
                            31 2.57
  36  0.333  0.333  0.493-  37 2.16  23 2.53  20 2.53  21 2.53  31 2.57  29 2.57  33 2.57  34 2.57
                            32 2.57  30 2.57
  37  0.333  0.334  0.585-  38 1.24  39 1.24  36 2.16
  38  0.183  0.331  0.603-  37 1.24
  39  0.486  0.331  0.603-  37 1.24

  LATTYP: Found a hexagonal cell.
 ALAT       =     7.6967864036
 C/A-ratio  =     3.0484540560

  Lattice vectors:

 A1 = (  -3.8483927580,  -6.6656128093,   0.0000000000)
 A2 = (   7.6967864037,   0.0000000000,   0.0000000000)
 A3 = (   0.0000000000,   0.0000000000,  23.4632997305)

Analysis of symmetry for initial positions (statically):
 Subroutine PRICEL returns:
 Original cell was already a primitive cell.

 Routine SETGRP: Setting up the symmetry group for a
 hexagonal supercell.

 Subroutine GETGRP returns: Found  2 space group operations
 (whereof  2 operations were pure point group operations)
 out of a pool of 24 trial point group operations.

The static configuration has the point symmetry C_1h.

Analysis of symmetry for dynamics (positions and initial velocities):
 Subroutine PRICEL returns:
 Original cell was already a primitive cell.

[...]

The dynamic configuration has the point symmetry C_1h.

Analysis of constrained symmetry for selective dynamics:
[...]
     41      -4.5281      2.00000
     42      -4.4837      2.00000
     43      -4.3318      2.00000
     44      -4.3208      2.00000
     45      -4.2765      2.00000
     46      -4.2694      2.00000
     47      -4.2438      2.00000
     48      -4.2278      2.00000
     49      -4.2163      2.00000
     50      -4.2016      2.00000
     51      -4.1962      2.00000
     52      -4.0256      2.00000
     53      -4.0064      2.00000
     54      -3.9983      2.00000
     55      -3.9873      2.00000
     56      -3.9598      2.00000
     57      -3.9246      2.00000
     58      -3.9208      2.00000
     59      -3.9102      2.00000
     60      -3.9004      2.00000
[...]
    238       5.2901      0.00000
    239       5.3325      0.00000
    240       5.4815      0.00000
    241       5.6376      0.00000
    242       5.6422      0.00000
    243       5.7391      0.00000
    244       5.9138      0.00000
    245       6.0067      0.00000
    246       6.0146      0.00000
    247       6.3931      0.00000
    248       6.4714      0.00000
    249       6.4969      0.00000
    250       6.5921      0.00000
    251       6.7827      0.00000
    252       6.8304      0.00000

 soft charge-density along one line, spin component           1
         0         1         2         3         4         5         6         7         8         9
 total charge-density along one line

------------------------ aborting loop because EDIFF is reached ----------------------------------------

 total charge

# of ion       s       p       d       tot
    1        0.449   0.284   9.189   9.922
    2        0.448   0.285   9.187   9.920
    3        0.448   0.285   9.187   9.920
    4        0.447   0.285   9.188   9.920
    5        0.450   0.284   9.186   9.920
    6        0.447   0.285   9.188   9.920
    7        0.449   0.285   9.186   9.921
    8        0.449   0.285   9.186   9.921
    9        0.448   0.284   9.187   9.919
   10        0.443   0.373   9.176   9.992
   11        0.442   0.368   9.183   9.994
   12        0.443   0.373   9.176   9.992
   13        0.442   0.368   9.184   9.993
   14        0.442   0.368   9.184   9.993
   15        0.438   0.369   9.180   9.986
   16        0.443   0.372   9.177   9.992
   17        0.439   0.367   9.181   9.987
   18        0.439   0.367   9.181   9.987
   19        0.437   0.364   9.187   9.988
   20        0.462   0.404   9.163  10.029
   21        0.462   0.404   9.163  10.029
   22        0.428   0.370   9.183   9.980
   23        0.460   0.402   9.165  10.027
   24        0.428   0.370   9.183   9.980
   25        0.439   0.365   9.184   9.988
   26        0.439   0.365   9.184   9.988
   27        0.429   0.368   9.185   9.982
   28        0.450   0.286   9.184   9.920
   29        0.464   0.311   9.170   9.944
   30        0.464   0.311   9.170   9.944
   31        0.452   0.310   9.172   9.933
   32        0.452   0.310   9.172   9.933
   33        0.465   0.311   9.169   9.945
   34        0.465   0.311   9.169   9.945
   35        0.440   0.290   9.187   9.917
   36        0.621   0.438   4.879   5.937
   37        0.887   1.699   0.000   2.585
   38        1.601   3.468   0.000   5.069
   39        1.601   3.468   0.000   5.069
tot         20.355  20.812 326.168 367.335

  FORCE on cell =-STRESS in cart. coord.  units (eV):
  Direction    XX          YY          ZZ          XY          YZ          ZX
  Alpha Z   857.20217   857.20217   857.20217
  Ewald  214146.98617213465.49873************     0.00040    -1.06156     0.00016
  Hartree226861.25382226529.83979************     0.00004    -0.44081     0.00005
  E(xc)   -2352.09084 -2354.30041 -2358.29883    -0.00028    -0.06615    -0.00005
  Local  ************************453253.18366     0.02033     1.45523    -0.00071
  n-local  -826.78233  -822.43795  -838.78078     2.02247     0.40951     0.11426
  augment  3326.77900  3329.17135  3350.76051    -0.01845    -0.05419     0.00039
  Kinetic  3517.81353  3567.15279  3587.16400     1.42092     0.01254    -0.02111
  Fock        0.00000     0.00000     0.00000     0.00000     0.00000     0.00000
  Total      -3.69988    -3.78081     1.38053     0.00000     0.25457    -0.00000
  in kB      -4.92447    -5.03219     1.83746     0.00000     0.33883    -0.00000

 VOLUME and BASIS-vectors are now :
  energy-cutoff  :      500.00
  volume of cell :     1203.76
      direct lattice vectors                 reciprocal lattice vectors
     7.696786404  0.000000000  0.000000000     0.129924354 -0.075011849  0.000000000
     3.848392758  6.665612809  0.000000000     0.000000000  0.150023716  0.000000000
     0.000000000  0.000000000 23.463299730     0.000000000  0.000000000  0.042619751

  length of vectors
     7.696786404  7.696786404 23.463299730     0.150023716  0.150023716  0.042619751

 FORCES acting on ions
    electron-ion (+dipol)            ewald-force                    non-local-force                 convergence-correction
   -.417E-04 0.649E-01 0.374E+04   0.580E-04 -.442E-01 -.373E+04   0.383E-08 -.576E-01 -.245E+01   -.400E-03 0.240E-01 -.335E+00
   -.304E+00 0.863E-01 0.373E+04   0.197E+00 -.132E+00 -.373E+04   0.379E-02 0.697E-01 -.193E+01   0.970E-01 -.370E-01 -.351E+00
   0.304E+00 0.864E-01 0.373E+04   -.197E+00 -.132E+00 -.373E+04   -.379E-02 0.697E-01 -.193E+01   -.961E-01 -.345E-01 -.350E+00
   -.211E+00 -.289E+00 0.374E+04   0.223E-01 0.216E+00 -.373E+04   0.175E+00 -.159E-02 -.208E+01   0.799E-02 0.794E-01 -.322E+00
   -.632E-04 -.139E-01 0.373E+04   0.116E-03 0.146E-02 -.373E+04   -.157E-08 0.235E-01 -.165E+01   0.121E-01 -.113E-01 -.254E+00
   0.211E+00 -.289E+00 0.374E+04   -.225E-01 0.216E+00 -.373E+04   -.175E+00 -.159E-02 -.208E+01   -.954E-02 0.804E-01 -.320E+00
   0.199E+00 0.244E+00 0.373E+04   -.174E+00 -.841E-01 -.373E+04   0.742E-01 -.890E-01 -.183E+01   -.100E+00 -.584E-01 -.251E+00
   -.199E+00 0.244E+00 0.373E+04   0.174E+00 -.841E-01 -.373E+04   -.742E-01 -.890E-01 -.183E+01   0.104E+00 -.598E-01 -.251E+00
   -.144E-03 -.166E+00 0.373E+04   0.263E-03 0.428E-01 -.373E+04   -.608E-08 0.913E-01 -.213E+01   -.131E-01 0.360E-01 -.338E+00
   0.195E+01 0.144E+01 0.132E+04   -.153E+01 -.123E+01 -.132E+04   -.475E+00 -.242E+00 -.110E+01   0.430E-01 0.276E-01 0.458E+00
   -.925E-04 0.816E+00 0.132E+04   0.190E-03 -.923E+00 -.132E+04   -.234E-08 0.352E-01 -.710E+00   0.123E-01 0.511E-01 0.494E+00
   -.195E+01 0.144E+01 0.132E+04   0.153E+01 -.123E+01 -.132E+04   0.475E+00 -.242E+00 -.110E+01   -.449E-01 0.283E-01 0.458E+00
   0.358E+00 -.554E+00 0.132E+04   -.485E+00 0.526E+00 -.132E+04   0.522E-01 0.635E-02 -.496E+00   0.490E-01 0.355E-01 0.572E+00
   -.358E+00 -.554E+00 0.132E+04   0.485E+00 0.526E+00 -.132E+04   -.522E-01 0.635E-02 -.496E+00   -.256E-01 0.334E-01 0.569E+00
   -.140E-03 -.130E+01 0.132E+04   0.298E-03 0.104E+01 -.132E+04   -.103E-07 0.154E+00 -.102E+01   -.323E-02 0.960E-01 0.426E+00
   -.884E-04 -.213E+01 0.132E+04   0.186E-03 0.187E+01 -.132E+04   -.252E-07 0.378E+00 -.967E+00   -.131E-02 -.105E+00 0.484E+00
   -.988E+00 0.420E+00 0.132E+04   0.696E+00 -.285E+00 -.132E+04   0.175E+00 -.556E-01 -.788E+00   0.991E-01 -.769E-01 0.414E+00
   0.988E+00 0.420E+00 0.132E+04   -.696E+00 -.285E+00 -.132E+04   -.175E+00 -.556E-01 -.788E+00   -.971E-01 -.741E-01 0.417E+00
   -.646E-04 -.144E+01 -.110E+04   0.694E-04 0.118E+01 0.110E+04   -.956E-08 0.144E+00 0.124E+01   -.109E-01 0.901E-01 0.871E+00
   -.327E+02 -.169E+02 -.111E+04   0.329E+02 0.172E+02 0.111E+04   -.654E+00 -.565E+00 -.820E+00   0.328E+00 0.236E+00 0.113E+01
   0.327E+02 -.169E+02 -.111E+04   -.329E+02 0.172E+02 0.111E+04   0.654E+00 -.565E+00 -.820E+00   -.347E+00 0.232E+00 0.113E+01
   -.197E+02 0.903E+01 -.111E+04   0.188E+02 -.837E+01 0.111E+04   0.734E+00 -.548E+00 0.905E+00   0.199E+00 -.138E+00 0.880E+00
   -.983E-04 0.352E+02 -.111E+04   0.146E-03 -.352E+02 0.111E+04   -.353E-07 0.531E+00 -.457E+00   -.139E-01 -.411E+00 0.105E+01
   0.197E+02 0.903E+01 -.111E+04   -.188E+02 -.837E+01 0.111E+04   -.734E+00 -.548E+00 0.905E+00   -.175E+00 -.140E+00 0.880E+00
   0.228E+01 0.238E+01 -.111E+04   -.230E+01 -.233E+01 0.111E+04   0.502E-01 0.370E-02 0.924E+00   -.317E-01 -.454E-01 0.842E+00
   -.228E+01 0.238E+01 -.111E+04   0.230E+01 -.233E+01 0.111E+04   -.502E-01 0.370E-02 0.924E+00   0.841E-02 -.442E-01 0.842E+00
   -.112E-03 -.220E+02 -.112E+04   0.241E-03 0.211E+02 0.111E+04   -.510E-07 0.765E+00 0.781E+00   0.132E-01 0.196E+00 0.867E+00
   -.442E-04 0.131E+02 -.349E+04   0.347E-04 -.129E+02 0.349E+04   0.170E-07 -.255E+00 0.214E+01   -.522E-03 0.183E-01 0.686E+00
   -.121E+02 0.394E+01 -.347E+04   0.128E+02 -.421E+01 0.347E+04   -.859E+00 -.381E+00 0.173E+01   0.188E+00 0.430E+00 0.726E+00
   0.121E+02 0.394E+01 -.347E+04   -.128E+02 -.421E+01 0.347E+04   0.859E+00 -.381E+00 0.173E+01   -.187E+00 0.431E+00 0.724E+00
   -.344E+01 -.221E+01 -.344E+04   0.253E+01 0.248E+01 0.343E+04   0.186E+00 -.291E+00 0.283E+01   0.527E+00 0.302E-01 0.706E+00
   0.344E+01 -.221E+01 -.344E+04   -.253E+01 0.248E+01 0.343E+04   -.186E+00 -.291E+00 0.283E+01   -.527E+00 0.305E-01 0.706E+00
   -.913E+01 -.144E+01 -.347E+04   0.932E+01 0.143E+01 0.347E+04   -.420E+00 0.665E+00 0.152E+01   0.201E+00 -.455E+00 0.694E+00
   0.913E+01 -.144E+01 -.347E+04   -.932E+01 0.143E+01 0.347E+04   0.420E+00 0.665E+00 0.152E+01   -.199E+00 -.456E+00 0.696E+00
   -.158E-03 -.126E+02 -.350E+04   0.256E-03 0.125E+02 0.349E+04   -.161E-07 0.242E+00 0.269E+01   -.122E-01 -.944E-01 0.757E+00
   -.379E-04 -.264E+00 -.202E+04   0.892E-04 0.384E+00 0.202E+04   -.854E-09 0.128E-01 0.159E+01   0.602E-03 0.155E-01 0.502E+00
   -.592E-05 -.558E+01 -.134E+04   0.807E-05 0.582E+01 0.134E+04   0.150E-07 -.226E+00 0.494E+01   -.304E-03 -.650E-02 -.167E+00
   0.219E+03 0.198E+01 -.218E+04   -.267E+03 -.262E+01 0.220E+04   0.484E+02 0.621E+00 -.196E+02   0.165E+00 0.208E-02 -.207E+00
   -.219E+03 0.198E+01 -.218E+04   0.267E+03 -.262E+01 0.220E+04   -.484E+02 0.621E+00 -.196E+02   -.160E+00 0.211E-02 -.207E+00
   0.263E-04 -.186E+00 0.220E+02   0.568E-13 -.131E-12 -.127E-10   -.147E-07 0.221E+00 -.376E+02   -.138E-02 -.409E-01 0.156E+02

 POSITION                                       TOTAL-FORCE (eV/Angst)
      0.00000      0.00000      5.37156         0.000000     -0.012763      0.028900
      2.56560      0.00000      5.37156        -0.005945     -0.011441      0.058834
      5.13119      0.00000      5.37156         0.005945     -0.011441      0.058834
      1.28280      2.22187      5.37156        -0.004840      0.005659      0.058460
      3.84839      2.22187      5.37156         0.000000     -0.000029      0.024343
      6.41399      2.22187      5.37156         0.004840      0.005659      0.058460
      2.56560      4.44374      5.37156        -0.002821      0.011851      0.056814
      5.13119      4.44374      5.37156         0.002821      0.011851      0.056814
      7.69679      4.44374      5.37156        -0.000000      0.004055      0.036578
      1.28280      0.74062      7.46636        -0.015933     -0.010318     -0.053462
      3.84839      0.74062      7.46636         0.000000     -0.020579     -0.105094
      6.41399      0.74062      7.46636         0.015933     -0.010318     -0.053462
      2.56560      2.96249      7.46636        -0.037752      0.012952     -0.092214
      5.13119      2.96249      7.46636         0.037752      0.012952     -0.092214
      7.69679      2.96249      7.46636         0.000000     -0.010700      0.012485
      3.84839      5.18437      7.46636        -0.000000      0.014103     -0.052258
      6.41399      5.18437      7.46636        -0.019208      0.003747      0.015193
      8.97958      5.18437      7.46636         0.019208      0.003747      0.015193
      7.69679      1.48486      9.56345         0.000000     -0.027724      0.052861
      2.55359      1.47432      9.53212        -0.159458     -0.104610     -0.115289
      5.14319      1.47432      9.53212         0.159458     -0.104610     -0.115289
      8.97343      3.70667      9.56919         0.067123     -0.029941      0.023890
      3.84839      3.71698      9.53212        -0.000000      0.133871     -0.154353
      6.42014      3.70667      9.56919        -0.067123     -0.029941      0.023890
     10.25925      5.92318      9.56345         0.009545      0.007057      0.013843
      5.13432      5.92318      9.56345        -0.009545      0.007057      0.013843
      7.69679      5.91789      9.56919        -0.000000      0.035117     -0.021563
      0.00000      0.00000     11.65394         0.000000     -0.043094     -0.043269
      2.56263      0.00314     11.68588        -0.017216     -0.220978     -0.169162
      5.13415      0.00314     11.68588         0.017216     -0.220978     -0.169162
      1.28404      2.21774     11.68588        -0.197159      0.013750     -0.054102
      6.41275      2.21774     11.68588         0.197159      0.013750     -0.054102
      2.56979      4.44474     11.68588        -0.028255      0.195261     -0.131347
      5.12699      4.44474     11.68588         0.028255      0.195261     -0.131347
      7.69679      4.44374     11.65455        -0.000000      0.044020     -0.006595
      3.84839      2.22187     11.57229        -0.000000      0.148487      1.011582
      3.84839      2.22597     13.72839        -0.000000      0.005689      0.045195
      2.68122      2.20939     14.14654        -0.000763     -0.008217     -0.025862
      5.01556      2.20939     14.14654         0.000763     -0.008217     -0.025862
    total drift:                               -0.001353     -0.006291      0.027421

  FREE ENERGIE OF THE ION-ELECTRON SYSTEM (eV)
  free  energy   TOTEN  =      -154.52342284 eV

  energy  without entropy=     -154.52342284  energy(sigma->0) =     -154.52342284

 stress matrix after NEB project (eV)
     -3.69988      0.00000     -0.00000
      0.00000     -3.78081      0.25457
     -0.00000      0.25457      1.38053
  FORCES: max atom, RMS     0.045551    0.009539
  FORCE total and by dimension    0.059572    0.045195
  Stress total and by dimension    5.478970    3.780812
|           W    W    AA    RRRRR   N    N  II  N    N   GGGG   !!!           |
|           W    W   A  A   R    R  NN   N  II  NN   N  G    G  !!!           |
|           W    W  A    A  R    R  N N  N  II  N N  N  G       !!!           |
|           W WW W  AAAAAA  RRRRR   N  N N  II  N  N N  G  GGG   !            |
|           WW  WW  A    A  R   R   N   NN  II  N   NN  G    G                |
|           W    W  A    A  R    R  N    N  II  N    N   GGGG   !!!           |
|     Tetrahedron method does not include variations of the Fermi             |
|     occupations, so forces and stress will be inaccurate. We suggest        |
|     using a different smearing scheme ISMEAR = 1 or 2 for metals in         |
|     relaxations.                                                            |

 total charge

# of ion       s       p       d       tot
    1        0.449   0.284   9.189   9.922
    2        0.448   0.285   9.187   9.920
    3        0.448   0.285   9.187   9.920
    4        0.447   0.285   9.188   9.920
    5        0.450   0.284   9.186   9.920
    6        0.447   0.285   9.188   9.920
    7        0.449   0.285   9.186   9.921
    8        0.449   0.285   9.186   9.921
    9        0.448   0.284   9.187   9.919
   10        0.443   0.373   9.176   9.992
   11        0.442   0.368   9.183   9.994
   12        0.443   0.373   9.176   9.992
   13        0.442   0.368   9.184   9.993
   14        0.442   0.368   9.184   9.993
   15        0.438   0.369   9.180   9.986
   16        0.443   0.372   9.177   9.992
   17        0.439   0.367   9.181   9.987
   18        0.439   0.367   9.181   9.987
   19        0.437   0.364   9.187   9.988
   20        0.462   0.404   9.163  10.029
   21        0.462   0.404   9.163  10.029
   22        0.428   0.370   9.183   9.980
   23        0.460   0.402   9.165  10.027
   24        0.428   0.370   9.183   9.980
   25        0.439   0.365   9.184   9.988
   26        0.439   0.365   9.184   9.988
   27        0.429   0.368   9.185   9.982
   28        0.450   0.286   9.184   9.920
   29        0.464   0.311   9.170   9.944
   30        0.464   0.311   9.170   9.944
   31        0.452   0.310   9.172   9.933
   32        0.452   0.310   9.172   9.933
   33        0.465   0.311   9.169   9.945
   34        0.465   0.311   9.169   9.945
   35        0.440   0.290   9.187   9.917
   36        0.621   0.438   4.879   5.937
   37        0.887   1.699   0.000   2.585
   38        1.601   3.468   0.000   5.069
   39        1.601   3.468   0.000   5.069
tot         20.355  20.812 326.168 367.335

 BZINTS: Fermi energy:   -0.522245;  408.000000 electrons
         Band energy:-0.147378E+04;  BLOECHL correction:   -0.038365