 vasp.6.2.0 18Jan21 (build Jun 12 2021 23:27:24) complex

 executed on             LinuxIFC date 2022.05.30  16:05:25

 INCAR:
   ISMEAR = -5
   SIGMA = 0.1
   ISPIN = 1
   EDIFF = 1.d-5
   EDIFFG = -0.01
   NSW = 0
   NELM = 150
   ENCUT = 500
   ISIF = 2
   IBRION = 2
   LREAL = Auto
   ALGO = Fast
   ICHARG = 11
   LORBIT = 10
   LCHARG = .F.
   LWAVE = .F.

 POTCAR:    PAW_PBE Au 04Oct2007
 POTCAR:    PAW_PBE Mo 08Apr2002
 POTCAR:    PAW_PBE C 08Apr2002
|           W    W    AA    RRRRR   N    N  II  N    N   GGGG   !!!           |
|           W    W   A  A   R    R  NN   N  II  NN   N  G    G  !!!           |
|           W    W  A    A  R    R  N N  N  II  N N  N  G       !!!           |
|           W WW W  AAAAAA  RRRRR   N  N N  II  N  N N  G  GGG   !            |
|           WW  WW  A    A  R   R   N   NN  II  N   NN  G    G                |
|           W    W  A    A  R    R  N    N  II  N    N   GGGG   !!!           |
|     For optimal performance we recommend to set                             |
|       NCORE = 2 up to number-of-cores-per-socket                            |
|     This setting can greatly improve the performance of VASP for DFT.       |
|     The default, NCORE=1 might be grossly inefficient on modern             |
|     multi-core architectures or massively parallel machines. Do your        |
|     Unfortunately you need to use the default for GW and RPA                |
|     calculations (for HF NCORE is supported but not extensively tested      |
|     yet).                                                                   |

 POTCAR:    PAW_PBE Au 04Oct2007
   VRHFIN =Au: s1d10

   TITEL  = PAW_PBE Au 04Oct2007
   POMASS =  196.966; ZVAL   =   11.000    mass and valenz
   ENMAX  =  229.943; ENMIN  =  172.457 eV

 POTCAR:    PAW_PBE Mo 08Apr2002
   VRHFIN =Mo: 4p5s4d

   TITEL  = PAW_PBE Mo 08Apr2002
   POMASS =   95.940; ZVAL   =    6.000    mass and valenz
   ENMAX  =  224.584; ENMIN  =  168.438 eV

 POTCAR:    PAW_PBE C 08Apr2002
   VRHFIN =C: s2p2

   TITEL  = PAW_PBE C 08Apr2002
   POMASS =   12.011; ZVAL   =    4.000    mass and valenz
   ENMAX  =  400.000; ENMIN  =  300.000 eV

 Optimization of the real space projectors (new method)

 maximal supplied QI-value         = 15.12
 optimisation between [QCUT,QGAM] = [ 11.34, 22.83] = [ 36.00,145.93] Ry
 Optimized for a Real-space Cutoff    1.39 Angstroem

   l    n(q)    QCUT    max X(q) W(low)/X(q) W(high)/X(q)  e(spline)
   2      9    11.338    60.898    0.39E-03    0.42E-03    0.21E-06
   2      9    11.338    58.894    0.40E-03    0.42E-03    0.22E-06
   0      9    11.338   109.617    0.13E-03    0.20E-04    0.13E-06
   0      9    11.338    75.026    0.13E-03    0.20E-04    0.13E-06
   1      9    11.338    16.344    0.33E-04    0.24E-03    0.18E-06
   1      9    11.338    10.160    0.26E-04    0.19E-03    0.15E-06
 Optimization of the real space projectors (new method)

[...]

   l    n(q)    QCUT    max X(q) W(low)/X(q) W(high)/X(q)  e(spline)
   2     10    11.429    80.908    0.27E-03    0.78E-03    0.13E-05
   2     10    11.429    79.000    0.27E-03    0.78E-03    0.13E-05
   0     11    11.429    52.066    0.33E-04    0.97E-04    0.72E-06
   0     11    11.429    24.514    0.27E-04    0.80E-04    0.60E-06
   1     10    11.429    16.033    0.31E-04    0.17E-03    0.36E-06
   1     10    11.429    11.179    0.22E-04    0.13E-03    0.29E-06
 Optimization of the real space projectors (new method)

 maximal supplied QI-value         = 25.13
 optimisation between [QCUT,QGAM] = [ 11.31, 22.87] = [ 35.82,146.48] Ry
 Optimized for a Real-space Cutoff    1.00 Angstroem

   l    n(q)    QCUT    max X(q) W(low)/X(q) W(high)/X(q)  e(spline)
   0      7    11.310   115.676    0.43E-03    0.13E-02    0.19E-06
   0      7    11.310    87.132    0.43E-03    0.13E-02    0.18E-06
   1      6    11.310     4.429    0.42E-03    0.74E-03    0.11E-06
   1      6    11.310     2.733    0.34E-03    0.55E-03    0.92E-07
  PAW_PBE Au 04Oct2007                  :
  PAW_PBE Mo 08Apr2002                  :
  PAW_PBE C 08Apr2002                   :

 POSCAR: Au-Mo-C
  positions in direct lattice
  velocities in cartesian coordinates
 exchange correlation table for  LEXCH =        8
   RHO(1)=    0.500       N(1)  =     2000
   RHO(2)=  100.500       N(2)  =     4000

 VTST: version 3.2, (02/03/18)

 CHAIN: initializing optimizer

 OPT: Using VASP Conjugate-Gradient optimizer
 CHAIN: Read ICHAIN            0

 POSCAR: Au-Mo-C
  positions in direct lattice
  velocities in cartesian coordinates

 ion  position               nearest neighbor table
   1  0.000  0.000  0.217-  16 2.94  12 2.94   6 2.94   8 2.94   7 2.94   3 2.94  10 2.94   4 2.94
                             2 2.94
   2  0.333  0.000  0.217-   9 2.94  11 2.94  17 2.94  10 2.94   8 2.94   4 2.94   5 2.94   1 2.94
                             3 2.94
   3  0.667  0.000  0.217-   7 2.94  18 2.94  12 2.94   1 2.94  11 2.94   5 2.94   6 2.94   9 2.94
                             2 2.94
   4  0.000  0.333  0.217-  10 2.94   6 2.94   5 2.94  13 2.94   2 2.94  15 2.94   9 2.94   1 2.94
                             7 2.94
   5  0.333  0.333  0.217-  13 2.94   7 2.94  11 2.94   4 2.94   2 2.94  14 2.94   3 2.94   8 2.94
                             6 2.94
   6  0.667  0.333  0.217-  15 2.94  14 2.94   1 2.94  12 2.94   4 2.94   9 2.94   8 2.94   3 2.94
                             5 2.94
   7  0.000  0.667  0.217-  18 2.94   3 2.94  16 2.94   5 2.94   1 2.94  13 2.94   8 2.94   4 2.94
                             9 2.94
   8  0.333  0.667  0.217-   9 2.94  17 2.94   1 2.94   2 2.94  14 2.94  16 2.94   6 2.94   7 2.94
                             5 2.94
   9  0.667  0.667  0.217-   2 2.94   8 2.94  17 2.94   6 2.94  15 2.94   4 2.94   3 2.94  18 2.94
                             7 2.94
  10  0.111  0.111  0.316-  20 2.91  11 2.94  17 2.94   2 2.94   4 2.94   1 2.94  12 2.94  16 2.94
                            13 2.94  15 2.94  26 2.95  19 2.95
  11  0.444  0.111  0.316-  20 2.91  21 2.91  13 2.94   2 2.94  10 2.94  17 2.94   5 2.94   3 2.94
                            18 2.94  14 2.94  12 2.94  27 2.94
  12  0.778  0.111  0.316-  21 2.91  16 2.94  18 2.94   1 2.94  14 2.94  15 2.94   3 2.94   6 2.94
                            10 2.94  11 2.94  25 2.95  19 2.95
  13  0.111  0.444  0.316-  23 2.91  20 2.91   5 2.94  18 2.94  11 2.94   7 2.94   4 2.94  16 2.94
                            10 2.94  14 2.94  15 2.94  22 2.94
  14  0.444  0.444  0.316-  21 2.91  23 2.91  15 2.94   6 2.94  12 2.94   8 2.94  17 2.94   5 2.94
                            16 2.94  13 2.94  11 2.94  24 2.94
  15  0.778  0.444  0.316-  24 2.93  22 2.93  14 2.94   6 2.94  17 2.94  12 2.94   9 2.94   4 2.94
                            10 2.94  13 2.94  18 2.94  19 2.95
  16  0.111  0.778  0.316-  23 2.91  18 2.94  12 2.94   7 2.94   1 2.94   8 2.94  13 2.94  10 2.94
                            14 2.94  17 2.94  25 2.95  26 2.95
  17  0.444  0.778  0.316-  27 2.93  24 2.93   9 2.94  15 2.94   2 2.94  10 2.94  11 2.94   8 2.94
                            14 2.94  16 2.94  18 2.94  26 2.95
  18  0.778  0.778  0.316-  22 2.93  27 2.93  16 2.94   7 2.94  13 2.94  12 2.94   3 2.94  11 2.94
                             9 2.94  15 2.94  17 2.94  25 2.95
  19  0.889  0.223  0.415-  24 2.93  22 2.93  21 2.94  20 2.94  28 2.95  26 2.95  25 2.95  15 2.95
                            10 2.95  12 2.95  32 3.02  31 3.02
  20  0.222  0.222  0.413-  36 2.77  11 2.91  13 2.91  10 2.91  23 2.94  21 2.94  26 2.94  19 2.94
                            27 2.95  22 2.95  29 2.98  31 2.98
  21  0.555  0.222  0.413-  36 2.77  14 2.91  11 2.91  12 2.91  20 2.94  23 2.94  25 2.94  19 2.94
                            27 2.95  24 2.95  30 2.98  32 2.98
  22  0.887  0.557  0.414-  24 2.91  27 2.91  18 2.93  15 2.93  25 2.93  19 2.93  13 2.94  35 2.95
                            23 2.95  20 2.95  33 3.00  31 3.00
  23  0.222  0.555  0.413-  36 2.77  13 2.91  14 2.91  16 2.91  20 2.94  21 2.94  25 2.94  26 2.94
                            22 2.95  24 2.95  33 2.98  34 2.98
  24  0.557  0.557  0.414-  27 2.91  22 2.91  15 2.93  17 2.93  26 2.93  19 2.93  14 2.94  35 2.95
                            21 2.95  23 2.95  32 3.00  34 3.00
  25  0.889  0.889  0.415-  22 2.93  27 2.93  23 2.94  21 2.94  28 2.95  19 2.95  26 2.95  18 2.95
                            16 2.95  12 2.95  33 3.02  30 3.02
  26  0.223  0.889  0.415-  27 2.93  24 2.93  20 2.94  23 2.94  28 2.95  19 2.95  25 2.95  17 2.95
                            10 2.95  16 2.95  29 3.02  34 3.02
  27  0.557  0.887  0.414-  24 2.91  22 2.91  17 2.93  18 2.93  26 2.93  25 2.93  11 2.94  35 2.95
                            20 2.95  21 2.95  29 3.00  30 3.00
  28  0.000  0.000  0.514-  25 2.95  19 2.95  26 2.95  34 2.98  32 2.98  33 2.98  30 2.98  31 2.98
                            29 2.98
  29  0.333  0.010  0.516-  30 2.85  31 2.85  36 2.87  20 2.98  35 2.98  28 2.98  27 3.00  26 3.02
                            34 3.11
  30  0.657  0.010  0.516-  29 2.85  32 2.85  36 2.87  21 2.98  35 2.98  28 2.98  27 3.00  25 3.02
                            33 3.11
  31  0.010  0.333  0.516-  33 2.85  29 2.85  36 2.87  20 2.98  35 2.98  28 2.98  22 3.00  19 3.02
                            32 3.11
  32  0.657  0.333  0.516-  34 2.85  30 2.85  36 2.87  21 2.98  35 2.98  28 2.98  24 3.00  19 3.02
                            31 3.11
  33  0.010  0.657  0.516-  31 2.85  34 2.85  36 2.87  23 2.98  35 2.98  28 2.98  22 3.00  25 3.02
                            30 3.11
  34  0.333  0.657  0.516-  32 2.85  33 2.85  36 2.87  23 2.98  35 2.98  28 2.98  24 3.00  26 3.02
                            29 3.11
  35  0.667  0.667  0.514-  24 2.95  27 2.95  22 2.95  29 2.98  34 2.98  32 2.98  31 2.98  30 2.98
                            33 2.98
  36  0.333  0.333  0.503-  37 1.77  20 2.77  23 2.77  21 2.77  33 2.87  31 2.87  29 2.87  30 2.87
                            34 2.87  32 2.87
  37  0.333  0.333  0.576-  36 1.77

  LATTYP: Found a hexagonal cell.
 ALAT       =     8.8135128021
 C/A-ratio  =     2.7586513333

  Lattice vectors:

 A1 = (  -4.4067569092,  -7.6327256898,   0.0000000000)
 A2 = (   8.8135128021,   0.0000000000,   0.0000000000)
 A3 = (   0.0000000000,   0.0000000000,  24.3134088421)

Analysis of symmetry for initial positions (statically):
 Subroutine PRICEL returns:
 Original cell was already a primitive cell.

 Routine SETGRP: Setting up the symmetry group for a
 hexagonal supercell.

 Subroutine GETGRP returns: Found  6 space group operations
 (whereof  6 operations were pure point group operations)
 out of a pool of 24 trial point group operations.

The static configuration has the point symmetry C_3v.

Analysis of symmetry for dynamics (positions and initial velocities):
 Subroutine PRICEL returns:
 Original cell was already a primitive cell.

[...]

The dynamic configuration has the point symmetry C_3v.

Analysis of constrained symmetry for selective dynamics:
 Subroutine PRICEL returns:
 Original cell was already a primitive cell.

 Routine SETGRP: Setting up the symmetry group for a
 hexagonal supercell.

 Subroutine GETGRP returns: Found  6 space group operations
[...]
     24      -5.6325      2.00000
     25      -5.6002      2.00000
     26      -5.5711      2.00000
     27      -5.5526      2.00000
     28      -5.4926      2.00000
     29      -5.4680      2.00000
     30      -5.3718      2.00000
     31      -5.3562      2.00000
     32      -5.3448      2.00000
     33      -5.3005      2.00000
     34      -5.2860      2.00000
     35      -5.2794      2.00000
     36      -5.2189      2.00000
     37      -5.2110      2.00000
     38      -5.0860      2.00000
     39      -5.0771      2.00000
     40      -5.0171      2.00000
     41      -4.9688      2.00000
     42      -4.9470      2.00000
     43      -4.9150      2.00000
     44      -4.8960      2.00000
     45      -4.8570      2.00000
     46      -4.8366      2.00000
     47      -4.7424      2.00000
     48      -4.7198      2.00000
     49      -4.6995      2.00000
     50      -4.6719      2.00000
     51      -4.6687      2.00000
     52      -4.6644      2.00000
     53      -4.6447      2.00000
     54      -4.6228      2.00000
     55      -4.5824      2.00000
     56      -4.5511      2.00000
     57      -4.5342      2.00000
     58      -4.5199      2.00000
     59      -4.5149      2.00000
     60      -4.4968      2.00000
[...]
    238       5.9809      0.00000
    239       6.0340      0.00000
    240       6.0813      0.00000
    241       6.1996      0.00000
    242       6.2523      0.00000
    243       6.3032      0.00000
    244       6.3391      0.00000
    245       6.4961      0.00000
    246       6.6869      0.00000
    247       6.7466      0.00000
    248       6.8138      0.00000
    249       6.8772      0.00000
    250       6.9120      0.00000
    251       7.0066      0.00000
    252       7.0966      0.00000

 soft charge-density along one line, spin component           1
         0         1         2         3         4         5         6         7         8         9
 total charge-density along one line

------------------------ aborting loop because EDIFF is reached ----------------------------------------

 total charge

# of ion       s       p       d       tot
    1        0.542   0.241   8.764   9.546
    2        0.545   0.241   8.763   9.549
    3        0.545   0.241   8.763   9.549
    4        0.545   0.241   8.763   9.549
    5        0.540   0.241   8.763   9.545
    6        0.545   0.241   8.763   9.549
    7        0.545   0.241   8.763   9.549
    8        0.545   0.241   8.763   9.549
    9        0.541   0.241   8.767   9.549
   10        0.519   0.308   8.770   9.596
   11        0.523   0.307   8.776   9.606
   12        0.519   0.308   8.770   9.596
   13        0.523   0.307   8.776   9.606
   14        0.523   0.307   8.776   9.606
   15        0.514   0.309   8.773   9.596
   16        0.519   0.308   8.770   9.596
   17        0.514   0.309   8.773   9.596
   18        0.514   0.309   8.773   9.596
   19        0.516   0.294   8.775   9.585
   20        0.548   0.331   8.754   9.633
   21        0.548   0.331   8.754   9.633
   22        0.508   0.307   8.774   9.589
   23        0.548   0.331   8.754   9.633
   24        0.508   0.307   8.774   9.589
   25        0.516   0.294   8.775   9.585
   26        0.516   0.294   8.775   9.585
   27        0.508   0.307   8.774   9.589
   28        0.541   0.228   8.759   9.528
   29        0.562   0.243   8.749   9.554
   30        0.562   0.243   8.749   9.554
   31        0.562   0.243   8.749   9.554
   32        0.562   0.243   8.749   9.554
   33        0.562   0.243   8.749   9.554
   34        0.562   0.243   8.749   9.554
   35        0.540   0.229   8.756   9.525
   36        0.450   0.482   4.533   5.465
   37        1.008   1.216   0.000   2.223
tot         20.190  11.344 311.284 342.818

  FORCE on cell =-STRESS in cart. coord.  units (eV):
  Direction    XX          YY          ZZ          XY          YZ          ZX
  Alpha Z   927.63938   927.63938   927.63938
  Ewald  148376.28462148376.28502************    -0.00032    -0.00009    -0.00015
  Hartree156621.74977156621.74977************     0.00000    -0.00002    -0.00004
  E(xc)   -1768.26089 -1768.26087 -1778.59372    -0.00001    -0.00000    -0.00000
  Local  ************************317510.27212     0.00177     0.00004     0.00006
  n-local   -91.12515   -45.39233   -49.21747    22.43873    -1.57197     1.50343
  augment  2373.12322  2373.12472  2392.97777    -0.00130    -0.00000     0.00005
  Kinetic  5467.38656  5479.23352  5534.63749     6.85034     0.04520     0.48677
  Fock        0.00000     0.00000     0.00000     0.00000     0.00000     0.00000
  Total     -20.72090   -20.72090     1.71094    -0.00000     0.00000    -0.00000
  in kB     -20.29760   -20.29760     1.67598    -0.00000     0.00000    -0.00000

 VOLUME and BASIS-vectors are now :
  energy-cutoff  :      500.00
  volume of cell :     1635.59
      direct lattice vectors                 reciprocal lattice vectors
     8.813512802  0.000000000  0.000000000     0.113462137 -0.065507406  0.000000000
     4.406756909  7.632725690  0.000000000     0.000000000  0.131014796  0.000000000
     0.000000000  0.000000000 24.313408842     0.000000000  0.000000000  0.041129568

  length of vectors
     8.813512802  8.813512802 24.313408842     0.131014796  0.131014796  0.041129568

 FORCES acting on ions
    electron-ion (+dipol)            ewald-force                    non-local-force                 convergence-correction
   -.197E-04 -.163E-04 0.263E+04   0.519E-04 0.433E-04 -.263E+04   -.153E-17 -.219E-17 -.714E+00   -.280E-03 -.175E-03 -.398E-01
   0.593E+00 0.957E-01 0.263E+04   -.561E+00 -.131E+00 -.263E+04   -.157E-01 -.731E-02 -.267E+00   -.109E-01 0.443E-01 0.864E-03
   -.593E+00 0.957E-01 0.263E+04   0.561E+00 -.131E+00 -.263E+04   0.157E-01 -.731E-02 -.267E+00   0.113E-01 0.463E-01 0.160E-02
   0.379E+00 0.466E+00 0.263E+04   -.394E+00 -.420E+00 -.263E+04   -.142E-01 -.994E-02 -.267E+00   0.330E-01 -.317E-01 0.810E-03
   0.774E-05 -.237E-04 0.263E+04   0.951E-04 0.174E-05 -.263E+04   -.151E-17 -.838E-18 -.354E+00   0.439E-02 0.267E-02 0.362E-01
   -.379E+00 0.466E+00 0.263E+04   0.394E+00 -.420E+00 -.263E+04   0.142E-01 -.994E-02 -.267E+00   -.346E-01 -.307E-01 0.200E-02
   -.214E+00 -.561E+00 0.263E+04   0.167E+00 0.551E+00 -.263E+04   0.152E-02 0.172E-01 -.267E+00   0.458E-01 -.134E-01 0.165E-02
   0.214E+00 -.561E+00 0.263E+04   -.167E+00 0.552E+00 -.263E+04   -.152E-02 0.172E-01 -.267E+00   -.439E-01 -.146E-01 0.196E-02
   0.196E-04 -.416E-04 0.263E+04   0.166E-03 -.200E-04 -.263E+04   0.671E-17 0.475E-17 -.523E+00   -.466E-02 -.241E-02 -.746E-01
   0.507E+01 0.293E+01 0.865E+03   -.495E+01 -.286E+01 -.864E+03   -.211E+00 -.122E+00 -.517E+00   0.659E-01 0.379E-01 -.606E-02
   0.146E-04 0.252E+01 0.870E+03   0.148E-03 -.265E+01 -.869E+03   0.128E-10 0.193E-03 -.554E+00   0.426E-02 0.761E-01 0.217E-01
   -.507E+01 0.293E+01 0.865E+03   0.495E+01 -.286E+01 -.864E+03   0.211E+00 -.122E+00 -.517E+00   -.679E-01 0.399E-01 -.483E-02
   0.218E+01 -.126E+01 0.870E+03   -.230E+01 0.133E+01 -.869E+03   0.167E-03 -.965E-04 -.554E+00   0.683E-01 -.341E-01 0.217E-01
   -.218E+01 -.126E+01 0.870E+03   0.230E+01 0.133E+01 -.869E+03   -.167E-03 -.965E-04 -.554E+00   -.600E-01 -.348E-01 0.227E-01
   0.316E-04 0.463E+01 0.869E+03   0.236E-03 -.461E+01 -.868E+03   0.531E-09 0.797E-02 -.403E+00   -.297E-02 -.677E-01 -.285E-02
   -.211E-04 -.585E+01 0.865E+03   0.162E-03 0.571E+01 -.864E+03   0.162E-07 0.244E+00 -.517E+00   0.397E-03 -.788E-01 -.484E-02
   0.401E+01 -.232E+01 0.869E+03   -.399E+01 0.231E+01 -.868E+03   0.691E-02 -.399E-02 -.403E+00   -.599E-01 0.317E-01 -.283E-02
   -.401E+01 -.232E+01 0.869E+03   0.399E+01 0.231E+01 -.868E+03   -.691E-02 -.399E-02 -.403E+00   0.599E-01 0.344E-01 -.261E-02
   -.426E-04 0.774E-01 -.926E+03   0.549E-04 -.179E+00 0.925E+03   0.204E-08 0.306E-01 0.701E+00   -.592E-02 0.296E-01 -.181E-01
   -.344E+01 -.198E+01 -.901E+03   0.373E+01 0.215E+01 0.901E+03   -.784E+00 -.453E+00 -.765E+00   0.149E+00 0.860E-01 0.125E+00
   0.344E+01 -.198E+01 -.901E+03   -.373E+01 0.215E+01 0.901E+03   0.784E+00 -.453E+00 -.765E+00   -.140E+00 0.879E-01 0.124E+00
   -.109E+02 0.630E+01 -.909E+03   0.103E+02 -.596E+01 0.908E+03   0.503E+00 -.290E+00 0.822E+00   0.130E+00 -.781E-01 0.809E-02
   -.997E-05 0.397E+01 -.901E+03   0.139E-03 -.430E+01 0.901E+03   0.603E-07 0.905E+00 -.765E+00   0.582E-02 -.165E+00 0.124E+00
   0.109E+02 0.630E+01 -.909E+03   -.103E+02 -.596E+01 0.908E+03   -.503E+00 -.290E+00 0.822E+00   -.138E+00 -.798E-01 0.803E-02
   -.671E-01 -.388E-01 -.926E+03   0.155E+00 0.897E-01 0.925E+03   -.265E-01 -.153E-01 0.701E+00   -.280E-01 -.162E-01 -.185E-01
   0.670E-01 -.387E-01 -.926E+03   -.155E+00 0.896E-01 0.925E+03   0.265E-01 -.153E-01 0.701E+00   0.230E-01 -.199E-01 -.181E-01
   0.946E-05 -.126E+02 -.909E+03   0.198E-03 0.119E+02 0.908E+03   0.387E-07 0.581E+00 0.822E+00   -.308E-02 0.152E+00 0.811E-02
   -.121E-04 -.118E-04 -.261E+04   0.284E-04 0.321E-04 0.261E+04   -.344E-17 0.340E-18 0.433E+00   -.304E-03 -.192E-03 -.297E-03
   0.112E+02 0.174E+02 -.261E+04   -.105E+02 -.165E+02 0.261E+04   -.840E+00 -.123E+01 0.726E+00   0.112E+00 0.175E+00 -.119E+00
   -.112E+02 0.174E+02 -.261E+04   0.105E+02 -.165E+02 0.261E+04   0.840E+00 -.123E+01 0.726E+00   -.111E+00 0.177E+00 -.119E+00
   0.206E+02 0.977E+00 -.261E+04   -.196E+02 -.856E+00 0.261E+04   -.149E+01 -.112E+00 0.726E+00   0.208E+00 0.976E-02 -.119E+00
   -.206E+02 0.977E+00 -.261E+04   0.196E+02 -.856E+00 0.261E+04   0.149E+01 -.112E+00 0.726E+00   -.209E+00 0.104E-01 -.121E+00
   0.947E+01 -.183E+02 -.261E+04   -.905E+01 0.174E+02 0.261E+04   -.646E+00 0.134E+01 0.726E+00   0.973E-01 -.185E+00 -.119E+00
   -.947E+01 -.183E+02 -.261E+04   0.905E+01 0.174E+02 0.261E+04   0.646E+00 0.134E+01 0.726E+00   -.954E-01 -.186E+00 -.121E+00
   0.330E-04 -.309E-04 -.261E+04   0.143E-03 -.476E-04 0.261E+04   0.761E-17 0.353E-17 0.460E+00   -.475E-02 -.245E-02 -.616E-02
   -.126E-04 -.286E-05 -.126E+04   0.625E-04 0.565E-05 0.126E+04   -.701E-17 -.221E-17 0.147E+01   0.120E-02 0.716E-03 -.112E+00
   0.454E-04 -.280E-04 -.114E+04   0.162E-04 0.102E-05 0.115E+04   -.981E-18 -.525E-18 -.767E+01   0.734E-03 0.443E-03 -.222E+00
   -.748E-03 -.798E-03 0.725E+01   -.286E-13 -.825E-13 -.682E-12   0.444E-15 0.799E-18 -.629E+01   -.678E-03 0.188E-03 -.743E+00

 POSITION                                       TOTAL-FORCE (eV/Angst)
      0.00000      0.00000      5.28038         0.000000     -0.000000     -0.025798
      2.93784      0.00000      5.28038         0.005599      0.002525     -0.053845
      5.87568      0.00000      5.28038        -0.005599      0.002525     -0.053845
      1.46892      2.54424      5.28038         0.004987      0.003586     -0.053845
      4.40676      2.54424      5.28038         0.000000     -0.000000     -0.096340
      7.34459      2.54424      5.28038        -0.004987      0.003586     -0.053845
      2.93784      5.08848      5.28038        -0.000612     -0.006112     -0.053845
      5.87568      5.08848      5.28038         0.000612     -0.006112     -0.053845
      8.81351      5.08848      5.28038         0.000000     -0.000000     -0.032774
      1.46892      0.84808      7.67911        -0.018773     -0.010839      0.102027
      4.40676      0.84808      7.67911        -0.000000     -0.061483     -0.005726
      7.34459      0.84808      7.67911         0.018773     -0.010839      0.102027
      2.93784      3.39232      7.67911        -0.053246      0.030741     -0.005726
      5.87568      3.39232      7.67911         0.053246      0.030741     -0.005726
      8.81351      3.39232      7.67911        -0.000000     -0.040352      0.111786
      4.40676      5.93656      7.67911         0.000000      0.021677      0.102027
      7.34459      5.93656      7.67911        -0.034946      0.020176      0.111786
     10.28243      5.93656      7.67911         0.034946      0.020176      0.111786
      8.81351      1.70181     10.09390        -0.000000     -0.040683     -0.012413
      2.93906      1.69686     10.04479        -0.347188     -0.200449     -0.304327
      5.87446      1.69686     10.04479         0.347188     -0.200449     -0.304327
     10.26694      4.24935     10.06849         0.047599     -0.027481      0.045191
      4.40676      4.23900     10.04479         0.000000      0.400898     -0.304327
      7.36009      4.24935     10.06849        -0.047599     -0.027481      0.045191
     11.74646      6.78182     10.09390         0.035232      0.020341     -0.012413
      5.88057      6.78182     10.09390        -0.035232      0.020341     -0.012413
      8.81351      6.76675     10.06849         0.000000      0.054962      0.045191
      0.00000      0.00000     12.49934         0.000000     -0.000000     -0.069083
      2.98260      0.07565     12.53968        -0.103690     -0.217146     -0.123771
      5.83091      0.07565     12.53968         0.103690     -0.217146     -0.123771
      1.55682      2.54518     12.53968        -0.239899      0.018775     -0.123771
      7.25669      2.54518     12.53968         0.239899      0.018775     -0.123771
      2.98097      5.01189     12.53968        -0.136209      0.198371     -0.123771
      5.83254      5.01189     12.53968         0.136209      0.198371     -0.123771
      8.81351      5.08848     12.49853         0.000000     -0.000000      0.002789
      4.40676      2.54424     12.23451         0.000000     -0.000000      1.478657
      4.40676      2.54424     14.00732         0.000000     -0.000000     -0.001370
    total drift:                               -0.001426     -0.000610      0.217004

  FREE ENERGIE OF THE ION-ELECTRON SYSTEM (eV)
  free  energy   TOTEN  =      -122.47878652 eV

  energy  without entropy=     -122.47878652  energy(sigma->0) =     -122.47878652

 stress matrix after NEB project (eV)
    -20.72090     -0.00000     -0.00000
     -0.00000    -20.72090      0.00000
      0.00000      0.00000      1.71094
  FORCES: max atom, RMS     0.001370    0.000225
  FORCE total and by dimension    0.001370    0.001370
  Stress total and by dimension   29.353686   20.720903
|           W    W    AA    RRRRR   N    N  II  N    N   GGGG   !!!           |
|           W    W   A  A   R    R  NN   N  II  NN   N  G    G  !!!           |
|           W    W  A    A  R    R  N N  N  II  N N  N  G       !!!           |
|           W WW W  AAAAAA  RRRRR   N  N N  II  N  N N  G  GGG   !            |
|           WW  WW  A    A  R   R   N   NN  II  N   NN  G    G                |
|           W    W  A    A  R    R  N    N  II  N    N   GGGG   !!!           |
|     Tetrahedron method does not include variations of the Fermi             |
|     occupations, so forces and stress will be inaccurate. We suggest        |
|     using a different smearing scheme ISMEAR = 1 or 2 for metals in         |
|     relaxations.                                                            |

 total charge

# of ion       s       p       d       tot
    1        0.542   0.241   8.764   9.546
    2        0.545   0.241   8.763   9.549
    3        0.545   0.241   8.763   9.549
    4        0.545   0.241   8.763   9.549
    5        0.540   0.241   8.763   9.545
    6        0.545   0.241   8.763   9.549
    7        0.545   0.241   8.763   9.549
    8        0.545   0.241   8.763   9.549
    9        0.541   0.241   8.767   9.549
   10        0.519   0.308   8.770   9.596
   11        0.523   0.307   8.776   9.606
   12        0.519   0.308   8.770   9.596
   13        0.523   0.307   8.776   9.606
   14        0.523   0.307   8.776   9.606
   15        0.514   0.309   8.773   9.596
   16        0.519   0.308   8.770   9.596
   17        0.514   0.309   8.773   9.596
   18        0.514   0.309   8.773   9.596
   19        0.516   0.294   8.775   9.585
   20        0.548   0.331   8.754   9.633
   21        0.548   0.331   8.754   9.633
   22        0.508   0.307   8.774   9.589
   23        0.548   0.331   8.754   9.633
   24        0.508   0.307   8.774   9.589
   25        0.516   0.294   8.775   9.585
   26        0.516   0.294   8.775   9.585
   27        0.508   0.307   8.774   9.589
   28        0.541   0.228   8.759   9.528
   29        0.562   0.243   8.749   9.554
   30        0.562   0.243   8.749   9.554
   31        0.562   0.243   8.749   9.554
   32        0.562   0.243   8.749   9.554
   33        0.562   0.243   8.749   9.554
   34        0.562   0.243   8.749   9.554
   35        0.540   0.229   8.756   9.525
   36        0.450   0.482   4.533   5.465
   37        1.008   1.216   0.000   2.223
tot         20.190  11.344 311.284 342.818

 BZINTS: Fermi energy:    0.135284;  395.000000 electrons
         Band energy:-0.142662E+04;  BLOECHL correction:   -0.068090