 vasp.6.2.0 18Jan21 (build Jun 12 2021 23:27:24) complex

 executed on             LinuxIFC date 2022.05.26  19:17:31

 INCAR:
   ISMEAR = -5
   SIGMA = 0.1
   ISPIN = 1
   EDIFF = 1.d-5
   EDIFFG = -0.01
   NSW = 0
   NELM = 150
   ENCUT = 500
   ISIF = 2
   IBRION = 2
   LREAL = Auto
   ALGO = Fast
   ICHARG = 11
   LORBIT = 10
   LCHARG = .F.
   LWAVE = .F.

 POTCAR:    PAW_PBE Au 04Oct2007
 POTCAR:    PAW_PBE Ti 08Apr2002
 POTCAR:    PAW_PBE O 08Apr2002
|           W    W    AA    RRRRR   N    N  II  N    N   GGGG   !!!           |
|           W    W   A  A   R    R  NN   N  II  NN   N  G    G  !!!           |
|           W    W  A    A  R    R  N N  N  II  N N  N  G       !!!           |
|           W WW W  AAAAAA  RRRRR   N  N N  II  N  N N  G  GGG   !            |
|           WW  WW  A    A  R   R   N   NN  II  N   NN  G    G                |
|           W    W  A    A  R    R  N    N  II  N    N   GGGG   !!!           |
|     For optimal performance we recommend to set                             |
|       NCORE = 2 up to number-of-cores-per-socket                            |
|     This setting can greatly improve the performance of VASP for DFT.       |
|     The default, NCORE=1 might be grossly inefficient on modern             |
|     multi-core architectures or massively parallel machines. Do your        |
|     Unfortunately you need to use the default for GW and RPA                |
|     calculations (for HF NCORE is supported but not extensively tested      |
|     yet).                                                                   |

 POTCAR:    PAW_PBE Au 04Oct2007
   VRHFIN =Au: s1d10

   TITEL  = PAW_PBE Au 04Oct2007
   POMASS =  196.966; ZVAL   =   11.000    mass and valenz
   ENMAX  =  229.943; ENMIN  =  172.457 eV

 POTCAR:    PAW_PBE Ti 08Apr2002
   VRHFIN =Ti: d3 s1

   TITEL  = PAW_PBE Ti 08Apr2002
   POMASS =   47.880; ZVAL   =    4.000    mass and valenz
   ENMAX  =  178.330; ENMIN  =  133.747 eV

 POTCAR:    PAW_PBE O 08Apr2002
   VRHFIN =O: s2p4

   TITEL  = PAW_PBE O 08Apr2002
   POMASS =   16.000; ZVAL   =    6.000    mass and valenz
   ENMAX  =  400.000; ENMIN  =  300.000 eV

 Optimization of the real space projectors (new method)

 maximal supplied QI-value         = 15.12
 optimisation between [QCUT,QGAM] = [ 11.34, 22.83] = [ 36.00,145.93] Ry
 Optimized for a Real-space Cutoff    1.39 Angstroem

   l    n(q)    QCUT    max X(q) W(low)/X(q) W(high)/X(q)  e(spline)
   2      9    11.338    60.898    0.39E-03    0.42E-03    0.21E-06
   2      9    11.338    58.894    0.40E-03    0.42E-03    0.22E-06
   0      9    11.338   109.617    0.13E-03    0.20E-04    0.13E-06
   0      9    11.338    75.026    0.13E-03    0.20E-04    0.13E-06
   1      9    11.338    16.344    0.33E-04    0.24E-03    0.18E-06
   1      9    11.338    10.160    0.26E-04    0.19E-03    0.15E-06
 Optimization of the real space projectors (new method)

[...]

   l    n(q)    QCUT    max X(q) W(low)/X(q) W(high)/X(q)  e(spline)
   2     10    11.404    49.363    0.27E-03    0.67E-03    0.76E-06
   2     10    11.404    47.669    0.26E-03    0.65E-03    0.73E-06
   0     11    11.404    26.374    0.17E-03    0.20E-03    0.34E-06
   0     11    11.404    11.549    0.14E-03    0.16E-03    0.29E-06
   1     10    11.404     9.492    0.33E-04    0.56E-04    0.16E-06
 Optimization of the real space projectors (new method)

 maximal supplied QI-value         = 24.76
 optimisation between [QCUT,QGAM] = [ 11.39, 22.77] = [ 36.31,145.25] Ry
 Optimized for a Real-space Cutoff    1.00 Angstroem

   l    n(q)    QCUT    max X(q) W(low)/X(q) W(high)/X(q)  e(spline)
   0      7    11.387    20.381    0.39E-03    0.13E-02    0.15E-06
   0      7    11.387    15.268    0.42E-03    0.14E-02    0.17E-06
   1      6    11.387     5.964    0.41E-03    0.11E-02    0.17E-06
   1      6    11.387     5.382    0.39E-03    0.87E-03    0.15E-06
  PAW_PBE Au 04Oct2007                  :
  PAW_PBE Ti 08Apr2002                  :
  PAW_PBE O 08Apr2002                   :

 POSCAR: Au-Ti-O
  positions in direct lattice
  velocities in cartesian coordinates
 exchange correlation table for  LEXCH =        8
   RHO(1)=    0.500       N(1)  =     2000
   RHO(2)=  100.500       N(2)  =     4000

 VTST: version 3.2, (02/03/18)

 CHAIN: initializing optimizer

 OPT: Using VASP Conjugate-Gradient optimizer
 CHAIN: Read ICHAIN            0

 POSCAR: Au-Ti-O
  positions in direct lattice
  velocities in cartesian coordinates

 ion  position               nearest neighbor table
   1  0.000  0.000  0.238-  16 2.94  12 2.94   6 2.94   8 2.94   7 2.94   3 2.94  10 2.94   4 2.94
                             2 2.94
   2  0.333  0.000  0.238-   9 2.94  11 2.94  17 2.94  10 2.94   8 2.94   4 2.94   5 2.94   1 2.94
                             3 2.94
   3  0.667  0.000  0.238-   7 2.94  18 2.94  12 2.94   1 2.94  11 2.94   5 2.94   6 2.94   9 2.94
                             2 2.94
   4  0.000  0.333  0.238-  10 2.94   6 2.94   5 2.94  13 2.94   2 2.94  15 2.94   9 2.94   1 2.94
                             7 2.94
   5  0.333  0.333  0.238-  13 2.94   7 2.94  11 2.94   4 2.94   2 2.94  14 2.94   3 2.94   8 2.94
                             6 2.94
   6  0.667  0.333  0.238-  15 2.94  14 2.94   1 2.94  12 2.94   4 2.94   9 2.94   8 2.94   3 2.94
                             5 2.94
   7  0.000  0.667  0.238-  18 2.94   3 2.94  16 2.94   5 2.94   1 2.94  13 2.94   8 2.94   4 2.94
                             9 2.94
   8  0.333  0.667  0.238-   9 2.94  17 2.94   1 2.94   2 2.94  14 2.94  16 2.94   6 2.94   7 2.94
                             5 2.94
   9  0.667  0.667  0.238-   2 2.94   8 2.94  17 2.94   6 2.94  15 2.94   4 2.94   3 2.94  18 2.94
                             7 2.94
  10  0.111  0.111  0.346-  26 2.93  19 2.93  20 2.93  11 2.94  17 2.94   2 2.94   4 2.94   1 2.94
                            12 2.94  16 2.94  13 2.94  15 2.94
  11  0.444  0.111  0.346-  20 2.92  21 2.92  27 2.94  13 2.94   2 2.94  10 2.94  17 2.94   5 2.94
                             3 2.94  18 2.94  14 2.94  12 2.94
  12  0.778  0.111  0.346-  25 2.93  19 2.93  21 2.93  16 2.94  18 2.94   1 2.94  14 2.94  15 2.94
                             3 2.94   6 2.94  10 2.94  11 2.94
  13  0.111  0.444  0.346-  23 2.92  20 2.92  22 2.94   5 2.94  18 2.94  11 2.94   7 2.94   4 2.94
                            16 2.94  10 2.94  14 2.94  15 2.94
  14  0.444  0.444  0.346-  21 2.92  23 2.92  24 2.94  15 2.94   6 2.94  12 2.94   8 2.94  17 2.94
                             5 2.94  16 2.94  13 2.94  11 2.94
  15  0.778  0.444  0.346-  24 2.92  22 2.92  19 2.93  14 2.94   6 2.94  17 2.94  12 2.94   9 2.94
                             4 2.94  10 2.94  13 2.94  18 2.94
  16  0.111  0.778  0.346-  25 2.93  26 2.93  23 2.93  18 2.94  12 2.94   7 2.94   1 2.94   8 2.94
                            13 2.94  10 2.94  14 2.94  17 2.94
  17  0.444  0.778  0.346-  27 2.92  24 2.92  26 2.93   9 2.94  15 2.94   2 2.94  10 2.94  11 2.94
                             8 2.94  14 2.94  16 2.94  18 2.94
  18  0.778  0.778  0.346-  22 2.92  27 2.92  25 2.93  16 2.94   7 2.94  13 2.94  12 2.94   3 2.94
                            11 2.94   9 2.94  15 2.94  17 2.94
  19  0.889  0.222  0.454-  10 2.93  12 2.93  15 2.93  26 2.94  25 2.94  24 2.94  22 2.94  21 2.95
                            20 2.95  28 2.95  32 3.03  31 3.03
  20  0.223  0.223  0.453-  36 2.76  23 2.91  21 2.91  11 2.92  13 2.92  10 2.93  27 2.95  22 2.95
                            26 2.95  19 2.95  29 2.96  31 2.96
  21  0.554  0.223  0.453-  36 2.76  20 2.91  23 2.91  14 2.92  11 2.92  12 2.93  27 2.95  24 2.95
                            25 2.95  19 2.95  30 2.96  32 2.96
  22  0.887  0.556  0.454-  24 2.92  27 2.92  18 2.92  15 2.92  13 2.94  25 2.94  19 2.94  23 2.95
                            20 2.95  35 2.96  33 2.99  31 2.99
  23  0.223  0.554  0.453-  36 2.76  20 2.91  21 2.91  13 2.92  14 2.92  16 2.93  22 2.95  24 2.95
                            25 2.95  26 2.95  33 2.96  34 2.96
  24  0.556  0.556  0.454-  27 2.92  22 2.92  15 2.92  17 2.92  14 2.94  26 2.94  19 2.94  21 2.95
                            23 2.95  35 2.96  32 2.99  34 2.99
  25  0.889  0.889  0.454-  16 2.93  12 2.93  18 2.93  19 2.94  26 2.94  22 2.94  27 2.94  23 2.95
                            21 2.95  28 2.95  33 3.03  30 3.03
  26  0.222  0.889  0.454-  10 2.93  16 2.93  17 2.93  19 2.94  25 2.94  27 2.94  24 2.94  20 2.95
                            23 2.95  28 2.95  29 3.03  34 3.03
  27  0.556  0.887  0.454-  24 2.92  22 2.92  17 2.92  18 2.92  11 2.94  26 2.94  25 2.94  20 2.95
                            21 2.95  35 2.96  29 2.99  30 2.99
  28  0.000  0.000  0.563-  25 2.95  19 2.95  26 2.95  34 2.98  32 2.98  33 2.98  30 2.98  31 2.98
                            29 2.98
  29  0.334  0.009  0.564-  30 2.85  31 2.86  36 2.87  20 2.96  35 2.98  28 2.98  27 2.99  26 3.03
                            34 3.10
  30  0.657  0.009  0.564-  29 2.85  32 2.86  36 2.87  21 2.96  35 2.98  28 2.98  27 2.99  25 3.03
                            33 3.10
  31  0.009  0.334  0.564-  33 2.85  29 2.86  36 2.87  20 2.96  35 2.98  28 2.98  22 2.99  19 3.03
                            32 3.10
  32  0.657  0.334  0.564-  34 2.85  30 2.86  36 2.87  21 2.96  35 2.98  28 2.98  24 2.99  19 3.03
                            31 3.10
  33  0.009  0.657  0.564-  31 2.85  34 2.86  36 2.87  23 2.96  35 2.98  28 2.98  22 2.99  25 3.03
                            30 3.10
  34  0.334  0.657  0.564-  32 2.85  33 2.86  36 2.87  23 2.96  35 2.98  28 2.98  24 2.99  26 3.03
                            29 3.10
  35  0.667  0.667  0.563-  24 2.96  27 2.96  22 2.96  29 2.98  34 2.98  32 2.98  31 2.98  30 2.98
                            33 2.98
  36  0.333  0.333  0.552-  37 1.70  20 2.76  23 2.76  21 2.76  33 2.87  31 2.87  29 2.87  30 2.87
                            34 2.87  32 2.87
  37  0.333  0.333  0.629-  36 1.70

  LATTYP: Found a hexagonal cell.
 ALAT       =     8.8135128021
 C/A-ratio  =     2.5184286595

  Lattice vectors:

 A1 = (  -4.4067569092,  -7.6327256898,   0.0000000000)
 A2 = (   8.8135128021,   0.0000000000,   0.0000000000)
 A3 = (   0.0000000000,   0.0000000000,  22.1962032318)

Analysis of symmetry for initial positions (statically):
 Subroutine PRICEL returns:
 Original cell was already a primitive cell.

 Routine SETGRP: Setting up the symmetry group for a
 hexagonal supercell.

 Subroutine GETGRP returns: Found  6 space group operations
 (whereof  6 operations were pure point group operations)
 out of a pool of 24 trial point group operations.

The static configuration has the point symmetry C_3v.

Analysis of symmetry for dynamics (positions and initial velocities):
 Subroutine PRICEL returns:
 Original cell was already a primitive cell.

[...]

The dynamic configuration has the point symmetry C_3v.

Analysis of constrained symmetry for selective dynamics:
 Subroutine PRICEL returns:
 Original cell was already a primitive cell.

 Routine SETGRP: Setting up the symmetry group for a
 hexagonal supercell.

 Subroutine GETGRP returns: Found  6 space group operations
 (whereof  6 operations were pure point group operations)
[...]
     24      -5.1778      2.00000
     25      -5.1416      2.00000
     26      -5.1206      2.00000
     27      -5.0937      2.00000
     28      -5.0237      2.00000
     29      -5.0014      2.00000
     30      -4.8832      2.00000
     31      -4.8785      2.00000
     32      -4.8548      2.00000
     33      -4.8388      2.00000
     34      -4.8230      2.00000
     35      -4.8197      2.00000
     36      -4.7230      2.00000
     37      -4.7133      2.00000
     38      -4.6465      2.00000
     39      -4.6247      2.00000
     40      -4.5658      2.00000
     41      -4.5068      2.00000
     42      -4.4772      2.00000
     43      -4.4432      2.00000
     44      -4.4162      2.00000
     45      -4.4036      2.00000
     46      -4.3691      2.00000
     47      -4.2818      2.00000
     48      -4.2695      2.00000
     49      -4.2427      2.00000
     50      -4.2128      2.00000
     51      -4.2034      2.00000
     52      -4.1980      2.00000
     53      -4.1763      2.00000
     54      -4.1598      2.00000
     55      -4.1164      2.00000
     56      -4.0914      2.00000
     57      -4.0752      2.00000
     58      -4.0635      2.00000
     59      -4.0451      2.00000
     60      -4.0427      2.00000
[...]
    238       6.4019      0.00000
    239       6.4864      0.00000
    240       6.5155      0.00000
    241       6.6404      0.00000
    242       6.6461      0.00000
    243       6.7010      0.00000
    244       6.7563      0.00000
    245       6.8938      0.00000
    246       7.0881      0.00000
    247       7.1269      0.00000
    248       7.2552      0.00000
    249       7.4898      0.00000
    250       7.6287      0.00000
    251       7.7067      0.00000
    252       7.8212      0.00000

 soft charge-density along one line, spin component           1
         0         1         2         3         4         5         6         7         8         9
 total charge-density along one line

------------------------ aborting loop because EDIFF is reached ----------------------------------------

 total charge

# of ion       s       p       d       tot
    1        0.545   0.239   8.766   9.550
    2        0.543   0.241   8.765   9.549
    3        0.543   0.241   8.765   9.549
    4        0.543   0.241   8.765   9.549
    5        0.542   0.240   8.763   9.546
    6        0.543   0.241   8.765   9.549
    7        0.543   0.241   8.765   9.549
    8        0.543   0.241   8.765   9.549
    9        0.541   0.240   8.767   9.549
   10        0.520   0.307   8.773   9.600
   11        0.519   0.308   8.776   9.602
   12        0.520   0.307   8.773   9.600
   13        0.519   0.308   8.776   9.602
   14        0.519   0.308   8.776   9.602
   15        0.515   0.310   8.773   9.598
   16        0.520   0.307   8.773   9.600
   17        0.515   0.310   8.773   9.598
   18        0.515   0.310   8.773   9.598
   19        0.517   0.296   8.775   9.588
   20        0.551   0.327   8.749   9.628
   21        0.551   0.327   8.749   9.628
   22        0.511   0.307   8.773   9.591
   23        0.551   0.327   8.749   9.628
   24        0.511   0.307   8.773   9.591
   25        0.517   0.296   8.775   9.588
   26        0.517   0.296   8.775   9.588
   27        0.511   0.307   8.773   9.591
   28        0.541   0.227   8.758   9.526
   29        0.570   0.231   8.755   9.556
   30        0.570   0.231   8.755   9.556
   31        0.570   0.231   8.755   9.556
   32        0.570   0.231   8.755   9.556
   33        0.570   0.231   8.755   9.556
   34        0.570   0.231   8.755   9.556
   35        0.541   0.229   8.756   9.525
   36        0.515   0.766   2.724   4.005
   37        1.609   3.266   0.000   4.876
tot         20.914  13.605 309.509 344.028

  FORCE on cell =-STRESS in cart. coord.  units (eV):
  Direction    XX          YY          ZZ          XY          YZ          ZX
  Alpha Z  1009.86032  1009.86032  1009.86032
  Ewald  116771.34666116771.34705************    -0.00032    -0.00009    -0.00014
  Hartree125388.81380125388.81379************     0.00001    -0.00002    -0.00004
  E(xc)   -1772.26742 -1772.26742 -1781.67845     0.00000     0.00000     0.00000
  Local  ************************254420.43203     0.00198     0.00002     0.00001
  n-local   -95.33028   -52.29169   -54.27636    22.48590    -1.72760     1.55150
  augment  2375.92094  2375.92248  2394.57606    -0.00133     0.00000     0.00002
  Kinetic  5496.89045  5503.58231  5551.69611     5.17907     0.34830     0.26982
  Fock        0.00000     0.00000     0.00000     0.00000     0.00000     0.00000
  Total     -19.06367   -19.06367     2.11560    -0.00000     0.00000     0.00000
  in kB     -20.45548   -20.45548     2.27005    -0.00000     0.00000     0.00000

 VOLUME and BASIS-vectors are now :
  energy-cutoff  :      500.00
  volume of cell :     1493.16
      direct lattice vectors                 reciprocal lattice vectors
     8.813512802  0.000000000  0.000000000     0.113462137 -0.065507406  0.000000000
     4.406756909  7.632725690  0.000000000     0.000000000  0.131014796  0.000000000
     0.000000000  0.000000000 22.196203232     0.000000000  0.000000000  0.045052750

  length of vectors
     8.813512802  8.813512802 22.196203232     0.131014796  0.131014796  0.045052750

 FORCES acting on ions
    electron-ion (+dipol)            ewald-force                    non-local-force                 convergence-correction
   -.193E-04 -.160E-04 0.246E+04   0.518E-04 0.433E-04 -.246E+04   0.295E-17 -.263E-17 -.563E+00   -.181E-03 -.118E-03 -.254E+00
   0.782E-01 -.360E+00 0.246E+04   -.147E+00 0.223E+00 -.246E+04   -.301E-02 0.428E-01 -.333E+00   0.674E-01 0.910E-01 -.234E+00
   -.783E-01 -.360E+00 0.246E+04   0.147E+00 0.223E+00 -.246E+04   0.301E-02 0.428E-01 -.333E+00   -.672E-01 0.930E-01 -.233E+00
   -.272E+00 0.248E+00 0.246E+04   0.120E+00 -.239E+00 -.246E+04   0.355E-01 -.240E-01 -.333E+00   0.113E+00 0.128E-01 -.234E+00
   0.902E-05 -.229E-04 0.246E+04   0.951E-04 0.172E-05 -.246E+04   0.190E-18 -.875E-18 -.392E+00   0.424E-02 0.258E-02 -.246E+00
   0.272E+00 0.248E+00 0.246E+04   -.120E+00 -.239E+00 -.246E+04   -.355E-01 -.240E-01 -.333E+00   -.114E+00 0.138E-01 -.233E+00
   -.351E+00 0.112E+00 0.246E+04   0.266E+00 0.156E-01 -.246E+04   0.385E-01 -.188E-01 -.333E+00   0.470E-01 -.105E+00 -.233E+00
   0.351E+00 0.112E+00 0.246E+04   -.267E+00 0.156E-01 -.246E+04   -.385E-01 -.188E-01 -.333E+00   -.451E-01 -.106E+00 -.233E+00
   0.194E-04 -.417E-04 0.246E+04   0.166E-03 -.200E-04 -.246E+04   0.267E-17 0.293E-17 -.505E+00   -.461E-02 -.238E-02 -.256E+00
   -.475E-01 -.275E-01 0.807E+03   0.105E+00 0.607E-01 -.807E+03   -.187E+00 -.108E+00 -.416E+00   0.113E+00 0.650E-01 -.709E-01
   0.141E-04 -.876E+00 0.808E+03   0.148E-03 0.654E+00 -.807E+03   0.448E-08 0.672E-01 -.338E+00   0.363E-02 0.108E+00 -.374E-01
   0.475E-01 -.274E-01 0.807E+03   -.105E+00 0.607E-01 -.807E+03   0.187E+00 -.108E+00 -.416E+00   -.114E+00 0.661E-01 -.719E-01
   -.759E+00 0.438E+00 0.808E+03   0.566E+00 -.327E+00 -.807E+03   0.582E-01 -.336E-01 -.338E+00   0.958E-01 -.507E-01 -.374E-01
   0.759E+00 0.438E+00 0.808E+03   -.566E+00 -.327E+00 -.807E+03   -.582E-01 -.336E-01 -.338E+00   -.885E-01 -.512E-01 -.384E-01
   0.318E-04 0.292E+01 0.811E+03   0.235E-03 -.300E+01 -.811E+03   0.108E-08 0.162E-01 -.404E+00   -.207E-02 0.293E-01 -.466E-01
   -.206E-04 0.548E-01 0.807E+03   0.162E-03 -.121E+00 -.807E+03   0.144E-07 0.216E+00 -.416E+00   0.358E-04 -.132E+00 -.719E-01
   0.253E+01 -.146E+01 0.811E+03   -.260E+01 0.150E+01 -.811E+03   0.141E-01 -.812E-02 -.404E+00   0.246E-01 -.160E-01 -.466E-01
   -.253E+01 -.146E+01 0.811E+03   0.260E+01 0.150E+01 -.811E+03   -.141E-01 -.812E-02 -.404E+00   -.246E-01 -.144E-01 -.466E-01
   -.425E-04 -.388E+01 -.861E+03   0.557E-04 0.362E+01 0.860E+03   0.741E-08 0.111E+00 0.843E+00   0.349E-02 0.102E+00 0.148E+00
   -.137E+02 -.791E+01 -.870E+03   0.143E+02 0.827E+01 0.871E+03   -.992E+00 -.573E+00 -.608E+00   0.138E+00 0.796E-01 0.112E+00
   0.137E+02 -.791E+01 -.870E+03   -.143E+02 0.827E+01 0.871E+03   0.992E+00 -.573E+00 -.608E+00   -.139E+00 0.806E-01 0.111E+00
   -.119E+02 0.690E+01 -.853E+03   0.115E+02 -.665E+01 0.852E+03   0.372E+00 -.215E+00 0.714E+00   0.962E-01 -.569E-01 0.910E-01
   -.809E-05 0.158E+02 -.870E+03   0.138E-03 -.165E+02 0.871E+03   0.763E-07 0.115E+01 -.608E+00   0.164E-03 -.160E+00 0.111E+00
   0.119E+02 0.690E+01 -.853E+03   -.115E+02 -.665E+01 0.852E+03   -.372E+00 -.215E+00 0.714E+00   -.965E-01 -.557E-01 0.909E-01
   0.336E+01 0.194E+01 -.861E+03   -.314E+01 -.181E+01 0.860E+03   -.964E-01 -.556E-01 0.843E+00   -.832E-01 -.481E-01 0.148E+00
   -.336E+01 0.194E+01 -.861E+03   0.314E+01 -.181E+01 0.860E+03   0.964E-01 -.556E-01 0.843E+00   0.903E-01 -.479E-01 0.148E+00
   0.845E-05 -.138E+02 -.853E+03   0.198E-03 0.133E+02 0.852E+03   0.286E-07 0.430E+00 0.714E+00   -.176E-02 0.112E+00 0.910E-01
   -.114E-04 -.117E-04 -.243E+04   0.282E-04 0.320E-04 0.243E+04   0.297E-17 0.287E-17 0.462E+00   0.278E-03 0.144E-03 0.354E+00
   0.865E+01 0.901E+01 -.242E+04   -.801E+01 -.807E+01 0.242E+04   -.825E+00 -.125E+01 0.711E+00   0.368E-01 0.141E-01 0.251E+00
   -.865E+01 0.901E+01 -.242E+04   0.801E+01 -.807E+01 0.242E+04   0.825E+00 -.125E+01 0.711E+00   -.370E-01 0.155E-01 0.252E+00
   0.121E+02 0.299E+01 -.242E+04   -.110E+02 -.290E+01 0.242E+04   -.149E+01 -.921E-01 0.711E+00   0.307E-01 0.247E-01 0.251E+00
   -.121E+02 0.299E+01 -.242E+04   0.110E+02 -.290E+01 0.242E+04   0.149E+01 -.921E-01 0.711E+00   -.312E-01 0.259E-01 0.252E+00
   0.348E+01 -.120E+02 -.242E+04   -.298E+01 0.110E+02 0.242E+04   -.666E+00 0.134E+01 0.711E+00   -.500E-02 -.398E-01 0.252E+00
   -.348E+01 -.120E+02 -.242E+04   0.298E+01 0.110E+02 0.242E+04   0.666E+00 0.134E+01 0.711E+00   0.682E-02 -.400E-01 0.252E+00
   0.326E-04 -.312E-04 -.244E+04   0.143E-03 -.473E-04 0.243E+04   -.524E-17 0.500E-17 0.402E+00   -.456E-02 -.234E-02 0.325E+00
   -.564E-05 0.431E-05 -.746E+03   0.413E-04 0.374E-05 0.746E+03   -.183E-17 -.203E-18 0.163E+01   0.431E-03 0.263E-03 0.561E-01
   0.178E-03 -.969E-04 -.153E+04   0.253E-04 0.162E-05 0.156E+04   0.135E-18 0.286E-18 -.244E+02   0.331E-02 0.203E-02 0.252E-01
   -.601E-03 -.856E-03 0.216E+02   -.863E-13 0.190E-12 0.455E-12   -.693E-17 0.509E-17 -.217E+02   0.165E-01 0.102E-01 0.698E+00

 POSITION                                       TOTAL-FORCE (eV/Angst)
      0.00000      0.00000      5.28038         0.000000      0.000000     -0.121509
      2.93784      0.00000      5.28038        -0.003703     -0.001985     -0.051820
      5.87568      0.00000      5.28038         0.003703     -0.001985     -0.051820
      1.46892      2.54424      5.28038        -0.003571     -0.002215     -0.051820
      4.40676      2.54424      5.28038         0.000000      0.000000     -0.080723
      7.34459      2.54424      5.28038         0.003571     -0.002215     -0.051820
      2.93784      5.08848      5.28038         0.000132      0.004200     -0.051820
      5.87568      5.08848      5.28038        -0.000132      0.004200     -0.051820
      8.81351      5.08848      5.28038         0.000000     -0.000000     -0.057353
      1.46892      0.84808      7.67911        -0.016117     -0.009305      0.075448
      4.40676      0.84808      7.67911        -0.000000     -0.048668      0.046117
      7.34459      0.84808      7.67911         0.016117     -0.009305      0.075448
      2.93784      3.39232      7.67911        -0.042148      0.024334      0.046117
      5.87568      3.39232      7.67911         0.042148      0.024334      0.046117
      8.81351      3.39232      7.67911        -0.000000     -0.027479      0.120235
      4.40676      5.93656      7.67911         0.000000      0.018610      0.075448
      7.34459      5.93656      7.67911        -0.023798      0.013740      0.120235
     10.28243      5.93656      7.67911         0.023798      0.013740      0.120235
      8.81351      1.69614     10.07331        -0.000000     -0.044636      0.025175
      2.94950      1.70289     10.06400        -0.230048     -0.132819     -0.192344
      5.86402      1.70289     10.06400         0.230048     -0.132819     -0.192344
     10.27143      4.24676     10.06599         0.046134     -0.026636      0.040733
      4.40676      4.22694     10.06400         0.000000      0.265637     -0.192344
      7.35560      4.24676     10.06599        -0.046134     -0.026636      0.040733
     11.75137      6.78466     10.07331         0.038656      0.022318      0.025175
      5.87566      6.78466     10.07331        -0.038656      0.022318      0.025175
      8.81351      6.77194     10.06599         0.000000      0.053271      0.040733
      0.00000      0.00000     12.49013         0.000000      0.000000     -0.041746
      2.98093      0.06833     12.52966        -0.149644     -0.290725     -0.218184
      5.83259      0.06833     12.52966         0.149644     -0.290725     -0.218184
      1.54964      2.54739     12.52966        -0.326597      0.015768     -0.218184
      7.26387      2.54739     12.52966         0.326597      0.015768     -0.218184
      2.97547      5.01700     12.52966        -0.176954      0.274958     -0.218184
      5.83804      5.01700     12.52966         0.176954      0.274958     -0.218184
      8.81351      5.08848     12.50181         0.000000     -0.000000      0.005727
      4.40676      2.54424     12.25739         0.000000      0.000000      1.579291
      4.40676      2.54424     13.95621         0.000000     -0.000000     -0.009752
    total drift:                                0.015916      0.009349      0.582990

  FREE ENERGIE OF THE ION-ELECTRON SYSTEM (eV)
  free  energy   TOTEN  =      -122.59854107 eV

  energy  without entropy=     -122.59854107  energy(sigma->0) =     -122.59854107

 stress matrix after NEB project (eV)
    -19.06367     -0.00000      0.00000
     -0.00000    -19.06367      0.00000
     -0.00000      0.00000      2.11560
  FORCES: max atom, RMS     0.009752    0.001603
  FORCE total and by dimension    0.009752    0.009752
  Stress total and by dimension   27.042978   19.063669
|           W    W    AA    RRRRR   N    N  II  N    N   GGGG   !!!           |
|           W    W   A  A   R    R  NN   N  II  NN   N  G    G  !!!           |
|           W    W  A    A  R    R  N N  N  II  N N  N  G       !!!           |
|           W WW W  AAAAAA  RRRRR   N  N N  II  N  N N  G  GGG   !            |
|           WW  WW  A    A  R   R   N   NN  II  N   NN  G    G                |
|           W    W  A    A  R    R  N    N  II  N    N   GGGG   !!!           |
|     Tetrahedron method does not include variations of the Fermi             |
|     occupations, so forces and stress will be inaccurate. We suggest        |
|     using a different smearing scheme ISMEAR = 1 or 2 for metals in         |
|     relaxations.                                                            |

 total charge

# of ion       s       p       d       tot
    1        0.545   0.239   8.766   9.550
    2        0.543   0.241   8.765   9.549
    3        0.543   0.241   8.765   9.549
    4        0.543   0.241   8.765   9.549
    5        0.542   0.240   8.763   9.546
    6        0.543   0.241   8.765   9.549
    7        0.543   0.241   8.765   9.549
    8        0.543   0.241   8.765   9.549
    9        0.541   0.240   8.767   9.549
   10        0.520   0.307   8.773   9.600
   11        0.519   0.308   8.776   9.602
   12        0.520   0.307   8.773   9.600
   13        0.519   0.308   8.776   9.602
   14        0.519   0.308   8.776   9.602
   15        0.515   0.310   8.773   9.598
   16        0.520   0.307   8.773   9.600
   17        0.515   0.310   8.773   9.598
   18        0.515   0.310   8.773   9.598
   19        0.517   0.296   8.775   9.588
   20        0.551   0.327   8.749   9.628
   21        0.551   0.327   8.749   9.628
   22        0.511   0.307   8.773   9.591
   23        0.551   0.327   8.749   9.628
   24        0.511   0.307   8.773   9.591
   25        0.517   0.296   8.775   9.588
   26        0.517   0.296   8.775   9.588
   27        0.511   0.307   8.773   9.591
   28        0.541   0.227   8.758   9.526
   29        0.570   0.231   8.755   9.556
   30        0.570   0.231   8.755   9.556
   31        0.570   0.231   8.755   9.556
   32        0.570   0.231   8.755   9.556
   33        0.570   0.231   8.755   9.556
   34        0.570   0.231   8.755   9.556
   35        0.541   0.229   8.756   9.525
   36        0.515   0.766   2.724   4.005
   37        1.609   3.266   0.000   4.876
tot         20.914  13.605 309.509 344.028

 BZINTS: Fermi energy:    0.598915;  395.000000 electrons
         Band energy:-0.126760E+04;  BLOECHL correction:   -0.080322