 vasp.6.2.0 18Jan21 (build Jun 12 2021 23:27:24) complex

 executed on             LinuxIFC date 2022.05.26  20:11:37

 INCAR:
   ISMEAR = -5
   SIGMA = 0.1
   ISPIN = 1
   EDIFF = 1.d-5
   EDIFFG = -0.01
   NSW = 0
   NELM = 150
   ENCUT = 500
   ISIF = 2
   IBRION = 2
   LREAL = Auto
   ALGO = Fast
   ICHARG = 11
   LORBIT = 10
   LCHARG = .F.
   LWAVE = .F.

 POTCAR:    PAW_PBE Au 04Oct2007
 POTCAR:    PAW_PBE Mn 06Sep2000
|           W    W    AA    RRRRR   N    N  II  N    N   GGGG   !!!           |
|           W    W   A  A   R    R  NN   N  II  NN   N  G    G  !!!           |
|           W    W  A    A  R    R  N N  N  II  N N  N  G       !!!           |
|           W WW W  AAAAAA  RRRRR   N  N N  II  N  N N  G  GGG   !            |
|           WW  WW  A    A  R   R   N   NN  II  N   NN  G    G                |
|           W    W  A    A  R    R  N    N  II  N    N   GGGG   !!!           |
|     For optimal performance we recommend to set                             |
|       NCORE = 2 up to number-of-cores-per-socket                            |
|     This setting can greatly improve the performance of VASP for DFT.       |
|     The default, NCORE=1 might be grossly inefficient on modern             |
|     multi-core architectures or massively parallel machines. Do your        |
|     Unfortunately you need to use the default for GW and RPA                |
|     calculations (for HF NCORE is supported but not extensively tested      |
|     yet).                                                                   |

 POTCAR:    PAW_PBE Au 04Oct2007
   VRHFIN =Au: s1d10

   TITEL  = PAW_PBE Au 04Oct2007
   POMASS =  196.966; ZVAL   =   11.000    mass and valenz
   ENMAX  =  229.943; ENMIN  =  172.457 eV

 POTCAR:    PAW_PBE Mn 06Sep2000
   VRHFIN =Mn: d6 s1

   TITEL  = PAW_PBE Mn 06Sep2000
   POMASS =   54.938; ZVAL   =    7.000    mass and valenz
   ENMAX  =  269.864; ENMIN  =  202.398 eV

 Optimization of the real space projectors (new method)

 maximal supplied QI-value         = 15.12
 optimisation between [QCUT,QGAM] = [ 11.34, 22.83] = [ 36.00,145.93] Ry
 Optimized for a Real-space Cutoff    1.39 Angstroem

   l    n(q)    QCUT    max X(q) W(low)/X(q) W(high)/X(q)  e(spline)
   2      9    11.338    60.898    0.39E-03    0.42E-03    0.21E-06
   2      9    11.338    58.894    0.40E-03    0.42E-03    0.22E-06
   0      9    11.338   109.617    0.13E-03    0.20E-04    0.13E-06
   0      9    11.338    75.026    0.13E-03    0.20E-04    0.13E-06
   1      9    11.338    16.344    0.33E-04    0.24E-03    0.18E-06
   1      9    11.338    10.160    0.26E-04    0.19E-03    0.15E-06
 Optimization of the real space projectors (new method)

 maximal supplied QI-value         = 16.25
 optimisation between [QCUT,QGAM] = [ 11.38, 22.75] = [ 36.24,144.96] Ry
 Optimized for a Real-space Cutoff    1.39 Angstroem

   l    n(q)    QCUT    max X(q) W(low)/X(q) W(high)/X(q)  e(spline)
   2      8    11.376   110.144    0.49E-03    0.27E-04    0.26E-06
   2      8    11.376   103.200    0.49E-03    0.28E-04    0.27E-06
   0      9    11.376    68.437    0.57E-04    0.92E-04    0.15E-06
   0      9    11.376    33.971    0.51E-04    0.83E-04    0.14E-06
   1      9    11.376    17.065    0.34E-03    0.68E-04    0.14E-06
   1      9    11.376    12.540    0.27E-03    0.59E-04    0.11E-06
  PAW_PBE Au 04Oct2007                  :
  PAW_PBE Mn 06Sep2000                  :

 POSCAR: Au-Mn
  positions in direct lattice
  velocities in cartesian coordinates
 exchange correlation table for  LEXCH =        8
   RHO(1)=    0.500       N(1)  =     2000
   RHO(2)=  100.500       N(2)  =     4000

 VTST: version 3.2, (02/03/18)

 CHAIN: initializing optimizer

 OPT: Using VASP Conjugate-Gradient optimizer
 CHAIN: Read ICHAIN            0

 POSCAR: Au-Mn
  positions in direct lattice
  velocities in cartesian coordinates

 ion  position               nearest neighbor table
   1  0.000  0.000  0.238-  16 2.94  12 2.94   6 2.94   8 2.94   7 2.94   3 2.94  10 2.94   4 2.94
                             2 2.94
   2  0.333  0.000  0.238-   9 2.94  11 2.94  17 2.94  10 2.94   8 2.94   4 2.94   5 2.94   1 2.94
                             3 2.94
   3  0.667  0.000  0.238-   7 2.94  18 2.94  12 2.94   1 2.94  11 2.94   5 2.94   6 2.94   9 2.94
                             2 2.94
   4  0.000  0.333  0.238-  10 2.94   6 2.94   5 2.94  13 2.94   2 2.94  15 2.94   9 2.94   1 2.94
                             7 2.94
   5  0.333  0.333  0.238-  13 2.94   7 2.94  11 2.94   4 2.94   2 2.94  14 2.94   3 2.94   8 2.94
                             6 2.94
   6  0.667  0.333  0.238-  15 2.94  14 2.94   1 2.94  12 2.94   4 2.94   9 2.94   8 2.94   3 2.94
                             5 2.94
   7  0.000  0.667  0.238-  18 2.94   3 2.94  16 2.94   5 2.94   1 2.94  13 2.94   8 2.94   4 2.94
                             9 2.94
   8  0.333  0.667  0.238-   9 2.94  17 2.94   1 2.94   2 2.94  14 2.94  16 2.94   6 2.94   7 2.94
                             5 2.94
   9  0.667  0.667  0.238-   2 2.94   8 2.94  17 2.94   6 2.94  15 2.94   4 2.94   3 2.94  18 2.94
                             7 2.94
  10  0.111  0.111  0.346-  20 2.93  26 2.94  19 2.94  11 2.94  17 2.94   2 2.94   4 2.94   1 2.94
                            12 2.94  16 2.94  13 2.94  15 2.94
  11  0.444  0.111  0.346-  20 2.91  21 2.91  27 2.93  13 2.94   2 2.94  10 2.94  17 2.94   5 2.94
                             3 2.94  18 2.94  14 2.94  12 2.94
  12  0.778  0.111  0.346-  21 2.93  25 2.94  19 2.94  16 2.94  18 2.94   1 2.94  14 2.94  15 2.94
                             3 2.94   6 2.94  10 2.94  11 2.94
  13  0.111  0.444  0.346-  23 2.91  20 2.91  22 2.93   5 2.94  18 2.94  11 2.94   7 2.94   4 2.94
                            16 2.94  10 2.94  14 2.94  15 2.94
  14  0.444  0.444  0.346-  21 2.91  23 2.91  24 2.93  15 2.94   6 2.94  12 2.94   8 2.94  17 2.94
                             5 2.94  16 2.94  13 2.94  11 2.94
  15  0.778  0.444  0.346-  24 2.92  22 2.92  19 2.94  14 2.94   6 2.94  17 2.94  12 2.94   9 2.94
                             4 2.94  10 2.94  13 2.94  18 2.94
  16  0.111  0.778  0.346-  23 2.93  25 2.94  26 2.94  18 2.94  12 2.94   7 2.94   1 2.94   8 2.94
                            13 2.94  10 2.94  14 2.94  17 2.94
  17  0.444  0.778  0.346-  27 2.92  24 2.92  26 2.94   9 2.94  15 2.94   2 2.94  10 2.94  11 2.94
                             8 2.94  14 2.94  16 2.94  18 2.94
  18  0.778  0.778  0.346-  22 2.92  27 2.92  25 2.94  16 2.94   7 2.94  13 2.94  12 2.94   3 2.94
                            11 2.94   9 2.94  15 2.94  17 2.94
  19  0.889  0.222  0.454-  10 2.94  12 2.94  15 2.94  26 2.94  25 2.94  24 2.94  22 2.94  28 2.95
                            21 2.95  20 2.95  32 2.99  31 2.99
  20  0.223  0.223  0.453-  36 2.70  23 2.91  21 2.91  11 2.91  13 2.91  29 2.92  31 2.92  10 2.93
                            26 2.95  19 2.95  27 2.95  22 2.95
  21  0.553  0.223  0.453-  36 2.70  20 2.91  23 2.91  14 2.91  11 2.91  30 2.92  32 2.92  12 2.93
                            25 2.95  19 2.95  27 2.95  24 2.95
  22  0.886  0.557  0.453-  24 2.91  27 2.91  18 2.92  15 2.92  13 2.93  25 2.94  19 2.94  23 2.95
                            20 2.95  33 2.96  31 2.96  35 2.96
  23  0.223  0.553  0.453-  36 2.70  20 2.91  21 2.91  13 2.91  14 2.91  33 2.92  34 2.92  16 2.93
                            25 2.95  26 2.95  22 2.95  24 2.95
  24  0.557  0.557  0.453-  27 2.91  22 2.91  15 2.92  17 2.92  14 2.93  26 2.94  19 2.94  21 2.95
                            23 2.95  32 2.96  34 2.96  35 2.96
  25  0.889  0.889  0.454-  16 2.94  12 2.94  18 2.94  19 2.94  26 2.94  22 2.94  27 2.94  28 2.95
                            23 2.95  21 2.95  33 2.99  30 2.99
  26  0.222  0.889  0.454-  10 2.94  16 2.94  17 2.94  19 2.94  25 2.94  27 2.94  24 2.94  28 2.95
                            20 2.95  23 2.95  29 2.99  34 2.99
  27  0.557  0.886  0.453-  24 2.91  22 2.91  17 2.92  18 2.92  11 2.93  26 2.94  25 2.94  20 2.95
                            21 2.95  29 2.96  30 2.96  35 2.96
  28  0.000  0.000  0.563-  25 2.95  19 2.95  26 2.95  34 2.99  32 2.99  33 2.99  30 2.99  31 2.99
                            29 2.99
  29  0.334  0.010  0.562-  30 2.84  31 2.85  36 2.86  20 2.92  27 2.96  35 2.98  26 2.99  28 2.99
                            34 3.12
  30  0.656  0.010  0.562-  29 2.84  32 2.85  36 2.86  21 2.92  27 2.96  35 2.98  25 2.99  28 2.99
                            33 3.12
  31  0.010  0.334  0.562-  33 2.84  29 2.85  36 2.86  20 2.92  22 2.96  35 2.98  19 2.99  28 2.99
                            32 3.12
  32  0.656  0.334  0.562-  34 2.84  30 2.85  36 2.86  21 2.92  24 2.96  35 2.98  19 2.99  28 2.99
                            31 3.12
  33  0.010  0.656  0.562-  31 2.84  34 2.85  36 2.86  23 2.92  22 2.96  35 2.98  25 2.99  28 2.99
                            30 3.12
  34  0.334  0.656  0.562-  32 2.84  33 2.85  36 2.86  23 2.92  24 2.96  35 2.98  26 2.99  28 2.99
                            29 3.12
  35  0.667  0.667  0.563-  24 2.96  27 2.96  22 2.96  29 2.98  34 2.98  32 2.98  31 2.98  30 2.98
                            33 2.98
  36  0.333  0.333  0.548-  20 2.70  23 2.70  21 2.70  33 2.86  31 2.86  29 2.86  30 2.86  34 2.86
                            32 2.86

  LATTYP: Found a hexagonal cell.
 ALAT       =     8.8135128021
 C/A-ratio  =     2.5184286595

  Lattice vectors:

 A1 = (  -4.4067569092,  -7.6327256898,   0.0000000000)
 A2 = (   8.8135128021,   0.0000000000,   0.0000000000)
 A3 = (   0.0000000000,   0.0000000000,  22.1962032318)

Analysis of symmetry for initial positions (statically):
 Subroutine PRICEL returns:
 Original cell was already a primitive cell.

 Routine SETGRP: Setting up the symmetry group for a
 hexagonal supercell.

 Subroutine GETGRP returns: Found  6 space group operations
 (whereof  6 operations were pure point group operations)
 out of a pool of 24 trial point group operations.

The static configuration has the point symmetry C_3v.

Analysis of symmetry for dynamics (positions and initial velocities):
 Subroutine PRICEL returns:
 Original cell was already a primitive cell.

[...]

The dynamic configuration has the point symmetry C_3v.

Analysis of constrained symmetry for selective dynamics:
 Subroutine PRICEL returns:
 Original cell was already a primitive cell.

 Routine SETGRP: Setting up the symmetry group for a
 hexagonal supercell.

 Subroutine GETGRP returns: Found  6 space group operations
 (whereof  6 operations were pure point group operations)
 out of a pool of 24 trial point group operations.

The constrained configuration has the point symmetry C_3v.

 Subroutine INISYM returns: Found  6 space group operations
 (whereof  6 operations are pure point group operations),
 and found     1 'primitive' translations

                                     Primitive cell

  volume of cell :    1493.1636

  direct lattice vectors                    reciprocal lattice vectors
     8.813512802  0.000000000  0.000000000     0.113462137 -0.065507406  0.000000000
     4.406756909  7.632725690  0.000000000     0.000000000  0.131014796  0.000000000
[...]
     15      -5.2704      2.00000
     16      -5.2640      2.00000
     17      -5.2592      2.00000
     18      -5.2444      2.00000
     19      -5.1826      2.00000
     20      -5.1787      2.00000
     21      -5.1413      2.00000
     22      -5.1199      2.00000
     23      -5.1039      2.00000
     24      -5.0712      2.00000
     25      -5.0601      2.00000
     26      -5.0210      2.00000
     27      -4.9474      2.00000
     28      -4.8993      2.00000
     29      -4.8005      2.00000
     30      -4.7905      2.00000
     31      -4.7733      2.00000
     32      -4.7667      2.00000
     33      -4.7542      2.00000
     34      -4.7155      2.00000
     35      -4.6165      2.00000
     36      -4.5860      2.00000
     37      -4.5665      2.00000
     38      -4.5556      2.00000
     39      -4.4998      2.00000
     40      -4.4236      2.00000
     41      -4.3933      2.00000
     42      -4.3371      2.00000
     43      -4.3167      2.00000
     44      -4.3146      2.00000
     45      -4.3006      2.00000
     46      -4.1945      2.00000
     47      -4.1901      2.00000
     48      -4.1557      2.00000
     49      -4.1292      2.00000
     50      -4.1270      2.00000
     51      -4.1206      2.00000
     52      -4.0978      2.00000
     53      -4.0700      2.00000
     54      -4.0228      2.00000
     55      -4.0126      2.00000
     56      -3.9883      2.00000
     57      -3.9771      2.00000
     58      -3.9607      2.00000
     59      -3.9505      2.00000
     60      -3.9411      2.00000
[...]
    238       6.6931      0.00000
    239       6.7505      0.00000
    240       6.7835      0.00000
    241       6.8092      0.00000
    242       6.8988      0.00000
    243       7.1001      0.00000
    244       7.1731      0.00000
    245       7.2721      0.00000
    246       7.5576      0.00000
    247       7.5838      0.00000
    248       7.6602      0.00000
    249       7.6670      0.00000
    250       7.8681      0.00000
    251       7.9637      0.00000
    252       7.9775      0.00000

 soft charge-density along one line, spin component           1
         0         1         2         3         4         5         6         7         8         9
 total charge-density along one line

------------------------ aborting loop because EDIFF is reached ----------------------------------------

 total charge

# of ion       s       p       d       tot
    1        0.547   0.239   8.764   9.550
    2        0.544   0.241   8.765   9.549
    3        0.544   0.241   8.765   9.549
    4        0.544   0.241   8.765   9.549
    5        0.543   0.241   8.761   9.545
    6        0.544   0.241   8.765   9.549
    7        0.544   0.241   8.765   9.549
    8        0.544   0.241   8.765   9.549
    9        0.543   0.239   8.768   9.550
   10        0.524   0.308   8.767   9.599
   11        0.521   0.308   8.781   9.610
   12        0.524   0.308   8.767   9.599
   13        0.521   0.308   8.781   9.610
   14        0.521   0.308   8.781   9.610
   15        0.517   0.309   8.775   9.601
   16        0.524   0.308   8.767   9.599
   17        0.517   0.309   8.775   9.601
   18        0.517   0.309   8.775   9.601
   19        0.516   0.300   8.775   9.590
   20        0.550   0.335   8.746   9.630
   21        0.550   0.335   8.746   9.630
   22        0.510   0.309   8.777   9.596
   23        0.550   0.335   8.746   9.630
   24        0.510   0.309   8.777   9.596
   25        0.516   0.300   8.775   9.590
   26        0.516   0.300   8.775   9.590
   27        0.510   0.309   8.777   9.596
   28        0.538   0.224   8.761   9.523
   29        0.565   0.242   8.745   9.551
   30        0.565   0.242   8.745   9.551
   31        0.565   0.242   8.745   9.551
   32        0.565   0.242   8.745   9.551
   33        0.565   0.242   8.745   9.551
   34        0.565   0.242   8.745   9.551
   35        0.534   0.224   8.763   9.521
   36        0.254   0.190   5.021   5.465
tot         19.027   9.855 311.757 340.639

  FORCE on cell =-STRESS in cart. coord.  units (eV):
  Direction    XX          YY          ZZ          XY          YZ          ZX
  Alpha Z   993.68515   993.68515   993.68515
  Ewald  118953.80890118953.80930************    -0.00033    -0.00009    -0.00017
  Hartree127521.74732127521.74732************     0.00000    -0.00002    -0.00005
  E(xc)   -1759.12236 -1759.12234 -1766.50980    -0.00002    -0.00000    -0.00000
  Local  ************************258968.55615     0.00173     0.00005     0.00010
  n-local  -102.23482   -53.22475   -51.75923    23.08807    -1.18909     1.15396
  augment  2393.47198  2393.47350  2411.42216    -0.00131     0.00003     0.00004
  Kinetic  5401.67970  5417.61938  5468.64187     8.75004    -0.35162     1.25352
  Fock        0.00000     0.00000     0.00000     0.00000     0.00000     0.00000
  Total     -23.77694   -23.77694     2.72744    -0.00000     0.00000    -0.00000
  in kB     -25.51286   -25.51286     2.92656    -0.00000     0.00000    -0.00000

 VOLUME and BASIS-vectors are now :
  energy-cutoff  :      500.00
  volume of cell :     1493.16
      direct lattice vectors                 reciprocal lattice vectors
     8.813512802  0.000000000  0.000000000     0.113462137 -0.065507406  0.000000000
     4.406756909  7.632725690  0.000000000     0.000000000  0.131014796  0.000000000
     0.000000000  0.000000000 22.196203232     0.000000000  0.000000000  0.045052750

  length of vectors
     8.813512802  8.813512802 22.196203232     0.131014796  0.131014796  0.045052750

 FORCES acting on ions
    electron-ion (+dipol)            ewald-force                    non-local-force                 convergence-correction
   -.198E-04 -.163E-04 0.247E+04   0.519E-04 0.433E-04 -.247E+04   0.453E-17 -.281E-17 -.740E+00   -.296E-03 -.184E-03 -.161E+00
   0.465E+00 0.654E-01 0.247E+04   -.519E+00 -.131E+00 -.247E+04   0.381E-01 0.570E-01 -.286E+00   0.753E-02 0.888E-02 -.254E+00
   -.465E+00 0.654E-01 0.247E+04   0.519E+00 -.131E+00 -.247E+04   -.381E-01 0.570E-01 -.286E+00   -.715E-02 0.108E-01 -.253E+00
   0.289E+00 0.370E+00 0.247E+04   -.373E+00 -.384E+00 -.247E+04   0.684E-01 0.446E-02 -.286E+00   0.115E-01 0.202E-02 -.254E+00
   0.738E-05 -.240E-04 0.247E+04   0.951E-04 0.174E-05 -.247E+04   0.834E-18 -.117E-18 -.189E+00   0.432E-02 0.262E-02 -.285E+00
   -.289E+00 0.370E+00 0.247E+04   0.373E+00 -.384E+00 -.247E+04   -.684E-01 0.446E-02 -.286E+00   -.131E-01 0.289E-02 -.253E+00
   -.176E+00 -.436E+00 0.247E+04   0.146E+00 0.515E+00 -.247E+04   0.303E-01 -.615E-01 -.286E+00   0.585E-02 -.116E-01 -.253E+00
   0.176E+00 -.436E+00 0.247E+04   -.146E+00 0.515E+00 -.247E+04   -.303E-01 -.615E-01 -.286E+00   -.404E-02 -.128E-01 -.253E+00
   0.198E-04 -.415E-04 0.247E+04   0.166E-03 -.200E-04 -.247E+04   -.162E-17 -.287E-18 -.449E+00   -.456E-02 -.236E-02 -.262E+00
   0.362E+01 0.209E+01 0.799E+03   -.317E+01 -.183E+01 -.799E+03   -.286E+00 -.165E+00 -.693E+00   -.128E+00 -.740E-01 0.597E-01
   0.148E-04 0.341E+01 0.805E+03   0.147E-03 -.344E+01 -.805E+03   0.275E-08 0.414E-01 -.273E+00   0.436E-02 -.623E-01 0.874E-01
   -.362E+01 0.209E+01 0.799E+03   0.317E+01 -.183E+01 -.799E+03   0.286E+00 -.165E+00 -.693E+00   0.126E+00 -.728E-01 0.604E-01
   0.296E+01 -.171E+01 0.805E+03   -.298E+01 0.172E+01 -.805E+03   0.358E-01 -.207E-01 -.273E+00   -.515E-01 0.352E-01 0.874E-01
   -.296E+01 -.171E+01 0.805E+03   0.298E+01 0.172E+01 -.805E+03   -.358E-01 -.207E-01 -.273E+00   0.592E-01 0.340E-01 0.868E-01
   0.316E-04 0.405E+01 0.804E+03   0.236E-03 -.418E+01 -.803E+03   0.187E-08 0.281E-01 -.506E+00   -.249E-02 0.607E-01 0.159E+00
   -.213E-04 -.418E+01 0.799E+03   0.162E-03 0.366E+01 -.799E+03   0.220E-07 0.330E+00 -.693E+00   -.179E-03 0.146E+00 0.604E-01
   0.350E+01 -.202E+01 0.804E+03   -.362E+01 0.209E+01 -.803E+03   0.243E-01 -.140E-01 -.506E+00   0.515E-01 -.321E-01 0.159E+00
   -.350E+01 -.202E+01 0.804E+03   0.362E+01 0.209E+01 -.803E+03   -.243E-01 -.140E-01 -.506E+00   -.509E-01 -.297E-01 0.160E+00
   -.407E-04 0.312E+00 -.893E+03   0.552E-04 -.513E+00 0.892E+03   0.349E-08 0.524E-01 0.474E+00   -.460E-02 0.143E+00 0.596E+00
   0.969E+01 0.560E+01 -.873E+03   -.890E+01 -.514E+01 0.873E+03   -.910E+00 -.526E+00 -.816E+00   0.108E+00 0.621E-01 0.973E+00
   -.969E+01 0.560E+01 -.873E+03   0.890E+01 -.514E+01 0.873E+03   0.910E+00 -.526E+00 -.816E+00   -.106E+00 0.617E-01 0.973E+00
   -.491E+01 0.283E+01 -.880E+03   0.459E+01 -.265E+01 0.879E+03   0.348E+00 -.201E+00 0.535E+00   -.295E-01 0.189E-01 0.673E+00
   -.885E-05 -.112E+02 -.873E+03   0.140E-03 0.103E+02 0.873E+03   0.700E-07 0.105E+01 -.816E+00   0.407E-03 -.122E+00 0.973E+00
   0.491E+01 0.283E+01 -.880E+03   -.459E+01 -.265E+01 0.879E+03   -.348E+00 -.201E+00 0.535E+00   0.295E-01 0.171E-01 0.673E+00
   -.270E+00 -.156E+00 -.893E+03   0.444E+00 0.257E+00 0.892E+03   -.454E-01 -.262E-01 0.474E+00   -.128E+00 -.739E-01 0.595E+00
   0.270E+00 -.156E+00 -.893E+03   -.445E+00 0.257E+00 0.892E+03   0.454E-01 -.262E-01 0.474E+00   0.121E+00 -.752E-01 0.596E+00
   0.100E-04 -.566E+01 -.880E+03   0.198E-03 0.530E+01 0.879E+03   0.268E-07 0.402E+00 0.535E+00   0.105E-02 -.350E-01 0.673E+00
   -.969E-05 -.114E-04 -.249E+04   0.278E-04 0.310E-04 0.249E+04   -.551E-20 0.153E-17 0.582E+00   -.318E-03 -.200E-03 0.489E+00
   0.214E+01 0.540E+00 -.250E+04   -.151E+01 0.514E+00 0.250E+04   -.867E+00 -.133E+01 0.739E-01   0.234E+00 0.270E+00 0.431E+00
   -.214E+01 0.540E+00 -.250E+04   0.151E+01 0.514E+00 0.250E+04   0.867E+00 -.133E+01 0.739E-01   -.233E+00 0.271E+00 0.430E+00
   0.154E+01 0.158E+01 -.250E+04   -.311E+00 -.157E+01 0.250E+04   -.158E+01 -.879E-01 0.739E-01   0.351E+00 0.671E-01 0.431E+00
   -.154E+01 0.158E+01 -.250E+04   0.311E+00 -.157E+01 0.250E+04   0.158E+01 -.879E-01 0.739E-01   -.352E+00 0.675E-01 0.430E+00
   -.601E+00 -.212E+01 -.250E+04   0.120E+01 0.105E+01 0.250E+04   -.715E+00 0.141E+01 0.739E-01   0.119E+00 -.337E+00 0.430E+00
   0.601E+00 -.212E+01 -.250E+04   -.120E+01 0.105E+01 0.250E+04   0.715E+00 0.141E+01 0.739E-01   -.117E+00 -.338E+00 0.430E+00
   0.346E-04 -.326E-04 -.250E+04   0.143E-03 -.463E-04 0.250E+04   -.242E-18 -.248E-18 0.656E+00   -.422E-02 -.214E-02 0.376E+00
   -.291E-04 0.107E-05 -.153E+04   0.740E-04 0.688E-05 0.152E+04   0.321E-17 -.391E-18 0.290E+01   0.284E-02 0.173E-02 0.477E+00
   -.799E-03 -.773E-03 -.668E+01   -.259E-15 0.199E-12 -.682E-12   0.336E-15 0.221E-15 -.236E+01   0.641E-03 0.999E-03 0.934E+01

 POSITION                                       TOTAL-FORCE (eV/Angst)
      0.00000      0.00000      5.28038        -0.000000     -0.000000     -0.132351
      2.93784      0.00000      5.28038        -0.007981      0.001543     -0.067922
      5.87568      0.00000      5.28038         0.007981      0.001543     -0.067922
      1.46892      2.54424      5.28038        -0.002654     -0.007683     -0.067922
      4.40676      2.54424      5.28038        -0.000000     -0.000000     -0.101450
      7.34459      2.54424      5.28038         0.002654     -0.007683     -0.067922
      2.93784      5.08848      5.28038         0.005327      0.006140     -0.067922
      5.87568      5.08848      5.28038        -0.005327      0.006140     -0.067922
      8.81351      5.08848      5.28038        -0.000000     -0.000000     -0.092524
      1.46892      0.84808      7.67911         0.041198      0.023786      0.135068
      4.40676      0.84808      7.67911        -0.000000     -0.050271      0.024742
      7.34459      0.84808      7.67911        -0.041198      0.023786      0.135068
      2.93784      3.39232      7.67911        -0.043536      0.025136      0.024742
      5.87568      3.39232      7.67911         0.043536      0.025136      0.024742
      8.81351      3.39232      7.67911        -0.000000     -0.047962      0.091053
      4.40676      5.93656      7.67911        -0.000000     -0.047571      0.135068
      7.34459      5.93656      7.67911        -0.041536      0.023981      0.091053
     10.28243      5.93656      7.67911         0.041536      0.023981      0.091053
      8.81351      1.69603     10.07479        -0.000000     -0.004795     -0.003928
      2.95306      1.70495     10.04990        -0.010139     -0.005854     -0.016307
      5.86045      1.70495     10.04990         0.010139     -0.005854     -0.016307
     10.26640      4.24966     10.05812         0.000286     -0.000165     -0.008829
      4.40676      4.22282     10.04990         0.000000      0.011707     -0.016307
      7.36062      4.24966     10.05812        -0.000286     -0.000165     -0.008829
     11.75147      6.78471     10.07479         0.004152      0.002397     -0.003928
      5.87556      6.78471     10.07479        -0.004152      0.002397     -0.003928
      8.81351      6.76613     10.05812         0.000000      0.000331     -0.008829
      0.00000      0.00000     12.48774        -0.000000     -0.000000     -0.011927
      2.98478      0.07843     12.47445        -0.008480     -0.001082      0.010858
      5.82873      0.07843     12.47445         0.008480     -0.001082      0.010858
      1.56032      2.54568     12.47445        -0.005177     -0.006803      0.010858
      7.25320      2.54568     12.47445         0.005177     -0.006803      0.010858
      2.98229      5.00861     12.47445         0.003303      0.007885      0.010858
      5.83122      5.00861     12.47445        -0.003303      0.007885      0.010858
      8.81351      5.08848     12.49541        -0.000000     -0.000000     -0.004828
      4.40676      2.54424     12.16834        -0.000000      0.000000      0.020065
    total drift:                               -0.000157      0.000226      0.299931

  FREE ENERGIE OF THE ION-ELECTRON SYSTEM (eV)
  free  energy   TOTEN  =      -113.20890030 eV

  energy  without entropy=     -113.20890030  energy(sigma->0) =     -113.20890030

 stress matrix after NEB project (eV)
    -23.77694     -0.00000     -0.00000
     -0.00000    -23.77694      0.00000
      0.00000      0.00000      2.72744
  FORCES: max atom, RMS     0.020075    0.009534
  FORCE total and by dimension    0.057205    0.020065
  Stress total and by dimension   33.736107   23.776944
|           W    W    AA    RRRRR   N    N  II  N    N   GGGG   !!!           |
|           W    W   A  A   R    R  NN   N  II  NN   N  G    G  !!!           |
|           W    W  A    A  R    R  N N  N  II  N N  N  G       !!!           |
|           W WW W  AAAAAA  RRRRR   N  N N  II  N  N N  G  GGG   !            |
|           WW  WW  A    A  R   R   N   NN  II  N   NN  G    G                |
|           W    W  A    A  R    R  N    N  II  N    N   GGGG   !!!           |
|     Tetrahedron method does not include variations of the Fermi             |
|     occupations, so forces and stress will be inaccurate. We suggest        |
|     using a different smearing scheme ISMEAR = 1 or 2 for metals in         |
|     relaxations.                                                            |

 total charge

# of ion       s       p       d       tot
    1        0.547   0.239   8.764   9.550
    2        0.544   0.241   8.765   9.549
    3        0.544   0.241   8.765   9.549
    4        0.544   0.241   8.765   9.549
    5        0.543   0.241   8.761   9.545
    6        0.544   0.241   8.765   9.549
    7        0.544   0.241   8.765   9.549
    8        0.544   0.241   8.765   9.549
    9        0.543   0.239   8.768   9.550
   10        0.524   0.308   8.767   9.599
   11        0.521   0.308   8.781   9.610
   12        0.524   0.308   8.767   9.599
   13        0.521   0.308   8.781   9.610
   14        0.521   0.308   8.781   9.610
   15        0.517   0.309   8.775   9.601
   16        0.524   0.308   8.767   9.599
   17        0.517   0.309   8.775   9.601
   18        0.517   0.309   8.775   9.601
   19        0.516   0.300   8.775   9.590
   20        0.550   0.335   8.746   9.630
   21        0.550   0.335   8.746   9.630
   22        0.510   0.309   8.777   9.596
   23        0.550   0.335   8.746   9.630
   24        0.510   0.309   8.777   9.596
   25        0.516   0.300   8.775   9.590
   26        0.516   0.300   8.775   9.590
   27        0.510   0.309   8.777   9.596
   28        0.538   0.224   8.761   9.523
   29        0.565   0.242   8.745   9.551
   30        0.565   0.242   8.745   9.551
   31        0.565   0.242   8.745   9.551
   32        0.565   0.242   8.745   9.551
   33        0.565   0.242   8.745   9.551
   34        0.565   0.242   8.745   9.551
   35        0.534   0.224   8.763   9.521
   36        0.254   0.190   5.021   5.465
tot         19.027   9.855 311.757 340.639

 BZINTS: Fermi energy:    0.659204;  392.000000 electrons
         Band energy:-0.118430E+04;  BLOECHL correction:   -0.038325