 vasp.6.2.0 18Jan21 (build Jun 12 2021 23:27:24) complex

 executed on             LinuxIFC date 2022.05.28  01:59:26

 INCAR:
   ISMEAR = -5
   SIGMA = 0.1
   ISPIN = 1
   EDIFF = 1.d-5
   EDIFFG = -0.01
   NSW = 0
   NELM = 150
   ENCUT = 500
   ISIF = 2
   IBRION = 2
   LREAL = Auto
   ALGO = Fast
   ICHARG = 11
   LORBIT = 10
   LCHARG = .F.
   LWAVE = .F.

 POTCAR:    PAW_PBE Ag 02Apr2005
 POTCAR:    PAW_PBE Ta 17Jan2003
 POTCAR:    PAW_PBE O 08Apr2002
 POTCAR:    PAW_PBE H 15Jun2001
|           W    W    AA    RRRRR   N    N  II  N    N   GGGG   !!!           |
|           W    W   A  A   R    R  NN   N  II  NN   N  G    G  !!!           |
|           W    W  A    A  R    R  N N  N  II  N N  N  G       !!!           |
|           W WW W  AAAAAA  RRRRR   N  N N  II  N  N N  G  GGG   !            |
|           WW  WW  A    A  R   R   N   NN  II  N   NN  G    G                |
|           W    W  A    A  R    R  N    N  II  N    N   GGGG   !!!           |
|     For optimal performance we recommend to set                             |
|       NCORE = 2 up to number-of-cores-per-socket                            |
|     This setting can greatly improve the performance of VASP for DFT.       |
|     The default, NCORE=1 might be grossly inefficient on modern             |
|     multi-core architectures or massively parallel machines. Do your        |
|     Unfortunately you need to use the default for GW and RPA                |
|     calculations (for HF NCORE is supported but not extensively tested      |
|     yet).                                                                   |

 POTCAR:    PAW_PBE Ag 02Apr2005
   VRHFIN =Ag : s1 d10

   TITEL  = PAW_PBE Ag 02Apr2005
   POMASS =  107.868; ZVAL   =   11.000    mass and valenz
   ENMAX  =  249.844; ENMIN  =  187.383 eV

 POTCAR:    PAW_PBE Ta 17Jan2003
   VRHFIN =Ta:  6s5d

   TITEL  = PAW_PBE Ta 17Jan2003
   POMASS =  180.948; ZVAL   =    5.000    mass and valenz
   ENMAX  =  223.667; ENMIN  =  167.750 eV

 POTCAR:    PAW_PBE O 08Apr2002
   VRHFIN =O: s2p4

   TITEL  = PAW_PBE O 08Apr2002
   POMASS =   16.000; ZVAL   =    6.000    mass and valenz
   ENMAX  =  400.000; ENMIN  =  300.000 eV

 POTCAR:    PAW_PBE H 15Jun2001
   VRHFIN =H: ultrasoft test

   TITEL  = PAW_PBE H 15Jun2001
   POMASS =    1.000; ZVAL   =    1.000    mass and valenz
   ENMAX  =  250.000; ENMIN  =  200.000 eV

 Optimization of the real space projectors (new method)

 maximal supplied QI-value         = 15.12
 optimisation between [QCUT,QGAM] = [ 11.34, 22.83] = [ 36.00,145.93] Ry
 Optimized for a Real-space Cutoff    1.43 Angstroem

   l    n(q)    QCUT    max X(q) W(low)/X(q) W(high)/X(q)  e(spline)
   2      9    11.338    53.897    0.16E-03    0.20E-03    0.28E-06
   2      9    11.338    52.416    0.16E-03    0.20E-03    0.29E-06
   0     10    11.338   122.045    0.31E-04    0.76E-04    0.15E-06
   0     10    11.338    73.629    0.30E-04    0.72E-04    0.15E-06
   1      9    11.338    15.255    0.20E-03    0.19E-04    0.17E-06
   1      9    11.338     9.562    0.16E-03    0.15E-04    0.14E-06
 Optimization of the real space projectors (new method)

[...]

   l    n(q)    QCUT    max X(q) W(low)/X(q) W(high)/X(q)  e(spline)
   0      7    11.387    20.381    0.39E-03    0.13E-02    0.15E-06
   0      7    11.387    15.268    0.42E-03    0.14E-02    0.17E-06
   1      6    11.387     5.964    0.41E-03    0.11E-02    0.17E-06
   1      6    11.387     5.382    0.39E-03    0.87E-03    0.15E-06
 Optimization of the real space projectors (new method)

 maximal supplied QI-value         = 34.20
 optimisation between [QCUT,QGAM] = [ 11.29, 22.57] = [ 35.68,142.71] Ry
 Optimized for a Real-space Cutoff    1.16 Angstroem

   l    n(q)    QCUT    max X(q) W(low)/X(q) W(high)/X(q)  e(spline)
   0      8    11.287    19.460    0.40E-03    0.73E-03    0.16E-06
   0      8    11.287    12.209    0.38E-03    0.70E-03    0.15E-06
   1      7    11.287     4.655    0.22E-03    0.25E-04    0.22E-06
  PAW_PBE Ag 02Apr2005                  :
  PAW_PBE Ta 17Jan2003                  :
  PAW_PBE O 08Apr2002                   :
  PAW_PBE H 15Jun2001                   :

 POSCAR: Ag-Ta-OOH
  positions in direct lattice
  velocities in cartesian coordinates
 exchange correlation table for  LEXCH =        8
   RHO(1)=    0.500       N(1)  =     2000
   RHO(2)=  100.500       N(2)  =     4000

 VTST: version 3.2, (02/03/18)

 CHAIN: initializing optimizer

 OPT: Using VASP Conjugate-Gradient optimizer
 CHAIN: Read ICHAIN            0

 POSCAR: Ag-Ta-OOH
  positions in direct lattice
  velocities in cartesian coordinates

 ion  position               nearest neighbor table
   1  0.000  0.000  0.204-   2 2.93   8 2.93   7 2.93   6 2.93   4 2.93  12 2.93  16 2.93  10 2.93
                             3 2.93
   2  0.333  0.000  0.204-   1 2.93   8 2.93   9 2.93   3 2.93   4 2.93   5 2.93  10 2.93  17 2.93
                            11 2.93
   3  0.667  0.000  0.204-   9 2.93   2 2.93   5 2.93  11 2.93   7 2.93  18 2.93   1 2.93   6 2.93
                            12 2.93
   4  0.000  0.333  0.204-   5 2.93   6 2.93   2 2.93   1 2.93   7 2.93  13 2.93  15 2.93   9 2.93
                            10 2.93
   5  0.333  0.333  0.204-   4 2.93   3 2.93   7 2.93   2 2.93   8 2.93  14 2.93  13 2.93  11 2.93
                             6 2.93
   6  0.667  0.333  0.204-   4 2.93   9 2.93   1 2.93  15 2.93   8 2.93  12 2.93   3 2.93   5 2.93
                            14 2.93
   7  0.000  0.667  0.204-   8 2.93   1 2.93   5 2.93   3 2.93   4 2.93  16 2.93  18 2.93  13 2.93
                             9 2.93
   8  0.333  0.667  0.204-   7 2.93   1 2.93   2 2.93   9 2.93   5 2.93  16 2.93   6 2.93  17 2.93
                            14 2.93
   9  0.667  0.667  0.204-   3 2.93   2 2.93   8 2.93   6 2.93  17 2.93   4 2.93  15 2.93   7 2.93
                            18 2.93
  10  0.111  0.111  0.296-  20 2.89  12 2.93  16 2.93  15 2.93  17 2.93  13 2.93  11 2.93   2 2.93
                             1 2.93   4 2.93  19 2.93  26 2.93
  11  0.444  0.111  0.296-  21 2.90  20 2.90  14 2.93  17 2.93  18 2.93   3 2.93  12 2.93  13 2.93
                            10 2.93   5 2.93   2 2.93  27 2.93
  12  0.778  0.111  0.296-  21 2.89  10 2.93  16 2.93  18 2.93  15 2.93  11 2.93   1 2.93  14 2.93
                             6 2.93   3 2.93  25 2.93  19 2.93
  13  0.111  0.444  0.296-  20 2.90  23 2.90  15 2.93  14 2.93  18 2.93  10 2.93  11 2.93  16 2.93
                             4 2.93   5 2.93   7 2.93  22 2.93
  14  0.444  0.444  0.296-  23 2.90  21 2.90  13 2.93  11 2.93  16 2.93   5 2.93  12 2.93  17 2.93
                             8 2.93  15 2.93   6 2.93  24 2.93
  15  0.778  0.444  0.296-  19 2.93  24 2.93  22 2.93  13 2.93  10 2.93  12 2.93  17 2.93  18 2.93
                             4 2.93   6 2.93   9 2.93  14 2.93
  16  0.111  0.778  0.296-  23 2.89  18 2.93  12 2.93  10 2.93  14 2.93  17 2.93  13 2.93   7 2.93
                             8 2.93   1 2.93  26 2.93  25 2.93
  17  0.444  0.778  0.296-  26 2.93  27 2.93  24 2.93  11 2.93  10 2.93   9 2.93  18 2.93  15 2.93
                            16 2.93   2 2.93  14 2.93   8 2.93
  18  0.778  0.778  0.296-  25 2.93  22 2.93  27 2.93  16 2.93  12 2.93  13 2.93  11 2.93  17 2.93
                            15 2.93   7 2.93   3 2.93   9 2.93
  19  0.889  0.223  0.389-  20 2.92  21 2.92  24 2.93  22 2.93  28 2.93  15 2.93  10 2.93  12 2.93
                            26 2.94  25 2.94  32 2.99  31 2.99
  20  0.222  0.222  0.387-  36 2.78  10 2.89  13 2.90  11 2.90  19 2.92  26 2.92  27 2.93  22 2.93
                            21 2.95  23 2.95  31 2.97  29 2.97
  21  0.557  0.222  0.387-  36 2.78  12 2.89  11 2.90  14 2.90  25 2.92  19 2.92  27 2.93  24 2.93
                            20 2.95  23 2.95  30 2.97  32 2.97
  22  0.888  0.556  0.389-  24 2.92  27 2.92  25 2.93  19 2.93  18 2.93  15 2.93  13 2.93  23 2.93
                            20 2.93  35 2.94  33 2.96  31 2.96
  23  0.222  0.557  0.387-  36 2.78  16 2.89  14 2.90  13 2.90  26 2.92  25 2.92  22 2.93  24 2.93
                            21 2.95  20 2.95  34 2.97  33 2.97
  24  0.556  0.556  0.389-  27 2.92  22 2.92  19 2.93  26 2.93  15 2.93  17 2.93  14 2.93  23 2.93
                            21 2.93  35 2.94  32 2.96  34 2.96
  25  0.889  0.889  0.389-  23 2.92  21 2.92  22 2.93  27 2.93  28 2.93  18 2.93  16 2.93  12 2.93
                            26 2.94  19 2.94  33 2.99  30 2.99
  26  0.223  0.889  0.389-  23 2.92  20 2.92  27 2.93  24 2.93  28 2.93  17 2.93  16 2.93  10 2.93
                            25 2.94  19 2.94  34 2.99  29 2.99
  27  0.556  0.888  0.389-  24 2.92  22 2.92  26 2.93  25 2.93  17 2.93  18 2.93  11 2.93  20 2.93
                            21 2.93  35 2.94  29 2.96  30 2.96
  28  0.000  0.000  0.481-  26 2.93  25 2.93  19 2.93  29 2.96  34 2.96  33 2.96  32 2.96  31 2.96
                            30 2.96
  29  0.334  0.006  0.482-  38 2.32  30 2.88  31 2.88  36 2.89  35 2.96  28 2.96  27 2.96  20 2.97
                            26 2.99  34 3.03
  30  0.661  0.006  0.482-  29 2.88  32 2.88  36 2.89  35 2.96  28 2.96  27 2.96  21 2.97  25 2.99
                            33 3.03
  31  0.006  0.334  0.482-  38 2.32  33 2.88  29 2.88  36 2.89  35 2.96  28 2.96  22 2.96  20 2.97
                            19 2.99  32 3.03
  32  0.661  0.334  0.482-  37 2.25  34 2.88  30 2.88  36 2.89  35 2.96  28 2.96  24 2.96  21 2.97
                            19 2.99  31 3.03
  33  0.006  0.661  0.482-  31 2.88  34 2.88  36 2.89  35 2.96  28 2.96  22 2.96  23 2.97  25 2.99
                            30 3.03
  34  0.334  0.661  0.482-  37 2.25  32 2.88  33 2.88  36 2.89  35 2.96  28 2.96  24 2.96  23 2.97
                            26 2.99  29 3.03
  35  0.667  0.667  0.481-  24 2.94  27 2.94  22 2.94  30 2.96  32 2.96  29 2.96  34 2.96  31 2.96
                            33 2.96
  36  0.333  0.333  0.472-  37 1.84  38 2.07  21 2.78  20 2.78  23 2.78  31 2.89  33 2.89  30 2.89
                            29 2.89  34 2.89  32 2.89
  37  0.411  0.411  0.526-  36 1.84  34 2.25  32 2.25
  38  0.249  0.249  0.535-  39 0.98  36 2.07  31 2.32  29 2.32
  39  0.283  0.285  0.567-  38 0.98

  LATTYP: Found a hexagonal cell.
 ALAT       =     8.7913665772
 C/A-ratio  =     2.9469639759

  Lattice vectors:

 A1 = (  -4.3956832886,  -7.6135467898,   0.0000000000)
 A2 = (   8.7913665771,   0.0000000000,   0.0000000000)
 A3 = (   0.0000000000,   0.0000000000,  25.9078406020)

Analysis of symmetry for initial positions (statically):
 Subroutine PRICEL returns:
 Original cell was already a primitive cell.

 Routine SETGRP: Setting up the symmetry group for a
 hexagonal supercell.

 Subroutine GETGRP returns: Found  1 space group operations
 (whereof  1 operations were pure point group operations)
 out of a pool of 24 trial point group operations.

The static configuration has the point symmetry C_1 .

Analysis of symmetry for dynamics (positions and initial velocities):
 Subroutine PRICEL returns:
 Original cell was already a primitive cell.

[...]

The dynamic configuration has the point symmetry C_1 .

[...]
     41      -5.0259      2.00000
     42      -5.0149      2.00000
     43      -4.9937      2.00000
     44      -4.9665      2.00000
     45      -4.9517      2.00000
     46      -4.9108      2.00000
     47      -4.9012      2.00000
     48      -4.8646      2.00000
     49      -4.8478      2.00000
     50      -4.8349      2.00000
     51      -4.8048      2.00000
     52      -4.7895      2.00000
     53      -4.7773      2.00000
     54      -4.7703      2.00000
     55      -4.7602      2.00000
     56      -4.7449      2.00000
     57      -4.7357      2.00000
     58      -4.7258      2.00000
     59      -4.7015      2.00000
     60      -4.6765      2.00000
[...]
    238       5.3389      0.00000
    239       5.4240      0.00000
    240       5.5016      0.00000
    241       5.7261      0.00000
    242       5.7961      0.00000
    243       5.8310      0.00000
    244       5.8894      0.00000
    245       5.9307      0.00000
    246       5.9755      0.00000
    247       6.1793      0.00000
    248       6.2497      0.00000
    249       6.2908      0.00000
    250       6.5252      0.00000
    251       6.6576      0.00000
    252       6.7004      0.00000

 soft charge-density along one line, spin component           1
         0         1         2         3         4         5         6         7         8         9
 total charge-density along one line

------------------------ aborting loop because EDIFF is reached ----------------------------------------

 total charge

# of ion       s       p       d       tot
    1        0.421   0.201   9.177   9.799
    2        0.414   0.205   9.176   9.795
    3        0.414   0.204   9.177   9.795
    4        0.414   0.205   9.176   9.795
    5        0.420   0.202   9.176   9.797
    6        0.415   0.204   9.177   9.796
    7        0.414   0.204   9.177   9.795
    8        0.415   0.204   9.177   9.796
    9        0.414   0.203   9.177   9.795
   10        0.409   0.268   9.164   9.841
   11        0.406   0.271   9.165   9.842
   12        0.410   0.269   9.161   9.840
   13        0.406   0.271   9.165   9.842
   14        0.404   0.269   9.169   9.842
   15        0.403   0.268   9.164   9.835
   16        0.410   0.269   9.161   9.840
   17        0.403   0.268   9.164   9.835
   18        0.399   0.270   9.163   9.832
   19        0.393   0.272   9.161   9.826
   20        0.449   0.312   9.127   9.888
   21        0.447   0.316   9.123   9.886
   22        0.393   0.271   9.166   9.830
   23        0.447   0.316   9.123   9.886
   24        0.398   0.270   9.165   9.833
   25        0.407   0.261   9.168   9.836
   26        0.393   0.272   9.161   9.826
   27        0.393   0.271   9.166   9.830
   28        0.419   0.198   9.178   9.794
   29        0.400   0.240   9.176   9.817
   30        0.428   0.226   9.165   9.819
   31        0.400   0.241   9.176   9.817
   32        0.391   0.252   9.180   9.823
   33        0.428   0.226   9.165   9.819
   34        0.391   0.252   9.180   9.823
   35        0.419   0.197   9.177   9.792
   36        0.719   0.825   3.278   4.822
   37        1.593   3.367   0.000   4.959
   38        1.566   3.526   0.000   5.092
   39        0.603   0.118   0.000   0.721
tot         18.869  16.481 324.103 359.453

  FORCE on cell =-STRESS in cart. coord.  units (eV):
  Direction    XX          YY          ZZ          XY          YZ          ZX
  Alpha Z   666.06154   666.06154   666.06154
  Ewald  176810.21457176739.30964************    61.54585    18.73186    31.66932
  Hartree186708.25454186682.84179************    21.88279    -0.97680    -1.60347
  E(xc)   -2114.67770 -2114.75693 -2120.82718     0.06917    -0.28989    -0.50471
  Local  ************************374679.34136   -76.57926   -12.31260   -20.92636
  n-local  -365.58345  -365.67566  -369.23537     0.07040     0.43279     0.77328
  augment  3234.93601  3235.32489  3245.67907    -0.34377    -0.21598    -0.37801
  Kinetic  5093.78621  5101.50974  5106.63017    -6.80472    -5.13768    -8.62644
  Fock        0.00000     0.00000     0.00000     0.00000     0.00000     0.00000
  Total      -1.82896    -1.63705    -0.89950    -0.15954     0.23170     0.40361
  in kB      -1.68982    -1.51251    -0.83107    -0.14740     0.21407     0.37291

 VOLUME and BASIS-vectors are now :
  energy-cutoff  :      500.00
  volume of cell :     1734.10
      direct lattice vectors                 reciprocal lattice vectors
     8.791366577  0.000000000  0.000000000     0.113747958 -0.065672414  0.000000000
     4.395683289  7.613546790  0.000000000     0.000000000  0.131344829  0.000000000
     0.000000000  0.000000000 25.907840602     0.000000000  0.000000000  0.038598354

  length of vectors
     8.791366577  8.791366577 25.907840602     0.131344829  0.131344829  0.038598354

 FORCES acting on ions
    electron-ion (+dipol)            ewald-force                    non-local-force                 convergence-correction
   0.141E+00 0.809E-01 0.280E+04   -.803E-01 -.462E-01 -.280E+04   -.261E-01 -.156E-01 -.187E+01   -.416E-01 -.234E-01 0.598E-01
   -.341E-01 0.173E+00 0.280E+04   -.568E-01 -.419E+00 -.280E+04   0.166E-01 0.235E+00 -.159E+01   0.752E-01 0.509E-02 0.629E-01
   -.675E-01 0.411E+00 0.280E+04   0.137E+00 -.479E+00 -.280E+04   -.135E-01 0.773E-01 -.160E+01   -.537E-01 -.385E-02 0.459E-01
   0.132E+00 -.114E+00 0.280E+04   -.392E+00 0.160E+00 -.280E+04   0.212E+00 -.104E+00 -.159E+01   0.424E-01 0.618E-01 0.634E-01
   -.985E-01 -.561E-01 0.280E+04   -.143E-01 -.873E-02 -.280E+04   0.642E-01 0.369E-01 -.135E+01   0.397E-01 0.228E-01 0.101E+00
   -.858E-01 -.153E+00 0.280E+04   0.406E+00 0.571E-01 -.280E+04   -.235E+00 0.590E-02 -.154E+01   -.682E-01 0.763E-01 0.697E-01
   0.322E+00 -.265E+00 0.280E+04   -.346E+00 0.358E+00 -.280E+04   0.604E-01 -.504E-01 -.160E+01   -.298E-01 -.436E-01 0.469E-01
   -.178E+00 0.155E-02 0.280E+04   0.253E+00 0.323E+00 -.280E+04   -.112E+00 -.206E+00 -.154E+01   0.329E-01 -.972E-01 0.685E-01
   -.115E+00 -.693E-01 0.280E+04   0.934E-01 0.542E-01 -.280E+04   0.171E-01 0.104E-01 -.179E+01   0.126E-02 0.251E-02 0.589E-01
   0.401E+01 0.232E+01 0.975E+03   -.370E+01 -.214E+01 -.974E+03   -.347E+00 -.200E+00 -.597E+00   -.104E-01 -.395E-02 0.635E-02
   -.518E+00 0.369E+01 0.975E+03   0.420E+00 -.384E+01 -.974E+03   0.602E-02 0.101E+00 -.400E+00   0.897E-01 -.239E-02 0.311E-02
   -.361E+01 0.293E+01 0.974E+03   0.328E+01 -.272E+01 -.973E+03   0.441E+00 -.252E+00 -.710E+00   -.613E-01 0.196E-01 0.285E-01
   0.293E+01 -.229E+01 0.975E+03   -.311E+01 0.228E+01 -.974E+03   0.910E-01 -.453E-01 -.400E+00   0.410E-01 0.773E-01 0.415E-02
   -.261E+01 -.150E+01 0.975E+03   0.276E+01 0.159E+01 -.975E+03   -.142E+00 -.825E-01 -.135E+00   0.261E-01 0.125E-01 -.135E-01
   -.293E+00 -.899E+00 0.972E+03   0.349E+00 0.820E+00 -.971E+03   -.207E-01 0.411E-01 -.729E+00   -.384E-01 0.250E-01 -.307E-01
   0.731E+00 -.460E+01 0.974E+03   -.711E+00 0.421E+01 -.973E+03   0.198E-02 0.508E+00 -.709E+00   -.154E-01 -.608E-01 0.244E-01
   -.928E+00 0.195E+00 0.972E+03   0.885E+00 -.105E+00 -.971E+03   0.255E-01 -.390E-01 -.728E+00   0.448E-02 -.467E-01 -.319E-01
   0.247E+00 0.139E+00 0.970E+03   -.175E+00 -.977E-01 -.970E+03   -.448E-01 -.259E-01 -.502E+00   -.213E-01 -.119E-01 -.173E-01
   0.163E+01 -.107E+01 -.876E+03   -.170E+01 0.956E+00 0.875E+03   0.953E-01 0.169E+00 0.825E+00   -.263E-01 0.135E-01 -.199E+00
   -.153E+02 -.883E+01 -.851E+03   0.155E+02 0.894E+01 0.852E+03   -.440E+00 -.254E+00 -.938E+00   0.558E-02 0.380E-02 -.212E+00
   0.130E+02 -.859E+00 -.856E+03   -.139E+02 0.174E+01 0.857E+03   0.971E+00 -.925E+00 -.113E+01   0.271E-01 -.404E-02 -.224E+00
   -.498E+01 -.219E+01 -.875E+03   0.487E+01 0.231E+01 0.875E+03   0.103E+00 -.184E+00 0.681E+00   0.294E-01 0.198E-01 -.238E+00
   0.575E+01 0.117E+02 -.856E+03   -.543E+01 -.129E+02 0.857E+03   -.315E+00 0.131E+01 -.113E+01   0.614E-03 0.513E-02 -.229E+00
   -.509E+00 -.293E+00 -.867E+03   0.559E+00 0.326E+00 0.866E+03   -.704E-01 -.419E-01 0.308E+00   -.401E-01 -.269E-01 -.208E+00
   0.440E+01 0.252E+01 -.883E+03   -.438E+01 -.252E+01 0.883E+03   -.218E-01 -.125E-01 0.717E+00   -.139E-02 0.650E-02 -.273E+00
   -.138E+00 0.193E+01 -.876E+03   -.356E-02 -.194E+01 0.875E+03   0.196E+00 0.264E-04 0.827E+00   0.184E-02 -.231E-01 -.200E+00
   -.438E+01 -.324E+01 -.875E+03   0.443E+01 0.308E+01 0.875E+03   -.108E+00 0.182E+00 0.682E+00   0.330E-01 0.167E-01 -.234E+00
   0.175E+02 0.101E+02 -.268E+04   -.178E+02 -.103E+02 0.268E+04   0.202E+00 0.117E+00 0.140E+01   0.274E-01 0.243E-01 -.138E+00
   0.122E+02 0.937E+02 -.262E+04   -.121E+02 -.958E+02 0.262E+04   -.435E+00 0.909E+00 0.292E+01   0.409E-01 0.551E-01 -.102E+00
   -.253E+02 0.379E+02 -.268E+04   0.249E+02 -.377E+02 0.268E+04   0.781E+00 -.685E+00 0.180E+01   -.646E-01 0.562E-01 -.122E+00
   0.875E+02 -.362E+02 -.262E+04   -.892E+02 0.373E+02 0.262E+04   0.572E+00 -.821E+00 0.291E+01   0.561E-01 -.136E-01 -.104E+00
   -.959E+02 0.401E+02 -.263E+04   0.978E+02 -.413E+02 0.263E+04   -.626E+00 0.779E+00 0.241E+01   -.524E-01 0.386E-01 -.141E+00
   0.202E+02 -.410E+02 -.268E+04   -.202E+02 0.406E+02 0.268E+04   -.203E+00 0.102E+01 0.180E+01   0.117E-01 -.771E-01 -.122E+00
   -.133E+02 -.103E+03 -.263E+04   0.132E+02 0.105E+03 0.263E+04   0.357E+00 -.931E+00 0.241E+01   0.327E-01 -.660E-01 -.137E+00
   -.154E+02 -.898E+01 -.269E+04   0.156E+02 0.907E+01 0.269E+04   -.251E-01 -.115E-01 0.158E+01   -.592E-01 -.266E-01 -.477E-01
   0.157E+02 0.915E+01 -.100E+04   -.149E+02 -.872E+01 0.101E+04   -.748E+00 -.433E+00 -.527E+00   0.412E-02 -.865E-03 -.240E-01
   -.702E+01 -.393E+01 -.178E+04   0.136E+02 0.774E+01 0.180E+04   -.659E+01 -.380E+01 -.247E+02   -.229E-01 -.175E-01 -.431E-01
   0.217E+02 0.131E+02 -.176E+04   -.426E+02 -.255E+02 0.174E+04   0.209E+02 0.124E+02 0.136E+02   0.259E-01 0.108E-01 -.825E-02
   -.281E+02 -.169E+02 -.358E+03   0.318E+02 0.191E+02 0.365E+03   -.369E+01 -.220E+01 -.691E+01   -.498E-02 -.340E-02 -.110E-01
   -.109E+02 -.655E+01 0.223E+02   0.711E-13 0.711E-14 0.529E-11   0.109E+02 0.655E+01 -.198E+02   0.372E-01 0.314E-03 -.247E+01

 POSITION                                       TOTAL-FORCE (eV/Angst)
      0.00000      0.00000      5.28219        -0.008233     -0.004252     -0.057381
      2.93046      0.00000      5.28219         0.000109     -0.006016      0.021632
      5.86091      0.00000      5.28219         0.001490      0.005373      0.032250
      1.46523      2.53785      5.28219        -0.005666      0.003909      0.021621
      4.39568      2.53785      5.28219        -0.009730     -0.005091     -0.003227
      7.32614      2.53785      5.28219         0.015802     -0.013905      0.011967
      2.93046      5.07570      5.28219         0.004996     -0.000630      0.032026
      5.86091      5.07570      5.28219        -0.004626      0.021356      0.012119
      8.79137      5.07570      5.28219        -0.004558     -0.002197     -0.007874
      1.46523      0.84595      7.67490        -0.047685     -0.027167     -0.046005
      4.39568      0.84595      7.67490        -0.003390     -0.050639     -0.086259
      7.32614      0.84595      7.67490         0.048455     -0.020515     -0.034617
      2.93046      3.38380      7.67490        -0.045855      0.023275     -0.086335
      5.86091      3.38380      7.67490         0.039985      0.023562     -0.080911
      8.79137      3.38380      7.67490        -0.003840     -0.012879      0.016919
      4.39568      5.92165      7.67490         0.005948      0.053057     -0.034541
      7.32614      5.92165      7.67490        -0.013512      0.003987      0.017048
     10.25659      5.92165      7.67490         0.004968      0.003333      0.067772
      8.79137      1.69476     10.06939        -0.001631      0.065978      0.208952
      2.92162      1.68680     10.02387        -0.247192     -0.142371     -0.278471
      5.86975      1.68680     10.02387         0.104597     -0.045567     -0.137718
     10.25272      4.23198     10.06895         0.024150     -0.040963      0.069835
      4.39568      4.23995     10.02387         0.012226      0.113524     -0.137416
      7.33001      4.23198     10.06895        -0.062020     -0.035330      0.027973
     11.71935      6.76617     10.06939        -0.008949     -0.004490      0.026991
      5.86339      6.76617     10.06939         0.055544     -0.033714      0.208651
      8.79137      6.76312     10.06895        -0.023647      0.042409      0.069616
      0.00000      0.00000     12.45783        -0.037192     -0.021172     -0.062484
      2.95723      0.04373     12.49962        -0.278278     -1.095893     -0.556515
      5.83413      0.04373     12.49962         0.280459     -0.448507     -0.355441
      1.51649      2.53918     12.49962        -1.089188      0.306188     -0.556432
      7.27488      2.53918     12.49962         1.172931     -0.365101     -0.442395
      2.95494      5.03064     12.49962        -0.248742      0.469622     -0.356160
      5.83643      5.03064     12.49962         0.270130      1.199239     -0.442748
      8.79137      5.07570     12.47105         0.089255      0.051989     -0.052273
      4.39568      2.53785     12.22632         0.005839      0.002084      3.011180
      5.42017      3.12942     13.63766        -0.011700     -0.011296     -0.017611
      3.28750      1.89956     13.85889         0.006214     -0.003466     -0.028753
      3.73453      2.16608     14.68696         0.012537      0.002275      0.005018
    total drift:                                0.034506      0.000188      0.038631

  FREE ENERGIE OF THE ION-ELECTRON SYSTEM (eV)
  free  energy   TOTEN  =      -117.73143713 eV

  energy  without entropy=     -117.73143713  energy(sigma->0) =     -117.73143713

 stress matrix after NEB project (eV)
     -1.82896     -0.15954      0.40361
     -0.15954     -1.63705      0.23170
      0.40361      0.23170     -0.89950
  FORCES: max atom, RMS     0.029620    0.006484
  FORCE total and by dimension    0.040491    0.028753
  Stress total and by dimension    2.705220    1.828958
|           W    W    AA    RRRRR   N    N  II  N    N   GGGG   !!!           |
|           W    W   A  A   R    R  NN   N  II  NN   N  G    G  !!!           |
|           W    W  A    A  R    R  N N  N  II  N N  N  G       !!!           |
|           W WW W  AAAAAA  RRRRR   N  N N  II  N  N N  G  GGG   !            |
|           WW  WW  A    A  R   R   N   NN  II  N   NN  G    G                |
|           W    W  A    A  R    R  N    N  II  N    N   GGGG   !!!           |
|     Tetrahedron method does not include variations of the Fermi             |
|     occupations, so forces and stress will be inaccurate. We suggest        |
|     using a different smearing scheme ISMEAR = 1 or 2 for metals in         |
|     relaxations.                                                            |

 total charge

# of ion       s       p       d       tot
    1        0.421   0.201   9.177   9.799
    2        0.414   0.205   9.176   9.795
    3        0.414   0.204   9.177   9.795
    4        0.414   0.205   9.176   9.795
    5        0.420   0.202   9.176   9.797
    6        0.415   0.204   9.177   9.796
    7        0.414   0.204   9.177   9.795
    8        0.415   0.204   9.177   9.796
    9        0.414   0.203   9.177   9.795
   10        0.409   0.268   9.164   9.841
   11        0.406   0.271   9.165   9.842
   12        0.410   0.269   9.161   9.840
   13        0.406   0.271   9.165   9.842
   14        0.404   0.269   9.169   9.842
   15        0.403   0.268   9.164   9.835
   16        0.410   0.269   9.161   9.840
   17        0.403   0.268   9.164   9.835
   18        0.399   0.270   9.163   9.832
   19        0.393   0.272   9.161   9.826
   20        0.449   0.312   9.127   9.888
   21        0.447   0.316   9.123   9.886
   22        0.393   0.271   9.166   9.830
   23        0.447   0.316   9.123   9.886
   24        0.398   0.270   9.165   9.833
   25        0.407   0.261   9.168   9.836
   26        0.393   0.272   9.161   9.826
   27        0.393   0.271   9.166   9.830
   28        0.419   0.198   9.178   9.794
   29        0.400   0.240   9.176   9.817
   30        0.428   0.226   9.165   9.819
   31        0.400   0.241   9.176   9.817
   32        0.391   0.252   9.180   9.823
   33        0.428   0.226   9.165   9.819
   34        0.391   0.252   9.180   9.823
   35        0.419   0.197   9.177   9.792
   36        0.719   0.825   3.278   4.822
   37        1.593   3.367   0.000   4.959
   38        1.566   3.526   0.000   5.092
   39        0.603   0.118   0.000   0.721
tot         18.869  16.481 324.103 359.453

 BZINTS: Fermi energy:    0.271929;  403.000000 electrons
         Band energy:-0.164286E+04;  BLOECHL correction:   -0.031077