 vasp.6.2.0 18Jan21 (build Jun 12 2021 23:27:24) complex

 executed on             LinuxIFC date 2022.05.27  05:25:09

 INCAR:
   ISMEAR = -5
   SIGMA = 0.1
   ISPIN = 1
   EDIFF = 1.d-5
   EDIFFG = -0.01
   NSW = 0
   NELM = 150
   ENCUT = 500
   ISIF = 2
   IBRION = 2
   LREAL = Auto
   ALGO = Fast
   ICHARG = 11
   LORBIT = 10
   LCHARG = .F.
   LWAVE = .F.

 POTCAR:    PAW_PBE Au 04Oct2007
 POTCAR:    PAW_PBE Pt 04Feb2005
 POTCAR:    PAW_PBE H 15Jun2001
|           W    W    AA    RRRRR   N    N  II  N    N   GGGG   !!!           |
|           W    W   A  A   R    R  NN   N  II  NN   N  G    G  !!!           |
|           W    W  A    A  R    R  N N  N  II  N N  N  G       !!!           |
|           W WW W  AAAAAA  RRRRR   N  N N  II  N  N N  G  GGG   !            |
|           WW  WW  A    A  R   R   N   NN  II  N   NN  G    G                |
|           W    W  A    A  R    R  N    N  II  N    N   GGGG   !!!           |
|     For optimal performance we recommend to set                             |
|       NCORE = 2 up to number-of-cores-per-socket                            |
|     This setting can greatly improve the performance of VASP for DFT.       |
|     The default, NCORE=1 might be grossly inefficient on modern             |
|     multi-core architectures or massively parallel machines. Do your        |
|     Unfortunately you need to use the default for GW and RPA                |
|     calculations (for HF NCORE is supported but not extensively tested      |
|     yet).                                                                   |

 POTCAR:    PAW_PBE Au 04Oct2007
   VRHFIN =Au: s1d10

   TITEL  = PAW_PBE Au 04Oct2007
   POMASS =  196.966; ZVAL   =   11.000    mass and valenz
   ENMAX  =  229.943; ENMIN  =  172.457 eV

 POTCAR:    PAW_PBE Pt 04Feb2005
   VRHFIN =Pt: s1d9

   TITEL  = PAW_PBE Pt 04Feb2005
   POMASS =  195.080; ZVAL   =   10.000    mass and valenz
   ENMAX  =  230.283; ENMIN  =  172.712 eV

 POTCAR:    PAW_PBE H 15Jun2001
   VRHFIN =H: ultrasoft test

   TITEL  = PAW_PBE H 15Jun2001
   POMASS =    1.000; ZVAL   =    1.000    mass and valenz
   ENMAX  =  250.000; ENMIN  =  200.000 eV

 Optimization of the real space projectors (new method)

 maximal supplied QI-value         = 15.12
 optimisation between [QCUT,QGAM] = [ 11.34, 22.83] = [ 36.00,145.93] Ry
 Optimized for a Real-space Cutoff    1.39 Angstroem

   l    n(q)    QCUT    max X(q) W(low)/X(q) W(high)/X(q)  e(spline)
   2      9    11.338    60.898    0.39E-03    0.42E-03    0.21E-06
   2      9    11.338    58.894    0.40E-03    0.42E-03    0.22E-06
   0      9    11.338   109.617    0.13E-03    0.20E-04    0.13E-06
   0      9    11.338    75.026    0.13E-03    0.20E-04    0.13E-06
   1      9    11.338    16.344    0.33E-04    0.24E-03    0.18E-06
   1      9    11.338    10.160    0.26E-04    0.19E-03    0.15E-06
 Optimization of the real space projectors (new method)

[...]

   l    n(q)    QCUT    max X(q) W(low)/X(q) W(high)/X(q)  e(spline)
   2      9    11.346    66.195    0.31E-03    0.12E-04    0.29E-06
   2      9    11.346    64.643    0.32E-03    0.12E-04    0.29E-06
   0     10    11.346    95.520    0.90E-04    0.16E-04    0.19E-06
   0     10    11.346    63.403    0.87E-04    0.15E-04    0.19E-06
   1     10    11.346    19.961    0.17E-03    0.21E-03    0.11E-06
   1     10    11.346    13.289    0.14E-03    0.18E-03    0.89E-07
 Optimization of the real space projectors (new method)

 maximal supplied QI-value         = 34.20
 optimisation between [QCUT,QGAM] = [ 11.29, 22.57] = [ 35.68,142.71] Ry
 Optimized for a Real-space Cutoff    1.16 Angstroem

   l    n(q)    QCUT    max X(q) W(low)/X(q) W(high)/X(q)  e(spline)
   0      8    11.287    19.460    0.40E-03    0.73E-03    0.16E-06
   0      8    11.287    12.209    0.38E-03    0.70E-03    0.15E-06
   1      7    11.287     4.655    0.22E-03    0.25E-04    0.22E-06
  PAW_PBE Au 04Oct2007                  :
  PAW_PBE Pt 04Feb2005                  :
  PAW_PBE H 15Jun2001                   :

 POSCAR: Au-Pt-H2
  positions in direct lattice
  velocities in cartesian coordinates
 exchange correlation table for  LEXCH =        8
   RHO(1)=    0.500       N(1)  =     2000
   RHO(2)=  100.500       N(2)  =     4000

 VTST: version 3.2, (02/03/18)

 CHAIN: initializing optimizer

 OPT: Using VASP Conjugate-Gradient optimizer
 CHAIN: Read ICHAIN            0

 POSCAR: Au-Pt-H2
  positions in direct lattice
  velocities in cartesian coordinates

 ion  position               nearest neighbor table
   1  0.000  0.000  0.224-  16 2.94  12 2.94   6 2.94   8 2.94   7 2.94   3 2.94  10 2.94   4 2.94
                             2 2.94
   2  0.333  0.000  0.224-   9 2.94  11 2.94  17 2.94  10 2.94   8 2.94   4 2.94   5 2.94   1 2.94
                             3 2.94
   3  0.667  0.000  0.224-   7 2.94  18 2.94  12 2.94   1 2.94  11 2.94   5 2.94   6 2.94   9 2.94
                             2 2.94
   4  0.000  0.333  0.224-  10 2.94   6 2.94   5 2.94  13 2.94   2 2.94  15 2.94   9 2.94   1 2.94
                             7 2.94
   5  0.333  0.333  0.224-  13 2.94   7 2.94  11 2.94   4 2.94   2 2.94  14 2.94   3 2.94   8 2.94
                             6 2.94
   6  0.667  0.333  0.224-  15 2.94  14 2.94   1 2.94  12 2.94   4 2.94   9 2.94   8 2.94   3 2.94
                             5 2.94
   7  0.000  0.667  0.224-  18 2.94   3 2.94  16 2.94   5 2.94   1 2.94  13 2.94   8 2.94   4 2.94
                             9 2.94
   8  0.333  0.667  0.224-   9 2.94  17 2.94   1 2.94   2 2.94  14 2.94  16 2.94   6 2.94   7 2.94
                             5 2.94
   9  0.667  0.667  0.224-   2 2.94   8 2.94  17 2.94   6 2.94  15 2.94   4 2.94   3 2.94  18 2.94
                             7 2.94
  10  0.111  0.111  0.325-  20 2.91  26 2.93  19 2.93  11 2.94  17 2.94   2 2.94   4 2.94   1 2.94
                            12 2.94  16 2.94  13 2.94  15 2.94
  11  0.444  0.111  0.325-  20 2.92  21 2.92  27 2.93  13 2.94   2 2.94  10 2.94  17 2.94   5 2.94
                             3 2.94  18 2.94  14 2.94  12 2.94
  12  0.778  0.111  0.325-  21 2.91  25 2.93  19 2.93  16 2.94  18 2.94   1 2.94  14 2.94  15 2.94
                             3 2.94   6 2.94  10 2.94  11 2.94
  13  0.111  0.444  0.325-  23 2.92  20 2.92  22 2.93   5 2.94  18 2.94  11 2.94   7 2.94   4 2.94
                            16 2.94  10 2.94  14 2.94  15 2.94
  14  0.444  0.444  0.325-  21 2.92  23 2.92  24 2.93  15 2.94   6 2.94  12 2.94   8 2.94  17 2.94
                             5 2.94  16 2.94  13 2.94  11 2.94
  15  0.778  0.444  0.325-  24 2.93  22 2.93  19 2.93  14 2.94   6 2.94  17 2.94  12 2.94   9 2.94
                             4 2.94  10 2.94  13 2.94  18 2.94
  16  0.111  0.778  0.325-  23 2.91  25 2.93  26 2.93  18 2.94  12 2.94   7 2.94   1 2.94   8 2.94
                            13 2.94  10 2.94  14 2.94  17 2.94
  17  0.444  0.778  0.325-  27 2.93  24 2.93  26 2.93   9 2.94  15 2.94   2 2.94  10 2.94  11 2.94
                             8 2.94  14 2.94  16 2.94  18 2.94
  18  0.778  0.778  0.325-  22 2.93  27 2.93  25 2.93  16 2.94   7 2.94  13 2.94  12 2.94   3 2.94
                            11 2.94   9 2.94  15 2.94  17 2.94
  19  0.889  0.222  0.426-  21 2.93  20 2.93  15 2.93  10 2.93  12 2.93  24 2.94  22 2.94  26 2.94
                            25 2.94  28 2.96  32 2.96  31 2.96
  20  0.221  0.221  0.425-  36 2.82  10 2.91  11 2.92  13 2.92  26 2.93  19 2.93  27 2.94  22 2.94
                            23 2.96  21 2.96  29 2.96  31 2.96
  21  0.557  0.221  0.425-  36 2.82  12 2.91  14 2.92  11 2.92  25 2.93  19 2.93  24 2.94  27 2.94
                            20 2.96  23 2.96  30 2.96  32 2.96
  22  0.888  0.556  0.426-  18 2.93  15 2.93  24 2.93  27 2.93  13 2.93  25 2.94  19 2.94  23 2.94
                            20 2.94  35 2.96  33 2.96  31 2.96
  23  0.221  0.557  0.425-  36 2.82  16 2.91  13 2.92  14 2.92  25 2.93  26 2.93  22 2.94  24 2.94
                            20 2.96  21 2.96  33 2.96  34 2.96
  24  0.556  0.556  0.426-  15 2.93  17 2.93  27 2.93  22 2.93  14 2.93  26 2.94  19 2.94  21 2.94
                            23 2.94  35 2.96  32 2.96  34 2.96
  25  0.889  0.889  0.426-  23 2.93  21 2.93  18 2.93  16 2.93  12 2.93  22 2.94  27 2.94  19 2.94
                            26 2.94  28 2.96  33 2.96  30 2.96
  26  0.222  0.889  0.426-  20 2.93  23 2.93  17 2.93  10 2.93  16 2.93  27 2.94  24 2.94  19 2.94
                            25 2.94  28 2.96  29 2.96  34 2.96
  27  0.556  0.888  0.426-  17 2.93  18 2.93  24 2.93  22 2.93  11 2.93  26 2.94  25 2.94  20 2.94
                            21 2.94  35 2.96  29 2.96  30 2.96
  28  0.000  0.000  0.529-  34 2.95  32 2.95  33 2.95  30 2.95  31 2.95  29 2.95  25 2.96  19 2.96
                            26 2.96
  29  0.333  0.002  0.529-  30 2.92  31 2.92  36 2.93  35 2.95  28 2.95  27 2.96  20 2.96  26 2.96
                            34 2.98
  30  0.664  0.002  0.529-  29 2.92  32 2.92  36 2.93  35 2.95  28 2.95  27 2.96  21 2.96  25 2.96
                            33 2.98
  31  0.002  0.333  0.529-  33 2.92  29 2.92  36 2.93  35 2.95  28 2.95  22 2.96  20 2.96  19 2.96
                            32 2.98
  32  0.664  0.333  0.529-  34 2.92  30 2.92  36 2.93  35 2.95  28 2.95  24 2.96  21 2.96  19 2.96
                            31 2.98
  33  0.002  0.664  0.529-  31 2.92  34 2.92  36 2.93  35 2.95  28 2.95  22 2.96  23 2.96  25 2.96
                            30 2.98
  34  0.333  0.664  0.529-  32 2.92  33 2.92  36 2.93  35 2.95  28 2.95  24 2.96  23 2.96  26 2.96
                            29 2.98
  35  0.667  0.667  0.529-  29 2.95  34 2.95  32 2.95  31 2.95  30 2.95  33 2.95  24 2.96  27 2.96
                            22 2.96
  36  0.333  0.333  0.521-  38 1.69  37 1.69  20 2.82  23 2.82  21 2.82  33 2.93  31 2.93  29 2.93
                            30 2.93  34 2.93  32 2.93
  37  0.279  0.332  0.589-  36 1.69
  38  0.388  0.332  0.589-  36 1.69

  LATTYP: Found a hexagonal cell.
 ALAT       =     8.8135128021
 C/A-ratio  =     2.6805310532

  Lattice vectors:

 A1 = (  -4.4067569092,  -7.6327256898,   0.0000000000)
 A2 = (   8.8135128021,   0.0000000000,   0.0000000000)
 A3 = (   0.0000000000,   0.0000000000,  23.6248947541)

Analysis of symmetry for initial positions (statically):
 Subroutine PRICEL returns:
 Original cell was already a primitive cell.

 Routine SETGRP: Setting up the symmetry group for a
 hexagonal supercell.

 Subroutine GETGRP returns: Found  2 space group operations
 (whereof  2 operations were pure point group operations)
 out of a pool of 24 trial point group operations.

The static configuration has the point symmetry C_1h.

Analysis of symmetry for dynamics (positions and initial velocities):
 Subroutine PRICEL returns:
 Original cell was already a primitive cell.

[...]

The dynamic configuration has the point symmetry C_1h.

Analysis of constrained symmetry for selective dynamics:
 Subroutine PRICEL returns:
 Original cell was already a primitive cell.

 Routine SETGRP: Setting up the symmetry group for a
 hexagonal supercell.

 Subroutine GETGRP returns: Found  2 space group operations
[...]
     33      -4.9303      2.00000
     34      -4.9231      2.00000
     35      -4.9094      2.00000
     36      -4.8331      2.00000
     37      -4.8283      2.00000
     38      -4.7108      2.00000
     39      -4.7083      2.00000
     40      -4.6475      2.00000
     41      -4.5863      2.00000
     42      -4.5710      2.00000
     43      -4.5508      2.00000
     44      -4.5165      2.00000
     45      -4.4633      2.00000
     46      -4.4603      2.00000
     47      -4.3633      2.00000
     48      -4.3309      2.00000
     49      -4.3012      2.00000
     50      -4.2979      2.00000
     51      -4.2888      2.00000
     52      -4.2819      2.00000
     53      -4.2743      2.00000
     54      -4.2275      2.00000
     55      -4.1880      2.00000
     56      -4.1539      2.00000
     57      -4.1331      2.00000
     58      -4.1257      2.00000
     59      -4.1174      2.00000
     60      -4.1090      2.00000
[...]
    226       4.8566      0.00000
    227       5.1761      0.00000
    228       5.1845      0.00000
    229       5.2037      0.00000
    230       5.4642      0.00000
    231       5.4837      0.00000
    232       5.7292      0.00000
    233       5.9500      0.00000
    234       6.0205      0.00000
    235       6.0515      0.00000
    236       6.2431      0.00000
    237       6.2742      0.00000
    238       6.3441      0.00000
    239       6.3757      0.00000
    240       6.5242      0.00000

 soft charge-density along one line, spin component           1
         0         1         2         3         4         5         6         7         8         9
 total charge-density along one line

------------------------ aborting loop because EDIFF is reached ----------------------------------------

 total charge

# of ion       s       p       d       tot
    1        0.540   0.240   8.766   9.547
    2        0.546   0.240   8.765   9.551
    3        0.546   0.240   8.765   9.551
    4        0.546   0.240   8.766   9.551
    5        0.542   0.242   8.765   9.549
    6        0.546   0.240   8.766   9.551
    7        0.546   0.240   8.766   9.551
    8        0.546   0.240   8.766   9.551
    9        0.540   0.240   8.769   9.549
   10        0.520   0.309   8.771   9.600
   11        0.524   0.305   8.780   9.609
   12        0.520   0.309   8.771   9.600
   13        0.523   0.306   8.780   9.609
   14        0.523   0.306   8.780   9.609
   15        0.513   0.309   8.776   9.598
   16        0.519   0.310   8.771   9.600
   17        0.513   0.309   8.776   9.598
   18        0.513   0.309   8.776   9.598
   19        0.519   0.302   8.777   9.598
   20        0.529   0.323   8.761   9.613
   21        0.529   0.323   8.761   9.613
   22        0.512   0.307   8.773   9.592
   23        0.527   0.324   8.761   9.612
   24        0.512   0.307   8.773   9.592
   25        0.519   0.302   8.777   9.598
   26        0.519   0.302   8.777   9.598
   27        0.512   0.306   8.774   9.592
   28        0.542   0.232   8.768   9.542
   29        0.538   0.238   8.772   9.548
   30        0.538   0.238   8.772   9.548
   31        0.536   0.241   8.771   9.548
   32        0.536   0.241   8.771   9.548
   33        0.538   0.238   8.773   9.549
   34        0.538   0.238   8.773   9.549
   35        0.542   0.232   8.770   9.544
   36        0.598   0.561   8.118   9.278
   37        0.512   0.033   0.000   0.545
   38        0.512   0.033   0.000   0.545
tot         20.177  10.254 315.097 345.528

  FORCE on cell =-STRESS in cart. coord.  units (eV):
  Direction    XX          YY          ZZ          XY          YZ          ZX
  Alpha Z   950.76264   950.76264   950.76264
  Ewald  140995.11079140970.66454************    -0.00034    -0.21296    -0.00015
  Hartree149522.49145149517.46584************    -0.00000    -0.07117    -0.00004
  E(xc)   -1778.32751 -1778.64298 -1785.09177     0.00000    -0.00452    -0.00000
  Local  ************************303271.30715     0.00193     0.18940     0.00010
  n-local   -56.93696   -56.52379   -37.93633     4.05912     0.03294     0.10342
  augment  2421.76736  2422.84185  2431.62218    -0.00139     0.01472     0.00008
  Kinetic  5513.77820  5520.30225  5550.21952     0.87149     0.08854     0.09621
  Fock        0.00000     0.00000     0.00000     0.00000     0.00000     0.00000
  Total     -18.15747   -18.07412     2.32070    -0.00000     0.03695     0.00000
  in kB     -18.30490   -18.22087     2.33954    -0.00000     0.03725     0.00000

 VOLUME and BASIS-vectors are now :
  energy-cutoff  :      500.00
  volume of cell :     1589.27
      direct lattice vectors                 reciprocal lattice vectors
     8.813512802  0.000000000  0.000000000     0.113462137 -0.065507406  0.000000000
     4.406756909  7.632725690  0.000000000     0.000000000  0.131014796  0.000000000
     0.000000000  0.000000000 23.624894754     0.000000000  0.000000000  0.042328231

  length of vectors
     8.813512802  8.813512802 23.624894754     0.131014796  0.131014796  0.042328231

 FORCES acting on ions
    electron-ion (+dipol)            ewald-force                    non-local-force                 convergence-correction
   -.199E-04 0.150E-02 0.260E+04   0.519E-04 -.258E-02 -.260E+04   0.595E-10 0.893E-03 -.108E+01   -.202E-03 0.208E-02 -.596E+00
   0.146E+00 0.308E+00 0.260E+04   -.181E+00 -.267E+00 -.260E+04   0.265E-01 0.135E-01 -.342E+00   0.894E-02 -.397E-01 -.627E+00
   -.146E+00 0.308E+00 0.260E+04   0.181E+00 -.268E+00 -.260E+04   -.265E-01 0.135E-01 -.342E+00   -.866E-02 -.377E-01 -.627E+00
   0.333E+00 -.151E-01 0.260E+04   -.320E+00 -.237E-01 -.260E+04   0.331E-01 0.117E-01 -.341E+00   -.337E-01 0.187E-01 -.635E+00
   0.699E-05 0.733E-02 0.260E+04   0.952E-04 0.381E-03 -.260E+04   -.236E-09 -.354E-02 -.309E+00   0.430E-02 -.234E-02 -.604E+00
   -.333E+00 -.151E-01 0.260E+04   0.320E+00 -.237E-01 -.260E+04   -.331E-01 0.117E-01 -.341E+00   0.321E-01 0.196E-01 -.634E+00
   0.181E+00 -.291E+00 0.260E+04   -.139E+00 0.291E+00 -.260E+04   0.287E-02 -.305E-01 -.346E+00   -.302E-01 0.223E-01 -.636E+00
   -.181E+00 -.291E+00 0.260E+04   0.139E+00 0.291E+00 -.260E+04   -.287E-02 -.305E-01 -.346E+00   0.321E-01 0.212E-01 -.636E+00
   0.194E-04 0.785E-02 0.260E+04   0.166E-03 0.224E-02 -.260E+04   -.633E-09 -.952E-02 -.620E+00   -.464E-02 -.224E-02 -.666E+00
   0.337E+01 0.194E+01 0.877E+03   -.294E+01 -.171E+01 -.876E+03   -.286E+00 -.153E+00 -.698E+00   -.906E-01 -.460E-01 -.242E+00
   0.140E-04 0.252E+01 0.879E+03   0.149E-03 -.245E+01 -.878E+03   -.673E-09 -.101E-01 -.463E+00   0.380E-02 -.106E+00 -.210E+00
   -.337E+01 0.194E+01 0.877E+03   0.294E+01 -.171E+01 -.876E+03   0.286E+00 -.153E+00 -.698E+00   0.893E-01 -.445E-01 -.242E+00
   0.214E+01 -.123E+01 0.879E+03   -.210E+01 0.123E+01 -.878E+03   0.817E-02 -.174E-01 -.454E+00   -.787E-01 0.411E-01 -.207E+00
   -.214E+01 -.123E+01 0.879E+03   0.210E+01 0.123E+01 -.878E+03   -.817E-02 -.174E-01 -.454E+00   0.866E-01 0.406E-01 -.207E+00
   0.308E-04 0.519E+00 0.876E+03   0.236E-03 -.526E+00 -.875E+03   -.164E-08 -.246E-01 -.445E+00   -.240E-02 0.278E-01 -.247E+00
   -.216E-04 -.388E+01 0.877E+03   0.163E-03 0.339E+01 -.876E+03   0.214E-07 0.322E+00 -.688E+00   0.299E-03 0.103E+00 -.238E+00
   0.462E+00 -.292E+00 0.876E+03   -.468E+00 0.275E+00 -.875E+03   -.342E-01 0.223E-01 -.439E+00   0.301E-01 -.382E-02 -.247E+00
   -.462E+00 -.292E+00 0.876E+03   0.468E+00 0.275E+00 -.875E+03   0.342E-01 0.223E-01 -.439E+00   -.301E-01 -.191E-02 -.247E+00
   -.412E-04 0.976E+00 -.878E+03   0.532E-04 -.102E+01 0.877E+03   0.142E-08 0.213E-01 0.658E+00   -.332E-03 0.294E-02 0.376E+00
   0.726E+01 0.435E+01 -.851E+03   -.682E+01 -.406E+01 0.851E+03   -.439E+00 -.283E+00 -.534E+00   0.530E-01 0.241E-01 0.600E+00
   -.726E+01 0.435E+01 -.851E+03   0.682E+01 -.406E+01 0.851E+03   0.439E+00 -.283E+00 -.534E+00   -.522E-01 0.263E-01 0.600E+00
   0.112E+01 -.785E+00 -.872E+03   -.134E+01 0.905E+00 0.871E+03   0.247E+00 -.137E+00 0.627E+00   -.102E-01 0.236E-02 0.432E+00
   -.146E-04 -.853E+01 -.851E+03   0.144E-03 0.805E+01 0.851E+03   0.312E-07 0.468E+00 -.470E+00   0.193E-02 -.589E-01 0.626E+00
   -.112E+01 -.785E+00 -.872E+03   0.134E+01 0.905E+00 0.871E+03   -.247E+00 -.137E+00 0.627E+00   0.319E-02 0.260E-02 0.431E+00
   -.800E+00 -.380E+00 -.878E+03   0.827E+00 0.407E+00 0.877E+03   -.110E-01 -.145E-01 0.671E+00   -.223E-02 -.754E-02 0.393E+00
   0.800E+00 -.380E+00 -.878E+03   -.827E+00 0.407E+00 0.877E+03   0.110E-01 -.145E-01 0.671E+00   0.406E-02 -.869E-02 0.394E+00
   0.615E-05 0.130E+01 -.872E+03   0.201E-03 -.156E+01 0.871E+03   0.195E-07 0.293E+00 0.623E+00   -.422E-02 -.148E-02 0.436E+00
   -.939E-05 0.519E+00 -.259E+04   0.264E-04 -.475E+00 0.259E+04   -.178E-08 -.267E-01 0.238E+00   0.133E-02 -.227E-01 0.630E+00
   0.649E+01 0.113E+02 -.259E+04   -.662E+01 -.116E+02 0.259E+04   -.514E-01 0.408E-01 0.488E+00   0.925E-01 0.980E-01 0.595E+00
   -.649E+01 0.113E+02 -.259E+04   0.662E+01 -.116E+02 0.259E+04   0.514E-01 0.408E-01 0.488E+00   -.986E-01 0.999E-01 0.596E+00
   0.141E+02 0.585E+00 -.259E+04   -.145E+02 -.555E+00 0.259E+04   0.712E-01 -.224E-01 0.476E+00   0.148E+00 0.136E-01 0.598E+00
   -.141E+02 0.585E+00 -.259E+04   0.145E+02 -.555E+00 0.259E+04   -.712E-01 -.224E-01 0.476E+00   -.156E+00 0.148E-01 0.598E+00
   0.526E+01 -.118E+02 -.259E+04   -.545E+01 0.121E+02 0.259E+04   -.101E-01 -.131E-01 0.490E+00   0.688E-01 -.124E+00 0.599E+00
   -.526E+01 -.118E+02 -.259E+04   0.545E+01 0.121E+02 0.259E+04   0.101E-01 -.131E-01 0.490E+00   -.730E-01 -.125E+00 0.599E+00
   0.276E-04 -.474E+00 -.259E+04   0.149E-03 0.421E+00 0.259E+04   0.227E-08 0.341E-01 0.262E+00   -.354E-02 0.195E-01 0.616E+00
   -.723E-06 -.378E+00 -.220E+04   0.101E-03 0.368E+00 0.220E+04   0.597E-10 0.897E-03 -.772E+00   0.410E-02 0.100E-01 0.545E+00
   0.180E+02 0.561E-01 -.303E+03   -.206E+02 -.637E-01 0.304E+03   0.258E+01 0.601E-02 -.167E+01   0.231E-01 0.713E-03 -.108E-01
   -.180E+02 0.561E-01 -.303E+03   0.206E+02 -.637E-01 0.304E+03   -.258E+01 0.601E-02 -.167E+01   -.228E-01 0.727E-03 -.110E-01
   -.751E-03 0.107E+00 0.515E+01   0.568E-13 0.136E-12 0.364E-11   -.582E-08 -.875E-01 -.720E+01   -.145E-01 -.208E-01 0.190E+01

 POSITION                                       TOTAL-FORCE (eV/Angst)
      0.00000      0.00000      5.28038         0.000000      0.001929      0.022723
      2.93784      0.00000      5.28038         0.000509      0.014948     -0.016571
      5.87568      0.00000      5.28038        -0.000509      0.014948     -0.016571
      1.46892      2.54424      5.28038         0.013258     -0.007899     -0.016905
      4.40676      2.54424      5.28038         0.000000      0.001869     -0.035875
      7.34459      2.54424      5.28038        -0.013258     -0.007899     -0.016905
      2.93784      5.08848      5.28038         0.013233     -0.008586     -0.014463
      5.87568      5.08848      5.28038        -0.013233     -0.008586     -0.014463
      8.81351      5.08848      5.28038        -0.000000     -0.001635     -0.004850
      1.46892      0.84808      7.67911         0.055955      0.031643      0.092935
      4.40676      0.84808      7.67911        -0.000000     -0.046250     -0.007586
      7.34459      0.84808      7.67911        -0.055955      0.031643      0.092935
      2.93784      3.39232      7.67911        -0.038856      0.022497     -0.004309
      5.87568      3.39232      7.67911         0.038856      0.022497     -0.004309
      8.81351      3.39232      7.67911        -0.000000     -0.003726      0.089716
      4.40676      5.93656      7.67911        -0.000000     -0.066445      0.094489
      7.34459      5.93656      7.67911        -0.009876      0.002715      0.089314
     10.28243      5.93656      7.67911         0.009876      0.002715      0.089314
      8.81351      1.69709     10.07334        -0.000000     -0.015240      0.005433
      2.92757      1.69024     10.04824         0.054589      0.038262     -0.040884
      5.88594      1.69024     10.04824        -0.054589      0.038262     -0.040884
     10.27700      4.24354     10.06671         0.024830     -0.014356     -0.002501
      4.40676      4.25225     10.04824        -0.000000     -0.070169     -0.054808
      7.35003      4.24354     10.06671        -0.024830     -0.014356     -0.002501
     11.75055      6.78418     10.07334         0.013277      0.004275      0.002792
      5.87648      6.78418     10.07334        -0.013277      0.004275      0.002792
      8.81351      6.77837     10.06671         0.000000      0.027878      0.003493
      0.00000      0.00000     12.49905        -0.000000     -0.005018     -0.088261
      2.94801      0.01573     12.49317        -0.092547     -0.213170     -0.133547
      5.86551      0.01573     12.49317         0.092547     -0.213170     -0.133547
      1.48763      2.54518     12.49317        -0.237422      0.021683     -0.116043
      7.32589      2.54518     12.49317         0.237422      0.021683     -0.116043
      2.94638      5.07181     12.49317        -0.128404      0.196063     -0.127711
      5.86714      5.07181     12.49317         0.128404      0.196063     -0.127711
      8.81351      5.08848     12.49660         0.000000      0.000681     -0.105177
      4.40676      2.54424     12.29817         0.000000      0.001592      0.657524
      3.92594      2.53786     13.91643         0.006061     -0.000808     -0.000518
      4.88757      2.53786     13.91643        -0.006061     -0.000808     -0.000518
    total drift:                               -0.015214     -0.001209     -0.154287

  FREE ENERGIE OF THE ION-ELECTRON SYSTEM (eV)
  free  energy   TOTEN  =      -119.44653064 eV

  energy  without entropy=     -119.44653064  energy(sigma->0) =     -119.44653064

 stress matrix after NEB project (eV)
    -18.15747     -0.00000      0.00000
     -0.00000    -18.07412      0.03695
      0.00000      0.03695      2.32070
  FORCES: max atom, RMS     0.006137    0.001408
  FORCE total and by dimension    0.008678    0.006061
  Stress total and by dimension   25.724616   18.157474
|           W    W    AA    RRRRR   N    N  II  N    N   GGGG   !!!           |
|           W    W   A  A   R    R  NN   N  II  NN   N  G    G  !!!           |
|           W    W  A    A  R    R  N N  N  II  N N  N  G       !!!           |
|           W WW W  AAAAAA  RRRRR   N  N N  II  N  N N  G  GGG   !            |
|           WW  WW  A    A  R   R   N   NN  II  N   NN  G    G                |
|           W    W  A    A  R    R  N    N  II  N    N   GGGG   !!!           |
|     Tetrahedron method does not include variations of the Fermi             |
|     occupations, so forces and stress will be inaccurate. We suggest        |
|     using a different smearing scheme ISMEAR = 1 or 2 for metals in         |
|     relaxations.                                                            |

 total charge

# of ion       s       p       d       tot
    1        0.540   0.240   8.766   9.547
    2        0.546   0.240   8.765   9.551
    3        0.546   0.240   8.765   9.551
    4        0.546   0.240   8.766   9.551
    5        0.542   0.242   8.765   9.549
    6        0.546   0.240   8.766   9.551
    7        0.546   0.240   8.766   9.551
    8        0.546   0.240   8.766   9.551
    9        0.540   0.240   8.769   9.549
   10        0.520   0.309   8.771   9.600
   11        0.524   0.305   8.780   9.609
   12        0.520   0.309   8.771   9.600
   13        0.523   0.306   8.780   9.609
   14        0.523   0.306   8.780   9.609
   15        0.513   0.309   8.776   9.598
   16        0.519   0.310   8.771   9.600
   17        0.513   0.309   8.776   9.598
   18        0.513   0.309   8.776   9.598
   19        0.519   0.302   8.777   9.598
   20        0.529   0.323   8.761   9.613
   21        0.529   0.323   8.761   9.613
   22        0.512   0.307   8.773   9.592
   23        0.527   0.324   8.761   9.612
   24        0.512   0.307   8.773   9.592
   25        0.519   0.302   8.777   9.598
   26        0.519   0.302   8.777   9.598
   27        0.512   0.306   8.774   9.592
   28        0.542   0.232   8.768   9.542
   29        0.538   0.238   8.772   9.548
   30        0.538   0.238   8.772   9.548
   31        0.536   0.241   8.771   9.548
   32        0.536   0.241   8.771   9.548
   33        0.538   0.238   8.773   9.549
   34        0.538   0.238   8.773   9.549
   35        0.542   0.232   8.770   9.544
   36        0.598   0.561   8.118   9.278
   37        0.512   0.033   0.000   0.545
   38        0.512   0.033   0.000   0.545
tot         20.177  10.254 315.097 345.528

 BZINTS: Fermi energy:    0.483447;  397.000000 electrons
         Band energy:-0.127899E+04;  BLOECHL correction:   -0.080826