 vasp.6.2.0 18Jan21 (build Jun 12 2021 23:27:24) complex

 executed on             LinuxIFC date 2022.05.26  20:10:53

 INCAR:
   ISMEAR = -5
   SIGMA = 0.1
   ISPIN = 1
   EDIFF = 1.d-5
   EDIFFG = -0.01
   NSW = 0
   NELM = 150
   ENCUT = 500
   ISIF = 2
   IBRION = 2
   LREAL = Auto
   ALGO = Fast
   ICHARG = 11
   LORBIT = 10
   LCHARG = .F.
   LWAVE = .F.

 POTCAR:    PAW_PBE Au 04Oct2007
 POTCAR:    PAW_PBE Ti 08Apr2002
|           W    W    AA    RRRRR   N    N  II  N    N   GGGG   !!!           |
|           W    W   A  A   R    R  NN   N  II  NN   N  G    G  !!!           |
|           W    W  A    A  R    R  N N  N  II  N N  N  G       !!!           |
|           W WW W  AAAAAA  RRRRR   N  N N  II  N  N N  G  GGG   !            |
|           WW  WW  A    A  R   R   N   NN  II  N   NN  G    G                |
|           W    W  A    A  R    R  N    N  II  N    N   GGGG   !!!           |
|     For optimal performance we recommend to set                             |
|       NCORE = 2 up to number-of-cores-per-socket                            |
|     This setting can greatly improve the performance of VASP for DFT.       |
|     The default, NCORE=1 might be grossly inefficient on modern             |
|     multi-core architectures or massively parallel machines. Do your        |
|     Unfortunately you need to use the default for GW and RPA                |
|     calculations (for HF NCORE is supported but not extensively tested      |
|     yet).                                                                   |

 POTCAR:    PAW_PBE Au 04Oct2007
   VRHFIN =Au: s1d10

   TITEL  = PAW_PBE Au 04Oct2007
   POMASS =  196.966; ZVAL   =   11.000    mass and valenz
   ENMAX  =  229.943; ENMIN  =  172.457 eV

 POTCAR:    PAW_PBE Ti 08Apr2002
   VRHFIN =Ti: d3 s1

   TITEL  = PAW_PBE Ti 08Apr2002
   POMASS =   47.880; ZVAL   =    4.000    mass and valenz
   ENMAX  =  178.330; ENMIN  =  133.747 eV

 Optimization of the real space projectors (new method)

 maximal supplied QI-value         = 15.12
 optimisation between [QCUT,QGAM] = [ 11.34, 22.83] = [ 36.00,145.93] Ry
 Optimized for a Real-space Cutoff    1.39 Angstroem

   l    n(q)    QCUT    max X(q) W(low)/X(q) W(high)/X(q)  e(spline)
   2      9    11.338    60.898    0.39E-03    0.42E-03    0.21E-06
   2      9    11.338    58.894    0.40E-03    0.42E-03    0.22E-06
   0      9    11.338   109.617    0.13E-03    0.20E-04    0.13E-06
   0      9    11.338    75.026    0.13E-03    0.20E-04    0.13E-06
   1      9    11.338    16.344    0.33E-04    0.24E-03    0.18E-06
   1      9    11.338    10.160    0.26E-04    0.19E-03    0.15E-06
 Optimization of the real space projectors (new method)

 maximal supplied QI-value         = 13.42
 optimisation between [QCUT,QGAM] = [ 11.40, 22.81] = [ 36.42,145.68] Ry
 Optimized for a Real-space Cutoff    1.56 Angstroem

   l    n(q)    QCUT    max X(q) W(low)/X(q) W(high)/X(q)  e(spline)
   2     10    11.404    49.363    0.27E-03    0.67E-03    0.76E-06
   2     10    11.404    47.669    0.26E-03    0.65E-03    0.73E-06
   0     11    11.404    26.374    0.17E-03    0.20E-03    0.34E-06
   0     11    11.404    11.549    0.14E-03    0.16E-03    0.29E-06
   1     10    11.404     9.492    0.33E-04    0.56E-04    0.16E-06
  PAW_PBE Au 04Oct2007                  :
  PAW_PBE Ti 08Apr2002                  :

 POSCAR: Au-Ti
  positions in direct lattice
  velocities in cartesian coordinates
 exchange correlation table for  LEXCH =        8
   RHO(1)=    0.500       N(1)  =     2000
   RHO(2)=  100.500       N(2)  =     4000

 VTST: version 3.2, (02/03/18)

 CHAIN: initializing optimizer

 OPT: Using VASP Conjugate-Gradient optimizer
 CHAIN: Read ICHAIN            0

 POSCAR: Au-Ti
  positions in direct lattice
  velocities in cartesian coordinates

 ion  position               nearest neighbor table
   1  0.000  0.000  0.238-  16 2.94  12 2.94   6 2.94   8 2.94   7 2.94   3 2.94  10 2.94   4 2.94
                             2 2.94
   2  0.333  0.000  0.238-   9 2.94  11 2.94  17 2.94  10 2.94   8 2.94   4 2.94   5 2.94   1 2.94
                             3 2.94
   3  0.667  0.000  0.238-   7 2.94  18 2.94  12 2.94   1 2.94  11 2.94   5 2.94   6 2.94   9 2.94
                             2 2.94
   4  0.000  0.333  0.238-  10 2.94   6 2.94   5 2.94  13 2.94   2 2.94  15 2.94   9 2.94   1 2.94
                             7 2.94
   5  0.333  0.333  0.238-  13 2.94   7 2.94  11 2.94   4 2.94   2 2.94  14 2.94   3 2.94   8 2.94
                             6 2.94
   6  0.667  0.333  0.238-  15 2.94  14 2.94   1 2.94  12 2.94   4 2.94   9 2.94   8 2.94   3 2.94
                             5 2.94
   7  0.000  0.667  0.238-  18 2.94   3 2.94  16 2.94   5 2.94   1 2.94  13 2.94   8 2.94   4 2.94
                             9 2.94
   8  0.333  0.667  0.238-   9 2.94  17 2.94   1 2.94   2 2.94  14 2.94  16 2.94   6 2.94   7 2.94
                             5 2.94
   9  0.667  0.667  0.238-   2 2.94   8 2.94  17 2.94   6 2.94  15 2.94   4 2.94   3 2.94  18 2.94
                             7 2.94
  10  0.111  0.111  0.346-  26 2.93  19 2.93  20 2.93  11 2.94  17 2.94   2 2.94   4 2.94   1 2.94
                            12 2.94  16 2.94  13 2.94  15 2.94
  11  0.444  0.111  0.346-  20 2.92  21 2.92  27 2.94  13 2.94   2 2.94  10 2.94  17 2.94   5 2.94
                             3 2.94  18 2.94  14 2.94  12 2.94
  12  0.778  0.111  0.346-  25 2.93  19 2.93  21 2.93  16 2.94  18 2.94   1 2.94  14 2.94  15 2.94
                             3 2.94   6 2.94  10 2.94  11 2.94
  13  0.111  0.444  0.346-  23 2.92  20 2.92  22 2.94   5 2.94  18 2.94  11 2.94   7 2.94   4 2.94
                            16 2.94  10 2.94  14 2.94  15 2.94
  14  0.444  0.444  0.346-  21 2.92  23 2.92  24 2.94  15 2.94   6 2.94  12 2.94   8 2.94  17 2.94
                             5 2.94  16 2.94  13 2.94  11 2.94
  15  0.778  0.444  0.346-  24 2.92  22 2.92  19 2.93  14 2.94   6 2.94  17 2.94  12 2.94   9 2.94
                             4 2.94  10 2.94  13 2.94  18 2.94
  16  0.111  0.778  0.346-  25 2.93  26 2.93  23 2.93  18 2.94  12 2.94   7 2.94   1 2.94   8 2.94
                            13 2.94  10 2.94  14 2.94  17 2.94
  17  0.444  0.778  0.346-  27 2.92  24 2.92  26 2.93   9 2.94  15 2.94   2 2.94  10 2.94  11 2.94
                             8 2.94  14 2.94  16 2.94  18 2.94
  18  0.778  0.778  0.346-  22 2.92  27 2.92  25 2.93  16 2.94   7 2.94  13 2.94  12 2.94   3 2.94
                            11 2.94   9 2.94  15 2.94  17 2.94
  19  0.889  0.222  0.454-  10 2.93  12 2.93  15 2.93  26 2.94  25 2.94  24 2.94  22 2.94  21 2.95
                            20 2.95  28 2.95  32 3.03  31 3.03
  20  0.223  0.223  0.453-  36 2.76  23 2.91  21 2.91  11 2.92  13 2.92  10 2.93  27 2.95  22 2.95
                            26 2.95  19 2.95  29 2.96  31 2.96
  21  0.554  0.223  0.453-  36 2.76  20 2.91  23 2.91  14 2.92  11 2.92  12 2.93  27 2.95  24 2.95
                            25 2.95  19 2.95  30 2.96  32 2.96
  22  0.887  0.556  0.454-  24 2.92  27 2.92  18 2.92  15 2.92  13 2.94  25 2.94  19 2.94  23 2.95
                            20 2.95  35 2.96  33 2.99  31 2.99
  23  0.223  0.554  0.453-  36 2.76  20 2.91  21 2.91  13 2.92  14 2.92  16 2.93  22 2.95  24 2.95
                            25 2.95  26 2.95  33 2.96  34 2.96
  24  0.556  0.556  0.454-  27 2.92  22 2.92  15 2.92  17 2.92  14 2.94  26 2.94  19 2.94  21 2.95
                            23 2.95  35 2.96  32 2.99  34 2.99
  25  0.889  0.889  0.454-  16 2.93  12 2.93  18 2.93  19 2.94  26 2.94  22 2.94  27 2.94  23 2.95
                            21 2.95  28 2.95  33 3.03  30 3.03
  26  0.222  0.889  0.454-  10 2.93  16 2.93  17 2.93  19 2.94  25 2.94  27 2.94  24 2.94  20 2.95
                            23 2.95  28 2.95  29 3.03  34 3.03
  27  0.556  0.887  0.454-  24 2.92  22 2.92  17 2.92  18 2.92  11 2.94  26 2.94  25 2.94  20 2.95
                            21 2.95  35 2.96  29 2.99  30 2.99
  28  0.000  0.000  0.563-  25 2.95  19 2.95  26 2.95  34 2.98  32 2.98  33 2.98  30 2.98  31 2.98
                            29 2.98
  29  0.334  0.009  0.564-  30 2.85  31 2.86  36 2.87  20 2.96  35 2.98  28 2.98  27 2.99  26 3.03
                            34 3.10
  30  0.657  0.009  0.564-  29 2.85  32 2.86  36 2.87  21 2.96  35 2.98  28 2.98  27 2.99  25 3.03
                            33 3.10
  31  0.009  0.334  0.564-  33 2.85  29 2.86  36 2.87  20 2.96  35 2.98  28 2.98  22 2.99  19 3.03
                            32 3.10
  32  0.657  0.334  0.564-  34 2.85  30 2.86  36 2.87  21 2.96  35 2.98  28 2.98  24 2.99  19 3.03
                            31 3.10
  33  0.009  0.657  0.564-  31 2.85  34 2.86  36 2.87  23 2.96  35 2.98  28 2.98  22 2.99  25 3.03
                            30 3.10
  34  0.334  0.657  0.564-  32 2.85  33 2.86  36 2.87  23 2.96  35 2.98  28 2.98  24 2.99  26 3.03
                            29 3.10
  35  0.667  0.667  0.563-  24 2.96  27 2.96  22 2.96  29 2.98  34 2.98  32 2.98  31 2.98  30 2.98
                            33 2.98
  36  0.333  0.333  0.552-  20 2.76  23 2.76  21 2.76  33 2.87  31 2.87  29 2.87  30 2.87  34 2.87
                            32 2.87

  LATTYP: Found a hexagonal cell.
 ALAT       =     8.8135128021
 C/A-ratio  =     2.5184286595

  Lattice vectors:

 A1 = (  -4.4067569092,  -7.6327256898,   0.0000000000)
 A2 = (   8.8135128021,   0.0000000000,   0.0000000000)
 A3 = (   0.0000000000,   0.0000000000,  22.1962032318)

Analysis of symmetry for initial positions (statically):
 Subroutine PRICEL returns:
 Original cell was already a primitive cell.

 Routine SETGRP: Setting up the symmetry group for a
 hexagonal supercell.

 Subroutine GETGRP returns: Found  6 space group operations
 (whereof  6 operations were pure point group operations)
 out of a pool of 24 trial point group operations.

The static configuration has the point symmetry C_3v.

Analysis of symmetry for dynamics (positions and initial velocities):
 Subroutine PRICEL returns:
 Original cell was already a primitive cell.

[...]

The dynamic configuration has the point symmetry C_3v.

Analysis of constrained symmetry for selective dynamics:
 Subroutine PRICEL returns:
 Original cell was already a primitive cell.

 Routine SETGRP: Setting up the symmetry group for a
 hexagonal supercell.

 Subroutine GETGRP returns: Found  6 space group operations
 (whereof  6 operations were pure point group operations)
 out of a pool of 24 trial point group operations.

The constrained configuration has the point symmetry C_3v.

 Subroutine INISYM returns: Found  6 space group operations
 (whereof  6 operations are pure point group operations),
 and found     1 'primitive' translations

                                     Primitive cell

  volume of cell :    1493.1636

  direct lattice vectors                    reciprocal lattice vectors
     8.813512802  0.000000000  0.000000000     0.113462137 -0.065507406  0.000000000
     4.406756909  7.632725690  0.000000000     0.000000000  0.131014796  0.000000000
     0.000000000  0.000000000 22.196203232     0.000000000  0.000000000  0.045052750

  length of vectors
[...]
     15      -5.2358      2.00000
     16      -5.2178      2.00000
     17      -5.2132      2.00000
     18      -5.1980      2.00000
     19      -5.1563      2.00000
     20      -5.1439      2.00000
     21      -5.1421      2.00000
     22      -5.1192      2.00000
     23      -5.0667      2.00000
     24      -5.0303      2.00000
     25      -5.0141      2.00000
     26      -4.9824      2.00000
     27      -4.9160      2.00000
     28      -4.8960      2.00000
     29      -4.7761      2.00000
     30      -4.7711      2.00000
     31      -4.7682      2.00000
     32      -4.7375      2.00000
     33      -4.7198      2.00000
     34      -4.7122      2.00000
     35      -4.6450      2.00000
     36      -4.6261      2.00000
     37      -4.5321      2.00000
     38      -4.5138      2.00000
     39      -4.4550      2.00000
     40      -4.3946      2.00000
     41      -4.3692      2.00000
     42      -4.3297      2.00000
     43      -4.3075      2.00000
     44      -4.2931      2.00000
     45      -4.2651      2.00000
     46      -4.1735      2.00000
     47      -4.1708      2.00000
     48      -4.1321      2.00000
     49      -4.1044      2.00000
     50      -4.0984      2.00000
     51      -4.0942      2.00000
     52      -4.0700      2.00000
     53      -4.0508      2.00000
     54      -4.0038      2.00000
     55      -3.9818      2.00000
     56      -3.9672      2.00000
     57      -3.9611      2.00000
     58      -3.9451      2.00000
     59      -3.9350      2.00000
     60      -3.9203      2.00000
[...]
    238       6.7303      0.00000
    239       6.7368      0.00000
    240       6.7610      0.00000
    241       6.8161      0.00000
    242       6.9056      0.00000
    243       7.1126      0.00000
    244       7.2038      0.00000
    245       7.3002      0.00000
    246       7.5843      0.00000
    247       7.5920      0.00000
    248       7.6984      0.00000
    249       7.7433      0.00000
    250       7.8818      0.00000
    251       7.9849      0.00000
    252       8.0277      0.00000

 soft charge-density along one line, spin component           1
         0         1         2         3         4         5         6         7         8         9
 total charge-density along one line

------------------------ aborting loop because EDIFF is reached ----------------------------------------

 total charge

# of ion       s       p       d       tot
    1        0.549   0.237   8.765   9.551
    2        0.542   0.241   8.765   9.548
    3        0.542   0.241   8.765   9.548
    4        0.542   0.241   8.765   9.548
    5        0.545   0.242   8.762   9.549
    6        0.542   0.241   8.765   9.548
    7        0.542   0.241   8.765   9.548
    8        0.542   0.241   8.765   9.548
    9        0.545   0.239   8.767   9.551
   10        0.524   0.306   8.768   9.597
   11        0.519   0.306   8.779   9.605
   12        0.524   0.306   8.768   9.597
   13        0.519   0.306   8.779   9.605
   14        0.519   0.306   8.779   9.605
   15        0.517   0.308   8.772   9.597
   16        0.524   0.306   8.768   9.597
   17        0.517   0.308   8.772   9.597
   18        0.517   0.308   8.772   9.597
   19        0.520   0.297   8.769   9.587
   20        0.563   0.332   8.733   9.627
   21        0.563   0.332   8.733   9.627
   22        0.511   0.305   8.776   9.592
   23        0.563   0.332   8.733   9.627
   24        0.511   0.305   8.776   9.592
   25        0.520   0.297   8.769   9.587
   26        0.520   0.297   8.769   9.587
   27        0.511   0.305   8.776   9.592
   28        0.541   0.229   8.754   9.525
   29        0.586   0.243   8.732   9.561
   30        0.586   0.243   8.732   9.561
   31        0.586   0.243   8.732   9.561
   32        0.586   0.243   8.732   9.561
   33        0.586   0.243   8.732   9.561
   34        0.586   0.243   8.732   9.561
   35        0.538   0.230   8.757   9.525
   36        0.409   0.455   2.199   3.063
tot         19.356  10.103 308.777 338.236

  FORCE on cell =-STRESS in cart. coord.  units (eV):
  Direction    XX          YY          ZZ          XY          YZ          ZX
  Alpha Z   988.48725   988.48725   988.48725
  Ewald  116507.85614116507.85649************    -0.00034    -0.00009    -0.00018
  Hartree124971.07505124971.07504************    -0.00000    -0.00003    -0.00005
  E(xc)   -1742.18059 -1742.18057 -1749.42951    -0.00001    -0.00000    -0.00000
  Local  ************************253665.12526     0.00173     0.00005     0.00011
  n-local   -71.95556   -24.62680   -19.92084    22.88857    -1.71342     1.56345
  augment  2368.63140  2368.63292  2387.57811    -0.00132     0.00002     0.00002
  Kinetic  5359.79034  5366.14044  5424.90977     3.93325     0.40443    -0.15830
  Fock        0.00000     0.00000     0.00000     0.00000     0.00000     0.00000
  Total     -23.23830   -23.23830     1.75062    -0.00000     0.00000     0.00000
  in kB     -24.93489   -24.93489     1.87843    -0.00000     0.00000     0.00000

 VOLUME and BASIS-vectors are now :
  energy-cutoff  :      500.00
  volume of cell :     1493.16
      direct lattice vectors                 reciprocal lattice vectors
     8.813512802  0.000000000  0.000000000     0.113462137 -0.065507406  0.000000000
     4.406756909  7.632725690  0.000000000     0.000000000  0.131014796  0.000000000
     0.000000000  0.000000000 22.196203232     0.000000000  0.000000000  0.045052750

  length of vectors
     8.813512802  8.813512802 22.196203232     0.131014796  0.131014796  0.045052750

 FORCES acting on ions
    electron-ion (+dipol)            ewald-force                    non-local-force                 convergence-correction
   -.196E-04 -.162E-04 0.244E+04   0.518E-04 0.432E-04 -.244E+04   0.585E-17 -.144E-18 -.572E+00   -.180E-03 -.118E-03 0.952E-01
   0.118E+00 -.399E+00 0.244E+04   -.396E-01 0.409E+00 -.244E+04   0.112E-01 0.728E-01 -.349E+00   -.912E-01 -.880E-01 0.661E-01
   -.118E+00 -.399E+00 0.244E+04   0.395E-01 0.409E+00 -.244E+04   -.112E-01 0.728E-01 -.349E+00   0.915E-01 -.861E-01 0.666E-01
   -.286E+00 0.302E+00 0.244E+04   0.334E+00 -.239E+00 -.244E+04   0.686E-01 -.267E-01 -.349E+00   -.122E+00 -.351E-01 0.660E-01
   0.732E-05 -.240E-04 0.244E+04   0.951E-04 0.172E-05 -.244E+04   0.456E-17 0.256E-17 -.110E-01   0.424E-02 0.258E-02 0.654E-01
   0.286E+00 0.302E+00 0.244E+04   -.334E+00 -.239E+00 -.244E+04   -.686E-01 -.267E-01 -.349E+00   0.120E+00 -.341E-01 0.669E-01
   -.404E+00 0.968E-01 0.244E+04   0.374E+00 -.170E+00 -.244E+04   0.575E-01 -.461E-01 -.349E+00   -.287E-01 0.122E+00 0.667E-01
   0.404E+00 0.968E-01 0.244E+04   -.374E+00 -.170E+00 -.244E+04   -.575E-01 -.461E-01 -.349E+00   0.306E-01 0.121E+00 0.669E-01
   0.198E-04 -.417E-04 0.244E+04   0.166E-03 -.199E-04 -.244E+04   -.673E-18 -.170E-18 -.317E+00   -.461E-02 -.238E-02 0.907E-01
   -.881E+00 -.509E+00 0.770E+03   0.124E+01 0.714E+00 -.769E+03   -.239E+00 -.138E+00 -.574E+00   -.122E+00 -.706E-01 -.123E+00
   0.140E-04 -.212E+01 0.767E+03   0.148E-03 0.234E+01 -.767E+03   -.218E-08 -.328E-01 -.162E+00   0.363E-02 -.229E+00 -.108E+00
   0.881E+00 -.509E+00 0.770E+03   -.124E+01 0.714E+00 -.769E+03   0.239E+00 -.138E+00 -.574E+00   0.121E+00 -.696E-01 -.124E+00
   -.184E+01 0.106E+01 0.767E+03   0.203E+01 -.117E+01 -.767E+03   -.284E-01 0.164E-01 -.162E+00   -.196E+00 0.118E+00 -.108E+00
   0.184E+01 0.106E+01 0.767E+03   -.203E+01 -.117E+01 -.767E+03   0.284E-01 0.164E-01 -.162E+00   0.204E+00 0.117E+00 -.109E+00
   0.325E-04 0.326E+01 0.774E+03   0.235E-03 -.328E+01 -.773E+03   -.314E-09 -.471E-02 -.456E+00   -.207E-02 -.117E-01 -.847E-01
   -.205E-04 0.102E+01 0.770E+03   0.162E-03 -.143E+01 -.769E+03   0.183E-07 0.276E+00 -.574E+00   0.351E-04 0.140E+00 -.124E+00
   0.282E+01 -.163E+01 0.774E+03   -.284E+01 0.164E+01 -.773E+03   -.408E-02 0.236E-02 -.456E+00   -.109E-01 0.450E-02 -.847E-01
   -.282E+01 -.163E+01 0.774E+03   0.284E+01 0.164E+01 -.773E+03   0.408E-02 0.236E-02 -.456E+00   0.110E-01 0.608E-02 -.848E-01
   -.421E-04 -.519E+01 -.910E+03   0.567E-04 0.522E+01 0.910E+03   -.187E-08 -.281E-01 0.540E+00   0.353E-02 -.274E-02 -.322E+00
   -.245E+02 -.142E+02 -.939E+03   0.257E+02 0.148E+02 0.941E+03   -.102E+01 -.592E+00 -.974E+00   -.139E+00 -.806E-01 -.254E+00
   0.245E+02 -.142E+02 -.939E+03   -.257E+02 0.148E+02 0.941E+03   0.102E+01 -.592E+00 -.974E+00   0.139E+00 -.796E-01 -.255E+00
   -.189E+02 0.109E+02 -.906E+03   0.188E+02 -.109E+02 0.906E+03   0.252E+00 -.146E+00 0.576E+00   -.124E+00 0.704E-01 -.299E+00
   -.746E-05 0.283E+02 -.939E+03   0.137E-03 -.297E+02 0.941E+03   0.788E-07 0.118E+01 -.974E+00   0.131E-03 0.160E+00 -.255E+00
   0.189E+02 0.109E+02 -.906E+03   -.188E+02 -.109E+02 0.906E+03   -.252E+00 -.146E+00 0.576E+00   0.124E+00 0.717E-01 -.299E+00
   0.449E+01 0.259E+01 -.910E+03   -.452E+01 -.261E+01 0.910E+03   0.244E-01 0.141E-01 0.540E+00   0.747E-02 0.425E-02 -.322E+00
   -.449E+01 0.259E+01 -.910E+03   0.452E+01 -.261E+01 0.910E+03   -.244E-01 0.141E-01 0.540E+00   -.288E-03 0.446E-02 -.322E+00
   0.686E-05 -.219E+02 -.906E+03   0.200E-03 0.217E+02 0.906E+03   0.194E-07 0.291E+00 0.576E+00   -.177E-02 -.143E+00 -.299E+00
   -.817E-05 -.966E-05 -.246E+04   0.261E-04 0.289E-04 0.246E+04   -.271E-17 0.781E-18 0.487E+00   0.331E-03 0.176E-03 -.178E+00
   -.214E+02 -.431E+02 -.248E+04   0.225E+02 0.449E+02 0.248E+04   -.114E+01 -.178E+01 -.355E+00   0.990E-02 -.652E-01 -.148E+00
   0.214E+02 -.431E+02 -.248E+04   -.225E+02 0.449E+02 0.248E+04   0.114E+01 -.178E+01 -.355E+00   -.102E-01 -.640E-01 -.147E+00
   -.480E+02 0.304E+01 -.248E+04   0.502E+02 -.298E+01 0.248E+04   -.211E+01 -.954E-01 -.355E+00   -.514E-01 0.411E-01 -.148E+00
   0.480E+02 0.304E+01 -.248E+04   -.502E+02 -.298E+01 0.248E+04   0.211E+01 -.954E-01 -.355E+00   0.513E-01 0.423E-01 -.147E+00
   -.266E+02 0.400E+02 -.248E+04   0.277E+02 -.419E+02 0.248E+04   -.971E+00 0.187E+01 -.355E+00   -.605E-01 0.232E-01 -.147E+00
   0.266E+02 0.400E+02 -.248E+04   -.277E+02 -.419E+02 0.248E+04   0.971E+00 0.187E+01 -.355E+00   0.623E-01 0.233E-01 -.147E+00
   0.321E-04 -.351E-04 -.247E+04   0.146E-03 -.441E-04 0.247E+04   -.317E-17 -.619E-17 0.603E+00   -.451E-02 -.231E-02 -.166E+00
   -.248E-04 0.334E-05 -.872E+03   0.413E-04 0.374E-05 0.870E+03   0.163E-17 -.235E-18 0.180E+01   0.246E-03 0.150E-03 -.420E-01
   -.826E-03 -.779E-03 0.102E+02   -.791E-13 0.204E-12 -.101E-10   0.221E-15 0.216E-15 -.539E+01   0.135E-01 0.834E-02 -.420E+01

 POSITION                                       TOTAL-FORCE (eV/Angst)
      0.00000      0.00000      5.28038         0.000000      0.000000     -0.151691
      2.93784      0.00000      5.28038        -0.000921     -0.004077     -0.069312
      5.87568      0.00000      5.28038         0.000921     -0.004077     -0.069312
      1.46892      2.54424      5.28038        -0.003991      0.001241     -0.069312
      4.40676      2.54424      5.28038         0.000000      0.000000     -0.062624
      7.34459      2.54424      5.28038         0.003991      0.001241     -0.069312
      2.93784      5.08848      5.28038        -0.003071      0.002836     -0.069312
      5.87568      5.08848      5.28038         0.003071      0.002836     -0.069312
      8.81351      5.08848      5.28038         0.000000      0.000000     -0.087816
      1.46892      0.84808      7.67911        -0.003847     -0.002221      0.079615
      4.40676      0.84808      7.67911        -0.000000     -0.043410      0.014412
      7.34459      0.84808      7.67911         0.003847     -0.002221      0.079615
      2.93784      3.39232      7.67911        -0.037594      0.021705      0.014412
      5.87568      3.39232      7.67911         0.037594      0.021705      0.014412
      8.81351      3.39232      7.67911        -0.000000     -0.036106      0.108873
      4.40676      5.93656      7.67911         0.000000      0.004442      0.079615
      7.34459      5.93656      7.67911        -0.031269      0.018053      0.108873
     10.28243      5.93656      7.67911         0.031269      0.018053      0.108873
      8.81351      1.69614     10.07331         0.000000      0.003191      0.005936
      2.94950      1.70289     10.06400        -0.004641     -0.002680     -0.011034
      5.86402      1.70289     10.06400         0.004641     -0.002680     -0.011034
     10.27143      4.24676     10.06599         0.006893     -0.003980     -0.001318
      4.40676      4.22694     10.06400         0.000000      0.005359     -0.011034
      7.35560      4.24676     10.06599        -0.006893     -0.003980     -0.001318
     11.75137      6.78466     10.07331        -0.002764     -0.001596      0.005936
      5.87566      6.78466     10.07331         0.002764     -0.001596      0.005936
      8.81351      6.77194     10.06599         0.000000      0.007960     -0.001318
      0.00000      0.00000     12.49013         0.000000      0.000000      0.004344
      2.98093      0.06833     12.52966         0.010072      0.006904      0.019897
      5.83259      0.06833     12.52966        -0.010072      0.006904      0.019897
      1.54964      2.54739     12.52966         0.011015      0.005270      0.019897
      7.26387      2.54739     12.52966        -0.011015      0.005270      0.019897
      2.97547      5.01700     12.52966         0.000943     -0.012175      0.019897
      5.83804      5.01700     12.52966        -0.000943     -0.012175      0.019897
      8.81351      5.08848     12.50181         0.000000      0.000000      0.015795
      4.40676      2.54424     12.25739         0.000000      0.000000     -0.010965
    total drift:                                0.012640      0.007560      0.581380

  FREE ENERGIE OF THE ION-ELECTRON SYSTEM (eV)
  free  energy   TOTEN  =      -114.87670182 eV

  energy  without entropy=     -114.87670182  energy(sigma->0) =     -114.87670182

 stress matrix after NEB project (eV)
    -23.23830     -0.00000      0.00000
     -0.00000    -23.23830      0.00000
     -0.00000      0.00000      1.75062
  FORCES: max atom, RMS     0.023345    0.011107
  FORCE total and by dimension    0.066645    0.019897
  Stress total and by dimension   32.910507   23.238297
|           W    W    AA    RRRRR   N    N  II  N    N   GGGG   !!!           |
|           W    W   A  A   R    R  NN   N  II  NN   N  G    G  !!!           |
|           W    W  A    A  R    R  N N  N  II  N N  N  G       !!!           |
|           W WW W  AAAAAA  RRRRR   N  N N  II  N  N N  G  GGG   !            |
|           WW  WW  A    A  R   R   N   NN  II  N   NN  G    G                |
|           W    W  A    A  R    R  N    N  II  N    N   GGGG   !!!           |
|     Tetrahedron method does not include variations of the Fermi             |
|     occupations, so forces and stress will be inaccurate. We suggest        |
|     using a different smearing scheme ISMEAR = 1 or 2 for metals in         |
|     relaxations.                                                            |

 total charge

# of ion       s       p       d       tot
    1        0.549   0.237   8.765   9.551
    2        0.542   0.241   8.765   9.548
    3        0.542   0.241   8.765   9.548
    4        0.542   0.241   8.765   9.548
    5        0.545   0.242   8.762   9.549
    6        0.542   0.241   8.765   9.548
    7        0.542   0.241   8.765   9.548
    8        0.542   0.241   8.765   9.548
    9        0.545   0.239   8.767   9.551
   10        0.524   0.306   8.768   9.597
   11        0.519   0.306   8.779   9.605
   12        0.524   0.306   8.768   9.597
   13        0.519   0.306   8.779   9.605
   14        0.519   0.306   8.779   9.605
   15        0.517   0.308   8.772   9.597
   16        0.524   0.306   8.768   9.597
   17        0.517   0.308   8.772   9.597
   18        0.517   0.308   8.772   9.597
   19        0.520   0.297   8.769   9.587
   20        0.563   0.332   8.733   9.627
   21        0.563   0.332   8.733   9.627
   22        0.511   0.305   8.776   9.592
   23        0.563   0.332   8.733   9.627
   24        0.511   0.305   8.776   9.592
   25        0.520   0.297   8.769   9.587
   26        0.520   0.297   8.769   9.587
   27        0.511   0.305   8.776   9.592
   28        0.541   0.229   8.754   9.525
   29        0.586   0.243   8.732   9.561
   30        0.586   0.243   8.732   9.561
   31        0.586   0.243   8.732   9.561
   32        0.586   0.243   8.732   9.561
   33        0.586   0.243   8.732   9.561
   34        0.586   0.243   8.732   9.561
   35        0.538   0.230   8.757   9.525
   36        0.409   0.455   2.199   3.063
tot         19.356  10.103 308.777 338.236

 BZINTS: Fermi energy:    0.709560;  389.000000 electrons
         Band energy:-0.118174E+04;  BLOECHL correction:   -0.028472