 vasp.6.2.0 18Jan21 (build Jun 12 2021 23:27:24) complex

 executed on             LinuxIFC date 2022.05.28  01:33:18

 INCAR:
   ISMEAR = -5
   SIGMA = 0.1
   ISPIN = 1
   EDIFF = 1.d-5
   EDIFFG = -0.01
   NSW = 0
   NELM = 150
   ENCUT = 500
   ISIF = 2
   IBRION = 2
   LREAL = Auto
   ALGO = Fast
   ICHARG = 11
   LORBIT = 10
   LCHARG = .F.
   LWAVE = .F.

 POTCAR:    PAW_PBE Ag 02Apr2005
 POTCAR:    PAW_PBE Fe 06Sep2000
 POTCAR:    PAW_PBE H 15Jun2001
 POTCAR:    PAW_PBE O 08Apr2002
|           W    W    AA    RRRRR   N    N  II  N    N   GGGG   !!!           |
|           W    W   A  A   R    R  NN   N  II  NN   N  G    G  !!!           |
|           W    W  A    A  R    R  N N  N  II  N N  N  G       !!!           |
|           W WW W  AAAAAA  RRRRR   N  N N  II  N  N N  G  GGG   !            |
|           WW  WW  A    A  R   R   N   NN  II  N   NN  G    G                |
|           W    W  A    A  R    R  N    N  II  N    N   GGGG   !!!           |
|     For optimal performance we recommend to set                             |
|       NCORE = 2 up to number-of-cores-per-socket                            |
|     This setting can greatly improve the performance of VASP for DFT.       |
|     The default, NCORE=1 might be grossly inefficient on modern             |
|     multi-core architectures or massively parallel machines. Do your        |
|     Unfortunately you need to use the default for GW and RPA                |
|     calculations (for HF NCORE is supported but not extensively tested      |
|     yet).                                                                   |

 POTCAR:    PAW_PBE Ag 02Apr2005
   VRHFIN =Ag : s1 d10

   TITEL  = PAW_PBE Ag 02Apr2005
   POMASS =  107.868; ZVAL   =   11.000    mass and valenz
   ENMAX  =  249.844; ENMIN  =  187.383 eV

 POTCAR:    PAW_PBE Fe 06Sep2000
   VRHFIN =Fe:  d7 s1

   TITEL  = PAW_PBE Fe 06Sep2000
   POMASS =   55.847; ZVAL   =    8.000    mass and valenz
   ENMAX  =  267.882; ENMIN  =  200.911 eV

 POTCAR:    PAW_PBE H 15Jun2001
   VRHFIN =H: ultrasoft test

   TITEL  = PAW_PBE H 15Jun2001
   POMASS =    1.000; ZVAL   =    1.000    mass and valenz
   ENMAX  =  250.000; ENMIN  =  200.000 eV

 POTCAR:    PAW_PBE O 08Apr2002
   VRHFIN =O: s2p4

   TITEL  = PAW_PBE O 08Apr2002
   POMASS =   16.000; ZVAL   =    6.000    mass and valenz
   ENMAX  =  400.000; ENMIN  =  300.000 eV

 Optimization of the real space projectors (new method)

 maximal supplied QI-value         = 15.12
 optimisation between [QCUT,QGAM] = [ 11.34, 22.83] = [ 36.00,145.93] Ry
 Optimized for a Real-space Cutoff    1.43 Angstroem

   l    n(q)    QCUT    max X(q) W(low)/X(q) W(high)/X(q)  e(spline)
   2      9    11.338    53.897    0.16E-03    0.20E-03    0.28E-06
   2      9    11.338    52.416    0.16E-03    0.20E-03    0.29E-06
   0     10    11.338   122.045    0.31E-04    0.76E-04    0.15E-06
   0     10    11.338    73.629    0.30E-04    0.72E-04    0.15E-06
   1      9    11.338    15.255    0.20E-03    0.19E-04    0.17E-06
   1      9    11.338     9.562    0.16E-03    0.15E-04    0.14E-06
 Optimization of the real space projectors (new method)

[...]

   l    n(q)    QCUT    max X(q) W(low)/X(q) W(high)/X(q)  e(spline)
   0      8    11.287    19.460    0.40E-03    0.73E-03    0.16E-06
   0      8    11.287    12.209    0.38E-03    0.70E-03    0.15E-06
   1      7    11.287     4.655    0.22E-03    0.25E-04    0.22E-06
 Optimization of the real space projectors (new method)

 maximal supplied QI-value         = 24.76
 optimisation between [QCUT,QGAM] = [ 11.39, 22.77] = [ 36.31,145.25] Ry
 Optimized for a Real-space Cutoff    1.00 Angstroem

   l    n(q)    QCUT    max X(q) W(low)/X(q) W(high)/X(q)  e(spline)
   0      7    11.387    20.381    0.39E-03    0.13E-02    0.15E-06
   0      7    11.387    15.268    0.42E-03    0.14E-02    0.17E-06
   1      6    11.387     5.964    0.41E-03    0.11E-02    0.17E-06
   1      6    11.387     5.382    0.39E-03    0.87E-03    0.15E-06
  PAW_PBE Ag 02Apr2005                  :
  PAW_PBE Fe 06Sep2000                  :
  PAW_PBE H 15Jun2001                   :
  PAW_PBE O 08Apr2002                   :

 POSCAR: Ag-Fe-H2O
  positions in direct lattice
  velocities in cartesian coordinates
 exchange correlation table for  LEXCH =        8
   RHO(1)=    0.500       N(1)  =     2000
   RHO(2)=  100.500       N(2)  =     4000

 VTST: version 3.2, (02/03/18)

 CHAIN: initializing optimizer

 OPT: Using VASP Conjugate-Gradient optimizer
 CHAIN: Read ICHAIN            0

 POSCAR: Ag-Fe-H2O
  positions in direct lattice
  velocities in cartesian coordinates

 ion  position               nearest neighbor table
   1  0.000  0.000  0.212-   2 2.93   8 2.93   7 2.93   6 2.93   4 2.93  12 2.93  16 2.93  10 2.93
                             3 2.93
   2  0.333  0.000  0.212-   1 2.93   8 2.93   9 2.93   3 2.93   4 2.93   5 2.93  10 2.93  17 2.93
                            11 2.93
   3  0.667  0.000  0.212-   9 2.93   2 2.93   5 2.93  11 2.93   7 2.93  18 2.93   1 2.93   6 2.93
                            12 2.93
   4  0.000  0.333  0.212-   5 2.93   6 2.93   2 2.93   1 2.93   7 2.93  13 2.93  15 2.93   9 2.93
                            10 2.93
   5  0.333  0.333  0.212-   4 2.93   3 2.93   7 2.93   2 2.93   8 2.93  14 2.93  13 2.93  11 2.93
                             6 2.93
   6  0.667  0.333  0.212-   4 2.93   9 2.93   1 2.93  15 2.93   8 2.93  12 2.93   3 2.93   5 2.93
                            14 2.93
   7  0.000  0.667  0.212-   8 2.93   1 2.93   5 2.93   3 2.93   4 2.93  16 2.93  18 2.93  13 2.93
                             9 2.93
   8  0.333  0.667  0.212-   7 2.93   1 2.93   2 2.93   9 2.93   5 2.93  16 2.93   6 2.93  17 2.93
                            14 2.93
   9  0.667  0.667  0.212-   3 2.93   2 2.93   8 2.93   6 2.93  17 2.93   4 2.93  15 2.93   7 2.93
                            18 2.93
  10  0.111  0.111  0.308-  20 2.92  19 2.93  26 2.93  12 2.93  16 2.93  15 2.93  17 2.93  13 2.93
                            11 2.93   2 2.93   1 2.93   4 2.93
  11  0.444  0.111  0.308-  21 2.90  20 2.90  27 2.92  14 2.93  17 2.93  18 2.93   3 2.93  12 2.93
                            13 2.93  10 2.93   5 2.93   2 2.93
  12  0.778  0.111  0.308-  21 2.92  25 2.93  19 2.93  10 2.93  16 2.93  18 2.93  15 2.93  11 2.93
                             1 2.93  14 2.93   6 2.93   3 2.93
  13  0.111  0.444  0.308-  20 2.90  23 2.90  22 2.92  15 2.93  14 2.93  18 2.93  10 2.93  11 2.93
                            16 2.93   4 2.93   5 2.93   7 2.93
  14  0.444  0.444  0.308-  23 2.90  21 2.90  24 2.92  13 2.93  11 2.93  16 2.93   5 2.93  12 2.93
                            17 2.93   8 2.93  15 2.93   6 2.93
  15  0.778  0.444  0.308-  24 2.92  22 2.92  19 2.93  13 2.93  10 2.93  12 2.93  17 2.93  18 2.93
                             4 2.93   6 2.93   9 2.93  14 2.93
  16  0.111  0.778  0.308-  23 2.92  26 2.93  25 2.93  18 2.93  12 2.93  10 2.93  14 2.93  17 2.93
                            13 2.93   7 2.93   8 2.93   1 2.93
  17  0.444  0.778  0.308-  27 2.92  24 2.92  26 2.93  11 2.93  10 2.93   9 2.93  18 2.93  15 2.93
                            16 2.93   2 2.93  14 2.93   8 2.93
  18  0.778  0.778  0.308-  22 2.92  27 2.92  25 2.93  16 2.93  12 2.93  13 2.93  11 2.93  17 2.93
                            15 2.93   7 2.93   3 2.93   9 2.93
  19  0.889  0.222  0.403-  28 2.91  15 2.93  10 2.93  12 2.93  24 2.93  22 2.93  26 2.93  25 2.93
                            20 2.94  21 2.94  32 2.94  31 2.94
  20  0.223  0.223  0.402-  36 2.70  31 2.89  29 2.89  13 2.90  11 2.90  21 2.91  23 2.91  10 2.92
                            27 2.94  22 2.94  19 2.94  26 2.94
  21  0.554  0.223  0.402-  36 2.70  30 2.89  32 2.89  11 2.90  14 2.90  20 2.91  23 2.91  12 2.92
                            27 2.94  24 2.94  25 2.94  19 2.94
  22  0.888  0.556  0.403-  35 2.91  18 2.92  15 2.92  33 2.92  31 2.92  13 2.92  24 2.92  27 2.92
                            25 2.93  19 2.93  23 2.94  20 2.94
  23  0.223  0.554  0.402-  36 2.70  34 2.89  33 2.89  14 2.90  13 2.90  21 2.91  20 2.91  16 2.92
                            22 2.94  24 2.94  26 2.94  25 2.94
  24  0.556  0.556  0.403-  35 2.91  15 2.92  17 2.92  32 2.92  34 2.92  14 2.92  27 2.92  22 2.92
                            19 2.93  26 2.93  23 2.94  21 2.94
  25  0.889  0.889  0.403-  28 2.91  18 2.93  16 2.93  12 2.93  22 2.93  27 2.93  26 2.93  19 2.93
                            23 2.94  21 2.94  33 2.94  30 2.94
  26  0.222  0.889  0.403-  28 2.91  17 2.93  16 2.93  10 2.93  27 2.93  24 2.93  25 2.93  19 2.93
                            23 2.94  20 2.94  34 2.94  29 2.94
  27  0.556  0.888  0.403-  35 2.91  17 2.92  18 2.92  29 2.92  30 2.92  11 2.92  24 2.92  22 2.92
                            26 2.93  25 2.93  20 2.94  21 2.94
  28  0.000  0.000  0.498-  26 2.91  25 2.91  19 2.91  29 2.97  34 2.97  33 2.97  32 2.97  31 2.97
                            30 2.97
  29  0.333  0.008  0.498-  31 2.86  30 2.86  36 2.87  20 2.89  27 2.92  26 2.94  28 2.97  35 2.97
                            34 3.07
  30  0.659  0.008  0.498-  32 2.86  29 2.86  36 2.87  21 2.89  27 2.92  25 2.94  28 2.97  35 2.97
                            33 3.07
  31  0.008  0.333  0.498-  29 2.86  33 2.86  36 2.87  20 2.89  22 2.92  19 2.94  28 2.97  35 2.97
                            32 3.07
  32  0.659  0.333  0.498-  30 2.86  34 2.86  36 2.87  21 2.89  24 2.92  19 2.94  28 2.97  35 2.97
                            31 3.07
  33  0.008  0.659  0.498-  34 2.86  31 2.86  36 2.87  23 2.89  22 2.92  25 2.94  28 2.97  35 2.97
                            30 3.07
  34  0.333  0.659  0.498-  33 2.86  32 2.86  36 2.87  23 2.89  24 2.92  26 2.94  28 2.97  35 2.97
                            29 3.07
  35  0.667  0.667  0.498-  24 2.91  27 2.91  22 2.91  32 2.97  30 2.97  29 2.97  34 2.97  31 2.97
                            33 2.97
  36  0.333  0.333  0.487-  39 2.11  21 2.70  20 2.70  23 2.70  31 2.87  30 2.87  33 2.87  29 2.87
                            34 2.87  32 2.87
  37  0.277  0.267  0.580-  39 0.98
  38  0.455  0.267  0.581-  39 0.98
  39  0.330  0.339  0.572-  38 0.98  37 0.98  36 2.11

  LATTYP: Found a hexagonal cell.
 ALAT       =     8.7913665772
 C/A-ratio  =     2.8382349142

  Lattice vectors:

 A1 = (  -4.3956832886,  -7.6135467898,   0.0000000000)
 A2 = (   8.7913665771,   0.0000000000,   0.0000000000)
 A3 = (   0.0000000000,   0.0000000000,  24.9519635625)

Analysis of symmetry for initial positions (statically):
 Subroutine PRICEL returns:
 Original cell was already a primitive cell.

 Routine SETGRP: Setting up the symmetry group for a
 hexagonal supercell.

 Subroutine GETGRP returns: Found  1 space group operations
 (whereof  1 operations were pure point group operations)
 out of a pool of 24 trial point group operations.

The static configuration has the point symmetry C_1 .

Analysis of symmetry for dynamics (positions and initial velocities):
 Subroutine PRICEL returns:
 Original cell was already a primitive cell.

[...]

The dynamic configuration has the point symmetry C_1 .

Analysis of constrained symmetry for selective dynamics:
 Subroutine PRICEL returns:
[...]
     41      -4.7082      2.00000
     42      -4.6993      2.00000
     43      -4.6885      2.00000
     44      -4.6645      2.00000
     45      -4.6609      2.00000
     46      -4.6512      2.00000
     47      -4.5817      2.00000
     48      -4.5502      2.00000
     49      -4.5461      2.00000
     50      -4.5317      2.00000
     51      -4.5256      2.00000
     52      -4.5248      2.00000
     53      -4.5096      2.00000
     54      -4.5024      2.00000
     55      -4.4881      2.00000
     56      -4.4808      2.00000
     57      -4.4113      2.00000
     58      -4.4101      2.00000
     59      -4.3964      2.00000
     60      -4.3912      2.00000
[...]
    238       5.6842      0.00000
    239       5.7781      0.00000
    240       5.8325      0.00000
    241       5.9670      0.00000
    242       6.1102      0.00000
    243       6.2005      0.00000
    244       6.2831      0.00000
    245       6.3709      0.00000
    246       6.3981      0.00000
    247       6.5975      0.00000
    248       6.6826      0.00000
    249       6.8215      0.00000
    250       6.8568      0.00000
    251       6.9107      0.00000
    252       7.0974      0.00000

 soft charge-density along one line, spin component           1
         0         1         2         3         4         5         6         7         8         9
 total charge-density along one line

------------------------ aborting loop because EDIFF is reached ----------------------------------------

 total charge

# of ion       s       p       d       tot
    1        0.418   0.202   9.177   9.797
    2        0.418   0.203   9.177   9.799
    3        0.418   0.203   9.177   9.799
    4        0.418   0.203   9.177   9.799
    5        0.417   0.204   9.177   9.798
    6        0.418   0.203   9.177   9.799
    7        0.418   0.203   9.178   9.799
    8        0.418   0.203   9.178   9.799
    9        0.414   0.203   9.179   9.796
   10        0.408   0.267   9.165   9.839
   11        0.410   0.267   9.168   9.845
   12        0.408   0.267   9.164   9.839
   13        0.409   0.268   9.168   9.845
   14        0.409   0.268   9.168   9.845
   15        0.403   0.269   9.166   9.838
   16        0.408   0.267   9.164   9.839
   17        0.403   0.270   9.166   9.838
   18        0.403   0.270   9.166   9.838
   19        0.405   0.265   9.166   9.835
   20        0.426   0.294   9.146   9.866
   21        0.426   0.294   9.146   9.866
   22        0.398   0.274   9.166   9.839
   23        0.425   0.295   9.145   9.865
   24        0.398   0.274   9.166   9.839
   25        0.403   0.265   9.166   9.834
   26        0.403   0.265   9.166   9.834
   27        0.400   0.273   9.166   9.839
   28        0.411   0.198   9.178   9.787
   29        0.428   0.214   9.167   9.808
   30        0.428   0.214   9.167   9.808
   31        0.428   0.212   9.168   9.808
   32        0.428   0.212   9.168   9.808
   33        0.421   0.205   9.174   9.801
   34        0.421   0.205   9.174   9.801
   35        0.405   0.200   9.178   9.783
   36        0.338   0.268   6.286   6.892
   37        0.603   0.118   0.000   0.721
   38        0.603   0.118   0.000   0.721
   39        1.569   3.603   0.000   5.172
tot         17.585  12.504 327.187 357.277

  FORCE on cell =-STRESS in cart. coord.  units (eV):
  Direction    XX          YY          ZZ          XY          YZ          ZX
  Alpha Z   677.28245   677.28245   677.28245
  Ewald  162788.72657162723.54659************     0.08506   -17.49367     0.20677
  Hartree172848.22660172835.69550************     0.01693    -0.95936     0.05897
  E(xc)   -2103.81612 -2104.09483 -2109.23453     0.00023    -0.04716     0.00089
  Local  ************************346862.82224    -0.07755    11.82990    -0.21322
  n-local  -377.57465  -378.55778  -380.33504    -0.00569     0.09216     0.00104
  augment  3263.41751  3264.75295  3272.80073    -0.00163     0.30234    -0.00322
  Kinetic  4974.86079  4993.19014  5022.68304    -0.02280     6.32732    -0.04867
  Fock        0.00000     0.00000     0.00000     0.00000     0.00000     0.00000
  Total      -8.60186    -8.88357    -0.08779    -0.00545     0.05154     0.00256
  in kB      -8.25192    -8.52217    -0.08422    -0.00523     0.04944     0.00245

 VOLUME and BASIS-vectors are now :
  energy-cutoff  :      500.00
  volume of cell :     1670.12
      direct lattice vectors                 reciprocal lattice vectors
     8.791366577  0.000000000  0.000000000     0.113747958 -0.065672414  0.000000000
     4.395683289  7.613546790  0.000000000     0.000000000  0.131344829  0.000000000
     0.000000000  0.000000000 24.951963562     0.000000000  0.000000000  0.040077006

  length of vectors
     8.791366577  8.791366577 24.951963562     0.131344829  0.131344829  0.040077006

 FORCES acting on ions
    electron-ion (+dipol)            ewald-force                    non-local-force                 convergence-correction
   0.199E-02 0.397E-02 0.273E+04   -.223E-03 -.784E-02 -.273E+04   0.466E-04 0.142E-01 -.216E+01   -.183E-02 -.653E-02 0.101E+00
   0.512E+00 0.537E+00 0.273E+04   -.546E+00 -.527E+00 -.273E+04   0.616E-01 0.613E-01 -.154E+01   -.239E-01 -.547E-01 0.543E-01
   -.513E+00 0.527E+00 0.273E+04   0.546E+00 -.527E+00 -.273E+04   -.614E-01 0.611E-01 -.154E+01   0.246E-01 -.443E-01 0.585E-01
   0.710E+00 0.161E+00 0.273E+04   -.722E+00 -.202E+00 -.273E+04   0.777E-01 0.162E-01 -.155E+01   -.507E-01 0.166E-01 0.473E-01
   -.145E-01 -.280E-01 0.274E+04   0.326E-03 0.116E-01 -.273E+04   -.222E-02 -.180E-02 -.145E+01   0.166E-01 0.128E-01 0.505E-01
   -.700E+00 0.158E+00 0.273E+04   0.722E+00 -.202E+00 -.273E+04   -.775E-01 0.161E-01 -.155E+01   0.415E-01 0.202E-01 0.525E-01
   0.171E+00 -.693E+00 0.273E+04   -.177E+00 0.729E+00 -.273E+04   0.343E-01 -.828E-01 -.160E+01   -.203E-01 0.384E-01 0.467E-01
   -.179E+00 -.687E+00 0.273E+04   0.177E+00 0.728E+00 -.273E+04   -.345E-01 -.826E-01 -.160E+01   0.284E-01 0.320E-01 0.477E-01
   0.131E-01 0.230E-01 0.273E+04   -.165E-04 -.360E-02 -.273E+04   0.240E-02 -.581E-02 -.191E+01   -.157E-01 -.123E-01 0.389E-01
   0.498E+01 0.288E+01 0.940E+03   -.454E+01 -.262E+01 -.940E+03   -.371E+00 -.213E+00 -.747E+00   -.444E-01 -.269E-01 0.363E+00
   -.165E-01 0.586E+01 0.949E+03   0.140E-02 -.597E+01 -.949E+03   -.239E-02 0.112E+00 -.354E+00   0.177E-01 -.332E-01 0.373E+00
   -.497E+01 0.287E+01 0.940E+03   0.454E+01 -.262E+01 -.940E+03   0.371E+00 -.213E+00 -.747E+00   0.336E-01 -.200E-01 0.366E+00
   0.505E+01 -.300E+01 0.949E+03   -.517E+01 0.306E+01 -.949E+03   0.109E+00 -.729E-01 -.409E+00   -.223E-01 0.339E-01 0.362E+00
   -.507E+01 -.300E+01 0.949E+03   0.517E+01 0.306E+01 -.949E+03   -.114E+00 -.727E-01 -.409E+00   0.465E-01 0.279E-01 0.360E+00
   0.122E-01 0.143E+01 0.942E+03   -.155E-02 -.147E+01 -.941E+03   0.349E-03 0.466E-01 -.707E+00   -.110E-01 -.277E-01 0.306E+00
   -.733E-03 -.565E+01 0.940E+03   0.190E-03 0.517E+01 -.940E+03   -.269E-04 0.425E+00 -.808E+00   0.554E-03 0.282E-01 0.364E+00
   0.133E+01 -.692E+00 0.942E+03   -.134E+01 0.702E+00 -.941E+03   0.234E-01 -.893E-02 -.726E+00   -.365E-01 0.918E-02 0.311E+00
   -.133E+01 -.705E+00 0.942E+03   0.134E+01 0.703E+00 -.941E+03   -.235E-01 -.941E-02 -.726E+00   0.364E-01 0.218E-01 0.317E+00
   0.251E-01 0.138E+01 -.884E+03   -.103E-01 -.153E+01 0.883E+03   0.227E-02 0.121E+00 0.584E+00   -.174E-01 0.187E-01 0.401E+00
   0.244E+02 0.137E+02 -.841E+03   -.234E+02 -.131E+02 0.842E+03   -.123E+01 -.698E+00 -.105E+01   0.177E+00 0.983E-01 0.633E+00
   -.244E+02 0.137E+02 -.842E+03   0.234E+02 -.131E+02 0.842E+03   0.123E+01 -.698E+00 -.105E+01   -.167E+00 0.974E-01 0.630E+00
   0.858E+01 -.522E+01 -.871E+03   -.893E+01 0.538E+01 0.870E+03   0.288E+00 -.134E+00 0.432E+00   0.787E-01 -.373E-01 0.443E+00
   -.134E-01 -.284E+02 -.843E+03   0.896E-02 0.272E+02 0.843E+03   -.303E-03 0.146E+01 -.107E+01   0.476E-02 -.197E+00 0.618E+00
   -.857E+01 -.520E+01 -.871E+03   0.892E+01 0.537E+01 0.870E+03   -.288E+00 -.134E+00 0.432E+00   -.816E-01 -.462E-01 0.443E+00
   -.149E+01 -.258E+00 -.884E+03   0.162E+01 0.370E+00 0.883E+03   -.741E-01 -.996E-01 0.663E+00   -.406E-01 -.116E-01 0.399E+00
   0.151E+01 -.239E+00 -.884E+03   -.162E+01 0.360E+00 0.883E+03   0.783E-01 -.993E-01 0.663E+00   0.204E-01 -.202E-01 0.401E+00
   -.858E-02 0.105E+02 -.870E+03   0.313E-02 -.109E+02 0.869E+03   0.701E-05 0.331E+00 0.386E+00   0.541E-02 0.937E-01 0.433E+00
   0.238E-01 0.164E+01 -.268E+04   -.224E-01 -.169E+01 0.268E+04   0.114E-03 0.481E-01 0.185E+01   -.162E-02 0.305E-02 0.147E+00
   0.336E+02 0.595E+02 -.265E+04   -.330E+02 -.586E+02 0.265E+04   -.624E+00 -.100E+01 0.132E+01   -.218E-01 -.257E-01 -.949E-02
   -.336E+02 0.594E+02 -.265E+04   0.330E+02 -.585E+02 0.265E+04   0.624E+00 -.100E+01 0.132E+01   0.232E-01 -.194E-01 -.150E-01
   0.663E+02 -.256E+01 -.265E+04   -.652E+02 0.259E+01 0.265E+04   -.124E+01 -.483E-01 0.140E+01   0.173E-01 0.113E-01 0.810E-02
   -.661E+02 -.254E+01 -.265E+04   0.651E+02 0.258E+01 0.265E+04   0.124E+01 -.488E-01 0.140E+01   -.214E-01 0.128E-01 0.197E-02
   0.305E+02 -.549E+02 -.266E+04   -.303E+02 0.541E+02 0.266E+04   -.359E+00 0.873E+00 0.192E+01   -.175E-01 -.632E-02 0.155E-04
   -.306E+02 -.548E+02 -.266E+04   0.303E+02 0.540E+02 0.266E+04   0.359E+00 0.874E+00 0.192E+01   0.229E-01 -.995E-02 -.502E-03
   0.259E-01 0.656E+00 -.268E+04   -.150E-01 -.659E+00 0.268E+04   0.225E-02 0.492E-02 0.201E+01   -.133E-01 -.120E-02 0.159E+00
   -.112E+00 -.356E+01 -.171E+04   0.108E+00 0.353E+01 0.171E+04   -.467E-02 -.910E-02 0.179E+01   0.880E-02 0.213E-01 -.353E+00
   0.679E+02 0.440E+02 -.303E+03   -.746E+02 -.484E+02 0.304E+03   0.668E+01 0.438E+01 -.175E+01   -.170E-02 0.248E-02 -.763E-02
   -.680E+02 0.439E+02 -.303E+03   0.747E+02 -.483E+02 0.304E+03   -.668E+01 0.437E+01 -.177E+01   0.181E-02 0.219E-02 -.771E-02
   -.944E-03 -.564E+02 -.172E+04   -.284E-01 0.992E+02 0.172E+04   0.374E-01 -.428E+02 0.754E+01   -.449E-02 0.228E-01 -.751E-01
   -.174E-01 0.343E+02 -.632E+01   -.570E-13 0.341E-12 0.227E-11   0.310E-01 -.343E+02 -.162E+01   -.888E-02 0.249E-01 0.787E+01

 POSITION                                       TOTAL-FORCE (eV/Angst)
      0.00000      0.00000      5.28219        -0.000132      0.004431     -0.006369
      2.93046      0.00000      5.28219         0.003761      0.017112      0.027598
      5.86091      0.00000      5.28219        -0.004042      0.017059      0.027589
      1.46523      2.53785      5.28219         0.014231     -0.007008      0.029366
      4.39568      2.53785      5.28219         0.000061     -0.004828      0.005672
      7.32614      2.53785      5.28219        -0.014430     -0.007026      0.029408
      2.93046      5.07570      5.28219         0.008737     -0.008244      0.028948
      5.86091      5.07570      5.28219        -0.009032     -0.008239      0.028999
      8.79137      5.07570      5.28219        -0.000315      0.001884      0.012047
      1.46523      0.84595      7.67490         0.024681      0.013886      0.002429
      4.39568      0.84595      7.67490         0.000107     -0.031650     -0.062378
      7.32614      0.84595      7.67490        -0.024915      0.013860      0.002371
      2.93046      3.38380      7.67490        -0.027125      0.017854     -0.062217
      5.86091      3.38380      7.67490         0.027318      0.017866     -0.062206
      8.79137      3.38380      7.67490        -0.000108     -0.018345     -0.000130
      4.39568      5.92165      7.67490        -0.000140     -0.029709     -0.005840
      7.32614      5.92165      7.67490        -0.020687      0.011028      0.001036
     10.25659      5.92165      7.67490         0.020456      0.011023      0.001009
      8.79137      1.69341     10.06265        -0.000364     -0.009027     -0.027528
      2.94295      1.69911     10.03964         0.010396      0.008500     -0.072929
      5.84841      1.69911     10.03964        -0.010617      0.008512     -0.072728
     10.25212      4.23233     10.05217         0.019577     -0.010574     -0.016437
      4.39568      4.21532     10.03964        -0.000071     -0.008421     -0.043502
      7.33061      4.23233     10.05217        -0.019832     -0.010554     -0.016448
     11.72051      6.76684     10.06265         0.012778      0.001996     -0.014283
      5.86222      6.76684     10.06265        -0.013493      0.001985     -0.014325
      8.79137      6.76243     10.05217        -0.000166      0.022034     -0.030810
      0.00000      0.00000     12.42704        -0.000154      0.001905      0.033084
      2.96539      0.06299     12.42777        -0.063081     -0.110206     -0.059102
      5.82597      0.06299     12.42777         0.062667     -0.109851     -0.058868
      1.53725      2.53661     12.42777        -0.134142     -0.002210     -0.072713
      7.25412      2.53661     12.42777         0.133211     -0.002208     -0.072187
      2.96754      5.01395     12.42777        -0.087535      0.108370     -0.066314
      5.82383      5.01395     12.42777         0.087263      0.108185     -0.066284
      8.79137      5.07570     12.42264        -0.000314      0.001883      0.018634
      4.39568      2.53785     12.15183         0.000059     -0.014199      0.758417
      3.61096      2.03284     14.48288        -0.006140     -0.009142     -0.010001
      5.17811      2.03427     14.48539         0.008061     -0.010553     -0.010622
      4.39445      2.58196     14.26563         0.003467      0.022624     -0.082388
    total drift:                                0.004793     -0.023088     -0.068430

  FREE ENERGIE OF THE ION-ELECTRON SYSTEM (eV)
  free  energy   TOTEN  =      -109.15184971 eV

  energy  without entropy=     -109.15184971  energy(sigma->0) =     -109.15184971

 stress matrix after NEB project (eV)
     -8.60186     -0.00545      0.00256
     -0.00545     -8.88357      0.05154
      0.00256      0.05154     -0.08779
  FORCES: max atom, RMS     0.085509    0.014162
  FORCE total and by dimension    0.088443    0.082388
  Stress total and by dimension   12.366203    8.883572
|           W    W    AA    RRRRR   N    N  II  N    N   GGGG   !!!           |
|           W    W   A  A   R    R  NN   N  II  NN   N  G    G  !!!           |
|           W    W  A    A  R    R  N N  N  II  N N  N  G       !!!           |
|           W WW W  AAAAAA  RRRRR   N  N N  II  N  N N  G  GGG   !            |
|           WW  WW  A    A  R   R   N   NN  II  N   NN  G    G                |
|           W    W  A    A  R    R  N    N  II  N    N   GGGG   !!!           |
|     Tetrahedron method does not include variations of the Fermi             |
|     occupations, so forces and stress will be inaccurate. We suggest        |
|     using a different smearing scheme ISMEAR = 1 or 2 for metals in         |
|     relaxations.                                                            |

 total charge

# of ion       s       p       d       tot
    1        0.418   0.202   9.177   9.797
    2        0.418   0.203   9.177   9.799
    3        0.418   0.203   9.177   9.799
    4        0.418   0.203   9.177   9.799
    5        0.417   0.204   9.177   9.798
    6        0.418   0.203   9.177   9.799
    7        0.418   0.203   9.178   9.799
    8        0.418   0.203   9.178   9.799
    9        0.414   0.203   9.179   9.796
   10        0.408   0.267   9.165   9.839
   11        0.410   0.267   9.168   9.845
   12        0.408   0.267   9.164   9.839
   13        0.409   0.268   9.168   9.845
   14        0.409   0.268   9.168   9.845
   15        0.403   0.269   9.166   9.838
   16        0.408   0.267   9.164   9.839
   17        0.403   0.270   9.166   9.838
   18        0.403   0.270   9.166   9.838
   19        0.405   0.265   9.166   9.835
   20        0.426   0.294   9.146   9.866
   21        0.426   0.294   9.146   9.866
   22        0.398   0.274   9.166   9.839
   23        0.425   0.295   9.145   9.865
   24        0.398   0.274   9.166   9.839
   25        0.403   0.265   9.166   9.834
   26        0.403   0.265   9.166   9.834
   27        0.400   0.273   9.166   9.839
   28        0.411   0.198   9.178   9.787
   29        0.428   0.214   9.167   9.808
   30        0.428   0.214   9.167   9.808
   31        0.428   0.212   9.168   9.808
   32        0.428   0.212   9.168   9.808
   33        0.421   0.205   9.174   9.801
   34        0.421   0.205   9.174   9.801
   35        0.405   0.200   9.178   9.783
   36        0.338   0.268   6.286   6.892
   37        0.603   0.118   0.000   0.721
   38        0.603   0.118   0.000   0.721
   39        1.569   3.603   0.000   5.172
tot         17.585  12.504 327.187 357.277

 BZINTS: Fermi energy:    0.446632;  401.000000 electrons
         Band energy:-0.149216E+04;  BLOECHL correction:   -0.029899