 vasp.6.2.0 18Jan21 (build Jun 12 2021 23:27:24) complex

 executed on             LinuxIFC date 2022.05.26  20:04:52

 INCAR:
   ISMEAR = -5
   SIGMA = 0.1
   ISPIN = 1
   EDIFF = 1.d-5
   EDIFFG = -0.01
   NSW = 0
   NELM = 150
   ENCUT = 500
   ISIF = 2
   IBRION = 2
   LREAL = Auto
   ALGO = Fast
   ICHARG = 11
   LORBIT = 10
   LCHARG = .F.
   LWAVE = .F.

 POTCAR:    PAW_PBE Cu 22Jun2005
 POTCAR:    PAW_PBE Rh 04Feb2005
 POTCAR:    PAW_PBE N 08Apr2002
|           W    W    AA    RRRRR   N    N  II  N    N   GGGG   !!!           |
|           W    W   A  A   R    R  NN   N  II  NN   N  G    G  !!!           |
|           W    W  A    A  R    R  N N  N  II  N N  N  G       !!!           |
|           W WW W  AAAAAA  RRRRR   N  N N  II  N  N N  G  GGG   !            |
|           WW  WW  A    A  R   R   N   NN  II  N   NN  G    G                |
|           W    W  A    A  R    R  N    N  II  N    N   GGGG   !!!           |
|     For optimal performance we recommend to set                             |
|       NCORE = 2 up to number-of-cores-per-socket                            |
|     This setting can greatly improve the performance of VASP for DFT.       |
|     The default, NCORE=1 might be grossly inefficient on modern             |
|     multi-core architectures or massively parallel machines. Do your        |
|     Unfortunately you need to use the default for GW and RPA                |
|     calculations (for HF NCORE is supported but not extensively tested      |
|     yet).                                                                   |

 POTCAR:    PAW_PBE Cu 22Jun2005
   VRHFIN =Cu: d10 p1

   TITEL  = PAW_PBE Cu 22Jun2005
   POMASS =   63.546; ZVAL   =   11.000    mass and valenz
   ENMAX  =  295.446; ENMIN  =  221.585 eV

 POTCAR:    PAW_PBE Rh 04Feb2005
   VRHFIN =Rh: s1 d8

   TITEL  = PAW_PBE Rh 04Feb2005
   POMASS =  102.906; ZVAL   =    9.000    mass and valenz
   ENMAX  =  228.996; ENMIN  =  171.747 eV

 POTCAR:    PAW_PBE N 08Apr2002
   VRHFIN =N: s2p3

   TITEL  = PAW_PBE N 08Apr2002
   POMASS =   14.001; ZVAL   =    5.000    mass and valenz
   ENMAX  =  400.000; ENMIN  =  300.000 eV

 Optimization of the real space projectors (new method)

 maximal supplied QI-value         = 16.25
 optimisation between [QCUT,QGAM] = [ 11.38, 22.75] = [ 36.24,144.96] Ry
 Optimized for a Real-space Cutoff    1.52 Angstroem

   l    n(q)    QCUT    max X(q) W(low)/X(q) W(high)/X(q)  e(spline)
   2      9    11.376     4.610    0.21E-03    0.10E-03    0.26E-06
   2      9    11.376     8.522    0.33E-03    0.16E-03    0.37E-06
   0     10    11.376    51.609    0.62E-04    0.20E-04    0.13E-06
   0     10    11.376    27.747    0.54E-04    0.20E-04    0.13E-06
   1     10    11.376    20.408    0.13E-04    0.99E-04    0.19E-06
   1     10    11.376    13.425    0.12E-04    0.87E-04    0.17E-06
 Optimization of the real space projectors (new method)

[...]

   l    n(q)    QCUT    max X(q) W(low)/X(q) W(high)/X(q)  e(spline)
   2      9    11.327    59.645    0.31E-03    0.12E-04    0.28E-06
   2      9    11.327    58.460    0.31E-03    0.12E-04    0.29E-06
   0     10    11.327    97.683    0.32E-04    0.83E-04    0.31E-06
   0     10    11.327    53.223    0.30E-04    0.78E-04    0.29E-06
   1     10    11.327    13.596    0.49E-03    0.95E-03    0.55E-06
   1     10    11.327     7.885    0.36E-03    0.71E-03    0.41E-06
 Optimization of the real space projectors (new method)

 maximal supplied QI-value         = 25.13
 optimisation between [QCUT,QGAM] = [ 11.31, 22.87] = [ 35.82,146.48] Ry
 Optimized for a Real-space Cutoff    1.27 Angstroem

   l    n(q)    QCUT    max X(q) W(low)/X(q) W(high)/X(q)  e(spline)
   0      9    11.310    79.467    0.75E-04    0.16E-03    0.36E-06
   0      9    11.310    66.151    0.74E-04    0.16E-03    0.36E-06
   1      8    11.310    17.416    0.35E-03    0.12E-03    0.95E-06
   1      8    11.310    12.382    0.37E-03    0.13E-03    0.98E-06
  PAW_PBE Cu 22Jun2005                  :
  PAW_PBE Rh 04Feb2005                  :
  PAW_PBE N 08Apr2002                   :

 POSCAR: Cu-Rh-N
  positions in direct lattice
  velocities in cartesian coordinates
 exchange correlation table for  LEXCH =        8
   RHO(1)=    0.500       N(1)  =     2000
   RHO(2)=  100.500       N(2)  =     4000

 VTST: version 3.2, (02/03/18)

 CHAIN: initializing optimizer

 OPT: Using VASP Conjugate-Gradient optimizer
 CHAIN: Read ICHAIN            0

 POSCAR: Cu-Rh-N
  positions in direct lattice
  velocities in cartesian coordinates

 ion  position               nearest neighbor table
   1  0.000  0.000  0.252-   7 2.57   3 2.57   4 2.57   2 2.57   6 2.57   8 2.57  12 2.57  10 2.57
                            16 2.57
   2  0.333  0.000  0.252-   8 2.57   9 2.57   5 2.57   1 2.57   3 2.57  11 2.57   4 2.57  10 2.57
                            17 2.57
   3  0.667  0.000  0.252-   1 2.57   7 2.57   6 2.57   9 2.57   2 2.57  12 2.57   5 2.57  18 2.57
                            11 2.57
   4  0.000  0.333  0.252-   5 2.57   6 2.57   1 2.57   7 2.57   2 2.57  13 2.57   9 2.57  10 2.57
                            15 2.57
   5  0.333  0.333  0.252-   4 2.57   2 2.57   7 2.57  13 2.57   8 2.57   6 2.57   3 2.57  11 2.57
                            14 2.57
   6  0.667  0.333  0.252-   4 2.57   9 2.57  15 2.57   3 2.57   1 2.57   8 2.57  14 2.57   5 2.57
                            12 2.57
   7  0.000  0.667  0.252-   1 2.57   3 2.57  16 2.57  18 2.57   4 2.57   5 2.57   8 2.57   9 2.57
                            13 2.57
   8  0.333  0.667  0.252-   9 2.57   2 2.57  17 2.57   6 2.57   1 2.57   7 2.57   5 2.57  14 2.57
                            16 2.57
   9  0.667  0.667  0.252-   8 2.57   6 2.57   2 2.57  17 2.57   3 2.57   7 2.57   4 2.57  15 2.57
                            18 2.57
  10  0.111  0.111  0.351-  20 2.55  26 2.56  19 2.56  11 2.57  12 2.57  13 2.57   1 2.57   2 2.57
                             4 2.57  15 2.57  16 2.57  17 2.57
  11  0.444  0.111  0.351-  20 2.55  21 2.55  27 2.56  10 2.57  13 2.57   2 2.57  17 2.57  14 2.57
                            12 2.57   5 2.57   3 2.57  18 2.57
  12  0.778  0.111  0.351-  21 2.55  19 2.56  25 2.56  15 2.57  10 2.57  14 2.57  18 2.57   3 2.57
                             1 2.57  16 2.57  11 2.57   6 2.57
  13  0.111  0.444  0.351-  23 2.55  20 2.55  22 2.56  16 2.57  18 2.57  10 2.57  11 2.57  14 2.57
                             5 2.57   4 2.57   7 2.57  15 2.57
  14  0.444  0.444  0.351-  21 2.55  23 2.55  24 2.56  15 2.57  17 2.57  12 2.57  16 2.57  13 2.57
                            11 2.57   6 2.57   8 2.57   5 2.57
  15  0.778  0.444  0.351-  19 2.56  24 2.56  22 2.56  14 2.57  17 2.57  12 2.57   6 2.57  18 2.57
                            10 2.57   9 2.57  13 2.57   4 2.57
  16  0.111  0.778  0.351-  23 2.55  25 2.56  26 2.56  18 2.57  13 2.57   7 2.57  14 2.57  17 2.57
                            12 2.57  10 2.57   8 2.57   1 2.57
  17  0.444  0.778  0.351-  26 2.56  27 2.56  24 2.56  14 2.57  15 2.57   8 2.57   9 2.57  11 2.57
                            16 2.57  18 2.57  10 2.57   2 2.57
  18  0.778  0.778  0.351-  25 2.56  22 2.56  27 2.56  16 2.57  13 2.57   7 2.57  15 2.57  12 2.57
                            17 2.57   9 2.57   3 2.57  11 2.57
  19  0.889  0.223  0.449-  28 2.55  32 2.55  31 2.55  15 2.56  12 2.56  10 2.56  21 2.56  20 2.56
                            22 2.56  24 2.56  25 2.57  26 2.57
  20  0.222  0.222  0.448-  10 2.55  11 2.55  13 2.55  26 2.56  19 2.56  27 2.57  22 2.57  36 2.57
                            29 2.58  31 2.58  23 2.58  21 2.58
  21  0.557  0.222  0.448-  12 2.55  14 2.55  11 2.55  19 2.56  25 2.56  24 2.57  27 2.57  36 2.57
                            32 2.58  30 2.58  20 2.58  23 2.58
  22  0.889  0.556  0.449-  35 2.54  31 2.56  33 2.56  18 2.56  15 2.56  19 2.56  25 2.56  13 2.56
                            24 2.56  27 2.56  23 2.57  20 2.57
  23  0.222  0.557  0.448-  16 2.55  13 2.55  14 2.55  25 2.56  26 2.56  22 2.57  24 2.57  36 2.57
                            33 2.58  34 2.58  20 2.58  21 2.58
  24  0.556  0.556  0.449-  35 2.54  32 2.56  34 2.56  15 2.56  17 2.56  19 2.56  26 2.56  14 2.56
                            22 2.56  27 2.56  21 2.57  23 2.57
  25  0.889  0.889  0.449-  28 2.55  33 2.55  30 2.55  18 2.56  16 2.56  12 2.56  21 2.56  23 2.56
                            22 2.56  27 2.56  19 2.57  26 2.57
  26  0.223  0.889  0.449-  28 2.55  29 2.55  34 2.55  17 2.56  10 2.56  16 2.56  20 2.56  23 2.56
                            27 2.56  24 2.56  25 2.57  19 2.57
  27  0.556  0.889  0.449-  35 2.54  29 2.56  30 2.56  17 2.56  18 2.56  26 2.56  25 2.56  11 2.56
                            24 2.56  22 2.56  20 2.57  21 2.57
  28  0.000  0.000  0.546-  25 2.55  19 2.55  26 2.55  33 2.56  30 2.56  31 2.56  29 2.56  32 2.56
                            34 2.56
  29  0.333  0.998  0.547-  34 2.54  26 2.55  28 2.56  27 2.56  35 2.56  31 2.58  20 2.58  36 2.58
                            30 2.59
  30  0.669  0.998  0.547-  33 2.54  25 2.55  28 2.56  27 2.56  35 2.56  32 2.58  21 2.58  36 2.58
                            29 2.59
  31  0.998  0.333  0.547-  32 2.54  19 2.55  28 2.56  22 2.56  35 2.56  29 2.58  20 2.58  36 2.58
                            33 2.59
  32  0.669  0.333  0.547-  31 2.54  19 2.55  28 2.56  24 2.56  35 2.56  30 2.58  21 2.58  36 2.58
                            34 2.59
  33  0.998  0.669  0.547-  30 2.54  25 2.55  28 2.56  22 2.56  35 2.56  34 2.58  23 2.58  36 2.58
                            31 2.59
  34  0.333  0.669  0.547-  29 2.54  26 2.55  28 2.56  24 2.56  35 2.56  33 2.58  23 2.58  36 2.58
                            32 2.59
  35  0.667  0.667  0.546-  24 2.54  27 2.54  22 2.54  34 2.56  32 2.56  29 2.56  30 2.56  33 2.56
                            31 2.56
  36  0.333  0.333  0.547-  37 1.69  23 2.57  20 2.57  21 2.57  31 2.58  29 2.58  33 2.58  34 2.58
                            32 2.58  30 2.58
  37  0.333  0.333  0.626-  36 1.69

  LATTYP: Found a hexagonal cell.
 ALAT       =     7.6967864036
 C/A-ratio  =     2.7653617908

  Lattice vectors:

 A1 = (  -3.8483927580,  -6.6656128093,   0.0000000000)
 A2 = (   7.6967864037,   0.0000000000,   0.0000000000)
 A3 = (   0.0000000000,   0.0000000000,  21.2843990326)

Analysis of symmetry for initial positions (statically):
 Subroutine PRICEL returns:
 Original cell was already a primitive cell.

 Routine SETGRP: Setting up the symmetry group for a
 hexagonal supercell.

 Subroutine GETGRP returns: Found  6 space group operations
 (whereof  6 operations were pure point group operations)
 out of a pool of 24 trial point group operations.

The static configuration has the point symmetry C_3v.

Analysis of symmetry for dynamics (positions and initial velocities):
 Subroutine PRICEL returns:
 Original cell was already a primitive cell.

[...]

The dynamic configuration has the point symmetry C_3v.

Analysis of constrained symmetry for selective dynamics:
 Subroutine PRICEL returns:
 Original cell was already a primitive cell.

 Routine SETGRP: Setting up the symmetry group for a
 hexagonal supercell.

 Subroutine GETGRP returns: Found  6 space group operations
[...]
     24      -4.2884      2.00000
     25      -4.2580      2.00000
     26      -4.2367      2.00000
     27      -4.2022      2.00000
     28      -4.1552      2.00000
     29      -4.1261      2.00000
     30      -4.0564      2.00000
     31      -4.0163      2.00000
     32      -3.9987      2.00000
     33      -3.9888      2.00000
     34      -3.9799      2.00000
     35      -3.9646      2.00000
     36      -3.9153      2.00000
     37      -3.9068      2.00000
     38      -3.8580      2.00000
     39      -3.8124      2.00000
     40      -3.7796      2.00000
     41      -3.6718      2.00000
     42      -3.6585      2.00000
     43      -3.6002      2.00000
     44      -3.5804      2.00000
     45      -3.5619      2.00000
     46      -3.5554      2.00000
     47      -3.5219      2.00000
     48      -3.4862      2.00000
     49      -3.4826      2.00000
     50      -3.3703      2.00000
     51      -3.3331      2.00000
     52      -3.3140      2.00000
     53      -3.3028      2.00000
     54      -3.2680      2.00000
     55      -3.2524      2.00000
     56      -3.2423      2.00000
     57      -3.2335      2.00000
     58      -3.2218      2.00000
     59      -3.2075      2.00000
     60      -3.1779      2.00000
[...]
    238       6.2780      0.00000
    239       6.4373      0.00000
    240       6.5219      0.00000
    241       7.0398      0.00000
    242       7.0506      0.00000
    243       7.1603      0.00000
    244       7.2074      0.00000
    245       7.3242      0.00000
    246       7.3877      0.00000
    247       7.4624      0.00000
    248       7.5521      0.00000
    249       7.6083      0.00000
    250       7.8263      0.00000
    251       7.8773      0.00000
    252       8.0379      0.00000

 soft charge-density along one line, spin component           1
         0         1         2         3         4         5         6         7         8         9
 total charge-density along one line

------------------------ aborting loop because EDIFF is reached ----------------------------------------

 total charge

# of ion       s       p       d       tot
    1        0.449   0.282   9.190   9.921
    2        0.449   0.284   9.187   9.920
    3        0.449   0.284   9.187   9.920
    4        0.449   0.284   9.187   9.920
    5        0.450   0.285   9.185   9.920
    6        0.449   0.284   9.187   9.920
    7        0.449   0.284   9.187   9.920
    8        0.449   0.284   9.187   9.920
    9        0.446   0.285   9.187   9.918
   10        0.443   0.370   9.179   9.992
   11        0.441   0.371   9.180   9.992
   12        0.443   0.370   9.179   9.992
   13        0.441   0.371   9.180   9.992
   14        0.441   0.371   9.180   9.992
   15        0.440   0.367   9.181   9.989
   16        0.443   0.370   9.179   9.992
   17        0.440   0.367   9.181   9.989
   18        0.440   0.367   9.181   9.989
   19        0.443   0.372   9.180   9.995
   20        0.455   0.384   9.176  10.016
   21        0.455   0.384   9.176  10.016
   22        0.436   0.371   9.182   9.989
   23        0.455   0.384   9.176  10.016
   24        0.436   0.371   9.182   9.989
   25        0.443   0.372   9.180   9.995
   26        0.443   0.372   9.180   9.995
   27        0.436   0.371   9.182   9.989
   28        0.458   0.286   9.195   9.940
   29        0.441   0.300   9.194   9.934
   30        0.441   0.300   9.194   9.934
   31        0.441   0.300   9.194   9.934
   32        0.441   0.300   9.194   9.934
   33        0.441   0.300   9.194   9.934
   34        0.441   0.300   9.194   9.934
   35        0.453   0.288   9.195   9.935
   36        0.627   0.766   7.519   8.912
   37        1.356   2.132   0.000   3.489
tot         17.547  14.533 328.999 361.078

  FORCE on cell =-STRESS in cart. coord.  units (eV):
  Direction    XX          YY          ZZ          XY          YZ          ZX
  Alpha Z   880.64751   880.64751   880.64751
  Ewald  173949.98520173949.98477************     0.00039     0.00012     0.00019
  Hartree187005.09365187005.09362************     0.00004     0.00006     0.00007
  E(xc)   -2311.07435 -2311.07387 -2315.29932    -0.00041    -0.00003    -0.00006
  Local  ************************374295.86467     0.01871    -0.00058    -0.00097
  n-local  -764.99620  -749.82465  -761.02527     8.16917    -0.05816     0.35567
  augment  3368.97612  3368.99642  3376.24162    -0.01758     0.00022     0.00043
  Kinetic  3340.24182  3341.76935  3343.49515     2.22846     1.97861    -1.24888
  Fock        0.00000     0.00000     0.00000     0.00000     0.00000     0.00000
  Total      -2.58163    -2.58163     1.40878     0.00000    -0.00000    -0.00000
  in kB      -3.78786    -3.78786     2.06701     0.00000    -0.00000    -0.00000

 VOLUME and BASIS-vectors are now :
  energy-cutoff  :      500.00
  volume of cell :     1091.97
      direct lattice vectors                 reciprocal lattice vectors
     7.696786404  0.000000000  0.000000000     0.129924354 -0.075011849  0.000000000
     3.848392758  6.665612809  0.000000000     0.000000000  0.150023716  0.000000000
     0.000000000  0.000000000 21.284399033     0.000000000  0.000000000  0.046982769

  length of vectors
     7.696786404  7.696786404 21.284399033     0.150023716  0.150023716  0.046982769

 FORCES acting on ions
    electron-ion (+dipol)            ewald-force                    non-local-force                 convergence-correction
   -.416E-04 0.176E-06 0.350E+04   0.579E-04 -.438E-05 -.349E+04   -.206E-17 -.493E-17 -.252E+01   -.410E-03 -.204E-03 -.128E+00
   -.234E+00 0.317E-01 0.349E+04   0.201E+00 0.451E-01 -.349E+04   0.455E-01 0.622E-01 -.192E+01   -.804E-02 -.117E+00 -.126E+00
   0.234E+00 0.318E-01 0.349E+04   -.201E+00 0.451E-01 -.349E+04   -.455E-01 0.622E-01 -.192E+01   0.895E-02 -.114E+00 -.125E+00
   -.893E-01 -.218E+00 0.349E+04   0.140E+00 0.152E+00 -.349E+04   0.767E-01 0.830E-02 -.192E+01   -.105E+00 0.514E-01 -.126E+00
   -.644E-04 -.500E-05 0.349E+04   0.116E-03 -.101E-04 -.349E+04   -.488E-17 -.633E-18 -.182E+01   0.123E-01 0.751E-02 -.102E+00
   0.893E-01 -.218E+00 0.349E+04   -.140E+00 0.152E+00 -.349E+04   -.767E-01 0.830E-02 -.192E+01   0.103E+00 0.526E-01 -.124E+00
   0.144E+00 0.186E+00 0.349E+04   -.616E-01 -.197E+00 -.349E+04   0.311E-01 -.705E-01 -.192E+01   -.943E-01 0.648E-01 -.124E+00
   -.144E+00 0.186E+00 0.349E+04   0.614E-01 -.197E+00 -.349E+04   -.311E-01 -.705E-01 -.192E+01   0.979E-01 0.632E-01 -.124E+00
   -.144E-03 -.330E-04 0.349E+04   0.263E-03 0.205E-04 -.349E+04   -.268E-17 -.972E-18 -.215E+01   -.132E-01 -.684E-02 -.161E+00
   0.263E+00 0.152E+00 0.119E+04   0.190E+00 0.110E+00 -.119E+04   -.327E+00 -.189E+00 -.101E+01   -.132E+00 -.760E-01 0.669E-01
   -.910E-04 -.628E+00 0.119E+04   0.190E-03 0.718E+00 -.119E+04   -.753E-08 0.113E+00 -.422E+00   0.123E-01 -.217E+00 0.920E-01
   -.263E+00 0.152E+00 0.119E+04   -.191E+00 0.110E+00 -.119E+04   0.327E+00 -.189E+00 -.101E+01   0.129E+00 -.738E-01 0.687E-01
   -.544E+00 0.314E+00 0.119E+04   0.622E+00 -.359E+00 -.119E+04   0.979E-01 -.566E-01 -.422E+00   -.181E+00 0.120E+00 0.920E-01
   0.544E+00 0.314E+00 0.119E+04   -.622E+00 -.359E+00 -.119E+04   -.979E-01 -.566E-01 -.422E+00   0.206E+00 0.119E+00 0.924E-01
   -.142E-03 -.120E+01 0.119E+04   0.298E-03 0.111E+01 -.119E+04   -.300E-08 0.450E-01 -.743E+00   -.434E-02 0.399E-01 0.960E-01
   -.915E-04 -.304E+00 0.119E+04   0.186E-03 -.220E+00 -.119E+04   -.251E-07 0.377E+00 -.101E+01   -.286E-03 0.148E+00 0.687E-01
   -.104E+01 0.600E+00 0.119E+04   0.962E+00 -.555E+00 -.119E+04   0.390E-01 -.225E-01 -.743E+00   0.331E-01 -.237E-01 0.959E-01
   0.104E+01 0.601E+00 0.119E+04   -.963E+00 -.555E+00 -.119E+04   -.390E-01 -.225E-01 -.743E+00   -.319E-01 -.201E-01 0.974E-01
   -.590E-04 -.512E+00 -.113E+04   0.679E-04 0.529E+00 0.113E+04   0.569E-09 -.855E-02 0.588E+00   -.146E-01 -.368E-01 0.112E+00
   -.190E+02 -.110E+02 -.114E+04   0.199E+02 0.115E+02 0.114E+04   -.758E+00 -.438E+00 0.169E+00   -.262E+00 -.151E+00 0.236E-01
   0.190E+02 -.110E+02 -.114E+04   -.199E+02 0.115E+02 0.114E+04   0.758E+00 -.438E+00 0.169E+00   0.288E+00 -.151E+00 0.231E-01
   -.105E+02 0.606E+01 -.114E+04   0.103E+02 -.595E+01 0.114E+04   0.356E+00 -.206E+00 0.106E+01   -.141E+00 0.823E-01 0.717E-01
   -.791E-04 0.219E+02 -.114E+04   0.146E-03 -.230E+02 0.114E+04   -.583E-07 0.876E+00 0.169E+00   0.121E-01 0.324E+00 0.231E-01
   0.105E+02 0.606E+01 -.114E+04   -.103E+02 -.595E+01 0.114E+04   -.356E+00 -.206E+00 0.106E+01   0.138E+00 0.790E-01 0.718E-01
   0.444E+00 0.256E+00 -.113E+04   -.458E+00 -.265E+00 0.113E+04   0.741E-02 0.428E-02 0.588E+00   0.171E-01 0.986E-02 0.112E+00
   -.444E+00 0.256E+00 -.113E+04   0.458E+00 -.265E+00 0.113E+04   -.741E-02 0.428E-02 0.588E+00   -.388E-01 0.600E-02 0.112E+00
   -.127E-03 -.121E+02 -.114E+04   0.244E-03 0.119E+02 0.114E+04   -.274E-07 0.411E+00 0.106E+01   0.860E-03 -.163E+00 0.719E-01
   -.332E-04 0.187E-04 -.343E+04   0.382E-04 -.337E-04 0.343E+04   0.863E-17 0.482E-19 0.212E+01   -.710E-03 -.358E-03 0.163E+00
   -.662E+01 -.833E+01 -.343E+04   0.602E+01 0.709E+01 0.342E+04   0.537E+00 0.114E+01 0.260E+01   -.962E-01 -.188E+00 0.955E-01
   0.662E+01 -.833E+01 -.343E+04   -.602E+01 0.709E+01 0.342E+04   -.537E+00 0.114E+01 0.260E+01   0.978E-01 -.186E+00 0.942E-01
   -.105E+02 -.156E+01 -.343E+04   0.915E+01 0.167E+01 0.342E+04   0.125E+01 -.104E+00 0.260E+01   -.211E+00 0.109E-01 0.955E-01
   0.105E+02 -.156E+01 -.343E+04   -.915E+01 0.167E+01 0.342E+04   -.125E+01 -.104E+00 0.260E+01   0.209E+00 0.113E-01 0.935E-01
   -.391E+01 0.989E+01 -.343E+04   0.313E+01 -.876E+01 0.342E+04   0.717E+00 -.103E+01 0.260E+01   -.112E+00 0.178E+00 0.942E-01
   0.391E+01 0.989E+01 -.343E+04   -.313E+01 -.876E+01 0.342E+04   -.717E+00 -.103E+01 0.260E+01   0.115E+00 0.176E+00 0.936E-01
   -.155E-03 -.281E-04 -.344E+04   0.256E-03 0.360E-05 0.344E+04   -.141E-18 0.350E-17 0.226E+01   -.131E-01 -.674E-02 0.128E+00
   -.223E-04 -.204E-04 -.260E+04   0.111E-03 0.224E-04 0.261E+04   -.556E-17 0.645E-17 -.478E+01   0.341E-02 0.205E-02 -.171E-01
   0.105E-03 -.499E-04 -.188E+04   0.153E-04 0.690E-05 0.190E+04   -.259E-17 0.652E-18 -.220E+02   0.162E-02 0.981E-03 -.330E-01
   -.138E-03 -.611E-04 0.248E+02   0.122E-12 -.454E-14 0.409E-11   0.325E-15 0.233E-15 -.259E+02   0.267E-01 0.124E-01 0.106E+01

 POSITION                                       TOTAL-FORCE (eV/Angst)
      0.00000      0.00000      5.37156         0.000000      0.000000      0.003800
      2.56560      0.00000      5.37156         0.005517      0.023491      0.059791
      5.13119      0.00000      5.37156        -0.005517      0.023491      0.059791
      1.28280      2.22187      5.37156         0.023102     -0.006968      0.059791
      3.84839      2.22187      5.37156         0.000000      0.000000      0.052792
      6.41399      2.22187      5.37156        -0.023102     -0.006968      0.059791
      2.56560      4.44374      5.37156         0.017585     -0.016523      0.059791
      5.13119      4.44374      5.37156        -0.017585     -0.016523      0.059791
      7.69679      4.44374      5.37156         0.000000      0.000000      0.048959
      1.28280      0.74062      7.46636        -0.002444     -0.001411     -0.062254
      3.84839      0.74062      7.46636         0.000000     -0.020878     -0.044501
      6.41399      0.74062      7.46636         0.002444     -0.001411     -0.062254
      2.56560      2.96249      7.46636        -0.018081      0.010439     -0.044501
      5.13119      2.96249      7.46636         0.018081      0.010439     -0.044501
      7.69679      2.96249      7.46636         0.000000     -0.005602     -0.039141
      3.84839      5.18437      7.46636        -0.000000      0.002822     -0.062254
      6.41399      5.18437      7.46636        -0.004851      0.002801     -0.039141
      8.97958      5.18437      7.46636         0.004851      0.002801     -0.039141
      7.69679      1.48472      9.55134         0.000000     -0.022719     -0.006712
      2.55991      1.47796      9.54139        -0.064313     -0.037131     -0.259554
      5.13688      1.47796      9.54139         0.064313     -0.037131     -0.259554
      8.97851      3.70374      9.55759         0.019882     -0.011479     -0.012332
      3.84839      3.70969      9.54139        -0.000000      0.074262     -0.259554
      6.41506      3.70374      9.55759        -0.019882     -0.011479     -0.012332
     10.25938      5.92325      9.55134         0.019675      0.011359     -0.006712
      5.13420      5.92325      9.55134        -0.019675      0.011359     -0.006712
      7.69679      5.92375      9.55759        -0.000000      0.022958     -0.012332
      0.00000      0.00000     11.61948         0.000000      0.000000      0.005086
      6.40389      6.65412     11.64269        -0.155750     -0.289107     -0.100818
      8.98968      6.65412     11.64269         0.155750     -0.289107     -0.100818
      8.96459      2.21887     11.64269        -0.328249      0.009670     -0.100818
      6.42899      2.21887     11.64269         0.328249      0.009670     -0.100818
     10.25748      4.45823     11.64269        -0.172499      0.279437     -0.100818
      5.13610      4.45823     11.64269         0.172499      0.279437     -0.100818
      7.69679      4.44374     11.62337         0.000000      0.000000      0.021670
      3.84839      2.22187     11.63466         0.000000      0.000000      1.385080
      3.84839      2.22187     13.32881         0.000000      0.000000      0.002257
    total drift:                                0.026544      0.012337      0.029191

  FREE ENERGIE OF THE ION-ELECTRON SYSTEM (eV)
  free  energy   TOTEN  =      -135.70521363 eV

  energy  without entropy=     -135.70521363  energy(sigma->0) =     -135.70521363

 stress matrix after NEB project (eV)
     -2.58163      0.00000     -0.00000
      0.00000     -2.58163      0.00000
      0.00000     -0.00000      1.40878
  FORCES: max atom, RMS     0.002257    0.000371
  FORCE total and by dimension    0.002257    0.002257
  Stress total and by dimension    3.913345    2.581628
|           W    W    AA    RRRRR   N    N  II  N    N   GGGG   !!!           |
|           W    W   A  A   R    R  NN   N  II  NN   N  G    G  !!!           |
|           W    W  A    A  R    R  N N  N  II  N N  N  G       !!!           |
|           W WW W  AAAAAA  RRRRR   N  N N  II  N  N N  G  GGG   !            |
|           WW  WW  A    A  R   R   N   NN  II  N   NN  G    G                |
|           W    W  A    A  R    R  N    N  II  N    N   GGGG   !!!           |
|     Tetrahedron method does not include variations of the Fermi             |
|     occupations, so forces and stress will be inaccurate. We suggest        |
|     using a different smearing scheme ISMEAR = 1 or 2 for metals in         |
|     relaxations.                                                            |

 total charge

# of ion       s       p       d       tot
    1        0.449   0.282   9.190   9.921
    2        0.449   0.284   9.187   9.920
    3        0.449   0.284   9.187   9.920
    4        0.449   0.284   9.187   9.920
    5        0.450   0.285   9.185   9.920
    6        0.449   0.284   9.187   9.920
    7        0.449   0.284   9.187   9.920
    8        0.449   0.284   9.187   9.920
    9        0.446   0.285   9.187   9.918
   10        0.443   0.370   9.179   9.992
   11        0.441   0.371   9.180   9.992
   12        0.443   0.370   9.179   9.992
   13        0.441   0.371   9.180   9.992
   14        0.441   0.371   9.180   9.992
   15        0.440   0.367   9.181   9.989
   16        0.443   0.370   9.179   9.992
   17        0.440   0.367   9.181   9.989
   18        0.440   0.367   9.181   9.989
   19        0.443   0.372   9.180   9.995
   20        0.455   0.384   9.176  10.016
   21        0.455   0.384   9.176  10.016
   22        0.436   0.371   9.182   9.989
   23        0.455   0.384   9.176  10.016
   24        0.436   0.371   9.182   9.989
   25        0.443   0.372   9.180   9.995
   26        0.443   0.372   9.180   9.995
   27        0.436   0.371   9.182   9.989
   28        0.458   0.286   9.195   9.940
   29        0.441   0.300   9.194   9.934
   30        0.441   0.300   9.194   9.934
   31        0.441   0.300   9.194   9.934
   32        0.441   0.300   9.194   9.934
   33        0.441   0.300   9.194   9.934
   34        0.441   0.300   9.194   9.934
   35        0.453   0.288   9.195   9.935
   36        0.627   0.766   7.519   8.912
   37        1.356   2.132   0.000   3.489
tot         17.547  14.533 328.999 361.078

 BZINTS: Fermi energy:    0.113822;  399.000000 electrons
         Band energy:-0.110730E+04;  BLOECHL correction:   -0.066328