 vasp.6.2.0 18Jan21 (build Jun 12 2021 23:27:24) complex

 executed on             LinuxIFC date 2022.05.30  16:09:22

 INCAR:
   ISMEAR = -5
   SIGMA = 0.1
   ISPIN = 1
   EDIFF = 1.d-5
   EDIFFG = -0.01
   NSW = 0
   NELM = 150
   ENCUT = 500
   ISIF = 2
   IBRION = 2
   LREAL = Auto
   ALGO = Fast
   ICHARG = 11
   LORBIT = 10
   LCHARG = .F.
   LWAVE = .F.

 POTCAR:    PAW_PBE Au 04Oct2007
 POTCAR:    PAW_PBE Zr_sv 04Jan2005
 POTCAR:    PAW_PBE O 08Apr2002
|           W    W    AA    RRRRR   N    N  II  N    N   GGGG   !!!           |
|           W    W   A  A   R    R  NN   N  II  NN   N  G    G  !!!           |
|           W    W  A    A  R    R  N N  N  II  N N  N  G       !!!           |
|           W WW W  AAAAAA  RRRRR   N  N N  II  N  N N  G  GGG   !            |
|           WW  WW  A    A  R   R   N   NN  II  N   NN  G    G                |
|           W    W  A    A  R    R  N    N  II  N    N   GGGG   !!!           |
|     For optimal performance we recommend to set                             |
|       NCORE = 2 up to number-of-cores-per-socket                            |
|     This setting can greatly improve the performance of VASP for DFT.       |
|     The default, NCORE=1 might be grossly inefficient on modern             |
|     multi-core architectures or massively parallel machines. Do your        |
|     Unfortunately you need to use the default for GW and RPA                |
|     calculations (for HF NCORE is supported but not extensively tested      |
|     yet).                                                                   |

 POTCAR:    PAW_PBE Au 04Oct2007
   VRHFIN =Au: s1d10

   TITEL  = PAW_PBE Au 04Oct2007
   POMASS =  196.966; ZVAL   =   11.000    mass and valenz
   ENMAX  =  229.943; ENMIN  =  172.457 eV

 POTCAR:    PAW_PBE Zr_sv 04Jan2005
   VRHFIN =Zr: 4s4p5s4d

   TITEL  = PAW_PBE Zr_sv 04Jan2005
   POMASS =   91.224; ZVAL   =   12.000    mass and valenz
   ENMAX  =  229.898; ENMIN  =  172.424 eV

 POTCAR:    PAW_PBE O 08Apr2002
   VRHFIN =O: s2p4

   TITEL  = PAW_PBE O 08Apr2002
   POMASS =   16.000; ZVAL   =    6.000    mass and valenz
   ENMAX  =  400.000; ENMIN  =  300.000 eV

 Optimization of the real space projectors (new method)

 maximal supplied QI-value         = 15.12
 optimisation between [QCUT,QGAM] = [ 11.34, 22.83] = [ 36.00,145.93] Ry
 Optimized for a Real-space Cutoff    1.39 Angstroem

   l    n(q)    QCUT    max X(q) W(low)/X(q) W(high)/X(q)  e(spline)
   2      9    11.338    60.898    0.39E-03    0.42E-03    0.21E-06
   2      9    11.338    58.894    0.40E-03    0.42E-03    0.22E-06
   0      9    11.338   109.617    0.13E-03    0.20E-04    0.13E-06
   0      9    11.338    75.026    0.13E-03    0.20E-04    0.13E-06
   1      9    11.338    16.344    0.33E-04    0.24E-03    0.18E-06
   1      9    11.338    10.160    0.26E-04    0.19E-03    0.15E-06
 Optimization of the real space projectors (new method)

[...]

   l    n(q)    QCUT    max X(q) W(low)/X(q) W(high)/X(q)  e(spline)
   0     10    11.338    12.107    0.38E-04    0.13E-04    0.27E-07
   0     10    11.338     9.948    0.69E-04    0.30E-04    0.38E-07
   1     10    11.338     3.563    0.26E-04    0.18E-04    0.40E-07
   1     10    11.338     4.524    0.25E-03    0.39E-04    0.44E-06
   2      9    11.338    87.261    0.26E-03    0.91E-05    0.26E-06
   2      9    11.338    70.950    0.25E-03    0.91E-05    0.25E-06
 Optimization of the real space projectors (new method)

 maximal supplied QI-value         = 24.76
 optimisation between [QCUT,QGAM] = [ 11.39, 22.77] = [ 36.31,145.25] Ry
 Optimized for a Real-space Cutoff    1.00 Angstroem

   l    n(q)    QCUT    max X(q) W(low)/X(q) W(high)/X(q)  e(spline)
   0      7    11.387    20.381    0.39E-03    0.13E-02    0.15E-06
   0      7    11.387    15.268    0.42E-03    0.14E-02    0.17E-06
   1      6    11.387     5.964    0.41E-03    0.11E-02    0.17E-06
   1      6    11.387     5.382    0.39E-03    0.87E-03    0.15E-06
  PAW_PBE Au 04Oct2007                  :
  PAW_PBE Zr_sv 04Jan2005               :
  PAW_PBE O 08Apr2002                   :

 POSCAR: Au-Zr-O2
  positions in direct lattice
  velocities in cartesian coordinates
 exchange correlation table for  LEXCH =        8
   RHO(1)=    0.500       N(1)  =     2000
   RHO(2)=  100.500       N(2)  =     4000

 VTST: version 3.2, (02/03/18)

 CHAIN: initializing optimizer

 OPT: Using VASP Conjugate-Gradient optimizer
 CHAIN: Read ICHAIN            0

 POSCAR: Au-Zr-O2
  positions in direct lattice
  velocities in cartesian coordinates

 ion  position               nearest neighbor table
   1  0.000  0.000  0.217-  16 2.94  12 2.94   6 2.94   8 2.94   7 2.94   3 2.94  10 2.94   4 2.94
                             2 2.94
   2  0.333  0.000  0.217-   9 2.94  11 2.94  17 2.94  10 2.94   8 2.94   4 2.94   5 2.94   1 2.94
                             3 2.94
   3  0.667  0.000  0.217-   7 2.94  18 2.94  12 2.94   1 2.94  11 2.94   5 2.94   6 2.94   9 2.94
                             2 2.94
   4  0.000  0.333  0.217-  10 2.94   6 2.94   5 2.94  13 2.94   2 2.94  15 2.94   9 2.94   1 2.94
                             7 2.94
   5  0.333  0.333  0.217-  13 2.94   7 2.94  11 2.94   4 2.94   2 2.94  14 2.94   3 2.94   8 2.94
                             6 2.94
   6  0.667  0.333  0.217-  15 2.94  14 2.94   1 2.94  12 2.94   4 2.94   9 2.94   8 2.94   3 2.94
                             5 2.94
   7  0.000  0.667  0.217-  18 2.94   3 2.94  16 2.94   5 2.94   1 2.94  13 2.94   8 2.94   4 2.94
                             9 2.94
   8  0.333  0.667  0.217-   9 2.94  17 2.94   1 2.94   2 2.94  14 2.94  16 2.94   6 2.94   7 2.94
                             5 2.94
   9  0.667  0.667  0.217-   2 2.94   8 2.94  17 2.94   6 2.94  15 2.94   4 2.94   3 2.94  18 2.94
                             7 2.94
  10  0.111  0.111  0.316-  20 2.93  26 2.93  19 2.93  11 2.94  17 2.94   2 2.94   4 2.94   1 2.94
                            12 2.94  16 2.94  13 2.94  15 2.94
  11  0.444  0.111  0.316-  20 2.92  21 2.92  27 2.94  13 2.94   2 2.94  10 2.94  17 2.94   5 2.94
                             3 2.94  18 2.94  14 2.94  12 2.94
  12  0.778  0.111  0.316-  21 2.93  25 2.93  19 2.93  16 2.94  18 2.94   1 2.94  14 2.94  15 2.94
                             3 2.94   6 2.94  10 2.94  11 2.94
  13  0.111  0.444  0.316-  23 2.92  20 2.92  22 2.94   5 2.94  18 2.94  11 2.94   7 2.94   4 2.94
                            16 2.94  10 2.94  14 2.94  15 2.94
  14  0.444  0.444  0.316-  21 2.92  23 2.92  24 2.94  15 2.94   6 2.94  12 2.94   8 2.94  17 2.94
                             5 2.94  16 2.94  13 2.94  11 2.94
  15  0.778  0.444  0.316-  24 2.93  22 2.93  19 2.93  14 2.94   6 2.94  17 2.94  12 2.94   9 2.94
                             4 2.94  10 2.94  13 2.94  18 2.94
  16  0.111  0.778  0.316-  23 2.93  25 2.93  26 2.93  18 2.94  12 2.94   7 2.94   1 2.94   8 2.94
                            13 2.94  10 2.94  14 2.94  17 2.94
  17  0.444  0.778  0.316-  27 2.93  24 2.93  26 2.93   9 2.94  15 2.94   2 2.94  10 2.94  11 2.94
                             8 2.94  14 2.94  16 2.94  18 2.94
  18  0.778  0.778  0.316-  22 2.93  27 2.93  25 2.93  16 2.94   7 2.94  13 2.94  12 2.94   3 2.94
                            11 2.94   9 2.94  15 2.94  17 2.94
  19  0.889  0.222  0.414-  10 2.93  12 2.93  15 2.93  26 2.94  25 2.94  24 2.94  22 2.94  21 2.95
                            20 2.95  28 2.96  32 3.04  31 3.04
  20  0.223  0.223  0.414-  36 2.86  23 2.92  21 2.92  11 2.92  13 2.92  10 2.93  27 2.94  22 2.94
                            26 2.95  19 2.95  29 3.00  31 3.00
  21  0.554  0.223  0.414-  36 2.86  20 2.92  23 2.92  14 2.92  11 2.92  12 2.93  27 2.94  24 2.94
                            25 2.95  19 2.95  30 3.00  32 3.00
  22  0.888  0.556  0.414-  24 2.92  27 2.92  18 2.93  15 2.93  13 2.94  25 2.94  19 2.94  23 2.94
                            20 2.94  35 2.96  33 3.01  31 3.01
  23  0.223  0.554  0.414-  36 2.86  20 2.92  21 2.92  13 2.92  14 2.92  16 2.93  22 2.94  24 2.94
                            25 2.95  26 2.95  33 3.00  34 3.00
  24  0.556  0.556  0.414-  27 2.92  22 2.92  15 2.93  17 2.93  14 2.94  26 2.94  19 2.94  21 2.94
                            23 2.94  35 2.96  32 3.01  34 3.01
  25  0.889  0.889  0.414-  16 2.93  12 2.93  18 2.93  19 2.94  26 2.94  22 2.94  27 2.94  23 2.95
                            21 2.95  28 2.96  33 3.04  30 3.04
  26  0.222  0.889  0.414-  10 2.93  16 2.93  17 2.93  19 2.94  25 2.94  27 2.94  24 2.94  20 2.95
                            23 2.95  28 2.96  29 3.04  34 3.04
  27  0.556  0.888  0.414-  24 2.92  22 2.92  17 2.93  18 2.93  11 2.94  26 2.94  25 2.94  20 2.94
                            21 2.94  35 2.96  29 3.01  30 3.01
  28  0.000  0.000  0.514-  25 2.96  19 2.96  26 2.96  34 2.97  32 2.97  33 2.97  30 2.97  31 2.97
                            29 2.97
  29  0.334  0.006  0.517-  30 2.88  31 2.89  36 2.89  35 2.96  28 2.97  20 3.00  27 3.01  26 3.04
                            34 3.04
  30  0.661  0.006  0.517-  29 2.88  32 2.89  36 2.89  35 2.96  28 2.97  21 3.00  27 3.01  25 3.04
                            33 3.04
  31  0.006  0.334  0.517-  37 2.76  33 2.88  29 2.89  36 2.89  35 2.96  28 2.97  20 3.00  22 3.01
                            19 3.04  32 3.04
  32  0.661  0.334  0.517-  38 2.76  34 2.88  30 2.89  36 2.89  35 2.96  28 2.97  21 3.00  24 3.01
                            19 3.04  31 3.04
  33  0.006  0.661  0.517-  31 2.88  34 2.89  36 2.89  35 2.96  28 2.97  23 3.00  22 3.01  25 3.04
                            30 3.04
  34  0.334  0.661  0.517-  32 2.88  33 2.89  36 2.89  35 2.96  28 2.97  23 3.00  24 3.01  26 3.04
                            29 3.04
  35  0.667  0.667  0.514-  24 2.96  27 2.96  22 2.96  29 2.96  34 2.96  32 2.96  31 2.96  30 2.96
                            33 2.96
  36  0.333  0.333  0.509-  37 2.04  38 2.04  20 2.86  23 2.86  21 2.86  33 2.89  31 2.89  29 2.89
                            30 2.89  34 2.89  32 2.89
  37  0.251  0.333  0.587-  38 1.45  36 2.04  31 2.76
  38  0.416  0.333  0.587-  37 1.45  36 2.04  32 2.76

  LATTYP: Found a hexagonal cell.
 ALAT       =     8.8135128021
 C/A-ratio  =     2.7586513333

  Lattice vectors:

 A1 = (  -4.4067569092,  -7.6327256898,   0.0000000000)
 A2 = (   8.8135128021,   0.0000000000,   0.0000000000)
 A3 = (   0.0000000000,   0.0000000000,  24.3134088421)

Analysis of symmetry for initial positions (statically):
 Subroutine PRICEL returns:
 Original cell was already a primitive cell.

 Routine SETGRP: Setting up the symmetry group for a
 hexagonal supercell.

 Subroutine GETGRP returns: Found  2 space group operations
 (whereof  2 operations were pure point group operations)
 out of a pool of 24 trial point group operations.

The static configuration has the point symmetry C_1h.

Analysis of symmetry for dynamics (positions and initial velocities):
 Subroutine PRICEL returns:
 Original cell was already a primitive cell.

[...]

The dynamic configuration has the point symmetry C_1h.

Analysis of constrained symmetry for selective dynamics:
 Subroutine PRICEL returns:
 Original cell was already a primitive cell.

[...]
     33      -5.5021      2.00000
     34      -5.4367      2.00000
     35      -5.4130      2.00000
     36      -5.3247      2.00000
     37      -5.3078      2.00000
     38      -5.2933      2.00000
     39      -5.2591      2.00000
     40      -5.2432      2.00000
     41      -5.2269      2.00000
     42      -5.2140      2.00000
     43      -5.1914      2.00000
     44      -5.1347      2.00000
     45      -5.1148      2.00000
     46      -5.0272      2.00000
     47      -4.9749      2.00000
     48      -4.9252      2.00000
     49      -4.8829      2.00000
     50      -4.8389      2.00000
     51      -4.8312      2.00000
     52      -4.7925      2.00000
     53      -4.7586      2.00000
     54      -4.7453      2.00000
     55      -4.6922      2.00000
     56      -4.6543      2.00000
     57      -4.6393      2.00000
     58      -4.6171      2.00000
     59      -4.6071      2.00000
     60      -4.5846      2.00000
[...]
    238       4.9087      0.00000
    239       5.0294      0.00000
    240       5.3486      0.00000
    241       5.5164      0.00000
    242       5.6533      0.00000
    243       5.7607      0.00000
    244       5.8894      0.00000
    245       6.0280      0.00000
    246       6.0931      0.00000
    247       6.1612      0.00000
    248       6.2040      0.00000
    249       6.2529      0.00000
    250       6.3199      0.00000
    251       6.4277      0.00000
    252       6.5023      0.00000

 soft charge-density along one line, spin component           1
         0         1         2         3         4         5         6         7         8         9
 total charge-density along one line

------------------------ aborting loop because EDIFF is reached ----------------------------------------

 total charge

# of ion       s       p       d       tot
    1        0.547   0.239   8.765   9.551
    2        0.542   0.241   8.764   9.547
    3        0.542   0.241   8.764   9.547
    4        0.542   0.241   8.766   9.549
    5        0.541   0.240   8.764   9.545
    6        0.542   0.241   8.766   9.549
    7        0.542   0.241   8.765   9.548
    8        0.542   0.241   8.765   9.548
    9        0.541   0.240   8.767   9.548
   10        0.521   0.306   8.775   9.602
   11        0.517   0.308   8.776   9.601
   12        0.521   0.306   8.775   9.602
   13        0.518   0.307   8.777   9.602
   14        0.518   0.307   8.777   9.602
   15        0.516   0.309   8.772   9.596
   16        0.524   0.306   8.773   9.603
   17        0.516   0.309   8.772   9.597
   18        0.516   0.309   8.772   9.597
   19        0.516   0.297   8.775   9.588
   20        0.559   0.328   8.746   9.634
   21        0.559   0.328   8.746   9.634
   22        0.512   0.304   8.771   9.587
   23        0.562   0.327   8.746   9.635
   24        0.512   0.304   8.771   9.587
   25        0.521   0.296   8.774   9.590
   26        0.521   0.296   8.774   9.590
   27        0.511   0.304   8.773   9.587
   28        0.544   0.232   8.756   9.533
   29        0.581   0.237   8.752   9.570
   30        0.581   0.237   8.752   9.570
   31        0.580   0.228   8.765   9.573
   32        0.580   0.228   8.765   9.573
   33        0.580   0.237   8.753   9.570
   34        0.580   0.237   8.753   9.570
   35        0.541   0.233   8.756   9.530
   36        2.196   6.019   1.586   9.801
   37        1.613   3.258   0.000   4.871
   38        1.613   3.258   0.000   4.871
tot         24.306  22.123 308.370 354.799

  FORCE on cell =-STRESS in cart. coord.  units (eV):
  Direction    XX          YY          ZZ          XY          YZ          ZX
  Alpha Z   966.04424   966.04424   966.04424
  Ewald  152344.17395151912.42430************    -0.00031     0.22182    -0.00009
  Hartree160985.73292160751.33106************     0.00002     0.16250    -0.00003
  E(xc)   -1838.11014 -1838.99064 -1845.24071     0.00000    -0.00008    -0.00000
  Local  ************************325171.78089     0.00257    -0.24527    -0.00002
  n-local   -98.31746  -103.59418   -84.05840     4.57097    -0.27818     0.05470
  augment  2375.11654  2379.24220  2398.40501    -0.00140     0.07642     0.00004
  Kinetic  5807.54227  5847.75178  5900.00817     1.10651     0.03530     0.07584
  Fock        0.00000     0.00000     0.00000     0.00000     0.00000     0.00000
  Total     -15.06789   -16.12492     1.69764    -0.00000    -0.02748    -0.00000
  in kB     -14.76007   -15.79551     1.66296    -0.00000    -0.02692    -0.00000

 VOLUME and BASIS-vectors are now :
  energy-cutoff  :      500.00
  volume of cell :     1635.59
      direct lattice vectors                 reciprocal lattice vectors
     8.813512802  0.000000000  0.000000000     0.113462137 -0.065507406  0.000000000
     4.406756909  7.632725690  0.000000000     0.000000000  0.131014796  0.000000000
     0.000000000  0.000000000 24.313408842     0.000000000  0.000000000  0.041129568

  length of vectors
     8.813512802  8.813512802 24.313408842     0.131014796  0.131014796  0.041129568

 FORCES acting on ions
    electron-ion (+dipol)            ewald-force                    non-local-force                 convergence-correction
   -.200E-04 0.655E-01 0.270E+04   0.520E-04 -.245E-01 -.269E+04   0.887E-10 0.133E-02 -.459E+00   -.146E-03 -.489E-01 -.193E+00
   0.363E+00 0.665E+00 0.270E+04   -.500E+00 -.727E+00 -.270E+04   0.237E-02 0.307E-01 -.295E+00   0.118E+00 0.263E-01 -.206E+00
   -.363E+00 0.665E+00 0.270E+04   0.500E+00 -.727E+00 -.270E+04   -.237E-02 0.307E-01 -.295E+00   -.118E+00 0.282E-01 -.206E+00
   0.683E+00 0.405E-01 0.270E+04   -.859E+00 -.822E-01 -.270E+04   0.365E-01 -.358E-01 -.322E+00   0.133E+00 0.692E-01 -.212E+00
   0.772E-05 0.149E-01 0.270E+04   0.951E-04 -.134E-03 -.270E+04   -.571E-09 -.857E-02 -.434E+00   0.427E-02 -.546E-02 -.221E+00
   -.683E+00 0.406E-01 0.270E+04   0.859E+00 -.823E-01 -.270E+04   -.365E-01 -.358E-01 -.322E+00   -.134E+00 0.702E-01 -.212E+00
   0.350E+00 -.698E+00 0.270E+04   -.358E+00 0.810E+00 -.270E+04   0.212E-01 -.448E-02 -.301E+00   -.936E-02 -.893E-01 -.203E+00
   -.350E+00 -.699E+00 0.270E+04   0.358E+00 0.810E+00 -.270E+04   -.212E-01 -.448E-02 -.301E+00   0.113E-01 -.903E-01 -.203E+00
   0.195E-04 -.903E-01 0.270E+04   0.166E-03 0.246E-01 -.270E+04   0.118E-08 0.178E-01 -.459E+00   -.466E-02 0.455E-01 -.204E+00
   0.461E+01 0.289E+01 0.969E+03   -.455E+01 -.282E+01 -.969E+03   -.212E+00 -.107E+00 -.432E+00   0.124E+00 0.290E-01 -.207E+00
   0.186E-04 0.775E+01 0.979E+03   0.147E-03 -.792E+01 -.978E+03   0.356E-08 0.534E-01 -.274E+00   0.344E-02 0.461E-01 -.205E+00
   -.461E+01 0.289E+01 0.969E+03   0.455E+01 -.282E+01 -.969E+03   0.212E+00 -.107E+00 -.432E+00   -.125E+00 0.304E-01 -.208E+00
   0.647E+01 -.388E+01 0.979E+03   -.668E+01 0.399E+01 -.979E+03   0.888E-01 -.439E-01 -.328E+00   0.604E-01 -.316E-01 -.199E+00
   -.647E+01 -.388E+01 0.979E+03   0.668E+01 0.399E+01 -.979E+03   -.888E-01 -.439E-01 -.328E+00   -.527E-01 -.317E-01 -.199E+00
   0.302E-04 0.123E-01 0.969E+03   0.236E-03 -.171E+00 -.968E+03   0.206E-08 0.310E-01 -.443E+00   -.220E-02 0.116E+00 -.182E+00
   -.217E-04 -.542E+01 0.969E+03   0.163E-03 0.531E+01 -.968E+03   0.161E-07 0.242E+00 -.482E+00   0.402E-03 -.972E-01 -.225E+00
   0.146E+00 -.186E+00 0.968E+03   -.255E+00 0.221E+00 -.968E+03   0.205E-01 -.109E-01 -.341E+00   0.741E-01 -.228E-01 -.196E+00
   -.146E+00 -.186E+00 0.968E+03   0.254E+00 0.221E+00 -.968E+03   -.205E-01 -.109E-01 -.341E+00   -.745E-01 -.213E-01 -.197E+00
   -.423E-04 0.644E+00 -.793E+03   0.513E-04 -.106E+01 0.792E+03   0.112E-07 0.169E+00 0.927E+00   0.350E-02 0.180E+00 0.188E-01
   0.477E+02 0.287E+02 -.723E+03   -.469E+02 -.284E+02 0.723E+03   -.112E+01 -.558E+00 -.686E+00   0.106E+00 0.570E-01 0.554E-01
   -.477E+02 0.287E+02 -.723E+03   0.469E+02 -.284E+02 0.723E+03   0.112E+01 -.558E+00 -.686E+00   -.107E+00 0.597E-01 0.552E-01
   0.168E+02 -.110E+02 -.781E+03   -.171E+02 0.112E+02 0.781E+03   0.302E+00 -.223E+00 0.688E+00   0.433E-01 -.173E-01 0.375E-01
   -.266E-05 -.569E+02 -.724E+03   0.144E-03 0.559E+02 0.725E+03   0.909E-07 0.137E+01 -.790E+00   0.171E-02 -.106E+00 0.691E-01
   -.168E+02 -.110E+02 -.781E+03   0.171E+02 0.112E+02 0.781E+03   -.302E+00 -.223E+00 0.688E+00   -.505E-01 -.153E-01 0.376E-01
   -.585E-02 0.627E+00 -.795E+03   0.244E+00 -.399E+00 0.794E+03   -.659E-01 -.941E-01 0.702E+00   -.152E+00 -.102E+00 0.178E-01
   0.579E-02 0.627E+00 -.795E+03   -.244E+00 -.399E+00 0.794E+03   0.659E-01 -.941E-01 0.702E+00   0.161E+00 -.103E+00 0.182E-01
   0.138E-04 0.194E+02 -.783E+03   0.193E-03 -.198E+02 0.782E+03   0.265E-07 0.398E+00 0.823E+00   -.578E-02 0.444E-01 0.297E-01
   -.188E-04 0.528E+01 -.254E+04   0.316E-04 -.528E+01 0.254E+04   0.426E-09 0.640E-02 0.259E+00   0.434E-03 -.360E-01 0.239E+00
   0.693E+02 0.131E+03 -.253E+04   -.685E+02 -.131E+03 0.253E+04   -.113E+01 -.125E+01 0.356E+00   0.976E-01 0.567E-01 0.135E+00
   -.693E+02 0.131E+03 -.253E+04   0.685E+02 -.131E+03 0.253E+04   0.113E+01 -.125E+01 0.356E+00   -.979E-01 0.587E-01 0.137E+00
   0.159E+03 0.174E+01 -.251E+04   -.159E+03 -.172E+01 0.251E+04   -.138E+01 -.799E-01 0.865E+00   0.148E+00 0.640E-01 0.142E+00
   -.159E+03 0.174E+01 -.251E+04   0.159E+03 -.172E+01 0.251E+04   0.138E+01 -.799E-01 0.865E+00   -.149E+00 0.655E-01 0.142E+00
   0.663E+02 -.133E+03 -.253E+04   -.656E+02 0.132E+03 0.253E+04   -.958E+00 0.134E+01 0.389E+00   0.544E-02 -.122E+00 0.142E+00
   -.663E+02 -.133E+03 -.253E+04   0.656E+02 0.132E+03 0.253E+04   0.958E+00 0.134E+01 0.389E+00   -.320E-02 -.122E+00 0.141E+00
   0.303E-04 -.530E+01 -.254E+04   0.141E-03 0.532E+01 0.254E+04   -.659E-10 -.990E-03 0.340E+00   -.491E-02 0.188E-01 0.194E+00
   0.228E-03 0.125E+00 -.230E+04   0.120E-03 -.121E+00 0.230E+04   0.797E-11 0.120E-03 -.281E+01   0.526E-02 0.911E-02 0.225E+00
   0.232E+03 0.584E-01 -.178E+04   -.264E+03 -.222E-04 0.180E+04   0.320E+02 -.564E-01 -.173E+02   0.440E-01 0.320E-02 -.255E-02
   -.232E+03 0.584E-01 -.178E+04   0.264E+03 -.234E-04 0.180E+04   -.320E+02 -.564E-01 -.173E+02   -.435E-01 0.332E-02 -.335E-02
   -.193E-03 -.103E+00 0.397E+02   0.568E-13 0.247E-12 0.773E-11   0.606E-08 0.910E-01 -.378E+02   0.104E-01 0.192E-01 -.185E+01

 POSITION                                       TOTAL-FORCE (eV/Angst)
      0.00000      0.00000      5.28038        -0.000000     -0.006733     -0.108248
      2.93784      0.00000      5.28038        -0.016811     -0.004250     -0.007828
      5.87568      0.00000      5.28038         0.016811     -0.004250     -0.007828
      1.46892      2.54424      5.28038        -0.006033     -0.008065     -0.017880
      4.40676      2.54424      5.28038         0.000000      0.000546     -0.033359
      7.34459      2.54424      5.28038         0.006033     -0.008065     -0.017880
      2.93784      5.08848      5.28038         0.002817      0.016599     -0.010175
      5.87568      5.08848      5.28038        -0.002817      0.016599     -0.010175
      8.81351      5.08848      5.28038        -0.000000     -0.002575     -0.024663
      1.46892      0.84808      7.67911        -0.031070     -0.015291      0.009251
      4.40676      0.84808      7.67911        -0.000000     -0.071303     -0.008866
      7.34459      0.84808      7.67911         0.031070     -0.015291      0.009251
      2.93784      3.39232      7.67911        -0.063186      0.041207     -0.013202
      5.87568      3.39232      7.67911         0.063186      0.041207     -0.013202
      8.81351      3.39232      7.67911        -0.000000     -0.011631      0.092873
      4.40676      5.93656      7.67911         0.000000      0.034566      0.012491
      7.34459      5.93656      7.67911        -0.013747      0.001830      0.096266
     10.28243      5.93656      7.67911         0.013747      0.001830      0.096266
      8.81351      1.69571     10.07248        -0.000000     -0.064777      0.038031
      2.94528      1.70046     10.06340        -0.244286     -0.129042     -0.219884
      5.86824      1.70046     10.06340         0.244286     -0.129042     -0.219884
     10.27570      4.24429     10.07162         0.052527     -0.014851      0.057093
      4.40676      4.23182     10.06340         0.000000      0.238039     -0.176705
      7.35132      4.24429     10.07162        -0.052527     -0.014851      0.057093
     11.75174      6.78487     10.07248         0.015845      0.030938      0.024668
      5.87529      6.78487     10.07248        -0.015845      0.030938      0.024668
      8.81351      6.77688     10.07162         0.000000      0.048666      0.063641
      0.00000      0.00000     12.49858        -0.000000     -0.022514     -0.066740
      2.96552      0.04535     12.55994        -0.222568     -0.412369     -0.285028
      5.84799      0.04535     12.55994         0.222568     -0.412369     -0.285028
      1.52204      2.54555     12.55994        -0.767834      0.004776     -0.489856
      7.29148      2.54555     12.55994         0.767834      0.004776     -0.489856
      2.96327      5.04183     12.55994        -0.231903      0.388971     -0.292106
      5.85025      5.04183     12.55994         0.231903      0.388971     -0.292106
      8.81351      5.08848     12.50663         0.000000      0.033718      0.001829
      4.40676      2.54424     12.37417         0.000000      0.012981      2.476409
      3.68046      2.54477     14.27644         0.021428      0.005055      0.015334
      5.13305      2.54477     14.27644        -0.021428      0.005055      0.015334
    total drift:                                0.010214      0.007455      0.103857

  FREE ENERGIE OF THE ION-ELECTRON SYSTEM (eV)
  free  energy   TOTEN  =      -128.43596148 eV

  energy  without entropy=     -128.43596148  energy(sigma->0) =     -128.43596148

 stress matrix after NEB project (eV)
    -15.06789     -0.00000     -0.00000
     -0.00000    -16.12492     -0.02748
     -0.00000     -0.02748      1.69764
  FORCES: max atom, RMS     0.026830    0.006155
  FORCE total and by dimension    0.037943    0.021428
  Stress total and by dimension   22.134543   16.124923
|           W    W    AA    RRRRR   N    N  II  N    N   GGGG   !!!           |
|           W    W   A  A   R    R  NN   N  II  NN   N  G    G  !!!           |
|           W    W  A    A  R    R  N N  N  II  N N  N  G       !!!           |
|           W WW W  AAAAAA  RRRRR   N  N N  II  N  N N  G  GGG   !            |
|           WW  WW  A    A  R   R   N   NN  II  N   NN  G    G                |
|           W    W  A    A  R    R  N    N  II  N    N   GGGG   !!!           |
|     Tetrahedron method does not include variations of the Fermi             |
|     occupations, so forces and stress will be inaccurate. We suggest        |
|     using a different smearing scheme ISMEAR = 1 or 2 for metals in         |
|     relaxations.                                                            |

 total charge

# of ion       s       p       d       tot
    1        0.547   0.239   8.765   9.551
    2        0.542   0.241   8.764   9.547
    3        0.542   0.241   8.764   9.547
    4        0.542   0.241   8.766   9.549
    5        0.541   0.240   8.764   9.545
    6        0.542   0.241   8.766   9.549
    7        0.542   0.241   8.765   9.548
    8        0.542   0.241   8.765   9.548
    9        0.541   0.240   8.767   9.548
   10        0.521   0.306   8.775   9.602
   11        0.517   0.308   8.776   9.601
   12        0.521   0.306   8.775   9.602
   13        0.518   0.307   8.777   9.602
   14        0.518   0.307   8.777   9.602
   15        0.516   0.309   8.772   9.596
   16        0.524   0.306   8.773   9.603
   17        0.516   0.309   8.772   9.597
   18        0.516   0.309   8.772   9.597
   19        0.516   0.297   8.775   9.588
   20        0.559   0.328   8.746   9.634
   21        0.559   0.328   8.746   9.634
   22        0.512   0.304   8.771   9.587
   23        0.562   0.327   8.746   9.635
   24        0.512   0.304   8.771   9.587
   25        0.521   0.296   8.774   9.590
   26        0.521   0.296   8.774   9.590
   27        0.511   0.304   8.773   9.587
   28        0.544   0.232   8.756   9.533
   29        0.581   0.237   8.752   9.570
   30        0.581   0.237   8.752   9.570
   31        0.580   0.228   8.765   9.573
   32        0.580   0.228   8.765   9.573
   33        0.580   0.237   8.753   9.570
   34        0.580   0.237   8.753   9.570
   35        0.541   0.233   8.756   9.530
   36        2.196   6.019   1.586   9.801
   37        1.613   3.258   0.000   4.871
   38        1.613   3.258   0.000   4.871
tot         24.306  22.123 308.370 354.799

 BZINTS: Fermi energy:    0.186371;  409.000000 electrons
         Band energy:-0.175586E+04;  BLOECHL correction:   -0.076050