 vasp.6.2.0 18Jan21 (build Jun 12 2021 23:27:24) complex

 executed on             LinuxIFC date 2022.05.30  17:41:07

 INCAR:
   ISMEAR = -5
   SIGMA = 0.1
   ISPIN = 1
   EDIFF = 1.d-5
   EDIFFG = -0.01
   NSW = 0
   NELM = 150
   ENCUT = 500
   ISIF = 2
   IBRION = 2
   LREAL = Auto
   ALGO = Fast
   ICHARG = 11
   LORBIT = 10
   LCHARG = .F.
   LWAVE = .F.

 POTCAR:    PAW_PBE Ag 02Apr2005
 POTCAR:    PAW_PBE Os 17Jan2003
 POTCAR:    PAW_PBE C 08Apr2002
 POTCAR:    PAW_PBE O 08Apr2002
 POTCAR:    PAW_PBE H 15Jun2001
|           W    W    AA    RRRRR   N    N  II  N    N   GGGG   !!!           |
|           W    W   A  A   R    R  NN   N  II  NN   N  G    G  !!!           |
|           W    W  A    A  R    R  N N  N  II  N N  N  G       !!!           |
|           W WW W  AAAAAA  RRRRR   N  N N  II  N  N N  G  GGG   !            |
|           WW  WW  A    A  R   R   N   NN  II  N   NN  G    G                |
|           W    W  A    A  R    R  N    N  II  N    N   GGGG   !!!           |
|     For optimal performance we recommend to set                             |
|       NCORE = 2 up to number-of-cores-per-socket                            |
|     This setting can greatly improve the performance of VASP for DFT.       |
|     The default, NCORE=1 might be grossly inefficient on modern             |
|     multi-core architectures or massively parallel machines. Do your        |
|     Unfortunately you need to use the default for GW and RPA                |
|     calculations (for HF NCORE is supported but not extensively tested      |
|     yet).                                                                   |

 POTCAR:    PAW_PBE Ag 02Apr2005
   VRHFIN =Ag : s1 d10

   TITEL  = PAW_PBE Ag 02Apr2005
   POMASS =  107.868; ZVAL   =   11.000    mass and valenz
   ENMAX  =  249.844; ENMIN  =  187.383 eV

 POTCAR:    PAW_PBE Os 17Jan2003
   VRHFIN =Os: 6s5d

   TITEL  = PAW_PBE Os 17Jan2003
   POMASS =  190.200; ZVAL   =    8.000    mass and valenz
   ENMAX  =  228.022; ENMIN  =  171.017 eV

 POTCAR:    PAW_PBE C 08Apr2002
   VRHFIN =C: s2p2

[...]

 POTCAR:    PAW_PBE O 08Apr2002
   VRHFIN =O: s2p4

   TITEL  = PAW_PBE O 08Apr2002
   POMASS =   16.000; ZVAL   =    6.000    mass and valenz
   ENMAX  =  400.000; ENMIN  =  300.000 eV

 POTCAR:    PAW_PBE H 15Jun2001
   VRHFIN =H: ultrasoft test

   TITEL  = PAW_PBE H 15Jun2001
   POMASS =    1.000; ZVAL   =    1.000    mass and valenz
   ENMAX  =  250.000; ENMIN  =  200.000 eV

 Optimization of the real space projectors (new method)

 maximal supplied QI-value         = 15.12
 optimisation between [QCUT,QGAM] = [ 11.34, 22.83] = [ 36.00,145.93] Ry
 Optimized for a Real-space Cutoff    1.43 Angstroem

   l    n(q)    QCUT    max X(q) W(low)/X(q) W(high)/X(q)  e(spline)
   2      9    11.338    53.897    0.16E-03    0.20E-03    0.28E-06
   2      9    11.338    52.416    0.16E-03    0.20E-03    0.29E-06
   0     10    11.338   122.045    0.31E-04    0.76E-04    0.15E-06
   0     10    11.338    73.629    0.30E-04    0.72E-04    0.15E-06
   1      9    11.338    15.255    0.20E-03    0.19E-04    0.17E-06
   1      9    11.338     9.562    0.16E-03    0.15E-04    0.14E-06
 Optimization of the real space projectors (new method)

[...]

   l    n(q)    QCUT    max X(q) W(low)/X(q) W(high)/X(q)  e(spline)
   0      7    11.387    20.381    0.39E-03    0.13E-02    0.15E-06
   0      7    11.387    15.268    0.42E-03    0.14E-02    0.17E-06
   1      6    11.387     5.964    0.41E-03    0.11E-02    0.17E-06
   1      6    11.387     5.382    0.39E-03    0.87E-03    0.15E-06
 Optimization of the real space projectors (new method)

 maximal supplied QI-value         = 34.20
 optimisation between [QCUT,QGAM] = [ 11.29, 22.57] = [ 35.68,142.71] Ry
 Optimized for a Real-space Cutoff    1.16 Angstroem

   l    n(q)    QCUT    max X(q) W(low)/X(q) W(high)/X(q)  e(spline)
   0      8    11.287    19.460    0.40E-03    0.73E-03    0.16E-06
   0      8    11.287    12.209    0.38E-03    0.70E-03    0.15E-06
   1      7    11.287     4.655    0.22E-03    0.25E-04    0.22E-06
  PAW_PBE Ag 02Apr2005                  :
  PAW_PBE Os 17Jan2003                  :
  PAW_PBE C 08Apr2002                   :
  PAW_PBE O 08Apr2002                   :
  PAW_PBE H 15Jun2001                   :

 POSCAR: Ag-Os-COH
  positions in direct lattice
  velocities in cartesian coordinates
 exchange correlation table for  LEXCH =        8
   RHO(1)=    0.500       N(1)  =     2000
   RHO(2)=  100.500       N(2)  =     4000

 VTST: version 3.2, (02/03/18)

 CHAIN: initializing optimizer

 OPT: Using VASP Conjugate-Gradient optimizer
 CHAIN: Read ICHAIN            0

 POSCAR: Ag-Os-COH
  positions in direct lattice
  velocities in cartesian coordinates

 ion  position               nearest neighbor table
   1  0.000  0.000  0.199-   2 2.93   8 2.93   7 2.93   6 2.93   4 2.93  12 2.93  16 2.93  10 2.93
                             3 2.93
   2  0.333  0.000  0.199-   1 2.93   8 2.93   9 2.93   3 2.93   4 2.93   5 2.93  10 2.93  17 2.93
                            11 2.93
   3  0.667  0.000  0.199-   9 2.93   2 2.93   5 2.93  11 2.93   7 2.93  18 2.93   1 2.93   6 2.93
                            12 2.93
   4  0.000  0.333  0.199-   5 2.93   6 2.93   2 2.93   1 2.93   7 2.93  13 2.93  15 2.93   9 2.93
                            10 2.93
   5  0.333  0.333  0.199-   4 2.93   3 2.93   7 2.93   2 2.93   8 2.93  14 2.93  13 2.93  11 2.93
                             6 2.93
   6  0.667  0.333  0.199-   4 2.93   9 2.93   1 2.93  15 2.93   8 2.93  12 2.93   3 2.93   5 2.93
                            14 2.93
   7  0.000  0.667  0.199-   8 2.93   1 2.93   5 2.93   3 2.93   4 2.93  16 2.93  18 2.93  13 2.93
                             9 2.93
   8  0.333  0.667  0.199-   7 2.93   1 2.93   2 2.93   9 2.93   5 2.93  16 2.93   6 2.93  17 2.93
                            14 2.93
   9  0.667  0.667  0.199-   3 2.93   2 2.93   8 2.93   6 2.93  17 2.93   4 2.93  15 2.93   7 2.93
                            18 2.93
  10  0.111  0.111  0.289-  20 2.89  12 2.93  16 2.93  15 2.93  17 2.93  13 2.93  11 2.93   2 2.93
                             1 2.93   4 2.93  19 2.93  26 2.93
  11  0.444  0.111  0.289-  21 2.89  20 2.89  27 2.92  14 2.93  17 2.93  18 2.93   3 2.93  12 2.93
                            13 2.93  10 2.93   5 2.93   2 2.93
  12  0.778  0.111  0.289-  21 2.89  10 2.93  16 2.93  18 2.93  15 2.93  11 2.93   1 2.93  14 2.93
                             6 2.93   3 2.93  25 2.93  19 2.93
  13  0.111  0.444  0.289-  20 2.89  23 2.89  22 2.92  15 2.93  14 2.93  18 2.93  10 2.93  11 2.93
                            16 2.93   4 2.93   5 2.93   7 2.93
  14  0.444  0.444  0.289-  23 2.89  21 2.89  24 2.92  13 2.93  11 2.93  16 2.93   5 2.93  12 2.93
                            17 2.93   8 2.93  15 2.93   6 2.93
  15  0.778  0.444  0.289-  24 2.92  22 2.92  19 2.93  13 2.93  10 2.93  12 2.93  17 2.93  18 2.93
                             4 2.93   6 2.93   9 2.93  14 2.93
  16  0.111  0.778  0.289-  23 2.89  18 2.93  12 2.93  10 2.93  14 2.93  17 2.93  13 2.93   7 2.93
                             8 2.93   1 2.93  26 2.93  25 2.93
  17  0.444  0.778  0.289-  27 2.92  24 2.92  26 2.93  11 2.93  10 2.93   9 2.93  18 2.93  15 2.93
                            16 2.93   2 2.93  14 2.93   8 2.93
  18  0.778  0.778  0.289-  22 2.92  27 2.92  25 2.93  16 2.93  12 2.93  13 2.93  11 2.93  17 2.93
                            15 2.93   7 2.93   3 2.93   9 2.93
  19  0.888  0.223  0.379-  28 2.90  24 2.93  22 2.93  15 2.93  20 2.93  21 2.93  10 2.93  12 2.93
                            26 2.94  25 2.94  32 2.95  31 2.95
  20  0.222  0.222  0.377-  36 2.76  13 2.89  11 2.89  10 2.89  31 2.93  29 2.93  21 2.93  23 2.93
                            19 2.93  26 2.93  27 2.94  22 2.94
  21  0.556  0.222  0.377-  36 2.76  11 2.89  14 2.89  12 2.89  30 2.93  32 2.93  20 2.93  23 2.93
                            25 2.93  19 2.93  27 2.94  24 2.94
  22  0.888  0.556  0.378-  35 2.90  18 2.92  15 2.92  24 2.92  27 2.92  13 2.92  25 2.93  19 2.93
                            33 2.94  31 2.94  23 2.94  20 2.94
  23  0.222  0.556  0.377-  36 2.76  14 2.89  13 2.89  16 2.89  34 2.93  33 2.93  21 2.93  20 2.93
                            26 2.93  25 2.93  22 2.94  24 2.94
  24  0.556  0.556  0.378-  35 2.90  15 2.92  17 2.92  27 2.92  22 2.92  14 2.92  19 2.93  26 2.93
                            32 2.94  34 2.94  23 2.94  21 2.94
  25  0.888  0.888  0.379-  28 2.90  22 2.93  27 2.93  18 2.93  23 2.93  21 2.93  16 2.93  12 2.93
                            26 2.94  19 2.94  33 2.95  30 2.95
  26  0.223  0.888  0.379-  28 2.90  27 2.93  24 2.93  17 2.93  23 2.93  20 2.93  16 2.93  10 2.93
                            25 2.94  19 2.94  34 2.95  29 2.95
  27  0.556  0.888  0.378-  35 2.90  17 2.92  18 2.92  24 2.92  22 2.92  11 2.92  26 2.93  25 2.93
                            29 2.94  30 2.94  20 2.94  21 2.94
  28  0.000  0.000  0.468-  26 2.90  25 2.90  19 2.90  29 2.96  34 2.96  33 2.96  32 2.96  31 2.96
                            30 2.96
  29  0.333  0.008  0.468-  31 2.86  30 2.87  36 2.88  20 2.93  27 2.94  26 2.95  28 2.96  35 2.97
                            34 3.06
  30  0.659  0.008  0.468-  32 2.86  29 2.87  36 2.88  21 2.93  27 2.94  25 2.95  28 2.96  35 2.97
                            33 3.06
  31  0.008  0.333  0.468-  29 2.86  33 2.87  36 2.88  20 2.93  22 2.94  19 2.95  28 2.96  35 2.97
                            32 3.06
  32  0.659  0.333  0.468-  30 2.86  34 2.87  36 2.88  21 2.93  24 2.94  19 2.95  28 2.96  35 2.97
                            31 3.06
  33  0.008  0.659  0.468-  34 2.86  31 2.87  36 2.88  23 2.93  22 2.94  25 2.95  28 2.96  35 2.97
                            30 3.06
  34  0.333  0.659  0.468-  33 2.86  32 2.87  36 2.88  23 2.93  24 2.94  26 2.95  28 2.96  35 2.97
                            29 3.06
  35  0.667  0.667  0.467-  24 2.90  27 2.90  22 2.90  30 2.97  32 2.97  29 2.97  34 2.97  31 2.97
                            33 2.97
  36  0.333  0.333  0.459-  37 1.77  21 2.76  20 2.76  23 2.76  31 2.88  30 2.88  33 2.88  29 2.88
                            34 2.88  32 2.88
  37  0.333  0.333  0.526-  38 1.26  36 1.77
  38  0.333  0.333  0.573-  39 0.96  37 1.26
  39  0.333  0.333  0.609-  38 0.96

  LATTYP: Found a hexagonal cell.
 ALAT       =     8.7913665772
 C/A-ratio  =     3.0233954145

  Lattice vectors:

 A1 = (  -4.3956832886,  -7.6135467898,   0.0000000000)
 A2 = (   8.7913665771,   0.0000000000,   0.0000000000)
 A3 = (   0.0000000000,   0.0000000000,  26.5797773968)

Analysis of symmetry for initial positions (statically):
 Subroutine PRICEL returns:
 Original cell was already a primitive cell.

 Routine SETGRP: Setting up the symmetry group for a
 hexagonal supercell.

 Subroutine GETGRP returns: Found  6 space group operations
 (whereof  6 operations were pure point group operations)
 out of a pool of 24 trial point group operations.

The static configuration has the point symmetry C_3v.

Analysis of symmetry for dynamics (positions and initial velocities):
 Subroutine PRICEL returns:
 Original cell was already a primitive cell.

[...]

[...]
     41      -4.6896      2.00000
     42      -4.6686      2.00000
     43      -4.6388      2.00000
     44      -4.6304      2.00000
     45      -4.6221      2.00000
     46      -4.6041      2.00000
     47      -4.5989      2.00000
     48      -4.5123      2.00000
     49      -4.4840      2.00000
     50      -4.4720      2.00000
     51      -4.4688      2.00000
     52      -4.4623      2.00000
     53      -4.4592      2.00000
     54      -4.4459      2.00000
     55      -4.4389      2.00000
     56      -4.4324      2.00000
     57      -4.4258      2.00000
     58      -4.3538      2.00000
     59      -4.3439      2.00000
     60      -4.3385      2.00000
[...]
    238       5.3223      0.00000
    239       5.3915      0.00000
    240       5.4757      0.00000
    241       5.5711      0.00000
    242       5.7512      0.00000
    243       5.7942      0.00000
    244       5.8058      0.00000
    245       5.8176      0.00000
    246       5.8868      0.00000
    247       5.9034      0.00000
    248       5.9385      0.00000
    249       6.0841      0.00000
    250       6.1505      0.00000
    251       6.6065      0.00000
    252       6.8626      0.00000

 soft charge-density along one line, spin component           1
         0         1         2         3         4         5         6         7         8         9
 total charge-density along one line

------------------------ aborting loop because EDIFF is reached ----------------------------------------

 total charge

# of ion       s       p       d       tot
    1        0.418   0.202   9.178   9.798
    2        0.419   0.204   9.176   9.799
    3        0.419   0.204   9.176   9.799
    4        0.419   0.204   9.176   9.799
    5        0.420   0.204   9.175   9.800
    6        0.419   0.204   9.176   9.799
    7        0.419   0.204   9.176   9.799
    8        0.419   0.204   9.176   9.799
    9        0.413   0.205   9.178   9.795
   10        0.407   0.268   9.164   9.839
   11        0.408   0.269   9.167   9.845
   12        0.407   0.268   9.164   9.839
   13        0.408   0.269   9.167   9.845
   14        0.408   0.269   9.167   9.845
   15        0.400   0.271   9.165   9.836
   16        0.407   0.268   9.164   9.839
   17        0.400   0.271   9.165   9.836
   18        0.400   0.271   9.165   9.836
   19        0.404   0.264   9.166   9.835
   20        0.434   0.301   9.146   9.881
   21        0.434   0.301   9.146   9.881
   22        0.393   0.276   9.166   9.835
   23        0.434   0.301   9.146   9.881
   24        0.393   0.276   9.166   9.835
   25        0.404   0.264   9.166   9.835
   26        0.404   0.264   9.166   9.835
   27        0.393   0.276   9.166   9.835
   28        0.418   0.195   9.182   9.795
   29        0.409   0.224   9.173   9.806
   30        0.409   0.224   9.173   9.806
   31        0.409   0.224   9.173   9.806
   32        0.409   0.224   9.173   9.806
   33        0.409   0.224   9.173   9.806
   34        0.409   0.224   9.173   9.806
   35        0.413   0.197   9.182   9.792
   36        0.618   0.584   6.187   7.389
   37        0.914   1.488   0.000   2.401
   38        1.522   3.768   0.000   5.290
   39        0.561   0.135   0.000   0.696
tot         18.005  14.492 327.105 359.602

  FORCE on cell =-STRESS in cart. coord.  units (eV):
  Direction    XX          YY          ZZ          XY          YZ          ZX
  Alpha Z   655.77797   655.77797   655.77797
  Ewald  186681.03056186681.03062************     0.00004    -0.00000     0.00005
  Hartree196861.35396196861.35398************     0.00002     0.00000     0.00002
  E(xc)   -2114.30428 -2114.30445 -2118.11703     0.00015    -0.00001    -0.00002
  Local  ************************394541.28450     0.00062    -0.00007    -0.00020
  n-local  -381.82428  -364.10690  -373.45992    11.04284    -0.38385     0.50980
  augment  3246.01927  3246.01942  3247.96570    -0.00013    -0.00001     0.00005
  Kinetic  5108.55089  5113.36339  5050.50983     5.61265     0.88351    -0.36868
  Fock        0.00000     0.00000     0.00000     0.00000     0.00000     0.00000
  Total      -6.48867    -6.48867     0.72909    -0.00000     0.00000    -0.00000
  in kB      -5.84348    -5.84348     0.65659    -0.00000     0.00000    -0.00000

 VOLUME and BASIS-vectors are now :
  energy-cutoff  :      500.00
  volume of cell :     1779.08
      direct lattice vectors                 reciprocal lattice vectors
     8.791366577  0.000000000  0.000000000     0.113747958 -0.065672414  0.000000000
     4.395683289  7.613546790  0.000000000     0.000000000  0.131344829  0.000000000
     0.000000000  0.000000000 26.579777397     0.000000000  0.000000000  0.037622587

  length of vectors
     8.791366577  8.791366577 26.579777397     0.131344829  0.131344829  0.037622587

 FORCES acting on ions
    electron-ion (+dipol)            ewald-force                    non-local-force                 convergence-correction
   0.455E-04 -.285E-04 0.285E+04   -.954E-04 0.593E-04 -.284E+04   0.405E-17 -.275E-17 -.234E+01   -.126E-03 -.180E-03 -.368E+00
   0.568E+00 0.580E+00 0.285E+04   -.581E+00 -.589E+00 -.285E+04   0.374E-01 0.878E-01 -.161E+01   -.138E-01 -.578E-01 -.354E+00
   -.568E+00 0.580E+00 0.285E+04   0.581E+00 -.589E+00 -.285E+04   -.374E-01 0.878E-01 -.161E+01   0.132E-01 -.558E-01 -.353E+00
   0.786E+00 0.202E+00 0.285E+04   -.800E+00 -.208E+00 -.285E+04   0.948E-01 -.115E-01 -.161E+01   -.568E-01 0.172E-01 -.354E+00
   -.405E-05 -.179E-04 0.285E+04   0.980E-04 -.197E-05 -.285E+04   -.178E-17 -.154E-17 -.137E+01   0.630E-02 0.385E-02 -.289E+00
   -.786E+00 0.202E+00 0.285E+04   0.800E+00 -.209E+00 -.285E+04   -.948E-01 -.115E-01 -.161E+01   0.553E-01 0.181E-01 -.353E+00
   0.218E+00 -.782E+00 0.285E+04   -.219E+00 0.797E+00 -.285E+04   0.573E-01 -.763E-01 -.161E+01   -.413E-01 0.399E-01 -.353E+00
   -.218E+00 -.782E+00 0.285E+04   0.219E+00 0.797E+00 -.285E+04   -.573E-01 -.763E-01 -.161E+01   0.430E-01 0.389E-01 -.353E+00
   0.371E-04 -.124E-04 0.285E+04   0.792E-04 -.643E-04 -.285E+04   -.656E-18 -.468E-18 -.204E+01   -.670E-02 -.346E-02 -.377E+00
   0.691E+01 0.399E+01 0.992E+03   -.643E+01 -.371E+01 -.991E+03   -.474E+00 -.274E+00 -.833E+00   -.936E-02 -.538E-02 -.256E-01
   -.289E-04 0.598E+01 0.100E+04   0.410E-04 -.611E+01 -.999E+03   0.745E-12 0.113E+00 -.432E+00   0.644E-02 -.396E-01 -.335E-01
   -.691E+01 0.399E+01 0.992E+03   0.643E+01 -.371E+01 -.991E+03   0.474E+00 -.274E+00 -.833E+00   0.760E-02 -.389E-02 -.250E-01
   0.518E+01 -.299E+01 0.100E+04   -.529E+01 0.305E+01 -.999E+03   0.983E-01 -.567E-01 -.432E+00   -.312E-01 0.254E-01 -.335E-01
   -.518E+01 -.299E+01 0.100E+04   0.529E+01 0.305E+01 -.999E+03   -.983E-01 -.567E-01 -.432E+00   0.423E-01 0.246E-01 -.334E-01
   0.159E-04 0.165E+01 0.993E+03   -.109E-03 -.172E+01 -.992E+03   0.759E-14 0.116E-02 -.793E+00   -.195E-02 0.371E-01 -.571E-01
   -.730E-05 -.797E+01 0.992E+03   0.205E-04 0.742E+01 -.991E+03   0.359E-11 0.547E+00 -.833E+00   0.387E-03 0.846E-02 -.250E-01
   0.143E+01 -.826E+00 0.993E+03   -.149E+01 0.858E+00 -.992E+03   0.100E-02 -.578E-03 -.793E+00   0.311E-01 -.202E-01 -.570E-01
   -.143E+01 -.826E+00 0.993E+03   0.149E+01 0.858E+00 -.992E+03   -.100E-02 -.578E-03 -.793E+00   -.312E-01 -.180E-01 -.566E-01
   0.388E-04 0.264E+01 -.897E+03   -.129E-03 -.244E+01 0.897E+03   -.612E-12 -.932E-01 0.641E+00   -.616E-02 -.978E-01 -.373E-01
   0.135E+02 0.781E+01 -.849E+03   -.123E+02 -.709E+01 0.850E+03   -.130E+01 -.748E+00 -.127E+01   -.613E-01 -.354E-01 -.867E-01
   -.135E+02 0.781E+01 -.849E+03   0.123E+02 -.709E+01 0.850E+03   0.130E+01 -.748E+00 -.127E+01   0.628E-01 -.340E-01 -.867E-01
   0.356E+01 -.206E+01 -.882E+03   -.383E+01 0.221E+01 0.882E+03   0.349E+00 -.201E+00 0.620E+00   -.421E-01 0.194E-01 -.682E-01
   -.547E-04 -.156E+02 -.849E+03   0.433E-04 0.142E+02 0.850E+03   0.983E-11 0.150E+01 -.127E+01   0.231E-02 0.720E-01 -.866E-01
   -.356E+01 -.205E+01 -.882E+03   0.383E+01 0.221E+01 0.882E+03   -.349E+00 -.201E+00 0.620E+00   0.314E-01 0.182E-01 -.686E-01
   -.229E+01 -.132E+01 -.897E+03   0.211E+01 0.122E+01 0.897E+03   0.807E-01 0.466E-01 0.641E+00   0.787E-01 0.453E-01 -.381E-01
   0.229E+01 -.132E+01 -.897E+03   -.211E+01 0.122E+01 0.897E+03   -.807E-01 0.466E-01 0.641E+00   -.881E-01 0.434E-01 -.373E-01
   0.201E-04 0.411E+01 -.882E+03   0.110E-03 -.442E+01 0.882E+03   0.264E-11 0.403E+00 0.620E+00   -.488E-02 -.462E-01 -.682E-01
   0.533E-04 -.367E-04 -.274E+04   -.115E-03 0.782E-04 0.274E+04   0.209E-16 -.577E-18 0.189E+01   0.113E-02 0.514E-03 0.303E+00
   0.303E+02 0.538E+02 -.272E+04   -.296E+02 -.531E+02 0.272E+04   -.646E+00 -.905E+00 0.200E+01   -.680E-01 -.512E-01 0.265E+00
   -.303E+02 0.538E+02 -.272E+04   0.296E+02 -.531E+02 0.272E+04   0.646E+00 -.905E+00 0.200E+01   0.575E-01 -.492E-01 0.265E+00
   0.617E+02 -.698E+00 -.272E+04   -.608E+02 0.855E+00 0.272E+04   -.111E+01 -.107E+00 0.200E+01   -.781E-01 -.331E-01 0.265E+00
   -.617E+02 -.698E+00 -.272E+04   0.608E+02 0.855E+00 0.272E+04   0.111E+01 -.107E+00 0.200E+01   0.664E-01 -.323E-01 0.264E+00
   0.315E+02 -.531E+02 -.272E+04   -.311E+02 0.522E+02 0.272E+04   -.461E+00 0.101E+01 0.200E+01   -.134E-01 0.749E-01 0.265E+00
   -.315E+02 -.531E+02 -.272E+04   0.311E+02 0.522E+02 0.272E+04   0.461E+00 0.101E+01 0.200E+01   0.481E-02 0.737E-01 0.264E+00
   0.217E-04 -.111E-04 -.274E+04   0.106E-03 -.662E-04 0.274E+04   0.726E-18 0.567E-18 0.204E+01   -.553E-02 -.277E-02 0.319E+00
   -.289E-05 -.152E-04 -.172E+04   0.774E-04 0.978E-05 0.172E+04   0.152E-17 -.199E-17 0.412E+00   0.279E-02 0.166E-02 0.133E+00
   0.863E-06 -.763E-04 -.106E+04   0.191E-04 0.270E-06 0.105E+04   0.344E-18 0.250E-18 0.181E+02   0.143E-02 0.865E-03 0.114E+00
   0.240E-03 -.908E-04 -.175E+04   0.936E-05 0.122E-07 0.176E+04   -.324E-18 0.117E-18 -.566E+01   0.394E-02 0.241E-02 0.662E-01
   0.653E-05 -.142E-04 -.335E+03   0.634E-06 -.304E-08 0.343E+03   0.273E-20 -.813E-20 -.859E+01   0.207E-03 0.127E-03 0.669E-02
   0.630E-03 -.863E-03 0.301E+01   -.648E-13 -.271E-12 -.165E-11   0.227E-17 -.106E-17 -.143E+01   -.407E-01 -.201E-01 -.155E+01

 POSITION                                       TOTAL-FORCE (eV/Angst)
      0.00000      0.00000      5.28219         0.000000      0.000000      0.016411
      2.93046      0.00000      5.28219         0.011674      0.022202      0.053224
      5.86091      0.00000      5.28219        -0.011674      0.022202      0.053224
      1.46523      2.53785      5.28219         0.025064     -0.000991      0.053224
      4.39568      2.53785      5.28219         0.000000      0.000000      0.028091
      7.32614      2.53785      5.28219        -0.025064     -0.000991      0.053224
      2.93046      5.07570      5.28219         0.013391     -0.021211      0.053224
      5.86091      5.07570      5.28219        -0.013391     -0.021211      0.053224
      8.79137      5.07570      5.28219         0.000000      0.000000      0.051121
      1.46523      0.84595      7.67490        -0.003421     -0.001975     -0.007789
      4.39568      0.84595      7.67490        -0.000000     -0.056108     -0.098626
      7.32614      0.84595      7.67490         0.003421     -0.001975     -0.007789
      2.93046      3.38380      7.67490        -0.048591      0.028054     -0.098626
      5.86091      3.38380      7.67490         0.048591      0.028054     -0.098626
      8.79137      3.38380      7.67490        -0.000000     -0.027101      0.009630
      4.39568      5.92165      7.67490         0.000000      0.003951     -0.007789
      7.32614      5.92165      7.67490        -0.023470      0.013550      0.009630
     10.25659      5.92165      7.67490         0.023470      0.013550      0.009630
      8.79137      1.69824     10.07044         0.000000      0.014791      0.014771
      2.93075      1.69207     10.02201        -0.119630     -0.069068     -0.245355
      5.86061      1.69207     10.02201         0.119630     -0.069068     -0.245355
     10.25044      4.23330     10.05478         0.045102     -0.026039      0.004778
      4.39568      4.22940     10.02201         0.000000      0.138136     -0.245355
      7.33230      4.23330     10.05478        -0.045102     -0.026039      0.004778
     11.71633      6.76443     10.07044        -0.012810     -0.007396      0.014771
      5.86640      6.76443     10.07044         0.012810     -0.007396      0.014771
      8.79137      6.76048     10.05478         0.000000      0.052079      0.004778
      0.00000      0.00000     12.42728         0.000000      0.000000      0.005570
      2.96092      0.05748     12.44843        -0.096487     -0.206646     -0.114188
      5.83045      0.05748     12.44843         0.096487     -0.206646     -0.114188
      1.53024      2.53549     12.44843        -0.227204      0.019763     -0.114188
      7.26113      2.53549     12.44843         0.227204      0.019763     -0.114188
      2.96500      5.02058     12.44843        -0.130718      0.186883     -0.114188
      5.82636      5.02058     12.44843         0.130718      0.186883     -0.114188
      8.79137      5.07570     12.42122         0.000000      0.000000     -0.001899
      4.39568      2.53785     12.20312         0.000000      0.000000      1.248741
      4.39568      2.53785     13.97050         0.000000      0.000000     -0.000799
      4.39568      2.53785     15.23268         0.000000      0.000000     -0.002901
      4.39568      2.53785     16.19165         0.000000      0.000000     -0.010782
    total drift:                               -0.040117     -0.021001      0.034719

  FREE ENERGIE OF THE ION-ELECTRON SYSTEM (eV)
  free  energy   TOTEN  =      -116.10311533 eV

  energy  without entropy=     -116.10311533  energy(sigma->0) =     -116.10311533

 stress matrix after NEB project (eV)
     -6.48867     -0.00000     -0.00000
     -0.00000     -6.48867      0.00000
     -0.00000      0.00000      0.72909
  FORCES: max atom, RMS     0.010782    0.001792
  FORCE total and by dimension    0.011194    0.010782
  Stress total and by dimension    9.205288    6.488673
|           W    W    AA    RRRRR   N    N  II  N    N   GGGG   !!!           |
|           W    W   A  A   R    R  NN   N  II  NN   N  G    G  !!!           |
|           W    W  A    A  R    R  N N  N  II  N N  N  G       !!!           |
|           W WW W  AAAAAA  RRRRR   N  N N  II  N  N N  G  GGG   !            |
|           WW  WW  A    A  R   R   N   NN  II  N   NN  G    G                |
|           W    W  A    A  R    R  N    N  II  N    N   GGGG   !!!           |
|     Tetrahedron method does not include variations of the Fermi             |
|     occupations, so forces and stress will be inaccurate. We suggest        |
|     using a different smearing scheme ISMEAR = 1 or 2 for metals in         |
|     relaxations.                                                            |

 total charge

# of ion       s       p       d       tot
    1        0.418   0.202   9.178   9.798
    2        0.419   0.204   9.176   9.799
    3        0.419   0.204   9.176   9.799
    4        0.419   0.204   9.176   9.799
    5        0.420   0.204   9.175   9.800
    6        0.419   0.204   9.176   9.799
    7        0.419   0.204   9.176   9.799
    8        0.419   0.204   9.176   9.799
    9        0.413   0.205   9.178   9.795
   10        0.407   0.268   9.164   9.839
   11        0.408   0.269   9.167   9.845
   12        0.407   0.268   9.164   9.839
   13        0.408   0.269   9.167   9.845
   14        0.408   0.269   9.167   9.845
   15        0.400   0.271   9.165   9.836
   16        0.407   0.268   9.164   9.839
   17        0.400   0.271   9.165   9.836
   18        0.400   0.271   9.165   9.836
   19        0.404   0.264   9.166   9.835
   20        0.434   0.301   9.146   9.881
   21        0.434   0.301   9.146   9.881
   22        0.393   0.276   9.166   9.835
   23        0.434   0.301   9.146   9.881
   24        0.393   0.276   9.166   9.835
   25        0.404   0.264   9.166   9.835
   26        0.404   0.264   9.166   9.835
   27        0.393   0.276   9.166   9.835
   28        0.418   0.195   9.182   9.795
   29        0.409   0.224   9.173   9.806
   30        0.409   0.224   9.173   9.806
   31        0.409   0.224   9.173   9.806
   32        0.409   0.224   9.173   9.806
   33        0.409   0.224   9.173   9.806
   34        0.409   0.224   9.173   9.806
   35        0.413   0.197   9.182   9.792
   36        0.618   0.584   6.187   7.389
   37        0.914   1.488   0.000   2.401
   38        1.522   3.768   0.000   5.290
   39        0.561   0.135   0.000   0.696
tot         18.005  14.492 327.105 359.602

 BZINTS: Fermi energy:    0.524313;  404.000000 electrons
         Band energy:-0.151099E+04;  BLOECHL correction:   -0.049059