 vasp.6.2.0 18Jan21 (build Jun 12 2021 23:27:24) complex

 executed on             LinuxIFC date 2022.05.27  06:05:40

 INCAR:
   ISMEAR = -5
   SIGMA = 0.1
   ISPIN = 1
   EDIFF = 1.d-5
   EDIFFG = -0.01
   NSW = 0
   NELM = 150
   ENCUT = 500
   ISIF = 2
   IBRION = 2
   LREAL = Auto
   ALGO = Fast
   ICHARG = 11
   LORBIT = 10
   LCHARG = .F.
   LWAVE = .F.

 POTCAR:    PAW_PBE Cu 22Jun2005
 POTCAR:    PAW_PBE Mo 08Apr2002
 POTCAR:    PAW_PBE C 08Apr2002
 POTCAR:    PAW_PBE O 08Apr2002
|           W    W    AA    RRRRR   N    N  II  N    N   GGGG   !!!           |
|           W    W   A  A   R    R  NN   N  II  NN   N  G    G  !!!           |
|           W    W  A    A  R    R  N N  N  II  N N  N  G       !!!           |
|           W WW W  AAAAAA  RRRRR   N  N N  II  N  N N  G  GGG   !            |
|           WW  WW  A    A  R   R   N   NN  II  N   NN  G    G                |
|           W    W  A    A  R    R  N    N  II  N    N   GGGG   !!!           |
|     For optimal performance we recommend to set                             |
|       NCORE = 2 up to number-of-cores-per-socket                            |
|     This setting can greatly improve the performance of VASP for DFT.       |
|     The default, NCORE=1 might be grossly inefficient on modern             |
|     multi-core architectures or massively parallel machines. Do your        |
|     Unfortunately you need to use the default for GW and RPA                |
|     calculations (for HF NCORE is supported but not extensively tested      |
|     yet).                                                                   |

 POTCAR:    PAW_PBE Cu 22Jun2005
   VRHFIN =Cu: d10 p1

   TITEL  = PAW_PBE Cu 22Jun2005
   POMASS =   63.546; ZVAL   =   11.000    mass and valenz
   ENMAX  =  295.446; ENMIN  =  221.585 eV

 POTCAR:    PAW_PBE Mo 08Apr2002
   VRHFIN =Mo: 4p5s4d

   TITEL  = PAW_PBE Mo 08Apr2002
   POMASS =   95.940; ZVAL   =    6.000    mass and valenz
   ENMAX  =  224.584; ENMIN  =  168.438 eV

 POTCAR:    PAW_PBE C 08Apr2002
   VRHFIN =C: s2p2

[...]

 POTCAR:    PAW_PBE O 08Apr2002
   VRHFIN =O: s2p4

   TITEL  = PAW_PBE O 08Apr2002
   POMASS =   16.000; ZVAL   =    6.000    mass and valenz
   ENMAX  =  400.000; ENMIN  =  300.000 eV

 Optimization of the real space projectors (new method)

 maximal supplied QI-value         = 16.25
 optimisation between [QCUT,QGAM] = [ 11.38, 22.75] = [ 36.24,144.96] Ry
 Optimized for a Real-space Cutoff    1.52 Angstroem

   l    n(q)    QCUT    max X(q) W(low)/X(q) W(high)/X(q)  e(spline)
   2      9    11.376     4.610    0.21E-03    0.10E-03    0.26E-06
   2      9    11.376     8.522    0.33E-03    0.16E-03    0.37E-06
   0     10    11.376    51.609    0.62E-04    0.20E-04    0.13E-06
   0     10    11.376    27.747    0.54E-04    0.20E-04    0.13E-06
   1     10    11.376    20.408    0.13E-04    0.99E-04    0.19E-06
   1     10    11.376    13.425    0.12E-04    0.87E-04    0.17E-06
 Optimization of the real space projectors (new method)

[...]

   l    n(q)    QCUT    max X(q) W(low)/X(q) W(high)/X(q)  e(spline)
   0      7    11.310   115.676    0.43E-03    0.13E-02    0.19E-06
   0      7    11.310    87.132    0.43E-03    0.13E-02    0.18E-06
   1      6    11.310     4.429    0.42E-03    0.74E-03    0.11E-06
   1      6    11.310     2.733    0.34E-03    0.55E-03    0.92E-07
 Optimization of the real space projectors (new method)

 maximal supplied QI-value         = 24.76
 optimisation between [QCUT,QGAM] = [ 11.39, 22.77] = [ 36.31,145.25] Ry
 Optimized for a Real-space Cutoff    1.00 Angstroem

   l    n(q)    QCUT    max X(q) W(low)/X(q) W(high)/X(q)  e(spline)
   0      7    11.387    20.381    0.39E-03    0.13E-02    0.15E-06
   0      7    11.387    15.268    0.42E-03    0.14E-02    0.17E-06
   1      6    11.387     5.964    0.41E-03    0.11E-02    0.17E-06
   1      6    11.387     5.382    0.39E-03    0.87E-03    0.15E-06
  PAW_PBE Cu 22Jun2005                  :
  PAW_PBE Mo 08Apr2002                  :
  PAW_PBE C 08Apr2002                   :
  PAW_PBE O 08Apr2002                   :

 POSCAR: Cu-Mo-CO
  positions in direct lattice
  velocities in cartesian coordinates
 exchange correlation table for  LEXCH =        8
   RHO(1)=    0.500       N(1)  =     2000
   RHO(2)=  100.500       N(2)  =     4000

 VTST: version 3.2, (02/03/18)

 CHAIN: initializing optimizer

 OPT: Using VASP Conjugate-Gradient optimizer
 CHAIN: Read ICHAIN            0

 POSCAR: Cu-Mo-CO
  positions in direct lattice
  velocities in cartesian coordinates

 ion  position               nearest neighbor table
   1  0.000  0.000  0.252-   7 2.57   3 2.57   4 2.57   2 2.57   6 2.57   8 2.57  12 2.57  10 2.57
                            16 2.57
   2  0.333  0.000  0.252-   8 2.57   9 2.57   5 2.57   1 2.57   3 2.57  11 2.57   4 2.57  10 2.57
                            17 2.57
   3  0.667  0.000  0.252-   1 2.57   7 2.57   6 2.57   9 2.57   2 2.57  12 2.57   5 2.57  18 2.57
                            11 2.57
   4  0.000  0.333  0.252-   5 2.57   6 2.57   1 2.57   7 2.57   2 2.57  13 2.57   9 2.57  10 2.57
                            15 2.57
   5  0.333  0.333  0.252-   4 2.57   2 2.57   7 2.57  13 2.57   8 2.57   6 2.57   3 2.57  11 2.57
                            14 2.57
   6  0.667  0.333  0.252-   4 2.57   9 2.57  15 2.57   3 2.57   1 2.57   8 2.57  14 2.57   5 2.57
                            12 2.57
   7  0.000  0.667  0.252-   1 2.57   3 2.57  16 2.57  18 2.57   4 2.57   5 2.57   8 2.57   9 2.57
                            13 2.57
   8  0.333  0.667  0.252-   9 2.57   2 2.57  17 2.57   6 2.57   1 2.57   7 2.57   5 2.57  14 2.57
                            16 2.57
   9  0.667  0.667  0.252-   8 2.57   6 2.57   2 2.57  17 2.57   3 2.57   7 2.57   4 2.57  15 2.57
                            18 2.57
  10  0.111  0.111  0.351-  20 2.55  26 2.56  19 2.56  11 2.57  12 2.57  13 2.57   1 2.57   2 2.57
                             4 2.57  15 2.57  16 2.57  17 2.57
  11  0.444  0.111  0.351-  20 2.56  21 2.56  10 2.57  13 2.57   2 2.57  17 2.57  14 2.57  12 2.57
                             5 2.57   3 2.57  18 2.57  27 2.57
  12  0.778  0.111  0.351-  21 2.55  19 2.56  25 2.56  15 2.57  10 2.57  14 2.57  18 2.57   3 2.57
                             1 2.57  16 2.57  11 2.57   6 2.57
  13  0.111  0.444  0.351-  23 2.56  20 2.56  16 2.57  18 2.57  10 2.57  11 2.57  14 2.57   5 2.57
                             4 2.57   7 2.57  15 2.57  22 2.57
  14  0.444  0.444  0.351-  21 2.56  23 2.56  15 2.57  17 2.57  12 2.57  16 2.57  13 2.57  11 2.57
                             6 2.57   8 2.57   5 2.57  24 2.57
  15  0.778  0.444  0.351-  19 2.56  14 2.57  17 2.57  12 2.57   6 2.57  18 2.57  10 2.57   9 2.57
                            13 2.57   4 2.57  24 2.57  22 2.57
  16  0.111  0.778  0.351-  23 2.55  25 2.56  26 2.56  18 2.57  13 2.57   7 2.57  14 2.57  17 2.57
                            12 2.57  10 2.57   8 2.57   1 2.57
  17  0.444  0.778  0.351-  26 2.56  14 2.57  15 2.57   8 2.57   9 2.57  11 2.57  16 2.57  18 2.57
                            10 2.57   2 2.57  27 2.57  24 2.57
  18  0.778  0.778  0.351-  25 2.56  16 2.57  13 2.57   7 2.57  15 2.57  12 2.57  17 2.57   9 2.57
                             3 2.57  11 2.57  22 2.57  27 2.57
  19  0.889  0.222  0.449-  15 2.56  12 2.56  10 2.56  21 2.56  20 2.56  22 2.57  24 2.57  25 2.57
                            26 2.57  28 2.57  32 2.58  31 2.58
  20  0.222  0.222  0.449-  37 1.51  10 2.55  11 2.56  13 2.56  26 2.56  19 2.56  27 2.57  22 2.57
                            23 2.57  21 2.57  36 2.58  29 2.60  31 2.60
  21  0.556  0.222  0.449-  37 1.51  12 2.55  14 2.56  11 2.56  19 2.56  25 2.56  24 2.57  27 2.57
                            20 2.57  23 2.57  36 2.58  32 2.60  30 2.60
  22  0.888  0.556  0.450-  24 2.56  27 2.56  35 2.56  19 2.57  25 2.57  23 2.57  20 2.57  18 2.57
                            15 2.57  13 2.57  31 2.58  33 2.58
  23  0.222  0.556  0.449-  37 1.51  16 2.55  13 2.56  14 2.56  25 2.56  26 2.56  22 2.57  24 2.57
                            20 2.57  21 2.57  36 2.58  33 2.60  34 2.60
  24  0.556  0.556  0.450-  22 2.56  27 2.56  35 2.56  19 2.57  26 2.57  21 2.57  23 2.57  15 2.57
                            17 2.57  14 2.57  32 2.58  34 2.58
  25  0.889  0.889  0.449-  18 2.56  12 2.56  16 2.56  21 2.56  23 2.56  22 2.57  27 2.57  19 2.57
                            26 2.57  28 2.57  33 2.58  30 2.58
  26  0.222  0.889  0.449-  17 2.56  10 2.56  16 2.56  20 2.56  23 2.56  27 2.57  24 2.57  25 2.57
                            19 2.57  28 2.57  29 2.58  34 2.58
  27  0.556  0.888  0.450-  24 2.56  22 2.56  35 2.56  26 2.57  25 2.57  20 2.57  21 2.57  17 2.57
                            18 2.57  11 2.57  29 2.58  30 2.58
  28  0.000  0.000  0.547-  33 2.56  30 2.56  31 2.56  29 2.56  32 2.56  34 2.56  25 2.57  19 2.57
                            26 2.57
  29  0.333  0.998  0.548-  34 2.54  28 2.56  35 2.56  27 2.58  31 2.58  26 2.58  36 2.58  30 2.58
                            20 2.60
  30  0.669  0.998  0.548-  33 2.54  28 2.56  35 2.56  27 2.58  32 2.58  25 2.58  36 2.58  29 2.58
                            21 2.60
  31  0.998  0.333  0.548-  32 2.54  28 2.56  35 2.56  22 2.58  29 2.58  19 2.58  36 2.58  33 2.58
                            20 2.60
  32  0.669  0.333  0.548-  31 2.54  28 2.56  35 2.56  24 2.58  30 2.58  19 2.58  36 2.58  34 2.58
                            21 2.60
  33  0.998  0.669  0.548-  30 2.54  28 2.56  35 2.56  22 2.58  34 2.58  25 2.58  36 2.58  31 2.58
                            23 2.60
  34  0.333  0.669  0.548-  29 2.54  28 2.56  35 2.56  24 2.58  33 2.58  26 2.58  36 2.58  32 2.58
                            23 2.60
  35  0.667  0.667  0.548-  34 2.56  32 2.56  29 2.56  30 2.56  33 2.56  31 2.56  24 2.56  27 2.56
                            22 2.56
  36  0.333  0.333  0.547-  38 1.83  37 1.83  23 2.58  20 2.58  21 2.58  31 2.58  29 2.58  33 2.58
                            34 2.58  32 2.58  30 2.58
  37  0.333  0.333  0.461-  23 1.51  20 1.51  21 1.51  36 1.83
  38  0.333  0.333  0.633-  36 1.83

  LATTYP: Found a hexagonal cell.
 ALAT       =     7.6967864036
 C/A-ratio  =     2.7653617908

  Lattice vectors:

 A1 = (  -3.8483927580,  -6.6656128093,   0.0000000000)
 A2 = (   7.6967864037,   0.0000000000,   0.0000000000)
 A3 = (   0.0000000000,   0.0000000000,  21.2843990326)

Analysis of symmetry for initial positions (statically):
 Subroutine PRICEL returns:
 Original cell was already a primitive cell.

 Routine SETGRP: Setting up the symmetry group for a
 hexagonal supercell.

 Subroutine GETGRP returns: Found  6 space group operations
 (whereof  6 operations were pure point group operations)
 out of a pool of 24 trial point group operations.

The static configuration has the point symmetry C_3v.

Analysis of symmetry for dynamics (positions and initial velocities):
 Subroutine PRICEL returns:
 Original cell was already a primitive cell.

[...]

The dynamic configuration has the point symmetry C_3v.

Analysis of constrained symmetry for selective dynamics:
 Subroutine PRICEL returns:
 Original cell was already a primitive cell.

 Routine SETGRP: Setting up the symmetry group for a
[...]
     33      -4.3081      2.00000
     34      -4.2878      2.00000
     35      -4.2775      2.00000
     36      -4.2272      2.00000
     37      -4.1917      2.00000
     38      -4.1462      2.00000
     39      -4.1387      2.00000
     40      -4.1213      2.00000
     41      -4.0902      2.00000
     42      -4.0505      2.00000
     43      -3.9843      2.00000
     44      -3.9763      2.00000
     45      -3.9207      2.00000
     46      -3.8680      2.00000
     47      -3.8545      2.00000
     48      -3.8224      2.00000
     49      -3.8034      2.00000
     50      -3.7839      2.00000
     51      -3.7608      2.00000
     52      -3.7137      2.00000
     53      -3.6404      2.00000
     54      -3.6057      2.00000
     55      -3.5930      2.00000
     56      -3.5814      2.00000
     57      -3.5555      2.00000
     58      -3.5279      2.00000
     59      -3.5152      2.00000
     60      -3.5043      2.00000
[...]
    238       6.0647      0.00000
    239       6.0882      0.00000
    240       6.1961      0.00000
    241       6.3983      0.00000
    242       6.4422      0.00000
    243       6.4695      0.00000
    244       7.1253      0.00000
    245       7.1449      0.00000
    246       7.1829      0.00000
    247       7.2047      0.00000
    248       7.2446      0.00000
    249       7.3175      0.00000
    250       7.5567      0.00000
    251       7.5963      0.00000
    252       7.6538      0.00000

 soft charge-density along one line, spin component           1
         0         1         2         3         4         5         6         7         8         9
 total charge-density along one line

------------------------ aborting loop because EDIFF is reached ----------------------------------------

 total charge

# of ion       s       p       d       tot
    1        0.448   0.288   9.184   9.920
    2        0.447   0.286   9.185   9.918
    3        0.447   0.286   9.185   9.918
    4        0.447   0.286   9.185   9.918
    5        0.447   0.283   9.190   9.920
    6        0.447   0.286   9.185   9.918
    7        0.447   0.286   9.185   9.918
    8        0.447   0.286   9.185   9.918
    9        0.448   0.284   9.186   9.918
   10        0.443   0.376   9.177   9.996
   11        0.432   0.375   9.187   9.994
   12        0.443   0.376   9.177   9.996
   13        0.432   0.375   9.187   9.994
   14        0.432   0.375   9.187   9.994
   15        0.440   0.368   9.181   9.989
   16        0.443   0.376   9.177   9.996
   17        0.440   0.368   9.181   9.989
   18        0.440   0.368   9.181   9.989
   19        0.446   0.372   9.182  10.001
   20        0.601   0.720   9.244  10.565
   21        0.601   0.720   9.244  10.565
   22        0.426   0.366   9.195   9.987
   23        0.601   0.720   9.244  10.565
   24        0.426   0.366   9.195   9.987
   25        0.446   0.372   9.182  10.001
   26        0.446   0.372   9.182  10.001
   27        0.426   0.366   9.195   9.987
   28        0.455   0.287   9.189   9.931
   29        0.461   0.307   9.183   9.952
   30        0.461   0.307   9.183   9.952
   31        0.461   0.307   9.183   9.952
   32        0.461   0.307   9.183   9.952
   33        0.461   0.307   9.183   9.952
   34        0.461   0.307   9.183   9.952
   35        0.438   0.299   9.186   9.924
   36        0.571   0.766   4.616   5.953
   37        1.030   1.855   0.000   2.885
   38        1.604   3.245   0.000   4.849
tot         19.255  18.594 326.263 364.112

  FORCE on cell =-STRESS in cart. coord.  units (eV):
  Direction    XX          YY          ZZ          XY          YZ          ZX
  Alpha Z   912.57566   912.57566   912.57566
  Ewald  175307.21163175307.21126************     0.00048     0.00006     0.00021
  Hartree188135.70865188135.70859************     0.00004     0.00004     0.00007
  E(xc)   -2322.19696 -2322.19651 -2328.38775    -0.00039    -0.00004    -0.00006
  Local  ************************376700.75802     0.01872    -0.00054    -0.00101
  n-local  -773.55394  -761.65189  -778.58778     6.78269    -0.40314     0.48949
  augment  3317.34478  3317.36512  3349.80627    -0.01763     0.00026     0.00042
  Kinetic  3409.12920  3413.32643  3431.71997     2.85341     1.32925    -0.87500
  Fock        0.00000     0.00000     0.00000     0.00000     0.00000     0.00000
  Total      27.75755    27.75755    18.49703    -0.00000     0.00000    -0.00000
  in kB      40.72684    40.72685    27.13949    -0.00000     0.00000    -0.00000

 VOLUME and BASIS-vectors are now :
  energy-cutoff  :      500.00
  volume of cell :     1091.97
      direct lattice vectors                 reciprocal lattice vectors
     7.696786404  0.000000000  0.000000000     0.129924354 -0.075011849  0.000000000
     3.848392758  6.665612809  0.000000000     0.000000000  0.150023716  0.000000000
     0.000000000  0.000000000 21.284399033     0.000000000  0.000000000  0.046982769

  length of vectors
     7.696786404  7.696786404 21.284399033     0.150023716  0.150023716  0.046982769

 FORCES acting on ions
    electron-ion (+dipol)            ewald-force                    non-local-force                 convergence-correction
   -.411E-04 0.400E-06 0.351E+04   0.574E-04 -.450E-05 -.351E+04   0.619E-17 -.221E-17 -.206E+01   -.359E-03 -.175E-03 0.119E+00
   0.834E+00 0.264E+01 0.351E+04   -.110E+01 -.266E+01 -.351E+04   0.114E+00 -.327E-01 -.192E+01   0.133E+00 0.484E-01 0.211E-01
   -.834E+00 0.264E+01 0.351E+04   0.110E+01 -.266E+01 -.351E+04   -.114E+00 -.327E-01 -.192E+01   -.132E+00 0.509E-01 0.221E-01
   0.271E+01 -.599E+00 0.351E+04   -.285E+01 0.378E+00 -.351E+04   0.288E-01 0.115E+00 -.192E+01   0.108E+00 0.906E-01 0.211E-01
   -.691E-04 -.804E-05 0.352E+04   0.116E-03 -.101E-04 -.352E+04   -.165E-17 0.183E-17 -.257E+01   0.121E-01 0.743E-02 0.114E+00
   -.271E+01 -.599E+00 0.351E+04   0.285E+01 0.378E+00 -.351E+04   -.288E-01 0.115E+00 -.192E+01   -.110E+00 0.918E-01 0.223E-01
   0.187E+01 -.204E+01 0.351E+04   -.175E+01 0.228E+01 -.351E+04   -.855E-01 -.826E-01 -.192E+01   -.218E-01 -.140E+00 0.222E-01
   -.187E+01 -.204E+01 0.351E+04   0.175E+01 0.228E+01 -.351E+04   0.855E-01 -.826E-01 -.192E+01   0.252E-01 -.141E+00 0.223E-01
   -.144E-03 -.330E-04 0.351E+04   0.264E-03 0.206E-04 -.351E+04   0.248E-17 -.396E-18 -.168E+01   -.132E-01 -.678E-02 0.984E-01
   0.112E+02 0.646E+01 0.121E+04   -.110E+02 -.634E+01 -.121E+04   -.325E+00 -.188E+00 -.893E+00   0.109E+00 0.631E-01 0.369E+00
   -.897E-04 0.300E+02 0.123E+04   0.191E-03 -.315E+02 -.124E+04   -.771E-07 0.116E+01 0.978E+00   0.121E-01 0.111E+00 0.350E+00
   -.112E+02 0.646E+01 0.121E+04   0.110E+02 -.634E+01 -.121E+04   0.325E+00 -.188E+00 -.893E+00   -.111E+00 0.642E-01 0.369E+00
   0.260E+02 -.150E+02 0.123E+04   -.272E+02 0.157E+02 -.124E+04   0.100E+01 -.579E+00 0.978E+00   0.103E+00 -.444E-01 0.350E+00
   -.260E+02 -.150E+02 0.123E+04   0.272E+02 0.157E+02 -.124E+04   -.100E+01 -.579E+00 0.978E+00   -.791E-01 -.460E-01 0.348E+00
   -.147E-03 -.522E+01 0.120E+04   0.302E-03 0.508E+01 -.120E+04   -.571E-08 0.858E-01 -.549E+00   -.344E-02 0.554E-01 0.299E+00
   -.893E-04 -.129E+02 0.121E+04   0.184E-03 0.127E+02 -.121E+04   -.250E-07 0.375E+00 -.893E+00   -.819E-03 -.130E+00 0.369E+00
   -.452E+01 0.261E+01 0.120E+04   0.440E+01 -.254E+01 -.120E+04   0.743E-01 -.429E-01 -.549E+00   0.469E-01 -.307E-01 0.299E+00
   0.452E+01 0.261E+01 0.120E+04   -.440E+01 -.254E+01 -.120E+04   -.743E-01 -.429E-01 -.549E+00   -.454E-01 -.279E-01 0.301E+00
   -.540E-04 -.103E+00 -.114E+04   0.612E-04 -.803E-01 0.114E+04   -.565E-08 0.848E-01 0.802E+00   -.110E-01 0.337E-01 0.178E+00
   0.166E+03 0.959E+02 -.115E+04   -.180E+03 -.104E+03 0.115E+04   0.255E+01 0.147E+01 -.747E+00   0.218E+00 0.126E+00 0.325E+00
   -.166E+03 0.959E+02 -.115E+04   0.180E+03 -.104E+03 0.115E+04   -.255E+01 0.147E+01 -.747E+00   -.238E+00 0.125E+00 0.325E+00
   0.150E+02 -.868E+01 -.116E+04   -.177E+02 0.102E+02 0.116E+04   0.210E+01 -.121E+01 0.124E+01   0.235E+00 -.134E+00 0.724E-01
   -.236E-04 -.192E+03 -.115E+04   0.112E-03 0.207E+03 0.115E+04   0.196E-06 -.294E+01 -.747E+00   -.116E-01 -.270E+00 0.325E+00
   -.150E+02 -.868E+01 -.116E+04   0.177E+02 0.102E+02 0.116E+04   -.210E+01 -.121E+01 0.124E+01   -.234E+00 -.136E+00 0.725E-01
   0.895E-01 0.517E-01 -.114E+04   0.694E-01 0.400E-01 0.114E+04   -.735E-01 -.424E-01 0.802E+00   -.454E-01 -.262E-01 0.177E+00
   -.894E-01 0.517E-01 -.114E+04   -.696E-01 0.400E-01 0.114E+04   0.735E-01 -.424E-01 0.802E+00   0.240E-01 -.261E-01 0.178E+00
   -.124E-03 0.174E+02 -.116E+04   0.244E-03 -.204E+02 0.116E+04   -.161E-06 0.242E+01 0.124E+01   0.114E-02 0.271E+00 0.725E-01
   -.368E-04 0.169E-04 -.344E+04   0.377E-04 -.332E-04 0.344E+04   -.548E-17 -.197E-17 0.149E+01   -.279E-03 -.110E-03 -.108E+00
   -.124E+02 -.244E+02 -.345E+04   0.123E+02 0.229E+02 0.345E+04   -.262E+00 0.846E+00 0.204E+01   0.106E+00 0.281E+00 -.621E-01
   0.124E+02 -.244E+02 -.345E+04   -.123E+02 0.229E+02 0.345E+04   0.262E+00 0.846E+00 0.204E+01   -.105E+00 0.283E+00 -.629E-01
   -.274E+02 0.148E+01 -.345E+04   0.260E+02 -.765E+00 0.345E+04   0.602E+00 -.650E+00 0.204E+01   0.297E+00 -.492E-01 -.621E-01
   0.274E+02 0.148E+01 -.345E+04   -.260E+02 -.765E+00 0.345E+04   -.602E+00 -.650E+00 0.204E+01   -.297E+00 -.485E-01 -.620E-01
   -.150E+02 0.230E+02 -.345E+04   0.137E+02 -.221E+02 0.345E+04   0.864E+00 -.196E+00 0.204E+01   0.193E+00 -.232E+00 -.629E-01
   0.150E+02 0.230E+02 -.345E+04   -.137E+02 -.221E+02 0.345E+04   -.864E+00 -.196E+00 0.204E+01   -.190E+00 -.233E+00 -.619E-01
   -.150E-03 -.241E-04 -.346E+04   0.255E-03 0.273E-05 0.345E+04   -.790E-18 0.651E-18 0.238E+01   -.126E-01 -.644E-02 -.862E-03
   -.284E-04 -.161E-04 -.182E+04   0.738E-04 0.151E-04 0.183E+04   -.104E-16 -.755E-17 0.136E+01   0.844E-03 0.503E-03 -.100E+00
   -.112E-03 0.265E-04 -.603E+03   0.215E-03 -.104E-03 0.606E+03   -.489E-18 0.303E-17 -.312E+01   0.105E-02 0.709E-03 0.165E+00
   0.178E-03 -.811E-04 -.214E+04   0.157E-04 0.746E-05 0.216E+04   -.797E-18 -.320E-18 -.245E+02   0.298E-02 0.181E-02 -.236E+00
   -.633E-04 -.123E-03 0.208E+02   0.146E-13 0.145E-12 0.546E-11   0.987E-15 0.468E-15 -.255E+02   -.327E-01 -.218E-01 0.459E+01

 POSITION                                       TOTAL-FORCE (eV/Angst)
      0.00000      0.00000      5.37156         0.000000      0.000000      0.028464
      2.56560      0.00000      5.37156        -0.019097     -0.002085      0.057051
      5.13119      0.00000      5.37156         0.019097     -0.002085      0.057051
      1.28280      2.22187      5.37156        -0.011354     -0.015496      0.057051
      3.84839      2.22187      5.37156         0.000000      0.000000     -0.020580
      6.41399      2.22187      5.37156         0.011354     -0.015496      0.057051
      2.56560      4.44374      5.37156         0.007742      0.017581      0.057051
      5.13119      4.44374      5.37156        -0.007742      0.017581      0.057051
      7.69679      4.44374      5.37156         0.000000      0.000000      0.044662
      1.28280      0.74062      7.46636        -0.012223     -0.007057     -0.063152
      3.84839      0.74062      7.46636         0.000000     -0.224012     -0.326685
      6.41399      0.74062      7.46636         0.012223     -0.007057     -0.063152
      2.56560      2.96249      7.46636        -0.194000      0.112006     -0.326685
      5.13119      2.96249      7.46636         0.194000      0.112006     -0.326685
      7.69679      2.96249      7.46636        -0.000000      0.002547      0.030749
      3.84839      5.18437      7.46636        -0.000000      0.014114     -0.063152
      6.41399      5.18437      7.46636         0.002206     -0.001274      0.030749
      8.97958      5.18437      7.46636        -0.002206     -0.001274      0.030749
      7.69679      1.48128      9.55134         0.000000     -0.058737      0.025748
      2.56091      1.47854      9.54628       -10.796552     -6.233393     -2.754565
      5.13587      1.47854      9.54628        10.796553     -6.233393     -2.754565
      8.97673      3.70477      9.56818        -0.287526      0.166003      0.015781
      3.84839      3.70853      9.54628        -0.000001     12.466785     -2.754565
      6.41684      3.70477      9.56818         0.287526      0.166003      0.015781
     10.26235      5.92497      9.55134         0.050868      0.029369      0.025748
      5.13122      5.92497      9.55134        -0.050868      0.029369      0.025748
      7.69679      5.92169      9.56818         0.000000     -0.332006      0.015781
      0.00000      0.00000     11.64671         0.000000      0.000000     -0.104929
      6.40484      6.65345     11.67351        -0.214671     -0.410285      0.025213
      8.98873      6.65345     11.67351         0.214671     -0.410285      0.025213
      8.96447      2.22003     11.67351        -0.462653      0.019232      0.025213
      6.42910      2.22003     11.67351         0.462653      0.019232      0.025213
     10.25642      4.45775     11.67351        -0.247982      0.391053      0.025213
      5.13715      4.45775     11.67351         0.247982      0.391053      0.025213
      7.69679      4.44374     11.65978         0.000000      0.000000     -0.065727
      3.84839      2.22187     11.64991         0.000000      0.000000      8.898012
      3.84839      2.22187      9.81580         0.000000      0.000000     -0.056149
      3.84839      2.22187     13.47727         0.000000      0.000000     -0.000971
    total drift:                               -0.032791     -0.021942     -0.077025

  FREE ENERGIE OF THE ION-ELECTRON SYSTEM (eV)
  free  energy   TOTEN  =      -139.00758883 eV

  energy  without entropy=     -139.00758883  energy(sigma->0) =     -139.00758883

 stress matrix after NEB project (eV)
     27.75755     -0.00000     -0.00000
     -0.00000     27.75755      0.00000
     -0.00000      0.00000     18.49703
  FORCES: max atom, RMS     0.056149    0.009110
  FORCE total and by dimension    0.056157    0.056149
  Stress total and by dimension   43.394735   27.757550
|           W    W    AA    RRRRR   N    N  II  N    N   GGGG   !!!           |
|           W    W   A  A   R    R  NN   N  II  NN   N  G    G  !!!           |
|           W    W  A    A  R    R  N N  N  II  N N  N  G       !!!           |
|           W WW W  AAAAAA  RRRRR   N  N N  II  N  N N  G  GGG   !            |
|           WW  WW  A    A  R   R   N   NN  II  N   NN  G    G                |
|           W    W  A    A  R    R  N    N  II  N    N   GGGG   !!!           |
|     Tetrahedron method does not include variations of the Fermi             |
|     occupations, so forces and stress will be inaccurate. We suggest        |
|     using a different smearing scheme ISMEAR = 1 or 2 for metals in         |
|     relaxations.                                                            |

 total charge

# of ion       s       p       d       tot
    1        0.448   0.288   9.184   9.920
    2        0.447   0.286   9.185   9.918
    3        0.447   0.286   9.185   9.918
    4        0.447   0.286   9.185   9.918
    5        0.447   0.283   9.190   9.920
    6        0.447   0.286   9.185   9.918
    7        0.447   0.286   9.185   9.918
    8        0.447   0.286   9.185   9.918
    9        0.448   0.284   9.186   9.918
   10        0.443   0.376   9.177   9.996
   11        0.432   0.375   9.187   9.994
   12        0.443   0.376   9.177   9.996
   13        0.432   0.375   9.187   9.994
   14        0.432   0.375   9.187   9.994
   15        0.440   0.368   9.181   9.989
   16        0.443   0.376   9.177   9.996
   17        0.440   0.368   9.181   9.989
   18        0.440   0.368   9.181   9.989
   19        0.446   0.372   9.182  10.001
   20        0.601   0.720   9.244  10.565
   21        0.601   0.720   9.244  10.565
   22        0.426   0.366   9.195   9.987
   23        0.601   0.720   9.244  10.565
   24        0.426   0.366   9.195   9.987
   25        0.446   0.372   9.182  10.001
   26        0.446   0.372   9.182  10.001
   27        0.426   0.366   9.195   9.987
   28        0.455   0.287   9.189   9.931
   29        0.461   0.307   9.183   9.952
   30        0.461   0.307   9.183   9.952
   31        0.461   0.307   9.183   9.952
   32        0.461   0.307   9.183   9.952
   33        0.461   0.307   9.183   9.952
   34        0.461   0.307   9.183   9.952
   35        0.438   0.299   9.186   9.924
   36        0.571   0.766   4.616   5.953
   37        1.030   1.855   0.000   2.885
   38        1.604   3.245   0.000   4.849
tot         19.255  18.594 326.263 364.112

 BZINTS: Fermi energy:    0.012317;  401.000000 electrons
         Band energy:-0.125602E+04;  BLOECHL correction:   -0.033718