 vasp.6.2.0 18Jan21 (build Jun 12 2021 23:27:24) complex

 executed on             LinuxIFC date 2022.05.30  16:18:18

 INCAR:
   ISMEAR = -5
   SIGMA = 0.1
   ISPIN = 1
   EDIFF = 1.d-5
   EDIFFG = -0.01
   NSW = 0
   NELM = 150
   ENCUT = 500
   ISIF = 2
   IBRION = 2
   LREAL = Auto
   ALGO = Fast
   ICHARG = 11
   LORBIT = 10
   LCHARG = .F.
   LWAVE = .F.

 POTCAR:    PAW_PBE Au 04Oct2007
 POTCAR:    PAW_PBE Rh 04Feb2005
 POTCAR:    PAW_PBE C 08Apr2002
 POTCAR:    PAW_PBE O 08Apr2002
 POTCAR:    PAW_PBE H 15Jun2001
|           W    W    AA    RRRRR   N    N  II  N    N   GGGG   !!!           |
|           W    W   A  A   R    R  NN   N  II  NN   N  G    G  !!!           |
|           W    W  A    A  R    R  N N  N  II  N N  N  G       !!!           |
|           W WW W  AAAAAA  RRRRR   N  N N  II  N  N N  G  GGG   !            |
|           WW  WW  A    A  R   R   N   NN  II  N   NN  G    G                |
|           W    W  A    A  R    R  N    N  II  N    N   GGGG   !!!           |
|     For optimal performance we recommend to set                             |
|       NCORE = 2 up to number-of-cores-per-socket                            |
|     This setting can greatly improve the performance of VASP for DFT.       |
|     The default, NCORE=1 might be grossly inefficient on modern             |
|     multi-core architectures or massively parallel machines. Do your        |
|     Unfortunately you need to use the default for GW and RPA                |
|     calculations (for HF NCORE is supported but not extensively tested      |
|     yet).                                                                   |

 POTCAR:    PAW_PBE Au 04Oct2007
   VRHFIN =Au: s1d10

   TITEL  = PAW_PBE Au 04Oct2007
   POMASS =  196.966; ZVAL   =   11.000    mass and valenz
   ENMAX  =  229.943; ENMIN  =  172.457 eV

 POTCAR:    PAW_PBE Rh 04Feb2005
   VRHFIN =Rh: s1 d8

   TITEL  = PAW_PBE Rh 04Feb2005
   POMASS =  102.906; ZVAL   =    9.000    mass and valenz
   ENMAX  =  228.996; ENMIN  =  171.747 eV

 POTCAR:    PAW_PBE C 08Apr2002
   VRHFIN =C: s2p2

   TITEL  = PAW_PBE C 08Apr2002
   POMASS =   12.011; ZVAL   =    4.000    mass and valenz
   ENMAX  =  400.000; ENMIN  =  300.000 eV

 POTCAR:    PAW_PBE O 08Apr2002
   VRHFIN =O: s2p4

   TITEL  = PAW_PBE O 08Apr2002
   POMASS =   16.000; ZVAL   =    6.000    mass and valenz
   ENMAX  =  400.000; ENMIN  =  300.000 eV

 POTCAR:    PAW_PBE H 15Jun2001
   VRHFIN =H: ultrasoft test

   TITEL  = PAW_PBE H 15Jun2001
   POMASS =    1.000; ZVAL   =    1.000    mass and valenz
   ENMAX  =  250.000; ENMIN  =  200.000 eV

 Optimization of the real space projectors (new method)

 maximal supplied QI-value         = 15.12
 optimisation between [QCUT,QGAM] = [ 11.34, 22.83] = [ 36.00,145.93] Ry
 Optimized for a Real-space Cutoff    1.39 Angstroem

   l    n(q)    QCUT    max X(q) W(low)/X(q) W(high)/X(q)  e(spline)
   2      9    11.338    60.898    0.39E-03    0.42E-03    0.21E-06
   2      9    11.338    58.894    0.40E-03    0.42E-03    0.22E-06
   0      9    11.338   109.617    0.13E-03    0.20E-04    0.13E-06
   0      9    11.338    75.026    0.13E-03    0.20E-04    0.13E-06
   1      9    11.338    16.344    0.33E-04    0.24E-03    0.18E-06
   1      9    11.338    10.160    0.26E-04    0.19E-03    0.15E-06
 Optimization of the real space projectors (new method)

[...]

   l    n(q)    QCUT    max X(q) W(low)/X(q) W(high)/X(q)  e(spline)
   0      7    11.387    20.381    0.39E-03    0.13E-02    0.15E-06
   0      7    11.387    15.268    0.42E-03    0.14E-02    0.17E-06
   1      6    11.387     5.964    0.41E-03    0.11E-02    0.17E-06
   1      6    11.387     5.382    0.39E-03    0.87E-03    0.15E-06
 Optimization of the real space projectors (new method)

 maximal supplied QI-value         = 34.20
 optimisation between [QCUT,QGAM] = [ 11.29, 22.57] = [ 35.68,142.71] Ry
 Optimized for a Real-space Cutoff    1.16 Angstroem

   l    n(q)    QCUT    max X(q) W(low)/X(q) W(high)/X(q)  e(spline)
   0      8    11.287    19.460    0.40E-03    0.73E-03    0.16E-06
   0      8    11.287    12.209    0.38E-03    0.70E-03    0.15E-06
   1      7    11.287     4.655    0.22E-03    0.25E-04    0.22E-06
  PAW_PBE Au 04Oct2007                  :
  PAW_PBE Rh 04Feb2005                  :
  PAW_PBE C 08Apr2002                   :
  PAW_PBE O 08Apr2002                   :
  PAW_PBE H 15Jun2001                   :

 POSCAR: Au-Rh-COH
  positions in direct lattice
  velocities in cartesian coordinates
 exchange correlation table for  LEXCH =        8
   RHO(1)=    0.500       N(1)  =     2000
   RHO(2)=  100.500       N(2)  =     4000

 VTST: version 3.2, (02/03/18)

 CHAIN: initializing optimizer

 OPT: Using VASP Conjugate-Gradient optimizer
 CHAIN: Read ICHAIN            0

 POSCAR: Au-Rh-COH
  positions in direct lattice
  velocities in cartesian coordinates

 ion  position               nearest neighbor table
   1  0.000  0.000  0.197-  16 2.94  12 2.94   6 2.94   8 2.94   7 2.94   3 2.94  10 2.94   4 2.94
                             2 2.94
   2  0.333  0.000  0.197-   9 2.94  11 2.94  17 2.94  10 2.94   8 2.94   4 2.94   5 2.94   1 2.94
                             3 2.94
   3  0.667  0.000  0.197-   7 2.94  18 2.94  12 2.94   1 2.94  11 2.94   5 2.94   6 2.94   9 2.94
                             2 2.94
   4  0.000  0.333  0.197-  10 2.94   6 2.94   5 2.94  13 2.94   2 2.94  15 2.94   9 2.94   1 2.94
                             7 2.94
   5  0.333  0.333  0.197-  13 2.94   7 2.94  11 2.94   4 2.94   2 2.94  14 2.94   3 2.94   8 2.94
                             6 2.94
   6  0.667  0.333  0.197-  15 2.94  14 2.94   1 2.94  12 2.94   4 2.94   9 2.94   8 2.94   3 2.94
                             5 2.94
   7  0.000  0.667  0.197-  18 2.94   3 2.94  16 2.94   5 2.94   1 2.94  13 2.94   8 2.94   4 2.94
                             9 2.94
   8  0.333  0.667  0.197-   9 2.94  17 2.94   1 2.94   2 2.94  14 2.94  16 2.94   6 2.94   7 2.94
                             5 2.94
   9  0.667  0.667  0.197-   2 2.94   8 2.94  17 2.94   6 2.94  15 2.94   4 2.94   3 2.94  18 2.94
                             7 2.94
  10  0.111  0.111  0.287-  20 2.91  26 2.93  19 2.93  11 2.94  17 2.94   2 2.94   4 2.94   1 2.94
                            12 2.94  16 2.94  13 2.94  15 2.94
  11  0.444  0.111  0.287-  20 2.91  21 2.91  27 2.93  13 2.94   2 2.94  10 2.94  17 2.94   5 2.94
                             3 2.94  18 2.94  14 2.94  12 2.94
  12  0.778  0.111  0.287-  21 2.91  25 2.93  19 2.93  16 2.94  18 2.94   1 2.94  14 2.94  15 2.94
                             3 2.94   6 2.94  10 2.94  11 2.94
  13  0.111  0.444  0.287-  23 2.91  20 2.91  22 2.93   5 2.94  18 2.94  11 2.94   7 2.94   4 2.94
                            16 2.94  10 2.94  14 2.94  15 2.94
  14  0.444  0.444  0.287-  21 2.91  23 2.91  24 2.93  15 2.94   6 2.94  12 2.94   8 2.94  17 2.94
                             5 2.94  16 2.94  13 2.94  11 2.94
  15  0.778  0.444  0.287-  24 2.93  22 2.93  19 2.93  14 2.94   6 2.94  17 2.94  12 2.94   9 2.94
                             4 2.94  10 2.94  13 2.94  18 2.94
  16  0.111  0.778  0.287-  23 2.91  25 2.93  26 2.93  18 2.94  12 2.94   7 2.94   1 2.94   8 2.94
                            13 2.94  10 2.94  14 2.94  17 2.94
  17  0.444  0.778  0.287-  27 2.93  24 2.93  26 2.93   9 2.94  15 2.94   2 2.94  10 2.94  11 2.94
                             8 2.94  14 2.94  16 2.94  18 2.94
  18  0.778  0.778  0.287-  22 2.93  27 2.93  25 2.93  16 2.94   7 2.94  13 2.94  12 2.94   3 2.94
                            11 2.94   9 2.94  15 2.94  17 2.94
  19  0.889  0.222  0.376-  15 2.93  10 2.93  12 2.93  21 2.94  20 2.94  24 2.94  22 2.94  26 2.94
                            25 2.94  28 2.96  32 2.96  31 2.96
  20  0.222  0.222  0.376-  36 2.79  10 2.91  11 2.91  13 2.91  26 2.94  19 2.94  23 2.94  21 2.94
                            27 2.94  22 2.94  29 2.95  31 2.95
  21  0.556  0.222  0.376-  36 2.79  12 2.91  14 2.91  11 2.91  25 2.94  19 2.94  20 2.94  23 2.94
                            27 2.94  24 2.94  30 2.95  32 2.95
  22  0.888  0.556  0.376-  24 2.92  27 2.92  18 2.93  15 2.93  13 2.93  25 2.94  19 2.94  23 2.94
                            20 2.94  33 2.95  31 2.95  35 2.96
  23  0.222  0.556  0.376-  36 2.79  16 2.91  13 2.91  14 2.91  25 2.94  26 2.94  20 2.94  21 2.94
                            22 2.94  24 2.94  33 2.95  34 2.95
  24  0.556  0.556  0.376-  27 2.92  22 2.92  15 2.93  17 2.93  14 2.93  26 2.94  19 2.94  21 2.94
                            23 2.94  32 2.95  34 2.95  35 2.96
  25  0.889  0.889  0.376-  18 2.93  16 2.93  12 2.93  23 2.94  21 2.94  22 2.94  27 2.94  19 2.94
                            26 2.94  28 2.96  33 2.96  30 2.96
  26  0.222  0.889  0.376-  17 2.93  10 2.93  16 2.93  20 2.94  23 2.94  27 2.94  24 2.94  19 2.94
                            25 2.94  28 2.96  29 2.96  34 2.96
  27  0.556  0.888  0.376-  24 2.92  22 2.92  17 2.93  18 2.93  11 2.93  26 2.94  25 2.94  20 2.94
                            21 2.94  29 2.95  30 2.95  35 2.96
  28  0.000  0.000  0.467-  34 2.95  32 2.95  33 2.95  30 2.95  31 2.95  29 2.95  25 2.96  19 2.96
                            26 2.96
  29  0.333  0.004  0.466-  31 2.90  30 2.90  36 2.91  20 2.95  27 2.95  28 2.95  35 2.96  26 2.96
                            34 3.01
  30  0.663  0.004  0.466-  32 2.90  29 2.90  36 2.91  21 2.95  27 2.95  28 2.95  35 2.96  25 2.96
                            33 3.01
  31  0.004  0.333  0.466-  29 2.90  33 2.90  36 2.91  20 2.95  22 2.95  28 2.95  35 2.96  19 2.96
                            32 3.01
  32  0.663  0.333  0.466-  30 2.90  34 2.90  36 2.91  21 2.95  24 2.95  28 2.95  35 2.96  19 2.96
                            31 3.01
  33  0.004  0.663  0.466-  34 2.90  31 2.90  36 2.91  23 2.95  22 2.95  28 2.95  35 2.96  25 2.96
                            30 3.01
  34  0.333  0.663  0.466-  33 2.90  32 2.90  36 2.91  23 2.95  24 2.95  28 2.95  35 2.96  26 2.96
                            29 3.01
  35  0.667  0.667  0.467-  29 2.96  34 2.96  32 2.96  31 2.96  30 2.96  33 2.96  24 2.96  27 2.96
                            22 2.96
  36  0.333  0.333  0.458-  37 1.74  20 2.79  23 2.79  21 2.79  33 2.91  31 2.91  29 2.91  30 2.91
                            34 2.91  32 2.91
  37  0.333  0.333  0.523-  38 1.24  36 1.74
  38  0.333  0.333  0.570-  39 0.97  37 1.24
  39  0.333  0.333  0.606-  38 0.97

  LATTYP: Found a hexagonal cell.
 ALAT       =     8.8135128021
 C/A-ratio  =     3.0356784858

  Lattice vectors:

 A1 = (  -4.4067569092,  -7.6327256898,   0.0000000000)
 A2 = (   8.8135128021,   0.0000000000,   0.0000000000)
 A3 = (   0.0000000000,   0.0000000000,  26.7549911976)

Analysis of symmetry for initial positions (statically):
 Subroutine PRICEL returns:
 Original cell was already a primitive cell.

 Routine SETGRP: Setting up the symmetry group for a
 hexagonal supercell.

 Subroutine GETGRP returns: Found  6 space group operations
 (whereof  6 operations were pure point group operations)
 out of a pool of 24 trial point group operations.

The static configuration has the point symmetry C_3v.

Analysis of symmetry for dynamics (positions and initial velocities):
[...]
     41      -4.8782      2.00000
     42      -4.8026      2.00000
     43      -4.7858      2.00000
     44      -4.7303      2.00000
     45      -4.6702      2.00000
     46      -4.6598      2.00000
     47      -4.6205      2.00000
     48      -4.6022      2.00000
     49      -4.5488      2.00000
     50      -4.5478      2.00000
     51      -4.4408      2.00000
     52      -4.4209      2.00000
     53      -4.3900      2.00000
     54      -4.3833      2.00000
     55      -4.3776      2.00000
     56      -4.3706      2.00000
     57      -4.3550      2.00000
     58      -4.3110      2.00000
     59      -4.2817      2.00000
     60      -4.2410      2.00000
[...]
    238       5.2555      0.00000
    239       5.3171      0.00000
    240       5.4147      0.00000
    241       5.5778      0.00000
    242       5.7036      0.00000
    243       5.9235      0.00000
    244       5.9397      0.00000
    245       6.0386      0.00000
    246       6.0912      0.00000
    247       6.1218      0.00000
    248       6.1753      0.00000
    249       6.2109      0.00000
    250       6.2524      0.00000
    251       6.3777      0.00000
    252       6.4270      0.00000

 soft charge-density along one line, spin component           1
         0         1         2         3         4         5         6         7         8         9
 total charge-density along one line

------------------------ aborting loop because EDIFF is reached ----------------------------------------

 total charge

# of ion       s       p       d       tot
    1        0.543   0.240   8.766   9.549
    2        0.546   0.241   8.765   9.551
    3        0.546   0.241   8.765   9.551
    4        0.546   0.241   8.765   9.551
    5        0.544   0.242   8.764   9.549
    6        0.546   0.241   8.765   9.551
    7        0.546   0.241   8.765   9.551
    8        0.546   0.241   8.765   9.551
    9        0.541   0.241   8.768   9.549
   10        0.520   0.308   8.772   9.600
   11        0.522   0.307   8.778   9.607
   12        0.520   0.308   8.772   9.600
   13        0.522   0.307   8.778   9.607
   14        0.522   0.307   8.778   9.607
   15        0.513   0.310   8.773   9.596
   16        0.520   0.308   8.772   9.600
   17        0.513   0.310   8.773   9.596
   18        0.513   0.310   8.773   9.596
   19        0.520   0.302   8.775   9.597
   20        0.541   0.325   8.758   9.625
   21        0.541   0.325   8.758   9.625
   22        0.512   0.310   8.771   9.592
   23        0.541   0.325   8.758   9.625
   24        0.512   0.310   8.771   9.592
   25        0.520   0.302   8.775   9.597
   26        0.520   0.302   8.775   9.597
   27        0.512   0.310   8.771   9.592
   28        0.546   0.232   8.768   9.545
   29        0.538   0.244   8.772   9.553
   30        0.538   0.244   8.772   9.553
   31        0.538   0.244   8.772   9.553
   32        0.538   0.244   8.772   9.553
   33        0.538   0.244   8.772   9.553
   34        0.538   0.244   8.772   9.553
   35        0.545   0.231   8.770   9.546
   36        0.480   0.618   7.532   8.631
   37        0.938   1.432   0.000   2.370
   38        1.534   3.756   0.000   5.290
   39        0.550   0.129   0.000   0.678
tot         22.110  15.611 314.468 352.189

  FORCE on cell =-STRESS in cart. coord.  units (eV):
  Direction    XX          YY          ZZ          XY          YZ          ZX
  Alpha Z   858.21069   858.21069   858.21069
  Ewald  188120.45431188120.45475************    -0.00032    -0.00008    -0.00012
  Hartree196779.89044196779.89045************     0.00001    -0.00002    -0.00003
  E(xc)   -1819.02651 -1819.02666 -1823.99497     0.00013    -0.00001    -0.00002
  Local  ************************397081.56977     0.00219    -0.00000    -0.00005
  n-local  -104.70491   -57.77242   -50.96655    22.94337    -1.25857     1.27059
  augment  2437.59025  2437.59184  2437.48620    -0.00137     0.00000     0.00005
  Kinetic  5680.93923  5690.31302  5649.62425     5.31643     0.30485     0.20180
  Fock        0.00000     0.00000     0.00000     0.00000     0.00000     0.00000
  Total     -18.14821   -18.14821     2.14563    -0.00000     0.00000     0.00000
  in kB     -16.15514   -16.15514     1.90999    -0.00000     0.00000     0.00000

 VOLUME and BASIS-vectors are now :
  energy-cutoff  :      500.00
  volume of cell :     1799.84
      direct lattice vectors                 reciprocal lattice vectors
     8.813512802  0.000000000  0.000000000     0.113462137 -0.065507406  0.000000000
     4.406756909  7.632725690  0.000000000     0.000000000  0.131014796  0.000000000
     0.000000000  0.000000000 26.754991198     0.000000000  0.000000000  0.037376204

  length of vectors
     8.813512802  8.813512802 26.754991198     0.131014796  0.131014796  0.037376204

 FORCES acting on ions
    electron-ion (+dipol)            ewald-force                    non-local-force                 convergence-correction
   -.201E-04 -.165E-04 0.284E+04   0.519E-04 0.434E-04 -.284E+04   0.177E-17 -.210E-17 -.958E+00   -.203E-03 -.131E-03 -.369E+00
   0.231E+00 0.420E+00 0.284E+04   -.317E+00 -.440E+00 -.284E+04   0.407E-01 0.651E-01 -.289E+00   0.414E-01 -.356E-01 -.414E+00
   -.231E+00 0.420E+00 0.284E+04   0.317E+00 -.440E+00 -.284E+04   -.407E-01 0.651E-01 -.289E+00   -.411E-01 -.336E-01 -.413E+00
   0.479E+00 -.105E-01 0.284E+04   -.540E+00 -.539E-01 -.284E+04   0.767E-01 0.268E-02 -.289E+00   -.100E-01 0.536E-01 -.414E+00
   0.103E-04 -.223E-04 0.284E+04   0.951E-04 0.171E-05 -.284E+04   -.741E-18 -.191E-17 -.225E+00   0.430E-02 0.262E-02 -.433E+00
   -.479E+00 -.104E-01 0.284E+04   0.540E+00 -.540E-01 -.284E+04   -.767E-01 0.268E-02 -.289E+00   0.846E-02 0.546E-01 -.413E+00
   0.249E+00 -.410E+00 0.284E+04   -.223E+00 0.494E+00 -.284E+04   0.360E-01 -.678E-01 -.289E+00   -.496E-01 -.188E-01 -.413E+00
   -.249E+00 -.410E+00 0.284E+04   0.223E+00 0.494E+00 -.284E+04   -.360E-01 -.678E-01 -.289E+00   0.515E-01 -.199E-01 -.413E+00
   0.195E-04 -.414E-04 0.284E+04   0.166E-03 -.201E-04 -.284E+04   -.463E-17 -.324E-17 -.570E+00   -.464E-02 -.240E-02 -.405E+00
   0.413E+01 0.239E+01 0.998E+03   -.375E+01 -.217E+01 -.997E+03   -.306E+00 -.177E+00 -.611E+00   -.483E-01 -.280E-01 -.277E+00
   0.145E-04 0.464E+01 0.100E+04   0.148E-03 -.462E+01 -.100E+04   0.277E-08 0.416E-01 -.323E+00   0.380E-02 -.115E+00 -.293E+00
   -.413E+01 0.239E+01 0.998E+03   0.375E+01 -.217E+01 -.997E+03   0.306E+00 -.177E+00 -.611E+00   0.470E-01 -.265E-01 -.278E+00
   0.402E+01 -.232E+01 0.100E+04   -.400E+01 0.231E+01 -.100E+04   0.360E-01 -.208E-01 -.323E+00   -.975E-01 0.611E-01 -.293E+00
   -.402E+01 -.232E+01 0.100E+04   0.400E+01 0.231E+01 -.100E+04   -.360E-01 -.208E-01 -.323E+00   0.105E+00 0.607E-01 -.293E+00
   0.312E-04 0.584E+00 0.997E+03   0.236E-03 -.607E+00 -.996E+03   -.248E-08 -.372E-01 -.440E+00   -.241E-02 0.512E-01 -.262E+00
   -.209E-04 -.477E+01 0.998E+03   0.163E-03 0.433E+01 -.997E+03   0.235E-07 0.353E+00 -.611E+00   0.295E-03 0.539E-01 -.278E+00
   0.506E+00 -.292E+00 0.997E+03   -.526E+00 0.304E+00 -.996E+03   -.323E-01 0.186E-01 -.440E+00   0.434E-01 -.273E-01 -.262E+00
   -.506E+00 -.292E+00 0.997E+03   0.526E+00 0.304E+00 -.996E+03   0.323E-01 0.186E-01 -.440E+00   -.435E-01 -.253E-01 -.262E+00
   -.417E-04 0.200E+01 -.879E+03   0.531E-04 -.208E+01 0.878E+03   0.123E-08 0.185E-01 0.635E+00   -.539E-03 0.475E-01 -.797E-02
   0.160E+02 0.925E+01 -.839E+03   -.151E+02 -.874E+01 0.840E+03   -.793E+00 -.458E+00 -.913E+00   -.884E-01 -.512E-01 0.538E-01
   -.160E+02 0.925E+01 -.839E+03   0.151E+02 -.874E+01 0.840E+03   0.793E+00 -.458E+00 -.913E+00   0.894E-01 -.493E-01 0.536E-01
   0.621E+01 -.358E+01 -.870E+03   -.633E+01 0.365E+01 0.870E+03   0.213E+00 -.123E+00 0.539E+00   -.794E-01 0.414E-01 -.118E-01
   -.143E-04 -.185E+02 -.839E+03   0.144E-03 0.175E+02 0.840E+03   0.610E-07 0.916E+00 -.913E+00   0.178E-02 0.102E+00 0.536E-01
   -.621E+01 -.358E+01 -.870E+03   0.633E+01 0.365E+01 0.870E+03   -.213E+00 -.123E+00 0.539E+00   0.724E-01 0.418E-01 -.118E-01
   -.173E+01 -.100E+01 -.879E+03   0.180E+01 0.104E+01 0.878E+03   -.161E-01 -.927E-02 0.635E+00   -.393E-01 -.228E-01 -.831E-02
   0.173E+01 -.100E+01 -.879E+03   -.180E+01 0.104E+01 0.878E+03   0.161E-01 -.927E-02 0.635E+00   0.412E-01 -.242E-01 -.795E-02
   0.638E-05 0.717E+01 -.870E+03   0.199E-03 -.731E+01 0.870E+03   0.164E-07 0.246E+00 0.539E+00   -.438E-02 -.895E-01 -.118E-01
   -.127E-04 -.134E-04 -.274E+04   0.289E-04 0.350E-04 0.274E+04   -.439E-18 0.171E-18 0.845E-01   0.909E-04 0.333E-04 0.306E+00
   0.279E+02 0.480E+02 -.270E+04   -.280E+02 -.481E+02 0.270E+04   -.922E-01 -.143E+00 0.455E+00   0.101E-01 -.281E-01 0.278E+00
   -.279E+02 0.480E+02 -.270E+04   0.280E+02 -.481E+02 0.270E+04   0.922E-01 -.143E+00 0.455E+00   -.992E-02 -.260E-01 0.279E+00
   0.555E+02 0.169E+00 -.270E+04   -.557E+02 -.157E+00 0.270E+04   -.170E+00 -.815E-02 0.455E+00   -.192E-01 0.227E-01 0.278E+00
   -.555E+02 0.169E+00 -.270E+04   0.557E+02 -.157E+00 0.270E+04   0.170E+00 -.815E-02 0.455E+00   0.177E-01 0.238E-01 0.278E+00
   0.276E+02 -.481E+02 -.270E+04   -.277E+02 0.483E+02 0.270E+04   -.780E-01 0.151E+00 0.455E+00   -.274E-01 0.438E-02 0.279E+00
   -.276E+02 -.481E+02 -.270E+04   0.277E+02 0.483E+02 0.270E+04   0.780E-01 0.151E+00 0.455E+00   0.295E-01 0.345E-02 0.278E+00
   0.306E-04 -.270E-04 -.274E+04   0.145E-03 -.503E-04 0.274E+04   0.143E-17 -.186E-17 0.174E+00   -.479E-02 -.247E-02 0.236E+00
   0.201E-04 -.452E-05 -.193E+04   0.917E-04 0.821E-05 0.193E+04   -.444E-17 -.288E-17 -.527E+01   0.339E-02 0.206E-02 0.275E+00
   -.739E-05 -.819E-04 -.107E+04   0.155E-04 0.987E-06 0.106E+04   0.175E-18 0.386E-18 0.194E+02   0.127E-02 0.774E-03 0.690E-01
   0.245E-03 -.906E-04 -.177E+04   0.566E-05 0.525E-06 0.178E+04   -.168E-20 0.266E-18 -.750E+01   0.389E-02 0.238E-02 0.449E-01
   0.639E-05 -.142E-04 -.335E+03   0.270E-06 0.389E-07 0.343E+03   0.144E-20 -.123E-19 -.838E+01   0.202E-03 0.124E-03 0.289E-02
   -.443E-03 -.922E-03 0.948E+01   -.287E-13 0.153E-12 -.642E-11   0.388E-16 0.162E-15 -.561E+01   0.583E-02 0.416E-02 -.348E+01

 POSITION                                       TOTAL-FORCE (eV/Angst)
      0.00000      0.00000      5.28038         0.000000     -0.000000     -0.052131
      2.93784      0.00000      5.28038        -0.003392      0.010357     -0.030942
      5.87568      0.00000      5.28038         0.003392      0.010357     -0.030942
      1.46892      2.54424      5.28038         0.007274     -0.008116     -0.030942
      4.40676      2.54424      5.28038         0.000000     -0.000000     -0.041222
      7.34459      2.54424      5.28038        -0.007274     -0.008116     -0.030942
      2.93784      5.08848      5.28038         0.010666     -0.002241     -0.030942
      5.87568      5.08848      5.28038        -0.010666     -0.002241     -0.030942
      8.81351      5.08848      5.28038         0.000000      0.000000     -0.033504
      1.46892      0.84808      7.67911         0.029808      0.017210      0.126730
      4.40676      0.84808      7.67911        -0.000000     -0.052605      0.038329
      7.34459      0.84808      7.67911        -0.029808      0.017210      0.126730
      2.93784      3.39232      7.67911        -0.045557      0.026302      0.038329
      5.87568      3.39232      7.67911         0.045557      0.026302      0.038329
      8.81351      3.39232      7.67911        -0.000000     -0.009477      0.137372
      4.40676      5.93656      7.67911        -0.000000     -0.034420      0.126730
      7.34459      5.93656      7.67911        -0.008208      0.004739      0.137372
     10.28243      5.93656      7.67911         0.008208      0.004739      0.137372
      8.81351      1.69621     10.07295        -0.000000     -0.010127     -0.029352
      2.93663      1.69546     10.04742        -0.012308     -0.007106     -0.222009
      5.87688      1.69546     10.04742         0.012308     -0.007106     -0.222009
     10.27557      4.24437     10.06760         0.015984     -0.009228     -0.042656
      4.40676      4.24180     10.04742         0.000000      0.014212     -0.222009
      7.35146      4.24437     10.06760        -0.015984     -0.009228     -0.042656
     11.75131      6.78462     10.07295         0.008770      0.005063     -0.029352
      5.87571      6.78462     10.07295        -0.008770      0.005063     -0.029352
      8.81351      6.77672     10.06760         0.000000      0.018457     -0.042656
      0.00000      0.00000     12.49471         0.000000     -0.000000     -0.102648
      2.95476      0.03042     12.47845        -0.160090     -0.330495     -0.083771
      5.85875      0.03042     12.47845         0.160090     -0.330495     -0.083771
      1.50372      2.54369     12.47845        -0.366262      0.026605     -0.083771
      7.30979      2.54369     12.47845         0.366262      0.026605     -0.083771
      2.95572      5.05862     12.47845        -0.206172      0.303890     -0.083771
      5.85780      5.05862     12.47845         0.206172      0.303890     -0.083771
      8.81351      5.08848     12.49462         0.000000      0.000000     -0.075436
      4.40676      2.54424     12.26123         0.000000      0.000000      0.937064
      4.40676      2.54424     14.00266         0.000000      0.000000      0.007847
      4.40676      2.54424     15.24618         0.000000     -0.000000      0.010197
      4.40676      2.54424     16.21242         0.000000     -0.000000      0.012867
    total drift:                                0.005384      0.003243      0.384985

  FREE ENERGIE OF THE ION-ELECTRON SYSTEM (eV)
  free  energy   TOTEN  =      -130.97227622 eV

  energy  without entropy=     -130.97227622  energy(sigma->0) =     -130.97227622

 stress matrix after NEB project (eV)
    -18.14821     -0.00000      0.00000
     -0.00000    -18.14821      0.00000
     -0.00000      0.00000      2.14563
  FORCES: max atom, RMS     0.012867    0.002914
  FORCE total and by dimension    0.018197    0.012867
  Stress total and by dimension   25.754973   18.148209
|           W    W    AA    RRRRR   N    N  II  N    N   GGGG   !!!           |
|           W    W   A  A   R    R  NN   N  II  NN   N  G    G  !!!           |
|           W    W  A    A  R    R  N N  N  II  N N  N  G       !!!           |
|           W WW W  AAAAAA  RRRRR   N  N N  II  N  N N  G  GGG   !            |
|           WW  WW  A    A  R   R   N   NN  II  N   NN  G    G                |
|           W    W  A    A  R    R  N    N  II  N    N   GGGG   !!!           |
|     Tetrahedron method does not include variations of the Fermi             |
|     occupations, so forces and stress will be inaccurate. We suggest        |
|     using a different smearing scheme ISMEAR = 1 or 2 for metals in         |
|     relaxations.                                                            |

 total charge

# of ion       s       p       d       tot
    1        0.543   0.240   8.766   9.549
    2        0.546   0.241   8.765   9.551
    3        0.546   0.241   8.765   9.551
    4        0.546   0.241   8.765   9.551
    5        0.544   0.242   8.764   9.549
    6        0.546   0.241   8.765   9.551
    7        0.546   0.241   8.765   9.551
    8        0.546   0.241   8.765   9.551
    9        0.541   0.241   8.768   9.549
   10        0.520   0.308   8.772   9.600
   11        0.522   0.307   8.778   9.607
   12        0.520   0.308   8.772   9.600
   13        0.522   0.307   8.778   9.607
   14        0.522   0.307   8.778   9.607
   15        0.513   0.310   8.773   9.596
   16        0.520   0.308   8.772   9.600
   17        0.513   0.310   8.773   9.596
   18        0.513   0.310   8.773   9.596
   19        0.520   0.302   8.775   9.597
   20        0.541   0.325   8.758   9.625
   21        0.541   0.325   8.758   9.625
   22        0.512   0.310   8.771   9.592
   23        0.541   0.325   8.758   9.625
   24        0.512   0.310   8.771   9.592
   25        0.520   0.302   8.775   9.597
   26        0.520   0.302   8.775   9.597
   27        0.512   0.310   8.771   9.592
   28        0.546   0.232   8.768   9.545
   29        0.538   0.244   8.772   9.553
   30        0.538   0.244   8.772   9.553
   31        0.538   0.244   8.772   9.553
   32        0.538   0.244   8.772   9.553
   33        0.538   0.244   8.772   9.553
   34        0.538   0.244   8.772   9.553
   35        0.545   0.231   8.770   9.546
   36        0.480   0.618   7.532   8.631
   37        0.938   1.432   0.000   2.370
   38        1.534   3.756   0.000   5.290
   39        0.550   0.129   0.000   0.678
tot         22.110  15.611 314.468 352.189

 BZINTS: Fermi energy:    0.407899;  405.000000 electrons
         Band energy:-0.142398E+04;  BLOECHL correction:   -0.077774