 vasp.6.2.0 18Jan21 (build Jun 12 2021 23:27:24) complex

 executed on             LinuxIFC date 2022.05.30  16:24:31

 INCAR:
   ISMEAR = -5
   SIGMA = 0.1
   ISPIN = 1
   EDIFF = 1.d-5
   NSW = 0
   NELM = 150
   ENCUT = 500
   ISIF = 2
   IBRION = 2
   LREAL = Auto
   ALGO = Fast
   ICHARG = 11
   LORBIT = 10
   LCHARG = .F.
   LWAVE = .F.

 POTCAR:    PAW_PBE Au 04Oct2007
 POTCAR:    PAW_PBE Hf 20Jan2003
 POTCAR:    PAW_PBE C 08Apr2002
 POTCAR:    PAW_PBE O 08Apr2002
 POTCAR:    PAW_PBE H 15Jun2001
|           W    W    AA    RRRRR   N    N  II  N    N   GGGG   !!!           |
|           W    W   A  A   R    R  NN   N  II  NN   N  G    G  !!!           |
|           W    W  A    A  R    R  N N  N  II  N N  N  G       !!!           |
|           W WW W  AAAAAA  RRRRR   N  N N  II  N  N N  G  GGG   !            |
|           WW  WW  A    A  R   R   N   NN  II  N   NN  G    G                |
|           W    W  A    A  R    R  N    N  II  N    N   GGGG   !!!           |
|     For optimal performance we recommend to set                             |
|       NCORE = 2 up to number-of-cores-per-socket                            |
|     This setting can greatly improve the performance of VASP for DFT.       |
|     The default, NCORE=1 might be grossly inefficient on modern             |
|     multi-core architectures or massively parallel machines. Do your        |
|     Unfortunately you need to use the default for GW and RPA                |
|     calculations (for HF NCORE is supported but not extensively tested      |
|     yet).                                                                   |

 POTCAR:    PAW_PBE Au 04Oct2007
   VRHFIN =Au: s1d10

   TITEL  = PAW_PBE Au 04Oct2007
   POMASS =  196.966; ZVAL   =   11.000    mass and valenz
   ENMAX  =  229.943; ENMIN  =  172.457 eV

 POTCAR:    PAW_PBE Hf 20Jan2003
   VRHFIN =Hf: 6s5d

   TITEL  = PAW_PBE Hf 20Jan2003
   POMASS =  178.490; ZVAL   =    4.000    mass and valenz
   ENMAX  =  220.334; ENMIN  =  165.250 eV

 POTCAR:    PAW_PBE C 08Apr2002
   VRHFIN =C: s2p2

   TITEL  = PAW_PBE C 08Apr2002
   POMASS =   12.011; ZVAL   =    4.000    mass and valenz
   ENMAX  =  400.000; ENMIN  =  300.000 eV

 POTCAR:    PAW_PBE O 08Apr2002
   VRHFIN =O: s2p4

   TITEL  = PAW_PBE O 08Apr2002
   POMASS =   16.000; ZVAL   =    6.000    mass and valenz
   ENMAX  =  400.000; ENMIN  =  300.000 eV

 POTCAR:    PAW_PBE H 15Jun2001
   VRHFIN =H: ultrasoft test

   TITEL  = PAW_PBE H 15Jun2001
   POMASS =    1.000; ZVAL   =    1.000    mass and valenz
   ENMAX  =  250.000; ENMIN  =  200.000 eV

 Optimization of the real space projectors (new method)

 maximal supplied QI-value         = 15.12
 optimisation between [QCUT,QGAM] = [ 11.34, 22.83] = [ 36.00,145.93] Ry
 Optimized for a Real-space Cutoff    1.39 Angstroem

   l    n(q)    QCUT    max X(q) W(low)/X(q) W(high)/X(q)  e(spline)
   2      9    11.338    60.898    0.39E-03    0.42E-03    0.21E-06
   2      9    11.338    58.894    0.40E-03    0.42E-03    0.22E-06
   0      9    11.338   109.617    0.13E-03    0.20E-04    0.13E-06
   0      9    11.338    75.026    0.13E-03    0.20E-04    0.13E-06
   1      9    11.338    16.344    0.33E-04    0.24E-03    0.18E-06
   1      9    11.338    10.160    0.26E-04    0.19E-03    0.15E-06
 Optimization of the real space projectors (new method)

[...]

   l    n(q)    QCUT    max X(q) W(low)/X(q) W(high)/X(q)  e(spline)
   0      7    11.387    20.381    0.39E-03    0.13E-02    0.15E-06
   0      7    11.387    15.268    0.42E-03    0.14E-02    0.17E-06
   1      6    11.387     5.964    0.41E-03    0.11E-02    0.17E-06
   1      6    11.387     5.382    0.39E-03    0.87E-03    0.15E-06
 Optimization of the real space projectors (new method)

 maximal supplied QI-value         = 34.20
 optimisation between [QCUT,QGAM] = [ 11.29, 22.57] = [ 35.68,142.71] Ry
 Optimized for a Real-space Cutoff    1.16 Angstroem

   l    n(q)    QCUT    max X(q) W(low)/X(q) W(high)/X(q)  e(spline)
   0      8    11.287    19.460    0.40E-03    0.73E-03    0.16E-06
   0      8    11.287    12.209    0.38E-03    0.70E-03    0.15E-06
   1      7    11.287     4.655    0.22E-03    0.25E-04    0.22E-06
  PAW_PBE Au 04Oct2007                  :
  PAW_PBE Hf 20Jan2003                  :
  PAW_PBE C 08Apr2002                   :
  PAW_PBE O 08Apr2002                   :
  PAW_PBE H 15Jun2001                   :

 POSCAR: Au-Hf-COH
  positions in direct lattice
  velocities in cartesian coordinates
 exchange correlation table for  LEXCH =        8
   RHO(1)=    0.500       N(1)  =     2000
   RHO(2)=  100.500       N(2)  =     4000

 VTST: version 3.2, (02/03/18)

 CHAIN: initializing optimizer

 OPT: Using VASP Conjugate-Gradient optimizer
 CHAIN: Read ICHAIN            0

 POSCAR: Au-Hf-COH
  positions in direct lattice
  velocities in cartesian coordinates

 ion  position               nearest neighbor table
   1  0.000  0.000  0.197-  16 2.94  12 2.94   6 2.94   8 2.94   7 2.94   3 2.94  10 2.94   4 2.94
                             2 2.94
   2  0.333  0.000  0.197-   9 2.94  11 2.94  17 2.94  10 2.94   8 2.94   4 2.94   5 2.94   1 2.94
                             3 2.94
   3  0.667  0.000  0.197-   7 2.94  18 2.94  12 2.94   1 2.94  11 2.94   5 2.94   6 2.94   9 2.94
                             2 2.94
   4  0.000  0.333  0.197-  10 2.94   6 2.94   5 2.94  13 2.94   2 2.94  15 2.94   9 2.94   1 2.94
                             7 2.94
   5  0.333  0.333  0.197-  13 2.94   7 2.94  11 2.94   4 2.94   2 2.94  14 2.94   3 2.94   8 2.94
                             6 2.94
   6  0.667  0.333  0.197-  15 2.94  14 2.94   1 2.94  12 2.94   4 2.94   9 2.94   8 2.94   3 2.94
                             5 2.94
   7  0.000  0.667  0.197-  18 2.94   3 2.94  16 2.94   5 2.94   1 2.94  13 2.94   8 2.94   4 2.94
                             9 2.94
   8  0.333  0.667  0.197-   9 2.94  17 2.94   1 2.94   2 2.94  14 2.94  16 2.94   6 2.94   7 2.94
                             5 2.94
   9  0.667  0.667  0.197-   2 2.94   8 2.94  17 2.94   6 2.94  15 2.94   4 2.94   3 2.94  18 2.94
                             7 2.94
  10  0.111  0.111  0.287-  20 2.93  26 2.94  19 2.94  11 2.94  17 2.94   2 2.94   4 2.94   1 2.94
                            12 2.94  16 2.94  13 2.94  15 2.94
  11  0.444  0.111  0.287-  20 2.92  21 2.92  13 2.94   2 2.94  10 2.94  17 2.94   5 2.94   3 2.94
                            18 2.94  14 2.94  12 2.94  27 2.94
  12  0.778  0.111  0.287-  21 2.93  25 2.94  19 2.94  16 2.94  18 2.94   1 2.94  14 2.94  15 2.94
                             3 2.94   6 2.94  10 2.94  11 2.94
  13  0.111  0.444  0.287-  23 2.92  20 2.92   5 2.94  18 2.94  11 2.94   7 2.94   4 2.94  16 2.94
                            10 2.94  14 2.94  15 2.94  22 2.94
  14  0.444  0.444  0.287-  21 2.92  23 2.92  15 2.94   6 2.94  12 2.94   8 2.94  17 2.94   5 2.94
                            16 2.94  13 2.94  11 2.94  24 2.94
  15  0.778  0.444  0.287-  24 2.93  22 2.93  19 2.94  14 2.94   6 2.94  17 2.94  12 2.94   9 2.94
                             4 2.94  10 2.94  13 2.94  18 2.94
  16  0.111  0.778  0.287-  23 2.93  25 2.94  26 2.94  18 2.94  12 2.94   7 2.94   1 2.94   8 2.94
                            13 2.94  10 2.94  14 2.94  17 2.94
  17  0.444  0.778  0.287-  27 2.93  24 2.93  26 2.94   9 2.94  15 2.94   2 2.94  10 2.94  11 2.94
                             8 2.94  14 2.94  16 2.94  18 2.94
  18  0.778  0.778  0.287-  22 2.93  27 2.93  25 2.94  16 2.94   7 2.94  13 2.94  12 2.94   3 2.94
                            11 2.94   9 2.94  15 2.94  17 2.94
  19  0.889  0.222  0.377-  15 2.94  10 2.94  12 2.94  24 2.94  22 2.94  26 2.94  25 2.94  21 2.94
                            20 2.94  28 2.96  32 3.04  31 3.04
  20  0.223  0.223  0.376-  36 2.81  11 2.92  13 2.92  23 2.93  21 2.93  10 2.93  26 2.94  19 2.94
                            27 2.95  22 2.95  29 2.99  31 2.99
  21  0.555  0.223  0.376-  36 2.81  14 2.92  11 2.92  20 2.93  23 2.93  12 2.93  25 2.94  19 2.94
                            27 2.95  24 2.95  30 2.99  32 2.99
  22  0.887  0.556  0.376-  24 2.92  27 2.92  18 2.93  15 2.93  25 2.94  19 2.94  13 2.94  23 2.95
                            20 2.95  35 2.96  33 3.01  31 3.01
  23  0.223  0.555  0.376-  36 2.81  13 2.92  14 2.92  20 2.93  21 2.93  16 2.93  25 2.94  26 2.94
                            22 2.95  24 2.95  33 2.99  34 2.99
  24  0.556  0.556  0.376-  27 2.92  22 2.92  15 2.93  17 2.93  26 2.94  19 2.94  14 2.94  21 2.95
                            23 2.95  35 2.96  32 3.01  34 3.01
  25  0.889  0.889  0.377-  18 2.94  16 2.94  12 2.94  22 2.94  27 2.94  19 2.94  26 2.94  23 2.94
                            21 2.94  28 2.96  33 3.04  30 3.04
  26  0.222  0.889  0.377-  17 2.94  10 2.94  16 2.94  27 2.94  24 2.94  19 2.94  25 2.94  20 2.94
                            23 2.94  28 2.96  29 3.04  34 3.04
  27  0.556  0.887  0.376-  24 2.92  22 2.92  17 2.93  18 2.93  26 2.94  25 2.94  11 2.94  20 2.95
                            21 2.95  35 2.96  29 3.01  30 3.01
  28  0.000  0.000  0.467-  25 2.96  19 2.96  26 2.96  34 2.98  32 2.98  33 2.98  30 2.98  31 2.98
                            29 2.98
  29  0.334  0.008  0.469-  30 2.86  31 2.87  36 2.88  35 2.97  28 2.98  20 2.99  27 3.01  26 3.04
                            34 3.08
  30  0.658  0.008  0.469-  29 2.86  32 2.87  36 2.88  35 2.97  28 2.98  21 2.99  27 3.01  25 3.04
                            33 3.08
  31  0.008  0.334  0.469-  33 2.86  29 2.87  36 2.88  35 2.97  28 2.98  20 2.99  22 3.01  19 3.04
                            32 3.08
  32  0.658  0.334  0.469-  34 2.86  30 2.87  36 2.88  35 2.97  28 2.98  21 2.99  24 3.01  19 3.04
                            31 3.08
  33  0.008  0.658  0.469-  31 2.86  34 2.87  36 2.88  35 2.97  28 2.98  23 2.99  22 3.01  25 3.04
                            30 3.08
  34  0.334  0.658  0.469-  32 2.86  33 2.87  36 2.88  35 2.97  28 2.98  23 2.99  24 3.01  26 3.04
                            29 3.08
  35  0.667  0.667  0.467-  24 2.96  27 2.96  22 2.96  29 2.97  34 2.97  32 2.97  31 2.97  30 2.97
                            33 2.97
  36  0.333  0.333  0.460-  37 2.08  20 2.81  23 2.81  21 2.81  33 2.88  31 2.88  29 2.88  30 2.88
                            34 2.88  32 2.88
  37  0.333  0.333  0.538-  38 1.25  36 2.08
  38  0.333  0.333  0.585-  39 0.96  37 1.25
  39  0.333  0.333  0.621-  38 0.96

  LATTYP: Found a hexagonal cell.
 ALAT       =     8.8135128021
 C/A-ratio  =     3.0356784858

  Lattice vectors:

 A1 = (  -4.4067569092,  -7.6327256898,   0.0000000000)
 A2 = (   8.8135128021,   0.0000000000,   0.0000000000)
 A3 = (   0.0000000000,   0.0000000000,  26.7549911976)

Analysis of symmetry for initial positions (statically):
 Subroutine PRICEL returns:
 Original cell was already a primitive cell.

 Routine SETGRP: Setting up the symmetry group for a
 hexagonal supercell.

 Subroutine GETGRP returns: Found  6 space group operations
 (whereof  6 operations were pure point group operations)
 out of a pool of 24 trial point group operations.

The static configuration has the point symmetry C_3v.

Analysis of symmetry for dynamics (positions and initial velocities):
[...]
     41      -5.0340      2.00000
     42      -4.8872      2.00000
     43      -4.8806      2.00000
     44      -4.8169      2.00000
     45      -4.7704      2.00000
     46      -4.7459      2.00000
     47      -4.7126      2.00000
     48      -4.6902      2.00000
     49      -4.6643      2.00000
     50      -4.6396      2.00000
     51      -4.5520      2.00000
     52      -4.5306      2.00000
     53      -4.5103      2.00000
     54      -4.4781      2.00000
     55      -4.4713      2.00000
     56      -4.4666      2.00000
     57      -4.4511      2.00000
     58      -4.4299      2.00000
     59      -4.3885      2.00000
     60      -4.3590      2.00000
[...]
    238       5.2827      0.00000
    239       5.3043      0.00000
    240       5.4655      0.00000
    241       5.5837      0.00000
    242       5.7646      0.00000
    243       5.9287      0.00000
    244       5.9469      0.00000
    245       6.0049      0.00000
    246       6.0711      0.00000
    247       6.1039      0.00000
    248       6.1691      0.00000
    249       6.2041      0.00000
    250       6.3250      0.00000
    251       6.3922      0.00000
    252       6.3995      0.00000

 soft charge-density along one line, spin component           1
         0         1         2         3         4         5         6         7         8         9
 total charge-density along one line

------------------------ aborting loop because EDIFF is reached ----------------------------------------

 total charge

# of ion       s       p       d       tot
    1        0.547   0.237   8.769   9.553
    2        0.542   0.241   8.765   9.548
    3        0.542   0.241   8.765   9.548
    4        0.542   0.241   8.765   9.548
    5        0.550   0.241   8.758   9.550
    6        0.542   0.241   8.765   9.548
    7        0.542   0.241   8.765   9.548
    8        0.542   0.241   8.765   9.548
    9        0.542   0.240   8.769   9.551
   10        0.524   0.307   8.770   9.601
   11        0.523   0.305   8.778   9.606
   12        0.524   0.307   8.770   9.601
   13        0.523   0.305   8.778   9.606
   14        0.523   0.305   8.778   9.606
   15        0.517   0.308   8.773   9.598
   16        0.524   0.307   8.770   9.601
   17        0.517   0.308   8.773   9.598
   18        0.517   0.308   8.773   9.598
   19        0.519   0.298   8.767   9.585
   20        0.570   0.331   8.740   9.642
   21        0.570   0.331   8.740   9.642
   22        0.509   0.305   8.777   9.591
   23        0.570   0.331   8.740   9.642
   24        0.509   0.305   8.777   9.591
   25        0.519   0.298   8.767   9.585
   26        0.519   0.298   8.767   9.585
   27        0.509   0.305   8.777   9.591
   28        0.541   0.230   8.760   9.531
   29        0.585   0.248   8.741   9.574
   30        0.585   0.248   8.741   9.574
   31        0.585   0.248   8.741   9.574
   32        0.585   0.248   8.741   9.574
   33        0.585   0.248   8.741   9.574
   34        0.585   0.248   8.741   9.574
   35        0.544   0.231   8.760   9.534
   36        0.525   0.618   2.101   3.244
   37        0.950   1.379   0.000   2.329
   38        1.527   3.757   0.000   5.284
   39        0.562   0.136   0.000   0.697
tot         22.535  15.570 308.768 346.874

  FORCE on cell =-STRESS in cart. coord.  units (eV):
  Direction    XX          YY          ZZ          XY          YZ          ZX
  Alpha Z   852.26244   852.26244   852.26244
  Ewald  181420.52441181420.52479************    -0.00033    -0.00009    -0.00014
  Hartree189874.29894189874.29893************     0.00001    -0.00002    -0.00005
  E(xc)   -1791.50838 -1791.50846 -1798.67938     0.00007    -0.00000    -0.00000
  Local  ************************383164.48117     0.00218     0.00001     0.00000
  n-local   -89.52082   -46.58172   -41.01749    21.41194    -1.42659     1.26911
  augment  2371.57886  2371.58048  2388.08064    -0.00140    -0.00001     0.00001
  Kinetic  5589.36601  5594.06748  5597.39782     4.44263     0.34868     0.21291
  Fock        0.00000     0.00000     0.00000     0.00000     0.00000     0.00000
  Total     -20.08109   -20.08109     2.82204    -0.00000     0.00000    -0.00000
  in kB     -17.87575   -17.87575     2.51212    -0.00000     0.00000    -0.00000

 VOLUME and BASIS-vectors are now :
  energy-cutoff  :      500.00
  volume of cell :     1799.84
      direct lattice vectors                 reciprocal lattice vectors
     8.813512802  0.000000000  0.000000000     0.113462137 -0.065507406  0.000000000
     4.406756909  7.632725690  0.000000000     0.000000000  0.131014796  0.000000000
     0.000000000  0.000000000 26.754991198     0.000000000  0.000000000  0.037376204

  length of vectors
     8.813512802  8.813512802 26.754991198     0.131014796  0.131014796  0.037376204

 FORCES acting on ions
    electron-ion (+dipol)            ewald-force                    non-local-force                 convergence-correction
   -.200E-04 -.164E-04 0.280E+04   0.518E-04 0.432E-04 -.280E+04   -.210E-19 0.271E-17 -.642E+00   -.281E-03 -.176E-03 -.251E+00
   -.459E-01 -.452E+00 0.280E+04   -.164E-01 0.287E+00 -.280E+04   0.521E-01 0.153E+00 -.300E+00   0.141E-01 0.318E-02 -.235E+00
   0.459E-01 -.452E+00 0.280E+04   0.163E-01 0.287E+00 -.280E+04   -.521E-01 0.153E+00 -.300E+00   -.137E-01 0.522E-02 -.234E+00
   -.415E+00 0.186E+00 0.280E+04   0.241E+00 -.158E+00 -.280E+04   0.158E+00 -.313E-01 -.300E+00   0.984E-02 0.105E-01 -.235E+00
   0.102E-04 -.225E-04 0.279E+04   0.951E-04 0.172E-05 -.279E+04   0.528E-17 0.276E-18 0.254E+00   0.439E-02 0.267E-02 -.125E+00
   0.415E+00 0.186E+00 0.280E+04   -.241E+00 -.158E+00 -.280E+04   -.158E+00 -.313E-01 -.300E+00   -.115E-01 0.115E-01 -.234E+00
   -.369E+00 0.266E+00 0.280E+04   0.257E+00 -.130E+00 -.280E+04   0.106E+00 -.121E+00 -.300E+00   -.227E-02 -.145E-01 -.234E+00
   0.369E+00 0.266E+00 0.280E+04   -.257E+00 -.130E+00 -.280E+04   -.106E+00 -.121E+00 -.300E+00   0.419E-02 -.157E-01 -.234E+00
   0.196E-04 -.416E-04 0.280E+04   0.166E-03 -.200E-04 -.280E+04   -.240E-17 -.134E-17 -.467E+00   -.466E-02 -.241E-02 -.252E+00
   -.466E+00 -.269E+00 0.939E+03   0.619E+00 0.357E+00 -.938E+03   -.258E+00 -.149E+00 -.519E+00   0.560E-01 0.322E-01 -.137E+00
   0.143E-04 -.166E+01 0.936E+03   0.148E-03 0.162E+01 -.936E+03   0.153E-09 0.230E-02 -.899E-01   0.426E-02 0.104E-01 -.131E+00
   0.466E+00 -.269E+00 0.939E+03   -.619E+00 0.357E+00 -.938E+03   0.258E+00 -.149E+00 -.519E+00   -.579E-01 0.342E-01 -.136E+00
   -.144E+01 0.829E+00 0.936E+03   0.141E+01 -.811E+00 -.936E+03   0.200E-02 -.115E-02 -.899E-01   0.114E-01 -.123E-02 -.131E+00
   0.144E+01 0.829E+00 0.936E+03   -.141E+01 -.811E+00 -.936E+03   -.200E-02 -.115E-02 -.899E-01   -.305E-02 -.191E-02 -.130E+00
   0.328E-04 0.250E+01 0.941E+03   0.235E-03 -.250E+01 -.941E+03   0.442E-09 0.664E-02 -.538E+00   -.297E-02 -.496E-01 -.189E+00
   -.198E-04 0.539E+00 0.939E+03   0.162E-03 -.714E+00 -.938E+03   0.199E-07 0.298E+00 -.519E+00   0.385E-03 -.673E-01 -.136E+00
   0.217E+01 -.125E+01 0.941E+03   -.216E+01 0.125E+01 -.941E+03   0.575E-02 -.332E-02 -.538E+00   -.442E-01 0.227E-01 -.189E+00
   -.217E+01 -.125E+01 0.941E+03   0.216E+01 0.125E+01 -.941E+03   -.575E-02 -.332E-02 -.538E+00   0.443E-01 0.253E-01 -.189E+00
   -.438E-04 -.527E+01 -.928E+03   0.558E-04 0.540E+01 0.927E+03   0.189E-08 0.284E-01 0.697E+00   -.609E-02 -.976E-01 0.315E-01
   -.221E+02 -.128E+02 -.944E+03   0.231E+02 0.133E+02 0.945E+03   -.111E+01 -.643E+00 -.134E+01   0.990E-02 0.558E-02 0.321E-01
   0.221E+02 -.128E+02 -.944E+03   -.231E+02 0.133E+02 0.945E+03   0.111E+01 -.643E+00 -.134E+01   -.565E-03 0.712E-02 0.311E-01
   -.165E+02 0.953E+01 -.922E+03   0.161E+02 -.931E+01 0.922E+03   0.261E+00 -.151E+00 0.551E+00   0.103E+00 -.625E-01 -.384E-01
   -.867E-05 0.255E+02 -.944E+03   0.137E-03 -.266E+02 0.945E+03   0.856E-07 0.129E+01 -.134E+01   0.563E-02 -.404E-02 0.311E-01
   0.165E+02 0.953E+01 -.922E+03   -.161E+02 -.931E+01 0.922E+03   -.261E+00 -.151E+00 0.551E+00   -.111E+00 -.641E-01 -.380E-01
   0.457E+01 0.264E+01 -.928E+03   -.468E+01 -.270E+01 0.927E+03   -.246E-01 -.142E-01 0.697E+00   0.823E-01 0.474E-01 0.315E-01
   -.457E+01 0.264E+01 -.928E+03   0.468E+01 -.270E+01 0.927E+03   0.246E-01 -.142E-01 0.697E+00   -.873E-01 0.436E-01 0.315E-01
   0.658E-05 -.191E+02 -.922E+03   0.199E-03 0.186E+02 0.922E+03   0.201E-07 0.302E+00 0.551E+00   -.321E-02 0.120E+00 -.384E-01
   -.119E-04 -.116E-04 -.268E+04   0.280E-04 0.321E-04 0.268E+04   0.438E-17 0.240E-17 0.342E+00   -.148E-02 -.869E-03 0.133E+00
   0.278E+01 -.280E+01 -.268E+04   -.183E+01 0.429E+01 0.268E+04   -.105E+01 -.173E+01 -.210E+00   0.976E-02 0.690E-01 0.114E+00
   -.278E+01 -.280E+01 -.268E+04   0.183E+01 0.429E+01 0.268E+04   0.105E+01 -.173E+01 -.210E+00   -.276E-02 0.707E-01 0.114E+00
   -.103E+01 0.381E+01 -.268E+04   0.280E+01 -.373E+01 0.268E+04   -.203E+01 -.469E-01 -.210E+00   0.647E-01 -.261E-01 0.114E+00
   0.103E+01 0.381E+01 -.268E+04   -.280E+01 -.373E+01 0.268E+04   0.203E+01 -.469E-01 -.210E+00   -.595E-01 -.254E-01 0.113E+00
   -.382E+01 -.101E+01 -.268E+04   0.463E+01 -.558E+00 0.268E+04   -.973E+00 0.178E+01 -.210E+00   0.599E-01 -.378E-01 0.114E+00
   0.382E+01 -.101E+01 -.268E+04   -.463E+01 -.559E+00 0.268E+04   0.973E+00 0.178E+01 -.210E+00   -.517E-01 -.388E-01 0.113E+00
   0.320E-04 -.310E-04 -.269E+04   0.144E-03 -.474E-04 0.269E+04   -.752E-17 -.144E-17 0.359E+00   -.592E-02 -.312E-02 0.209E+00
   -.351E-05 0.904E-05 -.877E+03   0.408E-04 0.362E-05 0.879E+03   0.649E-18 0.176E-18 -.199E+01   0.235E-03 0.140E-03 0.497E-01
   -.730E-05 -.792E-04 -.946E+03   0.111E-04 0.769E-06 0.923E+03   0.177E-18 -.221E-18 0.235E+02   0.921E-03 0.565E-03 0.573E-02
   0.244E-03 -.905E-04 -.163E+04   0.345E-05 0.408E-06 0.164E+04   0.235E-18 -.109E-18 -.488E+01   0.379E-02 0.232E-02 -.314E-01
   0.657E-05 -.144E-04 -.316E+03   0.150E-06 0.308E-07 0.325E+03   -.922E-20 0.227E-19 -.870E+01   0.200E-03 0.122E-03 -.302E-02
   -.545E-03 -.940E-03 0.178E+01   0.110E-12 0.177E-12 0.171E-12   0.216E-15 -.158E-17 0.967E+00   0.190E-01 0.117E-01 -.228E+01

 POSITION                                       TOTAL-FORCE (eV/Angst)
      0.00000      0.00000      5.28038         0.000000     -0.000000     -0.146512
      2.93784      0.00000      5.28038         0.004245     -0.008038     -0.055098
      5.87568      0.00000      5.28038        -0.004245     -0.008038     -0.055098
      1.46892      2.54424      5.28038        -0.004838      0.007696     -0.055098
      4.40676      2.54424      5.28038         0.000000     -0.000000     -0.091467
      7.34459      2.54424      5.28038         0.004838      0.007696     -0.055098
      2.93784      5.08848      5.28038        -0.009084      0.000342     -0.055098
      5.87568      5.08848      5.28038         0.009084      0.000342     -0.055098
      8.81351      5.08848      5.28038         0.000000     -0.000000     -0.061175
      1.46892      0.84808      7.67911        -0.048573     -0.028044      0.080358
      4.40676      0.84808      7.67911        -0.000000     -0.025066      0.033638
      7.34459      0.84808      7.67911         0.048573     -0.028044      0.080358
      2.93784      3.39232      7.67911        -0.021708      0.012533      0.033638
      5.87568      3.39232      7.67911         0.021708      0.012533      0.033638
      8.81351      3.39232      7.67911        -0.000000     -0.041707      0.124797
      4.40676      5.93656      7.67911         0.000000      0.056087      0.080358
      7.34459      5.93656      7.67911        -0.036119      0.020853      0.124797
     10.28243      5.93656      7.67911         0.036119      0.020853      0.124797
      8.81351      1.69636     10.07469         0.000000      0.061599      0.084061
      2.94338      1.69936     10.06127        -0.149698     -0.086428     -0.221096
      5.87013      1.69936     10.06127         0.149698     -0.086428     -0.221096
     10.27220      4.24631     10.06987        -0.008722      0.005036      0.055213
      4.40676      4.23400     10.06127         0.000000      0.172856     -0.221096
      7.35483      4.24631     10.06987         0.008722      0.005036      0.055213
     11.75117      6.78454     10.07469        -0.053346     -0.030800      0.084061
      5.87585      6.78454     10.07469         0.053346     -0.030800      0.084061
      8.81351      6.77283     10.06987        -0.000000     -0.010072      0.055213
      0.00000      0.00000     12.49672         0.000000     -0.000000     -0.121707
      2.97727      0.06002     12.55884        -0.093413     -0.174186     -0.006850
      5.83624      0.06002     12.55884         0.093413     -0.174186     -0.006850
      1.54061      2.54838     12.55884        -0.197556      0.006195     -0.006850
      7.27290      2.54838     12.55884         0.197556      0.006195     -0.006850
      2.97010      5.02433     12.55884        -0.104143      0.167991     -0.006850
      5.84341      5.02433     12.55884         0.104143      0.167991     -0.006850
      8.81351      5.08848     12.50791         0.000000     -0.000000     -0.057954
      4.40676      2.54424     12.31155         0.000000     -0.000000      0.416445
      4.40676      2.54424     14.39296         0.000000     -0.000000     -0.021456
      4.40676      2.54424     15.64658         0.000000     -0.000000     -0.037502
      4.40676      2.54424     16.60488         0.000000     -0.000000      0.022106
    total drift:                                0.018470      0.010764      0.470485

  FREE ENERGIE OF THE ION-ELECTRON SYSTEM (eV)
  free  energy   TOTEN  =      -134.86749954 eV

  energy  without entropy=     -134.86749954  energy(sigma->0) =     -134.86749954

 stress matrix after NEB project (eV)
    -20.08109     -0.00000     -0.00000
     -0.00000    -20.08109     -0.00000
      0.00000      0.00000      2.82204
  FORCES: max atom, RMS     0.037502    0.007771
  FORCE total and by dimension    0.048533    0.037502
  Stress total and by dimension   28.538822   20.081092
|           W    W    AA    RRRRR   N    N  II  N    N   GGGG   !!!           |
|           W    W   A  A   R    R  NN   N  II  NN   N  G    G  !!!           |
|           W    W  A    A  R    R  N N  N  II  N N  N  G       !!!           |
|           W WW W  AAAAAA  RRRRR   N  N N  II  N  N N  G  GGG   !            |
|           WW  WW  A    A  R   R   N   NN  II  N   NN  G    G                |
|           W    W  A    A  R    R  N    N  II  N    N   GGGG   !!!           |
|     Tetrahedron method does not include variations of the Fermi             |
|     occupations, so forces and stress will be inaccurate. We suggest        |
|     using a different smearing scheme ISMEAR = 1 or 2 for metals in         |
|     relaxations.                                                            |

 total charge

# of ion       s       p       d       tot
    1        0.547   0.237   8.769   9.553
    2        0.542   0.241   8.765   9.548
    3        0.542   0.241   8.765   9.548
    4        0.542   0.241   8.765   9.548
    5        0.550   0.241   8.758   9.550
    6        0.542   0.241   8.765   9.548
    7        0.542   0.241   8.765   9.548
    8        0.542   0.241   8.765   9.548
    9        0.542   0.240   8.769   9.551
   10        0.524   0.307   8.770   9.601
   11        0.523   0.305   8.778   9.606
   12        0.524   0.307   8.770   9.601
   13        0.523   0.305   8.778   9.606
   14        0.523   0.305   8.778   9.606
   15        0.517   0.308   8.773   9.598
   16        0.524   0.307   8.770   9.601
   17        0.517   0.308   8.773   9.598
   18        0.517   0.308   8.773   9.598
   19        0.519   0.298   8.767   9.585
   20        0.570   0.331   8.740   9.642
   21        0.570   0.331   8.740   9.642
   22        0.509   0.305   8.777   9.591
   23        0.570   0.331   8.740   9.642
   24        0.509   0.305   8.777   9.591
   25        0.519   0.298   8.767   9.585
   26        0.519   0.298   8.767   9.585
   27        0.509   0.305   8.777   9.591
   28        0.541   0.230   8.760   9.531
   29        0.585   0.248   8.741   9.574
   30        0.585   0.248   8.741   9.574
   31        0.585   0.248   8.741   9.574
   32        0.585   0.248   8.741   9.574
   33        0.585   0.248   8.741   9.574
   34        0.585   0.248   8.741   9.574
   35        0.544   0.231   8.760   9.534
   36        0.525   0.618   2.101   3.244
   37        0.950   1.379   0.000   2.329
   38        1.527   3.757   0.000   5.284
   39        0.562   0.136   0.000   0.697
tot         22.535  15.570 308.768 346.874

 BZINTS: Fermi energy:    0.336566;  400.000000 electrons
         Band energy:-0.144979E+04;  BLOECHL correction:   -0.036929