 vasp.6.2.0 18Jan21 (build Jun 12 2021 23:27:24) complex

 executed on             LinuxIFC date 2022.05.26  19:38:52

 INCAR:
   ISMEAR = -5
   SIGMA = 0.1
   ISPIN = 1
   EDIFF = 1.d-5
   EDIFFG = -0.01
   NSW = 0
   NELM = 150
   ENCUT = 500
   ISIF = 2
   IBRION = 2
   LREAL = Auto
   ALGO = Fast
   ICHARG = 11
   LORBIT = 10
   LCHARG = .F.
   LWAVE = .F.

 POTCAR:    PAW_PBE Ag 02Apr2005
 POTCAR:    PAW_PBE Cr 06Sep2000
 POTCAR:    PAW_PBE H 15Jun2001
|           W    W    AA    RRRRR   N    N  II  N    N   GGGG   !!!           |
|           W    W   A  A   R    R  NN   N  II  NN   N  G    G  !!!           |
|           W    W  A    A  R    R  N N  N  II  N N  N  G       !!!           |
|           W WW W  AAAAAA  RRRRR   N  N N  II  N  N N  G  GGG   !            |
|           WW  WW  A    A  R   R   N   NN  II  N   NN  G    G                |
|           W    W  A    A  R    R  N    N  II  N    N   GGGG   !!!           |
|     For optimal performance we recommend to set                             |
|       NCORE = 2 up to number-of-cores-per-socket                            |
|     This setting can greatly improve the performance of VASP for DFT.       |
|     The default, NCORE=1 might be grossly inefficient on modern             |
|     multi-core architectures or massively parallel machines. Do your        |
|     Unfortunately you need to use the default for GW and RPA                |
|     calculations (for HF NCORE is supported but not extensively tested      |
|     yet).                                                                   |

 POTCAR:    PAW_PBE Ag 02Apr2005
   VRHFIN =Ag : s1 d10

   TITEL  = PAW_PBE Ag 02Apr2005
   POMASS =  107.868; ZVAL   =   11.000    mass and valenz
   ENMAX  =  249.844; ENMIN  =  187.383 eV

 POTCAR:    PAW_PBE Cr 06Sep2000
   VRHFIN =Cr : d5 s1

   TITEL  = PAW_PBE Cr 06Sep2000
   POMASS =   51.996; ZVAL   =    6.000    mass and valenz
   ENMAX  =  227.080; ENMIN  =  170.310 eV

 POTCAR:    PAW_PBE H 15Jun2001
   VRHFIN =H: ultrasoft test

   TITEL  = PAW_PBE H 15Jun2001
   POMASS =    1.000; ZVAL   =    1.000    mass and valenz
   ENMAX  =  250.000; ENMIN  =  200.000 eV

 Optimization of the real space projectors (new method)

 maximal supplied QI-value         = 15.12
 optimisation between [QCUT,QGAM] = [ 11.34, 22.83] = [ 36.00,145.93] Ry
 Optimized for a Real-space Cutoff    1.43 Angstroem

   l    n(q)    QCUT    max X(q) W(low)/X(q) W(high)/X(q)  e(spline)
   2      9    11.338    53.897    0.16E-03    0.20E-03    0.28E-06
   2      9    11.338    52.416    0.16E-03    0.20E-03    0.29E-06
   0     10    11.338   122.045    0.31E-04    0.76E-04    0.15E-06
   0     10    11.338    73.629    0.30E-04    0.72E-04    0.15E-06
   1      9    11.338    15.255    0.20E-03    0.19E-04    0.17E-06
   1      9    11.338     9.562    0.16E-03    0.15E-04    0.14E-06
 Optimization of the real space projectors (new method)

[...]

   l    n(q)    QCUT    max X(q) W(low)/X(q) W(high)/X(q)  e(spline)
   2      9    11.338    94.395    0.18E-03    0.10E-02    0.64E-06
   2      9    11.338    88.078    0.18E-03    0.10E-02    0.65E-06
   0     10    11.338    50.173    0.13E-03    0.16E-03    0.96E-07
   0     10    11.338    24.906    0.12E-03    0.14E-03    0.88E-07
   1      9    11.338    12.133    0.13E-03    0.15E-03    0.24E-06
   1      9    11.338     7.290    0.10E-03    0.10E-03    0.18E-06
 Optimization of the real space projectors (new method)

 maximal supplied QI-value         = 34.20
 optimisation between [QCUT,QGAM] = [ 11.29, 22.57] = [ 35.68,142.71] Ry
 Optimized for a Real-space Cutoff    1.16 Angstroem

   l    n(q)    QCUT    max X(q) W(low)/X(q) W(high)/X(q)  e(spline)
   0      8    11.287    19.460    0.40E-03    0.73E-03    0.16E-06
   0      8    11.287    12.209    0.38E-03    0.70E-03    0.15E-06
   1      7    11.287     4.655    0.22E-03    0.25E-04    0.22E-06
  PAW_PBE Ag 02Apr2005                  :
  PAW_PBE Cr 06Sep2000                  :
  PAW_PBE H 15Jun2001                   :

 POSCAR: Ag-Cr-H
  positions in direct lattice
  velocities in cartesian coordinates
 exchange correlation table for  LEXCH =        8
   RHO(1)=    0.500       N(1)  =     2000
   RHO(2)=  100.500       N(2)  =     4000

 VTST: version 3.2, (02/03/18)

 CHAIN: initializing optimizer

 OPT: Using VASP Conjugate-Gradient optimizer
 CHAIN: Read ICHAIN            0

 POSCAR: Ag-Cr-H
  positions in direct lattice
  velocities in cartesian coordinates

 ion  position               nearest neighbor table
   1  0.000  0.000  0.238-   2 2.93   8 2.93   7 2.93   6 2.93   4 2.93  12 2.93  16 2.93  10 2.93
                             3 2.93
   2  0.333  0.000  0.238-   1 2.93   8 2.93   9 2.93   3 2.93   4 2.93   5 2.93  10 2.93  17 2.93
                            11 2.93
   3  0.667  0.000  0.238-   9 2.93   2 2.93   5 2.93  11 2.93   7 2.93  18 2.93   1 2.93   6 2.93
                            12 2.93
   4  0.000  0.333  0.238-   5 2.93   6 2.93   2 2.93   1 2.93   7 2.93  13 2.93  15 2.93   9 2.93
                            10 2.93
   5  0.333  0.333  0.238-   4 2.93   3 2.93   7 2.93   2 2.93   8 2.93  14 2.93  13 2.93  11 2.93
                             6 2.93
   6  0.667  0.333  0.238-   4 2.93   9 2.93   1 2.93  15 2.93   8 2.93  12 2.93   3 2.93   5 2.93
                            14 2.93
   7  0.000  0.667  0.238-   8 2.93   1 2.93   5 2.93   3 2.93   4 2.93  16 2.93  18 2.93  13 2.93
                             9 2.93
   8  0.333  0.667  0.238-   7 2.93   1 2.93   2 2.93   9 2.93   5 2.93  16 2.93   6 2.93  17 2.93
                            14 2.93
   9  0.667  0.667  0.238-   3 2.93   2 2.93   8 2.93   6 2.93  17 2.93   4 2.93  15 2.93   7 2.93
                            18 2.93
  10  0.111  0.111  0.346-  20 2.91  19 2.92  26 2.92  12 2.93  16 2.93  15 2.93  17 2.93  13 2.93
                            11 2.93   2 2.93   1 2.93   4 2.93
  11  0.444  0.111  0.346-  21 2.90  20 2.90  27 2.92  14 2.93  17 2.93  18 2.93   3 2.93  12 2.93
                            13 2.93  10 2.93   5 2.93   2 2.93
  12  0.778  0.111  0.346-  21 2.91  25 2.92  19 2.92  10 2.93  16 2.93  18 2.93  15 2.93  11 2.93
                             1 2.93  14 2.93   6 2.93   3 2.93
  13  0.111  0.444  0.346-  20 2.90  23 2.90  22 2.92  15 2.93  14 2.93  18 2.93  10 2.93  11 2.93
                            16 2.93   4 2.93   5 2.93   7 2.93
  14  0.444  0.444  0.346-  23 2.90  21 2.90  24 2.92  13 2.93  11 2.93  16 2.93   5 2.93  12 2.93
                            17 2.93   8 2.93  15 2.93   6 2.93
  15  0.778  0.444  0.346-  24 2.92  22 2.92  19 2.92  13 2.93  10 2.93  12 2.93  17 2.93  18 2.93
                             4 2.93   6 2.93   9 2.93  14 2.93
  16  0.111  0.778  0.346-  23 2.91  26 2.92  25 2.92  18 2.93  12 2.93  10 2.93  14 2.93  17 2.93
                            13 2.93   7 2.93   8 2.93   1 2.93
  17  0.444  0.778  0.346-  27 2.92  24 2.92  26 2.92  11 2.93  10 2.93   9 2.93  18 2.93  15 2.93
                            16 2.93   2 2.93  14 2.93   8 2.93
  18  0.778  0.778  0.346-  22 2.92  27 2.92  25 2.92  16 2.93  12 2.93  13 2.93  11 2.93  17 2.93
                            15 2.93   7 2.93   3 2.93   9 2.93
  19  0.889  0.222  0.454-  28 2.91  15 2.92  10 2.92  12 2.92  24 2.93  22 2.93  26 2.93  25 2.93
                            20 2.94  21 2.94  32 2.96  31 2.96
  20  0.223  0.223  0.453-  36 2.73  13 2.90  11 2.90  21 2.91  23 2.91  10 2.91  31 2.91  29 2.91
                            27 2.93  22 2.93  19 2.94  26 2.94
  21  0.554  0.223  0.453-  36 2.73  11 2.90  14 2.90  20 2.91  23 2.91  12 2.91  30 2.91  32 2.91
                            27 2.93  24 2.93  25 2.94  19 2.94
  22  0.888  0.556  0.453-  35 2.91  18 2.92  15 2.92  13 2.92  24 2.92  27 2.92  25 2.93  19 2.93
                            33 2.93  31 2.93  23 2.93  20 2.93
  23  0.223  0.554  0.453-  36 2.73  14 2.90  13 2.90  21 2.91  20 2.91  16 2.91  34 2.91  33 2.91
                            22 2.93  24 2.93  26 2.94  25 2.94
  24  0.556  0.556  0.453-  35 2.91  15 2.92  17 2.92  14 2.92  27 2.92  22 2.92  19 2.93  26 2.93
                            32 2.93  34 2.93  23 2.93  21 2.93
  25  0.889  0.889  0.454-  28 2.91  18 2.92  16 2.92  12 2.92  22 2.93  27 2.93  26 2.93  19 2.93
                            23 2.94  21 2.94  33 2.96  30 2.96
  26  0.222  0.889  0.454-  28 2.91  17 2.92  16 2.92  10 2.92  27 2.93  24 2.93  25 2.93  19 2.93
                            23 2.94  20 2.94  34 2.96  29 2.96
  27  0.556  0.888  0.453-  35 2.91  17 2.92  18 2.92  11 2.92  24 2.92  22 2.92  26 2.93  25 2.93
                            29 2.93  30 2.93  20 2.93  21 2.93
  28  0.000  0.000  0.560-  26 2.91  25 2.91  19 2.91  29 2.96  34 2.96  33 2.96  32 2.96  31 2.96
                            30 2.96
  29  0.333  0.007  0.561-  30 2.87  31 2.87  36 2.88  20 2.91  27 2.93  26 2.96  35 2.96  28 2.96
                            34 3.06
  30  0.659  0.007  0.561-  29 2.87  32 2.87  36 2.88  21 2.91  27 2.93  25 2.96  35 2.96  28 2.96
                            33 3.06
  31  0.007  0.333  0.561-  33 2.87  29 2.87  36 2.88  20 2.91  22 2.93  19 2.96  35 2.96  28 2.96
                            32 3.06
  32  0.659  0.333  0.561-  34 2.87  30 2.87  36 2.88  21 2.91  24 2.93  19 2.96  35 2.96  28 2.96
                            31 3.06
  33  0.007  0.659  0.561-  31 2.87  34 2.87  36 2.88  23 2.91  22 2.93  25 2.96  35 2.96  28 2.96
                            30 3.06
  34  0.333  0.659  0.561-  32 2.87  33 2.87  36 2.88  23 2.91  24 2.93  26 2.96  35 2.96  28 2.96
                            29 3.06
  35  0.667  0.667  0.560-  24 2.91  27 2.91  22 2.91  30 2.96  32 2.96  29 2.96  34 2.96  31 2.96
                            33 2.96
  36  0.333  0.333  0.550-  37 1.60  21 2.73  20 2.73  23 2.73  31 2.88  33 2.88  30 2.88  29 2.88
                            34 2.88  32 2.88
  37  0.333  0.333  0.622-  36 1.60

  LATTYP: Found a hexagonal cell.
 ALAT       =     8.7913665772
 C/A-ratio  =     2.5227160501

  Lattice vectors:

 A1 = (  -4.3956832886,  -7.6135467898,   0.0000000000)
 A2 = (   8.7913665771,   0.0000000000,   0.0000000000)
 A3 = (   0.0000000000,   0.0000000000,  22.1781215668)

Analysis of symmetry for initial positions (statically):
 Subroutine PRICEL returns:
 Original cell was already a primitive cell.

 Routine SETGRP: Setting up the symmetry group for a
 hexagonal supercell.

 Subroutine GETGRP returns: Found  6 space group operations
 (whereof  6 operations were pure point group operations)
 out of a pool of 24 trial point group operations.

The static configuration has the point symmetry C_3v.

Analysis of symmetry for dynamics (positions and initial velocities):
 Subroutine PRICEL returns:
 Original cell was already a primitive cell.

[...]

The dynamic configuration has the point symmetry C_3v.

Analysis of constrained symmetry for selective dynamics:
 Subroutine PRICEL returns:
 Original cell was already a primitive cell.

 Routine SETGRP: Setting up the symmetry group for a
 hexagonal supercell.

 Subroutine GETGRP returns: Found  6 space group operations
 (whereof  6 operations were pure point group operations)
[...]
     24      -4.7234      2.00000
     25      -4.6929      2.00000
     26      -4.6709      2.00000
     27      -4.6563      2.00000
     28      -4.6505      2.00000
     29      -4.6383      2.00000
     30      -4.6217      2.00000
     31      -4.6167      2.00000
     32      -4.5773      2.00000
     33      -4.5568      2.00000
     34      -4.5140      2.00000
     35      -4.4938      2.00000
     36      -4.4759      2.00000
     37      -4.4494      2.00000
     38      -4.4193      2.00000
     39      -4.4160      2.00000
     40      -4.4015      2.00000
     41      -4.3950      2.00000
     42      -4.3787      2.00000
     43      -4.3034      2.00000
     44      -4.2751      2.00000
     45      -4.2683      2.00000
     46      -4.2630      2.00000
     47      -4.2550      2.00000
     48      -4.2532      2.00000
     49      -4.2338      2.00000
     50      -4.2289      2.00000
     51      -4.2142      2.00000
     52      -4.2103      2.00000
     53      -4.1454      2.00000
     54      -4.1381      2.00000
     55      -4.1270      2.00000
     56      -4.1217      2.00000
     57      -4.1032      2.00000
     58      -4.0893      2.00000
     59      -4.0532      2.00000
     60      -4.0387      2.00000
[...]
    238       7.0449      0.00000
    239       7.0974      0.00000
    240       7.1157      0.00000
    241       7.1312      0.00000
    242       7.2123      0.00000
    243       7.2612      0.00000
    244       7.2737      0.00000
    245       7.4033      0.00000
    246       7.4462      0.00000
    247       7.5050      0.00000
    248       7.5355      0.00000
    249       7.5692      0.00000
    250       7.7966      0.00000
    251       7.8747      0.00000
    252       8.0460      0.00000

 soft charge-density along one line, spin component           1
         0         1         2         3         4         5         6         7         8         9
 total charge-density along one line

------------------------ aborting loop because EDIFF is reached ----------------------------------------

 total charge

# of ion       s       p       d       tot
    1        0.421   0.200   9.179   9.799
    2        0.415   0.204   9.178   9.797
    3        0.415   0.204   9.178   9.797
    4        0.415   0.204   9.178   9.797
    5        0.422   0.202   9.176   9.800
    6        0.415   0.204   9.178   9.797
    7        0.415   0.204   9.178   9.797
    8        0.415   0.204   9.178   9.797
    9        0.416   0.202   9.178   9.796
   10        0.409   0.269   9.163   9.840
   11        0.406   0.268   9.169   9.843
   12        0.409   0.269   9.163   9.840
   13        0.406   0.268   9.169   9.843
   14        0.406   0.268   9.169   9.843
   15        0.404   0.269   9.165   9.838
   16        0.409   0.269   9.163   9.840
   17        0.404   0.269   9.165   9.838
   18        0.404   0.269   9.165   9.838
   19        0.402   0.264   9.168   9.834
   20        0.438   0.296   9.141   9.875
   21        0.438   0.296   9.141   9.875
   22        0.396   0.274   9.166   9.836
   23        0.438   0.296   9.141   9.875
   24        0.396   0.274   9.166   9.836
   25        0.402   0.264   9.168   9.834
   26        0.402   0.264   9.168   9.834
   27        0.396   0.274   9.166   9.836
   28        0.411   0.198   9.175   9.784
   29        0.427   0.206   9.166   9.799
   30        0.427   0.206   9.166   9.799
   31        0.427   0.206   9.166   9.799
   32        0.427   0.206   9.166   9.799
   33        0.427   0.206   9.166   9.799
   34        0.427   0.206   9.166   9.799
   35        0.406   0.197   9.179   9.783
   36        0.416   0.388   4.188   4.991
   37        0.518   0.010   0.000   0.528
tot         15.425   8.780 325.050 349.256

  FORCE on cell =-STRESS in cart. coord.  units (eV):
  Direction    XX          YY          ZZ          XY          YZ          ZX
  Alpha Z   733.50648   733.50648   733.50648
  Ewald  119760.95906119760.95898************    -0.00000    -0.00001    -0.00001
  Hartree129799.89723129799.89720************    -0.00000    -0.00000    -0.00000
  E(xc)   -2056.85634 -2056.85632 -2063.19168    -0.00002     0.00000     0.00000
  Local  ************************260837.83698     0.00022    -0.00002    -0.00005
  n-local  -339.99152  -320.76154  -331.72687    11.02969    -0.44129     0.59142
  augment  3246.57606  3246.57621  3259.33654    -0.00013     0.00000     0.00001
  Kinetic  4817.50773  4821.03872  4851.89686     3.87161     0.48995    -0.02680
  Fock        0.00000     0.00000     0.00000     0.00000     0.00000     0.00000
  Total     -10.53805   -10.53805    -1.13049    -0.00000     0.00000    -0.00000
  in kB     -11.37372   -11.37372    -1.22014    -0.00000     0.00000    -0.00000

 VOLUME and BASIS-vectors are now :
  energy-cutoff  :      500.00
  volume of cell :     1484.46
      direct lattice vectors                 reciprocal lattice vectors
     8.791366577  0.000000000  0.000000000     0.113747958 -0.065672414  0.000000000
     4.395683289  7.613546790  0.000000000     0.000000000  0.131344829  0.000000000
     0.000000000  0.000000000 22.178121567     0.000000000  0.000000000  0.045089481

  length of vectors
     8.791366577  8.791366577 22.178121567     0.131344829  0.131344829  0.045089481

 FORCES acting on ions
    electron-ion (+dipol)            ewald-force                    non-local-force                 convergence-correction
   0.461E-04 -.282E-04 0.248E+04   -.953E-04 0.593E-04 -.248E+04   -.449E-17 0.480E-17 -.190E+01   -.120E-03 -.176E-03 0.138E+00
   0.111E+00 0.602E-01 0.248E+04   -.160E+00 -.753E-01 -.248E+04   0.688E-01 0.163E+00 -.161E+01   -.204E-01 -.147E+00 0.221E+00
   -.110E+00 0.602E-01 0.248E+04   0.160E+00 -.753E-01 -.248E+04   -.688E-01 0.163E+00 -.161E+01   0.199E-01 -.145E+00 0.222E+00
   0.107E+00 0.655E-01 0.248E+04   -.145E+00 -.101E+00 -.248E+04   0.175E+00 -.218E-01 -.161E+01   -.137E+00 0.557E-01 0.221E+00
   -.805E-05 -.202E-04 0.248E+04   0.981E-04 -.200E-05 -.248E+04   0.155E-17 -.479E-18 -.116E+01   0.616E-02 0.377E-02 0.351E+00
   -.107E+00 0.655E-01 0.248E+04   0.145E+00 -.101E+00 -.248E+04   -.175E+00 -.218E-01 -.161E+01   0.136E+00 0.566E-01 0.222E+00
   -.302E-02 -.126E+00 0.248E+04   0.146E-01 0.176E+00 -.248E+04   0.106E+00 -.141E+00 -.161E+01   -.115E+00 0.901E-01 0.222E+00
   0.306E-02 -.126E+00 0.248E+04   -.146E-01 0.176E+00 -.248E+04   -.106E+00 -.141E+00 -.161E+01   0.116E+00 0.892E-01 0.222E+00
   0.364E-04 -.131E-04 0.248E+04   0.792E-04 -.642E-04 -.248E+04   0.167E-17 0.733E-18 -.174E+01   -.657E-02 -.338E-02 0.195E+00
   0.164E+01 0.949E+00 0.806E+03   -.124E+01 -.714E+00 -.806E+03   -.345E+00 -.199E+00 -.672E+00   -.706E-01 -.408E-01 0.437E+00
   -.288E-04 0.152E+01 0.808E+03   0.411E-04 -.139E+01 -.808E+03   0.590E-12 0.898E-01 -.252E+00   0.638E-02 -.236E+00 0.527E+00
   -.164E+01 0.949E+00 0.806E+03   0.124E+01 -.714E+00 -.806E+03   0.345E+00 -.199E+00 -.672E+00   0.692E-01 -.404E-01 0.436E+00
   0.131E+01 -.758E+00 0.808E+03   -.120E+01 0.695E+00 -.808E+03   0.778E-01 -.449E-01 -.252E+00   -.201E+00 0.123E+00 0.527E+00
   -.131E+01 -.758E+00 0.808E+03   0.120E+01 0.695E+00 -.808E+03   -.778E-01 -.449E-01 -.252E+00   0.211E+00 0.122E+00 0.525E+00
   0.157E-04 0.872E+00 0.808E+03   -.108E-03 -.112E+01 -.808E+03   0.613E-12 0.933E-01 -.748E+00   -.116E-02 0.131E+00 0.444E+00
   -.817E-05 -.190E+01 0.806E+03   0.207E-04 0.143E+01 -.806E+03   0.262E-11 0.399E+00 -.672E+00   -.455E-03 0.801E-01 0.436E+00
   0.755E+00 -.436E+00 0.808E+03   -.970E+00 0.560E+00 -.808E+03   0.808E-01 -.466E-01 -.748E+00   0.113E+00 -.665E-01 0.444E+00
   -.755E+00 -.436E+00 0.808E+03   0.970E+00 0.560E+00 -.808E+03   -.808E-01 -.466E-01 -.748E+00   -.112E+00 -.649E-01 0.446E+00
   0.400E-04 -.271E+01 -.888E+03   -.126E-03 0.251E+01 0.886E+03   0.782E-12 0.119E+00 0.840E+00   0.970E-03 0.668E-01 0.666E+00
   -.849E+01 -.490E+01 -.893E+03   0.946E+01 0.546E+01 0.893E+03   -.123E+01 -.708E+00 -.106E+01   0.181E+00 0.104E+00 0.108E+01
   0.849E+01 -.490E+01 -.893E+03   -.946E+01 0.546E+01 0.893E+03   0.123E+01 -.708E+00 -.106E+01   -.192E+00 0.102E+00 0.108E+01
   -.650E+01 0.375E+01 -.883E+03   0.642E+01 -.370E+01 0.882E+03   0.183E+00 -.106E+00 0.370E+00   -.574E-01 0.405E-01 0.600E+00
   -.542E-04 0.980E+01 -.893E+03   0.391E-04 -.109E+02 0.893E+03   0.929E-11 0.142E+01 -.106E+01   -.691E-02 -.217E+00 0.108E+01
   0.650E+01 0.375E+01 -.883E+03   -.642E+01 -.370E+01 0.882E+03   -.183E+00 -.106E+00 0.370E+00   0.698E-01 0.404E-01 0.600E+00
   0.235E+01 0.136E+01 -.888E+03   -.218E+01 -.126E+01 0.886E+03   -.103E+00 -.595E-01 0.840E+00   -.594E-01 -.344E-01 0.666E+00
   -.235E+01 0.136E+01 -.888E+03   0.218E+01 -.126E+01 0.886E+03   0.103E+00 -.595E-01 0.840E+00   0.581E-01 -.327E-01 0.666E+00
   0.202E-04 -.751E+01 -.883E+03   0.110E-03 0.741E+01 0.882E+03   0.139E-11 0.211E+00 0.370E+00   0.575E-02 -.700E-01 0.600E+00
   0.538E-04 -.365E-04 -.250E+04   -.113E-03 0.767E-04 0.250E+04   -.735E-18 -.145E-17 0.192E+01   0.868E-04 -.834E-04 0.188E+00
   -.934E+01 -.188E+02 -.251E+04   0.967E+01 0.192E+02 0.251E+04   -.741E+00 -.107E+01 0.164E+01   0.407E+00 0.655E+00 0.297E+00
   0.934E+01 -.188E+02 -.251E+04   -.967E+01 0.192E+02 0.251E+04   0.741E+00 -.107E+01 0.164E+01   -.407E+00 0.655E+00 0.297E+00
   -.210E+02 0.133E+01 -.251E+04   0.215E+02 -.123E+01 0.251E+04   -.130E+01 -.108E+00 0.164E+01   0.770E+00 0.250E-01 0.297E+00
   0.210E+02 0.133E+01 -.251E+04   -.215E+02 -.123E+01 0.251E+04   0.130E+01 -.108E+00 0.164E+01   -.770E+00 0.256E-01 0.298E+00
   -.116E+02 0.175E+02 -.251E+04   0.118E+02 -.180E+02 0.251E+04   -.555E+00 0.118E+01 0.164E+01   0.364E+00 -.680E+00 0.297E+00
   0.116E+02 0.175E+02 -.251E+04   -.118E+02 -.180E+02 0.251E+04   0.555E+00 0.118E+01 0.164E+01   -.363E+00 -.680E+00 0.298E+00
   0.260E-04 -.143E-04 -.250E+04   0.104E-03 -.648E-04 0.250E+04   0.209E-17 0.957E-18 0.206E+01   -.599E-02 -.303E-02 0.171E+00
   -.288E-04 -.259E-05 -.129E+04   0.576E-04 0.774E-05 0.129E+04   0.414E-18 0.103E-17 -.270E+01   0.114E-02 0.700E-03 0.544E+00
   0.444E-05 -.393E-05 -.275E+03   0.547E-05 0.945E-07 0.277E+03   0.220E-18 0.920E-19 -.203E+01   0.699E-04 0.433E-04 -.212E+00
   0.304E-03 -.712E-03 -.582E+01   -.123E-12 -.496E-13 -.188E-11   0.225E-15 0.208E-17 -.993E+01   0.837E-02 0.805E-02 0.158E+02

 POSITION                                       TOTAL-FORCE (eV/Angst)
      0.00000      0.00000      5.28219         0.000000     -0.000000     -0.039168
      2.93046      0.00000      5.28219        -0.000408      0.001979      0.031476
      5.86091      0.00000      5.28219         0.000408      0.001979      0.031476
      1.46523      2.53785      5.28219         0.001510     -0.001343      0.031476
      4.39568      2.53785      5.28219         0.000000      0.000000     -0.000224
      7.32614      2.53785      5.28219        -0.001510     -0.001343      0.031476
      2.93046      5.07570      5.28219         0.001918     -0.000637      0.031476
      5.86091      5.07570      5.28219        -0.001918     -0.000637      0.031476
      8.79137      5.07570      5.28219         0.000000     -0.000000      0.005562
      1.46523      0.84595      7.67490        -0.007924     -0.004575     -0.024007
      4.39568      0.84595      7.67490        -0.000000     -0.022014     -0.049548
      7.32614      0.84595      7.67490         0.007924     -0.004575     -0.024007
      2.93046      3.38380      7.67490        -0.019064      0.011007     -0.049548
      5.86091      3.38380      7.67490         0.019064      0.011007     -0.049548
      8.79137      3.38380      7.67490        -0.000000     -0.024335     -0.006066
      4.39568      5.92165      7.67490         0.000000      0.009150     -0.024007
      7.32614      5.92165      7.67490        -0.021074      0.012167     -0.006066
     10.25659      5.92165      7.67490         0.021074      0.012167     -0.006066
      8.79137      1.69374     10.05841        -0.000000     -0.012794      0.010620
      2.93927      1.69699     10.03909        -0.061216     -0.035343     -0.048165
      5.85210      1.69699     10.03909         0.061216     -0.035343     -0.048165
     10.25385      4.23133     10.05420         0.032401     -0.018707      0.007905
      4.39568      4.21957     10.03909         0.000000      0.070686     -0.048165
      7.32888      4.23133     10.05420        -0.032401     -0.018707      0.007905
     11.72023      6.76668     10.05841         0.011080      0.006397      0.010620
      5.86251      6.76668     10.05841        -0.011080      0.006397      0.010620
      8.79137      6.76443     10.05420         0.000000      0.037413      0.007905
      0.00000      0.00000     12.42643         0.000000     -0.000000      0.032765
      2.96234      0.05459     12.44639         0.000238     -0.026516     -0.006574
      5.82903      0.05459     12.44639        -0.000238     -0.026516     -0.006574
      1.52844      2.53816     12.44639        -0.022845      0.013464     -0.006574
      7.26292      2.53816     12.44639         0.022845      0.013464     -0.006574
      2.96179      5.02079     12.44639        -0.023083      0.013052     -0.006574
      5.82958      5.02079     12.44639         0.023083      0.013052     -0.006574
      8.79137      5.07570     12.42906         0.000000     -0.000000      0.049091
      4.39568      2.53785     12.18689         0.000000     -0.000000      0.086588
      4.39568      2.53785     13.79180         0.000000     -0.000000      0.043763
    total drift:                                0.008678      0.007342      0.022078

  FREE ENERGIE OF THE ION-ELECTRON SYSTEM (eV)
  free  energy   TOTEN  =       -98.49095625 eV

  energy  without entropy=      -98.49095625  energy(sigma->0) =      -98.49095625

 stress matrix after NEB project (eV)
    -10.53805     -0.00000     -0.00000
     -0.00000    -10.53805     -0.00000
      0.00000      0.00000     -1.13049
  FORCES: max atom, RMS     0.043763    0.007195
  FORCE total and by dimension    0.043763    0.043763
  Stress total and by dimension   14.945866   10.538048
|           W    W    AA    RRRRR   N    N  II  N    N   GGGG   !!!           |
|           W    W   A  A   R    R  NN   N  II  NN   N  G    G  !!!           |
|           W    W  A    A  R    R  N N  N  II  N N  N  G       !!!           |
|           W WW W  AAAAAA  RRRRR   N  N N  II  N  N N  G  GGG   !            |
|           WW  WW  A    A  R   R   N   NN  II  N   NN  G    G                |
|           W    W  A    A  R    R  N    N  II  N    N   GGGG   !!!           |
|     Tetrahedron method does not include variations of the Fermi             |
|     occupations, so forces and stress will be inaccurate. We suggest        |
|     using a different smearing scheme ISMEAR = 1 or 2 for metals in         |
|     relaxations.                                                            |

 total charge

# of ion       s       p       d       tot
    1        0.421   0.200   9.179   9.799
    2        0.415   0.204   9.178   9.797
    3        0.415   0.204   9.178   9.797
    4        0.415   0.204   9.178   9.797
    5        0.422   0.202   9.176   9.800
    6        0.415   0.204   9.178   9.797
    7        0.415   0.204   9.178   9.797
    8        0.415   0.204   9.178   9.797
    9        0.416   0.202   9.178   9.796
   10        0.409   0.269   9.163   9.840
   11        0.406   0.268   9.169   9.843
   12        0.409   0.269   9.163   9.840
   13        0.406   0.268   9.169   9.843
   14        0.406   0.268   9.169   9.843
   15        0.404   0.269   9.165   9.838
   16        0.409   0.269   9.163   9.840
   17        0.404   0.269   9.165   9.838
   18        0.404   0.269   9.165   9.838
   19        0.402   0.264   9.168   9.834
   20        0.438   0.296   9.141   9.875
   21        0.438   0.296   9.141   9.875
   22        0.396   0.274   9.166   9.836
   23        0.438   0.296   9.141   9.875
   24        0.396   0.274   9.166   9.836
   25        0.402   0.264   9.168   9.834
   26        0.402   0.264   9.168   9.834
   27        0.396   0.274   9.166   9.836
   28        0.411   0.198   9.175   9.784
   29        0.427   0.206   9.166   9.799
   30        0.427   0.206   9.166   9.799
   31        0.427   0.206   9.166   9.799
   32        0.427   0.206   9.166   9.799
   33        0.427   0.206   9.166   9.799
   34        0.427   0.206   9.166   9.799
   35        0.406   0.197   9.179   9.783
   36        0.416   0.388   4.188   4.991
   37        0.518   0.010   0.000   0.528
tot         15.425   8.780 325.050 349.256

 BZINTS: Fermi energy:    0.720401;  392.000000 electrons
         Band energy:-0.130070E+04;  BLOECHL correction:   -0.012611