 vasp.6.2.0 18Jan21 (build Jun 12 2021 23:27:24) complex

 executed on             LinuxIFC date 2022.05.27  05:28:49

 INCAR:
   ISMEAR = -5
   SIGMA = 0.1
   ISPIN = 1
   EDIFF = 1.d-5
   EDIFFG = -0.01
   NSW = 0
   NELM = 150
   ENCUT = 500
   ISIF = 2
   IBRION = 2
   LREAL = Auto
   ALGO = Fast
   ICHARG = 11
   LORBIT = 10
   LCHARG = .F.
   LWAVE = .F.

 POTCAR:    PAW_PBE Ag 02Apr2005
 POTCAR:    PAW_PBE Cr 06Sep2000
 POTCAR:    PAW_PBE N 08Apr2002
|           W    W    AA    RRRRR   N    N  II  N    N   GGGG   !!!           |
|           W    W   A  A   R    R  NN   N  II  NN   N  G    G  !!!           |
|           W    W  A    A  R    R  N N  N  II  N N  N  G       !!!           |
|           W WW W  AAAAAA  RRRRR   N  N N  II  N  N N  G  GGG   !            |
|           WW  WW  A    A  R   R   N   NN  II  N   NN  G    G                |
|           W    W  A    A  R    R  N    N  II  N    N   GGGG   !!!           |
|     For optimal performance we recommend to set                             |
|       NCORE = 2 up to number-of-cores-per-socket                            |
|     This setting can greatly improve the performance of VASP for DFT.       |
|     The default, NCORE=1 might be grossly inefficient on modern             |
|     multi-core architectures or massively parallel machines. Do your        |
|     Unfortunately you need to use the default for GW and RPA                |
|     calculations (for HF NCORE is supported but not extensively tested      |
|     yet).                                                                   |

 POTCAR:    PAW_PBE Ag 02Apr2005
   VRHFIN =Ag : s1 d10

   TITEL  = PAW_PBE Ag 02Apr2005
   POMASS =  107.868; ZVAL   =   11.000    mass and valenz
   ENMAX  =  249.844; ENMIN  =  187.383 eV

 POTCAR:    PAW_PBE Cr 06Sep2000
   VRHFIN =Cr : d5 s1

   TITEL  = PAW_PBE Cr 06Sep2000
   POMASS =   51.996; ZVAL   =    6.000    mass and valenz
   ENMAX  =  227.080; ENMIN  =  170.310 eV

 POTCAR:    PAW_PBE N 08Apr2002
   VRHFIN =N: s2p3

   TITEL  = PAW_PBE N 08Apr2002
   POMASS =   14.001; ZVAL   =    5.000    mass and valenz
   ENMAX  =  400.000; ENMIN  =  300.000 eV

 Optimization of the real space projectors (new method)

 maximal supplied QI-value         = 15.12
 optimisation between [QCUT,QGAM] = [ 11.34, 22.83] = [ 36.00,145.93] Ry
 Optimized for a Real-space Cutoff    1.43 Angstroem

   l    n(q)    QCUT    max X(q) W(low)/X(q) W(high)/X(q)  e(spline)
   2      9    11.338    53.897    0.16E-03    0.20E-03    0.28E-06
   2      9    11.338    52.416    0.16E-03    0.20E-03    0.29E-06
   0     10    11.338   122.045    0.31E-04    0.76E-04    0.15E-06
   0     10    11.338    73.629    0.30E-04    0.72E-04    0.15E-06
   1      9    11.338    15.255    0.20E-03    0.19E-04    0.17E-06
   1      9    11.338     9.562    0.16E-03    0.15E-04    0.14E-06
 Optimization of the real space projectors (new method)

[...]

   l    n(q)    QCUT    max X(q) W(low)/X(q) W(high)/X(q)  e(spline)
   2      9    11.338    94.395    0.18E-03    0.10E-02    0.64E-06
   2      9    11.338    88.078    0.18E-03    0.10E-02    0.65E-06
   0     10    11.338    50.173    0.13E-03    0.16E-03    0.96E-07
   0     10    11.338    24.906    0.12E-03    0.14E-03    0.88E-07
   1      9    11.338    12.133    0.13E-03    0.15E-03    0.24E-06
   1      9    11.338     7.290    0.10E-03    0.10E-03    0.18E-06
 Optimization of the real space projectors (new method)

 maximal supplied QI-value         = 25.13
 optimisation between [QCUT,QGAM] = [ 11.31, 22.87] = [ 35.82,146.48] Ry
 Optimized for a Real-space Cutoff    1.27 Angstroem

   l    n(q)    QCUT    max X(q) W(low)/X(q) W(high)/X(q)  e(spline)
   0      9    11.310    79.467    0.75E-04    0.16E-03    0.36E-06
   0      9    11.310    66.151    0.74E-04    0.16E-03    0.36E-06
   1      8    11.310    17.416    0.35E-03    0.12E-03    0.95E-06
   1      8    11.310    12.382    0.37E-03    0.13E-03    0.98E-06
  PAW_PBE Ag 02Apr2005                  :
  PAW_PBE Cr 06Sep2000                  :
  PAW_PBE N 08Apr2002                   :

 POSCAR: Ag-Cr-N2
  positions in direct lattice
  velocities in cartesian coordinates
 exchange correlation table for  LEXCH =        8
   RHO(1)=    0.500       N(1)  =     2000
   RHO(2)=  100.500       N(2)  =     4000

 VTST: version 3.2, (02/03/18)

 CHAIN: initializing optimizer

 OPT: Using VASP Conjugate-Gradient optimizer
 CHAIN: Read ICHAIN            0

 POSCAR: Ag-Cr-N2
  positions in direct lattice
  velocities in cartesian coordinates

 ion  position               nearest neighbor table
   1  0.000  0.000  0.238-   2 2.93   8 2.93   7 2.93   6 2.93   4 2.93  12 2.93  16 2.93  10 2.93
                             3 2.93
   2  0.333  0.000  0.238-   1 2.93   8 2.93   9 2.93   3 2.93   4 2.93   5 2.93  10 2.93  17 2.93
                            11 2.93
   3  0.667  0.000  0.238-   9 2.93   2 2.93   5 2.93  11 2.93   7 2.93  18 2.93   1 2.93   6 2.93
                            12 2.93
   4  0.000  0.333  0.238-   5 2.93   6 2.93   2 2.93   1 2.93   7 2.93  13 2.93  15 2.93   9 2.93
                            10 2.93
   5  0.333  0.333  0.238-   4 2.93   3 2.93   7 2.93   2 2.93   8 2.93  14 2.93  13 2.93  11 2.93
                             6 2.93
   6  0.667  0.333  0.238-   4 2.93   9 2.93   1 2.93  15 2.93   8 2.93  12 2.93   3 2.93   5 2.93
                            14 2.93
   7  0.000  0.667  0.238-   8 2.93   1 2.93   5 2.93   3 2.93   4 2.93  16 2.93  18 2.93  13 2.93
                             9 2.93
   8  0.333  0.667  0.238-   7 2.93   1 2.93   2 2.93   9 2.93   5 2.93  16 2.93   6 2.93  17 2.93
                            14 2.93
   9  0.667  0.667  0.238-   3 2.93   2 2.93   8 2.93   6 2.93  17 2.93   4 2.93  15 2.93   7 2.93
                            18 2.93
  10  0.111  0.111  0.346-  20 2.91  19 2.92  26 2.92  12 2.93  16 2.93  15 2.93  17 2.93  13 2.93
                            11 2.93   2 2.93   1 2.93   4 2.93
  11  0.444  0.111  0.346-  21 2.90  20 2.90  27 2.92  14 2.93  17 2.93  18 2.93   3 2.93  12 2.93
                            13 2.93  10 2.93   5 2.93   2 2.93
  12  0.778  0.111  0.346-  21 2.91  25 2.92  19 2.92  10 2.93  16 2.93  18 2.93  15 2.93  11 2.93
                             1 2.93  14 2.93   6 2.93   3 2.93
  13  0.111  0.444  0.346-  20 2.90  23 2.90  22 2.92  15 2.93  14 2.93  18 2.93  10 2.93  11 2.93
                            16 2.93   4 2.93   5 2.93   7 2.93
  14  0.444  0.444  0.346-  23 2.90  21 2.90  24 2.92  13 2.93  11 2.93  16 2.93   5 2.93  12 2.93
                            17 2.93   8 2.93  15 2.93   6 2.93
  15  0.778  0.444  0.346-  24 2.92  22 2.92  19 2.92  13 2.93  10 2.93  12 2.93  17 2.93  18 2.93
                             4 2.93   6 2.93   9 2.93  14 2.93
  16  0.111  0.778  0.346-  23 2.91  26 2.92  25 2.92  18 2.93  12 2.93  10 2.93  14 2.93  17 2.93
                            13 2.93   7 2.93   8 2.93   1 2.93
  17  0.444  0.778  0.346-  27 2.92  24 2.92  26 2.92  11 2.93  10 2.93   9 2.93  18 2.93  15 2.93
                            16 2.93   2 2.93  14 2.93   8 2.93
  18  0.778  0.778  0.346-  22 2.92  27 2.92  25 2.92  16 2.93  12 2.93  13 2.93  11 2.93  17 2.93
                            15 2.93   7 2.93   3 2.93   9 2.93
  19  0.889  0.222  0.454-  28 2.91  15 2.92  10 2.92  12 2.92  24 2.93  22 2.93  26 2.93  25 2.93
                            20 2.94  21 2.94  32 2.96  31 2.96
  20  0.223  0.223  0.453-  36 2.73  13 2.90  11 2.90  21 2.91  23 2.91  10 2.91  31 2.91  29 2.91
                            27 2.93  22 2.93  19 2.94  26 2.94
  21  0.554  0.223  0.453-  36 2.73  11 2.90  14 2.90  20 2.91  23 2.91  12 2.91  30 2.91  32 2.91
                            27 2.93  24 2.93  25 2.94  19 2.94
  22  0.888  0.556  0.453-  35 2.91  18 2.92  15 2.92  13 2.92  24 2.92  27 2.92  25 2.93  19 2.93
                            33 2.93  31 2.93  23 2.93  20 2.93
  23  0.223  0.554  0.453-  36 2.73  14 2.90  13 2.90  21 2.91  20 2.91  16 2.91  34 2.91  33 2.91
                            22 2.93  24 2.93  26 2.94  25 2.94
  24  0.556  0.556  0.453-  35 2.91  15 2.92  17 2.92  14 2.92  27 2.92  22 2.92  19 2.93  26 2.93
                            32 2.93  34 2.93  23 2.93  21 2.93
  25  0.889  0.889  0.454-  28 2.91  18 2.92  16 2.92  12 2.92  22 2.93  27 2.93  26 2.93  19 2.93
                            23 2.94  21 2.94  33 2.96  30 2.96
  26  0.222  0.889  0.454-  28 2.91  17 2.92  16 2.92  10 2.92  27 2.93  24 2.93  25 2.93  19 2.93
                            23 2.94  20 2.94  34 2.96  29 2.96
  27  0.556  0.888  0.453-  35 2.91  17 2.92  18 2.92  11 2.92  24 2.92  22 2.92  26 2.93  25 2.93
                            29 2.93  30 2.93  20 2.93  21 2.93
  28  0.000  0.000  0.560-  26 2.91  25 2.91  19 2.91  29 2.96  34 2.96  33 2.96  32 2.96  31 2.96
                            30 2.96
  29  0.333  0.007  0.561-  30 2.87  31 2.87  36 2.88  20 2.91  27 2.93  26 2.96  35 2.96  28 2.96
                            34 3.06
  30  0.659  0.007  0.561-  29 2.87  32 2.87  36 2.88  21 2.91  27 2.93  25 2.96  35 2.96  28 2.96
                            33 3.06
  31  0.007  0.333  0.561-  33 2.87  29 2.87  36 2.88  20 2.91  22 2.93  19 2.96  35 2.96  28 2.96
                            32 3.06
  32  0.659  0.333  0.561-  34 2.87  30 2.87  36 2.88  21 2.91  24 2.93  19 2.96  35 2.96  28 2.96
                            31 3.06
  33  0.007  0.659  0.561-  31 2.87  34 2.87  36 2.88  23 2.91  22 2.93  25 2.96  35 2.96  28 2.96
                            30 3.06
  34  0.333  0.659  0.561-  32 2.87  33 2.87  36 2.88  23 2.91  24 2.93  26 2.96  35 2.96  28 2.96
                            29 3.06
  35  0.667  0.667  0.560-  24 2.91  27 2.91  22 2.91  30 2.96  32 2.96  29 2.96  34 2.96  31 2.96
                            33 2.96
  36  0.333  0.333  0.550-  37 1.95  38 1.95  21 2.73  20 2.73  23 2.73  31 2.88  33 2.88  30 2.88
                            29 2.88  34 2.88  32 2.88
  37  0.264  0.334  0.633-  38 1.21  36 1.95
  38  0.402  0.334  0.633-  37 1.21  36 1.95

  LATTYP: Found a hexagonal cell.
 ALAT       =     8.7913665772
 C/A-ratio  =     2.5227160501

  Lattice vectors:

 A1 = (  -4.3956832886,  -7.6135467898,   0.0000000000)
 A2 = (   8.7913665771,   0.0000000000,   0.0000000000)
 A3 = (   0.0000000000,   0.0000000000,  22.1781215668)

Analysis of symmetry for initial positions (statically):
 Subroutine PRICEL returns:
 Original cell was already a primitive cell.

 Routine SETGRP: Setting up the symmetry group for a
 hexagonal supercell.

 Subroutine GETGRP returns: Found  2 space group operations
 (whereof  2 operations were pure point group operations)
 out of a pool of 24 trial point group operations.

The static configuration has the point symmetry C_1h.

Analysis of symmetry for dynamics (positions and initial velocities):
 Subroutine PRICEL returns:
 Original cell was already a primitive cell.

[...]

The dynamic configuration has the point symmetry C_1h.

Analysis of constrained symmetry for selective dynamics:
 Subroutine PRICEL returns:
 Original cell was already a primitive cell.

 Routine SETGRP: Setting up the symmetry group for a
 hexagonal supercell.

[...]
     33      -4.5241      2.00000
     34      -4.5007      2.00000
     35      -4.4918      2.00000
     36      -4.4835      2.00000
     37      -4.4463      2.00000
     38      -4.3978      2.00000
     39      -4.3632      2.00000
     40      -4.3548      2.00000
     41      -4.3417      2.00000
     42      -4.3118      2.00000
     43      -4.2952      2.00000
     44      -4.2815      2.00000
     45      -4.2748      2.00000
     46      -4.2681      2.00000
     47      -4.2368      2.00000
     48      -4.1741      2.00000
     49      -4.1463      2.00000
     50      -4.1372      2.00000
     51      -4.1351      2.00000
     52      -4.1320      2.00000
     53      -4.1289      2.00000
     54      -4.1107      2.00000
     55      -4.1057      2.00000
     56      -4.0950      2.00000
     57      -4.0807      2.00000
     58      -4.0213      2.00000
     59      -4.0132      2.00000
     60      -3.9984      2.00000
[...]
    238       6.0789      0.00000
    239       6.2262      0.00000
    240       6.3019      0.00000
    241       6.3611      0.00000
    242       6.4249      0.00000
    243       6.4750      0.00000
    244       7.1076      0.00000
    245       7.2624      0.00000
    246       7.2942      0.00000
    247       7.3313      0.00000
    248       7.3603      0.00000
    249       7.4061      0.00000
    250       7.4498      0.00000
    251       7.6139      0.00000
    252       7.6675      0.00000

 soft charge-density along one line, spin component           1
         0         1         2         3         4         5         6         7         8         9
 total charge-density along one line

------------------------ aborting loop because EDIFF is reached ----------------------------------------

 total charge

# of ion       s       p       d       tot
    1        0.419   0.202   9.178   9.799
    2        0.417   0.205   9.177   9.799
    3        0.417   0.205   9.177   9.799
    4        0.418   0.204   9.177   9.799
    5        0.420   0.202   9.177   9.800
    6        0.418   0.204   9.177   9.799
    7        0.417   0.204   9.178   9.799
    8        0.417   0.204   9.178   9.799
    9        0.413   0.205   9.178   9.797
   10        0.407   0.269   9.166   9.842
   11        0.407   0.272   9.166   9.845
   12        0.407   0.269   9.166   9.842
   13        0.405   0.271   9.168   9.844
   14        0.405   0.271   9.168   9.844
   15        0.404   0.269   9.166   9.839
   16        0.409   0.269   9.163   9.842
   17        0.402   0.272   9.165   9.839
   18        0.402   0.272   9.165   9.839
   19        0.396   0.269   9.168   9.832
   20        0.430   0.300   9.140   9.871
   21        0.430   0.300   9.140   9.871
   22        0.395   0.276   9.165   9.837
   23        0.434   0.295   9.143   9.872
   24        0.395   0.276   9.165   9.837
   25        0.405   0.264   9.169   9.839
   26        0.405   0.264   9.169   9.839
   27        0.396   0.276   9.166   9.838
   28        0.416   0.197   9.179   9.792
   29        0.418   0.212   9.175   9.805
   30        0.418   0.212   9.175   9.805
   31        0.415   0.200   9.181   9.797
   32        0.415   0.200   9.181   9.797
   33        0.417   0.211   9.175   9.804
   34        0.417   0.211   9.175   9.804
   35        0.411   0.200   9.178   9.789
   36        0.405   0.486   4.324   5.215
   37        1.329   2.431   0.000   3.760
   38        1.329   2.431   0.000   3.760
tot         17.483  13.782 325.261 356.525

  FORCE on cell =-STRESS in cart. coord.  units (eV):
  Direction    XX          YY          ZZ          XY          YZ          ZX
  Alpha Z   761.33136   761.33136   761.33136
  Ewald  120183.98000119877.24365************     0.00004     0.07078     0.00007
  Hartree130354.78042130239.38956************     0.00002     0.02911     0.00002
  E(xc)   -2096.95429 -2097.87714 -2103.04179    -0.00001     0.06994     0.00000
  Local  ************************261460.29042     0.00079     0.07831    -0.00017
  n-local  -354.96409  -342.53437  -352.42842     2.33004     0.05944     0.10442
  augment  3250.03404  3248.39756  3257.88647    -0.00016    -0.23491     0.00002
  Kinetic  4999.00913  5009.37811  5036.84482     1.12273    -0.08000    -0.01630
  Fock        0.00000     0.00000     0.00000     0.00000     0.00000     0.00000
  Total      -8.31332    -8.56388    -1.44471    -0.00000    -0.00734    -0.00000
  in kB      -8.97257    -9.24300    -1.55928    -0.00000    -0.00792    -0.00000

 VOLUME and BASIS-vectors are now :
  energy-cutoff  :      500.00
  volume of cell :     1484.46
      direct lattice vectors                 reciprocal lattice vectors
     8.791366577  0.000000000  0.000000000     0.113747958 -0.065672414  0.000000000
     4.395683289  7.613546790  0.000000000     0.000000000  0.131344829  0.000000000
     0.000000000  0.000000000 22.178121567     0.000000000  0.000000000  0.045089481

  length of vectors
     8.791366577  8.791366577 22.178121567     0.131344829  0.131344829  0.045089481

 FORCES acting on ions
    electron-ion (+dipol)            ewald-force                    non-local-force                 convergence-correction
   0.459E-04 0.684E-02 0.251E+04   -.954E-04 -.170E-01 -.251E+04   0.117E-12 0.178E-01 -.202E+01   -.119E-03 -.130E-01 -.128E+00
   0.210E+00 0.201E+00 0.251E+04   -.290E+00 -.319E+00 -.251E+04   0.869E-01 0.116E+00 -.162E+01   -.121E-01 0.435E-02 -.174E+00
   -.210E+00 0.201E+00 0.251E+04   0.290E+00 -.319E+00 -.251E+04   -.869E-01 0.116E+00 -.162E+01   0.115E-01 0.617E-02 -.173E+00
   0.384E+00 0.613E-01 0.251E+04   -.406E+00 -.101E+00 -.251E+04   0.835E-01 -.223E-01 -.160E+01   -.445E-01 0.560E-01 -.767E-01
   -.732E-05 -.757E-01 0.251E+04   0.981E-04 -.127E-02 -.251E+04   0.106E-12 0.161E-01 -.153E+01   0.616E-02 0.596E-01 -.969E-01
   -.384E+00 0.613E-01 0.251E+04   0.406E+00 -.101E+00 -.251E+04   -.835E-01 -.223E-01 -.160E+01   0.432E-01 0.569E-01 -.760E-01
   -.285E-01 -.307E+00 0.251E+04   -.116E+00 0.420E+00 -.251E+04   0.965E-01 -.808E-01 -.163E+01   0.471E-01 -.286E-01 -.161E+00
   0.285E-01 -.307E+00 0.251E+04   0.116E+00 0.420E+00 -.251E+04   -.965E-01 -.808E-01 -.163E+01   -.455E-01 -.295E-01 -.161E+00
   0.363E-04 0.158E+00 0.251E+04   0.792E-04 0.182E-01 -.251E+04   -.392E-12 -.597E-01 -.185E+01   -.657E-02 -.110E+00 -.111E+00
   0.310E+01 0.177E+01 0.862E+03   -.262E+01 -.165E+01 -.862E+03   -.420E+00 -.189E+00 -.703E+00   -.604E-01 0.792E-01 0.808E+00
   -.289E-04 0.320E+01 0.866E+03   0.413E-04 -.358E+01 -.867E+03   0.976E-12 0.149E+00 -.404E+00   0.637E-02 0.167E+00 0.104E+01
   -.310E+01 0.177E+01 0.862E+03   0.262E+01 -.165E+01 -.862E+03   0.420E+00 -.189E+00 -.703E+00   0.589E-01 0.795E-01 0.808E+00
   0.257E+01 -.167E+01 0.867E+03   -.296E+01 0.180E+01 -.867E+03   0.221E+00 -.123E+00 -.455E+00   0.136E+00 0.810E-02 0.993E+00
   -.257E+01 -.167E+01 0.867E+03   0.296E+01 0.180E+01 -.867E+03   -.221E+00 -.123E+00 -.455E+00   -.126E+00 0.680E-02 0.991E+00
   0.160E-04 0.609E+00 0.863E+03   -.108E-03 -.689E+00 -.863E+03   0.429E-12 0.653E-01 -.729E+00   -.115E-02 -.307E-02 0.809E+00
   -.806E-05 -.340E+01 0.862E+03   0.207E-04 0.307E+01 -.862E+03   0.314E-11 0.479E+00 -.663E+00   -.457E-03 -.148E+00 0.779E+00
   0.669E+00 -.303E+00 0.863E+03   -.666E+00 0.445E+00 -.863E+03   0.148E-01 -.463E-01 -.670E+00   -.332E-01 -.896E-01 0.772E+00
   -.670E+00 -.303E+00 0.863E+03   0.666E+00 0.445E+00 -.863E+03   -.148E-01 -.463E-01 -.670E+00   0.337E-01 -.880E-01 0.773E+00
   0.407E-04 -.331E+00 -.812E+03   -.127E-03 -.962E-01 0.810E+03   0.146E-11 0.222E+00 0.111E+01   0.102E-02 0.209E+00 0.145E+01
   0.376E+01 0.304E+01 -.794E+03   -.365E+01 -.310E+01 0.792E+03   -.118E+01 -.610E+00 -.851E+00   0.996E+00 0.653E+00 0.262E+01
   -.376E+01 0.304E+01 -.794E+03   0.365E+01 -.310E+01 0.792E+03   0.118E+01 -.610E+00 -.851E+00   -.101E+01 0.651E+00 0.262E+01
   0.238E+01 -.206E+01 -.804E+03   -.281E+01 0.254E+01 0.802E+03   0.176E+00 -.177E+00 0.583E+00   0.326E+00 -.316E+00 0.147E+01
   -.568E-04 -.563E+01 -.795E+03   0.414E-04 0.549E+01 0.793E+03   0.972E-11 0.148E+01 -.922E+00   -.696E-02 -.126E+01 0.259E+01
   -.238E+01 -.206E+01 -.804E+03   0.281E+01 0.254E+01 0.802E+03   -.176E+00 -.177E+00 0.583E+00   -.314E+00 -.316E+00 0.147E+01
   0.499E+00 0.604E+00 -.813E+03   -.408E+00 -.568E+00 0.811E+03   -.469E-01 -.742E-02 0.818E+00   -.517E-01 -.305E-01 0.132E+01
   -.499E+00 0.604E+00 -.813E+03   0.407E+00 -.569E+00 0.811E+03   0.469E-01 -.742E-02 0.818E+00   0.503E-01 -.287E-01 0.132E+01
   0.203E-04 0.248E+01 -.805E+03   0.110E-03 -.320E+01 0.803E+03   0.222E-11 0.338E+00 0.680E+00   0.574E-02 0.423E+00 0.142E+01
   0.539E-04 0.291E+01 -.245E+04   -.115E-03 -.324E+01 0.245E+04   0.975E-12 0.148E+00 0.170E+01   0.186E-03 0.143E+00 0.867E+00
   0.245E+02 0.493E+02 -.243E+04   -.247E+02 -.508E+02 0.242E+04   -.583E+00 -.352E+00 0.221E+01   0.694E+00 0.152E+01 0.852E+00
   -.245E+02 0.493E+02 -.243E+04   0.247E+02 -.508E+02 0.242E+04   0.583E+00 -.352E+00 0.221E+01   -.694E+00 0.152E+01 0.851E+00
   0.628E+02 0.146E+01 -.241E+04   -.647E+02 -.142E+01 0.241E+04   -.929E-01 -.782E-01 0.322E+01   0.171E+01 0.364E-01 0.815E+00
   -.628E+02 0.146E+01 -.241E+04   0.647E+02 -.142E+01 0.241E+04   0.929E-01 -.782E-01 0.322E+01   -.171E+01 0.370E-01 0.815E+00
   0.224E+02 -.511E+02 -.243E+04   -.230E+02 0.525E+02 0.242E+04   -.349E+00 0.489E+00 0.232E+01   0.805E+00 -.155E+01 0.855E+00
   -.224E+02 -.511E+02 -.243E+04   0.230E+02 0.525E+02 0.242E+04   0.349E+00 0.489E+00 0.232E+01   -.804E+00 -.155E+01 0.856E+00
   0.215E-04 -.299E+01 -.245E+04   0.106E-03 0.343E+01 0.245E+04   -.104E-11 -.159E+00 0.181E+01   -.589E-02 -.227E+00 0.802E+00
   -.225E-04 0.363E+00 -.110E+04   0.576E-04 -.526E+00 0.110E+04   0.260E-12 0.397E-01 0.165E+01   0.783E-03 0.556E-01 0.721E+00
   0.190E+03 0.600E-01 -.131E+04   -.228E+03 -.743E-01 0.133E+04   0.370E+02 -.700E-02 -.110E+02   0.671E+00 0.299E-01 -.133E+01
   -.190E+03 0.600E-01 -.131E+04   0.228E+03 -.743E-01 0.133E+04   -.370E+02 -.700E-02 -.110E+02   -.673E+00 0.300E-01 -.133E+01
   0.450E-03 -.604E+00 -.765E+01   -.853E-13 -.246E-13 -.109E-10   0.368E-11 0.560E+00 -.200E+02   0.678E-02 0.410E-01 0.277E+02

 POSITION                                       TOTAL-FORCE (eV/Angst)
      0.00000      0.00000      5.28219        -0.000000     -0.005265     -0.020969
      2.93046      0.00000      5.28219        -0.004783      0.003514      0.051672
      5.86091      0.00000      5.28219         0.004783      0.003514      0.051672
      1.46523      2.53785      5.28219         0.017736     -0.005896      0.032238
      4.39568      2.53785      5.28219        -0.000000     -0.001235      0.004293
      7.32614      2.53785      5.28219        -0.017736     -0.005896      0.032238
      2.93046      5.07570      5.28219        -0.001828      0.003445      0.040616
      5.86091      5.07570      5.28219         0.001828      0.003445      0.040616
      8.79137      5.07570      5.28219         0.000000      0.006780      0.021476
      1.46523      0.84595      7.67490         0.005280      0.011619     -0.010475
      4.39568      0.84595      7.67490        -0.000000     -0.059376     -0.063402
      7.32614      0.84595      7.67490        -0.005280      0.011619     -0.010475
      2.93046      3.38380      7.67490        -0.043579      0.018707     -0.059878
      5.86091      3.38380      7.67490         0.043579      0.018707     -0.059878
      8.79137      3.38380      7.67490        -0.000000     -0.017623      0.008977
      4.39568      5.92165      7.67490        -0.000000     -0.003756     -0.007850
      7.32614      5.92165      7.67490        -0.015455      0.006544      0.023112
     10.25659      5.92165      7.67490         0.015455      0.006544      0.023112
      8.79137      1.69374     10.05841         0.000000      0.003980      0.053111
      2.93927      1.69699     10.03909        -0.071416     -0.015364     -0.112533
      5.85210      1.69699     10.03909         0.071416     -0.015364     -0.112533
     10.25385      4.23133     10.05420         0.067212     -0.020949      0.020394
      4.39568      4.21957     10.03909         0.000000      0.080391     -0.107670
      7.32888      4.23133     10.05420        -0.067212     -0.020949      0.020394
     11.72023      6.76668     10.05841        -0.006484     -0.001395      0.013064
      5.86251      6.76668     10.05841         0.006484     -0.001395      0.013064
      8.79137      6.76443     10.05420         0.000000      0.041502      0.016155
      0.00000      0.00000     12.42643        -0.000000     -0.032901      0.002808
      2.96234      0.05459     12.44639        -0.170168     -0.283337     -0.214224
      5.82903      0.05459     12.44639         0.170168     -0.283337     -0.214224
      1.52844      2.53816     12.44639        -0.369198      0.000156     -0.179415
      7.26292      2.53816     12.44639         0.369198      0.000156     -0.179415
      2.96179      5.02079     12.44639        -0.178683      0.275715     -0.222086
      5.82958      5.02079     12.44639         0.178683      0.275715     -0.222086
      8.79137      5.07570     12.42906         0.000000      0.051722      0.013169
      4.39568      2.53785     12.18689        -0.000000     -0.067113      1.312017
      3.78957      2.54258     14.03575        -0.035800      0.008690      0.001456
      5.00180      2.54258     14.03575         0.035800      0.008690      0.001456
    total drift:                                0.007234     -0.002970      0.032973

  FREE ENERGIE OF THE ION-ELECTRON SYSTEM (eV)
  free  energy   TOTEN  =      -112.00566223 eV

  energy  without entropy=     -112.00566223  energy(sigma->0) =     -112.00566223

 stress matrix after NEB project (eV)
     -8.31332     -0.00000     -0.00000
     -0.00000     -8.56388     -0.00734
     -0.00000     -0.00734     -1.44471
  FORCES: max atom, RMS     0.036868    0.008458
  FORCE total and by dimension    0.052140    0.035800
  Stress total and by dimension   12.022425    8.563881
|           W    W    AA    RRRRR   N    N  II  N    N   GGGG   !!!           |
|           W    W   A  A   R    R  NN   N  II  NN   N  G    G  !!!           |
|           W    W  A    A  R    R  N N  N  II  N N  N  G       !!!           |
|           W WW W  AAAAAA  RRRRR   N  N N  II  N  N N  G  GGG   !            |
|           WW  WW  A    A  R   R   N   NN  II  N   NN  G    G                |
|           W    W  A    A  R    R  N    N  II  N    N   GGGG   !!!           |
|     Tetrahedron method does not include variations of the Fermi             |
|     occupations, so forces and stress will be inaccurate. We suggest        |
|     using a different smearing scheme ISMEAR = 1 or 2 for metals in         |
|     relaxations.                                                            |

 total charge

# of ion       s       p       d       tot
    1        0.419   0.202   9.178   9.799
    2        0.417   0.205   9.177   9.799
    3        0.417   0.205   9.177   9.799
    4        0.418   0.204   9.177   9.799
    5        0.420   0.202   9.177   9.800
    6        0.418   0.204   9.177   9.799
    7        0.417   0.204   9.178   9.799
    8        0.417   0.204   9.178   9.799
    9        0.413   0.205   9.178   9.797
   10        0.407   0.269   9.166   9.842
   11        0.407   0.272   9.166   9.845
   12        0.407   0.269   9.166   9.842
   13        0.405   0.271   9.168   9.844
   14        0.405   0.271   9.168   9.844
   15        0.404   0.269   9.166   9.839
   16        0.409   0.269   9.163   9.842
   17        0.402   0.272   9.165   9.839
   18        0.402   0.272   9.165   9.839
   19        0.396   0.269   9.168   9.832
   20        0.430   0.300   9.140   9.871
   21        0.430   0.300   9.140   9.871
   22        0.395   0.276   9.165   9.837
   23        0.434   0.295   9.143   9.872
   24        0.395   0.276   9.165   9.837
   25        0.405   0.264   9.169   9.839
   26        0.405   0.264   9.169   9.839
   27        0.396   0.276   9.166   9.838
   28        0.416   0.197   9.179   9.792
   29        0.418   0.212   9.175   9.805
   30        0.418   0.212   9.175   9.805
   31        0.415   0.200   9.181   9.797
   32        0.415   0.200   9.181   9.797
   33        0.417   0.211   9.175   9.804
   34        0.417   0.211   9.175   9.804
   35        0.411   0.200   9.178   9.789
   36        0.405   0.486   4.324   5.215
   37        1.329   2.431   0.000   3.760
   38        1.329   2.431   0.000   3.760
tot         17.483  13.782 325.261 356.525

 BZINTS: Fermi energy:    0.866380;  401.000000 electrons
         Band energy:-0.134121E+04;  BLOECHL correction:   -0.028719