 vasp.6.2.0 18Jan21 (build Jun 12 2021 23:27:24) complex

 executed on             LinuxIFC date 2022.05.28  01:48:57

 INCAR:
   ISMEAR = -5
   SIGMA = 0.1
   ISPIN = 1
   EDIFF = 1.d-5
   EDIFFG = -0.01
   NSW = 0
   NELM = 150
   ENCUT = 500
   ISIF = 2
   IBRION = 2
   LREAL = Auto
   ALGO = Fast
   ICHARG = 11
   LORBIT = 10
   LCHARG = .F.
   LWAVE = .F.

 POTCAR:    PAW_PBE Ag 02Apr2005
 POTCAR:    PAW_PBE Ru 04Feb2005
 POTCAR:    PAW_PBE C 08Apr2002
 POTCAR:    PAW_PBE O 08Apr2002
|           W    W    AA    RRRRR   N    N  II  N    N   GGGG   !!!           |
|           W    W   A  A   R    R  NN   N  II  NN   N  G    G  !!!           |
|           W    W  A    A  R    R  N N  N  II  N N  N  G       !!!           |
|           W WW W  AAAAAA  RRRRR   N  N N  II  N  N N  G  GGG   !            |
|           WW  WW  A    A  R   R   N   NN  II  N   NN  G    G                |
|           W    W  A    A  R    R  N    N  II  N    N   GGGG   !!!           |
|     For optimal performance we recommend to set                             |
|       NCORE = 2 up to number-of-cores-per-socket                            |
|     This setting can greatly improve the performance of VASP for DFT.       |
|     The default, NCORE=1 might be grossly inefficient on modern             |
|     multi-core architectures or massively parallel machines. Do your        |
|     Unfortunately you need to use the default for GW and RPA                |
|     calculations (for HF NCORE is supported but not extensively tested      |
|     yet).                                                                   |

 POTCAR:    PAW_PBE Ag 02Apr2005
   VRHFIN =Ag : s1 d10

   TITEL  = PAW_PBE Ag 02Apr2005
   POMASS =  107.868; ZVAL   =   11.000    mass and valenz
   ENMAX  =  249.844; ENMIN  =  187.383 eV

 POTCAR:    PAW_PBE Ru 04Feb2005
   VRHFIN =Ru: s1 d7

   TITEL  = PAW_PBE Ru 04Feb2005
   POMASS =  101.070; ZVAL   =    8.000    mass and valenz
   ENMAX  =  213.271; ENMIN  =  159.953 eV

 POTCAR:    PAW_PBE C 08Apr2002
   VRHFIN =C: s2p2

[...]

 POTCAR:    PAW_PBE O 08Apr2002
   VRHFIN =O: s2p4

   TITEL  = PAW_PBE O 08Apr2002
   POMASS =   16.000; ZVAL   =    6.000    mass and valenz
   ENMAX  =  400.000; ENMIN  =  300.000 eV

 Optimization of the real space projectors (new method)

 maximal supplied QI-value         = 15.12
 optimisation between [QCUT,QGAM] = [ 11.34, 22.83] = [ 36.00,145.93] Ry
 Optimized for a Real-space Cutoff    1.43 Angstroem

   l    n(q)    QCUT    max X(q) W(low)/X(q) W(high)/X(q)  e(spline)
   2      9    11.338    53.897    0.16E-03    0.20E-03    0.28E-06
   2      9    11.338    52.416    0.16E-03    0.20E-03    0.29E-06
   0     10    11.338   122.045    0.31E-04    0.76E-04    0.15E-06
   0     10    11.338    73.629    0.30E-04    0.72E-04    0.15E-06
   1      9    11.338    15.255    0.20E-03    0.19E-04    0.17E-06
   1      9    11.338     9.562    0.16E-03    0.15E-04    0.14E-06
 Optimization of the real space projectors (new method)

[...]

   l    n(q)    QCUT    max X(q) W(low)/X(q) W(high)/X(q)  e(spline)
   0      7    11.310   115.676    0.43E-03    0.13E-02    0.19E-06
   0      7    11.310    87.132    0.43E-03    0.13E-02    0.18E-06
   1      6    11.310     4.429    0.42E-03    0.74E-03    0.11E-06
   1      6    11.310     2.733    0.34E-03    0.55E-03    0.92E-07
 Optimization of the real space projectors (new method)

 maximal supplied QI-value         = 24.76
 optimisation between [QCUT,QGAM] = [ 11.39, 22.77] = [ 36.31,145.25] Ry
 Optimized for a Real-space Cutoff    1.00 Angstroem

   l    n(q)    QCUT    max X(q) W(low)/X(q) W(high)/X(q)  e(spline)
   0      7    11.387    20.381    0.39E-03    0.13E-02    0.15E-06
   0      7    11.387    15.268    0.42E-03    0.14E-02    0.17E-06
   1      6    11.387     5.964    0.41E-03    0.11E-02    0.17E-06
   1      6    11.387     5.382    0.39E-03    0.87E-03    0.15E-06
  PAW_PBE Ag 02Apr2005                  :
  PAW_PBE Ru 04Feb2005                  :
  PAW_PBE C 08Apr2002                   :
  PAW_PBE O 08Apr2002                   :

 POSCAR: Ag-Ru-CO2
  positions in direct lattice
  velocities in cartesian coordinates
 exchange correlation table for  LEXCH =        8
   RHO(1)=    0.500       N(1)  =     2000
   RHO(2)=  100.500       N(2)  =     4000

 VTST: version 3.2, (02/03/18)

 CHAIN: initializing optimizer

 OPT: Using VASP Conjugate-Gradient optimizer
 CHAIN: Read ICHAIN            0

 POSCAR: Ag-Ru-CO2
  positions in direct lattice
  velocities in cartesian coordinates

 ion  position               nearest neighbor table
   1  0.000  0.000  0.217-   2 2.93   8 2.93   7 2.93   6 2.93   4 2.93  12 2.93  16 2.93  10 2.93
                             3 2.93
   2  0.333  0.000  0.217-   1 2.93   8 2.93   9 2.93   3 2.93   4 2.93   5 2.93  10 2.93  17 2.93
                            11 2.93
   3  0.667  0.000  0.217-   9 2.93   2 2.93   5 2.93  11 2.93   7 2.93  18 2.93   1 2.93   6 2.93
                            12 2.93
   4  0.000  0.333  0.217-   5 2.93   6 2.93   2 2.93   1 2.93   7 2.93  13 2.93  15 2.93   9 2.93
                            10 2.93
   5  0.333  0.333  0.217-   4 2.93   3 2.93   7 2.93   2 2.93   8 2.93  14 2.93  13 2.93  11 2.93
                             6 2.93
   6  0.667  0.333  0.217-   4 2.93   9 2.93   1 2.93  15 2.93   8 2.93  12 2.93   3 2.93   5 2.93
                            14 2.93
   7  0.000  0.667  0.217-   8 2.93   1 2.93   5 2.93   3 2.93   4 2.93  16 2.93  18 2.93  13 2.93
                             9 2.93
   8  0.333  0.667  0.217-   7 2.93   1 2.93   2 2.93   9 2.93   5 2.93  16 2.93   6 2.93  17 2.93
                            14 2.93
   9  0.667  0.667  0.217-   3 2.93   2 2.93   8 2.93   6 2.93  17 2.93   4 2.93  15 2.93   7 2.93
                            18 2.93
  10  0.111  0.111  0.315-  20 2.90  19 2.93  26 2.93  12 2.93  16 2.93  15 2.93  17 2.93  13 2.93
                            11 2.93   2 2.93   1 2.93   4 2.93
  11  0.444  0.111  0.315-  21 2.90  20 2.90  27 2.92  14 2.93  17 2.93  18 2.93   3 2.93  12 2.93
                            13 2.93  10 2.93   5 2.93   2 2.93
  12  0.778  0.111  0.315-  21 2.90  25 2.93  19 2.93  10 2.93  16 2.93  18 2.93  15 2.93  11 2.93
                             1 2.93  14 2.93   6 2.93   3 2.93
  13  0.111  0.444  0.315-  20 2.90  23 2.90  22 2.92  15 2.93  14 2.93  18 2.93  10 2.93  11 2.93
                            16 2.93   4 2.93   5 2.93   7 2.93
  14  0.444  0.444  0.315-  23 2.90  21 2.90  24 2.92  13 2.93  11 2.93  16 2.93   5 2.93  12 2.93
                            17 2.93   8 2.93  15 2.93   6 2.93
  15  0.778  0.444  0.315-  24 2.92  22 2.92  19 2.93  13 2.93  10 2.93  12 2.93  17 2.93  18 2.93
                             4 2.93   6 2.93   9 2.93  14 2.93
  16  0.111  0.778  0.315-  23 2.90  26 2.93  25 2.93  18 2.93  12 2.93  10 2.93  14 2.93  17 2.93
                            13 2.93   7 2.93   8 2.93   1 2.93
  17  0.444  0.778  0.315-  27 2.92  24 2.92  26 2.93  11 2.93  10 2.93   9 2.93  18 2.93  15 2.93
                            16 2.93   2 2.93  14 2.93   8 2.93
  18  0.778  0.778  0.315-  22 2.92  27 2.92  25 2.93  16 2.93  12 2.93  13 2.93  11 2.93  17 2.93
                            15 2.93   7 2.93   3 2.93   9 2.93
  19  0.889  0.223  0.413-  28 2.91  15 2.93  10 2.93  12 2.93  24 2.93  22 2.93  26 2.93  25 2.93
                            20 2.94  21 2.94  32 2.94  31 2.94
  20  0.223  0.223  0.412-  36 2.77  13 2.90  11 2.90  10 2.90  21 2.92  23 2.92  31 2.92  29 2.92
                            27 2.93  22 2.93  19 2.94  26 2.94
  21  0.555  0.223  0.412-  36 2.77  11 2.90  14 2.90  12 2.90  20 2.92  23 2.92  30 2.92  32 2.92
                            27 2.93  24 2.93  25 2.94  19 2.94
  22  0.888  0.556  0.413-  35 2.91  18 2.92  15 2.92  13 2.92  33 2.92  31 2.92  24 2.92  27 2.92
                            25 2.93  19 2.93  23 2.93  20 2.93
  23  0.223  0.555  0.412-  36 2.77  14 2.90  13 2.90  16 2.90  21 2.92  20 2.92  34 2.92  33 2.92
                            22 2.93  24 2.93  26 2.94  25 2.94
  24  0.556  0.556  0.413-  35 2.91  15 2.92  17 2.92  14 2.92  32 2.92  34 2.92  27 2.92  22 2.92
                            19 2.93  26 2.93  23 2.93  21 2.93
  25  0.889  0.889  0.413-  28 2.91  18 2.93  16 2.93  12 2.93  22 2.93  27 2.93  26 2.93  19 2.93
                            23 2.94  21 2.94  33 2.94  30 2.94
  26  0.223  0.889  0.413-  28 2.91  17 2.93  16 2.93  10 2.93  27 2.93  24 2.93  25 2.93  19 2.93
                            23 2.94  20 2.94  34 2.94  29 2.94
  27  0.556  0.888  0.413-  35 2.91  17 2.92  18 2.92  11 2.92  29 2.92  30 2.92  24 2.92  22 2.92
                            26 2.93  25 2.93  20 2.93  21 2.93
  28  0.000  0.000  0.510-  26 2.91  25 2.91  19 2.91  29 2.95  34 2.95  33 2.95  32 2.95  31 2.95
                            30 2.95
  29  0.333  0.006  0.511-  31 2.88  30 2.88  36 2.89  20 2.92  27 2.92  26 2.94  28 2.95  35 2.96
                            34 3.03
  30  0.661  0.006  0.511-  32 2.88  29 2.88  36 2.89  21 2.92  27 2.92  25 2.94  28 2.95  35 2.96
                            33 3.03
  31  0.006  0.333  0.511-  29 2.88  33 2.88  36 2.89  20 2.92  22 2.92  19 2.94  28 2.95  35 2.96
                            32 3.03
  32  0.661  0.333  0.511-  30 2.88  34 2.88  36 2.89  21 2.92  24 2.92  19 2.94  28 2.95  35 2.96
                            31 3.03
  33  0.006  0.661  0.511-  34 2.88  31 2.88  36 2.89  23 2.92  22 2.92  25 2.94  28 2.95  35 2.96
                            30 3.03
  34  0.333  0.661  0.511-  33 2.88  32 2.88  36 2.89  23 2.92  24 2.92  26 2.94  28 2.95  35 2.96
                            29 3.03
  35  0.667  0.667  0.510-  24 2.91  27 2.91  22 2.91  30 2.96  32 2.96  29 2.96  34 2.96  31 2.96
                            33 2.96
  36  0.333  0.333  0.502-  37 2.03  21 2.77  20 2.77  23 2.77  31 2.89  30 2.89  33 2.89  29 2.89
                            34 2.89  32 2.89
  37  0.332  0.335  0.585-  38 1.25  39 1.25  36 2.03
  38  0.201  0.333  0.604-  37 1.25
  39  0.466  0.333  0.603-  37 1.25

  LATTYP: Found a hexagonal cell.
 ALAT       =     8.7913665772
 C/A-ratio  =     2.7703738524

  Lattice vectors:

 A1 = (  -4.3956832886,  -7.6135467898,   0.0000000000)
 A2 = (   8.7913665771,   0.0000000000,   0.0000000000)
 A3 = (   0.0000000000,   0.0000000000,  24.3553720923)

Analysis of symmetry for initial positions (statically):
 Subroutine PRICEL returns:
 Original cell was already a primitive cell.

 Routine SETGRP: Setting up the symmetry group for a
 hexagonal supercell.

 Subroutine GETGRP returns: Found  1 space group operations
 (whereof  1 operations were pure point group operations)
 out of a pool of 24 trial point group operations.

The static configuration has the point symmetry C_1 .

Analysis of symmetry for dynamics (positions and initial velocities):
 Subroutine PRICEL returns:
 Original cell was already a primitive cell.

[...]

The dynamic configuration has the point symmetry C_1 .

Analysis of constrained symmetry for selective dynamics:
 Subroutine PRICEL returns:
 Original cell was already a primitive cell.

 Routine SETGRP: Setting up the symmetry group for a
[...]
     41      -4.9727      2.00000
     42      -4.9639      2.00000
     43      -4.9414      2.00000
     44      -4.9134      2.00000
     45      -4.9048      2.00000
     46      -4.8934      2.00000
     47      -4.8808      2.00000
     48      -4.8685      2.00000
     49      -4.7887      2.00000
     50      -4.7630      2.00000
     51      -4.7601      2.00000
     52      -4.7433      2.00000
     53      -4.7399      2.00000
     54      -4.7368      2.00000
     55      -4.7234      2.00000
     56      -4.7171      2.00000
     57      -4.7012      2.00000
     58      -4.6992      2.00000
     59      -4.6266      2.00000
     60      -4.6207      2.00000
[...]
    238       5.3639      0.00000
    239       5.4830      0.00000
    240       5.7013      0.00000
    241       5.7250      0.00000
    242       5.7583      0.00000
    243       5.8362      0.00000
    244       5.8839      0.00000
    245       5.9346      0.00000
    246       6.1060      0.00000
    247       6.6385      0.00000
    248       6.6611      0.00000
    249       6.6915      0.00000
    250       6.7187      0.00000
    251       6.7566      0.00000
    252       6.7987      0.00000

 soft charge-density along one line, spin component           1
         0         1         2         3         4         5         6         7         8         9
 total charge-density along one line

------------------------ aborting loop because EDIFF is reached ----------------------------------------

 total charge

# of ion       s       p       d       tot
    1        0.416   0.202   9.178   9.796
    2        0.417   0.203   9.177   9.797
    3        0.417   0.203   9.177   9.796
    4        0.417   0.203   9.178   9.797
    5        0.416   0.203   9.178   9.796
    6        0.417   0.203   9.178   9.797
    7        0.417   0.203   9.177   9.797
    8        0.417   0.203   9.177   9.797
    9        0.415   0.202   9.178   9.795
   10        0.407   0.271   9.163   9.840
   11        0.408   0.269   9.166   9.843
   12        0.407   0.271   9.163   9.840
   13        0.407   0.269   9.166   9.842
   14        0.407   0.269   9.166   9.842
   15        0.403   0.270   9.165   9.838
   16        0.405   0.270   9.164   9.838
   17        0.403   0.268   9.166   9.838
   18        0.403   0.268   9.166   9.838
   19        0.398   0.267   9.168   9.834
   20        0.422   0.294   9.151   9.867
   21        0.422   0.294   9.152   9.867
   22        0.394   0.273   9.167   9.834
   23        0.419   0.290   9.158   9.866
   24        0.394   0.273   9.167   9.834
   25        0.402   0.265   9.168   9.835
   26        0.402   0.265   9.168   9.835
   27        0.396   0.272   9.169   9.836
   28        0.415   0.194   9.182   9.792
   29        0.415   0.206   9.176   9.798
   30        0.415   0.206   9.176   9.798
   31        0.395   0.209   9.180   9.785
   32        0.395   0.209   9.180   9.785
   33        0.415   0.206   9.177   9.798
   34        0.415   0.206   9.177   9.798
   35        0.406   0.198   9.182   9.786
   36        0.480   0.394   6.778   7.653
   37        0.885   1.689   0.000   2.574
   38        1.597   3.476   0.000   5.073
   39        1.597   3.476   0.000   5.073
tot         18.879  17.412 327.758 364.048

  FORCE on cell =-STRESS in cart. coord.  units (eV):
  Direction    XX          YY          ZZ          XY          YZ          ZX
  Alpha Z   710.17011   710.17011   710.17011
  Ewald  153291.36705152593.55017************    -0.22163    -1.21179    -0.93542
  Hartree163273.98068162919.85084************    -0.11300    -0.72754    -0.43845
  E(xc)   -2140.44913 -2142.43672 -2147.32196    -0.00056     0.00143     0.00107
  Local  ************************326854.44866     0.32241     2.00285     1.32735
  n-local  -371.71233  -365.77943  -369.38647     0.00193     0.27532    -0.04469
  augment  3277.17845  3279.85929  3288.91721     0.00038    -0.11898     0.00279
  Kinetic  5157.43060  5203.81739  5221.10199     0.01228    -0.28542     0.06008
  Fock        0.00000     0.00000     0.00000     0.00000     0.00000     0.00000
  Total      -7.36315    -7.05798    -0.69268     0.00182    -0.06412    -0.02727
  in kB      -7.23662    -6.93670    -0.68078     0.00179    -0.06302    -0.02680

 VOLUME and BASIS-vectors are now :
  energy-cutoff  :      500.00
  volume of cell :     1630.19
      direct lattice vectors                 reciprocal lattice vectors
     8.791366577  0.000000000  0.000000000     0.113747958 -0.065672414  0.000000000
     4.395683289  7.613546790  0.000000000     0.000000000  0.131344829  0.000000000
     0.000000000  0.000000000 24.355372092     0.000000000  0.000000000  0.041058703

  length of vectors
     8.791366577  8.791366577 24.355372092     0.131344829  0.131344829  0.041058703

 FORCES acting on ions
    electron-ion (+dipol)            ewald-force                    non-local-force                 convergence-correction
   0.308E-02 0.675E-01 0.272E+04   -.908E-04 -.425E-01 -.271E+04   -.179E-02 -.280E-01 -.210E+01   -.974E-03 0.623E-03 -.253E+00
   0.508E+00 0.716E+00 0.272E+04   -.434E+00 -.601E+00 -.271E+04   -.399E-01 -.424E-01 -.170E+01   -.275E-01 -.637E-01 -.142E+00
   -.510E+00 0.707E+00 0.272E+04   0.434E+00 -.601E+00 -.271E+04   0.416E-01 -.428E-01 -.170E+01   0.273E-01 -.552E-01 -.141E+00
   0.705E+00 0.615E-01 0.272E+04   -.701E+00 -.978E-01 -.271E+04   0.369E-01 0.143E-01 -.171E+01   -.355E-01 0.237E-01 -.150E+00
   -.633E-02 -.844E-02 0.272E+04   0.143E-03 -.101E-02 -.272E+04   -.507E-02 -.454E-02 -.155E+01   0.117E-01 0.101E-01 -.533E-01
   -.704E+00 0.577E-01 0.272E+04   0.701E+00 -.978E-01 -.271E+04   -.341E-01 0.134E-01 -.171E+01   0.313E-01 0.287E-01 -.147E+00
   0.350E+00 -.750E+00 0.272E+04   -.266E+00 0.699E+00 -.271E+04   -.180E-01 0.138E-01 -.165E+01   -.586E-01 0.313E-01 -.115E+00
   -.360E+00 -.748E+00 0.272E+04   0.266E+00 0.699E+00 -.271E+04   0.185E-01 0.149E-01 -.165E+01   0.681E-01 0.283E-01 -.116E+00
   0.149E-01 -.111E+00 0.272E+04   0.278E-04 0.434E-01 -.271E+04   0.215E-02 0.634E-01 -.186E+01   -.171E-01 0.324E-02 -.128E+00
   0.491E+01 0.327E+01 0.975E+03   -.465E+01 -.303E+01 -.974E+03   -.307E+00 -.208E+00 -.802E+00   0.538E-01 -.292E-01 0.165E-01
   -.111E-01 0.614E+01 0.982E+03   0.974E-04 -.613E+01 -.981E+03   -.698E-03 -.220E-01 -.722E+00   0.118E-01 -.778E-02 0.276E-01
   -.490E+01 0.327E+01 0.975E+03   0.465E+01 -.303E+01 -.974E+03   0.305E+00 -.207E+00 -.799E+00   -.583E-01 -.253E-01 0.151E-01
   0.487E+01 -.317E+01 0.982E+03   -.499E+01 0.311E+01 -.981E+03   0.307E-01 0.154E-01 -.573E+00   0.549E-01 0.478E-01 0.563E-01
   -.489E+01 -.317E+01 0.982E+03   0.499E+01 0.311E+01 -.981E+03   -.338E-01 0.153E-01 -.577E+00   -.343E-01 0.496E-01 0.516E-01
   0.776E-02 0.126E+00 0.975E+03   -.480E-03 -.359E+00 -.974E+03   0.328E-03 0.104E+00 -.778E+00   -.751E-02 0.110E+00 0.265E-01
   -.480E-02 -.565E+01 0.974E+03   0.289E-03 0.548E+01 -.973E+03   0.536E-03 0.240E+00 -.694E+00   0.372E-02 -.785E-01 0.323E-01
   0.317E+00 -.406E+00 0.974E+03   -.496E+00 0.418E+00 -.973E+03   0.117E+00 0.194E-01 -.617E+00   0.452E-01 -.296E-01 0.121E-01
   -.311E+00 -.415E+00 0.974E+03   0.496E+00 0.418E+00 -.973E+03   -.119E+00 0.187E-01 -.618E+00   -.490E-01 -.206E-01 0.135E-01
   0.287E-02 0.267E+01 -.796E+03   -.199E-02 -.288E+01 0.795E+03   0.298E-03 0.165E+00 0.726E+00   -.129E-02 0.462E-01 0.186E+00
   0.142E+02 0.103E+02 -.758E+03   -.134E+02 -.971E+01 0.759E+03   -.940E+00 -.646E+00 -.118E+01   -.143E-01 -.299E-01 -.962E-02
   -.142E+02 0.103E+02 -.758E+03   0.134E+02 -.970E+01 0.759E+03   0.932E+00 -.640E+00 -.117E+01   0.147E-01 -.273E-01 -.790E-02
   0.673E+01 -.617E+01 -.787E+03   -.702E+01 0.641E+01 0.786E+03   0.321E+00 -.256E+00 0.561E+00   0.209E-02 -.966E-02 0.777E-01
   -.764E-02 -.191E+02 -.760E+03   0.254E-02 0.183E+02 0.761E+03   0.264E-03 0.949E+00 -.782E+00   0.378E-02 0.333E-01 -.345E-01
   -.672E+01 -.617E+01 -.787E+03   0.702E+01 0.641E+01 0.786E+03   -.320E+00 -.256E+00 0.561E+00   -.494E-02 -.785E-02 0.788E-01
   -.113E+01 0.258E+00 -.800E+03   0.122E+01 -.178E+00 0.799E+03   -.656E-01 -.585E-01 0.676E+00   -.282E-01 -.194E-01 0.129E+00
   0.113E+01 0.265E+00 -.800E+03   -.122E+01 -.181E+00 0.799E+03   0.658E-01 -.585E-01 0.676E+00   0.303E-01 -.239E-01 0.131E+00
   0.364E-02 0.814E+01 -.790E+03   -.108E-02 -.846E+01 0.789E+03   0.193E-04 0.332E+00 0.633E+00   -.258E-02 0.777E-02 0.683E-01
   0.463E-02 0.106E+02 -.256E+04   -.738E-02 -.105E+02 0.256E+04   0.147E-02 -.162E+00 0.209E+01   0.125E-02 0.108E-01 0.632E-01
   0.306E+02 0.754E+02 -.253E+04   -.298E+02 -.750E+02 0.252E+04   -.803E+00 -.558E+00 0.221E+01   -.831E-02 -.206E-01 0.606E-01
   -.306E+02 0.754E+02 -.253E+04   0.298E+02 -.750E+02 0.252E+04   0.802E+00 -.553E+00 0.221E+01   0.622E-02 -.103E-01 0.623E-01
   0.879E+02 0.509E-01 -.249E+04   -.878E+02 0.979E-01 0.249E+04   -.237E+00 -.134E+00 0.280E+01   -.624E-01 -.322E-03 0.414E-01
   -.879E+02 0.238E-01 -.249E+04   0.878E+02 0.121E+00 0.249E+04   0.228E+00 -.134E+00 0.280E+01   0.550E-01 0.439E-02 0.435E-01
   0.311E+02 -.756E+02 -.253E+04   -.306E+02 0.750E+02 0.252E+04   -.545E+00 0.689E+00 0.217E+01   -.350E-01 0.297E-01 0.492E-01
   -.312E+02 -.755E+02 -.253E+04   0.306E+02 0.750E+02 0.252E+04   0.545E+00 0.687E+00 0.217E+01   0.445E-01 0.281E-01 0.506E-01
   0.355E-01 -.108E+02 -.256E+04   -.215E-01 0.107E+02 0.256E+04   0.280E-02 0.180E+00 0.224E+01   -.168E-01 -.127E-01 0.107E+00
   -.190E-01 0.715E+00 -.158E+04   -.739E-02 -.583E+00 0.158E+04   0.263E-01 -.162E+00 -.725E+00   0.692E-02 -.218E-01 0.655E-01
   0.974E-01 -.384E+01 -.999E+03   -.131E+00 0.399E+01 0.994E+03   0.200E-01 -.138E+00 0.566E+01   0.492E-02 -.698E-02 0.113E+00
   0.226E+03 0.139E+01 -.168E+04   -.273E+03 -.181E+01 0.171E+04   0.464E+02 0.427E+00 -.209E+02   -.372E-01 -.827E-02 0.608E-01
   -.226E+03 0.154E+01 -.168E+04   0.273E+03 -.199E+01 0.171E+04   -.464E+02 0.466E+00 -.208E+02   0.356E-01 -.835E-02 0.442E-01
   -.319E-01 -.883E-01 0.387E+02   0.114E-12 0.123E-12 -.546E-11   0.246E-01 0.119E+00 -.391E+02   0.132E-01 -.240E-01 0.385E+00

 POSITION                                       TOTAL-FORCE (eV/Angst)
      0.00000      0.00000      5.28219         0.000082     -0.002447      0.030809
      2.93046      0.00000      5.28219         0.006097      0.008293      0.027353
      5.86091      0.00000      5.28219        -0.006660      0.008237      0.027381
      1.46523      2.53785      5.28219         0.004957      0.001602      0.022404
      4.39568      2.53785      5.28219         0.000274     -0.004028     -0.021014
      7.32614      2.53785      5.28219        -0.005452      0.001750      0.022570
      2.93046      5.07570      5.28219         0.006989     -0.006401      0.027023
      5.86091      5.07570      5.28219        -0.007494     -0.006520      0.027212
      8.79137      5.07570      5.28219        -0.000160     -0.001477      0.014645
      1.46523      0.84595      7.67490         0.006673      0.008413      0.001896
      4.39568      0.84595      7.67490        -0.000025     -0.015276     -0.067767
      7.32614      0.84595      7.67490        -0.006845      0.008411      0.001915
      2.93046      3.38380      7.67490        -0.032623      0.009635     -0.074740
      5.86091      3.38380      7.67490         0.032869      0.009562     -0.074645
      8.79137      3.38380      7.67490        -0.000049     -0.019192      0.003366
      4.39568      5.92165      7.67490        -0.000408     -0.010814     -0.001597
      7.32614      5.92165      7.67490        -0.016921      0.001364      0.012108
     10.25659      5.92165      7.67490         0.016905      0.001073      0.012205
      8.79137      1.69450     10.06282        -0.000257      0.000474      0.055703
      2.93652      1.69540     10.03056        -0.122837     -0.041669     -0.050117
      5.85484      1.69540     10.03056         0.124465     -0.043023     -0.052160
     10.25378      4.23137     10.05553         0.029950     -0.019019      0.020231
      4.39568      4.22274     10.03056        -0.001202      0.140389     -0.115843
      7.32895      4.23137     10.05553        -0.030217     -0.019169      0.020064
     11.71957      6.76630     10.06282        -0.002489      0.001652      0.008442
      5.86316      6.76630     10.06282         0.002184      0.001615      0.008171
      8.79137      6.76435     10.05553        -0.000159      0.027450     -0.000046
      0.00000      0.00000     12.42400        -0.000178     -0.023335      0.011627
      2.95387      0.04433     12.43748        -0.020611     -0.175152     -0.087785
      5.83749      0.04433     12.43748         0.020344     -0.176336     -0.088664
      1.51533      2.53597     12.43748        -0.146656      0.014624      0.033302
      7.27604      2.53597     12.43748         0.147571      0.014657      0.031650
      2.95713      5.03325     12.43748        -0.028912      0.160204     -0.077667
      5.83423      5.03325     12.43748         0.028520      0.160788     -0.078711
      8.79137      5.07570     12.42069        -0.000148      0.023960      0.000603
      4.39568      2.53785     12.23056         0.006671     -0.051086      0.379921
      4.39369      2.54913     14.25706        -0.008411      0.001697     -0.001322
      3.22907      2.53816     14.70169        -0.002814      0.000790     -0.004432
      5.56001      2.53737     14.69815         0.006976      0.008310     -0.004093
    total drift:                                0.005857      0.006322     -0.027110

  FREE ENERGIE OF THE ION-ELECTRON SYSTEM (eV)
  free  energy   TOTEN  =      -118.56078498 eV

  energy  without entropy=     -118.56078498  energy(sigma->0) =     -118.56078498

 stress matrix after NEB project (eV)
     -7.36315      0.00182     -0.02727
      0.00182     -7.05798     -0.06413
     -0.02727     -0.06412     -0.69268
  FORCES: max atom, RMS     0.011597    0.002470
  FORCE total and by dimension    0.015428    0.008411
  Stress total and by dimension   10.223527    7.363147
|           W    W    AA    RRRRR   N    N  II  N    N   GGGG   !!!           |
|           W    W   A  A   R    R  NN   N  II  NN   N  G    G  !!!           |
|           W    W  A    A  R    R  N N  N  II  N N  N  G       !!!           |
|           W WW W  AAAAAA  RRRRR   N  N N  II  N  N N  G  GGG   !            |
|           WW  WW  A    A  R   R   N   NN  II  N   NN  G    G                |
|           W    W  A    A  R    R  N    N  II  N    N   GGGG   !!!           |
|     Tetrahedron method does not include variations of the Fermi             |
|     occupations, so forces and stress will be inaccurate. We suggest        |
|     using a different smearing scheme ISMEAR = 1 or 2 for metals in         |
|     relaxations.                                                            |

 total charge

# of ion       s       p       d       tot
    1        0.416   0.202   9.178   9.796
    2        0.417   0.203   9.177   9.797
    3        0.417   0.203   9.177   9.796
    4        0.417   0.203   9.178   9.797
    5        0.416   0.203   9.178   9.796
    6        0.417   0.203   9.178   9.797
    7        0.417   0.203   9.177   9.797
    8        0.417   0.203   9.177   9.797
    9        0.415   0.202   9.178   9.795
   10        0.407   0.271   9.163   9.840
   11        0.408   0.269   9.166   9.843
   12        0.407   0.271   9.163   9.840
   13        0.407   0.269   9.166   9.842
   14        0.407   0.269   9.166   9.842
   15        0.403   0.270   9.165   9.838
   16        0.405   0.270   9.164   9.838
   17        0.403   0.268   9.166   9.838
   18        0.403   0.268   9.166   9.838
   19        0.398   0.267   9.168   9.834
   20        0.422   0.294   9.151   9.867
   21        0.422   0.294   9.152   9.867
   22        0.394   0.273   9.167   9.834
   23        0.419   0.290   9.158   9.866
   24        0.394   0.273   9.167   9.834
   25        0.402   0.265   9.168   9.835
   26        0.402   0.265   9.168   9.835
   27        0.396   0.272   9.169   9.836
   28        0.415   0.194   9.182   9.792
   29        0.415   0.206   9.176   9.798
   30        0.415   0.206   9.176   9.798
   31        0.395   0.209   9.180   9.785
   32        0.395   0.209   9.180   9.785
   33        0.415   0.206   9.177   9.798
   34        0.415   0.206   9.177   9.798
   35        0.406   0.198   9.182   9.786
   36        0.480   0.394   6.778   7.653
   37        0.885   1.689   0.000   2.574
   38        1.597   3.476   0.000   5.073
   39        1.597   3.476   0.000   5.073
tot         18.879  17.412 327.758 364.048

 BZINTS: Fermi energy:    0.221011;  409.000000 electrons
         Band energy:-0.163734E+04;  BLOECHL correction:   -0.044469