 vasp.6.2.0 18Jan21 (build Jun 12 2021 23:27:24) complex

 executed on             LinuxIFC date 2022.05.27  05:33:58

 INCAR:
   ISMEAR = -5
   SIGMA = 0.1
   ISPIN = 1
   EDIFF = 1.d-5
   EDIFFG = -0.01
   NSW = 0
   NELM = 150
   ENCUT = 500
   ISIF = 2
   IBRION = 2
   LREAL = Auto
   ALGO = Fast
   ICHARG = 11
   LORBIT = 10
   LCHARG = .F.
   LWAVE = .F.

 POTCAR:    PAW_PBE Ag 02Apr2005
 POTCAR:    PAW_PBE Fe 06Sep2000
 POTCAR:    PAW_PBE N 08Apr2002
|           W    W    AA    RRRRR   N    N  II  N    N   GGGG   !!!           |
|           W    W   A  A   R    R  NN   N  II  NN   N  G    G  !!!           |
|           W    W  A    A  R    R  N N  N  II  N N  N  G       !!!           |
|           W WW W  AAAAAA  RRRRR   N  N N  II  N  N N  G  GGG   !            |
|           WW  WW  A    A  R   R   N   NN  II  N   NN  G    G                |
|           W    W  A    A  R    R  N    N  II  N    N   GGGG   !!!           |
|     For optimal performance we recommend to set                             |
|       NCORE = 2 up to number-of-cores-per-socket                            |
|     This setting can greatly improve the performance of VASP for DFT.       |
|     The default, NCORE=1 might be grossly inefficient on modern             |
|     multi-core architectures or massively parallel machines. Do your        |
|     Unfortunately you need to use the default for GW and RPA                |
|     calculations (for HF NCORE is supported but not extensively tested      |
|     yet).                                                                   |

 POTCAR:    PAW_PBE Ag 02Apr2005
   VRHFIN =Ag : s1 d10

   TITEL  = PAW_PBE Ag 02Apr2005
   POMASS =  107.868; ZVAL   =   11.000    mass and valenz
   ENMAX  =  249.844; ENMIN  =  187.383 eV

 POTCAR:    PAW_PBE Fe 06Sep2000
   VRHFIN =Fe:  d7 s1

   TITEL  = PAW_PBE Fe 06Sep2000
   POMASS =   55.847; ZVAL   =    8.000    mass and valenz
   ENMAX  =  267.882; ENMIN  =  200.911 eV

 POTCAR:    PAW_PBE N 08Apr2002
   VRHFIN =N: s2p3

   TITEL  = PAW_PBE N 08Apr2002
   POMASS =   14.001; ZVAL   =    5.000    mass and valenz
   ENMAX  =  400.000; ENMIN  =  300.000 eV

 Optimization of the real space projectors (new method)

 maximal supplied QI-value         = 15.12
 optimisation between [QCUT,QGAM] = [ 11.34, 22.83] = [ 36.00,145.93] Ry
 Optimized for a Real-space Cutoff    1.43 Angstroem

   l    n(q)    QCUT    max X(q) W(low)/X(q) W(high)/X(q)  e(spline)
   2      9    11.338    53.897    0.16E-03    0.20E-03    0.28E-06
   2      9    11.338    52.416    0.16E-03    0.20E-03    0.29E-06
   0     10    11.338   122.045    0.31E-04    0.76E-04    0.15E-06
   0     10    11.338    73.629    0.30E-04    0.72E-04    0.15E-06
   1      9    11.338    15.255    0.20E-03    0.19E-04    0.17E-06
   1      9    11.338     9.562    0.16E-03    0.15E-04    0.14E-06
 Optimization of the real space projectors (new method)

[...]

   l    n(q)    QCUT    max X(q) W(low)/X(q) W(high)/X(q)  e(spline)
   2      8    11.376    80.901    0.45E-03    0.44E-04    0.21E-06
   2      8    11.376    75.754    0.45E-03    0.45E-04    0.22E-06
   0      9    11.376    58.752    0.65E-04    0.95E-04    0.17E-06
   0      9    11.376    30.679    0.59E-04    0.87E-04    0.16E-06
   1      9    11.376    17.977    0.38E-03    0.10E-03    0.14E-06
   1      9    11.376    13.559    0.31E-03    0.90E-04    0.12E-06
 Optimization of the real space projectors (new method)

 maximal supplied QI-value         = 25.13
 optimisation between [QCUT,QGAM] = [ 11.31, 22.87] = [ 35.82,146.48] Ry
 Optimized for a Real-space Cutoff    1.27 Angstroem

   l    n(q)    QCUT    max X(q) W(low)/X(q) W(high)/X(q)  e(spline)
   0      9    11.310    79.467    0.75E-04    0.16E-03    0.36E-06
   0      9    11.310    66.151    0.74E-04    0.16E-03    0.36E-06
   1      8    11.310    17.416    0.35E-03    0.12E-03    0.95E-06
   1      8    11.310    12.382    0.37E-03    0.13E-03    0.98E-06
  PAW_PBE Ag 02Apr2005                  :
  PAW_PBE Fe 06Sep2000                  :
  PAW_PBE N 08Apr2002                   :

 POSCAR: Ag-Fe-N2
  positions in direct lattice
  velocities in cartesian coordinates
 exchange correlation table for  LEXCH =        8
   RHO(1)=    0.500       N(1)  =     2000
   RHO(2)=  100.500       N(2)  =     4000

 VTST: version 3.2, (02/03/18)

 CHAIN: initializing optimizer

 OPT: Using VASP Conjugate-Gradient optimizer
 CHAIN: Read ICHAIN            0

 POSCAR: Ag-Fe-N2
  positions in direct lattice
  velocities in cartesian coordinates

 ion  position               nearest neighbor table
   1  0.000  0.000  0.220-   2 2.93   8 2.93   7 2.93   6 2.93   4 2.93  12 2.93  16 2.93  10 2.93
                             3 2.93
   2  0.333  0.000  0.220-   1 2.93   8 2.93   9 2.93   3 2.93   4 2.93   5 2.93  10 2.93  17 2.93
                            11 2.93
   3  0.667  0.000  0.220-   9 2.93   2 2.93   5 2.93  11 2.93   7 2.93  18 2.93   1 2.93   6 2.93
                            12 2.93
   4  0.000  0.333  0.220-   5 2.93   6 2.93   2 2.93   1 2.93   7 2.93  13 2.93  15 2.93   9 2.93
                            10 2.93
   5  0.333  0.333  0.220-   4 2.93   3 2.93   7 2.93   2 2.93   8 2.93  14 2.93  13 2.93  11 2.93
                             6 2.93
   6  0.667  0.333  0.220-   4 2.93   9 2.93   1 2.93  15 2.93   8 2.93  12 2.93   3 2.93   5 2.93
                            14 2.93
   7  0.000  0.667  0.220-   8 2.93   1 2.93   5 2.93   3 2.93   4 2.93  16 2.93  18 2.93  13 2.93
                             9 2.93
   8  0.333  0.667  0.220-   7 2.93   1 2.93   2 2.93   9 2.93   5 2.93  16 2.93   6 2.93  17 2.93
                            14 2.93
   9  0.667  0.667  0.220-   3 2.93   2 2.93   8 2.93   6 2.93  17 2.93   4 2.93  15 2.93   7 2.93
                            18 2.93
  10  0.111  0.111  0.320-  20 2.92  19 2.93  26 2.93  12 2.93  16 2.93  15 2.93  17 2.93  13 2.93
                            11 2.93   2 2.93   1 2.93   4 2.93
  11  0.444  0.111  0.320-  21 2.90  20 2.90  27 2.92  14 2.93  17 2.93  18 2.93   3 2.93  12 2.93
                            13 2.93  10 2.93   5 2.93   2 2.93
  12  0.778  0.111  0.320-  21 2.92  25 2.93  19 2.93  10 2.93  16 2.93  18 2.93  15 2.93  11 2.93
                             1 2.93  14 2.93   6 2.93   3 2.93
  13  0.111  0.444  0.320-  20 2.90  23 2.90  22 2.92  15 2.93  14 2.93  18 2.93  10 2.93  11 2.93
                            16 2.93   4 2.93   5 2.93   7 2.93
  14  0.444  0.444  0.320-  23 2.90  21 2.90  24 2.92  13 2.93  11 2.93  16 2.93   5 2.93  12 2.93
                            17 2.93   8 2.93  15 2.93   6 2.93
  15  0.778  0.444  0.320-  24 2.92  22 2.92  19 2.93  13 2.93  10 2.93  12 2.93  17 2.93  18 2.93
                             4 2.93   6 2.93   9 2.93  14 2.93
  16  0.111  0.778  0.320-  23 2.92  26 2.93  25 2.93  18 2.93  12 2.93  10 2.93  14 2.93  17 2.93
                            13 2.93   7 2.93   8 2.93   1 2.93
  17  0.444  0.778  0.320-  27 2.92  24 2.92  26 2.93  11 2.93  10 2.93   9 2.93  18 2.93  15 2.93
                            16 2.93   2 2.93  14 2.93   8 2.93
  18  0.778  0.778  0.320-  22 2.92  27 2.92  25 2.93  16 2.93  12 2.93  13 2.93  11 2.93  17 2.93
                            15 2.93   7 2.93   3 2.93   9 2.93
  19  0.889  0.222  0.419-  28 2.91  15 2.93  10 2.93  12 2.93  24 2.93  22 2.93  26 2.93  25 2.93
                            20 2.94  21 2.94  32 2.94  31 2.94
  20  0.223  0.223  0.418-  36 2.70  31 2.89  29 2.89  13 2.90  11 2.90  21 2.91  23 2.91  10 2.92
                            27 2.94  22 2.94  19 2.94  26 2.94
  21  0.554  0.223  0.418-  36 2.70  30 2.89  32 2.89  11 2.90  14 2.90  20 2.91  23 2.91  12 2.92
                            27 2.94  24 2.94  25 2.94  19 2.94
  22  0.888  0.556  0.419-  35 2.91  18 2.92  15 2.92  33 2.92  31 2.92  13 2.92  24 2.92  27 2.92
                            25 2.93  19 2.93  23 2.94  20 2.94
  23  0.223  0.554  0.418-  36 2.70  34 2.89  33 2.89  14 2.90  13 2.90  21 2.91  20 2.91  16 2.92
                            22 2.94  24 2.94  26 2.94  25 2.94
  24  0.556  0.556  0.419-  35 2.91  15 2.92  17 2.92  32 2.92  34 2.92  14 2.92  27 2.92  22 2.92
                            19 2.93  26 2.93  23 2.94  21 2.94
  25  0.889  0.889  0.419-  28 2.91  18 2.93  16 2.93  12 2.93  22 2.93  27 2.93  26 2.93  19 2.93
                            23 2.94  21 2.94  33 2.94  30 2.94
  26  0.222  0.889  0.419-  28 2.91  17 2.93  16 2.93  10 2.93  27 2.93  24 2.93  25 2.93  19 2.93
                            23 2.94  20 2.94  34 2.94  29 2.94
  27  0.556  0.888  0.419-  35 2.91  17 2.92  18 2.92  29 2.92  30 2.92  11 2.92  24 2.92  22 2.92
                            26 2.93  25 2.93  20 2.94  21 2.94
  28  0.000  0.000  0.518-  26 2.91  25 2.91  19 2.91  29 2.97  34 2.97  33 2.97  32 2.97  31 2.97
                            30 2.97
  29  0.333  0.008  0.518-  31 2.86  30 2.86  36 2.87  20 2.89  27 2.92  26 2.94  28 2.97  35 2.97
                            34 3.07
  30  0.659  0.008  0.518-  32 2.86  29 2.86  36 2.87  21 2.89  27 2.92  25 2.94  28 2.97  35 2.97
                            33 3.07
  31  0.008  0.333  0.518-  29 2.86  33 2.86  36 2.87  20 2.89  22 2.92  19 2.94  28 2.97  35 2.97
                            32 3.07
  32  0.659  0.333  0.518-  30 2.86  34 2.86  36 2.87  21 2.89  24 2.92  19 2.94  28 2.97  35 2.97
                            31 3.07
  33  0.008  0.659  0.518-  34 2.86  31 2.86  36 2.87  23 2.89  22 2.92  25 2.94  28 2.97  35 2.97
                            30 3.07
  34  0.333  0.659  0.518-  33 2.86  32 2.86  36 2.87  23 2.89  24 2.92  26 2.94  28 2.97  35 2.97
                            29 3.07
  35  0.667  0.667  0.517-  24 2.91  27 2.91  22 2.91  32 2.97  30 2.97  29 2.97  34 2.97  31 2.97
                            33 2.97
  36  0.333  0.333  0.506-  38 2.02  37 2.02  21 2.70  20 2.70  23 2.70  31 2.87  30 2.87  33 2.87
                            29 2.87  34 2.87  32 2.87
  37  0.267  0.332  0.587-  38 1.17  36 2.02
  38  0.400  0.332  0.587-  37 1.17  36 2.02

  LATTYP: Found a hexagonal cell.
 ALAT       =     8.7913665772
 C/A-ratio  =     2.7306349153

  Lattice vectors:

 A1 = (  -4.3956832886,  -7.6135467898,   0.0000000000)
 A2 = (   8.7913665771,   0.0000000000,   0.0000000000)
 A3 = (   0.0000000000,   0.0000000000,  24.0060125285)

Analysis of symmetry for initial positions (statically):
 Subroutine PRICEL returns:
 Original cell was already a primitive cell.

 Routine SETGRP: Setting up the symmetry group for a
 hexagonal supercell.

 Subroutine GETGRP returns: Found  2 space group operations
 (whereof  2 operations were pure point group operations)
 out of a pool of 24 trial point group operations.

The static configuration has the point symmetry C_1h.

Analysis of symmetry for dynamics (positions and initial velocities):
 Subroutine PRICEL returns:
 Original cell was already a primitive cell.

[...]

The dynamic configuration has the point symmetry C_1h.

Analysis of constrained symmetry for selective dynamics:
 Subroutine PRICEL returns:
 Original cell was already a primitive cell.

 Routine SETGRP: Setting up the symmetry group for a
 hexagonal supercell.

[...]
     33      -4.9072      2.00000
     34      -4.8850      2.00000
     35      -4.8796      2.00000
     36      -4.8720      2.00000
     37      -4.8360      2.00000
     38      -4.7851      2.00000
     39      -4.7482      2.00000
     40      -4.7414      2.00000
     41      -4.7283      2.00000
     42      -4.6938      2.00000
     43      -4.6818      2.00000
     44      -4.6667      2.00000
     45      -4.6555      2.00000
     46      -4.6520      2.00000
     47      -4.6262      2.00000
     48      -4.5646      2.00000
     49      -4.5364      2.00000
     50      -4.5305      2.00000
     51      -4.5188      2.00000
     52      -4.5165      2.00000
     53      -4.5116      2.00000
     54      -4.4958      2.00000
     55      -4.4912      2.00000
     56      -4.4736      2.00000
     57      -4.4672      2.00000
     58      -4.4022      2.00000
     59      -4.3957      2.00000
     60      -4.3796      2.00000
[...]
    242       5.9864      0.00000
    243       6.0784      0.00000
    244       6.4976      0.00000
    245       6.5430      0.00000
    246       6.6431      0.00000
    247       6.7354      0.00000
    248       6.8252      0.00000
    249       6.8675      0.00000
    250       6.9177      0.00000
    251       6.9291      0.00000
    252       7.0191      0.00000
    253       7.1983      0.00000
    254       7.2525      0.00000
    255       7.3749      0.00000
    256       7.5212      0.00000

 soft charge-density along one line, spin component           1
         0         1         2         3         4         5         6         7         8         9
 total charge-density along one line

------------------------ aborting loop because EDIFF is reached ----------------------------------------

 total charge

# of ion       s       p       d       tot
    1        0.417   0.202   9.177   9.797
    2        0.417   0.204   9.177   9.798
    3        0.417   0.204   9.177   9.798
    4        0.417   0.203   9.177   9.797
    5        0.418   0.203   9.176   9.797
    6        0.417   0.203   9.177   9.797
    7        0.418   0.203   9.177   9.798
    8        0.418   0.203   9.177   9.798
    9        0.413   0.203   9.179   9.795
   10        0.406   0.268   9.164   9.839
   11        0.408   0.268   9.168   9.844
   12        0.406   0.268   9.164   9.839
   13        0.408   0.268   9.168   9.844
   14        0.408   0.268   9.168   9.844
   15        0.402   0.270   9.165   9.837
   16        0.406   0.269   9.164   9.839
   17        0.401   0.271   9.165   9.837
   18        0.401   0.271   9.165   9.837
   19        0.397   0.267   9.167   9.831
   20        0.425   0.293   9.148   9.866
   21        0.425   0.293   9.148   9.866
   22        0.397   0.275   9.166   9.838
   23        0.425   0.296   9.145   9.867
   24        0.397   0.275   9.166   9.838
   25        0.403   0.265   9.167   9.835
   26        0.403   0.265   9.167   9.835
   27        0.397   0.274   9.167   9.838
   28        0.414   0.195   9.179   9.788
   29        0.417   0.204   9.180   9.801
   30        0.417   0.204   9.180   9.801
   31        0.406   0.206   9.181   9.793
   32        0.406   0.206   9.181   9.793
   33        0.417   0.204   9.180   9.801
   34        0.417   0.204   9.180   9.801
   35        0.408   0.198   9.179   9.785
   36        0.347   0.340   6.394   7.081
   37        1.339   2.456   0.000   3.795
   38        1.339   2.456   0.000   3.795
tot         17.397  13.622 327.360 358.380

  FORCE on cell =-STRESS in cart. coord.  units (eV):
  Direction    XX          YY          ZZ          XY          YZ          ZX
  Alpha Z   711.26060   711.26060   711.26060
  Ewald  149176.33809148852.75963************     0.00006     0.21435     0.00007
  Hartree159213.63035159089.10547************     0.00003     0.22036     0.00003
  E(xc)   -2109.93372 -2111.12430 -2115.87317     0.00002    -0.00494     0.00000
  Local  ************************319368.21112     0.00081    -0.49894    -0.00018
  n-local  -377.23999  -366.46166  -374.85257     2.35057     0.12322     0.13964
  augment  3259.34257  3258.79718  3267.02083    -0.00017    -0.06012     0.00004
  Kinetic  5022.76487  5036.75787  5061.18103     1.39401     0.11174    -0.01337
  Fock        0.00000     0.00000     0.00000     0.00000     0.00000     0.00000
  Total      -7.47415    -7.37553    -0.69095    -0.00000     0.10567     0.00000
  in kB      -7.45262    -7.35429    -0.68896    -0.00000     0.10537     0.00000

 VOLUME and BASIS-vectors are now :
  energy-cutoff  :      500.00
  volume of cell :     1606.81
      direct lattice vectors                 reciprocal lattice vectors
     8.791366577  0.000000000  0.000000000     0.113747958 -0.065672414  0.000000000
     4.395683289  7.613546790  0.000000000     0.000000000  0.131344829  0.000000000
     0.000000000  0.000000000 24.006012529     0.000000000  0.000000000  0.041656231

  length of vectors
     8.791366577  8.791366577 24.006012529     0.131344829  0.131344829  0.041656231

 FORCES acting on ions
    electron-ion (+dipol)            ewald-force                    non-local-force                 convergence-correction
   0.460E-04 -.165E-01 0.268E+04   -.954E-04 -.164E-01 -.267E+04   0.148E-12 0.225E-01 -.219E+01   -.163E-03 0.510E-02 -.502E-01
   0.544E+00 0.561E+00 0.268E+04   -.585E+00 -.612E+00 -.267E+04   0.436E-01 0.741E-01 -.160E+01   0.579E-03 -.133E-01 -.835E-01
   -.544E+00 0.561E+00 0.268E+04   0.585E+00 -.612E+00 -.267E+04   -.436E-01 0.741E-01 -.160E+01   -.107E-02 -.113E-01 -.827E-01
   0.697E+00 0.138E+00 0.268E+04   -.809E+00 -.207E+00 -.267E+04   0.123E+00 0.596E-02 -.162E+01   0.151E-02 0.590E-01 -.554E-01
   -.710E-05 -.399E-01 0.268E+04   0.981E-04 0.167E-02 -.268E+04   0.162E-12 0.246E-01 -.144E+01   0.628E-02 0.125E-01 -.191E-01
   -.697E+00 0.138E+00 0.268E+04   0.809E+00 -.207E+00 -.267E+04   -.123E+00 0.596E-02 -.162E+01   -.294E-02 0.599E-01 -.545E-01
   0.245E+00 -.691E+00 0.268E+04   -.223E+00 0.820E+00 -.267E+04   0.432E-01 -.991E-01 -.157E+01   -.512E-01 -.333E-01 -.437E-01
   -.245E+00 -.691E+00 0.268E+04   0.223E+00 0.820E+00 -.267E+04   -.432E-01 -.991E-01 -.157E+01   0.528E-01 -.344E-01 -.436E-01
   0.361E-04 0.468E-01 0.268E+04   0.792E-04 0.147E-01 -.267E+04   -.910E-13 -.139E-01 -.199E+01   -.664E-02 -.451E-01 -.116E+00
   0.539E+01 0.314E+01 0.932E+03   -.498E+01 -.300E+01 -.932E+03   -.379E+00 -.188E+00 -.713E+00   -.158E-01 0.527E-01 0.266E+00
   -.300E-04 0.657E+01 0.942E+03   0.417E-04 -.680E+01 -.942E+03   0.115E-11 0.176E+00 -.407E+00   0.665E-02 0.211E-02 0.233E+00
   -.539E+01 0.314E+01 0.932E+03   0.498E+01 -.300E+01 -.932E+03   0.379E+00 -.188E+00 -.713E+00   0.139E-01 0.539E-01 0.266E+00
   0.567E+01 -.334E+01 0.942E+03   -.577E+01 0.343E+01 -.942E+03   0.132E+00 -.112E+00 -.401E+00   -.595E-01 0.409E-01 0.211E+00
   -.567E+01 -.334E+01 0.942E+03   0.577E+01 0.343E+01 -.942E+03   -.132E+00 -.112E+00 -.401E+00   0.703E-01 0.398E-01 0.210E+00
   0.165E-04 0.125E+01 0.934E+03   -.109E-03 -.131E+01 -.933E+03   0.275E-12 0.419E-01 -.794E+00   -.185E-02 -.657E-02 0.241E+00
   -.792E-05 -.623E+01 0.932E+03   0.208E-04 0.578E+01 -.932E+03   0.313E-11 0.476E+00 -.759E+00   0.154E-04 -.482E-01 0.206E+00
   0.117E+01 -.608E+00 0.933E+03   -.121E+01 0.734E+00 -.933E+03   0.167E-01 -.510E-01 -.688E+00   0.896E-03 -.642E-01 0.219E+00
   -.117E+01 -.608E+00 0.933E+03   0.121E+01 0.734E+00 -.933E+03   -.167E-01 -.510E-01 -.688E+00   -.612E-03 -.619E-01 0.220E+00
   0.407E-04 0.252E+01 -.844E+03   -.129E-03 -.275E+01 0.842E+03   0.131E-11 0.200E+00 0.908E+00   -.645E-02 0.329E-01 0.380E+00
   0.290E+02 0.175E+02 -.793E+03   -.277E+02 -.168E+02 0.794E+03   -.121E+01 -.738E+00 -.104E+01   -.486E-01 -.309E-01 0.417E+00
   -.290E+02 0.175E+02 -.793E+03   0.277E+02 -.168E+02 0.794E+03   0.121E+01 -.738E+00 -.104E+01   0.500E-01 -.313E-01 0.417E+00
   0.121E+02 -.765E+01 -.829E+03   -.121E+02 0.786E+01 0.828E+03   0.179E+00 -.178E+00 0.518E+00   -.443E-01 -.517E-01 0.302E+00
   -.618E-04 -.347E+02 -.794E+03   0.455E-04 0.331E+02 0.795E+03   0.101E-10 0.154E+01 -.113E+01   0.734E-03 -.321E-02 0.392E+00
   -.121E+02 -.765E+01 -.829E+03   0.121E+02 0.786E+01 0.828E+03   -.179E+00 -.178E+00 0.518E+00   0.445E-01 -.534E-01 0.302E+00
   -.194E+01 -.787E+00 -.845E+03   0.201E+01 0.745E+00 0.844E+03   -.596E-01 -.107E-01 0.820E+00   -.182E-01 0.514E-01 0.415E+00
   0.195E+01 -.787E+00 -.845E+03   -.201E+01 0.745E+00 0.844E+03   0.596E-01 -.107E-01 0.820E+00   0.738E-02 0.500E-01 0.415E+00
   0.199E-04 0.138E+02 -.830E+03   0.109E-03 -.141E+02 0.829E+03   0.239E-11 0.363E+00 0.583E+00   0.102E-02 0.242E-01 0.354E+00
   0.541E-04 0.317E+01 -.260E+04   -.116E-03 -.318E+01 0.260E+04   -.149E-12 -.227E-01 0.187E+01   -.202E-03 0.137E-01 0.157E+00
   0.413E+02 0.804E+02 -.257E+04   -.408E+02 -.802E+02 0.257E+04   -.491E+00 -.346E+00 0.230E+01   -.915E-01 -.931E-01 0.120E+00
   -.413E+02 0.804E+02 -.257E+04   0.408E+02 -.802E+02 0.257E+04   0.491E+00 -.346E+00 0.230E+01   0.914E-01 -.919E-01 0.119E+00
   0.962E+02 -.281E+00 -.257E+04   -.963E+02 0.446E+00 0.256E+04   -.152E+00 -.103E+00 0.304E+01   -.649E-01 -.439E-01 0.925E-01
   -.962E+02 -.281E+00 -.257E+04   0.963E+02 0.446E+00 0.256E+04   0.152E+00 -.103E+00 0.304E+01   0.643E-01 -.435E-01 0.916E-01
   0.409E+02 -.798E+02 -.257E+04   -.406E+02 0.794E+02 0.257E+04   -.332E+00 0.481E+00 0.231E+01   -.834E-01 0.130E+00 0.117E+00
   -.409E+02 -.798E+02 -.257E+04   0.406E+02 0.794E+02 0.257E+04   0.332E+00 0.481E+00 0.231E+01   0.845E-01 0.129E+00 0.118E+00
   0.201E-04 -.298E+01 -.260E+04   0.107E-03 0.291E+01 0.260E+04   0.339E-12 0.516E-01 0.195E+01   -.634E-02 0.318E-01 0.217E+00
   -.291E-04 -.886E+00 -.158E+04   0.771E-04 0.866E+00 0.158E+04   0.824E-12 0.125E+00 0.317E+01   0.447E-02 -.213E-01 -.204E-01
   0.214E+03 -.838E-01 -.144E+04   -.254E+03 0.993E-01 0.145E+04   0.395E+02 -.679E-02 -.888E+01   -.796E-01 -.189E-01 0.869E-01
   -.214E+03 -.838E-01 -.144E+04   0.254E+03 0.993E-01 0.145E+04   -.395E+02 -.679E-02 -.888E+01   0.800E-01 -.188E-01 0.865E-01
   0.461E-03 -.405E+00 0.918E+01   0.284E-13 -.538E-14 0.114E-11   0.286E-11 0.437E+00 -.153E+02   -.202E-02 -.308E-01 0.610E+01

 POSITION                                       TOTAL-FORCE (eV/Angst)
      0.00000      0.00000      5.28219        -0.000000     -0.005211     -0.001047
      2.93046      0.00000      5.28219         0.003578      0.010315      0.046163
      5.86091      0.00000      5.28219        -0.003578      0.010315      0.046163
      1.46523      2.53785      5.28219         0.013177     -0.004441      0.039818
      4.39568      2.53785      5.28219        -0.000000     -0.001083      0.009630
      7.32614      2.53785      5.28219        -0.013177     -0.004441      0.039818
      2.93046      5.07570      5.28219         0.012839     -0.004214      0.034892
      5.86091      5.07570      5.28219        -0.012839     -0.004214      0.034892
      8.79137      5.07570      5.28219         0.000000      0.002492      0.024695
      1.46523      0.84595      7.67490         0.009915      0.008672      0.000066
      4.39568      0.84595      7.67490        -0.000000     -0.044947     -0.075264
      7.32614      0.84595      7.67490        -0.009915      0.008672      0.000066
      2.93046      3.38380      7.67490        -0.032626      0.022321     -0.061930
      5.86091      3.38380      7.67490         0.032626      0.022321     -0.061930
      8.79137      3.38380      7.67490        -0.000000     -0.023391     -0.007298
      4.39568      5.92165      7.67490        -0.000000     -0.024144      0.015058
      7.32614      5.92165      7.67490        -0.019515      0.011749      0.012282
     10.25659      5.92165      7.67490         0.019515      0.011749      0.012282
      8.79137      1.69341     10.06265         0.000000      0.001195      0.040287
      2.94295      1.69911     10.03964        -0.001996     -0.013933     -0.080510
      5.84841      1.69911     10.03964         0.001996     -0.013933     -0.080510
     10.25212      4.23233     10.05217         0.054420     -0.023503      0.000880
      4.39568      4.21532     10.03964        -0.000000     -0.017993     -0.063296
      7.33061      4.23233     10.05217        -0.054420     -0.023503      0.000880
     11.72051      6.76684     10.06265        -0.002793     -0.001932     -0.007287
      5.86222      6.76684     10.06265         0.002793     -0.001932     -0.007287
      8.79137      6.76243     10.05217         0.000000      0.040244     -0.014886
      0.00000      0.00000     12.42704        -0.000000     -0.021781      0.006866
      2.96539      0.06299     12.42777        -0.102896     -0.236068     -0.166183
      5.82597      0.06299     12.42777         0.102896     -0.236068     -0.166183
      1.53725      2.53661     12.42777        -0.253458      0.017741     -0.172968
      7.25412      2.53661     12.42777         0.253458      0.017741     -0.172968
      2.96754      5.01395     12.42777        -0.126016      0.219151     -0.166015
      5.82383      5.01395     12.42777         0.126016      0.219151     -0.166015
      8.79137      5.07570     12.42264         0.000000      0.019246      0.012057
      4.39568      2.53785     12.15183         0.000000      0.083934      1.062514
      3.80913      2.53123     14.08863         0.074129     -0.010137      0.016135
      4.98224      2.53123     14.08863        -0.074129     -0.010137      0.016135
    total drift:                               -0.001557      0.000686      0.002213

  FREE ENERGIE OF THE ION-ELECTRON SYSTEM (eV)
  free  energy   TOTEN  =      -111.21349490 eV

  energy  without entropy=     -111.21349490  energy(sigma->0) =     -111.21349490

 stress matrix after NEB project (eV)
     -7.47415     -0.00000      0.00000
     -0.00000     -7.37553      0.10567
      0.00000      0.10567     -0.69095
  FORCES: max atom, RMS     0.076539    0.017559
  FORCE total and by dimension    0.108243    0.074129
  Stress total and by dimension   10.524314    7.474152
|           W    W    AA    RRRRR   N    N  II  N    N   GGGG   !!!           |
|           W    W   A  A   R    R  NN   N  II  NN   N  G    G  !!!           |
|           W    W  A    A  R    R  N N  N  II  N N  N  G       !!!           |
|           W WW W  AAAAAA  RRRRR   N  N N  II  N  N N  G  GGG   !            |
|           WW  WW  A    A  R   R   N   NN  II  N   NN  G    G                |
|           W    W  A    A  R    R  N    N  II  N    N   GGGG   !!!           |
|     Tetrahedron method does not include variations of the Fermi             |
|     occupations, so forces and stress will be inaccurate. We suggest        |
|     using a different smearing scheme ISMEAR = 1 or 2 for metals in         |
|     relaxations.                                                            |

 total charge

# of ion       s       p       d       tot
    1        0.417   0.202   9.177   9.797
    2        0.417   0.204   9.177   9.798
    3        0.417   0.204   9.177   9.798
    4        0.417   0.203   9.177   9.797
    5        0.418   0.203   9.176   9.797
    6        0.417   0.203   9.177   9.797
    7        0.418   0.203   9.177   9.798
    8        0.418   0.203   9.177   9.798
    9        0.413   0.203   9.179   9.795
   10        0.406   0.268   9.164   9.839
   11        0.408   0.268   9.168   9.844
   12        0.406   0.268   9.164   9.839
   13        0.408   0.268   9.168   9.844
   14        0.408   0.268   9.168   9.844
   15        0.402   0.270   9.165   9.837
   16        0.406   0.269   9.164   9.839
   17        0.401   0.271   9.165   9.837
   18        0.401   0.271   9.165   9.837
   19        0.397   0.267   9.167   9.831
   20        0.425   0.293   9.148   9.866
   21        0.425   0.293   9.148   9.866
   22        0.397   0.275   9.166   9.838
   23        0.425   0.296   9.145   9.867
   24        0.397   0.275   9.166   9.838
   25        0.403   0.265   9.167   9.835
   26        0.403   0.265   9.167   9.835
   27        0.397   0.274   9.167   9.838
   28        0.414   0.195   9.179   9.788
   29        0.417   0.204   9.180   9.801
   30        0.417   0.204   9.180   9.801
   31        0.406   0.206   9.181   9.793
   32        0.406   0.206   9.181   9.793
   33        0.417   0.204   9.180   9.801
   34        0.417   0.204   9.180   9.801
   35        0.408   0.198   9.179   9.785
   36        0.347   0.340   6.394   7.081
   37        1.339   2.456   0.000   3.795
   38        1.339   2.456   0.000   3.795
tot         17.397  13.622 327.360 358.380

 BZINTS: Fermi energy:    0.450468;  403.000000 electrons
         Band energy:-0.149705E+04;  BLOECHL correction:   -0.035524