 vasp.6.2.0 18Jan21 (build Jun 12 2021 23:27:24) complex

 executed on             LinuxIFC date 2022.05.28  00:47:19

 INCAR:
   ISMEAR = -5
   SIGMA = 0.1
   ISPIN = 1
   EDIFF = 1.d-5
   EDIFFG = -0.01
   NSW = 0
   NELM = 150
   ENCUT = 500
   ISIF = 2
   IBRION = 2
   LREAL = Auto
   ALGO = Fast
   ICHARG = 11
   LORBIT = 10
   LCHARG = .F.
   LWAVE = .F.

 POTCAR:    PAW_PBE Au 04Oct2007
 POTCAR:    PAW_PBE Co 02Aug2007
 POTCAR:    PAW_PBE C 08Apr2002
 POTCAR:    PAW_PBE O 08Apr2002
|           W    W    AA    RRRRR   N    N  II  N    N   GGGG   !!!           |
|           W    W   A  A   R    R  NN   N  II  NN   N  G    G  !!!           |
|           W    W  A    A  R    R  N N  N  II  N N  N  G       !!!           |
|           W WW W  AAAAAA  RRRRR   N  N N  II  N  N N  G  GGG   !            |
|           WW  WW  A    A  R   R   N   NN  II  N   NN  G    G                |
|           W    W  A    A  R    R  N    N  II  N    N   GGGG   !!!           |
|     For optimal performance we recommend to set                             |
|       NCORE = 2 up to number-of-cores-per-socket                            |
|     This setting can greatly improve the performance of VASP for DFT.       |
|     The default, NCORE=1 might be grossly inefficient on modern             |
|     multi-core architectures or massively parallel machines. Do your        |
|     Unfortunately you need to use the default for GW and RPA                |
|     calculations (for HF NCORE is supported but not extensively tested      |
|     yet).                                                                   |

 POTCAR:    PAW_PBE Au 04Oct2007
   VRHFIN =Au: s1d10

   TITEL  = PAW_PBE Au 04Oct2007
   POMASS =  196.966; ZVAL   =   11.000    mass and valenz
   ENMAX  =  229.943; ENMIN  =  172.457 eV

 POTCAR:    PAW_PBE Co 02Aug2007
   VRHFIN =Co: d8 s1

   TITEL  = PAW_PBE Co 02Aug2007
   POMASS =   58.933; ZVAL   =    9.000    mass and valenz
   ENMAX  =  267.968; ENMIN  =  200.976 eV

 POTCAR:    PAW_PBE C 08Apr2002
   VRHFIN =C: s2p2

   TITEL  = PAW_PBE C 08Apr2002
   POMASS =   12.011; ZVAL   =    4.000    mass and valenz
   ENMAX  =  400.000; ENMIN  =  300.000 eV

 POTCAR:    PAW_PBE O 08Apr2002
   VRHFIN =O: s2p4

   TITEL  = PAW_PBE O 08Apr2002
   POMASS =   16.000; ZVAL   =    6.000    mass and valenz
   ENMAX  =  400.000; ENMIN  =  300.000 eV

 Optimization of the real space projectors (new method)

 maximal supplied QI-value         = 15.12
 optimisation between [QCUT,QGAM] = [ 11.34, 22.83] = [ 36.00,145.93] Ry
 Optimized for a Real-space Cutoff    1.39 Angstroem

   l    n(q)    QCUT    max X(q) W(low)/X(q) W(high)/X(q)  e(spline)
   2      9    11.338    60.898    0.39E-03    0.42E-03    0.21E-06
   2      9    11.338    58.894    0.40E-03    0.42E-03    0.22E-06
   0      9    11.338   109.617    0.13E-03    0.20E-04    0.13E-06
   0      9    11.338    75.026    0.13E-03    0.20E-04    0.13E-06
   1      9    11.338    16.344    0.33E-04    0.24E-03    0.18E-06
   1      9    11.338    10.160    0.26E-04    0.19E-03    0.15E-06
 Optimization of the real space projectors (new method)

[...]

   l    n(q)    QCUT    max X(q) W(low)/X(q) W(high)/X(q)  e(spline)
   0      7    11.310   115.676    0.43E-03    0.13E-02    0.19E-06
   0      7    11.310    87.132    0.43E-03    0.13E-02    0.18E-06
   1      6    11.310     4.429    0.42E-03    0.74E-03    0.11E-06
   1      6    11.310     2.733    0.34E-03    0.55E-03    0.92E-07
 Optimization of the real space projectors (new method)

 maximal supplied QI-value         = 24.76
 optimisation between [QCUT,QGAM] = [ 11.39, 22.77] = [ 36.31,145.25] Ry
 Optimized for a Real-space Cutoff    1.00 Angstroem

   l    n(q)    QCUT    max X(q) W(low)/X(q) W(high)/X(q)  e(spline)
   0      7    11.387    20.381    0.39E-03    0.13E-02    0.15E-06
   0      7    11.387    15.268    0.42E-03    0.14E-02    0.17E-06
   1      6    11.387     5.964    0.41E-03    0.11E-02    0.17E-06
   1      6    11.387     5.382    0.39E-03    0.87E-03    0.15E-06
  PAW_PBE Au 04Oct2007                  :
  PAW_PBE Co 02Aug2007                  :
  PAW_PBE C 08Apr2002                   :
  PAW_PBE O 08Apr2002                   :

 POSCAR: Au-Co-CO2
  positions in direct lattice
  velocities in cartesian coordinates
 exchange correlation table for  LEXCH =        8
   RHO(1)=    0.500       N(1)  =     2000
   RHO(2)=  100.500       N(2)  =     4000

 VTST: version 3.2, (02/03/18)

 CHAIN: initializing optimizer

 OPT: Using VASP Conjugate-Gradient optimizer
 CHAIN: Read ICHAIN            0

 POSCAR: Au-Co-CO2
  positions in direct lattice
  velocities in cartesian coordinates

 ion  position               nearest neighbor table
   1  0.000  0.000  0.204-  16 2.94  12 2.94   6 2.94   8 2.94   7 2.94   3 2.94  10 2.94   4 2.94
                             2 2.94
   2  0.333  0.000  0.204-   9 2.94  11 2.94  17 2.94  10 2.94   8 2.94   4 2.94   5 2.94   1 2.94
                             3 2.94
   3  0.667  0.000  0.204-   7 2.94  18 2.94  12 2.94   1 2.94  11 2.94   5 2.94   6 2.94   9 2.94
                             2 2.94
   4  0.000  0.333  0.204-  10 2.94   6 2.94   5 2.94  13 2.94   2 2.94  15 2.94   9 2.94   1 2.94
                             7 2.94
   5  0.333  0.333  0.204-  13 2.94   7 2.94  11 2.94   4 2.94   2 2.94  14 2.94   3 2.94   8 2.94
                             6 2.94
   6  0.667  0.333  0.204-  15 2.94  14 2.94   1 2.94  12 2.94   4 2.94   9 2.94   8 2.94   3 2.94
                             5 2.94
   7  0.000  0.667  0.204-  18 2.94   3 2.94  16 2.94   5 2.94   1 2.94  13 2.94   8 2.94   4 2.94
                             9 2.94
   8  0.333  0.667  0.204-   9 2.94  17 2.94   1 2.94   2 2.94  14 2.94  16 2.94   6 2.94   7 2.94
                             5 2.94
   9  0.667  0.667  0.204-   2 2.94   8 2.94  17 2.94   6 2.94  15 2.94   4 2.94   3 2.94  18 2.94
                             7 2.94
  10  0.111  0.111  0.297-  20 2.92  26 2.93  19 2.93  11 2.94  17 2.94   2 2.94   4 2.94   1 2.94
                            12 2.94  16 2.94  13 2.94  15 2.94
  11  0.444  0.111  0.297-  20 2.91  21 2.91  27 2.93  13 2.94   2 2.94  10 2.94  17 2.94   5 2.94
                             3 2.94  18 2.94  14 2.94  12 2.94
  12  0.778  0.111  0.297-  21 2.92  25 2.93  19 2.93  16 2.94  18 2.94   1 2.94  14 2.94  15 2.94
                             3 2.94   6 2.94  10 2.94  11 2.94
  13  0.111  0.444  0.297-  23 2.91  20 2.91  22 2.93   5 2.94  18 2.94  11 2.94   7 2.94   4 2.94
                            16 2.94  10 2.94  14 2.94  15 2.94
  14  0.444  0.444  0.297-  21 2.91  23 2.91  24 2.93  15 2.94   6 2.94  12 2.94   8 2.94  17 2.94
                             5 2.94  16 2.94  13 2.94  11 2.94
  15  0.778  0.444  0.297-  24 2.92  22 2.92  19 2.93  14 2.94   6 2.94  17 2.94  12 2.94   9 2.94
                             4 2.94  10 2.94  13 2.94  18 2.94
  16  0.111  0.778  0.297-  23 2.92  25 2.93  26 2.93  18 2.94  12 2.94   7 2.94   1 2.94   8 2.94
                            13 2.94  10 2.94  14 2.94  17 2.94
  17  0.444  0.778  0.297-  27 2.92  24 2.92  26 2.93   9 2.94  15 2.94   2 2.94  10 2.94  11 2.94
                             8 2.94  14 2.94  16 2.94  18 2.94
  18  0.778  0.778  0.297-  22 2.92  27 2.92  25 2.93  16 2.94   7 2.94  13 2.94  12 2.94   3 2.94
                            11 2.94   9 2.94  15 2.94  17 2.94
  19  0.889  0.222  0.390-  10 2.93  12 2.93  15 2.93  26 2.94  25 2.94  24 2.94  22 2.94  28 2.94
                            21 2.95  20 2.95  32 2.96  31 2.96
  20  0.223  0.223  0.389-  36 2.69  29 2.91  31 2.91  11 2.91  13 2.91  23 2.91  21 2.91  10 2.92
                            27 2.95  22 2.95  26 2.95  19 2.95
  21  0.554  0.223  0.389-  36 2.69  30 2.91  32 2.91  14 2.91  11 2.91  20 2.91  23 2.91  12 2.92
                            27 2.95  24 2.95  25 2.95  19 2.95
  22  0.887  0.557  0.389-  24 2.91  27 2.91  18 2.92  15 2.92  13 2.93  25 2.94  19 2.94  33 2.94
                            31 2.94  23 2.95  20 2.95  35 2.96
  23  0.223  0.554  0.389-  36 2.69  33 2.91  34 2.91  13 2.91  14 2.91  20 2.91  21 2.91  16 2.92
                            22 2.95  24 2.95  25 2.95  26 2.95
  24  0.557  0.557  0.389-  27 2.91  22 2.91  15 2.92  17 2.92  14 2.93  26 2.94  19 2.94  32 2.94
                            34 2.94  21 2.95  23 2.95  35 2.96
  25  0.889  0.889  0.390-  16 2.93  12 2.93  18 2.93  19 2.94  26 2.94  22 2.94  27 2.94  28 2.94
                            23 2.95  21 2.95  33 2.96  30 2.96
  26  0.222  0.889  0.390-  10 2.93  16 2.93  17 2.93  19 2.94  25 2.94  27 2.94  24 2.94  28 2.94
                            20 2.95  23 2.95  29 2.96  34 2.96
  27  0.557  0.887  0.389-  24 2.91  22 2.91  17 2.92  18 2.92  11 2.93  26 2.94  25 2.94  29 2.94
                            30 2.94  20 2.95  21 2.95  35 2.96
  28  0.000  0.000  0.483-  25 2.94  19 2.94  26 2.94  34 2.98  32 2.98  33 2.98  30 2.98  31 2.98
                            29 2.98
  29  0.334  0.008  0.482-  30 2.86  31 2.87  36 2.88  20 2.91  27 2.94  26 2.96  35 2.98  28 2.98
                            34 3.09
  30  0.658  0.008  0.482-  29 2.86  32 2.87  36 2.88  21 2.91  27 2.94  25 2.96  35 2.98  28 2.98
                            33 3.09
  31  0.008  0.334  0.482-  33 2.86  29 2.87  36 2.88  20 2.91  22 2.94  19 2.96  35 2.98  28 2.98
                            32 3.09
  32  0.658  0.334  0.482-  34 2.86  30 2.87  36 2.88  21 2.91  24 2.94  19 2.96  35 2.98  28 2.98
                            31 3.09
  33  0.008  0.658  0.482-  31 2.86  34 2.87  36 2.88  23 2.91  22 2.94  25 2.96  35 2.98  28 2.98
                            30 3.09
  34  0.334  0.658  0.482-  32 2.86  33 2.87  36 2.88  23 2.91  24 2.94  26 2.96  35 2.98  28 2.98
                            29 3.09
  35  0.667  0.667  0.483-  24 2.96  27 2.96  22 2.96  29 2.98  34 2.98  32 2.98  31 2.98  30 2.98
                            33 2.98
  36  0.333  0.333  0.470-  20 2.69  23 2.69  21 2.69  33 2.88  31 2.88  29 2.88  30 2.88  34 2.88
                            32 2.88
  37  0.342  0.333  0.622-  38 1.18  39 1.18
  38  0.208  0.333  0.619-  37 1.18
  39  0.475  0.333  0.625-  37 1.18

  LATTYP: Found a hexagonal cell.
 ALAT       =     8.8135128021
 C/A-ratio  =     2.9326781391

  Lattice vectors:

 A1 = (  -4.4067569092,  -7.6327256898,   0.0000000000)
 A2 = (   8.8135128021,   0.0000000000,   0.0000000000)
 A3 = (   0.0000000000,   0.0000000000,  25.8471963236)

Analysis of symmetry for initial positions (statically):
 Subroutine PRICEL returns:
 Original cell was already a primitive cell.

 Routine SETGRP: Setting up the symmetry group for a
 hexagonal supercell.

 Subroutine GETGRP returns: Found  1 space group operations
 (whereof  1 operations were pure point group operations)
 out of a pool of 24 trial point group operations.

The static configuration has the point symmetry C_1 .

Analysis of symmetry for dynamics (positions and initial velocities):
 Subroutine PRICEL returns:
 Original cell was already a primitive cell.

[...]

The dynamic configuration has the point symmetry C_1 .

Analysis of constrained symmetry for selective dynamics:
 Subroutine PRICEL returns:
[...]
     41      -5.2804      2.00000
     42      -5.2587      2.00000
     43      -5.2519      2.00000
     44      -5.2474      2.00000
     45      -5.1958      2.00000
     46      -5.1113      2.00000
     47      -5.0756      2.00000
     48      -5.0182      2.00000
     49      -4.9971      2.00000
     50      -4.9959      2.00000
     51      -4.9877      2.00000
     52      -4.8818      2.00000
     53      -4.8725      2.00000
     54      -4.8376      2.00000
     55      -4.8204      2.00000
     56      -4.8158      2.00000
     57      -4.8060      2.00000
     58      -4.7842      2.00000
     59      -4.7528      2.00000
     60      -4.7116      2.00000
[...]
    238       4.7435      0.00000
    239       4.9473      0.00000
    240       5.0397      0.00000
    241       5.2521      0.00000
    242       5.4396      0.00000
    243       5.4923      0.00000
    244       5.5988      0.00000
    245       5.7258      0.00000
    246       5.7473      0.00000
    247       5.7837      0.00000
    248       5.8900      0.00000
    249       6.0865      0.00000
    250       6.1240      0.00000
    251       6.1486      0.00000
    252       6.2280      0.00000

 soft charge-density along one line, spin component           1
         0         1         2         3         4         5         6         7         8         9
 total charge-density along one line

------------------------ aborting loop because EDIFF is reached ----------------------------------------

 total charge

# of ion       s       p       d       tot
    1        0.545   0.239   8.766   9.550
    2        0.545   0.241   8.765   9.550
    3        0.545   0.241   8.765   9.550
    4        0.545   0.241   8.765   9.550
    5        0.542   0.242   8.762   9.546
    6        0.545   0.241   8.765   9.550
    7        0.545   0.241   8.765   9.550
    8        0.545   0.241   8.765   9.550
    9        0.543   0.239   8.768   9.551
   10        0.522   0.308   8.769   9.599
   11        0.521   0.308   8.779   9.608
   12        0.522   0.308   8.769   9.599
   13        0.521   0.308   8.779   9.608
   14        0.521   0.308   8.779   9.608
   15        0.518   0.309   8.776   9.603
   16        0.522   0.308   8.769   9.599
   17        0.518   0.309   8.776   9.603
   18        0.518   0.309   8.776   9.603
   19        0.517   0.303   8.776   9.595
   20        0.539   0.328   8.757   9.624
   21        0.539   0.328   8.757   9.624
   22        0.512   0.311   8.776   9.599
   23        0.539   0.328   8.757   9.624
   24        0.512   0.311   8.776   9.599
   25        0.517   0.303   8.776   9.596
   26        0.517   0.303   8.776   9.596
   27        0.512   0.311   8.776   9.599
   28        0.539   0.226   8.768   9.533
   29        0.555   0.237   8.756   9.548
   30        0.556   0.238   8.755   9.549
   31        0.554   0.236   8.756   9.546
   32        0.554   0.237   8.756   9.547
   33        0.555   0.237   8.756   9.548
   34        0.556   0.238   8.755   9.548
   35        0.535   0.224   8.769   9.528
   36        0.316   0.224   7.259   7.799
   37        0.932   1.799   0.000   2.732
   38        1.607   3.529   0.000   5.136
   39        1.607   3.528   0.000   5.135
tot         23.153  18.716 314.115 355.983

  FORCE on cell =-STRESS in cart. coord.  units (eV):
  Direction    XX          YY          ZZ          XY          YZ          ZX
  Alpha Z   900.77248   900.77248   900.77248
  Ewald  170237.79371169445.50058************     0.19301    -0.21915    45.94242
  Hartree178628.23811178253.36003************     0.09216    -0.20061    20.93385
  E(xc)   -1846.15287 -1848.25766 -1855.26930     0.00061    -0.00063     0.12475
  Local  ************************360133.30852    -0.25975     0.40162   -62.62961
  n-local  -122.07891  -116.12786   -92.39556     0.00298     0.00532    -0.34750
  augment  2532.87593  2535.56755  2551.41022    -0.00636     0.00890    -0.14805
  Kinetic  5699.04532  5764.21999  5816.64101    -0.01658     0.00953    -3.86095
  Fock        0.00000     0.00000     0.00000     0.00000     0.00000     0.00000
  Total     -26.00131   -25.95466     0.04646     0.00607     0.00498     0.01492
  in kB     -23.95872   -23.91574     0.04281     0.00559     0.00459     0.01374

 VOLUME and BASIS-vectors are now :
  energy-cutoff  :      500.00
  volume of cell :     1738.77
      direct lattice vectors                 reciprocal lattice vectors
     8.813512802  0.000000000  0.000000000     0.113462137 -0.065507406  0.000000000
     4.406756909  7.632725690  0.000000000     0.000000000  0.131014796  0.000000000
     0.000000000  0.000000000 25.847196324     0.000000000  0.000000000  0.038688916

  length of vectors
     8.813512802  8.813512802 25.847196324     0.131014796  0.131014796  0.038688916

 FORCES acting on ions
    electron-ion (+dipol)            ewald-force                    non-local-force                 convergence-correction
   -.101E-02 0.110E-01 0.278E+04   0.573E-03 -.144E-01 -.278E+04   -.240E-03 -.152E-02 -.762E+00   0.447E-03 0.410E-02 -.270E+00
   0.605E+00 0.424E+00 0.278E+04   -.610E+00 -.445E+00 -.278E+04   0.122E-01 0.147E-01 -.359E+00   -.852E-02 0.873E-02 -.287E+00
   -.604E+00 0.414E+00 0.278E+04   0.610E+00 -.446E+00 -.278E+04   -.120E-01 0.148E-01 -.357E+00   0.817E-02 0.199E-01 -.285E+00
   0.659E+00 0.320E+00 0.278E+04   -.678E+00 -.313E+00 -.278E+04   0.213E-01 0.279E-02 -.366E+00   0.167E-03 -.127E-01 -.286E+00
   -.135E-01 -.375E-02 0.279E+04   -.939E-03 -.234E-04 -.279E+04   0.504E-03 -.592E-03 -.319E+00   0.143E-01 0.448E-02 -.260E+00
   -.649E+00 0.313E+00 0.278E+04   0.679E+00 -.313E+00 -.278E+04   -.218E-01 0.311E-02 -.363E+00   -.992E-02 -.567E-02 -.281E+00
   0.481E-01 -.739E+00 0.278E+04   -.683E-01 0.758E+00 -.278E+04   0.722E-02 -.171E-01 -.357E+00   0.173E-01 -.148E-02 -.282E+00
   -.581E-01 -.734E+00 0.278E+04   0.676E-01 0.759E+00 -.278E+04   -.704E-02 -.177E-01 -.357E+00   -.663E-02 -.734E-02 -.279E+00
   0.142E-01 -.797E-02 0.278E+04   0.699E-03 0.145E-01 -.278E+04   0.960E-04 0.285E-02 -.455E+00   -.154E-01 -.899E-02 -.305E+00
   0.469E+01 0.282E+01 0.988E+03   -.443E+01 -.267E+01 -.988E+03   -.195E+00 -.111E+00 -.642E+00   -.241E-01 -.101E-01 0.212E+00
   -.399E-02 0.587E+01 0.997E+03   -.410E-02 -.600E+01 -.997E+03   -.159E-03 0.880E-02 -.379E+00   0.855E-02 0.816E-01 0.343E+00
   -.469E+01 0.281E+01 0.988E+03   0.444E+01 -.268E+01 -.988E+03   0.195E+00 -.112E+00 -.639E+00   0.191E-01 -.726E-03 0.207E+00
   0.499E+01 -.296E+01 0.997E+03   -.509E+01 0.301E+01 -.997E+03   0.696E-02 -.305E-02 -.382E+00   0.720E-01 -.331E-01 0.348E+00
   -.500E+01 -.297E+01 0.997E+03   0.509E+01 0.302E+01 -.997E+03   -.709E-02 -.272E-02 -.380E+00   -.502E-01 -.315E-01 0.348E+00
   0.587E-02 0.288E+01 0.991E+03   0.588E-02 -.292E+01 -.990E+03   0.117E-03 0.138E-01 -.489E+00   -.120E-01 -.147E-01 0.213E+00
   -.468E-02 -.544E+01 0.988E+03   -.796E-03 0.516E+01 -.987E+03   0.149E-03 0.222E+00 -.636E+00   0.567E-02 0.170E-01 0.207E+00
   0.256E+01 -.151E+01 0.990E+03   -.259E+01 0.154E+01 -.990E+03   0.120E-01 -.731E-02 -.477E+00   -.161E-01 -.484E-02 0.205E+00
   -.256E+01 -.151E+01 0.990E+03   0.259E+01 0.153E+01 -.990E+03   -.122E-01 -.750E-02 -.476E+00   0.108E-01 0.451E-02 0.203E+00
   -.545E-01 0.258E+01 -.841E+03   0.450E-01 -.269E+01 0.839E+03   0.361E-02 0.268E-01 0.485E+00   0.607E-02 0.815E-01 0.839E+00
   0.297E+02 0.177E+02 -.795E+03   -.297E+02 -.177E+02 0.794E+03   -.709E+00 -.404E+00 -.599E+00   0.646E+00 0.384E+00 0.171E+01
   -.297E+02 0.177E+02 -.795E+03   0.297E+02 -.177E+02 0.794E+03   0.709E+00 -.403E+00 -.599E+00   -.645E+00 0.398E+00 0.171E+01
   0.687E+01 -.472E+01 -.827E+03   -.746E+01 0.510E+01 0.825E+03   0.297E+00 -.181E+00 0.544E+00   0.295E+00 -.200E+00 0.976E+00
   0.131E-01 -.352E+02 -.796E+03   -.265E-01 0.351E+02 0.795E+03   -.105E-03 0.812E+00 -.597E+00   0.132E-01 -.759E+00 0.171E+01
   -.688E+01 -.475E+01 -.827E+03   0.749E+01 0.513E+01 0.825E+03   -.298E+00 -.181E+00 0.540E+00   -.318E+00 -.195E+00 0.976E+00
   -.184E+01 -.733E+00 -.842E+03   0.189E+01 0.768E+00 0.841E+03   -.152E-01 -.102E-01 0.465E+00   -.402E-01 -.260E-01 0.834E+00
   0.182E+01 -.776E+00 -.842E+03   -.189E+01 0.813E+00 0.841E+03   0.164E-01 -.605E-02 0.467E+00   0.508E-01 -.323E-01 0.837E+00
   0.209E-01 0.815E+01 -.828E+03   -.447E-02 -.884E+01 0.826E+03   -.140E-02 0.345E+00 0.539E+00   -.155E-01 0.351E+00 0.973E+00
   -.259E+00 0.454E+01 -.263E+04   0.256E+00 -.454E+01 0.263E+04   -.162E-02 -.220E-02 0.584E+00   0.481E-02 0.828E-02 0.763E+00
   0.237E+02 0.450E+02 -.261E+04   -.236E+02 -.449E+02 0.261E+04   -.639E+00 -.951E+00 0.295E+00   0.536E+00 0.894E+00 0.690E+00
   -.234E+02 0.451E+02 -.261E+04   0.233E+02 -.451E+02 0.261E+04   0.643E+00 -.958E+00 0.273E+00   -.540E+00 0.902E+00 0.693E+00
   0.490E+02 0.125E+01 -.260E+04   -.489E+02 -.120E+01 0.260E+04   -.112E+01 -.715E-01 0.422E+00   0.103E+01 0.233E-01 0.687E+00
   -.490E+02 0.124E+01 -.260E+04   0.489E+02 -.120E+01 0.260E+04   0.113E+01 -.720E-01 0.394E+00   -.104E+01 0.328E-01 0.684E+00
   0.215E+02 -.462E+02 -.261E+04   -.215E+02 0.461E+02 0.261E+04   -.515E+00 0.102E+01 0.293E+00   0.507E+00 -.925E+00 0.692E+00
   -.212E+02 -.464E+02 -.261E+04   0.212E+02 0.463E+02 0.261E+04   0.518E+00 0.103E+01 0.274E+00   -.495E+00 -.925E+00 0.685E+00
   -.247E+00 -.458E+01 -.264E+04   0.264E+00 0.460E+01 0.264E+04   -.130E-02 0.214E-02 0.605E+00   -.156E-01 -.190E-01 0.731E+00
   -.220E-01 0.226E-02 -.199E+04   0.286E-01 -.677E-02 0.199E+04   -.174E-01 -.159E-02 0.247E+01   0.987E-02 0.952E-02 0.993E+00
   0.225E+00 0.874E-01 -.929E+03   -.188E+00 -.889E-01 0.929E+03   -.293E-01 0.349E-02 -.441E-01   -.592E-02 0.109E-02 -.224E+00
   0.261E+03 0.592E-01 -.139E+04   -.325E+03 -.631E-01 0.139E+04   0.636E+02 -.106E-02 0.383E+01   0.964E-01 0.434E-02 -.309E+00
   -.261E+03 -.513E-01 -.140E+04   0.325E+03 0.756E-01 0.140E+04   -.636E+02 -.325E-01 -.373E+01   -.825E-01 0.325E-02 -.262E+00
   0.133E-01 0.768E-02 -.150E+02   0.568E-13 0.231E-13 -.109E-10   -.393E-01 -.303E-01 -.129E+01   0.162E-01 0.207E-01 0.161E+02

 POSITION                                       TOTAL-FORCE (eV/Angst)
      0.00000      0.00000      5.28038         0.000023     -0.000832     -0.103668
      2.93784      0.00000      5.28038        -0.001032      0.003139     -0.091940
      5.87568      0.00000      5.28038         0.001745      0.003382     -0.091836
      1.46892      2.54424      5.28038         0.002685     -0.003029     -0.093009
      4.40676      2.54424      5.28038         0.000662      0.000156     -0.122131
      7.34459      2.54424      5.28038        -0.002365     -0.003071     -0.092774
      2.93784      5.08848      5.28038         0.004630      0.000097     -0.093048
      5.87568      5.08848      5.28038        -0.003965     -0.000096     -0.093082
      8.81351      5.08848      5.28038        -0.000105      0.000427     -0.102368
      1.46892      0.84808      7.67911         0.035843      0.021283      0.119374
      4.40676      0.84808      7.67911         0.000556     -0.032407      0.033877
      7.34459      0.84808      7.67911        -0.035581      0.021731      0.120030
      2.93784      3.39232      7.67911        -0.028572      0.016807      0.032901
      5.87568      3.39232      7.67911         0.029629      0.016776      0.032786
      8.81351      3.39232      7.67911         0.000091     -0.038165      0.094598
      4.40676      5.93656      7.67911         0.000591     -0.042454      0.120382
      7.34459      5.93656      7.67911        -0.032913      0.018208      0.095638
     10.28243      5.93656      7.67911         0.033055      0.018162      0.095787
      8.81351      1.69524     10.07173         0.000502      0.002979      0.021295
      2.95099      1.70376     10.05075        -0.020049     -0.012105      0.012967
      5.86252      1.70376     10.05075         0.019161     -0.011451      0.013727
     10.26977      4.24772     10.05674         0.002785     -0.000885      0.030085
      4.40676      4.22522     10.05075         0.000030      0.021262      0.012552
      7.35726      4.24772     10.05674        -0.001925     -0.000388      0.028773
     11.75215      6.78511     10.07173        -0.003140     -0.001185      0.015800
      5.87488      6.78511     10.07173         0.003929     -0.001080      0.016346
      8.81351      6.77002     10.05674        -0.000220      0.001639      0.024992
      0.00000      0.00000     12.47665         0.000567     -0.000832     -0.058393
      2.97645      0.06424     12.45579        -0.001729     -0.012410      0.008251
      5.83706      0.06424     12.45579         0.001963     -0.009927      0.010863
      1.54386      2.54556     12.45579        -0.014710      0.002556      0.003697
      7.26966      2.54556     12.45579         0.011808      0.002075      0.009460
      2.97417      5.02293     12.45579        -0.003766      0.009491      0.008779
      5.83935      5.02293     12.45579         0.003905      0.007945      0.011374
      8.81351      5.08848     12.49078         0.000170      0.001189     -0.037991
      4.40676      2.54424     12.15093        -0.000625      0.003467      0.008126
      4.47987      2.54443     16.07427         0.002656      0.003155     -0.005998
      3.30495      2.54438     16.00338        -0.006944     -0.000641      0.002590
      5.65489      2.54490     16.14386         0.000655     -0.004969      0.001190
    total drift:                               -0.009801     -0.001927     -0.107945

  FREE ENERGIE OF THE ION-ELECTRON SYSTEM (eV)
  free  energy   TOTEN  =      -135.04201429 eV

  energy  without entropy=     -135.04201429  energy(sigma->0) =     -135.04201429

 stress matrix after NEB project (eV)
    -26.00131      0.00607      0.01492
      0.00607    -25.95466      0.00498
      0.01492      0.00498      0.04646
  FORCES: max atom, RMS     0.007439    0.001860
  FORCE total and by dimension    0.011613    0.006944
  Stress total and by dimension   36.738470   26.001309
|           W    W    AA    RRRRR   N    N  II  N    N   GGGG   !!!           |
|           W    W   A  A   R    R  NN   N  II  NN   N  G    G  !!!           |
|           W    W  A    A  R    R  N N  N  II  N N  N  G       !!!           |
|           W WW W  AAAAAA  RRRRR   N  N N  II  N  N N  G  GGG   !            |
|           WW  WW  A    A  R   R   N   NN  II  N   NN  G    G                |
|           W    W  A    A  R    R  N    N  II  N    N   GGGG   !!!           |
|     Tetrahedron method does not include variations of the Fermi             |
|     occupations, so forces and stress will be inaccurate. We suggest        |
|     using a different smearing scheme ISMEAR = 1 or 2 for metals in         |
|     relaxations.                                                            |

 total charge

# of ion       s       p       d       tot
    1        0.545   0.239   8.766   9.550
    2        0.545   0.241   8.765   9.550
    3        0.545   0.241   8.765   9.550
    4        0.545   0.241   8.765   9.550
    5        0.542   0.242   8.762   9.546
    6        0.545   0.241   8.765   9.550
    7        0.545   0.241   8.765   9.550
    8        0.545   0.241   8.765   9.550
    9        0.543   0.239   8.768   9.551
   10        0.522   0.308   8.769   9.599
   11        0.521   0.308   8.779   9.608
   12        0.522   0.308   8.769   9.599
   13        0.521   0.308   8.779   9.608
   14        0.521   0.308   8.779   9.608
   15        0.518   0.309   8.776   9.603
   16        0.522   0.308   8.769   9.599
   17        0.518   0.309   8.776   9.603
   18        0.518   0.309   8.776   9.603
   19        0.517   0.303   8.776   9.595
   20        0.539   0.328   8.757   9.624
   21        0.539   0.328   8.757   9.624
   22        0.512   0.311   8.776   9.599
   23        0.539   0.328   8.757   9.624
   24        0.512   0.311   8.776   9.599
   25        0.517   0.303   8.776   9.596
   26        0.517   0.303   8.776   9.596
   27        0.512   0.311   8.776   9.599
   28        0.539   0.226   8.768   9.533
   29        0.555   0.237   8.756   9.548
   30        0.556   0.238   8.755   9.549
   31        0.554   0.236   8.756   9.546
   32        0.554   0.237   8.756   9.547
   33        0.555   0.237   8.756   9.548
   34        0.556   0.238   8.755   9.548
   35        0.535   0.224   8.769   9.528
   36        0.316   0.224   7.259   7.799
   37        0.932   1.799   0.000   2.732
   38        1.607   3.529   0.000   5.136
   39        1.607   3.528   0.000   5.135
tot         23.153  18.716 314.115 355.983

 BZINTS: Fermi energy:   -0.042535;  410.000000 electrons
         Band energy:-0.162287E+04;  BLOECHL correction:   -0.075097