 vasp.6.2.0 18Jan21 (build Jun 12 2021 23:27:24) complex

 executed on             LinuxIFC date 2022.05.28  02:50:46

 INCAR:
   ISMEAR = -5
   SIGMA = 0.1
   ISPIN = 1
   EDIFF = 1.d-5
   EDIFFG = -0.01
   NSW = 0
   NELM = 150
   ENCUT = 500
   ISIF = 2
   IBRION = 2
   LREAL = Auto
   ALGO = Fast
   ICHARG = 11
   LORBIT = 10
   LCHARG = .F.
   LWAVE = .F.

 POTCAR:    PAW_PBE Cu 22Jun2005
 POTCAR:    PAW_PBE Os 17Jan2003
 POTCAR:    PAW_PBE H 15Jun2001
 POTCAR:    PAW_PBE O 08Apr2002
|           W    W    AA    RRRRR   N    N  II  N    N   GGGG   !!!           |
|           W    W   A  A   R    R  NN   N  II  NN   N  G    G  !!!           |
|           W    W  A    A  R    R  N N  N  II  N N  N  G       !!!           |
|           W WW W  AAAAAA  RRRRR   N  N N  II  N  N N  G  GGG   !            |
|           WW  WW  A    A  R   R   N   NN  II  N   NN  G    G                |
|           W    W  A    A  R    R  N    N  II  N    N   GGGG   !!!           |
|     For optimal performance we recommend to set                             |
|       NCORE = 2 up to number-of-cores-per-socket                            |
|     This setting can greatly improve the performance of VASP for DFT.       |
|     The default, NCORE=1 might be grossly inefficient on modern             |
|     multi-core architectures or massively parallel machines. Do your        |
|     Unfortunately you need to use the default for GW and RPA                |
|     calculations (for HF NCORE is supported but not extensively tested      |
|     yet).                                                                   |

 POTCAR:    PAW_PBE Cu 22Jun2005
   VRHFIN =Cu: d10 p1

   TITEL  = PAW_PBE Cu 22Jun2005
   POMASS =   63.546; ZVAL   =   11.000    mass and valenz
   ENMAX  =  295.446; ENMIN  =  221.585 eV

 POTCAR:    PAW_PBE Os 17Jan2003
   VRHFIN =Os: 6s5d

   TITEL  = PAW_PBE Os 17Jan2003
   POMASS =  190.200; ZVAL   =    8.000    mass and valenz
   ENMAX  =  228.022; ENMIN  =  171.017 eV

 POTCAR:    PAW_PBE H 15Jun2001
   VRHFIN =H: ultrasoft test

   TITEL  = PAW_PBE H 15Jun2001
   POMASS =    1.000; ZVAL   =    1.000    mass and valenz
   ENMAX  =  250.000; ENMIN  =  200.000 eV

 POTCAR:    PAW_PBE O 08Apr2002
   VRHFIN =O: s2p4

   TITEL  = PAW_PBE O 08Apr2002
   POMASS =   16.000; ZVAL   =    6.000    mass and valenz
   ENMAX  =  400.000; ENMIN  =  300.000 eV

 Optimization of the real space projectors (new method)

 maximal supplied QI-value         = 16.25
 optimisation between [QCUT,QGAM] = [ 11.38, 22.75] = [ 36.24,144.96] Ry
 Optimized for a Real-space Cutoff    1.52 Angstroem

   l    n(q)    QCUT    max X(q) W(low)/X(q) W(high)/X(q)  e(spline)
   2      9    11.376     4.610    0.21E-03    0.10E-03    0.26E-06
   2      9    11.376     8.522    0.33E-03    0.16E-03    0.37E-06
   0     10    11.376    51.609    0.62E-04    0.20E-04    0.13E-06
   0     10    11.376    27.747    0.54E-04    0.20E-04    0.13E-06
   1     10    11.376    20.408    0.13E-04    0.99E-04    0.19E-06
   1     10    11.376    13.425    0.12E-04    0.87E-04    0.17E-06
 Optimization of the real space projectors (new method)

[...]

   l    n(q)    QCUT    max X(q) W(low)/X(q) W(high)/X(q)  e(spline)
   0      8    11.287    19.460    0.40E-03    0.73E-03    0.16E-06
   0      8    11.287    12.209    0.38E-03    0.70E-03    0.15E-06
   1      7    11.287     4.655    0.22E-03    0.25E-04    0.22E-06
 Optimization of the real space projectors (new method)

 maximal supplied QI-value         = 24.76
 optimisation between [QCUT,QGAM] = [ 11.39, 22.77] = [ 36.31,145.25] Ry
 Optimized for a Real-space Cutoff    1.00 Angstroem

   l    n(q)    QCUT    max X(q) W(low)/X(q) W(high)/X(q)  e(spline)
   0      7    11.387    20.381    0.39E-03    0.13E-02    0.15E-06
   0      7    11.387    15.268    0.42E-03    0.14E-02    0.17E-06
   1      6    11.387     5.964    0.41E-03    0.11E-02    0.17E-06
   1      6    11.387     5.382    0.39E-03    0.87E-03    0.15E-06
  PAW_PBE Cu 22Jun2005                  :
  PAW_PBE Os 17Jan2003                  :
  PAW_PBE H 15Jun2001                   :
  PAW_PBE O 08Apr2002                   :

 POSCAR: Cu-Os-H2O
  positions in direct lattice
  velocities in cartesian coordinates
 exchange correlation table for  LEXCH =        8
   RHO(1)=    0.500       N(1)  =     2000
   RHO(2)=  100.500       N(2)  =     4000

 VTST: version 3.2, (02/03/18)

 CHAIN: initializing optimizer

 OPT: Using VASP Conjugate-Gradient optimizer
 CHAIN: Read ICHAIN            0

 POSCAR: Cu-Os-H2O
  positions in direct lattice
  velocities in cartesian coordinates

 ion  position               nearest neighbor table
   1  0.000  0.000  0.221-   7 2.57   3 2.57   4 2.57   2 2.57   6 2.57   8 2.57  12 2.57  10 2.57
                            16 2.57
   2  0.333  0.000  0.221-   8 2.57   9 2.57   5 2.57   1 2.57   3 2.57  11 2.57   4 2.57  10 2.57
                            17 2.57
   3  0.667  0.000  0.221-   1 2.57   7 2.57   6 2.57   9 2.57   2 2.57  12 2.57   5 2.57  18 2.57
                            11 2.57
   4  0.000  0.333  0.221-   5 2.57   6 2.57   1 2.57   7 2.57   2 2.57  13 2.57   9 2.57  10 2.57
                            15 2.57
   5  0.333  0.333  0.221-   4 2.57   2 2.57   7 2.57  13 2.57   8 2.57   6 2.57   3 2.57  11 2.57
                            14 2.57
   6  0.667  0.333  0.221-   4 2.57   9 2.57  15 2.57   3 2.57   1 2.57   8 2.57  14 2.57   5 2.57
                            12 2.57
   7  0.000  0.667  0.221-   1 2.57   3 2.57  16 2.57  18 2.57   4 2.57   5 2.57   8 2.57   9 2.57
                            13 2.57
   8  0.333  0.667  0.221-   9 2.57   2 2.57  17 2.57   6 2.57   1 2.57   7 2.57   5 2.57  14 2.57
                            16 2.57
   9  0.667  0.667  0.221-   8 2.57   6 2.57   2 2.57  17 2.57   3 2.57   7 2.57   4 2.57  15 2.57
                            18 2.57
  10  0.111  0.111  0.308-  20 2.53  11 2.57  12 2.57  13 2.57   1 2.57   2 2.57   4 2.57  15 2.57
                            16 2.57  17 2.57  26 2.57  19 2.57
  11  0.444  0.111  0.308-  20 2.54  21 2.54  10 2.57  13 2.57   2 2.57  17 2.57  14 2.57  12 2.57
                             5 2.57   3 2.57  18 2.57  27 2.57
  12  0.778  0.111  0.308-  21 2.53  15 2.57  10 2.57  14 2.57  18 2.57   3 2.57   1 2.57  16 2.57
                            11 2.57   6 2.57  19 2.57  25 2.57
  13  0.111  0.444  0.308-  23 2.54  20 2.54  16 2.57  18 2.57  10 2.57  11 2.57  14 2.57   5 2.57
                             4 2.57   7 2.57  15 2.57  22 2.57
  14  0.444  0.444  0.308-  21 2.54  23 2.54  15 2.57  17 2.57  12 2.57  16 2.57  13 2.57  11 2.57
                             6 2.57   8 2.57   5 2.57  24 2.57
  15  0.778  0.444  0.308-  19 2.56  14 2.57  17 2.57  12 2.57   6 2.57  18 2.57  10 2.57   9 2.57
                            13 2.57   4 2.57  24 2.57  22 2.57
  16  0.111  0.778  0.308-  23 2.53  18 2.57  13 2.57   7 2.57  14 2.57  17 2.57  12 2.57  10 2.57
                             8 2.57   1 2.57  25 2.57  26 2.57
  17  0.444  0.778  0.308-  26 2.56  14 2.57  15 2.57   8 2.57   9 2.57  11 2.57  16 2.57  18 2.57
                            10 2.57   2 2.57  27 2.57  24 2.57
  18  0.778  0.778  0.308-  25 2.56  16 2.57  13 2.57   7 2.57  15 2.57  12 2.57  17 2.57   9 2.57
                             3 2.57  11 2.57  22 2.57  27 2.57
  19  0.888  0.223  0.394-  21 2.55  20 2.55  28 2.55  22 2.56  24 2.56  15 2.56  12 2.57  10 2.57
                            32 2.57  31 2.57  25 2.57  26 2.57
  20  0.221  0.221  0.393-  10 2.53  36 2.53  11 2.54  13 2.54  26 2.55  19 2.55  27 2.57  22 2.57
                            23 2.59  21 2.59  29 2.60  31 2.60
  21  0.558  0.221  0.393-  12 2.53  36 2.53  14 2.54  11 2.54  19 2.55  25 2.55  24 2.57  27 2.57
                            20 2.59  23 2.59  32 2.60  30 2.60
  22  0.888  0.556  0.394-  35 2.55  24 2.55  27 2.55  19 2.56  25 2.56  18 2.57  15 2.57  23 2.57
                            20 2.57  13 2.57  31 2.58  33 2.58
  23  0.221  0.558  0.393-  16 2.53  36 2.53  13 2.54  14 2.54  25 2.55  26 2.55  22 2.57  24 2.57
                            20 2.59  21 2.59  33 2.60  34 2.60
  24  0.556  0.556  0.394-  35 2.55  22 2.55  27 2.55  19 2.56  26 2.56  15 2.57  17 2.57  21 2.57
                            23 2.57  14 2.57  32 2.58  34 2.58
  25  0.888  0.888  0.394-  21 2.55  23 2.55  28 2.55  22 2.56  27 2.56  18 2.56  16 2.57  12 2.57
                            33 2.57  30 2.57  19 2.57  26 2.57
  26  0.223  0.888  0.394-  20 2.55  23 2.55  28 2.55  27 2.56  24 2.56  17 2.56  10 2.57  16 2.57
                            29 2.57  34 2.57  25 2.57  19 2.57
  27  0.556  0.888  0.394-  35 2.55  24 2.55  22 2.55  26 2.56  25 2.56  17 2.57  18 2.57  20 2.57
                            21 2.57  11 2.57  29 2.58  30 2.58
  28  0.000  0.000  0.480-  25 2.55  19 2.55  26 2.55  33 2.56  30 2.56  31 2.56  29 2.56  32 2.56
                            34 2.56
  29  0.333  0.000  0.481-  31 2.56  28 2.56  34 2.57  36 2.57  35 2.57  30 2.57  26 2.57  27 2.58
                            20 2.60
  30  0.667  0.000  0.481-  32 2.56  28 2.56  33 2.57  36 2.57  35 2.57  29 2.57  25 2.57  27 2.58
                            21 2.60
  31  0.000  0.333  0.481-  29 2.56  28 2.56  32 2.57  36 2.57  35 2.57  33 2.57  19 2.57  22 2.58
                            20 2.60
  32  0.667  0.333  0.481-  30 2.56  28 2.56  31 2.57  36 2.57  35 2.57  34 2.57  19 2.57  24 2.58
                            21 2.60
  33  0.000  0.667  0.481-  34 2.56  28 2.56  30 2.57  36 2.57  35 2.57  31 2.57  25 2.57  22 2.58
                            23 2.60
  34  0.333  0.667  0.481-  33 2.56  28 2.56  29 2.57  36 2.57  35 2.57  32 2.57  26 2.57  24 2.58
                            23 2.60
  35  0.667  0.667  0.480-  24 2.55  27 2.55  22 2.55  34 2.57  32 2.57  29 2.57  30 2.57  33 2.57
                            31 2.57
  36  0.333  0.333  0.477-  39 2.36  23 2.53  20 2.53  21 2.53  31 2.57  29 2.57  33 2.57  34 2.57
                            32 2.57  30 2.57
  37  0.276  0.245  0.581-  39 0.98
  38  0.478  0.246  0.581-  39 0.98
  39  0.334  0.331  0.574-  38 0.98  37 0.98  36 2.36

  LATTYP: Found a hexagonal cell.
 ALAT       =     7.6967864036
 C/A-ratio  =     3.1535378041

  Lattice vectors:

 A1 = (  -3.8483927580,  -6.6656128093,   0.0000000000)
 A2 = (   7.6967864037,   0.0000000000,   0.0000000000)
 A3 = (   0.0000000000,   0.0000000000,  24.2721068937)

Analysis of symmetry for initial positions (statically):
 Subroutine PRICEL returns:
 Original cell was already a primitive cell.

 Routine SETGRP: Setting up the symmetry group for a
 hexagonal supercell.

 Subroutine GETGRP returns: Found  1 space group operations
 (whereof  1 operations were pure point group operations)
 out of a pool of 24 trial point group operations.

The static configuration has the point symmetry C_1 .

Analysis of symmetry for dynamics (positions and initial velocities):
 Subroutine PRICEL returns:
 Original cell was already a primitive cell.

[...]

The dynamic configuration has the point symmetry C_1 .

Analysis of constrained symmetry for selective dynamics:
 Subroutine PRICEL returns:
[...]
     41      -3.9461      2.00000
     42      -3.9392      2.00000
     43      -3.8871      2.00000
     44      -3.8675      2.00000
     45      -3.8594      2.00000
     46      -3.8416      2.00000
     47      -3.8287      2.00000
     48      -3.8231      2.00000
     49      -3.8160      2.00000
     50      -3.6246      2.00000
     51      -3.6148      2.00000
     52      -3.6034      2.00000
     53      -3.5918      2.00000
     54      -3.5437      2.00000
     55      -3.5311      2.00000
     56      -3.5254      2.00000
     57      -3.5166      2.00000
     58      -3.5150      2.00000
     59      -3.4994      2.00000
     60      -3.4690      2.00000
[...]
    238       5.7100      0.00000
    239       5.7838      0.00000
    240       5.8090      0.00000
    241       5.9117      0.00000
    242       6.0216      0.00000
    243       6.0851      0.00000
    244       6.1300      0.00000
    245       6.1680      0.00000
    246       6.3820      0.00000
    247       6.6017      0.00000
    248       6.7700      0.00000
    249       7.0170      0.00000
    250       7.1316      0.00000
    251       7.2622      0.00000
    252       7.3849      0.00000

 soft charge-density along one line, spin component           1
         0         1         2         3         4         5         6         7         8         9
 total charge-density along one line

------------------------ aborting loop because EDIFF is reached ----------------------------------------

 total charge

# of ion       s       p       d       tot
    1        0.448   0.284   9.187   9.920
    2        0.450   0.285   9.186   9.921
    3        0.450   0.285   9.186   9.920
    4        0.450   0.285   9.186   9.921
    5        0.446   0.288   9.181   9.915
    6        0.450   0.285   9.186   9.921
    7        0.450   0.285   9.186   9.921
    8        0.450   0.285   9.186   9.921
    9        0.447   0.283   9.190   9.919
   10        0.443   0.373   9.174   9.989
   11        0.445   0.365   9.184   9.994
   12        0.443   0.373   9.174   9.989
   13        0.444   0.366   9.184   9.994
   14        0.444   0.366   9.184   9.994
   15        0.438   0.368   9.179   9.986
   16        0.443   0.373   9.173   9.989
   17        0.438   0.369   9.179   9.985
   18        0.438   0.369   9.179   9.985
   19        0.441   0.369   9.180   9.990
   20        0.457   0.404   9.159  10.020
   21        0.457   0.404   9.159  10.020
   22        0.431   0.370   9.184   9.985
   23        0.457   0.404   9.159  10.020
   24        0.431   0.370   9.184   9.985
   25        0.441   0.369   9.180   9.990
   26        0.441   0.369   9.180   9.990
   27        0.431   0.370   9.184   9.985
   28        0.446   0.292   9.188   9.926
   29        0.460   0.318   9.172   9.950
   30        0.460   0.318   9.172   9.949
   31        0.460   0.316   9.172   9.948
   32        0.460   0.316   9.172   9.948
   33        0.458   0.311   9.174   9.943
   34        0.458   0.311   9.173   9.943
   35        0.438   0.296   9.187   9.921
   36        0.613   0.454   6.033   7.101
   37        0.607   0.118   0.000   0.726
   38        0.607   0.118   0.000   0.726
   39        1.570   3.592   0.000   5.162
tot         19.039  16.075 327.298 362.412

  FORCE on cell =-STRESS in cart. coord.  units (eV):
  Direction    XX          YY          ZZ          XY          YZ          ZX
  Alpha Z   801.93096   801.93096   801.93096
  Ewald  231990.33543231931.09196************     0.32644    -9.84955     0.50266
  Hartree244802.72825244791.88730************     0.04904     4.43902     0.31883
  E(xc)   -2319.24043 -2319.47761 -2323.55158     0.00110    -0.04561    -0.00034
  Local  ************************489965.78725    -0.25404    -0.22043    -0.74585
  n-local  -809.30071  -810.31540  -824.50144     0.00492    -0.03020     0.01326
  augment  3330.15687  3331.28859  3353.22269    -0.02523     0.33561    -0.00317
  Kinetic  3380.55074  3397.46610  3434.25955    -0.09468     5.42288    -0.06426
  Fock        0.00000     0.00000     0.00000     0.00000     0.00000     0.00000
  Total      -6.09059    -6.26621     1.44461     0.00755     0.05172     0.02113
  in kB      -7.83633    -8.06229     1.85867     0.00971     0.06654     0.02719

 VOLUME and BASIS-vectors are now :
  energy-cutoff  :      500.00
  volume of cell :     1245.25
      direct lattice vectors                 reciprocal lattice vectors
     7.696786404  0.000000000  0.000000000     0.129924354 -0.075011849  0.000000000
     3.848392758  6.665612809  0.000000000     0.000000000  0.150023716  0.000000000
     0.000000000  0.000000000 24.272106894     0.000000000  0.000000000  0.041199555

  length of vectors
     7.696786404  7.696786404 24.272106894     0.150023716  0.150023716  0.041199555

 FORCES acting on ions
    electron-ion (+dipol)            ewald-force                    non-local-force                 convergence-correction
   0.274E-02 0.438E-02 0.378E+04   -.345E-03 -.982E-02 -.378E+04   0.467E-03 0.140E-01 -.298E+01   -.292E-02 -.547E-02 -.383E+00
   -.111E+00 0.169E+00 0.378E+04   0.325E-01 -.143E+00 -.378E+04   0.521E-01 -.147E-02 -.172E+01   0.350E-01 -.203E-02 -.343E+00
   0.109E+00 0.156E+00 0.378E+04   -.322E-01 -.143E+00 -.378E+04   -.534E-01 -.293E-02 -.172E+01   -.318E-01 0.115E-01 -.339E+00
   0.800E-01 -.188E+00 0.378E+04   -.997E-01 0.112E+00 -.378E+04   0.229E-01 0.349E-01 -.172E+01   0.189E-01 0.355E-01 -.354E+00
   -.175E-01 -.344E-01 0.378E+04   0.807E-03 0.170E-01 -.378E+04   -.845E-02 -.391E-02 -.172E+01   0.255E-01 0.188E-01 -.291E+00
   -.679E-01 -.193E+00 0.378E+04   0.989E-01 0.111E+00 -.378E+04   -.224E-01 0.348E-01 -.172E+01   -.306E-01 0.406E-01 -.347E+00
   0.160E+00 0.238E-01 0.378E+04   -.132E+00 0.319E-01 -.378E+04   -.178E-01 -.389E-01 -.176E+01   0.234E-02 -.326E-01 -.362E+00
   -.171E+00 0.323E-01 0.378E+04   0.132E+00 0.313E-01 -.378E+04   0.156E-01 -.380E-01 -.176E+01   0.103E-01 -.414E-01 -.360E+00
   0.152E-01 0.420E-01 0.378E+04   -.145E-04 -.702E-02 -.378E+04   0.967E-02 -.115E-01 -.244E+01   -.253E-01 -.245E-01 -.370E+00
   0.331E+01 0.188E+01 0.130E+04   -.276E+01 -.158E+01 -.129E+04   -.595E+00 -.329E+00 -.129E+01   0.568E-01 0.363E-01 -.352E+00
   -.208E-01 0.823E+00 0.129E+04   0.437E-02 -.112E+01 -.129E+04   -.843E-02 0.193E+00 -.361E+00   0.253E-01 0.413E-01 -.303E+00
   -.330E+01 0.187E+01 0.130E+04   0.276E+01 -.158E+01 -.129E+04   0.595E+00 -.330E+00 -.129E+01   -.685E-01 0.445E-01 -.351E+00
   0.664E+00 -.480E+00 0.129E+04   -.978E+00 0.669E+00 -.129E+04   0.197E+00 -.141E+00 -.385E+00   0.656E-01 -.159E-01 -.319E+00
   -.691E+00 -.472E+00 0.129E+04   0.982E+00 0.667E+00 -.129E+04   -.214E+00 -.140E+00 -.384E+00   -.237E-01 -.222E-01 -.323E+00
   0.172E-01 -.389E+00 0.129E+04   -.410E-02 0.792E-01 -.129E+04   0.266E-02 0.220E+00 -.848E+00   -.157E-01 0.694E-01 -.407E+00
   -.899E-03 -.369E+01 0.130E+04   0.567E-03 0.307E+01 -.129E+04   0.939E-04 0.682E+00 -.133E+01   0.223E-03 -.809E-01 -.354E+00
   -.221E+00 0.238E+00 0.129E+04   -.171E-01 -.102E+00 -.129E+04   0.163E+00 -.897E-01 -.868E+00   0.498E-01 -.347E-01 -.410E+00
   0.222E+00 0.220E+00 0.129E+04   0.165E-01 -.970E-01 -.129E+04   -.164E+00 -.921E-01 -.868E+00   -.493E-01 -.190E-01 -.403E+00
   0.448E-01 -.884E+00 -.121E+04   -.327E-01 0.845E+00 0.121E+04   0.902E-02 0.370E-02 0.572E+00   -.213E-01 0.229E-01 0.153E-01
   -.250E+02 -.150E+02 -.121E+04   0.262E+02 0.157E+02 0.121E+04   -.130E+01 -.745E+00 -.131E+01   0.142E+00 0.664E-01 0.147E+00
   0.249E+02 -.150E+02 -.121E+04   -.262E+02 0.157E+02 0.121E+04   0.132E+01 -.748E+00 -.131E+01   -.159E+00 0.654E-01 0.143E+00
   -.186E+02 0.105E+02 -.121E+04   0.177E+02 -.995E+01 0.121E+04   0.831E+00 -.460E+00 0.767E+00   0.151E+00 -.820E-01 -.294E-02
   -.287E-01 0.286E+02 -.121E+04   0.253E-01 -.301E+02 0.121E+04   -.752E-03 0.156E+01 -.131E+01   0.454E-02 -.146E+00 0.141E+00
   0.186E+02 0.105E+02 -.121E+04   -.177E+02 -.997E+01 0.121E+04   -.833E+00 -.460E+00 0.766E+00   -.156E+00 -.903E-01 -.350E-02
   0.249E+00 0.100E+01 -.121E+04   -.232E+00 -.936E+00 0.121E+04   0.388E-01 -.407E-01 0.640E+00   -.439E-01 -.256E-01 0.131E-01
   -.223E+00 0.104E+01 -.121E+04   0.222E+00 -.968E+00 0.121E+04   -.229E-01 -.396E-01 0.639E+00   0.121E-01 -.334E-01 0.160E-01
   -.160E-01 -.207E+02 -.121E+04   0.105E-01 0.195E+02 0.121E+04   -.205E-03 0.101E+01 0.728E+00   0.565E-02 0.200E+00 -.802E-02
   0.970E-01 0.245E+01 -.366E+04   -.950E-01 -.247E+01 0.365E+04   -.160E-03 0.337E-01 0.186E+01   -.184E-02 -.455E-02 0.327E+00
   -.890E+01 -.107E+02 -.365E+04   0.932E+01 0.110E+02 0.365E+04   -.553E+00 -.582E+00 0.902E+00   0.686E-01 0.141E+00 0.157E+00
   0.882E+01 -.110E+02 -.365E+04   -.924E+01 0.113E+02 0.365E+04   0.553E+00 -.582E+00 0.904E+00   -.657E-01 0.150E+00 0.152E+00
   -.171E+02 -.587E+01 -.365E+04   0.177E+02 0.609E+01 0.365E+04   -.860E+00 -.214E+00 0.100E+01   0.148E+00 -.115E-01 0.172E+00
   0.175E+02 -.583E+01 -.365E+04   -.181E+02 0.605E+01 0.365E+04   0.861E+00 -.214E+00 0.992E+00   -.155E+00 -.829E-02 0.170E+00
   -.955E+01 0.189E+02 -.366E+04   0.956E+01 -.195E+02 0.366E+04   -.192E+00 0.759E+00 0.140E+01   0.100E+00 -.128E+00 0.175E+00
   0.949E+01 0.192E+02 -.366E+04   -.951E+01 -.197E+02 0.366E+04   0.192E+00 0.761E+00 0.140E+01   -.914E-01 -.134E+00 0.175E+00
   0.714E-01 0.165E+01 -.366E+04   -.585E-01 -.165E+01 0.366E+04   0.843E-02 0.168E-01 0.244E+01   -.219E-01 -.142E-01 0.355E+00
   -.294E+00 -.625E+01 -.250E+04   0.293E+00 0.626E+01 0.250E+04   -.798E-02 0.479E-02 0.260E+01   0.609E-02 0.745E-03 0.306E-01
   0.680E+02 0.467E+02 -.382E+03   -.747E+02 -.513E+02 0.383E+03   0.674E+01 0.468E+01 -.122E+01   0.287E-02 0.236E-02 0.631E-02
   -.684E+02 0.460E+02 -.382E+03   0.752E+02 -.506E+02 0.384E+03   -.678E+01 0.462E+01 -.125E+01   -.259E-02 0.266E-02 0.603E-02
   0.169E+00 -.592E+02 -.223E+04   -.406E+00 0.105E+03 0.223E+04   0.233E+00 -.455E+02 0.374E+01   0.529E-02 0.254E-02 0.648E-02
   -.184E+00 0.361E+02 0.144E+02   0.425E-13 0.171E-12 0.182E-11   0.210E+00 -.361E+02 -.102E+02   -.301E-01 -.422E-02 -.418E+01

 POSITION                                       TOTAL-FORCE (eV/Angst)
      0.00000      0.00000      5.37156         0.000059      0.003517      0.002845
      2.56560      0.00000      5.37156         0.008449      0.022067      0.059884
      5.13119      0.00000      5.37156        -0.008190      0.021955      0.059791
      1.28280      2.22187      5.37156         0.022172     -0.006018      0.061880
      3.84839      2.22187      5.37156         0.000517     -0.002056      0.025063
      6.41399      2.22187      5.37156        -0.021830     -0.006105      0.061875
      2.56560      4.44374      5.37156         0.013425     -0.015434      0.061059
      5.13119      4.44374      5.37156        -0.013240     -0.015369      0.061193
      7.69679      4.44374      5.37156        -0.000305     -0.000683      0.011895
      1.28280      0.74062      7.46636         0.011574      0.007122     -0.046551
      3.84839      0.74062      7.46636         0.000543     -0.066612     -0.105511
      6.41399      0.74062      7.46636        -0.011158      0.007047     -0.046811
      2.56560      2.96249      7.46636        -0.052141      0.032711     -0.104834
      5.13119      2.96249      7.46636         0.053405      0.032744     -0.104858
      7.69679      2.96249      7.46636         0.000158     -0.019939      0.016686
      3.84839      5.18437      7.46636         0.000100     -0.015026     -0.053632
      6.41399      5.18437      7.46636        -0.024842      0.012100      0.018287
      8.97958      5.18437      7.46636         0.025083      0.011957      0.018163
      7.69679      1.48657      9.56400        -0.000126     -0.012180     -0.022916
      2.55408      1.47460      9.52990         0.051275      0.029191     -0.065935
      5.14271      1.47460      9.52990        -0.051896      0.029552     -0.064643
      8.97350      3.70663      9.56526         0.019079     -0.009757     -0.007683
      3.84839      3.71642      9.52990         0.000509     -0.050820     -0.053525
      6.42007      3.70663      9.56526        -0.019165     -0.009797     -0.007787
     10.25777      5.92233      9.56400         0.011462      0.003023     -0.015622
      5.13580      5.92233      9.56400        -0.012087      0.003250     -0.015625
      7.69679      5.91797      9.56526        -0.000026      0.024038     -0.019430
      0.00000      0.00000     11.64184         0.000119      0.005588      0.013981
      2.56182      0.00242     11.67254        -0.068407     -0.114744     -0.070973
      5.13496      0.00242     11.67254         0.068243     -0.113323     -0.069506
      1.28301      2.21740     11.67254        -0.125044     -0.001996     -0.061726
      6.41378      2.21740     11.67254         0.123297     -0.001982     -0.059312
      2.56958      4.44580     11.67254        -0.073412      0.101039     -0.053820
      5.12721      4.44580     11.67254         0.073658      0.100242     -0.053070
      7.69679      4.44374     11.64035        -0.000431      0.005037      0.012071
      3.84839      2.22187     11.57579        -0.002960      0.015763      0.660379
      3.06674      1.63132     14.09178        -0.001530      0.001401      0.002278
      4.62363      1.63925     14.09513         0.002335      0.001150      0.003827
      3.84261      2.20812     13.94073         0.001329     -0.008652     -0.047388
    total drift:                               -0.004488     -0.015575      0.038529

  FREE ENERGIE OF THE ION-ELECTRON SYSTEM (eV)
  free  energy   TOTEN  =      -146.11138492 eV

  energy  without entropy=     -146.11138492  energy(sigma->0) =     -146.11138492

 stress matrix after NEB project (eV)
     -6.09059      0.00755      0.02113
      0.00755     -6.26621      0.05172
      0.02113      0.05172      1.44461
  FORCES: max atom, RMS     0.048189    0.007768
  FORCE total and by dimension    0.048509    0.047388
  Stress total and by dimension    8.857418    6.266209
|           W    W    AA    RRRRR   N    N  II  N    N   GGGG   !!!           |
|           W    W   A  A   R    R  NN   N  II  NN   N  G    G  !!!           |
|           W    W  A    A  R    R  N N  N  II  N N  N  G       !!!           |
|           W WW W  AAAAAA  RRRRR   N  N N  II  N  N N  G  GGG   !            |
|           WW  WW  A    A  R   R   N   NN  II  N   NN  G    G                |
|           W    W  A    A  R    R  N    N  II  N    N   GGGG   !!!           |
|     Tetrahedron method does not include variations of the Fermi             |
|     occupations, so forces and stress will be inaccurate. We suggest        |
|     using a different smearing scheme ISMEAR = 1 or 2 for metals in         |
|     relaxations.                                                            |

 total charge

# of ion       s       p       d       tot
    1        0.448   0.284   9.187   9.920
    2        0.450   0.285   9.186   9.921
    3        0.450   0.285   9.186   9.920
    4        0.450   0.285   9.186   9.921
    5        0.446   0.288   9.181   9.915
    6        0.450   0.285   9.186   9.921
    7        0.450   0.285   9.186   9.921
    8        0.450   0.285   9.186   9.921
    9        0.447   0.283   9.190   9.919
   10        0.443   0.373   9.174   9.989
   11        0.445   0.365   9.184   9.994
   12        0.443   0.373   9.174   9.989
   13        0.444   0.366   9.184   9.994
   14        0.444   0.366   9.184   9.994
   15        0.438   0.368   9.179   9.986
   16        0.443   0.373   9.173   9.989
   17        0.438   0.369   9.179   9.985
   18        0.438   0.369   9.179   9.985
   19        0.441   0.369   9.180   9.990
   20        0.457   0.404   9.159  10.020
   21        0.457   0.404   9.159  10.020
   22        0.431   0.370   9.184   9.985
   23        0.457   0.404   9.159  10.020
   24        0.431   0.370   9.184   9.985
   25        0.441   0.369   9.180   9.990
   26        0.441   0.369   9.180   9.990
   27        0.431   0.370   9.184   9.985
   28        0.446   0.292   9.188   9.926
   29        0.460   0.318   9.172   9.950
   30        0.460   0.318   9.172   9.949
   31        0.460   0.316   9.172   9.948
   32        0.460   0.316   9.172   9.948
   33        0.458   0.311   9.174   9.943
   34        0.458   0.311   9.173   9.943
   35        0.438   0.296   9.187   9.921
   36        0.613   0.454   6.033   7.101
   37        0.607   0.118   0.000   0.726
   38        0.607   0.118   0.000   0.726
   39        1.570   3.592   0.000   5.162
tot         19.039  16.075 327.298 362.412

 BZINTS: Fermi energy:   -0.174087;  401.000000 electrons
         Band energy:-0.125556E+04;  BLOECHL correction:   -0.055494