 vasp.6.2.0 18Jan21 (build Jun 12 2021 23:27:24) complex

 executed on             LinuxIFC date 2022.05.28  00:52:32

 INCAR:
   ISMEAR = -5
   SIGMA = 0.1
   ISPIN = 1
   EDIFF = 1.d-5
   EDIFFG = -0.01
   NSW = 0
   NELM = 150
   ENCUT = 500
   ISIF = 2
   IBRION = 2
   LREAL = Auto
   ALGO = Fast
   ICHARG = 11
   LORBIT = 10
   LCHARG = .F.
   LWAVE = .F.

 POTCAR:    PAW_PBE Au 04Oct2007
 POTCAR:    PAW_PBE Mo 08Apr2002
 POTCAR:    PAW_PBE H 15Jun2001
 POTCAR:    PAW_PBE O 08Apr2002
|           W    W    AA    RRRRR   N    N  II  N    N   GGGG   !!!           |
|           W    W   A  A   R    R  NN   N  II  NN   N  G    G  !!!           |
|           W    W  A    A  R    R  N N  N  II  N N  N  G       !!!           |
|           W WW W  AAAAAA  RRRRR   N  N N  II  N  N N  G  GGG   !            |
|           WW  WW  A    A  R   R   N   NN  II  N   NN  G    G                |
|           W    W  A    A  R    R  N    N  II  N    N   GGGG   !!!           |
|     For optimal performance we recommend to set                             |
|       NCORE = 2 up to number-of-cores-per-socket                            |
|     This setting can greatly improve the performance of VASP for DFT.       |
|     The default, NCORE=1 might be grossly inefficient on modern             |
|     multi-core architectures or massively parallel machines. Do your        |
|     Unfortunately you need to use the default for GW and RPA                |
|     calculations (for HF NCORE is supported but not extensively tested      |
|     yet).                                                                   |

 POTCAR:    PAW_PBE Au 04Oct2007
   VRHFIN =Au: s1d10

   TITEL  = PAW_PBE Au 04Oct2007
   POMASS =  196.966; ZVAL   =   11.000    mass and valenz
   ENMAX  =  229.943; ENMIN  =  172.457 eV

 POTCAR:    PAW_PBE Mo 08Apr2002
   VRHFIN =Mo: 4p5s4d

   TITEL  = PAW_PBE Mo 08Apr2002
   POMASS =   95.940; ZVAL   =    6.000    mass and valenz
   ENMAX  =  224.584; ENMIN  =  168.438 eV

 POTCAR:    PAW_PBE H 15Jun2001
   VRHFIN =H: ultrasoft test

   TITEL  = PAW_PBE H 15Jun2001
   POMASS =    1.000; ZVAL   =    1.000    mass and valenz
   ENMAX  =  250.000; ENMIN  =  200.000 eV

 POTCAR:    PAW_PBE O 08Apr2002
   VRHFIN =O: s2p4

   TITEL  = PAW_PBE O 08Apr2002
   POMASS =   16.000; ZVAL   =    6.000    mass and valenz
   ENMAX  =  400.000; ENMIN  =  300.000 eV

 Optimization of the real space projectors (new method)

 maximal supplied QI-value         = 15.12
 optimisation between [QCUT,QGAM] = [ 11.34, 22.83] = [ 36.00,145.93] Ry
 Optimized for a Real-space Cutoff    1.39 Angstroem

   l    n(q)    QCUT    max X(q) W(low)/X(q) W(high)/X(q)  e(spline)
   2      9    11.338    60.898    0.39E-03    0.42E-03    0.21E-06
   2      9    11.338    58.894    0.40E-03    0.42E-03    0.22E-06
   0      9    11.338   109.617    0.13E-03    0.20E-04    0.13E-06
   0      9    11.338    75.026    0.13E-03    0.20E-04    0.13E-06
   1      9    11.338    16.344    0.33E-04    0.24E-03    0.18E-06
   1      9    11.338    10.160    0.26E-04    0.19E-03    0.15E-06
 Optimization of the real space projectors (new method)

[...]

   l    n(q)    QCUT    max X(q) W(low)/X(q) W(high)/X(q)  e(spline)
   0      8    11.287    19.460    0.40E-03    0.73E-03    0.16E-06
   0      8    11.287    12.209    0.38E-03    0.70E-03    0.15E-06
   1      7    11.287     4.655    0.22E-03    0.25E-04    0.22E-06
 Optimization of the real space projectors (new method)

 maximal supplied QI-value         = 24.76
 optimisation between [QCUT,QGAM] = [ 11.39, 22.77] = [ 36.31,145.25] Ry
 Optimized for a Real-space Cutoff    1.00 Angstroem

   l    n(q)    QCUT    max X(q) W(low)/X(q) W(high)/X(q)  e(spline)
   0      7    11.387    20.381    0.39E-03    0.13E-02    0.15E-06
   0      7    11.387    15.268    0.42E-03    0.14E-02    0.17E-06
   1      6    11.387     5.964    0.41E-03    0.11E-02    0.17E-06
   1      6    11.387     5.382    0.39E-03    0.87E-03    0.15E-06
  PAW_PBE Au 04Oct2007                  :
  PAW_PBE Mo 08Apr2002                  :
  PAW_PBE H 15Jun2001                   :
  PAW_PBE O 08Apr2002                   :

 POSCAR: Au-Mo-H2O
  positions in direct lattice
  velocities in cartesian coordinates
 exchange correlation table for  LEXCH =        8
   RHO(1)=    0.500       N(1)  =     2000
   RHO(2)=  100.500       N(2)  =     4000

 VTST: version 3.2, (02/03/18)

 CHAIN: initializing optimizer

 OPT: Using VASP Conjugate-Gradient optimizer
 CHAIN: Read ICHAIN            0

 POSCAR: Au-Mo-H2O
  positions in direct lattice
  velocities in cartesian coordinates

 ion  position               nearest neighbor table
   1  0.000  0.000  0.213-  16 2.94  12 2.94   6 2.94   8 2.94   7 2.94   3 2.94  10 2.94   4 2.94
                             2 2.94
   2  0.333  0.000  0.213-   9 2.94  11 2.94  17 2.94  10 2.94   8 2.94   4 2.94   5 2.94   1 2.94
                             3 2.94
   3  0.667  0.000  0.213-   7 2.94  18 2.94  12 2.94   1 2.94  11 2.94   5 2.94   6 2.94   9 2.94
                             2 2.94
   4  0.000  0.333  0.213-  10 2.94   6 2.94   5 2.94  13 2.94   2 2.94  15 2.94   9 2.94   1 2.94
                             7 2.94
   5  0.333  0.333  0.213-  13 2.94   7 2.94  11 2.94   4 2.94   2 2.94  14 2.94   3 2.94   8 2.94
                             6 2.94
   6  0.667  0.333  0.213-  15 2.94  14 2.94   1 2.94  12 2.94   4 2.94   9 2.94   8 2.94   3 2.94
                             5 2.94
   7  0.000  0.667  0.213-  18 2.94   3 2.94  16 2.94   5 2.94   1 2.94  13 2.94   8 2.94   4 2.94
                             9 2.94
   8  0.333  0.667  0.213-   9 2.94  17 2.94   1 2.94   2 2.94  14 2.94  16 2.94   6 2.94   7 2.94
                             5 2.94
   9  0.667  0.667  0.213-   2 2.94   8 2.94  17 2.94   6 2.94  15 2.94   4 2.94   3 2.94  18 2.94
                             7 2.94
  10  0.111  0.111  0.310-  20 2.91  11 2.94  17 2.94   2 2.94   4 2.94   1 2.94  12 2.94  16 2.94
                            13 2.94  15 2.94  26 2.95  19 2.95
  11  0.444  0.111  0.310-  20 2.91  21 2.91  13 2.94   2 2.94  10 2.94  17 2.94   5 2.94   3 2.94
                            18 2.94  14 2.94  12 2.94  27 2.94
  12  0.778  0.111  0.310-  21 2.91  16 2.94  18 2.94   1 2.94  14 2.94  15 2.94   3 2.94   6 2.94
                            10 2.94  11 2.94  25 2.95  19 2.95
  13  0.111  0.444  0.310-  23 2.91  20 2.91   5 2.94  18 2.94  11 2.94   7 2.94   4 2.94  16 2.94
                            10 2.94  14 2.94  15 2.94  22 2.94
  14  0.444  0.444  0.310-  21 2.91  23 2.91  15 2.94   6 2.94  12 2.94   8 2.94  17 2.94   5 2.94
                            16 2.94  13 2.94  11 2.94  24 2.94
  15  0.778  0.444  0.310-  24 2.93  22 2.93  14 2.94   6 2.94  17 2.94  12 2.94   9 2.94   4 2.94
                            10 2.94  13 2.94  18 2.94  19 2.95
  16  0.111  0.778  0.310-  23 2.91  18 2.94  12 2.94   7 2.94   1 2.94   8 2.94  13 2.94  10 2.94
                            14 2.94  17 2.94  25 2.95  26 2.95
  17  0.444  0.778  0.310-  27 2.93  24 2.93   9 2.94  15 2.94   2 2.94  10 2.94  11 2.94   8 2.94
                            14 2.94  16 2.94  18 2.94  26 2.95
  18  0.778  0.778  0.310-  22 2.93  27 2.93  16 2.94   7 2.94  13 2.94  12 2.94   3 2.94  11 2.94
                             9 2.94  15 2.94  17 2.94  25 2.95
  19  0.889  0.223  0.408-  24 2.93  22 2.93  21 2.94  20 2.94  28 2.95  26 2.95  25 2.95  15 2.95
                            10 2.95  12 2.95  32 3.02  31 3.02
  20  0.222  0.222  0.406-  36 2.77  11 2.91  13 2.91  10 2.91  23 2.94  21 2.94  26 2.94  19 2.94
                            27 2.95  22 2.95  29 2.98  31 2.98
  21  0.555  0.222  0.406-  36 2.77  14 2.91  11 2.91  12 2.91  20 2.94  23 2.94  25 2.94  19 2.94
                            27 2.95  24 2.95  30 2.98  32 2.98
  22  0.887  0.557  0.407-  24 2.91  27 2.91  18 2.93  15 2.93  25 2.93  19 2.93  13 2.94  35 2.95
                            23 2.95  20 2.95  33 3.00  31 3.00
  23  0.222  0.555  0.406-  36 2.77  13 2.91  14 2.91  16 2.91  20 2.94  21 2.94  25 2.94  26 2.94
                            22 2.95  24 2.95  33 2.98  34 2.98
  24  0.557  0.557  0.407-  27 2.91  22 2.91  15 2.93  17 2.93  26 2.93  19 2.93  14 2.94  35 2.95
                            21 2.95  23 2.95  32 3.00  34 3.00
  25  0.889  0.889  0.408-  22 2.93  27 2.93  23 2.94  21 2.94  28 2.95  19 2.95  26 2.95  18 2.95
                            16 2.95  12 2.95  33 3.02  30 3.02
  26  0.223  0.889  0.408-  27 2.93  24 2.93  20 2.94  23 2.94  28 2.95  19 2.95  25 2.95  17 2.95
                            10 2.95  16 2.95  29 3.02  34 3.02
  27  0.557  0.887  0.407-  24 2.91  22 2.91  17 2.93  18 2.93  26 2.93  25 2.93  11 2.94  35 2.95
                            20 2.95  21 2.95  29 3.00  30 3.00
  28  0.000  0.000  0.505-  25 2.95  19 2.95  26 2.95  34 2.98  32 2.98  33 2.98  30 2.98  31 2.98
                            29 2.98
  29  0.333  0.010  0.507-  30 2.85  31 2.85  36 2.87  20 2.98  35 2.98  28 2.98  27 3.00  26 3.02
                            34 3.11
  30  0.657  0.010  0.507-  29 2.85  32 2.85  36 2.87  21 2.98  35 2.98  28 2.98  27 3.00  25 3.02
                            33 3.11
  31  0.010  0.333  0.507-  33 2.85  29 2.85  36 2.87  20 2.98  35 2.98  28 2.98  22 3.00  19 3.02
                            32 3.11
  32  0.657  0.333  0.507-  34 2.85  30 2.85  36 2.87  21 2.98  35 2.98  28 2.98  24 3.00  19 3.02
                            31 3.11
  33  0.010  0.657  0.507-  31 2.85  34 2.85  36 2.87  23 2.98  35 2.98  28 2.98  22 3.00  25 3.02
                            30 3.11
  34  0.333  0.657  0.507-  32 2.85  33 2.85  36 2.87  23 2.98  35 2.98  28 2.98  24 3.00  26 3.02
                            29 3.11
  35  0.667  0.667  0.505-  24 2.95  27 2.95  22 2.95  29 2.98  34 2.98  32 2.98  31 2.98  30 2.98
                            33 2.98
  36  0.333  0.333  0.494-  39 2.28  20 2.77  23 2.77  21 2.77  33 2.87  31 2.87  29 2.87  30 2.87
                            34 2.87  32 2.87
  37  0.280  0.262  0.596-  39 0.98
  38  0.458  0.262  0.595-  39 0.98
  39  0.333  0.333  0.586-  37 0.98  38 0.98  36 2.28

  LATTYP: Found a hexagonal cell.
 ALAT       =     8.8135128021
 C/A-ratio  =     2.8075332270

  Lattice vectors:

 A1 = (  -4.4067569092,  -7.6327256898,   0.0000000000)
 A2 = (   8.8135128021,   0.0000000000,   0.0000000000)
 A3 = (   0.0000000000,   0.0000000000,  24.7442300386)

Analysis of symmetry for initial positions (statically):
 Subroutine PRICEL returns:
 Original cell was already a primitive cell.

 Routine SETGRP: Setting up the symmetry group for a
 hexagonal supercell.

 Subroutine GETGRP returns: Found  1 space group operations
 (whereof  1 operations were pure point group operations)
 out of a pool of 24 trial point group operations.

The static configuration has the point symmetry C_1 .

Analysis of symmetry for dynamics (positions and initial velocities):
 Subroutine PRICEL returns:
 Original cell was already a primitive cell.

[...]

The dynamic configuration has the point symmetry C_1 .

Analysis of constrained symmetry for selective dynamics:
 Subroutine PRICEL returns:
[...]
     41      -4.8357      2.00000
     42      -4.8088      2.00000
     43      -4.7581      2.00000
     44      -4.7086      2.00000
     45      -4.6736      2.00000
     46      -4.6527      2.00000
     47      -4.6346      2.00000
     48      -4.6024      2.00000
     49      -4.5913      2.00000
     50      -4.4977      2.00000
     51      -4.4673      2.00000
     52      -4.4535      2.00000
     53      -4.4310      2.00000
     54      -4.4258      2.00000
     55      -4.4182      2.00000
     56      -4.3997      2.00000
     57      -4.3741      2.00000
     58      -4.3283      2.00000
     59      -4.3058      2.00000
     60      -4.2918      2.00000
[...]
    238       5.8569      0.00000
    239       6.0052      0.00000
    240       6.0548      0.00000
    241       6.1177      0.00000
    242       6.1966      0.00000
    243       6.3560      0.00000
    244       6.3946      0.00000
    245       6.4245      0.00000
    246       6.5270      0.00000
    247       6.5926      0.00000
    248       6.6197      0.00000
    249       6.6834      0.00000
    250       6.7181      0.00000
    251       6.8441      0.00000
    252       6.8960      0.00000

 soft charge-density along one line, spin component           1
         0         1         2         3         4         5         6         7         8         9
 total charge-density along one line

------------------------ aborting loop because EDIFF is reached ----------------------------------------

 total charge

# of ion       s       p       d       tot
    1        0.548   0.238   8.768   9.553
    2        0.544   0.241   8.765   9.549
    3        0.544   0.241   8.765   9.549
    4        0.544   0.241   8.765   9.550
    5        0.545   0.240   8.761   9.546
    6        0.544   0.241   8.765   9.550
    7        0.543   0.241   8.765   9.549
    8        0.543   0.241   8.765   9.549
    9        0.542   0.239   8.768   9.549
   10        0.528   0.306   8.766   9.600
   11        0.523   0.306   8.780   9.610
   12        0.528   0.306   8.766   9.600
   13        0.523   0.307   8.781   9.610
   14        0.523   0.307   8.780   9.610
   15        0.516   0.307   8.776   9.599
   16        0.528   0.306   8.765   9.600
   17        0.516   0.307   8.777   9.599
   18        0.516   0.307   8.777   9.599
   19        0.518   0.295   8.773   9.587
   20        0.571   0.339   8.728   9.638
   21        0.571   0.339   8.728   9.638
   22        0.506   0.305   8.778   9.589
   23        0.571   0.338   8.728   9.636
   24        0.506   0.305   8.778   9.589
   25        0.517   0.295   8.774   9.586
   26        0.517   0.295   8.774   9.586
   27        0.507   0.305   8.778   9.590
   28        0.542   0.231   8.751   9.524
   29        0.583   0.254   8.731   9.568
   30        0.583   0.254   8.731   9.568
   31        0.582   0.253   8.732   9.567
   32        0.582   0.253   8.732   9.566
   33        0.578   0.247   8.735   9.559
   34        0.578   0.247   8.735   9.559
   35        0.536   0.230   8.756   9.522
   36        0.377   0.364   4.042   4.783
   37        0.602   0.118   0.000   0.720
   38        0.602   0.118   0.000   0.720
   39        1.566   3.613   0.000   5.179
tot         22.089  13.917 310.639 346.645

  FORCE on cell =-STRESS in cart. coord.  units (eV):
  Direction    XX          YY          ZZ          XY          YZ          ZX
  Alpha Z   922.51503   922.51503   922.51503
  Ewald  154374.16192154308.75764************    -0.24829   -13.52449    -0.25204
  Hartree162777.59017162765.59082************    -0.05375     3.08377     0.07145
  E(xc)   -1790.47302 -1790.58954 -1798.28404    -0.00056    -0.02977    -0.00286
  Local  ************************329413.91329     0.24048     3.54518     0.06502
  n-local   -96.48293   -96.97552   -66.60768    -0.01084    -0.14691    -0.00398
  augment  2377.51931  2378.56507  2399.70400     0.00297     0.38178     0.00912
  Kinetic  5551.21624  5568.89393  5637.08263     0.06256     6.49506     0.12400
  Fock        0.00000     0.00000     0.00000     0.00000     0.00000     0.00000
  Total     -22.49422   -22.58766     2.32996    -0.00743    -0.19539     0.01071
  in kB     -21.65104   -21.74099     2.24262    -0.00715    -0.18807     0.01031

 VOLUME and BASIS-vectors are now :
  energy-cutoff  :      500.00
  volume of cell :     1664.57
      direct lattice vectors                 reciprocal lattice vectors
     8.813512802  0.000000000  0.000000000     0.113462137 -0.065507406  0.000000000
     4.406756909  7.632725690  0.000000000     0.000000000  0.131014796  0.000000000
     0.000000000  0.000000000 24.744230039     0.000000000  0.000000000  0.040413462

  length of vectors
     8.813512802  8.813512802 24.744230039     0.131014796  0.131014796  0.040413462

 FORCES acting on ions
    electron-ion (+dipol)            ewald-force                    non-local-force                 convergence-correction
   0.234E-02 0.278E-01 0.267E+04   -.973E-04 -.939E-02 -.267E+04   -.853E-04 0.667E-02 -.857E+00   -.212E-02 -.234E-01 -.111E+00
   0.322E+00 -.576E-01 0.267E+04   -.582E+00 -.163E+00 -.267E+04   0.103E+00 0.158E+00 -.160E+00   0.141E+00 0.555E-01 -.171E+00
   -.324E+00 -.699E-01 0.267E+04   0.582E+00 -.163E+00 -.267E+04   -.103E+00 0.157E+00 -.160E+00   -.139E+00 0.677E-01 -.167E+00
   0.127E+00 0.332E+00 0.267E+04   -.424E+00 -.412E+00 -.267E+04   0.167E+00 -.852E-02 -.150E+00   0.119E+00 0.778E-01 -.161E+00
   -.160E-01 -.449E-01 0.268E+04   0.416E-03 0.159E-01 -.268E+04   -.211E-03 0.318E-02 0.969E-01   0.161E-01 0.217E-01 -.178E+00
   -.115E+00 0.327E+00 0.267E+04   0.424E+00 -.412E+00 -.267E+04   -.167E+00 -.852E-02 -.150E+00   -.130E+00 0.831E-01 -.153E+00
   -.289E+00 -.264E+00 0.267E+04   0.158E+00 0.575E+00 -.267E+04   0.969E-01 -.152E+00 -.198E+00   0.273E-01 -.139E+00 -.183E+00
   0.278E+00 -.256E+00 0.267E+04   -.158E+00 0.575E+00 -.267E+04   -.970E-01 -.153E+00 -.199E+00   -.167E-01 -.148E+00 -.180E+00
   0.149E-01 0.564E-02 0.268E+04   -.499E-06 -.625E-02 -.267E+04   0.215E-03 -.498E-02 -.479E+00   -.154E-01 0.634E-02 -.128E+00
   0.565E+01 0.328E+01 0.898E+03   -.515E+01 -.296E+01 -.898E+03   -.445E+00 -.267E+00 -.786E+00   -.399E-01 -.407E-01 0.282E-01
   -.165E-01 0.285E+01 0.903E+03   0.187E-02 -.285E+01 -.903E+03   -.112E-03 0.287E-01 -.102E+00   0.151E-01 -.826E-01 0.825E-01
   -.564E+01 0.327E+01 0.898E+03   0.514E+01 -.296E+01 -.898E+03   0.444E+00 -.267E+00 -.786E+00   0.282E-01 -.270E-01 0.338E-01
   0.241E+01 -.154E+01 0.903E+03   -.247E+01 0.152E+01 -.903E+03   0.526E-01 -.145E-01 -.132E+00   -.332E-01 0.613E-01 0.803E-01
   -.244E+01 -.154E+01 0.903E+03   0.247E+01 0.152E+01 -.903E+03   -.522E-01 -.140E-01 -.132E+00   0.612E-01 0.585E-01 0.858E-01
   0.203E-01 0.432E+01 0.902E+03   -.190E-02 -.453E+01 -.902E+03   0.147E-03 0.314E-01 -.561E+00   -.186E-01 0.113E+00 0.132E+00
   -.590E-02 -.642E+01 0.898E+03   0.638E-03 0.584E+01 -.897E+03   0.135E-03 0.537E+00 -.794E+00   0.506E-02 0.301E-01 0.435E-01
   0.384E+01 -.210E+01 0.902E+03   -.400E+01 0.221E+01 -.902E+03   0.228E-01 -.163E-01 -.580E+00   0.814E-01 -.617E-01 0.119E+00
   -.384E+01 -.212E+01 0.902E+03   0.400E+01 0.221E+01 -.902E+03   -.230E-01 -.165E-01 -.579E+00   -.856E-01 -.446E-01 0.119E+00
   0.370E-01 0.170E+00 -.902E+03   -.142E-01 -.397E+00 0.901E+03   0.293E-03 0.384E-01 0.424E+00   -.233E-01 0.160E+00 0.747E+00
   -.121E+01 -.130E+01 -.873E+03   0.233E+01 0.191E+01 0.873E+03   -.123E+01 -.671E+00 -.144E+01   0.988E-01 0.604E-01 0.920E+00
   0.117E+01 -.132E+01 -.873E+03   -.232E+01 0.192E+01 0.873E+03   0.123E+01 -.671E+00 -.144E+01   -.690E-01 0.714E-01 0.915E+00
   -.969E+01 0.534E+01 -.885E+03   0.931E+01 -.514E+01 0.884E+03   0.435E+00 -.238E+00 0.575E+00   -.478E-01 0.337E-01 0.709E+00
   -.361E-01 0.118E+01 -.875E+03   0.137E-01 -.253E+01 0.875E+03   -.533E-03 0.147E+01 -.137E+01   0.235E-01 -.809E-01 0.975E+00
   0.973E+01 0.536E+01 -.885E+03   -.933E+01 -.515E+01 0.884E+03   -.436E+00 -.238E+00 0.575E+00   0.201E-01 0.240E-01 0.708E+00
   -.626E+00 0.458E+00 -.902E+03   0.790E+00 -.293E+00 0.901E+03   -.144E-01 -.486E-01 0.504E+00   -.123E+00 -.100E+00 0.749E+00
   0.635E+00 0.494E+00 -.902E+03   -.792E+00 -.308E+00 0.901E+03   0.148E-01 -.481E-01 0.505E+00   0.116E+00 -.122E+00 0.751E+00
   0.418E-02 -.104E+02 -.884E+03   0.258E-02 0.994E+01 0.883E+03   -.243E-03 0.508E+00 0.530E+00   -.670E-02 -.648E-01 0.694E+00
   0.326E-01 0.204E+01 -.260E+04   -.305E-01 -.208E+01 0.260E+04   -.262E-03 0.305E-01 0.402E+00   -.180E-02 -.137E-01 0.442E+00
   0.215E+02 0.353E+02 -.259E+04   -.207E+02 -.339E+02 0.259E+04   -.111E+01 -.172E+01 -.706E+00   0.214E+00 0.221E+00 0.391E+00
   -.215E+02 0.352E+02 -.259E+04   0.207E+02 -.338E+02 0.259E+04   0.111E+01 -.172E+01 -.711E+00   -.211E+00 0.232E+00 0.388E+00
   0.380E+02 -.225E+01 -.259E+04   -.363E+02 0.229E+01 0.259E+04   -.208E+01 -.104E+00 -.644E+00   0.264E+00 0.772E-01 0.405E+00
   -.378E+02 -.226E+01 -.259E+04   0.361E+02 0.229E+01 0.259E+04   0.208E+01 -.104E+00 -.645E+00   -.272E+00 0.821E-01 0.393E+00
   0.147E+02 -.302E+02 -.260E+04   -.141E+02 0.289E+02 0.260E+04   -.869E+00 0.171E+01 -.255E+00   0.129E+00 -.292E+00 0.379E+00
   -.148E+02 -.301E+02 -.260E+04   0.141E+02 0.288E+02 0.260E+04   0.869E+00 0.171E+01 -.256E+00   -.118E+00 -.299E+00 0.370E+00
   0.484E-01 0.125E+01 -.261E+04   -.328E-01 -.124E+01 0.261E+04   -.183E-03 0.641E-02 0.553E+00   -.157E-01 -.177E-01 0.385E+00
   -.114E+00 -.442E+01 -.126E+04   0.105E+00 0.442E+01 0.126E+04   -.175E-02 -.211E-01 0.102E+01   0.547E-02 0.178E-01 0.346E+00
   0.674E+02 0.428E+02 -.287E+03   -.742E+02 -.472E+02 0.289E+03   0.679E+01 0.437E+01 -.185E+01   0.233E-02 0.647E-03 -.330E-01
   -.672E+02 0.431E+02 -.287E+03   0.740E+02 -.475E+02 0.289E+03   -.677E+01 0.440E+01 -.181E+01   -.203E-02 0.633E-03 -.333E-01
   -.135E+00 -.560E+02 -.161E+04   0.221E+00 0.991E+02 0.161E+04   -.768E-01 -.431E+02 0.652E+01   -.766E-03 -.216E-02 -.258E+00
   0.685E-01 0.345E+02 -.290E+01   0.849E-13 -.142E-12 0.455E-11   -.636E-01 -.344E+02 -.621E+01   -.499E-02 -.418E-02 0.963E+01

 POSITION                                       TOTAL-FORCE (eV/Angst)
      0.00000      0.00000      5.28038         0.000031      0.001318     -0.132016
      2.93784      0.00000      5.28038        -0.016275     -0.008283     -0.019848
      5.87568      0.00000      5.28038         0.016309     -0.008172     -0.019938
      1.46892      2.54424      5.28038        -0.012527     -0.010706     -0.019727
      4.40676      2.54424      5.28038         0.000283     -0.004509     -0.043466
      7.34459      2.54424      5.28038         0.012425     -0.010684     -0.019603
      2.93784      5.08848      5.28038        -0.006331      0.018221     -0.013650
      5.87568      5.08848      5.28038         0.006406      0.018173     -0.013496
      8.81351      5.08848      5.28038        -0.000231      0.000357     -0.038403
      1.46892      0.84808      7.67911         0.023011      0.012438      0.119460
      4.40676      0.84808      7.67911         0.000365     -0.054028     -0.015074
      7.34459      0.84808      7.67911        -0.023202      0.012426      0.119266
      2.93784      3.39232      7.67911        -0.042624      0.029770     -0.015078
      5.87568      3.39232      7.67911         0.043070      0.029625     -0.014930
      8.81351      3.39232      7.67911        -0.000039     -0.068224      0.070089
      4.40676      5.93656      7.67911        -0.000066     -0.019220      0.107689
      7.34459      5.93656      7.67911        -0.058220      0.030995      0.072604
     10.28243      5.93656      7.67911         0.058377      0.031095      0.072605
      8.81351      1.70181     10.09390        -0.000192     -0.029304     -0.024797
      2.93906      1.69686     10.04479        -0.012122      0.000122     -0.063946
      5.87446      1.69686     10.04479         0.012965      0.000244     -0.063264
     10.26694      4.24935     10.06849         0.008699     -0.006921      0.013000
      4.40676      4.23900     10.04479         0.000486      0.037329     -0.029455
      7.36009      4.24935     10.06849        -0.009472     -0.007217      0.013124
     11.74646      6.78182     10.09390         0.026283      0.016020     -0.030206
      5.88057      6.78182     10.09390        -0.026696      0.016105     -0.030127
      8.81351      6.76675     10.06849        -0.000184      0.010976      0.003680
      0.00000      0.00000     12.49934         0.000018     -0.018613     -0.007289
      2.98260      0.07565     12.53968        -0.068814     -0.114269     -0.055140
      5.83091      0.07565     12.53968         0.068542     -0.112843     -0.053863
      1.55682      2.54518     12.53968        -0.105482      0.012431     -0.051429
      7.25669      2.54518     12.53968         0.103541      0.012093     -0.050442
      2.98097      5.01189     12.53968        -0.082624      0.097714     -0.098490
      5.83254      5.01189     12.53968         0.082342      0.097086     -0.098477
      8.81351      5.08848     12.49853        -0.000259     -0.001019     -0.017835
      4.40676      2.54424     12.23451        -0.004733     -0.003781      0.447120
      3.61894      2.00051     14.73530        -0.004601     -0.000307     -0.003353
      5.18816      1.99633     14.73070         0.003400      0.000317      0.005021
      4.40427      2.54160     14.51057         0.008138     -0.006757     -0.000317
    total drift:                               -0.000039      0.014947      0.525640

  FREE ENERGIE OF THE ION-ELECTRON SYSTEM (eV)
  free  energy   TOTEN  =      -130.39009214 eV

  energy  without entropy=     -130.39009214  energy(sigma->0) =     -130.39009214

 stress matrix after NEB project (eV)
    -22.49422     -0.00743      0.01071
     -0.00743    -22.58766     -0.19539
      0.01071     -0.19539      2.32996
  FORCES: max atom, RMS     0.010582    0.002156
  FORCE total and by dimension    0.013467    0.008138
  Stress total and by dimension   31.964008   22.587664
|           W    W    AA    RRRRR   N    N  II  N    N   GGGG   !!!           |
|           W    W   A  A   R    R  NN   N  II  NN   N  G    G  !!!           |
|           W    W  A    A  R    R  N N  N  II  N N  N  G       !!!           |
|           W WW W  AAAAAA  RRRRR   N  N N  II  N  N N  G  GGG   !            |
|           WW  WW  A    A  R   R   N   NN  II  N   NN  G    G                |
|           W    W  A    A  R    R  N    N  II  N    N   GGGG   !!!           |
|     Tetrahedron method does not include variations of the Fermi             |
|     occupations, so forces and stress will be inaccurate. We suggest        |
|     using a different smearing scheme ISMEAR = 1 or 2 for metals in         |
|     relaxations.                                                            |

 total charge

# of ion       s       p       d       tot
    1        0.548   0.238   8.768   9.553
    2        0.544   0.241   8.765   9.549
    3        0.544   0.241   8.765   9.549
    4        0.544   0.241   8.765   9.550
    5        0.545   0.240   8.761   9.546
    6        0.544   0.241   8.765   9.550
    7        0.543   0.241   8.765   9.549
    8        0.543   0.241   8.765   9.549
    9        0.542   0.239   8.768   9.549
   10        0.528   0.306   8.766   9.600
   11        0.523   0.306   8.780   9.610
   12        0.528   0.306   8.766   9.600
   13        0.523   0.307   8.781   9.610
   14        0.523   0.307   8.780   9.610
   15        0.516   0.307   8.776   9.599
   16        0.528   0.306   8.765   9.600
   17        0.516   0.307   8.777   9.599
   18        0.516   0.307   8.777   9.599
   19        0.518   0.295   8.773   9.587
   20        0.571   0.339   8.728   9.638
   21        0.571   0.339   8.728   9.638
   22        0.506   0.305   8.778   9.589
   23        0.571   0.338   8.728   9.636
   24        0.506   0.305   8.778   9.589
   25        0.517   0.295   8.774   9.586
   26        0.517   0.295   8.774   9.586
   27        0.507   0.305   8.778   9.590
   28        0.542   0.231   8.751   9.524
   29        0.583   0.254   8.731   9.568
   30        0.583   0.254   8.731   9.568
   31        0.582   0.253   8.732   9.567
   32        0.582   0.253   8.732   9.566
   33        0.578   0.247   8.735   9.559
   34        0.578   0.247   8.735   9.559
   35        0.536   0.230   8.756   9.522
   36        0.377   0.364   4.042   4.783
   37        0.602   0.118   0.000   0.720
   38        0.602   0.118   0.000   0.720
   39        1.566   3.613   0.000   5.179
tot         22.089  13.917 310.639 346.645

 BZINTS: Fermi energy:    0.367445;  399.000000 electrons
         Band energy:-0.139719E+04;  BLOECHL correction:   -0.031292