 vasp.6.2.0 18Jan21 (build Jun 12 2021 23:27:24) complex

 executed on             LinuxIFC date 2022.05.26  19:40:34

 INCAR:
   ISMEAR = -5
   SIGMA = 0.1
   ISPIN = 1
   EDIFF = 1.d-5
   EDIFFG = -0.01
   NSW = 0
   NELM = 150
   ENCUT = 500
   ISIF = 2
   IBRION = 2
   LREAL = Auto
   ALGO = Fast
   ICHARG = 11
   LORBIT = 10
   LCHARG = .F.
   LWAVE = .F.

 POTCAR:    PAW_PBE Ag 02Apr2005
 POTCAR:    PAW_PBE Mn 06Sep2000
 POTCAR:    PAW_PBE O 08Apr2002
|           W    W    AA    RRRRR   N    N  II  N    N   GGGG   !!!           |
|           W    W   A  A   R    R  NN   N  II  NN   N  G    G  !!!           |
|           W    W  A    A  R    R  N N  N  II  N N  N  G       !!!           |
|           W WW W  AAAAAA  RRRRR   N  N N  II  N  N N  G  GGG   !            |
|           WW  WW  A    A  R   R   N   NN  II  N   NN  G    G                |
|           W    W  A    A  R    R  N    N  II  N    N   GGGG   !!!           |
|     For optimal performance we recommend to set                             |
|       NCORE = 2 up to number-of-cores-per-socket                            |
|     This setting can greatly improve the performance of VASP for DFT.       |
|     The default, NCORE=1 might be grossly inefficient on modern             |
|     multi-core architectures or massively parallel machines. Do your        |
|     Unfortunately you need to use the default for GW and RPA                |
|     calculations (for HF NCORE is supported but not extensively tested      |
|     yet).                                                                   |

 POTCAR:    PAW_PBE Ag 02Apr2005
   VRHFIN =Ag : s1 d10

   TITEL  = PAW_PBE Ag 02Apr2005
   POMASS =  107.868; ZVAL   =   11.000    mass and valenz
   ENMAX  =  249.844; ENMIN  =  187.383 eV

 POTCAR:    PAW_PBE Mn 06Sep2000
   VRHFIN =Mn: d6 s1

   TITEL  = PAW_PBE Mn 06Sep2000
   POMASS =   54.938; ZVAL   =    7.000    mass and valenz
   ENMAX  =  269.864; ENMIN  =  202.398 eV

 POTCAR:    PAW_PBE O 08Apr2002
   VRHFIN =O: s2p4

   TITEL  = PAW_PBE O 08Apr2002
   POMASS =   16.000; ZVAL   =    6.000    mass and valenz
   ENMAX  =  400.000; ENMIN  =  300.000 eV

 Optimization of the real space projectors (new method)

 maximal supplied QI-value         = 15.12
 optimisation between [QCUT,QGAM] = [ 11.34, 22.83] = [ 36.00,145.93] Ry
 Optimized for a Real-space Cutoff    1.43 Angstroem

   l    n(q)    QCUT    max X(q) W(low)/X(q) W(high)/X(q)  e(spline)
   2      9    11.338    53.897    0.16E-03    0.20E-03    0.28E-06
   2      9    11.338    52.416    0.16E-03    0.20E-03    0.29E-06
   0     10    11.338   122.045    0.31E-04    0.76E-04    0.15E-06
   0     10    11.338    73.629    0.30E-04    0.72E-04    0.15E-06
   1      9    11.338    15.255    0.20E-03    0.19E-04    0.17E-06
   1      9    11.338     9.562    0.16E-03    0.15E-04    0.14E-06
 Optimization of the real space projectors (new method)

[...]

   l    n(q)    QCUT    max X(q) W(low)/X(q) W(high)/X(q)  e(spline)
   2      8    11.376   110.144    0.49E-03    0.27E-04    0.26E-06
   2      8    11.376   103.200    0.49E-03    0.28E-04    0.27E-06
   0      9    11.376    68.437    0.57E-04    0.92E-04    0.15E-06
   0      9    11.376    33.971    0.51E-04    0.83E-04    0.14E-06
   1      9    11.376    17.065    0.34E-03    0.68E-04    0.14E-06
   1      9    11.376    12.540    0.27E-03    0.59E-04    0.11E-06
 Optimization of the real space projectors (new method)

 maximal supplied QI-value         = 24.76
 optimisation between [QCUT,QGAM] = [ 11.39, 22.77] = [ 36.31,145.25] Ry
 Optimized for a Real-space Cutoff    1.00 Angstroem

   l    n(q)    QCUT    max X(q) W(low)/X(q) W(high)/X(q)  e(spline)
   0      7    11.387    20.381    0.39E-03    0.13E-02    0.15E-06
   0      7    11.387    15.268    0.42E-03    0.14E-02    0.17E-06
   1      6    11.387     5.964    0.41E-03    0.11E-02    0.17E-06
   1      6    11.387     5.382    0.39E-03    0.87E-03    0.15E-06
  PAW_PBE Ag 02Apr2005                  :
  PAW_PBE Mn 06Sep2000                  :
  PAW_PBE O 08Apr2002                   :

 POSCAR: Ag-Mn-O
  positions in direct lattice
  velocities in cartesian coordinates
 exchange correlation table for  LEXCH =        8
   RHO(1)=    0.500       N(1)  =     2000
   RHO(2)=  100.500       N(2)  =     4000

 VTST: version 3.2, (02/03/18)

 CHAIN: initializing optimizer

 OPT: Using VASP Conjugate-Gradient optimizer
 CHAIN: Read ICHAIN            0

 POSCAR: Ag-Mn-O
  positions in direct lattice
  velocities in cartesian coordinates

 ion  position               nearest neighbor table
   1  0.000  0.000  0.238-   2 2.93   8 2.93   7 2.93   6 2.93   4 2.93  12 2.93  16 2.93  10 2.93
                             3 2.93
   2  0.333  0.000  0.238-   1 2.93   8 2.93   9 2.93   3 2.93   4 2.93   5 2.93  10 2.93  17 2.93
                            11 2.93
   3  0.667  0.000  0.238-   9 2.93   2 2.93   5 2.93  11 2.93   7 2.93  18 2.93   1 2.93   6 2.93
                            12 2.93
   4  0.000  0.333  0.238-   5 2.93   6 2.93   2 2.93   1 2.93   7 2.93  13 2.93  15 2.93   9 2.93
                            10 2.93
   5  0.333  0.333  0.238-   4 2.93   3 2.93   7 2.93   2 2.93   8 2.93  14 2.93  13 2.93  11 2.93
                             6 2.93
   6  0.667  0.333  0.238-   4 2.93   9 2.93   1 2.93  15 2.93   8 2.93  12 2.93   3 2.93   5 2.93
                            14 2.93
   7  0.000  0.667  0.238-   8 2.93   1 2.93   5 2.93   3 2.93   4 2.93  16 2.93  18 2.93  13 2.93
                             9 2.93
   8  0.333  0.667  0.238-   7 2.93   1 2.93   2 2.93   9 2.93   5 2.93  16 2.93   6 2.93  17 2.93
                            14 2.93
   9  0.667  0.667  0.238-   3 2.93   2 2.93   8 2.93   6 2.93  17 2.93   4 2.93  15 2.93   7 2.93
                            18 2.93
  10  0.111  0.111  0.346-  20 2.92  19 2.93  26 2.93  12 2.93  16 2.93  15 2.93  17 2.93  13 2.93
                            11 2.93   2 2.93   1 2.93   4 2.93
  11  0.444  0.111  0.346-  21 2.90  20 2.90  27 2.92  14 2.93  17 2.93  18 2.93   3 2.93  12 2.93
                            13 2.93  10 2.93   5 2.93   2 2.93
  12  0.778  0.111  0.346-  21 2.92  25 2.93  19 2.93  10 2.93  16 2.93  18 2.93  15 2.93  11 2.93
                             1 2.93  14 2.93   6 2.93   3 2.93
  13  0.111  0.444  0.346-  20 2.90  23 2.90  22 2.92  15 2.93  14 2.93  18 2.93  10 2.93  11 2.93
                            16 2.93   4 2.93   5 2.93   7 2.93
  14  0.444  0.444  0.346-  23 2.90  21 2.90  24 2.92  13 2.93  11 2.93  16 2.93   5 2.93  12 2.93
                            17 2.93   8 2.93  15 2.93   6 2.93
  15  0.778  0.444  0.346-  24 2.92  22 2.92  19 2.92  13 2.93  10 2.93  12 2.93  17 2.93  18 2.93
                             4 2.93   6 2.93   9 2.93  14 2.93
  16  0.111  0.778  0.346-  23 2.92  26 2.93  25 2.93  18 2.93  12 2.93  10 2.93  14 2.93  17 2.93
                            13 2.93   7 2.93   8 2.93   1 2.93
  17  0.444  0.778  0.346-  27 2.92  24 2.92  26 2.92  11 2.93  10 2.93   9 2.93  18 2.93  15 2.93
                            16 2.93   2 2.93  14 2.93   8 2.93
  18  0.778  0.778  0.346-  22 2.92  27 2.92  25 2.92  16 2.93  12 2.93  13 2.93  11 2.93  17 2.93
                            15 2.93   7 2.93   3 2.93   9 2.93
  19  0.889  0.223  0.454-  28 2.91  15 2.92  10 2.93  12 2.93  24 2.93  22 2.93  26 2.94  25 2.94
                            20 2.94  21 2.94  32 2.95  31 2.95
  20  0.223  0.223  0.453-  36 2.71  31 2.90  29 2.90  13 2.90  11 2.90  21 2.91  23 2.91  10 2.92
                            27 2.93  22 2.93  19 2.94  26 2.94
  21  0.554  0.223  0.453-  36 2.71  30 2.90  32 2.90  11 2.90  14 2.90  20 2.91  23 2.91  12 2.92
                            27 2.93  24 2.93  25 2.94  19 2.94
  22  0.888  0.556  0.453-  35 2.91  18 2.92  15 2.92  13 2.92  24 2.93  27 2.93  33 2.93  31 2.93
                            25 2.93  19 2.93  23 2.93  20 2.93
  23  0.223  0.554  0.453-  36 2.71  34 2.90  33 2.90  14 2.90  13 2.90  21 2.91  20 2.91  16 2.92
                            22 2.93  24 2.93  26 2.94  25 2.94
  24  0.556  0.556  0.453-  35 2.91  15 2.92  17 2.92  14 2.92  27 2.93  22 2.93  32 2.93  34 2.93
                            19 2.93  26 2.93  23 2.93  21 2.93
  25  0.889  0.889  0.454-  28 2.91  18 2.92  16 2.93  12 2.93  22 2.93  27 2.93  26 2.94  19 2.94
                            23 2.94  21 2.94  33 2.95  30 2.95
  26  0.223  0.889  0.454-  28 2.91  17 2.92  16 2.93  10 2.93  27 2.93  24 2.93  25 2.94  19 2.94
                            23 2.94  20 2.94  34 2.95  29 2.95
  27  0.556  0.888  0.453-  35 2.91  17 2.92  18 2.92  11 2.92  24 2.93  22 2.93  29 2.93  30 2.93
                            26 2.93  25 2.93  20 2.93  21 2.93
  28  0.000  0.000  0.560-  26 2.91  25 2.91  19 2.91  29 2.97  34 2.97  33 2.97  32 2.97  31 2.97
                            30 2.97
  29  0.333  0.008  0.561-  31 2.86  30 2.86  36 2.87  20 2.90  27 2.93  26 2.95  28 2.97  35 2.97
                            34 3.07
  30  0.659  0.008  0.561-  32 2.86  29 2.86  36 2.87  21 2.90  27 2.93  25 2.95  28 2.97  35 2.97
                            33 3.07
  31  0.008  0.333  0.561-  29 2.86  33 2.86  36 2.87  20 2.90  22 2.93  19 2.95  28 2.97  35 2.97
                            32 3.07
  32  0.659  0.333  0.561-  30 2.86  34 2.86  36 2.87  21 2.90  24 2.93  19 2.95  28 2.97  35 2.97
                            31 3.07
  33  0.008  0.659  0.561-  34 2.86  31 2.86  36 2.87  23 2.90  22 2.93  25 2.95  28 2.97  35 2.97
                            30 3.07
  34  0.333  0.659  0.561-  33 2.86  32 2.86  36 2.87  23 2.90  24 2.93  26 2.95  28 2.97  35 2.97
                            29 3.07
  35  0.667  0.667  0.560-  24 2.91  27 2.91  22 2.91  32 2.97  30 2.97  29 2.97  34 2.97  31 2.97
                            33 2.97
  36  0.333  0.333  0.549-  37 1.60  21 2.71  20 2.71  23 2.71  31 2.87  30 2.87  33 2.87  29 2.87
                            34 2.87  32 2.87
  37  0.333  0.333  0.621-  36 1.60

  LATTYP: Found a hexagonal cell.
 ALAT       =     8.7913665772
 C/A-ratio  =     2.5227160501

  Lattice vectors:

 A1 = (  -4.3956832886,  -7.6135467898,   0.0000000000)
 A2 = (   8.7913665771,   0.0000000000,   0.0000000000)
 A3 = (   0.0000000000,   0.0000000000,  22.1781215668)

Analysis of symmetry for initial positions (statically):
 Subroutine PRICEL returns:
 Original cell was already a primitive cell.

 Routine SETGRP: Setting up the symmetry group for a
 hexagonal supercell.

 Subroutine GETGRP returns: Found  6 space group operations
 (whereof  6 operations were pure point group operations)
 out of a pool of 24 trial point group operations.

The static configuration has the point symmetry C_3v.

Analysis of symmetry for dynamics (positions and initial velocities):
 Subroutine PRICEL returns:
 Original cell was already a primitive cell.

[...]

The dynamic configuration has the point symmetry C_3v.

Analysis of constrained symmetry for selective dynamics:
 Subroutine PRICEL returns:
 Original cell was already a primitive cell.

 Routine SETGRP: Setting up the symmetry group for a
 hexagonal supercell.

 Subroutine GETGRP returns: Found  6 space group operations
[...]
     24      -4.6854      2.00000
     25      -4.6657      2.00000
     26      -4.6371      2.00000
     27      -4.6207      2.00000
     28      -4.6014      2.00000
     29      -4.5948      2.00000
     30      -4.5897      2.00000
     31      -4.5692      2.00000
     32      -4.5618      2.00000
     33      -4.5436      2.00000
     34      -4.4968      2.00000
     35      -4.4590      2.00000
     36      -4.4504      2.00000
     37      -4.4351      2.00000
     38      -4.4087      2.00000
     39      -4.3902      2.00000
     40      -4.3687      2.00000
     41      -4.3607      2.00000
     42      -4.3366      2.00000
     43      -4.3169      2.00000
     44      -4.3006      2.00000
     45      -4.2384      2.00000
     46      -4.2317      2.00000
     47      -4.2136      2.00000
     48      -4.2039      2.00000
     49      -4.1963      2.00000
     50      -4.1835      2.00000
     51      -4.1781      2.00000
     52      -4.1690      2.00000
     53      -4.1546      2.00000
     54      -4.1137      2.00000
     55      -4.1048      2.00000
     56      -4.0940      2.00000
     57      -4.0783      2.00000
     58      -4.0665      2.00000
     59      -4.0505      2.00000
     60      -4.0363      2.00000
[...]
    238       6.2858      0.00000
    239       6.3088      0.00000
    240       6.4019      0.00000
    241       7.0304      0.00000
    242       7.1835      0.00000
    243       7.2398      0.00000
    244       7.3147      0.00000
    245       7.3473      0.00000
    246       7.3997      0.00000
    247       7.4309      0.00000
    248       7.4885      0.00000
    249       7.5928      0.00000
    250       7.6263      0.00000
    251       7.6641      0.00000
    252       7.7456      0.00000

 soft charge-density along one line, spin component           1
         0         1         2         3         4         5         6         7         8         9
 total charge-density along one line

------------------------ aborting loop because EDIFF is reached ----------------------------------------

 total charge

# of ion       s       p       d       tot
    1        0.419   0.200   9.179   9.798
    2        0.416   0.204   9.177   9.796
    3        0.416   0.204   9.177   9.796
    4        0.416   0.204   9.177   9.796
    5        0.420   0.203   9.176   9.798
    6        0.416   0.204   9.177   9.796
    7        0.416   0.204   9.177   9.796
    8        0.416   0.204   9.177   9.796
    9        0.413   0.204   9.177   9.794
   10        0.408   0.268   9.164   9.840
   11        0.404   0.272   9.166   9.841
   12        0.408   0.268   9.164   9.840
   13        0.404   0.272   9.166   9.841
   14        0.404   0.272   9.166   9.841
   15        0.403   0.269   9.165   9.838
   16        0.408   0.268   9.164   9.840
   17        0.403   0.269   9.165   9.838
   18        0.403   0.269   9.165   9.838
   19        0.403   0.264   9.167   9.835
   20        0.431   0.296   9.144   9.872
   21        0.431   0.296   9.144   9.872
   22        0.395   0.275   9.166   9.836
   23        0.431   0.296   9.144   9.872
   24        0.395   0.275   9.166   9.836
   25        0.403   0.264   9.167   9.835
   26        0.403   0.264   9.167   9.835
   27        0.395   0.275   9.166   9.836
   28        0.416   0.194   9.181   9.791
   29        0.407   0.207   9.181   9.795
   30        0.407   0.207   9.181   9.795
   31        0.407   0.207   9.181   9.795
   32        0.407   0.207   9.181   9.795
   33        0.407   0.207   9.181   9.795
   34        0.407   0.207   9.181   9.795
   35        0.412   0.196   9.180   9.788
   36        0.374   0.402   5.154   5.931
   37        1.612   3.260   0.000   4.872
tot         16.333  12.060 326.111 354.504

  FORCE on cell =-STRESS in cart. coord.  units (eV):
  Direction    XX          YY          ZZ          XY          YZ          ZX
  Alpha Z   752.96648   752.96648   752.96648
  Ewald  120845.82661120845.82665************     0.00003    -0.00000     0.00004
  Hartree131124.28289131124.28291************     0.00001    -0.00000     0.00002
  E(xc)   -2091.23462 -2091.23462 -2096.17040     0.00000     0.00000     0.00001
  Local  ************************263237.72075     0.00044    -0.00005    -0.00016
  n-local  -376.49142  -359.21234  -367.23488    10.63805    -0.36002     0.53539
  augment  3257.25263  3257.25276  3259.37957    -0.00011     0.00002     0.00009
  Kinetic  4969.84573  4972.12814  4974.54106     4.02232     0.90767    -0.37119
  Fock        0.00000     0.00000     0.00000     0.00000     0.00000     0.00000
  Total      -9.03494    -9.03494    -1.85234    -0.00000    -0.00000     0.00000
  in kB      -9.75142    -9.75142    -1.99923    -0.00000    -0.00000     0.00000

 VOLUME and BASIS-vectors are now :
  energy-cutoff  :      500.00
  volume of cell :     1484.46
      direct lattice vectors                 reciprocal lattice vectors
     8.791366577  0.000000000  0.000000000     0.113747958 -0.065672414  0.000000000
     4.395683289  7.613546790  0.000000000     0.000000000  0.131344829  0.000000000
     0.000000000  0.000000000 22.178121567     0.000000000  0.000000000  0.045089481

  length of vectors
     8.791366577  8.791366577 22.178121567     0.131344829  0.131344829  0.045089481

 FORCES acting on ions
    electron-ion (+dipol)            ewald-force                    non-local-force                 convergence-correction
   0.459E-04 -.283E-04 0.251E+04   -.954E-04 0.593E-04 -.251E+04   0.507E-17 -.348E-17 -.193E+01   -.105E-03 -.168E-03 -.280E-01
   0.439E+00 0.363E+00 0.251E+04   -.433E+00 -.416E+00 -.251E+04   0.196E-01 0.958E-01 -.162E+01   -.199E-01 -.323E-01 -.438E-01
   -.439E+00 0.363E+00 0.251E+04   0.433E+00 -.416E+00 -.251E+04   -.196E-01 0.958E-01 -.162E+01   0.194E-01 -.303E-01 -.431E-01
   0.534E+00 0.198E+00 0.251E+04   -.577E+00 -.167E+00 -.251E+04   0.927E-01 -.310E-01 -.162E+01   -.377E-01 -.932E-03 -.438E-01
   -.540E-05 -.186E-04 0.251E+04   0.981E-04 -.200E-05 -.251E+04   0.127E-17 0.202E-19 -.150E+01   0.624E-02 0.381E-02 0.264E-01
   -.534E+00 0.198E+00 0.251E+04   0.577E+00 -.167E+00 -.251E+04   -.927E-01 -.310E-01 -.162E+01   0.363E-01 -.937E-05 -.429E-01
   0.953E-01 -.562E+00 0.251E+04   -.144E+00 0.583E+00 -.251E+04   0.732E-01 -.648E-01 -.162E+01   -.161E-01 0.325E-01 -.431E-01
   -.953E-01 -.562E+00 0.251E+04   0.144E+00 0.583E+00 -.251E+04   -.732E-01 -.648E-01 -.162E+01   0.178E-01 0.315E-01 -.429E-01
   0.361E-04 -.131E-04 0.251E+04   0.792E-04 -.643E-04 -.251E+04   0.846E-18 -.188E-17 -.173E+01   -.666E-02 -.344E-02 -.146E-01
   0.405E+01 0.234E+01 0.848E+03   -.368E+01 -.213E+01 -.848E+03   -.342E+00 -.197E+00 -.664E+00   -.231E-01 -.133E-01 0.149E+00
   -.290E-04 0.453E+01 0.855E+03   0.415E-04 -.473E+01 -.855E+03   0.106E-11 0.162E+00 -.401E+00   0.629E-02 0.312E-02 0.218E+00
   -.405E+01 0.234E+01 0.848E+03   0.368E+01 -.213E+01 -.848E+03   0.342E+00 -.197E+00 -.664E+00   0.215E-01 -.122E-01 0.149E+00
   0.393E+01 -.227E+01 0.855E+03   -.410E+01 0.237E+01 -.855E+03   0.140E+00 -.810E-01 -.401E+00   0.573E-02 0.391E-02 0.218E+00
   -.393E+01 -.227E+01 0.855E+03   0.410E+01 0.237E+01 -.855E+03   -.140E+00 -.810E-01 -.401E+00   0.492E-02 0.309E-02 0.217E+00
   0.159E-04 0.103E+01 0.849E+03   -.108E-03 -.113E+01 -.849E+03   0.243E-12 0.370E-01 -.651E+00   -.163E-02 0.402E-01 0.130E+00
   -.797E-05 -.468E+01 0.848E+03   0.207E-04 0.425E+01 -.848E+03   0.259E-11 0.395E+00 -.664E+00   0.124E-03 0.247E-01 0.149E+00
   0.891E+00 -.514E+00 0.849E+03   -.977E+00 0.564E+00 -.849E+03   0.320E-01 -.185E-01 -.651E+00   0.340E-01 -.215E-01 0.130E+00
   -.891E+00 -.515E+00 0.849E+03   0.977E+00 0.564E+00 -.849E+03   -.320E-01 -.185E-01 -.651E+00   -.340E-01 -.196E-01 0.131E+00
   0.401E-04 0.737E+00 -.838E+03   -.128E-03 -.760E+00 0.838E+03   0.134E-12 0.205E-01 0.677E+00   -.166E-03 0.630E-02 0.278E+00
   0.151E+02 0.872E+01 -.810E+03   -.143E+02 -.825E+01 0.810E+03   -.112E+01 -.645E+00 -.760E+00   0.245E+00 0.142E+00 0.663E+00
   -.151E+02 0.872E+01 -.810E+03   0.143E+02 -.825E+01 0.810E+03   0.112E+01 -.645E+00 -.760E+00   -.246E+00 0.142E+00 0.663E+00
   0.572E+01 -.330E+01 -.828E+03   -.600E+01 0.346E+01 0.827E+03   0.236E+00 -.136E+00 0.604E+00   0.677E-01 -.386E-01 0.267E+00
   -.574E-04 -.174E+02 -.810E+03   0.432E-04 0.165E+02 0.810E+03   0.847E-11 0.129E+01 -.760E+00   0.800E-03 -.283E+00 0.663E+00
   -.572E+01 -.330E+01 -.828E+03   0.600E+01 0.346E+01 0.827E+03   -.236E+00 -.136E+00 0.604E+00   -.677E-01 -.390E-01 0.267E+00
   -.638E+00 -.368E+00 -.838E+03   0.658E+00 0.380E+00 0.838E+03   -.177E-01 -.102E-01 0.677E+00   -.514E-02 -.312E-02 0.277E+00
   0.638E+00 -.368E+00 -.838E+03   -.658E+00 0.380E+00 0.838E+03   0.177E-01 -.102E-01 0.677E+00   0.507E-02 -.342E-02 0.278E+00
   0.212E-04 0.661E+01 -.828E+03   0.109E-03 -.692E+01 0.827E+03   0.179E-11 0.273E+00 0.604E+00   -.238E-03 0.779E-01 0.268E+00
   0.544E-04 -.367E-04 -.248E+04   -.115E-03 0.777E-04 0.248E+04   0.394E-17 -.396E-17 0.185E+01   0.126E-02 0.590E-03 0.255E+00
   0.259E+02 0.434E+02 -.247E+04   -.258E+02 -.436E+02 0.247E+04   -.315E+00 -.347E+00 0.235E+01   0.176E+00 0.360E+00 0.197E+00
   -.259E+02 0.434E+02 -.247E+04   0.258E+02 -.436E+02 0.247E+04   0.315E+00 -.347E+00 0.235E+01   -.187E+00 0.361E+00 0.197E+00
   0.505E+02 0.680E+00 -.247E+04   -.507E+02 -.554E+00 0.247E+04   -.458E+00 -.990E-01 0.235E+01   0.400E+00 -.271E-01 0.197E+00
   -.505E+02 0.680E+00 -.247E+04   0.507E+02 -.554E+00 0.247E+04   0.458E+00 -.990E-01 0.235E+01   -.411E+00 -.262E-01 0.197E+00
   0.247E+02 -.441E+02 -.247E+04   -.249E+02 0.442E+02 0.247E+04   -.143E+00 0.446E+00 0.235E+01   0.220E+00 -.342E+00 0.197E+00
   -.247E+02 -.441E+02 -.247E+04   0.249E+02 0.442E+02 0.247E+04   0.143E+00 0.446E+00 0.235E+01   -.229E+00 -.343E+00 0.197E+00
   0.225E-04 -.127E-04 -.248E+04   0.106E-03 -.659E-04 0.248E+04   -.607E-17 0.107E-17 0.195E+01   -.536E-02 -.267E-02 0.243E+00
   -.280E-04 -.213E-04 -.130E+04   0.674E-04 0.931E-05 0.130E+04   -.198E-17 0.107E-17 -.880E-01   0.390E-02 0.236E-02 0.116E+00
   0.180E-03 -.952E-04 -.168E+04   0.333E-04 0.589E-06 0.170E+04   -.239E-18 0.134E-17 -.282E+02   0.401E-02 0.244E-02 -.816E+00
   0.529E-03 -.797E-03 0.231E+02   -.506E-13 0.317E-12 0.273E-11   0.214E-15 -.330E-15 -.289E+02   -.141E-01 -.477E-02 0.582E+01

 POSITION                                       TOTAL-FORCE (eV/Angst)
      0.00000      0.00000      5.28219        -0.000000      0.000000     -0.019992
      2.93046      0.00000      5.28219         0.006372      0.011621      0.037495
      5.86091      0.00000      5.28219        -0.006372      0.011621      0.037495
      1.46523      2.53785      5.28219         0.013250     -0.000292      0.037495
      4.39568      2.53785      5.28219        -0.000000      0.000000      0.007597
      7.32614      2.53785      5.28219        -0.013250     -0.000292      0.037495
      2.93046      5.07570      5.28219         0.006878     -0.011329      0.037495
      5.86091      5.07570      5.28219        -0.006878     -0.011329      0.037495
      8.79137      5.07570      5.28219        -0.000000      0.000000      0.017038
      1.46523      0.84595      7.67490         0.002315      0.001337      0.005716
      4.39568      0.84595      7.67490        -0.000000     -0.035982     -0.043350
      7.32614      0.84595      7.67490        -0.002315      0.001337      0.005716
      2.93046      3.38380      7.67490        -0.031162      0.017991     -0.043350
      5.86091      3.38380      7.67490         0.031162      0.017991     -0.043350
      8.79137      3.38380      7.67490        -0.000000     -0.022123      0.008572
      4.39568      5.92165      7.67490        -0.000000     -0.002674      0.005716
      7.32614      5.92165      7.67490        -0.019159      0.011061      0.008572
     10.25659      5.92165      7.67490         0.019159      0.011061      0.008572
      8.79137      1.69455     10.06139         0.000000      0.003678      0.023240
      2.94158      1.69832     10.04035        -0.060423     -0.034886     -0.079281
      5.84978      1.69832     10.04035         0.060423     -0.034886     -0.079281
     10.25392      4.23129     10.05365         0.028782     -0.016618      0.011496
      4.39568      4.21690     10.04035         0.000000      0.069771     -0.079281
      7.32881      4.23129     10.05365        -0.028782     -0.016618      0.011496
     11.71953      6.76627     10.06139        -0.003186     -0.001839      0.023240
      5.86321      6.76627     10.06139         0.003186     -0.001839      0.023240
      8.79137      6.76451     10.05365         0.000000      0.033235      0.011496
      0.00000      0.00000     12.42536        -0.000000      0.000000     -0.004269
      2.96459      0.05999     12.43855        -0.108571     -0.194502     -0.157171
      5.82677      0.05999     12.43855         0.108571     -0.194502     -0.157171
      1.53425      2.53742     12.43855        -0.222729      0.003226     -0.157171
      7.25712      2.53742     12.43855         0.222729      0.003226     -0.157171
      2.96534      5.01614     12.43855        -0.114158      0.191276     -0.157171
      5.82603      5.01614     12.43855         0.114158      0.191276     -0.157171
      8.79137      5.07570     12.42471        -0.000000      0.000000      0.006020
      4.39568      2.53785     12.16969        -0.000000      0.000000      0.990269
      4.39568      2.53785     13.76812        -0.000000      0.000000     -0.057788
    total drift:                               -0.013601     -0.005570      0.067445

  FREE ENERGIE OF THE ION-ELECTRON SYSTEM (eV)
  free  energy   TOTEN  =      -102.84546770 eV

  energy  without entropy=     -102.84546770  energy(sigma->0) =     -102.84546770

 stress matrix after NEB project (eV)
     -9.03494     -0.00000      0.00000
     -0.00000     -9.03494      0.00000
     -0.00000     -0.00000     -1.85234
  FORCES: max atom, RMS     0.057788    0.009500
  FORCE total and by dimension    0.057788    0.057788
  Stress total and by dimension   12.910904    9.034940
|           W    W    AA    RRRRR   N    N  II  N    N   GGGG   !!!           |
|           W    W   A  A   R    R  NN   N  II  NN   N  G    G  !!!           |
|           W    W  A    A  R    R  N N  N  II  N N  N  G       !!!           |
|           W WW W  AAAAAA  RRRRR   N  N N  II  N  N N  G  GGG   !            |
|           WW  WW  A    A  R   R   N   NN  II  N   NN  G    G                |
|           W    W  A    A  R    R  N    N  II  N    N   GGGG   !!!           |
|     Tetrahedron method does not include variations of the Fermi             |
|     occupations, so forces and stress will be inaccurate. We suggest        |
|     using a different smearing scheme ISMEAR = 1 or 2 for metals in         |
|     relaxations.                                                            |

 total charge

# of ion       s       p       d       tot
    1        0.419   0.200   9.179   9.798
    2        0.416   0.204   9.177   9.796
    3        0.416   0.204   9.177   9.796
    4        0.416   0.204   9.177   9.796
    5        0.420   0.203   9.176   9.798
    6        0.416   0.204   9.177   9.796
    7        0.416   0.204   9.177   9.796
    8        0.416   0.204   9.177   9.796
    9        0.413   0.204   9.177   9.794
   10        0.408   0.268   9.164   9.840
   11        0.404   0.272   9.166   9.841
   12        0.408   0.268   9.164   9.840
   13        0.404   0.272   9.166   9.841
   14        0.404   0.272   9.166   9.841
   15        0.403   0.269   9.165   9.838
   16        0.408   0.268   9.164   9.840
   17        0.403   0.269   9.165   9.838
   18        0.403   0.269   9.165   9.838
   19        0.403   0.264   9.167   9.835
   20        0.431   0.296   9.144   9.872
   21        0.431   0.296   9.144   9.872
   22        0.395   0.275   9.166   9.836
   23        0.431   0.296   9.144   9.872
   24        0.395   0.275   9.166   9.836
   25        0.403   0.264   9.167   9.835
   26        0.403   0.264   9.167   9.835
   27        0.395   0.275   9.166   9.836
   28        0.416   0.194   9.181   9.791
   29        0.407   0.207   9.181   9.795
   30        0.407   0.207   9.181   9.795
   31        0.407   0.207   9.181   9.795
   32        0.407   0.207   9.181   9.795
   33        0.407   0.207   9.181   9.795
   34        0.407   0.207   9.181   9.795
   35        0.412   0.196   9.180   9.788
   36        0.374   0.402   5.154   5.931
   37        1.612   3.260   0.000   4.872
tot         16.333  12.060 326.111 354.504

 BZINTS: Fermi energy:    0.776281;  398.000000 electrons
         Band energy:-0.133187E+04;  BLOECHL correction:   -0.041732