 vasp.6.2.0 18Jan21 (build Jun 12 2021 23:27:24) complex

 executed on             LinuxIFC date 2022.05.27  06:19:40

 INCAR:
   ISMEAR = -5
   SIGMA = 0.1
   ISPIN = 1
   EDIFF = 1.d-5
   EDIFFG = -0.01
   NSW = 0
   NELM = 150
   ENCUT = 500
   ISIF = 2
   IBRION = 2
   LREAL = Auto
   ALGO = Fast
   ICHARG = 11
   LORBIT = 10
   LCHARG = .F.
   LWAVE = .F.

 POTCAR:    PAW_PBE Cu 22Jun2005
 POTCAR:    PAW_PBE Os 17Jan2003
 POTCAR:    PAW_PBE O 08Apr2002
 POTCAR:    PAW_PBE H 15Jun2001
|           W    W    AA    RRRRR   N    N  II  N    N   GGGG   !!!           |
|           W    W   A  A   R    R  NN   N  II  NN   N  G    G  !!!           |
|           W    W  A    A  R    R  N N  N  II  N N  N  G       !!!           |
|           W WW W  AAAAAA  RRRRR   N  N N  II  N  N N  G  GGG   !            |
|           WW  WW  A    A  R   R   N   NN  II  N   NN  G    G                |
|           W    W  A    A  R    R  N    N  II  N    N   GGGG   !!!           |
|     For optimal performance we recommend to set                             |
|       NCORE = 2 up to number-of-cores-per-socket                            |
|     This setting can greatly improve the performance of VASP for DFT.       |
|     The default, NCORE=1 might be grossly inefficient on modern             |
|     multi-core architectures or massively parallel machines. Do your        |
|     Unfortunately you need to use the default for GW and RPA                |
|     calculations (for HF NCORE is supported but not extensively tested      |
|     yet).                                                                   |

 POTCAR:    PAW_PBE Cu 22Jun2005
   VRHFIN =Cu: d10 p1

   TITEL  = PAW_PBE Cu 22Jun2005
   POMASS =   63.546; ZVAL   =   11.000    mass and valenz
   ENMAX  =  295.446; ENMIN  =  221.585 eV

 POTCAR:    PAW_PBE Os 17Jan2003
   VRHFIN =Os: 6s5d

   TITEL  = PAW_PBE Os 17Jan2003
   POMASS =  190.200; ZVAL   =    8.000    mass and valenz
   ENMAX  =  228.022; ENMIN  =  171.017 eV

 POTCAR:    PAW_PBE O 08Apr2002
   VRHFIN =O: s2p4

   TITEL  = PAW_PBE O 08Apr2002
   POMASS =   16.000; ZVAL   =    6.000    mass and valenz
   ENMAX  =  400.000; ENMIN  =  300.000 eV

 POTCAR:    PAW_PBE H 15Jun2001
   VRHFIN =H: ultrasoft test

   TITEL  = PAW_PBE H 15Jun2001
   POMASS =    1.000; ZVAL   =    1.000    mass and valenz
   ENMAX  =  250.000; ENMIN  =  200.000 eV

 Optimization of the real space projectors (new method)

 maximal supplied QI-value         = 16.25
 optimisation between [QCUT,QGAM] = [ 11.38, 22.75] = [ 36.24,144.96] Ry
 Optimized for a Real-space Cutoff    1.52 Angstroem

   l    n(q)    QCUT    max X(q) W(low)/X(q) W(high)/X(q)  e(spline)
   2      9    11.376     4.610    0.21E-03    0.10E-03    0.26E-06
   2      9    11.376     8.522    0.33E-03    0.16E-03    0.37E-06
   0     10    11.376    51.609    0.62E-04    0.20E-04    0.13E-06
   0     10    11.376    27.747    0.54E-04    0.20E-04    0.13E-06
   1     10    11.376    20.408    0.13E-04    0.99E-04    0.19E-06
   1     10    11.376    13.425    0.12E-04    0.87E-04    0.17E-06
 Optimization of the real space projectors (new method)

[...]

   l    n(q)    QCUT    max X(q) W(low)/X(q) W(high)/X(q)  e(spline)
   0      7    11.387    20.381    0.39E-03    0.13E-02    0.15E-06
   0      7    11.387    15.268    0.42E-03    0.14E-02    0.17E-06
   1      6    11.387     5.964    0.41E-03    0.11E-02    0.17E-06
   1      6    11.387     5.382    0.39E-03    0.87E-03    0.15E-06
 Optimization of the real space projectors (new method)

 maximal supplied QI-value         = 34.20
 optimisation between [QCUT,QGAM] = [ 11.29, 22.57] = [ 35.68,142.71] Ry
 Optimized for a Real-space Cutoff    1.16 Angstroem

   l    n(q)    QCUT    max X(q) W(low)/X(q) W(high)/X(q)  e(spline)
   0      8    11.287    19.460    0.40E-03    0.73E-03    0.16E-06
   0      8    11.287    12.209    0.38E-03    0.70E-03    0.15E-06
   1      7    11.287     4.655    0.22E-03    0.25E-04    0.22E-06
  PAW_PBE Cu 22Jun2005                  :
  PAW_PBE Os 17Jan2003                  :
  PAW_PBE O 08Apr2002                   :
  PAW_PBE H 15Jun2001                   :

 POSCAR: Cu-Os-OH
  positions in direct lattice
  velocities in cartesian coordinates
 exchange correlation table for  LEXCH =        8
   RHO(1)=    0.500       N(1)  =     2000
   RHO(2)=  100.500       N(2)  =     4000

 VTST: version 3.2, (02/03/18)

 CHAIN: initializing optimizer

 OPT: Using VASP Conjugate-Gradient optimizer
 CHAIN: Read ICHAIN            0

 POSCAR: Cu-Os-OH
  positions in direct lattice
  velocities in cartesian coordinates

 ion  position               nearest neighbor table
   1  0.000  0.000  0.252-   7 2.57   3 2.57   4 2.57   2 2.57   6 2.57   8 2.57  12 2.57  10 2.57
                            16 2.57
   2  0.333  0.000  0.252-   8 2.57   9 2.57   5 2.57   1 2.57   3 2.57  11 2.57   4 2.57  10 2.57
                            17 2.57
   3  0.667  0.000  0.252-   1 2.57   7 2.57   6 2.57   9 2.57   2 2.57  12 2.57   5 2.57  18 2.57
                            11 2.57
   4  0.000  0.333  0.252-   5 2.57   6 2.57   1 2.57   7 2.57   2 2.57  13 2.57   9 2.57  10 2.57
                            15 2.57
   5  0.333  0.333  0.252-   4 2.57   2 2.57   7 2.57  13 2.57   8 2.57   6 2.57   3 2.57  11 2.57
                            14 2.57
   6  0.667  0.333  0.252-   4 2.57   9 2.57  15 2.57   3 2.57   1 2.57   8 2.57  14 2.57   5 2.57
                            12 2.57
   7  0.000  0.667  0.252-   1 2.57   3 2.57  16 2.57  18 2.57   4 2.57   5 2.57   8 2.57   9 2.57
                            13 2.57
   8  0.333  0.667  0.252-   9 2.57   2 2.57  17 2.57   6 2.57   1 2.57   7 2.57   5 2.57  14 2.57
                            16 2.57
   9  0.667  0.667  0.252-   8 2.57   6 2.57   2 2.57  17 2.57   3 2.57   7 2.57   4 2.57  15 2.57
                            18 2.57
  10  0.111  0.111  0.351-  20 2.53  11 2.57  12 2.57  13 2.57   1 2.57   2 2.57   4 2.57  15 2.57
                            16 2.57  17 2.57  26 2.57  19 2.57
  11  0.444  0.111  0.351-  20 2.54  21 2.54  10 2.57  13 2.57   2 2.57  17 2.57  14 2.57  12 2.57
                             5 2.57   3 2.57  18 2.57  27 2.57
  12  0.778  0.111  0.351-  21 2.53  15 2.57  10 2.57  14 2.57  18 2.57   3 2.57   1 2.57  16 2.57
                            11 2.57   6 2.57  19 2.57  25 2.57
  13  0.111  0.444  0.351-  23 2.54  20 2.54  16 2.57  18 2.57  10 2.57  11 2.57  14 2.57   5 2.57
                             4 2.57   7 2.57  15 2.57  22 2.57
  14  0.444  0.444  0.351-  21 2.54  23 2.54  15 2.57  17 2.57  12 2.57  16 2.57  13 2.57  11 2.57
                             6 2.57   8 2.57   5 2.57  24 2.57
  15  0.778  0.444  0.351-  19 2.56  14 2.57  17 2.57  12 2.57   6 2.57  18 2.57  10 2.57   9 2.57
                            13 2.57   4 2.57  24 2.57  22 2.57
  16  0.111  0.778  0.351-  23 2.53  18 2.57  13 2.57   7 2.57  14 2.57  17 2.57  12 2.57  10 2.57
                             8 2.57   1 2.57  25 2.57  26 2.57
  17  0.444  0.778  0.351-  26 2.56  14 2.57  15 2.57   8 2.57   9 2.57  11 2.57  16 2.57  18 2.57
                            10 2.57   2 2.57  27 2.57  24 2.57
  18  0.778  0.778  0.351-  25 2.56  16 2.57  13 2.57   7 2.57  15 2.57  12 2.57  17 2.57   9 2.57
                             3 2.57  11 2.57  22 2.57  27 2.57
  19  0.888  0.223  0.449-  21 2.55  20 2.55  28 2.55  22 2.56  24 2.56  15 2.56  12 2.57  10 2.57
                            32 2.57  31 2.57  25 2.57  26 2.57
  20  0.221  0.221  0.448-  10 2.53  36 2.53  11 2.54  13 2.54  26 2.55  19 2.55  27 2.57  22 2.57
                            23 2.59  21 2.59  29 2.60  31 2.60
  21  0.558  0.221  0.448-  12 2.53  36 2.53  14 2.54  11 2.54  19 2.55  25 2.55  24 2.57  27 2.57
                            20 2.59  23 2.59  32 2.60  30 2.60
  22  0.888  0.556  0.449-  35 2.55  24 2.55  27 2.55  19 2.56  25 2.56  18 2.57  15 2.57  23 2.57
                            20 2.57  13 2.57  31 2.58  33 2.58
  23  0.221  0.558  0.448-  16 2.53  36 2.53  13 2.54  14 2.54  25 2.55  26 2.55  22 2.57  24 2.57
                            20 2.59  21 2.59  33 2.60  34 2.60
  24  0.556  0.556  0.449-  35 2.55  22 2.55  27 2.55  19 2.56  26 2.56  15 2.57  17 2.57  21 2.57
                            23 2.57  14 2.57  32 2.58  34 2.58
  25  0.888  0.888  0.449-  21 2.55  23 2.55  28 2.55  22 2.56  27 2.56  18 2.56  16 2.57  12 2.57
                            33 2.57  30 2.57  19 2.57  26 2.57
  26  0.223  0.888  0.449-  20 2.55  23 2.55  28 2.55  27 2.56  24 2.56  17 2.56  10 2.57  16 2.57
                            29 2.57  34 2.57  25 2.57  19 2.57
  27  0.556  0.888  0.449-  35 2.55  24 2.55  22 2.55  26 2.56  25 2.56  17 2.57  18 2.57  20 2.57
                            21 2.57  11 2.57  29 2.58  30 2.58
  28  0.000  0.000  0.547-  25 2.55  19 2.55  26 2.55  33 2.56  30 2.56  31 2.56  29 2.56  32 2.56
                            34 2.56
  29  0.333  0.000  0.548-  31 2.56  28 2.56  34 2.57  36 2.57  35 2.57  30 2.57  26 2.57  27 2.58
                            20 2.60
  30  0.667  0.000  0.548-  32 2.56  28 2.56  33 2.57  36 2.57  35 2.57  29 2.57  25 2.57  27 2.58
                            21 2.60
  31  0.000  0.333  0.548-  29 2.56  28 2.56  32 2.57  36 2.57  35 2.57  33 2.57  19 2.57  22 2.58
                            20 2.60
  32  0.667  0.333  0.548-  30 2.56  28 2.56  31 2.57  36 2.57  35 2.57  34 2.57  19 2.57  24 2.58
                            21 2.60
  33  0.000  0.667  0.548-  34 2.56  28 2.56  30 2.57  36 2.57  35 2.57  31 2.57  25 2.57  22 2.58
                            23 2.60
  34  0.333  0.667  0.548-  33 2.56  28 2.56  29 2.57  36 2.57  35 2.57  32 2.57  26 2.57  24 2.58
                            23 2.60
  35  0.667  0.667  0.547-  24 2.55  27 2.55  22 2.55  34 2.57  32 2.57  29 2.57  30 2.57  33 2.57
                            31 2.57
  36  0.333  0.333  0.544-  37 1.94  23 2.53  20 2.53  21 2.53  31 2.57  29 2.57  33 2.57  34 2.57
                            32 2.57  30 2.57
  37  0.333  0.333  0.635-  38 0.96  36 1.94
  38  0.333  0.333  0.680-  37 0.96

  LATTYP: Found a hexagonal cell.
 ALAT       =     7.6967864036
 C/A-ratio  =     2.7653617908

  Lattice vectors:

 A1 = (  -3.8483927580,  -6.6656128093,   0.0000000000)
 A2 = (   7.6967864037,   0.0000000000,   0.0000000000)
 A3 = (   0.0000000000,   0.0000000000,  21.2843990326)

Analysis of symmetry for initial positions (statically):
 Subroutine PRICEL returns:
 Original cell was already a primitive cell.

 Routine SETGRP: Setting up the symmetry group for a
 hexagonal supercell.

 Subroutine GETGRP returns: Found  6 space group operations
 (whereof  6 operations were pure point group operations)
 out of a pool of 24 trial point group operations.

The static configuration has the point symmetry C_3v.

Analysis of symmetry for dynamics (positions and initial velocities):
 Subroutine PRICEL returns:
 Original cell was already a primitive cell.

[...]

The dynamic configuration has the point symmetry C_3v.

Analysis of constrained symmetry for selective dynamics:
 Subroutine PRICEL returns:
 Original cell was already a primitive cell.

[...]
     33      -3.7586      2.00000
     34      -3.7531      2.00000
     35      -3.7487      2.00000
     36      -3.7327      2.00000
     37      -3.6906      2.00000
     38      -3.6490      2.00000
     39      -3.5889      2.00000
     40      -3.5681      2.00000
     41      -3.4475      2.00000
     42      -3.4386      2.00000
     43      -3.3662      2.00000
     44      -3.3591      2.00000
     45      -3.3472      2.00000
     46      -3.3252      2.00000
     47      -3.3220      2.00000
     48      -3.2811      2.00000
     49      -3.2650      2.00000
     50      -3.1278      2.00000
     51      -3.1189      2.00000
     52      -3.1023      2.00000
     53      -3.0831      2.00000
     54      -3.0442      2.00000
     55      -3.0337      2.00000
     56      -3.0172      2.00000
     57      -3.0165      2.00000
     58      -3.0068      2.00000
     59      -2.9935      2.00000
     60      -2.9709      2.00000
[...]
    238       6.4089      0.00000
    239       6.6177      0.00000
    240       6.6684      0.00000
    241       6.7558      0.00000
    242       6.8574      0.00000
    243       7.0313      0.00000
    244       7.0384      0.00000
    245       7.2220      0.00000
    246       7.3992      0.00000
    247       7.4998      0.00000
    248       7.6013      0.00000
    249       7.6746      0.00000
    250       7.8056      0.00000
    251       8.0051      0.00000
    252       8.2760      0.00000

 soft charge-density along one line, spin component           1
         0         1         2         3         4         5         6         7         8         9
 total charge-density along one line

------------------------ aborting loop because EDIFF is reached ----------------------------------------

 total charge

# of ion       s       p       d       tot
    1        0.449   0.285   9.189   9.923
    2        0.449   0.285   9.186   9.921
    3        0.449   0.285   9.186   9.921
    4        0.449   0.285   9.186   9.921
    5        0.448   0.286   9.181   9.916
    6        0.449   0.285   9.186   9.921
    7        0.449   0.285   9.186   9.921
    8        0.449   0.285   9.186   9.921
    9        0.447   0.283   9.188   9.918
   10        0.444   0.373   9.175   9.992
   11        0.443   0.367   9.184   9.994
   12        0.444   0.373   9.175   9.992
   13        0.443   0.367   9.184   9.994
   14        0.443   0.367   9.184   9.994
   15        0.438   0.368   9.181   9.987
   16        0.444   0.373   9.175   9.992
   17        0.438   0.368   9.181   9.987
   18        0.438   0.368   9.181   9.987
   19        0.439   0.367   9.184   9.990
   20        0.462   0.406   9.157  10.026
   21        0.462   0.406   9.157  10.026
   22        0.431   0.368   9.186   9.985
   23        0.462   0.406   9.157  10.026
   24        0.431   0.368   9.186   9.985
   25        0.439   0.367   9.184   9.990
   26        0.439   0.367   9.184   9.990
   27        0.431   0.368   9.186   9.985
   28        0.452   0.289   9.186   9.927
   29        0.451   0.307   9.181   9.939
   30        0.451   0.307   9.181   9.939
   31        0.451   0.307   9.181   9.939
   32        0.451   0.307   9.181   9.939
   33        0.451   0.307   9.181   9.939
   34        0.451   0.307   9.181   9.939
   35        0.441   0.294   9.187   9.922
   36        0.637   0.584   5.997   7.218
   37        1.542   3.539   0.000   5.080
   38        0.602   0.128   0.000   0.730
tot         18.386  15.992 327.332 361.710

  FORCE on cell =-STRESS in cart. coord.  units (eV):
  Direction    XX          YY          ZZ          XY          YZ          ZX
  Alpha Z   911.32570   911.32570   911.32570
  Ewald  171967.67075171967.67033************     0.00039     0.00012     0.00018
  Hartree185166.33392185166.33389************     0.00004     0.00006     0.00006
  E(xc)   -2316.99390 -2316.99346 -2320.13992    -0.00038    -0.00003    -0.00006
  Local  ************************370278.95966     0.01874    -0.00061    -0.00098
  n-local  -814.93979  -798.85294  -817.63468     8.43674     0.10833     0.12052
  augment  3331.69350  3331.71374  3348.69496    -0.01753     0.00027     0.00049
  Kinetic  3394.60520  3401.44439  3385.90185     4.04464     1.47780    -0.94267
  Fock        0.00000     0.00000     0.00000     0.00000     0.00000     0.00000
  Total      -5.55623    -5.55623     0.39079     0.00000    -0.00000     0.00000
  in kB      -8.15229    -8.15229     0.57338     0.00000    -0.00000     0.00000

 VOLUME and BASIS-vectors are now :
  energy-cutoff  :      500.00
  volume of cell :     1091.97
      direct lattice vectors                 reciprocal lattice vectors
     7.696786404  0.000000000  0.000000000     0.129924354 -0.075011849  0.000000000
     3.848392758  6.665612809  0.000000000     0.000000000  0.150023716  0.000000000
     0.000000000  0.000000000 21.284399033     0.000000000  0.000000000  0.046982769

  length of vectors
     7.696786404  7.696786404 21.284399033     0.150023716  0.150023716  0.046982769

 FORCES acting on ions
    electron-ion (+dipol)            ewald-force                    non-local-force                 convergence-correction
   -.417E-04 0.101E-06 0.349E+04   0.580E-04 -.436E-05 -.349E+04   -.216E-17 -.196E-17 -.296E+01   -.344E-03 -.219E-03 -.355E+00
   -.367E+00 0.894E-01 0.349E+04   0.178E-01 -.174E+00 -.349E+04   0.112E+00 0.965E-01 -.174E+01   0.232E+00 0.544E-02 -.324E+00
   0.367E+00 0.894E-01 0.349E+04   -.179E-01 -.174E+00 -.349E+04   -.112E+00 0.965E-01 -.174E+01   -.231E+00 0.797E-02 -.323E+00
   -.106E+00 -.363E+00 0.349E+04   -.142E+00 0.102E+00 -.349E+04   0.140E+00 0.488E-01 -.174E+01   0.121E+00 0.198E+00 -.324E+00
   -.654E-04 -.559E-05 0.349E+04   0.116E-03 -.101E-04 -.349E+04   -.465E-18 0.150E-17 -.166E+01   0.122E-01 0.745E-02 -.263E+00
   0.106E+00 -.363E+00 0.349E+04   0.141E+00 0.102E+00 -.349E+04   -.140E+00 0.488E-01 -.174E+01   -.122E+00 0.199E+00 -.323E+00
   0.261E+00 0.273E+00 0.349E+04   -.159E+00 0.714E-01 -.349E+04   0.276E-01 -.145E+00 -.174E+01   -.108E+00 -.204E+00 -.323E+00
   -.261E+00 0.273E+00 0.349E+04   0.159E+00 0.714E-01 -.349E+04   -.276E-01 -.145E+00 -.174E+01   0.112E+00 -.205E+00 -.323E+00
   -.144E-03 -.329E-04 0.349E+04   0.263E-03 0.205E-04 -.349E+04   -.488E-17 0.106E-17 -.235E+01   -.132E-01 -.677E-02 -.284E+00
   0.352E+01 0.203E+01 0.119E+04   -.294E+01 -.170E+01 -.119E+04   -.681E+00 -.393E+00 -.134E+01   0.102E+00 0.587E-01 0.177E+00
   -.912E-04 0.106E+01 0.119E+04   0.190E-03 -.148E+01 -.119E+04   -.170E-07 0.255E+00 -.306E+00   0.121E-01 0.113E+00 0.124E+00
   -.352E+01 0.203E+01 0.119E+04   0.294E+01 -.170E+01 -.119E+04   0.681E+00 -.393E+00 -.134E+01   -.104E+00 0.600E-01 0.177E+00
   0.915E+00 -.528E+00 0.119E+04   -.128E+01 0.741E+00 -.119E+04   0.221E+00 -.128E+00 -.306E+00   0.104E+00 -.452E-01 0.124E+00
   -.915E+00 -.528E+00 0.119E+04   0.128E+01 0.741E+00 -.119E+04   -.221E+00 -.128E+00 -.306E+00   -.804E-01 -.464E-01 0.123E+00
   -.143E-03 -.427E+00 0.119E+04   0.299E-03 0.936E-01 -.119E+04   -.117E-07 0.176E+00 -.881E+00   -.359E-02 0.129E+00 0.275E-01
   -.920E-04 -.407E+01 0.119E+04   0.186E-03 0.339E+01 -.119E+04   -.524E-07 0.787E+00 -.134E+01   -.506E-03 -.121E+00 0.177E+00
   -.370E+00 0.213E+00 0.119E+04   0.811E-01 -.465E-01 -.119E+04   0.152E+00 -.878E-01 -.881E+00   0.110E+00 -.673E-01 0.277E-01
   0.370E+00 0.213E+00 0.119E+04   -.813E-01 -.466E-01 -.119E+04   -.152E+00 -.878E-01 -.881E+00   -.109E+00 -.644E-01 0.294E-01
   -.563E-04 -.519E+00 -.113E+04   0.687E-04 0.413E+00 0.113E+04   -.599E-08 0.899E-01 0.847E+00   -.110E-01 -.293E-01 0.651E+00
   -.225E+02 -.130E+02 -.113E+04   0.241E+02 0.139E+02 0.113E+04   -.160E+01 -.923E+00 -.140E+01   0.797E-01 0.449E-01 0.679E+00
   0.225E+02 -.130E+02 -.113E+04   -.241E+02 0.139E+02 0.113E+04   0.160E+01 -.923E+00 -.140E+01   -.984E-01 0.444E-01 0.679E+00
   -.170E+02 0.979E+01 -.114E+04   0.160E+02 -.926E+01 0.113E+04   0.849E+00 -.490E+00 0.928E+00   0.121E+00 -.684E-01 0.617E+00
   -.878E-04 0.260E+02 -.113E+04   0.145E-03 -.278E+02 0.113E+04   -.123E-06 0.185E+01 -.140E+01   0.271E-04 -.888E-01 0.679E+00
   0.170E+02 0.979E+01 -.114E+04   -.160E+02 -.926E+01 0.113E+04   -.849E+00 -.490E+00 0.928E+00   -.121E+00 -.697E-01 0.617E+00
   0.449E+00 0.260E+00 -.113E+04   -.358E+00 -.207E+00 0.113E+04   -.779E-01 -.450E-01 0.847E+00   0.978E-02 0.470E-02 0.650E+00
   -.449E+00 0.260E+00 -.113E+04   0.358E+00 -.207E+00 0.113E+04   0.779E-01 -.450E-01 0.847E+00   -.310E-01 0.384E-02 0.651E+00
   -.115E-03 -.196E+02 -.114E+04   0.242E-03 0.185E+02 0.113E+04   -.653E-07 0.980E+00 0.928E+00   0.937E-03 0.139E+00 0.617E+00
   -.451E-04 0.117E-04 -.340E+04   0.366E-04 -.334E-04 0.340E+04   -.710E-17 -.747E-17 0.165E+01   -.224E-03 -.445E-03 0.457E+00
   -.718E+01 -.749E+01 -.339E+04   0.693E+01 0.640E+01 0.339E+04   0.354E-01 0.642E+00 0.198E+01   0.631E-01 0.144E+00 0.525E+00
   0.718E+01 -.749E+01 -.339E+04   -.693E+01 0.640E+01 0.339E+04   -.354E-01 0.642E+00 0.198E+01   -.622E-01 0.145E+00 0.524E+00
   -.101E+02 -.247E+01 -.339E+04   0.901E+01 0.280E+01 0.339E+04   0.574E+00 -.290E+00 0.198E+01   0.156E+00 -.174E-01 0.525E+00
   0.101E+02 -.247E+01 -.339E+04   -.901E+01 0.280E+01 0.339E+04   -.574E+00 -.290E+00 0.198E+01   -.157E+00 -.165E-01 0.525E+00
   -.290E+01 0.997E+01 -.339E+04   0.208E+01 -.920E+01 0.339E+04   0.538E+00 -.352E+00 0.198E+01   0.952E-01 -.126E+00 0.524E+00
   0.290E+01 0.997E+01 -.339E+04   -.208E+01 -.920E+01 0.339E+04   -.538E+00 -.352E+00 0.198E+01   -.923E-01 -.127E+00 0.524E+00
   -.158E-03 -.310E-04 -.341E+04   0.255E-03 0.466E-05 0.340E+04   0.236E-17 0.137E-17 0.217E+01   -.128E-01 -.638E-02 0.562E+00
   -.323E-04 -.181E-04 -.227E+04   0.102E-03 0.192E-04 0.227E+04   0.220E-17 0.131E-17 0.314E+01   0.162E-02 0.777E-03 0.375E+00
   0.188E-03 -.803E-04 -.208E+04   0.148E-04 0.726E-05 0.206E+04   0.166E-17 -.743E-18 0.188E+02   0.321E-02 0.195E-02 -.871E-01
   0.467E-05 -.134E-04 -.385E+03   0.567E-06 0.490E-06 0.394E+03   -.227E-18 -.267E-19 -.842E+01   0.176E-03 0.107E-03 -.273E-01
   -.936E-04 -.112E-03 -.138E+02   0.177E-12 0.471E-12 -.847E-11   0.672E-15 -.331E-15 0.532E+01   -.225E-01 -.440E-02 0.841E+01

 POSITION                                       TOTAL-FORCE (eV/Angst)
      0.00000      0.00000      5.37156        -0.000000      0.000000     -0.017608
      2.56560      0.00000      5.37156        -0.005237      0.018859      0.060808
      5.13119      0.00000      5.37156         0.005237      0.018859      0.060808
      1.28280      2.22187      5.37156         0.013714     -0.013965      0.060808
      3.84839      2.22187      5.37156        -0.000000      0.000000      0.025033
      6.41399      2.22187      5.37156        -0.013714     -0.013965      0.060808
      2.56560      4.44374      5.37156         0.018951     -0.004895      0.060808
      5.13119      4.44374      5.37156        -0.018951     -0.004895      0.060808
      7.69679      4.44374      5.37156        -0.000000      0.000000      0.006232
      1.28280      0.74062      7.46636         0.007152      0.004129     -0.053458
      3.84839      0.74062      7.46636         0.000000     -0.063596     -0.087290
      6.41399      0.74062      7.46636        -0.007152      0.004129     -0.053458
      2.56560      2.96249      7.46636        -0.055076      0.031798     -0.087290
      5.13119      2.96249      7.46636         0.055076      0.031798     -0.087290
      7.69679      2.96249      7.46636         0.000000     -0.029745      0.019503
      3.84839      5.18437      7.46636         0.000000     -0.008258     -0.053458
      6.41399      5.18437      7.46636        -0.025760      0.014873      0.019503
      8.97958      5.18437      7.46636         0.025760      0.014873      0.019503
      7.69679      1.48657      9.56400         0.000000     -0.038403     -0.029391
      2.55408      1.47460      9.52990         0.057442      0.033164     -0.070241
      5.14271      1.47460      9.52990        -0.057442      0.033164     -0.070241
      8.97350      3.70663      9.56526         0.051563     -0.029770     -0.021141
      3.84839      3.71642      9.52990         0.000000     -0.066329     -0.070241
      6.42007      3.70663      9.56526        -0.051563     -0.029770     -0.021141
     10.25777      5.92233      9.56400         0.033258      0.019202     -0.029391
      5.13580      5.92233      9.56400        -0.033258      0.019202     -0.029391
      7.69679      5.91797      9.56526        -0.000000      0.059540     -0.021141
      0.00000      0.00000     11.64184        -0.000000      0.000000      0.017975
      2.56182      0.00242     11.67254        -0.156200     -0.306041     -0.210281
      5.13496      0.00242     11.67254         0.156200     -0.306041     -0.210281
      1.28301      2.21740     11.67254        -0.343139      0.017747     -0.210281
      6.41378      2.21740     11.67254         0.343139      0.017747     -0.210281
      2.56958      4.44580     11.67254        -0.186939      0.288293     -0.210281
      5.12721      4.44580     11.67254         0.186939      0.288293     -0.210281
      7.69679      4.44374     11.64035        -0.000000      0.000000      0.057143
      3.84839      2.22187     11.57579        -0.000000      0.000000      1.557665
      3.84839      2.22187     13.51318        -0.000000      0.000000     -0.020692
      3.84839      2.22187     14.47808        -0.000000      0.000000     -0.002854
    total drift:                               -0.022620     -0.004511     -0.025753

  FREE ENERGIE OF THE ION-ELECTRON SYSTEM (eV)
  free  energy   TOTEN  =      -141.76546506 eV

  energy  without entropy=     -141.76546506  energy(sigma->0) =     -141.76546506

 stress matrix after NEB project (eV)
     -5.55623      0.00000      0.00000
      0.00000     -5.55623     -0.00000
     -0.00000     -0.00000      0.39079
  FORCES: max atom, RMS     0.020692    0.003388
  FORCE total and by dimension    0.020888    0.020692
  Stress total and by dimension    7.867405    5.556228
|           W    W    AA    RRRRR   N    N  II  N    N   GGGG   !!!           |
|           W    W   A  A   R    R  NN   N  II  NN   N  G    G  !!!           |
|           W    W  A    A  R    R  N N  N  II  N N  N  G       !!!           |
|           W WW W  AAAAAA  RRRRR   N  N N  II  N  N N  G  GGG   !            |
|           WW  WW  A    A  R   R   N   NN  II  N   NN  G    G                |
|           W    W  A    A  R    R  N    N  II  N    N   GGGG   !!!           |
|     Tetrahedron method does not include variations of the Fermi             |
|     occupations, so forces and stress will be inaccurate. We suggest        |
|     using a different smearing scheme ISMEAR = 1 or 2 for metals in         |
|     relaxations.                                                            |

 total charge

# of ion       s       p       d       tot
    1        0.449   0.285   9.189   9.923
    2        0.449   0.285   9.186   9.921
    3        0.449   0.285   9.186   9.921
    4        0.449   0.285   9.186   9.921
    5        0.448   0.286   9.181   9.916
    6        0.449   0.285   9.186   9.921
    7        0.449   0.285   9.186   9.921
    8        0.449   0.285   9.186   9.921
    9        0.447   0.283   9.188   9.918
   10        0.444   0.373   9.175   9.992
   11        0.443   0.367   9.184   9.994
   12        0.444   0.373   9.175   9.992
   13        0.443   0.367   9.184   9.994
   14        0.443   0.367   9.184   9.994
   15        0.438   0.368   9.181   9.987
   16        0.444   0.373   9.175   9.992
   17        0.438   0.368   9.181   9.987
   18        0.438   0.368   9.181   9.987
   19        0.439   0.367   9.184   9.990
   20        0.462   0.406   9.157  10.026
   21        0.462   0.406   9.157  10.026
   22        0.431   0.368   9.186   9.985
   23        0.462   0.406   9.157  10.026
   24        0.431   0.368   9.186   9.985
   25        0.439   0.367   9.184   9.990
   26        0.439   0.367   9.184   9.990
   27        0.431   0.368   9.186   9.985
   28        0.452   0.289   9.186   9.927
   29        0.451   0.307   9.181   9.939
   30        0.451   0.307   9.181   9.939
   31        0.451   0.307   9.181   9.939
   32        0.451   0.307   9.181   9.939
   33        0.451   0.307   9.181   9.939
   34        0.451   0.307   9.181   9.939
   35        0.441   0.294   9.187   9.922
   36        0.637   0.584   5.997   7.218
   37        1.542   3.539   0.000   5.080
   38        0.602   0.128   0.000   0.730
tot         18.386  15.992 327.332 361.710

 BZINTS: Fermi energy:    0.338943;  400.000000 electrons
         Band energy:-0.103728E+04;  BLOECHL correction:   -0.040505