 vasp.6.2.0 18Jan21 (build Jun 12 2021 23:27:24) complex

 executed on             LinuxIFC date 2022.05.27  05:27:11

 INCAR:
   ISMEAR = -5
   SIGMA = 0.1
   ISPIN = 1
   EDIFF = 1.d-5
   EDIFFG = -0.01
   NSW = 0
   NELM = 150
   ENCUT = 500
   ISIF = 2
   IBRION = 2
   LREAL = Auto
   ALGO = Fast
   ICHARG = 11
   LORBIT = 10
   LCHARG = .F.
   LWAVE = .F.

 POTCAR:    PAW_PBE Ag 02Apr2005
 POTCAR:    PAW_PBE Ti 08Apr2002
 POTCAR:    PAW_PBE H 15Jun2001
|           W    W    AA    RRRRR   N    N  II  N    N   GGGG   !!!           |
|           W    W   A  A   R    R  NN   N  II  NN   N  G    G  !!!           |
|           W    W  A    A  R    R  N N  N  II  N N  N  G       !!!           |
|           W WW W  AAAAAA  RRRRR   N  N N  II  N  N N  G  GGG   !            |
|           WW  WW  A    A  R   R   N   NN  II  N   NN  G    G                |
|           W    W  A    A  R    R  N    N  II  N    N   GGGG   !!!           |
|     For optimal performance we recommend to set                             |
|       NCORE = 2 up to number-of-cores-per-socket                            |
|     This setting can greatly improve the performance of VASP for DFT.       |
|     The default, NCORE=1 might be grossly inefficient on modern             |
|     multi-core architectures or massively parallel machines. Do your        |
|     Unfortunately you need to use the default for GW and RPA                |
|     calculations (for HF NCORE is supported but not extensively tested      |
|     yet).                                                                   |

 POTCAR:    PAW_PBE Ag 02Apr2005
   VRHFIN =Ag : s1 d10

   TITEL  = PAW_PBE Ag 02Apr2005
   POMASS =  107.868; ZVAL   =   11.000    mass and valenz
   ENMAX  =  249.844; ENMIN  =  187.383 eV

 POTCAR:    PAW_PBE Ti 08Apr2002
   VRHFIN =Ti: d3 s1

   TITEL  = PAW_PBE Ti 08Apr2002
   POMASS =   47.880; ZVAL   =    4.000    mass and valenz
   ENMAX  =  178.330; ENMIN  =  133.747 eV

 POTCAR:    PAW_PBE H 15Jun2001
   VRHFIN =H: ultrasoft test

   TITEL  = PAW_PBE H 15Jun2001
   POMASS =    1.000; ZVAL   =    1.000    mass and valenz
   ENMAX  =  250.000; ENMIN  =  200.000 eV

 Optimization of the real space projectors (new method)

 maximal supplied QI-value         = 15.12
 optimisation between [QCUT,QGAM] = [ 11.34, 22.83] = [ 36.00,145.93] Ry
 Optimized for a Real-space Cutoff    1.43 Angstroem

   l    n(q)    QCUT    max X(q) W(low)/X(q) W(high)/X(q)  e(spline)
   2      9    11.338    53.897    0.16E-03    0.20E-03    0.28E-06
   2      9    11.338    52.416    0.16E-03    0.20E-03    0.29E-06
   0     10    11.338   122.045    0.31E-04    0.76E-04    0.15E-06
   0     10    11.338    73.629    0.30E-04    0.72E-04    0.15E-06
   1      9    11.338    15.255    0.20E-03    0.19E-04    0.17E-06
   1      9    11.338     9.562    0.16E-03    0.15E-04    0.14E-06
 Optimization of the real space projectors (new method)

[...]

   l    n(q)    QCUT    max X(q) W(low)/X(q) W(high)/X(q)  e(spline)
   2     10    11.404    49.363    0.27E-03    0.67E-03    0.76E-06
   2     10    11.404    47.669    0.26E-03    0.65E-03    0.73E-06
   0     11    11.404    26.374    0.17E-03    0.20E-03    0.34E-06
   0     11    11.404    11.549    0.14E-03    0.16E-03    0.29E-06
   1     10    11.404     9.492    0.33E-04    0.56E-04    0.16E-06
 Optimization of the real space projectors (new method)

 maximal supplied QI-value         = 34.20
 optimisation between [QCUT,QGAM] = [ 11.29, 22.57] = [ 35.68,142.71] Ry
 Optimized for a Real-space Cutoff    1.16 Angstroem

   l    n(q)    QCUT    max X(q) W(low)/X(q) W(high)/X(q)  e(spline)
   0      8    11.287    19.460    0.40E-03    0.73E-03    0.16E-06
   0      8    11.287    12.209    0.38E-03    0.70E-03    0.15E-06
   1      7    11.287     4.655    0.22E-03    0.25E-04    0.22E-06
  PAW_PBE Ag 02Apr2005                  :
  PAW_PBE Ti 08Apr2002                  :
  PAW_PBE H 15Jun2001                   :

 POSCAR: Ag-Ti-H2
  positions in direct lattice
  velocities in cartesian coordinates
 exchange correlation table for  LEXCH =        8
   RHO(1)=    0.500       N(1)  =     2000
   RHO(2)=  100.500       N(2)  =     4000

 VTST: version 3.2, (02/03/18)

 CHAIN: initializing optimizer

 OPT: Using VASP Conjugate-Gradient optimizer
 CHAIN: Read ICHAIN            0

 POSCAR: Ag-Ti-H2
  positions in direct lattice
  velocities in cartesian coordinates

 ion  position               nearest neighbor table
   1  0.000  0.000  0.238-   2 2.93   8 2.93   7 2.93   6 2.93   4 2.93  12 2.93  16 2.93  10 2.93
                             3 2.93
   2  0.333  0.000  0.238-   1 2.93   8 2.93   9 2.93   3 2.93   4 2.93   5 2.93  10 2.93  17 2.93
                            11 2.93
   3  0.667  0.000  0.238-   9 2.93   2 2.93   5 2.93  11 2.93   7 2.93  18 2.93   1 2.93   6 2.93
                            12 2.93
   4  0.000  0.333  0.238-   5 2.93   6 2.93   2 2.93   1 2.93   7 2.93  13 2.93  15 2.93   9 2.93
                            10 2.93
   5  0.333  0.333  0.238-   4 2.93   3 2.93   7 2.93   2 2.93   8 2.93  14 2.93  13 2.93  11 2.93
                             6 2.93
   6  0.667  0.333  0.238-   4 2.93   9 2.93   1 2.93  15 2.93   8 2.93  12 2.93   3 2.93   5 2.93
                            14 2.93
   7  0.000  0.667  0.238-   8 2.93   1 2.93   5 2.93   3 2.93   4 2.93  16 2.93  18 2.93  13 2.93
                             9 2.93
   8  0.333  0.667  0.238-   7 2.93   1 2.93   2 2.93   9 2.93   5 2.93  16 2.93   6 2.93  17 2.93
                            14 2.93
   9  0.667  0.667  0.238-   3 2.93   2 2.93   8 2.93   6 2.93  17 2.93   4 2.93  15 2.93   7 2.93
                            18 2.93
  10  0.111  0.111  0.346-  20 2.91  19 2.92  26 2.92  12 2.93  16 2.93  15 2.93  17 2.93  13 2.93
                            11 2.93   2 2.93   1 2.93   4 2.93
  11  0.444  0.111  0.346-  21 2.91  20 2.91  27 2.92  14 2.93  17 2.93  18 2.93   3 2.93  12 2.93
                            13 2.93  10 2.93   5 2.93   2 2.93
  12  0.778  0.111  0.346-  21 2.91  25 2.92  19 2.92  10 2.93  16 2.93  18 2.93  15 2.93  11 2.93
                             1 2.93  14 2.93   6 2.93   3 2.93
  13  0.111  0.444  0.346-  20 2.91  23 2.91  22 2.92  15 2.93  14 2.93  18 2.93  10 2.93  11 2.93
                            16 2.93   4 2.93   5 2.93   7 2.93
  14  0.444  0.444  0.346-  23 2.91  21 2.91  24 2.92  13 2.93  11 2.93  16 2.93   5 2.93  12 2.93
                            17 2.93   8 2.93  15 2.93   6 2.93
  15  0.778  0.444  0.346-  19 2.92  24 2.92  22 2.92  13 2.93  10 2.93  12 2.93  17 2.93  18 2.93
                             4 2.93   6 2.93   9 2.93  14 2.93
  16  0.111  0.778  0.346-  23 2.91  26 2.92  25 2.92  18 2.93  12 2.93  10 2.93  14 2.93  17 2.93
                            13 2.93   7 2.93   8 2.93   1 2.93
  17  0.444  0.778  0.346-  26 2.92  27 2.92  24 2.92  11 2.93  10 2.93   9 2.93  18 2.93  15 2.93
                            16 2.93   2 2.93  14 2.93   8 2.93
  18  0.778  0.778  0.346-  25 2.92  22 2.92  27 2.92  16 2.93  12 2.93  13 2.93  11 2.93  17 2.93
                            15 2.93   7 2.93   3 2.93   9 2.93
  19  0.889  0.222  0.453-  10 2.92  12 2.92  15 2.92  28 2.92  26 2.93  25 2.93  24 2.93  22 2.93
                            20 2.94  21 2.94  32 2.96  31 2.96
  20  0.223  0.223  0.453-  36 2.82  13 2.91  11 2.91  10 2.91  21 2.92  23 2.92  27 2.93  22 2.93
                            19 2.94  26 2.94  31 2.94  29 2.94
  21  0.555  0.223  0.453-  36 2.82  11 2.91  14 2.91  12 2.91  20 2.92  23 2.92  27 2.93  24 2.93
                            25 2.94  19 2.94  30 2.94  32 2.94
  22  0.889  0.556  0.453-  18 2.92  15 2.92  13 2.92  24 2.93  27 2.93  25 2.93  19 2.93  35 2.93
                            23 2.93  20 2.93  33 2.94  31 2.94
  23  0.223  0.555  0.453-  36 2.82  14 2.91  13 2.91  16 2.91  21 2.92  20 2.92  22 2.93  24 2.93
                            26 2.94  25 2.94  34 2.94  33 2.94
  24  0.556  0.556  0.453-  15 2.92  17 2.92  14 2.92  27 2.93  22 2.93  19 2.93  26 2.93  35 2.93
                            23 2.93  21 2.93  32 2.94  34 2.94
  25  0.889  0.889  0.453-  16 2.92  12 2.92  18 2.92  28 2.92  26 2.93  19 2.93  22 2.93  27 2.93
                            23 2.94  21 2.94  33 2.96  30 2.96
  26  0.222  0.889  0.453-  16 2.92  10 2.92  17 2.92  28 2.92  25 2.93  19 2.93  27 2.93  24 2.93
                            23 2.94  20 2.94  34 2.96  29 2.96
  27  0.556  0.889  0.453-  17 2.92  18 2.92  11 2.92  24 2.93  22 2.93  26 2.93  25 2.93  35 2.93
                            20 2.93  21 2.93  29 2.94  30 2.94
  28  0.000  0.000  0.561-  26 2.92  25 2.92  19 2.92  29 2.95  34 2.95  33 2.95  32 2.95  31 2.95
                            30 2.95
  29  0.334  0.004  0.562-  30 2.89  31 2.90  36 2.90  20 2.94  27 2.94  35 2.95  28 2.95  26 2.96
                            34 3.00
  30  0.662  0.004  0.562-  29 2.89  32 2.90  36 2.90  21 2.94  27 2.94  35 2.95  28 2.95  25 2.96
                            33 3.00
  31  0.004  0.334  0.562-  33 2.89  29 2.90  36 2.90  20 2.94  22 2.94  35 2.95  28 2.95  19 2.96
                            32 3.00
  32  0.662  0.334  0.562-  34 2.89  30 2.90  36 2.90  21 2.94  24 2.94  35 2.95  28 2.95  19 2.96
                            31 3.00
  33  0.004  0.662  0.562-  31 2.89  34 2.90  36 2.90  23 2.94  22 2.94  35 2.95  28 2.95  25 2.96
                            30 3.00
  34  0.334  0.662  0.562-  32 2.89  33 2.90  36 2.90  23 2.94  24 2.94  35 2.95  28 2.95  26 2.96
                            29 3.00
  35  0.667  0.667  0.562-  24 2.93  27 2.93  22 2.93  30 2.95  32 2.95  29 2.95  34 2.95  31 2.95
                            33 2.95
  36  0.333  0.333  0.555-  37 1.96  38 1.96  21 2.82  20 2.82  23 2.82  31 2.90  33 2.90  30 2.90
                            29 2.90  34 2.90  32 2.90
  37  0.285  0.336  0.641-  38 0.82  36 1.96
  38  0.378  0.336  0.641-  37 0.82  36 1.96

  LATTYP: Found a hexagonal cell.
 ALAT       =     8.7913665772
 C/A-ratio  =     2.5227160501

  Lattice vectors:

 A1 = (  -4.3956832886,  -7.6135467898,   0.0000000000)
 A2 = (   8.7913665771,   0.0000000000,   0.0000000000)
 A3 = (   0.0000000000,   0.0000000000,  22.1781215668)

Analysis of symmetry for initial positions (statically):
 Subroutine PRICEL returns:
 Original cell was already a primitive cell.

 Routine SETGRP: Setting up the symmetry group for a
 hexagonal supercell.

 Subroutine GETGRP returns: Found  2 space group operations
 (whereof  2 operations were pure point group operations)
 out of a pool of 24 trial point group operations.

The static configuration has the point symmetry C_1h.

Analysis of symmetry for dynamics (positions and initial velocities):
 Subroutine PRICEL returns:
 Original cell was already a primitive cell.

[...]

The dynamic configuration has the point symmetry C_1h.

Analysis of constrained symmetry for selective dynamics:
 Subroutine PRICEL returns:
 Original cell was already a primitive cell.

 Routine SETGRP: Setting up the symmetry group for a
 hexagonal supercell.

 Subroutine GETGRP returns: Found  2 space group operations
 (whereof  2 operations were pure point group operations)
[...]
     33      -4.4844      2.00000
     34      -4.4412      2.00000
     35      -4.4280      2.00000
     36      -4.4019      2.00000
     37      -4.3915      2.00000
     38      -4.3526      2.00000
     39      -4.3199      2.00000
     40      -4.3158      2.00000
     41      -4.3100      2.00000
     42      -4.3043      2.00000
     43      -4.2884      2.00000
     44      -4.1937      2.00000
     45      -4.1711      2.00000
     46      -4.1609      2.00000
     47      -4.1558      2.00000
     48      -4.1507      2.00000
     49      -4.1451      2.00000
     50      -4.1399      2.00000
     51      -4.1297      2.00000
     52      -4.1203      2.00000
     53      -4.1064      2.00000
     54      -4.0468      2.00000
     55      -4.0369      2.00000
     56      -4.0307      2.00000
     57      -4.0186      2.00000
     58      -4.0077      2.00000
     59      -3.9917      2.00000
     60      -3.9603      2.00000
[...]
    238       6.8183      0.00000
    239       7.0344      0.00000
    240       7.1397      0.00000
    241       7.1942      0.00000
    242       7.2434      0.00000
    243       7.2742      0.00000
    244       7.2859      0.00000
    245       7.2942      0.00000
    246       7.3817      0.00000
    247       7.5121      0.00000
    248       7.5703      0.00000
    249       7.5883      0.00000
    250       7.7842      0.00000
    251       7.9100      0.00000
    252       8.0389      0.00000

 soft charge-density along one line, spin component           1
         0         1         2         3         4         5         6         7         8         9
 total charge-density along one line

------------------------ aborting loop because EDIFF is reached ----------------------------------------

 total charge

# of ion       s       p       d       tot
    1        0.421   0.201   9.178   9.799
    2        0.415   0.204   9.177   9.796
    3        0.415   0.204   9.177   9.796
    4        0.414   0.204   9.178   9.796
    5        0.421   0.203   9.175   9.798
    6        0.414   0.204   9.178   9.796
    7        0.414   0.204   9.177   9.796
    8        0.414   0.204   9.177   9.796
    9        0.417   0.202   9.178   9.797
   10        0.410   0.269   9.162   9.841
   11        0.408   0.267   9.168   9.843
   12        0.410   0.269   9.162   9.841
   13        0.406   0.267   9.169   9.842
   14        0.406   0.267   9.169   9.842
   15        0.404   0.269   9.164   9.837
   16        0.410   0.269   9.162   9.841
   17        0.403   0.269   9.165   9.837
   18        0.403   0.269   9.165   9.837
   19        0.404   0.267   9.164   9.835
   20        0.436   0.293   9.136   9.865
   21        0.436   0.293   9.136   9.865
   22        0.396   0.273   9.164   9.834
   23        0.434   0.292   9.138   9.864
   24        0.396   0.273   9.164   9.834
   25        0.405   0.265   9.165   9.835
   26        0.405   0.265   9.165   9.835
   27        0.398   0.272   9.165   9.835
   28        0.409   0.202   9.175   9.786
   29        0.444   0.214   9.153   9.811
   30        0.444   0.214   9.153   9.811
   31        0.441   0.216   9.153   9.810
   32        0.441   0.216   9.153   9.810
   33        0.443   0.214   9.154   9.811
   34        0.443   0.214   9.154   9.811
   35        0.407   0.202   9.177   9.786
   36        0.411   0.465   2.284   3.159
   37        0.570   0.028   0.000   0.598
   38        0.570   0.028   0.000   0.598
tot         16.140   8.952 323.032 348.124

  FORCE on cell =-STRESS in cart. coord.  units (eV):
  Direction    XX          YY          ZZ          XY          YZ          ZX
  Alpha Z   737.34010   737.34010   737.34010
  Ewald  118294.10434118276.80686************    -0.00002    -0.45343    -0.00001
  Hartree128306.21903128304.43307************    -0.00001    -0.43143    -0.00001
  E(xc)   -2049.52484 -2049.28920 -2055.75293    -0.00002    -0.02639     0.00000
  Local  ************************257679.33709     0.00036     0.82352    -0.00003
  n-local  -321.85467  -319.89088  -325.02112     2.23593    -0.23224     0.15148
  augment  3224.69697  3223.96365  3237.92677    -0.00015     0.09177    -0.00001
  Kinetic  4801.21764  4804.73639  4838.70841     0.58974     0.10825    -0.04853
  Fock        0.00000     0.00000     0.00000     0.00000     0.00000     0.00000
  Total      -9.29430    -9.12783    -0.38386    -0.00000    -0.11994    -0.00000
  in kB     -10.03134    -9.85168    -0.41430    -0.00000    -0.12945    -0.00000

 VOLUME and BASIS-vectors are now :
  energy-cutoff  :      500.00
  volume of cell :     1484.46
      direct lattice vectors                 reciprocal lattice vectors
     8.791366577  0.000000000  0.000000000     0.113747958 -0.065672414  0.000000000
     4.395683289  7.613546790  0.000000000     0.000000000  0.131344829  0.000000000
     0.000000000  0.000000000 22.178121567     0.000000000  0.000000000  0.045089481

  length of vectors
     8.791366577  8.791366577 22.178121567     0.131344829  0.131344829  0.045089481

 FORCES acting on ions
    electron-ion (+dipol)            ewald-force                    non-local-force                 convergence-correction
   0.460E-04 0.634E-01 0.247E+04   -.953E-04 -.807E-03 -.247E+04   -.301E-12 -.459E-01 -.180E+01   -.831E-04 -.182E-01 0.957E-01
   -.349E+00 -.323E+00 0.247E+04   0.275E+00 0.302E+00 -.247E+04   0.571E-01 0.116E+00 -.158E+01   0.206E-01 -.955E-01 0.196E+00
   0.349E+00 -.323E+00 0.247E+04   -.274E+00 0.302E+00 -.247E+04   -.571E-01 0.116E+00 -.158E+01   -.211E-01 -.936E-01 0.197E+00
   -.471E+00 -.144E+00 0.247E+04   0.399E+00 0.853E-01 -.247E+04   0.154E+00 -.261E-01 -.166E+01   -.781E-01 0.829E-01 0.172E+00
   -.770E-05 0.196E-01 0.247E+04   0.981E-04 -.107E-02 -.247E+04   -.106E-12 -.161E-01 -.118E+01   0.618E-02 -.319E-04 0.363E+00
   0.471E+00 -.144E+00 0.247E+04   -.400E+00 0.853E-01 -.247E+04   -.154E+00 -.261E-01 -.166E+01   0.767E-01 0.838E-01 0.173E+00
   -.761E-01 0.433E+00 0.247E+04   0.125E+00 -.387E+00 -.247E+04   0.646E-01 -.795E-01 -.161E+01   -.111E+00 0.312E-01 0.184E+00
   0.762E-01 0.433E+00 0.247E+04   -.125E+00 -.387E+00 -.247E+04   -.646E-01 -.795E-01 -.161E+01   0.112E+00 0.303E-01 0.184E+00
   0.364E-04 0.746E-02 0.247E+04   0.791E-04 0.185E-02 -.247E+04   0.142E-12 0.217E-01 -.165E+01   -.663E-02 -.271E-01 0.175E+00
   -.220E+01 -.128E+01 0.795E+03   0.241E+01 0.138E+01 -.795E+03   -.237E+00 -.145E+00 -.712E+00   0.177E-01 0.377E-01 0.159E+00
   -.284E-04 -.265E+01 0.789E+03   0.405E-04 0.258E+01 -.789E+03   0.492E-12 0.749E-01 -.262E+00   0.611E-02 -.427E-01 0.123E+00
   0.220E+01 -.128E+01 0.795E+03   -.241E+01 0.138E+01 -.795E+03   0.237E+00 -.145E+00 -.712E+00   -.191E-01 0.384E-01 0.158E+00
   -.234E+01 0.132E+01 0.789E+03   0.224E+01 -.129E+01 -.789E+03   0.111E+00 -.521E-01 -.249E+00   -.382E-01 0.446E-01 0.131E+00
   0.234E+01 0.132E+01 0.789E+03   -.224E+01 -.129E+01 -.789E+03   -.111E+00 -.521E-01 -.249E+00   0.484E-01 0.437E-01 0.129E+00
   0.152E-04 0.395E-01 0.796E+03   -.107E-03 -.118E+00 -.795E+03   0.999E-13 0.152E-01 -.761E+00   -.131E-02 0.484E-01 0.107E+00
   -.817E-05 0.252E+01 0.795E+03   0.206E-04 -.277E+01 -.795E+03   0.204E-11 0.310E+00 -.634E+00   -.142E-03 -.461E-01 0.195E+00
   -.168E-01 -.207E-02 0.795E+03   -.104E+00 0.705E-01 -.795E+03   0.447E-01 -.647E-02 -.645E+00   0.618E-01 -.588E-01 0.142E+00
   0.168E-01 -.211E-02 0.795E+03   0.103E+00 0.706E-01 -.795E+03   -.447E-01 -.647E-02 -.645E+00   -.618E-01 -.572E-01 0.143E+00
   0.385E-04 -.624E+01 -.888E+03   -.124E-03 0.626E+01 0.887E+03   0.156E-12 0.237E-01 0.710E+00   0.567E-02 -.292E-01 -.180E-02
   -.365E+02 -.208E+02 -.931E+03   0.377E+02 0.216E+02 0.932E+03   -.108E+01 -.654E+00 -.826E+00   -.115E+00 -.153E+00 -.929E-01
   0.365E+02 -.208E+02 -.931E+03   -.377E+02 0.216E+02 0.932E+03   0.108E+01 -.654E+00 -.826E+00   0.113E+00 -.153E+00 -.936E-01
   -.174E+02 0.993E+01 -.892E+03   0.173E+02 -.993E+01 0.892E+03   0.149E+00 -.911E-01 0.366E+00   -.416E-01 0.813E-01 -.808E-01
   -.507E-04 0.420E+02 -.932E+03   0.346E-04 -.434E+02 0.932E+03   0.806E-11 0.123E+01 -.638E+00   -.101E-02 0.209E+00 0.398E-01
   0.174E+02 0.993E+01 -.892E+03   -.173E+02 -.993E+01 0.892E+03   -.149E+00 -.911E-01 0.366E+00   0.523E-01 0.820E-01 -.808E-01
   0.546E+01 0.319E+01 -.888E+03   -.548E+01 -.315E+01 0.887E+03   -.129E-01 -.134E-01 0.745E+00   0.384E-01 -.213E-01 0.507E-01
   -.546E+01 0.319E+01 -.888E+03   0.548E+01 -.315E+01 0.887E+03   0.129E-01 -.134E-01 0.745E+00   -.292E-01 -.203E-01 0.511E-01
   0.191E-04 -.202E+02 -.893E+03   0.110E-03 0.200E+02 0.892E+03   0.121E-11 0.184E+00 0.417E+00   0.424E-02 -.443E-01 -.314E-01
   0.536E-04 0.214E+00 -.248E+04   -.114E-03 -.194E+00 0.248E+04   0.209E-12 0.319E-01 0.183E+01   0.267E-03 -.598E-01 -.270E+00
   -.282E+02 -.541E+02 -.249E+04   0.291E+02 0.555E+02 0.249E+04   -.923E+00 -.135E+01 0.104E+01   0.308E-01 -.745E-01 -.248E+00
   0.282E+02 -.541E+02 -.249E+04   -.291E+02 0.555E+02 0.249E+04   0.923E+00 -.135E+01 0.104E+01   -.318E-01 -.738E-01 -.248E+00
   -.600E+02 0.329E+01 -.248E+04   0.618E+02 -.320E+01 0.248E+04   -.170E+01 -.103E+00 0.990E+00   -.784E-01 0.103E-01 -.257E+00
   0.600E+02 0.329E+01 -.248E+04   -.618E+02 -.320E+01 0.248E+04   0.170E+01 -.103E+00 0.990E+00   0.786E-01 0.113E-01 -.257E+00
   -.333E+02 0.506E+02 -.249E+04   0.340E+02 -.521E+02 0.248E+04   -.746E+00 0.145E+01 0.110E+01   0.242E-01 0.651E-01 -.282E+00
   0.333E+02 0.506E+02 -.249E+04   -.340E+02 -.521E+02 0.248E+04   0.746E+00 0.145E+01 0.110E+01   -.230E-01 0.653E-01 -.282E+00
   0.271E-04 -.356E+00 -.249E+04   0.103E-03 0.365E+00 0.249E+04   -.276E-12 -.420E-01 0.196E+01   -.632E-02 0.439E-01 -.223E+00
   -.229E-04 0.312E+00 -.863E+03   0.380E-04 -.327E+00 0.863E+03   -.423E-12 -.644E-01 0.819E+00   0.182E-03 0.494E-02 -.910E-01
   0.149E+02 0.171E+00 -.251E+03   -.190E+02 -.146E+00 0.252E+03   0.404E+01 -.103E-01 -.814E+00   -.696E-02 -.419E-02 0.794E-02
   -.149E+02 0.171E+00 -.251E+03   0.190E+02 -.146E+00 0.252E+03   -.404E+01 -.103E-01 -.814E+00   0.699E-02 -.419E-02 0.793E-02
   0.302E-03 0.282E+00 0.836E+01   0.320E-13 0.104E-13 0.568E-12   -.145E-11 -.220E+00 -.892E+01   0.344E-01 -.623E-01 0.644E+00

 POSITION                                       TOTAL-FORCE (eV/Angst)
      0.00000      0.00000      5.28219        -0.000000     -0.001554     -0.018829
      2.93046      0.00000      5.28219         0.003828      0.000788      0.028924
      5.86091      0.00000      5.28219        -0.003828      0.000788      0.028924
      1.46523      2.53785      5.28219         0.004538     -0.001586      0.022981
      4.39568      2.53785      5.28219         0.000000      0.002394      0.000710
      7.32614      2.53785      5.28219        -0.004538     -0.001586      0.022981
      2.93046      5.07570      5.28219         0.001852     -0.003129      0.027422
      5.86091      5.07570      5.28219        -0.001852     -0.003129      0.027422
      8.79137      5.07570      5.28219         0.000000      0.003861      0.008321
      1.46523      0.84595      7.67490        -0.013046     -0.007463     -0.057521
      4.39568      0.84595      7.67490        -0.000000     -0.039757     -0.060671
      7.32614      0.84595      7.67490         0.013046     -0.007463     -0.057521
      2.93046      3.38380      7.67490        -0.030036      0.024865     -0.067321
      5.86091      3.38380      7.67490         0.030036      0.024865     -0.067321
      8.79137      3.38380      7.67490        -0.000000     -0.014997     -0.012726
      4.39568      5.92165      7.67490         0.000000      0.018883     -0.056316
      7.32614      5.92165      7.67490        -0.013768      0.004020      0.001919
     10.25659      5.92165      7.67490         0.013768      0.004020      0.001919
      8.79137      1.69074     10.05145         0.000000      0.011392      0.044086
      2.93556      1.69484     10.04095        -0.011715      0.016799     -0.022401
      5.85581      1.69484     10.04095         0.011715      0.016799     -0.022401
     10.25435      4.23104     10.05745        -0.003742     -0.008033      0.023274
      4.39568      4.22386     10.04095         0.000000      0.013174     -0.022075
      7.32838      4.23104     10.05745         0.003742     -0.008033      0.023274
     11.72283      6.76818     10.05145        -0.006962      0.003720      0.013376
      5.85990      6.76818     10.05145         0.006962      0.003720      0.013376
      8.79137      6.76501     10.05745         0.000000      0.008286      0.022792
      0.00000      0.00000     12.43413        -0.000000     -0.008042      0.016702
      2.95009      0.02948     12.45917        -0.031005     -0.030307     -0.008122
      5.84128      0.02948     12.45917         0.031005     -0.030307     -0.008122
      1.50057      2.54011     12.45917         0.039456     -0.001743      0.063601
      7.29079      2.54011     12.45917        -0.039456     -0.001743      0.063601
      2.94617      5.04396     12.45917        -0.037516      0.026567     -0.016302
      5.84520      5.04396     12.45917         0.037516      0.026567     -0.016302
      8.79137      5.07570     12.45428         0.000000      0.011652      0.001553
      4.39568      2.53785     12.30230        -0.000000     -0.074571      0.112350
      3.98779      2.56057     14.22236        -0.036120      0.010140     -0.027778
      4.80358      2.56057     14.22236         0.036120      0.010140     -0.027778
    total drift:                                0.034741     -0.000327      0.085299

  FREE ENERGIE OF THE ION-ELECTRON SYSTEM (eV)
  free  energy   TOTEN  =      -102.60626543 eV

  energy  without entropy=     -102.60626543  energy(sigma->0) =     -102.60626543

 stress matrix after NEB project (eV)
     -9.29430     -0.00000     -0.00000
     -0.00000     -9.12783     -0.11994
     -0.00000     -0.11994     -0.38386
  FORCES: max atom, RMS     0.046681    0.010709
  FORCE total and by dimension    0.066016    0.036120
  Stress total and by dimension   13.033704    9.294297
|           W    W    AA    RRRRR   N    N  II  N    N   GGGG   !!!           |
|           W    W   A  A   R    R  NN   N  II  NN   N  G    G  !!!           |
|           W    W  A    A  R    R  N N  N  II  N N  N  G       !!!           |
|           W WW W  AAAAAA  RRRRR   N  N N  II  N  N N  G  GGG   !            |
|           WW  WW  A    A  R   R   N   NN  II  N   NN  G    G                |
|           W    W  A    A  R    R  N    N  II  N    N   GGGG   !!!           |
|     Tetrahedron method does not include variations of the Fermi             |
|     occupations, so forces and stress will be inaccurate. We suggest        |
|     using a different smearing scheme ISMEAR = 1 or 2 for metals in         |
|     relaxations.                                                            |

 total charge

# of ion       s       p       d       tot
    1        0.421   0.201   9.178   9.799
    2        0.415   0.204   9.177   9.796
    3        0.415   0.204   9.177   9.796
    4        0.414   0.204   9.178   9.796
    5        0.421   0.203   9.175   9.798
    6        0.414   0.204   9.178   9.796
    7        0.414   0.204   9.177   9.796
    8        0.414   0.204   9.177   9.796
    9        0.417   0.202   9.178   9.797
   10        0.410   0.269   9.162   9.841
   11        0.408   0.267   9.168   9.843
   12        0.410   0.269   9.162   9.841
   13        0.406   0.267   9.169   9.842
   14        0.406   0.267   9.169   9.842
   15        0.404   0.269   9.164   9.837
   16        0.410   0.269   9.162   9.841
   17        0.403   0.269   9.165   9.837
   18        0.403   0.269   9.165   9.837
   19        0.404   0.267   9.164   9.835
   20        0.436   0.293   9.136   9.865
   21        0.436   0.293   9.136   9.865
   22        0.396   0.273   9.164   9.834
   23        0.434   0.292   9.138   9.864
   24        0.396   0.273   9.164   9.834
   25        0.405   0.265   9.165   9.835
   26        0.405   0.265   9.165   9.835
   27        0.398   0.272   9.165   9.835
   28        0.409   0.202   9.175   9.786
   29        0.444   0.214   9.153   9.811
   30        0.444   0.214   9.153   9.811
   31        0.441   0.216   9.153   9.810
   32        0.441   0.216   9.153   9.810
   33        0.443   0.214   9.154   9.811
   34        0.443   0.214   9.154   9.811
   35        0.407   0.202   9.177   9.786
   36        0.411   0.465   2.284   3.159
   37        0.570   0.028   0.000   0.598
   38        0.570   0.028   0.000   0.598
tot         16.140   8.952 323.032 348.124

 BZINTS: Fermi energy:    0.866076;  391.000000 electrons
         Band energy:-0.127410E+04;  BLOECHL correction:   -0.021907