 vasp.6.2.0 18Jan21 (build Jun 12 2021 23:27:24) complex

 executed on             LinuxIFC date 2022.05.28  01:36:56

 INCAR:
   ISMEAR = -5
   SIGMA = 0.1
   ISPIN = 1
   EDIFF = 1.d-5
   EDIFFG = -0.01
   NSW = 0
   NELM = 150
   ENCUT = 500
   ISIF = 2
   IBRION = 2
   LREAL = Auto
   ALGO = Fast
   ICHARG = 11
   LORBIT = 10
   LCHARG = .F.
   LWAVE = .F.

 POTCAR:    PAW_PBE Ag 02Apr2005
 POTCAR:    PAW_PBE Co 02Aug2007
 POTCAR:    PAW_PBE O 08Apr2002
 POTCAR:    PAW_PBE H 15Jun2001
|           W    W    AA    RRRRR   N    N  II  N    N   GGGG   !!!           |
|           W    W   A  A   R    R  NN   N  II  NN   N  G    G  !!!           |
|           W    W  A    A  R    R  N N  N  II  N N  N  G       !!!           |
|           W WW W  AAAAAA  RRRRR   N  N N  II  N  N N  G  GGG   !            |
|           WW  WW  A    A  R   R   N   NN  II  N   NN  G    G                |
|           W    W  A    A  R    R  N    N  II  N    N   GGGG   !!!           |
|     For optimal performance we recommend to set                             |
|       NCORE = 2 up to number-of-cores-per-socket                            |
|     This setting can greatly improve the performance of VASP for DFT.       |
|     The default, NCORE=1 might be grossly inefficient on modern             |
|     multi-core architectures or massively parallel machines. Do your        |
|     Unfortunately you need to use the default for GW and RPA                |
|     calculations (for HF NCORE is supported but not extensively tested      |
|     yet).                                                                   |

 POTCAR:    PAW_PBE Ag 02Apr2005
   VRHFIN =Ag : s1 d10

   TITEL  = PAW_PBE Ag 02Apr2005
   POMASS =  107.868; ZVAL   =   11.000    mass and valenz
   ENMAX  =  249.844; ENMIN  =  187.383 eV

 POTCAR:    PAW_PBE Co 02Aug2007
   VRHFIN =Co: d8 s1

   TITEL  = PAW_PBE Co 02Aug2007
   POMASS =   58.933; ZVAL   =    9.000    mass and valenz
   ENMAX  =  267.968; ENMIN  =  200.976 eV

 POTCAR:    PAW_PBE O 08Apr2002
   VRHFIN =O: s2p4

   TITEL  = PAW_PBE O 08Apr2002
   POMASS =   16.000; ZVAL   =    6.000    mass and valenz
   ENMAX  =  400.000; ENMIN  =  300.000 eV

 POTCAR:    PAW_PBE H 15Jun2001
   VRHFIN =H: ultrasoft test

   TITEL  = PAW_PBE H 15Jun2001
   POMASS =    1.000; ZVAL   =    1.000    mass and valenz
   ENMAX  =  250.000; ENMIN  =  200.000 eV

 Optimization of the real space projectors (new method)

 maximal supplied QI-value         = 15.12
 optimisation between [QCUT,QGAM] = [ 11.34, 22.83] = [ 36.00,145.93] Ry
 Optimized for a Real-space Cutoff    1.43 Angstroem

   l    n(q)    QCUT    max X(q) W(low)/X(q) W(high)/X(q)  e(spline)
   2      9    11.338    53.897    0.16E-03    0.20E-03    0.28E-06
   2      9    11.338    52.416    0.16E-03    0.20E-03    0.29E-06
   0     10    11.338   122.045    0.31E-04    0.76E-04    0.15E-06
   0     10    11.338    73.629    0.30E-04    0.72E-04    0.15E-06
   1      9    11.338    15.255    0.20E-03    0.19E-04    0.17E-06
   1      9    11.338     9.562    0.16E-03    0.15E-04    0.14E-06
 Optimization of the real space projectors (new method)

[...]

   l    n(q)    QCUT    max X(q) W(low)/X(q) W(high)/X(q)  e(spline)
   0      7    11.387    20.381    0.39E-03    0.13E-02    0.15E-06
   0      7    11.387    15.268    0.42E-03    0.14E-02    0.17E-06
   1      6    11.387     5.964    0.41E-03    0.11E-02    0.17E-06
   1      6    11.387     5.382    0.39E-03    0.87E-03    0.15E-06
 Optimization of the real space projectors (new method)

 maximal supplied QI-value         = 34.20
 optimisation between [QCUT,QGAM] = [ 11.29, 22.57] = [ 35.68,142.71] Ry
 Optimized for a Real-space Cutoff    1.16 Angstroem

   l    n(q)    QCUT    max X(q) W(low)/X(q) W(high)/X(q)  e(spline)
   0      8    11.287    19.460    0.40E-03    0.73E-03    0.16E-06
   0      8    11.287    12.209    0.38E-03    0.70E-03    0.15E-06
   1      7    11.287     4.655    0.22E-03    0.25E-04    0.22E-06
  PAW_PBE Ag 02Apr2005                  :
  PAW_PBE Co 02Aug2007                  :
  PAW_PBE O 08Apr2002                   :
  PAW_PBE H 15Jun2001                   :

 POSCAR: Ag-Co-OOH
  positions in direct lattice
  velocities in cartesian coordinates
 exchange correlation table for  LEXCH =        8
   RHO(1)=    0.500       N(1)  =     2000
   RHO(2)=  100.500       N(2)  =     4000

 VTST: version 3.2, (02/03/18)

 CHAIN: initializing optimizer

 OPT: Using VASP Conjugate-Gradient optimizer
 CHAIN: Read ICHAIN            0

 POSCAR: Ag-Co-OOH
  positions in direct lattice
  velocities in cartesian coordinates

 ion  position               nearest neighbor table
   1  0.000  0.000  0.204-   2 2.93   8 2.93   7 2.93   6 2.93   4 2.93  12 2.93  16 2.93  10 2.93
                             3 2.93
   2  0.333  0.000  0.204-   1 2.93   8 2.93   9 2.93   3 2.93   4 2.93   5 2.93  10 2.93  17 2.93
                            11 2.93
   3  0.667  0.000  0.204-   9 2.93   2 2.93   5 2.93  11 2.93   7 2.93  18 2.93   1 2.93   6 2.93
                            12 2.93
   4  0.000  0.333  0.204-   5 2.93   6 2.93   2 2.93   1 2.93   7 2.93  13 2.93  15 2.93   9 2.93
                            10 2.93
   5  0.333  0.333  0.204-   4 2.93   3 2.93   7 2.93   2 2.93   8 2.93  14 2.93  13 2.93  11 2.93
                             6 2.93
   6  0.667  0.333  0.204-   4 2.93   9 2.93   1 2.93  15 2.93   8 2.93  12 2.93   3 2.93   5 2.93
                            14 2.93
   7  0.000  0.667  0.204-   8 2.93   1 2.93   5 2.93   3 2.93   4 2.93  16 2.93  18 2.93  13 2.93
                             9 2.93
   8  0.333  0.667  0.204-   7 2.93   1 2.93   2 2.93   9 2.93   5 2.93  16 2.93   6 2.93  17 2.93
                            14 2.93
   9  0.667  0.667  0.204-   3 2.93   2 2.93   8 2.93   6 2.93  17 2.93   4 2.93  15 2.93   7 2.93
                            18 2.93
  10  0.111  0.111  0.296-  20 2.92  19 2.93  26 2.93  12 2.93  16 2.93  15 2.93  17 2.93  13 2.93
                            11 2.93   2 2.93   1 2.93   4 2.93
  11  0.444  0.111  0.296-  21 2.90  20 2.90  27 2.92  14 2.93  17 2.93  18 2.93   3 2.93  12 2.93
                            13 2.93  10 2.93   5 2.93   2 2.93
  12  0.778  0.111  0.296-  21 2.92  25 2.93  19 2.93  10 2.93  16 2.93  18 2.93  15 2.93  11 2.93
                             1 2.93  14 2.93   6 2.93   3 2.93
  13  0.111  0.444  0.296-  20 2.90  23 2.90  22 2.92  15 2.93  14 2.93  18 2.93  10 2.93  11 2.93
                            16 2.93   4 2.93   5 2.93   7 2.93
  14  0.444  0.444  0.296-  23 2.90  21 2.90  24 2.92  13 2.93  11 2.93  16 2.93   5 2.93  12 2.93
                            17 2.93   8 2.93  15 2.93   6 2.93
  15  0.778  0.444  0.296-  24 2.91  22 2.91  19 2.92  13 2.93  10 2.93  12 2.93  17 2.93  18 2.93
                             4 2.93   6 2.93   9 2.93  14 2.93
  16  0.111  0.778  0.296-  23 2.92  26 2.93  25 2.93  18 2.93  12 2.93  10 2.93  14 2.93  17 2.93
                            13 2.93   7 2.93   8 2.93   1 2.93
  17  0.444  0.778  0.296-  27 2.91  24 2.91  26 2.92  11 2.93  10 2.93   9 2.93  18 2.93  15 2.93
                            16 2.93   2 2.93  14 2.93   8 2.93
  18  0.778  0.778  0.296-  22 2.91  27 2.91  25 2.92  16 2.93  12 2.93  13 2.93  11 2.93  17 2.93
                            15 2.93   7 2.93   3 2.93   9 2.93
  19  0.889  0.222  0.388-  28 2.91  15 2.92  10 2.93  12 2.93  24 2.93  22 2.93  26 2.93  25 2.93
                            32 2.94  31 2.94  20 2.94  21 2.94
  20  0.223  0.223  0.387-  36 2.69  31 2.89  29 2.89  13 2.90  11 2.90  21 2.91  23 2.91  10 2.92
                            27 2.93  22 2.93  19 2.94  26 2.94
  21  0.554  0.223  0.387-  36 2.69  30 2.89  32 2.89  11 2.90  14 2.90  20 2.91  23 2.91  12 2.92
                            27 2.93  24 2.93  25 2.94  19 2.94
  22  0.888  0.556  0.388-  35 2.91  33 2.91  31 2.91  18 2.91  15 2.91  13 2.92  24 2.92  27 2.92
                            25 2.93  19 2.93  23 2.93  20 2.93
  23  0.223  0.554  0.387-  36 2.69  34 2.89  33 2.89  14 2.90  13 2.90  21 2.91  20 2.91  16 2.92
                            22 2.93  24 2.93  26 2.94  25 2.94
  24  0.556  0.556  0.388-  35 2.91  32 2.91  34 2.91  15 2.91  17 2.91  14 2.92  27 2.92  22 2.92
                            19 2.93  26 2.93  23 2.93  21 2.93
  25  0.889  0.889  0.388-  28 2.91  18 2.92  16 2.93  12 2.93  22 2.93  27 2.93  26 2.93  19 2.93
                            33 2.94  30 2.94  23 2.94  21 2.94
  26  0.222  0.889  0.388-  28 2.91  17 2.92  16 2.93  10 2.93  27 2.93  24 2.93  25 2.93  19 2.93
                            34 2.94  29 2.94  23 2.94  20 2.94
  27  0.556  0.888  0.388-  35 2.91  29 2.91  30 2.91  17 2.91  18 2.91  11 2.92  24 2.92  22 2.92
                            26 2.93  25 2.93  20 2.93  21 2.93
  28  0.000  0.000  0.480-  38 2.21  26 2.91  25 2.91  19 2.91  29 2.97  34 2.97  33 2.97  32 2.97
                            31 2.97  30 2.97
  29  0.333  0.008  0.479-  38 2.28  31 2.86  30 2.86  36 2.87  20 2.89  27 2.91  26 2.94  28 2.97
                            35 2.97  34 3.07
  30  0.659  0.008  0.479-  32 2.86  29 2.86  36 2.87  21 2.89  27 2.91  25 2.94  28 2.97  35 2.97
                            33 3.07
  31  0.008  0.333  0.479-  38 2.39  37 2.43  29 2.86  33 2.86  36 2.87  20 2.89  22 2.91  19 2.94
                            28 2.97  35 2.97  32 3.07
  32  0.659  0.333  0.479-  30 2.86  34 2.86  36 2.87  21 2.89  24 2.91  19 2.94  28 2.97  35 2.97
                            31 3.07
  33  0.008  0.659  0.479-  37 2.25  34 2.86  31 2.86  36 2.87  23 2.89  22 2.91  25 2.94  28 2.97
                            35 2.97  30 3.07
  34  0.333  0.659  0.479-  33 2.86  32 2.86  36 2.87  23 2.89  24 2.91  26 2.94  28 2.97  35 2.97
                            29 3.07
  35  0.667  0.667  0.479-  24 2.91  27 2.91  22 2.91  32 2.97  30 2.97  29 2.97  34 2.97  31 2.97
                            33 2.97
  36  0.333  0.333  0.468-  37 1.68  21 2.69  20 2.69  23 2.69  31 2.87  30 2.87  33 2.87  29 2.87
                            34 2.87  32 2.87
  37  0.206  0.414  0.521-  36 1.68  33 2.25  31 2.43
  38  0.114  0.094  0.539-  39 0.97  28 2.21  29 2.28  31 2.39
  39  0.124  0.073  0.576-  38 0.97

  LATTYP: Found a hexagonal cell.
 ALAT       =     8.7913665772
 C/A-ratio  =     2.9469639759

  Lattice vectors:

 A1 = (  -4.3956832886,  -7.6135467898,   0.0000000000)
 A2 = (   8.7913665771,   0.0000000000,   0.0000000000)
 A3 = (   0.0000000000,   0.0000000000,  25.9078406020)

Analysis of symmetry for initial positions (statically):
 Subroutine PRICEL returns:
 Original cell was already a primitive cell.

 Routine SETGRP: Setting up the symmetry group for a
 hexagonal supercell.

 Subroutine GETGRP returns: Found  1 space group operations
 (whereof  1 operations were pure point group operations)
 out of a pool of 24 trial point group operations.

The static configuration has the point symmetry C_1 .

Analysis of symmetry for dynamics (positions and initial velocities):
 Subroutine PRICEL returns:
 Original cell was already a primitive cell.

[...]

The dynamic configuration has the point symmetry C_1 .

[...]
     41      -5.0559      2.00000
     42      -5.0479      2.00000
     43      -5.0334      2.00000
     44      -5.0216      2.00000
     45      -4.9998      2.00000
     46      -4.9486      2.00000
     47      -4.9226      2.00000
     48      -4.9122      2.00000
     49      -4.9074      2.00000
     50      -4.8890      2.00000
     51      -4.8788      2.00000
     52      -4.8716      2.00000
     53      -4.8635      2.00000
     54      -4.8437      2.00000
     55      -4.8317      2.00000
     56      -4.8068      2.00000
     57      -4.7687      2.00000
     58      -4.7544      2.00000
     59      -4.7454      2.00000
     60      -4.7369      2.00000
[...]
    238       5.2474      0.00000
    239       5.2688      0.00000
    240       5.4857      0.00000
    241       5.5511      0.00000
    242       5.7026      0.00000
    243       5.9158      0.00000
    244       5.9489      0.00000
    245       5.9774      0.00000
    246       6.0062      0.00000
    247       6.1896      0.00000
    248       6.2312      0.00000
    249       6.2803      0.00000
    250       6.3883      0.00000
    251       6.5295      0.00000
    252       6.5568      0.00000

 soft charge-density along one line, spin component           1
         0         1         2         3         4         5         6         7         8         9
 total charge-density along one line

------------------------ aborting loop because EDIFF is reached ----------------------------------------

 total charge

# of ion       s       p       d       tot
    1        0.418   0.203   9.177   9.798
    2        0.417   0.203   9.177   9.797
    3        0.417   0.204   9.177   9.797
    4        0.416   0.203   9.177   9.797
    5        0.415   0.204   9.176   9.796
    6        0.416   0.204   9.176   9.797
    7        0.417   0.202   9.177   9.797
    8        0.417   0.202   9.178   9.797
    9        0.416   0.202   9.178   9.796
   10        0.405   0.268   9.165   9.838
   11        0.404   0.270   9.167   9.841
   12        0.415   0.266   9.162   9.842
   13        0.406   0.269   9.165   9.841
   14        0.402   0.271   9.167   9.839
   15        0.405   0.268   9.165   9.838
   16        0.406   0.268   9.164   9.838
   17        0.406   0.267   9.166   9.839
   18        0.401   0.272   9.163   9.835
   19        0.403   0.270   9.161   9.834
   20        0.416   0.297   9.151   9.865
   21        0.436   0.283   9.150   9.870
   22        0.402   0.273   9.166   9.840
   23        0.415   0.294   9.155   9.865
   24        0.397   0.272   9.169   9.838
   25        0.398   0.277   9.156   9.830
   26        0.403   0.267   9.164   9.834
   27        0.397   0.276   9.164   9.838
   28        0.376   0.242   9.184   9.802
   29        0.367   0.236   9.191   9.794
   30        0.407   0.207   9.179   9.792
   31        0.345   0.232   9.198   9.776
   32        0.405   0.203   9.185   9.793
   33        0.383   0.242   9.173   9.798
   34        0.388   0.195   9.202   9.786
   35        0.411   0.191   9.186   9.788
   36        0.444   0.442   7.377   8.262
   37        1.597   3.281   0.000   4.877
   38        1.556   3.494   0.000   5.050
   39        0.617   0.120   0.000   0.737
tot         18.363  15.840 328.387 362.590

  FORCE on cell =-STRESS in cart. coord.  units (eV):
  Direction    XX          YY          ZZ          XY          YZ          ZX
  Alpha Z   657.68722   657.68722   657.68722
  Ewald  181594.79558181602.40421************    46.84444    14.43344   -68.55309
  Hartree191716.41299191735.68004************    63.96584    -1.00135   -35.44130
  E(xc)   -2138.31717 -2138.39344 -2142.43933    -0.12148     0.00328    -0.04931
  Local  ************************384486.34532  -115.77860   -10.05723    95.67591
  n-local  -377.88770  -378.47892  -382.78932    -1.00647     1.29355    -1.41240
  augment  3391.72973  3392.90064  3393.07456     2.72737    -4.06633     4.96441
  Kinetic  5122.52623  5123.65910  5118.92151     3.30696    -0.52173     4.41904
  Fock        0.00000     0.00000     0.00000     0.00000     0.00000     0.00000
  Total      -5.01412    -5.38081     0.25842    -0.06193     0.08364    -0.39673
  in kB      -4.63266    -4.97146     0.23876    -0.05722     0.07728    -0.36655

 VOLUME and BASIS-vectors are now :
  energy-cutoff  :      500.00
  volume of cell :     1734.10
      direct lattice vectors                 reciprocal lattice vectors
     8.791366577  0.000000000  0.000000000     0.113747958 -0.065672414  0.000000000
     4.395683289  7.613546790  0.000000000     0.000000000  0.131344829  0.000000000
     0.000000000  0.000000000 25.907840602     0.000000000  0.000000000  0.038598354

  length of vectors
     8.791366577  8.791366577 25.907840602     0.131344829  0.131344829  0.038598354

 FORCES acting on ions
    electron-ion (+dipol)            ewald-force                    non-local-force                 convergence-correction
   0.255E-01 0.202E+00 0.284E+04   -.257E+00 -.428E-01 -.283E+04   0.134E+00 -.108E+00 -.183E+01   0.757E-01 -.341E-01 -.416E-01
   0.334E+00 0.962E+00 0.284E+04   -.365E+00 -.851E+00 -.284E+04   0.160E-01 -.617E-01 -.151E+01   0.163E-01 -.429E-01 -.695E-01
   -.306E+00 0.727E+00 0.284E+04   0.623E+00 -.613E+00 -.283E+04   -.194E+00 -.142E-01 -.158E+01   -.104E+00 -.751E-01 -.920E-01
   0.108E+01 -.635E-01 0.284E+04   -.102E+01 -.780E-01 -.284E+04   -.500E-01 0.555E-01 -.175E+01   -.332E-02 0.725E-01 -.104E+00
   -.450E+00 0.153E-01 0.284E+04   0.337E+00 -.509E-01 -.284E+04   0.120E+00 -.302E-01 -.170E+01   -.126E-01 0.649E-01 -.947E-01
   -.640E+00 -.134E+00 0.284E+04   0.679E+00 -.182E+00 -.283E+04   -.790E-01 0.146E+00 -.156E+01   0.290E-01 0.142E+00 -.969E-01
   0.390E+00 -.972E+00 0.284E+04   -.313E+00 0.104E+01 -.284E+04   -.384E-01 0.203E-02 -.189E+01   -.290E-01 -.732E-01 -.107E+00
   -.407E+00 -.720E+00 0.284E+04   0.390E+00 0.694E+00 -.284E+04   -.902E-02 0.480E-01 -.162E+01   0.312E-01 -.236E-01 -.659E-01
   -.151E-01 -.303E-01 0.284E+04   -.771E-01 0.877E-01 -.283E+04   0.913E-01 -.261E-01 -.185E+01   -.114E-01 -.264E-01 -.709E-01
   0.596E+01 0.379E+01 0.102E+04   -.574E+01 -.372E+01 -.102E+04   -.249E+00 -.409E-01 -.676E+00   0.316E-01 -.158E-01 -.331E-01
   -.241E+01 0.780E+01 0.103E+04   0.233E+01 -.790E+01 -.103E+04   0.729E-01 0.865E-01 -.300E+00   0.973E-03 -.317E-01 -.876E-01
   -.349E+01 0.281E+01 0.102E+04   0.341E+01 -.275E+01 -.101E+04   0.980E-01 -.642E-01 -.989E+00   -.991E-02 -.238E-03 -.416E-02
   0.537E+01 -.458E+01 0.103E+04   -.538E+01 0.450E+01 -.103E+04   0.473E-01 0.349E-01 -.698E+00   -.456E-01 0.564E-01 -.934E-01
   -.728E+01 -.294E+01 0.103E+04   0.736E+01 0.297E+01 -.103E+04   -.778E-01 -.528E-01 -.284E+00   0.286E-01 0.515E-01 -.865E-01
   0.179E+01 0.111E-01 0.102E+04   -.198E+01 -.202E+00 -.102E+04   0.151E+00 0.120E+00 -.669E+00   0.188E-01 0.595E-01 -.569E-01
   0.342E+00 -.601E+01 0.102E+04   -.308E+00 0.582E+01 -.102E+04   -.712E-01 0.204E+00 -.740E+00   0.269E-01 -.286E-01 -.195E-01
   0.137E+00 0.678E+00 0.102E+04   -.115E+00 -.595E+00 -.102E+04   -.170E-01 -.644E-01 -.639E+00   -.128E-01 -.233E-01 -.382E-01
   -.410E+00 -.161E+01 0.102E+04   0.424E+00 0.188E+01 -.102E+04   0.173E-01 -.207E+00 -.742E+00   -.222E-01 -.518E-01 -.278E-01
   0.182E+02 -.302E+01 -.828E+03   -.178E+02 0.294E+01 0.829E+03   -.396E+00 0.117E+00 -.838E-01   -.933E-02 -.676E-02 -.225E+00
   0.213E+02 0.239E+02 -.765E+03   -.204E+02 -.236E+02 0.766E+03   -.723E+00 -.249E+00 -.721E+00   -.178E+00 -.102E+00 -.419E+00
   -.389E+02 0.218E+02 -.801E+03   0.377E+02 -.211E+02 0.802E+03   0.111E+01 -.619E+00 -.951E+00   0.186E+00 -.102E+00 -.424E+00
   0.232E+02 -.204E+02 -.819E+03   -.234E+02 0.204E+02 0.819E+03   0.213E+00 -.122E+00 0.437E+00   -.249E-01 0.739E-01 -.293E+00
   -.112E+02 -.414E+02 -.779E+03   0.113E+02 0.402E+02 0.779E+03   -.812E-01 0.948E+00 -.384E+00   -.133E-01 0.236E+00 -.435E+00
   -.126E+02 -.551E+01 -.836E+03   0.125E+02 0.565E+01 0.836E+03   -.253E-01 -.181E+00 0.763E+00   0.626E-01 0.426E-01 -.296E+00
   0.847E+01 -.519E+01 -.843E+03   -.803E+01 0.502E+01 0.844E+03   -.341E+00 0.234E+00 0.514E-01   -.157E-01 -.512E-01 -.210E+00
   -.255E+00 0.116E+02 -.826E+03   0.247E+00 -.115E+02 0.827E+03   0.350E-01 -.957E-01 -.287E-02   -.224E-01 -.203E-01 -.211E+00
   -.801E+01 0.181E+02 -.833E+03   0.772E+01 -.180E+02 0.833E+03   0.169E+00 0.218E-01 0.396E+00   0.311E-01 -.773E-01 -.282E+00
   0.125E+03 0.528E+02 -.260E+04   -.127E+03 -.534E+02 0.260E+04   0.468E+00 0.329E+00 0.114E+01   0.686E-01 -.759E-01 -.157E+00
   -.987E+02 0.120E+03 -.261E+04   0.100E+03 -.121E+03 0.261E+04   -.103E+01 0.398E-01 0.178E+01   -.164E+00 -.233E+00 -.929E-01
   -.246E+02 0.409E+02 -.273E+04   0.242E+02 -.402E+02 0.273E+04   0.367E+00 -.591E+00 0.209E+01   0.106E+00 -.194E+00 -.744E-01
   0.132E+03 -.842E+02 -.259E+04   -.132E+03 0.852E+02 0.259E+04   0.302E+00 -.620E+00 0.263E+01   -.275E+00 -.397E-01 -.118E+00
   -.166E+02 -.125E+02 -.272E+04   0.154E+02 0.128E+02 0.272E+04   0.976E+00 -.235E+00 0.243E+01   0.201E+00 -.107E-01 -.928E-01
   0.669E+02 -.156E+03 -.266E+04   -.669E+02 0.157E+03 0.266E+04   -.889E-01 -.386E+00 0.173E+01   -.144E+00 0.299E+00 -.153E+00
   -.641E+02 -.185E+02 -.270E+04   0.648E+02 0.175E+02 0.270E+04   -.605E+00 0.721E+00 0.301E+01   0.126E+00 0.313E+00 -.115E+00
   0.965E+01 -.109E+02 -.272E+04   -.987E+01 0.108E+02 0.272E+04   0.148E+00 0.115E+00 0.196E+01   0.964E-02 0.116E-01 -.888E-01
   -.145E+03 0.847E+02 -.191E+04   0.144E+03 -.845E+02 0.191E+04   0.593E+00 -.311E+00 -.201E+01   0.275E-01 -.400E-01 -.680E-01
   -.103E+02 -.334E+02 -.191E+04   0.630E+01 0.348E+02 0.193E+04   0.418E+01 -.158E+01 -.242E+02   -.188E+00 0.150E+00 0.308E+00
   0.188E+02 0.108E+02 -.184E+04   -.174E+02 -.193E+01 0.181E+04   -.136E+01 -.875E+01 0.253E+02   -.323E-01 -.925E-01 -.276E-01
   0.243E+01 0.161E+02 -.369E+03   -.246E+01 -.174E+02 0.377E+03   0.324E-01 0.133E+01 -.802E+01   -.305E-02 -.461E-02 -.419E-03
   -.365E+01 0.976E+01 0.183E+02   0.480E-13 0.320E-13 -.614E-11   0.391E+01 -.986E+01 -.137E+02   -.244E+00 0.963E-01 -.466E+01

 POSITION                                       TOTAL-FORCE (eV/Angst)
      0.00000      0.00000      5.28219        -0.022795      0.016083      0.000782
      2.93046      0.00000      5.28219         0.000975      0.006244      0.030657
      5.86091      0.00000      5.28219         0.018379      0.024857      0.028880
      1.46523      2.53785      5.28219         0.014189     -0.013673      0.018847
      4.39568      2.53785      5.28219        -0.006489     -0.001060      0.018012
      7.32614      2.53785      5.28219        -0.011376     -0.027344      0.028114
      2.93046      5.07570      5.28219         0.009693     -0.006976      0.022641
      5.86091      5.07570      5.28219         0.005050     -0.001845      0.023262
      8.79137      5.07570      5.28219        -0.012628      0.004816      0.022435
      1.46523      0.84595      7.67490         0.007692      0.011706     -0.003759
      4.39568      0.84595      7.67490        -0.002864     -0.039260     -0.053739
      7.32614      0.84595      7.67490         0.003195     -0.002896     -0.037224
      2.93046      3.38380      7.67490        -0.008518      0.009030     -0.093508
      5.86091      3.38380      7.67490         0.032160      0.028490     -0.041621
      8.79137      3.38380      7.67490        -0.018030     -0.011490     -0.020321
      4.39568      5.92165      7.67490        -0.010394     -0.011178     -0.003521
      7.32614      5.92165      7.67490        -0.008280     -0.004461     -0.022451
     10.25659      5.92165      7.67490         0.008680      0.018733      0.035805
      8.79137      1.69398     10.06180         0.027025      0.024566      0.050367
      2.94231      1.69874     10.03918        -0.007718     -0.032362     -0.026932
      5.84906      1.69874     10.03918         0.084545     -0.045232     -0.137130
     10.25255      4.23208     10.04993         0.000806     -0.090360      0.022292
      4.39568      4.21606     10.03918         0.026348      0.008099     -0.080038
      7.33018      4.23208     10.04993        -0.004574      0.002940      0.025917
     11.72002      6.76656     10.06180         0.081331      0.010683      0.196242
      5.86271      6.76656     10.06180         0.004890     -0.004115      0.019372
      8.79137      6.76293     10.04993        -0.092925      0.079223      0.081800
      0.00000      0.00000     12.42562        -0.583871     -0.296825     -0.078581
      2.96563      0.06260     12.41952         0.415126     -0.414060      0.011581
      5.82574      0.06260     12.41952         0.055524     -0.091958     -0.130005
      1.53702      2.53701     12.41952        -0.398998      0.336661      0.094927
      7.25434      2.53701     12.41952         0.004338      0.074043     -0.146564
      2.96708      5.01394     12.41952        -0.206271      0.567881     -0.039166
      5.82429      5.01394     12.41952         0.232969      0.015665     -0.151202
      8.79137      5.07570     12.42127        -0.058380      0.017233     -0.057266
      4.39568      2.53785     12.13550         0.431689     -0.170487      0.399005
      3.63330      3.15418     13.49372        -0.012304      0.002810      0.004477
      1.41737      0.71762     13.96401         0.004604      0.003663     -0.015494
      1.41143      0.55385     14.92286        -0.002793      0.002155      0.003105
    total drift:                                0.013114      0.005032     -0.057328

  FREE ENERGIE OF THE ION-ELECTRON SYSTEM (eV)
  free  energy   TOTEN  =      -111.04060567 eV

  energy  without entropy=     -111.04060567  energy(sigma->0) =     -111.04060567

 stress matrix after NEB project (eV)
     -5.01412     -0.06193     -0.39673
     -0.06193     -5.38081      0.08364
     -0.39673      0.08364      0.25842
  FORCES: max atom, RMS     0.016574    0.003494
  FORCE total and by dimension    0.021820    0.015494
  Stress total and by dimension    7.382256    5.380809
|           W    W    AA    RRRRR   N    N  II  N    N   GGGG   !!!           |
|           W    W   A  A   R    R  NN   N  II  NN   N  G    G  !!!           |
|           W    W  A    A  R    R  N N  N  II  N N  N  G       !!!           |
|           W WW W  AAAAAA  RRRRR   N  N N  II  N  N N  G  GGG   !            |
|           WW  WW  A    A  R   R   N   NN  II  N   NN  G    G                |
|           W    W  A    A  R    R  N    N  II  N    N   GGGG   !!!           |
|     Tetrahedron method does not include variations of the Fermi             |
|     occupations, so forces and stress will be inaccurate. We suggest        |
|     using a different smearing scheme ISMEAR = 1 or 2 for metals in         |
|     relaxations.                                                            |

 total charge

# of ion       s       p       d       tot
    1        0.418   0.203   9.177   9.798
    2        0.417   0.203   9.177   9.797
    3        0.417   0.204   9.177   9.797
    4        0.416   0.203   9.177   9.797
    5        0.415   0.204   9.176   9.796
    6        0.416   0.204   9.176   9.797
    7        0.417   0.202   9.177   9.797
    8        0.417   0.202   9.178   9.797
    9        0.416   0.202   9.178   9.796
   10        0.405   0.268   9.165   9.838
   11        0.404   0.270   9.167   9.841
   12        0.415   0.266   9.162   9.842
   13        0.406   0.269   9.165   9.841
   14        0.402   0.271   9.167   9.839
   15        0.405   0.268   9.165   9.838
   16        0.406   0.268   9.164   9.838
   17        0.406   0.267   9.166   9.839
   18        0.401   0.272   9.163   9.835
   19        0.403   0.270   9.161   9.834
   20        0.416   0.297   9.151   9.865
   21        0.436   0.283   9.150   9.870
   22        0.402   0.273   9.166   9.840
   23        0.415   0.294   9.155   9.865
   24        0.397   0.272   9.169   9.838
   25        0.398   0.277   9.156   9.830
   26        0.403   0.267   9.164   9.834
   27        0.397   0.276   9.164   9.838
   28        0.376   0.242   9.184   9.802
   29        0.367   0.236   9.191   9.794
   30        0.407   0.207   9.179   9.792
   31        0.345   0.232   9.198   9.776
   32        0.405   0.203   9.185   9.793
   33        0.383   0.242   9.173   9.798
   34        0.388   0.195   9.202   9.786
   35        0.411   0.191   9.186   9.788
   36        0.444   0.442   7.377   8.262
   37        1.597   3.281   0.000   4.877
   38        1.556   3.494   0.000   5.050
   39        0.617   0.120   0.000   0.737
tot         18.363  15.840 328.387 362.590

 BZINTS: Fermi energy:    0.102229;  407.000000 electrons
         Band energy:-0.165760E+04;  BLOECHL correction:   -0.032781