 vasp.6.2.0 18Jan21 (build Jun 12 2021 23:27:24) complex

 executed on             LinuxIFC date 2022.05.26  19:20:22

 INCAR:
   ISMEAR = -5
   SIGMA = 0.1
   ISPIN = 1
   EDIFF = 1.d-5
   EDIFFG = -0.01
   NSW = 0
   NELM = 150
   ENCUT = 500
   ISIF = 2
   IBRION = 2
   LREAL = Auto
   ALGO = Fast
   ICHARG = 11
   LORBIT = 10
   LCHARG = .F.
   LWAVE = .F.

 POTCAR:    PAW_PBE Au 04Oct2007
 POTCAR:    PAW_PBE Fe 06Sep2000
 POTCAR:    PAW_PBE N 08Apr2002
|           W    W    AA    RRRRR   N    N  II  N    N   GGGG   !!!           |
|           W    W   A  A   R    R  NN   N  II  NN   N  G    G  !!!           |
|           W    W  A    A  R    R  N N  N  II  N N  N  G       !!!           |
|           W WW W  AAAAAA  RRRRR   N  N N  II  N  N N  G  GGG   !            |
|           WW  WW  A    A  R   R   N   NN  II  N   NN  G    G                |
|           W    W  A    A  R    R  N    N  II  N    N   GGGG   !!!           |
|     For optimal performance we recommend to set                             |
|       NCORE = 2 up to number-of-cores-per-socket                            |
|     This setting can greatly improve the performance of VASP for DFT.       |
|     The default, NCORE=1 might be grossly inefficient on modern             |
|     multi-core architectures or massively parallel machines. Do your        |
|     Unfortunately you need to use the default for GW and RPA                |
|     calculations (for HF NCORE is supported but not extensively tested      |
|     yet).                                                                   |

 POTCAR:    PAW_PBE Au 04Oct2007
   VRHFIN =Au: s1d10

   TITEL  = PAW_PBE Au 04Oct2007
   POMASS =  196.966; ZVAL   =   11.000    mass and valenz
   ENMAX  =  229.943; ENMIN  =  172.457 eV

 POTCAR:    PAW_PBE Fe 06Sep2000
   VRHFIN =Fe:  d7 s1

   TITEL  = PAW_PBE Fe 06Sep2000
   POMASS =   55.847; ZVAL   =    8.000    mass and valenz
   ENMAX  =  267.882; ENMIN  =  200.911 eV

 POTCAR:    PAW_PBE N 08Apr2002
   VRHFIN =N: s2p3

   TITEL  = PAW_PBE N 08Apr2002
   POMASS =   14.001; ZVAL   =    5.000    mass and valenz
   ENMAX  =  400.000; ENMIN  =  300.000 eV

 Optimization of the real space projectors (new method)

 maximal supplied QI-value         = 15.12
 optimisation between [QCUT,QGAM] = [ 11.34, 22.83] = [ 36.00,145.93] Ry
 Optimized for a Real-space Cutoff    1.39 Angstroem

   l    n(q)    QCUT    max X(q) W(low)/X(q) W(high)/X(q)  e(spline)
   2      9    11.338    60.898    0.39E-03    0.42E-03    0.21E-06
   2      9    11.338    58.894    0.40E-03    0.42E-03    0.22E-06
   0      9    11.338   109.617    0.13E-03    0.20E-04    0.13E-06
   0      9    11.338    75.026    0.13E-03    0.20E-04    0.13E-06
   1      9    11.338    16.344    0.33E-04    0.24E-03    0.18E-06
   1      9    11.338    10.160    0.26E-04    0.19E-03    0.15E-06
 Optimization of the real space projectors (new method)

[...]

   l    n(q)    QCUT    max X(q) W(low)/X(q) W(high)/X(q)  e(spline)
   2      8    11.376    80.901    0.45E-03    0.44E-04    0.21E-06
   2      8    11.376    75.754    0.45E-03    0.45E-04    0.22E-06
   0      9    11.376    58.752    0.65E-04    0.95E-04    0.17E-06
   0      9    11.376    30.679    0.59E-04    0.87E-04    0.16E-06
   1      9    11.376    17.977    0.38E-03    0.10E-03    0.14E-06
   1      9    11.376    13.559    0.31E-03    0.90E-04    0.12E-06
 Optimization of the real space projectors (new method)

 maximal supplied QI-value         = 25.13
 optimisation between [QCUT,QGAM] = [ 11.31, 22.87] = [ 35.82,146.48] Ry
 Optimized for a Real-space Cutoff    1.27 Angstroem

   l    n(q)    QCUT    max X(q) W(low)/X(q) W(high)/X(q)  e(spline)
   0      9    11.310    79.467    0.75E-04    0.16E-03    0.36E-06
   0      9    11.310    66.151    0.74E-04    0.16E-03    0.36E-06
   1      8    11.310    17.416    0.35E-03    0.12E-03    0.95E-06
   1      8    11.310    12.382    0.37E-03    0.13E-03    0.98E-06
  PAW_PBE Au 04Oct2007                  :
  PAW_PBE Fe 06Sep2000                  :
  PAW_PBE N 08Apr2002                   :

 POSCAR: Au-Fe-N
  positions in direct lattice
  velocities in cartesian coordinates
 exchange correlation table for  LEXCH =        8
   RHO(1)=    0.500       N(1)  =     2000
   RHO(2)=  100.500       N(2)  =     4000

 VTST: version 3.2, (02/03/18)

 CHAIN: initializing optimizer

 OPT: Using VASP Conjugate-Gradient optimizer
 CHAIN: Read ICHAIN            0

 POSCAR: Au-Fe-N
  positions in direct lattice
  velocities in cartesian coordinates

 ion  position               nearest neighbor table
   1  0.000  0.000  0.238-  16 2.94  12 2.94   6 2.94   8 2.94   7 2.94   3 2.94  10 2.94   4 2.94
                             2 2.94
   2  0.333  0.000  0.238-   9 2.94  11 2.94  17 2.94  10 2.94   8 2.94   4 2.94   5 2.94   1 2.94
                             3 2.94
   3  0.667  0.000  0.238-   7 2.94  18 2.94  12 2.94   1 2.94  11 2.94   5 2.94   6 2.94   9 2.94
                             2 2.94
   4  0.000  0.333  0.238-  10 2.94   6 2.94   5 2.94  13 2.94   2 2.94  15 2.94   9 2.94   1 2.94
                             7 2.94
   5  0.333  0.333  0.238-  13 2.94   7 2.94  11 2.94   4 2.94   2 2.94  14 2.94   3 2.94   8 2.94
                             6 2.94
   6  0.667  0.333  0.238-  15 2.94  14 2.94   1 2.94  12 2.94   4 2.94   9 2.94   8 2.94   3 2.94
                             5 2.94
   7  0.000  0.667  0.238-  18 2.94   3 2.94  16 2.94   5 2.94   1 2.94  13 2.94   8 2.94   4 2.94
                             9 2.94
   8  0.333  0.667  0.238-   9 2.94  17 2.94   1 2.94   2 2.94  14 2.94  16 2.94   6 2.94   7 2.94
                             5 2.94
   9  0.667  0.667  0.238-   2 2.94   8 2.94  17 2.94   6 2.94  15 2.94   4 2.94   3 2.94  18 2.94
                             7 2.94
  10  0.111  0.111  0.346-  20 2.93  26 2.94  19 2.94  11 2.94  17 2.94   2 2.94   4 2.94   1 2.94
                            12 2.94  16 2.94  13 2.94  15 2.94
  11  0.444  0.111  0.346-  20 2.91  21 2.91  27 2.93  13 2.94   2 2.94  10 2.94  17 2.94   5 2.94
                             3 2.94  18 2.94  14 2.94  12 2.94
  12  0.778  0.111  0.346-  21 2.93  25 2.94  19 2.94  16 2.94  18 2.94   1 2.94  14 2.94  15 2.94
                             3 2.94   6 2.94  10 2.94  11 2.94
  13  0.111  0.444  0.346-  23 2.91  20 2.91  22 2.93   5 2.94  18 2.94  11 2.94   7 2.94   4 2.94
                            16 2.94  10 2.94  14 2.94  15 2.94
  14  0.444  0.444  0.346-  21 2.91  23 2.91  24 2.93  15 2.94   6 2.94  12 2.94   8 2.94  17 2.94
                             5 2.94  16 2.94  13 2.94  11 2.94
  15  0.778  0.444  0.346-  24 2.92  22 2.92  19 2.94  14 2.94   6 2.94  17 2.94  12 2.94   9 2.94
                             4 2.94  10 2.94  13 2.94  18 2.94
  16  0.111  0.778  0.346-  23 2.93  25 2.94  26 2.94  18 2.94  12 2.94   7 2.94   1 2.94   8 2.94
                            13 2.94  10 2.94  14 2.94  17 2.94
  17  0.444  0.778  0.346-  27 2.92  24 2.92  26 2.94   9 2.94  15 2.94   2 2.94  10 2.94  11 2.94
                             8 2.94  14 2.94  16 2.94  18 2.94
  18  0.778  0.778  0.346-  22 2.92  27 2.92  25 2.94  16 2.94   7 2.94  13 2.94  12 2.94   3 2.94
                            11 2.94   9 2.94  15 2.94  17 2.94
  19  0.889  0.222  0.454-  10 2.94  12 2.94  15 2.94  26 2.94  25 2.94  24 2.94  22 2.94  28 2.95
                            21 2.95  20 2.95  32 2.98  31 2.98
  20  0.223  0.223  0.453-  36 2.70  23 2.91  21 2.91  11 2.91  13 2.91  29 2.92  31 2.92  10 2.93
                            27 2.95  22 2.95  26 2.95  19 2.95
  21  0.553  0.223  0.453-  36 2.70  20 2.91  23 2.91  14 2.91  11 2.91  30 2.92  32 2.92  12 2.93
                            27 2.95  24 2.95  25 2.95  19 2.95
  22  0.887  0.557  0.453-  24 2.91  27 2.91  18 2.92  15 2.92  13 2.93  25 2.94  19 2.94  33 2.95
                            31 2.95  23 2.95  20 2.95  35 2.95
  23  0.223  0.553  0.453-  36 2.70  20 2.91  21 2.91  13 2.91  14 2.91  33 2.92  34 2.92  16 2.93
                            22 2.95  24 2.95  25 2.95  26 2.95
  24  0.557  0.557  0.453-  27 2.91  22 2.91  15 2.92  17 2.92  14 2.93  26 2.94  19 2.94  32 2.95
                            34 2.95  21 2.95  23 2.95  35 2.95
  25  0.889  0.889  0.454-  16 2.94  12 2.94  18 2.94  19 2.94  26 2.94  22 2.94  27 2.94  28 2.95
                            23 2.95  21 2.95  33 2.98  30 2.98
  26  0.222  0.889  0.454-  10 2.94  16 2.94  17 2.94  19 2.94  25 2.94  27 2.94  24 2.94  28 2.95
                            20 2.95  23 2.95  29 2.98  34 2.98
  27  0.557  0.887  0.453-  24 2.91  22 2.91  17 2.92  18 2.92  11 2.93  26 2.94  25 2.94  29 2.95
                            30 2.95  20 2.95  21 2.95  35 2.95
  28  0.000  0.000  0.563-  25 2.95  19 2.95  26 2.95  34 2.98  32 2.98  33 2.98  30 2.98  31 2.98
                            29 2.98
  29  0.333  0.010  0.562-  30 2.85  31 2.85  36 2.87  20 2.92  27 2.95  26 2.98  35 2.98  28 2.98
                            34 3.11
  30  0.657  0.010  0.562-  29 2.85  32 2.85  36 2.87  21 2.92  27 2.95  25 2.98  35 2.98  28 2.98
                            33 3.11
  31  0.010  0.333  0.562-  33 2.85  29 2.85  36 2.87  20 2.92  22 2.95  19 2.98  35 2.98  28 2.98
                            32 3.11
  32  0.657  0.333  0.562-  34 2.85  30 2.85  36 2.87  21 2.92  24 2.95  19 2.98  35 2.98  28 2.98
                            31 3.11
  33  0.010  0.657  0.562-  31 2.85  34 2.85  36 2.87  23 2.92  22 2.95  25 2.98  35 2.98  28 2.98
                            30 3.11
  34  0.333  0.657  0.562-  32 2.85  33 2.85  36 2.87  23 2.92  24 2.95  26 2.98  35 2.98  28 2.98
                            29 3.11
  35  0.667  0.667  0.563-  24 2.95  27 2.95  22 2.95  29 2.98  34 2.98  32 2.98  31 2.98  30 2.98
                            33 2.98
  36  0.333  0.333  0.548-  37 1.55  20 2.70  23 2.70  21 2.70  33 2.87  31 2.87  29 2.87  30 2.87
                            34 2.87  32 2.87
  37  0.333  0.333  0.618-  36 1.55

  LATTYP: Found a hexagonal cell.
 ALAT       =     8.8135128021
 C/A-ratio  =     2.5184286595

  Lattice vectors:

 A1 = (  -4.4067569092,  -7.6327256898,   0.0000000000)
 A2 = (   8.8135128021,   0.0000000000,   0.0000000000)
 A3 = (   0.0000000000,   0.0000000000,  22.1962032318)

Analysis of symmetry for initial positions (statically):
 Subroutine PRICEL returns:
 Original cell was already a primitive cell.

 Routine SETGRP: Setting up the symmetry group for a
 hexagonal supercell.

 Subroutine GETGRP returns: Found  6 space group operations
 (whereof  6 operations were pure point group operations)
 out of a pool of 24 trial point group operations.

The static configuration has the point symmetry C_3v.

Analysis of symmetry for dynamics (positions and initial velocities):
 Subroutine PRICEL returns:
 Original cell was already a primitive cell.

[...]

The dynamic configuration has the point symmetry C_3v.

Analysis of constrained symmetry for selective dynamics:
 Subroutine PRICEL returns:
 Original cell was already a primitive cell.

 Routine SETGRP: Setting up the symmetry group for a
 hexagonal supercell.

 Subroutine GETGRP returns: Found  6 space group operations
[...]
     24      -5.1023      2.00000
     25      -5.0752      2.00000
     26      -5.0628      2.00000
     27      -5.0248      2.00000
     28      -4.9483      2.00000
     29      -4.9046      2.00000
     30      -4.8024      2.00000
     31      -4.7940      2.00000
     32      -4.7774      2.00000
     33      -4.7697      2.00000
     34      -4.7576      2.00000
     35      -4.6760      2.00000
     36      -4.5962      2.00000
     37      -4.5881      2.00000
     38      -4.5725      2.00000
     39      -4.5605      2.00000
     40      -4.5076      2.00000
     41      -4.4315      2.00000
     42      -4.4014      2.00000
     43      -4.3738      2.00000
     44      -4.3239      2.00000
     45      -4.3192      2.00000
     46      -4.2950      2.00000
     47      -4.2011      2.00000
     48      -4.1979      2.00000
     49      -4.1549      2.00000
     50      -4.1393      2.00000
     51      -4.1377      2.00000
     52      -4.1185      2.00000
     53      -4.1061      2.00000
     54      -4.0843      2.00000
     55      -4.0560      2.00000
     56      -4.0098      2.00000
     57      -3.9962      2.00000
     58      -3.9769      2.00000
     59      -3.9624      2.00000
     60      -3.9549      2.00000
[...]
    238       6.4306      0.00000
    239       6.4650      0.00000
    240       6.5100      0.00000
    241       6.5595      0.00000
    242       6.7754      0.00000
    243       6.7893      0.00000
    244       6.8168      0.00000
    245       6.8462      0.00000
    246       7.1496      0.00000
    247       7.1879      0.00000
    248       7.3004      0.00000
    249       7.4955      0.00000
    250       7.6108      0.00000
    251       7.7188      0.00000
    252       7.7657      0.00000

 soft charge-density along one line, spin component           1
         0         1         2         3         4         5         6         7         8         9
 total charge-density along one line

------------------------ aborting loop because EDIFF is reached ----------------------------------------

 total charge

# of ion       s       p       d       tot
    1        0.546   0.240   8.766   9.552
    2        0.543   0.241   8.765   9.549
    3        0.543   0.241   8.765   9.549
    4        0.543   0.241   8.765   9.549
    5        0.544   0.240   8.764   9.549
    6        0.543   0.241   8.765   9.549
    7        0.543   0.241   8.765   9.549
    8        0.543   0.241   8.765   9.549
    9        0.542   0.241   8.765   9.548
   10        0.520   0.308   8.772   9.599
   11        0.517   0.311   8.775   9.603
   12        0.520   0.308   8.772   9.599
   13        0.517   0.311   8.775   9.603
   14        0.517   0.311   8.775   9.603
   15        0.516   0.310   8.772   9.598
   16        0.520   0.308   8.772   9.599
   17        0.516   0.310   8.772   9.598
   18        0.516   0.310   8.772   9.598
   19        0.517   0.299   8.775   9.592
   20        0.545   0.332   8.752   9.628
   21        0.545   0.332   8.752   9.628
   22        0.511   0.311   8.772   9.595
   23        0.545   0.332   8.752   9.628
   24        0.511   0.311   8.772   9.595
   25        0.517   0.299   8.775   9.592
   26        0.517   0.299   8.775   9.592
   27        0.511   0.311   8.772   9.595
   28        0.541   0.222   8.769   9.532
   29        0.540   0.238   8.768   9.545
   30        0.540   0.238   8.768   9.545
   31        0.540   0.238   8.768   9.545
   32        0.540   0.238   8.768   9.545
   33        0.540   0.238   8.768   9.545
   34        0.540   0.238   8.768   9.545
   35        0.538   0.221   8.771   9.531
   36        0.467   0.583   6.538   7.588
   37        1.368   2.148   0.000   3.516
tot         20.418  12.382 313.425 346.225

  FORCE on cell =-STRESS in cart. coord.  units (eV):
  Direction    XX          YY          ZZ          XY          YZ          ZX
  Alpha Z  1016.64417  1016.64417  1016.64417
  Ewald  120079.50828120079.50871************    -0.00031    -0.00008    -0.00013
  Hartree128824.37914128824.37916************     0.00001    -0.00002    -0.00003
  E(xc)   -1787.52674 -1787.52672 -1794.16653    -0.00002     0.00000     0.00000
  Local  ************************261393.59380     0.00197     0.00002     0.00000
  n-local  -115.48669   -69.16293   -69.67155    23.00782    -1.46239     1.63303
  augment  2408.44440  2408.44598  2413.02876    -0.00137     0.00000     0.00008
  Kinetic  5516.48396  5524.62077  5548.70802     4.81247     0.27655     0.24456
  Fock        0.00000     0.00000     0.00000     0.00000     0.00000     0.00000
  Total     -20.46593   -20.46593     0.71078    -0.00000     0.00000    -0.00000
  in kB     -21.96012   -21.96011     0.76267    -0.00000     0.00000    -0.00000

 VOLUME and BASIS-vectors are now :
  energy-cutoff  :      500.00
  volume of cell :     1493.16
      direct lattice vectors                 reciprocal lattice vectors
     8.813512802  0.000000000  0.000000000     0.113462137 -0.065507406  0.000000000
     4.406756909  7.632725690  0.000000000     0.000000000  0.131014796  0.000000000
     0.000000000  0.000000000 22.196203232     0.000000000  0.000000000  0.045052750

  length of vectors
     8.813512802  8.813512802 22.196203232     0.131014796  0.131014796  0.045052750

 FORCES acting on ions
    electron-ion (+dipol)            ewald-force                    non-local-force                 convergence-correction
   -.195E-04 -.162E-04 0.249E+04   0.519E-04 0.434E-04 -.249E+04   0.586E-17 -.287E-18 -.589E+00   -.238E-03 -.151E-03 -.322E+00
   0.563E+00 0.491E+00 0.249E+04   -.664E+00 -.485E+00 -.249E+04   0.152E-01 0.254E-01 -.359E+00   0.858E-01 -.273E-01 -.326E+00
   -.563E+00 0.491E+00 0.249E+04   0.664E+00 -.485E+00 -.249E+04   -.152E-01 0.254E-01 -.359E+00   -.855E-01 -.254E-01 -.326E+00
   0.707E+00 0.242E+00 0.249E+04   -.752E+00 -.332E+00 -.249E+04   0.296E-01 0.452E-03 -.359E+00   0.193E-01 0.879E-01 -.327E+00
   0.917E-05 -.229E-04 0.249E+04   0.951E-04 0.173E-05 -.249E+04   0.249E-17 0.248E-17 -.382E+00   0.428E-02 0.260E-02 -.299E+00
   -.707E+00 0.242E+00 0.249E+04   0.752E+00 -.332E+00 -.249E+04   -.296E-01 0.452E-03 -.359E+00   -.208E-01 0.888E-01 -.326E+00
   0.144E+00 -.733E+00 0.249E+04   -.881E-01 0.817E+00 -.249E+04   0.144E-01 -.259E-01 -.359E+00   -.647E-01 -.613E-01 -.326E+00
   -.144E+00 -.733E+00 0.249E+04   0.879E-01 0.817E+00 -.249E+04   -.144E-01 -.259E-01 -.359E+00   0.665E-01 -.624E-01 -.326E+00
   0.195E-04 -.416E-04 0.249E+04   0.166E-03 -.201E-04 -.249E+04   -.522E-17 0.186E-17 -.432E+00   -.459E-02 -.237E-02 -.294E+00
   0.508E+01 0.293E+01 0.842E+03   -.497E+01 -.287E+01 -.841E+03   -.182E+00 -.105E+00 -.493E+00   0.653E-01 0.376E-01 -.589E-01
   0.149E-04 0.652E+01 0.852E+03   0.147E-03 -.662E+01 -.851E+03   0.505E-08 0.759E-01 -.384E+00   0.405E-02 -.247E-01 -.253E-01
   -.508E+01 0.293E+01 0.842E+03   0.497E+01 -.287E+01 -.841E+03   0.182E+00 -.105E+00 -.493E+00   -.667E-01 0.387E-01 -.591E-01
   0.565E+01 -.326E+01 0.852E+03   -.573E+01 0.331E+01 -.851E+03   0.657E-01 -.379E-01 -.384E+00   -.191E-01 0.161E-01 -.253E-01
   -.565E+01 -.326E+01 0.852E+03   0.573E+01 0.331E+01 -.851E+03   -.657E-01 -.379E-01 -.384E+00   0.268E-01 0.153E-01 -.261E-01
   0.309E-04 0.303E+01 0.844E+03   0.236E-03 -.316E+01 -.844E+03   0.482E-10 0.724E-03 -.413E+00   -.224E-02 0.872E-01 -.629E-01
   -.215E-04 -.587E+01 0.842E+03   0.163E-03 0.574E+01 -.841E+03   0.140E-07 0.210E+00 -.493E+00   -.173E-04 -.771E-01 -.591E-01
   0.262E+01 -.152E+01 0.844E+03   -.274E+01 0.158E+01 -.844E+03   0.627E-03 -.362E-03 -.413E+00   0.746E-01 -.451E-01 -.628E-01
   -.262E+01 -.152E+01 0.844E+03   0.274E+01 0.158E+01 -.844E+03   -.627E-03 -.362E-03 -.413E+00   -.742E-01 -.431E-01 -.623E-01
   -.406E-04 0.276E+01 -.841E+03   0.537E-04 -.292E+01 0.841E+03   0.165E-08 0.248E-01 0.617E+00   -.318E-02 0.116E+00 0.229E+00
   0.308E+02 0.178E+02 -.791E+03   -.301E+02 -.174E+02 0.791E+03   -.921E+00 -.532E+00 -.547E+00   0.118E+00 0.682E-01 0.344E+00
   -.308E+02 0.178E+02 -.791E+03   0.301E+02 -.174E+02 0.791E+03   0.921E+00 -.532E+00 -.547E+00   -.123E+00 0.686E-01 0.344E+00
   0.693E+01 -.400E+01 -.826E+03   -.727E+01 0.420E+01 0.825E+03   0.357E+00 -.206E+00 0.625E+00   0.102E-01 -.862E-02 0.193E+00
   -.103E-04 -.356E+02 -.791E+03   0.142E-03 0.347E+02 0.791E+03   0.708E-07 0.106E+01 -.547E+00   -.218E-02 -.140E+00 0.344E+00
   -.693E+01 -.400E+01 -.826E+03   0.727E+01 0.420E+01 0.825E+03   -.357E+00 -.206E+00 0.625E+00   -.155E-01 -.890E-02 0.193E+00
   -.239E+01 -.138E+01 -.841E+03   0.253E+01 0.146E+01 0.841E+03   -.215E-01 -.124E-01 0.617E+00   -.104E+00 -.603E-01 0.229E+00
   0.239E+01 -.138E+01 -.841E+03   -.253E+01 0.146E+01 0.841E+03   0.215E-01 -.124E-01 0.617E+00   0.996E-01 -.609E-01 0.229E+00
   0.118E-04 0.800E+01 -.826E+03   0.196E-03 -.839E+01 0.825E+03   0.275E-07 0.413E+00 0.625E+00   -.290E-02 0.131E-01 0.193E+00
   -.127E-04 -.135E-04 -.248E+04   0.298E-04 0.343E-04 0.248E+04   -.549E-18 0.120E-18 0.644E+00   -.263E-04 -.331E-04 0.347E+00
   0.351E+02 0.586E+02 -.246E+04   -.350E+02 -.585E+02 0.246E+04   -.371E+00 -.564E+00 0.746E+00   0.128E+00 0.128E+00 0.300E+00
   -.351E+02 0.586E+02 -.246E+04   0.350E+02 -.585E+02 0.246E+04   0.371E+00 -.564E+00 0.746E+00   -.128E+00 0.129E+00 0.300E+00
   0.683E+02 0.110E+01 -.246E+04   -.682E+02 -.110E+01 0.246E+04   -.674E+00 -.395E-01 0.746E+00   0.175E+00 0.469E-01 0.300E+00
   -.683E+02 0.110E+01 -.246E+04   0.682E+02 -.110E+01 0.246E+04   0.674E+00 -.395E-01 0.746E+00   -.176E+00 0.477E-01 0.300E+00
   0.332E+02 -.597E+02 -.246E+04   -.331E+02 0.596E+02 0.246E+04   -.303E+00 0.603E+00 0.746E+00   0.482E-01 -.175E+00 0.300E+00
   -.332E+02 -.597E+02 -.246E+04   0.331E+02 0.596E+02 0.246E+04   0.303E+00 0.603E+00 0.746E+00   -.465E-01 -.176E+00 0.300E+00
   0.347E-04 -.285E-04 -.248E+04   0.141E-03 -.497E-04 0.248E+04   -.160E-16 0.873E-18 0.613E+00   -.441E-02 -.225E-02 0.284E+00
   -.245E-04 -.184E-04 -.150E+04   0.846E-04 0.789E-05 0.150E+04   0.114E-16 -.631E-19 0.568E+01   0.487E-02 0.297E-02 0.197E+00
   0.107E-03 -.564E-04 -.144E+04   0.251E-04 0.158E-05 0.146E+04   0.126E-18 0.560E-18 -.206E+02   0.184E-02 0.112E-02 -.237E+00
   -.657E-03 -.833E-03 0.137E+02   0.113E-12 0.322E-12 -.909E-12   -.171E-15 0.137E-17 -.145E+02   -.107E-01 -.544E-02 0.138E+01

 POSITION                                       TOTAL-FORCE (eV/Angst)
      0.00000      0.00000      5.28038         0.000000     -0.000000     -0.105505
      2.93784      0.00000      5.28038         0.000430      0.005484     -0.044064
      5.87568      0.00000      5.28038        -0.000430      0.005484     -0.044064
      1.46892      2.54424      5.28038         0.004964     -0.002369     -0.044064
      4.40676      2.54424      5.28038         0.000000     -0.000000     -0.082216
      7.34459      2.54424      5.28038        -0.004964     -0.002369     -0.044064
      2.93784      5.08848      5.28038         0.004534     -0.003114     -0.044064
      5.87568      5.08848      5.28038        -0.004534     -0.003114     -0.044064
      8.81351      5.08848      5.28038         0.000000     -0.000000     -0.053786
      1.46892      0.84808      7.67911        -0.009678     -0.005588      0.119544
      4.40676      0.84808      7.67911        -0.000000     -0.045030      0.051037
      7.34459      0.84808      7.67911         0.009678     -0.005588      0.119544
      2.93784      3.39232      7.67911        -0.038997      0.022515      0.051037
      5.87568      3.39232      7.67911         0.038997      0.022515      0.051037
      8.81351      3.39232      7.67911        -0.000000     -0.042659      0.098513
      4.40676      5.93656      7.67911         0.000000      0.011176      0.119544
      7.34459      5.93656      7.67911        -0.036944      0.021329      0.098513
     10.28243      5.93656      7.67911         0.036944      0.021329      0.098513
      8.81351      1.69603     10.07519        -0.000000     -0.014942     -0.006330
      2.95264      1.70471     10.05068        -0.064179     -0.037054     -0.084025
      5.86088      1.70471     10.05068         0.064179     -0.037054     -0.084025
     10.26798      4.24875     10.06116         0.035450     -0.020467      0.017694
      4.40676      4.22331     10.05068         0.000000      0.074108     -0.084025
      7.35905      4.24875     10.06116        -0.035450     -0.020467      0.017694
     11.75147      6.78471     10.07519         0.012940      0.007471     -0.006330
      5.87556      6.78471     10.07519        -0.012940      0.007471     -0.006330
      8.81351      6.76796     10.06116         0.000000      0.040934      0.017694
      0.00000      0.00000     12.48698         0.000000     -0.000000     -0.034698
      2.98147      0.07441     12.46921        -0.158171     -0.296193     -0.160730
      5.83205      0.07441     12.46921         0.158171     -0.296193     -0.160730
      1.55518      2.54482     12.46921        -0.335597      0.011117     -0.160730
      7.25833      2.54482     12.46921         0.335597      0.011117     -0.160730
      2.98047      5.01349     12.46921        -0.177426      0.285077     -0.160730
      5.83305      5.01349     12.46921         0.177426      0.285077     -0.160730
      8.81351      5.08848     12.49182         0.000000     -0.000000     -0.015434
      4.40676      2.54424     12.16047         0.000000     -0.000000      0.980183
      4.40676      2.54424     13.71171         0.000000     -0.000000     -0.049086
    total drift:                               -0.011365     -0.006272      0.508531

  FREE ENERGIE OF THE ION-ELECTRON SYSTEM (eV)
  free  energy   TOTEN  =      -120.54486079 eV

  energy  without entropy=     -120.54486079  energy(sigma->0) =     -120.54486079

 stress matrix after NEB project (eV)
    -20.46593     -0.00000     -0.00000
     -0.00000    -20.46593      0.00000
     -0.00000      0.00000      0.71078
  FORCES: max atom, RMS     0.049086    0.008070
  FORCE total and by dimension    0.049086    0.049086
  Stress total and by dimension   28.951918   20.465928
|           W    W    AA    RRRRR   N    N  II  N    N   GGGG   !!!           |
|           W    W   A  A   R    R  NN   N  II  NN   N  G    G  !!!           |
|           W    W  A    A  R    R  N N  N  II  N N  N  G       !!!           |
|           W WW W  AAAAAA  RRRRR   N  N N  II  N  N N  G  GGG   !            |
|           WW  WW  A    A  R   R   N   NN  II  N   NN  G    G                |
|           W    W  A    A  R    R  N    N  II  N    N   GGGG   !!!           |
|     Tetrahedron method does not include variations of the Fermi             |
|     occupations, so forces and stress will be inaccurate. We suggest        |
|     using a different smearing scheme ISMEAR = 1 or 2 for metals in         |
|     relaxations.                                                            |

 total charge

# of ion       s       p       d       tot
    1        0.546   0.240   8.766   9.552
    2        0.543   0.241   8.765   9.549
    3        0.543   0.241   8.765   9.549
    4        0.543   0.241   8.765   9.549
    5        0.544   0.240   8.764   9.549
    6        0.543   0.241   8.765   9.549
    7        0.543   0.241   8.765   9.549
    8        0.543   0.241   8.765   9.549
    9        0.542   0.241   8.765   9.548
   10        0.520   0.308   8.772   9.599
   11        0.517   0.311   8.775   9.603
   12        0.520   0.308   8.772   9.599
   13        0.517   0.311   8.775   9.603
   14        0.517   0.311   8.775   9.603
   15        0.516   0.310   8.772   9.598
   16        0.520   0.308   8.772   9.599
   17        0.516   0.310   8.772   9.598
   18        0.516   0.310   8.772   9.598
   19        0.517   0.299   8.775   9.592
   20        0.545   0.332   8.752   9.628
   21        0.545   0.332   8.752   9.628
   22        0.511   0.311   8.772   9.595
   23        0.545   0.332   8.752   9.628
   24        0.511   0.311   8.772   9.595
   25        0.517   0.299   8.775   9.592
   26        0.517   0.299   8.775   9.592
   27        0.511   0.311   8.772   9.595
   28        0.541   0.222   8.769   9.532
   29        0.540   0.238   8.768   9.545
   30        0.540   0.238   8.768   9.545
   31        0.540   0.238   8.768   9.545
   32        0.540   0.238   8.768   9.545
   33        0.540   0.238   8.768   9.545
   34        0.540   0.238   8.768   9.545
   35        0.538   0.221   8.771   9.531
   36        0.467   0.583   6.538   7.588
   37        1.368   2.148   0.000   3.516
tot         20.418  12.382 313.425 346.225

 BZINTS: Fermi energy:    0.657746;  398.000000 electrons
         Band energy:-0.122607E+04;  BLOECHL correction:   -0.084713