 vasp.6.2.0 18Jan21 (build Jun 12 2021 23:27:24) complex

 executed on             LinuxIFC date 2022.05.26  20:08:29

 INCAR:
   ISMEAR = -5
   SIGMA = 0.1
   ISPIN = 1
   EDIFF = 1.d-5
   EDIFFG = -0.01
   NSW = 0
   NELM = 150
   ENCUT = 500
   ISIF = 2
   IBRION = 2
   LREAL = Auto
   ALGO = Fast
   ICHARG = 11
   LORBIT = 10
   LCHARG = .F.
   LWAVE = .F.

 POTCAR:    PAW_PBE Cu 22Jun2005
 POTCAR:    PAW_PBE Re 17Jan2003
 POTCAR:    PAW_PBE N 08Apr2002
|           W    W    AA    RRRRR   N    N  II  N    N   GGGG   !!!           |
|           W    W   A  A   R    R  NN   N  II  NN   N  G    G  !!!           |
|           W    W  A    A  R    R  N N  N  II  N N  N  G       !!!           |
|           W WW W  AAAAAA  RRRRR   N  N N  II  N  N N  G  GGG   !            |
|           WW  WW  A    A  R   R   N   NN  II  N   NN  G    G                |
|           W    W  A    A  R    R  N    N  II  N    N   GGGG   !!!           |
|     For optimal performance we recommend to set                             |
|       NCORE = 2 up to number-of-cores-per-socket                            |
|     This setting can greatly improve the performance of VASP for DFT.       |
|     The default, NCORE=1 might be grossly inefficient on modern             |
|     multi-core architectures or massively parallel machines. Do your        |
|     Unfortunately you need to use the default for GW and RPA                |
|     calculations (for HF NCORE is supported but not extensively tested      |
|     yet).                                                                   |

 POTCAR:    PAW_PBE Cu 22Jun2005
   VRHFIN =Cu: d10 p1

   TITEL  = PAW_PBE Cu 22Jun2005
   POMASS =   63.546; ZVAL   =   11.000    mass and valenz
   ENMAX  =  295.446; ENMIN  =  221.585 eV

 POTCAR:    PAW_PBE Re 17Jan2003
   VRHFIN =Re: 5p6s5d

   TITEL  = PAW_PBE Re 17Jan2003
   POMASS =  186.207; ZVAL   =    7.000    mass and valenz
   ENMAX  =  226.216; ENMIN  =  169.662 eV

 POTCAR:    PAW_PBE N 08Apr2002
   VRHFIN =N: s2p3

   TITEL  = PAW_PBE N 08Apr2002
   POMASS =   14.001; ZVAL   =    5.000    mass and valenz
   ENMAX  =  400.000; ENMIN  =  300.000 eV

 Optimization of the real space projectors (new method)

 maximal supplied QI-value         = 16.25
 optimisation between [QCUT,QGAM] = [ 11.38, 22.75] = [ 36.24,144.96] Ry
 Optimized for a Real-space Cutoff    1.52 Angstroem

   l    n(q)    QCUT    max X(q) W(low)/X(q) W(high)/X(q)  e(spline)
   2      9    11.376     4.610    0.21E-03    0.10E-03    0.26E-06
   2      9    11.376     8.522    0.33E-03    0.16E-03    0.37E-06
   0     10    11.376    51.609    0.62E-04    0.20E-04    0.13E-06
   0     10    11.376    27.747    0.54E-04    0.20E-04    0.13E-06
   1     10    11.376    20.408    0.13E-04    0.99E-04    0.19E-06
   1     10    11.376    13.425    0.12E-04    0.87E-04    0.17E-06
 Optimization of the real space projectors (new method)

[...]

   l    n(q)    QCUT    max X(q) W(low)/X(q) W(high)/X(q)  e(spline)
   2     10    11.327   884.633    0.22E-03    0.51E-03    0.88E-06
   2     10    11.327   796.723    0.22E-03    0.51E-03    0.88E-06
   0     11    11.327    65.348    0.44E-04    0.11E-03    0.75E-06
   0     11    11.327    39.642    0.40E-04    0.10E-03    0.69E-06
   1     10    11.327    13.988    0.15E-03    0.10E-03    0.19E-06
   1     10    11.327     8.682    0.11E-03    0.76E-04    0.14E-06
 Optimization of the real space projectors (new method)

 maximal supplied QI-value         = 25.13
 optimisation between [QCUT,QGAM] = [ 11.31, 22.87] = [ 35.82,146.48] Ry
 Optimized for a Real-space Cutoff    1.27 Angstroem

   l    n(q)    QCUT    max X(q) W(low)/X(q) W(high)/X(q)  e(spline)
   0      9    11.310    79.467    0.75E-04    0.16E-03    0.36E-06
   0      9    11.310    66.151    0.74E-04    0.16E-03    0.36E-06
   1      8    11.310    17.416    0.35E-03    0.12E-03    0.95E-06
   1      8    11.310    12.382    0.37E-03    0.13E-03    0.98E-06
  PAW_PBE Cu 22Jun2005                  :
  PAW_PBE Re 17Jan2003                  :
  PAW_PBE N 08Apr2002                   :

 POSCAR: Cu-Re-N
  positions in direct lattice
  velocities in cartesian coordinates
 exchange correlation table for  LEXCH =        8
   RHO(1)=    0.500       N(1)  =     2000
   RHO(2)=  100.500       N(2)  =     4000

 VTST: version 3.2, (02/03/18)

 CHAIN: initializing optimizer

 OPT: Using VASP Conjugate-Gradient optimizer
 CHAIN: Read ICHAIN            0

 POSCAR: Cu-Re-N
  positions in direct lattice
  velocities in cartesian coordinates

 ion  position               nearest neighbor table
   1  0.000  0.000  0.252-   7 2.57   3 2.57   4 2.57   2 2.57   6 2.57   8 2.57  12 2.57  10 2.57
                            16 2.57
   2  0.333  0.000  0.252-   8 2.57   9 2.57   5 2.57   1 2.57   3 2.57  11 2.57   4 2.57  10 2.57
                            17 2.57
   3  0.667  0.000  0.252-   1 2.57   7 2.57   6 2.57   9 2.57   2 2.57  12 2.57   5 2.57  18 2.57
                            11 2.57
   4  0.000  0.333  0.252-   5 2.57   6 2.57   1 2.57   7 2.57   2 2.57  13 2.57   9 2.57  10 2.57
                            15 2.57
   5  0.333  0.333  0.252-   4 2.57   2 2.57   7 2.57  13 2.57   8 2.57   6 2.57   3 2.57  11 2.57
                            14 2.57
   6  0.667  0.333  0.252-   4 2.57   9 2.57  15 2.57   3 2.57   1 2.57   8 2.57  14 2.57   5 2.57
                            12 2.57
   7  0.000  0.667  0.252-   1 2.57   3 2.57  16 2.57  18 2.57   4 2.57   5 2.57   8 2.57   9 2.57
                            13 2.57
   8  0.333  0.667  0.252-   9 2.57   2 2.57  17 2.57   6 2.57   1 2.57   7 2.57   5 2.57  14 2.57
                            16 2.57
   9  0.667  0.667  0.252-   8 2.57   6 2.57   2 2.57  17 2.57   3 2.57   7 2.57   4 2.57  15 2.57
                            18 2.57
  10  0.111  0.111  0.351-  20 2.53  11 2.57  12 2.57  13 2.57   1 2.57   2 2.57   4 2.57  15 2.57
                            16 2.57  17 2.57  26 2.57  19 2.57
  11  0.444  0.111  0.351-  20 2.55  21 2.55  10 2.57  13 2.57   2 2.57  17 2.57  14 2.57  12 2.57
                             5 2.57   3 2.57  18 2.57  27 2.58
  12  0.778  0.111  0.351-  21 2.53  15 2.57  10 2.57  14 2.57  18 2.57   3 2.57   1 2.57  16 2.57
                            11 2.57   6 2.57  19 2.57  25 2.57
  13  0.111  0.444  0.351-  23 2.55  20 2.55  16 2.57  18 2.57  10 2.57  11 2.57  14 2.57   5 2.57
                             4 2.57   7 2.57  15 2.57  22 2.58
  14  0.444  0.444  0.351-  21 2.55  23 2.55  15 2.57  17 2.57  12 2.57  16 2.57  13 2.57  11 2.57
                             6 2.57   8 2.57   5 2.57  24 2.58
  15  0.778  0.444  0.351-  19 2.57  14 2.57  17 2.57  12 2.57   6 2.57  18 2.57  10 2.57   9 2.57
                            13 2.57   4 2.57  24 2.57  22 2.57
  16  0.111  0.778  0.351-  23 2.53  18 2.57  13 2.57   7 2.57  14 2.57  17 2.57  12 2.57  10 2.57
                             8 2.57   1 2.57  25 2.57  26 2.57
  17  0.444  0.778  0.351-  26 2.57  14 2.57  15 2.57   8 2.57   9 2.57  11 2.57  16 2.57  18 2.57
                            10 2.57   2 2.57  27 2.57  24 2.57
  18  0.778  0.778  0.351-  25 2.57  16 2.57  13 2.57   7 2.57  15 2.57  12 2.57  17 2.57   9 2.57
                             3 2.57  11 2.57  22 2.57  27 2.57
  19  0.889  0.223  0.449-  21 2.55  20 2.55  22 2.56  24 2.56  28 2.56  15 2.57  12 2.57  10 2.57
                            25 2.57  26 2.57  32 2.59  31 2.59
  20  0.221  0.221  0.448-  36 2.53  10 2.53  11 2.55  13 2.55  26 2.55  19 2.55  27 2.57  22 2.57
                            23 2.59  21 2.59  29 2.61  31 2.61
  21  0.558  0.221  0.448-  36 2.53  12 2.53  14 2.55  11 2.55  19 2.55  25 2.55  24 2.57  27 2.57
                            20 2.59  23 2.59  32 2.61  30 2.61
  22  0.888  0.556  0.450-  24 2.55  27 2.55  35 2.55  19 2.56  25 2.56  18 2.57  15 2.57  23 2.57
                            20 2.57  13 2.58  31 2.59  33 2.59
  23  0.221  0.558  0.448-  36 2.53  16 2.53  13 2.55  14 2.55  25 2.55  26 2.55  22 2.57  24 2.57
                            20 2.59  21 2.59  33 2.61  34 2.61
  24  0.556  0.556  0.450-  22 2.55  27 2.55  35 2.55  19 2.56  26 2.56  15 2.57  17 2.57  21 2.57
                            23 2.57  14 2.58  32 2.59  34 2.59
  25  0.889  0.889  0.449-  21 2.55  23 2.55  22 2.56  27 2.56  28 2.56  18 2.57  16 2.57  12 2.57
                            19 2.57  26 2.57  33 2.59  30 2.59
  26  0.223  0.889  0.449-  20 2.55  23 2.55  27 2.56  24 2.56  28 2.56  17 2.57  10 2.57  16 2.57
                            25 2.57  19 2.57  29 2.59  34 2.59
  27  0.556  0.888  0.450-  24 2.55  22 2.55  35 2.55  26 2.56  25 2.56  17 2.57  18 2.57  20 2.57
                            21 2.57  11 2.58  29 2.59  30 2.59
  28  0.000  0.000  0.548-  33 2.56  30 2.56  31 2.56  29 2.56  32 2.56  34 2.56  25 2.56  19 2.56
                            26 2.56
  29  0.333  0.000  0.549-  31 2.56  28 2.56  36 2.57  34 2.57  35 2.57  30 2.57  26 2.59  27 2.59
                            20 2.61
  30  0.667  0.000  0.549-  32 2.56  28 2.56  36 2.57  33 2.57  35 2.57  29 2.57  25 2.59  27 2.59
                            21 2.61
  31  0.000  0.333  0.549-  29 2.56  28 2.56  36 2.57  32 2.57  35 2.57  33 2.57  19 2.59  22 2.59
                            20 2.61
  32  0.667  0.333  0.549-  30 2.56  28 2.56  36 2.57  31 2.57  35 2.57  34 2.57  19 2.59  24 2.59
                            21 2.61
  33  0.000  0.667  0.549-  34 2.56  28 2.56  36 2.57  30 2.57  35 2.57  31 2.57  25 2.59  22 2.59
                            23 2.61
  34  0.333  0.667  0.549-  33 2.56  28 2.56  36 2.57  29 2.57  35 2.57  32 2.57  26 2.59  24 2.59
                            23 2.61
  35  0.667  0.667  0.548-  24 2.55  27 2.55  22 2.55  34 2.57  32 2.57  29 2.57  30 2.57  33 2.57
                            31 2.57
  36  0.333  0.333  0.544-  37 1.72  23 2.53  20 2.53  21 2.53  31 2.57  29 2.57  33 2.57  34 2.57
                            32 2.57  30 2.57
  37  0.333  0.333  0.624-  36 1.72

  LATTYP: Found a hexagonal cell.
 ALAT       =     7.6967864036
 C/A-ratio  =     2.7653617908

  Lattice vectors:

 A1 = (  -3.8483927580,  -6.6656128093,   0.0000000000)
 A2 = (   7.6967864037,   0.0000000000,   0.0000000000)
 A3 = (   0.0000000000,   0.0000000000,  21.2843990326)

Analysis of symmetry for initial positions (statically):
 Subroutine PRICEL returns:
 Original cell was already a primitive cell.

 Routine SETGRP: Setting up the symmetry group for a
 hexagonal supercell.

 Subroutine GETGRP returns: Found  6 space group operations
 (whereof  6 operations were pure point group operations)
 out of a pool of 24 trial point group operations.

The static configuration has the point symmetry C_3v.

Analysis of symmetry for dynamics (positions and initial velocities):
 Subroutine PRICEL returns:
 Original cell was already a primitive cell.

[...]

The dynamic configuration has the point symmetry C_3v.

Analysis of constrained symmetry for selective dynamics:
 Subroutine PRICEL returns:
 Original cell was already a primitive cell.

 Routine SETGRP: Setting up the symmetry group for a
 hexagonal supercell.

 Subroutine GETGRP returns: Found  6 space group operations
[...]
     24      -4.3617      2.00000
     25      -4.2471      2.00000
     26      -4.2267      2.00000
     27      -4.1869      2.00000
     28      -4.1750      2.00000
     29      -4.1574      2.00000
     30      -4.1220      2.00000
     31      -4.1038      2.00000
     32      -4.0808      2.00000
     33      -4.0555      2.00000
     34      -4.0499      2.00000
     35      -4.0300      2.00000
     36      -3.9822      2.00000
     37      -3.9291      2.00000
     38      -3.8591      2.00000
     39      -3.8367      2.00000
     40      -3.8278      2.00000
     41      -3.7560      2.00000
     42      -3.7113      2.00000
     43      -3.6729      2.00000
     44      -3.6589      2.00000
     45      -3.6333      2.00000
     46      -3.6232      2.00000
     47      -3.5471      2.00000
     48      -3.5153      2.00000
     49      -3.4957      2.00000
     50      -3.4336      2.00000
     51      -3.4171      2.00000
     52      -3.3854      2.00000
     53      -3.3781      2.00000
     54      -3.3627      2.00000
     55      -3.3482      2.00000
     56      -3.3214      2.00000
     57      -3.3144      2.00000
     58      -3.3036      2.00000
     59      -3.2948      2.00000
     60      -3.2762      2.00000
[...]
    238       6.3234      0.00000
    239       6.4274      0.00000
    240       6.5016      0.00000
    241       7.0082      0.00000
    242       7.0237      0.00000
    243       7.0896      0.00000
    244       7.1496      0.00000
    245       7.2930      0.00000
    246       7.3943      0.00000
    247       7.4229      0.00000
    248       7.4740      0.00000
    249       7.5954      0.00000
    250       7.8172      0.00000
    251       7.8929      0.00000
    252       7.9921      0.00000

 soft charge-density along one line, spin component           1
         0         1         2         3         4         5         6         7         8         9
 total charge-density along one line

------------------------ aborting loop because EDIFF is reached ----------------------------------------

 total charge

# of ion       s       p       d       tot
    1        0.451   0.282   9.190   9.923
    2        0.449   0.285   9.187   9.920
    3        0.449   0.285   9.187   9.920
    4        0.449   0.285   9.187   9.920
    5        0.449   0.285   9.186   9.921
    6        0.449   0.285   9.187   9.920
    7        0.449   0.285   9.187   9.920
    8        0.449   0.285   9.187   9.920
    9        0.447   0.285   9.188   9.919
   10        0.442   0.370   9.180   9.991
   11        0.440   0.371   9.182   9.993
   12        0.442   0.370   9.180   9.991
   13        0.440   0.371   9.182   9.993
   14        0.440   0.371   9.182   9.993
   15        0.438   0.368   9.179   9.985
   16        0.442   0.370   9.180   9.991
   17        0.438   0.368   9.179   9.985
   18        0.438   0.368   9.179   9.985
   19        0.442   0.363   9.182   9.987
   20        0.465   0.401   9.170  10.036
   21        0.465   0.401   9.170  10.036
   22        0.431   0.372   9.178   9.981
   23        0.465   0.401   9.170  10.036
   24        0.431   0.372   9.178   9.981
   25        0.442   0.363   9.182   9.987
   26        0.442   0.363   9.182   9.987
   27        0.431   0.372   9.178   9.981
   28        0.454   0.285   9.186   9.925
   29        0.452   0.313   9.180   9.945
   30        0.452   0.313   9.180   9.945
   31        0.452   0.313   9.180   9.945
   32        0.452   0.313   9.180   9.945
   33        0.452   0.313   9.180   9.945
   34        0.452   0.313   9.180   9.945
   35        0.447   0.290   9.185   9.922
   36        0.702   0.655   5.089   6.447
   37        1.344   2.216   0.000   3.560
tot         17.672  14.621 326.436 358.729

  FORCE on cell =-STRESS in cart. coord.  units (eV):
  Direction    XX          YY          ZZ          XY          YZ          ZX
  Alpha Z   903.00647   903.00647   903.00647
  Ewald  171649.45119171649.45078************     0.00038     0.00012     0.00017
  Hartree184590.60478184590.60476************     0.00003     0.00006     0.00006
  E(xc)   -2300.30377 -2300.30327 -2305.57650    -0.00043    -0.00003    -0.00006
  Local  ************************369447.20997     0.01859    -0.00059    -0.00095
  n-local  -788.35011  -774.32720  -792.47356     7.91763    -0.07478     0.22559
  augment  3317.29921  3317.31938  3334.97416    -0.01747     0.00029     0.00052
  Kinetic  3324.18993  3326.96450  3332.03187     3.23806     1.75049    -1.40636
  Fock        0.00000     0.00000     0.00000     0.00000     0.00000     0.00000
  Total      -1.54002    -1.54002     1.63709     0.00000    -0.00000    -0.00000
  in kB      -2.25958    -2.25958     2.40199     0.00000    -0.00000    -0.00000

 VOLUME and BASIS-vectors are now :
  energy-cutoff  :      500.00
  volume of cell :     1091.97
      direct lattice vectors                 reciprocal lattice vectors
     7.696786404  0.000000000  0.000000000     0.129924354 -0.075011849  0.000000000
     3.848392758  6.665612809  0.000000000     0.000000000  0.150023716  0.000000000
     0.000000000  0.000000000 21.284399033     0.000000000  0.000000000  0.046982769

  length of vectors
     7.696786404  7.696786404 21.284399033     0.150023716  0.150023716  0.046982769

 FORCES acting on ions
    electron-ion (+dipol)            ewald-force                    non-local-force                 convergence-correction
   -.416E-04 0.149E-06 0.347E+04   0.580E-04 -.433E-05 -.347E+04   -.159E-18 0.195E-17 -.225E+01   -.400E-03 -.198E-03 -.126E+00
   -.178E+00 0.768E-01 0.347E+04   0.210E+00 -.662E-01 -.347E+04   -.233E-01 0.802E-01 -.196E+01   -.389E-02 -.812E-01 -.120E+00
   0.178E+00 0.768E-01 0.347E+04   -.210E+00 -.662E-01 -.347E+04   0.233E-01 0.802E-01 -.196E+01   0.479E-02 -.788E-01 -.119E+00
   -.223E-01 -.192E+00 0.347E+04   0.476E-01 0.215E+00 -.347E+04   0.578E-01 -.603E-01 -.196E+01   -.722E-01 0.372E-01 -.120E+00
   -.644E-04 -.498E-05 0.347E+04   0.116E-03 -.101E-04 -.347E+04   -.222E-17 -.197E-17 -.187E+01   0.121E-01 0.741E-02 -.118E+00
   0.223E-01 -.192E+00 0.347E+04   -.477E-01 0.215E+00 -.347E+04   -.578E-01 -.603E-01 -.196E+01   0.706E-01 0.383E-01 -.119E+00
   0.155E+00 0.116E+00 0.347E+04   -.162E+00 -.149E+00 -.347E+04   0.811E-01 -.199E-01 -.196E+01   -.658E-01 0.435E-01 -.119E+00
   -.155E+00 0.116E+00 0.347E+04   0.162E+00 -.149E+00 -.347E+04   -.811E-01 -.199E-01 -.196E+01   0.691E-01 0.420E-01 -.119E+00
   -.144E-03 -.329E-04 0.347E+04   0.263E-03 0.205E-04 -.347E+04   0.271E-17 0.958E-18 -.214E+01   -.131E-01 -.674E-02 -.118E+00
   0.168E+01 0.971E+00 0.116E+04   -.138E+01 -.795E+00 -.116E+04   -.334E+00 -.193E+00 -.742E+00   -.227E-01 -.131E-01 0.305E+00
   -.912E-04 0.335E+00 0.116E+04   0.190E-03 -.382E+00 -.116E+04   -.119E-07 0.179E+00 -.541E+00   0.123E-01 -.173E+00 0.294E+00
   -.168E+01 0.971E+00 0.116E+04   0.138E+01 -.795E+00 -.116E+04   0.334E+00 -.193E+00 -.742E+00   0.208E-01 -.125E-01 0.305E+00
   0.290E+00 -.168E+00 0.116E+04   -.331E+00 0.191E+00 -.116E+04   0.155E+00 -.893E-01 -.541E+00   -.144E+00 0.981E-01 0.294E+00
   -.290E+00 -.168E+00 0.116E+04   0.330E+00 0.191E+00 -.116E+04   -.155E+00 -.893E-01 -.541E+00   0.167E+00 0.960E-01 0.291E+00
   -.143E-03 -.936E+00 0.116E+04   0.298E-03 0.761E+00 -.116E+04   -.577E-08 0.867E-01 -.781E+00   -.323E-02 0.803E-01 0.306E+00
   -.916E-04 -.194E+01 0.116E+04   0.186E-03 0.159E+01 -.116E+04   -.257E-07 0.385E+00 -.742E+00   -.131E-02 0.231E-01 0.305E+00
   -.810E+00 0.468E+00 0.116E+04   0.659E+00 -.380E+00 -.116E+04   0.751E-01 -.433E-01 -.781E+00   0.686E-01 -.429E-01 0.306E+00
   0.810E+00 0.468E+00 0.116E+04   -.659E+00 -.380E+00 -.116E+04   -.751E-01 -.433E-01 -.781E+00   -.666E-01 -.401E-01 0.309E+00
   -.581E-04 -.314E+01 -.116E+04   0.699E-04 0.314E+01 0.116E+04   0.424E-08 -.637E-01 0.960E+00   -.110E-01 0.278E-01 0.420E+00
   -.335E+02 -.193E+02 -.117E+04   0.336E+02 0.194E+02 0.117E+04   -.363E+00 -.210E+00 0.371E+00   -.668E-01 -.387E-01 0.485E+00
   0.335E+02 -.193E+02 -.117E+04   -.336E+02 0.194E+02 0.117E+04   0.363E+00 -.210E+00 0.371E+00   0.478E-01 -.422E-01 0.484E+00
   -.207E+02 0.119E+02 -.117E+04   0.202E+02 -.117E+02 0.117E+04   0.593E+00 -.342E+00 0.108E+01   -.624E-01 0.513E-01 0.342E+00
   -.886E-04 0.387E+02 -.117E+04   0.146E-03 -.388E+02 0.117E+04   -.279E-07 0.419E+00 0.371E+00   -.138E-01 0.613E-01 0.484E+00
   0.207E+02 0.119E+02 -.117E+04   -.202E+02 -.117E+02 0.117E+04   -.593E+00 -.342E+00 0.108E+01   0.863E-01 0.489E-01 0.342E+00
   0.272E+01 0.157E+01 -.116E+04   -.272E+01 -.157E+01 0.116E+04   0.552E-01 0.319E-01 0.960E+00   -.423E-01 -.244E-01 0.419E+00
   -.272E+01 0.157E+01 -.116E+04   0.272E+01 -.157E+01 0.116E+04   -.552E-01 0.319E-01 0.960E+00   0.190E-01 -.232E-01 0.420E+00
   -.113E-03 -.239E+02 -.117E+04   0.240E-03 0.233E+02 0.117E+04   -.456E-07 0.685E+00 0.108E+01   0.132E-01 -.797E-01 0.342E+00
   -.479E-04 0.103E-04 -.342E+04   0.386E-04 -.326E-04 0.342E+04   0.162E-16 -.885E-17 0.193E+01   -.512E-03 -.245E-03 0.296E+00
   -.173E+02 -.260E+02 -.342E+04   0.173E+02 0.256E+02 0.342E+04   -.203E+00 0.100E+00 0.267E+01   0.106E-01 0.128E-01 0.196E+00
   0.173E+02 -.260E+02 -.342E+04   -.173E+02 0.256E+02 0.342E+04   0.203E+00 0.100E+00 0.267E+01   -.945E-02 0.137E-01 0.194E+00
   -.311E+02 -.194E+01 -.342E+04   0.308E+02 0.217E+01 0.342E+04   -.148E-01 -.226E+00 0.267E+01   0.164E-01 0.269E-02 0.196E+00
   0.311E+02 -.194E+01 -.342E+04   -.308E+02 0.217E+01 0.342E+04   0.148E-01 -.226E+00 0.267E+01   -.164E-01 0.293E-02 0.196E+00
   -.139E+02 0.279E+02 -.342E+04   0.135E+02 -.277E+02 0.342E+04   0.188E+00 0.126E+00 0.267E+01   0.715E-02 -.151E-01 0.194E+00
   0.139E+02 0.279E+02 -.342E+04   -.135E+02 -.277E+02 0.342E+04   -.188E+00 0.126E+00 0.267E+01   -.496E-02 -.157E-01 0.196E+00
   -.154E-03 -.298E-04 -.343E+04   0.252E-03 0.378E-05 0.342E+04   -.107E-17 0.102E-17 0.240E+01   -.121E-01 -.619E-02 0.288E+00
   -.285E-04 -.136E-04 -.198E+04   0.892E-04 0.167E-04 0.198E+04   -.112E-16 -.319E-17 0.145E+01   0.784E-03 0.469E-03 0.130E+00
   0.107E-03 -.494E-04 -.182E+04   0.168E-04 0.739E-05 0.184E+04   -.104E-17 0.293E-19 -.222E+02   0.139E-02 0.842E-03 -.185E+00
   -.157E-03 -.500E-04 0.103E+02   0.210E-12 0.129E-12 0.148E-10   0.125E-15 -.214E-17 -.174E+02   -.472E-02 -.578E-02 0.708E+01

 POSITION                                       TOTAL-FORCE (eV/Angst)
      0.00000      0.00000      5.37156         0.000000      0.000000      0.010357
      2.56560      0.00000      5.37156         0.005340      0.010669      0.064816
      5.13119      0.00000      5.37156        -0.005340      0.010669      0.064816
      1.28280      2.22187      5.37156         0.011909     -0.000710      0.064816
      3.84839      2.22187      5.37156        -0.000000      0.000000      0.058687
      6.41399      2.22187      5.37156        -0.011909     -0.000710      0.064816
      2.56560      4.44374      5.37156         0.006570     -0.009959      0.064816
      5.13119      4.44374      5.37156        -0.006570     -0.009959      0.064816
      7.69679      4.44374      5.37156         0.000000      0.000000      0.040565
      1.28280      0.74062      7.46636        -0.050367     -0.029079     -0.069884
      3.84839      0.74062      7.46636         0.000000     -0.047311     -0.055878
      6.41399      0.74062      7.46636         0.050367     -0.029079     -0.069884
      2.56560      2.96249      7.46636        -0.040972      0.023655     -0.055878
      5.13119      2.96249      7.46636         0.040972      0.023655     -0.055878
      7.69679      2.96249      7.46636         0.000000     -0.008201      0.028000
      3.84839      5.18437      7.46636        -0.000000      0.058159     -0.069884
      6.41399      5.18437      7.46636        -0.007102      0.004100      0.028000
      8.97958      5.18437      7.46636         0.007102      0.004100      0.028000
      7.69679      1.48486      9.56345         0.000000     -0.027035      0.040701
      2.55359      1.47432      9.53212        -0.320456     -0.185015     -0.433019
      5.14319      1.47432      9.53212         0.320456     -0.185015     -0.433019
      8.97343      3.70667      9.56919         0.077958     -0.045009      0.028682
      3.84839      3.71698      9.53212        -0.000000      0.370031     -0.433019
      6.42014      3.70667      9.56919        -0.077958     -0.045009      0.028682
     10.25925      5.92318      9.56345         0.023413      0.013517      0.040701
      5.13432      5.92318      9.56345        -0.023413      0.013517      0.040701
      7.69679      5.91789      9.56919        -0.000000      0.090018      0.028682
      0.00000      0.00000     11.65394         0.000000      0.000000     -0.080599
      2.56263      0.00314     11.68588        -0.181672     -0.320906     -0.217527
      5.13415      0.00314     11.68588         0.181672     -0.320906     -0.217527
      1.28404      2.21774     11.68588        -0.368749      0.003120     -0.217527
      6.41275      2.21774     11.68588         0.368749      0.003120     -0.217527
      2.56979      4.44474     11.68588        -0.187077      0.317786     -0.217527
      5.12699      4.44474     11.68588         0.187077      0.317786     -0.217527
      7.69679      4.44374     11.65455         0.000000      0.000000     -0.023482
      3.84839      2.22187     11.57229         0.000000      0.000000      2.296801
      3.84839      2.22187     13.29195         0.000000      0.000000     -0.001860
    total drift:                               -0.004878     -0.005832     -0.029863

  FREE ENERGIE OF THE ION-ELECTRON SYSTEM (eV)
  free  energy   TOTEN  =      -140.90094120 eV

  energy  without entropy=     -140.90094120  energy(sigma->0) =     -140.90094120

 stress matrix after NEB project (eV)
     -1.54002      0.00000     -0.00000
      0.00000     -1.54002      0.00000
     -0.00000     -0.00000      1.63709
  FORCES: max atom, RMS     0.001860    0.000306
  FORCE total and by dimension    0.001860    0.001860
  Stress total and by dimension    2.724592    1.637088
|           W    W    AA    RRRRR   N    N  II  N    N   GGGG   !!!           |
|           W    W   A  A   R    R  NN   N  II  NN   N  G    G  !!!           |
|           W    W  A    A  R    R  N N  N  II  N N  N  G       !!!           |
|           W WW W  AAAAAA  RRRRR   N  N N  II  N  N N  G  GGG   !            |
|           WW  WW  A    A  R   R   N   NN  II  N   NN  G    G                |
|           W    W  A    A  R    R  N    N  II  N    N   GGGG   !!!           |
|     Tetrahedron method does not include variations of the Fermi             |
|     occupations, so forces and stress will be inaccurate. We suggest        |
|     using a different smearing scheme ISMEAR = 1 or 2 for metals in         |
|     relaxations.                                                            |

 total charge

# of ion       s       p       d       tot
    1        0.451   0.282   9.190   9.923
    2        0.449   0.285   9.187   9.920
    3        0.449   0.285   9.187   9.920
    4        0.449   0.285   9.187   9.920
    5        0.449   0.285   9.186   9.921
    6        0.449   0.285   9.187   9.920
    7        0.449   0.285   9.187   9.920
    8        0.449   0.285   9.187   9.920
    9        0.447   0.285   9.188   9.919
   10        0.442   0.370   9.180   9.991
   11        0.440   0.371   9.182   9.993
   12        0.442   0.370   9.180   9.991
   13        0.440   0.371   9.182   9.993
   14        0.440   0.371   9.182   9.993
   15        0.438   0.368   9.179   9.985
   16        0.442   0.370   9.180   9.991
   17        0.438   0.368   9.179   9.985
   18        0.438   0.368   9.179   9.985
   19        0.442   0.363   9.182   9.987
   20        0.465   0.401   9.170  10.036
   21        0.465   0.401   9.170  10.036
   22        0.431   0.372   9.178   9.981
   23        0.465   0.401   9.170  10.036
   24        0.431   0.372   9.178   9.981
   25        0.442   0.363   9.182   9.987
   26        0.442   0.363   9.182   9.987
   27        0.431   0.372   9.178   9.981
   28        0.454   0.285   9.186   9.925
   29        0.452   0.313   9.180   9.945
   30        0.452   0.313   9.180   9.945
   31        0.452   0.313   9.180   9.945
   32        0.452   0.313   9.180   9.945
   33        0.452   0.313   9.180   9.945
   34        0.452   0.313   9.180   9.945
   35        0.447   0.290   9.185   9.922
   36        0.702   0.655   5.089   6.447
   37        1.344   2.216   0.000   3.560
tot         17.672  14.621 326.436 358.729

 BZINTS: Fermi energy:    0.041844;  397.000000 electrons
         Band energy:-0.113367E+04;  BLOECHL correction:   -0.042771