 vasp.6.2.0 18Jan21 (build Jun 12 2021 23:27:24) complex

 executed on             LinuxIFC date 2022.05.27  05:22:09

 INCAR:
   ISMEAR = -5
   SIGMA = 0.1
   ISPIN = 1
   EDIFF = 1.d-5
   EDIFFG = -0.01
   NSW = 0
   NELM = 150
   ENCUT = 500
   ISIF = 2
   IBRION = 2
   LREAL = Auto
   ALGO = Fast
   ICHARG = 11
   LORBIT = 10
   LCHARG = .F.
   LWAVE = .F.

 POTCAR:    PAW_PBE Au 04Oct2007
 POTCAR:    PAW_PBE Ir 06Sep2000
 POTCAR:    PAW_PBE C 08Apr2002
 POTCAR:    PAW_PBE O 08Apr2002
|           W    W    AA    RRRRR   N    N  II  N    N   GGGG   !!!           |
|           W    W   A  A   R    R  NN   N  II  NN   N  G    G  !!!           |
|           W    W  A    A  R    R  N N  N  II  N N  N  G       !!!           |
|           W WW W  AAAAAA  RRRRR   N  N N  II  N  N N  G  GGG   !            |
|           WW  WW  A    A  R   R   N   NN  II  N   NN  G    G                |
|           W    W  A    A  R    R  N    N  II  N    N   GGGG   !!!           |
|     For optimal performance we recommend to set                             |
|       NCORE = 2 up to number-of-cores-per-socket                            |
|     This setting can greatly improve the performance of VASP for DFT.       |
|     The default, NCORE=1 might be grossly inefficient on modern             |
|     multi-core architectures or massively parallel machines. Do your        |
|     Unfortunately you need to use the default for GW and RPA                |
|     calculations (for HF NCORE is supported but not extensively tested      |
|     yet).                                                                   |

 POTCAR:    PAW_PBE Au 04Oct2007
   VRHFIN =Au: s1d10

   TITEL  = PAW_PBE Au 04Oct2007
   POMASS =  196.966; ZVAL   =   11.000    mass and valenz
   ENMAX  =  229.943; ENMIN  =  172.457 eV

 POTCAR:    PAW_PBE Ir 06Sep2000
   VRHFIN =Ir: s1d8

   TITEL  = PAW_PBE Ir 06Sep2000
   POMASS =  192.220; ZVAL   =    9.000    mass and valenz
   ENMAX  =  210.864; ENMIN  =  158.148 eV

 POTCAR:    PAW_PBE C 08Apr2002
   VRHFIN =C: s2p2

   TITEL  = PAW_PBE C 08Apr2002
   POMASS =   12.011; ZVAL   =    4.000    mass and valenz
   ENMAX  =  400.000; ENMIN  =  300.000 eV

 POTCAR:    PAW_PBE O 08Apr2002
   VRHFIN =O: s2p4

   TITEL  = PAW_PBE O 08Apr2002
   POMASS =   16.000; ZVAL   =    6.000    mass and valenz
   ENMAX  =  400.000; ENMIN  =  300.000 eV

 Optimization of the real space projectors (new method)

 maximal supplied QI-value         = 15.12
 optimisation between [QCUT,QGAM] = [ 11.34, 22.83] = [ 36.00,145.93] Ry
 Optimized for a Real-space Cutoff    1.39 Angstroem

   l    n(q)    QCUT    max X(q) W(low)/X(q) W(high)/X(q)  e(spline)
   2      9    11.338    60.898    0.39E-03    0.42E-03    0.21E-06
   2      9    11.338    58.894    0.40E-03    0.42E-03    0.22E-06
   0      9    11.338   109.617    0.13E-03    0.20E-04    0.13E-06
   0      9    11.338    75.026    0.13E-03    0.20E-04    0.13E-06
   1      9    11.338    16.344    0.33E-04    0.24E-03    0.18E-06
   1      9    11.338    10.160    0.26E-04    0.19E-03    0.15E-06
 Optimization of the real space projectors (new method)

[...]

   l    n(q)    QCUT    max X(q) W(low)/X(q) W(high)/X(q)  e(spline)
   0      7    11.310   115.676    0.43E-03    0.13E-02    0.19E-06
   0      7    11.310    87.132    0.43E-03    0.13E-02    0.18E-06
   1      6    11.310     4.429    0.42E-03    0.74E-03    0.11E-06
   1      6    11.310     2.733    0.34E-03    0.55E-03    0.92E-07
 Optimization of the real space projectors (new method)

 maximal supplied QI-value         = 24.76
 optimisation between [QCUT,QGAM] = [ 11.39, 22.77] = [ 36.31,145.25] Ry
 Optimized for a Real-space Cutoff    1.00 Angstroem

   l    n(q)    QCUT    max X(q) W(low)/X(q) W(high)/X(q)  e(spline)
   0      7    11.387    20.381    0.39E-03    0.13E-02    0.15E-06
   0      7    11.387    15.268    0.42E-03    0.14E-02    0.17E-06
   1      6    11.387     5.964    0.41E-03    0.11E-02    0.17E-06
   1      6    11.387     5.382    0.39E-03    0.87E-03    0.15E-06
  PAW_PBE Au 04Oct2007                  :
  PAW_PBE Ir 06Sep2000                  :
  PAW_PBE C 08Apr2002                   :
  PAW_PBE O 08Apr2002                   :

 POSCAR: Au-Ir-CO
  positions in direct lattice
  velocities in cartesian coordinates
 exchange correlation table for  LEXCH =        8
   RHO(1)=    0.500       N(1)  =     2000
   RHO(2)=  100.500       N(2)  =     4000

 VTST: version 3.2, (02/03/18)

 CHAIN: initializing optimizer

 OPT: Using VASP Conjugate-Gradient optimizer
 CHAIN: Read ICHAIN            0

 POSCAR: Au-Ir-CO
  positions in direct lattice
  velocities in cartesian coordinates

 ion  position               nearest neighbor table
   1  0.000  0.000  0.238-  16 2.94  12 2.94   6 2.94   8 2.94   7 2.94   3 2.94  10 2.94   4 2.94
                             2 2.94
   2  0.333  0.000  0.238-   9 2.94  11 2.94  17 2.94  10 2.94   8 2.94   4 2.94   5 2.94   1 2.94
                             3 2.94
   3  0.667  0.000  0.238-   7 2.94  18 2.94  12 2.94   1 2.94  11 2.94   5 2.94   6 2.94   9 2.94
                             2 2.94
   4  0.000  0.333  0.238-  10 2.94   6 2.94   5 2.94  13 2.94   2 2.94  15 2.94   9 2.94   1 2.94
                             7 2.94
   5  0.333  0.333  0.238-  13 2.94   7 2.94  11 2.94   4 2.94   2 2.94  14 2.94   3 2.94   8 2.94
                             6 2.94
   6  0.667  0.333  0.238-  15 2.94  14 2.94   1 2.94  12 2.94   4 2.94   9 2.94   8 2.94   3 2.94
                             5 2.94
   7  0.000  0.667  0.238-  18 2.94   3 2.94  16 2.94   5 2.94   1 2.94  13 2.94   8 2.94   4 2.94
                             9 2.94
   8  0.333  0.667  0.238-   9 2.94  17 2.94   1 2.94   2 2.94  14 2.94  16 2.94   6 2.94   7 2.94
                             5 2.94
   9  0.667  0.667  0.238-   2 2.94   8 2.94  17 2.94   6 2.94  15 2.94   4 2.94   3 2.94  18 2.94
                             7 2.94
  10  0.111  0.111  0.346-  20 2.90  11 2.94  17 2.94   2 2.94   4 2.94   1 2.94  12 2.94  16 2.94
                            13 2.94  15 2.94  26 2.94  19 2.94
  11  0.444  0.111  0.346-  20 2.91  21 2.91  27 2.93  13 2.94   2 2.94  10 2.94  17 2.94   5 2.94
                             3 2.94  18 2.94  14 2.94  12 2.94
  12  0.778  0.111  0.346-  21 2.90  16 2.94  18 2.94   1 2.94  14 2.94  15 2.94   3 2.94   6 2.94
                            10 2.94  11 2.94  25 2.94  19 2.94
  13  0.111  0.444  0.346-  23 2.91  20 2.91  22 2.93   5 2.94  18 2.94  11 2.94   7 2.94   4 2.94
                            16 2.94  10 2.94  14 2.94  15 2.94
  14  0.444  0.444  0.346-  21 2.91  23 2.91  24 2.93  15 2.94   6 2.94  12 2.94   8 2.94  17 2.94
                             5 2.94  16 2.94  13 2.94  11 2.94
  15  0.778  0.444  0.346-  24 2.92  22 2.92  14 2.94   6 2.94  17 2.94  12 2.94   9 2.94   4 2.94
                            10 2.94  13 2.94  18 2.94  19 2.94
  16  0.111  0.778  0.346-  23 2.90  18 2.94  12 2.94   7 2.94   1 2.94   8 2.94  13 2.94  10 2.94
                            14 2.94  17 2.94  25 2.94  26 2.94
  17  0.444  0.778  0.346-  27 2.92  24 2.92   9 2.94  15 2.94   2 2.94  10 2.94  11 2.94   8 2.94
                            14 2.94  16 2.94  18 2.94  26 2.94
  18  0.778  0.778  0.346-  22 2.92  27 2.92  16 2.94   7 2.94  13 2.94  12 2.94   3 2.94  11 2.94
                             9 2.94  15 2.94  17 2.94  25 2.94
  19  0.889  0.223  0.454-  21 2.93  20 2.93  24 2.93  22 2.93  15 2.94  10 2.94  12 2.94  26 2.95
                            25 2.95  28 2.95  32 2.96  31 2.96
  20  0.222  0.222  0.452-  36 2.78  10 2.90  11 2.91  13 2.91  26 2.93  19 2.93  29 2.95  31 2.95
                            27 2.95  22 2.95  23 2.95  21 2.95
  21  0.557  0.222  0.452-  36 2.78  12 2.90  14 2.91  11 2.91  25 2.93  19 2.93  30 2.95  32 2.95
                            24 2.95  27 2.95  20 2.95  23 2.95
  22  0.887  0.557  0.453-  24 2.91  27 2.91  18 2.92  15 2.92  13 2.93  25 2.93  19 2.93  23 2.95
                            20 2.95  35 2.95  33 2.96  31 2.96
  23  0.222  0.557  0.452-  36 2.78  16 2.90  13 2.91  14 2.91  25 2.93  26 2.93  33 2.95  34 2.95
                            22 2.95  24 2.95  20 2.95  21 2.95
  24  0.557  0.557  0.453-  27 2.91  22 2.91  15 2.92  17 2.92  14 2.93  26 2.93  19 2.93  21 2.95
                            23 2.95  35 2.95  32 2.96  34 2.96
  25  0.889  0.889  0.454-  23 2.93  21 2.93  22 2.93  27 2.93  18 2.94  16 2.94  12 2.94  19 2.95
                            26 2.95  28 2.95  33 2.96  30 2.96
  26  0.223  0.889  0.454-  20 2.93  23 2.93  27 2.93  24 2.93  17 2.94  10 2.94  16 2.94  19 2.95
                            25 2.95  28 2.95  29 2.96  34 2.96
  27  0.557  0.887  0.453-  24 2.91  22 2.91  17 2.92  18 2.92  11 2.93  26 2.93  25 2.93  20 2.95
                            21 2.95  35 2.95  29 2.96  30 2.96
  28  0.000  0.000  0.563-  25 2.95  19 2.95  26 2.95  34 2.96  32 2.96  33 2.96  30 2.96  31 2.96
                            29 2.96
  29  0.333  0.005  0.562-  31 2.89  30 2.89  36 2.90  20 2.95  28 2.96  35 2.96  27 2.96  26 2.96
                            34 3.03
  30  0.661  0.005  0.562-  32 2.89  29 2.89  36 2.90  21 2.95  28 2.96  35 2.96  27 2.96  25 2.96
                            33 3.03
  31  0.005  0.333  0.562-  29 2.89  33 2.89  36 2.90  20 2.95  28 2.96  35 2.96  22 2.96  19 2.96
                            32 3.03
  32  0.661  0.333  0.562-  30 2.89  34 2.89  36 2.90  21 2.95  28 2.96  35 2.96  24 2.96  19 2.96
                            31 3.03
  33  0.005  0.661  0.562-  34 2.89  31 2.89  36 2.90  23 2.95  28 2.96  35 2.96  22 2.96  25 2.96
                            30 3.03
  34  0.333  0.661  0.562-  33 2.89  32 2.89  36 2.90  23 2.95  28 2.96  35 2.96  24 2.96  26 2.96
                            29 3.03
  35  0.667  0.667  0.563-  24 2.95  27 2.95  22 2.95  29 2.96  34 2.96  32 2.96  31 2.96  30 2.96
                            33 2.96
  36  0.333  0.333  0.551-  37 1.85  20 2.78  23 2.78  21 2.78  33 2.90  31 2.90  29 2.90  30 2.90
                            34 2.90  32 2.90
  37  0.333  0.333  0.635-  38 1.17  36 1.85
  38  0.333  0.333  0.687-  37 1.17

  LATTYP: Found a hexagonal cell.
 ALAT       =     8.8135128021
 C/A-ratio  =     2.5184286595

  Lattice vectors:

 A1 = (  -4.4067569092,  -7.6327256898,   0.0000000000)
 A2 = (   8.8135128021,   0.0000000000,   0.0000000000)
 A3 = (   0.0000000000,   0.0000000000,  22.1962032318)

Analysis of symmetry for initial positions (statically):
 Subroutine PRICEL returns:
 Original cell was already a primitive cell.

 Routine SETGRP: Setting up the symmetry group for a
 hexagonal supercell.

 Subroutine GETGRP returns: Found  6 space group operations
 (whereof  6 operations were pure point group operations)
 out of a pool of 24 trial point group operations.

The static configuration has the point symmetry C_3v.

Analysis of symmetry for dynamics (positions and initial velocities):
 Subroutine PRICEL returns:
 Original cell was already a primitive cell.

[...]

The dynamic configuration has the point symmetry C_3v.

Analysis of constrained symmetry for selective dynamics:
 Subroutine PRICEL returns:
[...]
     33      -4.7956      2.00000
     34      -4.7103      2.00000
     35      -4.6997      2.00000
     36      -4.6969      2.00000
     37      -4.6715      2.00000
     38      -4.6660      2.00000
     39      -4.6566      2.00000
     40      -4.5592      2.00000
     41      -4.5389      2.00000
     42      -4.4558      2.00000
     43      -4.4546      2.00000
     44      -4.3903      2.00000
     45      -4.3248      2.00000
     46      -4.2955      2.00000
     47      -4.2476      2.00000
     48      -4.2370      2.00000
     49      -4.2085      2.00000
     50      -4.2078      2.00000
     51      -4.1038      2.00000
     52      -4.0763      2.00000
     53      -4.0506      2.00000
     54      -4.0375      2.00000
     55      -4.0236      2.00000
     56      -4.0226      2.00000
     57      -4.0104      2.00000
     58      -3.9698      2.00000
     59      -3.9349      2.00000
     60      -3.8958      2.00000
[...]
    238       6.1735      0.00000
    239       6.4931      0.00000
    240       6.5191      0.00000
    241       6.5576      0.00000
    242       6.5645      0.00000
    243       6.6132      0.00000
    244       6.7865      0.00000
    245       6.8672      0.00000
    246       6.8759      0.00000
    247       6.9296      0.00000
    248       6.9436      0.00000
    249       7.2768      0.00000
    250       7.3196      0.00000
    251       7.4057      0.00000
    252       7.7097      0.00000

 soft charge-density along one line, spin component           1
         0         1         2         3         4         5         6         7         8         9
 total charge-density along one line

------------------------ aborting loop because EDIFF is reached ----------------------------------------

 total charge

# of ion       s       p       d       tot
    1        0.544   0.238   8.769   9.552
    2        0.545   0.240   8.765   9.550
    3        0.545   0.240   8.765   9.550
    4        0.545   0.240   8.765   9.550
    5        0.543   0.242   8.760   9.545
    6        0.545   0.240   8.765   9.550
    7        0.545   0.240   8.765   9.550
    8        0.545   0.240   8.765   9.550
    9        0.541   0.239   8.771   9.551
   10        0.520   0.309   8.768   9.597
   11        0.522   0.307   8.780   9.609
   12        0.520   0.309   8.768   9.597
   13        0.522   0.307   8.780   9.609
   14        0.522   0.307   8.780   9.609
   15        0.513   0.309   8.775   9.597
   16        0.520   0.309   8.768   9.597
   17        0.513   0.309   8.775   9.597
   18        0.513   0.309   8.775   9.597
   19        0.518   0.302   8.775   9.595
   20        0.544   0.330   8.756   9.629
   21        0.544   0.330   8.756   9.629
   22        0.509   0.310   8.774   9.593
   23        0.544   0.330   8.756   9.629
   24        0.509   0.310   8.774   9.593
   25        0.518   0.302   8.775   9.595
   26        0.518   0.302   8.775   9.595
   27        0.509   0.310   8.774   9.593
   28        0.541   0.227   8.772   9.541
   29        0.539   0.245   8.766   9.550
   30        0.539   0.245   8.766   9.550
   31        0.539   0.245   8.766   9.550
   32        0.539   0.245   8.766   9.550
   33        0.539   0.245   8.766   9.550
   34        0.539   0.245   8.766   9.550
   35        0.537   0.227   8.775   9.540
   36        0.615   0.595   7.116   8.327
   37        0.951   1.580   0.000   2.531
   38        1.614   3.528   0.000   5.142
tot         21.774  15.388 314.030 351.192

  FORCE on cell =-STRESS in cart. coord.  units (eV):
  Direction    XX          YY          ZZ          XY          YZ          ZX
  Alpha Z  1048.86639  1048.86639  1048.86639
  Ewald  118069.16514118069.16557************    -0.00032    -0.00008    -0.00012
  Hartree127007.53223127007.53224************     0.00001    -0.00002    -0.00003
  E(xc)   -1813.91009 -1813.91016 -1819.42016     0.00007    -0.00001    -0.00001
  Local  ************************257196.83740     0.00209     0.00001    -0.00002
  n-local  -115.05544   -63.48090   -70.11625    24.24197    -1.36013     1.46795
  augment  2415.02828  2415.02985  2422.90965    -0.00136     0.00000     0.00003
  Kinetic  5663.08493  5675.86171  5672.10666     6.32979     0.00358     0.41299
  Fock        0.00000     0.00000     0.00000     0.00000     0.00000     0.00000
  Total     -18.49513   -18.49513     3.16775    -0.00000     0.00000     0.00000
  in kB     -19.84543   -19.84543     3.39903    -0.00000     0.00000     0.00000

 VOLUME and BASIS-vectors are now :
  energy-cutoff  :      500.00
  volume of cell :     1493.16
      direct lattice vectors                 reciprocal lattice vectors
     8.813512802  0.000000000  0.000000000     0.113462137 -0.065507406  0.000000000
     4.406756909  7.632725690  0.000000000     0.000000000  0.131014796  0.000000000
     0.000000000  0.000000000 22.196203232     0.000000000  0.000000000  0.045052750

  length of vectors
     8.813512802  8.813512802 22.196203232     0.131014796  0.131014796  0.045052750

 FORCES acting on ions
    electron-ion (+dipol)            ewald-force                    non-local-force                 convergence-correction
   -.195E-04 -.161E-04 0.250E+04   0.519E-04 0.434E-04 -.250E+04   0.324E-18 0.911E-18 -.105E+01   -.296E-03 -.184E-03 -.298E+00
   0.449E+00 0.317E+00 0.250E+04   -.554E+00 -.375E+00 -.250E+04   0.518E-01 0.631E-01 -.343E+00   0.546E-01 0.165E-01 -.334E+00
   -.449E+00 0.317E+00 0.250E+04   0.554E+00 -.375E+00 -.250E+04   -.518E-01 0.631E-01 -.343E+00   -.542E-01 0.184E-01 -.334E+00
   0.499E+00 0.231E+00 0.250E+04   -.602E+00 -.292E+00 -.250E+04   0.806E-01 0.133E-01 -.343E+00   0.416E-01 0.390E-01 -.334E+00
   0.854E-05 -.233E-04 0.250E+04   0.952E-04 0.174E-05 -.250E+04   0.376E-18 -.929E-18 -.161E+00   0.432E-02 0.263E-02 -.338E+00
   -.499E+00 0.231E+00 0.250E+04   0.602E+00 -.292E+00 -.250E+04   -.806E-01 0.133E-01 -.343E+00   -.432E-01 0.398E-01 -.333E+00
   0.497E-01 -.548E+00 0.250E+04   -.482E-01 0.667E+00 -.250E+04   0.287E-01 -.764E-01 -.343E+00   -.111E-01 -.562E-01 -.333E+00
   -.498E-01 -.548E+00 0.250E+04   0.481E-01 0.667E+00 -.250E+04   -.287E-01 -.764E-01 -.343E+00   0.129E-01 -.573E-01 -.333E+00
   0.194E-04 -.416E-04 0.250E+04   0.166E-03 -.201E-04 -.250E+04   0.385E-17 0.154E-17 -.671E+00   -.456E-02 -.236E-02 -.334E+00
   0.613E+01 0.354E+01 0.870E+03   -.580E+01 -.335E+01 -.869E+03   -.331E+00 -.191E+00 -.718E+00   0.914E-02 0.516E-02 -.235E+00
   0.141E-04 0.432E+01 0.876E+03   0.149E-03 -.430E+01 -.875E+03   0.379E-08 0.569E-01 -.290E+00   0.437E-02 -.120E+00 -.297E+00
   -.613E+01 0.354E+01 0.870E+03   0.580E+01 -.335E+01 -.869E+03   0.331E+00 -.191E+00 -.718E+00   -.110E-01 0.640E-02 -.235E+00
   0.374E+01 -.216E+01 0.876E+03   -.373E+01 0.215E+01 -.875E+03   0.493E-01 -.284E-01 -.290E+00   -.102E+00 0.642E-01 -.297E+00
   -.374E+01 -.216E+01 0.876E+03   0.373E+01 0.215E+01 -.875E+03   -.493E-01 -.284E-01 -.290E+00   0.109E+00 0.630E-01 -.298E+00
   0.307E-04 0.307E+01 0.872E+03   0.236E-03 -.312E+01 -.871E+03   -.121E-08 -.181E-01 -.521E+00   -.250E-02 0.268E-01 -.223E+00
   -.215E-04 -.708E+01 0.870E+03   0.163E-03 0.670E+01 -.869E+03   0.254E-07 0.382E+00 -.718E+00   -.175E-03 -.127E-01 -.235E+00
   0.266E+01 -.154E+01 0.872E+03   -.270E+01 0.156E+01 -.871E+03   -.157E-01 0.907E-02 -.521E+00   0.222E-01 -.152E-01 -.223E+00
   -.266E+01 -.154E+01 0.872E+03   0.270E+01 0.156E+01 -.871E+03   0.157E-01 0.907E-02 -.521E+00   -.217E-01 -.128E-01 -.221E+00
   -.414E-04 0.467E+01 -.795E+03   0.530E-04 -.470E+01 0.794E+03   -.201E-08 -.301E-01 0.618E+00   -.466E-02 0.456E-01 -.481E-01
   0.145E+02 0.839E+01 -.748E+03   -.136E+02 -.783E+01 0.749E+03   -.872E+00 -.504E+00 -.837E+00   -.586E-01 -.340E-01 0.308E-01
   -.145E+02 0.839E+01 -.748E+03   0.136E+02 -.783E+01 0.749E+03   0.872E+00 -.504E+00 -.837E+00   0.609E-01 -.343E-01 0.306E-01
   0.961E+00 -.555E+00 -.781E+03   -.126E+01 0.724E+00 0.780E+03   0.351E+00 -.203E+00 0.622E+00   -.102E-01 0.773E-02 -.762E-01
   -.134E-04 -.168E+02 -.748E+03   0.143E-03 0.157E+02 0.749E+03   0.671E-07 0.101E+01 -.837E+00   0.469E-03 0.699E-01 0.306E-01
   -.961E+00 -.555E+00 -.781E+03   0.125E+01 0.724E+00 0.780E+03   -.351E+00 -.203E+00 0.622E+00   0.101E-01 0.589E-02 -.762E-01
   -.404E+01 -.233E+01 -.795E+03   0.407E+01 0.235E+01 0.794E+03   0.261E-01 0.151E-01 0.618E+00   -.438E-01 -.254E-01 -.484E-01
   0.404E+01 -.233E+01 -.795E+03   -.407E+01 0.235E+01 0.794E+03   -.261E-01 0.151E-01 0.618E+00   0.374E-01 -.268E-01 -.480E-01
   0.945E-05 0.111E+01 -.781E+03   0.200E-03 -.145E+01 0.780E+03   0.270E-07 0.405E+00 0.622E+00   0.106E-02 -.127E-01 -.762E-01
   -.127E-04 -.130E-04 -.243E+04   0.292E-04 0.348E-04 0.243E+04   0.255E-18 0.128E-17 0.589E+00   -.402E-03 -.251E-03 0.281E+00
   0.287E+02 0.499E+02 -.239E+04   -.286E+02 -.498E+02 0.239E+04   -.265E+00 -.345E+00 0.536E+00   0.262E-01 -.280E-01 0.307E+00
   -.287E+02 0.499E+02 -.239E+04   0.286E+02 -.498E+02 0.239E+04   0.265E+00 -.345E+00 0.536E+00   -.255E-01 -.264E-01 0.306E+00
   0.576E+02 -.130E+00 -.239E+04   -.574E+02 0.182E+00 0.239E+04   -.432E+00 -.571E-01 0.536E+00   -.111E-01 0.366E-01 0.307E+00
   -.576E+02 -.130E+00 -.239E+04   0.574E+02 0.182E+00 0.239E+04   0.432E+00 -.571E-01 0.536E+00   0.978E-02 0.370E-01 0.306E+00
   0.289E+02 -.498E+02 -.239E+04   -.289E+02 0.496E+02 0.239E+04   -.166E+00 0.402E+00 0.536E+00   -.356E-01 -.886E-02 0.306E+00
   -.289E+02 -.498E+02 -.239E+04   0.289E+02 0.496E+02 0.239E+04   0.166E+00 0.402E+00 0.536E+00   0.370E-01 -.100E-01 0.306E+00
   0.306E-04 -.273E-04 -.243E+04   0.144E-03 -.503E-04 0.243E+04   0.240E-17 -.412E-17 0.669E+00   -.431E-02 -.220E-02 0.306E+00
   -.134E-04 -.187E-04 -.171E+04   0.926E-04 0.834E-05 0.171E+04   -.602E-17 0.143E-17 -.125E+01   0.250E-02 0.152E-02 0.259E+00
   -.575E-05 -.870E-04 -.861E+03   0.143E-04 0.925E-06 0.847E+03   0.113E-18 -.136E-18 0.135E+02   0.126E-02 0.768E-03 0.757E-01
   0.242E-03 -.915E-04 -.152E+04   0.555E-05 0.521E-06 0.158E+04   -.138E-18 -.176E-19 -.602E+02   0.376E-02 0.230E-02 0.303E-01
   -.497E-03 -.932E-03 0.541E+02   -.128E-12 0.523E-13 -.523E-11   -.314E-16 -.584E-16 -.508E+02   0.463E-02 0.343E-02 -.273E+01

 POSITION                                       TOTAL-FORCE (eV/Angst)
      0.00000      0.00000      5.28038         0.000000     -0.000000     -0.088850
      2.93784      0.00000      5.28038         0.002510      0.022195     -0.040988
      5.87568      0.00000      5.28038        -0.002510      0.022195     -0.040988
      1.46892      2.54424      5.28038         0.020477     -0.008923     -0.040988
      4.40676      2.54424      5.28038         0.000000     -0.000000     -0.058283
      7.34459      2.54424      5.28038        -0.020477     -0.008923     -0.040988
      2.93784      5.08848      5.28038         0.017966     -0.013272     -0.040988
      5.87568      5.08848      5.28038        -0.017966     -0.013272     -0.040988
      8.81351      5.08848      5.28038         0.000000     -0.000000     -0.045216
      1.46892      0.84808      7.67911         0.003905      0.002255      0.111698
      4.40676      0.84808      7.67911        -0.000000     -0.047369      0.019542
      7.34459      0.84808      7.67911        -0.003905      0.002255      0.111698
      2.93784      3.39232      7.67911        -0.041023      0.023685      0.019542
      5.87568      3.39232      7.67911         0.041023      0.023685      0.019542
      8.81351      3.39232      7.67911        -0.000000     -0.035881      0.080392
      4.40676      5.93656      7.67911        -0.000000     -0.004509      0.111698
      7.34459      5.93656      7.67911        -0.031074      0.017940      0.080392
     10.28243      5.93656      7.67911         0.031074      0.017940      0.080392
      8.81351      1.70038     10.08128        -0.000000     -0.014539     -0.013996
      2.93047      1.69191     10.03818         0.026467      0.015281     -0.218854
      5.88304      1.69191     10.03818        -0.026467      0.015281     -0.218854
     10.26792      4.24878     10.06124         0.046272     -0.026715      0.004099
      4.40676      4.24891     10.03818        -0.000000     -0.030562     -0.218854
      7.35911      4.24878     10.06124        -0.046272     -0.026715      0.004099
     11.74770      6.78254     10.08128         0.012591      0.007269     -0.013996
      5.87933      6.78254     10.08128        -0.012591      0.007269     -0.013996
      8.81351      6.76789     10.06124         0.000000      0.053431      0.004099
      0.00000      0.00000     12.49619         0.000000     -0.000000     -0.048563
      2.96082      0.04010     12.48308        -0.119713     -0.269733     -0.111868
      5.85269      0.04010     12.48308         0.119713     -0.269733     -0.111868
      1.51514      2.54410     12.48308        -0.293452      0.031192     -0.111868
      7.29838      2.54410     12.48308         0.293452      0.031192     -0.111868
      2.96107      5.04853     12.48308        -0.173739      0.238541     -0.111868
      5.85244      5.04853     12.48308         0.173739      0.238541     -0.111868
      8.81351      5.08848     12.49171         0.000000     -0.000000     -0.022264
      4.40676      2.54424     12.23647         0.000000     -0.000000      1.224103
      4.40676      2.54424     14.08691         0.000000     -0.000000      0.020663
      4.40676      2.54424     15.25362         0.000000     -0.000000     -0.013103
    total drift:                                0.004129      0.002497      0.581502

  FREE ENERGIE OF THE ION-ELECTRON SYSTEM (eV)
  free  energy   TOTEN  =      -131.05075252 eV

  energy  without entropy=     -131.05075252  energy(sigma->0) =     -131.05075252

 stress matrix after NEB project (eV)
    -18.49513     -0.00000      0.00000
     -0.00000    -18.49513      0.00000
     -0.00000      0.00000      3.16775
  FORCES: max atom, RMS     0.020663    0.003969
  FORCE total and by dimension    0.024467    0.020663
  Stress total and by dimension   26.347187   18.495130
|           W    W    AA    RRRRR   N    N  II  N    N   GGGG   !!!           |
|           W    W   A  A   R    R  NN   N  II  NN   N  G    G  !!!           |
|           W    W  A    A  R    R  N N  N  II  N N  N  G       !!!           |
|           W WW W  AAAAAA  RRRRR   N  N N  II  N  N N  G  GGG   !            |
|           WW  WW  A    A  R   R   N   NN  II  N   NN  G    G                |
|           W    W  A    A  R    R  N    N  II  N    N   GGGG   !!!           |
|     Tetrahedron method does not include variations of the Fermi             |
|     occupations, so forces and stress will be inaccurate. We suggest        |
|     using a different smearing scheme ISMEAR = 1 or 2 for metals in         |
|     relaxations.                                                            |

 total charge

# of ion       s       p       d       tot
    1        0.544   0.238   8.769   9.552
    2        0.545   0.240   8.765   9.550
    3        0.545   0.240   8.765   9.550
    4        0.545   0.240   8.765   9.550
    5        0.543   0.242   8.760   9.545
    6        0.545   0.240   8.765   9.550
    7        0.545   0.240   8.765   9.550
    8        0.545   0.240   8.765   9.550
    9        0.541   0.239   8.771   9.551
   10        0.520   0.309   8.768   9.597
   11        0.522   0.307   8.780   9.609
   12        0.520   0.309   8.768   9.597
   13        0.522   0.307   8.780   9.609
   14        0.522   0.307   8.780   9.609
   15        0.513   0.309   8.775   9.597
   16        0.520   0.309   8.768   9.597
   17        0.513   0.309   8.775   9.597
   18        0.513   0.309   8.775   9.597
   19        0.518   0.302   8.775   9.595
   20        0.544   0.330   8.756   9.629
   21        0.544   0.330   8.756   9.629
   22        0.509   0.310   8.774   9.593
   23        0.544   0.330   8.756   9.629
   24        0.509   0.310   8.774   9.593
   25        0.518   0.302   8.775   9.595
   26        0.518   0.302   8.775   9.595
   27        0.509   0.310   8.774   9.593
   28        0.541   0.227   8.772   9.541
   29        0.539   0.245   8.766   9.550
   30        0.539   0.245   8.766   9.550
   31        0.539   0.245   8.766   9.550
   32        0.539   0.245   8.766   9.550
   33        0.539   0.245   8.766   9.550
   34        0.539   0.245   8.766   9.550
   35        0.537   0.227   8.775   9.540
   36        0.615   0.595   7.116   8.327
   37        0.951   1.580   0.000   2.531
   38        1.614   3.528   0.000   5.142
tot         21.774  15.388 314.030 351.192

 BZINTS: Fermi energy:    0.739725;  404.000000 electrons
         Band energy:-0.125086E+04;  BLOECHL correction:   -0.090398